LAMMPS (24 Dec 2020)
OMP_NUM_THREADS environment is not set. Defaulting to 1 thread. (src/comm.cpp:94)
  using 1 OpenMP thread(s) per MPI task
# Simple rigid body system
# needed variables: startTemp, temp

units		lj
atom_style	full
dimension 	3
boundary	p p f
pair_style	lj/cut/opt 2.5

variable 	gcmcdisplace	equal 0
variable 	sigma		equal 1.0
variable 	epsilon 	equal 1.0


read_restart	restart.dat.3000000
Reading restart file ...
  restart file = 24 Dec 2020, LAMMPS = 24 Dec 2020
WARNING: Restart file used different # of processors: 48 vs. 192 (src/read_restart.cpp:697)
  restoring atom style full from restart
  orthogonal box = (0.0000000 0.0000000 0.0000000) to (80.000000 80.000000 160.00000)
  6 by 4 by 8 MPI processor grid
  restoring pair style lj/cut/opt from restart
  439061 atoms
Finding 1-2 1-3 1-4 neighbors ...
  special bond factors lj:    0        0        0       
  special bond factors coul:  0        0        0       
     0 = max # of 1-2 neighbors
     0 = max # of 1-3 neighbors
     0 = max # of 1-4 neighbors
     1 = max # of special neighbors
  special bonds CPU = 1.431 seconds
  read_restart CPU = 1.727 seconds

mass		1 1.0
mass		2 1.0
mass		3 1.0


group		solvent type 1
439061 atoms in group solvent


neighbor 	0.4 bin

pair_coeff	1 1 1.0 1.0
pair_coeff	2 2 0.0 0.0
pair_coeff	3 3 0.0 0.0
pair_coeff	2 3 0.0 0.0
pair_coeff	1 2*3 0.0 0.0

pair_modify 	shift yes


balance 	1.05 shift z 10 1.05
Balancing ...
Neighbor list info ...
  update every 1 steps, delay 10 steps, check yes
  max neighbors/atom: 2000, page size: 100000
  master list distance cutoff = 2.9
  ghost atom cutoff = 2.9
  binsize = 1.45, bins = 56 56 111
  1 neighbor lists, perpetual/occasional/extra = 1 0 0
  (1) pair lj/cut/opt, perpetual
      attributes: half, newton on
      pair build: half/bin/newton
      stencil: half/bin/3d/newton
      bin: standard
 rebalancing time: 0.026 seconds
  iteration count = 5
  initial/final maximal load/proc = 3162.0000 2575.0000
  initial/final imbalance factor  = 1.3827327 1.1260394
  x cuts: 0.0000000 0.16666667 0.33333333 0.50000000 0.66666667 0.83333333 1.0000000
  y cuts: 0.0000000 0.25000000 0.50000000 0.75000000 1.0000000
  z cuts: 0.0000000 0.097656250 0.18359375 0.27734375 0.37890625 0.47656250 0.57031250 0.67968750 1.0000000


####################### WALLS ###########################


variable       epsilonWall equal 2*${epsilon}
variable       epsilonWall equal 2*1

variable       cutoffTop   equal   0.7147*${sigma}
variable       cutoffTop   equal   0.7147*1

variable       cutoffLow   equal   3*${sigma}
variable       cutoffLow   equal   3*1


fix            topWall all wall/lj93 zhi EDGE                ${epsilonWall} ${sigma} ${cutoffTop} units box
fix            topWall all wall/lj93 zhi EDGE                2 ${sigma} ${cutoffTop} units box
fix            topWall all wall/lj93 zhi EDGE                2 1 ${cutoffTop} units box
fix            topWall all wall/lj93 zhi EDGE                2 1 0.7147 units box

fix            lowWall all wall/lj93 zlo EDGE                ${epsilonWall} ${sigma} ${cutoffLow} units box
fix            lowWall all wall/lj93 zlo EDGE                2 ${sigma} ${cutoffLow} units box
fix            lowWall all wall/lj93 zlo EDGE                2 1 ${cutoffLow} units box
fix            lowWall all wall/lj93 zlo EDGE                2 1 3 units box


###################### COMPUTES ##########################

compute        bin1 solvent chunk/atom bin/1d z upper 1.0



######################	FIXES ############################


fix 		peclet solvent ave/chunk 1000 1 1000 bin1 density/number norm 		 none ave one file density.profile

fix 		 temp solvent ave/chunk 1000 1 1000 bin1 temp norm none ave one file temp.profile

fix 		2 solvent nve

## Thermostat


region		regthermo block EDGE EDGE EDGE EDGE 0 20

group 		thermo dynamic solvent region regthermo every 1000
dynamic group thermo defined

fix 		3 thermo langevin ${startTemp} ${temp} 10 156453
fix 		3 thermo langevin 1.0 ${temp} 10 156453
fix 		3 thermo langevin 1.0 1.0 10 156453


## Evaporation

region		regevap block EDGE EDGE EDGE EDGE 140 158
#fix 		gcmc solvent gcmc 100 100 0 1 780493 ${temp} ${mu} ${gcmcdisplace} region regevap
fix 		evap solvent evaporate ${evap} 1 regevap 4379103
fix 		evap solvent evaporate 100 1 regevap 4379103

#### Load balancing

fix 		bal all balance 1000 1.05 shift z 10 1.05

############### Diagnostics and computes ###################
#compute 	com cube	  rigid/local	1 mol x y z
#compute 	quat cube	  rigid/local	1 mol quatw quati quatj quatk

thermo 		1000
thermo_style 	custom step temp epair etotal press pe ke atoms

dump		1 all custom 100000 dump.lammpstrj id mol type x y z
dump 		2 all image 10000 image.*.png type type
dump 		3 all movie 1000 movie.avi type type
#dump 		com cube local 1000 dump.*.xyz c_com[*]
#dump		quat cube      local 1000 dump.*.quat c_quat[*]


restart 	1000000 restart.dat
timestep 	0.005
timer 		full
New timer settings: style=full  mode=nosync  timeout=off


run		5000000
Per MPI rank memory allocation (min/avg/max) = 9.923 | 9.986 | 10.01 Mbytes
Step Temp E_pair TotEng Press PotEng KinEng Atoms 
 3000000     1.016004   -3.1352716   -1.6112691  0.079025997   -3.1352716    1.5240025   439061 
 3001000    1.0147864   -3.1342306   -1.6120198  0.078818121   -3.1342306    1.5222108   439051 
 3002000    1.0163236   -3.1365487   -1.6119973  0.079156009   -3.1365487    1.5245514   439041 
 3003000     1.017653   -3.1378191   -1.6112389  0.070828968   -3.1378191    1.5265803   439031 
 3004000    1.0157751    -3.133523    -1.609725  0.075034081    -3.133523     1.523798   439021 
 3005000    1.0156681   -3.1335244   -1.6098522  0.077343643   -3.1335244    1.5236722   439011 
 3006000    1.0162844   -3.1343228   -1.6096913  0.075046244   -3.1343228    1.5246315   439001 
 3007000    1.0168645    -3.135553   -1.6100166   0.07377488    -3.135553    1.5255365   438991 
 3008000    1.0161783   -3.1337405   -1.6091988  0.074102709   -3.1337405    1.5245417   438981 
 3009000    1.0176785    -3.135996   -1.6091687  0.077178041    -3.135996    1.5268272   438971 
 3010000    1.0161765   -3.1329931   -1.6083846  0.080888762   -3.1329931    1.5246085   438961 
 3011000    1.0161653     -3.13284   -1.6082135  0.076741282     -3.13284    1.5246265   438951 
 3012000    1.0170737   -3.1355354   -1.6095112  0.077034061   -3.1355354    1.5260242   438941 
 3013000    1.0157841   -3.1330944   -1.6089705  0.081247374   -3.1330944    1.5241239   438931 
 3014000    1.0177543   -3.1353851   -1.6082702  0.082216755   -3.1353851    1.5271149   438921 
 3015000    1.0153052   -3.1329106   -1.6094358  0.074940782   -3.1329106    1.5234748   438911 
 3016000    1.0153503   -3.1322324   -1.6086552  0.074851769   -3.1322324    1.5235772   438901 
 3017000    1.0159954   -3.1326897   -1.6081098  0.077131243   -3.1326897    1.5245799   438891 
 3018000    1.0158092    -3.132978   -1.6086428  0.077252432    -3.132978    1.5243352   438881 
 3019000    1.0153226   -3.1318821   -1.6082424  0.076119077   -3.1318821    1.5236397   438871 
 3020000    1.0154485   -3.1323746   -1.6085113  0.070786023   -3.1323746    1.5238634   438861 
 3021000     1.015254   -3.1298435   -1.6062372    0.0789066   -3.1298435    1.5236063   438851 
 3022000    1.0166574   -3.1336295   -1.6078824  0.078589598   -3.1336295    1.5257471   438841 
 3023000    1.0169487   -3.1321911    -1.605972  0.082883934   -3.1321911    1.5262191   438831 
 3024000    1.0145265   -3.1291777   -1.6065591  0.080585533   -3.1291777    1.5226186   438821 
 3025000    1.0163246   -3.1316629   -1.6063109  0.071129646   -3.1316629     1.525352   438811 
 3026000    1.0178249   -3.1334307   -1.6057923  0.072530081   -3.1334307    1.5276384   438801 
 3027000    1.0170074   -3.1326835   -1.6062372   0.07612502   -3.1326835    1.5264463   438791 
 3028000     1.016779   -3.1324058   -1.6062675  0.077643669   -3.1324058    1.5261383   438781 
 3029000    1.0158147   -3.1327356     -1.60801  0.069612861   -3.1327356    1.5247256   438771 
 3030000    1.0156175   -3.1329317   -1.6084673  0.074546993   -3.1329317    1.5244644   438761 
 3031000    1.0155256   -3.1332219   -1.6088608  0.077344792   -3.1332219    1.5243612   438751 
 3032000    1.0169496   -3.1349598   -1.6084262  0.074265643   -3.1349598    1.5265336   438741 
 3033000    1.0166753    -3.134766   -1.6086094  0.074268675    -3.134766    1.5261566   438731 
 3034000    1.0135657   -3.1321334     -1.61061  0.073586073   -3.1321334    1.5215234   438721 
 3035000    1.0152604   -3.1334907   -1.6093886  0.075306915   -3.1334907    1.5241021   438711 
 3036000    1.0149435   -3.1328654   -1.6092043  0.071313631   -3.1328654    1.5236611   438701 
 3037000    1.0135823   -3.1317529   -1.6101006  0.080307759   -3.1317529    1.5216524   438691 
 3038000    1.0152976    -3.134653   -1.6103909  0.083583941    -3.134653    1.5242621   438681 
 3039000    1.0154093   -3.1359543   -1.6114897  0.077394745   -3.1359543    1.5244646   438671 
 3040000    1.0148767   -3.1358692   -1.6121695  0.071879101   -3.1358692    1.5236997   438661 
 3041000    1.0167336   -3.1369488   -1.6104264  0.075455208   -3.1369488    1.5265224   438651 
 3042000    1.0163227   -3.1363916   -1.6104512  0.075116295   -3.1363916    1.5259403   438641 
 3043000    1.0165723   -3.1379258   -1.6115759  0.079660649   -3.1379258    1.5263499   438631 
 3044000    1.0167989   -3.1381639   -1.6114391  0.077778211   -3.1381639    1.5267248   438621 
 3045000    1.0160996   -3.1366212   -1.6109115  0.079208693   -3.1366212    1.5257097   438611 
 3046000      1.01521   -3.1377599   -1.6133513  0.075738696   -3.1377599    1.5244086   438601 
 3047000    1.0164434   -3.1389734   -1.6126779  0.079016639   -3.1389734    1.5262955   438591 
 3048000    1.0170897   -3.1393006   -1.6119998  0.077551502   -3.1393006    1.5273008   438581 
 3049000    1.0151705   -3.1374528   -1.6129993  0.079781232   -3.1374528    1.5244535   438571 
 3050000    1.0153056   -3.1389832    -1.614292  0.077197705   -3.1389832    1.5246913   438561 
 3051000    1.0140872   -3.1384007   -1.6155045  0.076347462   -3.1384007    1.5228962   438551 
 3052000    1.0156621   -3.1404874   -1.6151912  0.075195382   -3.1404874    1.5252961   438541 
 3053000    1.0160329   -3.1409653   -1.6150775  0.076713319   -3.1409653    1.5258878   438531 
 3054000    1.0143323   -3.1386598   -1.6152913  0.070668805   -3.1386598    1.5233685   438521 
 3055000    1.0149623   -3.1399341   -1.6155846  0.077410004   -3.1399341    1.5243495   438511 
 3056000     1.014316   -3.1402933   -1.6168796  0.072462402   -3.1402933    1.5234136   438501 
 3057000    1.0149574   -3.1410739   -1.6166622  0.076998346   -3.1410739    1.5244117   438491 
 3058000    1.0144111   -3.1417773   -1.6181515  0.074455259   -3.1417773    1.5236258   438481 
 3059000    1.0134885   -3.1394524   -1.6171774   0.07585185   -3.1394524    1.5222749   438471 
 3060000    1.0130675   -3.1389427   -1.6172655  0.076297551   -3.1389427    1.5216772   438461 
 3061000    1.0142263   -3.1390453   -1.6155927  0.077728598   -3.1390453    1.5234526   438451 
 3062000    1.0130278   -3.1373901    -1.615703  0.070964985   -3.1373901     1.521687   438441 
 3063000    1.0134623   -3.1359563    -1.613582  0.072394693   -3.1359563    1.5223743   438431 
 3064000    1.0141818   -3.1382561   -1.6147662  0.076501084   -3.1382561    1.5234899   438421 
 3065000    1.0134561   -3.1383287   -1.6158942  0.072649376   -3.1383287    1.5224346   438411 
 3066000    1.0122607   -3.1366404    -1.615967  0.071120555   -3.1366404    1.5206735   438401 
 3067000    1.0119058   -3.1372896   -1.6171147   0.07850413   -3.1372896    1.5201749   438391 
 3068000    1.0136489   -3.1387072   -1.6158789  0.072266726   -3.1387072    1.5228283   438381 
 3069000    1.0140709   -3.1390765   -1.6155793  0.077808942   -3.1390765    1.5234972   438371 
 3070000    1.0120503   -3.1348832    -1.614387  0.074927736   -3.1348832    1.5204962   438361 
 3071000    1.0125062   -3.1368239   -1.6156081  0.067697638   -3.1368239    1.5212157   438351 
 3072000    1.0129158   -3.1378557   -1.6159898  0.072996613   -3.1378557    1.5218659   438341 
 3073000    1.0119159   -3.1365495   -1.6161513  0.071269763   -3.1365495    1.5203983   438331 
 3074000    1.0128673   -3.1368949   -1.6150324  0.079866239   -3.1368949    1.5218625   438321 
 3075000    1.0138607   -3.1389655   -1.6155757  0.072485513   -3.1389655    1.5233898   438311 
 3076000    1.0129631   -3.1387279   -1.6166521  0.075602937   -3.1387279    1.5220759   438301 
 3077000    1.0122652   -3.1367899    -1.615728  0.078051496   -3.1367899    1.5210619   438291 
 3078000     1.012395   -3.1381857    -1.616894  0.074966595   -3.1381857    1.5212917   438281 
 3079000     1.013436   -3.1392286    -1.616338  0.077117607   -3.1392286    1.5228907   438271 
 3080000      1.01249   -3.1378236   -1.6163197  0.065455359   -3.1378236    1.5215039   438261 
 3081000    1.0125076   -3.1375866   -1.6160215  0.079105139   -3.1375866     1.521565   438251 
 3082000    1.0114286   -3.1377883   -1.6178101  0.071845509   -3.1377883    1.5199782   438241 
 3083000    1.0105958   -3.1360739   -1.6173126  0.075017972   -3.1360739    1.5187614   438231 
 3084000    1.0119263   -3.1389241   -1.6181285   0.07009552   -3.1389241    1.5207956   438221 
 3085000     1.011432    -3.138099   -1.6180117   0.07299198    -3.138099    1.5200874   438211 
 3086000    1.0127662   -3.1409837   -1.6188564   0.07452583   -3.1409837    1.5221272   438201 
 3087000    1.0135612   -3.1424086   -1.6190517  0.073651931   -3.1424086    1.5233569   438191 
 3088000    1.0130126   -3.1405884   -1.6180213  0.073004365   -3.1405884    1.5225671   438181 
 3089000     1.014369   -3.1407365    -1.616096  0.076998415   -3.1407365    1.5246406   438171 
 3090000    1.0132225   -3.1399038   -1.6169517  0.078450719   -3.1399038    1.5229521   438161 
 3091000    1.0142142   -3.1415788   -1.6171013  0.075785688   -3.1415788    1.5244775   438151 
 3092000    1.0128345   -3.1410002   -1.6185618  0.077265786   -3.1410002    1.5224384   438141 
 3093000    1.0139706   -3.1416533   -1.6174724  0.079694699   -3.1416533    1.5241809   438131 
 3094000    1.0149695   -3.1414953    -1.615778  0.078721481   -3.1414953    1.5257173   438121 
 3095000    1.0161388   -3.1438833   -1.6163735  0.078121467   -3.1438833    1.5275098   438111 
 3096000    1.0150218   -3.1432566   -1.6173911  0.076941126   -3.1432566    1.5258655   438101 
 3097000    1.0158122    -3.143918   -1.6168295  0.083528317    -3.143918    1.5270886   438091 
 3098000      1.01538   -3.1434852   -1.6170116   0.08199286   -3.1434852    1.5264737   438081 
 3099000    1.0131203   -3.1413281   -1.6182168  0.078443977   -3.1413281    1.5231114   438071 
 3100000     1.014248   -3.1432689   -1.6184274  0.071834618   -3.1432689    1.5248415   438061 
 3101000     1.012909   -3.1411187   -1.6182555  0.074810469   -3.1411187    1.5228632   438051 
 3102000    1.0127159   -3.1414354   -1.6188278  0.076202008   -3.1414354    1.5226076   438041 
 3103000    1.0138789   -3.1421063   -1.6177154  0.072958446   -3.1421063    1.5243909   438031 
 3104000    1.0129334   -3.1414447   -1.6184405  0.072740114   -3.1414447    1.5230042   438021 
 3105000    1.0119334   -3.1408531   -1.6193177  0.077897638   -3.1408531    1.5215353   438011 
 3106000    1.0121728   -3.1411476   -1.6192175  0.073676861   -3.1411476    1.5219301   438001 
 3107000    1.0134621   -3.1444903   -1.6205869  0.069319574   -3.1444903    1.5239034   437991 
 3108000    1.0115792   -3.1418653   -1.6207583  0.075288527   -3.1418653    1.5211069   437981 
 3109000    1.0124242   -3.1417597   -1.6193475  0.073463856   -3.1417597    1.5224123   437971 
 3110000    1.0117726   -3.1412335   -1.6197664   0.07460148   -3.1412335    1.5214672   437961 
 3111000    1.0128692   -3.1425212   -1.6193701  0.074082714   -3.1425212    1.5231511   437951 
 3112000    1.0137516    -3.141499   -1.6169863  0.074753364    -3.141499    1.5245127   437941 
 3113000    1.0134921   -3.1415833   -1.6174258  0.076411496   -3.1415833    1.5241574   437931 
 3114000    1.0147462   -3.1429615   -1.6168833  0.073384526   -3.1429615    1.5260782   437921 
 3115000    1.0128155   -3.1425657   -1.6193563   0.07656038   -3.1425657    1.5232094   437911 
 3116000    1.0121306   -3.1413645   -1.6191504  0.079182001   -3.1413645    1.5222141   437901 
 3117000    1.0127761   -3.1408007   -1.6175811  0.075963228   -3.1408007    1.5232197   437891 
 3118000    1.0143503   -3.1438026   -1.6181804  0.074384345   -3.1438026    1.5256222   437881 
 3119000    1.0123931   -3.1413575   -1.6186442  0.077261227   -3.1413575    1.5227133   437871 
 3120000    1.0122192   -3.1399339   -1.6174474   0.07628346   -3.1399339    1.5224865   437861 
 3121000    1.0116425   -3.1398881   -1.6182344  0.075733166   -3.1398881    1.5216538   437851 
 3122000    1.0125523   -3.1414957   -1.6184386  0.082196652   -3.1414957     1.523057   437841 
 3123000    1.0122521   -3.1400358   -1.6173954  0.079262418   -3.1400358    1.5226403   437831 
 3124000    1.0123287   -3.1406539   -1.6178637  0.076347761   -3.1406539    1.5227902   437821 
 3125000    1.0114029   -3.1406404   -1.6192081  0.076747195   -3.1406404    1.5214324   437811 
 3126000     1.012175   -3.1426738   -1.6200452  0.072530547   -3.1426738    1.5226287   437801 
 3127000    1.0108199   -3.1411526   -1.6205278  0.070959165   -3.1411526    1.5206248   437791 
 3128000    1.0114971   -3.1417249   -1.6200465   0.07281581   -3.1417249    1.5216783   437781 
 3129000    1.0119934   -3.1412452   -1.6187854  0.071561417   -3.1412452    1.5224597   437771 
 3130000     1.011908   -3.1413507   -1.6189846  0.078265099   -3.1413507    1.5223661   437761 
 3131000    1.0096717   -3.1390421   -1.6200058  0.069944374   -3.1390421    1.5190363   437751 
 3132000     1.010531    -3.139212    -1.618848  0.078202695    -3.139212    1.5203639   437741 
 3133000    1.0116913   -3.1419237   -1.6197794  0.077593596   -3.1419237    1.5221443   437731 
 3134000    1.0118222   -3.1410988   -1.6187227  0.075263051   -3.1410988    1.5223761   437721 
 3135000    1.0112592   -3.1404717   -1.6189079  0.080502368   -3.1404717    1.5215638   437711 
 3136000    1.0123877   -3.1415609   -1.6182645  0.075169708   -3.1415609    1.5232965   437701 
 3137000    1.0130426   -3.1409831   -1.6166664  0.075657866   -3.1409831    1.5243167   437691 
 3138000     1.011714   -3.1388752   -1.6165227  0.081010286   -3.1388752    1.5223524   437681 
 3139000    1.0128952   -3.1423321   -1.6181675  0.075548585   -3.1423321    1.5241647   437671 
 3140000    1.0125845   -3.1408203   -1.6170883   0.07904134   -3.1408203     1.523732   437661 
 3141000    1.0122395   -3.1413745   -1.6181269  0.076348724   -3.1413745    1.5232476   437651 
 3142000    1.0120415   -3.1414542   -1.6184698  0.080778705   -3.1414542    1.5229844   437641 
 3143000    1.0120789   -3.1397155   -1.6166401  0.075656588   -3.1397155    1.5230755   437631 
 3144000    1.0117761   -3.1400916    -1.617437  0.073346387   -3.1400916    1.5226546   437621 
 3145000    1.0116367   -3.1420602   -1.6195805  0.069640222   -3.1420602    1.5224796   437611 
 3146000    1.0101711   -3.1389689   -1.6186602  0.073768565   -3.1389689    1.5203086   437601 
 3147000    1.0113155   -3.1416277   -1.6195619   0.06934248   -3.1416277    1.5220658   437591 
 3148000    1.0112494    -3.141164   -1.6191628  0.075596207    -3.141164    1.5220011   437581 
 3149000    1.0107699   -3.1412409   -1.6199267  0.067684259   -3.1412409    1.5213142   437571 
 3150000    1.0116647   -3.1418647   -1.6191689  0.074589574   -3.1418647    1.5226958   437561 
 3151000     1.010824    -3.140334   -1.6188689    0.0712677    -3.140334    1.5214651   437551 
 3152000    1.0115954   -3.1421187   -1.6194578  0.074604189   -3.1421187     1.522661   437541 
 3153000    1.0108866   -3.1400693   -1.6184404  0.070779958   -3.1400693    1.5216289   437531 
 3154000    1.0117691   -3.1419085   -1.6189165  0.070839687   -3.1419085     1.522992   437521 
 3155000    1.0094009   -3.1393961   -1.6199341  0.075980236   -3.1393961     1.519462   437511 
 3156000    1.0123778   -3.1449253   -1.6209472  0.070532567   -3.1449253    1.5239781   437501 
 3157000      1.00943   -3.1403691   -1.6207938  0.069995631   -3.1403691    1.5195753   437491 
 3158000     1.010994   -3.1420272   -1.6200628  0.079328552   -3.1420272    1.5219644   437481 
 3159000    1.0109818   -3.1415746   -1.6195936  0.074217492   -3.1415746     1.521981   437471 
 3160000    1.0092455   -3.1385024   -1.6191007  0.072766852   -3.1385024    1.5194017   437461 
 3161000    1.0106593   -3.1396979    -1.618133  0.073261215   -3.1396979    1.5215649   437451 
 3162000    1.0103579   -3.1400467   -1.6189007  0.077175914   -3.1400467     1.521146   437441 
 3163000    1.0101217   -3.1394233   -1.6185982  0.079057703   -3.1394233    1.5208251   437431 
 3164000    1.0104285    -3.139749   -1.6184273  0.075609604    -3.139749    1.5213218   437421 
 3165000    1.0124222   -3.1435197   -1.6191613   0.07801105   -3.1435197    1.5243584   437411 
 3166000    1.0109016   -3.1437833   -1.6216796  0.070554374   -3.1437833    1.5221037   437401 
 3167000    1.0101753    -3.141797   -1.6207522  0.076259304    -3.141797    1.5210449   437391 
 3168000    1.0114854    -3.143761   -1.6207087  0.074213268    -3.143761    1.5230524   437381 
 3169000    1.0118404   -3.1450806   -1.6214589  0.072465174   -3.1450806    1.5236217   437371 
 3170000     1.011131   -3.1441025   -1.6215141   0.07472159   -3.1441025    1.5225883   437361 
 3171000    1.0104886   -3.1438214   -1.6221657  0.075944541   -3.1438214    1.5216557   437351 
 3172000    1.0086786   -3.1420213   -1.6230563  0.075724002   -3.1420213     1.518965   437341 
 3173000    1.0094201   -3.1432742   -1.6231579  0.069076331   -3.1432742    1.5201163   437331 
 3174000    1.0103375   -3.1438619   -1.6223293  0.073025357   -3.1438619    1.5215326   437321 
 3175000    1.0103225   -3.1449388    -1.623394  0.072223413   -3.1449388    1.5215448   437311 
 3176000    1.0096069   -3.1451173   -1.6246154  0.074115499   -3.1451173     1.520502   437301 
 3177000    1.0079475   -3.1432615   -1.6252239  0.072469878   -3.1432615    1.5180376   437291 
 3178000    1.0108431   -3.1455028   -1.6230695  0.073724362   -3.1455028    1.5224333   437281 
 3179000    1.0102961   -3.1458198   -1.6241756  0.075311995   -3.1458198    1.5216442   437271 
 3180000    1.0088928   -3.1441734    -1.624608  0.078443458   -3.1441734    1.5195654   437261 
 3181000    1.0108398   -3.1460284   -1.6234956  0.072265346   -3.1460284    1.5225328   437251 
 3182000    1.0111297   -3.1477258   -1.6247215  0.070571196   -3.1477258    1.5230043   437241 
 3183000    1.0100967   -3.1463031   -1.6248201   0.06938586   -3.1463031    1.5214831   437231 
 3184000    1.0103218   -3.1459848   -1.6241278  0.077062269   -3.1459848     1.521857   437221 
 3185000    1.0101309   -3.1471585   -1.6255542  0.073763099   -3.1471585    1.5216042   437211 
 3186000     1.008721   -3.1457272    -1.626212   0.07522327   -3.1457272    1.5195152   437201 
 3187000    1.0102947   -3.1475237   -1.6256031  0.076337145   -3.1475237    1.5219206   437191 
 3188000    1.0106928   -3.1467168   -1.6241616  0.077047228   -3.1467168    1.5225551   437181 
 3189000     1.010959   -3.1470657   -1.6240747  0.078449838   -3.1470657     1.522991   437171 
 3190000    1.0097696    -3.146927   -1.6256931  0.075434454    -3.146927    1.5212339   437161 
 3191000    1.0120898   -3.1497618   -1.6249975  0.080424399   -3.1497618    1.5247643   437151 
 3192000    1.0089753   -3.1458093   -1.6257025  0.074876348   -3.1458093    1.5201068   437141 
 3193000    1.0122239   -3.1498148   -1.6247787  0.076320762   -3.1498148     1.525036   437131 
 3194000     1.010772   -3.1486548   -1.6257714   0.07520026   -3.1486548    1.5228834   437121 
 3195000    1.0099825   -3.1484605   -1.6267318  0.070739535   -3.1484605    1.5217287   437111 
 3196000    1.0092568   -3.1475185   -1.6268484  0.071564899   -3.1475185    1.5206701   437101 
 3197000      1.00994   -3.1485393    -1.626805  0.074438215   -3.1485393    1.5217343   437091 
 3198000    1.0099515   -3.1475737   -1.6257872  0.069948834   -3.1475737    1.5217865   437081 
 3199000    1.0093111   -3.1472354   -1.6263789  0.068919936   -3.1472354    1.5208564   437071 
 3200000    1.0081856   -3.1460532   -1.6268581  0.073009047   -3.1460532    1.5191951   437061 
 3201000    1.0097046   -3.1479421   -1.6264232  0.074011847   -3.1479421    1.5215189   437051 
 3202000     1.009633   -3.1488015   -1.6273557  0.073197888   -3.1488015    1.5214457   437041 
 3203000    1.0095896   -3.1481969   -1.6267817  0.072943013   -3.1481969    1.5214152   437031 
 3204000    1.0079766   -3.1462094   -1.6271902  0.075101827   -3.1462094    1.5190192   437021 
 3205000    1.0107341   -3.1496599   -1.6264503  0.076178897   -3.1496599    1.5232097   437011 
 3206000    1.0087419    -3.147114   -1.6268718  0.076599447    -3.147114    1.5202422   437001 
 3207000    1.0093255   -3.1471612   -1.6260048  0.071683348   -3.1471612    1.5211564   436991 
 3208000    1.0061893   -3.1431879   -1.6267233  0.078186035   -3.1431879    1.5164646   436981 
 3209000    1.0084824   -3.1464736   -1.6265183  0.068116677   -3.1464736    1.5199554   436971 
 3210000    1.0100214   -3.1492186   -1.6269088  0.075474307   -3.1492186    1.5223098   436961 
 3211000     1.008595   -3.1462049   -1.6260102  0.077483826   -3.1462049    1.5201947   436951 
 3212000    1.0081615   -3.1473688   -1.6277928  0.076846876   -3.1473688    1.5195761   436941 
 3213000    1.0086609    -3.147792   -1.6274284  0.070546867    -3.147792    1.5203636   436931 
 3214000    1.0092287   -3.1492351   -1.6279808  0.067302586   -3.1492351    1.5212543   436921 
 3215000    1.0080967   -3.1476491   -1.6280664  0.067417523   -3.1476491    1.5195827   436911 
 3216000    1.0084989   -3.1488227    -1.628599  0.070945516   -3.1488227    1.5202238   436901 
 3217000    1.0100996   -3.1496216     -1.62695  0.071961115   -3.1496216    1.5226716   436891 
 3218000    1.0096302   -3.1501236   -1.6281248  0.072722542   -3.1501236    1.5219988   436881 
 3219000    1.0087574   -3.1494416   -1.6287238  0.071718998   -3.1494416    1.5207178   436871 
 3220000    1.0069258    -3.145463   -1.6274715  0.076877512    -3.145463    1.5179915   436861 
 3221000    1.0091988   -3.1490793   -1.6276264  0.074044986   -3.1490793    1.5214529   436851 
 3222000    1.0074711   -3.1480531   -1.6291701  0.074009371   -3.1480531     1.518883   436841 
 3223000    1.0089693   -3.1499137   -1.6287371  0.077909102   -3.1499137    1.5211766   436831 
 3224000    1.0099371    -3.151711   -1.6290403  0.072819804    -3.151711    1.5226706   436821 
 3225000    1.0089493   -3.1500943   -1.6288782  0.071213218   -3.1500943    1.5212161   436811 
 3226000    1.0084644   -3.1484833   -1.6279635  0.075513479   -3.1484833    1.5205198   436801 
 3227000    1.0074025   -3.1488317   -1.6298782  0.071599151   -3.1488317    1.5189534   436791 
 3228000    1.0089649   -3.1505139   -1.6291698  0.073180724   -3.1505139    1.5213441   436781 
 3229000    1.0089134   -3.1493688   -1.6280675  0.074497355   -3.1493688    1.5213013   436771 
 3230000    1.0068136   -3.1487607   -1.6305909  0.076021247   -3.1487607    1.5181698   436761 
 3231000    1.0070943    -3.150608   -1.6319802  0.073352928    -3.150608    1.5186278   436751 
 3232000    1.0074367   -3.1504715   -1.6312926   0.07240262   -3.1504715    1.5191789   436741 
 3233000    1.0083408   -3.1511842    -1.630607  0.069364006   -3.1511842    1.5205772   436731 
 3234000    1.0086234   -3.1506943   -1.6296562  0.074404497   -3.1506943    1.5210382   436721 
 3235000    1.0083404   -3.1515025   -1.6308564  0.074423931   -3.1515025    1.5206461   436711 
 3236000    1.0075694   -3.1516291   -1.6321109  0.074678547   -3.1516291    1.5195182   436701 
 3237000    1.0094542   -3.1533071   -1.6309116  0.075102358   -3.1533071    1.5223956   436691 
 3238000    1.0093523    -3.152247   -1.6299703  0.076418274    -3.152247    1.5222767   436681 
 3239000    1.0088592   -3.1510488   -1.6294809  0.075097969   -3.1510488    1.5215679   436671 
 3240000    1.0081734   -3.1518896   -1.6313212  0.073283265   -3.1518896    1.5205684   436661 
 3241000    1.0081668   -3.1515014   -1.6309082  0.074998077   -3.1515014    1.5205932   436651 
 3242000    1.0094111    -3.153471   -1.6309662  0.073835778    -3.153471    1.5225048   436641 
 3243000     1.008544    -3.151647   -1.6304152  0.074257078    -3.151647    1.5212318   436631 
 3244000    1.0088146   -3.1538005   -1.6321256  0.071823942   -3.1538005    1.5216749   436621 
 3245000    1.0073384   -3.1531808   -1.6336978  0.075636291   -3.1531808     1.519483   436611 
 3246000    1.0078715   -3.1538597   -1.6335377  0.075071352   -3.1538597    1.5203219   436601 
 3247000    1.0067544   -3.1528474   -1.6341758  0.073468454   -3.1528474    1.5186716   436591 
 3248000    1.0075561    -3.153117   -1.6332011  0.073047315    -3.153117    1.5199159   436581 
 3249000    1.0078017   -3.1517746   -1.6314535  0.069952215   -3.1517746    1.5203211   436571 
 3250000    1.0080403    -3.153104   -1.6323881  0.073595833    -3.153104    1.5207158   436561 
 3251000    1.0074358   -3.1538352   -1.6339964  0.073648159   -3.1538352    1.5198387   436551 
 3252000    1.0070872   -3.1531023   -1.6337547  0.078135184   -3.1531023    1.5193477   436541 
 3253000    1.0081816   -3.1535587   -1.6325251  0.070180505   -3.1535587    1.5210336   436531 
 3254000    1.0075922   -3.1523868   -1.6322077  0.071997567   -3.1523868    1.5201791   436521 
 3255000    1.0076077   -3.1523337   -1.6320963   0.07651393   -3.1523337    1.5202374   436511 
 3256000    1.0088757   -3.1542768   -1.6320915  0.069757857   -3.1542768    1.5221854   436501 
 3257000    1.0082564   -3.1529111   -1.6316253  0.074071659   -3.1529111    1.5212859   436491 
 3258000    1.0071744   -3.1522655   -1.6325774  0.075807953   -3.1522655    1.5196882   436481 
 3259000    1.0091929   -3.1534399   -1.6306713  0.072034722   -3.1534399    1.5227686   436471 
 3260000    1.0086792   -3.1534733   -1.6314449  0.076015546   -3.1534733    1.5220284   436461 
 3261000    1.0075952   -3.1524307   -1.6320032  0.075406816   -3.1524307    1.5204275   436451 
 3262000    1.0068524   -3.1535313   -1.6341899  0.074804574   -3.1535313    1.5193414   436441 
 3263000    1.0077879   -3.1551366   -1.6343486  0.073671102   -3.1551366     1.520788   436431 
 3264000    1.0076386   -3.1552901   -1.6346925  0.077398739   -3.1552901    1.5205975   436421 
 3265000    1.0075104   -3.1562101   -1.6357713  0.071658359   -3.1562101    1.5204389   436411 
 3266000    1.0070298   -3.1537234   -1.6339748  0.074825671   -3.1537234    1.5197485   436401 
 3267000    1.0070721   -3.1539559   -1.6341088  0.073496492   -3.1539559    1.5198471   436391 
 3268000    1.0062876   -3.1541243   -1.6354263  0.074625761   -3.1541243     1.518698   436381 
 3269000    1.0072144    -3.154948   -1.6348164  0.072608757    -3.154948    1.5201316   436371 
 3270000    1.0062336   -3.1536253   -1.6349392  0.075424098   -3.1536253    1.5186861   436361 
 3271000    1.0063209   -3.1548222   -1.6359696  0.075715881   -3.1548222    1.5188526   436351 
 3272000    1.0060315   -3.1542429   -1.6357923  0.075639497   -3.1542429    1.5184507   436341 
 3273000    1.0073102   -3.1558701   -1.6354546  0.073293129   -3.1558701    1.5204155   436331 
 3274000     1.005987   -3.1563925   -1.6379394  0.070232562   -3.1563925    1.5184531   436321 
 3275000    1.0060058   -3.1557075   -1.6371911   0.07816448   -3.1557075    1.5185163   436311 
 3276000    1.0080513   -3.1570217   -1.6353829  0.075385874   -3.1570217    1.5216388   436301 
 3277000    1.0070659   -3.1570818   -1.6368958  0.069567424   -3.1570818    1.5201861   436291 
 3278000    1.0079321   -3.1579518   -1.6364233  0.074155031   -3.1579518    1.5215285   436281 
 3279000    1.0066563   -3.1575878   -1.6379503  0.074643759   -3.1575878    1.5196375   436271 
 3280000    1.0054115   -3.1562203   -1.6384271  0.073611531   -3.1562203    1.5177932   436261 
 3281000    1.0059981   -3.1568067   -1.6380932  0.068892503   -3.1568067    1.5187135   436251 
 3282000    1.0061294   -3.1569641   -1.6380176  0.071579216   -3.1569641    1.5189465   436241 
 3283000    1.0068964   -3.1566904    -1.636551  0.073427377   -3.1566904    1.5201394   436231 
 3284000    1.0074781   -3.1571077   -1.6360553   0.07604981   -3.1571077    1.5210524   436221 
 3285000     1.006144   -3.1549723   -1.6358992  0.074952794   -3.1549723    1.5190731   436211 
 3286000    1.0073089   -3.1558265   -1.6349597  0.071646446   -3.1558265    1.5208668   436201 
 3287000    1.0070903   -3.1560022   -1.6354306  0.077707153   -3.1560022    1.5205716   436191 
 3288000    1.0081152    -3.157406   -1.6352522  0.076602177    -3.157406    1.5221538   436181 
 3289000    1.0076478   -3.1563624   -1.6348794  0.075369343   -3.1563624     1.521483   436171 
 3290000    1.0081284   -3.1575197   -1.6352762  0.076608171   -3.1575197    1.5222435   436161 
 3291000    1.0084302    -3.157757   -1.6350228  0.075083512    -3.157757    1.5227342   436151 
 3292000    1.0062665   -3.1563792   -1.6368774  0.072892877   -3.1563792    1.5195018   436141 
 3293000    1.0062569   -3.1561992    -1.636677  0.069555023   -3.1561992    1.5195222   436131 
 3294000    1.0056374   -3.1555388   -1.6369174  0.071000799   -3.1555388    1.5186214   436121 
 3295000    1.0058124   -3.1551767   -1.6362562  0.076283865   -3.1551767    1.5189206   436111 
 3296000    1.0061668   -3.1554172   -1.6359266  0.072625483   -3.1554172    1.5194906   436101 
 3297000     1.005313   -3.1550386   -1.6368026  0.074349421   -3.1550386    1.5182361   436091 
 3298000     1.004557   -3.1537803   -1.6366511  0.076041782   -3.1537803    1.5171292   436081 
 3299000    1.0055984   -3.1532238   -1.6344871  0.077382287   -3.1532238    1.5187367   436071 
 3300000     1.005926   -3.1545591   -1.6352927  0.071112164   -3.1545591    1.5192664   436061 
 3301000     1.005274   -3.1534999   -1.6351835  0.069782581   -3.1534999    1.5183164   436051 
 3302000    1.0056314   -3.1535317   -1.6346407  0.073142541   -3.1535317     1.518891   436041 
 3303000      1.00629   -3.1534382   -1.6335175   0.07125948   -3.1534382    1.5199207   436031 
 3304000    1.0039193    -3.150371   -1.6339963   0.07137431    -3.150371    1.5163747   436021 
 3305000    1.0056754   -3.1536691    -1.634607  0.075558867   -3.1536691    1.5190621   436011 
 3306000    1.0052896   -3.1534189   -1.6349048  0.070533108   -3.1534189    1.5185141   436001 
 3307000    1.0052018     -3.15204   -1.6336237  0.072808691     -3.15204    1.5184163   435991 
 3308000    1.0049566   -3.1531636   -1.6350828  0.071338093   -3.1531636    1.5180807   435981 
 3309000    1.0064899   -3.1542428    -1.633811  0.070942335   -3.1542428    1.5204317   435971 
 3310000    1.0067812   -3.1538518    -1.632945  0.072358605   -3.1538518    1.5209068   435961 
 3311000    1.0041934   -3.1510114   -1.6339792  0.072888488   -3.1510114    1.5170322   435951 
 3312000     1.004774   -3.1524405   -1.6344962  0.069821192   -3.1524405    1.5179442   435941 
 3313000    1.0064835   -3.1548517   -1.6342901  0.067572555   -3.1548517    1.5205616   435931 
 3314000    1.0054227   -3.1522725   -1.6332787  0.070442219   -3.1522725    1.5189938   435921 
 3315000    1.0061751   -3.1550463   -1.6348807  0.072229569   -3.1550463    1.5201656   435911 
 3316000    1.0068738   -3.1563288   -1.6350728  0.076365792   -3.1563288    1.5212559   435901 
 3317000    1.0056751   -3.1550935   -1.6356138   0.07170287   -3.1550935    1.5194797   435891 
 3318000    1.0051404   -3.1551652   -1.6364584  0.076995334   -3.1551652    1.5187068   435881 
 3319000    1.0044364   -3.1541816   -1.6365037  0.080796215   -3.1541816    1.5176779   435871 
 3320000    1.0053201   -3.1551652   -1.6361173   0.07293636   -3.1551652    1.5190479   435861 
 3321000    1.0054337   -3.1548024   -1.6355479  0.067347764   -3.1548024    1.5192545   435851 
 3322000    1.0053606   -3.1551844   -1.6360055  0.073752858   -3.1551844    1.5191789   435841 
 3323000    1.0043016   -3.1542638   -1.6366503  0.071252767   -3.1542638    1.5176134   435831 
 3324000    1.0054831   -3.1556038   -1.6361701  0.068742896   -3.1556038    1.5194337   435821 
 3325000    1.0061679   -3.1562183   -1.6357149  0.077360411   -3.1562183    1.5205034   435811 
 3326000    1.0052598   -3.1557537   -1.6365877  0.076506059   -3.1557537    1.5191659   435801 
 3327000    1.0058407   -3.1575109   -1.6374322  0.070592367   -3.1575109    1.5200787   435791 
 3328000    1.0042434    -3.155871   -1.6381713  0.075946541    -3.155871    1.5176997   435781 
 3329000    1.0069623   -3.1595774   -1.6377338  0.073731341   -3.1595774    1.5218436   435771 
 3330000    1.0065468   -3.1588673   -1.6376168  0.071482006   -3.1588673    1.5212505   435761 
 3331000    1.0058857   -3.1576372   -1.6373509  0.071383194   -3.1576372    1.5202863   435751 
 3332000    1.0051474   -3.1564806   -1.6372754  0.073439016   -3.1564806    1.5192053   435741 
 3333000    1.0066009   -3.1575544   -1.6361174  0.075344372   -3.1575544     1.521437   435731 
 3334000    1.0052931   -3.1559255   -1.6364303  0.079185356   -3.1559255    1.5194952   435721 
 3335000    1.0059165   -3.1567371   -1.6362647   0.07689405   -3.1567371    1.5204724   435711 
 3336000    1.0060632   -3.1578542   -1.6371251  0.076130004   -3.1578542    1.5207291   435701 
 3337000     1.005299   -3.1580596   -1.6384509  0.080012899   -3.1580596    1.5196087   435691 
 3338000    1.0050975   -3.1579989   -1.6386599  0.072647028   -3.1579989     1.519339   435681 
 3339000    1.0051585   -3.1584484   -1.6389823  0.073906529   -3.1584484    1.5194661   435671 
 3340000    1.0066137   -3.1605626   -1.6388618  0.069086532   -3.1605626    1.5217008   435661 
 3341000    1.0057201   -3.1590955   -1.6387106  0.071342332   -3.1590955    1.5203849   435651 
 3342000     1.005213    -3.158736   -1.6390828  0.068159511    -3.158736    1.5196532   435641 
 3343000    1.0039545   -3.1574212   -1.6396358  0.075616427   -3.1574212    1.5177854   435631 
 3344000    1.0046851   -3.1586593   -1.6397344   0.06953672   -3.1586593    1.5189249   435621 
 3345000    1.0041335   -3.1580613   -1.6399356  0.071278842   -3.1580613    1.5181257   435611 
 3346000    1.0030825    -3.156529   -1.6399575  0.069823958    -3.156529    1.5165716   435601 
 3347000    1.0036323   -3.1576036   -1.6401658  0.071985311   -3.1576036    1.5174377   435591 
 3348000    1.0046119   -3.1582749   -1.6393212  0.071090627   -3.1582749    1.5189537   435581 
 3349000    1.0051567   -3.1581901   -1.6383777  0.076434319   -3.1581901    1.5198123   435571 
 3350000    1.0044265   -3.1573335   -1.6385905  0.071468657   -3.1573335    1.5187431   435561 
 3351000    1.0043594   -3.1574486   -1.6387722  0.074823601   -3.1574486    1.5186765   435551 
 3352000    1.0037947   -3.1573583   -1.6395009   0.07203808   -3.1573583    1.5178574   435541 
 3353000    1.0044339   -3.1580142   -1.6391553  0.073601901   -3.1580142    1.5188589   435531 
 3354000    1.0047229   -3.1585254   -1.6391946   0.07397519   -3.1585254    1.5193307   435521 
 3355000    1.0048584   -3.1586663   -1.6390958  0.070054003   -3.1586663    1.5195705   435511 
 3356000    1.0038516   -3.1589118   -1.6408289  0.073036705   -3.1589118    1.5180829   435501 
 3357000    1.0030372   -3.1565719   -1.6396857  0.073144504   -3.1565719    1.5168862   435491 
 3358000    1.0051948   -3.1581657   -1.6379818  0.068845127   -3.1581657    1.5201839   435481 
 3359000    1.0049228   -3.1580809   -1.6382734  0.072910958   -3.1580809    1.5198075   435471 
 3360000    1.0057911   -3.1581138   -1.6369582  0.069327185   -3.1581138    1.5211556   435461 
 3361000    1.0053645   -3.1591657   -1.6386203   0.07310631   -3.1591657    1.5205454   435451 
 3362000    1.0051801   -3.1591025    -1.638801  0.073338915   -3.1591025    1.5203014   435441 
 3363000     1.003545    -3.156857   -1.6389938  0.076229214    -3.156857    1.5178632   435431 
 3364000    1.0046289   -3.1589777   -1.6394403  0.077174938   -3.1589777    1.5195375   435421 
 3365000      1.00387   -3.1591955   -1.6407709  0.073792046   -3.1591955    1.5184245   435411 
 3366000    1.0044282   -3.1592528   -1.6399491  0.073161126   -3.1592528    1.5193037   435401 
 3367000     1.003736   -3.1597469   -1.6414553  0.077828936   -3.1597469    1.5182916   435391 
 3368000    1.0042702   -3.1607881   -1.6416536   0.06842542   -3.1607881    1.5191345   435381 
 3369000     1.003809   -3.1599209   -1.6414491   0.07436297   -3.1599209    1.5184717   435371 
 3370000    1.0039442   -3.1595292    -1.640818  0.072324254   -3.1595292    1.5187112   435361 
 3371000    1.0040245   -3.1603007   -1.6414331  0.071778688   -3.1603007    1.5188675   435351 
 3372000    1.0026818   -3.1587936   -1.6419224   0.07423225   -3.1587936    1.5168712   435341 
 3373000    1.0039797   -3.1609272   -1.6420578  0.069730028   -3.1609272    1.5188695   435331 
 3374000    1.0038333   -3.1612248   -1.6425419  0.070666092   -3.1612248    1.5186829   435321 
 3375000    1.0033113   -3.1597403   -1.6418122  0.072479819   -3.1597403    1.5179281   435311 
 3376000    1.0021927   -3.1597703   -1.6434998  0.074912605   -3.1597703    1.5162705   435301 
 3377000    1.0019392    -3.160063   -1.6441411   0.07300808    -3.160063    1.5159218   435291 
 3378000    1.0034594   -3.1622596   -1.6440028   0.06735637   -3.1622596    1.5182568   435281 
 3379000    1.0023335   -3.1614725   -1.6448844  0.072478178   -3.1614725    1.5165881   435271 
 3380000    1.0021457   -3.1609871   -1.6446482   0.06802923   -3.1609871    1.5163388   435261 
 3381000    1.0029976   -3.1598078   -1.6421451  0.078293649   -3.1598078    1.5176627   435251 
 3382000    1.0037733   -3.1609451   -1.6420738  0.071542744   -3.1609451    1.5188713   435241 
 3383000     1.003192   -3.1612566     -1.64323    0.0711304   -3.1612566    1.5180266   435231 
 3384000    1.0041441   -3.1622724   -1.6427702   0.07055049   -3.1622724    1.5195022   435221 
 3385000    1.0035473   -3.1629985   -1.6443644   0.07225017   -3.1629985     1.518634   435211 
 3386000    1.0042493   -3.1648677   -1.6451365  0.069126385   -3.1648677    1.5197313   435201 
 3387000    1.0029293   -3.1628204    -1.645052  0.072688969   -3.1628204    1.5177685   435191 
 3388000    1.0018473   -3.1601545   -1.6439886  0.078714728   -3.1601545    1.5161659   435181 
 3389000    1.0045401   -3.1635589   -1.6432829  0.076293874   -3.1635589     1.520276   435171 
 3390000    1.0036664   -3.1629198   -1.6439311  0.074620515   -3.1629198    1.5189887   435161 
 3391000    1.0042581   -3.1648777   -1.6449585  0.075323016   -3.1648777    1.5199192   435151 
 3392000    1.0025846   -3.1619406   -1.6445193  0.066769061   -3.1619406    1.5174213   435141 
 3393000    1.0019221   -3.1635785    -1.647125  0.074359619   -3.1635785    1.5164534   435131 
 3394000      1.00165   -3.1630702   -1.6469939   0.06900076   -3.1630702    1.5160763   435121 
 3395000    1.0037982   -3.1660434   -1.6466806  0.072463704   -3.1660434    1.5193628   435111 
 3396000    1.0034614   -3.1657496   -1.6468618  0.073220797   -3.1657496    1.5188879   435101 
 3397000    1.0019889   -3.1633618   -1.6466678  0.077056917   -3.1633618     1.516694   435091 
 3398000     1.003094   -3.1652212   -1.6468196  0.071913707   -3.1652212    1.5184016   435081 
 3399000    1.0031758   -3.1638107   -1.6452503  0.077613612   -3.1638107    1.5185604   435071 
 3400000    1.0028419   -3.1629173   -1.6448276  0.071699833   -3.1629173    1.5180897   435061 
 3401000     1.002566   -3.1641017   -1.6463947  0.073223432   -3.1641017     1.517707   435051 
 3402000    1.0013416    -3.162803   -1.6469147  0.074246556    -3.162803    1.5158883   435041 
 3403000    1.0024743   -3.1650483   -1.6474104  0.071998705   -3.1650483    1.5176379   435031 
 3404000    1.0020025   -3.1657437   -1.6487851  0.073389006   -3.1657437    1.5169585   435021 
 3405000    1.0027218   -3.1669529   -1.6488704  0.070601042   -3.1669529    1.5180825   435011 
 3406000    1.0018301   -3.1641187   -1.6473514  0.073311584   -3.1641187    1.5167673   435001 
 3407000    1.0029178   -3.1662656   -1.6478166  0.068499562   -3.1662656     1.518449   434991 
 3408000    1.0027738   -3.1654728    -1.647207  0.068829848   -3.1654728    1.5182658   434981 
 3409000    1.0027726   -3.1650061   -1.6467071  0.072753539   -3.1650061     1.518299   434971 
 3410000    1.0027887   -3.1638257   -1.6454676  0.077469374   -3.1638257    1.5183582   434961 
 3411000    1.0015267   -3.1618797   -1.6453975  0.075516267   -3.1618797    1.5164822   434951 
 3412000     1.002173   -3.1642904   -1.6467946  0.068450743   -3.1642904    1.5174957   434941 
 3413000    1.0028367   -3.1663976   -1.6478619  0.065069181   -3.1663976    1.5185356   434931 
 3414000     1.001122    -3.163891   -1.6479171  0.072526945    -3.163891     1.515974   434921 
 3415000    1.0011165   -3.1633736   -1.6473729  0.077020954   -3.1633736    1.5160006   434911 
 3416000    1.0029869   -3.1665883   -1.6477204  0.072878798   -3.1665883    1.5188678   434901 
 3417000    1.0024601   -3.1635135   -1.6454086  0.069404362   -3.1635135    1.5181049   434891 
 3418000    1.0029967    -3.163749   -1.6447964  0.076224027    -3.163749    1.5189526   434881 
 3419000    1.0023241   -3.1626651   -1.6446962  0.074314813   -3.1626651    1.5179689   434871 
 3420000    1.0031411   -3.1630267   -1.6437856  0.076478017   -3.1630267    1.5192411   434861 
 3421000    1.0045196   -3.1641288    -1.642765  0.075096227   -3.1641288    1.5213638   434851 
 3422000    1.0028727   -3.1618253   -1.6429209   0.07502633   -3.1618253    1.5189044   434841 
 3423000    1.0033184    -3.163939   -1.6443246  0.070696488    -3.163939    1.5196145   434831 
 3424000    1.0024942   -3.1622271   -1.6438261  0.068892484   -3.1622271     1.518401   434821 
 3425000     1.001396   -3.1615516    -1.644779  0.073009632   -3.1615516    1.5167726   434811 
 3426000    1.0011548   -3.1619339   -1.6454918  0.067608494   -3.1619339    1.5164421   434801 
 3427000    1.0019295   -3.1618972   -1.6442467  0.070140264   -3.1618972    1.5176505   434791 
 3428000    1.0001468   -3.1596978   -1.6447129  0.074535814   -3.1596978    1.5149849   434781 
 3429000   0.99988206   -3.1594201   -1.6448013  0.068756901   -3.1594201    1.5146188   434771 
 3430000     1.000256   -3.1592436   -1.6440235  0.072890007   -3.1592436    1.5152201   434761 
 3431000    1.0008005   -3.1592191   -1.6431392  0.070632202   -3.1592191    1.5160798   434751 
 3432000     1.001009    -3.160365   -1.6439344  0.073201295    -3.160365    1.5164306   434741 
 3433000    1.0000064   -3.1597127   -1.6447662   0.07053582   -3.1597127    1.5149465   434731 
 3434000    1.0004784   -3.1605922   -1.6448957  0.071719589   -3.1605922    1.5156964   434721 
 3435000   0.99997267   -3.1597741    -1.644809  0.068483742   -3.1597741    1.5149651   434711 
 3436000    1.0002092   -3.1607268   -1.6453685  0.068427862   -3.1607268    1.5153583   434701 
 3437000    1.0001097   -3.1598282   -1.6445857   0.06894674   -3.1598282    1.5152424   434691 
 3438000    1.0006039    -3.160449    -1.644423  0.068459525    -3.160449     1.516026   434681 
 3439000    0.9997678   -3.1599358   -1.6451417   0.07085309   -3.1599358    1.5147941   434671 
 3440000    1.0006069   -3.1607292   -1.6446288  0.080182427   -3.1607292    1.5161004   434661 
 3441000     1.000472   -3.1601411   -1.6442102  0.066363453   -3.1601411    1.5159309   434651 
 3442000    1.0000149   -3.1601514   -1.6448784  0.068556545   -3.1601514    1.5152731   434641 
 3443000    1.0001287   -3.1595727   -1.6440923   0.06921734   -3.1595727    1.5154804   434631 
 3444000    1.0016571   -3.1610357   -1.6432044  0.074115971   -3.1610357    1.5178313   434621 
 3445000    1.0017936   -3.1610776   -1.6430045   0.08159149   -3.1610776    1.5180731   434611 
 3446000    1.0025582   -3.1616345   -1.6423679  0.077610926   -3.1616345    1.5192666   434601 
 3447000    1.0025415   -3.1626941   -1.6434179   0.07338652   -3.1626941    1.5192762   434591 
 3448000     1.003624   -3.1651256   -1.6441739  0.071944271   -3.1651256    1.5209517   434581 
 3449000    1.0014047   -3.1614676   -1.6438441  0.074759861   -3.1614676    1.5176235   434571 
 3450000    1.0028302   -3.1641716   -1.6443529  0.073324249   -3.1641716    1.5198188   434561 
 3451000    1.0018879   -3.1626573   -1.6442317  0.076261718   -3.1626573    1.5184256   434551 
 3452000    1.0021142   -3.1634944   -1.6446908  0.072710566   -3.1634944    1.5188035   434541 
 3453000    1.0024707    -3.164653   -1.6452742  0.072785041    -3.164653    1.5193787   434531 
 3454000     1.001471   -3.1629178   -1.6450193  0.073135038   -3.1629178    1.5178986   434521 
 3455000     1.000228    -3.162552   -1.6465026  0.073340881    -3.162552    1.5160495   434511 
 3456000    1.0011447   -3.1625229   -1.6450491  0.075560865   -3.1625229    1.5174738   434501 
 3457000      1.00052    -3.163089   -1.6465271  0.075918731    -3.163089    1.5165619   434491 
 3458000   0.99993532   -3.1621442   -1.6464337   0.07535027   -3.1621442    1.5157105   434481 
 3459000    1.0017657   -3.1636842   -1.6451643  0.071405166   -3.1636842    1.5185199   434471 
 3460000    1.0015017   -3.1624897    -1.644335   0.07405243   -3.1624897    1.5181547   434461 
 3461000    1.0005621   -3.1620077   -1.6452425  0.078100961   -3.1620077    1.5167653   434451 
 3462000    1.0016688    -3.165053   -1.6465751  0.072962694    -3.165053    1.5184779   434441 
 3463000    1.0005571   -3.1652415    -1.648414  0.070814632   -3.1652415    1.5168275   434431 
 3464000    1.0004442   -3.1647415   -1.6480502  0.073995661   -3.1647415    1.5166913   434421 
 3465000   0.99933666   -3.1628277   -1.6477806  0.068887297   -3.1628277    1.5150471   434411 
 3466000   0.99900132   -3.1628251   -1.6482515  0.073284364   -3.1628251    1.5145736   434401 
 3467000    0.9992412   -3.1625452   -1.6475731  0.070522516   -3.1625452    1.5149721   434391 
 3468000   0.99992709   -3.1625389   -1.6464919  0.077522175   -3.1625389    1.5160469   434381 
 3469000    1.0014882   -3.1659369   -1.6474881  0.067783624   -3.1659369    1.5184488   434371 
 3470000    1.0001061   -3.1647368   -1.6483486  0.069551812   -3.1647368    1.5163882   434361 
 3471000    1.0004269   -3.1646926   -1.6477831  0.073459708   -3.1646926    1.5169094   434351 
 3472000    1.0005202   -3.1634045   -1.6463185  0.075630292   -3.1634045    1.5170859   434341 
 3473000    1.0011499   -3.1642683   -1.6461927   0.07563533   -3.1642683    1.5180756   434331 
 3474000    1.0012471   -3.1641289   -1.6458709   0.07733908   -3.1641289     1.518258   434321 
 3475000    1.0011988   -3.1647831   -1.6465634  0.073019182   -3.1647831    1.5182196   434311 
 3476000    1.0007696   -3.1635545   -1.6459507  0.072865843   -3.1635545    1.5176038   434301 
 3477000    1.0008986   -3.1630475   -1.6452131  0.077129254   -3.1630475    1.5178343   434291 
 3478000    1.0005492    -3.161607   -1.6442675  0.075380956    -3.161607    1.5173395   434281 
 3479000    1.0017501   -3.1638843   -1.6446886  0.072131279   -3.1638843    1.5191957   434271 
 3480000    1.0011078   -3.1624463   -1.6441898  0.066619113   -3.1624463    1.5182565   434261 
 3481000    1.0005855   -3.1605565   -1.6430571  0.077789537   -3.1605565    1.5174993   434251 
 3482000    1.0015718   -3.1624538   -1.6434236  0.073856132   -3.1624538    1.5190302   434241 
 3483000    1.0032624   -3.1659496   -1.6443204  0.068934315   -3.1659496    1.5216292   434231 
 3484000    1.0001067   -3.1620137   -1.6451357  0.070879639   -3.1620137     1.516878   434221 
 3485000    1.0008114   -3.1635099   -1.6455282  0.069467409   -3.1635099    1.5179817   434211 
 3486000    1.0003001    -3.161645   -1.6444038  0.063807166    -3.161645    1.5172412   434201 
 3487000   0.99888907   -3.1593212   -1.6441853  0.074027372   -3.1593212    1.5151359   434191 
 3488000   0.99967896   -3.1616233   -1.6452544  0.073257499   -3.1616233    1.5163689   434181 
 3489000    0.9993587   -3.1609502   -1.6450322  0.072348529   -3.1609502     1.515918   434171 
 3490000    1.0002824   -3.1624573   -1.6451033  0.066727924   -3.1624573    1.5173541   434161 
 3491000   0.99991925    -3.162247   -1.6454088  0.070694251    -3.162247    1.5168382   434151 
 3492000   0.99810124   -3.1606531   -1.6465379  0.072992593   -3.1606531    1.5141152   434141 
 3493000   0.99820991   -3.1603318   -1.6460169  0.070920787   -3.1603318     1.514315   434131 
 3494000   0.99914491   -3.1604379   -1.6446696  0.072275651   -3.1604379    1.5157683   434121 
 3495000   0.99794627    -3.159462   -1.6454772  0.070340356    -3.159462    1.5139848   434111 
 3496000    1.0001465   -3.1624114   -1.6450538  0.072876565   -3.1624114    1.5173576   434101 
 3497000   0.99883512   -3.1602123   -1.6448093  0.072633557   -3.1602123     1.515403   434091 
 3498000   0.99943828   -3.1605508   -1.6441978  0.074735444   -3.1605508    1.5163531   434081 
 3499000    1.0005408   -3.1624483   -1.6443874  0.068388485   -3.1624483    1.5180609   434071 
 3500000   0.99917758   -3.1613652   -1.6453378  0.075085853   -3.1613652    1.5160274   434061 
 3501000   0.99965004   -3.1625632   -1.6457841  0.072046217   -3.1625632    1.5167792   434051 
 3502000   0.99842988   -3.1613555   -1.6463928  0.071282066   -3.1613555    1.5149627   434041 
 3503000   0.99910048   -3.1644902   -1.6484751  0.067602236   -3.1644902    1.5160152   434031 
 3504000   0.99793284   -3.1614031   -1.6471248  0.072186872   -3.1614031    1.5142783   434021 
 3505000   0.99980809   -3.1652513   -1.6480925  0.067665823   -3.1652513    1.5171588   434011 
 3506000   0.99999344   -3.1654667   -1.6479917  0.069636267   -3.1654667     1.517475   434001 
 3507000   0.99795698   -3.1625282   -1.6481086  0.073141048   -3.1625282    1.5144196   433991 
 3508000   0.99836311   -3.1641747   -1.6491039  0.072476489   -3.1641747    1.5150708   433981 
 3509000   0.99914463   -3.1646579   -1.6483661  0.075022058   -3.1646579    1.5162918   433971 
 3510000   0.99842827   -3.1651028   -1.6498632  0.071833507   -3.1651028    1.5152396   433961 
 3511000   0.99983041   -3.1663597   -1.6489572  0.070280147   -3.1663597    1.5174024   433951 
 3512000    1.0008767   -3.1659367   -1.6469113  0.068521906   -3.1659367    1.5190254   433941 
 3513000   0.99935304   -3.1653103   -1.6485624  0.073977124   -3.1653103    1.5167479   433931 
 3514000   0.99969002   -3.1670014   -1.6497071  0.070276647   -3.1670014    1.5172943   433921 
 3515000   0.99889723   -3.1654802   -1.6493542    0.0752491   -3.1654802    1.5161259   433911 
 3516000    1.0004185   -3.1682109    -1.649741   0.06813353   -3.1682109      1.51847   433901 
 3517000   0.99840785   -3.1652561   -1.6498031  0.066523675   -3.1652561     1.515453   433891 
 3518000   0.99717373   -3.1639334   -1.6503187  0.075645107   -3.1639334    1.5136147   433881 
 3519000   0.99897528   -3.1678166   -1.6514324  0.067411334   -3.1678166    1.5163842   433871 
 3520000   0.99964303   -3.1670326   -1.6495998  0.066544965   -3.1670326    1.5174328   433861 
 3521000   0.99937927   -3.1681333   -1.6510659  0.071152482   -3.1681333    1.5170674   433851 
 3522000   0.99839049   -3.1657986   -1.6501973  0.071362546   -3.1657986    1.5156013   433841 
 3523000   0.99906677   -3.1660309    -1.649368  0.072165535   -3.1660309    1.5166629   433831 
 3524000   0.99935057   -3.1671937    -1.650065  0.069385456   -3.1671937    1.5171287   433821 
 3525000   0.99958923   -3.1670875   -1.6495615  0.068674009   -3.1670875     1.517526   433811 
 3526000   0.99931425   -3.1669401   -1.6497966  0.070896886   -3.1669401    1.5171435   433801 
 3527000    0.9977952   -3.1649461   -1.6500739  0.068849342   -3.1649461    1.5148722   433791 
 3528000   0.99734024   -3.1648475   -1.6506311  0.067356195   -3.1648475    1.5142164   433781 
 3529000   0.99783047    -3.165861   -1.6508654  0.069430077    -3.165861    1.5149956   433771 
 3530000   0.99732557   -3.1648197   -1.6505558  0.069412332   -3.1648197     1.514264   433761 
 3531000   0.99821119   -3.1654092   -1.6497657   0.07263461   -3.1654092    1.5156435   433751 
 3532000   0.99882943   -3.1650149   -1.6483976  0.070627273   -3.1650149    1.5166172   433741 
 3533000   0.99771025   -3.1643481   -1.6493953   0.06975119   -3.1643481    1.5149528   433731 
 3534000   0.99767616   -3.1647353   -1.6497993  0.071844576   -3.1647353     1.514936   433721 
 3535000    0.9985256   -3.1660916   -1.6498308  0.068090412   -3.1660916    1.5162608   433711 
 3536000     0.999464   -3.1668099   -1.6490892  0.070028047   -3.1668099    1.5177207   433701 
 3537000   0.99754072   -3.1646375   -1.6498024  0.074522798   -3.1646375    1.5148351   433691 
 3538000   0.99827242   -3.1653006   -1.6493195  0.068304696   -3.1653006    1.5159812   433681 
 3539000   0.99755057   -3.1642728   -1.6493529  0.073575773   -3.1642728    1.5149199   433671 
 3540000   0.99786434   -3.1664788   -1.6510474   0.07217497   -3.1664788    1.5154314   433661 
 3541000   0.99904673    -3.167558    -1.650296  0.068771817    -3.167558     1.517262   433651 
 3542000   0.99799584     -3.16589   -1.6501891  0.073456548     -3.16589     1.515701   433641 
 3543000   0.99831966    -3.166128   -1.6499003  0.072384604    -3.166128    1.5162277   433631 
 3544000   0.99905133   -3.1674982   -1.6501242  0.070827362   -3.1674982     1.517374   433621 
 3545000   0.99806661   -3.1653076   -1.6493943  0.072846944   -3.1653076    1.5159133   433611 
 3546000   0.99891207   -3.1654323   -1.6481998  0.069242851   -3.1654323    1.5172324   433601 
 3547000   0.99914538   -3.1672285   -1.6496067  0.072629098   -3.1672285    1.5176218   433591 
 3548000   0.99962614   -3.1666155   -1.6482284  0.071506533   -3.1666155    1.5183871   433581 
 3549000   0.99805234   -3.1659877   -1.6499562  0.068211077   -3.1659877    1.5160315   433571 
 3550000   0.99714162   -3.1647277   -1.6500446  0.073804853   -3.1647277    1.5146831   433561 
 3551000   0.99762984   -3.1656237    -1.650164  0.069026635   -3.1656237    1.5154596   433551 
 3552000   0.99985875   -3.1683196   -1.6494391  0.067331824   -3.1683196    1.5188805   433541 
 3553000   0.99865397    -3.166543   -1.6494577  0.073397377    -3.166543    1.5170853   433531 
 3554000    0.9998549   -3.1676749   -1.6487302  0.073443577   -3.1676749    1.5189447   433521 
 3555000   0.99960856   -3.1672949   -1.6486893  0.071633363   -3.1672949    1.5186055   433511 
 3556000   0.99829846   -3.1654571   -1.6488069  0.074505998   -3.1654571    1.5166502   433501 
 3557000   0.99858373   -3.1676114   -1.6504928  0.067193134   -3.1676114    1.5171186   433491 
 3558000   0.99825062   -3.1672373   -1.6505898  0.070297195   -3.1672373    1.5166475   433481 
 3559000   0.99708162   -3.1659769   -1.6510705  0.066871991   -3.1659769    1.5149064   433471 
 3560000   0.99925967   -3.1693298   -1.6510792  0.069118394   -3.1693298    1.5182506   433461 
 3561000    0.9963819   -3.1656692    -1.651756  0.070881954   -3.1656692    1.5139131   433451 
 3562000   0.99648566   -3.1648565   -1.6507507  0.076093469   -3.1648565    1.5141057   433441 
 3563000   0.99810857   -3.1655616    -1.648955   0.06642975   -3.1655616    1.5166066   433431 
 3564000   0.99785131   -3.1651553   -1.6489046  0.073546089   -3.1651553    1.5162507   433421 
 3565000   0.99787767    -3.167931   -1.6516053  0.069071478    -3.167931    1.5163257   433411 
 3566000   0.99612163   -3.1669468   -1.6532545  0.071185108   -3.1669468    1.5136923   433401 
 3567000   0.99608722   -3.1669945   -1.6533196  0.066619687   -3.1669945    1.5136749   433391 
 3568000   0.99648268   -3.1661042   -1.6517934   0.06678399   -3.1661042    1.5143108   433381 
 3569000   0.99555292   -3.1648141   -1.6518813  0.067242314   -3.1648141    1.5129328   433371 
 3570000     0.995292   -3.1638574   -1.6512862  0.067878886   -3.1638574    1.5125712   433361 
 3571000   0.99771007   -3.1660722   -1.6497913  0.074924015   -3.1660722     1.516281   433351 
 3572000   0.99590771   -3.1642549   -1.6506782  0.070744219   -3.1642549    1.5135767   433341 
 3573000    0.9958049    -3.165425   -1.6519696  0.072142301    -3.165425    1.5134554   433331 
 3574000   0.99618145    -3.166692   -1.6526294  0.069482711    -3.166692    1.5140627   433321 
 3575000   0.99666468   -3.1676389   -1.6528068  0.071416323   -3.1676389     1.514832   433311 
 3576000    0.9962463   -3.1673859   -1.6531548   0.07234499   -3.1673859    1.5142311   433301 
 3577000   0.99721909   -3.1680599   -1.6523152  0.067295645   -3.1680599    1.5157447   433291 
 3578000    0.9978995   -3.1686542   -1.6518403  0.066546296   -3.1686542    1.5168139   433281 
 3579000   0.99788626   -3.1684629   -1.6516342  0.071716732   -3.1684629    1.5168288   433271 
 3580000   0.99915325   -3.1698316   -1.6510419  0.065324126   -3.1698316    1.5187897   433261 
 3581000   0.99724442   -3.1691373   -1.6532142  0.070956359   -3.1691373    1.5159231   433251 
 3582000   0.99696129    -3.167916   -1.6523883  0.068260121    -3.167916    1.5155277   433241 
 3583000   0.99698361   -3.1688479   -1.6532513  0.062779489   -3.1688479    1.5155966   433231 
 3584000   0.99825323   -3.1708445   -1.6532828  0.073497317   -3.1708445    1.5175617   433221 
 3585000   0.99909154   -3.1721108   -1.6532396  0.073035883   -3.1721108    1.5188712   433211 
 3586000   0.99806646   -3.1709404   -1.6535926  0.073169942   -3.1709404    1.5173478   433201 
 3587000   0.99763265   -3.1715064   -1.6547831  0.071670072   -3.1715064    1.5167233   433191 
 3588000   0.99833657   -3.1708365    -1.653008  0.072934258   -3.1708365    1.5178285   433181 
 3589000   0.99796365   -3.1706572   -1.6533606  0.074456447   -3.1706572    1.5172966   433171 
 3590000   0.99824999   -3.1721146   -1.6543476  0.071081841   -3.1721146     1.517767   433161 
 3591000   0.99730511   -3.1716486   -1.6552832   0.07212928   -3.1716486    1.5163654   433151 
 3592000   0.99691749   -3.1710422   -1.6552312  0.077993081   -3.1710422     1.515811   433141 
 3593000    0.9991731   -3.1740771   -1.6548014  0.066955003   -3.1740771    1.5192757   433131 
 3594000   0.99723464   -3.1711385   -1.6547753  0.069290398   -3.1711385    1.5163632   433121 
 3595000   0.99809003   -3.1734512   -1.6557523  0.069859994   -3.1734512     1.517699   433111 
 3596000   0.99723111   -3.1717749    -1.655347  0.071806722   -3.1717749    1.5164279   433101 
 3597000   0.99778387   -3.1729807   -1.6556772  0.070564046   -3.1729807    1.5173035   433091 
 3598000   0.99699149   -3.1714507   -1.6553172  0.073194719   -3.1714507    1.5161335   433081 
 3599000   0.99748212    -3.170492   -1.6535773  0.071131304    -3.170492    1.5169147   433071 
 3600000   0.99607119   -3.1701714   -1.6553675  0.066720676   -3.1701714     1.514804   433061 
 3601000   0.99518293   -3.1694032   -1.6559152  0.073344325   -3.1694032    1.5134881   433051 
 3602000   0.99668883   -3.1704602    -1.654647  0.064410104   -3.1704602    1.5158133   433041 
 3603000   0.99590132   -3.1713809   -1.6567304  0.070535917   -3.1713809    1.5146506   433031 
 3604000   0.99601394   -3.1721291   -1.6572723  0.073052663   -3.1721291    1.5148568   433021 
 3605000   0.99576482   -3.1709644   -1.6564515  0.065239207   -3.1709644    1.5145129   433011 
 3606000   0.99443176   -3.1703743   -1.6578539  0.074445717   -3.1703743    1.5125203   433001 
 3607000   0.99661698   -3.1719864   -1.6561074  0.069393746   -3.1719864     1.515879   432991 
 3608000   0.99491531   -3.1702568   -1.6569311  0.074121903   -3.1702568    1.5133257   432981 
 3609000   0.99481718   -3.1694656   -1.6562542  0.070026287   -3.1694656    1.5132114   432971 
 3610000   0.99503002   -3.1712369   -1.6576668  0.068650527   -3.1712369    1.5135701   432961 
 3611000   0.99648616   -3.1719496   -1.6561295  0.065552091   -3.1719496    1.5158201   432951 
 3612000   0.99593271   -3.1718959   -1.6568828    0.0690096   -3.1718959    1.5150132   432941 
 3613000   0.99504303   -3.1716169   -1.6579221  0.067526031   -3.1716169    1.5136948   432931 
 3614000   0.99544785   -3.1721908   -1.6578452  0.071251708   -3.1721908    1.5143456   432921 
 3615000   0.99508194   -3.1707496   -1.6569257  0.073260544   -3.1707496    1.5138239   432911 
 3616000   0.99551707   -3.1704646   -1.6559438  0.070293535   -3.1704646    1.5145208   432901 
 3617000   0.99413053    -3.170471   -1.6580246  0.066604235    -3.170471    1.5124464   432891 
 3618000   0.99395878   -3.1700162   -1.6577961  0.070680398   -3.1700162      1.51222   432881 
 3619000   0.99450796   -3.1706066   -1.6575161  0.068887182   -3.1706066    1.5130905   432871 
 3620000   0.99397317   -3.1686872   -1.6563754   0.06832065   -3.1686872    1.5123118   432861 
 3621000   0.99487577   -3.1692302   -1.6555102  0.076814324   -3.1692302      1.51372   432851 
 3622000   0.99593272   -3.1719892    -1.656626  0.069030108   -3.1719892    1.5153632   432841 
 3623000   0.99644581   -3.1726587   -1.6564797  0.072236766   -3.1726587    1.5161789   432831 
 3624000   0.99695156   -3.1721851   -1.6552016  0.073500711   -3.1721851    1.5169835   432821 
 3625000   0.99556352   -3.1712153   -1.6563088  0.070232443   -3.1712153    1.5149065   432811 
 3626000   0.99534094   -3.1704462   -1.6558434  0.073497397   -3.1704462    1.5146028   432801 
 3627000   0.99499725   -3.1706808    -1.656566  0.070734628   -3.1706808    1.5141148   432791 
 3628000   0.99575146   -3.1715908   -1.6562933  0.072043603   -3.1715908    1.5152975   432781 
 3629000   0.99601581   -3.1733965   -1.6576618  0.070000709   -3.1733965    1.5157348   432771 
 3630000   0.99558512   -3.1729653    -1.657851  0.072914252   -3.1729653    1.5151144   432761 
 3631000   0.99551135   -3.1730586   -1.6580215   0.06955604   -3.1730586    1.5150371   432751 
 3632000   0.99421495   -3.1723177   -1.6592186  0.069841343   -3.1723177    1.5130991   432741 
 3633000   0.99625621   -3.1748583   -1.6586176  0.067912651   -3.1748583    1.5162408   432731 
 3634000   0.99545346   -3.1744546   -1.6594005   0.06962147   -3.1744546     1.515054   432721 
 3635000   0.99435978   -3.1734018   -1.6599774  0.068809294   -3.1734018    1.5134244   432711 
 3636000   0.99515815   -3.1754614   -1.6607868  0.071555879   -3.1754614    1.5146746   432701 
 3637000   0.99484311   -3.1744602   -1.6602302  0.070789186   -3.1744602    1.5142301   432691 
 3638000   0.99465241   -3.1748824   -1.6609076  0.069922255   -3.1748824    1.5139748   432681 
 3639000   0.99304044   -3.1728645   -1.6613083  0.067702407   -3.1728645    1.5115561   432671 
 3640000   0.99359262   -3.1736863   -1.6612547  0.072467966   -3.1736863    1.5124316   432661 
 3641000   0.99458086   -3.1752636   -1.6612928  0.068365857   -3.1752636    1.5139709   432651 
 3642000   0.99317109   -3.1726635   -1.6608037  0.071361799   -3.1726635    1.5118598   432641 
 3643000   0.99415478   -3.1737548   -1.6603625  0.070517736   -3.1737548    1.5133922   432631 
 3644000   0.99349376   -3.1737678   -1.6613468  0.071833423   -3.1737678    1.5124209   432621 
 3645000   0.99506997   -3.1761163   -1.6612608  0.072232587   -3.1761163    1.5148555   432611 
 3646000   0.99516497   -3.1764294   -1.6613943  0.074767049   -3.1764294    1.5150351   432601 
 3647000   0.99461697   -3.1758346   -1.6615987  0.071650304   -3.1758346    1.5142358   432591 
 3648000   0.99448589   -3.1770506   -1.6629794  0.072064338   -3.1770506    1.5140713   432581 
 3649000   0.99544171   -3.1773047   -1.6617432  0.067718885   -3.1773047    1.5155615   432571 
 3650000   0.99587864   -3.1771965   -1.6609347  0.075287571   -3.1771965    1.5162618   432561 
 3651000   0.99551839   -3.1775698   -1.6618215  0.071203131   -3.1775698    1.5157483   432551 
 3652000   0.99519142   -3.1763704   -1.6610849  0.073255153   -3.1763704    1.5152855   432541 
 3653000   0.99556564   -3.1781295   -1.6622391  0.077756452   -3.1781295    1.5158904   432531 
 3654000   0.99581792   -3.1773475   -1.6610379  0.081943731   -3.1773475    1.5163096   432521 
 3655000    0.9939786    -3.175564   -1.6620202  0.073285151    -3.175564    1.5135439   432511 
 3656000   0.99487987   -3.1764316   -1.6614803  0.074143602   -3.1764316    1.5149513   432501 
 3657000   0.99392909   -3.1758726   -1.6623341  0.074285097   -3.1758726    1.5135385   432491 
 3658000   0.99447813   -3.1761512   -1.6617417  0.075345785   -3.1761512    1.5144095   432481 
 3659000   0.99524194   -3.1776284   -1.6620206  0.074507241   -3.1776284    1.5156077   432471 
 3660000   0.99528804   -3.1777543   -1.6620413  0.071826551   -3.1777543     1.515713   432461 
 3661000   0.99371877   -3.1763508   -1.6629927  0.068103183   -3.1763508    1.5133581   432451 
 3662000   0.99451319   -3.1786878   -1.6640848  0.071371561   -3.1786878     1.514603   432441 
 3663000   0.99378378   -3.1752088   -1.6616816  0.068744077   -3.1752088    1.5135272   432431 
 3664000    0.9923998   -3.1744337   -1.6629794  0.069826445   -3.1744337    1.5114543   432421 
 3665000   0.99312061   -3.1750415   -1.6624544    0.0697611   -3.1750415    1.5125871   432411 
 3666000   0.99254259   -3.1736056   -1.6618639  0.068111906   -3.1736056    1.5117417   432401 
 3667000   0.99286902   -3.1731553   -1.6608814  0.068856104   -3.1731553    1.5122739   432391 
 3668000   0.99281824   -3.1719379   -1.6597064  0.071729124   -3.1719379    1.5122315   432381 
 3669000   0.99368067   -3.1721931    -1.658613  0.070296888   -3.1721931    1.5135801   432371 
 3670000   0.99374049   -3.1732978   -1.6595916  0.070784758   -3.1732978    1.5137063   432361 
 3671000   0.99298689   -3.1730264   -1.6604331  0.071392248   -3.1730264    1.5125933   432351 
 3672000   0.99253464   -3.1722832   -1.6603438  0.063495955   -3.1722832    1.5119394   432341 
 3673000   0.99131426   -3.1703699   -1.6602545   0.06856497   -3.1703699    1.5101153   432331 
 3674000   0.99280514   -3.1724234    -1.660002   0.06579439   -3.1724234    1.5124214   432321 
 3675000   0.99265047   -3.1730678    -1.660847  0.063503139   -3.1730678    1.5122208   432311 
 3676000   0.99211105   -3.1719475   -1.6605135  0.067087988   -3.1719475     1.511434   432301 
 3677000   0.99196455   -3.1706024   -1.6593566  0.068281408   -3.1706024    1.5112457   432291 
 3678000   0.99338406   -3.1726944   -1.6592511  0.065165357   -3.1726944    1.5134434   432281 
 3679000   0.99298814   -3.1722799   -1.6594048  0.066890062   -3.1722799    1.5128752   432271 
 3680000   0.99242407   -3.1719012   -1.6598504  0.067236749   -3.1719012    1.5120507   432261 
 3681000   0.99165357   -3.1703464   -1.6594346  0.072628652   -3.1703464    1.5109118   432251 
 3682000   0.99325878   -3.1736337   -1.6602412  0.065925692   -3.1736337    1.5133925   432241 
 3683000   0.99383494    -3.174169   -1.6598636  0.068940134    -3.174169    1.5143054   432231 
 3684000   0.99421161   -3.1744511   -1.6595367  0.075347077   -3.1744511    1.5149144   432221 
 3685000    0.9939404    -3.173882   -1.6593458  0.074127909    -3.173882    1.5145362   432211 
 3686000   0.99279045   -3.1724135   -1.6595945  0.070932381   -3.1724135    1.5128189   432201 
 3687000   0.99193957   -3.1724286   -1.6608713  0.069465106   -3.1724286    1.5115573   432191 
 3688000   0.99182425   -3.1720372   -1.6606206  0.073668703   -3.1720372    1.5114166   432181 
 3689000   0.99100591   -3.1731643   -1.6629598  0.072138494   -3.1731643    1.5102045   432171 
 3690000   0.99405829    -3.176785    -1.661894   0.07176485    -3.176785    1.5148911   432161 
 3691000   0.99301873   -3.1749116   -1.6615697  0.073601956   -3.1749116    1.5133419   432151 
 3692000   0.99417695   -3.1767249   -1.6615829  0.067394329   -3.1767249     1.515142   432141 
 3693000   0.99275811   -3.1744949   -1.6614802  0.076173874   -3.1744949    1.5130147   432131 
 3694000   0.99344459   -3.1767035   -1.6626075  0.069153897   -3.1767035     1.514096   432121 
 3695000   0.99163831   -3.1738496   -1.6624716  0.071540386   -3.1738496     1.511378   432111 
 3696000   0.99418464   -3.1767895   -1.6614955  0.071514249   -3.1767895     1.515294   432101 
 3697000   0.99340996    -3.177091   -1.6629427  0.073996977    -3.177091    1.5141483   432091 
 3698000   0.99337209   -3.1770529   -1.6629272  0.074116988   -3.1770529    1.5141257   432081 
 3699000   0.99323876   -3.1777963   -1.6638389  0.068684042   -3.1777963    1.5139575   432071 
 3700000   0.99277194    -3.176887    -1.663606  0.064639359    -3.176887    1.5132809   432061 
 3701000   0.99365438   -3.1767963   -1.6621352  0.067161663   -3.1767963    1.5146611   432051 
 3702000   0.99286483   -3.1773453   -1.6638528  0.071088953   -3.1773453    1.5134926   432041 
 3703000   0.99461377   -3.1792513   -1.6630575  0.070679402   -3.1792513    1.5161937   432031 
 3704000   0.99477225   -3.1802963   -1.6638259   0.06927597   -3.1802963    1.5164704   432021 
 3705000   0.99341352   -3.1789353   -1.6645012  0.069137599   -3.1789353    1.5144342   432011 
 3706000   0.99269878   -3.1786578   -1.6652782  0.068167576   -3.1786578    1.5133796   432001 
 3707000   0.99228735    -3.177221   -1.6644337  0.069264563    -3.177221    1.5127874   431991 
 3708000    0.9922095   -3.1768891   -1.6641854  0.066802112   -3.1768891    1.5127037   431981 
 3709000   0.99145793   -3.1766095   -1.6650166  0.068083918   -3.1766095    1.5115929   431971 
 3710000   0.99265985    -3.177153   -1.6636926  0.066034623    -3.177153    1.5134604   431961 
 3711000   0.99046392   -3.1750282   -1.6648809  0.070314563   -3.1750282    1.5101473   431951 
 3712000   0.99177979    -3.176716   -1.6645274  0.072158295    -3.176716    1.5121886   431941 
 3713000   0.99162583    -3.176192   -1.6642032   0.07020041    -3.176192    1.5119888   431931 
 3714000   0.99236879   -3.1766322   -1.6634754  0.068234847   -3.1766322    1.5131567   431921 
 3715000   0.99210973   -3.1774561   -1.6646593  0.069804308   -3.1774561    1.5127967   431911 
 3716000   0.99180524   -3.1768815   -1.6645141  0.068881548   -3.1768815    1.5123674   431901 
 3717000   0.99251085   -3.1777536   -1.6642751  0.067657485   -3.1777536    1.5134784   431891 
 3718000   0.99223118   -3.1757739   -1.6626869  0.072549007   -3.1757739     1.513087   431881 
 3719000   0.99478643    -3.178461   -1.6614422  0.065202021    -3.178461    1.5170187   431871 
 3720000   0.99446786   -3.1779313   -1.6613633  0.072539421   -3.1779313     1.516568   431861 
 3721000   0.99379491    -3.177602   -1.6620251  0.072423353    -3.177602    1.5155769   431851 
 3722000   0.99362507   -3.1765672   -1.6612143  0.072155795   -3.1765672    1.5153529   431841 
 3723000   0.99191597   -3.1759852   -1.6632037  0.070246458   -3.1759852    1.5127815   431831 
 3724000   0.99339187   -3.1774241   -1.6623566  0.071781129   -3.1774241    1.5150675   431821 
 3725000   0.99253944   -3.1759282   -1.6621258  0.070429877   -3.1759282    1.5138025   431811 
 3726000   0.99278853   -3.1778018   -1.6635843  0.065590124   -3.1778018    1.5142174   431801 
 3727000   0.99233451   -3.1767503   -1.6631903  0.069567093   -3.1767503      1.51356   431791 
 3728000   0.99186763   -3.1758658   -1.6629829  0.068919516   -3.1758658    1.5128829   431781 
 3729000   0.99111151   -3.1755992   -1.6638346  0.067215073   -3.1755992    1.5117646   431771 
 3730000    0.9928774   -3.1773967   -1.6629034  0.070045578   -3.1773967    1.5144933   431761 
 3731000   0.99065468   -3.1754702   -1.6643324  0.067154212   -3.1754702    1.5111378   431751 
 3732000   0.99117366    -3.176979   -1.6650145  0.069065594    -3.176979    1.5119645   431741 
 3733000   0.99136582    -3.177348   -1.6650553  0.070689458    -3.177348    1.5122926   431731 
 3734000   0.99062929   -3.1764488   -1.6652447  0.066372405   -3.1764488    1.5112041   431721 
 3735000    0.9911052   -3.1773352   -1.6653701  0.071251497   -3.1773352    1.5119651   431711 
 3736000   0.99222646   -3.1773715   -1.6636607   0.07209865   -3.1773715    1.5137107   431701 
 3737000   0.99285695   -3.1783811   -1.6636734   0.06883589   -3.1783811    1.5147077   431691 
 3738000   0.99110508    -3.176745    -1.664675  0.067607088    -3.176745      1.51207   431681 
 3739000   0.99164242   -3.1754984   -1.6625736  0.069262072   -3.1754984    1.5129249   431671 
 3740000   0.99341499   -3.1773764   -1.6617121  0.073733014   -3.1773764    1.5156643   431661 
 3741000   0.99429334   -3.1802209   -1.6631813  0.069609568   -3.1802209    1.5170396   431651 
 3742000   0.99346378   -3.1794228   -1.6636138  0.072026874   -3.1794228     1.515809   431641 
 3743000   0.99231639   -3.1777428   -1.6636494  0.072004693   -3.1777428    1.5140934   431631 
 3744000   0.99222295   -3.1792647   -1.6652787  0.067719452   -3.1792647    1.5139859   431621 
 3745000   0.99236549   -3.1784809   -1.6642424  0.067470079   -3.1784809    1.5142385   431611 
 3746000   0.99178441    -3.177947   -1.6645601  0.070441347    -3.177947    1.5133869   431601 
 3747000   0.99188495   -3.1781917   -1.6646163   0.06439696   -3.1781917    1.5135754   431591 
 3748000   0.99150405   -3.1766727   -1.6636435  0.068362053   -3.1766727    1.5130292   431581 
 3749000   0.99337105   -3.1788204   -1.6629071  0.069473991   -3.1788204    1.5159134   431571 
 3750000   0.99307063   -3.1791444   -1.6636544  0.068479978   -3.1791444      1.51549   431561 
 3751000   0.99237185   -3.1787155   -1.6642567  0.070214032   -3.1787155    1.5144587   431551 
 3752000   0.99102677   -3.1768365   -1.6643955  0.069659819   -3.1768365     1.512441   431541 
 3753000   0.99171584    -3.178063   -1.6645353  0.074136196    -3.178063    1.5135277   431531 
 3754000   0.99323541   -3.1791051   -1.6632231  0.069585392   -3.1791051     1.515882   431521 
 3755000   0.99207553   -3.1789068     -1.66476  0.069755356   -3.1789068    1.5141468   431511 
 3756000   0.99168575   -3.1776615   -1.6640744  0.069553032   -3.1776615     1.513587   431501 
 3757000   0.99105436   -3.1776281   -1.6649696  0.071671977   -3.1776281    1.5126584   431491 
 3758000   0.99168626   -3.1795857   -1.6659277  0.069676998   -3.1795857     1.513658   431481 
 3759000   0.98945657   -3.1768249   -1.6665352  0.071491375   -3.1768249    1.5102897   431471 
 3760000   0.99059364   -3.1770931   -1.6650328  0.068805698   -3.1770931    1.5120603   431461 
 3761000    0.9915082   -3.1783132   -1.6648218  0.061480299   -3.1783132    1.5134914   431451 
 3762000   0.98925212   -3.1746787   -1.6645961  0.064044325   -3.1746787    1.5100826   431441 
 3763000   0.98929009   -3.1749379   -1.6647623  0.069822183   -3.1749379    1.5101756   431431 
 3764000   0.98966864   -3.1738073   -1.6630188  0.066691303   -3.1738073    1.5107885   431421 
 3765000   0.98966252   -3.1743449   -1.6635308  0.065109028   -3.1743449    1.5108141   431411 
 3766000   0.99025418   -3.1759079   -1.6641555  0.066055924   -3.1759079    1.5117524   431401 
 3767000   0.98991466   -3.1760465   -1.6647774  0.070244065   -3.1760465    1.5112691   431391 
 3768000   0.99208606   -3.1775819   -1.6629627   0.06593309   -3.1775819    1.5146192   431381 
 3769000   0.99233985   -3.1773212   -1.6622794  0.069063393   -3.1773212    1.5150418   431371 
 3770000   0.99105305   -3.1765563    -1.663444  0.064541207   -3.1765563    1.5131123   431361 
 3771000   0.99123122   -3.1766762   -1.6632568   0.06978673   -3.1766762    1.5134194   431351 
 3772000   0.99184341   -3.1766638   -1.6622746  0.066686774   -3.1766638    1.5143892   431341 
 3773000   0.99029159   -3.1743073   -1.6622525  0.071503098   -3.1743073    1.5120549   431331 
 3774000   0.99171624   -3.1757896   -1.6615243  0.069690824   -3.1757896    1.5142652   431321 
 3775000   0.99132101   -3.1768692   -1.6631724  0.068444367   -3.1768692    1.5136969   431311 
 3776000   0.98989187   -3.1758374   -1.6642877  0.064307343   -3.1758374    1.5115497   431301 
 3777000   0.98971569   -3.1774079   -1.6660922  0.068939562   -3.1774079    1.5113157   431291 
 3778000   0.98960494   -3.1773768   -1.6661952  0.069054536   -3.1773768    1.5111816   431281 
 3779000   0.98870895   -3.1756769   -1.6658285  0.070600163   -3.1756769    1.5098484   431271 
 3780000   0.99006802   -3.1764811   -1.6645222  0.069434722   -3.1764811    1.5119589   431261 
 3781000    0.9903673   -3.1772498   -1.6647988  0.067398619   -3.1772498     1.512451   431251 
 3782000   0.99086422   -3.1769951   -1.6637501  0.070103542   -3.1769951    1.5132449   431241 
 3783000   0.98995404   -3.1769317   -1.6650417  0.065694932   -3.1769317      1.51189   431231 
 3784000   0.99074384   -3.1777658   -1.6646345  0.069178144   -3.1777658    1.5131313   431221 
 3785000   0.99004041   -3.1763899   -1.6642979  0.069105524   -3.1763899     1.512092   431211 
 3786000   0.99156197   -3.1784892   -1.6640382  0.065001863   -3.1784892     1.514451   431201 
 3787000    0.9915309   -3.1789499   -1.6645112  0.065187074   -3.1789499    1.5144387   431191 
 3788000   0.99078836   -3.1786237   -1.6652841  0.068782592   -3.1786237    1.5133396   431181 
 3789000   0.99123484    -3.180611   -1.6665543  0.068625087    -3.180611    1.5140567   431171 
 3790000   0.99070183   -3.1800929   -1.6668152  0.071515409   -3.1800929    1.5132777   431161 
 3791000   0.99123137   -3.1798743   -1.6657526  0.070160205   -3.1798743    1.5141217   431151 
 3792000   0.99093263   -3.1799589   -1.6662585  0.067911596   -3.1799589    1.5137004   431141 
 3793000    0.9890482   -3.1775132   -1.6666563  0.067340236   -3.1775132    1.5108569   431131 
 3794000   0.98927206   -3.1786255   -1.6673915   0.06731991   -3.1786255    1.5112339   431121 
 3795000   0.98917192   -3.1790751   -1.6679591  0.066725678   -3.1790751     1.511116   431111 
 3796000   0.98885186   -3.1769733   -1.6663112  0.069445328   -3.1769733    1.5106621   431101 
 3797000   0.98878371   -3.1771113   -1.6665183  0.066359742   -3.1771113     1.510593   431091 
 3798000   0.98799202   -3.1780387   -1.6686201  0.067328011   -3.1780387    1.5094186   431081 
 3799000   0.98913792   -3.1788804   -1.6676761    0.0678214   -3.1788804    1.5112043   431071 
 3800000   0.98915148   -3.1796788   -1.6684188  0.069031479   -3.1796788    1.5112601   431061 
 3801000   0.98941791   -3.1781966   -1.6664944  0.070456049   -3.1781966    1.5117022   431051 
 3802000   0.98905132   -3.1775916   -1.6664145  0.065618289   -3.1775916    1.5111771   431041 
 3803000   0.99050898   -3.1790247   -1.6655853  0.065928465   -3.1790247    1.5134394   431031 
 3804000   0.99071637   -3.1779944    -1.664203  0.064779894   -3.1779944    1.5137914   431021 
 3805000    0.9874173   -3.1738035    -1.665018  0.068732984   -3.1738035    1.5087855   431011 
 3806000    0.9884328    -3.174034   -1.6636618  0.066666546    -3.174034    1.5103723   431001 
 3807000   0.98996313   -3.1781779   -1.6654321  0.068617975   -3.1781779    1.5127458   430991 
 3808000   0.99086302   -3.1785732   -1.6644172  0.071938878   -3.1785732     1.514156   430981 
 3809000   0.98772314   -3.1750308   -1.6656379  0.066715827   -3.1750308    1.5093929   430971 
 3810000   0.98686382   -3.1760701   -1.6679553  0.067393065   -3.1760701    1.5081148   430961 
 3811000   0.98894863   -3.1763622   -1.6650264  0.070357993   -3.1763622    1.5113358   430951 
 3812000   0.98912427   -3.1772766   -1.6656373   0.06761719   -3.1772766    1.5116393   430941 
 3813000   0.99038917    -3.177921   -1.6643135  0.067038146    -3.177921    1.5136075   430931 
 3814000   0.98983107   -3.1770688   -1.6642791  0.064088111   -3.1770688    1.5127897   430921 
 3815000   0.98877348   -3.1762651   -1.6650567  0.070006349   -3.1762651    1.5112084   430911 
 3816000   0.99062736    -3.179125   -1.6650481  0.068375664    -3.179125    1.5140769   430901 
 3817000   0.99039642   -3.1783152   -1.6645561  0.067731828   -3.1783152    1.5137591   430891 
 3818000   0.98834122   -3.1765058   -1.6658529  0.062544418   -3.1765058    1.5106529   430881 
 3819000   0.98769265   -3.1761566   -1.6664599  0.067202399   -3.1761566    1.5096966   430871 
 3820000   0.98835384   -3.1771108   -1.6663684  0.068114437   -3.1771108    1.5107423   430861 
 3821000   0.98755625   -3.1778825   -1.6683243  0.065678425   -3.1778825    1.5095582   430851 
 3822000   0.98701153   -3.1772587   -1.6684981  0.069365971   -3.1772587    1.5087606   430841 
 3823000   0.98853493   -3.1792845   -1.6681601  0.066251545   -3.1792845    1.5111244   430831 
 3824000   0.98755511   -3.1769899   -1.6673283   0.06549824   -3.1769899    1.5096616   430821 
 3825000   0.98638977   -3.1760298   -1.6681147  0.070669527   -3.1760298    1.5079152   430811 
 3826000   0.98753868   -3.1778968   -1.6681903  0.068738798   -3.1778968    1.5097066   430801 
 3827000   0.98807945   -3.1784602   -1.6678919  0.064436705   -3.1784602    1.5105683   430791 
 3828000   0.98707666   -3.1775761   -1.6685058   0.06932582   -3.1775761    1.5090703   430781 
 3829000   0.98859534     -3.17952   -1.6680928   0.06842388     -3.17952    1.5114272   430771 
 3830000   0.98924376   -3.1799093   -1.6674556  0.067454794   -3.1799093    1.5124536   430761 
 3831000   0.98861025   -3.1815168   -1.6699966  0.068474531   -3.1815168    1.5115202   430751 
 3832000   0.98945488    -3.183444   -1.6705973  0.069900256    -3.183444    1.5128467   430741 
 3833000   0.98959629   -3.1819442   -1.6688462  0.067130766   -3.1819442     1.513098   430731 
 3834000    0.9902993    -3.183853   -1.6696449  0.069712357    -3.183853    1.5142081   430721 
 3835000   0.98974979   -3.1823073   -1.6689043  0.074617112   -3.1823073     1.513403   430711 
 3836000   0.98889848   -3.1813868   -1.6692504  0.070844536   -3.1813868    1.5121364   430701 
 3837000   0.98837019   -3.1803831   -1.6690195  0.075673474   -3.1803831    1.5113637   430691 
 3838000   0.99020116   -3.1819589   -1.6677603  0.072593722   -3.1819589    1.5141986   430681 
 3839000   0.98889013   -3.1807451   -1.6685162  0.073409293   -3.1807451    1.5122289   430671 
 3840000   0.99031474   -3.1836506   -1.6692079  0.061695616   -3.1836506    1.5144426   430661 
 3841000    0.9905919   -3.1847092   -1.6698075  0.069708042   -3.1847092    1.5149017   430651 
 3842000   0.99007431   -3.1840581   -1.6699128  0.066827525   -3.1840581    1.5141453   430641 
 3843000   0.98995196    -3.184163   -1.6701696  0.066436118    -3.184163    1.5139933   430631 
 3844000   0.98764371   -3.1798483     -1.66935  0.075101611   -3.1798483    1.5104983   430621 
 3845000   0.98698571   -3.1798282   -1.6703012  0.064898092   -3.1798282     1.509527   430611 
 3846000   0.98616254    -3.178195    -1.669892  0.070608079    -3.178195     1.508303   430601 
 3847000   0.98749263    -3.179375   -1.6690026  0.067083134    -3.179375    1.5103724   430591 
 3848000   0.98674387   -3.1793828   -1.6701206  0.064126126   -3.1793828    1.5092622   430581 
 3849000   0.98597895   -3.1777424   -1.6696151  0.067132265   -3.1777424    1.5081273   430571 
 3850000   0.98762832   -3.1794789   -1.6687937  0.061986978   -3.1794789    1.5106852   430561 
 3851000   0.98666984   -3.1777189   -1.6684647  0.072411431   -3.1777189    1.5092542   430551 
 3852000   0.98761703   -3.1794777   -1.6687396  0.067276777   -3.1794777    1.5107381   430541 
 3853000   0.98709288   -3.1799215   -1.6699501  0.071565174   -3.1799215    1.5099714   430531 
 3854000    0.9862814   -3.1786835   -1.6699184  0.068020249   -3.1786835    1.5087651   430521 
 3855000   0.98647197   -3.1783228   -1.6692311  0.068049016   -3.1783228    1.5090917   430511 
 3856000   0.98660033    -3.178193   -1.6688699  0.065277014    -3.178193    1.5093231   430501 
 3857000   0.98767151    -3.179482   -1.6684851   0.06608553    -3.179482    1.5109969   430491 
 3858000   0.98668933   -3.1798357   -1.6703063  0.062455634   -3.1798357    1.5095294   430481 
 3859000   0.98590141   -3.1781464   -1.6697874  0.064936135   -3.1781464     1.508359   430471 
 3860000   0.98662806   -3.1791149   -1.6696091  0.066626595   -3.1791149    1.5095058   430461 
 3861000    0.9859641   -3.1785437   -1.6700187   0.06585985   -3.1785437     1.508525   430451 
 3862000     0.986908   -3.1799948   -1.6699905  0.063824197   -3.1799948    1.5100043   430441 
 3863000   0.98780951   -3.1818947    -1.670476  0.061675124   -3.1818947    1.5114187   430431 
 3864000   0.98864575   -3.1814424    -1.668709  0.064524032   -3.1814424    1.5127334   430421 
 3865000   0.98880438   -3.1822448   -1.6692336  0.066428922   -3.1822448    1.5130112   430411 
 3866000   0.98719112   -3.1784093   -1.6678314  0.074977917   -3.1784093    1.5105778   430401 
 3867000   0.98848021   -3.1806086   -1.6680231  0.068349787   -3.1806086    1.5125855   430391 
 3868000   0.98648023   -3.1787485   -1.6691883  0.070713603   -3.1787485    1.5095602   430381 
 3869000    0.9871972   -3.1815571   -1.6708647   0.06846888   -3.1815571    1.5106924   430371 
 3870000    0.9871532   -3.1806632    -1.670003  0.066496036   -3.1806632    1.5106602   430361 
 3871000   0.98757238   -3.1820536   -1.6707168  0.058453146   -3.1820536    1.5113368   430351 
 3872000   0.98702144   -3.1821996   -1.6716708  0.067638657   -3.1821996    1.5105288   430341 
 3873000   0.98567711   -3.1798441   -1.6713376  0.061032276   -3.1798441    1.5085064   430331 
 3874000   0.98617368   -3.1795044   -1.6702029  0.070912507   -3.1795044    1.5093015   430321 
 3875000   0.98558921   -3.1784683   -1.6700263   0.06756668   -3.1784683     1.508442   430311 
 3876000   0.98636402   -3.1786956   -1.6690326  0.065810035   -3.1786956    1.5096629   430301 
 3877000   0.98681807   -3.1800289   -1.6696359  0.069443705   -3.1800289     1.510393   430291 
 3878000   0.98749023   -3.1802225   -1.6687656  0.068257846   -3.1802225    1.5114569   430281 
 3879000   0.98683347   -3.1803981   -1.6699113  0.063629309   -3.1803981    1.5104868   430271 
 3880000   0.98634855   -3.1804812   -1.6707016  0.067578838   -3.1804812    1.5097796   430261 
 3881000   0.98599991   -3.1793113   -1.6700302  0.067425201   -3.1793113    1.5092811   430251 
 3882000   0.98491101   -3.1774614   -1.6698121   0.06392792   -3.1774614    1.5076493   430241 
 3883000   0.98629119   -3.1792596   -1.6694625  0.068042784   -3.1792596    1.5097971   430231 
 3884000   0.98574241   -3.1791508   -1.6701587  0.066043695   -3.1791508    1.5089921   430221 
 3885000   0.98593881   -3.1795417   -1.6702138  0.066337163   -3.1795417    1.5093278   430211 
 3886000   0.98620973   -3.1795319   -1.6697542  0.068539795   -3.1795319    1.5097777   430201 
 3887000   0.98427478   -3.1768209   -1.6699704  0.074038426   -3.1768209    1.5068505   430191 
 3888000   0.98365161    -3.176117   -1.6701855  0.068325315    -3.176117    1.5059315   430181 
 3889000   0.98572174   -3.1791921   -1.6700563   0.06645669   -3.1791921    1.5091359   430171 
 3890000   0.98510321   -3.1779129    -1.669689  0.066309283   -3.1779129     1.508224   430161 
 3891000   0.98544524   -3.1774407    -1.668658  0.066126237   -3.1774407    1.5087827   430151 
 3892000   0.98474868   -3.1777367   -1.6699854  0.070917841   -3.1777367    1.5077513   430141 
 3893000    0.9858676   -3.1790327   -1.6695331  0.065260818   -3.1790327    1.5094995   430131 
 3894000   0.98714311   -3.1804694   -1.6689817  0.067411913   -3.1804694    1.5114877   430121 
 3895000   0.98709215   -3.1810532   -1.6696085  0.067960549   -3.1810532    1.5114448   430111 
 3896000   0.98603042   -3.1796572   -1.6698031  0.070584723   -3.1796572    1.5098541   430101 
 3897000   0.98570564   -3.1781005   -1.6687086   0.06191123   -3.1781005    1.5093919   430091 
 3898000   0.98648151   -3.1799352     -1.66932  0.064999071   -3.1799352    1.5106151   430081 
 3899000   0.98396714   -3.1775634   -1.6707636  0.065853899   -3.1775634    1.5067999   430071 
 3900000   0.98497546   -3.1795735   -1.6711945   0.06818943   -3.1795735     1.508379   430061 
 3901000   0.98444623   -3.1796658   -1.6720622  0.067624577   -3.1796658    1.5076036   430051 
 3902000    0.9846795   -3.1803887   -1.6723928  0.066618315   -3.1803887    1.5079959   430041 
 3903000   0.98629924    -3.182338   -1.6718264  0.064078685    -3.182338    1.5105116   430031 
 3904000   0.98649607   -3.1831022   -1.6722541  0.073073096   -3.1831022    1.5108482   430021 
 3905000   0.98608831    -3.183292   -1.6730332  0.070604909    -3.183292    1.5102588   430011 
 3906000   0.98566707   -3.1819495   -1.6723008  0.071264671   -3.1819495    1.5096488   430001 
 3907000   0.98791523   -3.1858711   -1.6727439  0.070517069   -3.1858711    1.5131272   429991 
 3908000   0.98689238   -3.1848615   -1.6732657  0.071777787   -3.1848615    1.5115957   429981 
 3909000   0.98727403   -3.1873874   -1.6751719  0.066763057   -3.1873874    1.5122155   429971 
 3910000   0.98540691   -3.1835219   -1.6741312  0.072075662   -3.1835219    1.5093907   429961 
 3911000   0.98624711   -3.1856718    -1.674959  0.070483491   -3.1856718    1.5107128   429951 
 3912000   0.98592206   -3.1863161   -1.6760661  0.069673279   -3.1863161      1.51025   429941 
 3913000   0.98523637   -3.1865501   -1.6773153   0.07052458   -3.1865501    1.5092348   429931 
 3914000   0.98363943   -3.1846736   -1.6778501  0.070545543   -3.1846736    1.5068236   429921 
 3915000   0.98541061     -3.18733   -1.6777581  0.069733737     -3.18733    1.5095719   429911 
 3916000   0.98477289   -3.1870436   -1.6784135   0.06809228   -3.1870436    1.5086301   429901 
 3917000   0.98412161   -3.1861978   -1.6785304   0.06349562   -3.1861978    1.5076674   429891 
 3918000   0.98487016    -3.188548   -1.6796987  0.065303178    -3.188548    1.5088493   429881 
 3919000   0.98381268   -3.1883901   -1.6811258  0.065610772   -3.1883901    1.5072643   429871 
 3920000   0.98499186   -3.1893304   -1.6802245  0.063782405   -3.1893304    1.5091059   429861 
 3921000   0.98401297   -3.1884152    -1.680774  0.070339604   -3.1884152    1.5076413   429851 
 3922000   0.98479163   -3.1890695   -1.6802001  0.063255671   -3.1890695    1.5088694   429841 
 3923000   0.98401318   -3.1871261   -1.6794144  0.070536987   -3.1871261    1.5077117   429831 
 3924000   0.98501784   -3.1884502   -1.6791641  0.069439507   -3.1884502    1.5092862   429821 
 3925000   0.98583739   -3.1886817   -1.6781046  0.073986522   -3.1886817    1.5105771   429811 
 3926000   0.98598551   -3.1884994   -1.6776602  0.068389476   -3.1884994    1.5108392   429801 
 3927000   0.98620973   -3.1903818   -1.6791639  0.069403486   -3.1903818    1.5112179   429791 
 3928000   0.98564257   -3.1894003   -1.6790163  0.068926977   -3.1894003     1.510384   429781 
 3929000   0.98705893   -3.1905977   -1.6780081  0.069069905   -3.1905977    1.5125896   429771 
 3930000   0.98558725   -3.1892176   -1.6788481  0.072072617   -3.1892176    1.5103695   429761 
 3931000   0.98672844   -3.1903228   -1.6781693  0.070804674   -3.1903228    1.5121535   429751 
 3932000   0.98606126   -3.1903271   -1.6791609   0.07023744   -3.1903271    1.5111662   429741 
 3933000   0.98745655   -3.1911315   -1.6777918  0.070923221   -3.1911315    1.5133398   429731 
 3934000   0.98606304   -3.1895567   -1.6783174   0.06945767   -3.1895567    1.5112393   429721 
 3935000   0.98483464   -3.1888619   -1.6794701  0.067512681   -3.1888619    1.5093918   429711 
 3936000   0.98376722   -3.1878247   -1.6800338  0.065298004   -3.1878247    1.5077909   429701 
 3937000   0.98369006    -3.186486   -1.6787783  0.062303453    -3.186486    1.5077077   429691 
 3938000   0.98406635   -3.1865861   -1.6782665  0.060518845   -3.1865861    1.5083196   429681 
 3939000   0.98329225   -3.1861386   -1.6789705  0.064566543   -3.1861386    1.5071681   429671 
 3940000   0.98493597   -3.1884659   -1.6787432  0.065736007   -3.1884659    1.5097227   429661 
 3941000    0.9832171   -3.1859261    -1.678803  0.066180996   -3.1859261    1.5071231   429651 
 3942000   0.98380765   -3.1872378   -1.6791743  0.063734676   -3.1872378    1.5080634   429641 
 3943000   0.98485372   -3.1871941   -1.6774921  0.066746837   -3.1871941    1.5097021   429631 
 3944000   0.98458282   -3.1873676   -1.6780456  0.063409619   -3.1873676    1.5093219   429621 
 3945000   0.98567568   -3.1879748   -1.6769424  0.071494324   -3.1879748    1.5110324   429611 
 3946000   0.98416552    -3.185398   -1.6766455    0.0655383    -3.185398    1.5087525   429601 
 3947000   0.98416813    -3.184862   -1.6760704  0.066016833    -3.184862    1.5087916   429591 
 3948000   0.98399835   -3.1865963   -1.6780299  0.064376796   -3.1865963    1.5085664   429581 
 3949000   0.98582099   -3.1881372   -1.6767413  0.064292567   -3.1881372    1.5113959   429571 
 3950000   0.98286159   -3.1851445   -1.6782506  0.067320876   -3.1851445    1.5068938   429561 
 3951000   0.98479757   -3.1884374   -1.6785403  0.062446596   -3.1884374    1.5098972   429551 
 3952000   0.98522582   -3.1884671   -1.6778782  0.069548636   -3.1884671    1.5105889   429541 
 3953000   0.98407181   -3.1873281   -1.6784734  0.065388966   -3.1873281    1.5088547   429531 
 3954000   0.98455224   -3.1879972   -1.6783707  0.065854486   -3.1879972    1.5096264   429521 
 3955000   0.98591331   -3.1893464   -1.6775978  0.072690586   -3.1893464    1.5117486   429511 
 3956000   0.98606838   -3.1910087   -1.6789872  0.069180442   -3.1910087    1.5120216   429501 
 3957000   0.98351115    -3.187969   -1.6798335  0.068349332    -3.187969    1.5081355   429491 
 3958000   0.98283186   -3.1876711   -1.6805422  0.061043858   -3.1876711    1.5071289   429481 
 3959000   0.98289494   -3.1870965   -1.6798357  0.070082757   -3.1870965    1.5072607   429471 
 3960000   0.98320099   -3.1884759   -1.6807107  0.064427274   -3.1884759    1.5077652   429461 
 3961000   0.98367385   -3.1886156   -1.6800901  0.064698476   -3.1886156    1.5085254   429451 
 3962000   0.98425356   -3.1896497   -1.6802001  0.060843758   -3.1896497    1.5094496   429441 
 3963000   0.98424296   -3.1909333   -1.6814648  0.062630316   -3.1909333    1.5094685   429431 
 3964000   0.98440722   -3.1918746    -1.682119  0.066451368   -3.1918746    1.5097556   429421 
 3965000   0.98517813   -3.1918419   -1.6808688  0.072860193   -3.1918419    1.5109731   429411 
 3966000   0.98441527   -3.1920097   -1.6821714  0.071214349   -3.1920097    1.5098382   429401 
 3967000   0.98477349   -3.1926636   -1.6822407  0.064923847   -3.1926636    1.5104228   429391 
 3968000   0.98413866   -3.1924042   -1.6829199  0.068960266   -3.1924042    1.5094843   429381 
 3969000   0.98428244   -3.1937183   -1.6839783  0.063290234   -3.1937183      1.50974   429371 
 3970000   0.98380125   -3.1928502   -1.6838132  0.063265097   -3.1928502    1.5090371   429361 
 3971000   0.98342629   -3.1932097   -1.6847126  0.067246041   -3.1932097    1.5084971   429351 
 3972000   0.98598335   -3.1954301   -1.6829755  0.062939909   -3.1954301    1.5124546   429341 
 3973000   0.98351146   -3.1915708   -1.6828728  0.069222423   -3.1915708     1.508698   429331 
 3974000   0.98275348   -3.1919686   -1.6843982  0.070340214   -3.1919686    1.5075704   429321 
 3975000   0.98416698   -3.1931099    -1.683336  0.066272829   -3.1931099    1.5097739   429311 
 3976000    0.9841903   -3.1916725   -1.6818277  0.066019528   -3.1916725    1.5098448   429301 
 3977000   0.98405589   -3.1921301   -1.6824563  0.070987995   -3.1921301    1.5096738   429291 
 3978000   0.98406984    -3.191662   -1.6819316  0.070678785    -3.191662    1.5097304   429281 
 3979000    0.9861393   -3.1946598   -1.6817192  0.071585652   -3.1946598    1.5129405   429271 
 3980000   0.98436122   -3.1925862   -1.6823384  0.068227835   -3.1925862    1.5102477   429261 
 3981000    0.9821572   -3.1887348   -1.6818335  0.074274372   -3.1887348    1.5069014   429251 
 3982000   0.98355017    -3.191095   -1.6820213  0.068950778    -3.191095    1.5090737   429241 
 3983000   0.98301489   -3.1900827   -1.6817951  0.064840164   -3.1900827    1.5082876   429231 
 3984000   0.98228604   -3.1912078   -1.6840034  0.061808513   -3.1912078    1.5072044   429221 
 3985000   0.98228443    -3.191282    -1.684045  0.064132965    -3.191282     1.507237   429211 
 3986000   0.98164488   -3.1898963   -1.6836056  0.064409715   -3.1898963    1.5062908   429201 
 3987000   0.98326498   -3.1902774   -1.6814655  0.061201687   -3.1902774    1.5088119   429191 
 3988000   0.98210665   -3.1886405   -1.6815709  0.068516045   -3.1886405    1.5070696   429181 
 3989000    0.9828968    -3.189906   -1.6815888  0.072837259    -3.189906    1.5083172   429171 
 3990000   0.98517288   -3.1919686   -1.6801234  0.066255813   -3.1919686    1.5118452   429161 
 3991000   0.98387808   -3.1904494    -1.680556  0.066007629   -3.1904494    1.5098934   429151 
 3992000   0.98490171   -3.1904182   -1.6789186  0.066219941   -3.1904182    1.5114995   429141 
 3993000   0.98451846   -3.1883261   -1.6773796  0.070703494   -3.1883261    1.5109466   429131 
 3994000    0.9854732   -3.1912479   -1.6788008  0.066098936   -3.1912479    1.5124471   429121 
 3995000   0.98643756   -3.1920055   -1.6780431  0.063428545   -3.1920055    1.5139624   429111 
 3996000   0.98466216   -3.1890661   -1.6777934  0.067927025   -3.1890661    1.5112728   429101 
 3997000   0.98459263   -3.1884219   -1.6772207  0.065723609   -3.1884219    1.5112013   429091 
 3998000   0.98545646   -3.1876396   -1.6750773  0.071032218   -3.1876396    1.5125624   429081 
 3999000   0.98531798   -3.1884263   -1.6760413  0.067651269   -3.1884263    1.5123851   429071 
 4000000   0.98413946   -3.1866575   -1.6760462  0.069225527   -3.1866575    1.5106113   429061 
 4001000   0.98231904   -3.1867509   -1.6788987  0.059221326   -3.1867509    1.5078522   429051 
 4002000   0.98185769   -3.1862927   -1.6791135  0.060741121   -3.1862927    1.5071792   429041 
 4003000   0.98334933   -3.1878726   -1.6783686  0.059539048   -3.1878726    1.5095041   429031 
 4004000    0.9829192   -3.1859764   -1.6770975  0.062680153   -3.1859764     1.508879   429021 
 4005000   0.98253033   -3.1853802    -1.677063   0.06562404   -3.1853802    1.5083171   429011 
 4006000   0.98124097   -3.1842691   -1.6778962  0.063304944   -3.1842691    1.5063729   429001 
 4007000   0.98404241   -3.1873608    -1.676652  0.062828469   -3.1873608    1.5107088   428991 
 4008000   0.98246435   -3.1845543   -1.6762329  0.066614126   -3.1845543    1.5083213   428981 
 4009000   0.98139821   -3.1837951   -1.6770754  0.069909808   -3.1837951    1.5067197   428971 
 4010000   0.98205314   -3.1864668   -1.6787065  0.062413006   -3.1864668    1.5077603   428961 
 4011000   0.98269923   -3.1856224    -1.676835  0.062781783   -3.1856224    1.5087874   428951 
 4012000   0.98124137   -3.1840274   -1.6774432  0.066598041   -3.1840274    1.5065843   428941 
 4013000    0.9831992   -3.1866751   -1.6770497  0.067723918   -3.1866751    1.5096255   428931 
 4014000   0.98402828   -3.1877601   -1.6768264  0.073402397   -3.1877601    1.5109337   428921 
 4015000   0.98324827   -3.1871009   -1.6773296  0.068161902   -3.1871009    1.5097712   428911 
 4016000   0.98407007    -3.188247   -1.6771787  0.066964438    -3.188247    1.5110683   428901 
 4017000   0.98325229   -3.1873181   -1.6774703  0.068277437   -3.1873181    1.5098478   428891 
 4018000   0.98372014   -3.1876906   -1.6770892  0.070944703   -3.1876906    1.5106014   428881 
 4019000   0.98563207   -3.1907001   -1.6771274  0.072002991   -3.1907001    1.5135727   428871 
 4020000   0.98478287   -3.1909885   -1.6786846  0.074292156   -3.1909885    1.5123039   428861 
 4021000   0.98300092   -3.1880257   -1.6784231  0.071784989   -3.1880257    1.5096026   428851 
 4022000   0.98379693   -3.1901895   -1.6793293  0.073234074   -3.1901895    1.5108602   428841 
 4023000   0.98459107   -3.1912196   -1.6791045  0.067124588   -3.1912196    1.5121151   428831 
 4024000   0.98390015   -3.1905902    -1.679501  0.072448805   -3.1905902    1.5110892   428821 
 4025000   0.98396426   -3.1921563   -1.6809334  0.065705413   -3.1921563    1.5112229   428811 
 4026000   0.98364446   -3.1908447   -1.6800776  0.066548859   -3.1908447     1.510767   428801 
 4027000   0.98457253   -3.1931525   -1.6809248  0.065001749   -3.1931525    1.5122277   428791 
 4028000   0.98357047   -3.1923725   -1.6816486  0.062010288   -3.1923725    1.5107238   428781 
 4029000   0.98416407   -3.1933544   -1.6816836  0.070377026   -3.1933544    1.5116708   428771 
 4030000   0.98154805   -3.1887246   -1.6810368  0.068124474   -3.1887246    1.5076878   428761 
 4031000   0.98177678   -3.1903312   -1.6822569    0.0654637   -3.1903312    1.5080743   428751 
 4032000   0.98218643   -3.1904566   -1.6817178  0.064167998   -3.1904566    1.5087387   428741 
 4033000   0.98153984   -3.1896612   -1.6818805  0.064728842   -3.1896612    1.5077807   428731 
 4034000    0.9811225   -3.1899928    -1.682818   0.06603286   -3.1899928    1.5071748   428721 
 4035000   0.98293905   -3.1908661   -1.6808656   0.06796141   -3.1908661    1.5100005   428711 
 4036000   0.98132349   -3.1893818   -1.6818279  0.067473888   -3.1893818    1.5075538   428701 
 4037000   0.98303211   -3.1929861   -1.6827722  0.064181938   -3.1929861    1.5102139   428691 
 4038000    0.9818675   -3.1914426   -1.6829826  0.066309229   -3.1914426    1.5084599   428681 
 4039000   0.98192237   -3.1914039   -1.6828244  0.067358842   -3.1914039    1.5085794   428671 
 4040000   0.98247169   -3.1917407   -1.6822821  0.065393312   -3.1917407    1.5094586   428661 
 4041000   0.98185567   -3.1925944    -1.684047  0.062441725   -3.1925944    1.5085473   428651 
 4042000   0.98264608   -3.1928077   -1.6830108  0.067650535   -3.1928077     1.509797   428641 
 4043000   0.98160154   -3.1913742    -1.683147  0.065183826   -3.1913742    1.5082273   428631 
 4044000   0.98137806    -3.191275    -1.683356  0.068665091    -3.191275    1.5079191   428621 
 4045000   0.98396037   -3.1935874   -1.6816653  0.069071288   -3.1935874    1.5119221   428611 
 4046000    0.9819635   -3.1907506   -1.6818615  0.064972395   -3.1907506     1.508889   428601 
 4047000   0.98076261   -3.1898184   -1.6827395  0.069217506   -3.1898184    1.5070789   428591 
 4048000   0.98036281   -3.1896217    -1.683122  0.066909768   -3.1896217    1.5064997   428581 
 4049000   0.98173803   -3.1925001    -1.683852  0.062345689   -3.1925001    1.5086482   428571 
 4050000    0.9819236   -3.1922973   -1.6833288  0.069305014   -3.1922973    1.5089685   428561 
 4051000   0.98156215   -3.1920647   -1.6836164  0.064811143   -3.1920647    1.5084483   428551 
 4052000   0.98326696   -3.1938687   -1.6827652  0.063695816   -3.1938687    1.5111035   428541 
 4053000   0.98253186    -3.192464    -1.682455   0.06647856    -3.192464     1.510009   428531 
 4054000   0.98374842   -3.1933838   -1.6814699  0.064098962   -3.1933838    1.5119139   428521 
 4055000   0.98197661   -3.1903662   -1.6811401   0.06993349   -3.1903662    1.5092261   428511 
 4056000   0.98418396   -3.1943935   -1.6817396  0.069583656   -3.1943935    1.5126539   428501 
 4057000   0.98102586   -3.1899094   -1.6820742  0.070932947   -3.1899094    1.5078352   428491 
 4058000   0.98335701   -3.1940542   -1.6826007  0.065888914   -3.1940542    1.5114535   428481 
 4059000   0.98358253   -3.1943292   -1.6824938  0.068771899   -3.1943292    1.5118354   428471 
 4060000   0.98273206   -3.1937324   -1.6831689  0.065469635   -3.1937324    1.5105634   428461 
 4061000   0.98351148   -3.1947816   -1.6829849  0.063575237   -3.1947816    1.5117967   428451 
 4062000   0.98114967   -3.1911777   -1.6829762  0.067465917   -3.1911777    1.5082015   428441 
 4063000   0.98216463   -3.1926642   -1.6828673  0.065764576   -3.1926642    1.5097969   428431 
 4064000     0.981757   -3.1922493   -1.6830437   0.05959791   -3.1922493    1.5092055   428421 
 4065000   0.98077946   -3.1903198   -1.6825818  0.070595785   -3.1903198     1.507738   428411 
 4066000   0.98126136   -3.1908853   -1.6823713  0.068021948   -3.1908853     1.508514   428401 
 4067000   0.98180179   -3.1905567   -1.6811766  0.068382584   -3.1905567    1.5093801   428391 
 4068000   0.98119632   -3.1899352   -1.6814507  0.066519852   -3.1899352    1.5084845   428381 
 4069000   0.98065214   -3.1904653   -1.6827823  0.064378541   -3.1904653     1.507683   428371 
 4070000   0.98066234   -3.1890423   -1.6813083  0.066399779   -3.1890423    1.5077339   428361 
 4071000   0.98221119   -3.1914259   -1.6812754  0.065463267   -3.1914259    1.5101505   428351 
 4072000   0.98198929   -3.1896352   -1.6797906  0.066375443   -3.1896352    1.5098446   428341 
 4073000   0.98024034   -3.1873697    -1.680179  0.065787503   -3.1873697    1.5071907   428331 
 4074000   0.97959733   -3.1869325   -1.6806954  0.062740627   -3.1869325    1.5062372   428321 
 4075000    0.9812538   -3.1899677   -1.6811483  0.064720928   -3.1899677    1.5088194   428311 
 4076000   0.98216305   -3.1897841   -1.6795314  0.062440146   -3.1897841    1.5102527   428301 
 4077000    0.9816142   -3.1892146   -1.6797705  0.064392488   -3.1892146     1.509444   428291 
 4078000   0.98265372   -3.1903077   -1.6792299  0.064416918   -3.1903077    1.5110778   428281 
 4079000   0.98078657   -3.1878998    -1.679658  0.066573238   -3.1878998    1.5082418   428271 
 4080000   0.98066096   -3.1872355   -1.6791516  0.071852588   -3.1872355    1.5080839   428261 
 4081000   0.97915506   -3.1854698   -1.6796666  0.071314047   -3.1854698    1.5058032   428251 
 4082000   0.97938641   -3.1859665   -1.6797724  0.057505328   -3.1859665    1.5061942   428241 
 4083000   0.97944197   -3.1866155   -1.6803007  0.064264322   -3.1866155    1.5063148   428231 
 4084000   0.98055705   -3.1872669   -1.6792019  0.063482169   -3.1872669    1.5080649   428221 
 4085000   0.97987381   -3.1877206   -1.6806713  0.068823405   -3.1877206    1.5070493   428211 
 4086000   0.98068245   -3.1898856   -1.6815574  0.066735874   -3.1898856    1.5083282   428201 
 4087000   0.97916616    -3.188594   -1.6825627  0.065279058    -3.188594    1.5060313   428191 
 4088000   0.97966556   -3.1890991   -1.6822645  0.066615331   -3.1890991    1.5068346   428181 
 4089000   0.97871592   -3.1876633   -1.6822542  0.060711803   -3.1876633    1.5054091   428171 
 4090000    0.9792408   -3.1882835   -1.6820319  0.066216131   -3.1882835    1.5062516   428161 
 4091000   0.97961145   -3.1899455   -1.6830885   0.06295263   -3.1899455    1.5068569   428151 
 4092000   0.98137729    -3.190967   -1.6813585   0.06479851    -3.190967    1.5096085   428141 
 4093000   0.98130974   -3.1926204   -1.6830806  0.067017294   -3.1926204    1.5095398   428131 
 4094000   0.98052198   -3.1907971   -1.6824339  0.066807831   -3.1907971    1.5083632   428121 
 4095000   0.98153486   -3.1933758   -1.6834192  0.069710671   -3.1933758    1.5099566   428111 
 4096000   0.98140726   -3.1927172   -1.6829216   0.07423599   -3.1927172    1.5097956   428101 
 4097000   0.98188786   -3.1929755   -1.6824052  0.068017707   -3.1929755    1.5105702   428091 
 4098000   0.98249411   -3.1946675   -1.6831293  0.065867089   -3.1946675    1.5115382   428081 
 4099000   0.98363188   -3.1956986   -1.6823746  0.071145113   -3.1956986     1.513324   428071 
 4100000   0.98283116   -3.1964729   -1.6843454  0.073001524   -3.1964729    1.5121274   428061 
 4101000   0.98156273   -3.1962073   -1.6859962  0.073543986   -3.1962073    1.5102112   428051 
 4102000   0.98108211   -3.1954699   -1.6859629  0.070304004   -3.1954699     1.509507   428041 
 4103000   0.98054421   -3.1954829   -1.6867683  0.069592838   -3.1954829    1.5087146   428031 
 4104000   0.98175721   -3.1963508   -1.6857345  0.066968149   -3.1963508    1.5106163   428021 
 4105000   0.98058783   -3.1957871   -1.6869349  0.067231892   -3.1957871    1.5088522   428011 
 4106000   0.98008732   -3.1951546   -1.6870373   0.06329226   -3.1951546    1.5081173   428001 
 4107000   0.98075769   -3.1951552   -1.6859711  0.072788748   -3.1951552    1.5091841   427991 
 4108000   0.97959776   -3.1938779   -1.6864435  0.073030162   -3.1938779    1.5074344   427981 
 4109000   0.98041717   -3.1961715   -1.6874409  0.066874676   -3.1961715    1.5087306   427971 
 4110000    0.9795054   -3.1936477    -1.686285  0.064613138   -3.1936477    1.5073627   427961 
 4111000    0.9789926   -3.1940886   -1.6874798  0.067302122   -3.1940886    1.5066088   427951 
 4112000   0.97997866    -3.195385   -1.6872235  0.064444089    -3.195385    1.5081615   427941 
 4113000   0.97897419   -3.1949674   -1.6883165  0.064419503   -3.1949674    1.5066509   427931 
 4114000    0.9781006    -3.192557   -1.6872154  0.064087484    -3.192557    1.5053416   427921 
 4115000   0.97836629   -3.1924285   -1.6866429  0.064306039   -3.1924285    1.5057857   427911 
 4116000    0.9805289   -3.1946534    -1.685504  0.065815129   -3.1946534    1.5091494   427901 
 4117000   0.98128305   -3.1941834    -1.683838  0.069061514   -3.1941834    1.5103454   427891 
 4118000   0.98105451   -3.1936623   -1.6836334  0.068405331   -3.1936623    1.5100289   427881 
 4119000   0.98106549   -3.1938196   -1.6837385  0.069568986   -3.1938196    1.5100811   427871 
 4120000   0.98041476   -3.1926785   -1.6835638  0.065434176   -3.1926785    1.5091148   427861 
 4121000   0.97969455   -3.1924312   -1.6843898  0.063791321   -3.1924312    1.5080414   427851 
 4122000   0.97889732   -3.1912173   -1.6843678  0.069742541   -3.1912173    1.5068495   427841 
 4123000   0.98005549   -3.1917328   -1.6830652  0.067723993   -3.1917328    1.5086675   427831 
 4124000    0.9793207   -3.1915499   -1.6839782  0.063552222   -3.1915499    1.5075717   427821 
 4125000   0.97898267   -3.1906676    -1.683581  0.063430441   -3.1906676    1.5070865   427811 
 4126000   0.97848842   -3.1899644   -1.6836036  0.063373261   -3.1899644    1.5063609   427801 
 4127000    0.9783366   -3.1909993   -1.6848369  0.063813114   -3.1909993    1.5061624   427791 
 4128000   0.97796764   -3.1904859   -1.6848564  0.065259826   -3.1904859    1.5056295   427781 
 4129000   0.97925828    -3.191434   -1.6837823  0.068693711    -3.191434    1.5076518   427771 
 4130000   0.97847083   -3.1902365   -1.6837618  0.068403903   -3.1902365    1.5064747   427761 
 4131000   0.97881187   -3.1905479   -1.6835129  0.068259824   -3.1905479     1.507035   427751 
 4132000   0.97782155    -3.189737   -1.6841916  0.068226856    -3.189737    1.5055454   427741 
 4133000     0.979606   -3.1920918   -1.6837637  0.065820078   -3.1920918    1.5083282   427731 
 4134000   0.97937996    -3.190382   -1.6823666  0.069547899    -3.190382    1.5080154   427721 
 4135000   0.97927274   -3.1911165    -1.683231  0.069358102   -3.1911165    1.5078855   427711 
 4136000   0.98015424   -3.1923042   -1.6830261  0.069963645   -3.1923042    1.5092782   427701 
 4137000   0.98077706   -3.1923587   -1.6820862   0.07142852   -3.1923587    1.5102725   427691 
 4138000   0.97905447   -3.1906696   -1.6830144  0.070701466   -3.1906696    1.5076552   427681 
 4139000   0.97956695   -3.1909807   -1.6825011  0.073979498   -3.1909807    1.5084796   427671 
 4140000   0.97770341   -3.1887957   -1.6831506  0.068272303   -3.1887957    1.5056451   427661 
 4141000   0.97907977   -3.1907818   -1.6829819  0.063129388   -3.1907818    1.5077999   427651 
 4142000   0.97813628   -3.1898037   -1.6834216  0.066298243   -3.1898037    1.5063822   427641 
 4143000   0.97922543   -3.1911698    -1.683075  0.069317429   -3.1911698    1.5080948   427631 
 4144000   0.97758944    -3.190772   -1.6851616  0.066649906    -3.190772    1.5056104   427621 
 4145000   0.97755907   -3.1899921   -1.6843933  0.056831009   -3.1899921    1.5055988   427611 
 4146000   0.97633194   -3.1881437   -1.6843997  0.060058943   -3.1881437     1.503744   427601 
 4147000   0.97903104   -3.1925545    -1.684618  0.062060797   -3.1925545    1.5079364   427591 
 4148000   0.97803572   -3.1908307   -1.6843921  0.068377401   -3.1908307    1.5064387   427581 
 4149000   0.97893875   -3.1925043   -1.6846394  0.065710796   -3.1925043    1.5078648   427571 
 4150000   0.98000126   -3.1919957   -1.6824589  0.071219795   -3.1919957    1.5095367   427561 
 4151000   0.97971776   -3.1925108   -1.6833754  0.062205506   -3.1925108    1.5091353   427551 
 4152000   0.97914104   -3.1919961   -1.6837138  0.063644313   -3.1919961    1.5082822   427541 
 4153000   0.98015089   -3.1928659   -1.6829927  0.066215164   -3.1928659    1.5098731   427531 
 4154000   0.97824994   -3.1914371    -1.684457  0.066364849   -3.1914371    1.5069801   427521 
 4155000   0.97825577   -3.1918448   -1.6848205  0.065217322   -3.1918448    1.5070243   427511 
 4156000   0.97797676    -3.191616   -1.6849862  0.062019567    -3.191616    1.5066297   427501 
 4157000   0.97857347   -3.1920845   -1.6845002  0.062469248   -3.1920845    1.5075843   427491 
 4158000   0.97647062   -3.1906789   -1.6862991  0.065430933   -3.1906789    1.5043798   427481 
 4159000   0.97736492   -3.1921043   -1.6863115  0.070178488   -3.1921043    1.5057928   427471 
 4160000   0.97755103   -3.1915603   -1.6854455  0.070591554   -3.1915603    1.5061148   427461 
 4161000   0.97890906    -3.194969   -1.6867266  0.067571986    -3.194969    1.5082424   427451 
 4162000   0.97879944   -3.1947343   -1.6866255  0.063515739   -3.1947343    1.5081088   427441 
 4163000    0.9789508   -3.1953674   -1.6869902  0.062303702   -3.1953674    1.5083773   427431 
 4164000   0.97818227   -3.1925803    -1.685352  0.068837368   -3.1925803    1.5072284   427421 
 4165000   0.97837782   -3.1929092   -1.6853443  0.065427599   -3.1929092     1.507565   427411 
 4166000   0.97732797   -3.1926775    -1.686695  0.063304481   -3.1926775    1.5059825   427401 
 4167000   0.97880523   -3.1952693   -1.6869752  0.064432246   -3.1952693    1.5082941   427391 
 4168000   0.97754217   -3.1937694   -1.6873863  0.066900852   -3.1937694    1.5063831   427381 
 4169000   0.97848825    -3.195646   -1.6877697  0.068095926    -3.195646    1.5078762   427371 
 4170000   0.97788284   -3.1940621   -1.6870835  0.068822093   -3.1940621    1.5069786   427361 
 4171000   0.97881649   -3.1943933   -1.6859407  0.067457854   -3.1943933    1.5084527   427351 
 4172000   0.98084862   -3.1973761   -1.6857564  0.065971433   -3.1973761    1.5116197   427341 
 4173000   0.97934777   -3.1948079   -1.6854658  0.067748684   -3.1948079     1.509342   427331 
 4174000   0.97879094   -3.1957307   -1.6872115  0.065688125   -3.1957307    1.5085192   427321 
 4175000   0.97952475   -3.1967189   -1.6870334  0.071085566   -3.1967189    1.5096855   427311 
 4176000   0.97905275   -3.1959901   -1.6869968  0.069234976   -3.1959901    1.5089933   427301 
 4177000   0.97742437   -3.1936101   -1.6870913  0.068832697   -3.1936101    1.5065188   427291 
 4178000   0.97933011    -3.195563   -1.6860715  0.071778895    -3.195563    1.5094915   427281 
 4179000     0.978621     -3.19617   -1.6877362  0.064971995     -3.19617    1.5084338   427271 
 4180000   0.98031377   -3.1976815   -1.6866032  0.063711621   -3.1976815    1.5110783   427261 
 4181000   0.97874776   -3.1964008    -1.687701   0.05917525   -3.1964008    1.5086998   427251 
 4182000   0.97864602   -3.1955226   -1.6869444  0.067759449   -3.1955226    1.5085783   427241 
 4183000   0.97794634   -3.1979107   -1.6903757  0.064580444   -3.1979107     1.507535   427231 
 4184000   0.97646935   -3.1953929   -1.6900995  0.066966517   -3.1953929    1.5052934   427221 
 4185000   0.97748804   -3.1978325   -1.6909334  0.062711594   -3.1978325     1.506899   427211 
 4186000   0.97567167   -3.1959744   -1.6918403  0.064302774   -3.1959744    1.5041341   427201 
 4187000    0.9769869    -3.197131    -1.690934   0.06280694    -3.197131     1.506197   427191 
 4188000   0.97806366   -3.1960565   -1.6881641  0.067252725   -3.1960565    1.5078923   427181 
 4189000   0.97803525   -3.1945323   -1.6866485  0.066138943   -3.1945323    1.5078838   427171 
 4190000   0.97846151   -3.1957948   -1.6872184  0.066303146   -3.1957948    1.5085763   427161 
 4191000   0.97763525   -3.1961431   -1.6888054  0.067842977   -3.1961431    1.5073377   427151 
 4192000   0.97926965   -3.1982795   -1.6883865  0.070445856   -3.1982795     1.509893   427141 
 4193000   0.97726126   -3.1959418   -1.6891102  0.063945419   -3.1959418    1.5068316   427131 
 4194000   0.97819699   -3.1955918   -1.6872821  0.065258394   -3.1955918    1.5083097   427121 
 4195000   0.97668799   -3.1937536   -1.6877353  0.069675006   -3.1937536    1.5060182   427111 
 4196000   0.97639947   -3.1936001   -1.6879916  0.069605518   -3.1936001    1.5056086   427101 
 4197000   0.97646395    -3.192344   -1.6866008  0.068886384    -3.192344    1.5057433   427091 
 4198000   0.97748156   -3.1950429   -1.6876951  0.068227834   -3.1950429    1.5073477   427081 
 4199000   0.97675405   -3.1954295   -1.6891684  0.067369407   -3.1954295    1.5062611   427071 
 4200000   0.97817127   -3.1968409   -1.6883589  0.066957571   -3.1968409     1.508482   427061 
 4201000   0.97768287   -3.1956101    -1.687846  0.066928643   -3.1956101    1.5077641   427051 
 4202000   0.97672382   -3.1947746   -1.6884543  0.067877649   -3.1947746    1.5063203   427041 
 4203000   0.97702913   -3.1951811   -1.6883546  0.066364262   -3.1951811    1.5068265   427031 
 4204000   0.97591284   -3.1945877   -1.6894476  0.062812825   -3.1945877    1.5051401   427021 
 4205000   0.97642466   -3.1954151   -1.6894503  0.062473105   -3.1954151    1.5059648   427011 
 4206000   0.97613142   -3.1953017   -1.6897539  0.063168006   -3.1953017    1.5055477   427001 
 4207000   0.97669319   -3.1964371   -1.6899876   0.06804488   -3.1964371    1.5064495   426991 
 4208000    0.9766934   -3.1957312   -1.6892461  0.067218597   -3.1957312    1.5064851   426981 
 4209000   0.97896935   -3.1987751   -1.6887442  0.061807173   -3.1987751     1.510031   426971 
 4210000   0.97775911   -3.1980867   -1.6898872  0.068614449   -3.1980867    1.5081995   426961 
 4211000   0.97674817   -3.1951684    -1.688493  0.070030588   -3.1951684    1.5066754   426951 
 4212000   0.97725608   -3.1960515   -1.6885573  0.069751813   -3.1960515    1.5074942   426941 
 4213000   0.97854088   -3.1976569   -1.6881454  0.065164751   -3.1976569    1.5095115   426931 
 4214000   0.97823531   -3.1965168   -1.6874414   0.07305218   -3.1965168    1.5090754   426921 
 4215000   0.97890738   -3.1964553   -1.6863078  0.066277992   -3.1964553    1.5101476   426911 
 4216000   0.97853545   -3.1986924   -1.6890832  0.070773959   -3.1986924    1.5096092   426901 
 4217000   0.97796824    -3.197496   -1.6887266  0.069897466    -3.197496    1.5087695   426891 
 4218000   0.97855827    -3.198495   -1.6887799  0.067808643    -3.198495    1.5097151   426881 
 4219000   0.97725083   -3.1985786   -1.6908453  0.067936659   -3.1985786    1.5077333   426871 
 4220000    0.9797977   -3.2003552   -1.6886571  0.063922384   -3.2003552    1.5116981   426861 
 4221000   0.97785876   -3.1970571   -1.6883151  0.066734047   -3.1970571    1.5087419   426851 
 4222000   0.97683577   -3.1967885   -1.6895896  0.068899296   -3.1967885    1.5071989   426841 
 4223000   0.97879352   -3.1981466   -1.6878917  0.067379522   -3.1981466    1.5102549   426831 
 4224000   0.97784537   -3.1963719   -1.6875445  0.068522711   -3.1963719    1.5088273   426821 
 4225000   0.97689194   -3.1958002   -1.6884088  0.067519092   -3.1958002    1.5073915   426811 
 4226000   0.97865591   -3.1967025   -1.6865538  0.064791275   -3.1967025    1.5101487   426801 
 4227000   0.97648247   -3.1957352    -1.688905  0.067945332   -3.1957352    1.5068303   426791 
 4228000   0.97627821   -3.1949973   -1.6884469  0.069527995   -3.1949973    1.5065504   426781 
 4229000   0.97638533   -3.1953266   -1.6885756  0.069176701   -3.1953266     1.506751   426771 
 4230000   0.97599762   -3.1936562   -1.6874682  0.071338082   -3.1936562    1.5061879   426761 
 4231000   0.97578603   -3.1947594   -1.6888627  0.062667568   -3.1947594    1.5058967   426751 
 4232000   0.97747361   -3.1971154   -1.6885789  0.067051453   -3.1971154    1.5085364   426741 
 4233000   0.97531717    -3.194228   -1.6889843  0.062622817    -3.194228    1.5052437   426731 
 4234000   0.97500487   -3.1933265   -1.6885296  0.061341619   -3.1933265    1.5047969   426721 
 4235000   0.97672565   -3.1960772   -1.6885891  0.062517857   -3.1960772    1.5074881   426711 
 4236000   0.97481401   -3.1932553   -1.6886824  0.062762045   -3.1932553    1.5045729   426701 
 4237000   0.97623322   -3.1958377    -1.689039  0.062425978   -3.1958377    1.5067987   426691 
 4238000   0.97605136   -3.1950865   -1.6885332  0.063285688   -3.1950865    1.5065533   426681 
 4239000   0.97478585    -3.193943   -1.6893078   0.06647871    -3.193943    1.5046352   426671 
 4240000   0.97557567   -3.1947551   -1.6888655  0.061933502   -3.1947551    1.5058896   426661 
 4241000   0.97580612   -3.1941878   -1.6879071  0.064023495   -3.1941878    1.5062807   426651 
 4242000   0.97560422   -3.1948026   -1.6887983  0.064762108   -3.1948026    1.5060043   426641 
 4243000   0.97717745   -3.1964034   -1.6879352   0.06760185   -3.1964034    1.5084682   426631 
 4244000   0.97725216   -3.1954142   -1.6867954  0.066260662   -3.1954142    1.5086189   426621 
 4245000   0.97597206   -3.1950877   -1.6884096  0.063152505   -3.1950877    1.5066781   426611 
 4246000   0.97575135   -3.1957697   -1.6893971  0.063155436   -3.1957697    1.5063726   426601 
 4247000    0.9764591     -3.19611   -1.6886094  0.064387858     -3.19611    1.5075006   426591 
 4248000   0.97584551    -3.196819   -1.6902304  0.066879082    -3.196819    1.5065887   426581 
 4249000   0.97586412   -3.1972165   -1.6905638  0.069726019   -3.1972165    1.5066527   426571 
 4250000   0.97483262   -3.1969687   -1.6918733  0.062906632   -3.1969687    1.5050954   426561 
 4251000   0.97558424   -3.1977816   -1.6914904  0.065384997   -3.1977816    1.5062912   426551 
 4252000    0.9767135   -3.1985529   -1.6904828  0.061480735   -3.1985529    1.5080701   426541 
 4253000   0.97577868   -3.1987742   -1.6921121  0.067529165   -3.1987742    1.5066621   426531 
 4254000   0.97505469   -3.1981414   -1.6925619  0.063894599   -3.1981414    1.5055795   426521 
 4255000   0.97590119   -3.1989304   -1.6920085  0.064846384   -3.1989304    1.5069219   426511 
 4256000    0.9764898     -3.19894   -1.6910739   0.06443428     -3.19894    1.5078661   426501 
 4257000   0.97625664   -3.1986862   -1.6911447  0.067450545   -3.1986862    1.5075415   426491 
 4258000   0.97580504    -3.198416   -1.6915365  0.068445563    -3.198416    1.5068794   426481 
 4259000   0.97799316   -3.2019807   -1.6916868  0.068891061   -3.2019807    1.5102938   426471 
 4260000   0.97747791   -3.2004254   -1.6908918  0.065289892   -3.2004254    1.5095335   426461 
 4261000   0.97752756   -3.2008376    -1.691192  0.062820846   -3.2008376    1.5096456   426451 
 4262000   0.97698135   -3.2003343   -1.6914968  0.067531159   -3.2003343    1.5088374   426441 
 4263000   0.97685448   -3.1981699   -1.6894931  0.070198151   -3.1981699    1.5086769   426431 
 4264000   0.97565957   -3.1966193   -1.6897526   0.07300554   -3.1966193    1.5068668   426421 
 4265000   0.97716023   -3.2000787   -1.6908588  0.063351039   -3.2000787    1.5092199   426411 
 4266000   0.97571675   -3.1991602   -1.6921344  0.066038685   -3.1991602    1.5070258   426401 
 4267000   0.97565624   -3.1991646    -1.692197   0.06844027   -3.1991646    1.5069676   426391 
 4268000   0.97810202    -3.202364   -1.6915833  0.063629612    -3.202364    1.5107808   426381 
 4269000   0.97586135   -3.1992591    -1.691904  0.066744939   -3.1992591    1.5073552   426371 
 4270000   0.97537097   -3.1979655   -1.6913325  0.065052074   -3.1979655     1.506633   426361 
 4271000   0.97558914   -3.1978999   -1.6908946  0.064893725   -3.1978999    1.5070054   426351 
 4272000   0.97474304   -3.1963654   -1.6906317  0.060877716   -3.1963654    1.5057337   426341 
 4273000    0.9752011   -3.1985685   -1.6920919  0.063795707   -3.1985685    1.5064766   426331 
 4274000    0.9743042    -3.196419   -1.6912926   0.06940349    -3.196419    1.5051264   426321 
 4275000   0.97485321   -3.1975937   -1.6915839  0.070742221   -3.1975937    1.5060099   426311 
 4276000   0.97556973   -3.1989848   -1.6918327  0.066581908   -3.1989848    1.5071522   426301 
 4277000   0.97510418   -3.1984063   -1.6919381  0.066513391   -3.1984063    1.5064683   426291 
 4278000   0.97550473    -3.199133   -1.6920106  0.062282092    -3.199133    1.5071224   426281 
 4279000    0.9736131   -3.1968347   -1.6925995    0.0656635   -3.1968347    1.5042352   426271 
 4280000   0.97435111   -3.1980699   -1.6926592  0.067888146   -3.1980699    1.5054108   426261 
 4281000   0.97464975   -3.1977601   -1.6918526  0.066513962   -3.1977601    1.5059075   426251 
 4282000   0.97568711   -3.2007388   -1.6931932  0.062055637   -3.2007388    1.5075457   426241 
 4283000   0.97412061   -3.1986153   -1.6934548  0.071606319   -3.1986153    1.5051606   426231 
 4284000   0.97530102   -3.1995292   -1.6925094  0.064100723   -3.1995292    1.5070198   426221 
 4285000   0.97623232   -3.2002908   -1.6917966  0.065009582   -3.2002908    1.5084942   426211 
 4286000   0.97699469   -3.2009638   -1.6912561  0.065303098   -3.2009638    1.5097077   426201 
 4287000   0.97724871   -3.2020098   -1.6918741  0.068352269   -3.2020098    1.5101357   426191 
 4288000    0.9758681   -3.1996262   -1.6915886  0.066799612   -3.1996262    1.5080376   426181 
 4289000   0.97632333   -3.2007166   -1.6919401  0.062230739   -3.2007166    1.5087765   426171 
 4290000   0.97522236   -3.2005455   -1.6934351  0.069540081   -3.2005455    1.5071104   426161 
 4291000   0.97641624   -3.2017255   -1.6927346  0.065223938   -3.2017255    1.5089909   426151 
 4292000   0.97373839   -3.1990989   -1.6942112  0.068753455   -3.1990989    1.5048877   426141 
 4293000   0.97512605   -3.2005808   -1.6935131   0.06528538   -3.2005808    1.5070677   426131 
 4294000    0.9743794   -3.1997489   -1.6937998  0.065593815   -3.1997489    1.5059491   426121 
 4295000   0.97453377   -3.2004695   -1.6942464  0.067036826   -3.2004695     1.506223   426111 
 4296000   0.97413351    -3.199231   -1.6935913   0.06791753    -3.199231    1.5056397   426101 
 4297000    0.9746175   -3.1991624   -1.6927393  0.068612308   -3.1991624    1.5064231   426091 
 4298000   0.97490432   -3.2009735   -1.6940717  0.065256822   -3.2009735    1.5069018   426081 
 4299000   0.97443157   -3.2015012   -1.6952948  0.067825111   -3.2015012    1.5062064   426071 
 4300000   0.97480369   -3.2026831   -1.6958661  0.066945251   -3.2026831     1.506817   426061 
 4301000   0.97628503   -3.2030058   -1.6938635  0.067547924   -3.2030058    1.5091422   426051 
 4302000   0.97240745   -3.1994027   -1.6962192  0.065240312   -3.1994027    1.5031836   426041 
 4303000   0.97460642   -3.2015646   -1.6949464  0.061526743   -3.2015646    1.5066182   426031 
 4304000   0.97454996   -3.2011228   -1.6945566  0.061780489   -3.2011228    1.5065662   426021 
 4305000   0.97270544   -3.1990515   -1.6953014  0.060689361   -3.1990515    1.5037501   426011 
 4306000   0.97272401   -3.2000713   -1.6962572  0.065242474   -3.2000713    1.5038141   426001 
 4307000   0.97411029   -3.1996346    -1.693642  0.065032415   -3.1996346    1.5059926   425991 
 4308000   0.97327996   -3.2003919   -1.6956477  0.065031636   -3.2003919    1.5047442   425981 
 4309000   0.97431529   -3.2023815   -1.6960013  0.064311064   -3.2023815    1.5063803   425971 
 4310000   0.97554303    -3.204549   -1.6962351  0.066679594    -3.204549    1.5083139   425961 
 4311000   0.97515498   -3.2029472    -1.695198  0.068749793   -3.2029472    1.5077493   425951 
 4312000   0.97419757   -3.2009325   -1.6946282  0.065331846   -3.2009325    1.5063043   425941 
 4313000   0.97468993   -3.2024449   -1.6953439  0.066557506   -3.2024449     1.507101   425931 
 4314000   0.97337697   -3.2006557   -1.6955495  0.066320883   -3.2006557    1.5051062   425921 
 4315000   0.97323594   -3.2021101   -1.6971866  0.064976661   -3.2021101    1.5049235   425911 
 4316000   0.97320686   -3.2010499   -1.6961361  0.062487061   -3.2010499    1.5049138   425901 
 4317000   0.97549573   -3.2035219   -1.6950333  0.060251491   -3.2035219    1.5084886   425891 
 4318000    0.9748753   -3.2011394   -1.6935748  0.064313892   -3.2011394    1.5075646   425881 
 4319000   0.97531145    -3.202797   -1.6945225  0.063408487    -3.202797    1.5082745   425871 
 4320000   0.97487429   -3.2035224   -1.6958886  0.064713757   -3.2035224    1.5076339   425861 
 4321000   0.97416045   -3.2020776   -1.6955123  0.067751928   -3.2020776    1.5065653   425851 
 4322000   0.97552453    -3.204346   -1.6956357  0.064248355    -3.204346    1.5087103   425841 
 4323000   0.97517219   -3.2016038    -1.693403  0.069342107   -3.2016038    1.5082008   425831 
 4324000    0.9750696    -3.201632   -1.6935544  0.064897381    -3.201632    1.5080776   425821 
 4325000    0.9744117    -3.200688   -1.6935926  0.065099898    -3.200688    1.5070954   425811 
 4326000   0.97473781   -3.2011249   -1.6934897  0.067945931   -3.2011249    1.5076352   425801 
 4327000   0.97493293    -3.201311   -1.6933385  0.068836418    -3.201311    1.5079724   425791 
 4328000   0.97598826   -3.2019538   -1.6923136  0.068920534   -3.2019538    1.5096402   425781 
 4329000   0.97430424   -3.2000946   -1.6930238  0.062837134   -3.2000946    1.5070708   425771 
 4330000   0.97334269   -3.1991165   -1.6934977  0.066300656   -3.1991165    1.5056188   425761 
 4331000   0.97482017   -3.2015792   -1.6936395  0.063608594   -3.2015792    1.5079397   425751 
 4332000   0.97200835   -3.1974577   -1.6938323  0.068849029   -3.1974577    1.5036254   425741 
 4333000   0.97202448   -3.1980891   -1.6944034  0.067349035   -3.1980891    1.5036857   425731 
 4334000   0.97353711   -3.2005562   -1.6944952  0.063620162   -3.2005562     1.506061   425721 
 4335000   0.97348731   -3.2006855   -1.6946662  0.061820907   -3.2006855    1.5060194   425711 
 4336000   0.97196982    -3.196889   -1.6931819  0.068356447    -3.196889    1.5037071   425701 
 4337000    0.9722975   -3.1974584    -1.693209  0.063120853   -3.1974584    1.5042493   425691 
 4338000   0.97114929      -3.1966   -1.6940917  0.066855052      -3.1966    1.5025082   425681 
 4339000   0.97147482   -3.1964436   -1.6933964  0.065101404   -3.1964436    1.5030472   425671 
 4340000   0.97284786   -3.1969344   -1.6917275  0.063565808   -3.1969344    1.5052069   425661 
 4341000   0.97224478   -3.1968138   -1.6925046  0.062016739   -3.1968138    1.5043091   425651 
 4342000   0.97277718   -3.1953534   -1.6901851  0.063873111   -3.1953534    1.5051683   425641 
 4343000   0.97114849   -3.1958855    -1.693202  0.067248732   -3.1958855    1.5026835   425631 
 4344000   0.97105216   -3.1949237   -1.6923539  0.059684088   -3.1949237    1.5025698   425621 
 4345000   0.97207054   -3.1952454   -1.6910645  0.063858519   -3.1952454    1.5041809   425611 
 4346000   0.97307299   -3.1957819   -1.6900144  0.064674886   -3.1957819    1.5057675   425601 
 4347000   0.97362927   -3.1969882   -1.6903245  0.064284844   -3.1969882    1.5066637   425591 
 4348000   0.97292199    -3.195211   -1.6896064  0.067753428    -3.195211    1.5056046   425581 
 4349000   0.97092494   -3.1931014    -1.690552  0.064036716   -3.1931014    1.5025494   425571 
 4350000   0.97322528   -3.1960253   -1.6898806   0.06503508   -3.1960253    1.5061447   425561 
 4351000   0.97367359   -3.1975786   -1.6907047  0.065923089   -3.1975786    1.5068739   425551 
 4352000   0.97409455   -3.1971373   -1.6895765  0.067097096   -3.1971373    1.5075608   425541 
 4353000   0.97180692   -3.1952589   -1.6912032  0.066288746   -3.1952589    1.5040557   425531 
 4354000   0.97210965   -3.1966478   -1.6920882  0.066754184   -3.1966478    1.5045596   425521 
 4355000    0.9717602   -3.1951031    -1.691049  0.064664408   -3.1951031    1.5040541   425511 
 4356000   0.97165232   -3.1962689   -1.6923465  0.064542075   -3.1962689    1.5039224   425501 
 4357000   0.97204677   -3.1974369   -1.6928686  0.059510041   -3.1974369    1.5045683   425491 
 4358000   0.97204193   -3.1972278   -1.6926316  0.063104746   -3.1972278    1.5045962   425481 
 4359000    0.9739869   -3.1994233   -1.6917811  0.059715745   -3.1994233    1.5076422   425471 
 4360000   0.97316812   -3.1987106   -1.6923004  0.064661834   -3.1987106    1.5064102   425461 
 4361000   0.97403565   -3.1998831   -1.6920946  0.069110911   -3.1998831    1.5077885   425451 
 4362000   0.97284074   -3.1977397   -1.6917654  0.063804522   -3.1977397    1.5059742   425441 
 4363000   0.97243874   -3.1975211   -1.6921338  0.069883638   -3.1975211    1.5053873   425431 
 4364000    0.9726162   -3.1994131   -1.6937157  0.065573493   -3.1994131    1.5056974   425421 
 4365000    0.9725694   -3.2002952   -1.6946348  0.062299885   -3.2002952    1.5056604   425411 
 4366000   0.97303472   -3.2008185   -1.6944023  0.063936427   -3.2008185    1.5064161   425401 
 4367000   0.97314324   -3.1988023   -1.6921828  0.069005633   -3.1988023    1.5066196   425391 
 4368000   0.97240828   -3.1981789   -1.6926618  0.066577125   -3.1981789    1.5055171   425381 
 4369000   0.97470321   -3.2013727   -1.6922671  0.066488747   -3.2013727    1.5091057   425371 
 4370000   0.97441394   -3.2007231   -1.6920299  0.067721483   -3.2007231    1.5086933   425361 
 4371000   0.97245453   -3.1986457   -1.6929508  0.070187677   -3.1986457    1.5056949   425351 
 4372000   0.97308679   -3.1993383   -1.6926291  0.068144658   -3.1993383    1.5067093   425341 
 4373000   0.97216864   -3.1979185   -1.6925955   0.06532579   -3.1979185     1.505323   425331 
 4374000   0.97246755   -3.1978494   -1.6920282  0.068232536   -3.1978494    1.5058213   425321 
 4375000   0.97368342    -3.200393   -1.6926536   0.06795457    -3.200393    1.5077394   425311 
 4376000   0.97174657   -3.1987671   -1.6939915  0.067634998   -3.1987671    1.5047756   425301 
 4377000   0.97307938   -3.2016519   -1.6947769  0.060870319   -3.2016519    1.5068749   425291 
 4378000     0.969859   -3.1988368   -1.6969135  0.065592668   -3.1988368    1.5019233   425281 
 4379000   0.97100615   -3.1997628   -1.6960277  0.065649736   -3.1997628    1.5037351   425271 
 4380000   0.97116882   -3.1994975   -1.6954751   0.06478125   -3.1994975    1.5040224   425261 
 4381000   0.97099768   -3.1988267    -1.695034   0.06471574   -3.1988267    1.5037927   425251 
 4382000    0.9690978   -3.1969028   -1.6960172  0.061091766   -3.1969028    1.5008857   425241 
 4383000   0.97000229   -3.1972611   -1.6949393  0.066264108   -3.1972611    1.5023218   425231 
 4384000    0.9709799   -3.1987943    -1.694923  0.062131442   -3.1987943    1.5038713   425221 
 4385000   0.97189822   -3.1998542   -1.6945252  0.064790728   -3.1998542     1.505329   425211 
 4386000   0.97318273    -3.200982    -1.693628  0.064618431    -3.200982     1.507354   425201 
 4387000   0.97259369   -3.1995669   -1.6930898  0.064984093   -3.1995669     1.506477   425191 
 4388000   0.97220321    -3.200446   -1.6945384  0.068673481    -3.200446    1.5059076   425181 
 4389000   0.97007011   -3.1988108   -1.6961719  0.064084959   -3.1988108    1.5026389   425171 
 4390000   0.97283308   -3.2020608   -1.6951067  0.066973885   -3.2020608    1.5069542   425161 
 4391000   0.97261496   -3.2019159   -1.6952642  0.064316474   -3.2019159    1.5066517   425151 
 4392000   0.97077846    -3.199216   -1.6953737  0.065039168    -3.199216    1.5038422   425141 
 4393000   0.97128717   -3.2009094   -1.6962438   0.06440885   -3.2009094    1.5046657   425131 
 4394000   0.97138638   -3.2012685   -1.6964137  0.066418365   -3.2012685    1.5048547   425121 
 4395000   0.97057854   -3.1989943   -1.6953557  0.061394199   -3.1989943    1.5036386   425111 
 4396000   0.96984666   -3.1995871    -1.697047  0.066377569   -3.1995871    1.5025401   425101 
 4397000   0.97151574   -3.2034479   -1.6982865  0.062375904   -3.2034479    1.5051614   425091 
 4398000   0.96878011    -3.200083   -1.6991246   0.06417913    -3.200083    1.5009584   425081 
 4399000   0.97077899    -3.202869   -1.6987783  0.063501356    -3.202869    1.5040907   425071 
 4400000   0.96996507   -3.2003119   -1.6974469  0.068274108   -3.2003119     1.502865   425061 
 4401000   0.97012552   -3.2000501   -1.6969011  0.066970888   -3.2000501     1.503149   425051 
 4402000   0.97108832   -3.2021794   -1.6975033  0.066328183   -3.2021794    1.5046762   425041 
 4403000   0.97233932   -3.2028389   -1.6961889  0.065152201   -3.2028389      1.50665   425031 
 4404000   0.97168567   -3.2031252   -1.6974526  0.062308346   -3.2031252    1.5056726   425021 
 4405000   0.97180117   -3.2033072   -1.6974202  0.062315069   -3.2033072     1.505887   425011 
 4406000   0.97190327   -3.2033276   -1.6972469  0.065431293   -3.2033276    1.5060806   425001 
 4407000   0.97182957   -3.2040806   -1.6980787  0.066332685   -3.2040806    1.5060019   424991 
 4408000   0.97130636   -3.2051378   -1.6999113  0.065241308   -3.2051378    1.5052265   424981 
 4409000   0.96973551   -3.2017913   -1.6989638  0.061891047   -3.2017913    1.5028275   424971 
 4410000   0.97155889   -3.2056175   -1.6999288  0.065360135   -3.2056175    1.5056887   424961 
 4411000    0.9708666   -3.2045396   -1.6998884  0.066098761   -3.2045396    1.5046512   424951 
 4412000   0.97038045   -3.2044096   -1.7004764   0.06555191   -3.2044096    1.5039332   424941 
 4413000   0.97083501    -3.204945   -1.7002719  0.065891036    -3.204945    1.5046731   424931 
 4414000   0.96980362   -3.2032598   -1.7001499  0.068041449   -3.2032598    1.5031099   424921 
 4415000   0.97007735   -3.2030826    -1.699513   0.06695482   -3.2030826    1.5035695   424911 
 4416000   0.97135588   -3.2066521   -1.7010655  0.060843134   -3.2066521    1.5055866   424901 
 4417000   0.97219135   -3.2058495   -1.6989324  0.067086394   -3.2058495    1.5069171   424891 
 4418000   0.97248208   -3.2073239   -1.6999207  0.069700938   -3.2073239    1.5074032   424881 
 4419000   0.97113967   -3.2040951   -1.6987373  0.070356256   -3.2040951    1.5053578   424871 
 4420000   0.97290336   -3.2067321   -1.6986049  0.068968931   -3.2067321    1.5081272   424861 
 4421000   0.97088388   -3.2044024   -1.6993703  0.066669622   -3.2044024    1.5050322   424851 
 4422000   0.97075724   -3.2046342   -1.6997629  0.070394553   -3.2046342    1.5048713   424841 
 4423000   0.97149552   -3.2055808   -1.6995296  0.065035234   -3.2055808    1.5060512   424831 
 4424000   0.97031803   -3.2042893   -1.7000281  0.067770761   -3.2042893    1.5042612   424821 
 4425000   0.97007887   -3.2041503   -1.7002245  0.062444181   -3.2041503    1.5039258   424811 
 4426000   0.97017583   -3.2053643   -1.7012527  0.066319564   -3.2053643    1.5041116   424801 
 4427000   0.96974809   -3.2048081   -1.7013243  0.059346941   -3.2048081    1.5034838   424791 
 4428000   0.97010265   -3.2037503   -1.6996814  0.062468116   -3.2037503    1.5040689   424781 
 4429000   0.97039355   -3.2036748   -1.6991194  0.068035501   -3.2036748    1.5045554   424771 
 4430000   0.97091898   -3.2050153   -1.6996098  0.068127027   -3.2050153    1.5054055   424761 
 4431000   0.97025691   -3.2055192   -1.7011048  0.061060925   -3.2055192    1.5044143   424751 
 4432000   0.96972961   -3.2030613   -1.6994292  0.062115847   -3.2030613    1.5036321   424741 
 4433000   0.97122435   -3.2049447   -1.6989594  0.061401457   -3.2049447    1.5059853   424731 
 4434000   0.97106794   -3.2046347   -1.6988565  0.063738865   -3.2046347    1.5057782   424721 
 4435000   0.97001974   -3.2033889   -1.6992007  0.064729218   -3.2033889    1.5041883   424711 
 4436000   0.97081948    -3.204761   -1.6992972  0.065942583    -3.204761    1.5054639   424701 
 4437000   0.96986198   -3.2027192   -1.6987048  0.062270425   -3.2027192    1.5040144   424691 
 4438000   0.96977962   -3.2029506   -1.6990285  0.063135594   -3.2029506    1.5039221   424681 
 4439000   0.96913157   -3.2016386    -1.698686  0.059614004   -3.2016386    1.5029525   424671 
 4440000   0.96802046    -3.201795   -1.7005302  0.063011317    -3.201795    1.5012648   424661 
 4441000   0.96769782    -3.202414   -1.7016143   0.05823976    -3.202414    1.5007997   424651 
 4442000   0.96802656   -3.2035203   -1.7021754  0.059746075   -3.2035203    1.5013449   424641 
 4443000   0.96839349   -3.2035625   -1.7016131  0.060148157   -3.2035625    1.5019494   424631 
 4444000   0.96876778   -3.2048907   -1.7023254    0.0616197   -3.2048907    1.5025653   424621 
 4445000   0.96848789   -3.2018542   -1.6996876  0.064061158   -3.2018542    1.5021665   424611 
 4446000   0.96891155   -3.2026574   -1.6997984  0.062585013   -3.2026574    1.5028591   424601 
 4447000   0.96931574   -3.2029115   -1.6993901  0.063343081   -3.2029115    1.5035214   424591 
 4448000   0.97033019   -3.2036983   -1.6985679  0.063670641   -3.2036983    1.5051304   424581 
 4449000    0.9699579   -3.2038571   -1.6992688  0.062567788   -3.2038571    1.5045883   424571 
 4450000   0.97089624   -3.2051703   -1.6990909  0.069220569   -3.2051703    1.5060793   424561 
 4451000   0.97204415   -3.2069568   -1.6990613  0.062477279   -3.2069568    1.5078955   424551 
 4452000   0.96930959   -3.2032565   -1.6995675   0.06613676   -3.2032565    1.5036889   424541 
 4453000   0.96904891   -3.2034064   -1.7000864  0.063421042   -3.2034064      1.50332   424531 
 4454000   0.96993318   -3.2048928   -1.7001656  0.067657745   -3.2048928    1.5047272   424521 
 4455000   0.96929496   -3.2051407   -1.7013682  0.061950625   -3.2051407    1.5037725   424511 
 4456000   0.96981097   -3.2054626   -1.7008541  0.067315416   -3.2054626    1.5046085   424501 
 4457000   0.97043334   -3.2094174   -1.7038078  0.064960674   -3.2094174    1.5056095   424491 
 4458000   0.96885885   -3.2073054   -1.7041033  0.065914632   -3.2073054    1.5032021   424481 
 4459000   0.96754218   -3.2065902   -1.7053955  0.064287056   -3.2065902    1.5011947   424471 
 4460000    0.9677777   -3.2059813   -1.7043858  0.059695562   -3.2059813    1.5015955   424461 
 4461000   0.96767821   -3.2050753   -1.7035989  0.064010185   -3.2050753    1.5014765   424451 
 4462000   0.96876835   -3.2074627   -1.7042594  0.059045695   -3.2074627    1.5032034   424441 
 4463000   0.96784616   -3.2061672   -1.7043593  0.060837275   -3.2061672    1.5018078   424431 
 4464000   0.96755459   -3.2067342   -1.7053435  0.063208904   -3.2067342    1.5013908   424421 
 4465000   0.96924331   -3.2084918   -1.7044451  0.057843491   -3.2084918    1.5040467   424411 
 4466000   0.96914726   -3.2087742   -1.7048412  0.061436319   -3.2087742    1.5039331   424401 
 4467000   0.96781425   -3.2068998   -1.7049999  0.065067464   -3.2068998    1.5018999   424391 
 4468000   0.96975357   -3.2101491   -1.7052043  0.062101376   -3.2101491    1.5049449   424381 
 4469000   0.96810026   -3.2084574   -1.7060429  0.065695837   -3.2084574    1.5024145   424371 
 4470000   0.96798911    -3.210901   -1.7086236  0.066086247    -3.210901    1.5022774   424361 
 4471000   0.96977592     -3.21142    -1.706334  0.068101629     -3.21142    1.5050859   424351 
 4472000   0.96938093   -3.2098463   -1.7053379  0.069556799   -3.2098463    1.5045084   424341 
 4473000   0.96857213   -3.2100902   -1.7068017  0.065744536   -3.2100902    1.5032885   424331 
 4474000   0.96712024   -3.2081528   -1.7070823  0.066128444   -3.2081528    1.5010705   424321 
 4475000   0.96981215   -3.2114351   -1.7061511  0.067875193   -3.2114351    1.5052841   424311 
 4476000   0.96935338   -3.2107488   -1.7061414  0.064851503   -3.2107488    1.5046074   424301 
 4477000   0.96782736   -3.2096251   -1.7073509  0.066274438   -3.2096251    1.5022742   424291 
 4478000   0.96965881   -3.2118171   -1.7066646  0.064967768   -3.2118171    1.5051525   424281 
 4479000   0.96973974   -3.2113924   -1.7060788  0.064252965   -3.2113924    1.5053136   424271 
 4480000   0.96986881   -3.2101911   -1.7046416  0.070147103   -3.2101911    1.5055494   424261 
 4481000   0.97055617   -3.2114109    -1.704759  0.067543548   -3.2114109    1.5066519   424251 
 4482000   0.97009842    -3.210209   -1.7042322  0.064094312    -3.210209    1.5059768   424241 
 4483000   0.96993384   -3.2096669   -1.7039101  0.071251242   -3.2096669    1.5057568   424231 
 4484000   0.96855218   -3.2063646   -1.7027173  0.071814749   -3.2063646    1.5036473   424221 
 4485000   0.96821129   -3.2069681   -1.7038146  0.065211697   -3.2069681    1.5031536   424211 
 4486000   0.96986411   -3.2086866   -1.7029316  0.067620304   -3.2086866    1.5057551   424201 
 4487000   0.96940347   -3.2083946   -1.7033192  0.066032965   -3.2083946    1.5050754   424191 
 4488000    0.9697276    -3.210964   -1.7053499  0.063729946    -3.210964    1.5056141   424181 
 4489000   0.96925465    -3.209466   -1.7045508  0.066095586    -3.209466    1.5049153   424171 
 4490000   0.96911492    -3.209026   -1.7042922  0.066974863    -3.209026    1.5047338   424161 
 4491000   0.96829183   -3.2089493    -1.705458  0.062835667   -3.2089493    1.5034912   424151 
 4492000   0.96879821   -3.2085051   -1.7041921  0.058689814   -3.2085051     1.504313   424141 
 4493000   0.96806696   -3.2056845   -1.7024715  0.066710639   -3.2056845     1.503213   424131 
 4494000   0.96786787   -3.2055007   -1.7025615  0.065821066   -3.2055007    1.5029393   424121 
 4495000    0.9688251   -3.2079909   -1.7035298   0.06950706   -3.2079909    1.5044612   424111 
 4496000   0.96858763   -3.2066491   -1.7025213  0.065137924   -3.2066491    1.5041279   424101 
 4497000   0.96726458   -3.2043727    -1.702264  0.066274756   -3.2043727    1.5021087   424091 
 4498000   0.96630638   -3.2045309   -1.7038748  0.066612913   -3.2045309     1.500656   424081 
 4499000   0.96793908   -3.2070829   -1.7038559  0.056879468   -3.2070829     1.503227   424071 
 4500000   0.96737442   -3.2055487   -1.7031631  0.059594534   -3.2055487    1.5023856   424061 
 4501000   0.96668338   -3.2046894   -1.7033416  0.065329999   -3.2046894    1.5013477   424051 
 4502000   0.96749204   -3.2066635   -1.7040244  0.062623084   -3.2066635    1.5026391   424041 
 4503000   0.96703302   -3.2066036    -1.704642  0.061980229   -3.2066036    1.5019616   424031 
 4504000   0.96789732   -3.2092588   -1.7059194  0.065944249   -3.2092588    1.5033395   424021 
 4505000   0.96748715   -3.2081561   -1.7054183   0.06512735   -3.2081561    1.5027378   424011 
 4506000   0.96730749     -3.20727   -1.7047758  0.063229419     -3.20727    1.5024942   424001 
 4507000   0.96865518   -3.2103917   -1.7057687  0.067509515   -3.2103917     1.504623   423991 
 4508000   0.96559819   -3.2065224   -1.7066125  0.063908004   -3.2065224    1.4999099   423981 
 4509000   0.96683282   -3.2088934   -1.7070303  0.060662921   -3.2088934    1.5018632   423971 
 4510000   0.96821327   -3.2120763   -1.7080332  0.066439083   -3.2120763     1.504043   423961 
 4511000    0.9658415   -3.2092841     -1.70889  0.064695002   -3.2092841     1.500394   423951 
 4512000   0.96674914   -3.2102687   -1.7084293  0.066763771   -3.2102687    1.5018394   423941 
 4513000   0.96733453   -3.2100176   -1.7072333  0.064660532   -3.2100176    1.5027843   423931 
 4514000   0.96782194   -3.2101573   -1.7065803  0.066168573   -3.2101573     1.503577   423921 
 4515000   0.96793621   -3.2094146   -1.7056246  0.067548334   -3.2094146      1.50379   423911 
 4516000   0.96897978   -3.2116932   -1.7062465  0.063217007   -3.2116932    1.5054468   423901 
 4517000    0.9696244   -3.2123826   -1.7058988  0.063789697   -3.2123826    1.5064838   423891 
 4518000   0.96920241   -3.2133267    -1.707463  0.066517177   -3.2133267    1.5058637   423881 
 4519000   0.96874257   -3.2128728   -1.7076881  0.067330004   -3.2128728    1.5051848   423871 
 4520000   0.96870515   -3.2136498   -1.7084876  0.066416431   -3.2136498    1.5051621   423861 
 4521000   0.96930007   -3.2139973   -1.7078752  0.068689859   -3.2139973     1.506122   423851 
 4522000   0.96844565   -3.2118352   -1.7070053  0.065925748   -3.2118352    1.5048299   423841 
 4523000   0.96695692   -3.2104331    -1.707881  0.068973383   -3.2104331    1.5025521   423831 
 4524000   0.96734273   -3.2114125   -1.7082255  0.066327272   -3.2114125    1.5031871   423821 
 4525000   0.96768282   -3.2107711   -1.7070201  0.063423089   -3.2107711     1.503751   423811 
 4526000   0.96803078   -3.2092398   -1.7049125  0.064353473   -3.2092398    1.5043272   423801 
 4527000   0.96712396   -3.2083401   -1.7053866  0.067451211   -3.2083401    1.5029535   423791 
 4528000    0.9670939   -3.2091905   -1.7062482  0.069279431   -3.2091905    1.5029423   423781 
 4529000   0.96647432   -3.2095124   -1.7074976  0.070287493   -3.2095124    1.5020148   423771 
 4530000   0.96537364   -3.2077785   -1.7074388  0.070759439   -3.2077785    1.5003396   423761 
 4531000    0.9663694   -3.2086085   -1.7066858  0.060484933   -3.2086085    1.5019226   423751 
 4532000   0.96588001   -3.2066513   -1.7054538  0.064878168   -3.2066513    1.5011975   423741 
 4533000   0.96700858   -3.2085101   -1.7055231  0.063617842   -3.2085101     1.502987   423731 
 4534000   0.96611184   -3.2061139   -1.7044852   0.06540595   -3.2061139    1.5016287   423721 
 4535000   0.96575351   -3.2069057   -1.7057986  0.062273722   -3.2069057    1.5011071   423711 
 4536000   0.96452825   -3.2052073   -1.7059693  0.064187697   -3.2052073    1.4992381   423701 
 4537000   0.96679558   -3.2067991   -1.7040013  0.061922237   -3.2067991    1.5027978   423691 
 4538000   0.96764566   -3.2069432   -1.7027885  0.064237801   -3.2069432    1.5041547   423681 
 4539000   0.96760052   -3.2061552   -1.7020352  0.066841353   -3.2061552      1.50412   423671 
 4540000   0.96734751   -3.2058867   -1.7021245  0.062023132   -3.2058867    1.5037622   423661 
 4541000   0.96777365   -3.2057745   -1.7013144  0.061201197   -3.2057745    1.5044602   423651 
 4542000   0.96708502   -3.2040266   -1.7006015  0.067656819   -3.2040266    1.5034251   423641 
 4543000   0.96724617   -3.2044626   -1.7007514  0.065332435   -3.2044626    1.5037111   423631 
 4544000   0.96680867   -3.2040492   -1.7009827  0.061445025   -3.2040492    1.5030665   423621 
 4545000   0.96602068   -3.2043071   -1.7024302  0.063194878   -3.2043071    1.5018769   423611 
 4546000    0.9674473   -3.2065168   -1.7023865  0.064489788   -3.2065168    1.5041304   423601 
 4547000   0.96618466   -3.2032063   -1.7010035  0.062893824   -3.2032063    1.5022027   423591 
 4548000   0.96629936   -3.2028711   -1.7004545  0.066818221   -3.2028711    1.5024165   423581 
 4549000   0.96658559   -3.2041975   -1.7013005  0.062970201   -3.2041975     1.502897   423571 
 4550000   0.96641283   -3.2045952   -1.7019313  0.062433206   -3.2045952    1.5026639   423561 
 4551000   0.96665812   -3.2044067   -1.7013259  0.062217365   -3.2044067    1.5030808   423551 
 4552000   0.96710465    -3.204638   -1.7008274  0.065789092    -3.204638    1.5038106   423541 
 4553000   0.96786966   -3.2056845   -1.7006488   0.06074198   -3.2056845    1.5050357   423531 
 4554000   0.96595389   -3.2042181   -1.7021259  0.064050685   -3.2042181    1.5020922   423521 
 4555000    0.9668039   -3.2077809   -1.7043315  0.066642975   -3.2077809    1.5034495   423511 
 4556000   0.96885393    -3.210473      -1.7038  0.067585801    -3.210473     1.506673   423501 
 4557000   0.96753025   -3.2093631    -1.704713  0.061968174   -3.2093631      1.50465   423491 
 4558000   0.96800994   -3.2095486   -1.7041171  0.064565194   -3.2095486    1.5054316   423481 
 4559000   0.96681457   -3.2066485   -1.7030405  0.064112508   -3.2066485    1.5036081   423471 
 4560000   0.96683158   -3.2074716   -1.7038016  0.063392859   -3.2074716      1.50367   423461 
 4561000   0.96684313   -3.2076684   -1.7039449  0.060824123   -3.2076684    1.5037235   423451 
 4562000   0.96579443   -3.2051483   -1.7030204  0.066279005   -3.2051483    1.5021279   423441 
 4563000   0.96716228   -3.2085718   -1.7042809  0.062299064   -3.2085718    1.5042909   423431 
 4564000   0.96702232   -3.2074888     -1.70338  0.068356545   -3.2074888    1.5041088   423421 
 4565000   0.96580715    -3.207089   -1.7048349  0.065167033    -3.207089    1.5022541   423411 
 4566000   0.96659212   -3.2083149   -1.7048042  0.062562693   -3.2083149    1.5035106   423401 
 4567000   0.96662925   -3.2076913   -1.7040874  0.066305139   -3.2076913    1.5036039   423391 
 4568000    0.9674673   -3.2087228   -1.7037798  0.063900677   -3.2087228     1.504943   423381 
 4569000   0.96799886   -3.2087963   -1.7029908  0.071296295   -3.2087963    1.5058055   423371 
 4570000    0.9679496   -3.2095902   -1.7038258  0.066133115   -3.2095902    1.5057644   423361 
 4571000   0.96861528   -3.2111062   -1.7042706  0.066245233   -3.2111062    1.5068356   423351 
 4572000   0.96808009   -3.2102767   -1.7042381  0.063015325   -3.2102767    1.5060385   423341 
 4573000   0.96662676   -3.2072355   -1.7034223  0.068446426   -3.2072355    1.5038131   423331 
 4574000   0.96698573   -3.2077263   -1.7033191  0.061469803   -3.2077263    1.5044071   423321 
 4575000   0.96792029   -3.2089251   -1.7030284  0.062856652   -3.2089251    1.5058967   423311 
 4576000   0.96787853   -3.2087513   -1.7028841  0.065507499   -3.2087513    1.5058673   423301 
 4577000   0.96774089    -3.208478   -1.7027894  0.065135523    -3.208478    1.5056887   423291 
 4578000   0.96660086   -3.2079059   -1.7039554  0.065911658   -3.2079059    1.5039505   423281 
 4579000   0.96496757   -3.2067074   -1.7052627  0.062562759   -3.2067074    1.5014447   423271 
 4580000   0.96361685   -3.2060526   -1.7066741  0.063157272   -3.2060526    1.4993784   423261 
 4581000   0.96460452   -3.2075616   -1.7066109  0.061865068   -3.2075616    1.5009507   423251 
 4582000   0.96389249   -3.2061933   -1.7063151  0.064603814   -3.2061933    1.4998782   423241 
 4583000   0.96423784   -3.2062134   -1.7057623  0.064434261   -3.2062134    1.5004511   423231 
 4584000   0.96469302   -3.2060489    -1.704854  0.060654083   -3.2060489    1.5011948   423221 
 4585000   0.96498983   -3.2062457   -1.7045535  0.063073724   -3.2062457    1.5016922   423211 
 4586000   0.96531778   -3.2065665   -1.7043285  0.060919237   -3.2065665     1.502238   423201 
 4587000   0.96689722   -3.2082997   -1.7035681  0.066596594   -3.2082997    1.5047315   423191 
 4588000   0.96775283   -3.2101087     -1.70401  0.062430383   -3.2101087    1.5060987   423181 
 4589000   0.96693464   -3.2102931   -1.7054322  0.066523081   -3.2102931    1.5048609   423171 
 4590000   0.96584639   -3.2066923   -1.7034896   0.06725601   -3.2066923    1.5032027   423161 
 4591000    0.9648169   -3.2060813   -1.7044453  0.065309373   -3.2060813     1.501636   423151 
 4592000   0.96664766   -3.2089664   -1.7044455  0.067060399   -3.2089664    1.5045209   423141 
 4593000   0.96482942   -3.2069673   -1.7052409  0.065761643   -3.2069673    1.5017264   423131 
 4594000    0.9641051   -3.2060078   -1.7053733  0.070666533   -3.2060078    1.5006345   423121 
 4595000   0.96683098   -3.2089721   -1.7040592  0.065470686   -3.2089721    1.5049129   423111 
 4596000   0.96661691   -3.2111004   -1.7064851  0.060487693   -3.2111004    1.5046153   423101 
 4597000   0.96606595   -3.2088366   -1.7050434  0.062966964   -3.2088366    1.5037932   423091 
 4598000   0.96520966    -3.208818   -1.7063222  0.062829465    -3.208818    1.5024958   423081 
 4599000   0.96613968   -3.2084352   -1.7044561  0.067019343   -3.2084352    1.5039791   423071 
 4600000   0.96607576   -3.2093572   -1.7054421  0.064675153   -3.2093572    1.5039151   423061 
 4601000   0.96691443   -3.2105742   -1.7053179  0.064716252   -3.2105742    1.5052563   423051 
 4602000   0.96577555   -3.2086011   -1.7050823  0.065674952   -3.2086011    1.5035189   423041 
 4603000   0.96558382   -3.2093199    -1.706064  0.067112493   -3.2093199    1.5032559   423031 
 4604000   0.96580221   -3.2101939   -1.7065624  0.061991157   -3.2101939    1.5036314   423021 
 4605000   0.96641488   -3.2119546   -1.7073337  0.064933658   -3.2119546    1.5046209   423011 
 4606000   0.96661371   -3.2119816   -1.7070156   0.06151573   -3.2119816     1.504966   423001 
 4607000   0.96539587    -3.209955   -1.7068496  0.063018545    -3.209955    1.5031054   422991 
 4608000   0.96566408   -3.2095926    -1.706034  0.063613575   -3.2095926    1.5035586   422981 
 4609000   0.96647458   -3.2100888   -1.7052327  0.063012912   -3.2100888    1.5048561   422971 
 4610000   0.96620548   -3.2095629   -1.7050902  0.069110686   -3.2095629    1.5044727   422961 
 4611000   0.96627304   -3.2093261   -1.7047127   0.06878285   -3.2093261    1.5046134   422951 
 4612000   0.96773525   -3.2116851   -1.7047592  0.063687926   -3.2116851    1.5069259   422941 
 4613000   0.96737218   -3.2106358   -1.7042396  0.069890063   -3.2106358    1.5063962   422931 
 4614000   0.96909358   -3.2127115   -1.7035991  0.069329889   -3.2127115    1.5091124   422921 
 4615000   0.96715746   -3.2098356   -1.7037026  0.067707198   -3.2098356     1.506133   422911 
 4616000   0.96724328   -3.2103888   -1.7040865  0.064548148   -3.2103888    1.5063023   422901 
 4617000   0.96500963   -3.2073956   -1.7045363  0.064489017   -3.2073956    1.5028593   422891 
 4618000   0.96524988   -3.2087223   -1.7054532  0.061778188   -3.2087223     1.503269   422881 
 4619000   0.96423595   -3.2086949   -1.7069694  0.064944188   -3.2086949    1.5017255   422871 
 4620000   0.96334183   -3.2078969   -1.7075284  0.059675421   -3.2078969    1.5003684   422861 
 4621000   0.96299369   -3.2075206   -1.7076589  0.060179944   -3.2075206    1.4998617   422851 
 4622000   0.96182527   -3.2062302   -1.7081529  0.067316254   -3.2062302    1.4980773   422841 
 4623000   0.96294155    -3.208331   -1.7084795   0.05549194    -3.208331    1.4998514   422831 
 4624000   0.96294119   -3.2065241   -1.7066378  0.063502502   -3.2065241    1.4998863   422821 
 4625000   0.96386946   -3.2080001   -1.7066324  0.061196163   -3.2080001    1.5013677   422811 
 4626000   0.96356869   -3.2069547     -1.70602  0.067599905   -3.2069547    1.5009347   422801 
 4627000   0.96504604    -3.210017   -1.7067454  0.064079041    -3.210017    1.5032715   422791 
 4628000   0.96493788   -3.2088135   -1.7056749  0.070116418   -3.2088135    1.5031386   422781 
 4629000   0.96489288    -3.208311    -1.705207  0.065323559    -3.208311    1.5031041   422771 
 4630000   0.96421254   -3.2074851   -1.7054054  0.070216973   -3.2074851    1.5020797   422761 
 4631000   0.96499178   -3.2084627   -1.7051334  0.062548904   -3.2084627    1.5033292   422751 
 4632000   0.96528952   -3.2098081   -1.7059795  0.067128656   -3.2098081    1.5038286   422741 
 4633000   0.96563023   -3.2101185   -1.7057234  0.063485358   -3.2101185     1.504395   422731 
 4634000   0.96529818   -3.2099613   -1.7060481  0.062971366   -3.2099613    1.5039133   422721 
 4635000   0.96410864    -3.209216   -1.7071204  0.063073427    -3.209216    1.5020955   422711 
 4636000   0.96392185   -3.2088451    -1.707005  0.065218241   -3.2088451    1.5018401   422701 
 4637000   0.96460252   -3.2115118   -1.7085756  0.066257652   -3.2115118    1.5029361   422691 
 4638000   0.96480371    -3.211406   -1.7081208  0.064584373    -3.211406    1.5032852   422681 
 4639000   0.96358129   -3.2115928   -1.7101768  0.065443004   -3.2115928     1.501416   422671 
 4640000    0.9635367   -3.2112054   -1.7098234  0.067966085   -3.2112054     1.501382   422661 
 4641000   0.96423247   -3.2125406   -1.7100389  0.061079213   -3.2125406    1.5025017   422651 
 4642000   0.96453886   -3.2125129   -1.7094981  0.066326796   -3.2125129    1.5030147   422641 
 4643000   0.96478704   -3.2127118   -1.7092748  0.061062002   -3.2127118     1.503437   422631 
 4644000   0.96380178    -3.212066   -1.7101288  0.061394421    -3.212066    1.5019372   422621 
 4645000   0.96480858   -3.2129846   -1.7094428  0.062735882   -3.2129846    1.5035418   422611 
 4646000   0.96437196   -3.2126617   -1.7097648   0.06355376   -3.2126617    1.5028969   422601 
 4647000   0.96553565   -3.2157587   -1.7110127  0.060698686   -3.2157587     1.504746   422591 
 4648000   0.96390485   -3.2146769   -1.7124369  0.065666892   -3.2146769      1.50224   422581 
 4649000   0.96475883   -3.2152588   -1.7116523  0.066597809   -3.2152588    1.5036065   422571 
 4650000   0.96251121   -3.2126275   -1.7124884  0.069120556   -3.2126275    1.5001391   422561 
 4651000   0.96417462   -3.2149868   -1.7122196  0.064514583   -3.2149868    1.5027672   422551 
 4652000   0.96317425   -3.2138215    -1.712578  0.065054272   -3.2138215    1.5012435   422541 
 4653000   0.96379761   -3.2145482   -1.7122975  0.059997899   -3.2145482    1.5022506   422531 
 4654000   0.96270718   -3.2138296   -1.7132431  0.058962686   -3.2138296    1.5005865   422521 
 4655000   0.96273284   -3.2146253   -1.7139632  0.067154778   -3.2146253     1.500662   422511 
 4656000   0.96358774    -3.216466   -1.7144359   0.06195934    -3.216466    1.5020302   422501 
 4657000   0.96269939   -3.2152914   -1.7146105   0.06205858   -3.2152914    1.5006809   422491 
 4658000   0.96397156   -3.2163208   -1.7136212  0.064834268   -3.2163208    1.5026996   422481 
 4659000   0.96322632   -3.2147609   -1.7131875  0.065942495   -3.2147609    1.5015734   422471 
 4660000   0.96296513   -3.2141474   -1.7129457  0.063800216   -3.2141474    1.5012018   422461 
 4661000   0.96400751   -3.2152572   -1.7123949  0.059523571   -3.2152572    1.5028624   422451 
 4662000   0.96335823   -3.2142969   -1.7124112  0.062720986   -3.2142969    1.5018857   422441 
 4663000   0.96329327   -3.2136912   -1.7118712  0.063944402   -3.2136912      1.50182   422431 
 4664000    0.9637688    -3.215436   -1.7128391  0.065196452    -3.215436    1.5025969   422421 
 4665000    0.9635531   -3.2145592    -1.712263   0.06337386   -3.2145592    1.5022962   422411 
 4666000   0.96309772    -3.214503   -1.7128813  0.064896312    -3.214503    1.5016217   422401 
 4667000    0.9648148   -3.2161388   -1.7118042  0.069006467   -3.2161388    1.5043346   422391 
 4668000   0.96522004   -3.2170647   -1.7120627  0.057586762   -3.2170647     1.505002   422381 
 4669000   0.96237722   -3.2133085   -1.7127036  0.064149339   -3.2133085    1.5006049   422371 
 4670000   0.96357076   -3.2146805   -1.7121789  0.061355857   -3.2146805    1.5025016   422361 
 4671000   0.96441798    -3.216415   -1.7125568  0.060479858    -3.216415    1.5038583   422351 
 4672000   0.96255764   -3.2138857   -1.7128928  0.064010474   -3.2138857    1.5009929   422341 
 4673000   0.96239059    -3.212815   -1.7120471  0.066723125    -3.212815    1.5007679   422331 
 4674000   0.96237035   -3.2134189    -1.712647  0.061105651   -3.2134189    1.5007719   422321 
 4675000   0.96296842   -3.2129353   -1.7111952  0.065725744   -3.2129353    1.5017401   422311 
 4676000   0.96269788   -3.2131964   -1.7118426   0.06642919   -3.2131964    1.5013538   422301 
 4677000   0.96359297   -3.2126529   -1.7098676  0.064543706   -3.2126529    1.5027853   422291 
 4678000   0.96317927    -3.212828   -1.7106524   0.06091573    -3.212828    1.5021757   422281 
 4679000   0.96355428   -3.2131027   -1.7103066  0.060035734   -3.2131027    1.5027961   422271 
 4680000   0.96317223   -3.2126134   -1.7103775  0.062645514   -3.2126134    1.5022358   422261 
 4681000   0.96189759    -3.209587   -1.7093037  0.060437491    -3.209587    1.5002833   422251 
 4682000   0.96348436    -3.212233   -1.7094392  0.063671117    -3.212233    1.5027938   422241 
 4683000   0.96200494   -3.2111637   -1.7106419  0.062622547   -3.2111637    1.5005218   422231 
 4684000   0.96229994   -3.2109133   -1.7098957  0.058087294   -3.2109133    1.5010175   422221 
 4685000   0.96103282   -3.2088521   -1.7097756  0.060795999   -3.2088521    1.4990765   422211 
 4686000   0.96231621   -3.2105947   -1.7094807  0.064664068   -3.2105947     1.501114   422201 
 4687000   0.96163695   -3.2101871   -1.7100972  0.063217822   -3.2101871      1.50009   422191 
 4688000   0.96128572   -3.2098396    -1.710262   0.06495418   -3.2098396    1.4995776   422181 
 4689000   0.96192976   -3.2094214   -1.7088035  0.061040723   -3.2094214    1.5006178   422171 
 4690000   0.96236487    -3.211792   -1.7104598  0.057318104    -3.211792    1.5013321   422161 
 4691000   0.96168101   -3.2083543   -1.7080535  0.066623104   -3.2083543    1.5003008   422151 
 4692000   0.96296505   -3.2111772   -1.7088376  0.058665311   -3.2111772    1.5023396   422141 
 4693000   0.96244524    -3.209787   -1.7082228   0.06793611    -3.209787    1.5015642   422131 
 4694000   0.96216614    -3.210085   -1.7089207   0.06482956    -3.210085    1.5011644   422121 
 4695000   0.96273176   -3.2106717   -1.7085893  0.063375746   -3.2106717    1.5020824   422111 
 4696000   0.96212151   -3.2104862   -1.7093204    0.0642575   -3.2104862    1.5011659   422101 
 4697000     0.962884   -3.2112344   -1.7088432   0.05633782   -3.2112344    1.5023911   422091 
 4698000   0.96342625    -3.211391   -1.7081182  0.068367525    -3.211391    1.5032728   422081 
 4699000   0.96230708   -3.2082477   -1.7066856  0.070082155   -3.2082477    1.5015621   422071 
 4700000   0.96456405   -3.2113159   -1.7061964  0.069346863   -3.2113159    1.5051195   422061 
 4701000   0.96359793   -3.2109361   -1.7072886  0.066703027   -3.2109361    1.5036476   422051 
 4702000   0.96558198   -3.2143304   -1.7075511  0.063758931   -3.2143304    1.5067793   422041 
 4703000   0.96319385   -3.2117391   -1.7086509  0.064623617   -3.2117391    1.5030882   422031 
 4704000   0.96300514   -3.2121421   -1.7093127  0.061870579   -3.2121421    1.5028294   422021 
 4705000   0.96220681   -3.2121881    -1.710569  0.066931677   -3.2121881    1.5016191   422011 
 4706000   0.96247392   -3.2133675   -1.7112959  0.063187924   -3.2133675    1.5020716   422001 
 4707000    0.9618198   -3.2122945   -1.7112082   0.06141983   -3.2122945    1.5010863   421991 
 4708000   0.96150697   -3.2130608   -1.7124271  0.063089887   -3.2130608    1.5006336   421981 
 4709000   0.96115306   -3.2126237   -1.7125069  0.063830571   -3.2126237    1.5001168   421971 
 4710000    0.9603302   -3.2114081   -1.7125401  0.059639719   -3.2114081    1.4988681   421961 
 4711000   0.95996189   -3.2119153   -1.7135866  0.062100644   -3.2119153    1.4983287   421951 
 4712000   0.96208235   -3.2147657   -1.7130917   0.05996793   -3.2147657     1.501674   421941 
 4713000    0.9617101   -3.2140284   -1.7128999  0.061633605   -3.2140284    1.5011285   421931 
 4714000   0.95976919   -3.2115314   -1.7133969  0.061944094   -3.2115314    1.4981345   421921 
 4715000   0.96096694   -3.2138295   -1.7137899  0.060422609   -3.2138295    1.5000396   421911 
 4716000   0.96133803   -3.2144165    -1.713762  0.061863964   -3.2144165    1.5006545   421901 
 4717000    0.9610747   -3.2148876   -1.7146087   0.06633918   -3.2148876     1.500279   421891 
 4718000   0.96317897   -3.2161769   -1.7125774  0.065896265   -3.2161769    1.5035994   421881 
 4719000   0.96376958   -3.2171911    -1.712634  0.062892648   -3.2171911    1.5045571   421871 
 4720000   0.96395981   -3.2176834   -1.7127937  0.062621407   -3.2176834    1.5048897   421861 
 4721000    0.9640728   -3.2182602   -1.7131584  0.069859137   -3.2182602    1.5051018   421851 
 4722000   0.96348266   -3.2176595   -1.7134433  0.071307738   -3.2176595    1.5042162   421841 
 4723000   0.96143485    -3.216135   -1.7150804  0.064701871    -3.216135    1.5010546   421831 
 4724000   0.96163355   -3.2161922   -1.7147917  0.067207621   -3.2161922    1.5014004   421821 
 4725000   0.96156601   -3.2171791   -1.7158485   0.06826013   -3.2171791    1.5013306   421811 
 4726000    0.9614779   -3.2171641   -1.7159355  0.062653262   -3.2171641    1.5012286   421801 
 4727000   0.96156227   -3.2181935   -1.7167975  0.062708205   -3.2181935    1.5013959   421791 
 4728000   0.96010477    -3.216558   -1.7174022  0.063709494    -3.216558    1.4991557   421781 
 4729000   0.96001493   -3.2166797   -1.7176287  0.059743016   -3.2166797     1.499051   421771 
 4730000      0.95944   -3.2161353   -1.7179466   0.06517864   -3.2161353    1.4981888   421761 
 4731000   0.96120478    -3.219247   -1.7182669  0.060146015    -3.219247    1.5009801   421751 
 4732000   0.96081431   -3.2183848   -1.7179789  0.066527141   -3.2183848    1.5004059   421741 
 4733000   0.96068168   -3.2182432   -1.7180088  0.059805132   -3.2182432    1.5002344   421731 
 4734000   0.96044864   -3.2183843   -1.7184782  0.061969584   -3.2183843     1.499906   421721 
 4735000   0.96050795   -3.2175403   -1.7175061  0.065234578   -3.2175403    1.5000342   421711 
 4736000   0.95969746   -3.2160005   -1.7171965  0.065699441   -3.2160005     1.498804   421701 
 4737000   0.96075152    -3.216911   -1.7164253  0.061671847    -3.216911    1.5004858   421691 
 4738000   0.96132148   -3.2161368   -1.7147253  0.065666651   -3.2161368    1.5014115   421681 
 4739000   0.96067293   -3.2140748   -1.7136406   0.06827024   -3.2140748    1.5004342   421671 
 4740000    0.9619999   -3.2173666   -1.7148242  0.067313988   -3.2173666    1.5025424   421661 
 4741000   0.96142197    -3.217088   -1.7154127  0.071330972    -3.217088    1.5016753   421651 
 4742000   0.96176743   -3.2157356   -1.7134851  0.065003943   -3.2157356    1.5022505   421641 
 4743000   0.96116266    -3.216308   -1.7149665   0.06632697    -3.216308    1.5013415   421631 
 4744000   0.96153276   -3.2149241   -1.7129689  0.062870069   -3.2149241    1.5019552   421621 
 4745000   0.96048415   -3.2148882   -1.7145354  0.061349068   -3.2148882    1.5003528   421611 
 4746000   0.96111453   -3.2156791   -1.7143059  0.062581381   -3.2156791    1.5013731   421601 
 4747000   0.95977011   -3.2144529   -1.7151443   0.06395004   -3.2144529    1.4993086   421591 
 4748000    0.9605098   -3.2156444   -1.7151448  0.059259089   -3.2156444    1.5004997   421581 
 4749000   0.96024557    -3.214753   -1.7146306  0.063162047    -3.214753    1.5001225   421571 
 4750000   0.95988159   -3.2140847   -1.7144952  0.058539309   -3.2140847    1.4995894   421561 
 4751000   0.96000608     -3.21324   -1.7134205  0.066108865     -3.21324    1.4998195   421551 
 4752000   0.96018205    -3.214801    -1.714671     0.063126    -3.214801      1.50013   421541 
 4753000   0.95982446    -3.212389   -1.7127821  0.063207142    -3.212389    1.4996069   421531 
 4754000    0.9620607   -3.2150128   -1.7118764  0.058604618   -3.2150128    1.5031364   421521 
 4755000   0.96193579   -3.2145027   -1.7115258  0.063733492   -3.2145027    1.5029769   421511 
 4756000   0.96079151   -3.2129428   -1.7117181  0.063696524   -3.2129428    1.5012246   421501 
 4757000   0.96158581   -3.2140459   -1.7115446  0.059409312   -3.2140459    1.5025014   421491 
 4758000   0.96273734   -3.2167427   -1.7124063  0.062414579   -3.2167427    1.5043363   421481 
 4759000   0.96046365   -3.2149982    -1.714179  0.060808885   -3.2149982    1.5008192   421471 
 4760000   0.95925219   -3.2123557    -1.713394  0.062011724   -3.2123557    1.4989617   421461 
 4761000   0.96080133   -3.2136919   -1.7122738  0.061750111   -3.2136919    1.5014181   421451 
 4762000   0.95859956   -3.2107687   -1.7127557  0.064030944   -3.2107687     1.498013   421441 
 4763000   0.95956548   -3.2122569   -1.7126989  0.058870644   -3.2122569     1.499558   421431 
 4764000   0.96048854   -3.2125495   -1.7115134  0.066654601   -3.2125495    1.5010361   421421 
 4765000   0.96085628   -3.2143765     -1.71273  0.060058533   -3.2143765    1.5016465   421411 
 4766000   0.96076091   -3.2125527   -1.7110196  0.061281424   -3.2125527     1.501533   421401 
 4767000   0.96192608   -3.2134913   -1.7101015  0.057678624   -3.2134913    1.5033897   421391 
 4768000   0.96026752   -3.2102038   -1.7093706  0.070581738   -3.2102038    1.5008332   421381 
 4769000   0.96213479   -3.2147079   -1.7109206  0.062033713   -3.2147079    1.5037873   421371 
 4770000   0.96195813   -3.2145821   -1.7110352  0.061216675   -3.2145821    1.5035468   421361 
 4771000   0.96196285   -3.2128929    -1.709303  0.064282957   -3.2128929    1.5035899   421351 
 4772000   0.96286236   -3.2153914   -1.7103598  0.065011385   -3.2153914    1.5050316   421341 
 4773000   0.96037296   -3.2127888   -1.7116127  0.063471448   -3.2127888    1.5011761   421331 
 4774000   0.96119771   -3.2143576   -1.7118566  0.064607114   -3.2143576    1.5025009   421321 
 4775000   0.96067819   -3.2138628   -1.7121383  0.062303134   -3.2138628    1.5017245   421311 
 4776000   0.95815132   -3.2107836   -1.7129735  0.067913574   -3.2107836    1.4978101   421301 
 4777000   0.95894815    -3.212663   -1.7135717  0.061422284    -3.212663    1.4990913   421291 
 4778000   0.95904238   -3.2125563   -1.7132822  0.065115114   -3.2125563    1.4992742   421281 
 4779000   0.96105102   -3.2150295   -1.7125795  0.059347349   -3.2150295    1.5024499   421271 
 4780000   0.96033965   -3.2144735      -1.7131  0.064834908   -3.2144735    1.5013735   421261 
 4781000   0.95964533   -3.2128866    -1.712563  0.061738521   -3.2128866    1.5003236   421251 
 4782000   0.96091375   -3.2150661   -1.7127237  0.063038996   -3.2150661    1.5023423   421241 
 4783000   0.96049344   -3.2140104   -1.7122896    0.0630454   -3.2140104    1.5017208   421231 
 4784000   0.96153925   -3.2148161   -1.7114245  0.067870546   -3.2148161    1.5033916   421221 
 4785000   0.96224221   -3.2171122   -1.7125857  0.066054063   -3.2171122    1.5045265   421211 
 4786000   0.96101207    -3.215041   -1.7124023  0.062110659    -3.215041    1.5026387   421201 
 4787000   0.96197704   -3.2156768   -1.7114935   0.06842186   -3.2156768    1.5041833   421191 
 4788000   0.96074413   -3.2142162   -1.7119251  0.064722879   -3.2142162    1.5022911   421181 
 4789000   0.96008823   -3.2141793   -1.7128782  0.065500275   -3.2141793    1.5013012   421171 
 4790000   0.96336809   -3.2178883   -1.7114227  0.064505026   -3.2178883    1.5064657   421161 
 4791000   0.95944748   -3.2120075    -1.711637  0.066029663   -3.2120075    1.5003705   421151 
 4792000   0.96089876    -3.214328   -1.7116524  0.060651491    -3.214328    1.5026756   421141 
 4793000   0.96041961   -3.2138329   -1.7118709  0.065277446   -3.2138329     1.501962   421131 
 4794000   0.95992035   -3.2130201   -1.7118033  0.065847117   -3.2130201    1.5012169   421121 
 4795000   0.96000701   -3.2128399   -1.7114519  0.067809173   -3.2128399     1.501388   421111 
 4796000   0.96068435   -3.2147069   -1.7122239  0.062200768   -3.2147069     1.502483   421101 
 4797000   0.96001887    -3.214189   -1.7127111  0.059912036    -3.214189    1.5014779   421091 
 4798000   0.95969684   -3.2143139    -1.713304  0.060885458   -3.2143139    1.5010099   421081 
 4799000   0.95975524   -3.2143669     -1.71323   0.06428244   -3.2143669    1.5011369   421071 
 4800000   0.95891911   -3.2121246   -1.7122599  0.061380179   -3.2121246    1.4998647   421061 
 4801000   0.95929191    -3.212771   -1.7122876  0.065514531    -3.212771    1.5004835   421051 
 4802000   0.95759925   -3.2111352   -1.7132637  0.061784173   -3.2111352    1.4978714   421041 
 4803000   0.95931736   -3.2142629   -1.7136684  0.061032901   -3.2142629    1.5005945   421031 
 4804000   0.95884166   -3.2136261   -1.7137401  0.064494617   -3.2136261    1.4998861   421021 
 4805000   0.95804148   -3.2124952   -1.7138253  0.064288621   -3.2124952      1.49867   421011 
 4806000   0.95814368   -3.2141165    -1.715251  0.060693868   -3.2141165    1.4988654   421001 
 4807000   0.95722102   -3.2124079   -1.7149503  0.066859301   -3.2124079    1.4974577   420991 
 4808000    0.9584932   -3.2137569   -1.7142734  0.063872154   -3.2137569    1.4994834   420981 
 4809000   0.95948338   -3.2136403   -1.7125721  0.063335307   -3.2136403    1.5010681   420971 
 4810000   0.95957253    -3.215025   -1.7137817  0.061472558    -3.215025    1.5012433   420961 
 4811000   0.95886674    -3.213475   -1.7133003  0.060055167    -3.213475    1.5001747   420951 
 4812000   0.96016382   -3.2162699   -1.7140302  0.060762577   -3.2162699    1.5022397   420941 
 4813000   0.95957818   -3.2158102   -1.7144511  0.068948602   -3.2158102    1.5013591   420931 
 4814000    0.9607848   -3.2174188   -1.7141361  0.068563619   -3.2174188    1.5032827   420921 
 4815000   0.96072126   -3.2168609   -1.7136419  0.062477039   -3.2168609     1.503219   420911 
 4816000   0.96070507   -3.2166276   -1.7133982  0.067745238   -3.2166276    1.5032294   420901 
 4817000   0.95938407   -3.2162072   -1.7150091   0.06233424   -3.2162072    1.5011981   420891 
 4818000   0.95905542   -3.2153192   -1.7145997  0.062468732   -3.2153192    1.5007195   420881 
 4819000   0.95952559   -3.2160138    -1.714523  0.062522724   -3.2160138    1.5014909   420871 
 4820000   0.95890308   -3.2163505   -1.7157981  0.068984125   -3.2163505    1.5005524   420861 
 4821000   0.95965386   -3.2172333   -1.7154703  0.068087623   -3.2172333    1.5017629   420851 
 4822000   0.96094908   -3.2185212   -1.7146956  0.062146311   -3.2185212    1.5038256   420841 
 4823000   0.95894905   -3.2164333    -1.715702  0.070417351   -3.2164333    1.5007313   420831 
 4824000   0.96172758   -3.2193856   -1.7142702  0.068545931   -3.2193856    1.5051154   420821 
 4825000   0.96125034   -3.2184248   -1.7140206  0.069781022   -3.2184248    1.5044043   420811 
 4826000   0.96187395   -3.2190061   -1.7135901  0.070281045   -3.2190061     1.505416   420801 
 4827000   0.95960285   -3.2161962   -1.7142989  0.067315082   -3.2161962    1.5018972   420791 
 4828000   0.95858082   -3.2150436   -1.7147103  0.062783412   -3.2150436    1.5003333   420781 
 4829000   0.95892275   -3.2163764   -1.7154722  0.058449224   -3.2163764    1.5009041   420771 
 4830000   0.95879752   -3.2146944   -1.7139506  0.067017788   -3.2146944    1.5007438   420761 
 4831000   0.95851748   -3.2150742   -1.7147331  0.068431825   -3.2150742    1.5003411   420751 
 4832000   0.95808018   -3.2150741   -1.7153818  0.066468939   -3.2150741    1.4996923   420741 
 4833000   0.95919046   -3.2164688   -1.7150029  0.061617661   -3.2164688    1.5014659   420731 
 4834000    0.9593895    -3.215483   -1.7136698  0.066596995    -3.215483    1.5018132   420721 
 4835000   0.95945373   -3.2158425   -1.7138931  0.062423758   -3.2158425    1.5019494   420711 
 4836000    0.9596317   -3.2156156   -1.7133519  0.061262727   -3.2156156    1.5022637   420701 
 4837000   0.95990937   -3.2170625   -1.7143284  0.057602358   -3.2170625    1.5027341   420691 
 4838000   0.95893016   -3.2167934   -1.7155565  0.058035992   -3.2167934    1.5012368   420681 
 4839000    0.9591237   -3.2144121   -1.7128366  0.066174131   -3.2144121    1.5015755   420671 
 4840000   0.95716422   -3.2139694    -1.715426  0.060889387   -3.2139694    1.4985434   420661 
 4841000   0.95821436   -3.2140055   -1.7137823  0.063374726   -3.2140055    1.5002232   420651 
 4842000   0.95812458    -3.212966   -1.7128476  0.062897196    -3.212966    1.5001183   420641 
 4843000     0.958772   -3.2139588   -1.7127912  0.060587777   -3.2139588    1.5011676   420631 
 4844000   0.95746125   -3.2143889   -1.7152378  0.059773895   -3.2143889     1.499151   420621 
 4845000   0.95748325    -3.213262   -1.7140409  0.062433375    -3.213262    1.4992211   420611 
 4846000   0.95967578   -3.2147634   -1.7120736  0.058606695   -3.2147634    1.5026899   420601 
 4847000   0.95855716   -3.2125935   -1.7116195  0.058319677   -3.2125935     1.500974   420591 
 4848000   0.95997589   -3.2151519   -1.7119206  0.063788001   -3.2151519    1.5032313   420581 
 4849000   0.96061496   -3.2152644   -1.7109967  0.061809786   -3.2152644    1.5042678   420571 
 4850000   0.95820225   -3.2122114   -1.7116861  0.069383963   -3.2122114    1.5005253   420561 
 4851000    0.9597172   -3.2146875   -1.7117541  0.061905136   -3.2146875    1.5029334   420551 
 4852000   0.95771789   -3.2111866   -1.7113485   0.06945664   -3.2111866    1.4998381   420541 
 4853000   0.96038473   -3.2166149   -1.7125646  0.062357456   -3.2166149    1.5040503   420531 
 4854000   0.95776822   -3.2138191   -1.7138308  0.063573888   -3.2138191    1.4999883   420521 
 4855000   0.95871857   -3.2154793   -1.7139669  0.059168476   -3.2154793    1.5015124   420511 
 4856000   0.95825174   -3.2152878   -1.7144709  0.062545154   -3.2152878    1.5008169   420501 
 4857000   0.95772284   -3.2140479   -1.7140237  0.060723242   -3.2140479    1.5000242   420491 
 4858000   0.95869378   -3.2147248   -1.7131441  0.065015061   -3.2147248    1.5015807   420481 
 4859000   0.95758905   -3.2127673   -1.7128812  0.062621993   -3.2127673     1.499886   420471 
 4860000   0.95863553   -3.2132811   -1.7117202  0.057771119   -3.2132811    1.5015608   420461 
 4861000   0.95943581   -3.2141366   -1.7112865  0.059128669   -3.2141366    1.5028501   420451 
 4862000    0.9586753   -3.2135717   -1.7118771  0.063422752   -3.2135717    1.5016946   420441 
 4863000   0.95817656   -3.2126583   -1.7117093  0.055962909   -3.2126583     1.500949   420431 
 4864000   0.95962638   -3.2141248   -1.7108689  0.060290029   -3.2141248    1.5032559   420421 
 4865000   0.95916922   -3.2127621   -1.7101866  0.068730086   -3.2127621    1.5025755   420411 
 4866000   0.95612283   -3.2092277   -1.7113889  0.066428749   -3.2092277    1.4978388   420401 
 4867000    0.9580707   -3.2126175   -1.7116915   0.06268138   -3.2126175     1.500926   420391 
 4868000   0.95595517   -3.2118138   -1.7141664  0.060224789   -3.2118138    1.4976474   420381 
 4869000   0.95731234    -3.213003   -1.7131937  0.060963272    -3.213003    1.4998093   420371 
 4870000    0.9565049   -3.2112483   -1.7126684  0.061966898   -3.2112483    1.4985799   420361 
 4871000     0.956098   -3.2111464   -1.7131683   0.05961381   -3.2111464    1.4979781   420351 
 4872000   0.95710779   -3.2120681   -1.7124722   0.06210699   -3.2120681    1.4995959   420341 
 4873000   0.95722387   -3.2113688   -1.7115554  0.069846006   -3.2113688    1.4998134   420331 
 4874000   0.95848954   -3.2131497   -1.7113175  0.061562517   -3.2131497    1.5018322   420321 
 4875000   0.95790938   -3.2133857   -1.7124268  0.062225995   -3.2133857    1.5009589   420311 
 4876000   0.95750305   -3.2134091   -1.7130512  0.065615293   -3.2134091    1.5003579   420301 
 4877000   0.95827852   -3.2139676   -1.7123588  0.065733971   -3.2139676    1.5016088   420291 
 4878000    0.9586441   -3.2130119   -1.7107945  0.070858457   -3.2130119    1.5022174   420281 
 4879000   0.95849822   -3.2122585    -1.710234  0.065874851   -3.2122585    1.5020245   420271 
 4880000   0.95828039    -3.212734   -1.7110152  0.064006238    -3.212734    1.5017189   420261 
 4881000   0.95704401   -3.2127797   -1.7129626  0.065817105   -3.2127797     1.499817   420251 
 4882000   0.95781321   -3.2134906   -1.7124324  0.061427853   -3.2134906    1.5010582   420241 
 4883000   0.95893971   -3.2157837   -1.7129243  0.061280836   -3.2157837    1.5028594   420231 
 4884000   0.95709562   -3.2134666   -1.7134616  0.058262228   -3.2134666     1.500005   420221 
 4885000   0.95727031   -3.2132926   -1.7129781  0.060021081   -3.2132926    1.5003145   420211 
 4886000   0.95708509   -3.2135717   -1.7135118   0.05976176   -3.2135717    1.5000599   420201 
 4887000   0.95547178   -3.2126086   -1.7150417   0.06105517   -3.2126086     1.497567   420191 
 4888000   0.95682099    -3.213614   -1.7138967  0.057714621    -3.213614    1.4997173   420181 
 4889000   0.95649955    -3.213215   -1.7139658   0.06123422    -3.213215    1.4992492   420171 
 4890000   0.95722526    -3.213802   -1.7133796   0.06199832    -3.213802    1.5004224   420161 
 4891000   0.95739994   -3.2147865   -1.7140546  0.065722622   -3.2147865    1.5007319   420151 
 4892000   0.95712475   -3.2139661   -1.7136298  0.066642328   -3.2139661    1.5003363   420141 
 4893000   0.95776082   -3.2157733   -1.7144042  0.063180767   -3.2157733    1.5013691   420131 
 4894000   0.95786088   -3.2157002   -1.7141385  0.066212343   -3.2157002    1.5015617   420121 
 4895000   0.95787642   -3.2154167   -1.7137949  0.062384781   -3.2154167    1.5016218   420111 
 4896000   0.95722649   -3.2159566    -1.715318  0.061393938   -3.2159566    1.5006386   420101 
 4897000   0.95787321   -3.2174373    -1.715749  0.059914541   -3.2174373    1.5016882   420091 
 4898000   0.95699853   -3.2154852   -1.7151325  0.061031805   -3.2154852    1.5003527   420081 
 4899000   0.95625101   -3.2146151   -1.7153986   0.06307515   -3.2146151    1.4992164   420071 
 4900000   0.95717233   -3.2161109   -1.7154142  0.055939086   -3.2161109    1.5006966   420061 
 4901000   0.95748245   -3.2147294   -1.7135108  0.065559252   -3.2147294    1.5012186   420051 
 4902000   0.95678747   -3.2150713   -1.7149066  0.060021287   -3.2150713    1.5001647   420041 
 4903000    0.9578597   -3.2170538   -1.7151723  0.061470538   -3.2170538    1.5018816   420031 
 4904000   0.95586503    -3.213866   -1.7150763  0.065571119    -3.213866    1.4987897   420021 
 4905000   0.95751662   -3.2162039   -1.7147887  0.059524073   -3.2162039    1.5014151   420011 
 4906000   0.95769505   -3.2158043   -1.7140736  0.066178775   -3.2158043    1.5017307   420001 
 4907000    0.9589331   -3.2166679   -1.7129601  0.060309312   -3.2166679    1.5037078   419991 
 4908000   0.95852886   -3.2145259   -1.7114162  0.067685145   -3.2145259    1.5031097   419981 
 4909000     0.957158   -3.2146216   -1.7136259  0.061033241   -3.2146216    1.5009958   419971 
 4910000   0.95638911   -3.2121214   -1.7122957  0.063587836   -3.2121214    1.4998257   419961 
 4911000   0.95671525   -3.2136774   -1.7133045  0.056569242   -3.2136774    1.5003729   419951 
 4912000   0.95614684    -3.214015   -1.7144978  0.057879799    -3.214015    1.4995172   419941 
 4913000   0.95507213   -3.2124739   -1.7146065  0.059840784   -3.2124739    1.4978674   419931 
 4914000   0.95448366    -3.211415   -1.7144349  0.061922001    -3.211415    1.4969801   419921 
 4915000   0.95591983   -3.2134616   -1.7141933  0.059611452   -3.2134616    1.4992683   419911 
 4916000   0.95629026   -3.2132598   -1.7133748  0.058713724   -3.2132598     1.499885   419901 
 4917000   0.95683815   -3.2127038   -1.7119238  0.060460963   -3.2127038    1.5007801   419891 
 4918000   0.95458155   -3.2109807   -1.7137045  0.057446684   -3.2109807    1.4972763   419881 
 4919000   0.95594538   -3.2131675   -1.7137164  0.061267187   -3.2131675    1.4994512   419871 
 4920000   0.95590205    -3.213263    -1.713844  0.065046691    -3.213263    1.4994189   419861 
 4921000   0.95573665   -3.2139026   -1.7147074   0.05921396   -3.2139026    1.4991952   419851 
 4922000    0.9544927    -3.213565   -1.7162854  0.056899696    -3.213565    1.4972796   419841 
 4923000   0.95415779    -3.213803   -1.7170132  0.066045265    -3.213803    1.4967898   419831 
 4924000   0.95595966   -3.2160647   -1.7164125  0.058380426   -3.2160647    1.4996522   419821 
 4925000   0.95384944   -3.2119303   -1.7155529  0.068367108   -3.2119303    1.4963774   419811 
 4926000   0.95414484   -3.2136822   -1.7168057  0.058837336   -3.2136822    1.4968765   419801 
 4927000   0.95473108   -3.2135104   -1.7156785  0.057842059   -3.2135104    1.4978319   419791 
 4928000   0.95629418   -3.2151505   -1.7148306  0.060503044   -3.2151505    1.5003199   419781 
 4929000   0.95633541   -3.2150366   -1.7146163  0.065808358   -3.2150366    1.5004203   419771 
 4930000   0.95874915   -3.2168427   -1.7125996  0.063495053   -3.2168427    1.5042431   419761 
 4931000   0.95738645   -3.2166273   -1.7144864  0.065080111   -3.2166273    1.5021409   419751 
 4932000    0.9578998    -3.217724   -1.7147419  0.065522231    -3.217724    1.5029822   419741 
 4933000   0.95758593   -3.2168253   -1.7142998   0.06995876   -3.2168253    1.5025255   419731 
 4934000   0.95890991   -3.2196894   -1.7150507  0.063092536   -3.2196894    1.5046387   419721 
 4935000   0.95741262    -3.218118   -1.7157929  0.059060592    -3.218118    1.5023251   419711 
 4936000   0.95621363   -3.2154316   -1.7149521   0.06449633   -3.2154316    1.5004795   419701 
 4937000   0.95683849   -3.2162936   -1.7147979  0.058432575   -3.2162936    1.5014958   419691 
 4938000   0.95689488    -3.217015   -1.7153949  0.064635601    -3.217015      1.50162   419681 
 4939000   0.95568947   -3.2151379   -1.7153737  0.064198814   -3.2151379    1.4997642   419671 
 4940000   0.95731783   -3.2182558   -1.7159005   0.05947493   -3.2182558    1.5023554   419661 
 4941000   0.95606703   -3.2164556   -1.7160274  0.061987992   -3.2164556    1.5004282   419651 
 4942000   0.95611749   -3.2144996   -1.7139565  0.062542254   -3.2144996    1.5005431   419641 
 4943000   0.95811647   -3.2165971   -1.7128809  0.064397843   -3.2165971    1.5037162   419631 
 4944000   0.95691556   -3.2135189   -1.7116517  0.067994735   -3.2135189    1.5018672   419621 
 4945000   0.95645652   -3.2136953   -1.7125127  0.067879201   -3.2136953    1.5011825   419611 
 4946000   0.95573145   -3.2124734   -1.7123932  0.062366725   -3.2124734    1.5000803   419601 
 4947000   0.95641414   -3.2139756   -1.7127881  0.064496167   -3.2139756    1.5011876   419591 
 4948000   0.95507165   -3.2120592   -1.7129431  0.063192522   -3.2120592    1.4991161   419581 
 4949000   0.95691226   -3.2145356   -1.7124946  0.062293914   -3.2145356     1.502041   419571 
 4950000   0.95556645   -3.2131234   -1.7131591   0.06175664   -3.2131234    1.4999643   419561 
 4951000   0.95476412   -3.2147627   -1.7160221  0.058330977   -3.2147627    1.4987406   419551 
 4952000   0.95473962   -3.2141384   -1.7154006  0.057097145   -3.2141384    1.4987378   419541 
 4953000   0.95409964   -3.2122298   -1.7144609  0.056949795   -3.2122298    1.4977689   419531 
 4954000   0.95428649   -3.2128675   -1.7147696  0.061615569   -3.2128675    1.4980979   419521 
 4955000     0.955188   -3.2126397   -1.7130908  0.063908599   -3.2126397    1.4995489   419511 
 4956000   0.95537154   -3.2128747   -1.7130018  0.056534751   -3.2128747    1.4998728   419501 
 4957000   0.95546935   -3.2124951    -1.712433  0.067078048   -3.2124951    1.5000621   419491 
 4958000   0.95598234    -3.214979   -1.7140757  0.058765361    -3.214979    1.5009033   419481 
 4959000   0.95633156    -3.215926   -1.7144386  0.062905601    -3.215926    1.5014874   419471 
 4960000    0.9544844   -3.2119543   -1.7133314   0.05882099   -3.2119543     1.498623   419461 
 4961000   0.95631042   -3.2142412   -1.7127155  0.060325274   -3.2142412    1.5015257   419451 
 4962000   0.95427781   -3.2120279   -1.7136579  0.069545952   -3.2120279      1.49837   419441 
 4963000   0.95617537   -3.2156446   -1.7142593  0.065215839   -3.2156446    1.5013853   419431 
 4964000   0.95582622    -3.215551   -1.7146782  0.063447368    -3.215551    1.5008728   419421 
 4965000   0.95622356   -3.2157003   -1.7141677  0.062364175   -3.2157003    1.5015326   419411 
 4966000   0.95552592   -3.2152698   -1.7147969  0.062094013   -3.2152698    1.5004728   419401 
 4967000    0.9554103   -3.2172579   -1.7169309  0.059917576   -3.2172579    1.5003271   419391 
 4968000   0.95436092   -3.2148935   -1.7161785  0.066266576   -3.2148935    1.4987149   419381 
 4969000   0.95410332   -3.2144474   -1.7161013  0.065864437   -3.2144474    1.4983461   419371 
 4970000   0.95624678   -3.2178266   -1.7160785  0.065112063   -3.2178266    1.5017481   419361 
 4971000   0.95648078   -3.2169632   -1.7148118  0.064247074   -3.2169632    1.5021514   419351 
 4972000   0.95449081     -3.21469   -1.7156281  0.068264492     -3.21469    1.4990619   419341 
 4973000   0.95614361   -3.2180326   -1.7163392  0.060338677   -3.2180326    1.5016935   419331 
 4974000   0.95777158   -3.2196774   -1.7153912  0.062896677   -3.2196774    1.5042862   419321 
 4975000   0.95598652   -3.2170649   -1.7155465   0.06437186   -3.2170649    1.5015184   419311 
 4976000   0.95588283   -3.2171824   -1.7157911  0.067133087   -3.2171824    1.5013913   419301 
 4977000   0.95633661   -3.2174231   -1.7152832  0.067132113   -3.2174231    1.5021399   419291 
 4978000    0.9564132   -3.2177482   -1.7154522  0.061741191   -3.2177482     1.502296   419281 
 4979000   0.95596736   -3.2178529   -1.7162214  0.059584018   -3.2178529    1.5016315   419271 
 4980000   0.95670907   -3.2192408   -1.7164084  0.061421667   -3.2192408    1.5028324   419261 
 4981000   0.95649432   -3.2186869    -1.716156  0.054506203   -3.2186869    1.5025309   419251 
 4982000   0.95617655   -3.2178565   -1.7157889  0.065290772   -3.2178565    1.5020676   419241 
 4983000   0.95263082   -3.2133289   -1.7167957  0.064968038   -3.2133289    1.4965333   419231 
 4984000   0.95363132   -3.2144041   -1.7162634  0.060732221   -3.2144041    1.4981407   419221 
 4985000   0.95363483   -3.2140138   -1.7158318  0.064271959   -3.2140138     1.498182   419211 
 4986000   0.95280054   -3.2135596   -1.7166526  0.056699041   -3.2135596     1.496907   419201 
 4987000   0.95240173   -3.2128478   -1.7165317  0.061308173   -3.2128478    1.4963161   419191 
 4988000   0.95314765   -3.2149855   -1.7174617  0.059667686   -3.2149855    1.4975238   419181 
 4989000   0.95358418   -3.2156613    -1.717416   0.05974661   -3.2156613    1.4982454   419171 
 4990000    0.9527133   -3.2144262   -1.7175135  0.062294568   -3.2144262    1.4969128   419161 
 4991000   0.95423276   -3.2157023   -1.7163664  0.059181753   -3.2157023    1.4993359   419151 
 4992000   0.95353521   -3.2158299   -1.7175543  0.062070924   -3.2158299    1.4982757   419141 
 4993000   0.95287258   -3.2147847   -1.7175145  0.060859648   -3.2147847    1.4972702   419131 
 4994000   0.95366499   -3.2147439   -1.7161929  0.064225465   -3.2147439    1.4985511   419121 
 4995000   0.95520051   -3.2155223   -1.7145225  0.056190855   -3.2155223    1.5009997   419111 
 4996000   0.95549965   -3.2163924   -1.7148868  0.066550625   -3.2163924    1.5015056   419101 
 4997000   0.95461512   -3.2153329   -1.7151814   0.06249858   -3.2153329    1.5001514   419091 
 4998000   0.95565382   -3.2150326    -1.713213  0.066407448   -3.2150326    1.5018196   419081 
 4999000   0.95619669   -3.2146855   -1.7119769  0.064739995   -3.2146855    1.5027086   419071 
 5000000   0.95678404   -3.2161582   -1.7124908  0.061973779   -3.2161582    1.5036675   419061 
 5001000   0.95583892   -3.2147907   -1.7125727   0.06592193   -3.2147907     1.502218   419051 
 5002000   0.95583741   -3.2165808   -1.7143293  0.061313855   -3.2165808    1.5022515   419041 
 5003000   0.95542404   -3.2158503   -1.7142126  0.062612272   -3.2158503    1.5016376   419031 
 5004000   0.95520076   -3.2163575   -1.7150349   0.06157778   -3.2163575    1.5013225   419021 
 5005000   0.95380826   -3.2145353   -1.7153656  0.065308867   -3.2145353    1.4991697   419011 
 5006000   0.95548295   -3.2170448   -1.7152071  0.065341298   -3.2170448    1.5018377   419001 
 5007000   0.95514939   -3.2159509   -1.7146017  0.062140691   -3.2159509    1.5013493   418991 
 5008000    0.9549248   -3.2153895   -1.7143574  0.063928684   -3.2153895    1.5010321   418981 
 5009000   0.95505822   -3.2154401   -1.7141625  0.060852716   -3.2154401    1.5012776   418971 
 5010000   0.95393145   -3.2139782    -1.714436  0.065921969   -3.2139782    1.4995422   418961 
 5011000    0.9547145   -3.2145383   -1.7137293  0.064096566   -3.2145383     1.500809   418951 
 5012000   0.95536856   -3.2163612   -1.7144882  0.060249921   -3.2163612     1.501873   418941 
 5013000   0.95322848   -3.2131384   -1.7145939  0.063367648   -3.2131384    1.4985445   418931 
 5014000     0.954675   -3.2139012   -1.7130469   0.06433812   -3.2139012    1.5008544   418921 
 5015000   0.95568628   -3.2158989   -1.7134188  0.059538326   -3.2158989    1.5024801   418911 
 5016000   0.95528587   -3.2159344    -1.714048  0.062666253   -3.2159344    1.5018864   418901 
 5017000   0.95301767    -3.212884   -1.7145278  0.061480245    -3.212884    1.4983562   418891 
 5018000   0.95360767   -3.2136154   -1.7142959  0.061701844   -3.2136154    1.4993196   418881 
 5019000   0.95411364   -3.2150312   -1.7148803  0.060105659   -3.2150312    1.5001509   418871 
 5020000   0.95459143   -3.2145056   -1.7135677   0.06324632   -3.2145056    1.5009379   418861 
 5021000   0.95298493   -3.2121765   -1.7137287  0.060843386   -3.2121765    1.4984478   418851 
 5022000   0.95401358    -3.213278    -1.713177  0.062628185    -3.213278     1.500101   418841 
 5023000   0.95474891   -3.2141064   -1.7128133  0.061740071   -3.2141064    1.5012931   418831 
 5024000    0.9544698   -3.2138221   -1.7129321  0.056950295   -3.2138221      1.50089   418821 
 5025000   0.95376285   -3.2123546   -1.7125404  0.069644074   -3.2123546    1.4998142   418811 
 5026000    0.9540091   -3.2145198   -1.7142826  0.060274121   -3.2145198    1.5002372   418801 
 5027000   0.95230923   -3.2114722   -1.7138724  0.060827196   -3.2114722    1.4975998   418791 
 5028000   0.95245041   -3.2120077   -1.7141501  0.061788233   -3.2120077    1.4978576   418781 
 5029000   0.95316042    -3.212425    -1.713415   0.06270799    -3.212425      1.49901   418771 
 5030000    0.9534785   -3.2139917   -1.7144457   0.06036767   -3.2139917    1.4995461   418761 
 5031000   0.95107406   -3.2117265   -1.7159263  0.059830666   -3.2117265    1.4958003   418751 
 5032000   0.95259478   -3.2146234   -1.7163956   0.05804537   -3.2146234    1.4982278   418741 
 5033000   0.95285727   -3.2144805   -1.7158041   0.05927731   -3.2144805    1.4986764   418731 
 5034000   0.95345402   -3.2143153   -1.7146645  0.059383976   -3.2143153    1.4996508   418721 
 5035000   0.95246712   -3.2136282   -1.7154939   0.06111587   -3.2136282    1.4981343   418711 
 5036000   0.95268357    -3.212049   -1.7135385   0.05891543    -3.212049    1.4985106   418701 
 5037000   0.95328226    -3.213944   -1.7144559  0.063794782    -3.213944    1.4994881   418691 
 5038000   0.95401775   -3.2158675   -1.7151867  0.060684216   -3.2158675    1.5006808   418681 
 5039000   0.95444945   -3.2178317    -1.716436  0.063065695   -3.2178317    1.5013958   418671 
 5040000   0.95307076   -3.2149697   -1.7157069  0.066515711   -3.2149697    1.4992628   418661 
 5041000   0.95334913   -3.2155068   -1.7157703  0.069371792   -3.2155068    1.4997365   418651 
 5042000   0.95444766   -3.2179321   -1.7164315  0.060544826   -3.2179321    1.5015005   418641 
 5043000   0.95364361    -3.217109   -1.7168376  0.062378129    -3.217109    1.5002715   418631 
 5044000   0.95371333   -3.2151559   -1.7147389  0.063554957   -3.2151559     1.500417   418621 
 5045000   0.95220939   -3.2139232   -1.7158364  0.064047358   -3.2139232    1.4980867   418611 
 5046000   0.95232898   -3.2148867    -1.716576  0.067598456   -3.2148867    1.4983107   418601 
 5047000   0.95278363   -3.2153577   -1.7162959  0.067064657   -3.2153577    1.4990618   418591 
 5048000   0.95224739   -3.2160055   -1.7177516  0.062296367   -3.2160055    1.4982539   418581 
 5049000    0.9517732    -3.215495   -1.7179514  0.064083828    -3.215495    1.4975436   418571 
 5050000   0.95378255   -3.2181749   -1.7174339  0.066342494   -3.2181749     1.500741   418561 
 5051000   0.95296056   -3.2175052   -1.7180217  0.062604125   -3.2175052    1.4994834   418551 
 5052000   0.95472364   -3.2182277   -1.7159342  0.058024337   -3.2182277    1.5022935   418541 
 5053000    0.9536027   -3.2169165   -1.7163509  0.062009675   -3.2169165    1.5005656   418531 
 5054000   0.95487678   -3.2193166   -1.7167103  0.061984947   -3.2193166    1.5026063   418521 
 5055000   0.95416087   -3.2179658   -1.7164502  0.065713798   -3.2179658    1.5015156   418511 
 5056000   0.95403492   -3.2181341   -1.7167808  0.065115411   -3.2181341    1.5013533   418501 
 5057000   0.95278339   -3.2160267   -1.7166071  0.061815358   -3.2160267    1.4994196   418491 
 5058000   0.95277359   -3.2161713   -1.7167312  0.065799264   -3.2161713      1.49944   418481 
 5059000   0.95217694   -3.2147853   -1.7162484  0.059646132   -3.2147853    1.4985368   418471 
 5060000   0.95358215   -3.2168936   -1.7161093   0.06135237   -3.2168936    1.5007842   418461 
 5061000   0.95286512   -3.2172297   -1.7175381   0.06137903   -3.2172297    1.4996916   418451 
 5062000   0.95272182   -3.2160069    -1.716505  0.066750356   -3.2160069    1.4995019   418441 
 5063000   0.95339035   -3.2183277   -1.7177377  0.068508009   -3.2183277    1.5005899   418431 
 5064000   0.95176525   -3.2165619    -1.718494  0.061009605   -3.2165619    1.4980679   418421 
 5065000    0.9502614   -3.2161713   -1.7204347  0.062335012   -3.2161713    1.4957366   418411 
 5066000   0.95119748   -3.2170084   -1.7197626  0.059657981   -3.2170084    1.4972458   418401 
 5067000   0.95033809   -3.2155756   -1.7196468  0.059372599   -3.2155756    1.4959288   418391 
 5068000   0.95137406   -3.2165651   -1.7189698  0.056232425   -3.2165651    1.4975953   418381 
 5069000   0.94957222   -3.2135301   -1.7187354  0.061490734   -3.2135301    1.4947947   418371 
 5070000   0.94971484   -3.2136227   -1.7185677  0.057294078   -3.2136227     1.495055   418361 
 5071000   0.95304903   -3.2182528   -1.7179132  0.054645139   -3.2182528    1.5003396   418351 
 5072000   0.95098341   -3.2154995   -1.7183759   0.06056897   -3.2154995    1.4971236   418341 
 5073000   0.95155696   -3.2143251   -1.7162628  0.062185609   -3.2143251    1.4980623   418331 
 5074000    0.9523443   -3.2157332   -1.7163955   0.06460083   -3.2157332    1.4993377   418321 
 5075000   0.95144536   -3.2146705   -1.7167122  0.065555392   -3.2146705    1.4979582   418311 
 5076000    0.9529823   -3.2163989   -1.7159851  0.061652851   -3.2163989    1.5004138   418301 
 5077000   0.94973473   -3.2132447   -1.7179082  0.060360257   -3.2132447    1.4953365   418291 
 5078000   0.94923854   -3.2125043   -1.7179134  0.060775861   -3.2125043     1.494591   418281 
 5079000   0.95342273   -3.2175647   -1.7163497  0.057965455   -3.2175647    1.5012149   418271 
 5080000   0.95216358   -3.2139562    -1.714688  0.068406368   -3.2139562    1.4992682   418261 
 5081000   0.95168493   -3.2151509   -1.7166006  0.062745583   -3.2151509    1.4985503   418251 
 5082000   0.95274826   -3.2168573   -1.7165967  0.065267089   -3.2168573    1.5002606   418241 
 5083000   0.95210528   -3.2149724   -1.7156885  0.067417887   -3.2149724    1.4992839   418231 
 5084000   0.95298728   -3.2171576   -1.7164489  0.061908947   -3.2171576    1.5007087   418221 
 5085000   0.95237663   -3.2156305   -1.7158476  0.063740466   -3.2156305     1.499783   418211 
 5086000   0.95355456   -3.2169697   -1.7152959  0.059374148   -3.2169697    1.5016738   418201 
 5087000    0.9517092   -3.2145443   -1.7157407  0.063475717   -3.2145443    1.4988036   418191 
 5088000   0.95284424   -3.2163254   -1.7156984  0.056938226   -3.2163254     1.500627   418181 
 5089000   0.95302689   -3.2164593   -1.7155088  0.060986118   -3.2164593    1.5009505   418171 
 5090000   0.95294682   -3.2168353    -1.715975  0.065375731   -3.2168353    1.5008603   418161 
 5091000   0.95132628   -3.2145596   -1.7162158  0.058240409   -3.2145596    1.4983438   418151 
 5092000   0.95071981   -3.2152608   -1.7178363  0.059946379   -3.2152608    1.4974245   418141 
 5093000   0.95140874   -3.2158303   -1.7172849  0.058668677   -3.2158303    1.4985454   418131 
 5094000   0.94991519   -3.2135568    -1.717328  0.063326425   -3.2135568    1.4962287   418121 
 5095000   0.95275184   -3.2169669   -1.7162343  0.057407217   -3.2169669    1.5007327   418111 
 5096000   0.95164516   -3.2144187   -1.7153934  0.060070989   -3.2144187    1.4990253   418101 
 5097000   0.95138342   -3.2148375   -1.7161886  0.062007409   -3.2148375    1.4986489   418091 
 5098000   0.95138569   -3.2143518   -1.7156635   0.06210058   -3.2143518    1.4986883   418081 
 5099000   0.95087685   -3.2154244   -1.7175018  0.060435615   -3.2154244    1.4979226   418071 
 5100000   0.95025953   -3.2153513   -1.7183654  0.062218236   -3.2153513    1.4969859   418061 
 5101000   0.95184805   -3.2168934   -1.7173691  0.064060541   -3.2168934    1.4995242   418051 
 5102000   0.95217603   -3.2156204   -1.7155436  0.065415336   -3.2156204    1.5000768   418041 
 5103000   0.95228425   -3.2168475   -1.7165643  0.060483062   -3.2168475    1.5002832   418031 
 5104000   0.95191612   -3.2171478   -1.7174087  0.064208684   -3.2171478    1.4997391   418021 
 5105000   0.95119798   -3.2174678   -1.7188243  0.059636184   -3.2174678    1.4986435   418011 
 5106000    0.9511144   -3.2172593   -1.7187116  0.061589215   -3.2172593    1.4985477   418001 
 5107000   0.95044933   -3.2179747    -1.720439  0.058703389   -3.2179747    1.4975357   417991 
 5108000    0.9526048   -3.2197831   -1.7188154  0.062113635   -3.2197831    1.5009677   417981 
 5109000   0.95242535   -3.2184383   -1.7177174  0.057536064   -3.2184383    1.5007209   417971 
 5110000   0.95228726   -3.2192965   -1.7187573    0.0619085   -3.2192965    1.5005392   417961 
 5111000   0.95203194   -3.2185019   -1.7183291  0.062018035   -3.2185019    1.5001728   417951 
 5112000   0.95280792   -3.2184798   -1.7170483  0.061653004   -3.2184798    1.5014315   417941 
 5113000    0.9514689   -3.2175848   -1.7182275  0.063567579   -3.2175848    1.4993573   417931 
 5114000    0.9513361   -3.2183882   -1.7192042  0.063368131   -3.2183882    1.4991839   417921 
 5115000   0.95110915   -3.2178235   -1.7189613  0.065866797   -3.2178235    1.4988621   417911 
 5116000   0.95075805    -3.217738   -1.7193933  0.061571657    -3.217738    1.4983447   417901 
 5117000    0.9504989   -3.2168882   -1.7189161  0.062559367   -3.2168882    1.4979721   417891 
 5118000   0.95165191    -3.218198   -1.7183728  0.064014946    -3.218198    1.4998251   417881 
 5119000   0.95083198   -3.2175045   -1.7189358  0.060613587   -3.2175045    1.4985688   417871 
 5120000   0.94958168   -3.2160931   -1.7194591  0.066148268   -3.2160931    1.4966341   417861 
 5121000    0.9502305   -3.2170184   -1.7193259  0.060604446   -3.2170184    1.4976925   417851 
 5122000   0.95087521   -3.2172551   -1.7185106  0.061316438   -3.2172551    1.4987445   417841 
 5123000   0.95160486   -3.2197063   -1.7197758  0.061020925   -3.2197063    1.4999305   417831 
 5124000   0.95017767   -3.2165299   -1.7188132  0.061716021   -3.2165299    1.4977168   417821 
 5125000    0.9516009   -3.2189135   -1.7189174  0.057152776   -3.2189135     1.499996   417811 
 5126000   0.94945078   -3.2158922   -1.7192495  0.065535944   -3.2158922    1.4966426   417801 
 5127000   0.95050983   -3.2170957   -1.7187478  0.058844132   -3.2170957    1.4983479   417791 
 5128000   0.94934905   -3.2154057   -1.7188518  0.060336718   -3.2154057    1.4965539   417781 
 5129000   0.94861522   -3.2155958   -1.7201629  0.062111028   -3.2155958    1.4954329   417771 
 5130000   0.94888066    -3.215405   -1.7195178  0.062183109    -3.215405    1.4958872   417761 
 5131000   0.94890635   -3.2156764    -1.719713  0.057797647   -3.2156764    1.4959635   417751 
 5132000    0.9513796   -3.2177482   -1.7178497  0.063343886   -3.2177482    1.4998985   417741 
 5133000   0.95255385    -3.219356   -1.7175703  0.056230943    -3.219356    1.5017857   417731 
 5134000   0.95123174   -3.2170453   -1.7173081  0.060551214   -3.2170453    1.4997372   417721 
 5135000   0.95071645   -3.2163329   -1.7173723  0.061646552   -3.2163329    1.4989606   417711 
 5136000   0.95162794   -3.2171643   -1.7167306  0.057035146   -3.2171643    1.5004337   417701 
 5137000   0.95221442   -3.2170403    -1.715646  0.057812811   -3.2170403    1.5013943   417691 
 5138000   0.95132387   -3.2149797   -1.7149536   0.06538497   -3.2149797    1.5000261   417681 
 5139000   0.95108535   -3.2151057   -1.7154198   0.06404204   -3.2151057    1.4996859   417671 
 5140000   0.95161336   -3.2152448   -1.7146904  0.062750599   -3.2152448    1.5005544   417661 
 5141000    0.9526431   -3.2164264   -1.7142123  0.064706592   -3.2164264    1.5022141   417651 
 5142000   0.95181223   -3.2145377   -1.7135979  0.058574192   -3.2145377    1.5009398   417641 
 5143000   0.95363649    -3.217565   -1.7137124  0.061703266    -3.217565    1.5038526   417631 
 5144000   0.95004843   -3.2126445   -1.7144143  0.062771404   -3.2126445    1.4982302   417621 
 5145000   0.95082762   -3.2145603   -1.7150654  0.063220737   -3.2145603    1.4994949   417611 
 5146000   0.95116146   -3.2140046   -1.7139473  0.062887586   -3.2140046    1.5000573   417601 
 5147000   0.95144039    -3.214704   -1.7141709   0.06123681    -3.214704    1.5005331   417591 
 5148000   0.95069229   -3.2141309   -1.7147417  0.053408154   -3.2141309    1.4993892   417581 
 5149000    0.9493333   -3.2120902   -1.7148085  0.063504639   -3.2120902    1.4972817   417571 
 5150000   0.94926167    -3.211941   -1.7147364  0.059373028    -3.211941    1.4972046   417561 
 5151000    0.9504975   -3.2139629   -1.7147733  0.058255966   -3.2139629    1.4991897   417551 
 5152000    0.9506391   -3.2135105   -1.7140616  0.059126331   -3.2135105    1.4994489   417541 
 5153000   0.95092623   -3.2140216   -1.7140838  0.059463226   -3.2140216    1.4999377   417531 
 5154000   0.95080346   -3.2134247   -1.7136447  0.059696172   -3.2134247      1.49978   417521 
 5155000   0.95115663   -3.2150088   -1.7146357  0.063431273   -3.2150088     1.500373   417511 
 5156000   0.95100892   -3.2148409    -1.714665  0.061020101   -3.2148409     1.500176   417501 
 5157000   0.95061508   -3.2136066    -1.714016  0.066457603   -3.2136066    1.4995906   417491 
 5158000   0.95159968    -3.213919   -1.7127393  0.063788218    -3.213919    1.5011798   417481 
 5159000   0.95037867   -3.2143925    -1.715103  0.062639675   -3.2143925    1.4992895   417471 
 5160000   0.95012208   -3.2140161   -1.7150954  0.058355891   -3.2140161    1.4989206   417461 
 5161000   0.94855641   -3.2121792   -1.7156927    0.0564695   -3.2121792    1.4964865   417451 
 5162000   0.94878752   -3.2129756   -1.7160887   0.05841638   -3.2129756    1.4968869   417441 
 5163000    0.9494263   -3.2126319   -1.7147013  0.055329681   -3.2126319    1.4979306   417431 
 5164000   0.94913804   -3.2113385   -1.7138269   0.06508196   -3.2113385    1.4975117   417421 
 5165000   0.94963014    -3.212774     -1.71445  0.063113666    -3.212774     1.498324   417411 
 5166000    0.9513629   -3.2153233   -1.7142294   0.05936903   -3.2153233    1.5010939   417401 
 5167000   0.95152684   -3.2151492   -1.7137607  0.064124345   -3.2151492    1.5013885   417391 
 5168000   0.95047841   -3.2142484   -1.7144782  0.065761179   -3.2142484    1.4997702   417381 
 5169000   0.95228176   -3.2179497    -1.715298  0.061643908   -3.2179497    1.5026517   417371 
 5170000   0.95237813   -3.2171415   -1.7143017  0.064177013   -3.2171415    1.5028398   417361 
 5171000   0.95016462   -3.2153229   -1.7159401  0.065652274   -3.2153229    1.4993828   417351 
 5172000   0.95094244   -3.2163681   -1.7157219  0.062775788   -3.2163681    1.5006462   417341 
 5173000   0.95078605    -3.216469   -1.7160336   0.06234062    -3.216469    1.5004354   417331 
 5174000   0.95150651   -3.2167912    -1.715183  0.067392935   -3.2167912    1.5016083   417321 
 5175000   0.94951054   -3.2158635   -1.7173692  0.062520727   -3.2158635    1.4984943   417311 
 5176000   0.94794342   -3.2140002   -1.7179432  0.061756098   -3.2140002    1.4960569   417301 
 5177000    0.9505418   -3.2178335   -1.7176398  0.055493495   -3.2178335    1.5001937   417291 
 5178000   0.95014437   -3.2169154    -1.717313   0.06194413   -3.2169154    1.4996024   417281 
 5179000   0.94812444   -3.2151238   -1.7186736  0.057547833   -3.2151238    1.4964502   417271 
 5180000   0.94986142   -3.2174185   -1.7181908  0.061270201   -3.2174185    1.4992277   417261 
 5181000   0.95037603   -3.2178578   -1.7177819  0.060927371   -3.2178578    1.5000758   417251 
 5182000   0.95234371   -3.2201708   -1.7169532  0.066591092   -3.2201708    1.5032177   417241 
 5183000   0.95038585   -3.2170291   -1.7168658  0.066236038   -3.2170291    1.5001633   417231 
 5184000   0.94896416   -3.2155128   -1.7175577  0.060449671   -3.2155128    1.4979551   417221 
 5185000   0.94967005   -3.2179582   -1.7188529  0.063118422   -3.2179582    1.4991052   417211 
 5186000   0.94965595   -3.2178638   -1.7187449  0.068325382   -3.2178638    1.4991189   417201 
 5187000    0.9488643   -3.2166226   -1.7187175  0.065038697   -3.2166226    1.4979051   417191 
 5188000   0.94771208   -3.2164471   -1.7203251  0.059562098   -3.2164471    1.4961221   417181 
 5189000   0.94872917   -3.2166293   -1.7188656  0.056239011   -3.2166293    1.4977636   417171 
 5190000   0.94950064   -3.2159971   -1.7169796  0.064036732   -3.2159971    1.4990175   417161 
 5191000   0.94916943   -3.2146293   -1.7160988  0.063391301   -3.2146293    1.4985305   417151 
 5192000   0.95179006   -3.2193006   -1.7165966  0.062306226   -3.2193006    1.5027039   417141 
 5193000   0.95080031   -3.2194229   -1.7182457  0.067557676   -3.2194229    1.5011773   417131 
 5194000   0.95209924   -3.2224385   -1.7191743  0.066275256   -3.2224385    1.5032641   417121 
 5195000   0.95072839    -3.218598   -1.7174623  0.067691826    -3.218598    1.5011357   417111 
 5196000   0.95067616   -3.2184498   -1.7173605   0.06145612   -3.2184498    1.5010892   417101 
 5197000   0.95009696   -3.2178558   -1.7176452  0.066157949   -3.2178558    1.5002106   417091 
 5198000   0.95058983   -3.2179622   -1.7169373  0.065381895   -3.2179622    1.5010249   417081 
 5199000     0.951244   -3.2188106   -1.7167167  0.060777406   -3.2188106    1.5020939   417071 
 5200000   0.94932738   -3.2169459   -1.7178426  0.062670963   -3.2169459    1.4991033   417061 
 5201000   0.94970658   -3.2183606   -1.7186225  0.064559068   -3.2183606    1.4997381   417051 
 5202000    0.9495138   -3.2189146    -1.719445  0.064221825   -3.2189146    1.4994696   417041 
 5203000   0.94958856   -3.2187276    -1.719104  0.060661971   -3.2187276    1.4996236   417031 
 5204000   0.94799033   -3.2159893   -1.7188538  0.056713556   -3.2159893    1.4971355   417021 
 5205000   0.94831049   -3.2149127   -1.7172357  0.062968449   -3.2149127    1.4976771   417011 
 5206000   0.94988863   -3.2168053   -1.7165999  0.066312522   -3.2168053    1.5002054   417001 
 5207000   0.95043244   -3.2156359   -1.7145356   0.06268216   -3.2156359    1.5011003   416991 
 5208000   0.94867569   -3.2134634   -1.7151018  0.062958705   -3.2134634    1.4983616   416981 
 5209000   0.95028953   -3.2173699   -1.7164234  0.061274881   -3.2173699    1.5009465   416971 
 5210000   0.95031624   -3.2190058    -1.717981  0.059699414   -3.2190058    1.5010247   416961 
 5211000   0.94850385   -3.2150447   -1.7168467  0.066115449   -3.2150447     1.498198   416951 
 5212000   0.94691703   -3.2120557   -1.7163282  0.066107782   -3.2120557    1.4957274   416941 
 5213000   0.94782347   -3.2142912    -1.717096  0.059967491   -3.2142912    1.4971951   416931 
 5214000   0.94841653   -3.2155501   -1.7173823  0.058960845   -3.2155501    1.4981679   416921 
 5215000   0.94841838    -3.213694   -1.7154873  0.057289994    -3.213694    1.4982067   416911 
 5216000   0.94771183   -3.2131553   -1.7160288  0.059732296   -3.2131553    1.4971265   416901 
 5217000   0.94712427   -3.2141441   -1.7179099  0.061497939   -3.2141441    1.4962342   416891 
 5218000   0.94781047   -3.2154605   -1.7181063  0.065480858   -3.2154605    1.4973542   416881 
 5219000   0.94836831   -3.2163514     -1.71808  0.060395504   -3.2163514    1.4982714   416871 
 5220000   0.94739674   -3.2134873   -1.7167149  0.057011153   -3.2134873    1.4967723   416861 
 5221000   0.94928448   -3.2173897    -1.717599  0.059030801   -3.2173897    1.4997907   416851 
 5222000   0.94852096    -3.216103   -1.7174827  0.061016656    -3.216103    1.4986204   416841 
 5223000   0.94797651   -3.2170986   -1.7193025  0.063248102   -3.2170986    1.4977961   416831 
 5224000   0.94916403   -3.2191422   -1.7194338   0.06109632   -3.2191422    1.4997084   416821 
 5225000   0.94859735   -3.2186216   -1.7197727  0.067077944   -3.2186216    1.4988489   416811 
 5226000   0.94788451    -3.218741   -1.7209825  0.062708483    -3.218741    1.4977585   416801 
 5227000   0.94867562   -3.2187776    -1.719733  0.063844099   -3.2187776    1.4990446   416791 
 5228000    0.9485382   -3.2188485   -1.7199851  0.062804205   -3.2188485    1.4988634   416781 
 5229000   0.94824331   -3.2174578   -1.7190244  0.067910023   -3.2174578    1.4984333   416771 
 5230000   0.94952065   -3.2202277   -1.7197399  0.062923936   -3.2202277    1.5004878   416761 
 5231000   0.94754585   -3.2168793   -1.7194763  0.066036437   -3.2168793    1.4974031   416751 
 5232000   0.94773162   -3.2171636    -1.719431  0.063961774   -3.2171636    1.4977326   416741 
 5233000   0.94921226   -3.2183794   -1.7182709  0.065122015   -3.2183794    1.5001085   416731 
 5234000   0.94768118   -3.2176297   -1.7199049   0.05846806   -3.2176297    1.4977247   416721 
 5235000   0.94924445    -3.219544   -1.7193126  0.063237359    -3.219544    1.5002313   416711 
 5236000   0.94919298   -3.2172537   -1.7170677  0.063049158   -3.2172537     1.500186   416701 
 5237000     0.949461   -3.2192055   -1.7185599  0.063881926   -3.2192055    1.5006456   416691 
 5238000   0.95031902   -3.2209713   -1.7189336  0.064786632   -3.2209713    1.5020378   416681 
 5239000   0.94884356   -3.2187475   -1.7190058  0.060737345   -3.2187475    1.4997417   416671 
 5240000   0.94982154   -3.2208204   -1.7194968  0.057633494   -3.2208204    1.5013235   416661 
 5241000    0.9474733   -3.2177198    -1.720072  0.060944012   -3.2177198    1.4976478   416651 
 5242000   0.94735115   -3.2173364   -1.7198458  0.062269554   -3.2173364    1.4974906   416641 
 5243000   0.94725228   -3.2175516   -1.7201813  0.061756901   -3.2175516    1.4973703   416631 
 5244000   0.94751206    -3.216983   -1.7191661  0.056979744    -3.216983    1.4978169   416621 
 5245000   0.94731215   -3.2168267   -1.7192898  0.060651852   -3.2168267    1.4975368   416611 
 5246000    0.9472529   -3.2173349   -1.7198558  0.062638951   -3.2173349    1.4974791   416601 
 5247000   0.94776372   -3.2170153   -1.7186927  0.056780401   -3.2170153    1.4983226   416591 
 5248000   0.94757057   -3.2151066   -1.7170534  0.065812104   -3.2151066    1.4980532   416581 
 5249000   0.94810461   -3.2154152   -1.7164817  0.061259081   -3.2154152    1.4989335   416571 
 5250000    0.9484231   -3.2165678   -1.7170948  0.063323141   -3.2165678     1.499473   416561 
 5251000     0.949047   -3.2177502   -1.7172548   0.05686407   -3.2177502    1.5004954   416551 
 5252000   0.94760415   -3.2162949   -1.7180447  0.058964457   -3.2162949    1.4982502   416541 
 5253000    0.9471565   -3.2159931   -1.7184147  0.060279172   -3.2159931    1.4975783   416531 
 5254000   0.94906222    -3.217859   -1.7172315   0.06081617    -3.217859    1.5006276   416521 
 5255000   0.94729781   -3.2149368   -1.7170632  0.058979432   -3.2149368    1.4978737   416511 
 5256000   0.94848351   -3.2164467   -1.7166622    0.0594914   -3.2164467    1.4997845   416501 
 5257000   0.94796618   -3.2170359   -1.7180334  0.061103954   -3.2170359    1.4990025   416491 
 5258000   0.94769982   -3.2163411   -1.7177239  0.069548376   -3.2163411    1.4986173   416481 
 5259000   0.94791144   -3.2162667   -1.7172788  0.059161064   -3.2162667    1.4989879   416471 
 5260000   0.94841411   -3.2180017   -1.7181829  0.060056338   -3.2180017    1.4998188   416461 
 5261000   0.94749931   -3.2166076   -1.7181994    0.0640263   -3.2166076    1.4984081   416451 
 5262000   0.94782316   -3.2174927   -1.7185365    0.0604083   -3.2174927    1.4989563   416441 
 5263000   0.94854569   -3.2171683   -1.7170333  0.066442802   -3.2171683     1.500135   416431 
 5264000   0.94740692   -3.2163874   -1.7180175  0.066552828   -3.2163874      1.49837   416421 
 5265000   0.94835198   -3.2194056   -1.7195049  0.061541497   -3.2194056    1.4999006   416411 
 5266000   0.94843899   -3.2201835   -1.7201092  0.062283764   -3.2201835    1.5000743   416401 
 5267000   0.94827844   -3.2196761   -1.7198197  0.063074422   -3.2196761    1.4998564   416391 
 5268000   0.94748778   -3.2182702   -1.7196284  0.061369224   -3.2182702    1.4986418   416381 
 5269000   0.94754529   -3.2179859   -1.7192171  0.063617856   -3.2179859    1.4987688   416371 
 5270000   0.94885839   -3.2204392   -1.7195574  0.063978753   -3.2204392    1.5008818   416361 
 5271000   0.94724166   -3.2189985    -1.720638  0.063526925   -3.2189985    1.4983605   416351 
 5272000   0.94633309   -3.2178269   -1.7208676  0.070420113   -3.2178269    1.4969593   416341 
 5273000   0.94796226   -3.2211712   -1.7215988  0.064480939   -3.2211712    1.4995724   416331 
 5274000   0.94746744   -3.2181371   -1.7193114  0.064915803   -3.2181371    1.4988256   416321 
 5275000   0.94862479   -3.2207455   -1.7200529  0.059597126   -3.2207455    1.5006925   416311 
 5276000   0.94683597   -3.2177121   -1.7198134  0.062467286   -3.2177121    1.4978986   416301 
 5277000   0.94736618   -3.2195313   -1.7207579  0.060236017   -3.2195313    1.4987734   416291 
 5278000   0.94733631   -3.2193517   -1.7205895  0.066364673   -3.2193517    1.4987622   416281 
 5279000   0.94613239   -3.2186377   -1.7217442  0.068255339   -3.2186377    1.4968934   416271 
 5280000   0.94671082   -3.2196723   -1.7218277  0.062321363   -3.2196723    1.4978446   416261 
 5281000   0.94639851    -3.217633   -1.7202466  0.063868552    -3.217633    1.4973864   416251 
 5282000   0.94866469   -3.2196285   -1.7186204   0.06094704   -3.2196285     1.501008   416241 
 5283000   0.94737666   -3.2165341   -1.7175281  0.066527682   -3.2165341    1.4990061   416231 
 5284000   0.94766784   -3.2183249   -1.7188221  0.063573255   -3.2183249    1.4995028   416221 
 5285000   0.94721171   -3.2184606   -1.7196435  0.057796716   -3.2184606    1.4988171   416211 
 5286000   0.94603935   -3.2157347   -1.7187367  0.068114129   -3.2157347     1.496998   416201 
 5287000   0.94593789   -3.2167812   -1.7199078  0.062783275   -3.2167812    1.4968734   416191 
 5288000   0.94606528   -3.2165755   -1.7194646  0.059314854   -3.2165755     1.497111   416181 
 5289000   0.94622948   -3.2164415   -1.7190347  0.063001074   -3.2164415    1.4974068   416171 
 5290000   0.94677478   -3.2181071   -1.7198014  0.063512874   -3.2181071    1.4983057   416161 
 5291000   0.94513136   -3.2155852   -1.7198444   0.06198775   -3.2155852    1.4957409   416151 
 5292000   0.94621078     -3.21613   -1.7186449  0.057682857     -3.21613    1.4974851   416141 
 5293000   0.94629875   -3.2155803   -1.7179199  0.056024338   -3.2155803    1.4976603   416131 
 5294000   0.94354165   -3.2110921   -1.7177594   0.06141556   -3.2110921    1.4933327   416121 
 5295000   0.94505608   -3.2125663   -1.7168008  0.057462336   -3.2125663    1.4957655   416111 
 5296000   0.94604956   -3.2133814   -1.7160075   0.05769875   -3.2133814    1.4973739   416101 
 5297000   0.94600452   -3.2140015   -1.7166629  0.052895412   -3.2140015    1.4973386   416091 
 5298000   0.94431112   -3.2117665   -1.7170723  0.064375235   -3.2117665    1.4946942   416081 
 5299000   0.94613413   -3.2132772   -1.7156615   0.05853032   -3.2132772    1.4976157   416071 
 5300000   0.94765403   -3.2152159   -1.7151583  0.059998251   -3.2152159    1.5000576   416061 
 5301000   0.94725239   -3.2142333   -1.7147754  0.061653321   -3.2142333    1.4994579   416051 
 5302000   0.94649629   -3.2133185   -1.7150214  0.065814961   -3.2133185     1.498297   416041 
 5303000   0.94664742   -3.2132397   -1.7146674  0.062154293   -3.2132397    1.4985723   416031 
 5304000    0.9487891   -3.2163874   -1.7143887  0.069722192   -3.2163874    1.5019987   416021 
 5305000   0.94682641   -3.2141957   -1.7152681  0.063842684   -3.2141957    1.4989277   416011 
 5306000    0.9478723   -3.2158278   -1.7152083  0.063126512   -3.2158278    1.5006195   416001 
 5307000   0.94714785   -3.2136958   -1.7141872  0.060349565   -3.2136958    1.4995086   415991 
 5308000   0.94818486    -3.215608   -1.7144215  0.061113097    -3.215608    1.5011865   415981 
 5309000   0.94683143   -3.2137074   -1.7146276   0.05898699   -3.2137074    1.4990798   415971 
 5310000   0.94539254   -3.2122661   -1.7154285   0.06561595   -3.2122661    1.4968376   415961 
 5311000    0.9463814   -3.2147893     -1.71635   0.05775441   -3.2147893    1.4984393   415951 
 5312000    0.9465513   -3.2157223    -1.716978  0.060832688   -3.2157223    1.4987443   415941 
 5313000   0.94615815   -3.2145517   -1.7163938  0.058893977   -3.2145517    1.4981579   415931 
 5314000   0.94612693   -3.2137602   -1.7156158  0.064212265   -3.2137602    1.4981444   415921 
 5315000    0.9469229   -3.2141954   -1.7147545  0.060194142   -3.2141954    1.4994409   415911 
 5316000   0.94703895   -3.2158646    -1.716204  0.064562801   -3.2158646    1.4996607   415901 
 5317000    0.9456482   -3.2124283   -1.7149339  0.067046068   -3.2124283    1.4974944   415891 
 5318000   0.94677261   -3.2149492   -1.7156382  0.065173757   -3.2149492     1.499311   415881 
 5319000   0.94585226   -3.2148366   -1.7169471  0.061372165   -3.2148366    1.4978896   415871 
 5320000   0.94581312   -3.2162701   -1.7184065  0.061851823   -3.2162701    1.4978636   415861 
 5321000   0.94508717    -3.215911   -1.7191611  0.063413757    -3.215911    1.4967499   415851 
 5322000   0.94672193   -3.2178815   -1.7185065  0.063851941   -3.2178815     1.499375   415841 
 5323000   0.94596595   -3.2154688   -1.7172551  0.061662275   -3.2154688    1.4982137   415831 
 5324000    0.9443706   -3.2146389   -1.7189159  0.066120448   -3.2146389     1.495723   415821 
 5325000   0.94504364   -3.2167168   -1.7198918  0.061785345   -3.2167168     1.496825   415811 
 5326000   0.94545128   -3.2165582   -1.7190515  0.063259638   -3.2165582    1.4975066   415801 
 5327000    0.9454584   -3.2193997   -1.7218458  0.055762065   -3.2193997    1.4975539   415791 
 5328000   0.94418024   -3.2170075   -1.7214421  0.058063729   -3.2170075    1.4955654   415781 
 5329000   0.94557664   -3.2200337   -1.7222205  0.061661101   -3.2200337    1.4978133   415771 
 5330000   0.94543108   -3.2191546   -1.7215359  0.065731636   -3.2191546    1.4976187   415761 
 5331000   0.94464922   -3.2191194   -1.7227033  0.060828395   -3.2191194    1.4964162   415751 
 5332000   0.94497604   -3.2179241   -1.7209541  0.066457682   -3.2179241    1.4969699   415741 
 5333000   0.94606172   -3.2190715   -1.7203457   0.06199252   -3.2190715    1.4987258   415731 
 5334000   0.94617818   -3.2221915   -1.7232451  0.061718911   -3.2221915    1.4989464   415721 
 5335000   0.94524519   -3.2199383    -1.722434  0.063570659   -3.2199383    1.4975043   415711 
 5336000   0.94704116   -3.2227388   -1.7223531  0.062307933   -3.2227388    1.5003857   415701 
 5337000   0.94689054   -3.2225334   -1.7223503  0.058036234   -3.2225334    1.5001832   415691 
 5338000    0.9465029   -3.2232321    -1.723627  0.059947458   -3.2232321    1.4996051   415681 
 5339000   0.94566025   -3.2219839   -1.7236778  0.063962705   -3.2219839    1.4983061   415671 
 5340000   0.94686147    -3.222106   -1.7218606  0.060615045    -3.222106    1.5002454   415661 
 5341000   0.94641818   -3.2214717   -1.7218926  0.064788209   -3.2214717    1.4995791   415651 
 5342000    0.9469961    -3.223071   -1.7225401  0.064096354    -3.223071    1.5005309   415641 
 5343000   0.94648353   -3.2223649   -1.7226101  0.064745593   -3.2223649    1.4997548   415631 
 5344000   0.94605862   -3.2217565    -1.722639  0.063152755   -3.2217565    1.4991176   415621 
 5345000   0.94455263   -3.2205592    -1.723792  0.060848129   -3.2205592    1.4967672   415611 
 5346000   0.94622839   -3.2223327   -1.7228739  0.061096933   -3.2223327    1.4994588   415601 
 5347000   0.94553188   -3.2205037   -1.7221127  0.063596223   -3.2205037    1.4983911   415591 
 5348000    0.9456446   -3.2208084   -1.7222027  0.062192282   -3.2208084    1.4986058   415581 
 5349000   0.94478775   -3.2218645   -1.7245806  0.059358099   -3.2218645    1.4972839   415571 
 5350000   0.94414612   -3.2194335   -1.7231304  0.066116854   -3.2194335     1.496303   415561 
 5351000   0.94571425   -3.2213818   -1.7225574  0.063619726   -3.2213818    1.4988243   415551 
 5352000   0.94647135   -3.2222153    -1.722155  0.067189167   -3.2222153    1.5000603   415541 
 5353000   0.94417573   -3.2215161   -1.7250581  0.065527527   -3.2215161     1.496458   415531 
 5354000    0.9449735   -3.2226608   -1.7249023  0.060268819   -3.2226608    1.4977585   415521 
 5355000   0.94453651   -3.2209444   -1.7238425  0.057694289   -3.2209444    1.4971019   415511 
 5356000   0.94542443   -3.2222017   -1.7236564  0.058715262   -3.2222017    1.4985453   415501 
 5357000   0.94439913   -3.2199123   -1.7229561  0.060032097   -3.2199123    1.4969562   415491 
 5358000   0.94449093   -3.2198043   -1.7226666  0.060877254   -3.2198043    1.4971377   415481 
 5359000   0.94420985   -3.2200813    -1.723353  0.062735541   -3.2200813    1.4967282   415471 
 5360000   0.94521625   -3.2213155   -1.7229559  0.060314749   -3.2213155    1.4983596   415461 
 5361000   0.94347466    -3.219284   -1.7236492  0.054988748    -3.219284    1.4956348   415451 
 5362000   0.94447146   -3.2207536   -1.7235026  0.055674936   -3.2207536     1.497251   415441 
 5363000   0.94389075   -3.2203377   -1.7239712  0.064025643   -3.2203377    1.4963664   415431 
 5364000   0.94453823   -3.2217067   -1.7242778    0.0608708   -3.2217067     1.497429   415421 
 5365000   0.94558644   -3.2209766   -1.7218498  0.062977545   -3.2209766    1.4991268   415411 
 5366000   0.94542273   -3.2206238   -1.7217204  0.066870722   -3.2206238    1.4989034   415401 
 5367000   0.94621379   -3.2210745   -1.7208808  0.060990497   -3.2210745    1.5001936   415391 
 5368000   0.94507846   -3.2196942   -1.7212645  0.061042086   -3.2196942    1.4984297   415381 
 5369000   0.94657638   -3.2212809   -1.7204402  0.063639632   -3.2212809    1.5008408   415371 
 5370000   0.94748815   -3.2226699   -1.7203472  0.061223516   -3.2226699    1.5023226   415361 
 5371000   0.94672957   -3.2220083   -1.7208523  0.062734095   -3.2220083     1.501156   415351 
 5372000   0.94404825    -3.218534   -1.7215935  0.061782984    -3.218534    1.4969404   415341 
 5373000   0.94565858   -3.2219934   -1.7224635  0.059634031   -3.2219934      1.49953   415331 
 5374000   0.94439145   -3.2208398    -1.723283  0.061095149   -3.2208398    1.4975567   415321 
 5375000   0.94488223   -3.2212926   -1.7229216   0.06201529   -3.2212926    1.4983711   415311 
 5376000   0.94382859   -3.2198442   -1.7231079  0.060474042   -3.2198442    1.4967363   415301 
 5377000   0.94347088   -3.2185703   -1.7223653  0.057030728   -3.2185703     1.496205   415291 
 5378000   0.94321427   -3.2201369   -1.7243028  0.057091236   -3.2201369    1.4958341   415281 
 5379000   0.94291013   -3.2199109   -1.7245231  0.059193317   -3.2199109    1.4953878   415271 
 5380000   0.94255417   -3.2186266   -1.7237673  0.061254556   -3.2186266    1.4948593   415261 
 5381000   0.94288097   -3.2196966    -1.724283  0.060357691   -3.2196966    1.4954136   415251 
 5382000   0.94315939    -3.220013   -1.7241218  0.062496606    -3.220013    1.4958912   415241 
 5383000   0.94342916   -3.2201506   -1.7237955  0.063103535   -3.2201506    1.4963551   415231 
 5384000   0.94396475    -3.221165   -1.7239243  0.057838733    -3.221165    1.4972406   415221 
 5385000   0.94332802    -3.220329   -1.7240623  0.062599143    -3.220329    1.4962667   415211 
 5386000   0.94470353   -3.2200549   -1.7215704  0.060621383   -3.2200549    1.4984846   415201 
 5387000   0.94560597   -3.2225039   -1.7225517  0.062020446   -3.2225039    1.4999522   415191 
 5388000   0.94608593   -3.2223638   -1.7216142  0.063431114   -3.2223638    1.5007496   415181 
 5389000   0.94427717   -3.2195733   -1.7216568  0.060600929   -3.2195733    1.4979165   415171 
 5390000   0.94588508   -3.2223833     -1.72188  0.063607051   -3.2223833    1.5005033   415161 
 5391000   0.94480337   -3.2216868   -1.7228633  0.061953802   -3.2216868    1.4988234   415151 
 5392000   0.94451418   -3.2207599   -1.7223591  0.060231602   -3.2207599    1.4984008   415141 
 5393000   0.94528839    -3.221829   -1.7221639    0.0611595    -3.221829    1.4996651   415131 
 5394000   0.94535896    -3.220642   -1.7208288  0.062093902    -3.220642    1.4998132   415121 
 5395000   0.94475454   -3.2212732   -1.7223828  0.062391211   -3.2212732    1.4988904   415111 
 5396000   0.94535743   -3.2217402   -1.7218572   0.05986881   -3.2217402     1.499883   415101 
 5397000   0.94385125   -3.2193041   -1.7217746   0.06056368   -3.2193041    1.4975294   415091 
 5398000    0.9443605   -3.2197052   -1.7213317   0.06206469   -3.2197052    1.4983735   415081 
 5399000   0.94465614   -3.2202037   -1.7213249  0.059972302   -3.2202037    1.4988787   415071 
 5400000   0.94450696   -3.2202363   -1.7215582  0.062634891   -3.2202363    1.4986781   415061 
 5401000   0.94412229   -3.2190563   -1.7209525   0.06167657   -3.2190563    1.4981038   415051 
 5402000   0.94487655   -3.2203153   -1.7209785  0.060108668   -3.2203153    1.4993368   415041 
 5403000   0.94275974   -3.2182002   -1.7221863  0.066313934   -3.2182002    1.4960139   415031 
 5404000    0.9435382   -3.2200798   -1.7227945  0.055901163   -3.2200798    1.4972852   415021 
 5405000   0.94312929   -3.2181933   -1.7215208  0.060456469   -3.2181933    1.4966724   415011 
 5406000   0.94442544   -3.2211239   -1.7223584  0.062490187   -3.2211239    1.4987654   415001 
 5407000    0.9440649   -3.2200715   -1.7218421  0.060273782   -3.2200715    1.4982294   414991 
 5408000   0.94178672   -3.2186561   -1.7240062  0.059761447   -3.2186561    1.4946499   414981 
 5409000    0.9428179   -3.2201812   -1.7238587  0.064209931   -3.2201812    1.4963225   414971 
 5410000   0.94172997   -3.2197398   -1.7251079  0.059311747   -3.2197398    1.4946319   414961 
 5411000   0.94212379   -3.2201316   -1.7248387  0.059546004   -3.2201316    1.4952929   414951 
 5412000   0.94246773    -3.219345   -1.7234701  0.058913881    -3.219345    1.4958749   414941 
 5413000   0.94306541    -3.221007   -1.7241474   0.05631882    -3.221007    1.4968596   414931 
 5414000   0.94232418   -3.2198781    -1.724159  0.062053854   -3.2198781    1.4957191   414921 
 5415000   0.94137126    -3.216996   -1.7227534  0.058981512    -3.216996    1.4942426   414911 
 5416000   0.94314603   -3.2204623   -1.7233665  0.056752823   -3.2204623    1.4970958   414901 
 5417000   0.94303533   -3.2213995   -1.7244434  0.059356921   -3.2213995    1.4969562   414891 
 5418000   0.94456117   -3.2226699   -1.7232555  0.057974504   -3.2226699    1.4994144   414881 
 5419000   0.94365437   -3.2207489   -1.7227379  0.065769884   -3.2207489     1.498011   414871 
 5420000   0.94443302   -3.2217743    -1.722491  0.062450351   -3.2217743    1.4992832   414861 
 5421000   0.94432825   -3.2217661   -1.7226131   0.06554175   -3.2217661    1.4991531   414851 
 5422000   0.94330497   -3.2202143   -1.7226496  0.068189973   -3.2202143    1.4975647   414841 
 5423000   0.94418479   -3.2220374   -1.7230398  0.063552957   -3.2220374    1.4989976   414831 
 5424000   0.94595677   -3.2242414   -1.7223944  0.062749543   -3.2242414     1.501847   414821 
 5425000   0.94503355   -3.2226181   -1.7222007  0.064598233   -3.2226181    1.5004174   414811 
 5426000   0.94540542   -3.2230175   -1.7219735   0.06619496   -3.2230175     1.501044   414801 
 5427000   0.94416195   -3.2220133   -1.7229074  0.065108454   -3.2220133    1.4991059   414791 
 5428000   0.94414003   -3.2219048   -1.7227976  0.066531528   -3.2219048    1.4991072   414781 
 5429000    0.9443056   -3.2230233   -1.7236171  0.067069542   -3.2230233    1.4994062   414771 
 5430000   0.94304484   -3.2215898   -1.7241493  0.063211286   -3.2215898    1.4974405   414761 
 5431000   0.94199924   -3.2204595   -1.7246432  0.062968486   -3.2204595    1.4958162   414751 
 5432000   0.94298465   -3.2211713   -1.7237543   0.06125548   -3.2211713    1.4974171   414741 
 5433000   0.94200699    -3.220828   -1.7249273  0.059255092    -3.220828    1.4959007   414731 
 5434000    0.9426222   -3.2219516   -1.7250378  0.058753362   -3.2219516    1.4969137   414721 
 5435000   0.94100403   -3.2206636   -1.7262836  0.060073071   -3.2206636      1.49438   414711 
 5436000   0.94143753   -3.2203367   -1.7252322   0.06286469   -3.2203367    1.4951045   414701 
 5437000    0.9421453   -3.2214552   -1.7251906   0.06126972   -3.2214552    1.4962646   414691 
 5438000   0.94247808   -3.2199295   -1.7231003  0.057085283   -3.2199295    1.4968292   414681 
 5439000   0.94157319   -3.2190336   -1.7236055  0.062999807   -3.2190336    1.4954282   414671 
 5440000    0.9419661    -3.218656   -1.7225677   0.06210845    -3.218656    1.4960883   414661 
 5441000   0.94318075    -3.220622   -1.7225684  0.060595123    -3.220622    1.4980536   414651 
 5442000   0.94152431   -3.2181534   -1.7226947  0.058919756   -3.2181534    1.4954587   414641 
 5443000   0.94272773   -3.2208727   -1.7234665  0.059192669   -3.2208727    1.4974063   414631 
 5444000    0.9431018   -3.2219402   -1.7239037   0.05909385   -3.2219402    1.4980366   414621 
 5445000   0.94367906   -3.2215455   -1.7225559  0.059072076   -3.2215455    1.4989896   414611 
 5446000    0.9413776   -3.2178584   -1.7224884  0.062111112   -3.2178584    1.4953699   414601 
 5447000   0.94003027   -3.2164285   -1.7231628  0.061852547   -3.2164285    1.4932657   414591 
 5448000   0.94186891   -3.2198053   -1.7235827  0.066617423   -3.2198053    1.4962226   414581 
 5449000    0.9444444   -3.2221469   -1.7217968  0.060782595   -3.2221469    1.5003501   414571 
 5450000   0.94233835   -3.2209757   -1.7239351   0.05860019   -3.2209757    1.4970405   414561 
 5451000    0.9417845   -3.2202342   -1.7240375  0.059394082   -3.2202342    1.4961967   414551 
 5452000   0.94308052   -3.2224396   -1.7241478  0.061033352   -3.2224396    1.4982918   414541 
 5453000   0.94239885   -3.2201603   -1.7229153   0.06037447   -3.2201603     1.497245   414531 
 5454000    0.9423192    -3.220432   -1.7232775  0.059468184    -3.220432    1.4971545   414521 
 5455000   0.94261228   -3.2191547   -1.7214984  0.059242016   -3.2191547    1.4976563   414511 
 5456000   0.94230656   -3.2190396   -1.7218329  0.067030403   -3.2190396    1.4972067   414501 
 5457000   0.94266365   -3.2197609   -1.7219507  0.063080971   -3.2197609    1.4978102   414491 
 5458000   0.94286355   -3.2223467   -1.7241827  0.058964486   -3.2223467     1.498164   414481 
 5459000   0.94304118   -3.2211526   -1.7226703   0.06233614   -3.2211526    1.4984824   414471 
 5460000    0.9418103   -3.2197543   -1.7231917  0.058045668   -3.2197543    1.4965626   414461 
 5461000   0.94290563   -3.2216294   -1.7232901  0.063189351   -3.2216294    1.4983393   414451 
 5462000   0.94214064   -3.2192314   -1.7220716  0.061293712   -3.2192314    1.4971598   414441 
 5463000   0.94192655   -3.2199771   -1.7231214  0.061221076   -3.2199771    1.4968557   414431 
 5464000   0.94106135   -3.2199792   -1.7244623  0.063168708   -3.2199792    1.4955169   414421 
 5465000   0.94155215   -3.2219809   -1.7256479  0.062090265   -3.2219809    1.4963329   414411 
 5466000   0.94130981   -3.2217821   -1.7257982  0.058854312   -3.2217821    1.4959839   414401 
 5467000   0.94180137   -3.2226577   -1.7258565  0.060317478   -3.2226577    1.4968012   414391 
 5468000   0.94254521   -3.2234708   -1.7254513  0.061407066   -3.2234708    1.4980196   414381 
 5469000   0.94115476   -3.2199328   -1.7240871   0.06520769   -3.2199328    1.4958458   414371 
 5470000   0.94157141   -3.2198178   -1.7232737  0.055393473   -3.2198178    1.4965441   414361 
 5471000   0.94168062   -3.2208453   -1.7240915   0.06022744   -3.2208453    1.4967538   414351 
 5472000   0.94203894   -3.2202303   -1.7228708  0.064366711   -3.2202303    1.4973595   414341 
 5473000   0.94266072   -3.2208222   -1.7224382  0.058461386   -3.2208222     1.498384   414331 
 5474000   0.94187014   -3.2193332   -1.7221698  0.059485166   -3.2193332    1.4971634   414321 
 5475000   0.94162105   -3.2190004   -1.7221967  0.061610198   -3.2190004    1.4968036   414311 
 5476000   0.94311446   -3.2196075   -1.7203937  0.068572676   -3.2196075    1.4992137   414301 
 5477000   0.94206454   -3.2200089    -1.722428  0.064026132   -3.2200089    1.4975809   414291 
 5478000   0.94262647   -3.2209016   -1.7223912  0.058020401   -3.2209016    1.4985104   414281 
 5479000   0.94239762   -3.2189009   -1.7207182  0.060378206   -3.2189009    1.4981827   414271 
 5480000   0.94104599   -3.2169581   -1.7208881   0.05852212   -3.2169581    1.4960701   414261 
 5481000   0.94220953   -3.2183077   -1.7203517  0.056672098   -3.2183077     1.497956   414251 
 5482000   0.94053357   -3.2170907   -1.7217631  0.062806239   -3.2170907    1.4953276   414241 
 5483000   0.94104466   -3.2172851   -1.7211088  0.056121379   -3.2172851    1.4961763   414231 
 5484000   0.94058073    -3.217735   -1.7222602  0.053353125    -3.217735    1.4954748   414221 
 5485000   0.93917608   -3.2152497   -1.7219722  0.056301929   -3.2152497    1.4932775   414211 
 5486000   0.93896807   -3.2163261   -1.7233433  0.055139547   -3.2163261    1.4929828   414201 
 5487000   0.93979987   -3.2157279   -1.7213864  0.058467106   -3.2157279    1.4943415   414191 
 5488000   0.93976153   -3.2156531   -1.7213365  0.063377701   -3.2156531    1.4943166   414181 
 5489000   0.94098369   -3.2185451   -1.7222491  0.056903931   -3.2185451    1.4962961   414171 
 5490000   0.94135997   -3.2187915   -1.7218609  0.052452807   -3.2187915    1.4969306   414161 
 5491000   0.94111497   -3.2183861    -1.721809  0.058136833   -3.2183861    1.4965771   414151 
 5492000   0.94267664   -3.2216407    -1.722544  0.058722065   -3.2216407    1.4990967   414141 
 5493000   0.94109645   -3.2202718   -1.7236519  0.061158826   -3.2202718    1.4966199   414131 
 5494000   0.94093215   -3.2206985   -1.7243037  0.055056612   -3.2206985    1.4963948   414121 
 5495000    0.9402065   -3.2207675   -1.7254906  0.058049188   -3.2207675    1.4952769   414111 
 5496000   0.94051014   -3.2207434   -1.7249475  0.060104943   -3.2207434    1.4957959   414101 
 5497000   0.94066299   -3.2205688   -1.7244937  0.065019762   -3.2205688    1.4960751   414091 
 5498000   0.94002989   -3.2192612   -1.7241569  0.061253056   -3.2192612    1.4951043   414081 
 5499000   0.94118322   -3.2211479   -1.7241731   0.06623661   -3.2211479    1.4969748   414071 
 5500000   0.94065968   -3.2220736   -1.7258954  0.059821804   -3.2220736    1.4961782   414061 
 5501000   0.94170326   -3.2235337   -1.7256594  0.062016928   -3.2235337    1.4978743   414051 
 5502000   0.94073324   -3.2221447   -1.7257772  0.062198089   -3.2221447    1.4963675   414041 
 5503000   0.94141151   -3.2239439   -1.7264613  0.057801852   -3.2239439    1.4974826   414031 
 5504000   0.94142618   -3.2243498   -1.7268078  0.060321192   -3.2243498    1.4975421   414021 
 5505000   0.94068701   -3.2231814    -1.726779   0.05960527   -3.2231814    1.4964024   414011 
 5506000   0.94135286    -3.224592   -1.7270943  0.058316492    -3.224592    1.4974978   414001 
 5507000    0.9406316   -3.2242526   -1.7278661  0.068133337   -3.2242526    1.4963866   413991 
 5508000   0.94143025   -3.2252401   -1.7275469  0.063654759   -3.2252401    1.4976932   413981 
 5509000   0.94105775   -3.2229993   -1.7258625  0.064630191   -3.2229993    1.4971368   413971 
 5510000   0.94018255   -3.2241803   -1.7283997  0.058964211   -3.2241803    1.4957806   413961 
 5511000   0.94119435   -3.2257279   -1.7283014  0.063749664   -3.2257279    1.4974265   413951 
 5512000   0.94154492   -3.2262131   -1.7281926  0.057999951   -3.2262131    1.4980204   413941 
 5513000   0.94031806   -3.2246608   -1.7285562  0.067119881   -3.2246608    1.4961046   413931 
 5514000   0.94092629   -3.2245647   -1.7274562  0.057536575   -3.2245647    1.4971085   413921 
 5515000   0.94095718    -3.224176   -1.7269822  0.062231864    -3.224176    1.4971938   413911 
 5516000   0.94176751   -3.2243782   -1.7258589  0.062269806   -3.2243782    1.4985194   413901 
 5517000   0.94175705   -3.2228016   -1.7242626  0.063580417   -3.2228016    1.4985389   413891 
 5518000   0.94019358   -3.2223825   -1.7262953  0.059935607   -3.2223825    1.4960873   413881 
 5519000   0.94031452   -3.2214835   -1.7251677  0.055603061   -3.2214835    1.4963159   413871 
 5520000   0.94072122   -3.2219612    -1.724962  0.057232728   -3.2219612    1.4969992   413861 
 5521000    0.9399728   -3.2214425   -1.7255981   0.05846723   -3.2214425    1.4958444   413851 
 5522000   0.93941971   -3.2212124   -1.7262121  0.058375994   -3.2212124    1.4950003   413841 
 5523000   0.93953217    -3.220184   -1.7249686  0.061386977    -3.220184    1.4952154   413831 
 5524000    0.9396214   -3.2209084   -1.7255149  0.062195631   -3.2209084    1.4953936   413821 
 5525000    0.9403579   -3.2211513   -1.7245494  0.058710083   -3.2211513    1.4966019   413811 
 5526000   0.93982478   -3.2193528   -1.7235633  0.055221533   -3.2193528    1.4957895   413801 
 5527000   0.93883047   -3.2174574   -1.7232143  0.057715463   -3.2174574    1.4942431   413791 
 5528000   0.94026504   -3.2189041   -1.7223415  0.056747132   -3.2189041    1.4965626   413781 
 5529000   0.94092119   -3.2189372   -1.7212941  0.061577025   -3.2189372    1.4976431   413771 
 5530000    0.9399882   -3.2171814   -1.7209871  0.060229551   -3.2171814    1.4961943   413761 
 5531000   0.93962562   -3.2166866   -1.7210333  0.060678019   -3.2166866    1.4956533   413751 
 5532000   0.93946752   -3.2158575   -1.7204197  0.063579205   -3.2158575    1.4954378   413741 
 5533000    0.9410537   -3.2182256   -1.7202268  0.057677056   -3.2182256    1.4979988   413731 
 5534000   0.93995395   -3.2162181   -1.7199337   0.06015688   -3.2162181    1.4962844   413721 
 5535000   0.94035195   -3.2163395   -1.7193854   0.06141708   -3.2163395    1.4969541   413711 
 5536000   0.94028666   -3.2160894    -1.719203  0.060880519   -3.2160894    1.4968864   413701 
 5537000   0.93932393   -3.2160675   -1.7206776  0.058293381   -3.2160675    1.4953899   413691 
 5538000   0.93948877   -3.2161783   -1.7204899   0.05247691   -3.2161783    1.4956885   413681 
 5539000   0.94013827   -3.2163117    -1.719553  0.056346248   -3.2163117    1.4967587   413671 
 5540000   0.94058257   -3.2192724   -1.7217701  0.060371479   -3.2192724    1.4975022   413661 
 5541000   0.94210796    -3.220524    -1.720557  0.059235137    -3.220524    1.4999671   413651 
 5542000   0.94008906   -3.2174206   -1.7206317  0.059903011   -3.2174206    1.4967889   413641 
 5543000   0.94044664   -3.2178991   -1.7205046   0.06240302   -3.2178991    1.4973944   413631 
 5544000    0.9408562   -3.2187139   -1.7206312  0.057107445   -3.2187139    1.4980828   413621 
 5545000   0.94032329   -3.2185065   -1.7212361  0.062662575   -3.2185065    1.4972704   413611 
 5546000   0.94082628   -3.2188804   -1.7207729  0.063080191   -3.2188804    1.4981075   413601 
 5547000   0.93965758   -3.2182318   -1.7219491    0.0647361   -3.2182318    1.4962828   413591 
 5548000   0.94058034   -3.2189228   -1.7211345  0.062320892   -3.2189228    1.4977884   413581 
 5549000   0.94035333    -3.220435   -1.7229719  0.059588802    -3.220435    1.4974631   413571 
 5550000   0.93992826   -3.2200259   -1.7232035  0.058531726   -3.2200259    1.4968224   413561 
 5551000   0.94033979   -3.2204547   -1.7229408  0.064986518   -3.2204547    1.4975139   413551 
 5552000   0.94072787    -3.220639   -1.7224709  0.062442816    -3.220639    1.4981682   413541 
 5553000   0.94018707   -3.2199041    -1.722561   0.05981853   -3.2199041    1.4973431   413531 
 5554000   0.94107912   -3.2230053   -1.7242052  0.058835105   -3.2230053    1.4988001   413521 
 5555000   0.93908265   -3.2195462   -1.7238897  0.058785738   -3.2195462    1.4956566   413511 
 5556000   0.93984454   -3.2214743   -1.7245681  0.058850752   -3.2214743    1.4969062   413501 
 5557000   0.93994086   -3.2198784   -1.7227826  0.060220643   -3.2198784    1.4970958   413491 
 5558000   0.93961557   -3.2215907   -1.7249768  0.054776789   -3.2215907    1.4966139   413481 
 5559000   0.93948229   -3.2225541   -1.7261163  0.058926082   -3.2225541    1.4964378   413471 
 5560000   0.93896345   -3.2212939   -1.7256463  0.059529769   -3.2212939    1.4956476   413461 
 5561000   0.93978019   -3.2215739   -1.7245891  0.064520076   -3.2215739    1.4969847   413451 
 5562000   0.93977925   -3.2223691   -1.7253496  0.057172117   -3.2223691    1.4970194   413441 
 5563000    0.9382443   -3.2225782   -1.7279677  0.058899023   -3.2225782    1.4946105   413431 
 5564000   0.93867446   -3.2231873   -1.7278554  0.058991719   -3.2231873    1.4953319   413421 
 5565000   0.93829956   -3.2220132   -1.7272424  0.059629832   -3.2220132    1.4947708   413411 
 5566000   0.93873581   -3.2236791   -1.7281771   0.06206418   -3.2236791     1.495502   413401 
 5567000   0.93811344    -3.222567   -1.7280203  0.055801316    -3.222567    1.4945466   413391 
 5568000   0.93903005   -3.2237471    -1.727704  0.056833486   -3.2237471    1.4960431   413381 
 5569000   0.94001194   -3.2251626   -1.7275189  0.063439702   -3.2251626    1.4976437   413371 
 5570000   0.94015718   -3.2249642   -1.7270529  0.060265148   -3.2249642    1.4979113   413361 
 5571000   0.94028597   -3.2254784   -1.7273257  0.062052802   -3.2254784    1.4981527   413351 
 5572000    0.9396915   -3.2244061   -1.7271643  0.061337292   -3.2244061    1.4972418   413341 
 5573000   0.93919054   -3.2236936   -1.7272138  0.061489767   -3.2236936    1.4964798   413331 
 5574000   0.94094422   -3.2258191   -1.7265088  0.056896067   -3.2258191    1.4993104   413321 
 5575000   0.93826034   -3.2225111   -1.7274411  0.063657297   -3.2225111      1.49507   413311 
 5576000    0.9397534   -3.2253551   -1.7278697  0.062537926   -3.2253551    1.4974853   413301 
 5577000   0.93831746   -3.2246185   -1.7293851  0.055186703   -3.2246185    1.4952334   413291 
 5578000   0.93843455   -3.2235454   -1.7280892  0.060153006   -3.2235454    1.4954561   413281 
 5579000   0.93883199   -3.2241724   -1.7280467  0.058082992   -3.2241724    1.4961257   413271 
 5580000   0.93848936   -3.2237848   -1.7281689  0.066761979   -3.2237848    1.4956159   413261 
 5581000   0.93892729   -3.2243114   -1.7279614  0.062015332   -3.2243114      1.49635   413251 
 5582000    0.9390091   -3.2238517   -1.7273351  0.062986312   -3.2238517    1.4965166   413241 
 5583000   0.93919347   -3.2239675   -1.7271209  0.063904739   -3.2239675    1.4968466   413231 
 5584000   0.93812288   -3.2240602   -1.7288837  0.054043235   -3.2240602    1.4951765   413221 
 5585000   0.93814154   -3.2235498   -1.7283073   0.06086162   -3.2235498    1.4952425   413211 
 5586000   0.93904008   -3.2244345   -1.7277237  0.061321984   -3.2244345    1.4967108   413201 
 5587000   0.93807336   -3.2229364   -1.7277302  0.060646781   -3.2229364    1.4952062   413191 
 5588000   0.93776095   -3.2236438   -1.7288994  0.057411751   -3.2236438    1.4947444   413181 
 5589000   0.93718492   -3.2223783   -1.7285159  0.058176549   -3.2223783    1.4938624   413171 
 5590000    0.9365989   -3.2236372   -1.7306728  0.058762895   -3.2236372    1.4929644   413161 
 5591000   0.93779729   -3.2231722   -1.7282613   0.05903454   -3.2231722    1.4949109   413151 
 5592000   0.93886669   -3.2229129   -1.7262611  0.061656668   -3.2229129    1.4966518   413141 
 5593000   0.93842774   -3.2219921   -1.7260038  0.062413185   -3.2219921    1.4959883   413131 
 5594000   0.94009992   -3.2234911   -1.7248009  0.066204241   -3.2234911    1.4986902   413121 
 5595000   0.93938166   -3.2235718   -1.7259903  0.059518817   -3.2235718    1.4975814   413111 
 5596000   0.93970962   -3.2249184   -1.7267779  0.061591378   -3.2249184    1.4981405   413101 
 5597000    0.9403165   -3.2248841   -1.7257397   0.05947574   -3.2248841    1.4991444   413091 
 5598000   0.93888447   -3.2254924   -1.7285948  0.063049491   -3.2254924    1.4968975   413081 
 5599000   0.93987214   -3.2272627   -1.7287542  0.060771691   -3.2272627    1.4985085   413071 
 5600000   0.93767298   -3.2255747   -1.7305363  0.060986656   -3.2255747    1.4950384   413061 
 5601000   0.93633745   -3.2234049   -1.7304598  0.060216487   -3.2234049    1.4929451   413051 
 5602000   0.93841241   -3.2260862   -1.7297964  0.059025263   -3.2260862    1.4962898   413041 
 5603000   0.93587543   -3.2246282   -1.7323475  0.058297384   -3.2246282    1.4922807   413031 
 5604000   0.93514943   -3.2243537   -1.7331945  0.062577028   -3.2243537    1.4911592   413021 
 5605000   0.93712395    -3.226726   -1.7323822  0.054035473    -3.226726    1.4943439   413011 
 5606000   0.93689712    -3.225079   -1.7310607  0.057073612    -3.225079    1.4940184   413001 
 5607000   0.93806447   -3.2271146   -1.7311986  0.062098035   -3.2271146    1.4959161   412991 
 5608000   0.93964801    -3.229346   -1.7308684  0.060100144    -3.229346    1.4984776   412981 
 5609000   0.93825674    -3.227802   -1.7315069  0.060931879    -3.227802    1.4962952   412971 
 5610000   0.93731904    -3.224777    -1.729941  0.067644708    -3.224777    1.4948359   412961 
 5611000    0.9384205   -3.2268929   -1.7302641  0.065527825   -3.2268929    1.4966288   412951 
 5612000   0.94058446   -3.2298442   -1.7297279  0.061681588   -3.2298442    1.5001163   412941 
 5613000   0.93980352   -3.2285685   -1.7296614  0.067371329   -3.2285685    1.4989071   412931 
 5614000   0.93933994   -3.2282043   -1.7300003  0.059621805   -3.2282043     1.498204   412921 
 5615000    0.9395607   -3.2278535   -1.7292611  0.063100126   -3.2278535    1.4985924   412911 
 5616000   0.93897602   -3.2277066   -1.7300105  0.061941076   -3.2277066    1.4976961   412901 
 5617000   0.93955741   -3.2297021   -1.7310423  0.062864815   -3.2297021    1.4986597   412891 
 5618000   0.94010727   -3.2300764   -1.7305033  0.060032213   -3.2300764    1.4995731   412881 
 5619000   0.93536453   -3.2249938   -1.7329497  0.062294061   -3.2249938    1.4920441   412871 
 5620000   0.93755138   -3.2251562   -1.7295876  0.065007873   -3.2251562    1.4955686   412861 
 5621000   0.93745169   -3.2277347   -1.7322889  0.056377015   -3.2277347    1.4954458   412851 
 5622000   0.93757975   -3.2277607   -1.7320743  0.057498964   -3.2277607    1.4956863   412841 
 5623000   0.93810926   -3.2284178   -1.7318505  0.060645739   -3.2284178    1.4965673   412831 
 5624000   0.93708744   -3.2262546   -1.7312812   0.06004829   -3.2262546    1.4949734   412821 
 5625000   0.93666088   -3.2257073   -1.7313782  0.058510109   -3.2257073    1.4943291   412811 
 5626000     0.934769   -3.2216196   -1.7302726  0.063107419   -3.2216196     1.491347   412801 
 5627000   0.93603036   -3.2246608   -1.7312653  0.052387479   -3.2246608    1.4933955   412791 
 5628000   0.93616868   -3.2246228   -1.7309704  0.061133479   -3.2246228    1.4936524   412781 
 5629000   0.93781425   -3.2260253   -1.7297111  0.057306623   -3.2260253    1.4963141   412771 
 5630000   0.93669822   -3.2243894   -1.7298197  0.057767686   -3.2243894    1.4945697   412761 
 5631000    0.9359471   -3.2228038   -1.7293964  0.056696805   -3.2228038    1.4934074   412751 
 5632000   0.93740678   -3.2241136   -1.7283408  0.053195308   -3.2241136    1.4957727   412741 
 5633000   0.93822984   -3.2261686   -1.7290463  0.058928874   -3.2261686    1.4971223   412731 
 5634000   0.93780815   -3.2243629   -1.7278772   0.06076851   -3.2243629    1.4964857   412721 
 5635000   0.93935902   -3.2275273   -1.7285306  0.055835186   -3.2275273    1.4989968   412711 
 5636000   0.93695898   -3.2227118   -1.7275087  0.057555362   -3.2227118    1.4952031   412701 
 5637000   0.93799317   -3.2243414   -1.7274516  0.056466844   -3.2243414    1.4968897   412691 
 5638000   0.93795994   -3.2246953   -1.7278223  0.057941033   -3.2246953     1.496873   412681 
 5639000   0.93718918   -3.2215476   -1.7258684    0.0606872   -3.2215476    1.4956792   412671 
 5640000   0.93875409   -3.2240294   -1.7258165  0.059274806   -3.2240294    1.4982129   412661 
 5641000   0.93826082   -3.2227333   -1.7252713  0.065079706   -3.2227333     1.497462   412651 
 5642000   0.93863328   -3.2233739   -1.7252812  0.062377795   -3.2233739    1.4980927   412641 
 5643000   0.93968795   -3.2247825   -1.7249701  0.062735817   -3.2247825    1.4998124   412631 
 5644000   0.93815893   -3.2227642   -1.7253559  0.066771428   -3.2227642    1.4974083   412621 
 5645000   0.93992733   -3.2237247   -1.7234576   0.06411289   -3.2237247    1.5002672   412611 
 5646000   0.93846837   -3.2226572   -1.7246824  0.062076015   -3.2226572    1.4979748   412601 
 5647000   0.94022428   -3.2256764   -1.7248625  0.062851452   -3.2256764    1.5008139   412591 
 5648000   0.93841915   -3.2227234   -1.7247546  0.063327769   -3.2227234    1.4979688   412581 
 5649000   0.93837488   -3.2227214   -1.7247869  0.062239497   -3.2227214    1.4979344   412571 
 5650000   0.93861233   -3.2230094   -1.7246596  0.063638973   -3.2230094    1.4983498   412561 
 5651000   0.93751415   -3.2202968   -1.7236638  0.065327446   -3.2202968     1.496633   412551 
 5652000   0.93783346   -3.2227324   -1.7255534  0.059865712   -3.2227324     1.497179   412541 
 5653000   0.93819407    -3.222704   -1.7249129  0.065135988    -3.222704     1.497791   412531 
 5654000   0.93718617   -3.2218374   -1.7256191   0.05809539   -3.2218374    1.4962182   412521 
 5655000   0.93741041   -3.2222847   -1.7256722  0.056441282   -3.2222847    1.4966125   412511 
 5656000    0.9367132    -3.219894   -1.7243584  0.064787887    -3.219894    1.4955356   412501 
 5657000   0.93679272   -3.2211703   -1.7254715  0.058314453   -3.2211703    1.4956989   412491 
 5658000   0.93676627   -3.2224318   -1.7267389  0.056967726   -3.2224318    1.4956929   412481 
 5659000   0.93785872   -3.2220797   -1.7246062  0.057411632   -3.2220797    1.4974735   412471 
 5660000   0.93818089   -3.2210788   -1.7230546  0.057984091   -3.2210788    1.4980242   412461 
 5661000   0.93738313   -3.2211854   -1.7243987  0.057507166   -3.2211854    1.4967867   412451 
 5662000   0.93684682   -3.2209688   -1.7250022  0.062746917   -3.2209688    1.4959666   412441 
 5663000   0.93610708   -3.2187073   -1.7238857  0.058196108   -3.2187073    1.4948216   412431 
 5664000   0.93634452   -3.2187401   -1.7235031  0.061027309   -3.2187401     1.495237   412421 
 5665000   0.93626781   -3.2181506   -1.7229999  0.062966342   -3.2181506    1.4951507   412411 
 5666000   0.93720725   -3.2198347   -1.7231474  0.059819193   -3.2198347    1.4966873   412401 
 5667000    0.9366865   -3.2203594   -1.7244675  0.063407627   -3.2203594    1.4958919   412391 
 5668000   0.93528915   -3.2178724   -1.7241759  0.058544307   -3.2178724    1.4936966   412381 
 5669000   0.93664991   -3.2202097   -1.7243037  0.058629093   -3.2202097     1.495906   412371 
 5670000   0.93729564   -3.2209741   -1.7240005  0.060975957   -3.2209741    1.4969736   412361 
 5671000   0.93740745   -3.2201585     -1.72297  0.057743781   -3.2201585    1.4971885   412351 
 5672000   0.93759201   -3.2222631   -1.7247435  0.064920014   -3.2222631    1.4975196   412341 
 5673000   0.93777808   -3.2223608   -1.7245077  0.062786369   -3.2223608    1.4978531   412331 
 5674000    0.9378787    -3.222833   -1.7247829  0.060806244    -3.222833    1.4980501   412321 
 5675000   0.93726428    -3.222173   -1.7250679  0.059900966    -3.222173    1.4971051   412311 
 5676000     0.937431   -3.2213813   -1.7239737  0.058720027   -3.2213813    1.4974077   412301 
 5677000   0.93677524   -3.2210213   -1.7246248   0.06376509   -3.2210213    1.4963965   412291 
 5678000   0.93688116   -3.2208416   -1.7242396  0.064753258   -3.2208416     1.496602   412281 
 5679000   0.93674243    -3.220203   -1.7237863  0.061400956    -3.220203    1.4964167   412271 
 5680000   0.93762915   -3.2237224   -1.7258529  0.058010656   -3.2237224    1.4978695   412261 
 5681000   0.93719627   -3.2231147   -1.7259005  0.063656892   -3.2231147    1.4972143   412251 
 5682000   0.93679886   -3.2226966   -1.7260808  0.064998943   -3.2226966    1.4966157   412241 
 5683000   0.93786827   -3.2233259   -1.7249653  0.063463871   -3.2233259    1.4983605   412231 
 5684000   0.93643577   -3.2214341   -1.7253259  0.062656018   -3.2214341    1.4961082   412221 
 5685000   0.93723828   -3.2225341   -1.7251074  0.060489997   -3.2225341    1.4974267   412211 
 5686000   0.93712242   -3.2230519   -1.7257739  0.063189198   -3.2230519    1.4972779   412201 
 5687000   0.93660654   -3.2217394   -1.7252494  0.058591959   -3.2217394      1.49649   412191 
 5688000   0.93640405   -3.2221663   -1.7259636  0.061727762   -3.2221663    1.4962027   412181 
 5689000   0.93630471   -3.2220276   -1.7259473   0.05771682   -3.2220276    1.4960803   412171 
 5690000   0.93776834   -3.2252272   -1.7267719  0.058689939   -3.2252272    1.4984553   412161 
 5691000   0.93678925   -3.2242389   -1.7273117  0.056982876   -3.2242389    1.4969272   412151 
 5692000   0.93725514   -3.2244181   -1.7267101  0.063226433   -3.2244181     1.497708   412141 
 5693000    0.9364682   -3.2231277   -1.7266409  0.063138448   -3.2231277    1.4964868   412131 
 5694000   0.93832037   -3.2245657   -1.7250827  0.062877956   -3.2245657     1.499483   412121 
 5695000   0.93597539   -3.2217926   -1.7260208   0.06361084   -3.2217926    1.4957718   412111 
 5696000   0.93854965   -3.2232493   -1.7233271   0.06143359   -3.2232493    1.4999221   412101 
 5697000   0.93618615   -3.2207683    -1.724587  0.063606047   -3.2207683    1.4961813   412091 
 5698000   0.93776561   -3.2260827   -1.7273408  0.059143666   -3.2260827    1.4987419   412081 
 5699000   0.93668429   -3.2245841   -1.7275341  0.059768447   -3.2245841      1.49705   412071 
 5700000   0.93743636   -3.2238553   -1.7255669  0.059480455   -3.2238553    1.4982884   412061 
 5701000   0.93484156   -3.2209112   -1.7267338  0.064085456   -3.2209112    1.4941774   412051 
 5702000   0.93690416   -3.2245187   -1.7270082  0.060777561   -3.2245187    1.4975105   412041 
 5703000   0.93575714   -3.2221372   -1.7264238  0.057798279   -3.2221372    1.4957134   412031 
 5704000   0.93692561   -3.2250417   -1.7274242   0.06183437   -3.2250417    1.4976174   412021 
 5705000    0.9356923   -3.2226401   -1.7269577  0.064366704   -3.2226401    1.4956824   412011 
 5706000    0.9368105     -3.22428   -1.7267739  0.059829944     -3.22428    1.4975061   412001 
 5707000   0.93709877   -3.2247315   -1.7267282  0.059142428   -3.2247315    1.4980033   411991 
 5708000   0.93667508   -3.2246207   -1.7272583   0.05914972   -3.2246207    1.4973624   411981 
 5709000   0.93672453   -3.2251392   -1.7276615  0.059732873   -3.2251392    1.4974778   411971 
 5710000   0.93678024   -3.2255301    -1.727927  0.058672311   -3.2255301    1.4976032   411961 
 5711000   0.93519505   -3.2219762   -1.7268709  0.061796435   -3.2219762    1.4951053   411951 
 5712000   0.93517451   -3.2223582   -1.7272495  0.063534868   -3.2223582    1.4951087   411941 
 5713000   0.93495284   -3.2229618   -1.7281712   0.06778615   -3.2229618    1.4947906   411931 
 5714000   0.93450505   -3.2211628   -1.7270519  0.061664416   -3.2211628     1.494111   411921 
 5715000   0.93618205   -3.2242308   -1.7274023  0.052615309   -3.2242308    1.4968285   411911 
 5716000   0.93554456   -3.2228601   -1.7270145  0.059151446   -3.2228601    1.4958456   411901 
 5717000   0.93670295   -3.2242566   -1.7265225  0.057831115   -3.2242566    1.4977341   411891 
 5718000    0.9359276   -3.2245273   -1.7279966  0.062972161   -3.2245273    1.4965307   411881 
 5719000   0.93587809   -3.2253551   -1.7288672  0.060046491   -3.2253551    1.4964879   411871 
 5720000   0.93602113   -3.2246728   -1.7279199  0.057210915   -3.2246728    1.4967529   411861 
 5721000   0.93562805   -3.2240938   -1.7279331  0.057735732   -3.2240938    1.4961607   411851 
 5722000    0.9358876   -3.2233943   -1.7267822  0.059281151   -3.2233943    1.4966121   411841 
 5723000   0.93485066   -3.2220747   -1.7270845  0.059648625   -3.2220747    1.4949902   411831 
 5724000   0.93460962   -3.2207704   -1.7261294  0.064127295   -3.2207704     1.494641   411821 
 5725000    0.9352082   -3.2219068   -1.7262722  0.057732892   -3.2219068    1.4956346   411811 
 5726000   0.93399181   -3.2225457   -1.7288202  0.059291399   -3.2225457    1.4937255   411801 
 5727000   0.93501137   -3.2233289   -1.7279365  0.055307324   -3.2233289    1.4953924   411791 
 5728000   0.93532271   -3.2238874   -1.7279607  0.057623973   -3.2238874    1.4959267   411781 
 5729000   0.93301119   -3.2210794   -1.7288134  0.062716132   -3.2210794    1.4922659   411771 
 5730000    0.9345338   -3.2245212   -1.7297836   0.05760582   -3.2245212    1.4947375   411761 
 5731000   0.93362377   -3.2220133   -1.7286951  0.061836408   -3.2220133    1.4933182   411751 
 5732000   0.93612126   -3.2262593     -1.72891  0.055619349   -3.2262593    1.4973493   411741 
 5733000    0.9356418     -3.22512   -1.7285012  0.059410676     -3.22512    1.4966188   411731 
 5734000   0.93441373   -3.2251117    -1.730421  0.060360662   -3.2251117    1.4946907   411721 
 5735000   0.93443056   -3.2245784   -1.7298245  0.058943325   -3.2245784    1.4947539   411711 
 5736000    0.9353436   -3.2265901   -1.7303393   0.05912436   -3.2265901    1.4962508   411701 
 5737000   0.93524298   -3.2251486   -1.7290224  0.063208797   -3.2251486    1.4961262   411691 
 5738000   0.93636326   -3.2269018   -1.7289472   0.05545401   -3.2269018    1.4979547   411681 
 5739000   0.93514181   -3.2260605   -1.7300235  0.060764171   -3.2260605     1.496037   411671 
 5740000   0.93548377   -3.2248324    -1.728212  0.058718418   -3.2248324    1.4966204   411661 
 5741000   0.93489907    -3.224622   -1.7289007  0.056644093    -3.224622    1.4957213   411651 
 5742000   0.93532529    -3.223715   -1.7272755  0.057762334    -3.223715    1.4964396   411641 
 5743000   0.93559688   -3.2234206   -1.7265101  0.063690704   -3.2234206    1.4969105   411631 
 5744000   0.93681552   -3.2261165   -1.7272198  0.063847499   -3.2261165    1.4988966   411621 
 5745000   0.93648099   -3.2260169   -1.7276191  0.060142854   -3.2260169    1.4983978   411611 
 5746000   0.93553231   -3.2242082    -1.727292  0.061251486   -3.2242082    1.4969163   411601 
 5747000   0.93593143   -3.2249114   -1.7273202  0.059941604   -3.2249114    1.4975913   411591 
 5748000   0.93651391   -3.2261753   -1.7276156  0.059287406   -3.2261753    1.4985597   411581 
 5749000   0.93452471   -3.2242014   -1.7287884  0.060851826   -3.2242014     1.495413   411571 
 5750000   0.93492156   -3.2252069   -1.7291225  0.056261725   -3.2252069    1.4960844   411561 
 5751000   0.93556923    -3.226681   -1.7295238  0.054337933    -3.226681    1.4971572   411551 
 5752000   0.93393104   -3.2237026   -1.7291306  0.053576257   -3.2237026     1.494572   411541 
 5753000   0.93490903   -3.2238306   -1.7276572  0.058668611   -3.2238306    1.4961734   411531 
 5754000   0.93331123    -3.220702   -1.7270493   0.06312173    -3.220702    1.4936527   411521 
 5755000   0.93490868   -3.2236348   -1.7273892  0.059205564   -3.2236348    1.4962456   411511 
 5756000   0.93548401   -3.2238928   -1.7266901  0.060368461   -3.2238928    1.4972027   411501 
 5757000   0.93459309   -3.2239561   -1.7281429  0.056101938   -3.2239561    1.4958132   411491 
 5758000   0.93556974   -3.2232319   -1.7258192  0.059318438   -3.2232319    1.4974127   411481 
 5759000   0.93386303   -3.2212424    -1.726525  0.059650405   -3.2212424    1.4947174   411471 
 5760000   0.93408942   -3.2210463   -1.7259302   0.06247351   -3.2210463    1.4951161   411461 
 5761000   0.93489596   -3.2224585   -1.7260151  0.062976615   -3.2224585    1.4964434   411451 
 5762000   0.93376972   -3.2211736   -1.7264966   0.05793963   -3.2211736     1.494677   411441 
 5763000   0.93530262   -3.2239632   -1.7267961  0.060658265   -3.2239632    1.4971671   411431 
 5764000   0.93612076   -3.2254213   -1.7269081  0.060255046   -3.2254213    1.4985131   411421 
 5765000   0.93379993   -3.2223516   -1.7275173  0.061333405   -3.2223516    1.4948344   411411 
 5766000   0.93288689    -3.221043   -1.7276339  0.062059302    -3.221043     1.493409   411401 
 5767000   0.93423466    -3.221995   -1.7263921  0.057172431    -3.221995     1.495603   411391 
 5768000   0.93306056   -3.2219066   -1.7281469   0.05495007   -3.2219066    1.4937597   411381 
 5769000   0.93224793   -3.2207308   -1.7282358   0.05725856   -3.2207308     1.492495   411371 
 5770000   0.93280121   -3.2211298   -1.7277127  0.057714192   -3.2211298    1.4934171   411361 
 5771000    0.9317608   -3.2191047    -1.727317  0.063887875   -3.2191047    1.4917877   411351 
 5772000    0.9332491   -3.2198027   -1.7255958   0.06284353   -3.2198027    1.4942068   411341 
 5773000    0.9340203   -3.2230856   -1.7276077  0.058619645   -3.2230856    1.4954779   411331 
 5774000   0.93310034   -3.2219488   -1.7279075  0.059180592   -3.2219488    1.4940413   411321 
 5775000   0.93443782   -3.2228451   -1.7266259   0.05960793   -3.2228451    1.4962192   411311 
 5776000   0.93502687   -3.2234203   -1.7262216  0.061995391   -3.2234203    1.4971988   411301 
 5777000   0.93406733    -3.223128   -1.7274293  0.059719314    -3.223128    1.4956987   411291 
 5778000   0.93488791   -3.2242429   -1.7271938  0.056185585   -3.2242429    1.4970491   411281 
 5779000   0.93395795   -3.2237607   -1.7281645  0.059154913   -3.2237607    1.4955963   411271 
 5780000   0.93349346   -3.2229413   -1.7280525  0.061094134   -3.2229413    1.4948888   411261 
 5781000    0.9345914   -3.2243738   -1.7276904  0.055023806   -3.2243738    1.4966834   411251 
 5782000   0.93388913   -3.2241023   -1.7285071  0.058607698   -3.2241023    1.4955951   411241 
 5783000   0.93337243   -3.2231943   -1.7283903  0.059983268   -3.2231943     1.494804   411231 
 5784000   0.93470485   -3.2260535   -1.7290792  0.059706665   -3.2260535    1.4969743   411221 
 5785000   0.93547358   -3.2258863   -1.7276445  0.060875532   -3.2258863    1.4982419   411211 
 5786000   0.93500383   -3.2257456   -1.7282196   0.06242283   -3.2257456     1.497526   411201 
 5787000   0.93572301   -3.2258295   -1.7271153  0.061305747   -3.2258295    1.4987143   411191 
 5788000   0.93418605   -3.2245814   -1.7282924  0.061165282   -3.2245814     1.496289   411181 
 5789000   0.93525044   -3.2267832    -1.728753  0.058763102   -3.2267832    1.4980302   411171 
 5790000   0.93422225   -3.2246988    -1.728279  0.063486029   -3.2246988    1.4964197   411161 
 5791000   0.93364843   -3.2245039   -1.7289669   0.06170496   -3.2245039     1.495537   411151 
 5792000   0.93433153   -3.2259062   -1.7292387  0.058364814   -3.2259062    1.4966676   411141 
 5793000   0.93229664   -3.2221758   -1.7287315  0.061496226   -3.2221758    1.4934443   411131 
 5794000   0.93375249   -3.2245361   -1.7287233  0.060255949   -3.2245361    1.4958128   411121 
 5795000   0.93573904   -3.2264836   -1.7274521  0.059211378   -3.2264836    1.4990316   411111 
 5796000   0.93447322   -3.2254091   -1.7283689  0.060144888   -3.2254091    1.4970402   411101 
 5797000   0.93328702   -3.2237949   -1.7286187  0.061719608   -3.2237949    1.4951763   411091 
 5798000    0.9350706   -3.2249887   -1.7269187  0.061475652   -3.2249887    1.4980701   411081 
 5799000   0.93397375   -3.2244099   -1.7280607  0.062584977   -3.2244099    1.4963492   411071 
 5800000   0.93352566   -3.2243938   -1.7287261  0.053590224   -3.2243938    1.4956677   411061 
 5801000   0.93184621   -3.2219722    -1.728959  0.056501834   -3.2219722    1.4930133   411051 
 5802000   0.93215728   -3.2220972   -1.7285492  0.058756464   -3.2220972     1.493548   411041 
 5803000   0.93046179   -3.2212958   -1.7304282  0.061203283   -3.2212958    1.4908677   411031 
 5804000    0.9321905   -3.2244162   -1.7307423  0.057610495   -3.2244162    1.4936739   411021 
 5805000   0.93198456    -3.223827   -1.7304467  0.061842631    -3.223827    1.4933803   411011 
 5806000   0.93113752   -3.2224303    -1.730371  0.056142923   -3.2224303    1.4920593   411001 
 5807000   0.93165398   -3.2216393   -1.7287161  0.057776235   -3.2216393    1.4929232   410991 
 5808000   0.93221552   -3.2217706   -1.7279112  0.058663033   -3.2217706    1.4938594   410981 
 5809000   0.93408423   -3.2226139   -1.7257235  0.057060555   -3.2226139    1.4968904   410971 
 5810000   0.93360278   -3.2216348   -1.7254796  0.060824355   -3.2216348    1.4961552   410961 
 5811000   0.93475976    -3.225444   -1.7273982  0.059829458    -3.225444    1.4980458   410951 
 5812000   0.93512615    -3.225437   -1.7267675  0.061212829    -3.225437    1.4986695   410941 
 5813000   0.93287793   -3.2230472   -1.7279444  0.058582988   -3.2230472    1.4951028   410931 
 5814000   0.93354258   -3.2224861   -1.7262817   0.06001764   -3.2224861    1.4962044   410921 
 5815000   0.93450287   -3.2236348   -1.7258549  0.062636146   -3.2236348    1.4977799   410911 
 5816000   0.93471157    -3.225249   -1.7270981  0.055880962    -3.225249    1.4981509   410901 
 5817000   0.93433252   -3.2251104   -1.7275306  0.061598544   -3.2251104    1.4975798   410891 
 5818000   0.93292494   -3.2226572   -1.7272971   0.05711914   -3.2226572    1.4953601   410881 
 5819000   0.93326551   -3.2226885   -1.7267462  0.061283081   -3.2226885    1.4959424   410871 
 5820000   0.93454439   -3.2241431   -1.7261143   0.06195402   -3.2241431    1.4980287   410861 
 5821000    0.9344228   -3.2238478   -1.7259775  0.062851429   -3.2238478    1.4978703   410851 
 5822000   0.93238807   -3.2202429   -1.7255979  0.060253524   -3.2202429     1.494645   410841 
 5823000   0.93253051   -3.2222693   -1.7273596   0.06608704   -3.2222693    1.4949097   410831 
 5824000   0.93341192   -3.2247615   -1.7284023  0.057324085   -3.2247615    1.4963591   410821 
 5825000   0.93289054    -3.224842   -1.7292823  0.058012357    -3.224842    1.4955597   410811 
 5826000   0.93290931   -3.2251395   -1.7295133  0.062227673   -3.2251395    1.4956262   410801 
 5827000   0.93182824   -3.2241642   -1.7302347  0.058702585   -3.2241642    1.4939294   410791 
 5828000   0.92951787   -3.2213668   -1.7311052  0.060358665   -3.2213668    1.4902617   410781 
 5829000   0.93009428   -3.2222784   -1.7310563  0.055465513   -3.2222784    1.4912221   410771 
 5830000    0.9312851   -3.2243779   -1.7312102  0.057142193   -3.2243779    1.4931677   410761 
 5831000   0.93279597   -3.2270514   -1.7314248  0.057341769   -3.2270514    1.4956265   410751 
 5832000   0.93140411   -3.2249744   -1.7315432  0.061843332   -3.2249744    1.4934312   410741 
 5833000   0.93133099   -3.2254868   -1.7321365  0.059898229   -3.2254868    1.4933503   410731 
 5834000   0.93282919   -3.2264623   -1.7306733  0.056432304   -3.2264623     1.495789   410721 
 5835000   0.93407558    -3.228904   -1.7310799  0.058918811    -3.228904    1.4978241   410711 
 5836000   0.93344047   -3.2265378   -1.7296957  0.059075782   -3.2265378    1.4968421   410701 
 5837000   0.93387224   -3.2271963   -1.7296253  0.060465088   -3.2271963     1.497571   410691 
 5838000   0.93228829   -3.2266201   -1.7315528  0.061961285   -3.2266201    1.4950673   410681 
 5839000     0.932295   -3.2265141   -1.7313996  0.060963478   -3.2265141    1.4951145   410671 
 5840000   0.93366634   -3.2270094   -1.7296593  0.061656593   -3.2270094    1.4973502   410661 
 5841000    0.9323763   -3.2268961   -1.7315784  0.057894677   -3.2268961    1.4953177   410651 
 5842000   0.93254526   -3.2258273   -1.7302022   0.05938417   -3.2258273    1.4956251   410641 
 5843000   0.93216362    -3.226955   -1.7319055  0.062046825    -3.226955    1.4950494   410631 
 5844000   0.93286217    -3.227127   -1.7309208  0.060107955    -3.227127    1.4962062   410621 
 5845000   0.93203817   -3.2259025   -1.7309815  0.061066095   -3.2259025     1.494921   410611 
 5846000   0.93237796   -3.2257138   -1.7302114  0.059097026   -3.2257138    1.4955024   410601 
 5847000   0.93282982   -3.2269593   -1.7306956  0.054863134   -3.2269593    1.4962637   410591 
 5848000   0.93285362   -3.2281739   -1.7318356  0.060479083   -3.2281739    1.4963383   410581 
 5849000   0.93246171   -3.2267124   -1.7309663  0.062009581   -3.2267124    1.4957461   410571 
 5850000   0.93375017   -3.2289631   -1.7311137  0.058713502   -3.2289631    1.4978493   410561 
 5851000   0.93379069   -3.2269782   -1.7290274  0.062013507   -3.2269782    1.4979508   410551 
 5852000   0.93098567   -3.2233147   -1.7298272   0.05994316   -3.2233147    1.4934875   410541 
 5853000    0.9310722   -3.2240891   -1.7304264  0.059722883   -3.2240891    1.4936627   410531 
 5854000   0.93053915    -3.221934   -1.7290901  0.057740212    -3.221934    1.4928439   410521 
 5855000   0.93103056   -3.2235044   -1.7298357  0.062017984   -3.2235044    1.4936687   410511 
 5856000   0.93098926   -3.2239829   -1.7303442  0.059390174   -3.2239829    1.4936388   410501 
 5857000   0.93118807   -3.2245928   -1.7305986  0.059107615   -3.2245928    1.4939942   410491 
 5858000   0.93309174    -3.226933   -1.7298482  0.058404598    -3.226933    1.4970848   410481 
 5859000   0.93360533   -3.2285492   -1.7306038  0.060648583   -3.2285492    1.4979454   410471 
 5860000   0.93308629   -3.2265708   -1.7294218  0.062261974   -3.2265708    1.4971491   410461 
 5861000   0.93412153   -3.2277284   -1.7288818   0.05422947   -3.2277284    1.4988466   410451 
 5862000   0.93353162   -3.2254159   -1.7274793    0.0617578   -3.2254159    1.4979366   410441 
 5863000   0.93257737   -3.2247343   -1.7282925  0.064948455   -3.2247343    1.4964419   410431 
 5864000   0.93237473   -3.2253429   -1.7291898  0.063281314   -3.2253429    1.4961532   410421 
 5865000   0.93166075   -3.2257947   -1.7307508  0.057343746   -3.2257947    1.4950439   410411 
 5866000   0.93166457    -3.225483   -1.7303965  0.057721127    -3.225483    1.4950864   410401 
 5867000   0.93091749   -3.2247152   -1.7307912   0.06080836   -3.2247152     1.493924   410391 
 5868000   0.93252539   -3.2268493   -1.7303085  0.063087109   -3.2268493    1.4965408   410381 
 5869000   0.93184828   -3.2253976    -1.729907   0.06362759   -3.2253976    1.4954906   410371 
 5870000   0.93276429   -3.2265096   -1.7295125  0.062702893   -3.2265096    1.4969971   410361 
 5871000   0.93402309   -3.2267075   -1.7276536  0.059448078   -3.2267075    1.4990539   410351 
 5872000   0.93314352   -3.2237563   -1.7260775  0.061915571   -3.2237563    1.4976787   410341 
 5873000   0.93367313   -3.2262432    -1.727678  0.056168539   -3.2262432    1.4985653   410331 
 5874000   0.93113178   -3.2219355   -1.7274127  0.060588222   -3.2219355    1.4945228   410321 
 5875000   0.93106757   -3.2231943   -1.7287382  0.060244646   -3.2231943    1.4944561   410311 
 5876000   0.93090492   -3.2232408   -1.7290093   0.06529739   -3.2232408    1.4942315   410301 
 5877000   0.93061369   -3.2233948   -1.7295944   0.05780371   -3.2233948    1.4938004   410291 
 5878000   0.93212358   -3.2248523   -1.7285917  0.059242684   -3.2248523    1.4962605   410281 
 5879000   0.93212948   -3.2256199   -1.7293134   0.05919609   -3.2256199    1.4963065   410271 
 5880000   0.93118063   -3.2246852   -1.7298654  0.058971309   -3.2246852    1.4948198   410261 
 5881000   0.93080897   -3.2241102   -1.7298506   0.05329361   -3.2241102    1.4942596   410251 
 5882000    0.9303245   -3.2226943    -1.729176  0.058585817   -3.2226943    1.4935182   410241 
 5883000   0.93104089   -3.2225968   -1.7278921  0.052763192   -3.2225968    1.4947047   410231 
 5884000   0.93142433   -3.2235623   -1.7282056  0.058240604   -3.2235623    1.4953568   410221 
 5885000    0.9313064   -3.2245375   -1.7293336  0.054847127   -3.2245375    1.4952039   410211 
 5886000   0.93078628   -3.2236252   -1.7292199  0.060674956   -3.2236252    1.4944053   410201 
 5887000   0.93194615   -3.2270148   -1.7307109  0.056986316   -3.2270148    1.4963039   410191 
 5888000   0.93207337   -3.2262612   -1.7297165  0.061286659   -3.2262612    1.4965447   410181 
 5889000   0.93214663   -3.2266125   -1.7299137  0.059967047   -3.2266125    1.4966988   410171 
 5890000   0.93230067   -3.2270409   -1.7300583  0.056291043   -3.2270409    1.4969826   410161 
 5891000   0.93170815   -3.2271233   -1.7310556  0.062757015   -3.2271233    1.4960677   410151 
 5892000    0.9308935   -3.2259897   -1.7311936  0.062754123   -3.2259897    1.4947961   410141 
 5893000   0.93118154   -3.2278662   -1.7325711  0.060405821   -3.2278662     1.495295   410131 
 5894000   0.93007922   -3.2276715   -1.7341101  0.059901827   -3.2276715    1.4935613   410121 
 5895000   0.92992344   -3.2277885   -1.7344409  0.057115832   -3.2277885    1.4933476   410111 
 5896000   0.92920784   -3.2258687   -1.7336338  0.058036886   -3.2258687    1.4922348   410101 
 5897000   0.93066221   -3.2289063   -1.7342995  0.062750619   -3.2289063    1.4946069   410091 
 5898000   0.93211542    -3.230748   -1.7337708  0.061287181    -3.230748    1.4969772   410081 
 5899000   0.93232774   -3.2287644   -1.7314098  0.065397362   -3.2287644    1.4973547   410071 
 5900000   0.93099653   -3.2282594   -1.7330063  0.060919783   -3.2282594    1.4952532   410061 
 5901000   0.93215768   -3.2292005   -1.7320459  0.063377604   -3.2292005    1.4971546   410051 
 5902000   0.93212232   -3.2291087   -1.7319744  0.062092876   -3.2291087    1.4971343   410041 
 5903000      0.93246   -3.2310397   -1.7333265  0.064350829   -3.2310397    1.4977132   410031 
 5904000   0.93223752   -3.2315973   -1.7342049  0.059644987   -3.2315973    1.4973924   410021 
 5905000   0.93063917    -3.229442   -1.7345805  0.054822971    -3.229442    1.4948615   410011 
 5906000   0.93090519   -3.2287877   -1.7334624  0.060910427   -3.2287877    1.4953253   410001 
 5907000   0.93101727   -3.2275058    -1.731964  0.066348732   -3.2275058    1.4955418   409991 
 5908000   0.93043086    -3.228136   -1.7334997  0.063261573    -3.228136    1.4946362   409981 
 5909000   0.93105109   -3.2311587   -1.7354896  0.055215595   -3.2311587    1.4956691   409971 
 5910000   0.93068618   -3.2301874   -1.7350681  0.057271873   -3.2301874    1.4951193   409961 
 5911000   0.93009137   -3.2297329   -1.7355326  0.058023441   -3.2297329    1.4942002   409951 
 5912000   0.92978457   -3.2291086   -1.7353648  0.063076932   -3.2291086    1.4937438   409941 
 5913000   0.92960101   -3.2280971   -1.7346118  0.056610009   -3.2280971    1.4934853   409931 
 5914000   0.92880511   -3.2259441    -1.733701  0.061583853   -3.2259441     1.492243   409921 
 5915000   0.93030625   -3.2284051   -1.7337138  0.059044748   -3.2284051    1.4946913   409911 
 5916000   0.92794754   -3.2260987   -1.7351607  0.054584163   -3.2260987     1.490938   409901 
 5917000   0.92699336   -3.2258027   -1.7363615  0.059575422   -3.2258027    1.4894412   409891 
 5918000   0.92946202   -3.2295714   -1.7361273  0.055154214   -3.2295714    1.4934442   409881 
 5919000    0.9291437   -3.2277906   -1.7348215  0.057029806   -3.2277906    1.4929691   409871 
 5920000   0.92919847   -3.2285095    -1.735416    0.0544685   -3.2285095    1.4930936   409861 
 5921000   0.93109563   -3.2280408   -1.7318623   0.06079306   -3.2280408    1.4961785   409851 
 5922000   0.93035956   -3.2259112    -1.730879   0.05620905   -3.2259112    1.4950322   409841 
 5923000   0.93026912   -3.2276587   -1.7327353  0.058327509   -3.2276587    1.4949234   409831 
 5924000   0.92830864   -3.2254595   -1.7336502  0.057275148   -3.2254595    1.4918093   409821 
 5925000   0.93003763   -3.2270558   -1.7324315   0.06006713   -3.2270558    1.4946243   409811 
 5926000   0.93205386   -3.2293481    -1.731447  0.059201365   -3.2293481    1.4979011   409801 
 5927000   0.93054072   -3.2284888    -1.732983  0.060715816   -3.2284888    1.4955058   409791 
 5928000   0.93054901   -3.2285879   -1.7330323  0.059513031   -3.2285879    1.4955556   409781 
 5929000    0.9290376   -3.2266307   -1.7334678  0.060411515   -3.2266307    1.4931629   409771 
 5930000   0.92990576   -3.2270664   -1.7324717  0.059365392   -3.2270664    1.4945947   409761 
 5931000   0.92862545   -3.2257315   -1.7331581  0.058997188   -3.2257315    1.4925734   409751 
 5932000   0.92949047   -3.2293313   -1.7353311  0.059590719   -3.2293313    1.4940002   409741 
 5933000   0.93001509    -3.229521   -1.7346411  0.061634535    -3.229521    1.4948799   409731 
 5934000   0.92992928   -3.2285902   -1.7338118  0.056689704   -3.2285902    1.4947785   409721 
 5935000   0.92968954   -3.2286692   -1.7342397  0.056369925   -3.2286692    1.4944296   409711 
 5936000   0.92963005   -3.2280314   -1.7336609  0.059033504   -3.2280314    1.4943704   409701 
 5937000   0.92949067   -3.2276873   -1.7335044  0.056600726   -3.2276873    1.4941828   409691 
 5938000   0.92937226   -3.2280106   -1.7339817   0.05841862   -3.2280106     1.494029   409681 
 5939000   0.92991397   -3.2289157   -1.7339794  0.062374903   -3.2289157    1.4949363   409671 
 5940000   0.93093955   -3.2291933   -1.7325718  0.067707024   -3.2291933    1.4966215   409661 
 5941000   0.93122373    -3.230105   -1.7329901  0.062171002    -3.230105     1.497115   409651 
 5942000   0.93192127   -3.2312439    -1.732971   0.06138469   -3.2312439    1.4982729   409641 
 5943000   0.92924421   -3.2276903   -1.7336849  0.059559257   -3.2276903    1.4940054   409631 
 5944000   0.92901319   -3.2280553   -1.7343848  0.060810412   -3.2280553    1.4936705   409621 
 5945000   0.92917899   -3.2286871   -1.7347135  0.060047602   -3.2286871    1.4939735   409611 
 5946000   0.92888585   -3.2286445   -1.7351059  0.062028484   -3.2286445    1.4935387   409601 
 5947000   0.92865959   -3.2277335   -1.7345222  0.063593526   -3.2277335    1.4932113   409591 
 5948000    0.9292658   -3.2287452   -1.7345227  0.063322025   -3.2287452    1.4942225   409581 
 5949000   0.92913679   -3.2280948   -1.7340432  0.061098434   -3.2280948    1.4940516   409571 
 5950000    0.9297859   -3.2292677   -1.7341358   0.05617023   -3.2292677    1.4951318   409561 
 5951000   0.92817794   -3.2281866    -1.735604  0.058940273   -3.2281866    1.4925826   409551 
 5952000   0.92978732   -3.2299355   -1.7347284  0.060238185   -3.2299355    1.4952071   409541 
 5953000   0.92882384   -3.2275611   -1.7338669   0.06001581   -3.2275611    1.4936942   409531 
 5954000   0.92983481   -3.2292675   -1.7339109  0.059625415   -3.2292675    1.4953565   409521 
 5955000   0.93041159   -3.2286526   -1.7323319  0.057926221   -3.2286526    1.4963207   409511 
 5956000   0.93006683   -3.2281233   -1.7323205   0.05806313   -3.2281233    1.4958027   409501 
 5957000   0.93020775    -3.227109   -1.7310431  0.059937379    -3.227109    1.4960659   409491 
 5958000   0.92986304   -3.2281337   -1.7325856  0.055351947   -3.2281337     1.495548   409481 
 5959000   0.93003906   -3.2274897    -1.731622   0.06195534   -3.2274897    1.4958677   409471 
 5960000   0.92946394   -3.2254786   -1.7304995  0.058929442   -3.2254786    1.4949792   409461 
 5961000   0.92914272   -3.2262741   -1.7317751  0.058435344   -3.2262741     1.494499   409451 
 5962000   0.93082922   -3.2280434   -1.7307952  0.056723745   -3.2280434    1.4972482   409441 
 5963000      0.92965   -3.2283406   -1.7329526   0.05453655   -3.2283406     1.495388   409431 
 5964000   0.92738025   -3.2234945   -1.7317211  0.055044499   -3.2234945    1.4917734   409421 
 5965000   0.92774998   -3.2241569   -1.7317523  0.059688103   -3.2241569    1.4924046   409411 
 5966000   0.92603385   -3.2236883   -1.7340079  0.057822475   -3.2236883    1.4896804   409401 
 5967000    0.9277234   -3.2256091   -1.7331744   0.05625762   -3.2256091    1.4924347   409391 
 5968000   0.92999658    -3.226624   -1.7304959  0.057532903    -3.226624    1.4961282   409381 
 5969000   0.92820897   -3.2226735   -1.7293846  0.056523246   -3.2226735    1.4932888   409371 
 5970000    0.9289493   -3.2233854    -1.728869  0.058898978   -3.2233854    1.4945164   409361 
 5971000   0.92893155   -3.2237171   -1.7291928  0.055737347   -3.2237171    1.4945243   409351 
 5972000   0.92982779   -3.2249404   -1.7289376  0.064158621   -3.2249404    1.4960028   409341 
 5973000    0.9296493   -3.2241797   -1.7284275  0.064227088   -3.2241797    1.4957522   409331 
 5974000   0.92874748   -3.2239169   -1.7295792  0.062301108   -3.2239169    1.4943377   409321 
 5975000   0.92970945   -3.2246449   -1.7287228  0.061108622   -3.2246449     1.495922   409311 
 5976000    0.9290357    -3.224969   -1.7300945  0.062479253    -3.224969    1.4948745   409301 
 5977000   0.92938338   -3.2252746   -1.7298041  0.056826041   -3.2252746    1.4954705   409291 
 5978000   0.92951432   -3.2270368   -1.7313192  0.056692333   -3.2270368    1.4957177   409281 
 5979000   0.92763571   -3.2242424   -1.7315112  0.061690929   -3.2242424    1.4927312   409271 
 5980000   0.92773389   -3.2258057     -1.73288  0.058753419   -3.2258057    1.4929257   409261 
 5981000   0.92647402   -3.2252198   -1.7342851   0.05769324   -3.2252198    1.4909347   409251 
 5982000   0.93035108   -3.2308616   -1.7336511  0.054464855   -3.2308616    1.4972105   409241 
 5983000    0.9291569   -3.2299797   -1.7346544  0.059407922   -3.2299797    1.4953252   409231 
 5984000   0.92823818   -3.2294262    -1.735543  0.057136623   -3.2294262    1.4938832   409221 
 5985000   0.92804847    -3.226561   -1.7329466  0.057191791    -3.226561    1.4936144   409211 
 5986000   0.92812896   -3.2284642   -1.7346837  0.060625084   -3.2284642    1.4937804   409201 
 5987000    0.9285465   -3.2289146   -1.7344256  0.062047192   -3.2289146     1.494489   409191 
 5988000   0.92924608   -3.2277572   -1.7321057  0.065752685   -3.2277572    1.4956515   409181 
 5989000   0.93123876   -3.2306655   -1.7317701    0.0631988   -3.2306655    1.4988954   409171 
 5990000   0.93092192   -3.2318899   -1.7334679  0.066349463   -3.2318899     1.498422   409161 
 5991000   0.93102651   -3.2322959   -1.7336688    0.0572747   -3.2322959     1.498627   409151 
 5992000   0.92977625   -3.2295955   -1.7329443   0.06460321   -3.2295955    1.4966511   409141 
 5993000    0.9298112   -3.2286826   -1.7319387  0.058796204   -3.2286826     1.496744   409131 
 5994000   0.92858612   -3.2275863   -1.7327778  0.061484733   -3.2275863    1.4948085   409121 
 5995000   0.92953696   -3.2274613   -1.7310857  0.060196693   -3.2274613    1.4963757   409111 
 5996000    0.9291572    -3.226861   -1.7310602  0.058156542    -3.226861    1.4958009   409101 
 5997000    0.9286233   -3.2266127   -1.7316348  0.060135294   -3.2266127    1.4949779   409091 
 5998000   0.92773934   -3.2254729   -1.7318816  0.059532653   -3.2254729    1.4935914   409081 
 5999000   0.92587478   -3.2250045   -1.7343785   0.05817265   -3.2250045     1.490626   409071 
 6000000   0.92707807   -3.2261535   -1.7335537  0.058014495   -3.2261535    1.4925997   409061 
 6001000   0.92825211    -3.226095   -1.7315685  0.058227386    -3.226095    1.4945265   409051 
 6002000   0.92732708   -3.2245843   -1.7315107  0.058320869   -3.2245843    1.4930737   409041 
 6003000   0.92697223   -3.2244889   -1.7319501  0.054916821   -3.2244889    1.4925388   409031 
 6004000   0.92690925   -3.2242207   -1.7317468  0.054074776   -3.2242207    1.4924739   409021 
 6005000   0.92849374   -3.2257357    -1.730674  0.056391802   -3.2257357    1.4950617   409011 
 6006000   0.92915144   -3.2263469   -1.7301895  0.056283658   -3.2263469    1.4961573   409001 
 6007000   0.92923944   -3.2268446   -1.7305089  0.059869654   -3.2268446    1.4963356   408991 
 6008000   0.92992848   -3.2294561   -1.7319743  0.058128291   -3.2294561    1.4974818   408981 
 6009000   0.92839679   -3.2270619   -1.7320101  0.057769232   -3.2270619    1.4950518   408971 
 6010000   0.92903852   -3.2275954   -1.7314735  0.054666221   -3.2275954    1.4961218   408961 
 6011000   0.92783284   -3.2240816   -1.7298648  0.062128843   -3.2240816    1.4942167   408951 
 6012000   0.92725252   -3.2233276   -1.7300089  0.062344455   -3.2233276    1.4933187   408941 
 6013000   0.92722425   -3.2254255   -1.7321159  0.055160183   -3.2254255    1.4933097   408931 
 6014000   0.92758918   -3.2255403   -1.7316064  0.058099496   -3.2255403    1.4939339   408921 
 6015000   0.92817705   -3.2261967   -1.7312795   0.05528535   -3.2261967    1.4949173   408911 
 6016000   0.92970578   -3.2276028   -1.7301867  0.060343865   -3.2276028    1.4974161   408901 
 6017000   0.92906658    -3.227408   -1.7309849  0.061985885    -3.227408    1.4964232   408891 
 6018000   0.92988755   -3.2268501    -1.729068  0.061054775   -3.2268501    1.4977821   408881 
 6019000   0.93108863   -3.2292173    -1.729464  0.062213145   -3.2292173    1.4997534   408871 
 6020000   0.92992902   -3.2281431   -1.7302209  0.060757458   -3.2281431    1.4979222   408861 
 6021000   0.92871317   -3.2251877   -1.7291874   0.06401948   -3.2251877    1.4960003   408851 
 6022000    0.9303273   -3.2282514   -1.7296144  0.056754442   -3.2282514     1.498637   408841 
 6023000   0.92858935   -3.2248156   -1.7289417  0.065802328   -3.2248156     1.495874   408831 
 6024000    0.9285153   -3.2273471   -1.7315558   0.05626812   -3.2273471    1.4957913   408821 
 6025000   0.92649132   -3.2235442   -1.7309769  0.061073013   -3.2235442    1.4925673   408811 
 6026000   0.92808737   -3.2265071    -1.731332  0.055888052   -3.2265071    1.4951751   408801 
 6027000   0.92723808   -3.2248413   -1.7309979  0.059030867   -3.2248413    1.4938434   408791 
 6028000   0.92659169   -3.2221765    -1.729338  0.060478225   -3.2221765    1.4928385   408781 
 6029000   0.92811623   -3.2256241   -1.7302928  0.056004332   -3.2256241    1.4953313   408771 
 6030000   0.92773969   -3.2246687   -1.7299075  0.066303491   -3.2246687    1.4947612   408761 
 6031000    0.9279105   -3.2263463   -1.7312733   0.05476185   -3.2263463     1.495073   408751 
 6032000   0.92733335   -3.2252937   -1.7311141  0.058946523   -3.2252937    1.4941796   408741 
 6033000   0.92686655   -3.2240728   -1.7306088     0.059766   -3.2240728     1.493464   408731 
 6034000   0.92615511   -3.2229523   -1.7305981  0.058937232   -3.2229523    1.4923542   408721 
 6035000   0.92706495   -3.2238752   -1.7300185   0.06383988   -3.2238752    1.4938568   408711 
 6036000   0.92802818   -3.2265287   -1.7310832  0.057786427   -3.2265287    1.4954455   408701 
 6037000   0.92763705   -3.2245969    -1.729745  0.063106456   -3.2245969    1.4948518   408691 
 6038000   0.92726793   -3.2245367   -1.7302432  0.057802623   -3.2245367    1.4942936   408681 
 6039000   0.92680466    -3.225752   -1.7321685  0.052667495    -3.225752    1.4935835   408671 
 6040000   0.92630796   -3.2245669   -1.7317473  0.059767798   -3.2245669    1.4928196   408661 
 6041000    0.9266065   -3.2248264   -1.7314891  0.058635097   -3.2248264    1.4933373   408651 
 6042000   0.92725397   -3.2262195   -1.7318021  0.058577604   -3.2262195    1.4944173   408641 
 6043000   0.92623455   -3.2248069    -1.731996  0.058380892   -3.2248069    1.4928109   408631 
 6044000   0.92634094     -3.22544   -1.7324211  0.055619582     -3.22544    1.4930189   408621 
 6045000   0.92702645    -3.224889   -1.7307287  0.057553613    -3.224889    1.4941603   408611 
 6046000   0.92694076   -3.2253993   -1.7313405  0.056583503   -3.2253993    1.4940588   408601 
 6047000   0.92854837   -3.2271311   -1.7304445  0.059622736   -3.2271311    1.4966866   408591 
 6048000   0.92689334   -3.2243788   -1.7303233  0.059727116   -3.2243788    1.4940555   408581 
 6049000   0.92825874   -3.2261348   -1.7298418  0.063948685   -3.2261348     1.496293   408571 
 6050000   0.92686877   -3.2249638   -1.7308748  0.058496997   -3.2249638     1.494089   408561 
 6051000   0.92797121   -3.2264778   -1.7305751  0.057206893   -3.2264778    1.4959027   408551 
 6052000   0.92662441   -3.2249397   -1.7311714  0.061057405   -3.2249397    1.4937682   408541 
 6053000   0.92770698   -3.2255523   -1.7300023  0.060470538   -3.2255523      1.49555   408531 
 6054000   0.92715192   -3.2252664   -1.7305747  0.057420668   -3.2252664    1.4946918   408521 
 6055000   0.92906873   -3.2275367   -1.7297181  0.064836368   -3.2275367    1.4978186   408511 
 6056000   0.92799343   -3.2274294   -1.7313077  0.055568697   -3.2274294    1.4961217   408501 
 6057000   0.92672976   -3.2257038   -1.7315829  0.061930026   -3.2257038    1.4941209   408491 
 6058000   0.92746343   -3.2275912   -1.7322508  0.057984376   -3.2275912    1.4953404   408481 
 6059000   0.92560853   -3.2247571   -1.7323708  0.061163506   -3.2247571    1.4923863   408471 
 6060000   0.92672486   -3.2259957   -1.7317729  0.061810405   -3.2259957    1.4942228   408461 
 6061000   0.92568799   -3.2250487   -1.7324612  0.061001556   -3.2250487    1.4925875   408451 
 6062000   0.92613092   -3.2252203   -1.7318821  0.059212442   -3.2252203    1.4933382   408441 
 6063000   0.92672144   -3.2249493   -1.7306223  0.059616758   -3.2249493     1.494327   408431 
 6064000   0.92733866   -3.2254494   -1.7300905  0.061093651   -3.2254494    1.4953589   408421 
 6065000   0.92681054   -3.2241775   -1.7296336  0.058901065   -3.2241775    1.4945439   408411 
 6066000   0.93001982   -3.2283766   -1.7286209  0.060574043   -3.2283766    1.4997558   408401 
 6067000   0.92906831   -3.2271134   -1.7288554  0.059572016   -3.2271134     1.498258   408391 
 6068000   0.92778095   -3.2244761   -1.7282575  0.060601031   -3.2244761    1.4962186   408381 
 6069000   0.92673393   -3.2245501   -1.7299834  0.061536304   -3.2245501    1.4945667   408371 
 6070000   0.92745605   -3.2258906   -1.7301227  0.061564251   -3.2258906    1.4957679   408361 
 6071000   0.92622477   -3.2235027    -1.729684  0.062748308   -3.2235027    1.4938187   408351 
 6072000   0.92683215   -3.2251699   -1.7303349  0.061526251   -3.2251699    1.4948349   408341 
 6073000   0.92583919   -3.2240164   -1.7307464  0.055655755   -3.2240164      1.49327   408331 
 6074000   0.92469449   -3.2236259   -1.7321656   0.05840673   -3.2236259    1.4914603   408321 
 6075000   0.92613914   -3.2254454   -1.7316184  0.059139421   -3.2254454     1.493827   408311 
 6076000   0.92651293   -3.2243826   -1.7299162  0.056238345   -3.2243826    1.4944665   408301 
 6077000   0.92616342   -3.2247096   -1.7307703  0.055417898   -3.2247096    1.4939393   408291 
 6078000   0.92575413   -3.2245287    -1.731213  0.055636855   -3.2245287    1.4933157   408281 
 6079000   0.92529036   -3.2228946   -1.7302905  0.061541396   -3.2228946    1.4926041   408271 
 6080000   0.92568912   -3.2254434   -1.7321594   0.05896021   -3.2254434    1.4932839   408261 
 6081000   0.92594265   -3.2248278   -1.7310983   0.05711619   -3.2248278    1.4937295   408251 
 6082000   0.92545733   -3.2230495   -1.7300663  0.058160845   -3.2230495    1.4929832   408241 
 6083000   0.92601928   -3.2235274   -1.7296011  0.062071809   -3.2235274    1.4939263   408231 
 6084000   0.92802835   -3.2277228   -1.7305186  0.058308981   -3.2277228    1.4972042   408221 
 6085000   0.92615026   -3.2252553   -1.7310445  0.063547292   -3.2252553    1.4942108   408211 
 6086000   0.92720086   -3.2257092   -1.7297667  0.059567447   -3.2257092    1.4959425   408201 
 6087000   0.92476232   -3.2232603   -1.7312156  0.057677739   -3.2232603    1.4920447   408191 
 6088000   0.92557801   -3.2247068   -1.7313094  0.055245435   -3.2247068    1.4933973   408181 
 6089000    0.9254329   -3.2239054   -1.7307056   0.05849548   -3.2239054    1.4931998   408171 
 6090000   0.92536662   -3.2256853   -1.7325559  0.056112198   -3.2256853    1.4931294   408161 
 6091000   0.92478214   -3.2246878   -1.7324649  0.055679234   -3.2246878    1.4922229   408151 
 6092000   0.92569956   -3.2258423   -1.7321024  0.057734251   -3.2258423    1.4937398   408141 
 6093000   0.92634698   -3.2259686   -1.7311474   0.06257137   -3.2259686    1.4948212   408131 
 6094000   0.92774778   -3.2283047   -1.7311864   0.06050717   -3.2283047    1.4971183   408121 
 6095000    0.9263159   -3.2261756   -1.7313313  0.059032483   -3.2261756    1.4948443   408111 
 6096000   0.92803456   -3.2291802   -1.7315257   0.06297067   -3.2291802    1.4976545   408101 
 6097000    0.9276484   -3.2293866   -1.7323186  0.059930113   -3.2293866     1.497068   408091 
 6098000   0.92766502   -3.2289381   -1.7318066  0.063349231   -3.2289381    1.4971315   408081 
 6099000   0.92671405   -3.2289582   -1.7333249  0.063000905   -3.2289582    1.4956334   408071 
 6100000   0.92624569   -3.2288129   -1.7338988  0.064363409   -3.2288129    1.4949141   408061 
 6101000   0.92635421      -3.2272   -1.7320741  0.060089796      -3.2272    1.4951259   408051 
 6102000   0.92442289   -3.2246168   -1.7325714  0.061260297   -3.2246168    1.4920453   408041 
 6103000   0.92480781   -3.2271873   -1.7344841   0.05555079   -3.2271873    1.4927032   408031 
 6104000    0.9244017   -3.2263545   -1.7342702  0.059612119   -3.2263545    1.4920843   408021 
 6105000   0.92531388   -3.2276153    -1.734022  0.055726498   -3.2276153    1.4935932   408011 
 6106000   0.92589006   -3.2271505   -1.7325906   0.06070554   -3.2271505    1.4945599   408001 
 6107000   0.92565572   -3.2285301   -1.7343118  0.054679405   -3.2285301    1.4942183   407991 
 6108000   0.92465143   -3.2274464   -1.7348127  0.058292874   -3.2274464    1.4926337   407981 
 6109000    0.9241587   -3.2264539   -1.7345791  0.061316376   -3.2264539    1.4918749   407971 
 6110000   0.92656582   -3.2292728   -1.7334755  0.059768382   -3.2292728    1.4957974   407961 
 6111000   0.92546292   -3.2270796   -1.7330261  0.062521033   -3.2270796    1.4940535   407951 
 6112000   0.92597247   -3.2269872   -1.7320745  0.061760705   -3.2269872    1.4949128   407941 
 6113000   0.92520878    -3.225412   -1.7316955  0.060352026    -3.225412    1.4937165   407931 
 6114000   0.92577082   -3.2253316   -1.7306711   0.05974428   -3.2253316    1.4946605   407921 
 6115000   0.92666171    -3.228126   -1.7319905  0.059935035    -3.228126    1.4961355   407911 
 6116000   0.92547021   -3.2259278   -1.7316794  0.061077774   -3.2259278    1.4942484   407901 
 6117000   0.92614215   -3.2258397   -1.7304697  0.061828026   -3.2258397      1.49537   407891 
 6118000   0.92613382   -3.2273448   -1.7319516  0.062646509   -3.2273448    1.4953932   407881 
 6119000   0.92555069   -3.2270029   -1.7325146  0.059341604   -3.2270029    1.4944883   407871 
 6120000   0.92653889   -3.2286971   -1.7325765   0.06073972   -3.2286971    1.4961206   407861 
 6121000   0.92559688   -3.2254093   -1.7307732  0.065128981   -3.2254093    1.4946361   407851 
 6122000   0.92586347   -3.2258874   -1.7307841  0.054394016   -3.2258874    1.4951033   407841 
 6123000   0.92389879   -3.2225452    -1.730578  0.061398867   -3.2225452    1.4919673   407831 
 6124000   0.92637308   -3.2262527   -1.7302531  0.060447122   -3.2262527    1.4959996   407821 
 6125000   0.92623488   -3.2255421    -1.729729  0.058181642   -3.2255421    1.4958131   407811 
 6126000   0.92562583    -3.224664   -1.7297979  0.065227709    -3.224664    1.4948662   407801 
 6127000   0.92404583   -3.2231663   -1.7308152  0.063997018   -3.2231663    1.4923511   407791 
 6128000   0.92634835   -3.2253681   -1.7292617  0.058553912   -3.2253681    1.4961064   407781 
 6129000   0.92441227   -3.2231024   -1.7300862  0.056070883   -3.2231024    1.4930161   407771 
 6130000   0.92430981   -3.2249515   -1.7320642   0.05778905   -3.2249515    1.4928873   407761 
 6131000    0.9230912   -3.2229892   -1.7320336  0.056323145   -3.2229892    1.4909556   407751 
 6132000   0.92323644   -3.2235332   -1.7323064  0.053785594   -3.2235332    1.4912268   407741 
 6133000   0.92372238    -3.224246   -1.7321977   0.05280788    -3.224246    1.4920482   407731 
 6134000   0.92242672   -3.2226304   -1.7326384   0.05272484   -3.2226304     1.489992   407721 
 6135000   0.92327973   -3.2224106   -1.7310042  0.054305356   -3.2224106    1.4914064   407711 
 6136000   0.92340604   -3.2227219   -1.7310749  0.060217912   -3.2227219     1.491647   407701 
 6137000   0.92400588    -3.223077   -1.7304244  0.057556361    -3.223077    1.4926526   407691 
 6138000   0.92482053   -3.2234674   -1.7294621  0.057641086   -3.2234674    1.4940053   407681 
 6139000   0.92603928   -3.2244225   -1.7284117  0.062725067   -3.2244225    1.4960108   407671 
 6140000   0.92557192   -3.2237249   -1.7284324  0.062033954   -3.2237249    1.4952924   407661 
 6141000   0.92704751   -3.2240115   -1.7262985  0.063599163   -3.2240115     1.497713   407651 
 6142000   0.92576475   -3.2239197   -1.7282424  0.057894303   -3.2239197    1.4956773   407641 
 6143000   0.92643129   -3.2257878   -1.7289969  0.062859027   -3.2257878    1.4967909   407631 
 6144000   0.92526778   -3.2247921   -1.7298443  0.058929736   -3.2247921    1.4949478   407621 
 6145000   0.92545072   -3.2255851   -1.7303051  0.059515049   -3.2255851      1.49528   407611 
 6146000   0.92564902   -3.2242178   -1.7285806  0.061554028   -3.2242178    1.4956371   407601 
 6147000   0.92493882   -3.2245601   -1.7300338  0.063264684   -3.2245601    1.4945263   407591 
 6148000   0.92401701   -3.2231846   -1.7301111  0.060642782   -3.2231846    1.4930734   407581 
 6149000   0.92460291   -3.2241344   -1.7300776  0.060995726   -3.2241344    1.4940568   407571 
 6150000   0.92472906   -3.2243244   -1.7300271  0.062497628   -3.2243244    1.4942973   407561 
 6151000   0.92519324   -3.2257205   -1.7306364  0.058855863   -3.2257205    1.4950841   407551 
 6152000   0.92392303   -3.2222423   -1.7291742  0.061453946   -3.2222423    1.4930681   407541 
 6153000   0.92673087   -3.2253001   -1.7276577  0.063173665   -3.2253001    1.4976424   407531 
 6154000   0.92601172   -3.2244206   -1.7279037   0.06062164   -3.2244206    1.4965169   407521 
 6155000   0.92656709   -3.2250375   -1.7275863  0.063700321   -3.2250375    1.4974512   407511 
 6156000   0.92582692    -3.225741   -1.7294493  0.062806367    -3.225741    1.4962917   407501 
 6157000    0.9262722   -3.2255481      -1.7285  0.060491976   -3.2255481    1.4970481   407491 
 6158000    0.9245788   -3.2233949    -1.729047  0.062974794   -3.2233949    1.4943478   407481 
 6159000   0.92441276   -3.2236985   -1.7295823  0.062287026   -3.2236985    1.4941161   407471 
 6160000   0.92067158   -3.2187568   -1.7306509  0.063960245   -3.2187568    1.4881059   407461 
 6161000   0.92180656   -3.2214184   -1.7314415  0.054814101   -3.2214184    1.4899769   407451 
 6162000   0.92403295   -3.2244267   -1.7308145  0.054974242   -3.2244267    1.4936122   407441 
 6163000    0.9225176   -3.2212704    -1.730071  0.057143685   -3.2212704    1.4911994   407431 
 6164000   0.92316874   -3.2223063   -1.7300177  0.053737106   -3.2223063    1.4922886   407421 
 6165000   0.92315459   -3.2219932   -1.7296908  0.059518557   -3.2219932    1.4923023   407411 
 6166000    0.9234095   -3.2216454   -1.7288943  0.051644039   -3.2216454     1.492751   407401 
 6167000   0.92282389    -3.218273    -1.726432  0.060956196    -3.218273     1.491841   407391 
 6168000    0.9234895   -3.2204804   -1.7275267   0.05776421   -3.2204804    1.4929536   407381 
 6169000   0.92458014   -3.2214266   -1.7266731  0.058625406   -3.2214266    1.4947535   407371 
 6170000   0.92400777   -3.2196252   -1.7257603  0.059675867   -3.2196252    1.4938648   407361 
 6171000   0.92451015   -3.2203271   -1.7256133  0.059528581   -3.2203271    1.4947138   407351 
 6172000   0.92438936   -3.2224983   -1.7279432  0.059220229   -3.2224983    1.4945552   407341 
 6173000   0.92274587     -3.22115   -1.7292155  0.059945556     -3.22115    1.4919346   407331 
 6174000   0.92429518   -3.2228991   -1.7284228  0.056743873   -3.2228991    1.4944763   407321 
 6175000   0.92460657   -3.2230124    -1.727996  0.059628701   -3.2230124    1.4950164   407311 
 6176000   0.92273758   -3.2214977   -1.7294667  0.060683225   -3.2214977    1.4920311   407301 
 6177000   0.92244029   -3.2207312   -1.7291443  0.058118293   -3.2207312     1.491587   407291 
 6178000   0.92114903   -3.2200056     -1.73047  0.054676909   -3.2200056    1.4895356   407281 
 6179000   0.92261161   -3.2244396   -1.7325023  0.058827188   -3.2244396    1.4919373   407271 
 6180000   0.92323893   -3.2240389   -1.7310505  0.060489918   -3.2240389    1.4929883   407261 
 6181000   0.92452904   -3.2233421   -1.7282308   0.06110502   -3.2233421    1.4951113   407251 
 6182000   0.92569005   -3.2254203   -1.7283946  0.061095825   -3.2254203    1.4970256   407241 
 6183000   0.92521011   -3.2246492    -1.728363  0.061233875   -3.2246492    1.4962862   407231 
 6184000   0.92506491   -3.2250956   -1.7290075  0.062822565   -3.2250956    1.4960881   407221 
 6185000   0.92547612   -3.2248819    -1.728092  0.061048559   -3.2248819    1.4967899   407211 
 6186000   0.92456069   -3.2244824   -1.7291363  0.061924404   -3.2244824    1.4953461   407201 
 6187000   0.92454469   -3.2236703   -1.7283134  0.057742647   -3.2236703    1.4953569   407191 
 6188000   0.92599449   -3.2255621   -1.7278235  0.060712539   -3.2255621    1.4977386   407181 
 6189000   0.92497245   -3.2246612   -1.7285389  0.059874292   -3.2246612    1.4961223   407171 
 6190000   0.92442015   -3.2247344   -1.7294687  0.058593265   -3.2247344    1.4952657   407161 
 6191000   0.92465959   -3.2256855   -1.7299958   0.05690851   -3.2256855    1.4956897   407151 
 6192000   0.92441196   -3.2252663   -1.7299404  0.065121857   -3.2252663    1.4953259   407141 
 6193000   0.92235312   -3.2215875   -1.7295553  0.055599317   -3.2215875    1.4920322   407131 
 6194000   0.92326925   -3.2223168    -1.728766  0.059747397   -3.2223168    1.4935508   407121 
 6195000   0.92361255   -3.2234356   -1.7292927  0.056248181   -3.2234356    1.4941428   407111 
 6196000   0.92355076   -3.2236663   -1.7295867  0.061081395   -3.2236663    1.4940796   407101 
 6197000   0.92443887   -3.2260267   -1.7304737  0.054568463   -3.2260267    1.4955531   407091 
 6198000   0.92238086    -3.222756   -1.7304957  0.063019614    -3.222756    1.4922603   407081 
 6199000   0.92321442   -3.2242349   -1.7305893  0.061604882   -3.2242349    1.4936455   407071 
 6200000   0.92309067   -3.2230795   -1.7295975  0.061998381   -3.2230795     1.493482   407061 
 6201000   0.92375179   -3.2238743   -1.7292859  0.054259646   -3.2238743    1.4945884   407051 
 6202000   0.92310968   -3.2231941    -1.729608  0.059215086   -3.2231941    1.4935862   407041 
 6203000   0.92154587   -3.2235709   -1.7324783  0.058157259   -3.2235709    1.4910925   407031 
 6204000   0.92182551   -3.2245972   -1.7330155  0.056908562   -3.2245972    1.4915817   407021 
 6205000   0.92154932   -3.2221359   -1.7309645  0.054323939   -3.2221359    1.4911714   407011 
 6206000   0.92151341   -3.2206135   -1.7294635   0.05919326   -3.2206135    1.4911499   407001 
 6207000   0.92159992   -3.2230398   -1.7317132  0.054215559   -3.2230398    1.4913266   406991 
 6208000   0.92185082   -3.2245353   -1.7327661  0.058713645   -3.2245353    1.4917692   406981 
 6209000   0.92331143    -3.226202   -1.7320324  0.055885349    -3.226202    1.4941695   406971 
 6210000   0.92321994   -3.2248301   -1.7307719  0.058219061   -3.2248301    1.4940582   406961 
 6211000    0.9217543   -3.2231461   -1.7314231  0.056847621   -3.2231461     1.491723   406951 
 6212000   0.92340973   -3.2252142   -1.7307754  0.058640107   -3.2252142    1.4944388   406941 
 6213000   0.92243224   -3.2242071   -1.7313136  0.055627191   -3.2242071    1.4928935   406931 
 6214000   0.92329761   -3.2257788    -1.731448  0.057711206   -3.2257788    1.4943308   406921 
 6215000   0.92204475    -3.225363   -1.7330233  0.058438124    -3.225363    1.4923397   406911 
 6216000   0.92092922   -3.2239169    -1.733346  0.061882365   -3.2239169    1.4905709   406901 
 6217000   0.92306432    -3.227128   -1.7330647  0.056375385    -3.227128    1.4940634   406891 
 6218000   0.92385793    -3.228431   -1.7330464  0.061890385    -3.228431    1.4953846   406881 
 6219000    0.9242587   -3.2287214   -1.7326513  0.055073327   -3.2287214    1.4960701   406871 
 6220000   0.92215756   -3.2248728   -1.7321671  0.061830085   -3.2248728    1.4927057   406861 
 6221000   0.92240439   -3.2257222   -1.7325802  0.058308727   -3.2257222     1.493142   406851 
 6222000   0.92150724   -3.2244453   -1.7327189  0.056511337   -3.2244453    1.4917264   406841 
 6223000   0.92465165   -3.2285158   -1.7316625  0.057817465   -3.2285158    1.4968533   406831 
 6224000   0.92448556   -3.2270595   -1.7304383  0.055645884   -3.2270595    1.4966212   406821 
 6225000   0.92288906   -3.2269186   -1.7328452  0.064995168   -3.2269186    1.4940734   406811 
 6226000   0.92315428   -3.2290332   -1.7344937   0.05762494   -3.2290332    1.4945395   406801 
 6227000   0.92212129   -3.2269626   -1.7340587  0.058417912   -3.2269626    1.4929039   406791 
 6228000   0.92246602   -3.2285307    -1.735032  0.060536574   -3.2285307    1.4934987   406781 
 6229000   0.92019729   -3.2242333   -1.7343711  0.063904441   -3.2242333    1.4898622   406771 
 6230000   0.92099075    -3.225471   -1.7342875  0.058353177    -3.225471    1.4911835   406761 
 6231000   0.92181754   -3.2273888   -1.7348299  0.059002426   -3.2273888    1.4925589   406751 
 6232000   0.92026163   -3.2259791   -1.7359029  0.054551266   -3.2259791    1.4900763   406741 
 6233000   0.92170369   -3.2257272   -1.7332793  0.054307911   -3.2257272    1.4924479   406731 
 6234000   0.92261418   -3.2260788   -1.7321199  0.059848081   -3.2260788    1.4939589   406721 
 6235000   0.92429017    -3.227368   -1.7306584  0.058771979    -3.227368    1.4967096   406711 
 6236000   0.92284868   -3.2250884   -1.7306762  0.057844142   -3.2250884    1.4944121   406701 
 6237000    0.9238247     -3.22653   -1.7305006  0.063149145     -3.22653    1.4960294   406691 
 6238000   0.92293753   -3.2260537   -1.7314242   0.06326765   -3.2260537    1.4946295   406681 
 6239000   0.92156526   -3.2257694   -1.7333255   0.06290466   -3.2257694    1.4924439   406671 
 6240000   0.92310259   -3.2264069   -1.7314365  0.064566922   -3.2264069    1.4949703   406661 
 6241000   0.92211667   -3.2253653   -1.7319549  0.063232425   -3.2253653    1.4934104   406651 
 6242000   0.92180538   -3.2253083   -1.7323654  0.060793764   -3.2253083    1.4929429   406641 
 6243000   0.92139954   -3.2250193   -1.7326969  0.057023411   -3.2250193    1.4923223   406631 
 6244000   0.92169491   -3.2255798   -1.7327424  0.058702927   -3.2255798    1.4928374   406621 
 6245000   0.92256494   -3.2249623    -1.730679  0.057521752   -3.2249623    1.4942833   406611 
 6246000   0.92217287   -3.2248423   -1.7311572  0.064920016   -3.2248423     1.493685   406601 
 6247000   0.92156062   -3.2243193   -1.7315893  0.058197253   -3.2243193    1.4927301   406591 
 6248000    0.9228764   -3.2256305   -1.7307324  0.060220892   -3.2256305    1.4948981   406581 
 6249000   0.92281864   -3.2268071   -1.7319658   0.06200307   -3.2268071    1.4948413   406571 
 6250000   0.92220026    -3.226239   -1.7323626    0.0634779    -3.226239    1.4938764   406561 
 6251000   0.92230836   -3.2253563   -1.7312681  0.058184389   -3.2253563    1.4940882   406551 
 6252000   0.92156529   -3.2232308   -1.7303095  0.056801434   -3.2232308    1.4929212   406541 
 6253000   0.92205735   -3.2243093   -1.7305542  0.062586987   -3.2243093    1.4937551   406531 
 6254000   0.92127259   -3.2231015   -1.7305811  0.054304953   -3.2231015    1.4925205   406521 
 6255000   0.92162286   -3.2243233   -1.7311986  0.053429093   -3.2243233    1.4931247   406511 
 6256000   0.92217299   -3.2239192   -1.7298665  0.062569721   -3.2239192    1.4940527   406501 
 6257000   0.92373004   -3.2262925   -1.7296804  0.061924721   -3.2262925    1.4966121   406491 
 6258000   0.92353432   -3.2263801   -1.7300482  0.057902488   -3.2263801    1.4963319   406481 
 6259000   0.92256305   -3.2260191   -1.7312242  0.063911858   -3.2260191     1.494795   406471 
 6260000   0.92269611   -3.2256347   -1.7305873  0.058672748   -3.2256347    1.4950473   406461 
 6261000    0.9207846   -3.2230027   -1.7310159  0.059764686   -3.2230027    1.4919868   406451 
 6262000   0.92116843    -3.224229   -1.7315835  0.062184225    -3.224229    1.4926455   406441 
 6263000   0.92115923   -3.2252936   -1.7326263  0.055573202   -3.2252936    1.4926673   406431 
 6264000   0.92063293   -3.2256192   -1.7337681  0.053630369   -3.2256192    1.4918512   406421 
 6265000   0.92046446   -3.2236848   -1.7320699  0.055150756   -3.2236848    1.4916149   406411 
 6266000   0.92222068   -3.2264545   -1.7319569  0.061416258   -3.2264545    1.4944976   406401 
 6267000   0.92136552   -3.2248446   -1.7316961  0.060078186   -3.2248446    1.4931485   406391 
 6268000   0.92232915   -3.2258832   -1.7311363  0.057096175   -3.2258832    1.4947469   406381 
 6269000   0.92053844   -3.2234999   -1.7316183  0.060211596   -3.2234999    1.4918816   406371 
 6270000   0.92212076   -3.2249916   -1.7305088   0.05904755   -3.2249916    1.4944828   406361 
 6271000   0.92072687   -3.2219187   -1.7296583  0.061833187   -3.2219187    1.4922604   406351 
 6272000   0.92088852   -3.2230785   -1.7305193  0.059063935   -3.2230785    1.4925591   406341 
 6273000    0.9228664   -3.2250291   -1.7292275  0.062361967   -3.2250291    1.4958017   406331 
 6274000   0.92387384   -3.2274225   -1.7299511  0.055193531   -3.2274225    1.4974714   406321 
 6275000   0.92290595   -3.2248514    -1.728912   0.06069771   -3.2248514    1.4959394   406311 
 6276000   0.92227051    -3.225544   -1.7305978  0.055591585    -3.225544    1.4949462   406301 
 6277000   0.92043278   -3.2233319   -1.7313279  0.062582795   -3.2233319    1.4920041   406291 
 6278000   0.92236555    -3.226512   -1.7313382  0.060991916    -3.226512    1.4951738   406281 
 6279000   0.92022567   -3.2236549   -1.7319131  0.065680413   -3.2236549    1.4917418   406271 
 6280000   0.92177841   -3.2267443   -1.7324486  0.056200806   -3.2267443    1.4942956   406261 
 6281000   0.92108319   -3.2267003   -1.7334949  0.062850018   -3.2267003    1.4932054   406251 
 6282000    0.9214786   -3.2271143   -1.7332312  0.059991994   -3.2271143    1.4938832   406241 
 6283000   0.91976537   -3.2262486   -1.7351062   0.05662688   -3.2262486    1.4911424   406231 
 6284000   0.92013595   -3.2262884   -1.7345085  0.058195037   -3.2262884    1.4917799   406221 
 6285000   0.92034983   -3.2265315   -1.7343681  0.056870102   -3.2265315    1.4921634   406211 
 6286000   0.92157659   -3.2263074   -1.7321182  0.062568147   -3.2263074    1.4941891   406201 
 6287000   0.92077341   -3.2267169   -1.7337932  0.055282631   -3.2267169    1.4929237   406191 
 6288000   0.92015432   -3.2261504   -1.7341937  0.057997241   -3.2261504    1.4919566   406181 
 6289000   0.92104314   -3.2274845     -1.73405  0.064931457   -3.2274845    1.4934345   406171 
 6290000   0.92192593   -3.2273479   -1.7324451  0.060040514   -3.2273479    1.4949028   406161 
 6291000   0.92113914   -3.2269811   -1.7333173  0.062893689   -3.2269811    1.4936638   406151 
 6292000   0.92116681   -3.2267196   -1.7329742  0.062058219   -3.2267196    1.4937454   406141 
 6293000   0.92310553   -3.2286779   -1.7317519  0.061946517   -3.2286779     1.496926   406131 
 6294000   0.92095266   -3.2277929   -1.7343212  0.061032506   -3.2277929    1.4934717   406121 
 6295000   0.92246228   -3.2301233   -1.7341667  0.059487067   -3.2301233    1.4959566   406111 
 6296000    0.9215316   -3.2295722   -1.7350881  0.064436397   -3.2295722    1.4944841   406101 
 6297000   0.92181945   -3.2300519   -1.7350641  0.058834219   -3.2300519    1.4949878   406091 
 6298000   0.92117442   -3.2299151   -1.7359366  0.060511899   -3.2299151    1.4939784   406081 
 6299000   0.91980193   -3.2284895   -1.7367002  0.061688331   -3.2284895    1.4917892   406071 
 6300000   0.92134149   -3.2305356   -1.7362126  0.051513502   -3.2305356     1.494323   406061 
 6301000   0.92138527   -3.2313833   -1.7369525  0.059759288   -3.2313833    1.4944308   406051 
 6302000   0.92029453   -3.2298866   -1.7371882  0.060165425   -3.2298866    1.4926985   406041 
 6303000   0.91988296   -3.2286647    -1.736597  0.060920381   -3.2286647    1.4920677   406031 
 6304000   0.92156481   -3.2308511   -1.7360186  0.057814686   -3.2308511    1.4948325   406021 
 6305000   0.92151374   -3.2313193   -1.7365328  0.062425052   -3.2313193    1.4947864   406011 
 6306000   0.92194911   -3.2308342   -1.7353048  0.061419447   -3.2308342    1.4955295   406001 
 6307000   0.92188696    -3.229662   -1.7341965  0.064402706    -3.229662    1.4954655   405991 
 6308000   0.92203237   -3.2294154   -1.7336772  0.064232978   -3.2294154    1.4957382   405981 
 6309000   0.92029375    -3.225789   -1.7328344  0.066517055    -3.225789    1.4929546   405971 
 6310000   0.92197355   -3.2284598   -1.7327433  0.060680076   -3.2284598    1.4957165   405961 
 6311000   0.92256096   -3.2298538   -1.7331475  0.059987776   -3.2298538    1.4967063   405951 
 6312000    0.9202773   -3.2257965   -1.7327583   0.06298142   -3.2257965    1.4930382   405941 
 6313000   0.92137128   -3.2267276   -1.7318777  0.060498756   -3.2267276    1.4948499   405931 
 6314000   0.92272304    -3.230753   -1.7336731  0.053823404    -3.230753    1.4970799   405921 
 6315000   0.92077792   -3.2272974   -1.7333366  0.060319462   -3.2272974    1.4939608   405911 
 6316000   0.92110678   -3.2272028   -1.7326716  0.053680578   -3.2272028    1.4945312   405901 
 6317000    0.9204052   -3.2249521   -1.7315225  0.055052764   -3.2249521    1.4934297   405891 
 6318000   0.92081502   -3.2257476   -1.7316162  0.057897944   -3.2257476    1.4941314   405881 
 6319000   0.91867278   -3.2226795   -1.7319873  0.062745887   -3.2226795    1.4906921   405871 
 6320000   0.91935652    -3.224641   -1.7328026  0.058367927    -3.224641    1.4918384   405861 
 6321000    0.9199478   -3.2249047   -1.7320701   0.05632882   -3.2249047    1.4928346   405851 
 6322000   0.91815012   -3.2231458   -1.7331916  0.053347172   -3.2231458    1.4899542   405841 
 6323000   0.91849293   -3.2227384   -1.7321912  0.061365945   -3.2227384    1.4905472   405831 
 6324000   0.91853536   -3.2215924   -1.7309397  0.058557576   -3.2215924    1.4906528   405821 
 6325000   0.91855444   -3.2209279   -1.7302074  0.058297284   -3.2209279    1.4907205   405811 
 6326000   0.91904942   -3.2219164   -1.7303559  0.059657922   -3.2219164    1.4915605   405801 
 6327000   0.91975757   -3.2237917   -1.7310451  0.058634396   -3.2237917    1.4927466   405791 
 6328000    0.9201032   -3.2233521   -1.7300077  0.061872615   -3.2233521    1.4933444   405781 
 6329000   0.92069987   -3.2242147   -1.7298651  0.061712678   -3.2242147    1.4943496   405771 
 6330000   0.91901657   -3.2213466   -1.7296924  0.058179899   -3.2213466    1.4916543   405761 
 6331000   0.91850584   -3.2215756   -1.7307136  0.055733704   -3.2215756     1.490862   405751 
 6332000   0.91971528   -3.2235275   -1.7306656  0.059994866   -3.2235275    1.4928619   405741 
 6333000   0.91739723   -3.2194739   -1.7303379  0.067022584   -3.2194739     1.489136   405731 
 6334000   0.91970737   -3.2232594   -1.7303367  0.059020445   -3.2232594    1.4929227   405721 
 6335000   0.91885403   -3.2223226   -1.7307484  0.056564592   -3.2223226    1.4915742   405711 
 6336000    0.9186356   -3.2210478   -1.7297914  0.059766055   -3.2210478    1.4912564   405701 
 6337000   0.92189671   -3.2253694   -1.7287822   0.05701792   -3.2253694    1.4965872   405691 
 6338000    0.9204183    -3.222926   -1.7287021  0.060183127    -3.222926     1.494224   405681 
 6339000   0.92113671   -3.2252849   -1.7298578  0.061578525   -3.2252849    1.4954272   405671 
 6340000   0.92077491   -3.2248548   -1.7299781   0.06273644   -3.2248548    1.4948766   405661 
 6341000   0.91918328   -3.2234979   -1.7311685  0.062683837   -3.2234979    1.4923294   405651 
 6342000   0.91995743   -3.2249411    -1.731318  0.061711005   -3.2249411    1.4936231   405641 
 6343000   0.92036791   -3.2276169   -1.7332905  0.058662574   -3.2276169    1.4943264   405631 
 6344000   0.91978162   -3.2273404   -1.7339291  0.063062459   -3.2273404    1.4934113   405621 
 6345000   0.91882062    -3.225148   -1.7332603   0.05757357    -3.225148    1.4918877   405611 
 6346000   0.91957505   -3.2269138   -1.7337643  0.063163631   -3.2269138    1.4931495   405601 
 6347000   0.91905204   -3.2254003   -1.7330632  0.057279394   -3.2254003    1.4923371   405591 
 6348000   0.91900381    -3.227606   -1.7353104  0.058803859    -3.227606    1.4922955   405581 
 6349000   0.91922634   -3.2272454   -1.7345517  0.059161413   -3.2272454    1.4926937   405571 
 6350000   0.91854737   -3.2265911   -1.7349632  0.058865557   -3.2265911    1.4916279   405561 
 6351000   0.92013164   -3.2298047   -1.7355672  0.057483798   -3.2298047    1.4942375   405551 
 6352000   0.91944325   -3.2277719   -1.7346155  0.060608536   -3.2277719    1.4931564   405541 
 6353000   0.91992373   -3.2296052   -1.7356317  0.063066366   -3.2296052    1.4939735   405531 
 6354000   0.92032934   -3.2286741    -1.734005    0.0587287   -3.2286741    1.4946691   405521 
 6355000   0.91915918    -3.226546   -1.7337406  0.058821848    -3.226546    1.4928055   405511 
 6356000   0.91933987   -3.2276048   -1.7344691  0.060709935   -3.2276048    1.4931358   405501 
 6357000   0.91976888   -3.2285728   -1.7347034  0.057219251   -3.2285728    1.4938694   405491 
 6358000   0.91837012   -3.2283019   -1.7366676  0.056479809   -3.2283019    1.4916343   405481 
 6359000   0.91871383   -3.2281821   -1.7359527  0.055382345   -3.2281821    1.4922294   405471 
 6360000   0.91765152   -3.2256889   -1.7351483  0.058637031   -3.2256889    1.4905407   405461 
 6361000   0.91804441   -3.2274676    -1.736252  0.056660855   -3.2274676    1.4912156   405451 
 6362000   0.91785945   -3.2285442   -1.7375922  0.053327355   -3.2285442     1.490952   405441 
 6363000   0.91911828   -3.2289042   -1.7358706  0.051145385   -3.2289042    1.4930336   405431 
 6364000   0.91767201   -3.2253192   -1.7345982   0.06358155   -3.2253192     1.490721   405421 
 6365000   0.91880966   -3.2276441   -1.7350382  0.060462437   -3.2276441    1.4926059   405411 
 6366000    0.9174275   -3.2267403   -1.7363429  0.054284067   -3.2267403    1.4903973   405401 
 6367000    0.9185535   -3.2262461   -1.7339827  0.058968091   -3.2262461    1.4922634   405391 
 6368000   0.91990195   -3.2282347   -1.7337437  0.058373669   -3.2282347    1.4944909   405381 
 6369000   0.91976829   -3.2258305   -1.7315199  0.059170457   -3.2258305    1.4943106   405371 
 6370000   0.91969707   -3.2267613   -1.7325295  0.058873872   -3.2267613    1.4942318   405361 
 6371000   0.91776256   -3.2253781   -1.7342526  0.064809966   -3.2253781    1.4911256   405351 
 6372000   0.91797139   -3.2253235   -1.7338219  0.058475521   -3.2253235    1.4915017   405341 
 6373000   0.91948346   -3.2267198   -1.7327245  0.058856325   -3.2267198    1.4939953   405331 
 6374000   0.91975565   -3.2259543   -1.7314799   0.06021697   -3.2259543    1.4944744   405321 
 6375000   0.92028459   -3.2277187   -1.7323479  0.059408807   -3.2277187    1.4953708   405311 
 6376000    0.9190459   -3.2245253   -1.7311304  0.063003171   -3.2245253    1.4933949   405301 
 6377000   0.91985762   -3.2249168    -1.730166  0.057514751   -3.2249168    1.4947508   405291 
 6378000   0.91964422   -3.2242596   -1.7298188  0.056128834   -3.2242596    1.4944409   405281 
 6379000   0.91911018   -3.2241429    -1.730533  0.058282941   -3.2241429    1.4936099   405271 
 6380000   0.91792839   -3.2231969   -1.7314707   0.05938817   -3.2231969    1.4917262   405261 
 6381000   0.91822294   -3.2230936   -1.7308519  0.059926286   -3.2230936    1.4922417   405251 
 6382000   0.91893631   -3.2236521   -1.7302142  0.058842155   -3.2236521    1.4934379   405241 
 6383000   0.91635708   -3.2203088   -1.7310259  0.062245754   -3.2203088    1.4892829   405231 
 6384000   0.91675806   -3.2194914     -1.72952  0.057672863   -3.2194914    1.4899714   405221 
 6385000   0.91760558   -3.2219241   -1.7305385  0.060270245   -3.2219241    1.4913856   405211 
 6386000   0.91818857   -3.2228382   -1.7304682  0.053722697   -3.2228382      1.49237   405201 
 6387000   0.91546495   -3.2181846   -1.7302047  0.055636203   -3.2181846    1.4879799   405191 
 6388000   0.91615742   -3.2202169   -1.7310747  0.056376881   -3.2202169    1.4891422   405181 
 6389000   0.91640778   -3.2207298   -1.7311439    0.0575269   -3.2207298    1.4895859   405171 
 6390000   0.91649088   -3.2204734   -1.7307156  0.058216167   -3.2204734    1.4897577   405161 
 6391000   0.91625439   -3.2206434   -1.7312333  0.055397046   -3.2206434    1.4894101   405151 
 6392000   0.91806532   -3.2226126   -1.7302219  0.059418374   -3.2226126    1.4923906   405141 
 6393000   0.91844902   -3.2222241   -1.7291729  0.060679114   -3.2222241    1.4930512   405131 
 6394000   0.91959142   -3.2230353     -1.72809  0.063160657   -3.2230353    1.4949452   405121 
 6395000   0.91788748    -3.221784    -1.729572  0.061866675    -3.221784    1.4922121   405111 
 6396000   0.91885717   -3.2237504   -1.7299251  0.060483497   -3.2237504    1.4938253   405101 
 6397000   0.91909437   -3.2234482   -1.7292003  0.058001776   -3.2234482    1.4942479   405091 
 6398000   0.91945771   -3.2237312   -1.7288557  0.065734628   -3.2237312    1.4948755   405081 
 6399000   0.91928081   -3.2230616   -1.7284368   0.06509059   -3.2230616    1.4946248   405071 
 6400000   0.91801861   -3.2233268   -1.7307174  0.057626404   -3.2233268    1.4926095   405061 
 6401000   0.91989032   -3.2254492   -1.7297596  0.059224149   -3.2254492    1.4956896   405051 
 6402000   0.91854146   -3.2229232   -1.7293899  0.058601884   -3.2229232    1.4935333   405041 
 6403000   0.91811975   -3.2245498   -1.7316654  0.061395111   -3.2245498    1.4928845   405031 
 6404000   0.91974691   -3.2282097   -1.7326425  0.059660933   -3.2282097    1.4955672   405021 
 6405000   0.91747096   -3.2242323   -1.7323291  0.056884202   -3.2242323    1.4919032   405011 
 6406000   0.91816424   -3.2252324    -1.732165  0.062782646   -3.2252324    1.4930674   405001 
 6407000   0.91765494   -3.2243076   -1.7320315  0.061948141   -3.2243076     1.492276   404991 
 6408000   0.91788879   -3.2262768   -1.7335836  0.059316052   -3.2262768    1.4926932   404981 
 6409000   0.91544878   -3.2213578   -1.7325958  0.059768488   -3.2213578    1.4887619   404971 
 6410000   0.91785649   -3.2253687   -1.7326543  0.059041517   -3.2253687    1.4927144   404961 
 6411000    0.9175454   -3.2249613    -1.732716  0.059065854   -3.2249613    1.4922453   404951 
 6412000   0.91775737   -3.2239274   -1.7313005  0.058802693   -3.2239274    1.4926269   404941 
 6413000   0.91726357    -3.224684   -1.7328234  0.059836946    -3.224684    1.4918606   404931 
 6414000   0.91868017   -3.2262194   -1.7320178    0.0566877   -3.2262194    1.4942015   404921 
 6415000   0.91864758   -3.2251528   -1.7309674  0.059137348   -3.2251528    1.4941854   404911 
 6416000   0.91682243   -3.2220568   -1.7308032  0.063431975   -3.2220568    1.4912536   404901 
 6417000   0.91743975   -3.2242291   -1.7319346  0.061804331   -3.2242291    1.4922946   404891 
 6418000   0.91632336   -3.2222071   -1.7316916  0.058883784   -3.2222071    1.4905155   404881 
 6419000   0.91783288   -3.2254664   -1.7324586  0.051311421   -3.2254664    1.4930078   404871 
 6420000   0.91817083   -3.2236063   -1.7300119  0.061278824   -3.2236063    1.4935944   404861 
 6421000   0.91621166   -3.2219582    -1.731514  0.058537443   -3.2219582    1.4904442   404851 
 6422000   0.91718162   -3.2231574   -1.7310985  0.058610723   -3.2231574     1.492059   404841 
 6423000   0.91660458   -3.2234464   -1.7322893  0.057926392   -3.2234464    1.4911571   404831 
 6424000   0.91846887    -3.224643   -1.7304161  0.053441864    -3.224643    1.4942269   404821 
 6425000   0.92084277   -3.2280677   -1.7299418  0.061481941   -3.2280677    1.4981259   404811 
 6426000   0.91866371   -3.2260501   -1.7314324  0.060674629   -3.2260501    1.4946177   404801 
 6427000   0.91788122   -3.2252895    -1.731908  0.060678825   -3.2252895    1.4933815   404791 
 6428000    0.9184654   -3.2261194   -1.7317506  0.061369985   -3.2261194    1.4943689   404781 
 6429000   0.91977254   -3.2261925   -1.7296599  0.056925566   -3.2261925    1.4965326   404771 
 6430000   0.91728679   -3.2233148   -1.7307898  0.060544512   -3.2233148     1.492525   404761 
 6431000   0.91750066   -3.2240072   -1.7310974   0.06146575   -3.2240072    1.4929099   404751 
 6432000   0.91681297    -3.223562   -1.7317342  0.055546552    -3.223562    1.4918278   404741 
 6433000   0.91865392   -3.2281079   -1.7332477  0.055225569   -3.2281079    1.4948603   404731 
 6434000   0.91794945   -3.2275318    -1.733781   0.05706641   -3.2275318    1.4937508   404721 
 6435000   0.91644244   -3.2252648   -1.7339294  0.058260159   -3.2252648    1.4913354   404711 
 6436000   0.91713135   -3.2255994   -1.7331061  0.057790316   -3.2255994    1.4924933   404701 
 6437000   0.91856875   -3.2281886   -1.7333192  0.058536879   -3.2281886    1.4948694   404691 
 6438000   0.91768179   -3.2262933   -1.7328304  0.061465248   -3.2262933    1.4934629   404681 
 6439000   0.91716321   -3.2257165   -1.7330607  0.058428281   -3.2257165    1.4926558   404671 
 6440000   0.91651919   -3.2262576   -1.7346131  0.058782361   -3.2262576    1.4916446   404661 
 6441000   0.91636546   -3.2262805   -1.7348493  0.056329815   -3.2262805    1.4914312   404651 
 6442000   0.91630817   -3.2258853   -1.7345105  0.056536419   -3.2258853    1.4913748   404641 
 6443000   0.91718086    -3.226228   -1.7333959  0.059169585    -3.226228    1.4928321   404631 
 6444000   0.91781704   -3.2279408   -1.7340363  0.058638465   -3.2279408    1.4939045   404621 
 6445000   0.91756687   -3.2281997   -1.7346656  0.058706541   -3.2281997    1.4935342   404611 
 6446000   0.91712389    -3.227531    -1.734681  0.057873458    -3.227531      1.49285   404601 
 6447000   0.91691763   -3.2267782    -1.734227  0.057481349   -3.2267782    1.4925512   404591 
 6448000   0.91867928   -3.2290021   -1.7335464  0.062515363   -3.2290021    1.4954558   404581 
 6449000   0.91975707    -3.228563   -1.7313158  0.064482313    -3.228563    1.4972472   404571 
 6450000   0.91752103   -3.2268911   -1.7332469  0.062604622   -3.2268911    1.4936442   404561 
 6451000   0.91734616   -3.2281655   -1.7347691  0.060686326   -3.2281655    1.4933964   404551 
 6452000    0.9179403   -3.2280479   -1.7336473  0.062150297   -3.2280479    1.4944006   404541 
 6453000   0.91698833   -3.2280758   -1.7351882  0.062867418   -3.2280758    1.4928877   404531 
 6454000   0.91621918   -3.2281583   -1.7364859  0.062558513   -3.2281583    1.4916723   404521 
 6455000   0.91701146   -3.2275174   -1.7345183  0.059388307   -3.2275174    1.4929991   404511 
 6456000   0.91747854   -3.2289865     -1.73519  0.057405161   -3.2289865    1.4937965   404501 
 6457000   0.91526826    -3.226138   -1.7359033   0.05956151    -3.226138    1.4902347   404491 
 6458000   0.91811485    -3.228517   -1.7336106  0.060108116    -3.228517    1.4949065   404481 
 6459000    0.9171239   -3.2285657   -1.7352359  0.057661962   -3.2285657    1.4933299   404471 
 6460000   0.91738661   -3.2290958   -1.7353012  0.059212693   -3.2290958    1.4937946   404461 
 6461000   0.91748828   -3.2283496   -1.7343525  0.058961593   -3.2283496    1.4939971   404451 
 6462000   0.91822167   -3.2281421   -1.7329138  0.059584945   -3.2281421    1.4952282   404441 
 6463000   0.91812213   -3.2281971    -1.733094  0.065635092   -3.2281971    1.4951031   404431 
 6464000    0.9181635   -3.2269296   -1.7317221   0.06139465   -3.2269296    1.4952075   404421 
 6465000   0.91845262   -3.2274852   -1.7317699  0.065078811   -3.2274852    1.4957153   404411 
 6466000   0.91813112   -3.2283734   -1.7331447  0.054642165   -3.2283734    1.4952287   404401 
 6467000   0.91719136   -3.2257348   -1.7319996  0.061730825   -3.2257348    1.4937352   404391 
 6468000   0.91796641    -3.227392   -1.7323576  0.065763488    -3.227392    1.4950344   404381 
 6469000   0.91676766   -3.2259955   -1.7328765   0.05768497   -3.2259955     1.493119   404371 
 6470000   0.91617603   -3.2238904   -1.7316981  0.060797765   -3.2238904    1.4921923   404361 
 6471000   0.91593301   -3.2226755   -1.7308421  0.058047223   -3.2226755    1.4918334   404351 
 6472000   0.91779697   -3.2257033    -1.730797   0.05578502   -3.2257033    1.4949063   404341 
 6473000   0.91745439   -3.2249597   -1.7305744  0.055528523   -3.2249597    1.4943853   404331 
 6474000   0.91577118   -3.2228182   -1.7311377  0.059315622   -3.2228182    1.4916805   404321 
 6475000   0.91449038   -3.2216367   -1.7320056  0.058027787   -3.2216367    1.4896311   404311 
 6476000   0.91723269   -3.2258076   -1.7316726  0.057825047   -3.2258076     1.494135   404301 
 6477000   0.91662427   -3.2243873   -1.7312065  0.058471989   -3.2243873    1.4931808   404291 
 6478000   0.91616701   -3.2234008   -1.7309279  0.056944238   -3.2234008    1.4924729   404281 
 6479000   0.91549934   -3.2230773   -1.7316552  0.060979533   -3.2230773    1.4914221   404271 
 6480000   0.91563305   -3.2222412   -1.7305644  0.057010203   -3.2222412    1.4916768   404261 
 6481000   0.91512244    -3.221603   -1.7307212  0.063474429    -3.221603    1.4908819   404251 
 6482000    0.9156801   -3.2227839   -1.7309566  0.059850115   -3.2227839    1.4918273   404241 
 6483000   0.91644779   -3.2235665   -1.7304515  0.060534597   -3.2235665    1.4931149   404231 
 6484000   0.91700753   -3.2250368   -1.7309729  0.060984286   -3.2250368    1.4940639   404221 
 6485000   0.91762508   -3.2263918   -1.7312848  0.060372007   -3.2263918     1.495107   404211 
 6486000   0.91782631   -3.2279509   -1.7324791   0.05814788   -3.2279509    1.4954719   404201 
 6487000   0.91703506   -3.2260076    -1.731788  0.061104909   -3.2260076    1.4942196   404191 
 6488000   0.91701721   -3.2248107   -1.7305832  0.054882276   -3.2248107    1.4942275   404181 
 6489000   0.91698895   -3.2241525    -1.729934  0.059597848   -3.2241525    1.4942184   404171 
 6490000   0.91753838    -3.226713   -1.7315623  0.061131726    -3.226713    1.4951507   404161 
 6491000   0.91754034   -3.2251775   -1.7299866  0.056166518   -3.2251775    1.4951909   404151 
 6492000   0.91670921   -3.2258985    -1.732025   0.05802901   -3.2258985    1.4938735   404141 
 6493000   0.91576498   -3.2238578   -1.7314861  0.061833167   -3.2238578    1.4923717   404131 
 6494000   0.91703655     -3.22748   -1.7329992  0.062385608     -3.22748    1.4944809   404121 
 6495000   0.91600429   -3.2261017   -1.7332661   0.05616718   -3.2261017    1.4928355   404111 
 6496000   0.91623285   -3.2255856   -1.7323406  0.062375697   -3.2255856     1.493245   404101 
 6497000   0.91637529   -3.2274728   -1.7339587  0.060195244   -3.2274728    1.4935141   404091 
 6498000   0.91640641    -3.226848   -1.7332462  0.057722193    -3.226848    1.4936018   404081 
 6499000   0.91486498   -3.2266842   -1.7355579  0.057929253   -3.2266842    1.4911264   404071 
 6500000   0.91594846   -3.2278561   -1.7349268  0.056042959   -3.2278561    1.4929293   404061 
 6501000   0.91626815   -3.2282503    -1.734763   0.05900809   -3.2282503    1.4934873   404051 
 6502000   0.91599283   -3.2295843   -1.7365088  0.061188272   -3.2295843    1.4930755   404041 
 6503000   0.91740855   -3.2292475   -1.7338274  0.058588793   -3.2292475    1.4954201   404031 
 6504000   0.91605228   -3.2298505   -1.7366042  0.056703549   -3.2298505    1.4932463   404021 
 6505000   0.91501546   -3.2279085   -1.7363153  0.057941776   -3.2279085    1.4915931   404011 
 6506000   0.91682933   -3.2304193   -1.7358323  0.050498761   -3.2304193     1.494587   404001 
 6507000   0.91616349   -3.2296307   -1.7360922  0.065076087   -3.2296307    1.4935385   403991 
 6508000   0.91671466    -3.230552    -1.736078  0.063897195    -3.230552     1.494474   403981 
 6509000   0.91742253    -3.232326    -1.736661  0.059200439    -3.232326     1.495665   403971 
 6510000   0.91753009   -3.2328818   -1.7370043  0.060783678   -3.2328818    1.4958774   403961 
 6511000   0.91697333   -3.2325089   -1.7375021  0.061286107   -3.2325089    1.4950067   403951 
 6512000   0.91493626   -3.2293467   -1.7376243  0.060263299   -3.2293467    1.4917225   403941 
 6513000   0.91580794   -3.2310812   -1.7379006  0.060891441   -3.2310812    1.4931806   403931 
 6514000   0.91625002   -3.2319216   -1.7379831  0.055777114   -3.2319216    1.4939384   403921 
 6515000   0.91681476   -3.2315208   -1.7366245  0.058482464   -3.2315208    1.4948962   403911 
 6516000   0.91541437   -3.2303923   -1.7377425  0.059735291   -3.2303923    1.4926498   403901 
 6517000   0.91579136   -3.2319855    -1.738684  0.060014769   -3.2319855    1.4933015   403891 
 6518000   0.91601589    -3.232451   -1.7387464  0.055756693    -3.232451    1.4937046   403881 
 6519000   0.91716132    -3.232199   -1.7365896  0.056146267    -3.232199    1.4956094   403871 
 6520000   0.91635973   -3.2289037   -1.7345644  0.068324224   -3.2289037    1.4943393   403861 
 6521000   0.91575493   -3.2287531   -1.7353632  0.058216524   -3.2287531      1.49339   403851 
 6522000   0.91655553   -3.2293408   -1.7346082  0.059820868   -3.2293408    1.4947326   403841 
 6523000   0.91564329   -3.2289687   -1.7356868  0.060428013   -3.2289687    1.4932819   403831 
 6524000   0.91604305   -3.2290849   -1.7351141  0.064259815   -3.2290849    1.4939708   403821 
 6525000   0.91566315   -3.2284459   -1.7350577  0.062377862   -3.2284459    1.4933882   403811 
 6526000   0.91573101    -3.227056   -1.7335201  0.061072066    -3.227056    1.4935359   403801 
 6527000    0.9163791   -3.2277817   -1.7331518  0.056846351   -3.2277817    1.4946299   403791 
 6528000   0.91478368   -3.2258772   -1.7338124  0.060822357   -3.2258772    1.4920647   403781 
 6529000   0.91378715   -3.2241384   -1.7336622  0.057055338   -3.2241384    1.4904762   403771 
 6530000   0.91372471   -3.2238258   -1.7334145  0.059411968   -3.2238258    1.4904113   403761 
 6531000   0.91421716   -3.2259868   -1.7347354  0.058018859   -3.2259868    1.4912515   403751 
 6532000   0.91353259   -3.2241853   -1.7340136  0.061375527   -3.2241853    1.4901717   403741 
 6533000   0.91434206   -3.2256805   -1.7341514  0.052765991   -3.2256805    1.4915291   403731 
 6534000   0.91281282   -3.2235596   -1.7344882  0.054907426   -3.2235596    1.4890714   403721 
 6535000   0.91379383   -3.2249081   -1.7341994  0.057857014   -3.2249081    1.4907086   403711 
 6536000   0.91370734   -3.2246968   -1.7340923  0.056784777   -3.2246968    1.4906045   403701 
 6537000   0.91401021    -3.225715   -1.7345795  0.055792466    -3.225715    1.4911355   403691 
 6538000   0.91490094   -3.2256626   -1.7330369  0.061395107   -3.2256626    1.4926256   403681 
 6539000   0.91640191   -3.2274734    -1.732362  0.060304904   -3.2274734    1.4951114   403671 
 6540000   0.91445668   -3.2249107    -1.732936  0.059588452   -3.2249107    1.4919748   403661 
 6541000    0.9144713   -3.2243221   -1.7322865  0.060413013   -3.2243221    1.4920356   403651 
 6542000   0.91621046   -3.2259864   -1.7310762  0.055824162   -3.2259864    1.4949102   403641 
 6543000   0.91710396   -3.2275026   -1.7310975  0.061197881   -3.2275026    1.4964051   403631 
 6544000   0.91551507   -3.2268794   -1.7330298  0.064517989   -3.2268794    1.4938496   403621 
 6545000   0.91602956   -3.2282477   -1.7335216  0.064268841   -3.2282477    1.4947261   403611 
 6546000   0.91666863   -3.2288283   -1.7330223  0.064416008   -3.2288283     1.495806   403601 
 6547000   0.91576882   -3.2273086   -1.7329339  0.063255317   -3.2273086    1.4943747   403591 
 6548000   0.91353036   -3.2257807   -1.7350218  0.059574548   -3.2257807    1.4907589   403581 
 6549000   0.91518559   -3.2296811   -1.7361841  0.057093552   -3.2296811     1.493497   403571 
 6550000   0.91474272   -3.2285242   -1.7357129  0.055080872   -3.2285242    1.4928113   403561 
 6551000     0.913075   -3.2264995    -1.736373  0.062586896   -3.2264995    1.4901266   403551 
 6552000   0.91426093   -3.2285916   -1.7364926  0.056128519   -3.2285916     1.492099   403541 
 6553000   0.91310861   -3.2279456   -1.7376904  0.058415884   -3.2279456    1.4902553   403531 
 6554000   0.91394951   -3.2279951   -1.7363304  0.064071848   -3.2279951    1.4916646   403521 
 6555000   0.91489141   -3.2286821   -1.7354432  0.059445231   -3.2286821    1.4932389   403511 
 6556000    0.9152307   -3.2296143   -1.7357846  0.060353437   -3.2296143    1.4938297   403501 
 6557000   0.91630263   -3.2317086   -1.7360922  0.057632427   -3.2317086    1.4956164   403491 
 6558000   0.91726835   -3.2327112   -1.7354814  0.060933775   -3.2327112    1.4972298   403481 
 6559000   0.91721556   -3.2314988   -1.7343181  0.057249736   -3.2314988    1.4971807   403471 
 6560000   0.91595768   -3.2305373   -1.7353728  0.064088802   -3.2305373    1.4951645   403461 
 6561000   0.91417385   -3.2288698   -1.7365801  0.055441496   -3.2288698    1.4922897   403451 
 6562000   0.91554409   -3.2301815    -1.735618  0.058753074   -3.2301815    1.4945635   403441 
 6563000   0.91481501   -3.2282008   -1.7347905  0.057005574   -3.2282008    1.4934103   403431 
 6564000   0.91375215   -3.2285461   -1.7368339  0.056166077   -3.2285461    1.4917122   403421 
 6565000   0.91437761    -3.229496   -1.7367257  0.053572311    -3.229496    1.4927703   403411 
 6566000   0.91489749   -3.2304237   -1.7367677  0.061280438   -3.2304237     1.493656   403401 
 6567000   0.91426726   -3.2275678   -1.7349037  0.057559698   -3.2275678    1.4926641   403391 
 6568000   0.91472215   -3.2293448    -1.735901  0.058740515   -3.2293448    1.4934438   403381 
 6569000   0.91464972   -3.2287426   -1.7353801  0.059937845   -3.2287426    1.4933626   403371 
 6570000   0.91459622   -3.2289252   -1.7356129  0.060534908   -3.2289252    1.4933122   403361 
 6571000   0.91465052   -3.2283842   -1.7349463  0.059234911   -3.2283842    1.4934379   403351 
 6572000   0.91422372   -3.2274217   -1.7346437  0.056005065   -3.2274217    1.4927781   403341 
 6573000   0.91486228   -3.2276231   -1.7337653  0.058090957   -3.2276231    1.4938578   403331 
 6574000    0.9141546   -3.2247774   -1.7320382  0.058294611   -3.2247774    1.4927392   403321 
 6575000   0.91296405   -3.2241655   -1.7333334  0.059266124   -3.2241655    1.4908321   403311 
 6576000   0.91306784   -3.2266412   -1.7356026  0.061159615   -3.2266412    1.4910386   403301 
 6577000    0.9127644   -3.2262812   -1.7357012  0.057693536   -3.2262812      1.49058   403291 
 6578000   0.91369138   -3.2264399   -1.7343091  0.051807442   -3.2264399    1.4921308   403281 
 6579000   0.91289315   -3.2252718   -1.7344075  0.056579853   -3.2252718    1.4908642   403271 
 6580000   0.91397721   -3.2257891   -1.7331174  0.054010875   -3.2257891    1.4926716   403261 
 6581000   0.91329293   -3.2225387   -1.7309476  0.061070211   -3.2225387    1.4915911   403251 
 6582000   0.91382639   -3.2239472   -1.7314479  0.057188794   -3.2239472    1.4924993   403241 
 6583000   0.91500658   -3.2262153   -1.7317514  0.061201848   -3.2262153    1.4944639   403231 
 6584000   0.91442562   -3.2270055   -1.7334534  0.054969902   -3.2270055    1.4935521   403221 
 6585000    0.9152771   -3.2263656   -1.7313857  0.060767464   -3.2263656    1.4949799   403211 
 6586000   0.91409863    -3.223917   -1.7308249  0.066594145    -3.223917    1.4930921   403201 
 6587000   0.91466646     -3.22578   -1.7317233  0.056110615     -3.22578    1.4940566   403191 
 6588000   0.91300501   -3.2256055   -1.7342258  0.058926209   -3.2256055    1.4913797   403181 
 6589000   0.91408738   -3.2270515   -1.7338667    0.0562761   -3.2270515    1.4931848   403171 
 6590000   0.91346216   -3.2270687   -1.7348682  0.058153083   -3.2270687    1.4922005   403161 
 6591000   0.91431385   -3.2265694   -1.7329405  0.060031243   -3.2265694    1.4936288   403151 
 6592000   0.91358127   -3.2258549   -1.7333858  0.061649765   -3.2258549    1.4924691   403141 
 6593000   0.91418891   -3.2270628    -1.733564  0.062464334   -3.2270628    1.4934988   403131 
 6594000   0.91388357   -3.2256879   -1.7326509  0.057371017   -3.2256879     1.493037   403121 
 6595000   0.91386005   -3.2264503   -1.7334147  0.058753198   -3.2264503    1.4930356   403111 
 6596000   0.91424821   -3.2273145   -1.7336077  0.061515907   -3.2273145    1.4937069   403101 
 6597000   0.91444372   -3.2282328   -1.7341694  0.061560782   -3.2282328    1.4940634   403091 
 6598000   0.91203345   -3.2254559   -1.7352936  0.058801674   -3.2254559    1.4901623   403081 
 6599000   0.91299026   -3.2274975   -1.7357349  0.057433499   -3.2274975    1.4917626   403071 
 6600000   0.91267089   -3.2261031   -1.7348253  0.051143554   -3.2261031    1.4912778   403061 
 6601000    0.9117122   -3.2263319   -1.7365836  0.056097474   -3.2263319    1.4897483   403051 
 6602000   0.91226686   -3.2263318   -1.7356402  0.055767934   -3.2263318    1.4906916   403041 
 6603000   0.91152263    -3.226555   -1.7370425  0.055361489    -3.226555    1.4895124   403031 
 6604000   0.91216133   -3.2263108   -1.7357177  0.057703754   -3.2263108    1.4905931   403021 
 6605000   0.91198561   -3.2279573   -1.7376143  0.055163132   -3.2279573     1.490343   403011 
 6606000   0.91216699   -3.2273725   -1.7366961   0.06000463   -3.2273725    1.4906764   403001 
 6607000   0.91198331   -3.2278182    -1.737405   0.05633064   -3.2278182    1.4904131   402991 
 6608000   0.91197222   -3.2282705   -1.7378385  0.057588437   -3.2282705     1.490432   402981 
 6609000   0.91408343   -3.2328076   -1.7388882   0.05358762   -3.2328076    1.4939194   402971 
 6610000   0.91071157   -3.2268316    -1.738386  0.060849915   -3.2268316    1.4884456   402961 
 6611000   0.91251038   -3.2286553   -1.7372328  0.060027674   -3.2286553    1.4914226   402951 
 6612000   0.91525481   -3.2329619   -1.7370167  0.055610054   -3.2329619    1.4959452   402941 
 6613000   0.91321428   -3.2302215   -1.7375744  0.060834192   -3.2302215    1.4926471   402931 
 6614000   0.91321711   -3.2315341   -1.7388453   0.06181114   -3.2315341    1.4926888   402921 
 6615000   0.91413927   -3.2315813   -1.7373481   0.06708348   -3.2315813    1.4942332   402911 
 6616000   0.91557817   -3.2336367   -1.7370144  0.062479393   -3.2336367    1.4966223   402901 
 6617000   0.91512815   -3.2338773   -1.7379535  0.059887623   -3.2338773    1.4959238   402891 
 6618000   0.91444668   -3.2334935   -1.7386466  0.062839596   -3.2334935     1.494847   402881 
 6619000   0.91375155   -3.2316263   -1.7378786  0.063857919   -3.2316263    1.4937477   402871 
 6620000   0.91349345   -3.2318776   -1.7385147  0.066685994   -3.2318776    1.4933628   402861 
 6621000   0.91252921   -3.2318889   -1.7400653  0.060604402   -3.2318889    1.4918236   402851 
 6622000   0.91351308   -3.2308534   -1.7373844  0.063741209   -3.2308534    1.4934691   402841 
 6623000   0.91273653   -3.2313689   -1.7391323  0.057210395   -3.2313689    1.4922366   402831 
 6624000   0.91166278   -3.2301187   -1.7396006  0.062298725   -3.2301187    1.4905181   402821 
 6625000   0.91398707   -3.2325998   -1.7382446  0.059219158   -3.2325998    1.4943553   402811 
 6626000   0.91397756   -3.2308061   -1.7364293  0.060905199   -3.2308061    1.4943768   402801 
 6627000   0.91365022   -3.2295196   -1.7356409  0.066089269   -3.2295196    1.4938787   402791 
 6628000   0.91396767   -3.2309681   -1.7365332  0.060969921   -3.2309681    1.4944349   402781 
 6629000   0.91355961   -3.2305329   -1.7367281  0.059854262   -3.2305329    1.4938047   402771 
 6630000   0.91317439   -3.2300692   -1.7368573   0.05719192   -3.2300692    1.4932119   402761 
 6631000   0.91199084   -3.2286291   -1.7373155  0.064393649   -3.2286291    1.4913136   402751 
 6632000   0.91302097   -3.2305141   -1.7374789  0.058799033   -3.2305141    1.4930352   402741 
 6633000   0.91356474   -3.2298976   -1.7359362  0.060249784   -3.2298976    1.4939615   402731 
 6634000   0.91215647   -3.2274613   -1.7357657  0.060518484   -3.2274613    1.4916956   402721 
 6635000    0.9128427   -3.2292459   -1.7363911  0.067061964   -3.2292459    1.4928549   402711 
 6636000    0.9130981   -3.2292725   -1.7359628  0.054910151   -3.2292725    1.4933096   402701 
 6637000   0.91276189   -3.2288193   -1.7360225  0.057693704   -3.2288193    1.4927968   402691 
 6638000   0.91184539   -3.2274973   -1.7361623  0.058970366   -3.2274973     1.491335   402681 
 6639000    0.9132717   -3.2285414   -1.7348366  0.064836958   -3.2285414    1.4937048   402671 
 6640000    0.9123578   -3.2285369   -1.7362897   0.06247419   -3.2285369    1.4922471   402661 
 6641000   0.91254674   -3.2278965   -1.7353033  0.059249434   -3.2278965    1.4925932   402651 
 6642000   0.91179179   -3.2281407   -1.7367453  0.056353597   -3.2281407    1.4913955   402641 
 6643000   0.91125672   -3.2261813   -1.7356241  0.060665958   -3.2261813    1.4905573   402631 
 6644000   0.91253972    -3.227457   -1.7347641  0.061146995    -3.227457     1.492693   402621 
 6645000   0.91269093   -3.2262588   -1.7332815  0.062523825   -3.2262588    1.4929774   402611 
 6646000    0.9130039   -3.2263347   -1.7328083  0.060276786   -3.2263347    1.4935264   402601 
 6647000     0.913449   -3.2268027    -1.732511  0.059127228   -3.2268027    1.4942917   402591 
 6648000   0.91540694   -3.2295693   -1.7320375  0.056424056   -3.2295693    1.4975318   402581 
 6649000   0.91289512   -3.2263349   -1.7328751  0.061396269   -3.2263349    1.4934598   402571 
 6650000   0.91236342   -3.2270064   -1.7343794  0.056081564   -3.2270064     1.492627   402561 
 6651000   0.91078605   -3.2253392   -1.7352558  0.062599491   -3.2253392    1.4900835   402551 
 6652000   0.91202695   -3.2281192   -1.7359686  0.061647569   -3.2281192    1.4921507   402541 
 6653000   0.91080815   -3.2262038   -1.7360102  0.051489641   -3.2262038    1.4901936   402531 
 6654000   0.91056204   -3.2264072   -1.7365792   0.05530794   -3.2264072     1.489828   402521 
 6655000   0.91023406   -3.2254808   -1.7361525  0.051176692   -3.2254808    1.4893284   402511 
 6656000     0.912359   -3.2276188   -1.7347765  0.053298231   -3.2276188    1.4928423   402501 
 6657000   0.91144991   -3.2266195   -1.7352277  0.057462694   -3.2266195    1.4913918   402491 
 6658000   0.91239963   -3.2271327   -1.7341497  0.058910956   -3.2271327     1.492983   402481 
 6659000   0.91255816    -3.228809   -1.7355295  0.061332637    -3.228809    1.4932795   402471 
 6660000   0.91264039   -3.2293988   -1.7359477  0.063259988   -3.2293988    1.4934511   402461 
 6661000   0.91320128   -3.2305189   -1.7361127  0.058410562   -3.2305189    1.4944061   402451 
 6662000   0.91131514   -3.2266064   -1.7352498  0.062417897   -3.2266064    1.4913566   402441 
 6663000    0.9119256   -3.2270033   -1.7346106  0.059915846   -3.2270033    1.4923927   402431 
 6664000   0.91225957   -3.2286355   -1.7356592  0.061883136   -3.2286355    1.4929763   402421 
 6665000   0.91225524   -3.2294752   -1.7364689  0.064393578   -3.2294752    1.4930064   402411 
 6666000   0.91205762   -3.2287397   -1.7360197  0.058592622   -3.2287397      1.49272   402401 
 6667000   0.91261149   -3.2292584   -1.7355947  0.060549975   -3.2292584    1.4936636   402391 
 6668000   0.91212558   -3.2288512   -1.7359458  0.064312285   -3.2288512    1.4929054   402381 
 6669000   0.91223864   -3.2297675   -1.7366399  0.058776016   -3.2297675    1.4931276   402371 
 6670000   0.91132904   -3.2297001   -1.7380242  0.058202748   -3.2297001    1.4916759   402361 
 6671000   0.91228577   -3.2292704   -1.7359915  0.059339908   -3.2292704     1.493279   402351 
 6672000   0.91111075   -3.2281321   -1.7367394  0.061667035   -3.2281321    1.4913927   402341 
 6673000   0.91415797   -3.2317788   -1.7353609  0.062855754   -3.2317788    1.4964179   402331 
 6674000   0.91216285   -3.2294252   -1.7362361  0.061797996   -3.2294252    1.4931891   402321 
 6675000   0.91138799   -3.2290687   -1.7371109  0.059881431   -3.2290687    1.4919578   402311 
 6676000   0.91132677   -3.2291858   -1.7372912  0.060831468   -3.2291858    1.4918946   402301 
 6677000   0.91193944   -3.2303209   -1.7373862  0.058382605   -3.2303209    1.4929347   402291 
 6678000   0.90983272   -3.2256648   -1.7361419  0.063907792   -3.2256648    1.4895228   402281 
 6679000   0.91159641   -3.2285617   -1.7361144  0.060298708   -3.2285617    1.4924473   402271 
 6680000   0.91074207   -3.2271915   -1.7361058  0.056700687   -3.2271915    1.4910857   402261 
 6681000   0.91033218   -3.2274612   -1.7370096  0.057782684   -3.2274612    1.4904517   402251 
 6682000   0.91096922   -3.2282101   -1.7366783  0.057658708   -3.2282101    1.4915317   402241 
 6683000   0.91109974   -3.2273602   -1.7355777  0.057323205   -3.2273602    1.4917825   402231 
 6684000    0.9104317   -3.2259262   -1.7352004  0.059684219   -3.2259262    1.4907258   402221 
 6685000   0.91099813   -3.2265763    -1.734886  0.055125443   -3.2265763    1.4916903   402211 
 6686000   0.90923483   -3.2228601     -1.73402  0.058153208   -3.2228601    1.4888401   402201 
 6687000   0.91075471   -3.2265551   -1.7351892  0.053670302   -3.2265551    1.4913659   402191 
 6688000   0.91000281   -3.2253766   -1.7352049  0.055262906   -3.2253766    1.4901717   402181 
 6689000   0.91010026   -3.2257782   -1.7354098    0.0545962   -3.2257782    1.4903684   402171 
 6690000   0.90921097   -3.2250709   -1.7361218  0.057402879   -3.2250709    1.4889491   402161 
 6691000   0.91077745   -3.2265182   -1.7349667  0.052575305   -3.2265182    1.4915515   402151 
 6692000   0.90987291   -3.2253665   -1.7352593  0.058356542   -3.2253665    1.4901072   402141 
 6693000   0.91227927   -3.2273602   -1.7332749   0.05514347   -3.2273602    1.4940853   402131 
 6694000   0.91097808   -3.2251302   -1.7331389  0.064454047   -3.2251302    1.4919913   402121 
 6695000     0.912488   -3.2272677   -1.7327662  0.058874555   -3.2272677    1.4945014   402111 
 6696000   0.91143511   -3.2250802   -1.7322661  0.057191629   -3.2250802    1.4928141   402101 
 6697000   0.91226341   -3.2271208   -1.7329129  0.059793555   -3.2271208    1.4942079   402091 
 6698000   0.91178609   -3.2255318   -1.7320685  0.059288649   -3.2255318    1.4934633   402081 
 6699000   0.91183681    -3.226535   -1.7329515  0.060040344    -3.226535    1.4935835   402071 
 6700000   0.91327557   -3.2287983   -1.7328209  0.065459057   -3.2287983    1.4959774   402061 
 6701000   0.91166584   -3.2272021   -1.7338243  0.064656395   -3.2272021    1.4933777   402051 
 6702000   0.91241597   -3.2266576   -1.7320139  0.061830106   -3.2266576    1.4946437   402041 
 6703000    0.9132065    -3.228349   -1.7323731   0.05973158    -3.228349    1.4959759   402031 
 6704000   0.91304735   -3.2278011   -1.7320488  0.060543281   -3.2278011    1.4957523   402021 
 6705000   0.91170373   -3.2270589   -1.7334705  0.059812284   -3.2270589    1.4935884   402011 
 6706000    0.9105916   -3.2255195   -1.7337159  0.056048294   -3.2255195    1.4918036   402001 
 6707000   0.91084076   -3.2262309    -1.733982  0.061953026   -3.2262309    1.4922489   401991 
 6708000   0.91122173   -3.2279864   -1.7350762  0.061048684   -3.2279864    1.4929102   401981 
 6709000   0.91047975   -3.2273268   -1.7355951  0.057096865   -3.2273268    1.4917316   401971 
 6710000    0.9108229   -3.2270389   -1.7347079  0.057409925   -3.2270389     1.492331   401961 
 6711000   0.90956741   -3.2257525   -1.7354414   0.05606464   -3.2257525     1.490311   401951 
 6712000   0.90879877   -3.2253005   -1.7362118  0.054575881   -3.2253005    1.4890887   401941 
 6713000    0.9092859   -3.2266642   -1.7367404  0.057161309   -3.2266642    1.4899239   401931 
 6714000   0.90793161   -3.2254756   -1.7377338  0.057021792   -3.2254756    1.4877418   401921 
 6715000   0.90791138   -3.2255642   -1.7378185  0.055161284   -3.2255642    1.4877457   401911 
 6716000   0.91030267   -3.2287628   -1.7370615  0.059370864   -3.2287628    1.4917013   401901 
 6717000   0.91075082   -3.2278162   -1.7353434  0.050708377   -3.2278162    1.4924728   401891 
 6718000   0.91005507   -3.2266088   -1.7352391   0.05811409   -3.2266088    1.4913698   401881 
 6719000   0.91054581   -3.2292943   -1.7370832  0.061285774   -3.2292943    1.4922111   401871 
 6720000   0.91221193   -3.2313422   -1.7363634  0.057421912   -3.2313422    1.4949788   401861 
 6721000   0.90986485   -3.2276603    -1.736491  0.060705895   -3.2276603    1.4911693   401851 
 6722000   0.91025895   -3.2279386   -1.7360863  0.055703448   -3.2279386    1.4918523   401841 
 6723000   0.90946222   -3.2266167   -1.7360331  0.056650269   -3.2266167    1.4905837   401831 
 6724000    0.9099204   -3.2280703   -1.7366985  0.057594861   -3.2280703    1.4913717   401821 
 6725000   0.91164367   -3.2293321   -1.7350987  0.056053967   -3.2293321    1.4942334   401811 
 6726000   0.91234673   -3.2318299   -1.7364069  0.055862641   -3.2318299    1.4954229   401801 
 6727000   0.91162036   -3.2313984   -1.7371289  0.059704592   -3.2313984    1.4942695   401791 
 6728000   0.91116546   -3.2304927   -1.7369316  0.058552702   -3.2304927    1.4935611   401781 
 6729000   0.91193439    -3.229442   -1.7345833  0.060467695    -3.229442    1.4948587   401771 
 6730000   0.91134095   -3.2284405   -1.7345174  0.060752333   -3.2284405    1.4939231   401761 
 6731000   0.90983222   -3.2275001    -1.736013   0.05886615   -3.2275001     1.491487   401751 
 6732000   0.91046034   -3.2284458   -1.7358919  0.058117106   -3.2284458    1.4925538   401741 
 6733000   0.90935267   -3.2266819   -1.7359068  0.062072053   -3.2266819    1.4907751   401731 
 6734000   0.91132486   -3.2287928   -1.7347473  0.059983835   -3.2287928    1.4940455   401721 
 6735000   0.90957721   -3.2253865   -1.7341691  0.056149682   -3.2253865    1.4912175   401711 
 6736000   0.90987905   -3.2270714    -1.735322  0.055634421   -3.2270714    1.4917494   401701 
 6737000   0.90958551   -3.2237319   -1.7324266  0.055700247   -3.2237319    1.4913053   401691 
 6738000   0.91067184   -3.2266706   -1.7335471  0.058739604   -3.2266706    1.4931236   401681 
 6739000   0.91113622   -3.2276177   -1.7336956  0.054603294   -3.2276177    1.4939221   401671 
 6740000   0.90970979   -3.2249102   -1.7332898  0.055370881   -3.2249102    1.4916205   401661 
 6741000    0.9089494   -3.2237465   -1.7333357  0.056193982   -3.2237465    1.4904108   401651 
 6742000   0.90897763   -3.2242058   -1.7337116  0.058553012   -3.2242058    1.4904942   401641 
 6743000   0.91028534   -3.2247525   -1.7320768   0.05713827   -3.2247525    1.4926757   401631 
 6744000   0.90935058   -3.2241237   -1.7329437  0.052989509   -3.2241237      1.49118   401621 
 6745000   0.91020869   -3.2253263    -1.732702  0.051828531   -3.2253263    1.4926243   401611 
 6746000   0.91024619   -3.2244669    -1.731744   0.06002489   -3.2244669     1.492723   401601 
 6747000   0.90918174   -3.2224905    -1.731476  0.057329101   -3.2224905    1.4910145   401591 
 6748000   0.91061732   -3.2234824   -1.7300764  0.055309238   -3.2234824     1.493406   401581 
 6749000   0.90976826   -3.2232671   -1.7312164  0.057498501   -3.2232671    1.4920507   401571 
 6750000   0.90950099   -3.2228773   -1.7312278  0.055354833   -3.2228773    1.4916495   401561 
 6751000   0.90769795   -3.2211926   -1.7324632  0.060852922   -3.2211926    1.4887294   401551 
 6752000   0.90908798   -3.2230015   -1.7319551  0.059600356   -3.2230015    1.4910464   401541 
 6753000     0.909369   -3.2240043   -1.7324599   0.05612086   -3.2240043    1.4915444   401531 
 6754000    0.9089748    -3.223441    -1.732506  0.056599223    -3.223441     1.490935   401521 
 6755000   0.90865984   -3.2218903   -1.7314348  0.058601476   -3.2218903    1.4904555   401511 
 6756000    0.9083919   -3.2226311   -1.7325779  0.059531438   -3.2226311    1.4900531   401501 
 6757000   0.90894367   -3.2230979   -1.7321026  0.056375842   -3.2230979    1.4909954   401491 
 6758000   0.90901712   -3.2239526   -1.7327996  0.054279503   -3.2239526     1.491153   401481 
 6759000   0.90880838    -3.224577   -1.7337293  0.058540052    -3.224577    1.4908477   401471 
 6760000   0.90889586   -3.2229617   -1.7319334  0.055421621   -3.2229617    1.4910283   401461 
 6761000   0.90874581   -3.2228399   -1.7320206  0.062509587   -3.2228399    1.4908193   401451 
 6762000   0.90856198   -3.2232174   -1.7326625  0.059119093   -3.2232174    1.4905549   401441 
 6763000   0.90919518   -3.2258955   -1.7342646  0.055660154   -3.2258955    1.4916308   401431 
 6764000    0.9085039   -3.2252258    -1.734692  0.056948733   -3.2252258    1.4905338   401421 
 6765000   0.90886718   -3.2257006   -1.7345336  0.052171207   -3.2257006     1.491167   401411 
 6766000   0.91012867   -3.2280101   -1.7347362  0.053423563   -3.2280101    1.4932739   401401 
 6767000   0.90951603    -3.227242   -1.7349361  0.057404094    -3.227242    1.4923059   401391 
 6768000   0.90748244   -3.2240327   -1.7350264  0.060223698   -3.2240327    1.4890063   401381 
 6769000   0.90885092   -3.2261392   -1.7348503   0.05723689   -3.2261392    1.4912889   401371 
 6770000   0.90789159   -3.2246405   -1.7348885  0.055997073   -3.2246405    1.4897519   401361 
 6771000   0.90913948   -3.2259119   -1.7340751  0.054112957   -3.2259119    1.4918368   401351 
 6772000   0.90783989   -3.2248878   -1.7351465  0.057445484   -3.2248878    1.4897413   401341 
 6773000   0.90772322   -3.2256691   -1.7360821  0.053804433   -3.2256691     1.489587   401331 
 6774000    0.9074046    -3.225224   -1.7361228  0.057030193    -3.225224    1.4891012   401321 
 6775000   0.90773459   -3.2266012   -1.7369214  0.057639853   -3.2266012    1.4896799   401311 
 6776000   0.90804639   -3.2284019   -1.7381732    0.0563629   -3.2284019    1.4902287   401301 
 6777000   0.90713167   -3.2270899   -1.7383253  0.056553827   -3.2270899    1.4887646   401291 
 6778000   0.90825952    -3.227396   -1.7367432  0.059342565    -3.227396    1.4906528   401281 
 6779000   0.90846338    -3.228875   -1.7378505  0.058005952    -3.228875    1.4910245   401271 
 6780000   0.90979093   -3.2298119   -1.7365713  0.058975476   -3.2298119    1.4932406   401261 
 6781000   0.90935554   -3.2296678   -1.7371046  0.060562903   -3.2296678    1.4925632   401251 
 6782000   0.91056888   -3.2305032   -1.7359113  0.063952602   -3.2305032    1.4945919   401241 
 6783000   0.90970552   -3.2288925   -1.7356805  0.054721694   -3.2288925     1.493212   401231 
 6784000   0.91045045   -3.2303348   -1.7358628  0.062917332   -3.2303348     1.494472   401221 
 6785000   0.90933836   -3.2301436   -1.7374599  0.062798168   -3.2301436    1.4926838   401211 
 6786000   0.90815432   -3.2293201   -1.7385428  0.056937438   -3.2293201    1.4907773   401201 
 6787000   0.90953347   -3.2315514   -1.7384729  0.057845662   -3.2315514    1.4930785   401191 
 6788000   0.90810227   -3.2291015   -1.7383353  0.058758741   -3.2291015    1.4907662   401181 
 6789000   0.90798669   -3.2275027   -1.7368891  0.063132736   -3.2275027    1.4906136   401171 
 6790000   0.90799108   -3.2268123   -1.7361543   0.05970537   -3.2268123     1.490658   401161 
 6791000   0.90853396   -3.2279276   -1.7363412  0.058158112   -3.2279276    1.4915864   401151 
 6792000    0.9088424   -3.2287497   -1.7366197  0.055521237   -3.2287497      1.49213   401141 
 6793000   0.90809929   -3.2267184   -1.7357713  0.060024111   -3.2267184    1.4909471   401131 
 6794000   0.90850785   -3.2277644   -1.7361093  0.055162561   -3.2277644    1.4916551   401121 
 6795000   0.90914638   -3.2272427    -1.734502  0.060248601   -3.2272427    1.4927407   401111 
 6796000   0.90757292   -3.2235251   -1.7333307  0.062530709   -3.2235251    1.4901944   401101 
 6797000    0.9089034   -3.2255557   -1.7331396  0.057882887   -3.2255557    1.4924162   401091 
 6798000   0.90770974   -3.2251321   -1.7346387  0.060275164   -3.2251321    1.4904933   401081 
 6799000   0.90758725   -3.2240286   -1.7336993   0.05638745   -3.2240286    1.4903294   401071 
 6800000   0.90815248   -3.2241436    -1.732849   0.05840467   -3.2241436    1.4912947   401061 
 6801000   0.90913898   -3.2259979    -1.733046  0.057106809   -3.2259979    1.4929519   401051 
 6802000   0.90912363    -3.224254   -1.7312902  0.060687237    -3.224254    1.4929639   401041 
 6803000   0.90747617   -3.2212477   -1.7309521  0.055194196   -3.2212477    1.4902956   401031 
 6804000   0.90965302   -3.2251155   -1.7312077   0.05659053   -3.2251155    1.4939078   401021 
 6805000   0.90962112   -3.2250525   -1.7311599  0.055918381   -3.2250525    1.4938926   401011 
 6806000   0.90790297   -3.2226024   -1.7314944  0.052329037   -3.2226024     1.491108   401001 
 6807000   0.90645016   -3.2229615   -1.7342023  0.053620098   -3.2229615    1.4887591   400991 
 6808000    0.9067132    -3.222711   -1.7334827  0.059520988    -3.222711    1.4892283   400981 
 6809000   0.90805694   -3.2239683   -1.7324958  0.052914619   -3.2239683    1.4914725   400971 
 6810000   0.90840118   -3.2238051     -1.73173  0.051929057   -3.2238051    1.4920751   400961 
 6811000   0.90695941   -3.2207578   -1.7310137  0.059763948   -3.2207578    1.4897441   400951 
 6812000   0.90627584   -3.2200568   -1.7313983  0.056688367   -3.2200568    1.4886584   400941 
 6813000   0.90755409    -3.220971   -1.7301757   0.05562744    -3.220971    1.4907953   400931 
 6814000   0.90713146   -3.2201081   -1.7299699  0.058715729   -3.2201081    1.4901382   400921 
 6815000    0.9082056   -3.2211196   -1.7291797    0.0587342   -3.2211196    1.4919399   400911 
 6816000   0.90829182   -3.2233662   -1.7312474  0.060666239   -3.2233662    1.4921188   400901 
 6817000    0.9089436   -3.2248941   -1.7316673  0.060607703   -3.2248941    1.4932268   400891 
 6818000   0.90813405   -3.2227415   -1.7308074  0.058593877   -3.2227415     1.491934   400881 
 6819000   0.90853092   -3.2232516   -1.7306283  0.057890511   -3.2232516    1.4926233   400871 
 6820000   0.90880007   -3.2235183   -1.7304156  0.058502769   -3.2235183    1.4931027   400861 
 6821000   0.90880337   -3.2221966   -1.7290512  0.059289212   -3.2221966    1.4931454   400851 
 6822000   0.90886436   -3.2234527   -1.7301699  0.057218011   -3.2234527    1.4932828   400841 
 6823000   0.91159588   -3.2283071    -1.730499  0.058452617   -3.2283071    1.4978081   400831 
 6824000   0.90925616   -3.2250882   -1.7310871  0.059904893   -3.2250882    1.4940011   400821 
 6825000   0.90840427   -3.2246613   -1.7320227  0.062882094   -3.2246613    1.4926386   400811 
 6826000   0.90835484     -3.22393   -1.7313353  0.056992904     -3.22393    1.4925946   400801 
 6827000   0.90759768   -3.2242611   -1.7328734  0.055408709   -3.2242611    1.4913877   400791 
 6828000   0.90759017    -3.224316   -1.7329035  0.058758184    -3.224316    1.4914125   400781 
 6829000   0.90766195   -3.2248214   -1.7332536   0.05393574   -3.2248214    1.4915677   400771 
 6830000   0.90750991   -3.2233671    -1.732012   0.05866786   -3.2233671    1.4913551   400761 
 6831000   0.90695927   -3.2237017   -1.7332143  0.057016115   -3.2237017    1.4904874   400751 
 6832000   0.90831547   -3.2260499   -1.7332965  0.062957921   -3.2260499    1.4927534   400741 
 6833000   0.90828682   -3.2253648   -1.7326213  0.057924013   -3.2253648    1.4927436   400731 
 6834000   0.90949666   -3.2267786   -1.7320094   0.05052105   -3.2267786    1.4947692   400721 
 6835000   0.90795794   -3.2242696    -1.731992    0.0550145   -3.2242696    1.4922775   400711 
 6836000   0.90953246   -3.2266309   -1.7317282  0.057920534   -3.2266309    1.4949026   400701 
 6837000   0.90752788   -3.2259195   -1.7342743  0.059672391   -3.2259195    1.4916452   400691 
 6838000   0.90777774   -3.2284369   -1.7363439  0.052697049   -3.2284369    1.4920931   400681 
 6839000   0.90624526   -3.2246826   -1.7350712  0.056195106   -3.2246826    1.4896113   400671 
 6840000   0.90641151   -3.2261567    -1.736235   0.05442372   -3.2261567    1.4899218   400661 
 6841000   0.90786269   -3.2281892   -1.7358448  0.054591085   -3.2281892    1.4923444   400651 
 6842000   0.90671093   -3.2259412   -1.7354528  0.057537084   -3.2259412    1.4904884   400641 
 6843000   0.90641863   -3.2259232   -1.7358781   0.05791213   -3.2259232    1.4900451   400631 
 6844000   0.90530825    -3.224149   -1.7358921   0.06268507    -3.224149    1.4882569   400621 
 6845000   0.90797735   -3.2279631   -1.7352811  0.061445259   -3.2279631    1.4926819   400611 
 6846000   0.90597246   -3.2263457   -1.7369226   0.06009048   -3.2263457    1.4894231   400601 
 6847000   0.90659679   -3.2254003   -1.7349135  0.060880232   -3.2254003    1.4904867   400591 
 6848000   0.90862163     -3.22862   -1.7347671  0.058421002     -3.22862     1.493853   400581 
 6849000   0.90885647   -3.2283157   -1.7340393  0.067135223   -3.2283157    1.4942764   400571 
 6850000   0.90713682   -3.2274543   -1.7359681  0.057458843   -3.2274543    1.4914863   400561 
 6851000   0.90707425   -3.2274958   -1.7360752  0.060445096   -3.2274958    1.4914206   400551 
 6852000    0.9068893   -3.2276374   -1.7364836  0.059112418   -3.2276374    1.4911538   400541 
 6853000   0.90917522   -3.2296317    -1.734682  0.058651144   -3.2296317    1.4949497   400531 
 6854000    0.9065992    -3.226196   -1.7354448  0.061587154    -3.226196    1.4907512   400521 
 6855000   0.90763363   -3.2264441   -1.7339547  0.063510676   -3.2264441    1.4924894   400511 
 6856000   0.90714847   -3.2247846   -1.7330557  0.063122613   -3.2247846    1.4917289   400501 
 6857000   0.90818166   -3.2275831   -1.7341179  0.059394979   -3.2275831    1.4934652   400491 
 6858000   0.90711576   -3.2259269   -1.7341774  0.064696465   -3.2259269    1.4917496   400481 
 6859000   0.90811034   -3.2285937   -1.7351713  0.061792454   -3.2285937    1.4934225   400471 
 6860000    0.9080441   -3.2273483   -1.7339975  0.060626817   -3.2273483    1.4933508   400461 
 6861000   0.90705843   -3.2266802   -1.7349131  0.057501863   -3.2266802    1.4917671   400451 
 6862000   0.90622804   -3.2264451   -1.7360065   0.06035162   -3.2264451    1.4904386   400441 
 6863000   0.90683646   -3.2257012   -1.7342247   0.05972515   -3.2257012    1.4914765   400431 
 6864000   0.90678131   -3.2258612   -1.7344382  0.055555151   -3.2258612     1.491423   400421 
 6865000   0.90689225   -3.2269579   -1.7353151  0.054976789   -3.2269579    1.4916428   400411 
 6866000   0.90742611   -3.2276581   -1.7350999  0.055898922   -3.2276581    1.4925581   400401 
 6867000    0.9063807   -3.2262497   -1.7353738  0.060464075   -3.2262497    1.4908758   400391 
 6868000   0.90600234    -3.224122   -1.7338313  0.061116418    -3.224122    1.4902907   400381 
 6869000   0.90727917   -3.2260398   -1.7336116  0.053450484   -3.2260398    1.4924282   400371 
 6870000   0.90710107   -3.2240048   -1.7318322  0.056449687   -3.2240048    1.4921726   400361 
 6871000   0.90700854   -3.2235294   -1.7314717  0.059203817   -3.2235294    1.4920576   400351 
 6872000   0.90851235   -3.2254939   -1.7309251  0.061144728   -3.2254939    1.4945687   400341 
 6873000   0.90802298   -3.2254215   -1.7316205  0.062409971   -3.2254215     1.493801   400331 
 6874000   0.90808309   -3.2252814   -1.7313442  0.059629945   -3.2252814    1.4939372   400321 
 6875000   0.90594517    -3.221902   -1.7314448  0.059462765    -3.221902    1.4904572   400311 
 6876000   0.90755301     -3.22504   -1.7319002  0.056674824     -3.22504    1.4931398   400301 
 6877000   0.90695176   -3.2240604   -1.7318726  0.056788683   -3.2240604    1.4921878   400291 
 6878000   0.90671062   -3.2229336   -1.7311053  0.060823117   -3.2229336    1.4918284   400281 
 6879000   0.90644143    -3.221735   -1.7303123  0.059344098    -3.221735    1.4914227   400271 
 6880000   0.90676057    -3.222262   -1.7302769  0.058476361    -3.222262    1.4919851   400261 
 6881000   0.90613045   -3.2224685    -1.731483  0.060129075   -3.2224685    1.4909855   400251 
 6882000   0.90451713   -3.2211041   -1.7327361  0.062356798   -3.2211041    1.4883681   400241 
 6883000   0.90789114   -3.2245895   -1.7306322  0.059971535   -3.2245895    1.4939573   400231 
 6884000    0.9043989   -3.2196203   -1.7313724  0.059583684   -3.2196203    1.4882479   400221 
 6885000   0.90400073   -3.2186744   -1.7310445  0.058407474   -3.2186744    1.4876299   400211 
 6886000   0.90586441   -3.2199296   -1.7291956  0.057110702   -3.2199296     1.490734   400201 
 6887000   0.90481954    -3.220986   -1.7319343  0.055897812    -3.220986    1.4890517   400191 
 6888000   0.90507373    -3.220363   -1.7308557  0.061026125    -3.220363    1.4895073   400181 
 6889000   0.90550061   -3.2222918   -1.7320447  0.055307274   -3.2222918     1.490247   400171 
 6890000   0.90608844   -3.2220887   -1.7308369  0.060019375   -3.2220887    1.4912517   400161 
 6891000   0.90492695   -3.2218564    -1.732479  0.056965599   -3.2218564    1.4893774   400151 
 6892000    0.9076231   -3.2247045   -1.7308523  0.056898955   -3.2247045    1.4938522   400141 
 6893000   0.90574093   -3.2206543   -1.7298628  0.058798952   -3.2206543    1.4907916   400131 
 6894000   0.90728411   -3.2243813   -1.7310124  0.057560491   -3.2243813    1.4933689   400121 
 6895000   0.90465508   -3.2223656   -1.7332869  0.062328084   -3.2223656    1.4890788   400111 
 6896000   0.90567458   -3.2252531    -1.734459  0.056195515   -3.2252531    1.4907941   400101 
 6897000   0.90602169   -3.2255235   -1.7341207  0.057921123   -3.2255235    1.4914028   400091 
 6898000   0.90741089   -3.2269908   -1.7332639  0.053646762   -3.2269908    1.4937269   400081 
 6899000   0.90485739   -3.2244785   -1.7349178  0.054354196   -3.2244785    1.4895607   400071 
 6900000   0.90636417   -3.2278157   -1.7357373  0.058271889   -3.2278157    1.4920784   400061 
 6901000   0.90629467    -3.226152   -1.7341507  0.057731942    -3.226152    1.4920013   400051 
 6902000   0.90692553   -3.2279167   -1.7348396  0.061493365   -3.2279167    1.4930772   400041 
 6903000   0.90662003   -3.2285434   -1.7359319  0.063951305   -3.2285434    1.4926115   400031 
 6904000   0.90584983   -3.2259488    -1.734568  0.058967251   -3.2259488    1.4913808   400021 
 6905000   0.90740545   -3.2277182   -1.7337389   0.06152205   -3.2277182    1.4939793   400011 
 6906000   0.90675694   -3.2263713   -1.7334224   0.06007031   -3.2263713    1.4929489   400001 
 6907000   0.90610382   -3.2248715   -1.7329607  0.062426305   -3.2248715    1.4919109   399991 
 6908000   0.90740186   -3.2277975    -1.733712  0.057067373   -3.2277975    1.4940854   399981 
 6909000   0.90592156   -3.2255526   -1.7338672  0.058799277   -3.2255526    1.4916853   399971 
 6910000   0.90593211   -3.2254205   -1.7336805  0.056725001   -3.2254205      1.49174   399961 
 6911000   0.90539503    -3.224303   -1.7334101  0.060696009    -3.224303    1.4908929   399951 
 6912000   0.90389575   -3.2229903    -1.734529  0.059484967   -3.2229903    1.4884613   399941 
 6913000   0.90554986   -3.2246617   -1.7334393  0.060573421   -3.2246617    1.4912224   399931 
 6914000   0.90417671   -3.2226675    -1.733669  0.061913702   -3.2226675    1.4889984   399921 
 6915000   0.90505636    -3.222117   -1.7316327  0.058114684    -3.222117    1.4904843   399911 
 6916000   0.90468234   -3.2205827   -1.7306771  0.057743492   -3.2205827    1.4899056   399901 
 6917000   0.90581714   -3.2219433   -1.7301315  0.061270769   -3.2219433    1.4918118   399891 
 6918000   0.90638144   -3.2229072   -1.7301287   0.06164676   -3.2229072    1.4927785   399881 
 6919000   0.90646148   -3.2239691   -1.7310214  0.059064245   -3.2239691    1.4929476   399871 
 6920000   0.90624994   -3.2230896   -1.7304531   0.05516354   -3.2230896    1.4926366   399861 
 6921000   0.90472211   -3.2180544    -1.727897  0.061657338   -3.2180544    1.4901574   399851 
 6922000   0.90592353   -3.2212671   -1.7290935  0.055649507   -3.2212671    1.4921736   399841 
 6923000   0.90576018   -3.2213373   -1.7293955  0.058147805   -3.2213373    1.4919418   399831 
 6924000   0.90291447   -3.2181501   -1.7308584  0.061975812   -3.2181501    1.4872917   399821 
 6925000    0.9040309   -3.2192382   -1.7300703  0.052256816   -3.2192382    1.4891679   399811 
 6926000   0.90445266   -3.2184505   -1.7285506   0.05565573   -3.2184505    1.4898999   399801 
 6927000   0.90281411   -3.2170603   -1.7298224  0.054723302   -3.2170603    1.4872379   399791 
 6928000    0.9052861   -3.2204977   -1.7291502  0.055155465   -3.2204977    1.4913474   399781 
 6929000    0.9050015   -3.2198295   -1.7289136  0.058377651   -3.2198295    1.4909159   399771 
 6930000   0.90394449    -3.219709   -1.7304972  0.056503617    -3.219709    1.4892118   399761 
 6931000   0.90469664   -3.2194843   -1.7289961  0.055794281   -3.2194843    1.4904882   399751 
 6932000     0.904383   -3.2190966   -1.7290878  0.057264064   -3.2190966    1.4900088   399741 
 6933000   0.90281944    -3.218606    -1.731136  0.055345295    -3.218606      1.48747   399731 
 6934000   0.90384001   -3.2209568   -1.7317681  0.052152888   -3.2209568    1.4891887   399721 
 6935000   0.90378397   -3.2229344   -1.7338008   0.04576448   -3.2229344    1.4891336   399711 
 6936000   0.90337134   -3.2226909   -1.7341999  0.052359936   -3.2226909     1.488491   399701 
 6937000   0.90330858   -3.2221686   -1.7337438   0.05473806   -3.2221686    1.4884248   399691 
 6938000   0.90328343   -3.2221724   -1.7337518  0.054449875   -3.2221724    1.4884206   399681 
 6939000   0.90290373   -3.2217296   -1.7338974  0.056874207   -3.2217296    1.4878322   399671 
 6940000   0.90247313   -3.2209917   -1.7338319     0.054836   -3.2209917    1.4871598   399661 
 6941000   0.90360106   -3.2207076   -1.7316519  0.060242692   -3.2207076    1.4890558   399651 
 6942000   0.90320481   -3.2243778   -1.7359378  0.057502792   -3.2243778      1.48844   399641 
 6943000   0.90511295   -3.2257943   -1.7341725  0.058126395   -3.2257943    1.4916219   399631 
 6944000   0.90511827   -3.2267623   -1.7350944  0.060294636   -3.2267623     1.491668   399621 
 6945000   0.90494358   -3.2265941   -1.7351767  0.060606554   -3.2265941    1.4914174   399611 
 6946000   0.90557276   -3.2264783   -1.7339866  0.060870762   -3.2264783    1.4924917   399601 
 6947000   0.90659156   -3.2290976   -1.7348894  0.059695137   -3.2290976    1.4942082   399591 
 6948000   0.90591173   -3.2283331   -1.7352081   0.05827534   -3.2283331    1.4931251   399581 
 6949000   0.90618501   -3.2301472   -1.7365344  0.060986799   -3.2301472    1.4936129   399571 
 6950000   0.90552976    -3.229481   -1.7369108  0.061096928    -3.229481    1.4925702   399561 
 6951000   0.90597457    -3.230515   -1.7371742  0.058025217    -3.230515    1.4933408   399551 
 6952000   0.90665428    -3.232391   -1.7378925  0.056848811    -3.232391    1.4944985   399541 
 6953000   0.90513809   -3.2295528   -1.7375161  0.059576926   -3.2295528    1.4920366   399531 
 6954000   0.90524865   -3.2288825   -1.7366262  0.061032359   -3.2288825    1.4922562   399521 
 6955000   0.90388924   -3.2280123   -1.7379597  0.062635359   -3.2280123    1.4900526   399511 
 6956000   0.90600302   -3.2303876    -1.736813   0.05827166   -3.2303876    1.4935746   399501 
 6957000   0.90472037   -3.2278075   -1.7363101  0.058359703   -3.2278075    1.4914974   399491 
 6958000   0.90473206   -3.2277254   -1.7361714  0.059739965   -3.2277254     1.491554   399481 
 6959000    0.9050728    -3.227975   -1.7358219   0.05598598    -3.227975    1.4921531   399471 
 6960000   0.90405284   -3.2263963   -1.7358875  0.062084123   -3.2263963    1.4905089   399461 
 6961000   0.90312699   -3.2251741   -1.7361544  0.060509423   -3.2251741    1.4890197   399451 
 6962000   0.90351694   -3.2260369    -1.736337  0.060208844   -3.2260369    1.4896999   399441 
 6963000     0.904167   -3.2263821   -1.7355731   0.05746158   -3.2263821     1.490809   399431 
 6964000   0.90367831   -3.2235448   -1.7335043  0.055364539   -3.2235448    1.4900406   399421 
 6965000    0.9030672   -3.2212677   -1.7321975  0.057344624   -3.2212677    1.4890702   399411 
 6966000   0.90337467   -3.2226182   -1.7330037  0.054498534   -3.2226182    1.4896145   399401 
 6967000   0.90356466   -3.2239224   -1.7339573   0.05546437   -3.2239224    1.4899651   399391 
 6968000   0.90335247   -3.2247299   -1.7350774  0.058378885   -3.2247299    1.4896525   399381 
 6969000   0.90262622   -3.2225324   -1.7340402  0.058210262   -3.2225324    1.4884922   399371 
 6970000   0.90424327   -3.2242163   -1.7330202  0.055348323   -3.2242163    1.4911961   399361 
 6971000   0.90501057   -3.2245977   -1.7320988  0.056566911   -3.2245977    1.4924989   399351 
 6972000     0.904305   -3.2229701   -1.7315975  0.057016966   -3.2229701    1.4913726   399341 
 6973000   0.90324935   -3.2208277   -1.7311587  0.055588007   -3.2208277    1.4896689   399331 
 6974000   0.90278874   -3.2197512   -1.7308046  0.055622321   -3.2197512    1.4889466   399321 
 6975000   0.90348559   -3.2199496   -1.7298165  0.057845391   -3.2199496    1.4901332   399311 
 6976000    0.9032964    -3.220209   -1.7303505  0.057104606    -3.220209    1.4898585   399301 
 6977000   0.90385159   -3.2212621   -1.7304506  0.055441258   -3.2212621    1.4908115   399291 
 6978000   0.90374208   -3.2207343    -1.730066  0.054711349   -3.2207343    1.4906682   399281 
 6979000   0.90431593   -3.2242633   -1.7326112  0.056814714   -3.2242633    1.4916521   399271 
 6980000   0.90343791   -3.2216723   -1.7314311  0.061448591   -3.2216723    1.4902412   399261 
 6981000   0.90292667   -3.2211108   -1.7316756   0.05357973   -3.2211108    1.4894352   399251 
 6982000   0.90338187   -3.2217569   -1.7315335  0.056269155   -3.2217569    1.4902234   399241 
 6983000   0.90270845   -3.2200537   -1.7309039  0.059015214   -3.2200537    1.4891498   399231 
 6984000   0.90335104   -3.2210186   -1.7307715  0.057395722   -3.2210186    1.4902472   399221 
 6985000   0.90259548   -3.2205733   -1.7315353  0.053115699   -3.2205733     1.489038   399211 
 6986000   0.90336684    -3.221631   -1.7312831  0.056113273    -3.221631    1.4903479   399201 
 6987000   0.90549952   -3.2250381   -1.7311344  0.055566356   -3.2250381    1.4939037   399191 
 6988000   0.90296682   -3.2215784   -1.7318158  0.063166357   -3.2215784    1.4897626   399181 
 6989000   0.90290925    -3.221092   -1.7313871  0.057535045    -3.221092    1.4897049   399171 
 6990000   0.90312725   -3.2217958   -1.7316939  0.060779537   -3.2217958    1.4901019   399161 
 6991000   0.90417136   -3.2221551   -1.7302931  0.057394258   -3.2221551     1.491862   399151 
 6992000   0.90309671   -3.2213576   -1.7312314    0.0530483   -3.2213576    1.4901262   399141 
 6993000   0.90393925   -3.2232276   -1.7316738  0.053726003   -3.2232276    1.4915538   399131 
 6994000   0.90257562   -3.2211178   -1.7317768  0.058408745   -3.2211178     1.489341   399121 
 6995000   0.90441056   -3.2239884   -1.7315822  0.055309186   -3.2239884    1.4924063   399111 
 6996000    0.9032801   -3.2231085   -1.7325303  0.061989991   -3.2231085    1.4905782   399101 
 6997000   0.90383309   -3.2235702   -1.7320421  0.057884255   -3.2235702    1.4915281   399091 
 6998000   0.90357412   -3.2225293   -1.7313912  0.058181977   -3.2225293    1.4911381   399081 
 6999000   0.90419612   -3.2252201   -1.7330181  0.053139276   -3.2252201    1.4922019   399071 
 7000000    0.9038393   -3.2235339   -1.7318835  0.062785135   -3.2235339    1.4916505   399061 
 7001000   0.90363392   -3.2235843   -1.7322354  0.066170872   -3.2235843    1.4913489   399051 
 7002000   0.90296664   -3.2228408   -1.7325559  0.057696354   -3.2228408     1.490285   399041 
 7003000   0.90404153   -3.2249428   -1.7328464  0.057473058   -3.2249428    1.4920964   399031 
 7004000   0.90321253   -3.2250082   -1.7342428  0.061881971   -3.2250082    1.4907655   399021 
 7005000   0.90279721   -3.2233058   -1.7331885  0.053779832   -3.2233058    1.4901173   399011 
 7006000   0.90481432   -3.2259107   -1.7324265  0.058656587   -3.2259107    1.4934841   399001 
 7007000   0.90460151   -3.2259567   -1.7327864  0.059769889   -3.2259567    1.4931703   398991 
 7008000   0.90451123   -3.2255091   -1.7324504  0.063409353   -3.2255091    1.4930587   398981 
 7009000   0.90283488   -3.2245176   -1.7341887  0.058088147   -3.2245176    1.4903289   398971 
 7010000   0.90260536   -3.2248654    -1.734878  0.056446078   -3.2248654    1.4899874   398961 
 7011000   0.90319564   -3.2263367   -1.7353375  0.057566744   -3.2263367    1.4909992   398951 
 7012000   0.90386578   -3.2249833   -1.7328404  0.060475673   -3.2249833    1.4921429   398941 
 7013000   0.90285717   -3.2256605   -1.7351453  0.053768755   -3.2256605    1.4905152   398931 
 7014000   0.90127793     -3.22342   -1.7354746  0.058744043     -3.22342    1.4879453   398921 
 7015000   0.90087993   -3.2237558   -1.7364303  0.059889947   -3.2237558    1.4873255   398911 
 7016000   0.90006767   -3.2234273   -1.7374055  0.061340235   -3.2234273    1.4860218   398901 
 7017000   0.90271761   -3.2258968   -1.7354626  0.055497116   -3.2258968    1.4904342   398891 
 7018000   0.90215055    -3.226362   -1.7368267  0.060207102    -3.226362    1.4895353   398881 
 7019000   0.90250666   -3.2268929   -1.7367322  0.056605311   -3.2268929    1.4901606   398871 
 7020000   0.90337162   -3.2264944   -1.7348682  0.059406878   -3.2264944    1.4916262   398861 
 7021000   0.90140191   -3.2233971   -1.7349859  0.056857593   -3.2233971    1.4884112   398851 
 7022000   0.90171599   -3.2255333   -1.7365662   0.05799576   -3.2255333    1.4889671   398841 
 7023000   0.90168673    -3.225049   -1.7360929  0.055510072    -3.225049    1.4889561   398831 
 7024000   0.90372913   -3.2293232    -1.736957  0.052027009   -3.2293232    1.4923662   398821 
 7025000   0.90194061    -3.226863   -1.7374129  0.058405065    -3.226863    1.4894501   398811 
 7026000   0.90396124   -3.2285543     -1.73573  0.056244435   -3.2285543    1.4928243   398801 
 7027000   0.90138479   -3.2261631   -1.7375562  0.054971764   -3.2261631    1.4886068   398791 
 7028000   0.90198512   -3.2262102   -1.7365746  0.060136983   -3.2262102    1.4896356   398781 
 7029000    0.9018129   -3.2274224   -1.7380339  0.058346377   -3.2274224    1.4893885   398771 
 7030000   0.90180308   -3.2261435   -1.7367339  0.058581434   -3.2261435    1.4894097   398761 
 7031000   0.90308731   -3.2288192   -1.7372511  0.056218981   -3.2288192    1.4915681   398751 
 7032000   0.90191438   -3.2268916   -1.7372234  0.059511554   -3.2268916    1.4896682   398741 
 7033000   0.90359919   -3.2297815   -1.7372931  0.062309651   -3.2297815    1.4924884   398731 
 7034000   0.90398412   -3.2301269   -1.7369653  0.061475388   -3.2301269    1.4931616   398721 
 7035000   0.90334646   -3.2291467   -1.7370009   0.05861133   -3.2291467    1.4921458   398711 
 7036000   0.90176901   -3.2270511   -1.7374736  0.056403463   -3.2270511    1.4895775   398701 
 7037000    0.9014911   -3.2277989   -1.7386431  0.056582854   -3.2277989    1.4891558   398691 
 7038000   0.90275461   -3.2283578   -1.7370774  0.059320597   -3.2283578    1.4912804   398681 
 7039000   0.90153254   -3.2261479   -1.7368489  0.058428918   -3.2261479     1.489299   398671 
 7040000   0.90166679   -3.2255352    -1.735977  0.063928387   -3.2255352    1.4895581   398661 
 7041000   0.90228072   -3.2262107    -1.735601  0.057146363   -3.2262107    1.4906097   398651 
 7042000   0.90351649   -3.2275897    -1.734901  0.056935486   -3.2275897    1.4926887   398641 
 7043000   0.90245623    -3.227129   -1.7361545  0.059721147    -3.227129    1.4909745   398631 
 7044000   0.90180331   -3.2266337   -1.7367006  0.060571356   -3.2266337    1.4899332   398621 
 7045000   0.90345632   -3.2275224   -1.7348208  0.063034234   -3.2275224    1.4927016   398611 
 7046000   0.90297686   -3.2267226   -1.7347757  0.057093941   -3.2267226    1.4919469   398601 
 7047000   0.90316021   -3.2254895   -1.7332022  0.056573299   -3.2254895    1.4922873   398591 
 7048000   0.90215422   -3.2243761   -1.7337136  0.056124071   -3.2243761    1.4906625   398581 
 7049000   0.90329116   -3.2253858   -1.7328072  0.058470911   -3.2253858    1.4925786   398571 
 7050000   0.90225648   -3.2242947   -1.7333885  0.060024104   -3.2242947    1.4909063   398561 
 7051000   0.90156721   -3.2234612   -1.7336566  0.056875916   -3.2234612    1.4898047   398551 
 7052000   0.90091262   -3.2236977   -1.7349373  0.056080484   -3.2236977    1.4887604   398541 
 7053000    0.9024208   -3.2255957   -1.7343057  0.052322753   -3.2255957      1.49129   398531 
 7054000   0.90051748   -3.2237873   -1.7356053  0.052724848   -3.2237873    1.4881821   398521 
 7055000   0.90037969   -3.2228353   -1.7348436  0.061398858   -3.2228353    1.4879917   398511 
 7056000   0.90024631   -3.2212709   -1.7334623   0.05805166   -3.2212709    1.4878086   398501 
 7057000   0.90068764   -3.2213982   -1.7328229  0.055282097   -3.2213982    1.4885753   398491 
 7058000   0.90036912   -3.2206225   -1.7325362  0.063096745   -3.2206225    1.4880863   398481 
 7059000   0.90234243   -3.2233926   -1.7320075  0.058973611   -3.2233926    1.4913851   398471 
 7060000   0.90231417   -3.2230965   -1.7317207  0.061648916   -3.2230965    1.4913758   398461 
 7061000   0.90155539   -3.2226579   -1.7324989  0.064080919   -3.2226579    1.4901591   398451 
 7062000   0.90285171   -3.2258964   -1.7335572  0.059873782   -3.2258964    1.4923392   398441 
 7063000   0.90076387   -3.2226221   -1.7336966  0.059257828   -3.2226221    1.4889255   398431 
 7064000   0.90128471   -3.2247954   -1.7349715  0.056577232   -3.2247954    1.4898238   398421 
 7065000   0.89989481   -3.2231233   -1.7355596   0.05610606   -3.2231233    1.4875637   398411 
 7066000   0.89992625   -3.2233631   -1.7357101  0.053925148   -3.2233631     1.487653   398401 
 7067000   0.90021585   -3.2238534   -1.7356843  0.058915337   -3.2238534     1.488169   398391 
 7068000   0.90008049   -3.2246663   -1.7366836  0.054203523   -3.2246663    1.4879826   398381 
 7069000   0.89931619   -3.2224519   -1.7356955  0.060046619   -3.2224519    1.4867564   398371 
 7070000   0.90157475   -3.2252735   -1.7347458  0.055994999   -3.2252735    1.4905277   398361 
 7071000   0.90066443   -3.2244452   -1.7353851  0.060900507   -3.2244452    1.4890601   398351 
 7072000   0.90141438   -3.2268498   -1.7365124  0.053677586   -3.2268498    1.4903374   398341 
 7073000   0.90094821   -3.2256613   -1.7360572   0.05703922   -3.2256613    1.4896041   398331 
 7074000   0.90068338   -3.2257122   -1.7365086  0.062974942   -3.2257122    1.4892036   398321 
 7075000   0.90235663   -3.2280537   -1.7360461  0.059129417   -3.2280537    1.4920076   398311 
 7076000   0.90101901   -3.2251366   -1.7353032  0.056321823   -3.2251366    1.4898333   398301 
 7077000   0.90093996   -3.2261463   -1.7364062  0.057291407   -3.2261463      1.48974   398291 
 7078000   0.90046101   -3.2244351   -1.7354497  0.061364357   -3.2244351    1.4889855   398281 
 7079000   0.90199982   -3.2277112   -1.7361438  0.057247121   -3.2277112    1.4915675   398271 
 7080000   0.90017705    -3.224702   -1.7361114  0.057816034    -3.224702    1.4885907   398261 
 7081000   0.90147749   -3.2271229   -1.7363443  0.058568273   -3.2271229    1.4907786   398251 
 7082000   0.90084377   -3.2256821   -1.7359141  0.061796511   -3.2256821     1.489768   398241 
 7083000   0.90177496   -3.2271779   -1.7358325  0.060487614   -3.2271779    1.4913454   398231 
 7084000   0.90211778   -3.2286796   -1.7367298  0.054445823   -3.2286796    1.4919498   398221 
 7085000   0.90167375   -3.2270645   -1.7358116  0.059730031   -3.2270645    1.4912529   398211 
 7086000   0.90155276   -3.2279223   -1.7368321  0.063303443   -3.2279223    1.4910903   398201 
 7087000   0.90112724   -3.2263695   -1.7359456   0.05775178   -3.2263695    1.4904239   398191 
 7088000   0.90156638   -3.2287845   -1.7375968  0.051239037   -3.2287845    1.4911877   398181 
 7089000   0.89997901   -3.2263721   -1.7377726  0.056170828   -3.2263721    1.4885996   398171 
 7090000   0.90005437   -3.2256113   -1.7368497  0.056517377   -3.2256113    1.4887616   398161 
 7091000    0.8993831   -3.2251897   -1.7375011  0.058981825   -3.2251897    1.4876886   398151 
 7092000   0.89939079   -3.2248622   -1.7371234  0.057560014   -3.2248622    1.4877387   398141 
 7093000   0.89925875   -3.2248768   -1.7373192  0.057290016   -3.2248768    1.4875577   398131 
 7094000   0.89874292   -3.2246787    -1.737937   0.05801644   -3.2246787    1.4867417   398121 
 7095000   0.90015144   -3.2243007   -1.7351915  0.059848118   -3.2243007    1.4891092   398111 
 7096000   0.90066228   -3.2247603   -1.7347686  0.059757349   -3.2247603    1.4899917   398101 
 7097000   0.90169829   -3.2275737   -1.7358306  0.056626996   -3.2275737     1.491743   398091 
 7098000    0.8997053   -3.2258946   -1.7374113  0.057411669   -3.2258946    1.4884833   398081 
 7099000   0.89861144   -3.2235193   -1.7368083  0.059225462   -3.2235193    1.4867109   398071 
 7100000   0.90086449   -3.2263726   -1.7358967  0.060901742   -3.2263726    1.4904759   398061 
 7101000   0.89886306   -3.2236855   -1.7364836  0.057137626   -3.2236855    1.4872019   398051 
 7102000   0.89807919    -3.222993   -1.7370507  0.056989326    -3.222993    1.4859423   398041 
 7103000   0.89941208   -3.2250935   -1.7369085  0.059481668   -3.2250935    1.4881851   398031 
 7104000   0.90022447   -3.2243241   -1.7347574  0.058038841   -3.2243241    1.4895667   398021 
 7105000   0.90166832   -3.2255288   -1.7335355  0.060573859   -3.2255288    1.4919933   398011 
 7106000   0.90080623   -3.2250435   -1.7344393  0.054648031   -3.2250435    1.4906042   398001 
 7107000   0.90046949   -3.2267145   -1.7366301   0.06156229   -3.2267145    1.4900845   397991 
 7108000   0.90176796   -3.2271206     -1.73485  0.057984256   -3.2271206    1.4922706   397981 
 7109000    0.9009067   -3.2245805   -1.7336977  0.056839772   -3.2245805    1.4908829   397971 
 7110000   0.90036211   -3.2258577   -1.7358386  0.053419058   -3.2258577    1.4900191   397961 
 7111000   0.90093399   -3.2265433   -1.7355403  0.059740328   -3.2265433     1.491003   397951 
 7112000   0.90105739   -3.2291335   -1.7378888  0.059491169   -3.2291335    1.4912446   397941 
 7113000   0.90006019   -3.2279758   -1.7383441   0.05530175   -3.2279758    1.4896317   397931 
 7114000   0.89916852   -3.2271933       -1.739   0.06271047   -3.2271933    1.4881934   397921 
 7115000   0.90050907   -3.2300178   -1.7395683  0.054164119   -3.2300178    1.4904495   397911 
 7116000   0.89937691   -3.2280988   -1.7394857  0.060032831   -3.2280988    1.4886131   397901 
 7117000   0.90102527   -3.2292773   -1.7378985  0.058484573   -3.2292773    1.4913789   397891 
 7118000   0.90117991   -3.2285437   -1.7368713  0.056886914   -3.2285437    1.4916723   397881 
 7119000   0.90073872   -3.2282153   -1.7372358  0.060686874   -3.2282153    1.4909795   397871 
 7120000   0.90090925   -3.2284817   -1.7371824  0.056998851   -3.2284817    1.4912993   397861 
 7121000    0.8996379   -3.2276996   -1.7384674  0.057886107   -3.2276996    1.4892322   397851 
 7122000   0.90193937   -3.2300902   -1.7370107  0.063452702   -3.2300902    1.4930795   397841 
 7123000   0.90144981   -3.2302774   -1.7379708  0.059150516   -3.2302774    1.4923066   397831 
 7124000   0.90163648   -3.2298243   -1.7371712  0.064061899   -3.2298243    1.4926532   397821 
 7125000   0.90166686   -3.2303323   -1.7375913  0.060746759   -3.2303323     1.492741   397811 
 7126000   0.90118943    -3.228191    -1.736203   0.06266484    -3.228191    1.4919881   397801 
 7127000   0.89973936   -3.2258848     -1.73626  0.059399763   -3.2258848    1.4896248   397791 
 7128000   0.89981562    -3.226399   -1.7366105   0.06208081    -3.226399    1.4897885   397781 
 7129000   0.90012475    -3.225614   -1.7352762  0.060677247    -3.225614    1.4903378   397771 
 7130000   0.90121532   -3.2267264   -1.7345454  0.057209803   -3.2267264     1.492181   397761 
 7131000   0.90132498   -3.2261076   -1.7337075  0.057608069   -3.2261076    1.4924001   397751 
 7132000   0.90143145   -3.2260483   -1.7334344  0.053750495   -3.2260483    1.4926139   397741 
 7133000   0.90021891   -3.2260968   -1.7354532  0.060237323   -3.2260968    1.4906436   397731 
 7134000   0.90068266   -3.2248239   -1.7333749  0.060765885   -3.2248239     1.491449   397721 
 7135000   0.90047499   -3.2257563   -1.7346137  0.061332398   -3.2257563    1.4911426   397711 
 7136000   0.89977764   -3.2243797   -1.7343544  0.054364729   -3.2243797    1.4900253   397701 
 7137000   0.89956912   -3.2228823   -1.7331648  0.059689032   -3.2228823    1.4897175   397691 
 7138000    0.8990232   -3.2231876   -1.7343368  0.051773903   -3.2231876    1.4888508   397681 
 7139000   0.89752699   -3.2189301   -1.7325197  0.057671741   -3.2189301    1.4864104   397671 
 7140000   0.89918239   -3.2203945   -1.7312051  0.053380719   -3.2203945    1.4891894   397661 
 7141000   0.89931842   -3.2198059   -1.7303538  0.055369497   -3.2198059    1.4894521   397651 
 7142000   0.90017304   -3.2213622   -1.7304571  0.057291594   -3.2213622     1.490905   397641 
 7143000   0.89891919   -3.2199531   -1.7310873  0.056184461   -3.2199531    1.4888658   397631 
 7144000   0.89940984   -3.2219986   -1.7322827  0.055960097   -3.2219986    1.4897159   397621 
 7145000    0.8997646   -3.2207478   -1.7304068  0.054243898   -3.2207478     1.490341   397611 
 7146000   0.89931844   -3.2201445   -1.7305051  0.064388042   -3.2201445    1.4896394   397601 
 7147000   0.90001032   -3.2216965   -1.7308735  0.059992237   -3.2216965     1.490823   397591 
 7148000   0.89912272   -3.2198604   -1.7304702  0.063648947   -3.2198604    1.4893902   397581 
 7149000   0.90028343   -3.2209343    -1.729584  0.058154253   -3.2209343    1.4913504   397571 
 7150000   0.90115525   -3.2224113   -1.7295792   0.05774975   -3.2224113    1.4928321   397561 
 7151000   0.90051961   -3.2218326   -1.7300159  0.058583466   -3.2218326    1.4918167   397551 
 7152000   0.90028071   -3.2224915    -1.731033  0.056974953   -3.2224915    1.4914584   397541 
 7153000    0.8991057   -3.2198239   -1.7302746  0.057808828   -3.2198239    1.4895493   397531 
 7154000   0.90067535   -3.2230363    -1.730849  0.054231427   -3.2230363    1.4921873   397521 
 7155000   0.90031767   -3.2227257   -1.7310935  0.058933811   -3.2227257    1.4916322   397511 
 7156000    0.8992815    -3.221452   -1.7314991   0.06268245    -3.221452     1.489953   397501 
 7157000    0.9004017   -3.2220404   -1.7301939  0.059100085   -3.2220404    1.4918465   397491 
 7158000   0.90016331   -3.2215843   -1.7300953  0.060315249   -3.2215843     1.491489   397481 
 7159000    0.9014859   -3.2230548   -1.7293368  0.059150273   -3.2230548     1.493718   397471 
 7160000   0.90066354   -3.2217634   -1.7293705  0.061281302   -3.2217634     1.492393   397461 
 7161000   0.90112179    -3.222982   -1.7297922  0.057424784    -3.222982    1.4931899   397451 
 7162000   0.90002351    -3.223223   -1.7318156  0.056749364    -3.223223    1.4914075   397441 
 7163000   0.89992257   -3.2228627    -1.731585  0.060218271   -3.2228627    1.4912777   397431 
 7164000   0.90048807   -3.2240628   -1.7318104   0.05662965   -3.2240628    1.4922524   397421 
 7165000   0.89939372   -3.2223252   -1.7318489  0.057104847   -3.2223252    1.4904764   397411 
 7166000   0.90115987   -3.2245318   -1.7310909  0.054769801   -3.2245318    1.4934408   397401 
 7167000   0.89821341   -3.2213222   -1.7327269  0.057320406   -3.2213222    1.4885953   397391 
 7168000   0.89881496   -3.2229622   -1.7333325  0.053394688   -3.2229622    1.4896297   397381 
 7169000    0.9001583   -3.2245584   -1.7326648  0.057160692   -3.2245584    1.4918936   397371 
 7170000    0.9004038   -3.2254041   -1.7330661  0.057277267   -3.2254041     1.492338   397361 
 7171000   0.89892338   -3.2237092   -1.7337873  0.060289259   -3.2237092    1.4899219   397351 
 7172000   0.89996458   -3.2238864   -1.7322013  0.060446256   -3.2238864    1.4916852   397341 
 7173000   0.89875904   -3.2219511   -1.7322267  0.057816383   -3.2219511    1.4897245   397331 
 7174000   0.90017637   -3.2238616   -1.7317503  0.057765224   -3.2238616    1.4921113   397321 
 7175000   0.89942581   -3.2225405   -1.7316357  0.062490979   -3.2225405    1.4909047   397311 
 7176000   0.90023372    -3.223989   -1.7317075  0.062736897    -3.223989    1.4922815   397301 
 7177000   0.89852021   -3.2221636    -1.732685  0.064243861   -3.2221636    1.4894786   397291 
 7178000   0.90027402   -3.2244297   -1.7320063  0.059054439   -3.2244297    1.4924234   397281 
 7179000   0.89916051   -3.2240718   -1.7334568  0.059677679   -3.2240718     1.490615   397271 
 7180000   0.90027797   -3.2258178   -1.7333127  0.059301589   -3.2258178    1.4925051   397261 
 7181000    0.8988928   -3.2228137   -1.7325675  0.061933403   -3.2228137    1.4902462   397251 
 7182000   0.89794095   -3.2234213   -1.7347156  0.056253029   -3.2234213    1.4887057   397241 
 7183000   0.89850752   -3.2242838   -1.7346013   0.05320843   -3.2242838    1.4896825   397231 
 7184000   0.90000106   -3.2265298   -1.7343335  0.058587075   -3.2265298    1.4921963   397221 
 7185000   0.89996906   -3.2269285   -1.7347477  0.053556682   -3.2269285    1.4921808   397211 
 7186000   0.89799769   -3.2245988   -1.7356491  0.059893829   -3.2245988    1.4889497   397201 
 7187000    0.8988749   -3.2251936   -1.7347519  0.058473718   -3.2251936    1.4904417   397191 
 7188000   0.89819829   -3.2263084   -1.7369511  0.060068432   -3.2263084    1.4893573   397181 
 7189000   0.89816013   -3.2246839   -1.7353524  0.057738621   -3.2246839    1.4893315   397171 
 7190000   0.89930418   -3.2263024   -1.7350363  0.056340747   -3.2263024    1.4912661   397161 
 7191000   0.89826213   -3.2257277    -1.736152    0.0567621   -3.2257277    1.4895756   397151 
 7192000   0.89787106   -3.2266973   -1.7377327  0.057109618   -3.2266973    1.4889646   397141 
 7193000   0.89698549   -3.2250349   -1.7375014  0.056196453   -3.2250349    1.4875335   397131 
 7194000   0.89667741   -3.2250988   -1.7380387  0.054269315   -3.2250988    1.4870601   397121 
 7195000   0.89837257   -3.2263339   -1.7364251  0.058540027   -3.2263339    1.4899088   397111 
 7196000   0.89964617   -3.2290403   -1.7369816  0.056342943   -3.2290403    1.4920586   397101 
 7197000   0.90017163   -3.2287418   -1.7357741  0.057272307   -3.2287418    1.4929677   397091 
 7198000   0.90000688   -3.2286633   -1.7359312  0.055571709   -3.2286633     1.492732   397081 
 7199000   0.90004683   -3.2286549    -1.735819  0.058210572   -3.2286549    1.4928359   397071 
 7200000   0.89922766    -3.227286   -1.7357712  0.060621863    -3.227286    1.4915148   397061 
 7201000   0.89952631   -3.2273569   -1.7353092  0.054427359   -3.2273569    1.4920477   397051 
 7202000   0.89899114   -3.2285173   -1.7373197  0.055963971   -3.2285173    1.4911976   397041 
 7203000   0.89939961   -3.2293322   -1.7374195  0.057272909   -3.2293322    1.4919127   397031 
 7204000   0.89822345   -3.2283409   -1.7383417   0.05651184   -3.2283409    1.4899992   397021 
 7205000   0.89716272   -3.2262906   -1.7380135  0.060771013   -3.2262906    1.4882771   397011 
 7206000   0.89680696   -3.2263617   -1.7386372  0.057164058   -3.2263617    1.4877245   397001 
 7207000   0.89707347   -3.2292114   -1.7410073  0.056715882   -3.2292114    1.4882041   396991 
 7208000   0.89938235   -3.2307866   -1.7387146  0.056626856   -3.2307866     1.492072   396981 
 7209000   0.89872359   -3.2288388   -1.7378222  0.062018134   -3.2288388    1.4910166   396971 
 7210000   0.89702423   -3.2260187   -1.7377838   0.05974095   -3.2260187    1.4882348   396961 
 7211000   0.89773635   -3.2280759   -1.7386221  0.059650574   -3.2280759    1.4894538   396951 
 7212000   0.89974285   -3.2293926   -1.7365722   0.06034568   -3.2293926    1.4928205   396941 
 7213000   0.89991329   -3.2300822   -1.7369413  0.060839259   -3.2300822    1.4931409   396931 
 7214000   0.89993181   -3.2284884   -1.7352792  0.066266706   -3.2284884    1.4932092   396921 
 7215000   0.90013839   -3.2308313   -1.7372416  0.055162364   -3.2308313    1.4935896   396911 
 7216000   0.89928124   -3.2292833   -1.7370783  0.063699302   -3.2292833    1.4922049   396901 
 7217000    0.8992992   -3.2298296   -1.7375573  0.062979759   -3.2298296    1.4922723   396891 
 7218000   0.89806381   -3.2286737   -1.7384138  0.060864952   -3.2286737    1.4902599   396881 
 7219000   0.89695452    -3.226665   -1.7382084  0.059161512    -3.226665    1.4884566   396871 
 7220000   0.89723472   -3.2273572   -1.7383981  0.059675896   -3.2273572    1.4889591   396861 
 7221000   0.89783946   -3.2287473   -1.7387471  0.051948736   -3.2287473    1.4900002   396851 
 7222000   0.89583016   -3.2251703   -1.7384671  0.056417628   -3.2251703    1.4867032   396841 
 7223000   0.89765173   -3.2280189   -1.7382551  0.057688788   -3.2280189    1.4897638   396831 
 7224000   0.89714551   -3.2267771   -1.7378159  0.056231238   -3.2267771    1.4889612   396821 
 7225000   0.89717678   -3.2265036    -1.737453  0.056685918   -3.2265036    1.4890506   396811 
 7226000   0.89825343   -3.2274964   -1.7366213  0.057501505   -3.2274964    1.4908751   396801 
 7227000   0.89793542   -3.2266676   -1.7362828  0.059733705   -3.2266676    1.4903848   396791 
 7228000   0.89640027   -3.2243149   -1.7364406  0.060043136   -3.2243149    1.4878743   396781 
 7229000   0.89757286   -3.2242424   -1.7343842  0.058690387   -3.2242424    1.4898582   396771 
 7230000   0.89752975   -3.2234692    -1.733645  0.065046886   -3.2234692    1.4898241   396761 
 7231000   0.89778676    -3.225402   -1.7351137  0.061866787    -3.225402    1.4902883   396751 
 7232000   0.89847771    -3.225526   -1.7340531  0.057165746    -3.225526    1.4914729   396741 
 7233000   0.89766302   -3.2252449   -1.7350869  0.059670917   -3.2252449     1.490158   396731 
 7234000    0.8959456   -3.2222844   -1.7349399  0.061275909   -3.2222844    1.4873445   396721 
 7235000   0.89724672   -3.2242744   -1.7347323  0.058311562   -3.2242744    1.4895421   396711 
 7236000   0.89664022   -3.2240294   -1.7354567  0.055170398   -3.2240294    1.4885727   396701 
 7237000   0.89566168   -3.2222284   -1.7352428  0.060408314   -3.2222284    1.4869857   396691 
 7238000   0.89546023   -3.2230105   -1.7363218  0.056925517   -3.2230105    1.4866887   396681 
 7239000    0.8948073   -3.2235015   -1.7378594  0.054043045   -3.2235015    1.4856421   396671 
 7240000    0.8968688   -3.2258857   -1.7367834  0.056806926   -3.2258857    1.4891023   396661 
 7241000   0.89579462   -3.2246084    -1.737252   0.05281309   -3.2246084    1.4873563   396651 
 7242000   0.89583042   -3.2222782    -1.734825  0.061497524   -3.2222782    1.4874533   396641 
 7243000   0.89725837   -3.2260244   -1.7361625  0.061438489   -3.2260244    1.4898618   396631 
 7244000   0.89692622    -3.225052   -1.7357042  0.056406242    -3.225052    1.4893479   396621 
 7245000   0.89838291   -3.2255193    -1.733715   0.05691846   -3.2255193    1.4918043   396611 
 7246000   0.89844547   -3.2284879   -1.7365421  0.060023437   -3.2284879    1.4919458   396601 
 7247000   0.89794298   -3.2253321   -1.7341831  0.060330753   -3.2253321     1.491149   396591 
 7248000   0.89734042   -3.2258575   -1.7356716    0.0610547   -3.2258575    1.4901859   396581 
 7249000    0.8976697   -3.2264437   -1.7356733  0.064026511   -3.2264437    1.4907704   396571 
 7250000   0.89818336   -3.2292159   -1.7375549  0.059390773   -3.2292159     1.491661   396561 
 7251000   0.89725446   -3.2278062   -1.7376503    0.0636337   -3.2278062    1.4901559   396551 
 7252000   0.89814807    -3.228969   -1.7372914  0.059577418    -3.228969    1.4916776   396541 
 7253000   0.89828002    -3.228846   -1.7369116  0.055817812    -3.228846    1.4919344   396531 
 7254000    0.8979015    -3.227953   -1.7366097  0.060132019    -3.227953    1.4913433   396521 
 7255000   0.89877658   -3.2289246   -1.7360902  0.065035867   -3.2289246    1.4928344   396511 
 7256000    0.8978035   -3.2268942   -1.7356384  0.062103476   -3.2268942    1.4912558   396501 
 7257000   0.89745301    -3.226716   -1.7360048  0.065295976    -3.226716    1.4907112   396491 
 7258000   0.89759745   -3.2258169   -1.7348282  0.059024119   -3.2258169    1.4909887   396481 
 7259000   0.89869991   -3.2279964   -1.7351387  0.064184304   -3.2279964    1.4928577   396471 
 7260000   0.89779076   -3.2285829   -1.7371978   0.05679963   -3.2285829    1.4913851   396461 
 7261000   0.89679212   -3.2270656   -1.7373018  0.055937276   -3.2270656    1.4897637   396451 
 7262000   0.89487832   -3.2260733   -1.7394513  0.058918295   -3.2260733     1.486622   396441 
 7263000   0.89517363   -3.2252915   -1.7381414  0.064080922   -3.2252915    1.4871501   396431 
 7264000   0.89643151    -3.225033   -1.7357556  0.058101291    -3.225033    1.4892774   396421 
 7265000   0.89519639   -3.2245475   -1.7372846  0.055573426   -3.2245475     1.487263   396411 
 7266000   0.89652814   -3.2246986   -1.7351856  0.057991278   -3.2246986    1.4895131   396401 
 7267000   0.89593665    -3.226105   -1.7375371  0.060182078    -3.226105    1.4885679   396391 
 7268000   0.89498028   -3.2244232   -1.7374067   0.05807518   -3.2244232    1.4870164   396381 
 7269000   0.89684365   -3.2251249   -1.7349749  0.061318018   -3.2251249      1.49015   396371 
 7270000   0.89776404   -3.2259126   -1.7341956  0.059824386   -3.2259126    1.4917169   396361 
 7271000   0.89630481   -3.2245466   -1.7352167  0.059277162   -3.2245466    1.4893299   396351 
 7272000   0.89619256   -3.2248793   -1.7356984  0.058260189   -3.2248793    1.4891809   396341 
 7273000   0.89491846   -3.2228236   -1.7357223  0.059773507   -3.2228236    1.4871013   396331 
 7274000    0.8959509   -3.2244052   -1.7355507  0.057860126   -3.2244052    1.4888545   396321 
 7275000    0.8963532   -3.2273253   -1.7377647  0.056064209   -3.2273253    1.4895606   396311 
 7276000   0.89651731   -3.2251189    -1.735248  0.058536844   -3.2251189    1.4898709   396301 
 7277000   0.89601433   -3.2240468   -1.7349742  0.057225386   -3.2240468    1.4890726   396291 
 7278000    0.8973369   -3.2266446   -1.7353364  0.052166178   -3.2266446    1.4913082   396281 
 7279000   0.89637274    -3.225115   -1.7353716  0.060964869    -3.225115    1.4897434   396271 
 7280000   0.89601509   -3.2221513   -1.7329647  0.056173913   -3.2221513    1.4891866   396261 
 7281000   0.89811418   -3.2267899   -1.7340769   0.06022923   -3.2267899     1.492713   396251 
 7282000   0.89759949   -3.2261693   -1.7342741  0.056399613   -3.2261693    1.4918952   396241 
 7283000   0.89819908   -3.2260917   -1.7331622  0.057975327   -3.2260917    1.4929295   396231 
 7284000   0.89835799   -3.2258882   -1.7326569  0.060807905   -3.2258882    1.4932313   396221 
 7285000   0.89811558   -3.2260773   -1.7332113  0.064516243   -3.2260773     1.492866   396211 
 7286000   0.89663033   -3.2247035   -1.7342687  0.059418344   -3.2247035    1.4904348   396201 
 7287000   0.89929816   -3.2279699   -1.7330627  0.057449472   -3.2279699    1.4949072   396191 
 7288000    0.8972982   -3.2253981   -1.7337778  0.063227292   -3.2253981    1.4916203   396181 
 7289000   0.89552564   -3.2234881   -1.7347769  0.056682993   -3.2234881    1.4887113   396171 
 7290000   0.89871502    -3.226897    -1.732846  0.059154457    -3.226897     1.494051   396161 
 7291000   0.89677855   -3.2256975   -1.7348281  0.053933376   -3.2256975    1.4908694   396151 
 7292000   0.89755491   -3.2269158   -1.7347181  0.056535877   -3.2269158    1.4921977   396141 
 7293000   0.89569787   -3.2242191   -1.7350712  0.058122444   -3.2242191    1.4891479   396131 
 7294000   0.89465612   -3.2234678   -1.7360143  0.059636047   -3.2234678    1.4874535   396121 
 7295000   0.89689699   -3.2261744   -1.7349576  0.057775566   -3.2261744    1.4912168   396111 
 7296000   0.89758482   -3.2277498   -1.7353517  0.056669956   -3.2277498    1.4923981   396101 
 7297000   0.89682106   -3.2253276   -1.7341617  0.062228152   -3.2253276    1.4911659   396091 
 7298000   0.89714661   -3.2263352   -1.7345904  0.060007639   -3.2263352    1.4917448   396081 
 7299000   0.89694939   -3.2259944   -1.7345399  0.058580142   -3.2259944    1.4914546   396071 
 7300000   0.89581301   -3.2239987   -1.7343961  0.060440108   -3.2239987    1.4896026   396061 
 7301000   0.89585336   -3.2243698   -1.7346625  0.059593506   -3.2243698    1.4897073   396051 
 7302000   0.89709297   -3.2255962   -1.7337899  0.056573686   -3.2255962    1.4918063   396041 
 7303000   0.89554439   -3.2222796   -1.7330109  0.059781594   -3.2222796    1.4892687   396031 
 7304000    0.8954011   -3.2232005   -1.7341325  0.057642308   -3.2232005     1.489068   396021 
 7305000   0.89665931   -3.2237899   -1.7325917  0.058697565   -3.2237899    1.4911981   396011 
 7306000   0.89738561   -3.2250259   -1.7325823  0.057772661   -3.2250259    1.4924437   396001 
 7307000   0.89626845   -3.2225181   -1.7318947  0.061394192   -3.2225181    1.4906234   395991 
 7308000   0.89749003   -3.2234459   -1.7307532  0.062055608   -3.2234459    1.4926927   395981 
 7309000   0.89705807   -3.2229809   -1.7309689  0.063922458   -3.2229809     1.492012   395971 
 7310000   0.89714479   -3.2234672   -1.7312734  0.063784591   -3.2234672    1.4921939   395961 
 7311000   0.89639231   -3.2228955   -1.7319156  0.058296199   -3.2228955      1.49098   395951 
 7312000   0.89542643   -3.2224673   -1.7330562  0.059806652   -3.2224673     1.489411   395941 
 7313000   0.89553683   -3.2220366   -1.7324043  0.059312517   -3.2220366    1.4896323   395931 
 7314000   0.89511125   -3.2214172   -1.7324553  0.053652326   -3.2214172     1.488962   395921 
 7315000   0.89512522     -3.22244   -1.7334172  0.057954086     -3.22244    1.4890228   395911 
 7316000   0.89529328   -3.2230559   -1.7337159  0.055359496   -3.2230559      1.48934   395901 
 7317000   0.89567862    -3.222131   -1.7321123   0.05412885    -3.222131    1.4900187   395891 
 7318000     0.895965   -3.2220055   -1.7314728  0.059629312   -3.2220055    1.4905327   395881 
 7319000   0.89654423   -3.2228398   -1.7313058  0.067790623   -3.2228398     1.491534   395871 
 7320000   0.89653563   -3.2220538   -1.7304964  0.058103234   -3.2220538    1.4915574   395861 
 7321000   0.89570118   -3.2205982   -1.7303914  0.060315442   -3.2205982    1.4902068   395851 
 7322000   0.89683371   -3.2214656   -1.7293369  0.059426028   -3.2214656    1.4921287   395841 
 7323000   0.89445402   -3.2194094   -1.7312024  0.059547455   -3.2194094     1.488207   395831 
 7324000   0.89597859   -3.2208426   -1.7300613  0.060602918   -3.2208426    1.4907813   395821 
 7325000   0.89669974   -3.2217504   -1.7297315  0.058424045   -3.2217504    1.4920189   395811 
 7326000   0.89623393   -3.2199427   -1.7286612  0.061383381   -3.2199427    1.4912815   395801 
 7327000   0.89716635   -3.2228029   -1.7299322  0.059417147   -3.2228029    1.4928707   395791 
 7328000    0.8949764   -3.2201772    -1.730913  0.056700108   -3.2201772    1.4892643   395781 
 7329000   0.89599651   -3.2206488   -1.7296494  0.052627224   -3.2206488    1.4909994   395771 
 7330000   0.89594736   -3.2215127   -1.7305574  0.059750562   -3.2215127    1.4909553   395761 
 7331000   0.89756297   -3.2217598   -1.7280781  0.063921785   -3.2217598    1.4936816   395751 
 7332000   0.89669372   -3.2224346   -1.7301619  0.054306488   -3.2224346    1.4922728   395741 
 7333000   0.89676327   -3.2220996   -1.7296733  0.055588609   -3.2220996    1.4924262   395731 
 7334000   0.89563516   -3.2204703   -1.7298838  0.058988575   -3.2204703    1.4905865   395721 
 7335000   0.89533798    -3.220652   -1.7305225  0.064174443    -3.220652    1.4901295   395711 
 7336000   0.89624045   -3.2206266   -1.7289574   0.05910307   -3.2206266    1.4916692   395701 
 7337000   0.89384327   -3.2189098   -1.7311928  0.059726682   -3.2189098     1.487717   395691 
 7338000   0.89485196   -3.2188729   -1.7294394  0.054795452   -3.2188729    1.4894335   395681 
 7339000   0.89489127   -3.2197576    -1.730221  0.059299805   -3.2197576    1.4895366   395671 
 7340000   0.89490674   -3.2192479   -1.7296479  0.060308793   -3.2192479       1.4896   395661 
 7341000    0.8944414   -3.2184065   -1.7295434  0.061981405   -3.2184065    1.4888631   395651 
 7342000   0.89602983   -3.2194349   -1.7278901  0.058007481   -3.2194349    1.4915448   395641 
 7343000   0.89476348   -3.2183712   -1.7288967  0.057564002   -3.2183712    1.4894745   395631 
 7344000   0.89485674   -3.2194145   -1.7297471  0.054861233   -3.2194145    1.4896674   395621 
 7345000    0.8947326   -3.2202011   -1.7307027  0.051400542   -3.2202011    1.4894984   395611 
 7346000   0.89426986   -3.2198599   -1.7310942  0.054162539   -3.2198599    1.4887657   395601 
 7347000   0.89438105   -3.2190606   -1.7300722  0.061279422   -3.2190606    1.4889884   395591 
 7348000   0.89580983   -3.2212431   -1.7298383  0.058877171   -3.2212431    1.4914048   395581 
 7349000   0.89457477   -3.2188611   -1.7294749  0.061868398   -3.2188611    1.4893862   395571 
 7350000   0.89383591   -3.2187299   -1.7305361  0.055152411   -3.2187299    1.4881937   395561 
 7351000   0.89456453   -3.2199256   -1.7304811  0.059278791   -3.2199256    1.4894445   395551 
 7352000   0.89337917   -3.2179263   -1.7304178  0.060173057   -3.2179263    1.4875085   395541 
 7353000   0.89513504   -3.2207783   -1.7303086  0.061868409   -3.2207783    1.4904697   395531 
 7354000   0.89602465   -3.2221934   -1.7302047  0.058252564   -3.2221934    1.4919887   395521 
 7355000   0.89430604   -3.2192362   -1.7300715  0.058902045   -3.2192362    1.4891647   395511 
 7356000   0.89275259   -3.2181207   -1.7315052  0.058079804   -3.2181207    1.4866155   395501 
 7357000   0.89570604   -3.2232969   -1.7317255  0.053781667   -3.2232969    1.4915713   395491 
 7358000   0.89450854   -3.2219864   -1.7323716  0.053125109   -3.2219864    1.4896149   395481 
 7359000   0.89530881   -3.2225435   -1.7315583  0.062730188   -3.2225435    1.4909853   395471 
 7360000   0.89565236    -3.223208   -1.7316129  0.059637406    -3.223208    1.4915951   395461 
 7361000    0.8948927   -3.2231643   -1.7327967  0.056299692   -3.2231643    1.4903677   395451 
 7362000   0.89375322   -3.2213133   -1.7328057  0.057311541   -3.2213133    1.4885076   395441 
 7363000   0.89381308   -3.2213357   -1.7326908  0.056007854   -3.2213357    1.4886449   395431 
 7364000    0.8958316   -3.2237615    -1.731717  0.056436696   -3.2237615    1.4920445   395421 
 7365000    0.8943583   -3.2212683     -1.73164  0.061805503   -3.2212683    1.4896283   395411 
 7366000   0.89411857   -3.2227907    -1.733524  0.062252538   -3.2227907    1.4892667   395401 
 7367000   0.89593375   -3.2240837   -1.7317558   0.06297605   -3.2240837    1.4923279   395391 
 7368000   0.89606488   -3.2245162   -1.7319322  0.061989839   -3.2245162     1.492584   395381 
 7369000   0.89378068   -3.2232329    -1.734416  0.060086257   -3.2232329    1.4888169   395371 
 7370000   0.89521102   -3.2239531   -1.7327159  0.057323369   -3.2239531    1.4912372   395361 
 7371000   0.89483605   -3.2234584   -1.7328081  0.058561543   -3.2234584    1.4906503   395351 
 7372000   0.89505821   -3.2245785   -1.7335204  0.054716411   -3.2245785    1.4910581   395341 
 7373000   0.89354585   -3.2220816   -1.7335052  0.061785251   -3.2220816    1.4885763   395331 
 7374000   0.89475021   -3.2221603   -1.7315399  0.060257272   -3.2221603    1.4906204   395321 
 7375000   0.89538787   -3.2232314   -1.7315109  0.061687947   -3.2232314    1.4917204   395311 
 7376000   0.89757415   -3.2259163   -1.7305156  0.054978068   -3.2259163    1.4954006   395301 
 7377000    0.8964228   -3.2231748   -1.7296546  0.057626868   -3.2231748    1.4935202   395291 
 7378000   0.89512253   -3.2208475   -1.7294559  0.058579661   -3.2208475    1.4913916   395281 
 7379000   0.89617135   -3.2221301   -1.7289533  0.054556689   -3.2221301    1.4931768   395271 
 7380000    0.8944704   -3.2196266   -1.7292461  0.058986407   -3.2196266    1.4903804   395261 
 7381000   0.89491173   -3.2205686   -1.7294151  0.057613525   -3.2205686    1.4911535   395251 
 7382000   0.89507523   -3.2211167    -1.729653  0.054730059   -3.2211167    1.4914637   395241 
 7383000   0.89309822   -3.2188117   -1.7306047  0.058430558   -3.2188117     1.488207   395231 
 7384000   0.89378073   -3.2200364   -1.7306544  0.059059699   -3.2200364     1.489382   395221 
 7385000   0.89293966   -3.2196244   -1.7316063   0.05289508   -3.2196244    1.4880181   395211 
 7386000   0.89182554   -3.2192471    -1.733048  0.053773952   -3.2192471    1.4861991   395201 
 7387000   0.89209447   -3.2190954   -1.7324104  0.046905865   -3.2190954    1.4866849   395191 
 7388000    0.8921822    -3.218704   -1.7318353  0.051550051    -3.218704    1.4868687   395181 
 7389000    0.8919052   -3.2177301   -1.7312854  0.060847847   -3.2177301    1.4864447   395171 
 7390000   0.89407467   -3.2204863   -1.7303882  0.056238183   -3.2204863    1.4900981   395161 
 7391000   0.89468012   -3.2202536   -1.7291088  0.058742322   -3.2202536    1.4911449   395151 
 7392000   0.89559929   -3.2217808   -1.7290662  0.058741003   -3.2217808    1.4927146   395141 
 7393000   0.89440232   -3.2209226   -1.7301653  0.058434011   -3.2209226    1.4907573   395131 
 7394000    0.8944689   -3.2205887   -1.7296827  0.056697186   -3.2205887     1.490906   395121 
 7395000   0.89379327   -3.2190969   -1.7292793   0.05748688   -3.2190969    1.4898176   395111 
 7396000   0.89409711   -3.2203824   -1.7300207  0.055123967   -3.2203824    1.4903617   395101 
 7397000   0.89365199   -3.2196098   -1.7299523  0.056671772   -3.2196098    1.4896575   395091 
 7398000   0.89388241   -3.2209657   -1.7308864  0.052023154   -3.2209657    1.4900793   395081 
 7399000   0.89302619   -3.2203545   -1.7316649  0.054513852   -3.2203545    1.4886897   395071 
 7400000   0.89267922   -3.2203911   -1.7322422  0.058306353   -3.2203911    1.4881489   395061 
 7401000   0.89326464   -3.2224111   -1.7332486  0.056945669   -3.2224111    1.4891626   395051 
 7402000   0.89365884   -3.2215602   -1.7317028  0.059944697   -3.2215602    1.4898574   395041 
 7403000   0.89308636   -3.2206658    -1.731725  0.059086848   -3.2206658    1.4889407   395031 
 7404000   0.89438995   -3.2227233   -1.7315715  0.062919739   -3.2227233    1.4911518   395021 
 7405000   0.89433359   -3.2230926    -1.731997  0.060916171   -3.2230926    1.4910956   395011 
 7406000   0.89528465   -3.2236535   -1.7309344  0.059060037   -3.2236535     1.492719   395001 
 7407000   0.89404459   -3.2231853   -1.7324961  0.061794909   -3.2231853    1.4906892   394991 
 7408000   0.89388007   -3.2226849   -1.7322322  0.058632112   -3.2226849    1.4904526   394981 
 7409000   0.89534681   -3.2237843   -1.7308483  0.056434963   -3.2237843    1.4929361   394971 
 7410000   0.89501237   -3.2234859   -1.7310697    0.0622233   -3.2234859    1.4924162   394961 
 7411000    0.8948394    -3.224407   -1.7322415   0.05871849    -3.224407    1.4921656   394951 
 7412000   0.89325371   -3.2227526   -1.7331935  0.062559328   -3.2227526    1.4895591   394941 
 7413000   0.89400758   -3.2222942   -1.7314402  0.060003294   -3.2222942     1.490854   394931 
 7414000   0.89335936   -3.2235338    -1.733723  0.058844167   -3.2235338    1.4898107   394921 
 7415000   0.89435935   -3.2243296   -1.7328135  0.059493736   -3.2243296    1.4915161   394911 
 7416000   0.89515502   -3.2233831   -1.7305023  0.059497019   -3.2233831    1.4928809   394901 
 7417000   0.89508156   -3.2224259   -1.7296297  0.060644493   -3.2224259    1.4927962   394891 
 7418000   0.89474016   -3.2233251   -1.7310605  0.060283821   -3.2233251    1.4922646   394881 
 7419000   0.89387471   -3.2219988   -1.7311399  0.059694467   -3.2219988    1.4908589   394871 
 7420000   0.89280262   -3.2204788   -1.7313703  0.059160797   -3.2204788    1.4891085   394861 
 7421000   0.89516341   -3.2237673   -1.7306834  0.058830817   -3.2237673    1.4930839   394851 
 7422000   0.89185363   -3.2188964   -1.7312953  0.060815667   -3.2188964     1.487601   394841 
 7423000   0.89305398   -3.2211562   -1.7315152  0.060337625   -3.2211562    1.4896409   394831 
 7424000   0.89249228   -3.2194607    -1.730719  0.062170193   -3.2194607    1.4887417   394821 
 7425000   0.89290641    -3.220435   -1.7309648  0.055092463    -3.220435    1.4894702   394811 
 7426000   0.89333297   -3.2201648   -1.7299452    0.0549467   -3.2201648    1.4902195   394801 
 7427000   0.89351581   -3.2203999   -1.7298376  0.054553049   -3.2203999    1.4905623   394791 
 7428000   0.89302638   -3.2199344   -1.7301508  0.057144748   -3.2199344    1.4897836   394781 
 7429000   0.89228611   -3.2174154    -1.728829   0.05512782   -3.2174154    1.4885863   394771 
 7430000   0.89357144   -3.2207377   -1.7299693  0.054881508   -3.2207377    1.4907684   394761 
 7431000   0.89188119   -3.2169266   -1.7289404  0.056723846   -3.2169266    1.4879862   394751 
 7432000    0.8917969   -3.2166038   -1.7287206  0.054410479   -3.2166038    1.4878833   394741 
 7433000   0.89311169   -3.2179767   -1.7278621  0.057355177   -3.2179767    1.4901146   394731 
 7434000   0.89160553   -3.2178778   -1.7302385  0.051701391   -3.2178778    1.4876393   394721 
 7435000   0.89139301   -3.2179285   -1.7306061  0.056300862   -3.2179285    1.4873224   394711 
 7436000   0.89116635    -3.217052   -1.7300701  0.060199132    -3.217052    1.4869819   394701 
 7437000   0.89415706   -3.2205278   -1.7285179  0.052861267   -3.2205278    1.4920099   394691 
 7438000    0.8917903   -3.2169724    -1.728874  0.060848168   -3.2169724    1.4880984   394681 
 7439000   0.89344911   -3.2203325   -1.7294283  0.054653548   -3.2203325    1.4909042   394671 
 7440000   0.89351913   -3.2204684   -1.7294096  0.051966931   -3.2204684    1.4910588   394661 
 7441000    0.8924444   -3.2204064   -1.7311033  0.057174637   -3.2204064    1.4893031   394651 
 7442000   0.89344229   -3.2203269   -1.7293208  0.058559117   -3.2203269    1.4910061   394641 
 7443000   0.89307096   -3.2191762   -1.7287519  0.057899155   -3.2191762    1.4904242   394631 
 7444000   0.89342454   -3.2189437   -1.7278916  0.058640409   -3.2189437    1.4910521   394621 
 7445000   0.89381842   -3.2189075   -1.7271602  0.054950921   -3.2189075    1.4917472   394611 
 7446000   0.89331626   -3.2193925   -1.7284456  0.056514402   -3.2193925    1.4909469   394601 
 7447000   0.89392849   -3.2213028   -1.7292963  0.059735246   -3.2213028    1.4920066   394591 
 7448000   0.89216238   -3.2169952   -1.7278986  0.058517768   -3.2169952    1.4890966   394581 
 7449000   0.89332677      -3.2212   -1.7301221  0.057185961      -3.2212    1.4910779   394571 
 7450000   0.89225217   -3.2189093   -1.7295873  0.055964439   -3.2189093    1.4893219   394561 
 7451000   0.89310127   -3.2203811   -1.7296041  0.057948387   -3.2203811     1.490777   394551 
 7452000   0.89262827   -3.2195621   -1.7295369  0.055476398   -3.2195621    1.4900253   394541 
 7453000   0.89164771   -3.2171469   -1.7287208  0.055098188   -3.2171469    1.4884262   394531 
 7454000   0.89182468   -3.2165422   -1.7277829   0.06107127   -3.2165422    1.4887593   394521 
 7455000   0.89303528   -3.2187018   -1.7278838  0.054925737   -3.2187018     1.490818   394511 
 7456000   0.89329871   -3.2177091   -1.7264135  0.055935988   -3.2177091    1.4912956   394501 
 7457000    0.8929747    -3.218795   -1.7280025  0.059036425    -3.218795    1.4907925   394491 
 7458000   0.89303706   -3.2201559   -1.7292216  0.056247568   -3.2201559    1.4909344   394481 
 7459000    0.8938994   -3.2202159    -1.727804  0.053920501   -3.2202159    1.4924119   394471 
 7460000   0.89328903   -3.2193653   -1.7279346  0.059251515   -3.2193653    1.4914306   394461 
 7461000   0.89316256   -3.2181592   -1.7269019  0.055741164   -3.2181592    1.4912573   394451 
 7462000   0.89279818   -3.2155486   -1.7248619  0.060006547   -3.2155486    1.4906867   394441 
 7463000   0.89327694    -3.216804   -1.7252801  0.055481557    -3.216804    1.4915239   394431 
 7464000   0.89248189   -3.2158005   -1.7255663  0.058118275   -3.2158005    1.4902342   394421 
 7465000   0.89287749   -3.2166333   -1.7257008  0.059279611   -3.2166333    1.4909325   394411 
 7466000   0.89286949   -3.2149651   -1.7240081  0.063386739   -3.2149651     1.490957   394401 
 7467000   0.89134213   -3.2136354   -1.7251912  0.057619422   -3.2136354    1.4884442   394391 
 7468000   0.89208837   -3.2161045   -1.7263763  0.058237496   -3.2161045    1.4897282   394381 
 7469000   0.89108496   -3.2151793   -1.7270891  0.055571006   -3.2151793    1.4880903   394371 
 7470000   0.88986235   -3.2134789   -1.7273927  0.052414292   -3.2134789    1.4860862   394361 
 7471000   0.89100543   -3.2150765   -1.7270436   0.05485707   -3.2150765    1.4880329   394351 
 7472000   0.89045786   -3.2131986   -1.7260425  0.058379768   -3.2131986    1.4871562   394341 
 7473000   0.89070314   -3.2134734   -1.7258699  0.051897202   -3.2134734    1.4876035   394331 
 7474000   0.88994108   -3.2129957   -1.7266272  0.054577284   -3.2129957    1.4863685   394321 
 7475000   0.89080024   -3.2155428   -1.7277017  0.052363522   -3.2155428    1.4878411   394311 
 7476000    0.8919083   -3.2158022   -1.7260726  0.061670464   -3.2158022    1.4897296   394301 
 7477000   0.89309759   -3.2164317   -1.7246777  0.057227942   -3.2164317    1.4917539   394291 
 7478000   0.89174659    -3.214167   -1.7246319  0.057383884    -3.214167    1.4895351   394281 
 7479000   0.89246806   -3.2155819   -1.7248039  0.059961774   -3.2155819     1.490778   394271 
 7480000   0.89424601   -3.2188133   -1.7250276  0.057831192   -3.2188133    1.4937858   394261 
 7481000   0.89329762     -3.21706   -1.7248206  0.059631149     -3.21706    1.4922394   394251 
 7482000   0.89166545   -3.2160282   -1.7264775  0.055883668   -3.2160282    1.4895507   394241 
 7483000   0.89354602   -3.2188339   -1.7261038  0.053906587   -3.2188339    1.4927301   394231 
 7484000   0.89296739   -3.2180908   -1.7262895  0.055076296   -3.2180908    1.4918013   394221 
 7485000   0.89142447   -3.2171386   -1.7278772  0.055624066   -3.2171386    1.4892614   394211 
 7486000   0.89045911   -3.2157753   -1.7280889  0.060406068   -3.2157753    1.4876864   394201 
 7487000   0.89167695   -3.2179232   -1.7281644  0.055054889   -3.2179232    1.4897588   394191 
 7488000   0.89186656       -3.219   -1.7288866  0.060189486       -3.219    1.4901134   394181 
 7489000   0.89452751   -3.2232845   -1.7286873  0.054146905   -3.2232845    1.4945972   394171 
 7490000   0.89232014   -3.2205315   -1.7295846  0.061022446   -3.2205315    1.4909469   394161 
 7491000   0.89233625   -3.2199638   -1.7289521  0.056188559   -3.2199638    1.4910116   394151 
 7492000   0.89361252    -3.221187   -1.7280049  0.057764552    -3.221187    1.4931821   394141 
 7493000     0.891553    -3.218476   -1.7286975    0.0615958    -3.218476    1.4897785   394131 
 7494000   0.89341055   -3.2195443    -1.726624  0.064260229   -3.2195443    1.4929203   394121 
 7495000   0.89350403   -3.2195992   -1.7264848  0.056075685   -3.2195992    1.4931144   394111 
 7496000   0.89253577   -3.2188125   -1.7272783  0.055723982   -3.2188125    1.4915342   394101 
 7497000   0.89375233   -3.2207735   -1.7271683  0.059120626   -3.2207735    1.4936052   394091 
 7498000   0.89255604   -3.2172171   -1.7255733  0.058838764   -3.2172171    1.4916438   394081 
 7499000    0.8915128     -3.21703   -1.7270919  0.061721586     -3.21703    1.4899381   394071 
 7500000   0.89190657   -3.2172816   -1.7266476  0.061354404   -3.2172816    1.4906341   394061 
 7501000   0.89298659   -3.2173004   -1.7248235  0.060096695   -3.2173004     1.492477   394051 
 7502000   0.89209886   -3.2157881    -1.724757   0.06366809   -3.2157881    1.4910311   394041 
 7503000   0.89344153   -3.2178285   -1.7245154  0.059491699   -3.2178285    1.4933131   394031 
 7504000   0.89266154   -3.2169077   -1.7248604  0.056506374   -3.2169077    1.4920473   394021 
 7505000   0.89103501   -3.2147894    -1.725423  0.062503412   -3.2147894    1.4893664   394011 
 7506000   0.89130618   -3.2160999   -1.7262424  0.061594351   -3.2160999    1.4898575   394001 
 7507000   0.89170949   -3.2166486   -1.7260792  0.054094875   -3.2166486    1.4905695   393991 
 7508000   0.89198621   -3.2178347   -1.7267649   0.05753999   -3.2178347    1.4910699   393981 
 7509000   0.89099113   -3.2156294   -1.7261851  0.061648773   -3.2156294    1.4894443   393971 
 7510000   0.89104809   -3.2163477   -1.7267704  0.053125593   -3.2163477    1.4895773   393961 
 7511000   0.89155294   -3.2177712   -1.7273121  0.052756901   -3.2177712    1.4904591   393951 
 7512000   0.89051483   -3.2151822   -1.7264208  0.055123345   -3.2151822    1.4887614   393941 
 7513000   0.89051684   -3.2153053   -1.7265027  0.056005038   -3.2153053    1.4888026   393931 
 7514000   0.89112663   -3.2162688   -1.7264089  0.055929079   -3.2162688    1.4898599   393921 
 7515000   0.89069487   -3.2141711   -1.7249952  0.058044591   -3.2141711    1.4891758   393911 
 7516000   0.89129844   -3.2157093   -1.7254865  0.055100963   -3.2157093    1.4902228   393901 
 7517000    0.8917339   -3.2169243   -1.7259356  0.053506331   -3.2169243    1.4909887   393891 
 7518000   0.89076582   -3.2151536   -1.7257457  0.056420012   -3.2151536    1.4894079   393881 
 7519000   0.89046794   -3.2136789   -1.7247313  0.057022799   -3.2136789    1.4889476   393871 
 7520000   0.89146394   -3.2154802   -1.7248294  0.056511518   -3.2154802    1.4906509   393861 
 7521000   0.88909695   -3.2135734   -1.7268427  0.050901651   -3.2135734    1.4867307   393851 
 7522000    0.8913907   -3.2159338   -1.7253297  0.057272793   -3.2159338    1.4906041   393841 
 7523000   0.89014864   -3.2140728    -1.725508  0.057440789   -3.2140728    1.4885649   393831 
 7524000   0.88992195   -3.2148994   -1.7266758  0.056901425   -3.2148994    1.4882236   393821 
 7525000    0.8911134   -3.2172281   -1.7269742   0.06069918   -3.2172281    1.4902539   393811 
 7526000   0.89100981   -3.2177854   -1.7276669  0.058895782   -3.2177854    1.4901185   393801 
 7527000   0.89003866   -3.2167754   -1.7282433  0.060930914   -3.2167754    1.4885321   393791 
 7528000   0.89061288   -3.2179005   -1.7283702   0.05624276   -3.2179005    1.4895303   393781 
 7529000   0.89135825   -3.2184542   -1.7276394  0.057000082   -3.2184542    1.4908148   393771 
 7530000   0.89030728   -3.2175047   -1.7284099  0.062214743   -3.2175047    1.4890948   393761 
 7531000   0.89322525   -3.2216692   -1.7276559  0.059243909   -3.2216692    1.4940133   393751 
 7532000   0.89230812   -3.2198317   -1.7273146  0.056861852   -3.2198317    1.4925172   393741 
 7533000   0.89271899   -3.2211716   -1.7279293  0.061316319   -3.2211716    1.4932423   393731 
 7534000    0.8920818   -3.2197843   -1.7275699   0.06492849   -3.2197843    1.4922144   393721 
 7535000   0.89161887   -3.2209354   -1.7294574   0.06329543   -3.2209354    1.4914779   393711 
 7536000   0.89221262   -3.2214481   -1.7289391  0.058761905   -3.2214481    1.4925091   393701 
 7537000   0.89002306   -3.2188889   -1.7300047  0.058411506   -3.2188889    1.4888841   393691 
 7538000   0.89041983   -3.2190476   -1.7294618  0.059509774   -3.2190476    1.4895857   393681 
 7539000   0.89157497   -3.2192035   -1.7276474  0.061844481   -3.2192035    1.4915561   393671 
 7540000   0.89130414   -3.2196928    -1.728552  0.060400934   -3.2196928    1.4911408   393661 
 7541000   0.89123265   -3.2198753   -1.7288162  0.058710216   -3.2198753    1.4910591   393651 
 7542000   0.89047744   -3.2180272   -1.7281938  0.062217602   -3.2180272    1.4898335   393641 
 7543000   0.89123207   -3.2201604   -1.7290265  0.061136974   -3.2201604    1.4911339   393631 
 7544000   0.89170709   -3.2205969   -1.7286303  0.058052859   -3.2205969    1.4919666   393621 
 7545000   0.88997429   -3.2180945   -1.7289894  0.058032172   -3.2180945    1.4891052   393611 
 7546000   0.89040683   -3.2180624   -1.7281957   0.05675436   -3.2180624    1.4898667   393601 
 7547000   0.88992286   -3.2162653   -1.7271705  0.056884943   -3.2162653    1.4890948   393591 
 7548000   0.88989078    -3.215463   -1.7263841  0.056186788    -3.215463    1.4890789   393581 
 7549000   0.88998641   -3.2152818    -1.726005  0.056776769   -3.2152818    1.4892768   393571 
 7550000   0.88927405   -3.2150685    -1.726946  0.059743202   -3.2150685    1.4881225   393561 
 7551000   0.89098822   -3.2165936   -1.7255647  0.059255055   -3.2165936    1.4910289   393551 
 7552000   0.89010924   -3.2166389   -1.7270431  0.054687033   -3.2166389    1.4895959   393541 
 7553000   0.89038916   -3.2160179   -1.7259158   0.05978481   -3.2160179    1.4901022   393531 
 7554000   0.88889887   -3.2143206   -1.7266747  0.062649162   -3.2143206    1.4876459   393521 
 7555000    0.8908135   -3.2158673   -1.7249792   0.05943269   -3.2158673    1.4908881   393511 
 7556000   0.89167588   -3.2162531   -1.7238838  0.056555029   -3.2162531    1.4923693   393501 
 7557000   0.88891581    -3.212736   -1.7249483  0.059240443    -3.212736    1.4877877   393491 
 7558000   0.89076199   -3.2154012   -1.7244856  0.056456328   -3.2154012    1.4909155   393481 
 7559000   0.89011708   -3.2146532   -1.7247792  0.059210418   -3.2146532     1.489874   393471 
 7560000   0.89157502   -3.2167601   -1.7244079  0.056916752   -3.2167601    1.4923522   393461 
 7561000   0.89134476   -3.2160192   -1.7240145  0.060316186   -3.2160192    1.4920047   393451 
 7562000   0.89181247   -3.2158256       -1.723  0.056398207   -3.2158256    1.4928256   393441 
 7563000   0.89069285   -3.2152733    -1.724284  0.055168579   -3.2152733    1.4909893   393431 
 7564000   0.89125641   -3.2175353   -1.7255647  0.053875572   -3.2175353    1.4919706   393421 
 7565000   0.88949506   -3.2147465   -1.7256866  0.057722777   -3.2147465    1.4890599   393411 
 7566000    0.8892321   -3.2150986    -1.726441  0.056266225   -3.2150986    1.4886575   393401 
 7567000   0.88942734   -3.2160171   -1.7269948  0.057918596   -3.2160171    1.4890222   393391 
 7568000   0.89014955   -3.2180507   -1.7277815  0.055300183   -3.2180507    1.4902692   393381 
 7569000   0.88812653   -3.2148514   -1.7279312  0.061576789   -3.2148514    1.4869201   393371 
 7570000   0.88912751   -3.2171781   -1.7285443  0.059341094   -3.2171781    1.4886338   393361 
 7571000   0.88991657   -3.2174392   -1.7274464  0.058453468   -3.2174392    1.4899928   393351 
 7572000   0.89007483   -3.2167075   -1.7264118  0.062381231   -3.2167075    1.4902957   393341 
 7573000   0.89156961   -3.2192209   -1.7263845  0.060304417   -3.2192209    1.4928364   393331 
 7574000   0.89070931   -3.2167554   -1.7253216  0.059496177   -3.2167554    1.4914338   393321 
 7575000   0.89102326   -3.2177053   -1.7257079  0.055489998   -3.2177053    1.4919975   393311 
 7576000   0.89045517   -3.2170569   -1.7259728  0.060638505   -3.2170569    1.4910841   393301 
 7577000   0.89008554   -3.2183008   -1.7277977  0.055322063   -3.2183008    1.4905031   393291 
 7578000   0.89083407    -3.219268   -1.7274736  0.062977074    -3.219268    1.4917944   393281 
 7579000   0.89189884   -3.2203527   -1.7267372  0.058135849   -3.2203527    1.4936155   393271 
 7580000   0.89191218   -3.2214251   -1.7277493   0.06054578   -3.2214251    1.4936758   393261 
 7581000   0.89091728   -3.2192177   -1.7271701   0.06005209   -3.2192177    1.4920476   393251 
 7582000   0.89184541   -3.2194027   -1.7257627  0.060383825   -3.2194027      1.49364   393241 
 7583000   0.89236999   -3.2219698   -1.7274133  0.056109736   -3.2219698    1.4945565   393231 
 7584000   0.89055166   -3.2194846   -1.7279355  0.050384651   -3.2194846    1.4915491   393221 
 7585000   0.88950915    -3.219563   -1.7297221  0.049989493    -3.219563    1.4898409   393211 
 7586000   0.88912878    -3.219307   -1.7300653  0.052704102    -3.219307    1.4892417   393201 
 7587000   0.88914599   -3.2190559   -1.7297475  0.050943399   -3.2190559    1.4893084   393191 
 7588000   0.88841248   -3.2186356    -1.730518  0.058780084   -3.2186356    1.4881176   393181 
 7589000   0.88990877   -3.2193298   -1.7286679  0.057160499   -3.2193298    1.4906619   393171 
 7590000   0.89035627   -3.2204295   -1.7289801  0.058118856   -3.2204295    1.4914494   393161 
 7591000   0.89004133   -3.2194462   -1.7284865   0.05794888   -3.2194462    1.4909598   393151 
 7592000   0.88941175   -3.2170392   -1.7270962  0.056086521   -3.2170392     1.489943   393141 
 7593000   0.89025436   -3.2174863   -1.7260938  0.055284789   -3.2174863    1.4913925   393131 
 7594000   0.88976843   -3.2167876   -1.7261712  0.056357079   -3.2167876    1.4906163   393121 
 7595000   0.88979053    -3.217153   -1.7264617   0.05491177    -3.217153    1.4906913   393111 
 7596000    0.8881252   -3.2170088   -1.7290696  0.051662029   -3.2170088    1.4879392   393101 
 7597000   0.88672688   -3.2143756   -1.7287413   0.05937198   -3.2143756    1.4856343   393091 
 7598000   0.88920402    -3.218632   -1.7288096  0.051801832    -3.218632    1.4898224   393081 
 7599000   0.88664133   -3.2141042   -1.7285377  0.054011091   -3.2141042    1.4855665   393071 
 7600000   0.88787812    -3.214681   -1.7270044  0.057371951    -3.214681    1.4876766   393061 
 7601000   0.88791322   -3.2135467   -1.7257734  0.059811725   -3.2135467    1.4877733   393051 
 7602000    0.8888266   -3.2142289   -1.7248873  0.058231092   -3.2142289    1.4893416   393041 
 7603000   0.88871794   -3.2132808   -1.7240834  0.057927674   -3.2132808    1.4891974   393031 
 7604000   0.89051686   -3.2158414   -1.7235917  0.054269441   -3.2158414    1.4922498   393021 
 7605000   0.89056787   -3.2155269   -1.7231537   0.05670714   -3.2155269    1.4923732   393011 
 7606000   0.88991231   -3.2159333   -1.7246207  0.056104557   -3.2159333    1.4913126   393001 
 7607000   0.88889854   -3.2140794   -1.7244277   0.05535862   -3.2140794    1.4896516   392991 
 7608000   0.88887954   -3.2145009   -1.7248432  0.056998439   -3.2145009    1.4896577   392981 
 7609000    0.8900869   -3.2149652   -1.7232461  0.051056232   -3.2149652    1.4917191   392971 
 7610000   0.88942225   -3.2139466   -1.7233035  0.060513483   -3.2139466    1.4906431   392961 
 7611000   0.88818855   -3.2145966   -1.7259833  0.055299483   -3.2145966    1.4886133   392951 
 7612000   0.88778535   -3.2141184   -1.7261429  0.056525647   -3.2141184    1.4879754   392941 
 7613000   0.88908105   -3.2152368   -1.7250518  0.056533262   -3.2152368     1.490185   392931 
 7614000   0.88854436   -3.2147906   -1.7254673  0.054800805   -3.2147906    1.4893234   392921 
 7615000   0.89091835   -3.2188068   -1.7254662  0.053509435   -3.2188068    1.4933405   392911 
 7616000   0.88896947   -3.2166295   -1.7265177  0.055117385   -3.2166295    1.4901118   392901 
 7617000   0.88923128   -3.2155046   -1.7249161  0.057435622   -3.2155046    1.4905886   392891 
 7618000   0.88926959   -3.2156354   -1.7249446  0.056002875   -3.2156354    1.4906907   392881 
 7619000   0.88934259   -3.2173002   -1.7264491  0.057056849   -3.2173002     1.490851   392871 
 7620000   0.88772459   -3.2138757   -1.7256991  0.057133083   -3.2138757    1.4881766   392861 
 7621000   0.88834608   -3.2141045   -1.7248482  0.055555889   -3.2141045    1.4892563   392851 
 7622000   0.88790103   -3.2144234   -1.7258753  0.055999193   -3.2144234    1.4885481   392841 
 7623000   0.88739543   -3.2135018   -1.7257634  0.057654501   -3.2135018    1.4877384   392831 
 7624000   0.88856537   -3.2168133   -1.7270756  0.050338141   -3.2168133    1.4897377   392821 
 7625000   0.88861483   -3.2165498   -1.7266912  0.052762661   -3.2165498    1.4898586   392811 
 7626000   0.88976798   -3.2175138   -1.7256839  0.053319704   -3.2175138    1.4918299   392801 
 7627000   0.88903811   -3.2171638   -1.7265196   0.05783822   -3.2171638    1.4906442   392791 
 7628000   0.89005353   -3.2173438   -1.7249591  0.058645681   -3.2173438    1.4923847   392781 
 7629000     0.890371   -3.2177095   -1.7247544  0.055311041   -3.2177095     1.492955   392771 
 7630000    0.8888466    -3.215083   -1.7246461  0.060540845    -3.215083    1.4904369   392761 
 7631000   0.88787244   -3.2134173   -1.7245761  0.054682076   -3.2134173    1.4888413   392751 
 7632000   0.88970833   -3.2155978     -1.72364  0.054038827   -3.2155978    1.4919578   392741 
 7633000   0.88960171   -3.2153086   -1.7234915  0.055315208   -3.2153086     1.491817   392731 
 7634000   0.88862145   -3.2137892    -1.723578  0.056372755   -3.2137892    1.4902111   392721 
 7635000   0.88889166   -3.2151919   -1.7244897  0.058653376   -3.2151919    1.4907022   392711 
 7636000   0.88920556   -3.2148432   -1.7235765  0.058000173   -3.2148432    1.4912666   392701 
 7637000   0.88889337   -3.2141288   -1.7233478  0.059034234   -3.2141288     1.490781   392691 
 7638000   0.88950166   -3.2164512    -1.724612  0.057758797   -3.2164512    1.4918392   392681 
 7639000   0.88932613   -3.2165397   -1.7249569      0.06576   -3.2165397    1.4915828   392671 
 7640000   0.88712975   -3.2112765   -1.7233397  0.055224412   -3.2112765    1.4879369   392661 
 7641000   0.88803752   -3.2131342   -1.7236368  0.058407313   -3.2131342    1.4894974   392651 
 7642000   0.88774034   -3.2128163   -1.7237795  0.056822637   -3.2128163    1.4890368   392641 
 7643000     0.887946   -3.2138498   -1.7244301  0.057398092   -3.2138498    1.4894197   392631 
 7644000   0.88791053   -3.2118962    -1.722498  0.054271749   -3.2118962    1.4893982   392621 
 7645000   0.88912658   -3.2140186   -1.7225426  0.054844863   -3.2140186     1.491476   392611 
 7646000   0.88773021   -3.2129453   -1.7237737  0.055657552   -3.2129453    1.4891716   392601 
 7647000   0.88752651   -3.2119492   -1.7230814  0.054982319   -3.2119492    1.4888678   392591 
 7648000   0.88694204   -3.2116358   -1.7237107    0.0529215   -3.2116358    1.4879252   392581 
 7649000   0.88567914   -3.2108834    -1.725039  0.055508606   -3.2108834    1.4858444   392571 
 7650000   0.88598596   -3.2108696   -1.7244726  0.051604051   -3.2108696     1.486397   392561 
 7651000   0.88695868   -3.2120049    -1.723938  0.054581458   -3.2120049    1.4880668   392551 
 7652000   0.88707045   -3.2116547   -1.7233625   0.05955283   -3.2116547    1.4882923   392541 
 7653000   0.88749946   -3.2119713   -1.7229213  0.049440477   -3.2119713      1.48905   392531 
 7654000   0.88896531   -3.2139943   -1.7224469  0.057343077   -3.2139943    1.4915474   392521 
 7655000    0.8874182   -3.2105827   -1.7215932  0.060660664   -3.2105827    1.4889895   392511 
 7656000   0.88853583    -3.212644   -1.7217413  0.058945498    -3.212644    1.4909027   392501 
 7657000   0.88820602    -3.213846   -1.7234587  0.054230813    -3.213846    1.4903873   392491 
 7658000   0.88870318   -3.2146381   -1.7233785  0.058455326   -3.2146381    1.4912595   392481 
 7659000   0.88929314   -3.2149273   -1.7226399  0.054428443   -3.2149273    1.4922875   392471 
 7660000   0.88913204   -3.2150629   -1.7230077  0.057802701   -3.2150629    1.4920552   392461 
 7661000   0.88825308   -3.2145456   -1.7239274  0.057252272   -3.2145456    1.4906182   392451 
 7662000   0.88814271    -3.213972   -1.7235011  0.060073415    -3.213972     1.490471   392441 
 7663000   0.88788774   -3.2152555   -1.7251745  0.056402008   -3.2152555     1.490081   392431 
 7664000   0.88843627   -3.2160024   -1.7249628  0.054634171   -3.2160024    1.4910396   392421 
 7665000   0.88848533   -3.2155254   -1.7243655  0.059533426   -3.2155254    1.4911599   392411 
 7666000   0.88820958   -3.2143729   -1.7236378  0.060716062   -3.2143729    1.4907351   392401 
 7667000   0.88878538   -3.2160914   -1.7243519  0.056571339   -3.2160914    1.4917395   392391 
 7668000   0.88702208   -3.2147298   -1.7259119  0.052199036   -3.2147298    1.4888179   392381 
 7669000    0.8863389   -3.2150652    -1.727356  0.050335307   -3.2150652    1.4877092   392371 
 7670000   0.88731759   -3.2149372   -1.7255474  0.056470713   -3.2149372    1.4893899   392361 
 7671000   0.88719235   -3.2150449   -1.7258273  0.058973869   -3.2150449    1.4892176   392351 
 7672000   0.88850499    -3.216983   -1.7255241  0.064115948    -3.216983     1.491459   392341 
 7673000   0.88819623   -3.2160501   -1.7250714  0.057178791   -3.2160501    1.4909787   392331 
 7674000   0.88743565   -3.2149231   -1.7251832  0.059527746   -3.2149231    1.4897399   392321 
 7675000     0.888287   -3.2160676   -1.7248606  0.055856271   -3.2160676    1.4912071   392311 
 7676000   0.88966267   -3.2174979   -1.7239434  0.061977889   -3.2174979    1.4935545   392301 
 7677000   0.89054006   -3.2190888   -1.7240232  0.061778177   -3.2190888    1.4950656   392291 
 7678000   0.88885175   -3.2170148   -1.7247455  0.060133268   -3.2170148    1.4922692   392281 
 7679000   0.88846929   -3.2186107   -1.7269455  0.059366463   -3.2186107    1.4916652   392271 
 7680000   0.88692073   -3.2152119   -1.7261087  0.060870048   -3.2152119    1.4891032   392261 
 7681000   0.88793521    -3.217411   -1.7265665  0.053375903    -3.217411    1.4908445   392251 
 7682000   0.88738402   -3.2154496   -1.7254926  0.057796208   -3.2154496     1.489957   392241 
 7683000   0.88725545   -3.2150615   -1.7252823  0.055369121   -3.2150615    1.4897792   392231 
 7684000   0.88671115   -3.2141834   -1.7252802   0.05935765   -3.2141834    1.4889032   392221 
 7685000   0.88717998   -3.2143625   -1.7246341  0.055249949   -3.2143625    1.4897284   392211 
 7686000    0.8868919   -3.2143479   -1.7250652  0.057549938   -3.2143479    1.4892826   392201 
 7687000   0.88824391   -3.2156653   -1.7240744   0.05578295   -3.2156653     1.491591   392191 
 7688000   0.88782364   -3.2155549   -1.7246317  0.058672204   -3.2155549    1.4909232   392181 
 7689000   0.88878956   -3.2153622   -1.7227788  0.063160679   -3.2153622    1.4925834   392171 
 7690000   0.88777985   -3.2150296   -1.7241039  0.061923285   -3.2150296    1.4909257   392161 
 7691000   0.88651951   -3.2153088   -1.7264617  0.051471149   -3.2153088    1.4888471   392151 
 7692000   0.88704611   -3.2149562   -1.7251867  0.054155909   -3.2149562    1.4897695   392141 
 7693000     0.887686     -3.21608   -1.7251978   0.05892918     -3.21608    1.4908822   392131 
 7694000   0.88679999   -3.2144588   -1.7250267  0.058987523   -3.2144588    1.4894321   392121 
 7695000   0.88525404   -3.2138711   -1.7269975  0.057791805   -3.2138711    1.4868735   392111 
 7696000   0.88592817   -3.2137183   -1.7256745  0.054801755   -3.2137183    1.4880437   392101 
 7697000   0.88620996   -3.2142417   -1.7256867   0.06000114   -3.2142417     1.488555   392091 
 7698000     0.886515   -3.2144579   -1.7253525   0.06032741   -3.2144579    1.4891054   392081 
 7699000   0.88731496   -3.2160456   -1.7255585  0.058422678   -3.2160456    1.4904871   392071 
 7700000   0.88555945    -3.212802   -1.7252258  0.059009539    -3.212802    1.4875762   392061 
 7701000   0.88613166   -3.2131493   -1.7245739   0.05802803   -3.2131493    1.4885753   392051 
 7702000   0.88738145   -3.2141313   -1.7234185  0.057647704   -3.2141313    1.4907128   392041 
 7703000   0.88643398   -3.2137843   -1.7246251  0.051577806   -3.2137843    1.4891592   392031 
 7704000   0.88692896   -3.2140906   -1.7240619  0.055147027   -3.2140906    1.4900287   392021 
 7705000   0.88721665   -3.2143407   -1.7237907  0.056980554   -3.2143407      1.49055   392011 
 7706000   0.88658764   -3.2129095   -1.7233782  0.055945234   -3.2129095    1.4895313   392001 
 7707000    0.8880405   -3.2146854   -1.7226751  0.054847604   -3.2146854    1.4920103   391991 
 7708000   0.88722143   -3.2130339   -1.7223617  0.058382978   -3.2130339    1.4906722   391981 
 7709000    0.8894587    -3.215624   -1.7211547  0.052994397    -3.215624    1.4944692   391971 
 7710000   0.88773785   -3.2133177   -1.7217018  0.058291775   -3.2133177    1.4916159   391961 
 7711000   0.88846771    -3.215908   -1.7230276  0.053033173    -3.215908    1.4928804   391951 
 7712000   0.88697787   -3.2146453   -1.7242303  0.060866998   -3.2146453     1.490415   391941 
 7713000   0.88607674   -3.2130469   -1.7241081  0.057737064   -3.2130469    1.4889388   391931 
 7714000   0.88845341   -3.2150166    -1.722046  0.056090508   -3.2150166    1.4929706   391921 
 7715000   0.88724878   -3.2116648   -1.7206804  0.060419846   -3.2116648    1.4909844   391911 
 7716000   0.88768079   -3.2132991   -1.7215507  0.056897822   -3.2132991    1.4917484   391901 
 7717000   0.88642945   -3.2122423   -1.7225588  0.058091035   -3.2122423    1.4896835   391891 
 7718000   0.88661001   -3.2123514   -1.7223264  0.056547749   -3.2123514     1.490025   391881 
 7719000    0.8864319       -3.214   -1.7242363  0.052630643       -3.214    1.4897637   391871 
 7720000   0.88784615   -3.2166454   -1.7244668  0.054577462   -3.2166454    1.4921786   391861 
 7721000   0.88699438   -3.2158475   -1.7250624  0.053551692   -3.2158475    1.4907851   391851 
 7722000   0.88715293   -3.2152617   -1.7241721   0.05203507   -3.2152617    1.4910896   391841 
 7723000   0.88572249   -3.2139235   -1.7252001  0.062334043   -3.2139235    1.4887234   391831 
 7724000   0.88453164   -3.2148373   -1.7280776  0.056415606   -3.2148373    1.4867598   391821 
 7725000    0.8877916   -3.2189427   -1.7266654  0.055655109   -3.2189427    1.4922773   391811 
 7726000   0.88708725   -3.2154018   -1.7242703  0.057774002   -3.2154018    1.4911314   391801 
 7727000    0.8865651   -3.2152386   -1.7249468  0.060110568   -3.2152386    1.4902918   391791 
 7728000   0.88471754   -3.2129986   -1.7257745  0.056504745   -3.2129986     1.487224   391781 
 7729000   0.88653985   -3.2168185   -1.7264931  0.060480036   -3.2168185    1.4903254   391771 
 7730000    0.8873413   -3.2181042   -1.7263934  0.058643151   -3.2181042    1.4917108   391761 
 7731000   0.88562792   -3.2140131   -1.7251446  0.058773043   -3.2140131    1.4888684   391751 
 7732000   0.88745522   -3.2151428   -1.7231643  0.057507128   -3.2151428    1.4919785   391741 
 7733000   0.88703646   -3.2158947   -1.7245822  0.057427002   -3.2158947    1.4913125   391731 
 7734000   0.88741205   -3.2181136   -1.7261315  0.057774029   -3.2181136    1.4919821   391721 
 7735000   0.88611187   -3.2166111   -1.7267769  0.061648621   -3.2166111    1.4898341   391711 
 7736000   0.88641804   -3.2158387   -1.7254518  0.066524135   -3.2158387    1.4903869   391701 
 7737000   0.88640227   -3.2157955    -1.725397  0.061164852   -3.2157955    1.4903985   391691 
 7738000   0.88740468   -3.2167172   -1.7245952  0.059549238   -3.2167172     1.492122   391681 
 7739000   0.88743164   -3.2154859   -1.7232804  0.056551427   -3.2154859    1.4922055   391671 
 7740000   0.88644201   -3.2144339   -1.7238544  0.059359839   -3.2144339    1.4905795   391661 
 7741000   0.88670492    -3.215801   -1.7247414  0.053994954    -3.215801    1.4910596   391651 
 7742000   0.88765536   -3.2176689   -1.7249729  0.051624815   -3.2176689     1.492696   391641 
 7743000   0.88613769   -3.2164003   -1.7262184  0.054942507   -3.2164003    1.4901819   391631 
 7744000   0.88546156   -3.2154541   -1.7263712  0.054595347   -3.2154541    1.4890829   391621 
 7745000    0.8850205   -3.2146233   -1.7262442  0.058537702   -3.2146233    1.4883792   391611 
 7746000   0.88476507   -3.2138431   -1.7258555  0.054101381   -3.2138431    1.4879876   391601 
 7747000   0.88465907   -3.2139673     -1.72612  0.054158699   -3.2139673    1.4878473   391591 
 7748000   0.88496449   -3.2154107   -1.7270117  0.054271802   -3.2154107     1.488399   391581 
 7749000   0.88490286   -3.2144506   -1.7261173  0.054982594   -3.2144506    1.4883333   391571 
 7750000   0.88322547   -3.2111781   -1.7256281  0.053539951   -3.2111781      1.48555   391561 
 7751000   0.88531654   -3.2144119   -1.7253068  0.056018628   -3.2144119    1.4891052   391551 
 7752000    0.8840859   -3.2130202    -1.725947   0.05816236   -3.2130202    1.4870732   391541 
 7753000   0.88679874   -3.2171899   -1.7255155  0.051210342   -3.2171899    1.4916744   391531 
 7754000   0.88442249   -3.2135432   -1.7258279   0.05571901   -3.2135432    1.4877154   391521 
 7755000   0.88567455    -3.215039   -1.7251794  0.060687308    -3.215039    1.4898595   391511 
 7756000    0.8859756   -3.2151358   -1.7247318  0.057383518   -3.2151358     1.490404   391501 
 7757000   0.88450806   -3.2129908   -1.7250175  0.056855775   -3.2129908    1.4879733   391491 
 7758000   0.88547135   -3.2158921   -1.7262602  0.054788064   -3.2158921    1.4896319   391481 
 7759000   0.88502245   -3.2167444   -1.7278297  0.058301813   -3.2167444    1.4889147   391471 
 7760000   0.88542267   -3.2167143   -1.7270882    0.0598697   -3.2167143    1.4896261   391461 
 7761000   0.88668261   -3.2194841   -1.7277002  0.059905203   -3.2194841    1.4917839   391451 
 7762000    0.8857443   -3.2178555   -1.7276122   0.06060423   -3.2178555    1.4902433   391441 
 7763000   0.88579478   -3.2159174   -1.7255511  0.062127748   -3.2159174    1.4903663   391431 
 7764000   0.88514519   -3.2164274    -1.727116  0.061113316   -3.2164274    1.4893114   391421 
 7765000    0.8868576   -3.2193058    -1.727075  0.054625739   -3.2193058    1.4922308   391411 
 7766000   0.88462951   -3.2180686   -1.7295488  0.056041182   -3.2180686    1.4885198   391401 
 7767000   0.88407796   -3.2164927   -1.7288629  0.055185341   -3.2164927    1.4876298   391391 
 7768000   0.88564261   -3.2184547    -1.728154  0.058682896   -3.2184547    1.4903007   391381 
 7769000   0.88472034   -3.2187179   -1.7299311  0.059719847   -3.2187179    1.4887868   391371 
 7770000   0.88555099   -3.2186187    -1.728396  0.062012613   -3.2186187    1.4902226   391361 
 7771000   0.88467564   -3.2189009   -1.7301133  0.061037502   -3.2189009    1.4887876   391351 
 7772000   0.88498752   -3.2190634   -1.7297128  0.057457734   -3.2190634    1.4893506   391341 
 7773000   0.88416063   -3.2180388   -1.7300418  0.056206382   -3.2180388     1.487997   391331 
 7774000   0.88418301   -3.2185841   -1.7305114  0.056281789   -3.2185841    1.4880727   391321 
 7775000   0.88414291   -3.2184565   -1.7304133  0.054372765   -3.2184565    1.4880432   391311 
 7776000   0.88442699   -3.2199009   -1.7313415  0.060413598   -3.2199009    1.4885594   391301 
 7777000   0.88401744   -3.2179755   -1.7300674  0.059258662   -3.2179755    1.4879081   391291 
 7778000   0.88492451   -3.2190179    -1.729545  0.055888975   -3.2190179    1.4894729   391281 
 7779000   0.88346081   -3.2171182    -1.730071  0.054990974   -3.2171182    1.4870472   391271 
 7780000   0.88260429   -3.2148206   -1.7291771  0.059443071   -3.2148206    1.4856435   391261 
 7781000   0.88438592   -3.2170199   -1.7283395  0.057530331   -3.2170199    1.4886805   391251 
 7782000    0.8835329   -3.2150011   -1.7277185  0.055844799   -3.2150011    1.4872826   391241 
 7783000   0.88354546   -3.2164731   -1.7291314   0.05698767   -3.2164731    1.4873418   391231 
 7784000   0.88452369   -3.2181804   -1.7291539  0.058307395   -3.2181804    1.4890265   391221 
 7785000     0.884556   -3.2178062   -1.7286872  0.058460072   -3.2178062     1.489119   391211 
 7786000   0.88487222    -3.217863   -1.7281735  0.058253718    -3.217863    1.4896894   391201 
 7787000   0.88528716   -3.2196709   -1.7292449  0.053718638   -3.2196709    1.4904261   391191 
 7788000   0.88524864   -3.2198563    -1.729457  0.054170219   -3.2198563    1.4903993   391181 
 7789000   0.88317093   -3.2172069   -1.7302676  0.058843599   -3.2172069    1.4869393   391171 
 7790000   0.88294518   -3.2168789   -1.7302816  0.057198129   -3.2168789    1.4865972   391161 
 7791000   0.88369654   -3.2163665   -1.7284661  0.064367705   -3.2163665    1.4879003   391151 
 7792000   0.88403608    -3.217307   -1.7287969  0.057439031    -3.217307    1.4885101   391141 
 7793000    0.8859388   -3.2183781   -1.7266261  0.060095799   -3.2183781     1.491752   391131 
 7794000   0.88470358   -3.2184254   -1.7287153  0.059973625   -3.2184254    1.4897102   391121 
 7795000   0.88413215   -3.2180087   -1.7292227  0.060068298   -3.2180087     1.488786   391111 
 7796000   0.88459907   -3.2194243   -1.7298139  0.058920554   -3.2194243    1.4896104   391101 
 7797000   0.88479186    -3.218348   -1.7283749  0.062052678    -3.218348    1.4899731   391091 
 7798000   0.88453578   -3.2183282   -1.7287483  0.064023922   -3.2183282      1.48958   391081 
 7799000   0.88461134    -3.218018   -1.7282727  0.057649862    -3.218018    1.4897453   391071 
 7800000   0.88498579    -3.217474   -1.7270599  0.058289767    -3.217474     1.490414   391061 
 7801000   0.88404351   -3.2173889   -1.7285238  0.056138969   -3.2173889    1.4888652   391051 
 7802000   0.88448004   -3.2196619   -1.7300234  0.055824064   -3.2196619    1.4896384   391041 
 7803000   0.88382518   -3.2198167   -1.7312431  0.057018532   -3.2198167    1.4885736   391031 
 7804000   0.88267082   -3.2169486   -1.7302812  0.066043714   -3.2169486    1.4866674   391021 
 7805000   0.88452695   -3.2196584   -1.7298267  0.056858312   -3.2196584    1.4898318   391011 
 7806000   0.88441766   -3.2183025   -1.7286167  0.056786538   -3.2183025    1.4896858   391001 
 7807000   0.88426032   -3.2168933   -1.7274345  0.064665684   -3.2168933    1.4894588   390991 
 7808000   0.88436399    -3.217784   -1.7281125  0.058267918    -3.217784    1.4896716   390981 
 7809000   0.88513648   -3.2179989   -1.7269879  0.055450026   -3.2179989    1.4910109   390971 
 7810000   0.88557745   -3.2168687   -1.7250768  0.058789958   -3.2168687    1.4917919   390961 
 7811000   0.88417847   -3.2153962   -1.7259229  0.058712815   -3.2153962    1.4894733   390951 
 7812000   0.88398505   -3.2145684   -1.7253828  0.055502685   -3.2145684    1.4891856   390941 
 7813000   0.88562446   -3.2174055   -1.7254199  0.055559972   -3.2174055    1.4919856   390931 
 7814000   0.88410008   -3.2153029   -1.7258473  0.058288236   -3.2153029    1.4894556   390921 
 7815000   0.88368536   -3.2141652   -1.7253702  0.059276761   -3.2141652     1.488795   390911 
 7816000   0.88416237   -3.2154818    -1.725845  0.058603696   -3.2154818    1.4896367   390901 
 7817000   0.88574061     -3.21698   -1.7246461  0.056928848     -3.21698    1.4923339   390891 
 7818000   0.88421206   -3.2143095   -1.7245128  0.060669884   -3.2143095    1.4897967   390881 
 7819000   0.88277536    -3.213657   -1.7262429  0.058236845    -3.213657    1.4874141   390871 
 7820000   0.88325547    -3.214242   -1.7259809  0.054536998    -3.214242    1.4882611   390861 
 7821000   0.88195107    -3.211332   -1.7252308  0.057268873    -3.211332    1.4861012   390851 
 7822000   0.88298427   -3.2138955   -1.7260153   0.05869892   -3.2138955    1.4878803   390841 
 7823000   0.88296826   -3.2141241   -1.7262327  0.054137674   -3.2141241    1.4878914   390831 
 7824000   0.88295328    -3.214576   -1.7266718  0.060107244    -3.214576    1.4879042   390821 
 7825000   0.88345589   -3.2149196   -1.7261304  0.054761093   -3.2149196    1.4887892   390811 
 7826000   0.88276167   -3.2158531   -1.7281956  0.057504515   -3.2158531    1.4876574   390801 
 7827000   0.88252462   -3.2154831   -1.7281872  0.056889401   -3.2154831     1.487296   390791 
 7828000   0.88241037   -3.2154905    -1.728349  0.058111419   -3.2154905    1.4871415   390781 
 7829000    0.8839672   -3.2176119   -1.7278085  0.061252981   -3.2176119    1.4898034   390771 
 7830000   0.88541911   -3.2193139   -1.7270253  0.060898866   -3.2193139    1.4922886   390761 
 7831000   0.88443619   -3.2170704   -1.7264003  0.061840514   -3.2170704    1.4906701   390751 
 7832000   0.88547096   -3.2177654   -1.7253131  0.060550743   -3.2177654    1.4924523   390741 
 7833000   0.88380288   -3.2179641   -1.7282852  0.059013646   -3.2179641    1.4896789   390731 
 7834000   0.88170636   -3.2164672    -1.730284  0.058955792   -3.2164672    1.4861832   390721 
 7835000   0.88272495   -3.2185508   -1.7306126  0.056800249   -3.2185508    1.4879382   390711 
 7836000   0.88292005   -3.2195039   -1.7311987  0.057231975   -3.2195039    1.4883052   390701 
 7837000   0.88314694   -3.2188176   -1.7300918  0.052350086   -3.2188176    1.4887257   390691 
 7838000   0.88281597   -3.2183421   -1.7301362  0.055206234   -3.2183421    1.4882059   390681 
 7839000   0.88335931   -3.2198225   -1.7306625  0.054645341   -3.2198225      1.48916   390671 
 7840000   0.88428347   -3.2197847   -1.7290286  0.057936407   -3.2197847     1.490756   390661 
 7841000   0.88340455   -3.2186289   -1.7293165  0.061514528   -3.2186289    1.4893125   390651 
 7842000   0.88328364   -3.2189279   -1.7297812  0.055757385   -3.2189279    1.4891467   390641 
 7843000   0.88179715    -3.216338   -1.7296594  0.061568413    -3.216338    1.4866787   390631 
 7844000   0.88294224   -3.2172084   -1.7285611  0.062730386   -3.2172084    1.4886474   390621 
 7845000   0.88435942   -3.2205142   -1.7294392  0.062430389   -3.2205142    1.4910749   390611 
 7846000   0.88284572   -3.2181675   -1.7296067  0.058127348   -3.2181675    1.4885609   390601 
 7847000   0.88242948   -3.2181105   -1.7302134  0.056312536   -3.2181105    1.4878971   390591 
 7848000   0.88192006   -3.2185615   -1.7314853  0.056695933   -3.2185615    1.4870763   390581 
 7849000   0.88202904   -3.2198187   -1.7325206  0.056535076   -3.2198187    1.4872981   390571 
 7850000   0.88145646   -3.2188225   -1.7324518  0.057915515   -3.2188225    1.4863707   390561 
 7851000     0.882416   -3.2200269   -1.7320001  0.055644856   -3.2200269    1.4880268   390551 
 7852000   0.88205569   -3.2192679   -1.7318106   0.05367497   -3.2192679    1.4874573   390541 
 7853000   0.88200707   -3.2206688   -1.7332554  0.061679501   -3.2206688    1.4874134   390531 
 7854000   0.88007399    -3.216628   -1.7324366   0.06478783    -3.216628    1.4841914   390521 
 7855000   0.88188039   -3.2187076   -1.7314317   0.05911698   -3.2187076    1.4872759   390511 
 7856000   0.88225221   -3.2191447   -1.7312036  0.055807955   -3.2191447    1.4879411   390501 
 7857000   0.88402284   -3.2230086   -1.7320432  0.056398425   -3.2230086    1.4909655   390491 
 7858000   0.88198719    -3.218744   -1.7311737  0.055551065    -3.218744    1.4875703   390481 
 7859000   0.88130289   -3.2190432    -1.732589  0.058260173   -3.2190432    1.4864542   390471 
 7860000   0.88190669   -3.2208247    -1.733314   0.05515989   -3.2208247    1.4875107   390461 
 7861000   0.88169062   -3.2199369   -1.7327525  0.056276264   -3.2199369    1.4871844   390451 
 7862000   0.87957618   -3.2167384   -1.7330826  0.060942062   -3.2167384    1.4836559   390441 
 7863000   0.88068147    -3.219765   -1.7342067  0.053563502    -3.219765    1.4855583   390431 
 7864000    0.8818141   -3.2191924   -1.7316854  0.060116515   -3.2191924    1.4875069   390421 
 7865000   0.88273348   -3.2205756   -1.7314796  0.055875175   -3.2205756     1.489096   390411 
 7866000   0.88317669   -3.2200546   -1.7301728  0.056605935   -3.2200546    1.4898818   390401 
 7867000   0.88127868   -3.2173407   -1.7306227  0.059255152   -3.2173407     1.486718   390391 
 7868000   0.88219459   -3.2193167   -1.7310154  0.059452398   -3.2193167    1.4883013   390381 
 7869000   0.88204273   -3.2193577   -1.7312745  0.062248824   -3.2193577    1.4880832   390371 
 7870000    0.8817086    -3.218811   -1.7312534  0.058127195    -3.218811    1.4875576   390361 
 7871000   0.88235887   -3.2194448    -1.730752  0.056074961   -3.2194448    1.4886928   390351 
 7872000     0.881575   -3.2181491   -1.7307408  0.054508753   -3.2181491    1.4874084   390341 
 7873000   0.88157762   -3.2198395   -1.7323886  0.052386667   -3.2198395    1.4874509   390331 
 7874000   0.88000001   -3.2170327   -1.7322056  0.061827568   -3.2170327    1.4848271   390321 
 7875000   0.88206653   -3.2189548   -1.7306027  0.056814582   -3.2189548    1.4883521   390311 
 7876000   0.88240732   -3.2187757   -1.7298104  0.058053651   -3.2187757    1.4889653   390301 
 7877000   0.88201686   -3.2181678   -1.7298232  0.055649634   -3.2181678    1.4883446   390291 
 7878000   0.88252911    -3.219119   -1.7298719  0.055081026    -3.219119    1.4892471   390281 
 7879000   0.88120924   -3.2165437   -1.7294858  0.061369944   -3.2165437    1.4870579   390271 
 7880000   0.88331481   -3.2194277   -1.7287784  0.056186144   -3.2194277    1.4906493   390261 
 7881000   0.88382221   -3.2192304   -1.7276866  0.059508538   -3.2192304    1.4915438   390251 
 7882000   0.88119485   -3.2142875   -1.7271396  0.059024885   -3.2142875     1.487148   390241 
 7883000    0.8814195   -3.2140316   -1.7264663  0.054740446   -3.2140316    1.4875652   390231 
 7884000   0.88357066   -3.2159058   -1.7246719  0.056987224   -3.2159058    1.4912339   390221 
 7885000   0.88315344    -3.215602    -1.725034  0.058096278    -3.215602     1.490568   390211 
 7886000   0.88372199   -3.2156473   -1.7240815  0.059297911   -3.2156473    1.4915658   390201 
 7887000   0.88299184   -3.2153855   -1.7250139  0.055619224   -3.2153855    1.4903716   390191 
 7888000   0.88162591   -3.2138923   -1.7257881  0.055518343   -3.2138923    1.4881043   390181 
 7889000    0.8807025    -3.213457   -1.7268733   0.05729928    -3.213457    1.4865837   390171 
 7890000   0.88145142   -3.2154289   -1.7275428  0.057205289   -3.2154289     1.487886   390161 
 7891000   0.88114845   -3.2140561   -1.7266434  0.053451287   -3.2140561    1.4874127   390151 
 7892000   0.88130319   -3.2125787   -1.7248667  0.052019021   -3.2125787     1.487712   390141 
 7893000   0.88098416   -3.2119065   -1.7246949   0.05588331   -3.2119065    1.4872116   390131 
 7894000   0.88056935   -3.2108172   -1.7242677  0.060357352   -3.2108172    1.4865495   390121 
 7895000   0.88343037   -3.2146831   -1.7232655  0.054979801   -3.2146831    1.4914176   390111 
 7896000   0.88215173    -3.213484   -1.7241869  0.053204891    -3.213484    1.4892971   390101 
 7897000   0.88287773    -3.213691   -1.7231299  0.058425815    -3.213691     1.490561   390091 
 7898000   0.88044676   -3.2080982   -1.7216033  0.058793887   -3.2080982    1.4864949   390081 
 7899000   0.88448744   -3.2151091   -1.7217538  0.061902865   -3.2151091    1.4933553   390071 
 7900000   0.88292751    -3.211888   -1.7211283  0.061680484    -3.211888    1.4907597   390061 
 7901000   0.88355126   -3.2137431    -1.721892  0.055922804   -3.2137431    1.4918511   390051 
 7902000    0.8833356   -3.2127498   -1.7212245   0.05986975   -3.2127498    1.4915252   390041 
 7903000   0.88303588   -3.2133766   -1.7223192  0.056491503   -3.2133766    1.4910574   390031 
 7904000   0.88264088   -3.2137451   -1.7233165  0.058019778   -3.2137451    1.4904286   390021 
 7905000   0.88215943   -3.2125651   -1.7229112  0.054396871   -3.2125651    1.4896538   390011 
 7906000   0.88207316   -3.2123401   -1.7227938  0.057523451   -3.2123401    1.4895463   390001 
 7907000   0.88210387   -3.2122877   -1.7226513  0.057425321   -3.2122877    1.4896364   389991 
 7908000    0.8805402   -3.2106541   -1.7236202   0.05738829   -3.2106541    1.4870339   389981 
 7909000   0.88143514   -3.2118777   -1.7232942  0.058071401   -3.2118777    1.4885834   389971 
 7910000   0.88181333   -3.2100513    -1.720791  0.056473844   -3.2100513    1.4892603   389961 
 7911000   0.88249097   -3.2117518   -1.7213088  0.060720568   -3.2117518     1.490443   389951 
 7912000   0.88158557   -3.2100722   -1.7211202  0.060059805   -3.2100722     1.488952   389941 
 7913000   0.88135566   -3.2098578   -1.7212559  0.059377247   -3.2098578    1.4886019   389931 
 7914000   0.88206884   -3.2110198   -1.7211751  0.059901022   -3.2110198    1.4898447   389921 
 7915000   0.88308106   -3.2128059   -1.7212133  0.060995734   -3.2128059    1.4915926   389911 
 7916000   0.88304114   -3.2129138   -1.7213504  0.060066967   -3.2129138    1.4915634   389901 
 7917000   0.88389745   -3.2144563   -1.7214082   0.05739428   -3.2144563    1.4930481   389891 
 7918000   0.88111312   -3.2107595   -1.7223764  0.059411552   -3.2107595    1.4883831   389881 
 7919000   0.88239696   -3.2113273   -1.7207373  0.058424943   -3.2113273      1.49059   389871 
 7920000   0.88130651   -3.2108906   -1.7221045  0.062462103   -3.2108906    1.4887861   389861 
 7921000   0.88200512    -3.212589   -1.7225845  0.057744262    -3.212589    1.4900045   389851 
 7922000   0.88226382   -3.2138673   -1.7233875  0.053784108   -3.2138673    1.4904798   389841 
 7923000   0.88055289   -3.2108969   -1.7232694  0.058248475   -3.2108969    1.4876275   389831 
 7924000    0.8815474   -3.2122784   -1.7229325  0.056345578   -3.2122784    1.4893459   389821 
 7925000    0.8817538   -3.2110934   -1.7213606  0.059382311   -3.2110934    1.4897328   389811 
 7926000   0.88306203   -3.2119056   -1.7199243  0.060094298   -3.2119056    1.4919813   389801 
 7927000   0.88234388   -3.2104113   -1.7196051  0.054844337   -3.2104113    1.4908062   389791 
 7928000   0.88244284   -3.2108864   -1.7198747  0.056348105   -3.2108864    1.4910117   389781 
 7929000   0.88192581   -3.2093377   -1.7191614  0.063869885   -3.2093377    1.4901763   389771 
 7930000   0.88229986   -3.2105512   -1.7197046  0.060038388   -3.2105512    1.4908466   389761 
 7931000    0.8818168   -3.2096912   -1.7196226  0.060183878   -3.2096912    1.4900686   389751 
 7932000   0.88291766    -3.210399   -1.7184319  0.057643925    -3.210399    1.4919671   389741 
 7933000   0.88214707   -3.2089762    -1.718273  0.061170976   -3.2089762    1.4907032   389731 
 7934000   0.88126014    -3.208952   -1.7197094  0.057800646    -3.208952    1.4892426   389721 
 7935000   0.88277319    -3.209963   -1.7181253   0.05626564    -3.209963    1.4918378   389711 
 7936000   0.88238986   -3.2104759   -1.7192476  0.052056843   -3.2104759    1.4912283   389701 
 7937000   0.88125727   -3.2090046   -1.7196522  0.056859753   -3.2090046    1.4893524   389691 
 7938000    0.8817238   -3.2085654   -1.7183863  0.062625013   -3.2085654    1.4901791   389681 
 7939000   0.88154235   -3.2075618   -1.7176511  0.062985918   -3.2075618    1.4899107   389671 
 7940000    0.8815132   -3.2066086    -1.716709  0.059733202   -3.2066086    1.4898996   389661 
 7941000   0.88133552    -3.207136   -1.7174985  0.060315074    -3.207136    1.4896375   389651 
 7942000   0.88205897   -3.2096117   -1.7187132  0.056175701   -3.2096117    1.4908986   389641 
 7943000   0.88073954   -3.2075598   -1.7188531  0.058506349   -3.2075598    1.4887066   389631 
 7944000   0.88268084   -3.2081551   -1.7161288  0.056643954   -3.2081551    1.4920263   389621 
 7945000    0.8829103   -3.2098396   -1.7173871  0.059863804   -3.2098396    1.4924525   389611 
 7946000   0.88289896   -3.2101904   -1.7177188  0.060540656   -3.2101904    1.4924716   389601 
 7947000   0.88215217   -3.2096478   -1.7184003  0.059934447   -3.2096478    1.4912475   389591 
 7948000   0.88158055   -3.2076353   -1.7173158  0.057839331   -3.2076353    1.4903194   389581 
 7949000   0.88256169   -3.2083205   -1.7163041  0.058467503   -3.2083205    1.4920163   389571 
 7950000   0.88278182   -3.2118618    -1.719435  0.051356339   -3.2118618    1.4924268   389561 
 7951000   0.88104592   -3.2077596   -1.7182292  0.057911952   -3.2077596    1.4895303   389551 
 7952000   0.88168719   -3.2077913   -1.7171386   0.06220844   -3.2077913    1.4906528   389541 
 7953000   0.88249449    -3.208187   -1.7161311  0.055844919    -3.208187     1.492056   389531 
 7954000   0.88315944    -3.209641   -1.7164225  0.054120007    -3.209641    1.4932185   389521 
 7955000   0.88392502   -3.2105242   -1.7159728  0.058238827   -3.2105242    1.4945513   389511 
 7956000   0.88179556   -3.2078991   -1.7169101  0.059140017   -3.2078991    1.4909891   389501 
 7957000   0.88045374   -3.2054095    -1.716651  0.061699051   -3.2054095    1.4887585   389491 
 7958000   0.88257941   -3.2090252   -1.7166342  0.055091078   -3.2090252    1.4923911   389481 
 7959000   0.88263209   -3.2090997   -1.7165812  0.061170252   -3.2090997    1.4925185   389471 
 7960000   0.88416556   -3.2112632   -1.7161133   0.05533498   -3.2112632      1.49515   389461 
 7961000   0.88195527   -3.2091734   -1.7177229  0.058300425   -3.2091734    1.4914506   389451 
 7962000   0.88195001   -3.2099307   -1.7184507  0.057706856   -3.2099307      1.49148   389441 
 7963000   0.88126139   -3.2094708   -1.7191171  0.054653031   -3.2094708    1.4903537   389431 
 7964000   0.88178203    -3.210078   -1.7188055   0.05645691    -3.210078    1.4912725   389421 
 7965000   0.88196906   -3.2113196   -1.7196925  0.053028963   -3.2113196    1.4916271   389411 
 7966000   0.88152439   -3.2085669   -1.7176535  0.058338675   -3.2085669    1.4909133   389401 
 7967000   0.88200233   -3.2090067   -1.7172467  0.054919461   -3.2090067      1.49176   389391 
 7968000   0.88215954   -3.2090872    -1.717023  0.059181801   -3.2090872    1.4920642   389381 
 7969000   0.88172924   -3.2102946   -1.7189199   0.05716553   -3.2102946    1.4913747   389371 
 7970000   0.88227988   -3.2108471   -1.7185027  0.057719246   -3.2108471    1.4923444   389361 
 7971000   0.88131595   -3.2096471   -1.7188949  0.058131695   -3.2096471    1.4907522   389351 
 7972000    0.8808218   -3.2082785   -1.7183238  0.057675892   -3.2082785    1.4899546   389341 
 7973000   0.88025562   -3.2082053   -1.7191701  0.054599755   -3.2082053    1.4890352   389331 
 7974000   0.87973164    -3.209345    -1.721158  0.050120261    -3.209345     1.488187   389321 
 7975000   0.88011845   -3.2080273   -1.7191477  0.053726478   -3.2080273    1.4888796   389311 
 7976000   0.88150811   -3.2101067   -1.7188379  0.054968595   -3.2101067    1.4912688   389301 
 7977000    0.8808403   -3.2092864   -1.7191091  0.059672392   -3.2092864    1.4901773   389291 
 7978000   0.88023966   -3.2075854    -1.718386  0.066610867   -3.2075854    1.4891994   389281 
 7979000   0.88151127   -3.2084572   -1.7170682  0.062482107   -3.2084572    1.4913891   389271 
 7980000   0.88241821    -3.212121   -1.7191592  0.063159257    -3.212121    1.4929618   389261 
 7981000   0.88165009   -3.2113397   -1.7196392  0.060388064   -3.2113397    1.4917005   389251 
 7982000   0.88369185   -3.2132059   -1.7180124  0.056220987   -3.2132059    1.4951935   389241 
 7983000   0.88321116   -3.2116664   -1.7172478  0.064163959   -3.2116664    1.4944186   389231 
 7984000   0.88134945   -3.2090973   -1.7177905  0.060578323   -3.2090973    1.4913068   389221 
 7985000   0.88162583   -3.2110356   -1.7192228  0.057952356   -3.2110356    1.4918128   389211 
 7986000    0.8820202   -3.2126455    -1.720127  0.058025483   -3.2126455    1.4925185   389201 
 7987000   0.88088043   -3.2120371    -1.721409  0.056426163   -3.2120371    1.4906281   389191 
 7988000   0.88217984   -3.2137756   -1.7209103  0.057640999   -3.2137756    1.4928653   389181 
 7989000   0.88187589   -3.2124499   -1.7200605  0.056985253   -3.2124499    1.4923893   389171 
 7990000   0.88279561   -3.2132408   -1.7192567   0.05989644   -3.2132408    1.4939841   389161 
 7991000   0.88087384   -3.2117208   -1.7209506  0.058201279   -3.2117208    1.4907702   389151 
 7992000   0.88117669   -3.2116175   -1.7202965  0.058874123   -3.2116175     1.491321   389141 
 7993000   0.88100868   -3.2114615   -1.7203865   0.06176442   -3.2114615     1.491075   389131 
 7994000   0.88196971   -3.2131453   -1.7204055  0.058747968   -3.2131453    1.4927399   389121 
 7995000   0.88088491   -3.2102976   -1.7193554  0.058053242   -3.2102976    1.4909422   389111 
 7996000    0.8824791   -3.2121434   -1.7184646  0.057658755   -3.2121434    1.4936788   389101 
 7997000   0.88056244   -3.2089489   -1.7184759  0.060098341   -3.2089489     1.490473   389091 
 7998000   0.88138772   -3.2113213   -1.7194131  0.060986514   -3.2113213    1.4919082   389081 
 7999000   0.88135433   -3.2098501   -1.7179601  0.061294015   -3.2098501      1.49189   389071 
 8000000   0.88130556   -3.2107789   -1.7189331  0.056385688   -3.2107789    1.4918458   389061 
Loop time of 6952.9 on 192 procs for 5000000 steps with 389061 atoms

Performance: 310661.710 tau/day, 719.124 timesteps/s
99.1% CPU use with 192 MPI tasks x 1 OpenMP threads

MPI task timing breakdown:
Section |  min time  |  avg time  |  max time  |%varavg|  %CPU | %total
-----------------------------------------------------------------------
Pair    | 1331.6     | 2931.3     | 3207.2     |1070.7 |  99.1 | 42.16
Bond    | 3.189      | 3.3446     | 3.5242     |   3.2 | 100.0 |  0.05
Neigh   | 853.49     | 1425.6     | 1577.4     | 538.1 |  99.5 | 20.50
Comm    | 1256.6     | 1948       | 4150       |1828.7 |  98.9 | 28.02
Output  | 275.36     | 276.25     | 276.27     |   0.4 |  99.0 |  3.97
Modify  | 169.17     | 252.57     | 627.59     | 941.5 |  99.1 |  3.63
Other   |            | 115.8      |            |       |       |  1.67

Nlocal:        2026.36 ave        2295 max        1719 min
Histogram: 2 2 0 6 50 92 35 2 2 1
Nghost:        3165.56 ave        3469 max        2313 min
Histogram: 4 23 17 4 0 0 0 0 40 104
Neighs:        54383.9 ave       64097 max       13949 min
Histogram: 8 11 5 0 0 0 0 2 78 88

Total # of neighbors = 10441713
Ave neighs/atom = 26.838241
Ave special neighs/atom = 0.0000000
Neighbor list builds = 500000
Dangerous builds = 450000

write_restart   restart_write.dat
System init for write_restart ...
write_data	data.write
System init for write_data ...
WARNING: Not all mixed pair coeffs generated from mixing. Use write_data with 'pair ij' option to store all pair coeffs. (src/write_data.cpp:312)

Total wall time: 1:55:56
