LAMMPS (24 Dec 2020)
OMP_NUM_THREADS environment is not set. Defaulting to 1 thread. (src/comm.cpp:94)
  using 1 OpenMP thread(s) per MPI task
# Simple rigid body system
# needed variables:

#variable	startTemp equal 0.5
#variable 	temp 	  equal 0.8

units		lj
atom_style	full
dimension 	3
boundary	p p f
pair_style	lj/smooth/linear 2.5

variable 	sigma		equal 1.0
variable 	epsilon 	equal 1.0

region		box block 0 80 0 80 0 160
create_box 	3 box
Created orthogonal box = (0.0000000 0.0000000 0.0000000) to (80.000000 80.000000 160.00000)
  6 by 4 by 8 MPI processor grid



lattice 	sc 0.66
Lattice spacing in x,y,z = 1.1485556 1.1485556 1.1485556
region		fluid block EDGE EDGE EDGE EDGE 2 100 units box
create_atoms 	1 region fluid
Created 421400 atoms
  create_atoms CPU = 0.159 seconds

lattice 	sc 0.045
Lattice spacing in x,y,z = 2.8114422 2.8114422 2.8114422
region		gas block EDGE EDGE EDGE EDGE 101 158 units box
create_atoms    1 region gas
Created 17661 atoms
  create_atoms CPU = 0.005 seconds

group		solvent type 1
439061 atoms in group solvent

mass		1 1.0
mass		2 1.0
mass		3 1.0



neighbor 	0.4 bin

pair_coeff	1 1 1.0 1.0
pair_coeff	2 2 0.0 0.0
pair_coeff	3 3 0.0 0.0
pair_coeff	2 3 0.0 0.0
pair_coeff	1 2*3 0.0 0.0

pair_modify 	shift yes

delete_atoms	overlap 0.5 solvent solvent
System init for delete_atoms ...
Neighbor list info ...
  update every 1 steps, delay 10 steps, check yes
  max neighbors/atom: 2000, page size: 100000
  master list distance cutoff = 2.9
  ghost atom cutoff = 2.9
  binsize = 1.45, bins = 56 56 111
  2 neighbor lists, perpetual/occasional/extra = 1 1 0
  (1) command delete_atoms, occasional
      attributes: full, newton on
      pair build: full/bin
      stencil: full/bin/3d
      bin: standard
  (2) pair lj/smooth/linear, perpetual
      attributes: half, newton on
      pair build: half/bin/newton
      stencil: half/bin/3d/newton
      bin: standard
WARNING: Ignoring 'compress yes' for molecular system (src/delete_atoms.cpp:125)
Deleted 0 atoms, new total = 439061

velocity 	solvent create ${startTemp} 563435 loop geom
velocity 	solvent create .7 563435 loop geom

balance 	1.05 shift z 10 1.05
Balancing ...
Neighbor list info ...
  update every 1 steps, delay 10 steps, check yes
  max neighbors/atom: 2000, page size: 100000
  master list distance cutoff = 2.9
  ghost atom cutoff = 2.9
  binsize = 1.45, bins = 56 56 111
  1 neighbor lists, perpetual/occasional/extra = 1 0 0
  (1) pair lj/smooth/linear, perpetual
      attributes: half, newton on
      pair build: half/bin/newton
      stencil: half/bin/3d/newton
      bin: standard
 rebalancing time: 0.006 seconds
  iteration count = 5
  initial/final maximal load/proc = 3888.0000 2808.0000
  initial/final imbalance factor  = 1.7002102 1.2279296
  x cuts: 0.0000000 0.16666667 0.33333333 0.50000000 0.66666667 0.83333333 1.0000000
  y cuts: 0.0000000 0.25000000 0.50000000 0.75000000 1.0000000
  z cuts: 0.0000000 0.089843750 0.17578125 0.25390625 0.33593750 0.41406250 0.50390625 0.58203125 1.0000000


####################### WALLS ###########################


variable       epsilonWall equal 2*${epsilon}
variable       epsilonWall equal 2*1

variable       cutoffTop   equal   0.7147*${sigma}
variable       cutoffTop   equal   0.7147*1

variable       cutoffLow   equal   3*${sigma}
variable       cutoffLow   equal   3*1


fix            topWall all wall/lj93 zhi EDGE                ${epsilonWall} ${sigma} ${cutoffTop} units box
fix            topWall all wall/lj93 zhi EDGE                2 ${sigma} ${cutoffTop} units box
fix            topWall all wall/lj93 zhi EDGE                2 1 ${cutoffTop} units box
fix            topWall all wall/lj93 zhi EDGE                2 1 0.7147 units box

fix            lowWall all wall/lj93 zlo EDGE                ${epsilonWall} ${sigma} ${cutoffLow} units box
fix            lowWall all wall/lj93 zlo EDGE                2 ${sigma} ${cutoffLow} units box
fix            lowWall all wall/lj93 zlo EDGE                2 1 ${cutoffLow} units box
fix            lowWall all wall/lj93 zlo EDGE                2 1 3 units box


###################### COMPUTES ##########################

compute        bin1 solvent chunk/atom bin/1d z upper 1.0


######################	FIXES ############################


fix 		peclet solvent ave/chunk 1000 1 1000 bin1 density/number norm 		 none ave one file density.profile

fix 		 temp solvent ave/chunk 1000 1 1000 bin1 temp norm 		 none ave one file temp.profile

fix 		2 solvent nve


## Thermostat


region		regthermo block EDGE EDGE EDGE EDGE 0 20 units box

group 		thermo dynamic solvent region regthermo every 1000
dynamic group thermo defined

fix 		3 thermo langevin ${startTemp} ${temp} 10 156453
fix 		3 thermo langevin .7 ${temp} 10 156453
fix 		3 thermo langevin .7 .7 10 156453



#### Load balancing


fix 		bal all balance 1000 1.05 shift z 10 1.05


############### Diagnostics and computes ###################
#compute 	com cube	  rigid/local	1 mol x y z
#compute 	quat cube	  rigid/local	1 mol quatw quati quatj quatk

thermo 		1000
thermo_style 	custom step temp epair evdwl etotal press pe ke atoms

dump		1 all custom 100000 dump.lammpstrj id mol type x y z
dump 		2 all image 10000 image.*.png type type
dump 		3 all movie 1000 movie.avi type type

#dump 		com cube local 1000 dump.*.xyz c_com[*]
#dump		quat cube      local 1000 dump.*.quat c_quat[*]


restart 	1000000 restart.dat
timestep 	0.005
timer 		full
New timer settings: style=full  mode=nosync  timeout=off

run		3000000
Per MPI rank memory allocation (min/avg/max) = 9.982 | 10.06 | 10.45 Mbytes
Step Temp E_pair E_vdwl TotEng Press PotEng KinEng Atoms 
       0          0.7  -0.77633128  -0.77633128   0.27366633    4.0877105  -0.77633128    1.0499976   439061 
    1000    1.7763393   -2.8818294   -2.8818294   -0.2173266    1.9533113   -2.8818294    2.6645028   439061 
    2000     1.658928   -2.8947291   -2.8947291  -0.40634274    1.1172355   -2.8947291    2.4883864   439061 
    3000      1.48329   -2.7981435   -2.7981435  -0.57321354   0.77376207   -2.7981435      2.22493   439061 
    4000    1.3941077   -2.7873033   -2.7873033   -0.6961465   0.60423508   -2.7873033    2.0911568   439061 
    5000    1.3376636   -2.7683451   -2.7683451  -0.76185424   0.48241892   -2.7683451    2.0064909   439061 
    6000    1.3012316   -2.7407343   -2.7407343  -0.78889138    0.3737168   -2.7407343    1.9518429   439061 
    7000    1.2767208   -2.7129804   -2.7129804  -0.79790353    0.3487588   -2.7129804    1.9150768   439061 
    8000    1.2611445     -2.69273     -2.69273  -0.80101762   0.35955275     -2.69273    1.8917124   439061 
    9000    1.2617173   -2.6953943   -2.6953943  -0.80282261    0.3993828   -2.6953943    1.8925716   439061 
   10000    1.2677541   -2.7078876   -2.7078876  -0.80626072   0.44554069   -2.7078876    1.9016268   439061 
   11000    1.2738872   -2.7231787   -2.7231787  -0.81235234    0.4756199   -2.7231787    1.9108264   439061 
   12000      1.27578   -2.7318955   -2.7318955  -0.81822986   0.48447975   -2.7318955    1.9136657   439061 
   13000    1.2708885   -2.7312312   -2.7312312  -0.82490277   0.47478869   -2.7312312    1.9063285   439061 
   14000    1.2543776    -2.710399    -2.710399  -0.82883696   0.44519694    -2.710399    1.8815621   439061 
   15000      1.23389   -2.6836652   -2.6836652   -0.8328343   0.40048772   -2.6836652    1.8508309   439061 
   16000     1.210531   -2.6526796   -2.6526796  -0.83688715   0.36106776   -2.6526796    1.8157924   439061 
   17000    1.1931822   -2.6291257   -2.6291257  -0.83935657   0.33556916   -2.6291257    1.7897692   439061 
   18000    1.1804667   -2.6145107   -2.6145107  -0.84381465    0.3338053   -2.6145107    1.7706961   439061 
   19000    1.1757008   -2.6214259   -2.6214259  -0.85787871   0.37008253   -2.6214259    1.7635472   439061 
   20000    1.1612641   -2.6319667   -2.6319667  -0.89007462   0.40538633   -2.6319667    1.7418921   439061 
   21000    1.1445393   -2.6410681   -2.6410681  -0.92426297     0.389153   -2.6410681    1.7168051   439061 
   22000    1.1285686   -2.6432117   -2.6432117  -0.95036272   0.36927898   -2.6432117     1.692849   439061 
   23000     1.118219   -2.6474142   -2.6474142  -0.97008952   0.36139803   -2.6474142    1.6773247   439061 
   24000    1.1115619   -2.6585948   -2.6585948  -0.99125573    0.3699605   -2.6585948     1.667339   439061 
   25000    1.1068762   -2.6704184   -2.6704184   -1.0101079   0.37768769   -2.6704184    1.6603105   439061 
   26000    1.1006141   -2.6795955   -2.6795955   -1.0286781   0.37368322   -2.6795955    1.6509174   439061 
   27000    1.0930337   -2.6843811   -2.6843811   -1.0448343   0.36299762   -2.6843811    1.6395468   439061 
   28000    1.0851671   -2.6872454   -2.6872454   -1.0594984     0.346123   -2.6872454     1.627747   439061 
   29000    1.0756889   -2.6843036   -2.6843036   -1.0707739   0.32971949   -2.6843036    1.6135296   439061 
   30000    1.0660561   -2.6813274   -2.6813274   -1.0822469   0.31572682   -2.6813274    1.5990805   439061 
   31000    1.0587537   -2.6802028   -2.6802028   -1.0920759   0.30090256   -2.6802028    1.5881269   439061 
   32000    1.0470474   -2.6708681   -2.6708681   -1.1003005    0.2781394   -2.6708681    1.5705676   439061 
   33000    1.0367069   -2.6638055   -2.6638055   -1.1087486   0.25935392   -2.6638055    1.5550569   439061 
   34000    1.0265454   -2.6549707   -2.6549707   -1.1151561   0.24236283   -2.6549707    1.5398146   439061 
   35000    1.0171216   -2.6484947   -2.6484947   -1.1228157   0.23043004   -2.6484947     1.525679   439061 
   36000    1.0076018   -2.6381257   -2.6381257   -1.1267265   0.21434759   -2.6381257    1.5113992   439061 
   37000    1.0012299    -2.633114    -2.633114   -1.1312726   0.20124234    -2.633114    1.5018414   439061 
   38000   0.99803934   -2.6317405   -2.6317405   -1.1346849   0.19797802   -2.6317405    1.4970556   439061 
   39000   0.99611309   -2.6313867   -2.6313867   -1.1372205   0.19494596   -2.6313867    1.4941662   439061 
   40000   0.99338705   -2.6310771   -2.6310771       -1.141   0.18647911   -2.6310771    1.4900772   439061 
   41000   0.99105455   -2.6311549   -2.6311549   -1.1445765   0.18889018   -2.6311549    1.4865784   439061 
   42000   0.99094715   -2.6333668   -2.6333668   -1.1469495   0.19042069   -2.6333668    1.4864173   439061 
   43000   0.98945266   -2.6340534   -2.6340534   -1.1498778   0.18942874   -2.6340534    1.4841756   439061 
   44000   0.98897583   -2.6361844   -2.6361844    -1.152724   0.19008083   -2.6361844    1.4834604   439061 
   45000   0.98848512   -2.6381716   -2.6381716   -1.1554473   0.18469325   -2.6381716    1.4827243   439061 
   46000   0.98557965   -2.6383135   -2.6383135   -1.1599474   0.17943517   -2.6383135    1.4783661   439061 
   47000   0.98576393   -2.6418047   -2.6418047   -1.1631622   0.17611529   -2.6418047    1.4786425   439061 
   48000   0.98350445   -2.6408599   -2.6408599   -1.1656066   0.17851836   -2.6408599    1.4752533   439061 
   49000   0.97977841   -2.6381302   -2.6381302   -1.1684659   0.17279427   -2.6381302    1.4696643   439061 
   50000   0.97682356   -2.6372741   -2.6372741   -1.1720421   0.16552374   -2.6372741     1.465232   439061 
   51000   0.97234027   -2.6345229   -2.6345229   -1.1760158   0.16212761   -2.6345229    1.4585071   439061 
   52000   0.97050129   -2.6346618   -2.6346618   -1.1789132   0.17127011   -2.6346618    1.4557486   439061 
   53000   0.97071157   -2.6397719   -2.6397719   -1.1837079   0.17064812   -2.6397719     1.456064   439061 
   54000   0.97066366   -2.6441317   -2.6441317   -1.1881395   0.18282219   -2.6441317    1.4559922   439061 
   55000   0.96892307   -2.6503356   -2.6503356   -1.1969543   0.18791163   -2.6503356    1.4533813   439061 
   56000   0.96616092   -2.6576316   -2.6576316   -1.2083935   0.19078353   -2.6576316    1.4492381   439061 
   57000    0.9623512   -2.6612969   -2.6612969   -1.2177734   0.19235944   -2.6612969    1.4435235   439061 
   58000    0.9614025   -2.6670729   -2.6670729   -1.2249724   0.18663316   -2.6670729    1.4421005   439061 
   59000   0.96239666   -2.6740128   -2.6740128   -1.2304211   0.18716683   -2.6740128    1.4435917   439061 
   60000   0.95972051   -2.6767913   -2.6767913   -1.2372138   0.18510295   -2.6767913    1.4395775   439061 
   61000   0.95806466   -2.6823366   -2.6823366   -1.2452428   0.18561606   -2.6823366    1.4370937   439061 
   62000   0.95647835   -2.6861077   -2.6861077   -1.2513934   0.18677789   -2.6861077    1.4347143   439061 
   63000    0.9557138   -2.6917662   -2.6917662   -1.2581988   0.18321033   -2.6917662    1.4335674   439061 
   64000    0.9545632   -2.6955656   -2.6955656   -1.2637241   0.17818681   -2.6955656    1.4318415   439061 
   65000   0.95180661   -2.6963934   -2.6963934   -1.2686868   0.17951551   -2.6963934    1.4277067   439061 
   66000   0.95033344    -2.698007    -2.698007   -1.2725101    0.1786293    -2.698007    1.4254969   439061 
   67000   0.94735276   -2.6986486   -2.6986486   -1.2776227   0.17495349   -2.6986486    1.4210259   439061 
   68000   0.94452491    -2.698522    -2.698522   -1.2817378   0.17169856    -2.698522    1.4167841   439061 
   69000   0.94032726   -2.6975059   -2.6975059   -1.2870182   0.15939482   -2.6975059    1.4104877   439061 
   70000   0.93773546   -2.6956382   -2.6956382   -1.2890383   0.16216533   -2.6956382       1.4066   439061 
   71000   0.93609492   -2.6962267   -2.6962267   -1.2920875   0.15291601   -2.6962267    1.4041392   439061 
   72000   0.93050782    -2.692608    -2.692608   -1.2968495   0.15228064    -2.692608    1.3957586   439061 
   73000   0.92831948   -2.6922056   -2.6922056   -1.2997296   0.14650478   -2.6922056     1.392476   439061 
   74000   0.92556402   -2.6921146   -2.6921146   -1.3037717   0.14150007   -2.6921146    1.3883429   439061 
   75000   0.92156222   -2.6889824   -2.6889824   -1.3066422   0.13821602   -2.6889824    1.3823402   439061 
   76000   0.91945432   -2.6891572   -2.6891572   -1.3099789   0.13100414   -2.6891572    1.3791783   439061 
   77000   0.91738269   -2.6879865   -2.6879865   -1.3119156    0.1335156   -2.6879865    1.3760709   439061 
   78000   0.91700399   -2.6898915   -2.6898915   -1.3143887   0.12868578   -2.6898915    1.3755028   439061 
   79000   0.91451312   -2.6885426   -2.6885426    -1.316776   0.12543043   -2.6885426    1.3717666   439061 
   80000    0.9127993   -2.6890603   -2.6890603   -1.3198644   0.12368568   -2.6890603    1.3691958   439061 
   81000   0.91381574   -2.6915088   -2.6915088   -1.3207884   0.11786874   -2.6915088    1.3707205   439061 
   82000    0.9117009   -2.6907483   -2.6907483   -1.3232001   0.12034991   -2.6907483    1.3675482   439061 
   83000   0.91044204   -2.6907077   -2.6907077   -1.3250477   0.11674186   -2.6907077    1.3656599   439061 
   84000   0.91085314   -2.6946504   -2.6946504   -1.3283738   0.11441891   -2.6946504    1.3662766   439061 
   85000   0.90987697    -2.695192    -2.695192   -1.3303797   0.11590238    -2.695192    1.3648123   439061 
   86000   0.90884003    -2.697525    -2.697525    -1.334268   0.11443589    -2.697525    1.3632569   439061 
   87000   0.90925411   -2.6999757   -2.6999757   -1.3360977   0.11612439   -2.6999757    1.3638781   439061 
   88000   0.90862361   -2.7007559   -2.7007559   -1.3378236   0.11901417   -2.7007559    1.3629323   439061 
   89000   0.90902772   -2.7043144   -2.7043144   -1.3407759   0.11562602   -2.7043144    1.3635385   439061 
   90000   0.90889027   -2.7068759   -2.7068759   -1.3435436   0.11195983   -2.7068759    1.3633323   439061 
   91000   0.90750744   -2.7064764   -2.7064764   -1.3452183   0.12006747   -2.7064764    1.3612581   439061 
   92000   0.90643359   -2.7071973   -2.7071973     -1.34755   0.11980895   -2.7071973    1.3596473   439061 
   93000    0.9062911   -2.7102741   -2.7102741   -1.3508405   0.11989037   -2.7102741    1.3594336   439061 
   94000   0.90556755   -2.7132019   -2.7132019   -1.3548537   0.12150124   -2.7132019    1.3583482   439061 
   95000   0.90540997   -2.7159121   -2.7159121   -1.3578002    0.1199954   -2.7159121    1.3581119   439061 
   96000   0.90615908   -2.7209898   -2.7209898   -1.3617543   0.12479176   -2.7209898    1.3592355   439061 
   97000    0.9053585   -2.7235767   -2.7235767   -1.3655421   0.12169399   -2.7235767    1.3580347   439061 
   98000   0.90532524    -2.728489    -2.728489   -1.3705042   0.12611839    -2.728489    1.3579848   439061 
   99000   0.90452353   -2.7319216   -2.7319216   -1.3751394   0.12598179   -2.7319216    1.3567822   439061 
  100000   0.90390452   -2.7361225   -2.7361225   -1.3802688    0.1288646   -2.7361225    1.3558537   439061 
  101000   0.90405648   -2.7415498   -2.7415498   -1.3854682   0.12564652   -2.7415498    1.3560816   439061 
  102000   0.90229655   -2.7439828   -2.7439828    -1.390541   0.12674483   -2.7439828    1.3534417   439061 
  103000   0.90095222   -2.7448976   -2.7448976   -1.3934724   0.13034267   -2.7448976    1.3514253   439061 
  104000   0.90077178   -2.7481193   -2.7481193   -1.3969647   0.12984907   -2.7481193    1.3511546   439061 
  105000   0.90112484   -2.7526943   -2.7526943   -1.4010102   0.12924786   -2.7526943    1.3516842   439061 
  106000    0.9000108   -2.7545995   -2.7545995   -1.4045864   0.12878141   -2.7545995    1.3500131   439061 
  107000   0.89970947   -2.7572692   -2.7572692   -1.4077081   0.13114252   -2.7572692    1.3495611   439061 
  108000   0.89843098   -2.7575904   -2.7575904    -1.409947   0.12921665   -2.7575904    1.3476434   439061 
  109000   0.89951902   -2.7611885   -2.7611885   -1.4119131   0.12369668   -2.7611885    1.3492755   439061 
  110000   0.89805453   -2.7618438   -2.7618438   -1.4147651   0.12259835   -2.7618438    1.3470787   439061 
  111000   0.89595055   -2.7614345   -2.7614345   -1.4175117   0.11536369   -2.7614345    1.3439228   439061 
  112000   0.89355441   -2.7603851   -2.7603851   -1.4200566    0.1153649   -2.7603851    1.3403286   439061 
  113000   0.89392512    -2.762926    -2.762926   -1.4220414   0.11326816    -2.762926    1.3408846   439061 
  114000   0.89077819   -2.7616045   -2.7616045   -1.4254403   0.11615503   -2.7616045    1.3361642   439061 
  115000   0.88929411   -2.7624151   -2.7624151    -1.428477   0.11999792   -2.7624151    1.3339381   439061 
  116000   0.89016018   -2.7659601   -2.7659601   -1.4307228   0.11223341   -2.7659601    1.3352372   439061 
  117000   0.88824146   -2.7646014   -2.7646014   -1.4322423   0.10889346   -2.7646014    1.3323591   439061 
  118000   0.88564901   -2.7632202   -2.7632202   -1.4347497   0.10953703   -2.7632202    1.3284705   439061 
  119000   0.88439947   -2.7633349   -2.7633349   -1.4367387   0.10490152   -2.7633349    1.3265962   439061 
  120000   0.88338056    -2.763269    -2.763269   -1.4382011   0.10642555    -2.763269    1.3250678   439061 
  121000   0.88277281   -2.7642988   -2.7642988   -1.4401426   0.10839904   -2.7642988    1.3241562   439061 
  122000   0.88154716   -2.7641054   -2.7641054   -1.4417877   0.10375754   -2.7641054    1.3223177   439061 
  123000   0.88092473   -2.7651292   -2.7651292   -1.4437452  0.097335562   -2.7651292    1.3213841   439061 
  124000   0.87952935   -2.7657627   -2.7657627   -1.4464717   0.10006639   -2.7657627     1.319291   439061 
  125000   0.88050462   -2.7690068   -2.7690068   -1.4482528    0.1004281   -2.7690068    1.3207539   439061 
  126000   0.87854635    -2.766855    -2.766855   -1.4490385  0.094555728    -2.766855    1.3178165   439061 
  127000   0.87790244   -2.7683897   -2.7683897   -1.4515391  0.099961397   -2.7683897    1.3168507   439061 
  128000   0.87629262    -2.767148    -2.767148    -1.452712   0.10133064    -2.767148    1.3144359   439061 
  129000   0.87780688   -2.7714146   -2.7714146   -1.4547073  0.095313854   -2.7714146    1.3167073   439061 
  130000   0.87741133    -2.774273    -2.774273    -1.458159  0.095459024    -2.774273     1.316114   439061 
  131000    0.8767601   -2.7754837   -2.7754837   -1.4603466   0.09275265   -2.7754837    1.3151372   439061 
  132000    0.8756574   -2.7761569   -2.7761569   -1.4626738  0.093901635   -2.7761569    1.3134831   439061 
  133000   0.87629686   -2.7778931   -2.7778931   -1.4634508  0.095349826   -2.7778931    1.3144423   439061 
  134000    0.8759328   -2.7785402   -2.7785402    -1.464644  0.099239349   -2.7785402    1.3138962   439061 
  135000   0.87559641   -2.7814361   -2.7814361   -1.4680445  0.098384351   -2.7814361    1.3133916   439061 
  136000   0.87373112   -2.7806786   -2.7806786   -1.4700849  0.097247274   -2.7806786    1.3105937   439061 
  137000   0.87320737   -2.7828973   -2.7828973   -1.4730893  0.094781452   -2.7828973    1.3098081   439061 
  138000   0.87290247   -2.7858187   -2.7858187    -1.476468  0.093004799   -2.7858187    1.3093507   439061 
  139000   0.87304837   -2.7893681   -2.7893681   -1.4797985  0.095209679   -2.7893681    1.3095696   439061 
  140000   0.87551862   -2.7950418   -2.7950418   -1.4817668   0.10189641   -2.7950418    1.3132749   439061 
  141000   0.87443888   -2.7963958   -2.7963958   -1.4847405   0.10440752   -2.7963958    1.3116553   439061 
  142000   0.87431619   -2.7981355   -2.7981355   -1.4866642   0.10256922   -2.7981355    1.3114713   439061 
  143000   0.87451906   -2.7999993   -2.7999993   -1.4882237   0.10170547   -2.7999993    1.3117756   439061 
  144000   0.87369958   -2.8014533   -2.8014533   -1.4909069   0.10700856   -2.8014533    1.3105464   439061 
  145000    0.8741689   -2.8048027   -2.8048027   -1.4935524   0.10343168   -2.8048027    1.3112504   439061 
  146000   0.87361416   -2.8075692   -2.8075692    -1.497151   0.10843831   -2.8075692    1.3104183   439061 
  147000   0.87174197   -2.8063469   -2.8063469   -1.4987369   0.10542922   -2.8063469      1.30761   439061 
  148000   0.87130735   -2.8076031   -2.8076031   -1.5006451    0.1062957   -2.8076031     1.306958   439061 
  149000   0.87307929   -2.8122297   -2.8122297   -1.5026137   0.10678099   -2.8122297    1.3096159   439061 
  150000   0.86998581   -2.8110155   -2.8110155   -1.5060398    0.0986466   -2.8110155    1.3049757   439061 
  151000   0.87024675   -2.8137516   -2.8137516   -1.5083844  0.098261327   -2.8137516    1.3053671   439061 
  152000   0.87056209   -2.8168759   -2.8168759   -1.5110357   0.09767315   -2.8168759    1.3058402   439061 
  153000   0.86966414   -2.8174181   -2.8174181   -1.5129248   0.10186478   -2.8174181    1.3044932   439061 
  154000   0.86848445   -2.8185882   -2.8185882   -1.5158645   0.10161972   -2.8185882    1.3027237   439061 
  155000   0.86951376   -2.8220735   -2.8220735   -1.5178058   0.10027792   -2.8220735    1.3042677   439061 
  156000   0.86915309   -2.8229405   -2.8229405   -1.5192138    0.1021711   -2.8229405    1.3037267   439061 
  157000    0.8669175    -2.822337    -2.822337   -1.5219637   0.10071046    -2.822337    1.3003733   439061 
  158000   0.86655184   -2.8242892   -2.8242892   -1.5244644  0.098825832   -2.8242892    1.2998248   439061 
  159000   0.86562234   -2.8253296   -2.8253296   -1.5268991  0.090860601   -2.8253296    1.2984305   439061 
  160000   0.86522464   -2.8262287   -2.8262287   -1.5283947  0.094170519   -2.8262287     1.297834   439061 
  161000    0.8648176   -2.8269841   -2.8269841   -1.5297607  0.090281623   -2.8269841    1.2972234   439061 
  162000   0.86426888   -2.8280383   -2.8280383    -1.531638  0.092859888   -2.8280383    1.2964004   439061 
  163000   0.86214608   -2.8268436   -2.8268436   -1.5336275  0.093407597   -2.8268436    1.2932162   439061 
  164000   0.86179307   -2.8287555   -2.8287555   -1.5360689  0.093383847   -2.8287555    1.2926867   439061 
  165000   0.86180593   -2.8313562   -2.8313562   -1.5386502  0.094606079   -2.8313562     1.292706   439061 
  166000   0.86178328   -2.8324487   -2.8324487   -1.5397768  0.087398441   -2.8324487     1.292672   439061 
  167000   0.86113121   -2.8343004   -2.8343004   -1.5426066  0.087568838   -2.8343004    1.2916939   439061 
  168000   0.86004288   -2.8345781   -2.8345781   -1.5445167   0.08932852   -2.8345781    1.2900614   439061 
  169000   0.85900872    -2.835401    -2.835401   -1.5468908  0.091128277    -2.835401    1.2885101   439061 
  170000   0.86029148   -2.8377096   -2.8377096   -1.5472753   0.08637673   -2.8377096    1.2904343   439061 
  171000   0.85885792   -2.8379096   -2.8379096   -1.5496256  0.088845492   -2.8379096    1.2882839   439061 
  172000    0.8589529   -2.8391166   -2.8391166   -1.5506902  0.087134067   -2.8391166    1.2884264   439061 
  173000   0.85820003   -2.8405168   -2.8405168   -1.5532197  0.088884928   -2.8405168    1.2872971   439061 
  174000   0.85876202   -2.8418597   -2.8418597   -1.5537196  0.092653643   -2.8418597    1.2881401   439061 
  175000   0.85820396   -2.8430876   -2.8430876   -1.5557846  0.089659989   -2.8430876     1.287303   439061 
  176000    0.8575593   -2.8451324   -2.8451324   -1.5587964  0.087528853   -2.8451324     1.286336   439061 
  177000    0.8574515   -2.8468124   -2.8468124    -1.560638  0.088826428   -2.8468124    1.2861743   439061 
  178000   0.85744483   -2.8472118   -2.8472118   -1.5610475  0.091135142   -2.8472118    1.2861643   439061 
  179000   0.85656012   -2.8485424   -2.8485424   -1.5637051  0.087986773   -2.8485424    1.2848373   439061 
  180000   0.85599588   -2.8496638   -2.8496638   -1.5656729  0.086324303   -2.8496638    1.2839909   439061 
  181000   0.85595006   -2.8509912   -2.8509912    -1.567069  0.084834071   -2.8509912    1.2839222   439061 
  182000    0.8552515   -2.8509677   -2.8509677   -1.5680934  0.089847444   -2.8509677    1.2828743   439061 
  183000    0.8569761   -2.8573725   -2.8573725   -1.5719112  0.083720316   -2.8573725    1.2854612   439061 
  184000   0.85524655   -2.8568326   -2.8568326   -1.5739656  0.085571536   -2.8568326    1.2828669   439061 
  185000   0.85540368   -2.8584551   -2.8584551   -1.5753526  0.088648254   -2.8584551    1.2831026   439061 
  186000   0.85478767   -2.8586964   -2.8586964   -1.5765178  0.092584864   -2.8586964    1.2821786   439061 
  187000   0.85434169   -2.8615588   -2.8615588   -1.5800492  0.085589322   -2.8615588    1.2815096   439061 
  188000   0.85464304   -2.8643334   -2.8643334   -1.5823717  0.085041907   -2.8643334    1.2819616   439061 
  189000   0.85413128   -2.8660588   -2.8660588   -1.5848648  0.088733858   -2.8660588     1.281194   439061 
  190000   0.85486407   -2.8680283   -2.8680283   -1.5857351  0.086403102   -2.8680283    1.2822932   439061 
  191000   0.85252331   -2.8676206   -2.8676206   -1.5888386  0.086035251   -2.8676206     1.278782   439061 
  192000   0.85374945   -2.8706513   -2.8706513   -1.5900301   0.08680801   -2.8706513    1.2806213   439061 
  193000   0.85383184   -2.8725806   -2.8725806   -1.5918358  0.088072401   -2.8725806    1.2807448   439061 
  194000    0.8525363   -2.8730894   -2.8730894   -1.5942878  0.087064927   -2.8730894    1.2788015   439061 
  195000    0.8512558    -2.873223    -2.873223   -1.5963422   0.08535031    -2.873223    1.2768808   439061 
  196000   0.85216699   -2.8750279   -2.8750279   -1.5967804  0.087817751   -2.8750279    1.2782476   439061 
  197000   0.85322608   -2.8777493   -2.8777493   -1.5979131   0.08962992   -2.8777493    1.2798362   439061 
  198000    0.8517401   -2.8791351   -2.8791351   -1.6015278  0.084291673   -2.8791351    1.2776072   439061 
  199000   0.85223271    -2.881546    -2.881546   -1.6031998  0.088114962    -2.881546    1.2783462   439061 
  200000   0.85012822   -2.8802201   -2.8802201   -1.6050307   0.09054875   -2.8802201    1.2751894   439061 
  201000   0.85020654   -2.8823462   -2.8823462   -1.6070393    0.0855529   -2.8823462    1.2753069   439061 
  202000   0.85153923    -2.887444    -2.887444   -1.6101381   0.08143522    -2.887444    1.2773059   439061 
  203000   0.84916801   -2.8863915   -2.8863915   -1.6126424  0.086719967   -2.8863915    1.2737491   439061 
  204000   0.84854907   -2.8881225   -2.8881225   -1.6153018  0.086191025   -2.8881225    1.2728207   439061 
  205000   0.84835227   -2.8889925   -2.8889925    -1.616467  0.088905379   -2.8889925    1.2725255   439061 
  206000   0.84846681   -2.8916728   -2.8916728   -1.6189755  0.084623775   -2.8916728    1.2726973   439061 
  207000   0.84757404   -2.8914804   -2.8914804   -1.6201223  0.082036624   -2.8914804    1.2713582   439061 
  208000   0.84656787   -2.8925055   -2.8925055   -1.6226566  0.082899477   -2.8925055    1.2698489   439061 
  209000    0.8467497   -2.8946496   -2.8946496   -1.6245279  0.084181846   -2.8946496    1.2701217   439061 
  210000   0.84713183   -2.8973452   -2.8973452   -1.6266503  0.081102617   -2.8973452    1.2706949   439061 
  211000   0.84535336   -2.8952206   -2.8952206   -1.6271934  0.076641688   -2.8952206    1.2680272   439061 
  212000   0.84380004   -2.8943849   -2.8943849   -1.6286877  0.082946113   -2.8943849    1.2656972   439061 
  213000   0.84516002   -2.8975952   -2.8975952   -1.6298581   0.08201821   -2.8975952    1.2677371   439061 
  214000   0.84596094   -2.8996772   -2.8996772   -1.6307387  0.080163044   -2.8996772    1.2689385   439061 
  215000   0.84464015   -2.8994483   -2.8994483   -1.6324909  0.083118916   -2.8994483    1.2669573   439061 
  216000   0.84492771      -2.9013      -2.9013   -1.6339113  0.083612475      -2.9013    1.2673887   439061 
  217000   0.84483151   -2.9034993   -2.9034993   -1.6362549  0.080174189   -2.9034993    1.2672444   439061 
  218000   0.84430512   -2.9045554   -2.9045554   -1.6381006  0.079719644   -2.9045554    1.2664548   439061 
  219000   0.84253937   -2.9037298   -2.9037298   -1.6399236  0.083726954   -2.9037298    1.2638062   439061 
  220000   0.84356019   -2.9070546   -2.9070546   -1.6417172  0.083177607   -2.9070546    1.2653374   439061 
  221000   0.84281186   -2.9077636   -2.9077636   -1.6435487  0.080239832   -2.9077636    1.2642149   439061 
  222000   0.84249978   -2.9085658   -2.9085658    -1.644819   0.08073756   -2.9085658    1.2637468   439061 
  223000   0.84244586   -2.9101184   -2.9101184   -1.6464525  0.080598731   -2.9101184    1.2636659   439061 
  224000   0.84309219   -2.9129557   -2.9129557   -1.6483203  0.081142829   -2.9129557    1.2646354   439061 
  225000   0.84228924   -2.9128991   -2.9128991   -1.6494682  0.080765945   -2.9128991     1.263431   439061 
  226000   0.84234794   -2.9145971   -2.9145971   -1.6510781  0.080122777   -2.9145971     1.263519   439061 
  227000    0.8426309     -2.91736     -2.91736   -1.6534166  0.080068034     -2.91736    1.2639435   439061 
  228000   0.84179548   -2.9169365   -2.9169365   -1.6542461  0.083879904   -2.9169365    1.2626903   439061 
  229000   0.84289609   -2.9194883   -2.9194883   -1.6551471  0.081619871   -2.9194883    1.2643412   439061 
  230000   0.84092474   -2.9202288   -2.9202288   -1.6588446  0.076712201   -2.9202288    1.2613842   439061 
  231000   0.84168937   -2.9218591   -2.9218591    -1.659328  0.077923306   -2.9218591    1.2625312   439061 
  232000   0.84134527   -2.9218065   -2.9218065   -1.6597915  0.082903658   -2.9218065     1.262015   439061 
  233000   0.84063588    -2.923949    -2.923949   -1.6629981  0.078408063    -2.923949     1.260951   439061 
  234000   0.84003555   -2.9246693   -2.9246693   -1.6646189  0.076291059   -2.9246693    1.2600504   439061 
  235000   0.83961034    -2.926149    -2.926149   -1.6667364  0.073840993    -2.926149    1.2594126   439061 
  236000   0.83907142   -2.9270393   -2.9270393   -1.6684351  0.077901393   -2.9270393    1.2586043   439061 
  237000   0.83884396   -2.9282718   -2.9282718   -1.6700087  0.080149253   -2.9282718    1.2582631   439061 
  238000   0.83820423   -2.9285002   -2.9285002   -1.6711967  0.079793502   -2.9285002    1.2573035   439061 
  239000   0.83803773    -2.930383    -2.930383   -1.6733292  0.079473908    -2.930383    1.2570537   439061 
  240000   0.83839096   -2.9322529   -2.9322529   -1.6746693   0.07895722   -2.9322529    1.2575836   439061 
  241000   0.83841578   -2.9349381   -2.9349381   -1.6773173  0.080136082   -2.9349381    1.2576208   439061 
  242000   0.83910591    -2.937256    -2.937256   -1.6786001  0.082804865    -2.937256     1.258656   439061 
  243000   0.83867675   -2.9377455   -2.9377455   -1.6797333  0.078303647   -2.9377455    1.2580123   439061 
  244000   0.83721335   -2.9376746   -2.9376746   -1.6818574  0.085265607   -2.9376746    1.2558172   439061 
  245000   0.83794815   -2.9405051   -2.9405051   -1.6835857  0.078351081   -2.9405051    1.2569194   439061 
  246000   0.83688597    -2.941241    -2.941241   -1.6859149  0.079426683    -2.941241    1.2553261   439061 
  247000    0.8367261   -2.9429809   -2.9429809   -1.6878947  0.078832585   -2.9429809    1.2550863   439061 
  248000   0.83699126   -2.9440717   -2.9440717   -1.6885877  0.076778259   -2.9440717     1.255484   439061 
  249000   0.83671051   -2.9442148   -2.9442148   -1.6891519  0.079391566   -2.9442148    1.2550629   439061 
  250000   0.83674982   -2.9461683   -2.9461683   -1.6910465  0.079478633   -2.9461683    1.2551219   439061 
  251000   0.83616308   -2.9471184   -2.9471184   -1.6928766  0.073714843   -2.9471184    1.2542418   439061 
  252000   0.83441072   -2.9446975   -2.9446975   -1.6930843  0.076563815   -2.9446975    1.2516132   439061 
  253000   0.83569119   -2.9494049   -2.9494049    -1.695871  0.074707047   -2.9494049    1.2535339   439061 
  254000   0.83488133   -2.9488093   -2.9488093   -1.6964902  0.079566391   -2.9488093    1.2523191   439061 
  255000   0.83578704   -2.9503907   -2.9503907    -1.696713  0.071852754   -2.9503907    1.2536777   439061 
  256000   0.83610421   -2.9524297   -2.9524297   -1.6982763  0.074935841   -2.9524297    1.2541535   439061 
  257000    0.8351032   -2.9521771   -2.9521771   -1.6995252  0.075409279   -2.9521771    1.2526519   439061 
  258000   0.83472565   -2.9527793   -2.9527793   -1.7006936  0.078738411   -2.9527793    1.2520856   439061 
  259000   0.83397882   -2.9542279   -2.9542279   -1.7032625  0.075883686   -2.9542279    1.2509654   439061 
  260000    0.8340677   -2.9547393   -2.9547393   -1.7036406  0.075056934   -2.9547393    1.2510987   439061 
  261000   0.83327948   -2.9552832   -2.9552832   -1.7053669  0.079597934   -2.9552832    1.2499164   439061 
  262000   0.83263094   -2.9563053   -2.9563053   -1.7073617  0.078383095   -2.9563053    1.2489436   439061 
  263000   0.83338316   -2.9594081   -2.9594081   -1.7093363  0.075180765   -2.9594081    1.2500719   439061 
  264000   0.83280114   -2.9609454   -2.9609454   -1.7117465  0.070736745   -2.9609454    1.2491989   439061 
  265000   0.83264061   -2.9620811   -2.9620811    -1.713123  0.076856352   -2.9620811    1.2489581   439061 
  266000   0.83044467   -2.9610604   -2.9610604   -1.7153962    0.0798651   -2.9610604    1.2456642   439061 
  267000   0.83223711   -2.9658388   -2.9658388    -1.717486   0.07624485   -2.9658388    1.2483528   439061 
  268000   0.83158417   -2.9656114   -2.9656114    -1.718238  0.081112033   -2.9656114    1.2473734   439061 
  269000   0.83166225   -2.9689417   -2.9689417   -1.7214511   0.07747789   -2.9689417    1.2474905   439061 
  270000   0.83135141   -2.9696784   -2.9696784   -1.7226541  0.076495504   -2.9696784    1.2470243   439061 
  271000   0.83117039   -2.9709129   -2.9709129   -1.7241602   0.07745049   -2.9709129    1.2467527   439061 
  272000   0.83013367   -2.9717297   -2.9717297    -1.726532  0.074349315   -2.9717297    1.2451977   439061 
  273000   0.83073176   -2.9733244   -2.9733244   -1.7272296  0.074101215   -2.9733244    1.2460948   439061 
  274000   0.83039246   -2.9751305   -2.9751305   -1.7295446  0.073259093   -2.9751305    1.2455858   439061 
  275000   0.82990961   -2.9755873   -2.9755873   -1.7307258  0.069835134   -2.9755873    1.2448616   439061 
  276000   0.82979204   -2.9748951   -2.9748951   -1.7302099  0.073483145   -2.9748951    1.2446852   439061 
  277000   0.83109386   -2.9774562   -2.9774562   -1.7308183    0.0735672   -2.9774562    1.2466379   439061 
  278000   0.82964148   -2.9779917   -2.9779917   -1.7335323  0.075281297   -2.9779917    1.2444594   439061 
  279000    0.8305701   -2.9807861   -2.9807861   -1.7349338  0.074105848   -2.9807861    1.2458523   439061 
  280000   0.82829368   -2.9798218   -2.9798218   -1.7373841  0.074148397   -2.9798218    1.2424377   439061 
  281000   0.82856165   -2.9815577   -2.9815577   -1.7387181  0.076185149   -2.9815577    1.2428397   439061 
  282000   0.82976021   -2.9845482   -2.9845482   -1.7399107  0.078051177   -2.9845482    1.2446375   439061 
  283000   0.83038196   -2.9867746   -2.9867746   -1.7412045  0.075552618   -2.9867746    1.2455701   439061 
  284000   0.83000564    -2.987489    -2.987489   -1.7424834  0.075798743    -2.987489    1.2450056   439061 
  285000   0.82828202   -2.9869589   -2.9869589   -1.7445387  0.078277572   -2.9869589    1.2424202   439061 
  286000   0.82885955   -2.9890975   -2.9890975    -1.745811  0.072614684   -2.9890975    1.2432865   439061 
  287000   0.82831626   -2.9889217   -2.9889217   -1.7464501  0.074781721   -2.9889217    1.2424716   439061 
  288000   0.82902179   -2.9910054   -2.9910054   -1.7474756  0.069895419   -2.9910054    1.2435299   439061 
  289000   0.82822881   -2.9911386   -2.9911386   -1.7487983  0.074832483   -2.9911386    1.2423404   439061 
  290000   0.82804082   -2.9919757   -2.9919757   -1.7499173  0.071080787   -2.9919757    1.2420584   439061 
  291000   0.82754853   -2.9929127   -2.9929127   -1.7515927  0.079670275   -2.9929127      1.24132   439061 
  292000   0.82790885   -2.9947002   -2.9947002   -1.7528398  0.070628472   -2.9947002    1.2418604   439061 
  293000   0.82853718   -2.9964067   -2.9964067   -1.7536037  0.074729784   -2.9964067    1.2428029   439061 
  294000   0.82840531    -2.998097    -2.998097   -1.7554918  0.073266577    -2.998097    1.2426051   439061 
  295000   0.82754572   -2.9986657   -2.9986657   -1.7573499  0.078479495   -2.9986657    1.2413158   439061 
  296000   0.82826523   -3.0014022   -3.0014022   -1.7590072  0.075164229   -3.0014022     1.242395   439061 
  297000   0.82790329   -3.0043302   -3.0043302   -1.7624781  0.069820194   -3.0043302    1.2418521   439061 
  298000   0.82790589    -3.005725    -3.005725    -1.763869  0.069914934    -3.005725     1.241856   439061 
  299000   0.82516398   -3.0035143   -3.0035143   -1.7657712   0.07181866   -3.0035143    1.2377432   439061 
  300000   0.82625658   -3.0066329   -3.0066329   -1.7672508  0.067727645   -3.0066329    1.2393821   439061 
  301000   0.82444262   -3.0051119   -3.0051119   -1.7684508  0.077454726   -3.0051119    1.2366611   439061 
  302000   0.82477383   -3.0072937   -3.0072937   -1.7701358  0.073241898   -3.0072937    1.2371579   439061 
  303000   0.82594422   -3.0101335   -3.0101335     -1.77122  0.069785512   -3.0101335    1.2389135   439061 
  304000   0.82533106   -3.0105519   -3.0105519   -1.7725581  0.071704948   -3.0105519    1.2379938   439061 
  305000   0.82520121   -3.0112814   -3.0112814   -1.7734824  0.071326322   -3.0112814     1.237799   439061 
  306000   0.82380049   -3.0094362   -3.0094362   -1.7737382  0.074289378   -3.0094362    1.2356979   439061 
  307000   0.82542182   -3.0130986   -3.0130986   -1.7749687  0.079781379   -3.0130986    1.2381299   439061 
  308000   0.82659597   -3.0142068   -3.0142068   -1.7743156  0.075429006   -3.0142068    1.2398911   439061 
  309000   0.82579514   -3.0145523   -3.0145523   -1.7758624  0.075704385   -3.0145523    1.2386899   439061 
  310000    0.8249645   -3.0136921   -3.0136921   -1.7762481  0.074069842   -3.0136921    1.2374439   439061 
  311000   0.82484952   -3.0164188   -3.0164188   -1.7791474  0.069261692   -3.0164188    1.2372715   439061 
  312000   0.82255364   -3.0145314   -3.0145314   -1.7807038   0.07602949   -3.0145314    1.2338277   439061 
  313000   0.82275282   -3.0163557   -3.0163557   -1.7822293  0.071946344   -3.0163557    1.2341264   439061 
  314000   0.82249542   -3.0170034   -3.0170034   -1.7832631  0.063633084   -3.0170034    1.2337403   439061 
  315000   0.82100076   -3.0161287   -3.0161287   -1.7846303  0.070184124   -3.0161287    1.2314983   439061 
  316000   0.82187548   -3.0186038   -3.0186038   -1.7857933  0.069295877   -3.0186038    1.2328104   439061 
  317000   0.81971954   -3.0178866   -3.0178866   -1.7883101  0.070883402   -3.0178866    1.2295765   439061 
  318000   0.82172431   -3.0214253   -3.0214253   -1.7888417  0.070891418   -3.0214253    1.2325837   439061 
  319000   0.82159777     -3.02271     -3.02271   -1.7903161   0.06895721     -3.02271    1.2323939   439061 
  320000   0.82175877   -3.0252509   -3.0252509   -1.7926156  0.072788935   -3.0252509    1.2326354   439061 
  321000   0.82333729   -3.0280697   -3.0280697   -1.7930666  0.069062057   -3.0280697    1.2350031   439061 
  322000   0.82201146   -3.0283807   -3.0283807   -1.7953663  0.070432037   -3.0283807    1.2330144   439061 
  323000   0.82291118   -3.0312586   -3.0312586   -1.7968947  0.074126372   -3.0312586     1.234364   439061 
  324000    0.8225446   -3.0308409   -3.0308409   -1.7970269  0.078797675   -3.0308409    1.2338141   439061 
  325000   0.82198914   -3.0318127   -3.0318127   -1.7988318  0.069219667   -3.0318127    1.2329809   439061 
  326000   0.82282171   -3.0342269   -3.0342269   -1.7999972  0.075162848   -3.0342269    1.2342298   439061 
  327000   0.82225003   -3.0352357   -3.0352357   -1.8018634  0.068393362   -3.0352357    1.2333722   439061 
  328000   0.82106825   -3.0344386   -3.0344386    -1.802839  0.071425485   -3.0344386    1.2315996   439061 
  329000   0.82032604   -3.0339155   -3.0339155   -1.8034292  0.066383912   -3.0339155    1.2304863   439061 
  330000   0.82002036   -3.0352618   -3.0352618   -1.8052341  0.066606601   -3.0352618    1.2300277   439061 
  331000   0.82034483   -3.0354662   -3.0354662   -1.8049517  0.065763699   -3.0354662    1.2305144   439061 
  332000   0.81890999   -3.0347443   -3.0347443   -1.8063822  0.069309339   -3.0347443    1.2283622   439061 
  333000   0.82030513    -3.037125    -3.037125   -1.8066701  0.065974937    -3.037125    1.2304549   439061 
  334000   0.82081222   -3.0396122   -3.0396122   -1.8083967  0.065929896   -3.0396122    1.2312155   439061 
  335000   0.81996807   -3.0400994   -3.0400994   -1.8101501  0.070353949   -3.0400994    1.2299493   439061 
  336000   0.82053152   -3.0413988   -3.0413988   -1.8106043   0.06761012   -3.0413988    1.2307945   439061 
  337000   0.82047443   -3.0423932   -3.0423932   -1.8116844   0.06993967   -3.0423932    1.2307088   439061 
  338000   0.82055137   -3.0450083   -3.0450083    -1.814184   0.06946104   -3.0450083    1.2308243   439061 
  339000   0.81929958   -3.0439516   -3.0439516    -1.815005  0.069788939   -3.0439516    1.2289466   439061 
  340000   0.81865909   -3.0446624   -3.0446624   -1.8166765  0.074174929   -3.0446624    1.2279858   439061 
  341000   0.82000661   -3.0486288   -3.0486288   -1.8186217  0.067836007   -3.0486288    1.2300071   439061 
  342000   0.81847183   -3.0475006   -3.0475006   -1.8197957   0.06994832   -3.0475006    1.2277049   439061 
  343000   0.82026637   -3.0505847   -3.0505847   -1.8201879  0.069004051   -3.0505847    1.2303968   439061 
  344000   0.82026283   -3.0516373   -3.0516373   -1.8212459  0.072316751   -3.0516373    1.2303914   439061 
  345000   0.81892758   -3.0522635   -3.0522635    -1.823875  0.071898573   -3.0522635    1.2283886   439061 
  346000   0.81869649   -3.0535609   -3.0535609    -1.825519  0.067065049   -3.0535609    1.2280419   439061 
  347000   0.81831101   -3.0531015   -3.0531015   -1.8256378  0.075620706   -3.0531015    1.2274637   439061 
  348000    0.8181105   -3.0548845   -3.0548845   -1.8277216  0.070891379   -3.0548845     1.227163   439061 
  349000   0.81739242   -3.0543939   -3.0543939    -1.828308  0.074225105   -3.0543939    1.2260858   439061 
  350000   0.81953401   -3.0592026   -3.0592026   -1.8299044  0.067611735   -3.0592026    1.2292982   439061 
  351000   0.81939108   -3.0597398   -3.0597398    -1.830656  0.069570412   -3.0597398    1.2290838   439061 
  352000    0.8187992   -3.0599746   -3.0599746   -1.8317786  0.072838345   -3.0599746     1.228196   439061 
  353000     0.818535   -3.0597211   -3.0597211   -1.8319214  0.070929884   -3.0597211    1.2277997   439061 
  354000   0.81869073   -3.0620607   -3.0620607   -1.8340274  0.068815429   -3.0620607    1.2280333   439061 
  355000   0.81769828   -3.0606094   -3.0606094   -1.8340648  0.069711322   -3.0606094    1.2265446   439061 
  356000   0.81653434   -3.0604082   -3.0604082   -1.8356095  0.075175412   -3.0604082    1.2247987   439061 
  357000   0.81684333   -3.0624855   -3.0624855   -1.8372233  0.067619794   -3.0624855    1.2252622   439061 
  358000    0.8164096   -3.0630214   -3.0630214   -1.8384098  0.068577459   -3.0630214    1.2246116   439061 
  359000   0.81731779   -3.0645965   -3.0645965   -1.8386226  0.067536593   -3.0645965    1.2259739   439061 
  360000   0.81666889   -3.0662914   -3.0662914   -1.8412908  0.067175497   -3.0662914    1.2250005   439061 
  361000   0.81655913   -3.0672844   -3.0672844   -1.8424485  0.064026027   -3.0672844    1.2248359   439061 
  362000   0.81568796   -3.0670051   -3.0670051   -1.8434759  0.068846205   -3.0670051    1.2235292   439061 
  363000   0.81549119   -3.0673328   -3.0673328   -1.8440988  0.071029822   -3.0673328     1.223234   439061 
  364000   0.81565219   -3.0692278   -3.0692278   -1.8457523  0.066357668   -3.0692278    1.2234755   439061 
  365000   0.81598592   -3.0708797   -3.0708797   -1.8469036  0.069102644   -3.0708797    1.2239761   439061 
  366000   0.81505662     -3.07047     -3.07047   -1.8478879  0.068587615     -3.07047    1.2225822   439061 
  367000   0.81578194   -3.0733426   -3.0733426   -1.8496725  0.069930672   -3.0733426    1.2236701   439061 
  368000   0.81549138    -3.073382    -3.073382   -1.8501478  0.068623026    -3.073382    1.2232343   439061 
  369000   0.81576184   -3.0746668   -3.0746668   -1.8510268  0.070846617   -3.0746668      1.22364   439061 
  370000   0.81613514   -3.0748573   -3.0748573   -1.8506574   0.07068097   -3.0748573    1.2241999   439061 
  371000   0.81649808   -3.0761285   -3.0761285   -1.8513842  0.071419428   -3.0761285    1.2247443   439061 
  372000   0.81611234   -3.0771823   -3.0771823   -1.8530166  0.072898072   -3.0771823    1.2241657   439061 
  373000   0.81517186    -3.076749    -3.076749    -1.853994  0.066340747    -3.076749     1.222755   439061 
  374000     0.814736    -3.078411    -3.078411   -1.8563098   0.06828012    -3.078411    1.2221012   439061 
  375000   0.81450761   -3.0806306   -3.0806306    -1.858872   0.06368189   -3.0806306    1.2217586   439061 
  376000   0.81358644    -3.080297    -3.080297   -1.8599201   0.06387608    -3.080297    1.2203769   439061 
  377000   0.81402473   -3.0810394   -3.0810394   -1.8600051  0.070443067   -3.0810394    1.2210343   439061 
  378000   0.81426526   -3.0831956   -3.0831956   -1.8618005  0.065072774   -3.0831956    1.2213951   439061 
  379000   0.81389866     -3.08446     -3.08446   -1.8636148   0.06750168     -3.08446    1.2208452   439061 
  380000   0.81336808   -3.0835044   -3.0835044   -1.8634551  0.070215414   -3.0835044    1.2200493   439061 
  381000   0.81454213   -3.0873812   -3.0873812   -1.8655708  0.067802909   -3.0873812    1.2218104   439061 
  382000   0.81471554    -3.089567    -3.089567   -1.8674965  0.070618116    -3.089567    1.2220705   439061 
  383000   0.81521526   -3.0910409   -3.0910409   -1.8682208  0.069269618   -3.0910409    1.2228201   439061 
  384000   0.81363883   -3.0903249   -3.0903249   -1.8698694  0.072384021   -3.0903249    1.2204555   439061 
  385000   0.81409821   -3.0931916   -3.0931916   -1.8720471  0.071272944   -3.0931916    1.2211445   439061 
  386000   0.81382075   -3.0938503   -3.0938503   -1.8731219  0.065702828   -3.0938503    1.2207284   439061 
  387000   0.81369613   -3.0951384   -3.0951384    -1.874597   0.07003763   -3.0951384    1.2205414   439061 
  388000    0.8127811   -3.0953769   -3.0953769    -1.876208  0.065714368   -3.0953769    1.2191689   439061 
  389000   0.81312517   -3.0961529   -3.0961529   -1.8764679  0.072198231   -3.0961529     1.219685   439061 
  390000   0.81273976   -3.0959396   -3.0959396   -1.8768328  0.067635766   -3.0959396    1.2191069   439061 
  391000   0.81402301   -3.0992581   -3.0992581   -1.8782263  0.066127421   -3.0992581    1.2210317   439061 
  392000   0.81191145   -3.0972096   -3.0972096   -1.8793452  0.070460541   -3.0972096    1.2178644   439061 
  393000   0.81280379   -3.0998199   -3.0998199    -1.880617  0.067374816   -3.0998199    1.2192029   439061 
  394000   0.81205343   -3.0989512   -3.0989512   -1.8808738   0.07012579   -3.0989512    1.2180774   439061 
  395000   0.81207986   -3.0994613   -3.0994613   -1.8813443  0.062633727   -3.0994613     1.218117   439061 
  396000   0.81191031   -3.0995507   -3.0995507    -1.881688   0.06862092   -3.0995507    1.2178627   439061 
  397000   0.81217433   -3.1016622   -3.1016622   -1.8834034  0.067232496   -3.1016622    1.2182587   439061 
  398000   0.81120748   -3.1021065   -3.1021065   -1.8852981  0.068153362   -3.1021065    1.2168084   439061 
  399000   0.81294671   -3.1059229   -3.1059229   -1.8865056  0.065424731   -3.1059229    1.2194173   439061 
  400000   0.81124652   -3.1055391   -3.1055391   -1.8886721   0.07010189   -3.1055391     1.216867   439061 
  401000   0.81209974   -3.1072687   -3.1072687   -1.8891219  0.064032412   -3.1072687    1.2181468   439061 
  402000   0.81350928   -3.1101361   -3.1101361    -1.889875  0.068658574   -3.1101361    1.2202611   439061 
  403000   0.81194425   -3.1089747   -3.1089747   -1.8910611  0.069453915   -3.1089747    1.2179136   439061 
  404000   0.81156573   -3.1093393   -3.1093393   -1.8919934   0.06751865   -3.1093393    1.2173458   439061 
  405000    0.8129959   -3.1133893   -3.1133893   -1.8938982  0.068634744   -3.1133893    1.2194911   439061 
  406000   0.81179646   -3.1136309   -3.1136309    -1.895939  0.073700075   -3.1136309    1.2176919   439061 
  407000   0.81174021   -3.1134483   -3.1134483   -1.8958407  0.069466693   -3.1134483    1.2176075   439061 
  408000   0.81225275   -3.1150626   -3.1150626   -1.8966862  0.068441537   -3.1150626    1.2183763   439061 
  409000    0.8110398   -3.1143545   -3.1143545   -1.8977976  0.068400695   -3.1143545    1.2165569   439061 
  410000   0.81282041   -3.1174538   -3.1174538   -1.8982259  0.065323679   -3.1174538    1.2192278   439061 
  411000   0.81210366   -3.1177705   -3.1177705   -1.8996178  0.068060627   -3.1177705    1.2181527   439061 
  412000   0.81135388   -3.1178387   -3.1178387   -1.9008107  0.063344212   -3.1178387     1.217028   439061 
  413000   0.81128732    -3.119051    -3.119051   -1.9021228  0.064032089    -3.119051    1.2169282   439061 
  414000    0.8098804   -3.1181194   -3.1181194   -1.9033016  0.059150649   -3.1181194    1.2148178   439061 
  415000   0.81034007   -3.1200155   -3.1200155   -1.9045081  0.061493217   -3.1200155    1.2155073   439061 
  416000   0.80836583   -3.1180553   -3.1180553   -1.9055094  0.063824502   -3.1180553     1.212546   439061 
  417000   0.80863759    -3.120662    -3.120662   -1.9077084  0.064323573    -3.120662    1.2129536   439061 
  418000   0.80919642   -3.1213018   -3.1213018     -1.90751   0.06507636   -3.1213018    1.2137919   439061 
  419000   0.80887667   -3.1215138   -3.1215138   -1.9082016  0.067982656   -3.1215138    1.2133122   439061 
  420000   0.80853578   -3.1220918   -3.1220918   -1.9092909  0.070431523   -3.1220918    1.2128009   439061 
  421000   0.80955648   -3.1244126   -3.1244126   -1.9100807  0.064959449   -3.1244126     1.214332   439061 
  422000   0.80833082   -3.1238084   -3.1238084   -1.9113149  0.066298577   -3.1238084    1.2124935   439061 
  423000   0.80911012   -3.1257743   -3.1257743   -1.9121119  0.062139818   -3.1257743    1.2136624   439061 
  424000   0.80826088   -3.1255851   -3.1255851   -1.9131965  0.063951444   -3.1255851    1.2123886   439061 
  425000   0.80862587   -3.1257502   -3.1257502   -1.9128142   0.06653182   -3.1257502     1.212936   439061 
  426000   0.80899266   -3.1279979   -3.1279979   -1.9145116  0.063625261   -3.1279979    1.2134862   439061 
  427000   0.80869954   -3.1287977   -3.1287977   -1.9157512  0.063635805   -3.1287977    1.2130465   439061 
  428000   0.80789915   -3.1287099   -3.1287099    -1.916864  0.060370083   -3.1287099     1.211846   439061 
  429000    0.8077279   -3.1299435   -3.1299435   -1.9183544  0.068037862   -3.1299435    1.2115891   439061 
  430000   0.80845853   -3.1327322   -3.1327322   -1.9200471  0.061365982   -3.1327322     1.212685   439061 
  431000    0.8089535   -3.1336291   -3.1336291   -1.9202017  0.063944162   -3.1336291    1.2134275   439061 
  432000   0.80859413   -3.1346622   -3.1346622   -1.9217738  0.062041982   -3.1346622    1.2128884   439061 
  433000    0.8074815   -3.1351524   -3.1351524   -1.9239329  0.068988255   -3.1351524    1.2112195   439061 
  434000   0.80875065   -3.1375402   -3.1375402    -1.924417  0.068310111   -3.1375402    1.2131232   439061 
  435000   0.80772168   -3.1380931   -3.1380931   -1.9265133  0.064076996   -3.1380931    1.2115798   439061 
  436000   0.80764179   -3.1398744   -3.1398744   -1.9284144  0.064670371   -3.1398744    1.2114599   439061 
  437000   0.80833955   -3.1426267   -3.1426267   -1.9301201  0.064015228   -3.1426267    1.2125066   439061 
  438000   0.80771516   -3.1419527   -3.1419527   -1.9303827  0.068499801   -3.1419527      1.21157   439061 
  439000   0.80795744   -3.1424779   -3.1424779   -1.9305445  0.064078772   -3.1424779    1.2119334   439061 
  440000   0.80668173    -3.141517    -3.141517   -1.9314972  0.065540989    -3.141517    1.2100198   439061 
  441000   0.80540424   -3.1428326   -3.1428326    -1.934729  0.068621935   -3.1428326    1.2081036   439061 
  442000   0.80628542   -3.1450086   -3.1450086   -1.9355832  0.064427484   -3.1450086    1.2094254   439061 
  443000   0.80582767   -3.1456495   -3.1456495   -1.9369108  0.067178763   -3.1456495    1.2087388   439061 
  444000   0.80564657   -3.1473113   -3.1473113   -1.9388442  0.068609411   -3.1473113    1.2084671   439061 
  445000   0.80670487   -3.1491248   -3.1491248   -1.9390703  0.059955302   -3.1491248    1.2100545   439061 
  446000    0.8066633   -3.1493038   -3.1493038   -1.9393116  0.063619036   -3.1493038    1.2099922   439061 
  447000   0.80590004   -3.1491818   -3.1491818   -1.9403345  0.066027152   -3.1491818    1.2088473   439061 
  448000   0.80695821   -3.1505828   -3.1505828   -1.9401483  0.061775895   -3.1505828    1.2104346   439061 
  449000    0.8062739   -3.1511062   -3.1511062   -1.9416981  0.065793611   -3.1511062    1.2094081   439061 
  450000   0.80644355   -3.1517041   -3.1517041   -1.9420416  0.066468874   -3.1517041    1.2096626   439061 
  451000   0.80616081   -3.1521337   -3.1521337   -1.9428953  0.066991033   -3.1521337    1.2092385   439061 
  452000   0.80601241   -3.1528242   -3.1528242   -1.9438084  0.064495112   -3.1528242    1.2090159   439061 
  453000   0.80616576   -3.1546374   -3.1546374   -1.9453916  0.064179466   -3.1546374    1.2092459   439061 
  454000   0.80481864   -3.1542749   -3.1542749   -1.9470497  0.065167305   -3.1542749    1.2072252   439061 
  455000   0.80322364   -3.1538572   -3.1538572   -1.9490245  0.060936201   -3.1538572    1.2048327   439061 
  456000   0.80530818   -3.1570854   -3.1570854   -1.9491259  0.060501727   -3.1570854    1.2079595   439061 
  457000   0.80450989   -3.1570601   -3.1570601    -1.950298  0.063932279   -3.1570601    1.2067621   439061 
  458000   0.80428865   -3.1576627   -3.1576627   -1.9512325  0.068225692   -3.1576627    1.2064302   439061 
  459000   0.80455019   -3.1597583   -3.1597583   -1.9529357  0.064270415   -3.1597583    1.2068225   439061 
  460000   0.80345995   -3.1589166   -3.1589166   -1.9537294  0.066297386   -3.1589166    1.2051872   439061 
  461000   0.80542081   -3.1639808   -3.1639808   -1.9558524  0.062649824   -3.1639808    1.2081285   439061 
  462000   0.80453338   -3.1624684   -3.1624684   -1.9556711  0.066603702   -3.1624684    1.2067973   439061 
  463000   0.80518461   -3.1645827   -3.1645827   -1.9568085   0.06599933   -3.1645827    1.2077742   439061 
  464000   0.80385609   -3.1649193   -3.1649193   -1.9591379  0.065168089   -3.1649193    1.2057814   439061 
  465000    0.8036532   -3.1658752   -3.1658752   -1.9603982  0.068220001   -3.1658752    1.2054771   439061 
  466000   0.80369569   -3.1667702   -3.1667702   -1.9612294  0.064611989   -3.1667702    1.2055408   439061 
  467000   0.80339146   -3.1671868   -3.1671868   -1.9621023   0.06361318   -3.1671868    1.2050844   439061 
  468000   0.80285572   -3.1678714   -3.1678714   -1.9635905  0.065589175   -3.1678714    1.2042808   439061 
  469000   0.80401523   -3.1693846   -3.1693846   -1.9633645  0.066525748   -3.1693846    1.2060201   439061 
  470000   0.80435489   -3.1705233   -3.1705233   -1.9639937  0.065706151   -3.1705233    1.2065296   439061 
  471000   0.80452303   -3.1724099   -3.1724099   -1.9656281    0.0654967   -3.1724099    1.2067818   439061 
  472000   0.80475043   -3.1728038   -3.1728038   -1.9656809   0.06270643   -3.1728038    1.2071229   439061 
  473000   0.80357526   -3.1730092   -3.1730092   -1.9676491  0.061936259   -3.1730092    1.2053601   439061 
  474000   0.80360826   -3.1744052   -3.1744052   -1.9689956  0.064004647   -3.1744052    1.2054096   439061 
  475000   0.80286265    -3.173105    -3.173105   -1.9688137  0.067149165    -3.173105    1.2042912   439061 
  476000   0.80283626   -3.1740511   -3.1740511   -1.9697995   0.06515904   -3.1740511    1.2042516   439061 
  477000   0.80462364   -3.1779065   -3.1779065   -1.9709738  0.066348132   -3.1779065    1.2069327   439061 
  478000   0.80545753   -3.1795977   -3.1795977   -1.9714142  0.068993285   -3.1795977    1.2081835   439061 
  479000   0.80426776    -3.180036    -3.180036   -1.9736371   0.07143203    -3.180036    1.2063989   439061 
  480000   0.80272146   -3.1789143   -3.1789143   -1.9748348  0.068053208   -3.1789143    1.2040795   439061 
  481000   0.80286534   -3.1797563   -3.1797563    -1.975461   0.06602757   -3.1797563    1.2042953   439061 
  482000     0.803795   -3.1813782   -3.1813782   -1.9756884  0.070606041   -3.1813782    1.2056898   439061 
  483000   0.80295587   -3.1829928   -3.1829928   -1.9785618  0.069118496   -3.1829928    1.2044311   439061 
  484000   0.80165074   -3.1822158   -3.1822158   -1.9797424  0.066144785   -3.1822158    1.2024734   439061 
  485000   0.80075233    -3.182718    -3.182718   -1.9815922  0.065342619    -3.182718    1.2011258   439061 
  486000   0.80141815   -3.1836211   -3.1836211   -1.9814966   0.06816373   -3.1836211    1.2021245   439061 
  487000   0.80213423   -3.1853672   -3.1853672   -1.9821686  0.064133784   -3.1853672    1.2031986   439061 
  488000   0.80227682   -3.1872045   -3.1872045    -1.983792  0.060330231   -3.1872045    1.2034125   439061 
  489000   0.80083966   -3.1854513   -3.1854513   -1.9841945  0.063181246   -3.1854513    1.2012568   439061 
  490000   0.80009061    -3.185566    -3.185566   -1.9854328  0.065615162    -3.185566    1.2001332   439061 
  491000   0.80059976    -3.187089    -3.187089   -1.9861921  0.062206643    -3.187089    1.2008969   439061 
  492000   0.80161296   -3.1891139   -3.1891139   -1.9866972  0.061304337   -3.1891139    1.2024167   439061 
  493000   0.80240183   -3.1906373   -3.1906373   -1.9870373  0.064160487   -3.1906373       1.2036   439061 
  494000   0.80169789   -3.1908675   -3.1908675   -1.9883234  0.061847223   -3.1908675    1.2025441   439061 
  495000   0.80178414   -3.1914965   -3.1914965    -1.988823   0.06952858   -3.1914965    1.2026735   439061 
  496000   0.80000823   -3.1908722   -3.1908722   -1.9908626  0.063498897   -3.1908722    1.2000096   439061 
  497000   0.80159342   -3.1938504   -3.1938504    -1.991463  0.058333293   -3.1938504    1.2023874   439061 
  498000   0.80036873   -3.1936415   -3.1936415   -1.9930912  0.063429059   -3.1936415    1.2005504   439061 
  499000    0.7998297   -3.1941118   -3.1941118     -1.99437  0.062828129   -3.1941118    1.1997418   439061 
  500000   0.80058716   -3.1949178   -3.1949178   -1.9940398  0.061093567   -3.1949178     1.200878   439061 
  501000   0.79989614    -3.195052    -3.195052   -1.9952106  0.063020873    -3.195052    1.1998415   439061 
  502000   0.80061162   -3.1974335   -3.1974335   -1.9965188  0.062643382   -3.1974335    1.2009147   439061 
  503000   0.80019478   -3.1970455   -3.1970455    -1.996756  0.061542445   -3.1970455    1.2002894   439061 
  504000   0.80021473   -3.1967959   -3.1967959   -1.9964765  0.061911241   -3.1967959    1.2003194   439061 
  505000   0.80019938   -3.1977476   -3.1977476   -1.9974512  0.061964834   -3.1977476    1.2002963   439061 
  506000   0.79914912    -3.197681    -3.197681     -1.99896  0.064056704    -3.197681     1.198721   439061 
  507000   0.80076141   -3.1998183   -3.1998183   -1.9986789  0.063705199   -3.1998183    1.2011394   439061 
  508000   0.80056089   -3.2021142   -3.2021142   -2.0012756  0.061427422   -3.2021142    1.2008386   439061 
  509000   0.79916913   -3.2020887   -3.2020887   -2.0033378   0.06556434   -3.2020887     1.198751   439061 
  510000    0.7989236   -3.2026038   -3.2026038   -2.0042211   0.06177886   -3.2026038    1.1983827   439061 
  511000   0.79892719   -3.2037492   -3.2037492   -2.0053612  0.064266611   -3.2037492    1.1983881   439061 
  512000   0.79869831   -3.2051608   -3.2051608   -2.0071161  0.061432115   -3.2051608    1.1980447   439061 
  513000   0.79884499   -3.2058054   -3.2058054   -2.0075406  0.064573551   -3.2058054    1.1982647   439061 
  514000   0.79866621   -3.2069815   -3.2069815    -2.008985  0.065111996   -3.2069815    1.1979966   439061 
  515000   0.80001262   -3.2101544   -3.2101544   -2.0101382  0.063597658   -3.2101544    1.2000162   439061 
  516000   0.79861446   -3.2090668   -3.2090668   -2.0111479  0.063453428   -3.2090668     1.197919   439061 
  517000   0.79933538   -3.2118628   -3.2118628   -2.0128625  0.062309897   -3.2118628    1.1990003   439061 
  518000   0.79826612   -3.2118305   -3.2118305    -2.014434  0.060850465   -3.2118305    1.1973965   439061 
  519000   0.79818458   -3.2109853   -3.2109853   -2.0137112  0.064881267   -3.2109853    1.1972741   439061 
  520000    0.7991974   -3.2134143   -3.2134143   -2.0146209  0.064122963   -3.2134143    1.1987934   439061 
  521000   0.79731697   -3.2124475   -3.2124475   -2.0164748    0.0657289   -3.2124475    1.1959727   439061 
  522000   0.79714014   -3.2133121   -3.2133121   -2.0176046  0.061900504   -3.2133121    1.1957075   439061 
  523000   0.79797348    -3.216095    -3.216095   -2.0191375  0.063900356    -3.216095    1.1969575   439061 
  524000   0.79694984   -3.2137371   -3.2137371   -2.0183151  0.063867327   -3.2137371     1.195422   439061 
  525000   0.79667944   -3.2147316   -3.2147316   -2.0197152  0.061153881   -3.2147316    1.1950164   439061 
  526000   0.79754858   -3.2165419   -3.2165419   -2.0202217  0.062674494   -3.2165419    1.1963201   439061 
  527000   0.79638626   -3.2162709   -3.2162709   -2.0216942  0.061331867   -3.2162709    1.1945767   439061 
  528000   0.79563616   -3.2168402   -3.2168402   -2.0233887     0.063681   -3.2168402    1.1934515   439061 
  529000   0.79643941   -3.2190468   -3.2190468   -2.0243904  0.065763712   -3.2190468    1.1946564   439061 
  530000   0.79675834   -3.2200992   -3.2200992   -2.0249644  0.061792866   -3.2200992    1.1951348   439061 
  531000    0.7976614   -3.2231853   -3.2231853    -2.026696  0.060588597   -3.2231853    1.1964894   439061 
  532000   0.79636964   -3.2228721   -3.2228721   -2.0283203  0.061270816   -3.2228721    1.1945517   439061 
  533000    0.7985933   -3.2257943   -3.2257943   -2.0279071  0.060885513   -3.2257943    1.1978872   439061 
  534000    0.7972355   -3.2243623   -3.2243623   -2.0285118  0.065064114   -3.2243623    1.1958505   439061 
  535000   0.79654582   -3.2247371   -3.2247371    -2.029921  0.068621147   -3.2247371     1.194816   439061 
  536000   0.79624753   -3.2252873   -3.2252873   -2.0309187  0.061975543   -3.2252873    1.1943686   439061 
  537000   0.79680407   -3.2272524   -3.2272524    -2.032049  0.061446869   -3.2272524    1.1952034   439061 
  538000   0.79553063   -3.2269049   -3.2269049   -2.0336116  0.062611966   -3.2269049    1.1932932   439061 
  539000   0.79481453   -3.2268702   -3.2268702   -2.0346511  0.056310832   -3.2268702    1.1922191   439061 
  540000    0.7945851   -3.2275429   -3.2275429    -2.035668  0.060074621   -3.2275429    1.1918749   439061 
  541000   0.79594131   -3.2285422   -3.2285422    -2.034633  0.061150886   -3.2285422    1.1939092   439061 
  542000   0.79469791   -3.2278128   -3.2278128   -2.0357687  0.057903618   -3.2278128    1.1920441   439061 
  543000   0.79594416   -3.2310765   -3.2310765    -2.037163  0.053151786   -3.2310765    1.1939135   439061 
  544000   0.79378343   -3.2281242   -3.2281242   -2.0374517  0.058868684   -3.2281242    1.1906724   439061 
  545000   0.79495119   -3.2306317   -3.2306317   -2.0382076  0.059446474   -3.2306317    1.1924241   439061 
  546000   0.79472332   -3.2303384   -3.2303384   -2.0382562   0.06174984   -3.2303384    1.1920823   439061 
  547000    0.7942368   -3.2306933   -3.2306933   -2.0393408  0.067127961   -3.2306933    1.1913525   439061 
  548000   0.79456794   -3.2315819   -3.2315819   -2.0397328  0.058734316   -3.2315819    1.1918492   439061 
  549000   0.79589731    -3.233864    -3.233864   -2.0400207  0.062858447    -3.233864    1.1938432   439061 
  550000   0.79492495   -3.2347349   -3.2347349   -2.0423502   0.05791347   -3.2347349    1.1923847   439061 
  551000   0.79514413   -3.2356239   -3.2356239   -2.0429104  0.059579465   -3.2356239    1.1927135   439061 
  552000   0.79461923     -3.23719     -3.23719   -2.0452638  0.058141243     -3.23719    1.1919261   439061 
  553000   0.79414107   -3.2378535   -3.2378535   -2.0466446  0.060817016   -3.2378535    1.1912089   439061 
  554000   0.79442524   -3.2375847   -3.2375847   -2.0459495    0.0611073   -3.2375847    1.1916351   439061 
  555000   0.79306293   -3.2370448   -3.2370448   -2.0474531  0.061856783   -3.2370448    1.1895917   439061 
  556000   0.79375104    -3.239111    -3.239111   -2.0484871  0.061084305    -3.239111    1.1906238   439061 
  557000   0.79571017   -3.2426945   -3.2426945    -2.049132  0.058619838   -3.2426945    1.1935625   439061 
  558000   0.79525169   -3.2421327   -3.2421327   -2.0492579  0.058184418   -3.2421327    1.1928748   439061 
  559000   0.79434764   -3.2423794   -3.2423794   -2.0508607   0.06064028   -3.2423794    1.1915187   439061 
  560000   0.79431438   -3.2431761   -3.2431761   -2.0517072  0.060413329   -3.2431761    1.1914689   439061 
  561000     0.794517   -3.2452503   -3.2452503   -2.0534775  0.058308028   -3.2452503    1.1917728   439061 
  562000   0.79358952   -3.2451035   -3.2451035    -2.054722  0.058235419   -3.2451035    1.1903816   439061 
  563000    0.7952956   -3.2480156   -3.2480156   -2.0550749  0.060146713   -3.2480156    1.1929407   439061 
  564000   0.79486585   -3.2478964   -3.2478964   -2.0556003  0.061358486   -3.2478964    1.1922961   439061 
  565000    0.7941751   -3.2462554   -3.2462554   -2.0549954  0.063359159   -3.2462554    1.1912599   439061 
  566000   0.79487099   -3.2503629   -3.2503629   -2.0580591  0.060488775   -3.2503629    1.1923038   439061 
  567000   0.79300572   -3.2479799   -3.2479799    -2.058474  0.061855095   -3.2479799    1.1895059   439061 
  568000   0.79301683   -3.2483649   -3.2483649   -2.0588423  0.060210403   -3.2483649    1.1895225   439061 
  569000   0.79294758   -3.2494074   -3.2494074   -2.0599887  0.062330937   -3.2494074    1.1894187   439061 
  570000   0.79296045   -3.2500801   -3.2500801   -2.0606421  0.058595092   -3.2500801     1.189438   439061 
  571000   0.79220459   -3.2509722   -3.2509722    -2.062668  0.060147609   -3.2509722    1.1883042   439061 
  572000   0.79305682   -3.2523194   -3.2523194   -2.0627368  0.056701158   -3.2523194    1.1895825   439061 
  573000   0.79337363   -3.2533924   -3.2533924   -2.0633347  0.061483487   -3.2533924    1.1900577   439061 
  574000   0.79358454   -3.2529282   -3.2529282   -2.0625541  0.061068554   -3.2529282    1.1903741   439061 
  575000   0.79434829    -3.254225    -3.254225   -2.0627053  0.060337805    -3.254225    1.1915197   439061 
  576000   0.79239553   -3.2528157   -3.2528157   -2.0642251  0.061021201   -3.2528157    1.1885906   439061 
  577000   0.79313211   -3.2548345   -3.2548345    -2.065139  0.056258219   -3.2548345    1.1896955   439061 
  578000   0.79213867   -3.2540028   -3.2540028   -2.0657975  0.064191754   -3.2540028    1.1882053   439061 
  579000   0.79165274   -3.2550688   -3.2550688   -2.0675924  0.056602613   -3.2550688    1.1874764   439061 
  580000   0.79137874   -3.2547444   -3.2547444    -2.067679  0.062749807   -3.2547444    1.1870654   439061 
  581000    0.7914229   -3.2567119   -3.2567119   -2.0695802  0.056304698   -3.2567119    1.1871317   439061 
  582000   0.79017544   -3.2557036   -3.2557036   -2.0704431  0.058637769   -3.2557036    1.1852605   439061 
  583000    0.7905977   -3.2562447   -3.2562447   -2.0703509  0.059746155   -3.2562447    1.1858938   439061 
  584000   0.79089604   -3.2593581   -3.2593581   -2.0730168  0.057100787   -3.2593581    1.1863414   439061 
  585000   0.79099171   -3.2593069   -3.2593069    -2.072822  0.060684412   -3.2593069    1.1864849   439061 
  586000   0.79190111   -3.2619928   -3.2619928   -2.0741438  0.055489521   -3.2619928     1.187849   439061 
  587000    0.7912144   -3.2628522   -3.2628522   -2.0760333  0.059761562   -3.2628522    1.1868189   439061 
  588000   0.79025435   -3.2633905   -3.2633905   -2.0780117  0.059870778   -3.2633905    1.1853788   439061 
  589000   0.79051214   -3.2638305   -3.2638305    -2.078065  0.059524908   -3.2638305    1.1857655   439061 
  590000   0.79181548   -3.2665973   -3.2665973   -2.0788768  0.062138152   -3.2665973    1.1877205   439061 
  591000   0.79259948   -3.2678589   -3.2678589   -2.0789624  0.060822398   -3.2678589    1.1888965   439061 
  592000   0.79117997   -3.2663305   -3.2663305   -2.0795633   0.05930677   -3.2663305    1.1867672   439061 
  593000   0.79066874   -3.2672985   -3.2672985    -2.081298  0.059130011   -3.2672985    1.1860004   439061 
  594000     0.789964   -3.2680535   -3.2680535   -2.0831102  0.060865559   -3.2680535    1.1849433   439061 
  595000   0.78953292    -3.269501    -3.269501   -2.0852043  0.058703521    -3.269501    1.1842967   439061 
  596000    0.7906709   -3.2713086   -3.2713086   -2.0853049   0.05955381   -3.2713086    1.1860037   439061 
  597000   0.79050272   -3.2719962   -3.2719962   -2.0862448  0.059996662   -3.2719962    1.1857514   439061 
  598000   0.79067927   -3.2734907   -3.2734907   -2.0874745    0.0581903   -3.2734907    1.1860162   439061 
  599000   0.78963967   -3.2725597   -3.2725597   -2.0881028  0.057521917   -3.2725597    1.1844568   439061 
  600000   0.79059396   -3.2737535   -3.2737535   -2.0878653  0.063123852   -3.2737535    1.1858882   439061 
  601000   0.79011242   -3.2732197   -3.2732197   -2.0880538  0.060271927   -3.2732197    1.1851659   439061 
  602000   0.79020998   -3.2743786   -3.2743786   -2.0890664  0.059434617   -3.2743786    1.1853123   439061 
  603000   0.78958078   -3.2741842   -3.2741842   -2.0898157  0.055748353   -3.2741842    1.1843685   439061 
  604000   0.78996666   -3.2764775   -3.2764775   -2.0915302  0.058006155   -3.2764775    1.1849473   439061 
  605000    0.7893529   -3.2762675   -3.2762675   -2.0922409  0.054892497   -3.2762675    1.1840266   439061 
  606000   0.78787325   -3.2744104   -3.2744104   -2.0926032  0.058435329   -3.2744104    1.1818072   439061 
  607000   0.78952126    -3.276122    -3.276122   -2.0918428  0.058401694    -3.276122    1.1842792   439061 
  608000   0.78952675   -3.2778518   -3.2778518   -2.0935644  0.056952179   -3.2778518    1.1842874   439061 
  609000   0.78859386   -3.2780059   -3.2780059   -2.0951178  0.055330475   -3.2780059    1.1828881   439061 
  610000    0.7879674   -3.2784747   -3.2784747   -2.0965263  0.052198282   -3.2784747    1.1819484   439061 
  611000   0.78665098   -3.2770592   -3.2770592   -2.0970854   0.05939339   -3.2770592    1.1799738   439061 
  612000   0.78803009   -3.2791068   -3.2791068   -2.0970644  0.056841516   -3.2791068    1.1820424   439061 
  613000   0.78851093   -3.2798104   -3.2798104   -2.0970467  0.059025775   -3.2798104    1.1827637   439061 
  614000   0.78884403    -3.280596    -3.280596   -2.0973327  0.057051846    -3.280596    1.1832634   439061 
  615000   0.78872708   -3.2818756   -3.2818756   -2.0987877  0.061803338   -3.2818756    1.1830879   439061 
  616000   0.79007412   -3.2861698   -3.2861698   -2.1010613   0.05729546   -3.2861698    1.1851085   439061 
  617000    0.7886051   -3.2847973   -3.2847973   -2.1018924   0.05776873   -3.2847973     1.182905   439061 
  618000    0.7878784   -3.2852646   -3.2852646   -2.1034497  0.058726198   -3.2852646    1.1818149   439061 
  619000   0.78781161   -3.2856193   -3.2856193   -2.1039046  0.057559167   -3.2856193    1.1817147   439061 
  620000   0.78671758   -3.2873515   -3.2873515   -2.1072778  0.056068676   -3.2873515    1.1800737   439061 
  621000   0.78679485   -3.2884093   -3.2884093   -2.1082197  0.058000531   -3.2884093    1.1801896   439061 
  622000   0.78678803   -3.2875558   -3.2875558   -2.1073764  0.055565636   -3.2875558    1.1801794   439061 
  623000   0.78852332   -3.2897246   -3.2897246   -2.1069424   0.05763659   -3.2897246    1.1827823   439061 
  624000   0.78774351   -3.2898517   -3.2898517   -2.1082392  0.057016156   -3.2898517    1.1816126   439061 
  625000   0.78764351   -3.2900898   -3.2900898   -2.1086272  0.056726547   -3.2900898    1.1814626   439061 
  626000   0.78684645    -3.289733    -3.289733    -2.109466  0.057280688    -3.289733     1.180267   439061 
  627000   0.78737242   -3.2924706   -3.2924706   -2.1114147  0.055916979   -3.2924706    1.1810559   439061 
  628000     0.786795   -3.2903681   -3.2903681   -2.1101783  0.056446752   -3.2903681    1.1801898   439061 
  629000   0.78697923   -3.2921653   -3.2921653   -2.1116992  0.055702189   -3.2921653    1.1804662   439061 
  630000   0.78578055   -3.2922416   -3.2922416   -2.1135735  0.051134577   -3.2922416    1.1786681   439061 
  631000   0.78568798   -3.2924035   -3.2924035   -2.1138742  0.056679845   -3.2924035    1.1785293   439061 
  632000   0.78524782   -3.2930542   -3.2930542   -2.1151852  0.051790349   -3.2930542    1.1778691   439061 
  633000   0.78523368   -3.2935994   -3.2935994   -2.1157516  0.056511021   -3.2935994    1.1778478   439061 
  634000   0.78659576   -3.2964942   -3.2964942   -2.1166033  0.057294799   -3.2964942     1.179891   439061 
  635000   0.78590688   -3.2975689   -3.2975689   -2.1187113  0.056029009   -3.2975689    1.1788576   439061 
  636000   0.78559045   -3.2977745   -3.2977745   -2.1193915   0.05714792   -3.2977745     1.178383   439061 
  637000   0.78607811   -3.2984754   -3.2984754   -2.1193609   0.05989695   -3.2984754    1.1791145   439061 
  638000   0.78615079   -3.2993844   -3.2993844   -2.1201609  0.056281827   -3.2993844    1.1792235   439061 
  639000    0.7874787   -3.3031026   -3.3031026   -2.1218873  0.056654679   -3.3031026    1.1812154   439061 
  640000    0.7863609   -3.3023966   -3.3023966    -2.122858   0.05412223   -3.3023966    1.1795387   439061 
  641000   0.78665555   -3.3038386   -3.3038386   -2.1238579  0.057286392   -3.3038386    1.1799806   439061 
  642000   0.78577143   -3.3034285   -3.3034285   -2.1247741   0.05925567   -3.3034285    1.1786545   439061 
  643000   0.78607253   -3.3041788   -3.3041788   -2.1250727  0.058705404   -3.3041788    1.1791061   439061 
  644000   0.78616047   -3.3059623   -3.3059623   -2.1267243  0.055834691   -3.3059623     1.179238   439061 
  645000    0.7844471   -3.3043169   -3.3043169    -2.127649  0.062743199   -3.3043169     1.176668   439061 
  646000    0.7849563   -3.3058465   -3.3058465   -2.1284147  0.057133691   -3.3058465    1.1774318   439061 
  647000   0.78488267   -3.3061118   -3.3061118   -2.1287905  0.056073143   -3.3061118    1.1773213   439061 
  648000   0.78474249   -3.3060881   -3.3060881   -2.1289771  0.054407789   -3.3060881    1.1771111   439061 
  649000   0.78423109   -3.3063437   -3.3063437   -2.1299997  0.053268467   -3.3063437     1.176344   439061 
  650000   0.78372619   -3.3061368   -3.3061368   -2.1305502  0.056795669   -3.3061368    1.1755866   439061 
  651000   0.78429578   -3.3078796   -3.3078796   -2.1314386  0.054186817   -3.3078796     1.176441   439061 
  652000   0.78404859   -3.3083652   -3.3083652    -2.132295  0.051491995   -3.3083652    1.1760702   439061 
  653000   0.78387619   -3.3076149   -3.3076149   -2.1318033  0.056275733   -3.3076149    1.1758116   439061 
  654000   0.78475789   -3.3099306   -3.3099306   -2.1327964  0.051110085   -3.3099306    1.1771342   439061 
  655000   0.78358223   -3.3100212   -3.3100212   -2.1346505  0.053773586   -3.3100212    1.1753707   439061 
  656000   0.78358725   -3.3108742   -3.3108742    -2.135496  0.052297423   -3.3108742    1.1753782   439061 
  657000   0.78150041   -3.3104468   -3.3104468   -2.1381989  0.051109714   -3.3104468    1.1722479   439061 
  658000   0.78274729   -3.3125982   -3.3125982   -2.1384799  0.056258357   -3.3125982    1.1741183   439061 
  659000   0.78364803    -3.314319    -3.314319   -2.1388496  0.056262535    -3.314319    1.1754694   439061 
  660000    0.7841691   -3.3166991   -3.3166991   -2.1404482  0.052892434   -3.3166991     1.176251   439061 
  661000    0.7833956   -3.3164153   -3.3164153   -2.1413246  0.051689299   -3.3164153    1.1750907   439061 
  662000   0.78302817   -3.3182454   -3.3182454   -2.1437058  0.060091281   -3.3182454    1.1745396   439061 
  663000   0.78335449    -3.318718    -3.318718   -2.1436889  0.062440298    -3.318718    1.1750291   439061 
  664000   0.78363931   -3.3204535   -3.3204535   -2.1449972  0.057736844   -3.3204535    1.1754563   439061 
  665000   0.78360316   -3.3208992   -3.3208992   -2.1454971  0.055881749   -3.3208992    1.1754021   439061 
  666000    0.7834969   -3.3210437   -3.3210437    -2.145801  0.059569097   -3.3210437    1.1752427   439061 
  667000    0.7828627   -3.3214201   -3.3214201   -2.1471288   0.05619194   -3.3214201    1.1742914   439061 
  668000   0.78294114   -3.3219644   -3.3219644   -2.1475554  0.055987003   -3.3219644     1.174409   439061 
  669000   0.78308572   -3.3219392   -3.3219392   -2.1473133  0.054228529   -3.3219392    1.1746259   439061 
  670000   0.78234362   -3.3212918   -3.3212918   -2.1477791  0.055219447   -3.3212918    1.1735128   439061 
  671000    0.7822318   -3.3227431   -3.3227431   -2.1493981  0.053768171   -3.3227431     1.173345   439061 
  672000   0.78062082   -3.3201382   -3.3201382   -2.1492097  0.060374102   -3.3201382    1.1709286   439061 
  673000   0.78081992     -3.32167     -3.32167   -2.1504428  0.049805247     -3.32167    1.1712272   439061 
  674000   0.78138438   -3.3228859   -3.3228859    -2.150812  0.051609645   -3.3228859    1.1720739   439061 
  675000   0.78172404   -3.3246014   -3.3246014   -2.1520181   0.04700135   -3.3246014    1.1725834   439061 
  676000   0.78054008   -3.3229329   -3.3229329   -2.1521254   0.04948417   -3.3229329    1.1708074   439061 
  677000   0.78086254   -3.3247958   -3.3247958   -2.1535046  0.049318854   -3.3247958    1.1712911   439061 
  678000   0.78072109   -3.3245021   -3.3245021   -2.1534232  0.052528718   -3.3245021     1.171079   439061 
  679000    0.7808673   -3.3243496   -3.3243496   -2.1530513  0.055954239   -3.3243496    1.1712983   439061 
  680000   0.78245183   -3.3281286   -3.3281286   -2.1544535   0.04876399   -3.3281286    1.1736751   439061 
  681000   0.78226476   -3.3284817   -3.3284817   -2.1550872  0.054009199   -3.3284817    1.1733945   439061 
  682000   0.78276984   -3.3282258   -3.3282258   -2.1540737  0.057586646   -3.3282258    1.1741521   439061 
  683000   0.78289675   -3.3291457   -3.3291457   -2.1548032  0.062038749   -3.3291457    1.1743425   439061 
  684000   0.78331933   -3.3309624   -3.3309624   -2.1559861  0.053549854   -3.3309624    1.1749763   439061 
  685000   0.78277208   -3.3310913   -3.3310913   -2.1569359  0.053437469   -3.3310913    1.1741554   439061 
  686000   0.78151613   -3.3313835   -3.3313835    -2.159112  0.057463963   -3.3313835    1.1722715   439061 
  687000   0.77960116   -3.3293661   -3.3293661    -2.159967  0.054808838   -3.3293661    1.1693991   439061 
  688000     0.780017   -3.3309649   -3.3309649    -2.160942  0.053409556   -3.3309649    1.1700228   439061 
  689000     0.780052   -3.3319335   -3.3319335   -2.1618581  0.052913867   -3.3319335    1.1700753   439061 
  690000   0.78017213   -3.3336808   -3.3336808   -2.1634253  0.055719704   -3.3336808    1.1702555   439061 
  691000   0.78137455   -3.3339978   -3.3339978   -2.1619386  0.053243675   -3.3339978    1.1720592   439061 
  692000   0.78070175   -3.3341298   -3.3341298   -2.1630799  0.054019333   -3.3341298      1.17105   439061 
  693000   0.77993298   -3.3350874   -3.3350874   -2.1651906  0.052322439   -3.3350874    1.1698968   439061 
  694000   0.77876828   -3.3342381   -3.3342381   -2.1660884  0.056432914   -3.3342381    1.1681498   439061 
  695000   0.78006227   -3.3369239   -3.3369239   -2.1668331  0.054174256   -3.3369239    1.1700907   439061 
  696000   0.78116764   -3.3384011   -3.3384011   -2.1666524  0.051001375   -3.3384011    1.1717488   439061 
  697000   0.78032582   -3.3373011   -3.3373011   -2.1668151  0.053804995   -3.3373011    1.1704861   439061 
  698000   0.78044102   -3.3381409   -3.3381409   -2.1674821  0.052991058   -3.3381409    1.1706589   439061 
  699000   0.77931735   -3.3374416   -3.3374416   -2.1684683  0.054125303   -3.3374416    1.1689734   439061 
  700000   0.77995825   -3.3392347   -3.3392347      -2.1693  0.050391861   -3.3392347    1.1699347   439061 
  701000   0.77920498    -3.338364    -3.338364   -2.1695592    0.0528152    -3.338364    1.1688048   439061 
  702000   0.77924475   -3.3393461   -3.3393461   -2.1704817  0.052176289   -3.3393461    1.1688645   439061 
  703000   0.77751122   -3.3387422   -3.3387422   -2.1724781  0.054451938   -3.3387422    1.1662642   439061 
  704000   0.77914917   -3.3407326   -3.3407326   -2.1720116  0.050257942   -3.3407326    1.1687211   439061 
  705000    0.7805217   -3.3434037   -3.3434037   -2.1726238  0.053093091   -3.3434037    1.1707799   439061 
  706000   0.77897874   -3.3419704   -3.3419704    -2.173505   0.05216398   -3.3419704    1.1684654   439061 
  707000   0.77884438   -3.3434301   -3.3434301   -2.1751662  0.050060447   -3.3434301    1.1682639   439061 
  708000   0.77792139   -3.3424654   -3.3424654    -2.175586  0.049961315   -3.3424654    1.1668794   439061 
  709000    0.7788292   -3.3439897   -3.3439897   -2.1757485   0.05198284   -3.3439897    1.1682411   439061 
  710000   0.77959654    -3.346756    -3.346756   -2.1773638  0.054968819    -3.346756    1.1693921   439061 
  711000   0.77948659   -3.3464442   -3.3464442    -2.177217  0.059061363   -3.3464442    1.1692272   439061 
  712000   0.77988198   -3.3487222   -3.3487222   -2.1789019  0.052961673   -3.3487222    1.1698203   439061 
  713000   0.78011668   -3.3499648   -3.3499648   -2.1797924  0.056933723   -3.3499648    1.1701724   439061 
  714000   0.77841965   -3.3483146   -3.3483146   -2.1806878  0.050724914   -3.3483146    1.1676268   439061 
  715000    0.7794336   -3.3503575   -3.3503575   -2.1812098  0.053937942   -3.3503575    1.1691477   439061 
  716000   0.77927684   -3.3502794   -3.3502794   -2.1813668   0.05703175   -3.3502794    1.1689126   439061 
  717000   0.77906248   -3.3513795   -3.3513795   -2.1827885  0.056306001   -3.3513795    1.1685911   439061 
  718000    0.7785035   -3.3505422   -3.3505422   -2.1827896  0.055792575   -3.3505422    1.1677526   439061 
  719000   0.77752353   -3.3504539   -3.3504539   -2.1841713  0.055919655   -3.3504539    1.1662826   439061 
  720000   0.77714351   -3.3512021   -3.3512021   -2.1854895   0.05514158   -3.3512021    1.1657126   439061 
  721000   0.77651249   -3.3510528   -3.3510528   -2.1862867  0.056170527   -3.3510528    1.1647661   439061 
  722000    0.7770179   -3.3519021   -3.3519021   -2.1863779  0.048746571   -3.3519021    1.1655242   439061 
  723000   0.77715904   -3.3524889   -3.3524889    -2.186753  0.053477872   -3.3524889    1.1657359   439061 
  724000   0.77758434   -3.3539211   -3.3539211   -2.1875473  0.051713258   -3.3539211    1.1663738   439061 
  725000   0.77786815   -3.3555557   -3.3555557   -2.1887561  0.048200563   -3.3555557    1.1667996   439061 
  726000   0.77869283   -3.3567947   -3.3567947   -2.1887582  0.047411295   -3.3567947    1.1680366   439061 
  727000   0.77712513   -3.3558013   -3.3558013   -2.1901163  0.047810475   -3.3558013     1.165685   439061 
  728000   0.77805728   -3.3570388   -3.3570388   -2.1899556   0.04396696   -3.3570388    1.1670833   439061 
  729000   0.77719101   -3.3579374   -3.3579374   -2.1921535  0.052328645   -3.3579374    1.1657839   439061 
  730000   0.77629725   -3.3579262   -3.3579262    -2.193483  0.049430805   -3.3579262    1.1644432   439061 
  731000   0.77698067   -3.3592679   -3.3592679   -2.1937996   0.05434332   -3.3592679    1.1654683   439061 
  732000    0.7785376    -3.361171    -3.361171   -2.1933673  0.054104452    -3.361171    1.1678037   439061 
  733000   0.77794845   -3.3611667   -3.3611667   -2.1942467  0.052863896   -3.3611667      1.16692   439061 
  734000    0.7789546   -3.3636546   -3.3636546   -2.1952254  0.055449853   -3.3636546    1.1684292   439061 
  735000   0.77768531   -3.3629418   -3.3629418   -2.1964165  0.057857857   -3.3629418    1.1665253   439061 
  736000   0.77758261   -3.3649217   -3.3649217   -2.1985504  0.053149893   -3.3649217    1.1663713   439061 
  737000   0.77845099   -3.3670858   -3.3670858    -2.199412  0.050161455   -3.3670858    1.1676738   439061 
  738000   0.77818628   -3.3670984   -3.3670984   -2.1998216  0.049372172   -3.3670984    1.1672768   439061 
  739000   0.77678354   -3.3663148   -3.3663148   -2.2011421   0.04865376   -3.3663148    1.1651727   439061 
  740000   0.77561778   -3.3658804   -3.3658804   -2.2024564  0.050394052   -3.3658804     1.163424   439061 
  741000   0.77628856   -3.3659557   -3.3659557   -2.2015255   0.04523897   -3.3659557    1.1644302   439061 
  742000   0.77647237   -3.3656613   -3.3656613   -2.2009554  0.051863897   -3.3656613    1.1647059   439061 
  743000   0.77676516   -3.3660813   -3.3660813   -2.2009363  0.053106933   -3.3660813    1.1651451   439061 
  744000    0.7755396   -3.3648743   -3.3648743   -2.2015675  0.049067882   -3.3648743    1.1633068   439061 
  745000   0.77753359   -3.3671399   -3.3671399   -2.2008422   0.04899664   -3.3671399    1.1662977   439061 
  746000   0.77591679   -3.3649328   -3.3649328   -2.2010602  0.050388912   -3.3649328    1.1638725   439061 
  747000   0.77555874   -3.3631957   -3.3631957   -2.1998603   0.05311761   -3.3631957    1.1633355   439061 
  748000   0.77623656   -3.3654117   -3.3654117   -2.2010595  0.051670383   -3.3654117    1.1643522   439061 
  749000   0.77523416   -3.3658544   -3.3658544   -2.2030059  0.045510795   -3.3658544    1.1628486   439061 
  750000    0.7760465   -3.3670148   -3.3670148   -2.2029477  0.046643867   -3.3670148    1.1640671   439061 
  751000   0.77505168   -3.3666611   -3.3666611   -2.2040863  0.044032402   -3.3666611    1.1625749   439061 
  752000    0.7751856   -3.3668779   -3.3668779   -2.2041022  0.050801097   -3.3668779    1.1627758   439061 
  753000   0.77410207   -3.3671694   -3.3671694   -2.2060189  0.054907581   -3.3671694    1.1611505   439061 
  754000    0.7763242   -3.3716976   -3.3716976   -2.2072139  0.050220307   -3.3716976    1.1644836   439061 
  755000   0.77502505   -3.3714115   -3.3714115   -2.2088766  0.052542524   -3.3714115    1.1625349   439061 
  756000   0.77528846   -3.3736695   -3.3736695   -2.2107394  0.047330404   -3.3736695      1.16293   439061 
  757000   0.77579963   -3.3759947   -3.3759947   -2.2122979  0.048703897   -3.3759947    1.1636968   439061 
  758000   0.77488905   -3.3758785   -3.3758785   -2.2135476  0.049992571   -3.3758785    1.1623309   439061 
  759000   0.77576505   -3.3788356   -3.3788356   -2.2151907  0.048834213   -3.3788356    1.1636449   439061 
  760000   0.77618286   -3.3798269   -3.3798269   -2.2155552  0.055733044   -3.3798269    1.1642716   439061 
  761000   0.77563212   -3.3803201   -3.3803201   -2.2168746  0.053892858   -3.3803201    1.1634455   439061 
  762000   0.77588463   -3.3815486   -3.3815486   -2.2177243  0.049876103   -3.3815486    1.1638243   439061 
  763000   0.77624958   -3.3834551   -3.3834551   -2.2190833  0.051963204   -3.3834551    1.1643717   439061 
  764000    0.7745042    -3.382637    -3.382637   -2.2208834  0.053686486    -3.382637    1.1617537   439061 
  765000   0.77510768   -3.3831783   -3.3831783   -2.2205195  0.051591744   -3.3831783    1.1626589   439061 
  766000   0.77389872   -3.3820058   -3.3820058   -2.2211604  0.055178307   -3.3820058    1.1608454   439061 
  767000   0.77507592   -3.3839032   -3.3839032    -2.221292  0.054061644   -3.3839032    1.1626112   439061 
  768000   0.77498545   -3.3839448   -3.3839448   -2.2214693  0.049409487   -3.3839448    1.1624755   439061 
  769000   0.77458797   -3.3829101   -3.3829101   -2.2210308   0.05467067   -3.3829101    1.1618793   439061 
  770000   0.77524653   -3.3846843   -3.3846843   -2.2218171   0.04894345   -3.3846843    1.1628671   439061 
  771000   0.77337009   -3.3818462   -3.3818462   -2.2217937  0.052486019   -3.3818462    1.1600525   439061 
  772000   0.77357931   -3.3825375   -3.3825375   -2.2221712  0.046872869   -3.3825375    1.1603663   439061 
  773000   0.77284406   -3.3820242   -3.3820242   -2.2227608  0.048843456   -3.3820242    1.1592634   439061 
  774000   0.77463042   -3.3841972   -3.3841972   -2.2222542   0.04545286   -3.3841972     1.161943   439061 
  775000   0.77300686   -3.3831177   -3.3831177   -2.2236101  0.047901495   -3.3831177    1.1595076   439061 
  776000   0.77338878   -3.3847869   -3.3847869   -2.2247064  0.047902565   -3.3847869    1.1600805   439061 
  777000   0.77253379   -3.3833771   -3.3833771   -2.2245791  0.048493565   -3.3833771     1.158798   439061 
  778000    0.7727449    -3.384415    -3.384415   -2.2253003  0.046136737    -3.384415    1.1591147   439061 
  779000   0.77350356   -3.3865183   -3.3865183   -2.2262656  0.049928877   -3.3865183    1.1602527   439061 
  780000   0.77489475   -3.3900366   -3.3900366   -2.2276971   0.04798256   -3.3900366    1.1623395   439061 
  781000   0.77414605   -3.3885377   -3.3885377   -2.2273213  0.050640427   -3.3885377    1.1612164   439061 
  782000    0.7747656   -3.3899001   -3.3899001   -2.2277543  0.053977165   -3.3899001    1.1621458   439061 
  783000   0.77483809   -3.3912158   -3.3912158   -2.2289613   0.05204916   -3.3912158    1.1622545   439061 
  784000   0.77441308   -3.3920518   -3.3920518   -2.2304348  0.051419468   -3.3920518     1.161617   439061 
  785000   0.77378268   -3.3917542   -3.3917542   -2.2310828  0.053864681   -3.3917542    1.1606714   439061 
  786000    0.7736561   -3.3930731   -3.3930731   -2.2325916  0.051315297   -3.3930731    1.1604815   439061 
  787000   0.77340625    -3.393095    -3.393095   -2.2329883   0.05074033    -3.393095    1.1601067   439061 
  788000   0.77295365   -3.3937228   -3.3937228   -2.2342949   0.05319027   -3.3937228    1.1594278   439061 
  789000   0.77182444    -3.392939    -3.392939    -2.235205  0.051576421    -3.392939     1.157734   439061 
  790000   0.77119055   -3.3931393   -3.3931393   -2.2363561   0.04847854   -3.3931393    1.1567832   439061 
  791000   0.77132258   -3.3939912   -3.3939912     -2.23701   0.04479518   -3.3939912    1.1569812   439061 
  792000    0.7712552   -3.3945112   -3.3945112   -2.2376311  0.046585484   -3.3945112    1.1568802   439061 
  793000   0.77405124   -3.3990394   -3.3990394   -2.2379652  0.042822168   -3.3990394    1.1610742   439061 
  794000   0.77237867   -3.3964682   -3.3964682   -2.2379028  0.050788323   -3.3964682    1.1585654   439061 
  795000    0.7743022   -3.4002794   -3.4002794   -2.2388288  0.045143085   -3.4002794    1.1614507   439061 
  796000   0.77320835   -3.3995481   -3.3995481   -2.2397382  0.051195992   -3.3995481    1.1598099   439061 
  797000   0.77167183   -3.3992947   -3.3992947   -2.2417896  0.045745864   -3.3992947    1.1575051   439061 
  798000   0.77181135   -3.3992612   -3.3992612   -2.2415468  0.049931961   -3.3992612    1.1577144   439061 
  799000   0.77203595   -3.3997043   -3.3997043    -2.241653  0.049314443   -3.3997043    1.1580513   439061 
  800000   0.77137305   -3.4001005   -3.4001005   -2.2430435  0.050289804   -3.4001005    1.1570569   439061 
  801000   0.77283457   -3.4016537   -3.4016537   -2.2424045   0.04539034   -3.4016537    1.1592492   439061 
  802000   0.77150108   -3.4008931   -3.4008931   -2.2436441  0.046394233   -3.4008931     1.157249   439061 
  803000   0.77204811   -3.4024795   -3.4024795   -2.2444099  0.044874209   -3.4024795    1.1580695   439061 
  804000    0.7723634    -3.402777    -3.402777   -2.2442345  0.046145368    -3.402777    1.1585425   439061 
  805000   0.77112892   -3.4019556   -3.4019556   -2.2452649  0.047562528   -3.4019556    1.1566907   439061 
  806000   0.77110211   -3.4034669   -3.4034669   -2.2468164  0.043752874   -3.4034669    1.1566505   439061 
  807000   0.77040479   -3.4033621   -3.4033621   -2.2477576  0.045055691   -3.4033621    1.1556045   439061 
  808000    0.7719287   -3.4052919   -3.4052919   -2.2474015  0.047362648   -3.4052919    1.1578904   439061 
  809000   0.77078365   -3.4050629   -3.4050629     -2.24889  0.046717819   -3.4050629    1.1561728   439061 
  810000   0.77244065   -3.4072264   -3.4072264   -2.2485681  0.047860199   -3.4072264    1.1586583   439061 
  811000   0.77087817   -3.4053705   -3.4053705   -2.2490559  0.047577118   -3.4053705    1.1563146   439061 
  812000   0.77116908   -3.4070318   -3.4070318   -2.2502808  0.049125734   -3.4070318     1.156751   439061 
  813000   0.77040198   -3.4062409   -3.4062409   -2.2506406  0.050447286   -3.4062409    1.1556003   439061 
  814000   0.77080484   -3.4069942   -3.4069942   -2.2507896  0.052129968   -3.4069942    1.1562046   439061 
  815000   0.77170935   -3.4088616   -3.4088616   -2.2513002  0.044110906   -3.4088616    1.1575614   439061 
  816000   0.77155839   -3.4098339   -3.4098339    -2.252499   0.05114104   -3.4098339    1.1573349   439061 
  817000   0.77092937   -3.4094338   -3.4094338   -2.2530423  0.050358496   -3.4094338    1.1563914   439061 
  818000   0.77123908   -3.4104438   -3.4104438   -2.2535878  0.049524097   -3.4104438     1.156856   439061 
  819000   0.76931933   -3.4075899   -3.4075899   -2.2536135  0.054092878   -3.4075899    1.1539764   439061 
  820000   0.77075517   -3.4106543   -3.4106543   -2.2545242  0.049654467   -3.4106543    1.1561301   439061 
  821000   0.77105736   -3.4117893   -3.4117893   -2.2552059  0.047392043   -3.4117893    1.1565834   439061 
  822000   0.76987023   -3.4118623   -3.4118623   -2.2570596  0.042055889   -3.4118623    1.1548027   439061 
  823000    0.7696266   -3.4111939   -3.4111939   -2.2567566  0.045054214   -3.4111939    1.1544373   439061 
  824000   0.76964848   -3.4133157   -3.4133157   -2.2588456   0.04511295   -3.4133157    1.1544701   439061 
  825000   0.76875895   -3.4118194   -3.4118194   -2.2586836  0.047434542   -3.4118194    1.1531358   439061 
  826000   0.76859383   -3.4137359   -3.4137359   -2.2608478  0.043455814   -3.4137359    1.1528881   439061 
  827000   0.76846744   -3.4136948   -3.4136948   -2.2609963  0.047158602   -3.4136948    1.1526985   439061 
  828000   0.76737466   -3.4123345   -3.4123345   -2.2612751  0.049974455   -3.4123345    1.1510594   439061 
  829000   0.76895491   -3.4158102   -3.4158102   -2.2623804  0.048143033   -3.4158102    1.1534297   439061 
  830000   0.76945103   -3.4173208   -3.4173208   -2.2631468   0.04467088   -3.4173208    1.1541739   439061 
  831000   0.76909132   -3.4176529   -3.4176529   -2.2640186  0.047095144   -3.4176529    1.1536344   439061 
  832000   0.76991291   -3.4204412   -3.4204412   -2.2655745  0.046646626   -3.4204412    1.1548667   439061 
  833000   0.77038766   -3.4209745   -3.4209745   -2.2653956  0.051374831   -3.4209745    1.1555789   439061 
  834000   0.76959445   -3.4204838   -3.4204838   -2.2660947  0.052412248   -3.4204838    1.1543891   439061 
  835000    0.7701058   -3.4217833   -3.4217833   -2.2666272  0.052613297   -3.4217833    1.1551561   439061 
  836000   0.77022159   -3.4225935   -3.4225935   -2.2672637  0.048302487   -3.4225935    1.1553298   439061 
  837000   0.76794107    -3.420456    -3.420456    -2.268547  0.050056416    -3.420456     1.151909   439061 
  838000   0.77024299    -3.424449    -3.424449   -2.2690872  0.048832859    -3.424449    1.1553619   439061 
  839000   0.76983938   -3.4233521   -3.4233521   -2.2685956  0.050748281   -3.4233521    1.1547564   439061 
  840000   0.76977078   -3.4244767   -3.4244767   -2.2698231  0.043505618   -3.4244767    1.1546535   439061 
  841000   0.76942769   -3.4238336   -3.4238336   -2.2696947  0.046890319   -3.4238336    1.1541389   439061 
  842000   0.76915096   -3.4247464   -3.4247464   -2.2710226  0.046863282   -3.4247464    1.1537238   439061 
  843000   0.76770852   -3.4231161   -3.4231161    -2.271556  0.048296367   -3.4231161    1.1515602   439061 
  844000   0.76934527    -3.425425    -3.425425   -2.2714097  0.045693676    -3.425425    1.1540153   439061 
  845000   0.76811197   -3.4241971   -3.4241971   -2.2720318   0.04627728   -3.4241971    1.1521653   439061 
  846000   0.76753712   -3.4236362   -3.4236362   -2.2723331  0.044069929   -3.4236362    1.1513031   439061 
  847000   0.76820588    -3.424828    -3.424828   -2.2725218  0.045777912    -3.424828    1.1523062   439061 
  848000   0.76885587   -3.4276962   -3.4276962    -2.274415  0.044795074   -3.4276962    1.1532812   439061 
  849000   0.76816348   -3.4275747   -3.4275747   -2.2753322  0.047262594   -3.4275747    1.1522426   439061 
  850000   0.76897966   -3.4298238   -3.4298238    -2.276357  0.039026986   -3.4298238    1.1534669   439061 
  851000   0.76812532   -3.4286854   -3.4286854      -2.2765  0.042811093   -3.4286854    1.1521854   439061 
  852000   0.76770801   -3.4277343   -3.4277343   -2.2761749  0.048326046   -3.4277343    1.1515594   439061 
  853000   0.76872145   -3.4299175   -3.4299175   -2.2768379  0.046173121   -3.4299175    1.1530795   439061 
  854000   0.76763836   -3.4300149   -3.4300149     -2.27856  0.047162602   -3.4300149    1.1514549   439061 
  855000   0.76835046   -3.4320858   -3.4320858   -2.2795628  0.045493029   -3.4320858    1.1525231   439061 
  856000   0.76853868   -3.4327133   -3.4327133   -2.2799079  0.047216152   -3.4327133    1.1528054   439061 
  857000   0.76670098   -3.4304218   -3.4304218   -2.2803729  0.050599291   -3.4304218    1.1500489   439061 
  858000   0.76741741   -3.4323477   -3.4323477   -2.2812242  0.046365657   -3.4323477    1.1511235   439061 
  859000   0.76783413   -3.4342135   -3.4342135   -2.2824649  0.042292673   -3.4342135    1.1517486   439061 
  860000   0.76694993    -3.433714    -3.433714   -2.2832917  0.047875405    -3.433714    1.1504223   439061 
  861000   0.76638999   -3.4333878   -3.4333878   -2.2838055  0.044947627   -3.4333878    1.1495824   439061 
  862000   0.76649613   -3.4345286   -3.4345286    -2.284787  0.045326431   -3.4345286    1.1497416   439061 
  863000   0.76680707   -3.4361698   -3.4361698   -2.2859618   0.04364615   -3.4361698     1.150208   439061 
  864000   0.76628309   -3.4357887   -3.4357887   -2.2863666  0.046503139   -3.4357887     1.149422   439061 
  865000     0.766751    -3.436874    -3.436874   -2.2867501  0.043375465    -3.436874    1.1501239   439061 
  866000   0.76604145   -3.4376052   -3.4376052   -2.2885456  0.042271116   -3.4376052    1.1490596   439061 
  867000    0.7658934   -3.4384223   -3.4384223   -2.2895848  0.046267606   -3.4384223    1.1488375   439061 
  868000   0.76555999   -3.4387827   -3.4387827   -2.2904453  0.045047081   -3.4387827    1.1483374   439061 
  869000   0.76556447   -3.4396194   -3.4396194   -2.2912753  0.047888378   -3.4396194    1.1483441   439061 
  870000    0.7665918   -3.4408935   -3.4408935   -2.2910084  0.046916151   -3.4408935    1.1498851   439061 
  871000   0.76789734    -3.443585    -3.443585   -2.2917417  0.046964847    -3.443585    1.1518434   439061 
  872000    0.7679892   -3.4445895   -3.4445895   -2.2926083   0.04794165   -3.4445895    1.1519812   439061 
  873000   0.76727526   -3.4447095   -3.4447095   -2.2937992   0.04917507   -3.4447095    1.1509103   439061 
  874000   0.76664917   -3.4442047   -3.4442047   -2.2942336  0.051463132   -3.4442047    1.1499711   439061 
  875000   0.76592873   -3.4431731   -3.4431731   -2.2942827  0.050678845   -3.4431731    1.1488905   439061 
  876000   0.76637927   -3.4441163   -3.4441163     -2.29455  0.048479178   -3.4441163    1.1495663   439061 
  877000    0.7668584   -3.4456385   -3.4456385   -2.2953535  0.046302428   -3.4456385     1.150285   439061 
  878000   0.76618953   -3.4453646   -3.4453646   -2.2960829  0.045794568   -3.4453646    1.1492817   439061 
  879000   0.76599117   -3.4458185   -3.4458185   -2.2968344   0.04536459   -3.4458185    1.1489841   439061 
  880000    0.7659812   -3.4450751   -3.4450751   -2.2961059   0.04287393   -3.4450751    1.1489692   439061 
  881000    0.7655967   -3.4445984   -3.4445984   -2.2962059  0.043151276   -3.4445984    1.1483924   439061 
  882000   0.76479237   -3.4446162   -3.4446162   -2.2974303  0.043097858   -3.4446162    1.1471859   439061 
  883000   0.76438042   -3.4449249   -3.4449249   -2.2983569  0.041195478   -3.4449249     1.146568   439061 
  884000   0.76485604   -3.4444217   -3.4444217   -2.2971402  0.048353213   -3.4444217    1.1472814   439061 
  885000   0.76499191   -3.4460962   -3.4460962    -2.298611   0.04595598   -3.4460962    1.1474853   439061 
  886000    0.7659211   -3.4474188   -3.4474188   -2.2985397   0.04615921   -3.4474188     1.148879   439061 
  887000   0.76573527   -3.4473087   -3.4473087   -2.2987085  0.046343029   -3.4473087    1.1486003   439061 
  888000   0.76653494   -3.4483658   -3.4483658    -2.298566  0.048588041   -3.4483658    1.1497998   439061 
  889000   0.76629346    -3.449528    -3.449528   -2.3000905  0.046312744    -3.449528    1.1494376   439061 
  890000   0.76680353   -3.4512014   -3.4512014   -2.3009987  0.042849217   -3.4512014    1.1502027   439061 
  891000    0.7658399   -3.4497574   -3.4497574   -2.3010002  0.046178415   -3.4497574    1.1487572   439061 
  892000   0.76585531    -3.450295    -3.450295   -2.3015147  0.051089093    -3.450295    1.1487803   439061 
  893000   0.76329629   -3.4485647   -3.4485647   -2.3036229  0.046894512   -3.4485647    1.1449418   439061 
  894000   0.76498853   -3.4515412   -3.4515412    -2.304061  0.043362531   -3.4515412    1.1474802   439061 
  895000   0.76471012   -3.4527184   -3.4527184   -2.3056559  0.045076976   -3.4527184    1.1470626   439061 
  896000   0.76515475    -3.454162    -3.454162   -2.3064325  0.046197294    -3.454162    1.1477295   439061 
  897000   0.76423804    -3.453769    -3.453769   -2.3074146  0.046337576    -3.453769    1.1463544   439061 
  898000   0.76440717   -3.4532177   -3.4532177   -2.3066095   0.04763796   -3.4532177    1.1466081   439061 
  899000   0.76512191    -3.454182    -3.454182   -2.3065018  0.043327382    -3.454182    1.1476803   439061 
  900000   0.76547737   -3.4546232   -3.4546232   -2.3064097  0.047810373   -3.4546232    1.1482134   439061 
  901000    0.7643827   -3.4540715   -3.4540715   -2.3075001  0.050009738   -3.4540715    1.1465714   439061 
  902000   0.76516463   -3.4563652   -3.4563652   -2.3086208  0.048896802   -3.4563652    1.1477443   439061 
  903000   0.76453068   -3.4561911   -3.4561911   -2.3093977  0.046271815   -3.4561911    1.1467934   439061 
  904000   0.76534977    -3.458022    -3.458022        -2.31  0.042235999    -3.458022     1.148022   439061 
  905000   0.76441464   -3.4579577   -3.4579577   -2.3113383  0.043911296   -3.4579577    1.1466193   439061 
  906000   0.76355103   -3.4569953   -3.4569953   -2.3116714  0.044612046   -3.4569953    1.1453239   439061 
  907000   0.76443485   -3.4579636   -3.4579636   -2.3113139   0.04434327   -3.4579636    1.1466497   439061 
  908000   0.76395474   -3.4581227   -3.4581227   -2.3121932  0.041784178   -3.4581227    1.1459295   439061 
  909000    0.7640046    -3.458978    -3.458978   -2.3129737  0.043068252    -3.458978    1.1460043   439061 
  910000   0.76383861   -3.4593248   -3.4593248   -2.3135695  0.044681347   -3.4593248    1.1457553   439061 
  911000   0.76551504   -3.4615624   -3.4615624   -2.3132924  0.044956812   -3.4615624    1.1482699   439061 
  912000   0.76552679   -3.4611394   -3.4611394   -2.3128519  0.044587032   -3.4611394    1.1482876   439061 
  913000   0.76330416   -3.4596846   -3.4596846    -2.314731  0.041010951   -3.4596846    1.1449536   439061 
  914000   0.76392982   -3.4611268   -3.4611268   -2.3152347  0.049648509   -3.4611268    1.1458921   439061 
  915000   0.76475657   -3.4637936   -3.4637936   -2.3166613  0.042658492   -3.4637936    1.1471322   439061 
  916000   0.76469975   -3.4637598   -3.4637598   -2.3167128  0.042269296   -3.4637598     1.147047   439061 
  917000   0.76403115   -3.4639711   -3.4639711    -2.317927  0.035903638   -3.4639711    1.1460441   439061 
  918000   0.76412628   -3.4634763   -3.4634763   -2.3172895  0.042917063   -3.4634763    1.1461868   439061 
  919000   0.76242985    -3.461778    -3.461778   -2.3181358  0.045720437    -3.461778    1.1436422   439061 
  920000   0.76304284   -3.4642036   -3.4642036    -2.319642  0.043186431   -3.4642036    1.1445617   439061 
  921000   0.76318959   -3.4646272   -3.4646272   -2.3198454  0.040261945   -3.4646272    1.1447818   439061 
  922000   0.76217797   -3.4642207   -3.4642207   -2.3209563  0.042642392   -3.4642207    1.1432644   439061 
  923000   0.76146812   -3.4650664   -3.4650664   -2.3228668  0.042477365   -3.4650664    1.1421996   439061 
  924000   0.76125933   -3.4654076   -3.4654076   -2.3235212  0.042507756   -3.4654076    1.1418864   439061 
  925000   0.76264237   -3.4673668   -3.4673668   -2.3234058  0.041206129   -3.4673668     1.143961   439061 
  926000   0.76242823   -3.4684397   -3.4684397      -2.3248  0.046580004   -3.4684397    1.1436397   439061 
  927000   0.76345171   -3.4719269   -3.4719269   -2.3267519  0.040176634   -3.4719269     1.145175   439061 
  928000    0.7625284   -3.4700159   -3.4700159   -2.3262259  0.046889631   -3.4700159      1.14379   439061 
  929000   0.76214833   -3.4712088   -3.4712088   -2.3279889  0.045004099   -3.4712088    1.1432199   439061 
  930000   0.76216916   -3.4722225   -3.4722225   -2.3289714   0.04445645   -3.4722225    1.1432511   439061 
  931000   0.76215002   -3.4725253   -3.4725253   -2.3293029  0.044581939   -3.4725253    1.1432224   439061 
  932000   0.76249696   -3.4734802   -3.4734802   -2.3297373  0.044629166   -3.4734802    1.1437428   439061 
  933000   0.76256936   -3.4736227   -3.4736227   -2.3297712  0.039456236   -3.4736227    1.1438514   439061 
  934000   0.76256349   -3.4744712   -3.4744712   -2.3306285  0.046059002   -3.4744712    1.1438426   439061 
  935000    0.7615562   -3.4725228   -3.4725228   -2.3301911  0.044133866   -3.4725228    1.1423317   439061 
  936000   0.76116071   -3.4728974   -3.4728974    -2.331159  0.045996651   -3.4728974    1.1417385   439061 
  937000   0.76175442   -3.4732643   -3.4732643   -2.3306352  0.042682662   -3.4732643     1.142629   439061 
  938000   0.76335004   -3.4760163   -3.4760163   -2.3309938  0.040210912   -3.4760163    1.1450225   439061 
  939000   0.76249753   -3.4758018   -3.4758018   -2.3320581  0.036775006   -3.4758018    1.1437437   439061 
  940000   0.76265713    -3.475462    -3.475462   -2.3314789  0.040658909    -3.475462    1.1439831   439061 
  941000    0.7630679   -3.4772842   -3.4772842   -2.3326849  0.040336783   -3.4772842    1.1445992   439061 
  942000    0.7605352   -3.4744238   -3.4744238   -2.3336236  0.046340103   -3.4744238    1.1408002   439061 
  943000   0.76180771   -3.4779545   -3.4779545   -2.3352455  0.037304074   -3.4779545     1.142709   439061 
  944000   0.76121898   -3.4771635   -3.4771635   -2.3353376  0.038382811   -3.4771635    1.1418259   439061 
  945000    0.7618059   -3.4784453   -3.4784453    -2.335739  0.036150788   -3.4784453    1.1427062   439061 
  946000   0.76113426   -3.4770446   -3.4770446   -2.3353459  0.039668228   -3.4770446    1.1416988   439061 
  947000   0.76155096   -3.4784976   -3.4784976   -2.3361737   0.03990218   -3.4784976    1.1423238   439061 
  948000   0.76356341   -3.4806821   -3.4806821   -2.3353396  0.041321146   -3.4806821    1.1453425   439061 
  949000   0.76267766   -3.4802472   -3.4802472   -2.3362334  0.044843846   -3.4802472    1.1440139   439061 
  950000   0.76194226   -3.4802078   -3.4802078    -2.337297  0.043738343   -3.4802078    1.1429108   439061 
  951000   0.76136159   -3.4800158   -3.4800158    -2.337976  0.047832746   -3.4800158    1.1420398   439061 
  952000   0.76038821   -3.4810945   -3.4810945   -2.3405148  0.042091225   -3.4810945    1.1405797   439061 
  953000   0.76023098    -3.481823    -3.481823   -2.3414791  0.039971992    -3.481823    1.1403439   439061 
  954000   0.75986263   -3.4825472   -3.4825472   -2.3427559  0.038161187   -3.4825472    1.1397913   439061 
  955000   0.76006913   -3.4825286   -3.4825286   -2.3424275  0.042893406   -3.4825286    1.1401011   439061 
  956000   0.76094755   -3.4837679   -3.4837679   -2.3423492  0.041657789   -3.4837679    1.1414187   439061 
  957000   0.76030657   -3.4831292   -3.4831292   -2.3426719  0.047519768   -3.4831292    1.1404573   439061 
  958000   0.76196592   -3.4854144   -3.4854144   -2.3424681    0.0421141   -3.4854144    1.1429463   439061 
  959000   0.76182791   -3.4864097   -3.4864097   -2.3436705  0.045772591   -3.4864097    1.1427393   439061 
  960000   0.76019818   -3.4845199   -3.4845199   -2.3442252  0.042124265   -3.4845199    1.1402947   439061 
  961000   0.75939361   -3.4836958   -3.4836958    -2.344608   0.04485397   -3.4836958    1.1390878   439061 
  962000   0.75966443   -3.4848871   -3.4848871    -2.345393   0.04132044   -3.4848871     1.139494   439061 
  963000   0.75865247   -3.4842052   -3.4842052   -2.3462291  0.041539948   -3.4842052    1.1379761   439061 
  964000   0.75943631   -3.4859112   -3.4859112   -2.3467594  0.039385129   -3.4859112    1.1391519   439061 
  965000   0.75862776   -3.4850445   -3.4850445   -2.3471054  0.039080217   -3.4850445     1.137939   439061 
  966000   0.75971675   -3.4868194   -3.4868194   -2.3472469  0.039756406   -3.4868194    1.1395725   439061 
  967000   0.75921313   -3.4865051   -3.4865051    -2.347688  0.040971084   -3.4865051    1.1388171   439061 
  968000   0.75942463   -3.4864389   -3.4864389   -2.3473045  0.044254762   -3.4864389    1.1391344   439061 
  969000   0.75982472   -3.4888746   -3.4888746   -2.3491401  0.041541895   -3.4888746    1.1397345   439061 
  970000   0.75934863   -3.4893479   -3.4893479   -2.3503276  0.038473195   -3.4893479    1.1390204   439061 
  971000   0.75898771   -3.4892992   -3.4892992   -2.3508202  0.043813084   -3.4892992     1.138479   439061 
  972000   0.75913527   -3.4901391   -3.4901391   -2.3514388  0.040256252   -3.4901391    1.1387003   439061 
  973000   0.75988538   -3.4915218   -3.4915218   -2.3516963  0.043942434   -3.4915218    1.1398255   439061 
  974000   0.75937045   -3.4924488   -3.4924488   -2.3533957  0.045248001   -3.4924488    1.1390531   439061 
  975000   0.76017604   -3.4937327   -3.4937327   -2.3534712  0.038704005   -3.4937327    1.1402615   439061 
  976000   0.75880808   -3.4919589   -3.4919589   -2.3537493  0.045982047   -3.4919589    1.1382095   439061 
  977000   0.75834178   -3.4915211   -3.4915211    -2.354011   0.04154533   -3.4915211    1.1375101   439061 
  978000   0.76103314   -3.4950678   -3.4950678   -2.3535207  0.043181325   -3.4950678    1.1415471   439061 
  979000   0.75894084   -3.4930367   -3.4930367   -2.3546281  0.045211463   -3.4930367    1.1384087   439061 
  980000   0.75821908   -3.4921723   -3.4921723   -2.3548462  0.043422486   -3.4921723     1.137326   439061 
  981000   0.75942152   -3.4958364   -3.4958364   -2.3567067  0.039136947   -3.4958364    1.1391297   439061 
  982000   0.75952906   -3.4952543   -3.4952543   -2.3559633  0.036072737   -3.4952543     1.139291   439061 
  983000   0.75842556   -3.4944093   -3.4944093   -2.3567735  0.037964419   -3.4944093    1.1376358   439061 
  984000   0.75611494    -3.492607    -3.492607   -2.3584372  0.038926389    -3.492607    1.1341698   439061 
  985000   0.75655304   -3.4930294   -3.4930294   -2.3582024  0.036721532   -3.4930294     1.134827   439061 
  986000    0.7576112   -3.4950493   -3.4950493   -2.3586351  0.033537694   -3.4950493    1.1364142   439061 
  987000   0.75673457    -3.493902    -3.493902   -2.3588027  0.041071108    -3.493902    1.1350993   439061 
  988000   0.75819913   -3.4973174   -3.4973174   -2.3600213  0.032922898   -3.4973174    1.1372961   439061 
  989000   0.75788272   -3.4963376   -3.4963376   -2.3595162  0.043336549   -3.4963376    1.1368215   439061 
  990000   0.75819461   -3.4978945   -3.4978945   -2.3606051  0.046012721   -3.4978945    1.1372893   439061 
  991000   0.75854872   -3.5003127   -3.5003127   -2.3624922  0.041800278   -3.5003127    1.1378205   439061 
  992000    0.7587155   -3.5022492   -3.5022492   -2.3641786  0.039956505   -3.5022492    1.1380707   439061 
  993000   0.75819464   -3.5019758   -3.5019758   -2.3646864  0.038998128   -3.5019758    1.1372894   439061 
  994000   0.75652108   -3.5018311   -3.5018311   -2.3670521  0.038862847   -3.5018311     1.134779   439061 
  995000   0.75811551   -3.5045183   -3.5045183   -2.3673477  0.039138696   -3.5045183    1.1371707   439061 
  996000   0.75870135   -3.5048969   -3.5048969   -2.3668475  0.042184229   -3.5048969    1.1380494   439061 
  997000   0.75826145   -3.5051075   -3.5051075    -2.367718  0.042434298   -3.5051075    1.1373896   439061 
  998000   0.75782353   -3.5053946   -3.5053946   -2.3686619  0.043714585   -3.5053946    1.1367327   439061 
  999000   0.75910721   -3.5061637   -3.5061637   -2.3675055  0.041580432   -3.5061637    1.1386582   439061 
 1000000   0.75775676   -3.5054715   -3.5054715    -2.368839  0.045499357   -3.5054715    1.1366325   439061 
 1001000     0.757668    -3.505315    -3.505315   -2.3688156  0.041576011    -3.505315    1.1364994   439061 
 1002000   0.75806723    -3.506572    -3.506572   -2.3694737  0.042434673    -3.506572    1.1370983   439061 
 1003000   0.75738175   -3.5060258   -3.5060258   -2.3699558  0.039187904   -3.5060258      1.13607   439061 
 1004000    0.7569942    -3.505829    -3.505829   -2.3703403  0.032037267    -3.505829    1.1354887   439061 
 1005000   0.75534709    -3.503805    -3.503805    -2.370787  0.034508757    -3.503805    1.1330181   439061 
 1006000   0.75473423   -3.5044188   -3.5044188     -2.37232  0.036201189   -3.5044188    1.1320988   439061 
 1007000   0.75406721   -3.5037386   -3.5037386   -2.3726404  0.032740474   -3.5037386    1.1310982   439061 
 1008000    0.7556587   -3.5074876   -3.5074876   -2.3740022   0.03492294   -3.5074876    1.1334855   439061 
 1009000   0.75519638    -3.505292    -3.505292      -2.3725  0.041846995    -3.505292     1.132792   439061 
 1010000   0.75710901   -3.5084597   -3.5084597   -2.3727988  0.034623309   -3.5084597    1.1356609   439061 
 1011000    0.7563109   -3.5078925   -3.5078925   -2.3734288  0.040656635   -3.5078925    1.1344638   439061 
 1012000   0.75775487   -3.5104999   -3.5104999   -2.3738702  0.043972294   -3.5104999    1.1366297   439061 
 1013000   0.75844949   -3.5115983   -3.5115983   -2.3739266  0.042673847   -3.5115983    1.1376716   439061 
 1014000   0.75720788   -3.5104074   -3.5104074   -2.3745982  0.045007894   -3.5104074    1.1358092   439061 
 1015000   0.75755534   -3.5120606   -3.5120606   -2.3757302  0.039963976   -3.5120606    1.1363304   439061 
 1016000   0.75686522   -3.5119036   -3.5119036   -2.3766083  0.041488529   -3.5119036    1.1352953   439061 
 1017000   0.75685417   -3.5132074   -3.5132074   -2.3779287  0.038959225   -3.5132074    1.1352787   439061 
 1018000   0.75507894    -3.511765    -3.511765   -2.3791492  0.043642829    -3.511765    1.1326158   439061 
 1019000   0.75506308   -3.5115207   -3.5115207   -2.3789287  0.041999547   -3.5115207     1.132592   439061 
 1020000   0.75612623   -3.5133952   -3.5133952   -2.3792085  0.041546649   -3.5133952    1.1341868   439061 
 1021000   0.75604354   -3.5130951   -3.5130951   -2.3790323  0.044774272   -3.5130951    1.1340627   439061 
 1022000   0.75522005   -3.5117524   -3.5117524   -2.3789249  0.037827887   -3.5117524    1.1328275   439061 
 1023000   0.75564928    -3.513932    -3.513932   -2.3804607  0.037216104    -3.513932    1.1334713   439061 
 1024000   0.75575149   -3.5150836   -3.5150836    -2.381459   0.03400372   -3.5150836    1.1336247   439061 
 1025000   0.75580321   -3.5151645   -3.5151645   -2.3814623  0.034842083   -3.5151645    1.1337022   439061 
 1026000   0.75643438    -3.515683    -3.515683    -2.381034   0.03923914    -3.515683     1.134649   439061 
 1027000   0.75574887   -3.5156194   -3.5156194   -2.3819987  0.036079714   -3.5156194    1.1336207   439061 
 1028000   0.75650885   -3.5172821   -3.5172821   -2.3825214  0.037909307   -3.5172821    1.1347607   439061 
 1029000   0.75561744   -3.5183255   -3.5183255   -2.3849019  0.037846508   -3.5183255    1.1334236   439061 
 1030000   0.75512483   -3.5184386   -3.5184386    -2.385754  0.034699573   -3.5184386    1.1326847   439061 
 1031000   0.75468713   -3.5180994   -3.5180994   -2.3860713  0.035657788   -3.5180994    1.1320281   439061 
 1032000    0.7551333   -3.5178734   -3.5178734    -2.385176  0.040503874   -3.5178734    1.1326974   439061 
 1033000   0.75627781   -3.5201857   -3.5201857   -2.3857716  0.037322229   -3.5201857    1.1344141   439061 
 1034000   0.75429223   -3.5183519   -3.5183519   -2.3869161  0.041630286   -3.5183519    1.1314358   439061 
 1035000   0.75521642   -3.5200742   -3.5200742   -2.3872521  0.043209418   -3.5200742     1.132822   439061 
 1036000   0.75613358   -3.5214393   -3.5214393   -2.3872415  0.039239207   -3.5214393    1.1341978   439061 
 1037000   0.75620353   -3.5217431   -3.5217431   -2.3874403  0.039785288   -3.5217431    1.1343027   439061 
 1038000   0.75501937   -3.5212179   -3.5212179   -2.3886914  0.042131472   -3.5212179    1.1325265   439061 
 1039000   0.75503157   -3.5222417   -3.5222417   -2.3896969  0.040546055   -3.5222417    1.1325448   439061 
 1040000   0.75439554   -3.5232465   -3.5232465   -2.3916557  0.035941775   -3.5232465    1.1315907   439061 
 1041000   0.75451615   -3.5224817   -3.5224817   -2.3907101  0.046263984   -3.5224817    1.1317716   439061 
 1042000    0.7554314   -3.5230321   -3.5230321   -2.3898876  0.040310988   -3.5230321    1.1331445   439061 
 1043000   0.75380124   -3.5211307   -3.5211307   -2.3904314  0.041149723   -3.5211307    1.1306993   439061 
 1044000   0.75536389   -3.5238438   -3.5238438   -2.3908006  0.038755696   -3.5238438    1.1330432   439061 
 1045000   0.75574332   -3.5256561   -3.5256561   -2.3920437  0.034525609   -3.5256561    1.1336124   439061 
 1046000   0.75534175   -3.5246351   -3.5246351    -2.391625  0.039979358   -3.5246351    1.1330101   439061 
 1047000   0.75488367   -3.5242676   -3.5242676   -2.3919446  0.035224255   -3.5242676    1.1323229   439061 
 1048000   0.75540472   -3.5254612   -3.5254612   -2.3923567  0.034842592   -3.5254612    1.1331045   439061 
 1049000   0.75624986   -3.5262086   -3.5262086   -2.3918364  0.034281303   -3.5262086    1.1343722   439061 
 1050000   0.75461975   -3.5241738   -3.5241738   -2.3922467  0.041321728   -3.5241738    1.1319271   439061 
 1051000   0.75542878    -3.526214    -3.526214   -2.3930734  0.033129102    -3.526214    1.1331406   439061 
 1052000   0.75519528   -3.5269262   -3.5269262   -2.3941359  0.037658189   -3.5269262    1.1327903   439061 
 1053000   0.75508266   -3.5257683   -3.5257683   -2.3931469  0.039370143   -3.5257683    1.1326214   439061 
 1054000    0.7544982   -3.5263322   -3.5263322   -2.3945875  0.039953903   -3.5263322    1.1317447   439061 
 1055000   0.75364927   -3.5255484   -3.5255484   -2.3950771  0.039085633   -3.5255484    1.1304713   439061 
 1056000      0.75418   -3.5273952   -3.5273952   -2.3961278  0.039173216   -3.5273952    1.1312674   439061 
 1057000    0.7543525   -3.5275406   -3.5275406   -2.3960145  0.037035155   -3.5275406    1.1315262   439061 
 1058000   0.75363691   -3.5267288   -3.5267288    -2.396276  0.034108562   -3.5267288    1.1304528   439061 
 1059000   0.75380284   -3.5272374   -3.5272374   -2.3965357  0.038624019   -3.5272374    1.1307017   439061 
 1060000    0.7546867   -3.5289422   -3.5289422   -2.3969148  0.039062233   -3.5289422    1.1320275   439061 
 1061000   0.75517661   -3.5292435   -3.5292435   -2.3964811  0.038574379   -3.5292435    1.1327623   439061 
 1062000   0.75492129   -3.5299266   -3.5299266   -2.3975473  0.032490287   -3.5299266    1.1323793   439061 
 1063000   0.75527576   -3.5304586   -3.5304586   -2.3975476  0.038926292   -3.5304586    1.1329111   439061 
 1064000   0.75492015   -3.5301468   -3.5301468   -2.3977691  0.037465978   -3.5301468    1.1323776   439061 
 1065000    0.7541136   -3.5306906   -3.5306906   -2.3995227  0.036473345   -3.5306906    1.1311678   439061 
 1066000   0.75435028   -3.5307973   -3.5307973   -2.3992745  0.035968056   -3.5307973    1.1315228   439061 
 1067000    0.7533733   -3.5307658   -3.5307658   -2.4007084  0.040032954   -3.5307658    1.1300574   439061 
 1068000   0.75350229   -3.5317841   -3.5317841   -2.4015332  0.039175243   -3.5317841    1.1302509   439061 
 1069000   0.75433861   -3.5330731   -3.5330731   -2.4015678  0.036753586   -3.5330731    1.1315053   439061 
 1070000   0.75344128   -3.5326978   -3.5326978   -2.4025385  0.042515857   -3.5326978    1.1301593   439061 
 1071000   0.75354945   -3.5342958   -3.5342958   -2.4039742  0.036816249   -3.5342958    1.1303216   439061 
 1072000   0.75386441   -3.5351338   -3.5351338   -2.4043397  0.033078617   -3.5351338     1.130794   439061 
 1073000   0.75418361   -3.5356198   -3.5356198    -2.404347  0.037893162   -3.5356198    1.1312728   439061 
 1074000   0.75243549   -3.5340684   -3.5340684   -2.4054178  0.037743446   -3.5340684    1.1286507   439061 
 1075000    0.7533357   -3.5363092   -3.5363092   -2.4063082   0.03829763   -3.5363092     1.130001   439061 
 1076000   0.75402874   -3.5377194   -3.5377194   -2.4066789  0.036999866   -3.5377194    1.1310405   439061 
 1077000    0.7530394   -3.5356738   -3.5356738   -2.4061172   0.04176796   -3.5356738    1.1295565   439061 
 1078000    0.7534781   -3.5375863   -3.5375863   -2.4073717  0.039057425   -3.5375863    1.1302146   439061 
 1079000   0.75385123   -3.5382414   -3.5382414   -2.4074671  0.033925027   -3.5382414    1.1307743   439061 
 1080000   0.75261761   -3.5384406   -3.5384406   -2.4095167  0.037617164   -3.5384406    1.1289238   439061 
 1081000   0.75167846   -3.5376141   -3.5376141    -2.410099  0.038572603   -3.5376141    1.1275151   439061 
 1082000   0.75344166   -3.5409138   -3.5409138   -2.4107539  0.037477714   -3.5409138    1.1301599   439061 
 1083000   0.75312351   -3.5402056   -3.5402056   -2.4105229  0.039879444   -3.5402056    1.1296827   439061 
 1084000   0.75355596   -3.5415783   -3.5415783   -2.4112469  0.035145693   -3.5415783    1.1303314   439061 
 1085000   0.75458683   -3.5428669   -3.5428669   -2.4109892  0.035464067   -3.5428669    1.1318777   439061 
 1086000   0.75269402   -3.5410395   -3.5410395   -2.4120011  0.042342683   -3.5410395    1.1290385   439061 
 1087000   0.75347464   -3.5415064   -3.5415064    -2.411297  0.041093936   -3.5415064    1.1302094   439061 
 1088000   0.75408343   -3.5432037   -3.5432037   -2.4120811  0.036031666   -3.5432037    1.1311226   439061 
 1089000   0.75296752   -3.5414744   -3.5414744   -2.4120257  0.038090098   -3.5414744    1.1294487   439061 
 1090000   0.75343523   -3.5425243   -3.5425243    -2.412374  0.041423409   -3.5425243    1.1301503   439061 
 1091000   0.75242769   -3.5422558   -3.5422558   -2.4136168  0.037352299   -3.5422558     1.128639   439061 
 1092000   0.75177774   -3.5417603   -3.5417603   -2.4140963  0.035332963   -3.5417603     1.127664   439061 
 1093000   0.75103886     -3.54226     -3.54226   -2.4157043  0.030526944     -3.54226    1.1265557   439061 
 1094000   0.75068286   -3.5425431   -3.5425431   -2.4165214  0.031144796   -3.5425431    1.1260217   439061 
 1095000   0.75107225   -3.5424744   -3.5424744   -2.4158686  0.031471969   -3.5424744    1.1266058   439061 
 1096000   0.75060265    -3.543466    -3.543466   -2.4175646  0.031531783    -3.543466    1.1259014   439061 
 1097000   0.75092196   -3.5445655   -3.5445655   -2.4181851  0.035330001   -3.5445655    1.1263804   439061 
 1098000   0.75040077    -3.543421    -3.543421   -2.4178224  0.034714598    -3.543421    1.1255986   439061 
 1099000   0.75157328   -3.5467534   -3.5467534    -2.419396  0.033352472   -3.5467534    1.1273573   439061 
 1100000   0.75151437   -3.5467891   -3.5467891   -2.4195201  0.035846129   -3.5467891     1.127269   439061 
 1101000   0.75051672    -3.545867    -3.545867   -2.4200945  0.038697523    -3.545867    1.1257725   439061 
 1102000   0.75180671   -3.5485748   -3.5485748   -2.4208673  0.035094888   -3.5485748    1.1277075   439061 
 1103000   0.75223675   -3.5492547   -3.5492547   -2.4209021  0.036762326   -3.5492547    1.1283526   439061 
 1104000   0.75287384   -3.5508475   -3.5508475   -2.4215393  0.036235376   -3.5508475    1.1293082   439061 
 1105000   0.75303134   -3.5517649   -3.5517649   -2.4222205   0.04029665   -3.5517649    1.1295444   439061 
 1106000   0.75271965   -3.5510618   -3.5510618   -2.4219849  0.041341674   -3.5510618    1.1290769   439061 
 1107000   0.75382029   -3.5532859   -3.5532859    -2.422558   0.04363812   -3.5532859    1.1307279   439061 
 1108000   0.75281837   -3.5522404   -3.5522404   -2.4230154  0.038143683   -3.5522404     1.129225   439061 
 1109000   0.75201547   -3.5541368   -3.5541368   -2.4261162  0.034559427   -3.5541368    1.1280206   439061 
 1110000    0.7512836   -3.5534678   -3.5534678   -2.4265449  0.033068014   -3.5534678    1.1269228   439061 
 1111000   0.75076212   -3.5519311   -3.5519311   -2.4257905  0.034149701   -3.5519311    1.1261406   439061 
 1112000   0.74939791    -3.551143    -3.551143   -2.4270487  0.031946571    -3.551143    1.1240943   439061 
 1113000   0.75085661   -3.5532405   -3.5532405   -2.4269581  0.033607001   -3.5532405    1.1262823   439061 
 1114000   0.75032297   -3.5529019   -3.5529019     -2.42742  0.034995896   -3.5529019    1.1254819   439061 
 1115000   0.75143132   -3.5551112   -3.5551112   -2.4279668  0.030565799   -3.5551112    1.1271444   439061 
 1116000   0.74912011   -3.5520263   -3.5520263   -2.4283487  0.039251589   -3.5520263    1.1236776   439061 
 1117000   0.75094913   -3.5560909   -3.5560909   -2.4296698  0.032697416   -3.5560909    1.1264211   439061 
 1118000   0.75055785   -3.5553741   -3.5553741   -2.4295399  0.034261248   -3.5553741    1.1258342   439061 
 1119000   0.75063192   -3.5565337   -3.5565337   -2.4305884  0.034477413   -3.5565337    1.1259453   439061 
 1120000   0.75165941   -3.5591807   -3.5591807   -2.4316942  0.032463105   -3.5591807    1.1274865   439061 
 1121000   0.75014703   -3.5572352   -3.5572352   -2.4320172  0.040321971   -3.5572352     1.125218   439061 
 1122000    0.7500506   -3.5575533   -3.5575533     -2.43248  0.036436464   -3.5575533    1.1250733   439061 
 1123000   0.75126224   -3.5593263   -3.5593263   -2.4324355  0.036408258   -3.5593263    1.1268908   439061 
 1124000   0.75147316   -3.5609237   -3.5609237   -2.4337165  0.035777601   -3.5609237    1.1272072   439061 
 1125000    0.7500561   -3.5587104   -3.5587104   -2.4336288  0.036761575   -3.5587104    1.1250816   439061 
 1126000    0.7505033   -3.5611505   -3.5611505   -2.4353981  0.037596892   -3.5611505    1.1257524   439061 
 1127000   0.75138451   -3.5630327   -3.5630327   -2.4359585  0.035909372   -3.5630327    1.1270742   439061 
 1128000   0.75136001   -3.5633208   -3.5633208   -2.4362834  0.039400392   -3.5633208    1.1270374   439061 
 1129000   0.75163821   -3.5627541   -3.5627541   -2.4352993  0.042458487   -3.5627541    1.1274547   439061 
 1130000   0.75207487   -3.5640197   -3.5640197     -2.43591  0.037655802   -3.5640197    1.1281097   439061 
 1131000   0.75176586   -3.5639274   -3.5639274   -2.4362812  0.036978205   -3.5639274    1.1276462   439061 
 1132000   0.75017518   -3.5618938   -3.5618938   -2.4366336  0.037038669   -3.5618938    1.1252602   439061 
 1133000   0.74993291   -3.5614413   -3.5614413   -2.4365445  0.034266079   -3.5614413    1.1248968   439061 
 1134000   0.75019449   -3.5616168   -3.5616168   -2.4363276  0.037066015   -3.5616168    1.1252892   439061 
 1135000   0.75026223   -3.5616138   -3.5616138    -2.436223  0.036186676   -3.5616138    1.1253908   439061 
 1136000   0.75028764   -3.5608928   -3.5608928   -2.4354639  0.034465081   -3.5608928    1.1254289   439061 
 1137000   0.74958537   -3.5602785   -3.5602785    -2.435903  0.034546664   -3.5602785    1.1243755   439061 
 1138000   0.74807696   -3.5592336   -3.5592336   -2.4371207   0.03470174   -3.5592336    1.1221129   439061 
 1139000   0.74867836   -3.5608571   -3.5608571   -2.4378421  0.030720108   -3.5608571     1.123015   439061 
 1140000   0.74899254   -3.5621347   -3.5621347   -2.4386485  0.028625459   -3.5621347    1.1234863   439061 
 1141000   0.74815226    -3.561845    -3.561845   -2.4396191  0.032243802    -3.561845    1.1222258   439061 
 1142000   0.74801407   -3.5619174   -3.5619174   -2.4398988  0.033235918   -3.5619174    1.1220186   439061 
 1143000   0.74957234   -3.5643329   -3.5643329   -2.4399769  0.032734721   -3.5643329     1.124356   439061 
 1144000   0.75047756   -3.5659425   -3.5659425   -2.4402287  0.030811651   -3.5659425    1.1257138   439061 
 1145000   0.74905537   -3.5644298   -3.5644298   -2.4408493  0.037771141   -3.5644298    1.1235805   439061 
 1146000   0.74986345   -3.5664427   -3.5664427   -2.4416501  0.035804299   -3.5664427    1.1247926   439061 
 1147000   0.75054187   -3.5679862   -3.5679862   -2.4421759  0.037484011   -3.5679862    1.1258102   439061 
 1148000   0.75160254   -3.5707245   -3.5707245   -2.4433233   0.03631534   -3.5707245    1.1274012   439061 
 1149000     0.751129   -3.5708232   -3.5708232   -2.4441323  0.037866946   -3.5708232    1.1266909   439061 
 1150000   0.74980289   -3.5689734   -3.5689734   -2.4442716  0.038385514   -3.5689734    1.1247018   439061 
 1151000   0.74927428   -3.5709407   -3.5709407   -2.4470319  0.036970086   -3.5709407    1.1239089   439061 
 1152000   0.74819933   -3.5717601   -3.5717601   -2.4494637  0.033476144   -3.5717601    1.1222964   439061 
 1153000   0.74900911   -3.5731704   -3.5731704   -2.4496593  0.030292746   -3.5731704    1.1235111   439061 
 1154000   0.74969081   -3.5729368   -3.5729368   -2.4484032  0.033845278   -3.5729368    1.1245337   439061 
 1155000   0.75003179   -3.5732877   -3.5732877   -2.4482426  0.034232272   -3.5732877    1.1250451   439061 
 1156000   0.74908927    -3.573117    -3.573117   -2.4494857  0.036374433    -3.573117    1.1236313   439061 
 1157000   0.74964676   -3.5741184   -3.5741184   -2.4496508  0.033267839   -3.5741184    1.1244676   439061 
 1158000   0.74900764   -3.5730791   -3.5730791   -2.4495702  0.040509328   -3.5730791    1.1235089   439061 
 1159000    0.7485237   -3.5733385   -3.5733385   -2.4505555  0.036260111   -3.5733385     1.122783   439061 
 1160000   0.74982353   -3.5745629   -3.5745629   -2.4498301  0.032584282   -3.5745629    1.1247327   439061 
 1161000   0.74830886   -3.5726983   -3.5726983   -2.4502375  0.033244318   -3.5726983    1.1224607   439061 
 1162000   0.74783179   -3.5726264   -3.5726264   -2.4508813   0.03611126   -3.5726264    1.1217451   439061 
 1163000   0.74832245   -3.5741032   -3.5741032   -2.4516221  0.030150977   -3.5741032    1.1224811   439061 
 1164000    0.7481352    -3.574498    -3.574498   -2.4522978  0.031273264    -3.574498    1.1222002   439061 
 1165000   0.74866612   -3.5754258   -3.5754258   -2.4524291  0.031771854   -3.5754258    1.1229966   439061 
 1166000   0.74697785   -3.5730717   -3.5730717   -2.4526075  0.029862214   -3.5730717    1.1204642   439061 
 1167000   0.74652848    -3.574006    -3.574006   -2.4542158   0.03155305    -3.574006    1.1197902   439061 
 1168000   0.74888395   -3.5763853   -3.5763853   -2.4530619  0.032165203   -3.5763853    1.1233234   439061 
 1169000    0.7484059   -3.5761615   -3.5761615   -2.4535552  0.038841904   -3.5761615    1.1226063   439061 
 1170000   0.74982536   -3.5787244   -3.5787244   -2.4539889  0.035604637   -3.5787244    1.1247355   439061 
 1171000   0.74829862   -3.5772598   -3.5772598   -2.4548145  0.040631681   -3.5772598    1.1224454   439061 
 1172000   0.74866518   -3.5783047   -3.5783047   -2.4553095  0.037600872   -3.5783047    1.1229952   439061 
 1173000   0.74863456   -3.5790367   -3.5790367   -2.4560874  0.034826364   -3.5790367    1.1229493   439061 
 1174000   0.74930191   -3.5801122   -3.5801122   -2.4561619  0.034212926   -3.5801122    1.1239503   439061 
 1175000   0.74712989   -3.5782758   -3.5782758   -2.4575836  0.038991764   -3.5782758    1.1206923   439061 
 1176000   0.74670375   -3.5779909   -3.5779909   -2.4579378  0.032675155   -3.5779909    1.1200531   439061 
 1177000   0.74801308   -3.5802444   -3.5802444   -2.4582274  0.031898747   -3.5802444    1.1220171   439061 
 1178000   0.74701556   -3.5800731   -3.5800731   -2.4595523    0.0303418   -3.5800731    1.1205208   439061 
 1179000   0.74774281   -3.5803289   -3.5803289   -2.4587173  0.032292408   -3.5803289    1.1216117   439061 
 1180000   0.74653732   -3.5791023   -3.5791023   -2.4592989  0.034100935   -3.5791023    1.1198034   439061 
 1181000   0.74610971   -3.5791812   -3.5791812   -2.4600191  0.032896396   -3.5791812     1.119162   439061 
 1182000   0.74713939   -3.5813448   -3.5813448   -2.4606382  0.033466029   -3.5813448    1.1207065   439061 
 1183000   0.74728309   -3.5815533   -3.5815533   -2.4606312  0.034302552   -3.5815533    1.1209221   439061 
 1184000   0.74696204    -3.580905    -3.580905   -2.4604645     0.031776    -3.580905    1.1204405   439061 
 1185000   0.74809785   -3.5827214   -3.5827214   -2.4605772   0.03046731   -3.5827214    1.1221442   439061 
 1186000   0.74634446   -3.5812323   -3.5812323   -2.4617181  0.032234796   -3.5812323    1.1195141   439061 
 1187000   0.74642901   -3.5824317   -3.5824317   -2.4627908  0.036262728   -3.5824317     1.119641   439061 
 1188000    0.7461487   -3.5821264   -3.5821264   -2.4629059  0.034895375   -3.5821264    1.1192205   439061 
 1189000   0.74660891   -3.5840324   -3.5840324   -2.4641216  0.034086528   -3.5840324    1.1199108   439061 
 1190000   0.74667772   -3.5845495   -3.5845495   -2.4645354  0.031458964   -3.5845495     1.120014   439061 
 1191000   0.74581857   -3.5832688   -3.5832688   -2.4645434  0.035879003   -3.5832688    1.1187253   439061 
 1192000    0.7455976    -3.584032    -3.584032   -2.4656382  0.036769922    -3.584032    1.1183939   439061 
 1193000   0.74607256   -3.5860196   -3.5860196   -2.4669133  0.032599589   -3.5860196    1.1191063   439061 
 1194000   0.74615258   -3.5861966   -3.5861966   -2.4669703  0.031801659   -3.5861966    1.1192263   439061 
 1195000   0.74641623   -3.5863796   -3.5863796   -2.4667578  0.032046943   -3.5863796    1.1196218   439061 
 1196000   0.74655186   -3.5871778   -3.5871778   -2.4673526  0.035357951   -3.5871778    1.1198252   439061 
 1197000   0.74678332   -3.5873519   -3.5873519   -2.4671795  0.031335056   -3.5873519    1.1201724   439061 
 1198000   0.74603254   -3.5878726   -3.5878726   -2.4688263  0.028043499   -3.5878726    1.1190463   439061 
 1199000   0.74557868   -3.5872567   -3.5872567   -2.4688913  0.033357342   -3.5872567    1.1183655   439061 
 1200000   0.74545219   -3.5870595   -3.5870595   -2.4688838  0.032270846   -3.5870595    1.1181757   439061 
 1201000    0.7457882   -3.5874419   -3.5874419   -2.4687621  0.036405496   -3.5874419    1.1186798   439061 
 1202000   0.74629097   -3.5892964   -3.5892964   -2.4698624  0.032838924   -3.5892964    1.1194339   439061 
 1203000    0.7463488   -3.5882904   -3.5882904   -2.4687697  0.037903506   -3.5882904    1.1195207   439061 
 1204000   0.74686159   -3.5899743   -3.5899743   -2.4696844  0.035564348   -3.5899743    1.1202898   439061 
 1205000   0.74684429   -3.5912185   -3.5912185   -2.4709546  0.029954214   -3.5912185    1.1202639   439061 
 1206000   0.74610024   -3.5906112   -3.5906112   -2.4714634  0.028982624   -3.5906112    1.1191478   439061 
 1207000   0.74538774   -3.5903148   -3.5903148   -2.4722358  0.033047139   -3.5903148    1.1180791   439061 
 1208000   0.74731853   -3.5941204   -3.5941204   -2.4731452  0.028648843   -3.5941204    1.1209752   439061 
 1209000   0.74591251   -3.5924273   -3.5924273   -2.4735611  0.034294443   -3.5924273    1.1188662   439061 
 1210000   0.74581248   -3.5923308   -3.5923308   -2.4736146  0.035047484   -3.5923308    1.1187162   439061 
 1211000   0.74561665   -3.5927556   -3.5927556   -2.4743332  0.033982442   -3.5927556    1.1184224   439061 
 1212000    0.7440581   -3.5914516   -3.5914516    -2.475367  0.036086344   -3.5914516    1.1160846   439061 
 1213000   0.74601833   -3.5938962   -3.5938962   -2.4748712   0.03389465   -3.5938962     1.119025   439061 
 1214000   0.74546989   -3.5934605   -3.5934605   -2.4752582  0.035917167   -3.5934605    1.1182023   439061 
 1215000   0.74660354   -3.5953897   -3.5953897    -2.475487  0.030321312   -3.5953897    1.1199028   439061 
 1216000   0.74604777    -3.595007    -3.595007   -2.4759379  0.036365695    -3.595007    1.1190691   439061 
 1217000   0.74509831   -3.5944432   -3.5944432   -2.4767983  0.035669022   -3.5944432    1.1176449   439061 
 1218000   0.74553822   -3.5952628   -3.5952628    -2.476958   0.03341997   -3.5952628    1.1183048   439061 
 1219000   0.74583509   -3.5953853   -3.5953853   -2.4766353  0.030384624   -3.5953853    1.1187501   439061 
 1220000   0.74608587   -3.5961071   -3.5961071   -2.4769809  0.033180233   -3.5961071    1.1191263   439061 
 1221000    0.7455518    -3.595437    -3.595437   -2.4771119  0.033483411    -3.595437    1.1183251   439061 
 1222000   0.74625498   -3.5969279   -3.5969279    -2.477548  0.033298088   -3.5969279    1.1193799   439061 
 1223000   0.74425877   -3.5943145   -3.5943145   -2.4779289   0.03322848   -3.5943145    1.1163856   439061 
 1224000   0.74516333   -3.5957646   -3.5957646   -2.4780222  0.034489187   -3.5957646    1.1177424   439061 
 1225000   0.74514075   -3.5974264   -3.5974264   -2.4797178   0.03254985   -3.5974264    1.1177086   439061 
 1226000   0.74449361   -3.5960205   -3.5960205   -2.4792826  0.029409578   -3.5960205    1.1167379   439061 
 1227000    0.7433378   -3.5950987   -3.5950987   -2.4800945  0.028648414   -3.5950987    1.1150042   439061 
 1228000   0.74450306    -3.596552    -3.596552   -2.4797999  0.031289053    -3.596552     1.116752   439061 
 1229000   0.74414757   -3.5971678   -3.5971678    -2.480949  0.028734925   -3.5971678    1.1162188   439061 
 1230000   0.74360055   -3.5980284   -3.5980284   -2.4826301  0.027981852   -3.5980284    1.1153983   439061 
 1231000    0.7434026   -3.5975964   -3.5975964    -2.482495  0.032979184   -3.5975964    1.1151014   439061 
 1232000    0.7449807   -3.5997117   -3.5997117   -2.4822432  0.030830529   -3.5997117    1.1174685   439061 
 1233000   0.74561489    -3.602389    -3.602389   -2.4839692  0.029262994    -3.602389    1.1184198   439061 
 1234000   0.74543159   -3.6021469   -3.6021469   -2.4840021  0.033433366   -3.6021469    1.1181448   439061 
 1235000    0.7450828   -3.6026084   -3.6026084   -2.4849868  0.034471473   -3.6026084    1.1176217   439061 
 1236000    0.7454071   -3.6020048   -3.6020048   -2.4838967  0.037490483   -3.6020048    1.1181081   439061 
 1237000   0.74548315   -3.6027354   -3.6027354   -2.4845133  0.036823107   -3.6027354    1.1182222   439061 
 1238000   0.74480092   -3.6032178   -3.6032178    -2.486019  0.033585558   -3.6032178    1.1171988   439061 
 1239000   0.74382208   -3.6024257   -3.6024257   -2.4866951  0.037771418   -3.6024257    1.1157306   439061 
 1240000   0.74390103     -3.60252     -3.60252    -2.486671  0.030311539     -3.60252     1.115849   439061 
 1241000    0.7428353   -3.6018215   -3.6018215   -2.4875711  0.036354719   -3.6018215    1.1142504   439061 
 1242000   0.74501892   -3.6051804   -3.6051804   -2.4876545  0.026919104   -3.6051804    1.1175258   439061 
 1243000   0.74380566   -3.6036847   -3.6036847   -2.4879787  0.033765442   -3.6036847     1.115706   439061 
 1244000    0.7444755    -3.604246    -3.604246   -2.4875353  0.036164809    -3.604246    1.1167107   439061 
 1245000   0.74388221   -3.6033649   -3.6033649   -2.4875442  0.032275079   -3.6033649    1.1158208   439061 
 1246000   0.74419226    -3.604237    -3.604237   -2.4879512    0.0343118    -3.604237    1.1162858   439061 
 1247000   0.74374423   -3.6035519   -3.6035519   -2.4879381  0.029655134   -3.6035519    1.1156138   439061 
 1248000   0.74391886   -3.6048691   -3.6048691   -2.4889933   0.03061829   -3.6048691    1.1158758   439061 
 1249000   0.74421051   -3.6055403   -3.6055403   -2.4892271  0.032290237   -3.6055403    1.1163132   439061 
 1250000    0.7435542   -3.6045797   -3.6045797   -2.4892509  0.036285186   -3.6045797    1.1153288   439061 
 1251000   0.74471783   -3.6067222   -3.6067222    -2.489648   0.03021834   -3.6067222    1.1170742   439061 
 1252000   0.74428204   -3.6067482   -3.6067482   -2.4903277  0.031167183   -3.6067482    1.1164205   439061 
 1253000   0.74262644   -3.6055804   -3.6055804   -2.4916433  0.025684284   -3.6055804    1.1139371   439061 
 1254000   0.74239237   -3.6055325   -3.6055325   -2.4919465  0.031233243   -3.6055325     1.113586   439061 
 1255000   0.74305441   -3.6068853   -3.6068853   -2.4923063  0.031282345   -3.6068853    1.1145791   439061 
 1256000   0.74210823   -3.6063869   -3.6063869   -2.4932271  0.029267816   -3.6063869    1.1131598   439061 
 1257000   0.74241108   -3.6073054   -3.6073054   -2.4936914  0.027252472   -3.6073054    1.1136141   439061 
 1258000   0.74228085   -3.6068883   -3.6068883   -2.4934695  0.031423214   -3.6068883    1.1134187   439061 
 1259000   0.74442281   -3.6098931   -3.6098931   -2.4932615  0.031486161   -3.6098931    1.1166317   439061 
 1260000   0.74365934   -3.6095891   -3.6095891   -2.4941026  0.032922372   -3.6095891    1.1154865   439061 
 1261000   0.74403825   -3.6106853   -3.6106853   -2.4946305  0.033099586   -3.6106853    1.1160548   439061 
 1262000   0.74437865    -3.611989    -3.611989   -2.4954236  0.034014795    -3.611989    1.1165654   439061 
 1263000   0.74407001    -3.612281    -3.612281   -2.4961785  0.034000241    -3.612281    1.1161025   439061 
 1264000    0.7440797   -3.6130336   -3.6130336   -2.4969166  0.031682248   -3.6130336     1.116117   439061 
 1265000   0.74295066   -3.6121581   -3.6121581   -2.4977346  0.035232824   -3.6121581    1.1144234   439061 
 1266000   0.74268085   -3.6127858   -3.6127858   -2.4987671  0.030721206   -3.6127858    1.1140187   439061 
 1267000   0.74370293   -3.6143638   -3.6143638    -2.498812  0.032736551   -3.6143638    1.1155519   439061 
 1268000   0.74270297   -3.6130134   -3.6130134   -2.4989615    0.0354109   -3.6130134    1.1140519   439061 
 1269000   0.74461464   -3.6162575   -3.6162575   -2.4993381   0.03313971   -3.6162575    1.1169194   439061 
 1270000   0.74323603   -3.6145054   -3.6145054   -2.4996539  0.035587741   -3.6145054    1.1148515   439061 
 1271000   0.74344629    -3.615086    -3.615086   -2.4999191  0.031832604    -3.615086    1.1151669   439061 
 1272000   0.74377469   -3.6152194   -3.6152194   -2.4995599  0.033941699   -3.6152194    1.1156595   439061 
 1273000   0.74364249   -3.6151877   -3.6151877   -2.4997265  0.031397207   -3.6151877    1.1154612   439061 
 1274000    0.7433878    -3.615935    -3.615935   -2.5008559   0.02969177    -3.615935    1.1150792   439061 
 1275000   0.74358043   -3.6162705   -3.6162705   -2.5009023  0.027387994   -3.6162705    1.1153681   439061 
 1276000   0.74274124   -3.6172126   -3.6172126   -2.5031032  0.022697806   -3.6172126    1.1141093   439061 
 1277000   0.74164669   -3.6153715   -3.6153715    -2.502904     0.030198   -3.6153715    1.1124675   439061 
 1278000   0.74224078   -3.6160398   -3.6160398   -2.5026811  0.027562618   -3.6160398    1.1133586   439061 
 1279000   0.74315324   -3.6168497   -3.6168497   -2.5021223  0.026103367   -3.6168497    1.1147273   439061 
 1280000   0.74137832   -3.6150589   -3.6150589    -2.502994  0.030496684   -3.6150589    1.1120649   439061 
 1281000   0.74198989   -3.6162334   -3.6162334   -2.5032511  0.033074486   -3.6162334    1.1129823   439061 
 1282000   0.74246554   -3.6173096   -3.6173096   -2.5036139  0.030357789   -3.6173096    1.1136958   439061 
 1283000   0.74320069   -3.6180153   -3.6180153   -2.5032168  0.029364529   -3.6180153    1.1147985   439061 
 1284000   0.74304992   -3.6183161   -3.6183161   -2.5037437  0.030113714   -3.6183161    1.1145723   439061 
 1285000   0.74313555   -3.6189952   -3.6189952   -2.5042944  0.032904903   -3.6189952    1.1147008   439061 
 1286000   0.74182676   -3.6181166   -3.6181166    -2.505379   0.03180032   -3.6181166    1.1127376   439061 
 1287000   0.74232549   -3.6200407   -3.6200407    -2.506555  0.028559691   -3.6200407    1.1134857   439061 
 1288000   0.74144571   -3.6191476   -3.6191476   -2.5069815  0.031925645   -3.6191476     1.112166   439061 
 1289000   0.74119623   -3.6191745   -3.6191745   -2.5073827  0.028729559   -3.6191745    1.1117918   439061 
 1290000   0.74099666   -3.6195799   -3.6195799   -2.5080874  0.029513809   -3.6195799    1.1114925   439061 
 1291000   0.74187241   -3.6212004   -3.6212004   -2.5083943  0.030707852   -3.6212004    1.1128061   439061 
 1292000   0.74262377   -3.6211531   -3.6211531     -2.50722  0.027733641   -3.6211531    1.1139331   439061 
 1293000   0.74248164   -3.6205826   -3.6205826   -2.5068627  0.030788954   -3.6205826    1.1137199   439061 
 1294000   0.74320453   -3.6228059   -3.6228059   -2.5080016  0.029582907   -3.6228059    1.1148043   439061 
 1295000   0.74213008   -3.6213143   -3.6213143   -2.5081217  0.031370176   -3.6213143    1.1131926   439061 
 1296000   0.74166898   -3.6212684   -3.6212684   -2.5087675   0.03048916   -3.6212684    1.1125009   439061 
 1297000   0.74103647   -3.6214061   -3.6214061    -2.509854  0.027648859   -3.6214061    1.1115522   439061 
 1298000   0.74067608   -3.6221667   -3.6221667   -2.5111551  0.026557645   -3.6221667    1.1110116   439061 
 1299000   0.74055438   -3.6227099   -3.6227099   -2.5118809  0.030710753   -3.6227099     1.110829   439061 
 1300000   0.74179146   -3.6227219   -3.6227219   -2.5100373  0.029181149   -3.6227219    1.1126846   439061 
 1301000   0.74136679   -3.6235435   -3.6235435   -2.5114958  0.031885222   -3.6235435    1.1120477   439061 
 1302000   0.74158904   -3.6244709   -3.6244709   -2.5120899   0.02984305   -3.6244709     1.112381   439061 
 1303000   0.74233974   -3.6263765   -3.6263765   -2.5128694  0.030999796   -3.6263765    1.1135071   439061 
 1304000   0.74140689   -3.6260351   -3.6260351   -2.5139273  0.030234815   -3.6260351    1.1121078   439061 
 1305000   0.74223571   -3.6272582   -3.6272582   -2.5139072  0.027151019   -3.6272582     1.113351   439061 
 1306000   0.73996196   -3.6240087   -3.6240087   -2.5140683  0.034350031   -3.6240087    1.1099404   439061 
 1307000   0.74136952   -3.6268214   -3.6268214   -2.5147696  0.030363854   -3.6268214    1.1120518   439061 
 1308000   0.74109663   -3.6279635   -3.6279635   -2.5163211  0.030633431   -3.6279635    1.1116424   439061 
 1309000   0.74069978   -3.6280846   -3.6280846   -2.5170374  0.030113073   -3.6280846    1.1110471   439061 
 1310000   0.74119187   -3.6283715   -3.6283715   -2.5165862  0.030352458   -3.6283715    1.1117853   439061 
 1311000   0.74104421   -3.6288613   -3.6288613   -2.5172975  0.032704168   -3.6288613    1.1115638   439061 
 1312000    0.7408599   -3.6293847   -3.6293847   -2.5180974   0.03173264   -3.6293847    1.1112873   439061 
 1313000   0.74151981   -3.6304466   -3.6304466   -2.5181694  0.032990714   -3.6304466    1.1122772   439061 
 1314000   0.74132382   -3.6305198   -3.6305198   -2.5185366  0.029054081   -3.6305198    1.1119832   439061 
 1315000   0.74138028   -3.6316455   -3.6316455   -2.5195776  0.027122695   -3.6316455    1.1120679   439061 
 1316000    0.7400397   -3.6305224   -3.6305224   -2.5204653   0.02764902   -3.6305224     1.110057   439061 
 1317000   0.74058759   -3.6304517   -3.6304517   -2.5195728  0.031095699   -3.6304517    1.1108789   439061 
 1318000   0.74078247   -3.6312569   -3.6312569   -2.5200858  0.030742928   -3.6312569    1.1111712   439061 
 1319000   0.73990103   -3.6300773   -3.6300773   -2.5202283  0.033773894   -3.6300773     1.109849   439061 
 1320000    0.7411869   -3.6324418   -3.6324418    -2.520664  0.027764554   -3.6324418    1.1117778   439061 
 1321000   0.73983671   -3.6308329   -3.6308329   -2.5210803  0.029067844   -3.6308329    1.1097525   439061 
 1322000   0.74034039   -3.6320874   -3.6320874   -2.5215794  0.029220246   -3.6320874    1.1105081   439061 
 1323000    0.7392776   -3.6309369   -3.6309369    -2.522023  0.029068532   -3.6309369    1.1089139   439061 
 1324000   0.73912019   -3.6315372   -3.6315372   -2.5228594  0.024305214   -3.6315372    1.1086778   439061 
 1325000   0.73864568   -3.6313005   -3.6313005   -2.5233345  0.026350905   -3.6313005     1.107966   439061 
 1326000   0.73980947   -3.6323506   -3.6323506   -2.5226389   0.02561817   -3.6323506    1.1097117   439061 
 1327000   0.74000889   -3.6324661   -3.6324661   -2.5224553  0.026136075   -3.6324661    1.1100108   439061 
 1328000   0.73912138   -3.6326705   -3.6326705    -2.523991  0.029491065   -3.6326705    1.1086795   439061 
 1329000   0.73922345   -3.6334026   -3.6334026     -2.52457   0.03005385   -3.6334026    1.1088327   439061 
 1330000   0.73968265   -3.6341328   -3.6341328   -2.5246114  0.034048856   -3.6341328    1.1095215   439061 
 1331000   0.74106995   -3.6351374   -3.6351374    -2.523535  0.029627299   -3.6351374    1.1116024   439061 
 1332000   0.74072699   -3.6360793   -3.6360793   -2.5249914  0.034715395   -3.6360793    1.1110879   439061 
 1333000   0.73987353   -3.6358227   -3.6358227    -2.526015  0.035898892   -3.6358227    1.1098078   439061 
 1334000   0.73885937   -3.6347275   -3.6347275    -2.526441  0.035290955   -3.6347275    1.1082865   439061 
 1335000   0.73943634   -3.6351153   -3.6351153   -2.5259633  0.032882575   -3.6351153     1.109152   439061 
 1336000   0.73991981   -3.6360833   -3.6360833   -2.5262061   0.03408586   -3.6360833    1.1098772   439061 
 1337000   0.73893493   -3.6356285   -3.6356285   -2.5272287   0.03466218   -3.6356285    1.1083999   439061 
 1338000   0.73850799   -3.6364494   -3.6364494     -2.52869  0.028297926   -3.6364494    1.1077595   439061 
 1339000   0.73819639   -3.6372337   -3.6372337   -2.5299417  0.026704184   -3.6372337    1.1072921   439061 
 1340000   0.73871121   -3.6368314   -3.6368314   -2.5287671  0.028780861   -3.6368314    1.1080643   439061 
 1341000   0.73831678   -3.6360395   -3.6360395   -2.5285668  0.029596578   -3.6360395    1.1074726   439061 
 1342000   0.73949409   -3.6373365   -3.6373365   -2.5280979  0.032956701   -3.6373365    1.1092386   439061 
 1343000   0.74123336   -3.6405068   -3.6405068   -2.5286593  0.028201701   -3.6405068    1.1118475   439061 
 1344000   0.73963212    -3.638503    -3.638503   -2.5290574  0.028331857    -3.638503    1.1094457   439061 
 1345000   0.73941934   -3.6387803   -3.6387803   -2.5296538  0.028047534   -3.6387803    1.1091265   439061 
 1346000   0.73740278   -3.6370272   -3.6370272   -2.5309256  0.030719712   -3.6370272    1.1061016   439061 
 1347000   0.73807858   -3.6382315   -3.6382315   -2.5311162  0.029256019   -3.6382315    1.1071153   439061 
 1348000   0.73849955    -3.639323    -3.639323   -2.5315762  0.029651011    -3.639323    1.1077468   439061 
 1349000   0.73847707   -3.6399948   -3.6399948   -2.5322817  0.028074451   -3.6399948    1.1077131   439061 
 1350000   0.73951722   -3.6410213   -3.6410213    -2.531748  0.028351664   -3.6410213    1.1092733   439061 
 1351000   0.73997172   -3.6419298   -3.6419298   -2.5319747  0.025947598   -3.6419298    1.1099551   439061 
 1352000   0.73892566   -3.6409259   -3.6409259   -2.5325399  0.030522902   -3.6409259     1.108386   439061 
 1353000   0.73885269   -3.6409272   -3.6409272   -2.5326507  0.034778131   -3.6409272    1.1082765   439061 
 1354000   0.73929846   -3.6426818   -3.6426818   -2.5337367  0.033823684   -3.6426818    1.1089452   439061 
 1355000    0.7383497   -3.6424623   -3.6424623   -2.5349403  0.032732585   -3.6424623     1.107522   439061 
 1356000   0.73762358   -3.6421887   -3.6421887   -2.5357559  0.028739603   -3.6421887    1.1064329   439061 
 1357000   0.73901025   -3.6439559   -3.6439559    -2.535443  0.024529592   -3.6439559    1.1085128   439061 
 1358000   0.73767322   -3.6427729   -3.6427729   -2.5362656  0.026964105   -3.6427729    1.1065073   439061 
 1359000   0.73758075   -3.6429974   -3.6429974   -2.5366288  0.025677285   -3.6429974    1.1063686   439061 
 1360000   0.73825978   -3.6435547   -3.6435547   -2.5361676  0.028974579   -3.6435547    1.1073871   439061 
 1361000   0.73824678   -3.6435259   -3.6435259   -2.5361583  0.029523742   -3.6435259    1.1073676   439061 
 1362000   0.73820261   -3.6440074   -3.6440074    -2.536706  0.025403598   -3.6440074    1.1073014   439061 
 1363000   0.73807875   -3.6436509   -3.6436509   -2.5365353  0.029386282   -3.6436509    1.1071156   439061 
 1364000   0.73848376   -3.6447274   -3.6447274   -2.5370043  0.030297642   -3.6447274    1.1077231   439061 
 1365000   0.73731913   -3.6451496   -3.6451496   -2.5391734  0.029364385   -3.6451496    1.1059762   439061 
 1366000   0.73737431   -3.6466355   -3.6466355   -2.5405765   0.03017612   -3.6466355    1.1060589   439061 
 1367000   0.73673772   -3.6454083   -3.6454083   -2.5403042  0.032418378   -3.6454083    1.1051041   439061 
 1368000   0.73816881    -3.647879    -3.647879   -2.5406283  0.027724525    -3.647879    1.1072507   439061 
 1369000   0.73765297   -3.6469391   -3.6469391   -2.5404621  0.031615046   -3.6469391    1.1064769   439061 
 1370000   0.73743911   -3.6479279   -3.6479279   -2.5417718  0.028767941   -3.6479279    1.1061561   439061 
 1371000   0.73703989   -3.6491257   -3.6491257   -2.5435684  0.031668818   -3.6491257    1.1055573   439061 
 1372000   0.73919097   -3.6516028   -3.6516028   -2.5428189  0.027596287   -3.6516028    1.1087839   439061 
 1373000   0.73898312   -3.6517888   -3.6517888   -2.5433166  0.028488067   -3.6517888    1.1084722   439061 
 1374000   0.73799255   -3.6515449   -3.6515449   -2.5445586  0.030245214   -3.6515449    1.1069863   439061 
 1375000     0.737278   -3.6501039   -3.6501039   -2.5441894  0.033791538   -3.6501039    1.1059145   439061 
 1376000   0.73640282   -3.6506291   -3.6506291   -2.5460274  0.030682065   -3.6506291    1.1046017   439061 
 1377000   0.73778947   -3.6522333   -3.6522333   -2.5455516  0.032130407   -3.6522333    1.1066817   439061 
 1378000    0.7375413   -3.6519218   -3.6519218   -2.5456124    0.0319965   -3.6519218    1.1063094   439061 
 1379000   0.73760786   -3.6529999   -3.6529999   -2.5465906  0.029664224   -3.6529999    1.1064093   439061 
 1380000   0.73730108   -3.6523722   -3.6523722   -2.5464231  0.030622505   -3.6523722    1.1059491   439061 
 1381000   0.73741141    -3.652869    -3.652869   -2.5467544  0.031961645    -3.652869    1.1061146   439061 
 1382000   0.73799495    -3.653632    -3.653632   -2.5466421  0.022939766    -3.653632    1.1069899   439061 
 1383000   0.73721667   -3.6531094   -3.6531094   -2.5472869  0.020591835   -3.6531094    1.1058225   439061 
 1384000   0.73627998   -3.6523635   -3.6523635    -2.547946  0.027657162   -3.6523635    1.1044175   439061 
 1385000   0.73734626   -3.6531181   -3.6531181   -2.5471013  0.030348378   -3.6531181    1.1060169   439061 
 1386000   0.73774281   -3.6538924   -3.6538924   -2.5472807  0.021336596   -3.6538924    1.1066117   439061 
 1387000    0.7363067   -3.6531346   -3.6531346    -2.548677  0.024249741   -3.6531346    1.1044575   439061 
 1388000   0.73637538   -3.6527871   -3.6527871   -2.5482266   0.02544759   -3.6527871    1.1045606   439061 
 1389000   0.73678197   -3.6537301   -3.6537301   -2.5485596  0.028662461   -3.6537301    1.1051704   439061 
 1390000   0.73656347   -3.6546041   -3.6546041   -2.5497614  0.030302376   -3.6546041    1.1048427   439061 
 1391000   0.73681122    -3.654569    -3.654569   -2.5493547  0.029604894    -3.654569    1.1052143   439061 
 1392000   0.73703199   -3.6550236   -3.6550236   -2.5494782  0.026539729   -3.6550236    1.1055455   439061 
 1393000   0.73726168    -3.655687    -3.655687    -2.549797  0.029310905    -3.655687      1.10589   439061 
 1394000   0.73692651   -3.6561923   -3.6561923    -2.550805  0.029026009   -3.6561923    1.1053872   439061 
 1395000   0.73725127   -3.6574798   -3.6574798   -2.5516054  0.026346792   -3.6574798    1.1058744   439061 
 1396000   0.73797828   -3.6587937   -3.6587937   -2.5518289  0.021597694   -3.6587937    1.1069649   439061 
 1397000   0.73672945   -3.6584276   -3.6584276    -2.553336  0.026234742   -3.6584276    1.1050917   439061 
 1398000   0.73675839    -3.658061    -3.658061   -2.5529259  0.028981435    -3.658061    1.1051351   439061 
 1399000   0.73669948   -3.6594104   -3.6594104   -2.5543637  0.029123202   -3.6594104    1.1050467   439061 
 1400000   0.73683705   -3.6593444   -3.6593444   -2.5540913   0.03123996   -3.6593444    1.1052531   439061 
 1401000   0.73558179   -3.6587495   -3.6587495   -2.5553793   0.02463786   -3.6587495    1.1033702   439061 
 1402000   0.73588213   -3.6591471   -3.6591471   -2.5553264  0.027667635   -3.6591471    1.1038207   439061 
 1403000   0.73651841   -3.6592256   -3.6592256   -2.5544505  0.024162463   -3.6592256    1.1047751   439061 
 1404000   0.73581754   -3.6591142   -3.6591142   -2.5553904  0.027255646   -3.6591142    1.1037238   439061 
 1405000   0.73493996   -3.6582812   -3.6582812   -2.5558738  0.030721701   -3.6582812    1.1024074   439061 
 1406000   0.73553484   -3.6594142   -3.6594142   -2.5561144  0.031884186   -3.6594142    1.1032997   439061 
 1407000   0.73508041    -3.659336    -3.659336   -2.5567179  0.028628162    -3.659336    1.1026181   439061 
 1408000   0.73672361   -3.6614094   -3.6614094   -2.5563265  0.029364317   -3.6614094    1.1050829   439061 
 1409000   0.73528182   -3.6609033   -3.6609033   -2.5579831  0.025280741   -3.6609033    1.1029202   439061 
 1410000   0.73482233   -3.6599929   -3.6599929   -2.5577619  0.030155703   -3.6599929     1.102231   439061 
 1411000   0.73561426   -3.6618377   -3.6618377   -2.5584188  0.026127129   -3.6618377    1.1034189   439061 
 1412000   0.73551983    -3.662652    -3.662652   -2.5593747  0.030653812    -3.662652    1.1032772   439061 
 1413000   0.73531946   -3.6620061   -3.6620061   -2.5590294  0.029725316   -3.6620061    1.1029767   439061 
 1414000   0.73585083    -3.663277    -3.663277   -2.5595033  0.028279328    -3.663277    1.1037737   439061 
 1415000   0.73614123   -3.6637206   -3.6637206   -2.5595113  0.030257529   -3.6637206    1.1042093   439061 
 1416000   0.73611115   -3.6642707   -3.6642707   -2.5601064  0.029139226   -3.6642707    1.1041642   439061 
 1417000   0.73516077    -3.664579    -3.664579   -2.5618403  0.030015946    -3.664579    1.1027386   439061 
 1418000   0.73651899   -3.6660465   -3.6660465   -2.5612705  0.023446478   -3.6660465     1.104776   439061 
 1419000   0.73634848   -3.6662305   -3.6662305   -2.5617103  0.024718676   -3.6662305    1.1045202   439061 
 1420000   0.73482867   -3.6644885   -3.6644885    -2.562248  0.032409717   -3.6644885    1.1022405   439061 
 1421000   0.73455028   -3.6640676   -3.6640676   -2.5622447  0.028875494   -3.6640676    1.1018229   439061 
 1422000   0.73679111   -3.6664069   -3.6664069   -2.5612228  0.027690825   -3.6664069    1.1051841   439061 
 1423000   0.73559161   -3.6648031   -3.6648031   -2.5614182  0.030124181   -3.6648031    1.1033849   439061 
 1424000   0.73560579   -3.6649031   -3.6649031   -2.5614969  0.027841932   -3.6649031    1.1034062   439061 
 1425000   0.73557176   -3.6642812   -3.6642812   -2.5609261  0.028432007   -3.6642812    1.1033551   439061 
 1426000   0.73389369   -3.6637558   -3.6637558   -2.5629178  0.028443501   -3.6637558     1.100838   439061 
 1427000   0.73534744   -3.6662483   -3.6662483   -2.5632297  0.022351491   -3.6662483    1.1030187   439061 
 1428000   0.73482146     -3.66552     -3.66552   -2.5632904   0.02161532     -3.66552    1.1022297   439061 
 1429000   0.73417887   -3.6648552   -3.6648552   -2.5635895   0.02584944   -3.6648552    1.1012658   439061 
 1430000   0.73535106   -3.6665702   -3.6665702   -2.5635461  0.023031184   -3.6665702    1.1030241   439061 
 1431000   0.73453362   -3.6658467   -3.6658467   -2.5640488  0.025267053   -3.6658467    1.1017979   439061 
 1432000    0.7353022   -3.6668674   -3.6668674   -2.5639166  0.022882666   -3.6668674    1.1029508   439061 
 1433000   0.73409451   -3.6666494   -3.6666494   -2.5655102  0.024486033   -3.6666494    1.1011393   439061 
 1434000   0.73426073   -3.6676116   -3.6676116    -2.566223  0.032236966   -3.6676116    1.1013886   439061 
 1435000    0.7341424   -3.6685605   -3.6685605   -2.5673495  0.027138461   -3.6685605    1.1012111   439061 
 1436000    0.7335083   -3.6675834   -3.6675834   -2.5673234  0.027838374   -3.6675834    1.1002599   439061 
 1437000   0.73441566   -3.6693128   -3.6693128   -2.5676918  0.028703762   -3.6693128     1.101621   439061 
 1438000   0.73474406   -3.6710198   -3.6710198   -2.5689062  0.022505211   -3.6710198    1.1021136   439061 
 1439000   0.73449203   -3.6718868   -3.6718868   -2.5701513  0.027009763   -3.6718868    1.1017355   439061 
 1440000   0.73459614   -3.6716253   -3.6716253   -2.5697336  0.030687169   -3.6716253    1.1018917   439061 
 1441000   0.73539138   -3.6728765   -3.6728765    -2.569792  0.031473577   -3.6728765    1.1030846   439061 
 1442000   0.73482785   -3.6732778   -3.6732778   -2.5710385  0.028365901   -3.6732778    1.1022393   439061 
 1443000   0.73382826    -3.670975    -3.670975   -2.5702351  0.033190825    -3.670975    1.1007399   439061 
 1444000    0.7337487   -3.6723042   -3.6723042   -2.5716836  0.027034203   -3.6723042    1.1006205   439061 
 1445000   0.73405914   -3.6729961   -3.6729961   -2.5719099  0.025050122   -3.6729961    1.1010862   439061 
 1446000   0.73507661   -3.6757394   -3.6757394    -2.573127  0.024478935   -3.6757394    1.1026124   439061 
 1447000   0.73441642   -3.6747658   -3.6747658   -2.5731437  0.029683901   -3.6747658    1.1016221   439061 
 1448000   0.73537532   -3.6761004   -3.6761004     -2.57304  0.025308443   -3.6761004    1.1030605   439061 
 1449000   0.73480712   -3.6751968   -3.6751968   -2.5729887  0.025683681   -3.6751968    1.1022082   439061 
 1450000    0.7344178   -3.6754627   -3.6754627   -2.5738385  0.026324076   -3.6754627    1.1016242   439061 
 1451000   0.73334662    -3.674078    -3.674078   -2.5740606  0.024930916    -3.674078    1.1000174   439061 
 1452000   0.73432899   -3.6758674   -3.6758674   -2.5743764  0.024135625   -3.6758674     1.101491   439061 
 1453000   0.73380993   -3.6753236   -3.6753236   -2.5746112  0.023147212   -3.6753236    1.1007124   439061 
 1454000   0.73299247   -3.6749974   -3.6749974   -2.5755112  0.024312673   -3.6749974    1.0994862   439061 
 1455000   0.73316987   -3.6748007   -3.6748007   -2.5750484  0.024197712   -3.6748007    1.0997523   439061 
 1456000   0.73283271   -3.6737748   -3.6737748   -2.5745282  0.029166293   -3.6737748    1.0992466   439061 
 1457000   0.73394323   -3.6753195   -3.6753195   -2.5744071  0.023872904   -3.6753195    1.1009123   439061 
 1458000   0.73302264   -3.6753515   -3.6753515     -2.57582  0.022870671   -3.6753515    1.0995315   439061 
 1459000   0.73408023   -3.6754763   -3.6754763   -2.5743585  0.024440181   -3.6754763    1.1011178   439061 
 1460000   0.73328846   -3.6752707   -3.6752707   -2.5753405   0.02654935   -3.6752707    1.0999302   439061 
 1461000   0.73299724   -3.6757897   -3.6757897   -2.5762963  0.025048928   -3.6757897    1.0994934   439061 
 1462000   0.73403991   -3.6776493   -3.6776493   -2.5765919  0.022493153   -3.6776493    1.1010574   439061 
 1463000   0.73314465   -3.6767428   -3.6767428   -2.5770283  0.022936242   -3.6767428    1.0997145   439061 
 1464000   0.73406619   -3.6787423   -3.6787423   -2.5776455   0.02402673   -3.6787423    1.1010968   439061 
 1465000   0.73294019   -3.6779362   -3.6779362   -2.5785284  0.027111157   -3.6779362    1.0994078   439061 
 1466000    0.7331669   -3.6775669   -3.6775669    -2.577819   0.02808143   -3.6775669    1.0997478   439061 
 1467000   0.73346051   -3.6793303   -3.6793303    -2.579142  0.025432037   -3.6793303    1.1001883   439061 
 1468000   0.73396012   -3.6801503   -3.6801503   -2.5792127  0.025438015   -3.6801503    1.1009377   439061 
 1469000   0.73365369   -3.6817025   -3.6817025   -2.5812245  0.024950738   -3.6817025     1.100478   439061 
 1470000   0.73422472    -3.682436    -3.682436   -2.5811014  0.025846532    -3.682436    1.1013346   439061 
 1471000   0.73387281   -3.6804077   -3.6804077    -2.579601    0.0310304   -3.6804077    1.1008067   439061 
 1472000   0.73353248   -3.6819224   -3.6819224   -2.5816262   0.02550356   -3.6819224    1.1002962   439061 
 1473000   0.73235043   -3.6803083   -3.6803083   -2.5817852  0.027751949   -3.6803083    1.0985231   439061 
 1474000   0.73252855   -3.6809184   -3.6809184   -2.5821281  0.029189452   -3.6809184    1.0987903   439061 
 1475000   0.73343946   -3.6819374   -3.6819374   -2.5817808  0.027643715   -3.6819374    1.1001567   439061 
 1476000   0.73329124   -3.6818421   -3.6818421   -2.5819078  0.029003456   -3.6818421    1.0999343   439061 
 1477000    0.7331933   -3.6812722   -3.6812722   -2.5814848  0.029030084   -3.6812722    1.0997875   439061 
 1478000   0.73259651   -3.6807969   -3.6807969   -2.5819046  0.022931324   -3.6807969    1.0988923   439061 
 1479000   0.73250439   -3.6805383   -3.6805383   -2.5817842  0.023692514   -3.6805383    1.0987541   439061 
 1480000   0.73202883   -3.6809543   -3.6809543   -2.5829136  0.020770404   -3.6809543    1.0980407   439061 
 1481000   0.73237959   -3.6817299   -3.6817299   -2.5831631  0.019307326   -3.6817299    1.0985669   439061 
 1482000   0.73255022     -3.68287     -3.68287   -2.5840472  0.019808882     -3.68287    1.0988228   439061 
 1483000   0.73213294    -3.680729    -3.680729   -2.5825321  0.018020448    -3.680729    1.0981969   439061 
 1484000   0.73198761   -3.6806063   -3.6806063   -2.5826274  0.022866641   -3.6806063    1.0979789   439061 
 1485000   0.73157656   -3.6804523   -3.6804523     -2.58309  0.024180829   -3.6804523    1.0973623   439061 
 1486000   0.73269766   -3.6825795   -3.6825795   -2.5835355  0.027262519   -3.6825795     1.099044   439061 
 1487000   0.73362428   -3.6839928   -3.6839928   -2.5835589  0.025337296   -3.6839928    1.1004339   439061 
 1488000   0.73307587   -3.6836775   -3.6836775   -2.5840662  0.025432354   -3.6836775    1.0996113   439061 
 1489000   0.73262303   -3.6838308   -3.6838308   -2.5848987  0.024485079   -3.6838308     1.098932   439061 
 1490000   0.73317298    -3.684822    -3.684822    -2.585065  0.027339118    -3.684822     1.099757   439061 
 1491000   0.73329322   -3.6856814   -3.6856814    -2.585744  0.028622653   -3.6856814    1.0999373   439061 
 1492000   0.73257103   -3.6846561   -3.6846561    -2.585802  0.027145645   -3.6846561     1.098854   439061 
 1493000   0.73314148   -3.6864476   -3.6864476   -2.5867379  0.028848808   -3.6864476    1.0997097   439061 
 1494000   0.73327979   -3.6875998   -3.6875998   -2.5876826  0.028726503   -3.6875998    1.0999172   439061 
 1495000     0.731821    -3.685356    -3.685356    -2.587627  0.029273448    -3.685356     1.097729   439061 
 1496000   0.73270929   -3.6859991   -3.6859991   -2.5869377  0.028466302   -3.6859991    1.0990614   439061 
 1497000    0.7336264   -3.6881911   -3.6881911    -2.587754  0.024232228   -3.6881911    1.1004371   439061 
 1498000   0.73189699   -3.6857513   -3.6857513   -2.5879083  0.023490065   -3.6857513     1.097843   439061 
 1499000   0.73165156   -3.6860236   -3.6860236   -2.5885487  0.025085342   -3.6860236    1.0974748   439061 
 1500000   0.73188531   -3.6875308   -3.6875308   -2.5897053  0.025423171   -3.6875308    1.0978255   439061 
 1501000   0.73190142   -3.6863318   -3.6863318   -2.5884821  0.023467918   -3.6863318    1.0978496   439061 
 1502000   0.73167719   -3.6866719   -3.6866719   -2.5891586  0.020016622   -3.6866719    1.0975133   439061 
 1503000   0.73039659   -3.6844534   -3.6844534    -2.588861  0.025318626   -3.6844534    1.0955924   439061 
 1504000   0.73158323   -3.6871994   -3.6871994    -2.589827  0.016861636   -3.6871994    1.0973723   439061 
 1505000   0.73132861   -3.6875214   -3.6875214    -2.590531  0.024405114   -3.6875214    1.0969904   439061 
 1506000   0.73138465   -3.6880961   -3.6880961   -2.5910216  0.023600186   -3.6880961    1.0970745   439061 
 1507000   0.73088952   -3.6878656   -3.6878656   -2.5915338  0.022732656   -3.6878656    1.0963318   439061 
 1508000   0.73193828   -3.6885771   -3.6885771   -2.5906722   0.02372027   -3.6885771    1.0979049   439061 
 1509000   0.73129838   -3.6888886   -3.6888886   -2.5919436  0.025845393   -3.6888886    1.0969451   439061 
 1510000   0.73116764   -3.6895788   -3.6895788   -2.5928299  0.024722157   -3.6895788     1.096749   439061 
 1511000   0.73228555   -3.6907185   -3.6907185   -2.5922927  0.029937178   -3.6907185    1.0984258   439061 
 1512000   0.73255261   -3.6916065   -3.6916065   -2.5927801  0.028571456   -3.6916065    1.0988264   439061 
 1513000    0.7315981   -3.6897167   -3.6897167   -2.5923221   0.03330868   -3.6897167    1.0973946   439061 
 1514000   0.73174379   -3.6910096   -3.6910096   -2.5933964  0.027761975   -3.6910096    1.0976132   439061 
 1515000   0.73008111   -3.6881528   -3.6881528   -2.5930336  0.029120696   -3.6881528    1.0951192   439061 
 1516000   0.73100534    -3.691115    -3.691115   -2.5946095  0.026385071    -3.691115    1.0965055   439061 
 1517000   0.73061727   -3.6904994   -3.6904994    -2.594576  0.026180982   -3.6904994    1.0959234   439061 
 1518000   0.73105075   -3.6920312   -3.6920312   -2.5954575   0.02540548   -3.6920312    1.0965736   439061 
 1519000   0.73030822   -3.6916051   -3.6916051   -2.5961453  0.022990605   -3.6916051    1.0954598   439061 
 1520000   0.73145841   -3.6927461   -3.6927461    -2.595561  0.021014595   -3.6927461    1.0971851   439061 
 1521000    0.7314612   -3.6926822   -3.6926822   -2.5954929  0.021932945   -3.6926822    1.0971893   439061 
 1522000   0.72973634   -3.6914574   -3.6914574   -2.5968554   0.02582632   -3.6914574     1.094602   439061 
 1523000   0.73044311   -3.6932181   -3.6932181   -2.5975559  0.023914796   -3.6932181    1.0956622   439061 
 1524000   0.73028177   -3.6925103   -3.6925103   -2.5970902  0.025776485   -3.6925103    1.0954202   439061 
 1525000   0.73142492   -3.6951224   -3.6951224   -2.5979875  0.024490293   -3.6951224    1.0971349   439061 
 1526000   0.73093374   -3.6941487   -3.6941487   -2.5977506  0.026223523   -3.6941487    1.0963981   439061 
 1527000    0.7309366   -3.6951861   -3.6951861   -2.5987837  0.026658219   -3.6951861    1.0964024   439061 
 1528000   0.73048255   -3.6945577   -3.6945577   -2.5988364    0.0278415   -3.6945577    1.0957213   439061 
 1529000   0.73099536   -3.6952343   -3.6952343   -2.5987438  0.029384749   -3.6952343    1.0964905   439061 
 1530000   0.73066683    -3.695833    -3.695833   -2.5998352  0.023511068    -3.695833    1.0959977   439061 
 1531000   0.73201434   -3.6974223   -3.6974223   -2.5994033  0.022786121   -3.6974223     1.098019   439061 
 1532000   0.73118281   -3.6962925   -3.6962925   -2.5995208  0.026930932   -3.6962925    1.0967717   439061 
 1533000   0.72986159   -3.6950077   -3.6950077   -2.6002178  0.028084334   -3.6950077    1.0947899   439061 
 1534000   0.72998842   -3.6949984   -3.6949984   -2.6000182  0.024272269   -3.6949984    1.0949801   439061 
 1535000   0.72894207   -3.6947013   -3.6947013   -2.6012907   0.02563659   -3.6947013    1.0934106   439061 
 1536000    0.7297282   -3.6949671   -3.6949671   -2.6003773  0.024613814   -3.6949671    1.0945898   439061 
 1537000   0.73037988   -3.6971622   -3.6971622   -2.6015949  0.023845581   -3.6971622    1.0955673   439061 
 1538000   0.72961434   -3.6953473   -3.6953473   -2.6009283  0.027835432   -3.6953473     1.094419   439061 
 1539000    0.7293947   -3.6961221   -3.6961221   -2.6020325  0.025360247   -3.6961221    1.0940896   439061 
 1540000   0.73066406   -3.6993367   -3.6993367   -2.6033431  0.017083126   -3.6993367    1.0959936   439061 
 1541000   0.72935447   -3.6983117   -3.6983117   -2.6042825   0.02248226   -3.6983117    1.0940292   439061 
 1542000   0.72941374   -3.6989854   -3.6989854   -2.6048672   0.02149002   -3.6989854    1.0941181   439061 
 1543000   0.72954737   -3.6999234   -3.6999234   -2.6056048  0.019967107   -3.6999234    1.0943186   439061 
 1544000   0.72950665   -3.7001682   -3.7001682   -2.6059108  0.020533609   -3.7001682    1.0942575   439061 
 1545000   0.73048134   -3.7018892   -3.7018892   -2.6061697  0.021880816   -3.7018892    1.0957195   439061 
 1546000   0.73109902   -3.7031888   -3.7031888   -2.6065427  0.023730732   -3.7031888     1.096646   439061 
 1547000   0.73084351   -3.7031339   -3.7031339   -2.6068712  0.027152875   -3.7031339    1.0962628   439061 
 1548000   0.73024932   -3.7026193   -3.7026193   -2.6072479  0.028792881   -3.7026193    1.0953715   439061 
 1549000   0.73017753   -3.7036107   -3.7036107   -2.6083469  0.027069134   -3.7036107    1.0952638   439061 
 1550000   0.73146645   -3.7057484   -3.7057484   -2.6085512  0.021752674   -3.7057484    1.0971972   439061 
 1551000   0.73020044   -3.7028352   -3.7028352    -2.607537  0.027620836   -3.7028352    1.0952982   439061 
 1552000    0.7300826   -3.7039511   -3.7039511   -2.6088297  0.027034517   -3.7039511    1.0951214   439061 
 1553000    0.7295204    -3.703448    -3.703448   -2.6091699  0.025525273    -3.703448    1.0942781   439061 
 1554000   0.72961911   -3.7041369   -3.7041369   -2.6097107  0.025975377   -3.7041369    1.0944262   439061 
 1555000   0.72957643   -3.7050393   -3.7050393   -2.6106771   0.02405606   -3.7050393    1.0943621   439061 
 1556000    0.7296013   -3.7038539   -3.7038539   -2.6094545  0.027436427   -3.7038539    1.0943995   439061 
 1557000   0.72887968   -3.7028341   -3.7028341   -2.6095171  0.028455807   -3.7028341     1.093317   439061 
 1558000   0.72967113   -3.7040241   -3.7040241   -2.6095199  0.024202898   -3.7040241    1.0945042   439061 
 1559000   0.72993653   -3.7038618   -3.7038618   -2.6089595  0.020337346   -3.7038618    1.0949023   439061 
 1560000   0.72869655   -3.7032148   -3.7032148   -2.6101725  0.025342662   -3.7032148    1.0930423   439061 
 1561000   0.72916137   -3.7049192   -3.7049192   -2.6111796  0.025442722   -3.7049192    1.0937396   439061 
 1562000   0.72855261   -3.7040029   -3.7040029   -2.6111765  0.023864999   -3.7040029    1.0928264   439061 
 1563000    0.7290352   -3.7042776   -3.7042776   -2.6107273  0.019652318   -3.7042776    1.0935503   439061 
 1564000   0.72894903    -3.705728    -3.705728    -2.612307  0.018807703    -3.705728    1.0934211   439061 
 1565000   0.73020054   -3.7069612   -3.7069612   -2.6116629   0.01912301   -3.7069612    1.0952983   439061 
 1566000   0.73016535   -3.7053307   -3.7053307   -2.6100852  0.027300067   -3.7053307    1.0952455   439061 
 1567000   0.73161117   -3.7089512   -3.7089512   -2.6115369  0.024082804   -3.7089512    1.0974142   439061 
 1568000    0.7301065   -3.7075461   -3.7075461   -2.6123889   0.02716587   -3.7075461    1.0951573   439061 
 1569000   0.72986394    -3.707613    -3.707613   -2.6128196  0.024555458    -3.707613    1.0947934   439061 
 1570000   0.72895118    -3.706542    -3.706542   -2.6131178  0.024764309    -3.706542    1.0934243   439061 
 1571000   0.72886866   -3.7068529   -3.7068529   -2.6135524  0.024536852   -3.7068529    1.0933005   439061 
 1572000   0.72927428   -3.7066203   -3.7066203   -2.6127114    0.0252633   -3.7066203    1.0939089   439061 
 1573000   0.72897205   -3.7071348   -3.7071348   -2.6136793   0.02270873   -3.7071348    1.0934556   439061 
 1574000     0.728449   -3.7063324   -3.7063324   -2.6136613  0.028285956   -3.7063324     1.092671   439061 
 1575000   0.72766704   -3.7057199   -3.7057199   -2.6142218  0.025925861   -3.7057199    1.0914981   439061 
 1576000   0.72880613   -3.7063145   -3.7063145   -2.6131078  0.025376081   -3.7063145    1.0932067   439061 
 1577000   0.72889962   -3.7065246   -3.7065246   -2.6131776  0.023421961   -3.7065246    1.0933469   439061 
 1578000   0.72915152   -3.7069394   -3.7069394   -2.6132146   0.02402854   -3.7069394    1.0937248   439061 
 1579000     0.729095    -3.707487    -3.707487   -2.6138469  0.024684003    -3.707487      1.09364   439061 
 1580000   0.72887649   -3.7078036   -3.7078036   -2.6144913  0.024270063   -3.7078036    1.0933122   439061 
 1581000   0.72881851   -3.7079082   -3.7079082    -2.614683  0.022552835   -3.7079082    1.0932253   439061 
 1582000    0.7279298   -3.7068659   -3.7068659   -2.6149737  0.023452109   -3.7068659    1.0918922   439061 
 1583000   0.72650512   -3.7071454   -3.7071454   -2.6173902  0.023447617   -3.7071454    1.0897552   439061 
 1584000   0.72679238   -3.7076268   -3.7076268   -2.6174407  0.024619506   -3.7076268    1.0901861   439061 
 1585000    0.7272805    -3.708667    -3.708667   -2.6177487  0.020410842    -3.708667    1.0909183   439061 
 1586000   0.72918427   -3.7102462   -3.7102462   -2.6164723  0.020891654   -3.7102462    1.0937739   439061 
 1587000   0.72859842   -3.7104601   -3.7104601   -2.6175649  0.027571562   -3.7104601    1.0928951   439061 
 1588000   0.72916617   -3.7119425   -3.7119425   -2.6181957  0.027127031   -3.7119425    1.0937468   439061 
 1589000   0.72975669   -3.7135979   -3.7135979   -2.6189654  0.020797625   -3.7135979    1.0946325   439061 
 1590000   0.73041605   -3.7134627   -3.7134627   -2.6178411  0.030304238   -3.7134627    1.0956216   439061 
 1591000   0.72897594   -3.7136743   -3.7136743   -2.6202129  0.026668541   -3.7136743    1.0934614   439061 
 1592000   0.72932503   -3.7142335   -3.7142335   -2.6202484  0.024047169   -3.7142335    1.0939851   439061 
 1593000   0.72924518   -3.7138805   -3.7138805   -2.6200152  0.025552694   -3.7138805    1.0938653   439061 
 1594000   0.72855788   -3.7138647   -3.7138647   -2.6210303  0.024520651   -3.7138647    1.0928343   439061 
 1595000   0.72806141   -3.7134075   -3.7134075   -2.6213179  0.026150204   -3.7134075    1.0920896   439061 
 1596000   0.72817328    -3.712045    -3.712045   -2.6197875  0.026129741    -3.712045    1.0922574   439061 
 1597000   0.72744351   -3.7110929   -3.7110929   -2.6199302  0.027573479   -3.7110929    1.0911628   439061 
 1598000   0.72787331   -3.7118979   -3.7118979   -2.6200904  0.020748145   -3.7118979    1.0918075   439061 
 1599000   0.72820697   -3.7127294   -3.7127294   -2.6204215  0.022387552   -3.7127294     1.092308   439061 
 1600000    0.7278528   -3.7123862   -3.7123862   -2.6206095  0.020653231   -3.7123862    1.0917767   439061 
 1601000   0.72700091   -3.7125498   -3.7125498   -2.6220509  0.023058119   -3.7125498    1.0904989   439061 
 1602000   0.72685836   -3.7116174   -3.7116174   -2.6213323  0.020765353   -3.7116174    1.0902851   439061 
 1603000   0.72731445   -3.7128538   -3.7128538   -2.6218846  0.022408113   -3.7128538    1.0909692   439061 
 1604000   0.72667166     -3.71263     -3.71263    -2.622625   0.02029698     -3.71263     1.090005   439061 
 1605000   0.72736046   -3.7131613   -3.7131613   -2.6221231  0.022312303   -3.7131613    1.0910382   439061 
 1606000    0.7277623    -3.713365    -3.713365   -2.6217241  0.027435258    -3.713365     1.091641   439061 
 1607000   0.72905622   -3.7149365   -3.7149365   -2.6213546  0.023153663   -3.7149365    1.0935818   439061 
 1608000   0.72894692   -3.7153655   -3.7153655   -2.6219476  0.023648585   -3.7153655    1.0934179   439061 
 1609000   0.72892363   -3.7149165   -3.7149165   -2.6215336  0.026343303   -3.7149165     1.093383   439061 
 1610000   0.72830571   -3.7152608   -3.7152608   -2.6228047   0.02298906   -3.7152608    1.0924561   439061 
 1611000   0.72852616   -3.7160875   -3.7160875   -2.6233008  0.026069898   -3.7160875    1.0927868   439061 
 1612000   0.72707482   -3.7147033   -3.7147033   -2.6240936  0.025820889   -3.7147033    1.0906097   439061 
 1613000   0.72862871   -3.7172443   -3.7172443   -2.6243037  0.024398839   -3.7172443    1.0929406   439061 
 1614000   0.72810696   -3.7167627   -3.7167627   -2.6246047  0.020052654   -3.7167627     1.092158   439061 
 1615000   0.72665658   -3.7151692   -3.7151692   -2.6251868  0.025523164   -3.7151692    1.0899824   439061 
 1616000   0.72714215   -3.7159403   -3.7159403   -2.6252295  0.026322514   -3.7159403    1.0907107   439061 
 1617000   0.72711897   -3.7160706   -3.7160706   -2.6253946  0.021180374   -3.7160706     1.090676   439061 
 1618000   0.72662062   -3.7155876   -3.7155876   -2.6256592  0.023383595   -3.7155876    1.0899284   439061 
 1619000   0.72788526   -3.7182259   -3.7182259   -2.6264005  0.021722647   -3.7182259    1.0918254   439061 
 1620000   0.72698463   -3.7175019   -3.7175019   -2.6270274   0.02254322   -3.7175019    1.0904745   439061 
 1621000   0.72619805   -3.7168184   -3.7168184   -2.6275238  0.025368604   -3.7168184    1.0892946   439061 
 1622000    0.7272373   -3.7181187   -3.7181187   -2.6272653  0.023440781   -3.7181187    1.0908535   439061 
 1623000   0.72732093   -3.7179041   -3.7179041   -2.6269252  0.020635366   -3.7179041    1.0909789   439061 
 1624000   0.72834001   -3.7190751   -3.7190751   -2.6265676  0.021963122   -3.7190751    1.0925075   439061 
 1625000   0.72836141   -3.7197323   -3.7197323   -2.6271927  0.025325763   -3.7197323    1.0925396   439061 
 1626000   0.72712977   -3.7184481   -3.7184481   -2.6277559  0.026603301   -3.7184481    1.0906922   439061 
 1627000   0.72750627   -3.7200342   -3.7200342   -2.6287773  0.023335661   -3.7200342    1.0912569   439061 
 1628000   0.72579536    -3.717362    -3.717362   -2.6286714  0.026206555    -3.717362    1.0886906   439061 
 1629000   0.72629201   -3.7181572   -3.7181572   -2.6287217  0.022939959   -3.7181572    1.0894355   439061 
 1630000   0.72658084   -3.7196921   -3.7196921   -2.6298233  0.021264995   -3.7196921    1.0898688   439061 
 1631000   0.72681392   -3.7207772   -3.7207772   -2.6305588  0.019606732   -3.7207772    1.0902184   439061 
 1632000   0.72667291   -3.7216613   -3.7216613   -2.6316544  0.018279316   -3.7216613    1.0900069   439061 
 1633000   0.72664548   -3.7204045   -3.7204045   -2.6304388  0.026028462   -3.7204045    1.0899657   439061 
 1634000   0.72700269   -3.7220788   -3.7220788   -2.6315773  0.020878394   -3.7220788    1.0905016   439061 
 1635000   0.72668329   -3.7205442   -3.7205442   -2.6305217  0.023801351   -3.7205442    1.0900224   439061 
 1636000   0.72726938   -3.7219828   -3.7219828   -2.6310812  0.022260771   -3.7219828    1.0909016   439061 
 1637000   0.72636048    -3.721371    -3.721371   -2.6318328  0.021522005    -3.721371    1.0895382   439061 
 1638000   0.72703503   -3.7237332   -3.7237332   -2.6331832  0.020482827   -3.7237332    1.0905501   439061 
 1639000   0.72617849   -3.7230167   -3.7230167   -2.6337514  0.025796647   -3.7230167    1.0892652   439061 
 1640000   0.72611217   -3.7224119   -3.7224119   -2.6332462  0.025488183   -3.7224119    1.0891658   439061 
 1641000   0.72648538   -3.7243789   -3.7243789   -2.6346533  0.018411535   -3.7243789    1.0897256   439061 
 1642000   0.72431224   -3.7213864   -3.7213864   -2.6349206  0.021979724   -3.7213864    1.0864659   439061 
 1643000   0.72532038    -3.722141    -3.722141   -2.6341629  0.027248657    -3.722141    1.0879781   439061 
 1644000    0.7266259   -3.7248904   -3.7248904    -2.634954  0.023072115   -3.7248904    1.0899364   439061 
 1645000   0.72670985   -3.7252421   -3.7252421   -2.6351798  0.023028359   -3.7252421    1.0900623   439061 
 1646000   0.72662656   -3.7253189   -3.7253189   -2.6353815   0.02358881   -3.7253189    1.0899374   439061 
 1647000   0.72700341   -3.7264804   -3.7264804   -2.6359777  0.022397823   -3.7264804    1.0905026   439061 
 1648000    0.7268048   -3.7258868   -3.7258868   -2.6356821  0.028796204   -3.7258868    1.0902047   439061 
 1649000   0.72627112    -3.725401    -3.725401   -2.6359968  0.024426275    -3.725401    1.0894042   439061 
 1650000   0.72616531   -3.7260162   -3.7260162   -2.6367707  0.026678392   -3.7260162    1.0892455   439061 
 1651000   0.72558897   -3.7256093   -3.7256093   -2.6372283  0.022707827   -3.7256093     1.088381   439061 
 1652000   0.72596654   -3.7259895   -3.7259895   -2.6370422  0.024414119   -3.7259895    1.0889473   439061 
 1653000    0.7259124    -3.726147    -3.726147   -2.6372808  0.020165802    -3.726147    1.0888661   439061 
 1654000   0.72680159    -3.727508    -3.727508   -2.6373081  0.019518723    -3.727508    1.0901999   439061 
 1655000   0.72662272   -3.7268771   -3.7268771   -2.6369455  0.020889217   -3.7268771    1.0899316   439061 
 1656000   0.72627186   -3.7267014   -3.7267014   -2.6372961   0.02343445   -3.7267014    1.0894053   439061 
 1657000   0.72562245   -3.7250688   -3.7250688   -2.6366376   0.02957045   -3.7250688    1.0884312   439061 
 1658000   0.72802447   -3.7279073   -3.7279073    -2.635873  0.024888765   -3.7279073    1.0920342   439061 
 1659000   0.72593644   -3.7261974   -3.7261974   -2.6372953  0.023887924   -3.7261974    1.0889022   439061 
 1660000   0.72626223   -3.7252363   -3.7252363   -2.6358454  0.024919369   -3.7252363    1.0893909   439061 
 1661000   0.72556125   -3.7246873   -3.7246873   -2.6363479  0.024762946   -3.7246873    1.0883394   439061 
 1662000   0.72545699   -3.7253063   -3.7253063   -2.6371233  0.019279266   -3.7253063     1.088183   439061 
 1663000   0.72606228   -3.7258858   -3.7258858   -2.6367948  0.018736494   -3.7258858    1.0890909   439061 
 1664000   0.72448156   -3.7241218   -3.7241218   -2.6374019   0.01982706   -3.7241218    1.0867199   439061 
 1665000   0.72501443   -3.7245553   -3.7245553   -2.6370362  0.022074159   -3.7245553    1.0875192   439061 
 1666000   0.72639094   -3.7268939   -3.7268939     -2.63731  0.015682999   -3.7268939    1.0895839   439061 
 1667000   0.72552212   -3.7263613   -3.7263613   -2.6380806  0.019859326   -3.7263613    1.0882807   439061 
 1668000   0.72442952   -3.7240741   -3.7240741   -2.6374323  0.020998435   -3.7240741    1.0866418   439061 
 1669000   0.72535303   -3.7260472   -3.7260472   -2.6380201  0.020155133   -3.7260472    1.0880271   439061 
 1670000   0.72635055   -3.7275822   -3.7275822   -2.6380589  0.019651091   -3.7275822    1.0895233   439061 
 1671000   0.72502119   -3.7272967   -3.7272967   -2.6397674  0.017105663   -3.7272967    1.0875293   439061 
 1672000   0.72608052   -3.7289402   -3.7289402   -2.6398219  0.025376234   -3.7289402    1.0891183   439061 
 1673000   0.72477989   -3.7269928   -3.7269928   -2.6398255  0.023022498   -3.7269928    1.0871674   439061 
 1674000   0.72716284    -3.730192    -3.730192   -2.6394503  0.026400434    -3.730192    1.0907418   439061 
 1675000   0.72656712   -3.7297376   -3.7297376   -2.6398894  0.025113879   -3.7297376    1.0898482   439061 
 1676000    0.7264658   -3.7310468   -3.7310468   -2.6413506  0.025064259   -3.7310468    1.0896962   439061 
 1677000   0.72475722   -3.7289501   -3.7289501   -2.6418167  0.027784563   -3.7289501    1.0871334   439061 
 1678000   0.72824435   -3.7343532   -3.7343532   -2.6419891  0.019387233   -3.7343532     1.092364   439061 
 1679000   0.72723841   -3.7327718   -3.7327718   -2.6419167   0.02538065   -3.7327718    1.0908551   439061 
 1680000   0.72593211   -3.7314884   -3.7314884   -2.6425927  0.027804208   -3.7314884    1.0888957   439061 
 1681000   0.72554942   -3.7308306   -3.7308306   -2.6425089  0.026994232   -3.7308306    1.0883217   439061 
 1682000    0.7254383   -3.7306783   -3.7306783   -2.6425234  0.024851155   -3.7306783     1.088155   439061 
 1683000   0.72554501   -3.7316446   -3.7316446   -2.6433295  0.020790805   -3.7316446     1.088315   439061 
 1684000   0.72611673   -3.7314377   -3.7314377   -2.6422651  0.020100199   -3.7314377    1.0891726   439061 
 1685000   0.72474221   -3.7300699   -3.7300699    -2.642959  0.021431684   -3.7300699    1.0871108   439061 
 1686000   0.72516309   -3.7305664   -3.7305664   -2.6428243   0.01882811   -3.7305664    1.0877422   439061 
 1687000   0.72426381   -3.7293337   -3.7293337   -2.6429405  0.021869068   -3.7293337    1.0863932   439061 
 1688000   0.72483765   -3.7302219   -3.7302219   -2.6429679  0.017408654   -3.7302219     1.087254   439061 
 1689000    0.7264046   -3.7326829   -3.7326829   -2.6430785  0.015260689   -3.7326829    1.0896044   439061 
 1690000   0.72515757   -3.7310067   -3.7310067   -2.6432728  0.017414548   -3.7310067    1.0877339   439061 
 1691000   0.72568461   -3.7325208   -3.7325208   -2.6439964  0.018394099   -3.7325208    1.0885244   439061 
 1692000   0.72508437   -3.7319671   -3.7319671    -2.644343  0.021655013   -3.7319671    1.0876241   439061 
 1693000   0.72550239   -3.7324268   -3.7324268   -2.6441757  0.020098934   -3.7324268    1.0882511   439061 
 1694000     0.725499   -3.7335961   -3.7335961   -2.6453501  0.020986168   -3.7335961     1.088246   439061 
 1695000   0.72559421   -3.7340079   -3.7340079   -2.6456191  0.023258347   -3.7340079    1.0883888   439061 
 1696000   0.72496997   -3.7341482   -3.7341482   -2.6466957  0.024473852   -3.7341482    1.0874525   439061 
 1697000   0.72439102     -3.73394     -3.73394   -2.6473559   0.02328175     -3.73394    1.0865841   439061 
 1698000   0.72499578   -3.7349067   -3.7349067   -2.6474155  0.026075327   -3.7349067    1.0874912   439061 
 1699000   0.72508311   -3.7361946   -3.7361946   -2.6485724  0.022728564   -3.7361946    1.0876222   439061 
 1700000   0.72447854   -3.7361914   -3.7361914   -2.6494761  0.025056346   -3.7361914    1.0867153   439061 
 1701000   0.72543242   -3.7377275   -3.7377275   -2.6495814  0.024304243   -3.7377275    1.0881462   439061 
 1702000   0.72686443   -3.7393521   -3.7393521   -2.6490579  0.020459633   -3.7393521    1.0902942   439061 
 1703000   0.72526686   -3.7377235   -3.7377235   -2.6498257  0.025794382   -3.7377235    1.0878978   439061 
 1704000   0.72587188    -3.738735    -3.738735   -2.6499297   0.02013752    -3.738735    1.0888053   439061 
 1705000   0.72511743   -3.7373998   -3.7373998   -2.6497261   0.02502869   -3.7373998    1.0876737   439061 
 1706000    0.7256903   -3.7386327   -3.7386327   -2.6500997  0.021096652   -3.7386327     1.088533   439061 
 1707000   0.72599215   -3.7388551   -3.7388551   -2.6498694  0.021788343   -3.7388551    1.0889857   439061 
 1708000   0.72456642   -3.7369669   -3.7369669   -2.6501197  0.026762266   -3.7369669    1.0868472   439061 
 1709000   0.72598609   -3.7395962   -3.7395962   -2.6506196  0.021192179   -3.7395962    1.0889767   439061 
 1710000   0.72496934   -3.7376213   -3.7376213   -2.6501698  0.021087885   -3.7376213    1.0874515   439061 
 1711000   0.72528997    -3.737477    -3.737477   -2.6495445   0.02317909    -3.737477    1.0879325   439061 
 1712000   0.72614323   -3.7382085   -3.7382085   -2.6489962   0.02429609   -3.7382085    1.0892124   439061 
 1713000   0.72479372     -3.73754     -3.73754   -2.6503519  0.022734723     -3.73754    1.0871881   439061 
 1714000   0.72462375    -3.737172    -3.737172   -2.6502389  0.020663162    -3.737172    1.0869331   439061 
 1715000   0.72442884   -3.7370062   -3.7370062   -2.6503654  0.021809933   -3.7370062    1.0866408   439061 
 1716000   0.72451139   -3.7365006   -3.7365006    -2.649736  0.020363015   -3.7365006    1.0867646   439061 
 1717000   0.72353112   -3.7352507   -3.7352507   -2.6499565  0.021425231   -3.7352507    1.0852942   439061 
 1718000   0.72512254   -3.7353539   -3.7353539   -2.6476726  0.026220546   -3.7353539    1.0876813   439061 
 1719000   0.72550704   -3.7371571   -3.7371571   -2.6488991  0.022975046   -3.7371571    1.0882581   439061 
 1720000   0.72556886   -3.7375747   -3.7375747   -2.6492239  0.020287289   -3.7375747    1.0883508   439061 
 1721000   0.72490773   -3.7362161   -3.7362161    -2.648857  0.026311735   -3.7362161    1.0873591   439061 
 1722000   0.72465089   -3.7371642   -3.7371642   -2.6501903  0.017391439   -3.7371642    1.0869739   439061 
 1723000   0.72488806   -3.7377413   -3.7377413   -2.6504117  0.017707454   -3.7377413    1.0873296   439061 
 1724000   0.72506019   -3.7379453   -3.7379453   -2.6503575  0.020447135   -3.7379453    1.0875878   439061 
 1725000    0.7237273   -3.7372762   -3.7372762   -2.6516877  0.022328895   -3.7372762    1.0855885   439061 
 1726000   0.72432707   -3.7392048   -3.7392048   -2.6527167  0.019687574   -3.7392048    1.0864881   439061 
 1727000    0.7235236   -3.7387976   -3.7387976   -2.6535146  0.024539094   -3.7387976    1.0852829   439061 
 1728000   0.72429186   -3.7402084   -3.7402084   -2.6537731  0.020866807   -3.7402084    1.0864353   439061 
 1729000   0.72377908   -3.7402128   -3.7402128   -2.6545467  0.021929287   -3.7402128    1.0856661   439061 
 1730000   0.72389028   -3.7409645   -3.7409645   -2.6551316  0.020837749   -3.7409645    1.0858329   439061 
 1731000   0.72472056   -3.7421415   -3.7421415   -2.6550632  0.020757378   -3.7421415    1.0870784   439061 
 1732000   0.72558975   -3.7435907   -3.7435907   -2.6552085  0.024318424   -3.7435907    1.0883821   439061 
 1733000   0.72544833    -3.743286    -3.743286    -2.655116  0.023151508    -3.743286      1.08817   439061 
 1734000   0.72439291   -3.7420792   -3.7420792   -2.6554923  0.028157796   -3.7420792    1.0865869   439061 
 1735000   0.72525705   -3.7434888   -3.7434888   -2.6556057  0.025928496   -3.7434888    1.0878831   439061 
 1736000   0.72513148   -3.7435424   -3.7435424   -2.6558477  0.023773948   -3.7435424    1.0876947   439061 
 1737000   0.72457099   -3.7436509   -3.7436509   -2.6567969  0.020763882   -3.7436509     1.086854   439061 
 1738000   0.72434606   -3.7436881   -3.7436881   -2.6571715   0.02274682   -3.7436881    1.0865166   439061 
 1739000   0.72364861   -3.7434336   -3.7434336   -2.6579632  0.019825434   -3.7434336    1.0854704   439061 
 1740000   0.72386587   -3.7434922   -3.7434922   -2.6576959  0.024292078   -3.7434922    1.0857963   439061 
 1741000   0.72462253   -3.7446057   -3.7446057   -2.6576744  0.016135974   -3.7446057    1.0869313   439061 
 1742000    0.7239067   -3.7421987   -3.7421987   -2.6563411  0.025446359   -3.7421987    1.0858576   439061 
 1743000   0.72384269    -3.741623    -3.741623   -2.6558614  0.017690143    -3.741623    1.0857616   439061 
 1744000   0.72365929   -3.7418187   -3.7418187   -2.6563323  0.016195478   -3.7418187    1.0854865   439061 
 1745000   0.72657213   -3.7454652   -3.7454652   -2.6556095  0.015520692   -3.7454652    1.0898557   439061 
 1746000   0.72407183   -3.7422602   -3.7422602   -2.6561549  0.019251287   -3.7422602    1.0861053   439061 
 1747000   0.72411541   -3.7437573   -3.7437573   -2.6575867  0.020502434   -3.7437573    1.0861706   439061 
 1748000   0.72209554   -3.7414747   -3.7414747   -2.6583339   0.02016818   -3.7414747    1.0831408   439061 
 1749000    0.7236815   -3.7445767   -3.7445767   -2.6590569  0.018200046   -3.7445767    1.0855198   439061 
 1750000   0.72350649   -3.7444116   -3.7444116   -2.6591543  0.017773568   -3.7444116    1.0852573   439061 
 1751000   0.72361001   -3.7430604   -3.7430604   -2.6576479   0.02045338   -3.7430604    1.0854125   439061 
 1752000   0.72430579   -3.7460666   -3.7460666   -2.6596104  0.023240714   -3.7460666    1.0864562   439061 
 1753000   0.72316112   -3.7461358   -3.7461358   -2.6613966  0.026319393   -3.7461358    1.0847392   439061 
 1754000   0.72463145    -3.748484    -3.748484   -2.6615393  0.025747739    -3.748484    1.0869447   439061 
 1755000   0.72306012   -3.7464657   -3.7464657    -2.661878  0.028890141   -3.7464657    1.0845877   439061 
 1756000   0.72374593   -3.7484296   -3.7484296   -2.6628131  0.025025849   -3.7484296    1.0856164   439061 
 1757000   0.72295037     -3.74698     -3.74698   -2.6625569  0.027848639     -3.74698    1.0844231   439061 
 1758000   0.72346621   -3.7486688   -3.7486688   -2.6634719   0.02291685   -3.7486688    1.0851968   439061 
 1759000   0.72401571   -3.7496364   -3.7496364   -2.6636153  0.022059867   -3.7496364    1.0860211   439061 
 1760000   0.72396551    -3.750418    -3.750418   -2.6644722  0.023794393    -3.750418    1.0859458   439061 
 1761000   0.72283036   -3.7486297   -3.7486297   -2.6643866  0.022930413   -3.7486297    1.0842431   439061 
 1762000   0.72260462   -3.7494811   -3.7494811   -2.6655766  0.023541091   -3.7494811    1.0839045   439061 
 1763000   0.72187985   -3.7476625   -3.7476625   -2.6648452  0.021759967   -3.7476625    1.0828173   439061 
 1764000   0.72232886   -3.7486272   -3.7486272   -2.6651364  0.022008861   -3.7486272    1.0834908   439061 
 1765000   0.72222352   -3.7494031   -3.7494031   -2.6660703  0.016423892   -3.7494031    1.0833328   439061 
 1766000    0.7222067   -3.7487508   -3.7487508   -2.6654432  0.018597788   -3.7487508    1.0833076   439061 
 1767000   0.72245049    -3.749297    -3.749297   -2.6656237  0.019008579    -3.749297    1.0836733   439061 
 1768000   0.72345953    -3.750836    -3.750836   -2.6656492  0.015347833    -3.750836    1.0851868   439061 
 1769000   0.72251492   -3.7483083   -3.7483083   -2.6645384  0.023262979   -3.7483083    1.0837699   439061 
 1770000   0.72375807   -3.7507278   -3.7507278   -2.6650932  0.022776406   -3.7507278    1.0856346   439061 
 1771000   0.72329048   -3.7496406   -3.7496406   -2.6647073    0.0252793   -3.7496406    1.0849333   439061 
 1772000   0.72303893   -3.7512107   -3.7512107   -2.6666547  0.023634808   -3.7512107    1.0845559   439061 
 1773000   0.72366628   -3.7516507   -3.7516507   -2.6661537  0.021356817   -3.7516507     1.085497   439061 
 1774000   0.72286958    -3.751596    -3.751596   -2.6672941  0.023251216    -3.751596    1.0843019   439061 
 1775000   0.72231617   -3.7508829   -3.7508829   -2.6674111   0.02098141   -3.7508829    1.0834718   439061 
 1776000   0.72306611   -3.7514547   -3.7514547    -2.666858  0.023599229   -3.7514547    1.0845967   439061 
 1777000   0.72448456   -3.7538629   -3.7538629   -2.6671385  0.020935944   -3.7538629    1.0867244   439061 
 1778000   0.72491978   -3.7547794   -3.7547794   -2.6674022  0.016957714   -3.7547794    1.0873772   439061 
 1779000   0.72370889   -3.7529621   -3.7529621   -2.6674012  0.019927534   -3.7529621    1.0855609   439061 
 1780000   0.72228059   -3.7523356   -3.7523356   -2.6689172  0.020710137   -3.7523356    1.0834184   439061 
 1781000   0.72091578    -3.750473    -3.750473   -2.6691018  0.023003493    -3.750473    1.0813712   439061 
 1782000   0.72099058   -3.7520599   -3.7520599   -2.6705765  0.019253343   -3.7520599    1.0814834   439061 
 1783000   0.72112473   -3.7524117   -3.7524117    -2.670727  0.017750855   -3.7524117    1.0816846   439061 
 1784000   0.72286986    -3.755129    -3.755129   -2.6708267  0.013711822    -3.755129    1.0843023   439061 
 1785000   0.72230085   -3.7537065   -3.7537065   -2.6702577  0.026608205   -3.7537065    1.0834488   439061 
 1786000   0.72259884   -3.7549261   -3.7549261   -2.6710303   0.02260571   -3.7549261    1.0838958   439061 
 1787000   0.72328129   -3.7561468   -3.7561468   -2.6712273  0.023957244   -3.7561468    1.0849195   439061 
 1788000   0.72339154   -3.7563128   -3.7563128   -2.6712279  0.022121828   -3.7563128    1.0850848   439061 
 1789000   0.72325287   -3.7562386   -3.7562386   -2.6713617  0.025717679   -3.7562386    1.0848768   439061 
 1790000   0.72289686   -3.7567125   -3.7567125   -2.6723697   0.02129769   -3.7567125    1.0843428   439061 
 1791000   0.72289137   -3.7571816   -3.7571816    -2.672847  0.026453764   -3.7571816    1.0843346   439061 
 1792000   0.72355687   -3.7578256   -3.7578256   -2.6724928   0.02501213   -3.7578256    1.0853328   439061 
 1793000    0.7223649   -3.7570884   -3.7570884   -2.6735435  0.024317853   -3.7570884    1.0835449   439061 
 1794000   0.72219311   -3.7565778   -3.7565778   -2.6732906  0.028005595   -3.7565778    1.0832872   439061 
 1795000   0.72242601   -3.7569047   -3.7569047   -2.6732682  0.022276673   -3.7569047    1.0836366   439061 
 1796000   0.72210198   -3.7565997   -3.7565997   -2.6734492  0.019968994   -3.7565997    1.0831505   439061 
 1797000    0.7214803   -3.7559363   -3.7559363   -2.6737183  0.022545532   -3.7559363     1.082218   439061 
 1798000   0.72165758   -3.7560075   -3.7560075   -2.6735236  0.020275167   -3.7560075    1.0824839   439061 
 1799000   0.72139069   -3.7555564   -3.7555564   -2.6734729  0.020772563   -3.7555564    1.0820836   439061 
 1800000   0.72217893   -3.7571978   -3.7571978   -2.6739318  0.018378341   -3.7571978    1.0832659   439061 
 1801000   0.72096367   -3.7559244   -3.7559244   -2.6744813  0.021048829   -3.7559244     1.081443   439061 
 1802000   0.72079628   -3.7557116   -3.7557116   -2.6745196   0.01755685   -3.7557116     1.081192   439061 
 1803000   0.72139365   -3.7573937   -3.7573937   -2.6753057  0.015913852   -3.7573937     1.082088   439061 
 1804000   0.72128241    -3.758102    -3.758102   -2.6761809  0.018439143    -3.758102    1.0819212   439061 
 1805000   0.72162569   -3.7574318   -3.7574318   -2.6749957  0.024992668   -3.7574318    1.0824361   439061 
 1806000   0.72313696   -3.7596514   -3.7596514   -2.6749484  0.020456331   -3.7596514     1.084703   439061 
 1807000   0.72234734   -3.7588339   -3.7588339   -2.6753154  0.025692038   -3.7588339    1.0835185   439061 
 1808000   0.72245007   -3.7589076   -3.7589076    -2.675235  0.021176711   -3.7589076    1.0836726   439061 
 1809000   0.72256798   -3.7609704   -3.7609704   -2.6771209   0.02469621   -3.7609704    1.0838495   439061 
 1810000   0.72192425   -3.7604857   -3.7604857   -2.6776018  0.025264528   -3.7604857    1.0828839   439061 
 1811000   0.72159639   -3.7612117   -3.7612117   -2.6788196  0.025808763   -3.7612117    1.0823921   439061 
 1812000   0.72204655   -3.7619184   -3.7619184    -2.678851  0.020786094   -3.7619184    1.0830674   439061 
 1813000   0.72213069   -3.7622263   -3.7622263   -2.6790328  0.023583548   -3.7622263    1.0831936   439061 
 1814000   0.72229155   -3.7622268   -3.7622268   -2.6787919  0.021344447   -3.7622268    1.0834349   439061 
 1815000   0.72189647   -3.7614383   -3.7614383   -2.6785961  0.022032901   -3.7614383    1.0828422   439061 
 1816000   0.72184719   -3.7612115   -3.7612115   -2.6784432  0.022285257   -3.7612115    1.0827683   439061 
 1817000   0.72233589   -3.7630722   -3.7630722   -2.6795709   0.02071917   -3.7630722    1.0835014   439061 
 1818000   0.72149144   -3.7603936   -3.7603936   -2.6781589  0.018989815   -3.7603936    1.0822347   439061 
 1819000   0.72184716   -3.7616843   -3.7616843    -2.678916  0.021027955   -3.7616843    1.0827683   439061 
 1820000   0.72048355   -3.7586369   -3.7586369    -2.677914  0.020817856   -3.7586369    1.0807229   439061 
 1821000   0.72145144   -3.7611113   -3.7611113   -2.6789366  0.015619664   -3.7611113    1.0821747   439061 
 1822000   0.72009552   -3.7592222   -3.7592222   -2.6790813   0.01620442   -3.7592222    1.0801408   439061 
 1823000   0.72225347   -3.7613782   -3.7613782   -2.6780005  0.018511015   -3.7613782    1.0833777   439061 
 1824000   0.72089187    -3.758862    -3.758862   -2.6775266  0.024938865    -3.758862    1.0813353   439061 
 1825000   0.72151718   -3.7604456   -3.7604456   -2.6781723  0.024025654   -3.7604456    1.0822733   439061 
 1826000   0.72317131   -3.7627039   -3.7627039   -2.6779494   0.02081494   -3.7627039    1.0847545   439061 
 1827000    0.7227698   -3.7620375   -3.7620375   -2.6778853  0.018956349   -3.7620375    1.0841522   439061 
 1828000   0.72307082   -3.7628289   -3.7628289   -2.6782251  0.021354503   -3.7628289    1.0846038   439061 
 1829000    0.7214645   -3.7615764   -3.7615764   -2.6793821  0.024025583   -3.7615764    1.0821943   439061 
 1830000   0.72242683   -3.7633124   -3.7633124   -2.6796746   0.01969745   -3.7633124    1.0836378   439061 
 1831000   0.72139416   -3.7621706   -3.7621706   -2.6800818  0.020410806   -3.7621706    1.0820888   439061 
 1832000   0.72171577   -3.7619022   -3.7619022   -2.6793311  0.021484805   -3.7619022    1.0825712   439061 
 1833000   0.71964664   -3.7603103   -3.7603103   -2.6808428  0.019945983   -3.7603103    1.0794675   439061 
 1834000     0.720558    -3.761831    -3.761831   -2.6809965  0.015967039    -3.761831    1.0808345   439061 
 1835000   0.72007752   -3.7606529   -3.7606529   -2.6805391  0.023863105   -3.7606529    1.0801138   439061 
 1836000   0.72025381   -3.7606566   -3.7606566   -2.6802783  0.022883056   -3.7606566    1.0803783   439061 
 1837000     0.721312   -3.7626666   -3.7626666   -2.6807011   0.02152514   -3.7626666    1.0819655   439061 
 1838000   0.72129937   -3.7630382   -3.7630382   -2.6810916  0.017106251   -3.7630382    1.0819466   439061 
 1839000   0.72191201    -3.762992    -3.762992   -2.6801264  0.017778992    -3.762992    1.0828655   439061 
 1840000   0.72177328   -3.7626532   -3.7626532   -2.6799958  0.021125487   -3.7626532    1.0826575   439061 
 1841000      0.72182   -3.7624816   -3.7624816    -2.679754   0.01957948   -3.7624816    1.0827275   439061 
 1842000   0.72149646   -3.7629866   -3.7629866   -2.6807443  0.020592987   -3.7629866    1.0822422   439061 
 1843000   0.72180946   -3.7635125   -3.7635125   -2.6808008  0.020884413   -3.7635125    1.0827117   439061 
 1844000   0.72124188   -3.7637982   -3.7637982   -2.6819378  0.020321408   -3.7637982    1.0818604   439061 
 1845000   0.72098969   -3.7634795   -3.7634795   -2.6819974  0.019474056   -3.7634795    1.0814821   439061 
 1846000   0.72089674    -3.763895    -3.763895   -2.6825523  0.018728599    -3.763895    1.0813426   439061 
 1847000   0.72048271   -3.7637935   -3.7637935   -2.6830719  0.021174529   -3.7637935    1.0807216   439061 
 1848000   0.71975251    -3.764129    -3.764129   -2.6845027  0.020317785    -3.764129    1.0796263   439061 
 1849000   0.72107875   -3.7652539   -3.7652539   -2.6836382  0.021901788   -3.7652539    1.0816157   439061 
 1850000   0.72057222   -3.7662025   -3.7662025   -2.6853467  0.020659206   -3.7662025    1.0808559   439061 
 1851000   0.72050147   -3.7662775   -3.7662775   -2.6855277  0.022248902   -3.7662775    1.0807497   439061 
 1852000   0.72087786   -3.7667724   -3.7667724   -2.6854581  0.019898492   -3.7667724    1.0813143   439061 
 1853000   0.72069534   -3.7666716   -3.7666716    -2.685631  0.024156988   -3.7666716    1.0810405   439061 
 1854000   0.72144658   -3.7669316   -3.7669316   -2.6847642  0.027061056   -3.7669316    1.0821674   439061 
 1855000   0.72104442   -3.7673184   -3.7673184   -2.6857542  0.023844669   -3.7673184    1.0815642   439061 
 1856000   0.72151586   -3.7692961   -3.7692961   -2.6870247  0.027370847   -3.7692961    1.0822713   439061 
 1857000   0.72175398   -3.7693169   -3.7693169   -2.6866884  0.024335158   -3.7693169    1.0826285   439061 
 1858000   0.72166795   -3.7698098   -3.7698098   -2.6873103  0.020913387   -3.7698098    1.0824995   439061 
 1859000   0.71940452   -3.7675796   -3.7675796   -2.6884753  0.018341507   -3.7675796    1.0791043   439061 
 1860000   0.72046248   -3.7687198   -3.7687198   -2.6880285  0.019578841   -3.7687198    1.0806913   439061 
 1861000   0.72033778   -3.7683816   -3.7683816   -2.6878774  0.020741884   -3.7683816    1.0805042   439061 
 1862000   0.72049852    -3.767842    -3.767842   -2.6870967  0.019381116    -3.767842    1.0807453   439061 
 1863000   0.72079875   -3.7680324   -3.7680324   -2.6868367  0.019594822   -3.7680324    1.0811957   439061 
 1864000   0.72169597   -3.7688269   -3.7688269   -2.6862854  0.023467705   -3.7688269    1.0825415   439061 
 1865000   0.71974752   -3.7660599   -3.7660599   -2.6864411  0.022712553   -3.7660599    1.0796188   439061 
 1866000   0.72057707   -3.7680811   -3.7680811   -2.6872179  0.020137536   -3.7680811    1.0808631   439061 
 1867000   0.72164457   -3.7692555   -3.7692555   -2.6867911  0.017521082   -3.7692555    1.0824644   439061 
 1868000   0.72004222    -3.768659    -3.768659   -2.6885981  0.017946496    -3.768659    1.0800609   439061 
 1869000   0.72080273    -3.769482    -3.769482   -2.6882804  0.017125008    -3.769482    1.0812016   439061 
 1870000   0.72052249   -3.7687229   -3.7687229   -2.6879416  0.020839175   -3.7687229    1.0807813   439061 
 1871000   0.72031775   -3.7692162   -3.7692162   -2.6887421  0.021423971   -3.7692162    1.0804742   439061 
 1872000    0.7204928   -3.7711041   -3.7711041   -2.6903674  0.019725756   -3.7711041    1.0807367   439061 
 1873000   0.72006893    -3.770692    -3.770692    -2.690591  0.018315914    -3.770692    1.0801009   439061 
 1874000   0.71995331   -3.7699045   -3.7699045    -2.689977  0.019156537   -3.7699045    1.0799275   439061 
 1875000   0.71923791   -3.7699463   -3.7699463   -2.6910919  0.024593453   -3.7699463    1.0788544   439061 
 1876000   0.71896627   -3.7700609   -3.7700609   -2.6916139  0.025279131   -3.7700609    1.0784469   439061 
 1877000   0.72055229   -3.7730597   -3.7730597   -2.6922337  0.017906836   -3.7730597     1.080826   439061 
 1878000   0.72023688   -3.7736466   -3.7736466   -2.6932937   0.02107744   -3.7736466    1.0803529   439061 
 1879000    0.7195426   -3.7725752   -3.7725752   -2.6932638  0.022494198   -3.7725752    1.0793114   439061 
 1880000   0.72031214   -3.7732069   -3.7732069   -2.6927411  0.020145692   -3.7732069    1.0804658   439061 
 1881000   0.71909654   -3.7708952   -3.7708952   -2.6922528  0.026062508   -3.7708952    1.0786423   439061 
 1882000   0.71978475   -3.7718668   -3.7718668   -2.6921921  0.026126501   -3.7718668    1.0796747   439061 
 1883000    0.7215816   -3.7739475   -3.7739475   -2.6915776  0.023278344   -3.7739475    1.0823699   439061 
 1884000   0.72036955   -3.7721235   -3.7721235   -2.6915717  0.023924491   -3.7721235    1.0805519   439061 
 1885000   0.72200461   -3.7748444   -3.7748444   -2.6918399  0.022176695   -3.7748444    1.0830044   439061 
 1886000   0.72061506   -3.7730645   -3.7730645   -2.6921443  0.021486386   -3.7730645    1.0809201   439061 
 1887000   0.72040509   -3.7723967   -3.7723967   -2.6917915   0.02061684   -3.7723967    1.0806052   439061 
 1888000   0.72053599   -3.7719334   -3.7719334   -2.6911319  0.014232801   -3.7719334    1.0808015   439061 
 1889000   0.71898573   -3.7703149   -3.7703149   -2.6918387  0.016341412   -3.7703149    1.0784761   439061 
 1890000   0.71929264    -3.770072    -3.770072   -2.6911355  0.023386689    -3.770072    1.0789365   439061 
 1891000   0.71942267    -3.770794    -3.770794   -2.6916625  0.019615695    -3.770794    1.0791315   439061 
 1892000   0.71980476   -3.7705506   -3.7705506   -2.6908459   0.01722138   -3.7705506    1.0797047   439061 
 1893000   0.72093024   -3.7730011   -3.7730011   -2.6916082  0.014697228   -3.7730011    1.0813929   439061 
 1894000   0.71858993   -3.7706765   -3.7706765    -2.692794  0.016805539   -3.7706765    1.0778824   439061 
 1895000   0.71836636    -3.769369    -3.769369   -2.6918219  0.017904607    -3.769369    1.0775471   439061 
 1896000    0.7190437   -3.7713807   -3.7713807   -2.6928177  0.017874696   -3.7713807    1.0785631   439061 
 1897000   0.71954372   -3.7717825   -3.7717825   -2.6924693  0.018519256   -3.7717825    1.0793131   439061 
 1898000   0.71949176   -3.7715341   -3.7715341    -2.692299  0.023762008   -3.7715341    1.0792352   439061 
 1899000   0.71872973   -3.7712448   -3.7712448   -2.6931527   0.02118371   -3.7712448    1.0780921   439061 
 1900000   0.72077495    -3.773899    -3.773899   -2.6927391  0.025372372    -3.773899      1.08116   439061 
 1901000    0.7207194   -3.7745397   -3.7745397    -2.693463  0.027766706   -3.7745397    1.0810766   439061 
 1902000   0.72069948   -3.7750347   -3.7750347    -2.693988  0.024070484   -3.7750347    1.0810468   439061 
 1903000   0.72098126   -3.7756573   -3.7756573   -2.6941878  0.023855665   -3.7756573    1.0814694   439061 
 1904000   0.72078812   -3.7768915   -3.7768915   -2.6957118  0.022556388   -3.7768915    1.0811797   439061 
 1905000   0.71994492   -3.7750296   -3.7750296   -2.6951147  0.022309046   -3.7750296    1.0799149   439061 
 1906000   0.72028907   -3.7766571   -3.7766571    -2.696226  0.022353546   -3.7766571    1.0804311   439061 
 1907000   0.71987256   -3.7761583   -3.7761583   -2.6963519  0.023448178   -3.7761583    1.0798064   439061 
 1908000   0.71932951   -3.7769987   -3.7769987   -2.6980068  0.017426899   -3.7769987    1.0789918   439061 
 1909000   0.71883614   -3.7761058   -3.7761058    -2.697854  0.016682374   -3.7761058    1.0782518   439061 
 1910000   0.71842427   -3.7749785   -3.7749785   -2.6973445  0.015211728   -3.7749785     1.077634   439061 
 1911000   0.71935312   -3.7767718   -3.7767718   -2.6977446  0.014335984   -3.7767718    1.0790272   439061 
 1912000   0.71810846   -3.7762228   -3.7762228   -2.6990625  0.021530092   -3.7762228    1.0771602   439061 
 1913000   0.71867031   -3.7755248   -3.7755248   -2.6975218  0.018609406   -3.7755248     1.078003   439061 
 1914000   0.71923991   -3.7777372   -3.7777372   -2.6988798  0.014982423   -3.7777372    1.0788574   439061 
 1915000   0.71840172   -3.7768163   -3.7768163   -2.6992162  0.020023028   -3.7768163    1.0776001   439061 
 1916000   0.71858327   -3.7777307   -3.7777307   -2.6998583   0.01880928   -3.7777307    1.0778725   439061 
 1917000    0.7196178   -3.7792824   -3.7792824   -2.6998581  0.016965843   -3.7792824    1.0794242   439061 
 1918000   0.71928527   -3.7775786   -3.7775786   -2.6986531  0.022982401   -3.7775786    1.0789254   439061 
 1919000   0.71972917   -3.7794527   -3.7794527   -2.6998614  0.023882103   -3.7794527    1.0795913   439061 
 1920000   0.71966247   -3.7803989   -3.7803989   -2.7009076  0.024150495   -3.7803989    1.0794912   439061 
 1921000   0.71963204   -3.7808024   -3.7808024   -2.7013568  0.022820606   -3.7808024    1.0794456   439061 
 1922000    0.7188063   -3.7800557   -3.7800557   -2.7018487  0.019577636   -3.7800557     1.078207   439061 
 1923000   0.71865554   -3.7806315   -3.7806315   -2.7026507  0.019683976   -3.7806315    1.0779809   439061 
 1924000   0.71868584   -3.7797906   -3.7797906   -2.7017643  0.022864928   -3.7797906    1.0780263   439061 
 1925000   0.71898021    -3.779073    -3.779073   -2.7006052  0.020141262    -3.779073    1.0784679   439061 
 1926000   0.71917552   -3.7806628   -3.7806628    -2.701902  0.021774051   -3.7806628    1.0787608   439061 
 1927000     0.718739   -3.7804438   -3.7804438   -2.7023378  0.019004482   -3.7804438     1.078106   439061 
 1928000   0.71827099   -3.7805376   -3.7805376   -2.7031335  0.016490218   -3.7805376     1.077404   439061 
 1929000   0.71831071   -3.7793973   -3.7793973   -2.7019336   0.01729442   -3.7793973    1.0774636   439061 
 1930000   0.71877826   -3.7796683   -3.7796683   -2.7015034  0.015443049   -3.7796683    1.0781649   439061 
 1931000   0.71865389   -3.7797194   -3.7797194    -2.701741  0.015647446   -3.7797194    1.0779784   439061 
 1932000    0.7186486   -3.7801624   -3.7801624    -2.702192  0.020400858   -3.7801624    1.0779704   439061 
 1933000   0.71823675   -3.7793781   -3.7793781   -2.7020255  0.024232788   -3.7793781    1.0773527   439061 
 1934000   0.71955391   -3.7820807   -3.7820807   -2.7027523  0.019312358   -3.7820807    1.0793284   439061 
 1935000   0.71935483   -3.7816868   -3.7816868    -2.702657  0.019927456   -3.7816868    1.0790298   439061 
 1936000   0.71856131   -3.7807844   -3.7807844   -2.7029449  0.018263304   -3.7807844    1.0778395   439061 
 1937000   0.71859371   -3.7804595   -3.7804595   -2.7025714  0.020712539   -3.7804595    1.0778881   439061 
 1938000   0.71873193   -3.7816499   -3.7816499   -2.7035544  0.018812588   -3.7816499    1.0780954   439061 
 1939000   0.71808985   -3.7816029   -3.7816029   -2.7044705  0.017971011   -3.7816029    1.0771323   439061 
 1940000   0.71854064   -3.7816456   -3.7816456   -2.7038371  0.020985687   -3.7816456    1.0778085   439061 
 1941000   0.71749536    -3.780089    -3.780089   -2.7038484  0.020416164    -3.780089    1.0762406   439061 
 1942000   0.71789742   -3.7818113   -3.7818113   -2.7049676  0.018189182   -3.7818113    1.0768437   439061 
 1943000    0.7183347   -3.7823568   -3.7823568   -2.7048572  0.018336714   -3.7823568    1.0774996   439061 
 1944000   0.71773789   -3.7819717   -3.7819717   -2.7053674  0.016257362   -3.7819717    1.0766044   439061 
 1945000    0.7182684   -3.7833805   -3.7833805   -2.7059804  0.014181433   -3.7833805    1.0774001   439061 
 1946000   0.71729849   -3.7826679   -3.7826679   -2.7067226  0.017832613   -3.7826679    1.0759453   439061 
 1947000    0.7171696   -3.7826112   -3.7826112   -2.7068593   0.02144424   -3.7826112     1.075752   439061 
 1948000   0.71817995   -3.7839796   -3.7839796   -2.7067121  0.021468705   -3.7839796    1.0772675   439061 
 1949000   0.71632177   -3.7819624   -3.7819624   -2.7074822  0.017692786   -3.7819624    1.0744802   439061 
 1950000   0.71811011   -3.7836946   -3.7836946   -2.7065319  0.019382317   -3.7836946    1.0771627   439061 
 1951000   0.71882541   -3.7855295   -3.7855295   -2.7072938  0.021372887   -3.7855295    1.0782357   439061 
 1952000   0.71851042    -3.784853    -3.784853   -2.7070899  0.023567491    -3.784853    1.0777632   439061 
 1953000    0.7190957   -3.7847227   -3.7847227   -2.7060816   0.02217007   -3.7847227    1.0786411   439061 
 1954000   0.71953288   -3.7851012   -3.7851012   -2.7058044  0.022145033   -3.7851012    1.0792969   439061 
 1955000   0.71801396   -3.7836362   -3.7836362   -2.7066177  0.023705205   -3.7836362    1.0770185   439061 
 1956000   0.71878151    -3.784811    -3.784811   -2.7066412  0.023559779    -3.784811    1.0781698   439061 
 1957000   0.71751291   -3.7831516   -3.7831516   -2.7068847  0.017442849   -3.7831516    1.0762669   439061 
 1958000    0.7179295   -3.7852366   -3.7852366   -2.7083448  0.016880651   -3.7852366    1.0768918   439061 
 1959000   0.71719535   -3.7852804   -3.7852804   -2.7094898  0.011912016   -3.7852804    1.0757906   439061 
 1960000   0.71701725   -3.7853398   -3.7853398   -2.7098164   0.01546011   -3.7853398    1.0755234   439061 
 1961000   0.71633296   -3.7832718   -3.7832718   -2.7087748  0.012525984   -3.7832718     1.074497   439061 
 1962000   0.71569675   -3.7828068   -3.7828068   -2.7092641  0.020625931   -3.7828068    1.0735427   439061 
 1963000   0.71638504   -3.7832826   -3.7832826   -2.7087075   0.02248093   -3.7832826    1.0745751   439061 
 1964000   0.71801047   -3.7850199   -3.7850199   -2.7080067  0.022223586   -3.7850199    1.0770132   439061 
 1965000   0.71829465   -3.7863064   -3.7863064   -2.7088669  0.016312296   -3.7863064    1.0774395   439061 
 1966000   0.71781879   -3.7871734   -3.7871734   -2.7104477  0.024072425   -3.7871734    1.0767257   439061 
 1967000   0.71761425   -3.7871477   -3.7871477   -2.7107287  0.017248348   -3.7871477    1.0764189   439061 
 1968000   0.71768081    -3.788262    -3.788262   -2.7117432  0.020744561    -3.788262    1.0765188   439061 
 1969000   0.71717071   -3.7870638   -3.7870638   -2.7113102  0.020728635   -3.7870638    1.0757536   439061 
 1970000   0.71874566   -3.7897599   -3.7897599   -2.7116438  0.017399544   -3.7897599     1.078116   439061 
 1971000   0.71617477   -3.7879452   -3.7879452   -2.7136855  0.024447804   -3.7879452    1.0742597   439061 
 1972000   0.71823767    -3.790122    -3.790122   -2.7127679  0.021967169    -3.790122    1.0773541   439061 
 1973000   0.71826549   -3.7895445   -3.7895445   -2.7121487  0.022237699   -3.7895445    1.0773958   439061 
 1974000   0.71628891   -3.7863654   -3.7863654   -2.7119345  0.025601341   -3.7863654    1.0744309   439061 
 1975000   0.71820095   -3.7903695   -3.7903695   -2.7130705  0.018850803   -3.7903695     1.077299   439061 
 1976000   0.71732319   -3.7890368   -3.7890368   -2.7130544  0.025608622   -3.7890368    1.0759823   439061 
 1977000   0.71779391   -3.7898671   -3.7898671   -2.7131787  0.019669683   -3.7898671    1.0766884   439061 
 1978000   0.71735204   -3.7897228   -3.7897228   -2.7136972  0.016928771   -3.7897228    1.0760256   439061 
 1979000   0.71653205   -3.7888703   -3.7888703   -2.7140747  0.016189576   -3.7888703    1.0747956   439061 
 1980000   0.71526899   -3.7878018   -3.7878018   -2.7149008  0.020607181   -3.7878018     1.072901   439061 
 1981000   0.71547614   -3.7863842   -3.7863842   -2.7131724  0.019911852   -3.7863842    1.0732118   439061 
 1982000   0.71616277   -3.7876603   -3.7876603   -2.7134185   0.01956142   -3.7876603    1.0742417   439061 
 1983000   0.71718263   -3.7880932   -3.7880932   -2.7123217  0.018738894   -3.7880932    1.0757715   439061 
 1984000   0.71696568   -3.7876323   -3.7876323   -2.7121862  0.019337572   -3.7876323    1.0754461   439061 
 1985000   0.71695529   -3.7879215   -3.7879215    -2.712491  0.020783529   -3.7879215    1.0754305   439061 
 1986000   0.71772091   -3.7893136   -3.7893136   -2.7127347  0.018610985   -3.7893136    1.0765789   439061 
 1987000   0.71684216    -3.788348    -3.788348   -2.7130872   0.01910754    -3.788348    1.0752608   439061 
 1988000   0.71674238   -3.7891793   -3.7891793   -2.7140682  0.020956175   -3.7891793    1.0751111   439061 
 1989000   0.71555171   -3.7883184   -3.7883184   -2.7149933  0.017515505   -3.7883184    1.0733251   439061 
 1990000   0.71634453   -3.7896761   -3.7896761   -2.7151618   0.01535036   -3.7896761    1.0745144   439061 
 1991000   0.71719475   -3.7905348   -3.7905348   -2.7147451  0.014838521   -3.7905348    1.0757897   439061 
 1992000   0.71634742   -3.7892782   -3.7892782   -2.7147596  0.019670835   -3.7892782    1.0745187   439061 
 1993000   0.71778869   -3.7908231   -3.7908231   -2.7141426  0.019350382   -3.7908231    1.0766806   439061 
 1994000   0.71759782   -3.7903975   -3.7903975   -2.7140032  0.019276675   -3.7903975    1.0763943   439061 
 1995000    0.7182264   -3.7914086   -3.7914086   -2.7140715  0.024727289   -3.7914086    1.0773372   439061 
 1996000   0.71790702   -3.7913329   -3.7913329   -2.7144748  0.022044684   -3.7913329    1.0768581   439061 
 1997000   0.71690098   -3.7905625   -3.7905625   -2.7152135  0.022850863   -3.7905625     1.075349   439061 
 1998000   0.71674881   -3.7902517   -3.7902517   -2.7151309  0.018261812   -3.7902517    1.0751208   439061 
 1999000   0.71633872   -3.7901136   -3.7901136   -2.7156079  0.019917247   -3.7901136    1.0745056   439061 
 2000000   0.71669266   -3.7904318   -3.7904318   -2.7153953  0.019493823   -3.7904318    1.0750365   439061 
 2001000   0.71831806   -3.7926368   -3.7926368   -2.7151622  0.015222131   -3.7926368    1.0774746   439061 
 2002000    0.7167867   -3.7905546   -3.7905546    -2.715377  0.020759995   -3.7905546    1.0751776   439061 
 2003000   0.71692152    -3.790782    -3.790782   -2.7154022  0.015233834    -3.790782    1.0753798   439061 
 2004000   0.71743112   -3.7915306   -3.7915306   -2.7153864  0.014896106   -3.7915306    1.0761442   439061 
 2005000   0.71664161   -3.7908334   -3.7908334   -2.7158734  0.017542232   -3.7908334      1.07496   439061 
 2006000   0.71579091   -3.7905175   -3.7905175   -2.7168335  0.019734446   -3.7905175    1.0736839   439061 
 2007000   0.71669921   -3.7924117   -3.7924117   -2.7173653  0.014261736   -3.7924117    1.0750464   439061 
 2008000   0.71611312   -3.7915852   -3.7915852   -2.7174179  0.019159639   -3.7915852    1.0741672   439061 
 2009000    0.7162375   -3.7922288   -3.7922288    -2.717875  0.019054839   -3.7922288    1.0743538   439061 
 2010000   0.71508606   -3.7920107   -3.7920107   -2.7193841  0.018080071   -3.7920107    1.0726266   439061 
 2011000   0.71592414   -3.7938095   -3.7938095   -2.7199257  0.015052698   -3.7938095    1.0738838   439061 
 2012000   0.71556258   -3.7932493   -3.7932493   -2.7199079  0.020356573   -3.7932493    1.0733414   439061 
 2013000   0.71667476   -3.7942163   -3.7942163   -2.7192067  0.020516554   -3.7942163    1.0750097   439061 
 2014000   0.71660986   -3.7937675   -3.7937675   -2.7188552  0.018810776   -3.7937675    1.0749123   439061 
 2015000    0.7163625   -3.7935131   -3.7935131   -2.7189718  0.025029417   -3.7935131    1.0745413   439061 
 2016000   0.71753615   -3.7957161   -3.7957161   -2.7194144  0.019906701   -3.7957161    1.0763018   439061 
 2017000   0.71832864   -3.7973972   -3.7973972   -2.7199067  0.021271111   -3.7973972    1.0774905   439061 
 2018000   0.71618849   -3.7943709   -3.7943709   -2.7200906  0.023790375   -3.7943709    1.0742803   439061 
 2019000   0.71688914   -3.7957575   -3.7957575   -2.7204262  0.018397574   -3.7957575    1.0753313   439061 
 2020000   0.71676694    -3.795146    -3.795146    -2.719998  0.021376097    -3.795146     1.075148   439061 
 2021000   0.71614305   -3.7942022   -3.7942022   -2.7199901  0.027467128   -3.7942022    1.0742121   439061 
 2022000   0.71698188   -3.7959424   -3.7959424    -2.720472  0.017431862   -3.7959424    1.0754704   439061 
 2023000   0.71532281   -3.7944762   -3.7944762   -2.7214945  0.020015102   -3.7944762    1.0729818   439061 
 2024000   0.71635207   -3.7959239   -3.7959239   -2.7213982   0.02141862   -3.7959239    1.0745257   439061 
 2025000   0.71488239   -3.7937304   -3.7937304   -2.7214093  0.019629289   -3.7937304    1.0723211   439061 
 2026000      0.71472   -3.7945037   -3.7945037   -2.7224261   0.01434805   -3.7945037    1.0720776   439061 
 2027000   0.71472155   -3.7934184   -3.7934184   -2.7213385  0.016240143   -3.7934184    1.0720799   439061 
 2028000   0.71552534   -3.7945396   -3.7945396    -2.721254  0.018415014   -3.7945396    1.0732856   439061 
 2029000   0.71539342   -3.7951887   -3.7951887   -2.7221011  0.018290567   -3.7951887    1.0730877   439061 
 2030000   0.71648272   -3.7972977   -3.7972977    -2.722576  0.012769833   -3.7972977    1.0747216   439061 
 2031000   0.71519246   -3.7952801   -3.7952801   -2.7224939  0.014213732   -3.7952801    1.0727862   439061 
 2032000   0.71455618   -3.7952093   -3.7952093   -2.7233774  0.015508343   -3.7952093    1.0718318   439061 
 2033000   0.71482974   -3.7950166   -3.7950166   -2.7227744  0.017103749   -3.7950166    1.0722422   439061 
 2034000   0.71567205   -3.7961214   -3.7961214   -2.7226157  0.019498145   -3.7961214    1.0735056   439061 
 2035000   0.71633738   -3.7983071   -3.7983071   -2.7238034  0.021079894   -3.7983071    1.0745036   439061 
 2036000   0.71686015   -3.7993468   -3.7993468   -2.7240591  0.024161834   -3.7993468    1.0752878   439061 
 2037000   0.71646471   -3.8003672   -3.8003672   -2.7256726  0.021220783   -3.8003672    1.0746946   439061 
 2038000   0.71709877   -3.8017076   -3.8017076   -2.7260619  0.014022746   -3.8017076    1.0756457   439061 
 2039000   0.71454094   -3.7984814   -3.7984814   -2.7266724  0.018023633   -3.7984814     1.071809   439061 
 2040000   0.71436767   -3.7986539   -3.7986539   -2.7271048  0.018740088   -3.7986539    1.0715491   439061 
 2041000   0.71488205   -3.8010129   -3.8010129   -2.7286923  0.016498795   -3.8010129    1.0723206   439061 
 2042000   0.71512698   -3.8009375   -3.8009375   -2.7282495  0.016458545   -3.8009375     1.072688   439061 
 2043000   0.71627618   -3.8021509   -3.8021509    -2.727739  0.021439333   -3.8021509    1.0744118   439061 
 2044000   0.71497234   -3.8011427   -3.8011427   -2.7286866  0.017622389   -3.8011427    1.0724561   439061 
 2045000   0.71463146    -3.801043    -3.801043   -2.7290982  0.019902941    -3.801043    1.0719447   439061 
 2046000   0.71436831   -3.8014361   -3.8014361   -2.7298861  0.018393715   -3.8014361      1.07155   439061 
 2047000   0.71562785   -3.8042095   -3.8042095   -2.7307702  0.015632884   -3.8042095    1.0734393   439061 
 2048000   0.71557448   -3.8037953   -3.8037953    -2.730436  0.016599759   -3.8037953    1.0733593   439061 
 2049000   0.71516919   -3.8034492   -3.8034492   -2.7306979   0.02270227   -3.8034492    1.0727513   439061 
 2050000   0.71513526   -3.8031502   -3.8031502   -2.7304498  0.021344225   -3.8031502    1.0727004   439061 
 2051000   0.71527594   -3.8035899   -3.8035899   -2.7306784  0.021256766   -3.8035899    1.0729115   439061 
 2052000   0.71548347   -3.8045027   -3.8045027   -2.7312799  0.022812352   -3.8045027    1.0732228   439061 
 2053000   0.71545132   -3.8033639   -3.8033639   -2.7301893  0.020944048   -3.8033639    1.0731745   439061 
 2054000   0.71539502   -3.8028881   -3.8028881    -2.729798  0.020190147   -3.8028881    1.0730901   439061 
 2055000   0.71471824   -3.8020561   -3.8020561   -2.7299812  0.021848265   -3.8020561    1.0720749   439061 
 2056000   0.71361311   -3.8020308   -3.8020308   -2.7316135  0.020902643   -3.8020308    1.0704172   439061 
 2057000   0.71424524   -3.8025942   -3.8025942   -2.7312287  0.020573657   -3.8025942    1.0713654   439061 
 2058000   0.71398921   -3.8017911   -3.8017911   -2.7308097  0.016216376   -3.8017911    1.0709814   439061 
 2059000   0.71393109    -3.802641    -3.802641   -2.7317468  0.016203873    -3.802641    1.0708942   439061 
 2060000   0.71354308   -3.8022483   -3.8022483   -2.7319361  0.016757047   -3.8022483    1.0703122   439061 
 2061000   0.71377782   -3.8023009   -3.8023009   -2.7316367  0.019469421   -3.8023009    1.0706643   439061 
 2062000   0.71454433   -3.8036525   -3.8036525   -2.7318385  0.015184588   -3.8036525    1.0718141   439061 
 2063000   0.71390148   -3.8021279   -3.8021279   -2.7312781  0.019755902   -3.8021279    1.0708498   439061 
 2064000   0.71479655   -3.8026899   -3.8026899   -2.7304976  0.022153908   -3.8026899    1.0721924   439061 
 2065000   0.71514951   -3.8045781   -3.8045781   -2.7318563  0.020906264   -3.8045781    1.0727218   439061 
 2066000   0.71379365   -3.8032546   -3.8032546   -2.7325666  0.018691715   -3.8032546     1.070688   439061 
 2067000   0.71380606   -3.8038408   -3.8038408   -2.7331341  0.017982634   -3.8038408    1.0707066   439061 
 2068000   0.71288181   -3.8026513   -3.8026513    -2.733331  0.018287173   -3.8026513    1.0693203   439061 
 2069000   0.71460855   -3.8047755   -3.8047755   -2.7328651  0.016556414   -3.8047755    1.0719104   439061 
 2070000   0.71406028   -3.8044604   -3.8044604   -2.7333724  0.017526427   -3.8044604     1.071088   439061 
 2071000   0.71528177     -3.80624     -3.80624   -2.7333198   0.01672191     -3.80624    1.0729202   439061 
 2072000   0.71421206   -3.8038227   -3.8038227   -2.7325071  0.020119492   -3.8038227    1.0713157   439061 
 2073000   0.71416132   -3.8043524   -3.8043524   -2.7331129  0.015923852   -3.8043524    1.0712395   439061 
 2074000   0.71337961   -3.8029255   -3.8029255   -2.7328585  0.018908478   -3.8029255     1.070067   439061 
 2075000   0.71372133   -3.8041178   -3.8041178   -2.7335383  0.017620971   -3.8041178    1.0705796   439061 
 2076000    0.7155036   -3.8050672   -3.8050672   -2.7318142  0.020348314   -3.8050672     1.073253   439061 
 2077000    0.7152112   -3.8050788   -3.8050788   -2.7322644  0.019944098   -3.8050788    1.0728144   439061 
 2078000   0.71646653   -3.8063479   -3.8063479   -2.7316505  0.017466852   -3.8063479    1.0746974   439061 
 2079000   0.71604694   -3.8045857   -3.8045857   -2.7305177  0.022854871   -3.8045857     1.074068   439061 
 2080000   0.71482006   -3.8038307   -3.8038307   -2.7316031  0.019894626   -3.8038307    1.0722276   439061 
 2081000   0.71387386   -3.8028611   -3.8028611   -2.7320528  0.020593702   -3.8028611    1.0708083   439061 
 2082000   0.71528034    -3.805722    -3.805722    -2.732804  0.015764431    -3.805722    1.0729181   439061 
 2083000   0.71435238   -3.8050424   -3.8050424   -2.7335162  0.013542448   -3.8050424    1.0715261   439061 
 2084000    0.7137741   -3.8029094   -3.8029094   -2.7322507  0.019019471   -3.8029094    1.0706587   439061 
 2085000   0.71413358   -3.8038104   -3.8038104   -2.7326124   0.01452922   -3.8038104    1.0711979   439061 
 2086000   0.71536709   -3.8052575   -3.8052575   -2.7322093  0.016681123   -3.8052575    1.0730482   439061 
 2087000   0.71426267   -3.8047451   -3.8047451   -2.7333535  0.014024526   -3.8047451    1.0713916   439061 
 2088000   0.71473906   -3.8048418   -3.8048418   -2.7327357  0.015795069   -3.8048418    1.0721061   439061 
 2089000   0.71508124   -3.8050367   -3.8050367   -2.7324173  0.018080147   -3.8050367    1.0726194   439061 
 2090000   0.71455755   -3.8043664   -3.8043664   -2.7325325    0.0187447   -3.8043664    1.0718339   439061 
 2091000   0.71477208   -3.8054561   -3.8054561   -2.7333004  0.013492345   -3.8054561    1.0721557   439061 
 2092000   0.71484265   -3.8056446   -3.8056446    -2.733383  0.017099095   -3.8056446    1.0722615   439061 
 2093000   0.71537808   -3.8063362   -3.8063362   -2.7332715   0.01945599   -3.8063362    1.0730647   439061 
 2094000   0.71456037   -3.8051218   -3.8051218   -2.7332837  0.022456547   -3.8051218    1.0718381   439061 
 2095000   0.71466206   -3.8047214   -3.8047214   -2.7327307  0.028375836   -3.8047214    1.0719906   439061 
 2096000   0.71467225   -3.8056923   -3.8056923   -2.7336863  0.017841962   -3.8056923    1.0720059   439061 
 2097000   0.71416367   -3.8064353   -3.8064353   -2.7351922  0.013006475   -3.8064353    1.0712431   439061 
 2098000   0.71420845   -3.8062934   -3.8062934   -2.7349832  0.015849678   -3.8062934    1.0713102   439061 
 2099000   0.71372056   -3.8065631   -3.8065631   -2.7359847  0.015682105   -3.8065631    1.0705784   439061 
 2100000   0.71480342   -3.8066714   -3.8066714   -2.7344687  0.014847019   -3.8066714    1.0722027   439061 
 2101000    0.7138777   -3.8070153   -3.8070153   -2.7362012  0.013753335   -3.8070153    1.0708141   439061 
 2102000   0.71485762   -3.8067429   -3.8067429   -2.7344589  0.013054926   -3.8067429     1.072284   439061 
 2103000   0.71317895   -3.8051868   -3.8051868   -2.7354208  0.018594694   -3.8051868     1.069766   439061 
 2104000   0.71455477   -3.8069653   -3.8069653   -2.7351356  0.011815152   -3.8069653    1.0718297   439061 
 2105000    0.7129448   -3.8057429   -3.8057429   -2.7363282  0.019613327   -3.8057429    1.0694148   439061 
 2106000   0.71290185   -3.8059966   -3.8059966   -2.7366463  0.021157511   -3.8059966    1.0693503   439061 
 2107000   0.71567899   -3.8091858   -3.8091858   -2.7356698  0.016028225   -3.8091858     1.073516   439061 
 2108000   0.71474039   -3.8081558   -3.8081558   -2.7360477  0.018520403   -3.8081558    1.0721081   439061 
 2109000   0.71330611   -3.8064159   -3.8064159   -2.7364591  0.020001245   -3.8064159    1.0699567   439061 
 2110000   0.71405065   -3.8089928   -3.8089928   -2.7379193  0.018812641   -3.8089928    1.0710735   439061 
 2111000   0.71402978   -3.8091822   -3.8091822     -2.73814  0.016519533   -3.8091822    1.0710422   439061 
 2112000   0.71350383   -3.8080888   -3.8080888   -2.7378355  0.019151287   -3.8080888    1.0702533   439061 
 2113000   0.71270885   -3.8074698   -3.8074698   -2.7384089  0.021836011   -3.8074698    1.0690608   439061 
 2114000     0.715216   -3.8109171   -3.8109171   -2.7380955   0.02262758   -3.8109171    1.0728216   439061 
 2115000   0.71448785   -3.8097789   -3.8097789   -2.7380495  0.017365394   -3.8097789    1.0717293   439061 
 2116000    0.7139738   -3.8091703   -3.8091703    -2.738212  0.022862937   -3.8091703    1.0709583   439061 
 2117000    0.7154184    -3.811099    -3.811099   -2.7379739  0.019632242    -3.811099    1.0731252   439061 
 2118000   0.71347023   -3.8096972   -3.8096972   -2.7394943  0.021707641   -3.8096972    1.0702029   439061 
 2119000   0.71427876   -3.8105831   -3.8105831   -2.7391674  0.019928713   -3.8105831    1.0714157   439061 
 2120000   0.71391913   -3.8097892   -3.8097892   -2.7389129  0.017340886   -3.8097892    1.0708763   439061 
 2121000     0.713416   -3.8091315   -3.8091315   -2.7390099  0.020500043   -3.8091315    1.0701216   439061 
 2122000   0.71411053   -3.8103422   -3.8103422   -2.7391789  0.016504456   -3.8103422    1.0711633   439061 
 2123000   0.71312662    -3.808628    -3.808628   -2.7389405  0.021862973    -3.808628    1.0696875   439061 
 2124000   0.71505585   -3.8113029   -3.8113029   -2.7387215  0.011557047   -3.8113029    1.0725813   439061 
 2125000   0.71447944   -3.8099483   -3.8099483   -2.7382315  0.018010957   -3.8099483    1.0717167   439061 
 2126000   0.71354838   -3.8094393   -3.8094393   -2.7391192  0.014225585   -3.8094393    1.0703201   439061 
 2127000   0.71270006   -3.8070503   -3.8070503   -2.7380026  0.020767055   -3.8070503    1.0690477   439061 
 2128000   0.71331186   -3.8081029   -3.8081029   -2.7381375  0.015353306   -3.8081029    1.0699654   439061 
 2129000   0.71454946   -3.8091939   -3.8091939   -2.7373722  0.014626527   -3.8091939    1.0718217   439061 
 2130000   0.71484357    -3.810531    -3.810531   -2.7382681  0.014269059    -3.810531    1.0722629   439061 
 2131000   0.71248974    -3.808543    -3.808543   -2.7398108  0.014938363    -3.808543    1.0687322   439061 
 2132000   0.71325154   -3.8093221   -3.8093221   -2.7394472  0.014675633   -3.8093221    1.0698749   439061 
 2133000   0.71256736   -3.8087238   -3.8087238   -2.7398752  0.017269335   -3.8087238    1.0688486   439061 
 2134000   0.71252496   -3.8085434   -3.8085434   -2.7397584  0.016709499   -3.8085434     1.068785   439061 
 2135000   0.71260438   -3.8102854   -3.8102854   -2.7413812  0.015078647   -3.8102854    1.0689041   439061 
 2136000   0.71367952   -3.8112132   -3.8112132   -2.7406963  0.019343041   -3.8112132    1.0705168   439061 
 2137000   0.71460827   -3.8122393   -3.8122393   -2.7403293  0.022117934   -3.8122393      1.07191   439061 
 2138000   0.71495055   -3.8136175   -3.8136175   -2.7411942  0.023905672   -3.8136175    1.0724234   439061 
 2139000   0.71464412   -3.8127207   -3.8127207    -2.740757  0.023749756   -3.8127207    1.0719637   439061 
 2140000   0.71438269   -3.8126594   -3.8126594   -2.7410878  0.022554459   -3.8126594    1.0715716   439061 
 2141000   0.71371303   -3.8119328   -3.8119328   -2.7413657  0.018352479   -3.8119328    1.0705671   439061 
 2142000    0.7133663   -3.8115124   -3.8115124   -2.7414654  0.023514365   -3.8115124     1.070047   439061 
 2143000   0.71324632   -3.8124069   -3.8124069   -2.7425398  0.014347129   -3.8124069     1.069867   439061 
 2144000   0.71447801   -3.8133064   -3.8133064   -2.7415918   0.01741937   -3.8133064    1.0717146   439061 
 2145000   0.71338873   -3.8107275   -3.8107275   -2.7406468  0.022478458   -3.8107275    1.0700807   439061 
 2146000   0.71277973   -3.8103508   -3.8103508   -2.7411836  0.017951852   -3.8103508    1.0691672   439061 
 2147000   0.71337022   -3.8115897   -3.8115897   -2.7415368  0.014825671   -3.8115897    1.0700529   439061 
 2148000   0.71260147   -3.8100409   -3.8100409   -2.7411411  0.015034784   -3.8100409    1.0688998   439061 
 2149000   0.71266665   -3.8105448   -3.8105448   -2.7415473  0.018929726   -3.8105448    1.0689975   439061 
 2150000   0.71300723   -3.8104723   -3.8104723   -2.7409639  0.020758467   -3.8104723    1.0695084   439061 
 2151000   0.71228776   -3.8096906   -3.8096906   -2.7412614  0.021533568   -3.8096906    1.0684292   439061 
 2152000   0.71306626   -3.8110208   -3.8110208   -2.7414239  0.017562923   -3.8110208     1.069597   439061 
 2153000   0.71386001   -3.8118399   -3.8118399   -2.7410523   0.01763043   -3.8118399    1.0707876   439061 
 2154000    0.7119578   -3.8115206   -3.8115206   -2.7435864  0.019056226   -3.8115206    1.0679343   439061 
 2155000   0.71188299   -3.8122761   -3.8122761   -2.7444541   0.01204833   -3.8122761     1.067822   439061 
 2156000   0.71263177   -3.8135877   -3.8135877   -2.7446425   0.01266093   -3.8135877    1.0689452   439061 
 2157000   0.71307178   -3.8149759   -3.8149759   -2.7453707  0.016489351   -3.8149759    1.0696052   439061 
 2158000   0.71318867   -3.8144743   -3.8144743   -2.7446937  0.017623522   -3.8144743    1.0697806   439061 
 2159000   0.71393032   -3.8156372   -3.8156372   -2.7447442  0.017717599   -3.8156372     1.070893   439061 
 2160000   0.71365827     -3.81455     -3.81455    -2.744065  0.023378847     -3.81455     1.070485   439061 
 2161000   0.71470098   -3.8159989   -3.8159989   -2.7439498  0.021708904   -3.8159989     1.072049   439061 
 2162000    0.7135795    -3.814944    -3.814944   -2.7445771  0.025697202    -3.814944    1.0703668   439061 
 2163000   0.71460393   -3.8170787   -3.8170787   -2.7451752  0.020121189   -3.8170787    1.0719035   439061 
 2164000   0.71307771   -3.8161295   -3.8161295   -2.7465153   0.01932943   -3.8161295    1.0696141   439061 
 2165000   0.71374998   -3.8167552   -3.8167552   -2.7461326  0.020784104   -3.8167552    1.0706225   439061 
 2166000   0.71193721   -3.8135565   -3.8135565   -2.7456531  0.020494917   -3.8135565    1.0679034   439061 
 2167000   0.71268985   -3.8137774   -3.8137774   -2.7447451  0.017894812   -3.8137774    1.0690323   439061 
 2168000   0.71201963   -3.8132978   -3.8132978   -2.7452708  0.020722948   -3.8132978     1.068027   439061 
 2169000   0.71243764   -3.8141067   -3.8141067   -2.7454527   0.01528117   -3.8141067     1.068654   439061 
 2170000   0.71305739   -3.8141542   -3.8141542   -2.7445705  0.018155756   -3.8141542    1.0695837   439061 
 2171000    0.7116035   -3.8121073   -3.8121073   -2.7447045  0.017727063   -3.8121073    1.0674028   439061 
 2172000   0.71193909   -3.8122965   -3.8122965   -2.7443903  0.012231133   -3.8122965    1.0679062   439061 
 2173000   0.71235623   -3.8131267   -3.8131267   -2.7445948  0.017647588   -3.8131267    1.0685319   439061 
 2174000   0.71185418   -3.8133862   -3.8133862   -2.7456074  0.011048825   -3.8133862    1.0677788   439061 
 2175000   0.71352808   -3.8155719   -3.8155719   -2.7452822   0.01507049   -3.8155719    1.0702897   439061 
 2176000   0.71528409   -3.8173137   -3.8173137     -2.74439  0.014398016   -3.8173137    1.0729237   439061 
 2177000   0.71401852   -3.8165646   -3.8165646   -2.7455393  0.019449046   -3.8165646    1.0710253   439061 
 2178000   0.71333319    -3.815475    -3.815475   -2.7454777  0.021614574    -3.815475    1.0699973   439061 
 2179000   0.71306537   -3.8149566   -3.8149566   -2.7453609  0.023063361   -3.8149566    1.0695956   439061 
 2180000   0.71319778   -3.8164978   -3.8164978   -2.7467036  0.015096966   -3.8164978    1.0697942   439061 
 2181000   0.71229922   -3.8160495   -3.8160495   -2.7476031  0.018455339   -3.8160495    1.0684464   439061 
 2182000   0.71245007   -3.8159844   -3.8159844   -2.7473117  0.015900837   -3.8159844    1.0686727   439061 
 2183000   0.71273119   -3.8171364   -3.8171364   -2.7480421  0.014696876   -3.8171364    1.0690943   439061 
 2184000   0.71322796   -3.8172655   -3.8172655    -2.747426  0.014295542   -3.8172655    1.0698395   439061 
 2185000   0.71257275   -3.8174498   -3.8174498   -2.7485931  0.013778429   -3.8174498    1.0688567   439061 
 2186000    0.7125449   -3.8178174   -3.8178174   -2.7490024  0.019615006   -3.8178174    1.0688149   439061 
 2187000   0.71251271    -3.816034    -3.816034   -2.7472674  0.018994778    -3.816034    1.0687666   439061 
 2188000    0.7130157   -3.8163766   -3.8163766   -2.7468555  0.020471905   -3.8163766    1.0695211   439061 
 2189000   0.71284541   -3.8163767   -3.8163767    -2.747111  0.019978726   -3.8163767    1.0692657   439061 
 2190000   0.71400221   -3.8197669   -3.8197669    -2.748766  0.013757316   -3.8197669    1.0710009   439061 
 2191000   0.71236392   -3.8170232   -3.8170232   -2.7484798  0.018832093   -3.8170232    1.0685434   439061 
 2192000   0.71265111   -3.8178757   -3.8178757   -2.7489015  0.018887701   -3.8178757    1.0689742   439061 
 2193000   0.71218584   -3.8154142   -3.8154142   -2.7471378  0.015765464   -3.8154142    1.0682763   439061 
 2194000   0.71333035   -3.8177988   -3.8177988   -2.7478057  0.015762011   -3.8177988    1.0699931   439061 
 2195000   0.71334613   -3.8184141   -3.8184141   -2.7483973  0.018975026   -3.8184141    1.0700168   439061 
 2196000   0.71368133   -3.8182964   -3.8182964   -2.7477769   0.01867336   -3.8182964    1.0705196   439061 
 2197000   0.71373842   -3.8190294   -3.8190294   -2.7484242  0.017225462   -3.8190294    1.0706052   439061 
 2198000    0.7117514   -3.8175206   -3.8175206    -2.749896  0.019482606   -3.8175206    1.0676247   439061 
 2199000   0.71211481   -3.8185862   -3.8185862   -2.7504165  0.014813163   -3.8185862    1.0681698   439061 
 2200000   0.71165023    -3.818913    -3.818913   -2.7514401  0.015669105    -3.818913    1.0674729   439061 
 2201000   0.71214568    -3.819293    -3.819293   -2.7510769  0.014169913    -3.819293    1.0682161   439061 
 2202000   0.71239375   -3.8199156   -3.8199156   -2.7513274  0.018504836   -3.8199156    1.0685882   439061 
 2203000   0.71248744   -3.8206692   -3.8206692   -2.7519405  0.020168757   -3.8206692    1.0687287   439061 
 2204000   0.71286169   -3.8211624   -3.8211624   -2.7518723  0.014827472   -3.8211624    1.0692901   439061 
 2205000   0.71276876   -3.8215004   -3.8215004   -2.7523497  0.018674699   -3.8215004    1.0691507   439061 
 2206000   0.71233069   -3.8202584   -3.8202584   -2.7517648  0.022934793   -3.8202584    1.0684936   439061 
 2207000   0.71225295   -3.8218256   -3.8218256   -2.7534486  0.017924261   -3.8218256     1.068377   439061 
 2208000   0.71280789   -3.8216976   -3.8216976   -2.7524882  0.017718021   -3.8216976    1.0692094   439061 
 2209000   0.71202016   -3.8209728   -3.8209728    -2.752945  0.016057776   -3.8209728    1.0680278   439061 
 2210000   0.71338908   -3.8224553   -3.8224553   -2.7523742  0.017416087   -3.8224553    1.0700812   439061 
 2211000   0.71207197   -3.8202015   -3.8202015    -2.752096  0.022296127   -3.8202015    1.0681055   439061 
 2212000   0.71243496   -3.8199312   -3.8199312   -2.7512812   0.02274776   -3.8199312      1.06865   439061 
 2213000   0.71303929    -3.820181    -3.820181   -2.7506245  0.021075402    -3.820181    1.0695565   439061 
 2214000    0.7132008   -3.8211716   -3.8211716   -2.7513729  0.012523798   -3.8211716    1.0697988   439061 
 2215000   0.71171226   -3.8188959   -3.8188959   -2.7513299  0.016896153   -3.8188959     1.067566   439061 
 2216000   0.71147225   -3.8183375   -3.8183375   -2.7511316  0.019258072   -3.8183375    1.0672059   439061 
 2217000   0.71344667   -3.8205535   -3.8205535   -2.7503859  0.012076746   -3.8205535    1.0701676   439061 
 2218000   0.71208216   -3.8182356   -3.8182356   -2.7501148  0.013605218   -3.8182356    1.0681208   439061 
 2219000   0.71156384   -3.8182688   -3.8182688   -2.7509255  0.013684093   -3.8182688    1.0673433   439061 
 2220000   0.71102944   -3.8176234   -3.8176234   -2.7510816  0.017445585   -3.8176234    1.0665417   439061 
 2221000   0.71080266   -3.8166287   -3.8166287   -2.7504271   0.01810165   -3.8166287    1.0662016   439061 
 2222000   0.71163861   -3.8183628   -3.8183628   -2.7509073  0.012395266   -3.8183628    1.0674555   439061 
 2223000    0.7113941   -3.8184519   -3.8184519   -2.7513632  0.014766306   -3.8184519    1.0670887   439061 
 2224000   0.71141599   -3.8193752   -3.8193752   -2.7522537  0.011931247   -3.8193752    1.0671216   439061 
 2225000   0.71277109   -3.8210039   -3.8210039   -2.7518497  0.013365181   -3.8210039    1.0691542   439061 
 2226000   0.71281815   -3.8213887   -3.8213887   -2.7521639  0.019275651   -3.8213887    1.0692248   439061 
 2227000    0.7124313   -3.8215917   -3.8215917   -2.7529472  0.018242377   -3.8215917    1.0686445   439061 
 2228000   0.71295859   -3.8215292   -3.8215292   -2.7520937  0.017383278   -3.8215292    1.0694355   439061 
 2229000   0.71317799   -3.8231012   -3.8231012   -2.7533366  0.017530047   -3.8231012    1.0697646   439061 
 2230000   0.71231479   -3.8229975   -3.8229975   -2.7545277  0.018383428   -3.8229975    1.0684697   439061 
 2231000   0.71278185   -3.8239636   -3.8239636   -2.7547933  0.015780433   -3.8239636    1.0691703   439061 
 2232000   0.71318091   -3.8237656   -3.8237656   -2.7539967  0.016549556   -3.8237656    1.0697689   439061 
 2233000   0.71330703   -3.8251834   -3.8251834   -2.7552253   0.01335095   -3.8251834    1.0699581   439061 
 2234000   0.71190868   -3.8227854   -3.8227854   -2.7549248  0.018808467   -3.8227854    1.0678606   439061 
 2235000   0.71106016    -3.821645    -3.821645   -2.7550572  0.021822595    -3.821645    1.0665878   439061 
 2236000   0.71162444   -3.8229652   -3.8229652    -2.755531  0.013445035   -3.8229652    1.0674342   439061 
 2237000   0.71073678   -3.8226871   -3.8226871   -2.7565843  0.015178983   -3.8226871    1.0661027   439061 
 2238000   0.71097331      -3.8225      -3.8225   -2.7560425  0.016230059      -3.8225    1.0664575   439061 
 2239000   0.71119021   -3.8230733   -3.8230733   -2.7562904  0.014868372   -3.8230733    1.0667829   439061 
 2240000   0.71132112    -3.822672    -3.822672   -2.7556927   0.01420052    -3.822672    1.0669792   439061 
 2241000   0.71191016   -3.8243384   -3.8243384   -2.7564756  0.016765292   -3.8243384    1.0678628   439061 
 2242000   0.71121971   -3.8233796   -3.8233796   -2.7565524  0.013298079   -3.8233796    1.0668271   439061 
 2243000   0.71029286   -3.8216031   -3.8216031   -2.7561663  0.018925746   -3.8216031    1.0654369   439061 
 2244000   0.71152944   -3.8222613   -3.8222613   -2.7549696  0.020858951   -3.8222613    1.0672917   439061 
 2245000   0.71076657   -3.8223761   -3.8223761   -2.7562286  0.017127379   -3.8223761    1.0661474   439061 
 2246000   0.71269393   -3.8245551   -3.8245551   -2.7555166  0.015782379   -3.8245551    1.0690385   439061 
 2247000   0.71206681    -3.822922    -3.822922   -2.7548242  0.023498072    -3.822922    1.0680978   439061 
 2248000    0.7117776   -3.8230532   -3.8230532   -2.7553892  0.018786395   -3.8230532     1.067664   439061 
 2249000   0.71138543   -3.8232181   -3.8232181   -2.7561424  0.017972856   -3.8232181    1.0670757   439061 
 2250000   0.71178343    -3.824318    -3.824318   -2.7566453  0.016599717    -3.824318    1.0676727   439061 
 2251000   0.71077181   -3.8243482   -3.8243482   -2.7581929  0.014982756   -3.8243482    1.0661553   439061 
 2252000   0.71083852   -3.8238987   -3.8238987   -2.7576434  0.016223928   -3.8238987    1.0662554   439061 
 2253000   0.71112284   -3.8230222   -3.8230222   -2.7563404   0.01828884   -3.8230222    1.0666818   439061 
 2254000   0.71224181   -3.8258227   -3.8258227   -2.7574625  0.014316824   -3.8258227    1.0683603   439061 
 2255000   0.71176817    -3.825163    -3.825163   -2.7575131   0.01610543    -3.825163    1.0676498   439061 
 2256000   0.71118707   -3.8243832   -3.8243832    -2.757605  0.022233772   -3.8243832    1.0667782   439061 
 2257000   0.71214946    -3.826464    -3.826464   -2.7582422  0.015582094    -3.826464    1.0682218   439061 
 2258000   0.71180687     -3.82692     -3.82692   -2.7592121  0.014321158     -3.82692    1.0677079   439061 
 2259000   0.71059771   -3.8255053   -3.8255053   -2.7596112  0.013455436   -3.8255053    1.0658941   439061 
 2260000   0.71074795   -3.8260214   -3.8260214   -2.7599019  0.014714096   -3.8260214    1.0661195   439061 
 2261000   0.71052466   -3.8253153   -3.8253153   -2.7595307  0.017358826   -3.8253153    1.0657846   439061 
 2262000   0.71006851   -3.8253444   -3.8253444   -2.7602441  0.020608188   -3.8253444    1.0651003   439061 
 2263000   0.71152743   -3.8281799   -3.8281799   -2.7608912  0.013709064   -3.8281799    1.0672887   439061 
 2264000   0.71123557    -3.826192    -3.826192   -2.7593411  0.022358204    -3.826192    1.0668509   439061 
 2265000   0.71185821   -3.8282785   -3.8282785   -2.7604936  0.016607788   -3.8282785    1.0677849   439061 
 2266000   0.71124874   -3.8271572   -3.8271572   -2.7602865  0.018105906   -3.8271572    1.0668707   439061 
 2267000   0.71050411    -3.826426    -3.826426   -2.7606722  0.018186487    -3.826426    1.0657537   439061 
 2268000   0.71028598    -3.825812    -3.825812   -2.7603855  0.019964599    -3.825812    1.0654265   439061 
 2269000    0.7114642   -3.8278701   -3.8278701   -2.7606762  0.022462047   -3.8278701    1.0671939   439061 
 2270000   0.71222628   -3.8298941   -3.8298941   -2.7615571  0.014202516   -3.8298941     1.068337   439061 
 2271000   0.70988368   -3.8268604   -3.8268604   -2.7620373  0.016407586   -3.8268604    1.0648231   439061 
 2272000   0.71055777   -3.8272813   -3.8272813   -2.7614471  0.016543727   -3.8272813    1.0658342   439061 
 2273000   0.70981018   -3.8278162   -3.8278162   -2.7631034  0.016276639   -3.8278162    1.0647128   439061 
 2274000   0.71021973   -3.8271333   -3.8271333   -2.7618061  0.014256329   -3.8271333    1.0653272   439061 
 2275000   0.71118784   -3.8281971   -3.8281971   -2.7614177  0.020587894   -3.8281971    1.0667793   439061 
 2276000   0.71066067   -3.8290438   -3.8290438   -2.7630552  0.015454589   -3.8290438    1.0659886   439061 
 2277000   0.71010866   -3.8281268   -3.8281268   -2.7629662  0.018240782   -3.8281268    1.0651606   439061 
 2278000   0.71109644   -3.8291443   -3.8291443    -2.762502  0.016918702   -3.8291443    1.0666422   439061 
 2279000   0.71120085   -3.8293192   -3.8293192   -2.7625204  0.015204278   -3.8293192    1.0667988   439061 
 2280000   0.71086171   -3.8280604   -3.8280604   -2.7617703  0.021396286   -3.8280604    1.0662901   439061 
 2281000   0.70979729   -3.8272934   -3.8272934   -2.7625999  0.016586482   -3.8272934    1.0646935   439061 
 2282000   0.70897891   -3.8271242   -3.8271242   -2.7636582   0.01791389   -3.8271242    1.0634659   439061 
 2283000    0.7109667   -3.8290878   -3.8290878   -2.7626402  0.013994894   -3.8290878    1.0664476   439061 
 2284000   0.71051629   -3.8284907   -3.8284907   -2.7627187  0.014249065   -3.8284907     1.065772   439061 
 2285000   0.71121912   -3.8292012   -3.8292012    -2.762375  0.018347165   -3.8292012    1.0668262   439061 
 2286000   0.70982651   -3.8277807   -3.8277807   -2.7630433  0.020156169   -3.8277807    1.0647373   439061 
 2287000   0.70996548   -3.8283649   -3.8283649   -2.7634191  0.019575761   -3.8283649    1.0649458   439061 
 2288000   0.71063177   -3.8295327   -3.8295327   -2.7635874   0.01665224   -3.8295327    1.0659452   439061 
 2289000   0.70963142   -3.8285755   -3.8285755   -2.7641308  0.019133315   -3.8285755    1.0644447   439061 
 2290000   0.71046918   -3.8291707   -3.8291707   -2.7634694  0.019475871   -3.8291707    1.0657013   439061 
 2291000   0.71038652   -3.8283869   -3.8283869   -2.7628096  0.017994015   -3.8283869    1.0655773   439061 
 2292000   0.71008657   -3.8270771   -3.8270771   -2.7619497  0.019686123   -3.8270771    1.0651274   439061 
 2293000    0.7112348   -3.8285897   -3.8285897     -2.76174  0.023247271   -3.8285897    1.0668498   439061 
 2294000   0.71132146   -3.8286805   -3.8286805   -2.7617007  0.021636283   -3.8286805    1.0669798   439061 
 2295000   0.71150715   -3.8285524   -3.8285524   -2.7612941  0.019379889   -3.8285524    1.0672583   439061 
 2296000   0.71079439   -3.8280486   -3.8280486   -2.7618594   0.01849043   -3.8280486    1.0661892   439061 
 2297000   0.71005874   -3.8272882   -3.8272882   -2.7622025  0.019120826   -3.8272882    1.0650857   439061 
 2298000   0.70903872   -3.8259267   -3.8259267    -2.762371  0.017671946   -3.8259267    1.0635557   439061 
 2299000    0.7105041   -3.8289426   -3.8289426   -2.7631889  0.015186052   -3.8289426    1.0657537   439061 
 2300000   0.71082375   -3.8286901   -3.8286901   -2.7624569  0.011888737   -3.8286901    1.0662332   439061 
 2301000    0.7114575   -3.8282242   -3.8282242   -2.7610404  0.017301779   -3.8282242    1.0671838   439061 
 2302000   0.71076885   -3.8280707   -3.8280707   -2.7619198  0.017933799   -3.8280707    1.0661508   439061 
 2303000   0.70995277    -3.826703    -3.826703   -2.7617763  0.015409976    -3.826703    1.0649267   439061 
 2304000   0.70896343   -3.8252472   -3.8252472   -2.7618045  0.015553586   -3.8252472    1.0634427   439061 
 2305000   0.71111375   -3.8283027   -3.8283027   -2.7616345   0.01432422   -3.8283027    1.0666682   439061 
 2306000   0.70999397    -3.827363    -3.827363   -2.7623745  0.017227895    -3.827363    1.0649885   439061 
 2307000   0.71007977    -3.827739    -3.827739   -2.7626217  0.013252732    -3.827739    1.0651172   439061 
 2308000   0.70987475   -3.8284111   -3.8284111   -2.7636014  0.017621272   -3.8284111    1.0648097   439061 
 2309000   0.70922238   -3.8279525   -3.8279525   -2.7641213  0.013748885   -3.8279525    1.0638311   439061 
 2310000   0.71003474   -3.8278742   -3.8278742   -2.7628245  0.018942197   -3.8278742    1.0650497   439061 
 2311000   0.71065807   -3.8297441   -3.8297441   -2.7637594  0.014579323   -3.8297441    1.0659847   439061 
 2312000   0.71092089   -3.8307587   -3.8307587   -2.7643798  0.016598663   -3.8307587    1.0663789   439061 
 2313000   0.71163007   -3.8313203   -3.8313203   -2.7638776  0.017552949   -3.8313203    1.0674427   439061 
 2314000   0.71087117   -3.8312717   -3.8312717   -2.7649674  0.018279277   -3.8312717    1.0663043   439061 
 2315000   0.71017084   -3.8305337   -3.8305337   -2.7652799  0.019409839   -3.8305337    1.0652538   439061 
 2316000    0.7104611    -3.832148    -3.832148   -2.7664588  0.017980502    -3.832148    1.0656892   439061 
 2317000   0.71006524    -3.831636    -3.831636   -2.7665405  0.017987734    -3.831636    1.0650954   439061 
 2318000   0.71072008   -3.8318352   -3.8318352   -2.7657575  0.019573238   -3.8318352    1.0660777   439061 
 2319000   0.71006457   -3.8312231   -3.8312231   -2.7661287  0.017204347   -3.8312231    1.0650944   439061 
 2320000   0.71061482   -3.8326201   -3.8326201   -2.7667003  0.018733462   -3.8326201    1.0659198   439061 
 2321000   0.70980707   -3.8315261   -3.8315261   -2.7668179  0.017296942   -3.8315261    1.0647082   439061 
 2322000   0.70957495   -3.8297797   -3.8297797   -2.7654197  0.017404034   -3.8297797      1.06436   439061 
 2323000   0.71053662   -3.8307017   -3.8307017   -2.7648992  0.014850998   -3.8307017    1.0658025   439061 
 2324000   0.70901036   -3.8295745   -3.8295745   -2.7660614  0.016829089   -3.8295745    1.0635131   439061 
 2325000   0.71034038   -3.8317961   -3.8317961   -2.7662879  0.013817915   -3.8317961    1.0655081   439061 
 2326000   0.71019259   -3.8310593   -3.8310593   -2.7657728  0.015839083   -3.8310593    1.0652865   439061 
 2327000   0.70926691   -3.8285435   -3.8285435   -2.7646455  0.017507821   -3.8285435    1.0638979   439061 
 2328000   0.71088217   -3.8299246   -3.8299246   -2.7636037  0.018852887   -3.8299246    1.0663208   439061 
 2329000   0.71102928   -3.8299186   -3.8299186   -2.7633771  0.015491336   -3.8299186    1.0665415   439061 
 2330000   0.71099901   -3.8296532   -3.8296532   -2.7631571  0.016226264   -3.8296532    1.0664961   439061 
 2331000   0.71051398   -3.8300738   -3.8300738   -2.7643052  0.018912395   -3.8300738    1.0657685   439061 
 2332000   0.71014552   -3.8290667   -3.8290667   -2.7638509  0.018659573   -3.8290667    1.0652158   439061 
 2333000   0.70947588   -3.8287126   -3.8287126   -2.7645012   0.01888059   -3.8287126    1.0642114   439061 
 2334000    0.7098856   -3.8300404   -3.8300404   -2.7652144  0.015722985   -3.8300404     1.064826   439061 
 2335000   0.70890684   -3.8296852   -3.8296852   -2.7663274 0.0086877497   -3.8296852    1.0633578   439061 
 2336000   0.70940467   -3.8301255   -3.8301255   -2.7660209  0.013463982   -3.8301255    1.0641046   439061 
 2337000   0.70888727   -3.8295036   -3.8295036   -2.7661752  0.017893146   -3.8295036    1.0633285   439061 
 2338000   0.70997624   -3.8313196   -3.8313196   -2.7663577  0.012681717   -3.8313196    1.0649619   439061 
 2339000   0.70923474   -3.8312117   -3.8312117    -2.767362   0.01887043   -3.8312117    1.0638497   439061 
 2340000   0.70990371   -3.8321684   -3.8321684   -2.7673153  0.015720944   -3.8321684    1.0648531   439061 
 2341000   0.71062326   -3.8337601   -3.8337601   -2.7678276  0.015483096   -3.8337601    1.0659325   439061 
 2342000   0.70876089     -3.83209     -3.83209   -2.7689511  0.018766669     -3.83209    1.0631389   439061 
 2343000   0.71086497   -3.8356396   -3.8356396   -2.7693446   0.00951154   -3.8356396     1.066295   439061 
 2344000   0.70847021   -3.8337911   -3.8337911   -2.7710882  0.018589812   -3.8337911    1.0627029   439061 
 2345000   0.71046312    -3.835965    -3.835965   -2.7702728  0.019116164    -3.835965    1.0656922   439061 
 2346000   0.70985703   -3.8355831   -3.8355831      -2.7708  0.018166054   -3.8355831    1.0647831   439061 
 2347000   0.70930845   -3.8348287   -3.8348287   -2.7708684  0.018675467   -3.8348287    1.0639602   439061 
 2348000   0.70915791   -3.8341677   -3.8341677   -2.7704332   0.02227802   -3.8341677    1.0637344   439061 
 2349000   0.70957802   -3.8360903   -3.8360903   -2.7717257  0.019727125   -3.8360903    1.0643646   439061 
 2350000   0.70947745   -3.8359396   -3.8359396   -2.7717259  0.020044904   -3.8359396    1.0642138   439061 
 2351000   0.71074475   -3.8378118   -3.8378118   -2.7716971  0.023295754   -3.8378118    1.0661147   439061 
 2352000   0.70923189   -3.8363611   -3.8363611   -2.7725157  0.018586497   -3.8363611    1.0638454   439061 
 2353000   0.70912598   -3.8373021   -3.8373021   -2.7736155  0.018270992   -3.8373021    1.0636865   439061 
 2354000   0.70898399   -3.8363942   -3.8363942   -2.7729207  0.014348576   -3.8363942    1.0634736   439061 
 2355000   0.70899685   -3.8364654   -3.8364654   -2.7729726  0.013706043   -3.8364654    1.0634929   439061 
 2356000   0.71018138   -3.8372805   -3.8372805   -2.7720108  0.013896644   -3.8372805    1.0652696   439061 
 2357000    0.7106494   -3.8372179   -3.8372179   -2.7712462  0.017434924   -3.8372179    1.0659717   439061 
 2358000   0.70982533   -3.8366859   -3.8366859   -2.7719503  0.014944285   -3.8366859    1.0647356   439061 
 2359000   0.70833087   -3.8347724   -3.8347724   -2.7722785  0.019972401   -3.8347724    1.0624939   439061 
 2360000   0.70864851   -3.8357473   -3.8357473    -2.772777  0.020604367   -3.8357473    1.0629704   439061 
 2361000   0.70872865   -3.8347389   -3.8347389   -2.7716484  0.013119869   -3.8347389    1.0630906   439061 
 2362000   0.70917254   -3.8357251   -3.8357251   -2.7719688  0.020181305   -3.8357251    1.0637564   439061 
 2363000   0.70883482   -3.8351084   -3.8351084   -2.7718586  0.017463936   -3.8351084    1.0632498   439061 
 2364000   0.70931924   -3.8355841   -3.8355841   -2.7716076  0.017415078   -3.8355841    1.0639764   439061 
 2365000   0.70841083   -3.8348023   -3.8348023   -2.7721885  0.015657824   -3.8348023    1.0626138   439061 
 2366000    0.7090819   -3.8360721   -3.8360721   -2.7724516  0.014920513   -3.8360721    1.0636204   439061 
 2367000   0.70891001   -3.8357418   -3.8357418   -2.7723792  0.013620071   -3.8357418    1.0633626   439061 
 2368000   0.70944381   -3.8368803   -3.8368803    -2.772717  0.017018386   -3.8368803    1.0641633   439061 
 2369000     0.708991   -3.8359341   -3.8359341     -2.77245  0.017442282   -3.8359341    1.0634841   439061 
 2370000   0.70906605   -3.8352175   -3.8352175   -2.7716209  0.017768762   -3.8352175    1.0635966   439061 
 2371000    0.7089786   -3.8347617   -3.8347617   -2.7712962    0.0201538   -3.8347617    1.0634655   439061 
 2372000   0.70844258   -3.8345993   -3.8345993   -2.7719379  0.028462255   -3.8345993    1.0626615   439061 
 2373000   0.70946624   -3.8363765   -3.8363765   -2.7721795  0.017980095   -3.8363765    1.0641969   439061 
 2374000   0.71036233   -3.8375821   -3.8375821    -2.772041  0.019651489   -3.8375821    1.0655411   439061 
 2375000   0.70911876   -3.8359131   -3.8359131   -2.7722374  0.021141792   -3.8359131    1.0636757   439061 
 2376000   0.70943898   -3.8358884   -3.8358884   -2.7717324  0.021906387   -3.8358884     1.064156   439061 
 2377000   0.70848016   -3.8346382   -3.8346382   -2.7719204  0.019134376   -3.8346382    1.0627178   439061 
 2378000   0.70949401   -3.8364003   -3.8364003   -2.7721617  0.019831999   -3.8364003    1.0642386   439061 
 2379000   0.70952596   -3.8369371   -3.8369371   -2.7726506  0.015816608   -3.8369371    1.0642865   439061 
 2380000   0.70851112   -3.8370225   -3.8370225   -2.7742583   0.01211968   -3.8370225    1.0627643   439061 
 2381000    0.7083055   -3.8355609   -3.8355609   -2.7731051  0.013809385   -3.8355609    1.0624558   439061 
 2382000   0.70879347   -3.8355331   -3.8355331   -2.7723453  0.012800295   -3.8355331    1.0631878   439061 
 2383000   0.70834239   -3.8352933   -3.8352933   -2.7727821  0.018964932   -3.8352933    1.0625112   439061 
 2384000   0.70960077   -3.8372965   -3.8372965   -2.7728977  0.014351184   -3.8372965    1.0643987   439061 
 2385000    0.7088086   -3.8368723   -3.8368723   -2.7736618  0.013294848   -3.8368723    1.0632105   439061 
 2386000   0.70942956   -3.8374521   -3.8374521   -2.7733102  0.015305744   -3.8374521    1.0641419   439061 
 2387000   0.70890835    -3.836949    -3.836949   -2.7735889    0.0179178    -3.836949    1.0633601   439061 
 2388000    0.7094396   -3.8378131   -3.8378131   -2.7736561  0.018030098   -3.8378131     1.064157   439061 
 2389000   0.70978158   -3.8379978   -3.8379978   -2.7733278  0.020126295   -3.8379978    1.0646699   439061 
 2390000   0.70942208   -3.8380468   -3.8380468   -2.7739161  0.015211031   -3.8380468    1.0641307   439061 
 2391000    0.7087323   -3.8371921   -3.8371921   -2.7740961  0.016096019   -3.8371921     1.063096   439061 
 2392000   0.70812125    -3.837419    -3.837419   -2.7752395  0.016088815    -3.837419    1.0621795   439061 
 2393000   0.70910635   -3.8391469   -3.8391469   -2.7754898  0.016356996   -3.8391469    1.0636571   439061 
 2394000   0.70820859   -3.8382587   -3.8382587   -2.7759483  0.016260356   -3.8382587    1.0623105   439061 
 2395000   0.70940817   -3.8386751   -3.8386751   -2.7745652  0.015020639   -3.8386751    1.0641098   439061 
 2396000   0.70927194   -3.8385923   -3.8385923   -2.7746868  0.015138025   -3.8385923    1.0639055   439061 
 2397000   0.70994762   -3.8390328   -3.8390328   -2.7741138  0.019264628   -3.8390328     1.064919   439061 
 2398000   0.70941526   -3.8387958   -3.8387958   -2.7746753  0.014906443   -3.8387958    1.0641205   439061 
 2399000   0.70999174   -3.8405979   -3.8405979   -2.7756128  0.015427271   -3.8405979    1.0649852   439061 
 2400000   0.70987126   -3.8410508   -3.8410508   -2.7762463  0.015580105   -3.8410508    1.0648045   439061 
 2401000   0.70794654   -3.8389012   -3.8389012   -2.7769838  0.015761504   -3.8389012    1.0619174   439061 
 2402000   0.70803878   -3.8390345   -3.8390345   -2.7769787  0.012123181   -3.8390345    1.0620558   439061 
 2403000   0.70779613   -3.8390576   -3.8390576   -2.7773659  0.011737061   -3.8390576    1.0616918   439061 
 2404000    0.7078357   -3.8396068   -3.8396068   -2.7778557  0.016029428   -3.8396068    1.0617511   439061 
 2405000   0.70875051   -3.8408501   -3.8408501   -2.7777268  0.013390389   -3.8408501    1.0631233   439061 
 2406000   0.70816036   -3.8389368   -3.8389368   -2.7766987  0.021089037   -3.8389368    1.0622381   439061 
 2407000   0.70864364   -3.8402016   -3.8402016   -2.7772385  0.015590814   -3.8402016     1.062963   439061 
 2408000   0.70859964   -3.8396491   -3.8396491   -2.7767521  0.015629828   -3.8396491     1.062897   439061 
 2409000   0.70903209    -3.840395    -3.840395   -2.7768493   0.01658555    -3.840395    1.0635457   439061 
 2410000   0.70895267   -3.8403075   -3.8403075   -2.7768809  0.018766853   -3.8403075    1.0634266   439061 
 2411000   0.70901107   -3.8410877   -3.8410877   -2.7775735  0.017270619   -3.8410877    1.0635142   439061 
 2412000   0.70884001   -3.8406897   -3.8406897   -2.7774321  0.019951092   -3.8406897    1.0632576   439061 
 2413000   0.70919978   -3.8406807   -3.8406807   -2.7768835  0.019462438   -3.8406807    1.0637972   439061 
 2414000   0.70788395   -3.8406897   -3.8406897   -2.7788662  0.017305204   -3.8406897    1.0618235   439061 
 2415000   0.70783588   -3.8399472   -3.8399472   -2.7781958  0.019200482   -3.8399472    1.0617514   439061 
 2416000   0.70823667   -3.8405179   -3.8405179   -2.7781653  0.014036098   -3.8405179    1.0623526   439061 
 2417000   0.70768608   -3.8407933   -3.8407933   -2.7792666  0.014076624   -3.8407933    1.0615267   439061 
 2418000   0.70837225   -3.8416557   -3.8416557   -2.7790997  0.012411392   -3.8416557     1.062556   439061 
 2419000   0.70883908   -3.8411787   -3.8411787   -2.7779225  0.015640846   -3.8411787    1.0632562   439061 
 2420000   0.70879178   -3.8416471   -3.8416471   -2.7784619  0.016511096   -3.8416471    1.0631852   439061 
 2421000   0.70843644   -3.8413046   -3.8413046   -2.7786524   0.01525819   -3.8413046    1.0626522   439061 
 2422000   0.70875532   -3.8417517   -3.8417517   -2.7786211  0.016696954   -3.8417517    1.0631306   439061 
 2423000   0.70840403    -3.841855    -3.841855   -2.7792513  0.015948803    -3.841855    1.0626036   439061 
 2424000   0.70862931   -3.8405819   -3.8405819   -2.7776403  0.015342242   -3.8405819    1.0629415   439061 
 2425000    0.7090588   -3.8420508   -3.8420508    -2.778465   0.01454412   -3.8420508    1.0635858   439061 
 2426000   0.70741819   -3.8403072   -3.8403072   -2.7791823  0.019160975   -3.8403072    1.0611249   439061 
 2427000   0.70834833   -3.8430828   -3.8430828   -2.7805627  0.016020779   -3.8430828    1.0625201   439061 
 2428000   0.70782383   -3.8428096   -3.8428096   -2.7810763  0.017045388   -3.8428096    1.0617333   439061 
 2429000   0.70712196   -3.8420667   -3.8420667   -2.7813862  0.015626642   -3.8420667    1.0606805   439061 
 2430000   0.70769991   -3.8429148   -3.8429148   -2.7813674  0.015556777   -3.8429148    1.0615475   439061 
 2431000   0.70889057   -3.8437452   -3.8437452   -2.7804118  0.018226874   -3.8437452    1.0633334   439061 
 2432000   0.70846468   -3.8433133   -3.8433133   -2.7806187  0.018507988   -3.8433133    1.0626946   439061 
 2433000    0.7085758   -3.8434983   -3.8434983    -2.780637  0.018556864   -3.8434983    1.0628613   439061 
 2434000   0.71010232   -3.8453328   -3.8453328   -2.7801817  0.017712583   -3.8453328    1.0651511   439061 
 2435000   0.70861288   -3.8422685   -3.8422685   -2.7793516   0.02134719   -3.8422685    1.0629169   439061 
 2436000   0.70876547   -3.8426639   -3.8426639   -2.7795181  0.020968273   -3.8426639    1.0631458   439061 
 2437000   0.70853136   -3.8432761   -3.8432761   -2.7804815   0.01698209   -3.8432761    1.0627946   439061 
 2438000   0.70846913   -3.8432483   -3.8432483   -2.7805471  0.017251224   -3.8432483    1.0627013   439061 
 2439000   0.70905054   -3.8442388   -3.8442388   -2.7806654  0.016195647   -3.8442388    1.0635734   439061 
 2440000   0.70776807   -3.8421101   -3.8421101   -2.7804604  0.019329441   -3.8421101    1.0616497   439061 
 2441000   0.70837985   -3.8426742   -3.8426742   -2.7801068  0.017641249   -3.8426742    1.0625674   439061 
 2442000    0.7079622   -3.8422563   -3.8422563   -2.7803154  0.017667015   -3.8422563    1.0619409   439061 
 2443000   0.70743409   -3.8417599   -3.8417599   -2.7806112  0.016523029   -3.8417599    1.0611487   439061 
 2444000   0.70661455   -3.8401554   -3.8401554    -2.780236  0.016042828   -3.8401554    1.0599194   439061 
 2445000   0.70757914   -3.8407801   -3.8407801   -2.7794138  0.017097236   -3.8407801    1.0613663   439061 
 2446000   0.70950922   -3.8426363   -3.8426363   -2.7783749  0.018798516   -3.8426363    1.0642614   439061 
 2447000   0.70905697   -3.8416136   -3.8416136   -2.7780306  0.021562165   -3.8416136     1.063583   439061 
 2448000   0.70929934   -3.8416448   -3.8416448   -2.7776982  0.020492911   -3.8416448    1.0639466   439061 
 2449000   0.71032413   -3.8425926   -3.8425926   -2.7771088  0.020279793   -3.8425926    1.0654838   439061 
 2450000   0.70881841   -3.8407149   -3.8407149   -2.7774897  0.018394289   -3.8407149    1.0632252   439061 
 2451000   0.70842779   -3.8405668   -3.8405668   -2.7779276   0.01621367   -3.8405668    1.0626393   439061 
 2452000   0.70782473   -3.8405917   -3.8405917    -2.778857  0.012518662   -3.8405917    1.0617347   439061 
 2453000   0.70809608   -3.8421736   -3.8421736   -2.7800319   0.01155123   -3.8421736    1.0621417   439061 
 2454000   0.70796672   -3.8407877   -3.8407877   -2.7788401  0.015498226   -3.8407877    1.0619477   439061 
 2455000   0.70769589   -3.8402298   -3.8402298   -2.7786884  0.014223744   -3.8402298    1.0615414   439061 
 2456000   0.70842474    -3.840907    -3.840907   -2.7782723  0.019425636    -3.840907    1.0626347   439061 
 2457000   0.70829561   -3.8403533   -3.8403533   -2.7779123  0.013483527   -3.8403533     1.062441   439061 
 2458000   0.70875657   -3.8402977   -3.8402977   -2.7771653  0.017549842   -3.8402977    1.0631324   439061 
 2459000   0.70858935   -3.8407283   -3.8407283   -2.7778467  0.020634385   -3.8407283    1.0628816   439061 
 2460000   0.70801382   -3.8408523   -3.8408523    -2.778834  0.019867936   -3.8408523    1.0620183   439061 
 2461000   0.70792605   -3.8414178   -3.8414178   -2.7795311  0.016736777   -3.8414178    1.0618867   439061 
 2462000   0.70800096    -3.842483    -3.842483    -2.780484  0.014056208    -3.842483     1.061999   439061 
 2463000    0.7066854   -3.8396299   -3.8396299   -2.7796042  0.014732489   -3.8396299    1.0600257   439061 
 2464000   0.70680571   -3.8400372   -3.8400372    -2.779831  0.018001629   -3.8400372    1.0602061   439061 
 2465000   0.70829317   -3.8421463   -3.8421463    -2.779709  0.020436919   -3.8421463    1.0624373   439061 
 2466000   0.71022525   -3.8439466   -3.8439466   -2.7786112  0.019654375   -3.8439466    1.0653354   439061 
 2467000   0.70977055   -3.8428419   -3.8428419   -2.7781885  0.021224673   -3.8428419    1.0646534   439061 
 2468000   0.70817505   -3.8413927   -3.8413927   -2.7791325  0.019714212   -3.8413927    1.0622602   439061 
 2469000   0.70876158    -3.843326    -3.843326    -2.780186  0.011098906    -3.843326      1.06314   439061 
 2470000   0.70789984   -3.8417998   -3.8417998   -2.7799524   0.01810858   -3.8417998    1.0618473   439061 
 2471000   0.70800872   -3.8429052   -3.8429052   -2.7808945  0.012279095   -3.8429052    1.0620107   439061 
 2472000   0.70910935   -3.8423592   -3.8423592   -2.7786976  0.016898074   -3.8423592    1.0636616   439061 
 2473000   0.70877286   -3.8419877   -3.8419877   -2.7788309  0.019450829   -3.8419877    1.0631569   439061 
 2474000   0.70909883    -3.842865    -3.842865   -2.7792192  0.016669416    -3.842865    1.0636458   439061 
 2475000   0.70696675   -3.8402282   -3.8402282   -2.7797805  0.012524097   -3.8402282    1.0604477   439061 
 2476000   0.70783745   -3.8424814   -3.8424814   -2.7807277 0.0098242325   -3.8424814    1.0617538   439061 
 2477000   0.70745377   -3.8416163   -3.8416163    -2.780438  0.011737551   -3.8416163    1.0611782   439061 
 2478000   0.70765587   -3.8421914   -3.8421914     -2.78071  0.015472859   -3.8421914    1.0614814   439061 
 2479000   0.70784764   -3.8415356   -3.8415356   -2.7797666  0.019456235   -3.8415356     1.061769   439061 
 2480000   0.70807179   -3.8423996   -3.8423996   -2.7802944   0.01972983   -3.8423996    1.0621053   439061 
 2481000   0.70749086   -3.8413125   -3.8413125   -2.7800787  0.022298754   -3.8413125    1.0612339   439061 
 2482000   0.70826862   -3.8434531   -3.8434531   -2.7810526  0.014847466   -3.8434531    1.0624005   439061 
 2483000   0.70904851   -3.8451012   -3.8451012   -2.7815308  0.013750065   -3.8451012    1.0635703   439061 
 2484000   0.70798069   -3.8442896   -3.8442896    -2.782321   0.01755127   -3.8442896    1.0619686   439061 
 2485000   0.70820685   -3.8448107   -3.8448107   -2.7825028  0.019823242   -3.8448107    1.0623078   439061 
 2486000   0.70850195   -3.8446198   -3.8446198   -2.7818693  0.022852689   -3.8446198    1.0627505   439061 
 2487000   0.70789055   -3.8441767   -3.8441767   -2.7823433  0.024334191   -3.8441767    1.0618334   439061 
 2488000   0.70874017   -3.8457095   -3.8457095   -2.7826017  0.014454866   -3.8457095    1.0631078   439061 
 2489000   0.70796681   -3.8451678   -3.8451678     -2.78322  0.015927516   -3.8451678    1.0619478   439061 
 2490000   0.70793261   -3.8455837   -3.8455837   -2.7836872  0.015347891   -3.8455837    1.0618965   439061 
 2491000   0.70811922   -3.8459815   -3.8459815   -2.7838051  0.012899832   -3.8459815    1.0621764   439061 
 2492000   0.70768939   -3.8460289   -3.8460289   -2.7844972  0.014526571   -3.8460289    1.0615317   439061 
 2493000   0.70759691   -3.8452571   -3.8452571   -2.7838641  0.018897635   -3.8452571    1.0613929   439061 
 2494000   0.70794149   -3.8443601   -3.8443601   -2.7824503  0.019216085   -3.8443601    1.0619098   439061 
 2495000   0.70791881   -3.8452338   -3.8452338    -2.783358   0.02051528   -3.8452338    1.0618758   439061 
 2496000   0.70768128   -3.8450783   -3.8450783   -2.7835588  0.016343983   -3.8450783    1.0615195   439061 
 2497000   0.70767943   -3.8454293   -3.8454293   -2.7839126  0.014421383   -3.8454293    1.0615167   439061 
 2498000   0.70692136   -3.8434416   -3.8434416   -2.7830619  0.019275237   -3.8434416    1.0603796   439061 
 2499000   0.70901652   -3.8469327   -3.8469327   -2.7834104  0.010655371   -3.8469327    1.0635224   439061 
 2500000   0.70701228   -3.8434711   -3.8434711   -2.7829551    0.0217845   -3.8434711     1.060516   439061 
 2501000   0.71016795   -3.8473366   -3.8473366   -2.7820871  0.016489688   -3.8473366    1.0652495   439061 
 2502000    0.7077227   -3.8434354   -3.8434354   -2.7818537  0.019238642   -3.8434354    1.0615816   439061 
 2503000    0.7079327   -3.8436002   -3.8436002   -2.7817036  0.017880605   -3.8436002    1.0618966   439061 
 2504000    0.7074071   -3.8434689   -3.8434689   -2.7823607  0.016545092   -3.8434689    1.0611082   439061 
 2505000   0.70739423   -3.8447101   -3.8447101   -2.7836212   0.01504328   -3.8447101    1.0610889   439061 
 2506000   0.70682231   -3.8436586   -3.8436586   -2.7834275  0.015563636   -3.8436586    1.0602311   439061 
 2507000   0.70821434   -3.8448988   -3.8448988   -2.7825797 0.0081296761   -3.8448988    1.0623191   439061 
 2508000   0.70713923    -3.843736    -3.843736   -2.7830295  0.011833968    -3.843736    1.0607064   439061 
 2509000   0.70669845    -3.844232    -3.844232   -2.7841867  0.017117463    -3.844232    1.0600453   439061 
 2510000   0.70685863   -3.8419944   -3.8419944   -2.7817088   0.01557675   -3.8419944    1.0602855   439061 
 2511000    0.7072613   -3.8423726   -3.8423726   -2.7814831  0.016898097   -3.8423726    1.0608895   439061 
 2512000   0.70764981   -3.8426858   -3.8426858   -2.7812135  0.023059918   -3.8426858    1.0614723   439061 
 2513000   0.70947006   -3.8451217   -3.8451217   -2.7809191  0.016079429   -3.8451217    1.0642027   439061 
 2514000   0.70884833   -3.8460342   -3.8460342   -2.7827641  0.015455672   -3.8460342    1.0632701   439061 
 2515000   0.70771315   -3.8445719   -3.8445719   -2.7830046   0.02276639   -3.8445719    1.0615673   439061 
 2516000   0.70802092   -3.8445737   -3.8445737   -2.7825447  0.019302783   -3.8445737     1.062029   439061 
 2517000   0.70811985   -3.8458307   -3.8458307   -2.7836534  0.014187148   -3.8458307    1.0621774   439061 
 2518000   0.70767715   -3.8452242   -3.8452242   -2.7837109  0.016741086   -3.8452242    1.0615133   439061 
 2519000   0.70814344    -3.846041    -3.846041   -2.7838283  0.014633933    -3.846041    1.0622127   439061 
 2520000   0.70875814    -3.847442    -3.847442   -2.7843072  0.012393663    -3.847442    1.0631348   439061 
 2521000   0.70824773    -3.846065    -3.846065   -2.7836958  0.013284695    -3.846065    1.0623692   439061 
 2522000    0.7079002   -3.8450515   -3.8450515   -2.7832036  0.019469813   -3.8450515    1.0618479   439061 
 2523000   0.70911885   -3.8468753   -3.8468753   -2.7831995  0.015963724   -3.8468753    1.0636759   439061 
 2524000   0.70865385   -3.8464767   -3.8464767   -2.7834983  0.017026116   -3.8464767    1.0629784   439061 
 2525000    0.7076029   -3.8453584   -3.8453584   -2.7839565  0.018936761   -3.8453584    1.0614019   439061 
 2526000   0.70808044   -3.8469395   -3.8469395   -2.7848213  0.013600368   -3.8469395    1.0621182   439061 
 2527000   0.70772036   -3.8464356   -3.8464356   -2.7848574  0.011984329   -3.8464356    1.0615781   439061 
 2528000   0.70744369   -3.8457372   -3.8457372   -2.7845741  0.013585723   -3.8457372    1.0611631   439061 
 2529000   0.70761457   -3.8469686   -3.8469686   -2.7855492  0.013525945   -3.8469686    1.0614194   439061 
 2530000   0.70772615   -3.8467436   -3.8467436   -2.7851568  0.012622231   -3.8467436    1.0615868   439061 
 2531000   0.70723783   -3.8471324   -3.8471324   -2.7862781  0.015163243   -3.8471324    1.0608543   439061 
 2532000   0.70625235   -3.8445038   -3.8445038   -2.7851277  0.019741226   -3.8445038    1.0593761   439061 
 2533000   0.70758472   -3.8464279   -3.8464279   -2.7850532  0.011288663   -3.8464279    1.0613747   439061 
 2534000   0.70845704   -3.8477408   -3.8477408   -2.7850576  0.015736805   -3.8477408    1.0626831   439061 
 2535000   0.70855527   -3.8485922   -3.8485922   -2.7857617   0.01966271   -3.8485922    1.0628305   439061 
 2536000    0.7088432   -3.8486037   -3.8486037   -2.7853413  0.022363197   -3.8486037    1.0632624   439061 
 2537000   0.70769203   -3.8473961   -3.8473961   -2.7858605  0.021735897   -3.8473961    1.0615356   439061 
 2538000   0.70760052   -3.8487052   -3.8487052   -2.7873069  0.013684583   -3.8487052    1.0613984   439061 
 2539000   0.70738696    -3.848854    -3.848854    -2.787776   0.01142382    -3.848854     1.061078   439061 
 2540000   0.70684798   -3.8483031   -3.8483031   -2.7880336  0.015916507   -3.8483031    1.0602696   439061 
 2541000   0.70669241   -3.8483816   -3.8483816   -2.7883454  0.013635454   -3.8483816    1.0600362   439061 
 2542000    0.7063521    -3.847428    -3.847428   -2.7879022  0.015526572    -3.847428    1.0595257   439061 
 2543000   0.70707616   -3.8477751   -3.8477751   -2.7871633  0.017075028   -3.8477751    1.0606118   439061 
 2544000   0.70756407   -3.8482578   -3.8482578   -2.7869141  0.014317155   -3.8482578    1.0613437   439061 
 2545000   0.70677476   -3.8474273   -3.8474273   -2.7872676  0.017634055   -3.8474273    1.0601597   439061 
 2546000   0.70720379   -3.8488744   -3.8488744   -2.7880711  0.019577508   -3.8488744    1.0608033   439061 
 2547000   0.70768448   -3.8495759   -3.8495759   -2.7880516  0.013037334   -3.8495759    1.0615243   439061 
 2548000   0.70697987   -3.8484447   -3.8484447   -2.7879773  0.016781452   -3.8484447    1.0604674   439061 
 2549000   0.70716336   -3.8498203   -3.8498203   -2.7890777  0.011483743   -3.8498203    1.0607426   439061 
 2550000   0.70689834   -3.8486927   -3.8486927   -2.7883476   0.01371683   -3.8486927    1.0603451   439061 
 2551000    0.7062785   -3.8489298   -3.8489298   -2.7895144  0.021019827   -3.8489298    1.0594153   439061 
 2552000   0.70811304   -3.8515534   -3.8515534   -2.7893862  0.015606247   -3.8515534    1.0621671   439061 
 2553000   0.70704828   -3.8498649   -3.8498649   -2.7892949  0.019022085   -3.8498649      1.06057   439061 
 2554000   0.70714311       -3.851       -3.851   -2.7902878  0.015747766       -3.851    1.0607122   439061 
 2555000   0.70738378   -3.8513505   -3.8513505   -2.7902773  0.017981506   -3.8513505    1.0610733   439061 
 2556000   0.70756682   -3.8524095   -3.8524095   -2.7910617  0.014044697   -3.8524095    1.0613478   439061 
 2557000   0.70630113   -3.8512108   -3.8512108   -2.7917616  0.013958044   -3.8512108    1.0594493   439061 
 2558000   0.70726288   -3.8509027   -3.8509027   -2.7900108  0.017102969   -3.8509027    1.0608919   439061 
 2559000   0.70778584   -3.8517519   -3.8517519   -2.7900755  0.013467175   -3.8517519    1.0616763   439061 
 2560000   0.70780653   -3.8513064   -3.8513064    -2.789599  0.016715127   -3.8513064    1.0617074   439061 
 2561000    0.7063512   -3.8508599   -3.8508599   -2.7913355  0.014508599   -3.8508599    1.0595244   439061 
 2562000    0.7059957   -3.8504505   -3.8504505   -2.7914593  0.014562972   -3.8504505    1.0589911   439061 
 2563000   0.70619151   -3.8503284   -3.8503284   -2.7910435   0.01548177   -3.8503284    1.0592849   439061 
 2564000   0.70636165   -3.8506523   -3.8506523   -2.7911123  0.017405305   -3.8506523    1.0595401   439061 
 2565000   0.70681459   -3.8511585   -3.8511585   -2.7909391  0.016733479   -3.8511585    1.0602195   439061 
 2566000   0.70689573   -3.8502665   -3.8502665   -2.7899253  0.018707361   -3.8502665    1.0603412   439061 
 2567000   0.70879306   -3.8533633   -3.8533633   -2.7901762  0.013338406   -3.8533633    1.0631872   439061 
 2568000   0.70806795   -3.8527445   -3.8527445    -2.790645  0.015213622   -3.8527445    1.0620995   439061 
 2569000   0.70613649   -3.8504195   -3.8504195   -2.7912171  0.017330074   -3.8504195    1.0592023   439061 
 2570000   0.70538286   -3.8485945   -3.8485945   -2.7905226  0.018940573   -3.8485945    1.0580719   439061 
 2571000   0.70656975   -3.8505806   -3.8505806   -2.7907284  0.011789469   -3.8505806    1.0598522   439061 
 2572000   0.70716366   -3.8511679   -3.8511679   -2.7904248  0.013063582   -3.8511679    1.0607431   439061 
 2573000   0.70789659   -3.8527774   -3.8527774   -2.7909349 0.0091044137   -3.8527774    1.0618425   439061 
 2574000   0.70630903   -3.8501848   -3.8501848   -2.7907237   0.01434345   -3.8501848    1.0594611   439061 
 2575000   0.70630042   -3.8498307   -3.8498307   -2.7903825  0.017497882   -3.8498307    1.0594482   439061 
 2576000   0.70650134   -3.8496868   -3.8496868   -2.7899372  0.012641303   -3.8496868    1.0597496   439061 
 2577000   0.70637182   -3.8488249   -3.8488249   -2.7892696  0.017464156   -3.8488249    1.0595553   439061 
 2578000   0.70685377   -3.8496122   -3.8496122   -2.7893339  0.017867816   -3.8496122    1.0602782   439061 
 2579000   0.70827193   -3.8511983   -3.8511983   -2.7887928  0.016925733   -3.8511983    1.0624055   439061 
 2580000   0.70762576   -3.8504508   -3.8504508   -2.7890145  0.016517642   -3.8504508    1.0614362   439061 
 2581000   0.70703379   -3.8506095   -3.8506095   -2.7900612  0.014823405   -3.8506095    1.0605483   439061 
 2582000   0.70621891   -3.8509669   -3.8509669   -2.7916409  0.017510956   -3.8509669     1.059326   439061 
 2583000   0.70648621   -3.8507073   -3.8507073   -2.7909804  0.019089443   -3.8507073    1.0597269   439061 
 2584000   0.70606119   -3.8496316   -3.8496316   -2.7905422  0.019692399   -3.8496316    1.0590894   439061 
 2585000   0.70697048   -3.8515081   -3.8515081   -2.7910548  0.014501919   -3.8515081    1.0604533   439061 
 2586000   0.70703292   -3.8519857   -3.8519857   -2.7914388  0.015177426   -3.8519857     1.060547   439061 
 2587000    0.7069526   -3.8511473   -3.8511473   -2.7907208  0.016757694   -3.8511473    1.0604265   439061 
 2588000   0.70707779   -3.8506523   -3.8506523    -2.790038  0.020203642   -3.8506523    1.0606143   439061 
 2589000   0.70741786   -3.8519917   -3.8519917   -2.7908674  0.019587746   -3.8519917    1.0611244   439061 
 2590000   0.70824517   -3.8528371   -3.8528371   -2.7904717   0.01758318   -3.8528371    1.0623653   439061 
 2591000   0.70772444   -3.8519992   -3.8519992   -2.7904149  0.017483885   -3.8519992    1.0615842   439061 
 2592000   0.70716713   -3.8512698   -3.8512698   -2.7905215   0.01622531   -3.8512698    1.0607483   439061 
 2593000   0.70643911   -3.8515146   -3.8515146   -2.7918584   0.01406203   -3.8515146    1.0596563   439061 
 2594000   0.70631829   -3.8505397   -3.8505397   -2.7910646  0.014973609   -3.8505397     1.059475   439061 
 2595000   0.70616411   -3.8498967   -3.8498967   -2.7906529  0.015488841   -3.8498967    1.0592438   439061 
 2596000   0.70745719   -3.8511725   -3.8511725   -2.7899891  0.013798775   -3.8511725    1.0611834   439061 
 2597000   0.70580843   -3.8490899   -3.8490899   -2.7903796  0.019818081   -3.8490899    1.0587102   439061 
 2598000   0.70532547   -3.8493797   -3.8493797   -2.7913939  0.018321858   -3.8493797    1.0579858   439061 
 2599000   0.70587872   -3.8498145   -3.8498145   -2.7909988  0.016750523   -3.8498145    1.0588157   439061 
 2600000   0.70506837   -3.8480887   -3.8480887   -2.7904885  0.018239078   -3.8480887    1.0576001   439061 
 2601000   0.70730641    -3.850625    -3.850625   -2.7896678  0.014126208    -3.850625    1.0609572   439061 
 2602000   0.70759537   -3.8512957   -3.8512957   -2.7899051  0.018436572   -3.8512957    1.0613906   439061 
 2603000   0.70640474   -3.8497781   -3.8497781   -2.7901734  0.019500474   -3.8497781    1.0596047   439061 
 2604000   0.70619154   -3.8509797   -3.8509797   -2.7916948  0.014036751   -3.8509797    1.0592849   439061 
 2605000   0.70484508   -3.8492235   -3.8492235   -2.7919583  0.021212163   -3.8492235    1.0572652   439061 
 2606000   0.70493633   -3.8499212   -3.8499212   -2.7925191   0.01472802   -3.8499212    1.0574021   439061 
 2607000   0.70704024   -3.8525808   -3.8525808   -2.7920229  0.012633457   -3.8525808     1.060558   439061 
 2608000   0.70661773   -3.8522329   -3.8522329   -2.7923087  0.015258081   -3.8522329    1.0599242   439061 
 2609000   0.70626695   -3.8514062   -3.8514062   -2.7920082  0.016051361   -3.8514062     1.059398   439061 
 2610000   0.70666314   -3.8538401   -3.8538401   -2.7938478  0.013163232   -3.8538401    1.0599923   439061 
 2611000   0.70600428   -3.8524887   -3.8524887   -2.7934847  0.016556845   -3.8524887     1.059004   439061 
 2612000   0.70661169   -3.8533044   -3.8533044   -2.7933893  0.019434534   -3.8533044    1.0599151   439061 
 2613000   0.70709502   -3.8539149   -3.8539149   -2.7932748   0.01487902   -3.8539149    1.0606401   439061 
 2614000   0.70701129   -3.8551678   -3.8551678   -2.7946533  0.018767572   -3.8551678    1.0605145   439061 
 2615000   0.70709099   -3.8556605   -3.8556605   -2.7950264  0.018767717   -3.8556605    1.0606341   439061 
 2616000   0.70602376   -3.8526482   -3.8526482    -2.793615  0.020436092   -3.8526482    1.0590332   439061 
 2617000   0.70642309   -3.8535618   -3.8535618   -2.7939296  0.020265448   -3.8535618    1.0596322   439061 
 2618000    0.7064408   -3.8547121   -3.8547121   -2.7950533  0.016952027   -3.8547121    1.0596588   439061 
 2619000   0.70632717   -3.8541302   -3.8541302   -2.7946419  0.016672722   -3.8541302    1.0594883   439061 
 2620000   0.70499698   -3.8520979   -3.8520979   -2.7946049  0.018489879   -3.8520979    1.0574931   439061 
 2621000   0.70704974   -3.8544704   -3.8544704   -2.7938982  0.013670863   -3.8544704    1.0605722   439061 
 2622000    0.7060905   -3.8533294   -3.8533294   -2.7941961  0.017122321   -3.8533294    1.0591333   439061 
 2623000   0.70646853    -3.853185    -3.853185   -2.7934846  0.016485743    -3.853185    1.0597004   439061 
 2624000   0.70738221   -3.8548298   -3.8548298   -2.7937589  0.015302779   -3.8548298    1.0610709   439061 
 2625000   0.70706613   -3.8542088   -3.8542088    -2.793612  0.016042917   -3.8542088    1.0605968   439061 
 2626000   0.70626962   -3.8533792   -3.8533792   -2.7939772  0.019919415   -3.8533792     1.059402   439061 
 2627000   0.70644976   -3.8534977   -3.8534977   -2.7938255  0.017099325   -3.8534977    1.0596722   439061 
 2628000   0.70712554   -3.8540426   -3.8540426   -2.7933567  0.013639755   -3.8540426    1.0606859   439061 
 2629000   0.70661457   -3.8544001   -3.8544001   -2.7944806  0.014237619   -3.8544001    1.0599194   439061 
 2630000   0.70600248   -3.8534997   -3.8534997   -2.7944984  0.013624963   -3.8534997    1.0590013   439061 
 2631000   0.70624989   -3.8532606   -3.8532606   -2.7938882  0.016713787   -3.8532606    1.0593724   439061 
 2632000   0.70606215    -3.852223    -3.852223   -2.7931322  0.016779036    -3.852223    1.0590908   439061 
 2633000   0.70615576   -3.8537101   -3.8537101   -2.7944789  0.015969065   -3.8537101    1.0592312   439061 
 2634000   0.70420657   -3.8513068   -3.8513068   -2.7949993  0.017724733   -3.8513068    1.0563075   439061 
 2635000   0.70513681   -3.8528271   -3.8528271   -2.7951243  0.012584749   -3.8528271    1.0577028   439061 
 2636000   0.70649712   -3.8545139   -3.8545139   -2.7947707  0.013940336   -3.8545139    1.0597433   439061 
 2637000   0.70642486   -3.8552755   -3.8552755   -2.7956406 0.0087939849   -3.8552755    1.0596349   439061 
 2638000   0.70538572   -3.8546932   -3.8546932    -2.796617  0.014353538   -3.8546932    1.0580762   439061 
 2639000   0.70406846   -3.8522073   -3.8522073    -2.796107  0.023308093   -3.8522073    1.0561003   439061 
 2640000   0.70572186   -3.8537729   -3.8537729   -2.7951925  0.019660388   -3.8537729    1.0585804   439061 
 2641000    0.7060115   -3.8545555   -3.8545555   -2.7955407  0.015447895   -3.8545555    1.0590148   439061 
 2642000   0.70686926     -3.85506     -3.85506   -2.7947585  0.019476161     -3.85506    1.0603015   439061 
 2643000   0.70623946   -3.8545583   -3.8545583   -2.7952015  0.018565818   -3.8545583    1.0593568   439061 
 2644000   0.70684877   -3.8542302   -3.8542302   -2.7939594  0.022887261   -3.8542302    1.0602707   439061 
 2645000   0.70729967   -3.8548103   -3.8548103   -2.7938632  0.019803489   -3.8548103    1.0609471   439061 
 2646000   0.70640722   -3.8546047   -3.8546047   -2.7949963  0.017101414   -3.8546047    1.0596084   439061 
 2647000   0.70612545   -3.8536732   -3.8536732   -2.7944875  0.016477401   -3.8536732    1.0591858   439061 
 2648000    0.7056478   -3.8536579   -3.8536579   -2.7951886  0.016729241   -3.8536579    1.0584693   439061 
 2649000   0.70650965   -3.8538957   -3.8538957   -2.7941337  0.017058375   -3.8538957    1.0597621   439061 
 2650000   0.70717556   -3.8543707   -3.8543707   -2.7936097   0.01720361   -3.8543707    1.0607609   439061 
 2651000   0.70635679   -3.8537882   -3.8537882   -2.7942554  0.015877812   -3.8537882    1.0595328   439061 
 2652000   0.70622872   -3.8536644   -3.8536644   -2.7943237  0.014021796   -3.8536644    1.0593407   439061 
 2653000   0.70569144   -3.8527377   -3.8527377    -2.794203    0.0131864   -3.8527377    1.0585348   439061 
 2654000   0.70484536   -3.8517799   -3.8517799   -2.7945143  0.015902585   -3.8517799    1.0572656   439061 
 2655000   0.70626979   -3.8532819   -3.8532819   -2.7938796    0.0144088   -3.8532819    1.0594023   439061 
 2656000   0.70579305   -3.8531817   -3.8531817   -2.7944945   0.01158286   -3.8531817    1.0586872   439061 
 2657000   0.70639348   -3.8530351   -3.8530351   -2.7934473  0.013660429   -3.8530351    1.0595878   439061 
 2658000   0.70738726   -3.8540262   -3.8540262   -2.7929478  0.011693493   -3.8540262    1.0610785   439061 
 2659000   0.70703978   -3.8547598   -3.8547598   -2.7942025   0.01088465   -3.8547598    1.0605573   439061 
 2660000   0.70566201   -3.8527175   -3.8527175   -2.7942269   0.01521643   -3.8527175    1.0584906   439061 
 2661000   0.70710192   -3.8531545   -3.8531545   -2.7925041  0.018442316   -3.8531545    1.0606505   439061 
 2662000    0.7070294   -3.8543427   -3.8543427   -2.7938011  0.016315205   -3.8543427    1.0605417   439061 
 2663000   0.70717031   -3.8539446   -3.8539446   -2.7931915  0.017685431   -3.8539446    1.0607531   439061 
 2664000   0.70709458   -3.8547123   -3.8547123   -2.7940729  0.017630455   -3.8547123    1.0606395   439061 
 2665000    0.7064725   -3.8548214   -3.8548214    -2.795115  0.014689897   -3.8548214    1.0597063   439061 
 2666000   0.70678142   -3.8537372   -3.8537372   -2.7935675  0.012643183   -3.8537372    1.0601697   439061 
 2667000    0.7059001   -3.8538674   -3.8538674   -2.7950196  0.014417634   -3.8538674    1.0588477   439061 
 2668000   0.70655596   -3.8541083   -3.8541083   -2.7942767  0.010040029   -3.8541083    1.0598315   439061 
 2669000   0.70724456   -3.8551221   -3.8551221   -2.7942577  0.017534931   -3.8551221    1.0608644   439061 
 2670000   0.70734766   -3.8543884   -3.8543884   -2.7933693  0.016094718   -3.8543884    1.0610191   439061 
 2671000   0.70632704   -3.8532508   -3.8532508   -2.7937626   0.01907961   -3.8532508    1.0594881   439061 
 2672000   0.70590912   -3.8533434   -3.8533434   -2.7944822  0.014395677   -3.8533434    1.0588613   439061 
 2673000   0.70510327   -3.8535858   -3.8535858   -2.7959333  0.015232746   -3.8535858    1.0576525   439061 
 2674000   0.70568087   -3.8536266   -3.8536266   -2.7951077  0.021897821   -3.8536266    1.0585189   439061 
 2675000   0.70608264   -3.8546603   -3.8546603   -2.7955387  0.010853032   -3.8546603    1.0591215   439061 
 2676000   0.70661269    -3.855125    -3.855125   -2.7952084  0.014123319    -3.855125    1.0599166   439061 
 2677000    0.7059609   -3.8542756   -3.8542756   -2.7953366  0.011933284   -3.8542756    1.0589389   439061 
 2678000   0.70579929   -3.8541538   -3.8541538   -2.7954573 0.0094085709   -3.8541538    1.0586965   439061 
 2679000    0.7062117   -3.8561149   -3.8561149   -2.7967997  0.013374641   -3.8561149    1.0593151   439061 
 2680000   0.70645206   -3.8544303   -3.8544303   -2.7947546  0.016550863   -3.8544303    1.0596757   439061 
 2681000   0.70552266    -3.853804    -3.853804   -2.7955224  0.018936144    -3.853804    1.0582816   439061 
 2682000   0.70556834   -3.8548708   -3.8548708   -2.7965207  0.015845315   -3.8548708    1.0583501   439061 
 2683000   0.70626407    -3.855643    -3.855643   -2.7962493  0.017898049    -3.855643    1.0593937   439061 
 2684000   0.70662478     -3.85576     -3.85576   -2.7958252  0.012786176     -3.85576    1.0599348   439061 
 2685000   0.70645491   -3.8552566   -3.8552566   -2.7955767  0.012653486   -3.8552566      1.05968   439061 
 2686000   0.70543388   -3.8547054   -3.8547054    -2.796557  0.017790774   -3.8547054    1.0581484   439061 
 2687000   0.70622887   -3.8572169   -3.8572169    -2.797876  0.014687915   -3.8572169    1.0593409   439061 
 2688000   0.70373556   -3.8548157   -3.8548157   -2.7992147   0.01632704   -3.8548157    1.0556009   439061 
 2689000   0.70495174   -3.8556739   -3.8556739   -2.7982487  0.012142752   -3.8556739    1.0574252   439061 
 2690000   0.70459314    -3.856396    -3.856396   -2.7995087  0.014796421    -3.856396    1.0568873   439061 
 2691000   0.70527166   -3.8563629   -3.8563629   -2.7984578  0.015216031   -3.8563629    1.0579051   439061 
 2692000   0.70593264   -3.8571394   -3.8571394   -2.7982428   0.01820782   -3.8571394    1.0588965   439061 
 2693000    0.7059313   -3.8567358   -3.8567358   -2.7978413  0.018142037   -3.8567358    1.0588945   439061 
 2694000   0.70800714   -3.8593642   -3.8593642   -2.7973559  0.014171898   -3.8593642    1.0620083   439061 
 2695000   0.70673838   -3.8563147   -3.8563147   -2.7962095   0.02189672   -3.8563147    1.0601052   439061 
 2696000   0.70632972   -3.8561155   -3.8561155   -2.7966234  0.017317196   -3.8561155    1.0594922   439061 
 2697000   0.70631771   -3.8570551   -3.8570551    -2.797581  0.017042746   -3.8570551    1.0594742   439061 
 2698000    0.7048434     -3.85567     -3.85567   -2.7984073  0.013325671     -3.85567    1.0572627   439061 
 2699000   0.70548985   -3.8556392   -3.8556392   -2.7974069   0.01470435   -3.8556392    1.0582324   439061 
 2700000   0.70543444    -3.856477    -3.856477   -2.7983277  0.014272183    -3.856477    1.0581492   439061 
 2701000   0.70469548   -3.8552138   -3.8552138    -2.798173  0.014557675   -3.8552138    1.0570408   439061 
 2702000   0.70579766   -3.8567642   -3.8567642   -2.7980701  0.014281204   -3.8567642    1.0586941   439061 
 2703000   0.70632317   -3.8558106   -3.8558106   -2.7963283  0.012882618   -3.8558106    1.0594823   439061 
 2704000   0.70634457   -3.8560918   -3.8560918   -2.7965773  0.017014408   -3.8560918    1.0595144   439061 
 2705000    0.7061855   -3.8559418   -3.8559418   -2.7966659  0.011972086   -3.8559418    1.0592758   439061 
 2706000   0.70626832   -3.8558121   -3.8558121    -2.796412  0.014536684   -3.8558121    1.0594001   439061 
 2707000   0.70633711   -3.8573918   -3.8573918   -2.7978886  0.016032661   -3.8573918    1.0595033   439061 
 2708000   0.70642606   -3.8576586   -3.8576586    -2.798022   0.01457262   -3.8576586    1.0596367   439061 
 2709000   0.70601401   -3.8564549   -3.8564549   -2.7974363  0.015604593   -3.8564549    1.0590186   439061 
 2710000   0.70567597   -3.8558205   -3.8558205   -2.7973089  0.012272979   -3.8558205    1.0585115   439061 
 2711000   0.70601643   -3.8568989   -3.8568989   -2.7978766  0.016544876   -3.8568989    1.0590222   439061 
 2712000   0.70600554   -3.8564725   -3.8564725   -2.7974666  0.017153895   -3.8564725    1.0590059   439061 
 2713000   0.70541343   -3.8556616   -3.8556616   -2.7975439   0.01848399   -3.8556616    1.0581177   439061 
 2714000   0.70576296   -3.8560012   -3.8560012   -2.7973592  0.020264277   -3.8560012     1.058642   439061 
 2715000   0.70516456   -3.8570393   -3.8570393   -2.7992948  0.015255008   -3.8570393    1.0577444   439061 
 2716000   0.70589488     -3.85795     -3.85795   -2.7991101  0.010380301     -3.85795    1.0588399   439061 
 2717000   0.70505494     -3.85727     -3.85727     -2.79969  0.013719825     -3.85727      1.05758   439061 
 2718000   0.70576315   -3.8572166   -3.8572166   -2.7985743  0.013759657   -3.8572166    1.0586423   439061 
 2719000   0.70679802   -3.8578157   -3.8578157   -2.7976211  0.013933021   -3.8578157    1.0601946   439061 
 2720000   0.70696352   -3.8588823   -3.8588823   -2.7984394  0.015416825   -3.8588823    1.0604429   439061 
 2721000   0.70613964   -3.8575287   -3.8575287   -2.7983216  0.020048161   -3.8575287     1.059207   439061 
 2722000   0.70624596   -3.8576343   -3.8576343   -2.7982678  0.014103508   -3.8576343    1.0593665   439061 
 2723000    0.7050676   -3.8566492   -3.8566492   -2.7990502  0.015248092   -3.8566492     1.057599   439061 
 2724000   0.70489022   -3.8574104   -3.8574104   -2.8000774  0.010350607   -3.8574104    1.0573329   439061 
 2725000   0.70527544   -3.8577955   -3.8577955   -2.7998848   0.01597397   -3.8577955    1.0579107   439061 
 2726000   0.70434997   -3.8582425   -3.8582425   -2.8017199  0.012628438   -3.8582425    1.0565226   439061 
 2727000   0.70416517   -3.8566341   -3.8566341   -2.8003888   0.01257821   -3.8566341    1.0562454   439061 
 2728000   0.70411325   -3.8569902   -3.8569902   -2.8008228  0.013297211   -3.8569902    1.0561675   439061 
 2729000      0.70541   -3.8585753   -3.8585753   -2.8004627  0.015673535   -3.8585753    1.0581126   439061 
 2730000   0.70651823   -3.8596628   -3.8596628   -2.7998879  0.015209521   -3.8596628    1.0597749   439061 
 2731000   0.70701151     -3.85996     -3.85996   -2.7994452   0.01548821     -3.85996    1.0605148   439061 
 2732000   0.70601675   -3.8588128   -3.8588128   -2.7997901  0.018632941   -3.8588128    1.0590227   439061 
 2733000   0.70532305   -3.8582453   -3.8582453   -2.8002631  0.022982228   -3.8582453    1.0579822   439061 
 2734000   0.70569368   -3.8599656   -3.8599656   -2.8014274  0.014734846   -3.8599656    1.0585381   439061 
 2735000   0.70608805   -3.8608819   -3.8608819   -2.8017522  0.012824302   -3.8608819    1.0591297   439061 
 2736000   0.70600907    -3.860203    -3.860203   -2.8011918  0.016439487    -3.860203    1.0590112   439061 
 2737000   0.70510393   -3.8588935   -3.8588935     -2.80124  0.018987392   -3.8588935    1.0576535   439061 
 2738000   0.70522467   -3.8598264   -3.8598264   -2.8019918   0.01623399   -3.8598264    1.0578346   439061 
 2739000   0.70602337   -3.8606905   -3.8606905   -2.8016579  0.014759071   -3.8606905    1.0590326   439061 
 2740000   0.70653142   -3.8606577   -3.8606577    -2.800863  0.015736118   -3.8606577    1.0597947   439061 
 2741000    0.7048494   -3.8586768   -3.8586768   -2.8014051  0.020370098   -3.8586768    1.0572717   439061 
 2742000   0.70555977   -3.8595698   -3.8595698   -2.8012326  0.014704329   -3.8595698    1.0583373   439061 
 2743000   0.70542213   -3.8599102   -3.8599102   -2.8017794   0.01271951   -3.8599102    1.0581308   439061 
 2744000   0.70513504   -3.8592815   -3.8592815   -2.8015813  0.016552236   -3.8592815    1.0577002   439061 
 2745000   0.70430244   -3.8585408   -3.8585408   -2.8020896  0.012661567   -3.8585408    1.0564513   439061 
 2746000    0.7046597   -3.8599509   -3.8599509   -2.8029638  0.014074279   -3.8599509    1.0569871   439061 
 2747000   0.70443711   -3.8596713   -3.8596713   -2.8030181  0.015400751   -3.8596713    1.0566533   439061 
 2748000   0.70444239   -3.8600797   -3.8600797   -2.8034186  0.015538632   -3.8600797    1.0566612   439061 
 2749000   0.70524057    -3.861157    -3.861157   -2.8032985  0.013541304    -3.861157    1.0578584   439061 
 2750000   0.70391685   -3.8588338   -3.8588338    -2.802961  0.015658367   -3.8588338    1.0558729   439061 
 2751000   0.70504185   -3.8606924   -3.8606924   -2.8031321  0.016272102   -3.8606924    1.0575604   439061 
 2752000   0.70458227   -3.8598129   -3.8598129   -2.8029419  0.017668986   -3.8598129     1.056871   439061 
 2753000   0.70614168   -3.8619439   -3.8619439   -2.8027338  0.016875999   -3.8619439    1.0592101   439061 
 2754000   0.70592753    -3.862032    -3.862032   -2.8031431  0.016960246    -3.862032    1.0588889   439061 
 2755000     0.705507   -3.8613749   -3.8613749   -2.8031168  0.017536321   -3.8613749    1.0582581   439061 
 2756000   0.70557854   -3.8601708   -3.8601708   -2.8018054  0.016769623   -3.8601708    1.0583654   439061 
 2757000   0.70577376   -3.8615518   -3.8615518   -2.8028936  0.017586091   -3.8615518    1.0586582   439061 
 2758000   0.70514655   -3.8608347   -3.8608347   -2.8031173  0.015230924   -3.8608347    1.0577174   439061 
 2759000   0.70592333   -3.8617054   -3.8617054   -2.8028228  0.014717889   -3.8617054    1.0588826   439061 
 2760000   0.70551917   -3.8605267   -3.8605267   -2.8022503  0.020244656   -3.8605267    1.0582763   439061 
 2761000   0.70483412   -3.8604969   -3.8604969   -2.8032482  0.015775921   -3.8604969    1.0572488   439061 
 2762000   0.70437539   -3.8603038   -3.8603038   -2.8037432   0.01495105   -3.8603038    1.0565607   439061 
 2763000    0.7040159   -3.8596891   -3.8596891   -2.8036676  0.015144709   -3.8596891    1.0560214   439061 
 2764000    0.7042217   -3.8599469   -3.8599469   -2.8036168  0.013447339   -3.8599469    1.0563301   439061 
 2765000   0.70516642   -3.8608715   -3.8608715   -2.8031243  0.011402966   -3.8608715    1.0577472   439061 
 2766000   0.70525891   -3.8603499   -3.8603499   -2.8024639  0.017637654   -3.8603499     1.057886   439061 
 2767000   0.70517761   -3.8607782   -3.8607782   -2.8030142  0.016293861   -3.8607782     1.057764   439061 
 2768000   0.70431876   -3.8605611   -3.8605611   -2.8040854    0.0151227   -3.8605611    1.0564757   439061 
 2769000   0.70392188   -3.8604395   -3.8604395   -2.8045591  0.014595037   -3.8604395    1.0558804   439061 
 2770000   0.70349585   -3.8600589   -3.8600589   -2.8048175  0.016355327   -3.8600589    1.0552414   439061 
 2771000   0.70416134   -3.8614675   -3.8614675   -2.8052279  0.013927815   -3.8614675    1.0562396   439061 
 2772000   0.70473736   -3.8623405   -3.8623405   -2.8052368  0.016670893   -3.8623405    1.0571036   439061 
 2773000    0.7042704   -3.8624894   -3.8624894   -2.8060862  0.017664723   -3.8624894    1.0564032   439061 
 2774000   0.70599796   -3.8656541   -3.8656541   -2.8066595  0.013685046   -3.8656541    1.0589945   439061 
 2775000   0.70570509   -3.8651123   -3.8651123   -2.8065571  0.012198275   -3.8651123    1.0585552   439061 
 2776000   0.70458238   -3.8644092   -3.8644092   -2.8075381  0.017786579   -3.8644092    1.0568712   439061 
 2777000   0.70515084   -3.8658054   -3.8658054   -2.8080816  0.015243112   -3.8658054    1.0577238   439061 
 2778000   0.70536329   -3.8655773   -3.8655773   -2.8075348  0.019683543   -3.8655773    1.0580425   439061 
 2779000   0.70496936   -3.8655147   -3.8655147   -2.8080631  0.019195018   -3.8655147    1.0574516   439061 
 2780000    0.7044126   -3.8645388   -3.8645388   -2.8079223  0.017986923   -3.8645388    1.0566165   439061 
 2781000   0.70546535   -3.8665378   -3.8665378   -2.8083422  0.019410713   -3.8665378    1.0581956   439061 
 2782000   0.70529339   -3.8675703   -3.8675703   -2.8096327  0.016392074   -3.8675703    1.0579377   439061 
 2783000    0.7043569   -3.8656789   -3.8656789    -2.809146  0.017995895   -3.8656789    1.0565329   439061 
 2784000   0.70470361   -3.8649289   -3.8649289   -2.8078759  0.020036455   -3.8649289     1.057053   439061 
 2785000   0.70536399   -3.8658942   -3.8658942   -2.8078506  0.016922026   -3.8658942    1.0580436   439061 
 2786000   0.70483298   -3.8654331   -3.8654331    -2.808186  0.016484732   -3.8654331    1.0572471   439061 
 2787000   0.70472062   -3.8644722   -3.8644722   -2.8073937  0.021629086   -3.8644722    1.0570785   439061 
 2788000   0.70358651   -3.8622764   -3.8622764   -2.8068991  0.016884323   -3.8622764    1.0553774   439061 
 2789000   0.70450403   -3.8627646   -3.8627646   -2.8060109  0.017387965   -3.8627646    1.0567536   439061 
 2790000    0.7048215   -3.8630233   -3.8630233   -2.8057935  0.014167646   -3.8630233    1.0572298   439061 
 2791000   0.70396202   -3.8617451   -3.8617451   -2.8058045  0.014387202   -3.8617451    1.0559406   439061 
 2792000   0.70409626   -3.8624653   -3.8624653   -2.8063233 0.0082742327   -3.8624653     1.056142   439061 
 2793000    0.7039571   -3.8609716   -3.8609716   -2.8050384  0.010053115   -3.8609716    1.0559332   439061 
 2794000   0.70378355    -3.860162    -3.860162   -2.8044891  0.013909748    -3.860162    1.0556729   439061 
 2795000   0.70503879   -3.8611789   -3.8611789   -2.8036231   0.01582056   -3.8611789    1.0575558   439061 
 2796000   0.70539068   -3.8620761   -3.8620761   -2.8039925  0.013991475   -3.8620761    1.0580836   439061 
 2797000   0.70698886   -3.8640144   -3.8640144   -2.8035335  0.014278201   -3.8640144    1.0604809   439061 
 2798000   0.70497431   -3.8613499   -3.8613499   -2.8038908  0.019923594   -3.8613499    1.0574591   439061 
 2799000   0.70573323    -3.863262    -3.863262   -2.8046646  0.014890563    -3.863262    1.0585974   439061 
 2800000   0.70530767   -3.8632748   -3.8632748   -2.8053157  0.015425034   -3.8632748    1.0579591   439061 
 2801000   0.70490461    -3.862144    -3.862144   -2.8047895  0.013718829    -3.862144    1.0573545   439061 
 2802000   0.70430902   -3.8622888   -3.8622888   -2.8058277   0.01612789   -3.8622888    1.0564611   439061 
 2803000   0.70500323   -3.8633909   -3.8633909   -2.8058884  0.012302951   -3.8633909    1.0575024   439061 
 2804000   0.70435469   -3.8625999   -3.8625999   -2.8060703  0.010355159   -3.8625999    1.0565296   439061 
 2805000   0.70489344   -3.8642527   -3.8642527    -2.806915  0.013283304   -3.8642527    1.0573377   439061 
 2806000   0.70438578   -3.8646123   -3.8646123    -2.808036  0.012390991   -3.8646123    1.0565763   439061 
 2807000   0.70445762   -3.8641095   -3.8641095   -2.8074255  0.016667859   -3.8641095     1.056684   439061 
 2808000   0.70523886   -3.8647354   -3.8647354   -2.8068795  0.016551678   -3.8647354    1.0578559   439061 
 2809000   0.70538297    -3.863469    -3.863469   -2.8053969  0.022011023    -3.863469     1.058072   439061 
 2810000   0.70500635   -3.8645952   -3.8645952   -2.8070881  0.020800629   -3.8645952    1.0575071   439061 
 2811000   0.70407277   -3.8640862   -3.8640862   -2.8079794    0.0135619   -3.8640862    1.0561067   439061 
 2812000   0.70364355   -3.8638997   -3.8638997   -2.8084368  0.015677579   -3.8638997    1.0554629   439061 
 2813000   0.70283594   -3.8630644   -3.8630644   -2.8088129  0.016781841   -3.8630644    1.0542515   439061 
 2814000   0.70449213   -3.8652349   -3.8652349   -2.8084991  0.014009232   -3.8652349    1.0567358   439061 
 2815000   0.70368237   -3.8640657   -3.8640657   -2.8085446  0.015207675   -3.8640657    1.0555212   439061 
 2816000   0.70350566   -3.8636838   -3.8636838   -2.8084277  0.015658909   -3.8636838    1.0552561   439061 
 2817000   0.70426589   -3.8644471   -3.8644471   -2.8080507  0.015561312   -3.8644471    1.0563964   439061 
 2818000   0.70538543   -3.8653266   -3.8653266   -2.8072509   0.01658976   -3.8653266    1.0580757   439061 
 2819000   0.70477248   -3.8640318   -3.8640318   -2.8068755   0.02054181   -3.8640318    1.0571563   439061 
 2820000   0.70478257   -3.8641839   -3.8641839   -2.8070125  0.018433678   -3.8641839    1.0571714   439061 
 2821000   0.70339378   -3.8625755   -3.8625755   -2.8074873  0.018591359   -3.8625755    1.0550883   439061 
 2822000   0.70468747   -3.8645766   -3.8645766   -2.8075478  0.010856834   -3.8645766    1.0570288   439061 
 2823000   0.70407773   -3.8643039   -3.8643039   -2.8081897  0.011010931   -3.8643039    1.0561142   439061 
 2824000   0.70420824   -3.8633409   -3.8633409    -2.807031  0.013884758   -3.8633409      1.05631   439061 
 2825000    0.7044853   -3.8642102   -3.8642102   -2.8074847  0.013193732   -3.8642102    1.0567256   439061 
 2826000   0.70404865   -3.8633348   -3.8633348   -2.8072642  0.012093852   -3.8633348    1.0560706   439061 
 2827000   0.70506818   -3.8640035   -3.8640035   -2.8064036  0.015573086   -3.8640035    1.0575999   439061 
 2828000   0.70445874   -3.8634444   -3.8634444   -2.8067587  0.013867641   -3.8634444    1.0566857   439061 
 2829000   0.70429766    -3.863435    -3.863435   -2.8069909  0.013622756    -3.863435    1.0564441   439061 
 2830000   0.70529089   -3.8643451   -3.8643451   -2.8064112  0.014017565   -3.8643451    1.0579339   439061 
 2831000    0.7051716   -3.8642135   -3.8642135   -2.8064585  0.018115097   -3.8642135     1.057755   439061 
 2832000   0.70510313   -3.8637153   -3.8637153    -2.806063  0.015258038   -3.8637153    1.0576523   439061 
 2833000    0.7055999   -3.8640595   -3.8640595   -2.8056621  0.020755249   -3.8640595    1.0583974   439061 
 2834000   0.70638571   -3.8648579   -3.8648579   -2.8052818  0.020765663   -3.8648579    1.0595762   439061 
 2835000   0.70462991   -3.8644209   -3.8644209   -2.8074785  0.017430786   -3.8644209    1.0569425   439061 
 2836000    0.7047696   -3.8642078   -3.8642078   -2.8070558   0.01284101   -3.8642078     1.057152   439061 
 2837000   0.70375781   -3.8637126   -3.8637126   -2.8080783  0.012073069   -3.8637126    1.0556343   439061 
 2838000    0.7038916   -3.8629523   -3.8629523   -2.8071173  0.017574153   -3.8629523     1.055835   439061 
 2839000   0.70392162   -3.8630417   -3.8630417   -2.8071617  0.015609023   -3.8630417      1.05588   439061 
 2840000    0.7042073    -3.863238    -3.863238   -2.8069294  0.018035992    -3.863238    1.0563085   439061 
 2841000   0.70474318   -3.8634409   -3.8634409   -2.8063285  0.016228137   -3.8634409    1.0571124   439061 
 2842000   0.70535212   -3.8640845   -3.8640845   -2.8060587 0.0091432851   -3.8640845    1.0580258   439061 
 2843000   0.70512002   -3.8642783   -3.8642783   -2.8066006  0.010739059   -3.8642783    1.0576776   439061 
 2844000   0.70538455   -3.8645276   -3.8645276   -2.8064531 0.0085519582   -3.8645276    1.0580744   439061 
 2845000   0.70463432   -3.8646681   -3.8646681    -2.807719 0.0096239561   -3.8646681    1.0569491   439061 
 2846000   0.70427259   -3.8639065   -3.8639065      -2.8075  0.016138885   -3.8639065    1.0564065   439061 
 2847000   0.70487713   -3.8641402   -3.8641402   -2.8068269  0.013190597   -3.8641402    1.0573133   439061 
 2848000   0.70509271   -3.8639162   -3.8639162   -2.8062796  0.016413355   -3.8639162    1.0576367   439061 
 2849000   0.70548365   -3.8648648   -3.8648648   -2.8066417   0.01581134   -3.8648648    1.0582231   439061 
 2850000   0.70502385    -3.864163    -3.864163   -2.8066296  0.017189309    -3.864163    1.0575334   439061 
 2851000    0.7052596   -3.8651084   -3.8651084   -2.8072214  0.022032991   -3.8651084     1.057887   439061 
 2852000   0.70519321   -3.8649188   -3.8649188   -2.8071314  0.018779498   -3.8649188    1.0577874   439061 
 2853000   0.70627084   -3.8668722   -3.8668722   -2.8074684  0.014402732   -3.8668722    1.0594038   439061 
 2854000   0.70439634   -3.8653188   -3.8653188   -2.8087267  0.015320549   -3.8653188    1.0565921   439061 
 2855000   0.70456026   -3.8656943   -3.8656943   -2.8088563  0.013452661   -3.8656943     1.056838   439061 
 2856000    0.7040524   -3.8648649   -3.8648649   -2.8087887  0.014887852   -3.8648649    1.0560762   439061 
 2857000   0.70464524   -3.8656641   -3.8656641   -2.8086987  0.011780114   -3.8656641    1.0569654   439061 
 2858000    0.7043536     -3.86517     -3.86517    -2.808642  0.016537159     -3.86517     1.056528   439061 
 2859000   0.70483168   -3.8661843   -3.8661843   -2.8089391  0.012173491   -3.8661843    1.0572451   439061 
 2860000   0.70436171   -3.8653661   -3.8653661   -2.8088259  0.011873293   -3.8653661    1.0565402   439061 
 2861000   0.70439621   -3.8651639   -3.8651639    -2.808572  0.016508547   -3.8651639    1.0565919   439061 
 2862000   0.70422869   -3.8647381   -3.8647381   -2.8083975  0.017206672   -3.8647381    1.0563406   439061 
 2863000   0.70467735   -3.8647685   -3.8647685   -2.8077549  0.019180536   -3.8647685    1.0570136   439061 
 2864000   0.70515674   -3.8656055   -3.8656055   -2.8078728  0.014816964   -3.8656055    1.0577327   439061 
 2865000   0.70477659   -3.8657683   -3.8657683   -2.8086058  0.017201341   -3.8657683    1.0571625   439061 
 2866000   0.70464783   -3.8652953   -3.8652953   -2.8083259  0.012303093   -3.8652953    1.0569693   439061 
 2867000   0.70317855   -3.8642527   -3.8642527   -2.8094873  0.013468493   -3.8642527    1.0547654   439061 
 2868000    0.7038815   -3.8650517   -3.8650517   -2.8092319  0.010362922   -3.8650517    1.0558198   439061 
 2869000   0.70467218   -3.8666003   -3.8666003   -2.8095944   0.01425945   -3.8666003    1.0570059   439061 
 2870000   0.70452964   -3.8661908   -3.8661908   -2.8093987  0.017343048   -3.8661908    1.0567921   439061 
 2871000   0.70444938   -3.8652972   -3.8652972   -2.8086256  0.018640367   -3.8652972    1.0566717   439061 
 2872000   0.70477876   -3.8663101   -3.8663101   -2.8091444  0.016062243   -3.8663101    1.0571657   439061 
 2873000   0.70365144   -3.8649682   -3.8649682   -2.8094935  0.018394025   -3.8649682    1.0554748   439061 
 2874000   0.70497089   -3.8666801   -3.8666801   -2.8092262  0.012059274   -3.8666801    1.0574539   439061 
 2875000   0.70456382   -3.8665729   -3.8665729   -2.8097296  0.013687264   -3.8665729    1.0568433   439061 
 2876000   0.70363369   -3.8660746   -3.8660746   -2.8106265 0.0099466983   -3.8660746    1.0554481   439061 
 2877000   0.70358259   -3.8660402   -3.8660402   -2.8106687  0.016584055   -3.8660402    1.0553715   439061 
 2878000   0.70533745   -3.8688153   -3.8688153   -2.8108116  0.014937581   -3.8688153    1.0580038   439061 
 2879000   0.70398517   -3.8666224   -3.8666224    -2.810647  0.018243832   -3.8666224    1.0559753   439061 
 2880000   0.70416013   -3.8663949   -3.8663949   -2.8101572  0.017930694   -3.8663949    1.0562378   439061 
 2881000   0.70510632   -3.8680184   -3.8680184   -2.8103613  0.015096263   -3.8680184    1.0576571   439061 
 2882000   0.70558828   -3.8684281   -3.8684281    -2.810048  0.014314868   -3.8684281      1.05838   439061 
 2883000   0.70323433   -3.8660478   -3.8660478   -2.8111987  0.016203267   -3.8660478    1.0548491   439061 
 2884000   0.70318855   -3.8664337   -3.8664337   -2.8116532   0.01414523   -3.8664337    1.0547804   439061 
 2885000   0.70360019   -3.8665677   -3.8665677   -2.8111699  0.017864672   -3.8665677    1.0553979   439061 
 2886000   0.70539066   -3.8683146   -3.8683146    -2.810231  0.015286047   -3.8683146    1.0580836   439061 
 2887000   0.70515093   -3.8674936   -3.8674936   -2.8097696  0.014503329   -3.8674936     1.057724   439061 
 2888000   0.70399221   -3.8662929   -3.8662929    -2.810307  0.014001294   -3.8662929    1.0559859   439061 
 2889000   0.70395877   -3.8674695   -3.8674695   -2.8115337  0.012188158   -3.8674695    1.0559357   439061 
 2890000   0.70395002   -3.8677459   -3.8677459   -2.8118232 0.0099138282   -3.8677459    1.0559226   439061 
 2891000   0.70463097   -3.8673532   -3.8673532   -2.8104091 0.0097848899   -3.8673532    1.0569441   439061 
 2892000   0.70433301   -3.8669383   -3.8669383   -2.8104412  0.013445124   -3.8669383    1.0564971   439061 
 2893000   0.70360773   -3.8662273   -3.8662273   -2.8108181  0.017286989   -3.8662273    1.0554092   439061 
 2894000   0.70527907   -3.8692852   -3.8692852    -2.811369  0.013421228   -3.8692852    1.0579162   439061 
 2895000   0.70402849   -3.8676992   -3.8676992   -2.8116588  0.017362831   -3.8676992    1.0560403   439061 
 2896000   0.70368859   -3.8665477   -3.8665477   -2.8110172  0.016865725   -3.8665477    1.0555305   439061 
 2897000   0.70302976   -3.8663079   -3.8663079   -2.8117656  0.015844677   -3.8663079    1.0545422   439061 
 2898000   0.70383787   -3.8679791   -3.8679791   -2.8122247  0.014429451   -3.8679791    1.0557544   439061 
 2899000    0.7044877   -3.8689996   -3.8689996   -2.8122705  0.011921662   -3.8689996    1.0567291   439061 
 2900000   0.70353959   -3.8665866   -3.8665866   -2.8112796   0.02134016   -3.8665866     1.055307   439061 
 2901000   0.70515612   -3.8691888   -3.8691888    -2.811457  0.018375257   -3.8691888    1.0577318   439061 
 2902000   0.70571012   -3.8698119   -3.8698119   -2.8112491   0.01710612   -3.8698119    1.0585628   439061 
 2903000   0.70453245   -3.8674988   -3.8674988   -2.8107025  0.013636669   -3.8674988    1.0567963   439061 
 2904000     0.703175   -3.8668863   -3.8668863   -2.8121262  0.012349397   -3.8668863    1.0547601   439061 
 2905000   0.70291676   -3.8668165   -3.8668165   -2.8124438  0.015645508   -3.8668165    1.0543727   439061 
 2906000   0.70479808   -3.8696701   -3.8696701   -2.8124754  0.012959645   -3.8696701    1.0571947   439061 
 2907000   0.70379908   -3.8684073   -3.8684073   -2.8127111  0.017617564   -3.8684073    1.0556962   439061 
 2908000   0.70528855    -3.867954    -3.867954   -2.8100236  0.017084157    -3.867954    1.0579304   439061 
 2909000    0.7057746   -3.8675233   -3.8675233   -2.8088638  0.017233849   -3.8675233    1.0586595   439061 
 2910000   0.70508189   -3.8653173   -3.8653173   -2.8076969  0.017688588   -3.8653173    1.0576204   439061 
 2911000   0.70480871    -3.865367    -3.865367   -2.8081564  0.013298763    -3.865367    1.0572107   439061 
 2912000   0.70330496   -3.8642679   -3.8642679   -2.8093128  0.018793256   -3.8642679     1.054955   439061 
 2913000   0.70319094   -3.8643335   -3.8643335   -2.8095495   0.01432324   -3.8643335     1.054784   439061 
 2914000   0.70395156   -3.8651376   -3.8651376   -2.8092127 0.0093437014   -3.8651376    1.0559249   439061 
 2915000   0.70337137    -3.863914    -3.863914   -2.8088593  0.016403094    -3.863914    1.0550546   439061 
 2916000   0.70307945   -3.8640274   -3.8640274   -2.8094106   0.01020253   -3.8640274    1.0546168   439061 
 2917000   0.70382839   -3.8646445   -3.8646445   -2.8089043  0.012791582   -3.8646445    1.0557402   439061 
 2918000   0.70423468   -3.8657812   -3.8657812   -2.8094316 0.0092645822   -3.8657812    1.0563496   439061 
 2919000   0.70340214   -3.8642938   -3.8642938    -2.809193  0.013374495   -3.8642938    1.0551008   439061 
 2920000   0.70385857   -3.8655005   -3.8655005    -2.809715  0.012638116   -3.8655005    1.0557854   439061 
 2921000   0.70310526   -3.8645856   -3.8645856   -2.8099301  0.012067397   -3.8645856    1.0546555   439061 
 2922000   0.70396273   -3.8658306   -3.8658306   -2.8098889  0.014702265   -3.8658306    1.0559417   439061 
 2923000   0.70438882   -3.8664633   -3.8664633   -2.8098825   0.02119444   -3.8664633    1.0565808   439061 
 2924000    0.7040509   -3.8674886   -3.8674886   -2.8114147  0.017307679   -3.8674886    1.0560739   439061 
 2925000   0.70497424   -3.8683243   -3.8683243   -2.8108653  0.018547202   -3.8683243    1.0574589   439061 
 2926000   0.70458773   -3.8674956   -3.8674956   -2.8106164  0.020832535   -3.8674956    1.0568792   439061 
 2927000   0.70659064   -3.8713098   -3.8713098   -2.8114263  0.013744108   -3.8713098    1.0598835   439061 
 2928000   0.70491781   -3.8698245   -3.8698245   -2.8124502  0.015467458   -3.8698245    1.0573743   439061 
 2929000   0.70435383   -3.8692955   -3.8692955   -2.8127672  0.022449466   -3.8692955    1.0565283   439061 
 2930000   0.70383942   -3.8684322   -3.8684322   -2.8126755  0.017419073   -3.8684322    1.0557567   439061 
 2931000   0.70452802   -3.8694381   -3.8694381   -2.8126484  0.012189679   -3.8694381    1.0567896   439061 
 2932000   0.70350453   -3.8667193   -3.8667193   -2.8114649  0.017279894   -3.8667193    1.0552544   439061 
 2933000   0.70149734   -3.8653842   -3.8653842   -2.8131406  0.013147343   -3.8653842    1.0522436   439061 
 2934000   0.70266113   -3.8675683   -3.8675683    -2.813579  0.014521136   -3.8675683    1.0539893   439061 
 2935000   0.70291923   -3.8663257   -3.8663257   -2.8119492  0.010911777   -3.8663257    1.0543764   439061 
 2936000   0.70394317    -3.867445    -3.867445   -2.8115326  0.015122495    -3.867445    1.0559124   439061 
 2937000   0.70400146   -3.8679601   -3.8679601   -2.8119603 0.0088355777   -3.8679601    1.0559998   439061 
 2938000   0.70393163   -3.8667159   -3.8667159   -2.8108208  0.012995469   -3.8667159     1.055895   439061 
 2939000   0.70365416   -3.8661642   -3.8661642   -2.8106854  0.013902958   -3.8661642    1.0554788   439061 
 2940000   0.70238914   -3.8657277   -3.8657277   -2.8121464  0.011329745   -3.8657277    1.0535813   439061 
 2941000   0.70386949   -3.8676051   -3.8676051   -2.8118033  0.016774605   -3.8676051    1.0558018   439061 
 2942000    0.7034911    -3.866286    -3.866286   -2.8110517  0.020067673    -3.866286    1.0552342   439061 
 2943000   0.70212983   -3.8659034   -3.8659034    -2.812711  0.015485046   -3.8659034    1.0531923   439061 
 2944000   0.70526224   -3.8694787   -3.8694787   -2.8115878  0.015676406   -3.8694787     1.057891   439061 
 2945000   0.70508513   -3.8691592   -3.8691592   -2.8115339  0.013482328   -3.8691592    1.0576253   439061 
 2946000   0.70481659   -3.8691482   -3.8691482   -2.8119257  0.016882866   -3.8691482    1.0572225   439061 
 2947000   0.70484849   -3.8698696   -3.8698696   -2.8125993  0.014749845   -3.8698696    1.0572703   439061 
 2948000   0.70374116   -3.8696473   -3.8696473    -2.814038  0.015862751   -3.8696473    1.0556093   439061 
 2949000   0.70287486   -3.8679104   -3.8679104   -2.8136005  0.018944349   -3.8679104    1.0543099   439061 
 2950000    0.7034972   -3.8681589   -3.8681589   -2.8129156  0.017516856   -3.8681589    1.0552434   439061 
 2951000   0.70470149   -3.8699757   -3.8699757   -2.8129259  0.012035232   -3.8699757    1.0570498   439061 
 2952000   0.70383126   -3.8688455   -3.8688455    -2.813101  0.020228828   -3.8688455    1.0557445   439061 
 2953000    0.7039333   -3.8682406   -3.8682406    -2.812343  0.016959099   -3.8682406    1.0558975   439061 
 2954000   0.70465608   -3.8687408   -3.8687408   -2.8117591  0.017800762   -3.8687408    1.0569817   439061 
 2955000   0.70343252   -3.8685802   -3.8685802   -2.8134338  0.017357957   -3.8685802    1.0551464   439061 
 2956000   0.70309894   -3.8678288   -3.8678288   -2.8131828  0.020730969   -3.8678288     1.054646   439061 
 2957000   0.70323476   -3.8664097   -3.8664097     -2.81156  0.019258753   -3.8664097    1.0548497   439061 
 2958000   0.70314649   -3.8657256   -3.8657256   -2.8110083  0.015089305   -3.8657256    1.0547173   439061 
 2959000   0.70255007   -3.8661222   -3.8661222   -2.8122995  0.011795413   -3.8661222    1.0538227   439061 
 2960000   0.70275288   -3.8660094   -3.8660094   -2.8118825  0.014987586   -3.8660094    1.0541269   439061 
 2961000   0.70429904   -3.8672989   -3.8672989   -2.8108528  0.009386396   -3.8672989    1.0564461   439061 
 2962000   0.70367412   -3.8672133   -3.8672133   -2.8117046  0.011247991   -3.8672133    1.0555088   439061 
 2963000   0.70392446   -3.8673615   -3.8673615   -2.8114773 0.0090808858   -3.8673615    1.0558843   439061 
 2964000    0.7028704   -3.8668201   -3.8668201   -2.8125169   0.01348466   -3.8668201    1.0543032   439061 
 2965000   0.70321912   -3.8675496   -3.8675496   -2.8127233  0.011391839   -3.8675496    1.0548263   439061 
 2966000   0.70226593   -3.8672094   -3.8672094   -2.8138129  0.014355137   -3.8672094    1.0533965   439061 
 2967000   0.70383728   -3.8699898   -3.8699898   -2.8142363  0.013771347   -3.8699898    1.0557535   439061 
 2968000   0.70359762   -3.8691032   -3.8691032   -2.8137092  0.021873565   -3.8691032     1.055394   439061 
 2969000   0.70341112   -3.8705203   -3.8705203   -2.8154061  0.018035171   -3.8705203    1.0551143   439061 
 2970000   0.70253667   -3.8697314   -3.8697314   -2.8159288  0.020200914   -3.8697314    1.0538026   439061 
 2971000   0.70301678   -3.8713771   -3.8713771   -2.8168543  0.017266204   -3.8713771    1.0545228   439061 
 2972000   0.70368861   -3.8720469   -3.8720469   -2.8165164  0.020560912   -3.8720469    1.0555305   439061 
 2973000   0.70362718   -3.8725739   -3.8725739   -2.8171355  0.021934325   -3.8725739    1.0554384   439061 
 2974000   0.70393585   -3.8727067   -3.8727067   -2.8168053  0.016900617   -3.8727067    1.0559014   439061 
 2975000   0.70374142   -3.8731098   -3.8731098      -2.8175  0.020386428   -3.8731098    1.0556097   439061 
 2976000   0.70422401   -3.8742179   -3.8742179   -2.8178843  0.014676257   -3.8742179    1.0563336   439061 
 2977000   0.70311074   -3.8721461   -3.8721461   -2.8174824   0.01514012   -3.8721461    1.0546637   439061 
 2978000    0.7024762   -3.8709167   -3.8709167   -2.8172048  0.016009408   -3.8709167    1.0537119   439061 
 2979000   0.70262165    -3.871035    -3.871035    -2.817105  0.012882732    -3.871035    1.0539301   439061 
 2980000   0.70268557   -3.8714307   -3.8714307   -2.8174048  0.013092731   -3.8714307    1.0540259   439061 
 2981000   0.70243091   -3.8705176   -3.8705176   -2.8168736  0.015107178   -3.8705176     1.053644   439061 
 2982000   0.70363212   -3.8710866   -3.8710866   -2.8156408  0.016694337   -3.8710866    1.0554458   439061 
 2983000   0.70246245    -3.868926    -3.868926   -2.8152348  0.014723668    -3.868926    1.0536913   439061 
 2984000   0.70326241   -3.8688696   -3.8688696   -2.8139784 0.0096513274   -3.8688696    1.0548912   439061 
 2985000   0.70221961   -3.8684091   -3.8684091   -2.8150821  0.012986581   -3.8684091     1.053327   439061 
 2986000   0.70276572   -3.8687959   -3.8687959   -2.8146497  0.012831988   -3.8687959    1.0541462   439061 
 2987000   0.70300036   -3.8687845   -3.8687845   -2.8142864  0.011175448   -3.8687845    1.0544981   439061 
 2988000   0.70259772   -3.8679942   -3.8679942   -2.8141001  0.010769483   -3.8679942    1.0538942   439061 
 2989000   0.70280362   -3.8685286   -3.8685286   -2.8143256  0.013105861   -3.8685286     1.054203   439061 
 2990000   0.70279127   -3.8685626   -3.8685626   -2.8143781  0.013642542   -3.8685626    1.0541845   439061 
 2991000   0.70275281   -3.8680835   -3.8680835   -2.8139566   0.01657533   -3.8680835    1.0541268   439061 
 2992000   0.70431381   -3.8696119   -3.8696119   -2.8131436  0.017469312   -3.8696119    1.0564683   439061 
 2993000   0.70469787   -3.8708836   -3.8708836   -2.8138392  0.014909282   -3.8708836    1.0570444   439061 
 2994000   0.70293275   -3.8694866   -3.8694866   -2.8150899  0.016653929   -3.8694866    1.0543967   439061 
 2995000   0.70186212   -3.8685824   -3.8685824   -2.8157917  0.019545718   -3.8685824    1.0527908   439061 
 2996000   0.70292158   -3.8704211   -3.8704211   -2.8160411  0.013474377   -3.8704211      1.05438   439061 
 2997000   0.70320176    -3.869139    -3.869139   -2.8143388  0.018917536    -3.869139    1.0548002   439061 
 2998000   0.70427282   -3.8711371   -3.8711371   -2.8147303  0.014445898   -3.8711371    1.0564068   439061 
 2999000   0.70450168   -3.8716249   -3.8716249   -2.8148748  0.015062452   -3.8716249    1.0567501   439061 
 3000000   0.70301688   -3.8695849   -3.8695849    -2.815062  0.021367406   -3.8695849    1.0545229   439061 
Loop time of 5983.9 on 192 procs for 3000000 steps with 439061 atoms

Performance: 216581.191 tau/day, 501.345 timesteps/s
90.2% CPU use with 192 MPI tasks x 1 OpenMP threads

MPI task timing breakdown:
Section |  min time  |  avg time  |  max time  |%varavg|  %CPU | %total
-----------------------------------------------------------------------
Pair    | 1588.5     | 2924.6     | 3343.3     | 850.7 |  94.4 | 48.87
Bond    | 1.9012     | 2.0292     | 2.1568     |   3.6 | 100.0 |  0.03
Neigh   | 612.54     | 980.3      | 1089.6     | 370.9 |  98.6 | 16.38
Comm    | 917.7      | 1640.9     | 3352.3     |1502.2 |  82.4 | 27.42
Output  | 172.41     | 172.72     | 172.73     |   0.2 |  67.5 |  2.89
Modify  | 79.321     | 146.41     | 389.01     | 872.1 |  88.7 |  2.45
Other   |            | 116.9      |            |       |       |  1.95

Nlocal:        2286.78 ave        2450 max        2092 min
Histogram: 1 1 3 4 32 117 26 4 0 4
Nghost:        3771.26 ave        4104 max        2797 min
Histogram: 6 38 4 0 0 0 0 0 1 143
Neighs:        80198.0 ave       85589 max       53667 min
Histogram: 3 6 7 5 3 0 0 0 56 112

Total # of neighbors = 15398016
Ave neighs/atom = 35.070334
Ave special neighs/atom = 0.0000000
Neighbor list builds = 300000
Dangerous builds = 297000
write_data	data.lj
System init for write_data ...


## Evaporation
region          regevap block EDGE EDGE EDGE EDGE 140 EDGE units box
fix             4 solvent evaporate ${evap} 1 regevap 156415
fix             4 solvent evaporate 0 1 regevap 156415
ERROR: Illegal fix evaporate command (src/MISC/fix_evaporate.cpp:53)
Last command: fix             4 solvent evaporate ${evap} 1 regevap 156415
