LAMMPS (24 Dec 2020)
OMP_NUM_THREADS environment is not set. Defaulting to 1 thread. (src/comm.cpp:94)
  using 1 OpenMP thread(s) per MPI task
#Read the equilibrated lj fluid and add nanocubes

units           lj
atom_style      full
atom_modify     map array first cubes
dimension       3
boundary        p p f
pair_style      lj/smooth/linear 2.0

variable        sigma           equal 1.0
variable        epsilon         equal 1.0
read_restart	restart.dat.5000000
Reading restart file ...
  restart file = 24 Dec 2020, LAMMPS = 24 Dec 2020
WARNING: Restart file used different # of processors: 192 vs. 288 (src/read_restart.cpp:697)
  restoring atom style full from restart
  orthogonal box = (0.0000000 0.0000000 0.0000000) to (80.000000 80.000000 160.00000)
  6 by 4 by 12 MPI processor grid
  restoring pair style lj/smooth/linear from restart
  439061 atoms
Finding 1-2 1-3 1-4 neighbors ...
  special bond factors lj:    0        0        0       
  special bond factors coul:  0        0        0       
     0 = max # of 1-2 neighbors
     0 = max # of 1-3 neighbors
     0 = max # of 1-4 neighbors
     1 = max # of special neighbors
  special bonds CPU = 2.393 seconds
  read_restart CPU = 2.835 seconds

group		solvent type 1
439061 atoms in group solvent

read_data	data_64.cubes group cubes add append
Reading data file ...
  orthogonal box = (0.0000000 0.0000000 0.0000000) to (80.000000 80.000000 160.00000)
  6 by 4 by 12 MPI processor grid
WARNING: Pair style in data file differs from currently defined pair style (src/read_data.cpp:588)
  reading atoms ...
  73152 atoms
  reading velocities ...
  73152 velocities
Finding 1-2 1-3 1-4 neighbors ...
  special bond factors lj:    0        0        0       
  special bond factors coul:  0        0        0       
     0 = max # of 1-2 neighbors
     0 = max # of 1-3 neighbors
     0 = max # of 1-4 neighbors
     1 = max # of special neighbors
  special bonds CPU = 0.049 seconds
  read_data CPU = 0.221 seconds

group 		hull  type 2
28544 atoms in group hull
group 		dummy type 3
44608 atoms in group dummy

neighbor      0.4 bin
neigh_modify  exclude molecule/intra cubes


pair_modify   shift yes

pair_coeff    1 1 1.0 1.0 #solvent
pair_coeff    2 2 1.0 1.0 1.12 #np
pair_coeff    3 3 0.0 0.0 0.0 #dummy
pair_coeff    2 3 0.0 0.0 0.0 #np dummy
pair_coeff    1 2 ${eps} ${sig} ${nscut} #np solvent
pair_coeff    1 2 2.0 ${sig} ${nscut} 
pair_coeff    1 2 2.0 2.0 ${nscut} 
pair_coeff    1 2 2.0 2.0 4.0 
pair_coeff    1 3 0.0 0.0 2.5 #dummy solvent

# delete solvent where the cubes are
delete_atoms  overlap 2.0 solvent cubes
System init for delete_atoms ...
Neighbor list info ...
  update every 1 steps, delay 10 steps, check yes
  max neighbors/atom: 2000, page size: 100000
  master list distance cutoff = 4.4
  ghost atom cutoff = 4.4
  binsize = 2.2, bins = 37 37 73
  2 neighbor lists, perpetual/occasional/extra = 1 1 0
  (1) command delete_atoms, occasional
      attributes: full, newton on
      pair build: full/bin
      stencil: full/bin/3d
      bin: standard
  (2) pair lj/smooth/linear, perpetual
      attributes: half, newton on
      pair build: half/bin/newton
      stencil: half/bin/3d/newton
      bin: standard
WARNING: Delete_atoms cutoff > minimum neighbor cutoff (src/delete_atoms.cpp:307)
WARNING: Ignoring 'compress yes' for molecular system (src/delete_atoms.cpp:125)
Deleted 85864 atoms, new total = 426349



pair_coeff    1 1 1.0 1.0 #solvent
pair_coeff    2 2 1.0 1.0 1.12 #np
pair_coeff    3 3 0.0 0.0 0.0 #dummy
pair_coeff    2 3 0.0 0.0 0.0 #np dummy
pair_coeff    1 2 ${eps} ${sig} ${nscut} #np solvent
pair_coeff    1 2 2.0 ${sig} ${nscut} 
pair_coeff    1 2 2.0 2.0 ${nscut} 
pair_coeff    1 2 2.0 2.0 4.0 
pair_coeff    1 3 0.0 0.0 0.0 #dummy solvent


comm_modify   mode multi cutoff/multi 1 2.0 cutoff/multi 2 2.0 cutoff/multi 3 6.95

reset_timestep 	0

balance 	1.05 shift z 10 1.05
Balancing ...
Neighbor list info ...
  update every 1 steps, delay 10 steps, check yes
  max neighbors/atom: 2000, page size: 100000
  master list distance cutoff = 4.4
  ghost atom cutoff = 6.95
  binsize = 2.2, bins = 37 37 73
  1 neighbor lists, perpetual/occasional/extra = 1 0 0
  (1) pair lj/smooth/linear, perpetual
      attributes: half, newton on
      pair build: half/bin/newton
      stencil: half/bin/3d/newton
      bin: standard
 rebalancing time: 0.004 seconds
  iteration count = 4
  initial/final maximal load/proc = 2230.0000 2237.0000
  initial/final imbalance factor  = 1.5063715 1.5111001
  x cuts: 0.0000000 0.16666667 0.33333333 0.50000000 0.66666667 0.83333333 1.0000000
  y cuts: 0.0000000 0.25000000 0.50000000 0.75000000 1.0000000
  z cuts: 0.0000000 0.057291667 0.11979167 0.17187500 0.23958333 0.28125000 0.34375000 0.41145833 0.46354167 0.51562500 0.59895833 0.64583333 1.0000000

####################### WALLS ###########################

variable       epsilonWall equal 2*${epsilon}
variable       epsilonWall equal 2*1
variable       repulsive   equal   0.7147*${sigma}
variable       repulsive   equal   0.7147*1
variable       full	   equal   3*${sigma}
variable       full	   equal   3*1
region         lowWall block EDGE EDGE EDGE EDGE EDGE 2

fix            topWall all wall/lj93 zhi EDGE 	       ${epsilonWall} ${sigma} ${repulsive} units box
fix            topWall all wall/lj93 zhi EDGE 	       2 ${sigma} ${repulsive} units box
fix            topWall all wall/lj93 zhi EDGE 	       2 1 ${repulsive} units box
fix            topWall all wall/lj93 zhi EDGE 	       2 1 0.7147 units box
fix            lowSol solvent wall/lj93 zlo EDGE                ${epsilonWall} ${sigma} ${full} units box
fix            lowSol solvent wall/lj93 zlo EDGE                2 ${sigma} ${full} units box
fix            lowSol solvent wall/lj93 zlo EDGE                2 1 ${full} units box
fix            lowSol solvent wall/lj93 zlo EDGE                2 1 3 units box
fix 	       lowCub cubes wall/lj93 zlo EDGE                ${epsilonWall} ${sigma} ${repulsive} units box
fix 	       lowCub cubes wall/lj93 zlo EDGE                2 ${sigma} ${repulsive} units box
fix 	       lowCub cubes wall/lj93 zlo EDGE                2 1 ${repulsive} units box
fix 	       lowCub cubes wall/lj93 zlo EDGE                2 1 0.7147 units box


###################### COMPUTES ##########################

compute        bin1 solvent chunk/atom bin/1d z lower 1.0 units box


######################  FIXES ############################


fix             peclet solvent ave/chunk 10 10 10000 bin1 density/number norm                  none ave one file density.profile

fix              temp solvent ave/chunk 10 10 10000 bin1 temp norm                  none ave one file temp.profile

fix             1 cubes rigid/nve/small molecule
  create bodies CPU = 0.027 seconds
  64 rigid bodies with 73152 atoms
  6.9282032 = max distance from body owner to body atom

fix             2 solvent nve# temp ${temp} ${temp} 10


## Thermostat
region          regthermo block EDGE EDGE EDGE EDGE 0 15
group           thermo dynamic solvent region regthermo every 1000
dynamic group thermo defined
fix             3 thermo langevin ${temp} ${temp} 10 156453
fix             3 thermo langevin 0.6 ${temp} 10 156453
fix             3 thermo langevin 0.6 0.6 10 156453


#### Load balancing

fix             bal all balance 1000 1.05 shift z 10 1.05

############### Diagnostics and computes ###################

compute        	com cubes          rigid/local   1 mol x y z
compute        	quat cubes         rigid/local   1 mol quatw quati quatj quatk

compute 	cc2 cubes 	   chunk/atom 	 molecule
compute 	msd cubes 	   msd/chunk 	 cc2

fix 		msd all ave/time  1 1 10000 c_msd[*] file dump.msd ave one mode vector

dump            1 all custom 500000 dump.lammpstrj id mol type x y z
dump		cubetrj hull custom 500000 cubes.lammpstrj id mol type x y z
dump            com cubes local 10000 dump.*.xyz c_com[*]
dump	        xyz hull xyz 100000 cubes.xyz
dump            quat cubes      local 10000 dump.*.quat c_quat[*]
#dump		mol cubes molfile 10000 mol.xyz xyz


dump            2 all image 10000 image.*.png type type zoom 1.5 size 1280 720
dump_modify     2 pad 8
dump		image cubes image 10000 image_cubes.*.png type type zoom 1.5 size 1280 720
dump_modify	image pad 8
dump            3 all movie 5000 movie.avi type type zoom 1.5 size 1280 720
dump		4 cubes movie 5000 movie_cubes.avi type type size 1280 720


thermo          1000
thermo_style    custom step temp epair evdwl etotal press pe ke atoms

restart         1000000 restart.dat
timestep        0.005
timer           full
New timer settings: style=full  mode=nosync  timeout=off

run 		5000000
Per MPI rank memory allocation (min/avg/max) = 13.91 | 19.38 | 22.63 Mbytes
Step Temp E_pair E_vdwl TotEng Press PotEng KinEng Atoms 
       0   0.61139669   -2.3364279   -2.3364279   -1.5764127  -0.87719537   -2.3364279   0.76001512   426349 
    1000   0.90753125   -2.7283266   -2.7283266   -1.6001925   0.28290765   -2.7283266    1.1281341   426349 
    2000   0.91780007   -2.7682979   -2.7682979   -1.6273988   0.31065489   -2.7682979    1.1408991   426349 
    3000   0.90877502   -2.7839714   -2.7839714   -1.6542911    0.2866336   -2.7839714    1.1296802   426349 
    4000   0.89342727   -2.7906672   -2.7906672   -1.6800654   0.27015663   -2.7906672    1.1106018   426349 
    5000   0.88015046   -2.7967912   -2.7967912   -1.7026936   0.25408673   -2.7967912    1.0940976   426349 
    6000   0.86466915   -2.7966402   -2.7966402   -1.7217871   0.22907782   -2.7966402    1.0748531   426349 
    7000   0.85129801   -2.7948178   -2.7948178   -1.7365861   0.20554564   -2.7948178    1.0582317   426349 
    8000   0.84274283   -2.7950625   -2.7950625   -1.7474656   0.19245803   -2.7950625    1.0475969   426349 
    9000   0.83332127   -2.7917971   -2.7917971   -1.7559119   0.16466373   -2.7917971    1.0358852   426349 
   10000   0.82460141   -2.7866919   -2.7866919   -1.7616462    0.1440905   -2.7866919    1.0250457   426349 
   11000   0.81925307   -2.7849995   -2.7849995   -1.7666023   0.13226217   -2.7849995    1.0183973   426349 
   12000   0.81368502   -2.7815397   -2.7815397    -1.770064   0.13903181   -2.7815397    1.0114757   426349 
   13000     0.812749   -2.7818749   -2.7818749   -1.7715628     0.132243   -2.7818749    1.0103122   426349 
   14000   0.81262403   -2.7839085   -2.7839085   -1.7737517   0.12987988   -2.7839085    1.0101568   426349 
   15000   0.81338758   -2.7864351   -2.7864351   -1.7753291   0.13253522   -2.7864351     1.011106   426349 
   16000    0.8128693   -2.7873509   -2.7873509   -1.7768892   0.14275094   -2.7873509    1.0104617   426349 
   17000   0.81296206   -2.7891489   -2.7891489   -1.7785719   0.13319686   -2.7891489     1.010577   426349 
   18000   0.81521048   -2.7933473   -2.7933473   -1.7799753   0.15925622   -2.7933473     1.013372   426349 
   19000   0.81432084   -2.7938379   -2.7938379   -1.7815718   0.14957007   -2.7938379    1.0122661   426349 
   20000    0.8151934   -2.7961042   -2.7961042   -1.7827534   0.16001098   -2.7961042    1.0133508   426349 
   21000   0.81626924    -2.799257    -2.799257   -1.7845689   0.16445632    -2.799257    1.0146881   426349 
   22000   0.81528543   -2.7991955   -2.7991955   -1.7857303   0.15961623   -2.7991955    1.0134652   426349 
   23000   0.81646863   -2.8017242   -2.8017242   -1.7867882   0.15728652   -2.8017242     1.014936   426349 
   24000   0.81612176   -2.8016724   -2.8016724   -1.7871676   0.16197325   -2.8016724    1.0145048   426349 
   25000   0.81426262   -2.8000895   -2.8000895   -1.7878958   0.16983242   -2.8000895    1.0121937   426349 
   26000   0.81251153   -2.7989828   -2.7989828   -1.7889658   0.16236387   -2.7989828     1.010017   426349 
   27000   0.81165245   -2.7986067   -2.7986067   -1.7896576   0.14438586   -2.7986067    1.0089491   426349 
   28000   0.80873953   -2.7960092   -2.7960092   -1.7906811   0.14847824   -2.7960092    1.0053281   426349 
   29000    0.8060777   -2.7930728   -2.7930728   -1.7910536   0.14775069   -2.7930728    1.0020192   426349 
   30000   0.80503175   -2.7922424   -2.7922424   -1.7915233   0.15168875   -2.7922424     1.000719   426349 
   31000   0.80039591   -2.7871449   -2.7871449   -1.7921886   0.13913835   -2.7871449   0.99495631   426349 
   32000   0.80033555   -2.7875107   -2.7875107   -1.7926294   0.14157587   -2.7875107   0.99488127   426349 
   33000   0.79820896   -2.7857547   -2.7857547   -1.7935169   0.14353978   -2.7857547   0.99223776   426349 
   34000   0.79859272    -2.786937    -2.786937   -1.7942222   0.14063771    -2.786937    0.9927148   426349 
   35000   0.79581482   -2.7844761   -2.7844761   -1.7952145   0.15008774   -2.7844761   0.98926164   426349 
   36000    0.7930826   -2.7830881   -2.7830881   -1.7972228   0.13554974   -2.7830881   0.98586527   426349 
   37000   0.79466776   -2.7877785   -2.7877785   -1.7999427   0.14693842   -2.7877785   0.98783575   426349 
   38000    0.7936764   -2.7905959   -2.7905959   -1.8039925   0.14710136   -2.7905959   0.98660341   426349 
   39000   0.79157952   -2.7932739   -2.7932739   -1.8092771   0.14487225   -2.7932739   0.98399683   426349 
   40000   0.79082764   -2.7969268   -2.7969268   -1.8138646    0.1629876   -2.7969268   0.98306218   426349 
   41000   0.79192239   -2.8031854   -2.8031854   -1.8187624   0.15796823   -2.8031854   0.98442304   426349 
   42000    0.7912177   -2.8077269   -2.8077269   -1.8241798   0.16730713   -2.8077269   0.98354705   426349 
   43000   0.78964996   -2.8110127   -2.8110127   -1.8294145    0.1700294   -2.8110127   0.98159824   426349 
   44000   0.78918642   -2.8143989   -2.8143989   -1.8333769   0.15888172   -2.8143989   0.98102202   426349 
   45000   0.78864359   -2.8191475   -2.8191475   -1.8388002   0.17982977   -2.8191475   0.98034723   426349 
   46000   0.78787162   -2.8224209   -2.8224209   -1.8430332   0.16300358   -2.8224209   0.97938762   426349 
   47000   0.78648859   -2.8248526   -2.8248526   -1.8471842   0.17598467   -2.8248526   0.97766839   426349 
   48000   0.78596991   -2.8277868   -2.8277868   -1.8507632   0.16746634   -2.8277868   0.97702364   426349 
   49000   0.78507882   -2.8304226   -2.8304226   -1.8545067   0.17903755   -2.8304226   0.97591593   426349 
   50000   0.78405038   -2.8323543   -2.8323543   -1.8577168   0.16691396   -2.8323543   0.97463751   426349 
   51000   0.78373981    -2.834764    -2.834764   -1.8605125   0.16225113    -2.834764   0.97425144   426349 
   52000   0.78361663   -2.8374098   -2.8374098   -1.8633115   0.16045969   -2.8374098   0.97409832   426349 
   53000    0.7789964   -2.8357034   -2.8357034   -1.8673484   0.14784368   -2.8357034     0.968355   426349 
   54000   0.77903123   -2.8377329   -2.8377329   -1.8693346   0.15756435   -2.8377329   0.96839829   426349 
   55000   0.77662245   -2.8375622   -2.8375622   -1.8721583   0.15628257   -2.8375622   0.96540399   426349 
   56000   0.77535973    -2.838284    -2.838284   -1.8744497   0.14946115    -2.838284   0.96383432   426349 
   57000   0.77314227   -2.8369954   -2.8369954   -1.8759175   0.14385133   -2.8369954   0.96107785   426349 
   58000   0.77137727   -2.8359042   -2.8359042   -1.8770204   0.15231156   -2.8359042   0.95888381   426349 
   59000   0.76866373   -2.8345323   -2.8345323   -1.8790216   0.13113649   -2.8345323   0.95551066   426349 
   60000   0.76708245   -2.8344546   -2.8344546   -1.8809096   0.13515843   -2.8344546   0.95354501   426349 
   61000   0.76459185   -2.8330192   -2.8330192   -1.8825702     0.140091   -2.8330192   0.95044899   426349 
   62000   0.76335703   -2.8332889   -2.8332889   -1.8843749   0.13938391   -2.8332889   0.94891401   426349 
   63000   0.76323273   -2.8346012   -2.8346012   -1.8858418   0.13277143   -2.8346012   0.94875949   426349 
   64000   0.76135129   -2.8346063   -2.8346063   -1.8881855   0.12353205   -2.8346063   0.94642072   426349 
   65000   0.76157354   -2.8356903   -2.8356903   -1.8889933   0.12771537   -2.8356903   0.94669699   426349 
   66000   0.75978185   -2.8346208   -2.8346208    -1.890151   0.12319791   -2.8346208   0.94446977   426349 
   67000   0.75989013   -2.8356697   -2.8356697   -1.8910653   0.14426872   -2.8356697   0.94460438   426349 
   68000   0.75966885   -2.8373129   -2.8373129   -1.8929836   0.12315403   -2.8373129    0.9443293   426349 
   69000   0.75922876   -2.8370707   -2.8370707   -1.8932884   0.11659822   -2.8370707   0.94378224   426349 
   70000   0.75980404   -2.8382105   -2.8382105   -1.8937131   0.11841037   -2.8382105   0.94449735   426349 
   71000   0.75905347   -2.8387461   -2.8387461   -1.8951818   0.12226613   -2.8387461   0.94356433   426349 
   72000   0.75886463    -2.839518    -2.839518   -1.8961884   0.11495771    -2.839518    0.9433296   426349 
   73000   0.75745835   -2.8393528   -2.8393528   -1.8977713   0.12497158   -2.8393528   0.94158148   426349 
   74000   0.75853788   -2.8415784   -2.8415784    -1.898655   0.11076299   -2.8415784   0.94292342   426349 
   75000   0.75768268   -2.8414321   -2.8414321   -1.8995717   0.12105442   -2.8414321   0.94186034   426349 
   76000   0.75717587   -2.8414054   -2.8414054   -1.9001751   0.11045579   -2.8414054   0.94123034   426349 
   77000   0.75828433   -2.8427467   -2.8427467   -1.9001385   0.12971365   -2.8427467   0.94260824   426349 
   78000    0.7580176   -2.8436891   -2.8436891   -1.9014125   0.12962659   -2.8436891   0.94227667   426349 
   79000   0.75779858   -2.8449276   -2.8449276   -1.9029232   0.12872482   -2.8449276   0.94200441   426349 
   80000   0.75601127   -2.8436528   -2.8436528   -1.9038701   0.13093003   -2.8436528   0.93978264   426349 
   81000   0.75529661   -2.8444424   -2.8444424   -1.9055481   0.11365403   -2.8444424   0.93889426   426349 
   82000   0.75536252   -2.8452449   -2.8452449   -1.9062688   0.13229301   -2.8452449    0.9389762   426349 
   83000    0.7558635   -2.8463908   -2.8463908   -1.9067919   0.13210823   -2.8463908   0.93959895   426349 
   84000    0.7562368   -2.8472061   -2.8472061   -1.9071431   0.13009902   -2.8472061     0.940063   426349 
   85000   0.75526483   -2.8483182   -2.8483182   -1.9094635   0.12801932   -2.8483182   0.93885476   426349 
   86000   0.75480565   -2.8490895   -2.8490895   -1.9108055   0.11550801   -2.8490895   0.93828396   426349 
   87000    0.7543549   -2.8499806   -2.8499806    -1.912257   0.12719543   -2.8499806   0.93772364   426349 
   88000   0.75460109   -2.8517996   -2.8517996   -1.9137699   0.12067186   -2.8517996   0.93802968   426349 
   89000   0.75481122   -2.8540677   -2.8540677   -1.9157769   0.12826696   -2.8540677   0.93829088   426349 
   90000   0.75448265   -2.8555562   -2.8555562   -1.9176738   0.13056558   -2.8555562   0.93788244   426349 
   91000   0.75432968   -2.8575952   -2.8575952   -1.9199029   0.13261811   -2.8575952   0.93769229   426349 
   92000   0.75565598   -2.8611495   -2.8611495   -1.9218085   0.13097813   -2.8611495   0.93934099   426349 
   93000   0.75452689   -2.8622569   -2.8622569   -1.9243194    0.1272782   -2.8622569   0.93793744   426349 
   94000    0.7536226   -2.8625206   -2.8625206   -1.9257073   0.11722512   -2.8625206   0.93681334   426349 
   95000   0.75291385   -2.8637571   -2.8637571   -1.9278248    0.1301632   -2.8637571    0.9359323   426349 
   96000   0.75360793   -2.8663911   -2.8663911    -1.929596   0.13673444   -2.8663911    0.9367951   426349 
   97000   0.75369149   -2.8684738   -2.8684738   -1.9315748   0.14061383   -2.8684738   0.93689897   426349 
   98000    0.7528009   -2.8694482   -2.8694482   -1.9336563   0.13877776   -2.8694482   0.93579189   426349 
   99000   0.75260893   -2.8719014   -2.8719014   -1.9363481   0.12597104   -2.8719014   0.93555326   426349 
  100000    0.7521797    -2.873013    -2.873013   -1.9379933   0.13294131    -2.873013   0.93501969   426349 
  101000   0.75223604   -2.8741626   -2.8741626   -1.9390729   0.13746396   -2.8741626   0.93508972   426349 
  102000   0.74976645   -2.8730225   -2.8730225   -1.9410027   0.13693255   -2.8730225   0.93201983   426349 
  103000   0.75032219   -2.8745094   -2.8745094   -1.9417988   0.13763236   -2.8745094   0.93271065   426349 
  104000   0.75008751     -2.87617     -2.87617   -1.9437511   0.13554733     -2.87617   0.93241894   426349 
  105000   0.74841931   -2.8759914   -2.8759914   -1.9456461   0.13062113   -2.8759914   0.93034523   426349 
  106000   0.74843158   -2.8773931   -2.8773931   -1.9470326   0.13415631   -2.8773931   0.93036048   426349 
  107000   0.74791986   -2.8778632   -2.8778632   -1.9481388    0.1356135   -2.8778632   0.92972437   426349 
  108000   0.74700635   -2.8788845   -2.8788845   -1.9502957   0.12076557   -2.8788845    0.9285888   426349 
  109000   0.74788506   -2.8802923   -2.8802923   -1.9506112   0.13481388   -2.8802923   0.92968112   426349 
  110000   0.74588195   -2.8794735   -2.8794735   -1.9522824   0.12266256   -2.8794735   0.92719109   426349 
  111000   0.74479818   -2.8792594   -2.8792594   -1.9534156   0.12249425   -2.8792594   0.92584387   426349 
  112000   0.74327099   -2.8789697   -2.8789697   -1.9550243   0.11922553   -2.8789697   0.92394545   426349 
  113000    0.7422778     -2.87931     -2.87931   -1.9565992   0.12206988     -2.87931   0.92271084   426349 
  114000   0.74251847   -2.8799983   -2.8799983   -1.9569882   0.11743085   -2.8799983   0.92301001   426349 
  115000   0.74264442   -2.8807407   -2.8807407   -1.9575741   0.11383549   -2.8807407   0.92316657   426349 
  116000   0.74333253   -2.8826275   -2.8826275   -1.9586055   0.10777647   -2.8826275   0.92402196   426349 
  117000   0.74199011   -2.8817029   -2.8817029   -1.9593496   0.12850934   -2.8817029   0.92235322   426349 
  118000   0.74220084     -2.88385     -2.88385   -1.9612348   0.12630419     -2.88385   0.92261517   426349 
  119000   0.74057107   -2.8828963   -2.8828963   -1.9623071   0.12388096   -2.8828963   0.92058924   426349 
  120000   0.74122008   -2.8851341   -2.8851341   -1.9637381   0.11834311   -2.8851341     0.921396   426349 
  121000    0.7407535   -2.8855326   -2.8855326   -1.9647166   0.10674016   -2.8855326   0.92081601   426349 
  122000   0.74015262   -2.8857924   -2.8857924   -1.9657233   0.11611061   -2.8857924   0.92006906   426349 
  123000   0.73985092   -2.8863641   -2.8863641   -1.9666701   0.10567003   -2.8863641   0.91969404   426349 
  124000   0.73935518    -2.886789    -2.886789   -1.9677113   0.11199119    -2.886789   0.91907778   426349 
  125000   0.73841948   -2.8859152   -2.8859152   -1.9680006   0.10389883   -2.8859152   0.91791463   426349 
  126000   0.73773882   -2.8867777   -2.8867777   -1.9697092   0.10608808   -2.8867777   0.91706852   426349 
  127000   0.73767136   -2.8878395   -2.8878395   -1.9708548   0.12758547   -2.8878395   0.91698467   426349 
  128000   0.73687427   -2.8875402   -2.8875402   -1.9715464   0.10727963   -2.8875402   0.91599381   426349 
  129000   0.73817848   -2.8899568   -2.8899568   -1.9723418    0.1202023   -2.8899568   0.91761505   426349 
  130000   0.73689097   -2.8896728   -2.8896728   -1.9736582   0.12766705   -2.8896728   0.91601457   426349 
  131000   0.73652388   -2.8897981   -2.8897981   -1.9742399   0.11208265   -2.8897981   0.91555825   426349 
  132000   0.73750498   -2.8916373   -2.8916373   -1.9748595   0.10815086   -2.8916373   0.91677783   426349 
  133000   0.73738664   -2.8921778   -2.8921778   -1.9755471   0.11282122   -2.8921778   0.91663073   426349 
  134000   0.73549531   -2.8914976   -2.8914976   -1.9772179   0.11095355   -2.8914976   0.91427966   426349 
  135000   0.73588274   -2.8928556   -2.8928556   -1.9780944   0.11333499   -2.8928556   0.91476126   426349 
  136000   0.73533192   -2.8940657   -2.8940657   -1.9799892   0.10718731   -2.8940657   0.91407655   426349 
  137000     0.735458   -2.8948725   -2.8948725   -1.9806392   0.11724234   -2.8948725   0.91423328   426349 
  138000   0.73570029   -2.8965141   -2.8965141   -1.9819796   0.11576261   -2.8965141   0.91453446   426349 
  139000   0.73650039   -2.8985986   -2.8985986   -1.9830695   0.11819474   -2.8985986   0.91552905   426349 
  140000   0.73583123   -2.8991272   -2.8991272     -1.98443   0.11854435   -2.8991272   0.91469724   426349 
  141000   0.73539201   -2.9000026   -2.9000026   -1.9858513   0.12746562   -2.9000026   0.91415125   426349 
  142000   0.73587166   -2.9014434   -2.9014434   -1.9866959   0.12434512   -2.9014434   0.91474749   426349 
  143000   0.73556884   -2.9027802   -2.9027802   -1.9884091   0.11332847   -2.9027802   0.91437107   426349 
  144000   0.73660784   -2.9050502   -2.9050502   -1.9893876    0.1114626   -2.9050502   0.91566263   426349 
  145000   0.73496624   -2.9036367   -2.9036367   -1.9900147   0.12650591   -2.9036367   0.91362198   426349 
  146000   0.73472265   -2.9054065   -2.9054065   -1.9920873    0.1224727   -2.9054065   0.91331918   426349 
  147000   0.73290338   -2.9046509   -2.9046509   -1.9935933     0.118687   -2.9046509   0.91105769   426349 
  148000   0.73522314    -2.908414    -2.908414   -1.9944727    0.1219597    -2.908414   0.91394133   426349 
  149000   0.73463238   -2.9083472   -2.9083472   -1.9951402   0.11978378   -2.9083472   0.91320697   426349 
  150000   0.73545885   -2.9108462   -2.9108462   -1.9966119   0.12107854   -2.9108462   0.91423434   426349 
  151000   0.73319792    -2.908931    -2.908931   -1.9975072    0.1167369    -2.908931   0.91142381   426349 
  152000   0.73234122   -2.9090994   -2.9090994   -1.9987405   0.11857612   -2.9090994   0.91035887   426349 
  153000   0.73331016   -2.9119359   -2.9119359   -2.0003725     0.109076   -2.9119359   0.91156334   426349 
  154000    0.7332525   -2.9135308   -2.9135308   -2.0020391   0.11735985   -2.9135308   0.91149166   426349 
  155000    0.7319841    -2.913275    -2.913275   -2.0033601   0.10989342    -2.913275   0.90991494   426349 
  156000   0.73113913   -2.9136746   -2.9136746     -2.00481   0.10313141   -2.9136746   0.90886458   426349 
  157000   0.73161464   -2.9156459   -2.9156459   -2.0061902   0.12188803   -2.9156459   0.90945568   426349 
  158000   0.73080149   -2.9158156   -2.9158156   -2.0073707   0.11884999   -2.9158156   0.90844486   426349 
  159000   0.72952648   -2.9154791   -2.9154791   -2.0086191   0.12169303   -2.9154791   0.90685992   426349 
  160000   0.72993595   -2.9163638   -2.9163638   -2.0089949   0.10954886   -2.9163638   0.90736892   426349 
  161000   0.72834911   -2.9142473   -2.9142473    -2.008851   0.12152474   -2.9142473   0.90539636   426349 
  162000   0.72970613   -2.9162441   -2.9162441   -2.0091608   0.11437489   -2.9162441   0.90708325   426349 
  163000   0.72851392   -2.9155524   -2.9155524   -2.0099511   0.12166048   -2.9155524   0.90560123   426349 
  164000   0.72795065   -2.9162061   -2.9162061    -2.011305    0.1164439   -2.9162061   0.90490104   426349 
  165000   0.72816604   -2.9161578   -2.9161578    -2.010989   0.11347156   -2.9161578   0.90516879   426349 
  166000    0.7287214   -2.9181548   -2.9181548   -2.0122957   0.10969338   -2.9181548   0.90585915   426349 
  167000   0.72696815   -2.9177993   -2.9177993   -2.0141196   0.10203424   -2.9177993   0.90367971   426349 
  168000    0.7270405    -2.919091    -2.919091   -2.0153213   0.11121517    -2.919091   0.90376964   426349 
  169000   0.72715548      -2.9199      -2.9199   -2.0159875   0.10616594      -2.9199   0.90391257   426349 
  170000   0.72497153   -2.9186416   -2.9186416   -2.0174439   0.11473739   -2.9186416   0.90119775   426349 
  171000   0.72602155   -2.9206067   -2.9206067   -2.0181037   0.11554482   -2.9206067   0.90250302   426349 
  172000    0.7254317   -2.9200968   -2.9200968    -2.018327   0.11052088   -2.9200968   0.90176978   426349 
  173000   0.72395619   -2.9198567   -2.9198567   -2.0199211   0.10549662   -2.9198567   0.89993561   426349 
  174000   0.72557072   -2.9221709   -2.9221709   -2.0202283  0.095331327   -2.9221709   0.90194259   426349 
  175000   0.72465001   -2.9218227   -2.9218227   -2.0210246   0.11100385   -2.9218227   0.90079807   426349 
  176000   0.72383148   -2.9219178   -2.9219178   -2.0221372   0.11638495   -2.9219178   0.89978059   426349 
  177000    0.7239491   -2.9238118   -2.9238118    -2.023885    0.1064141   -2.9238118   0.89992679   426349 
  178000   0.72378739   -2.9244655   -2.9244655   -2.0247398   0.10565872   -2.9244655   0.89972577   426349 
  179000   0.72406489    -2.926379    -2.926379   -2.0263083  0.098332666    -2.926379   0.90007073   426349 
  180000   0.72482706   -2.9283175   -2.9283175   -2.0272993   0.10528322   -2.9283175   0.90101817   426349 
  181000   0.72332961   -2.9274874   -2.9274874   -2.0283306   0.10587663   -2.9274874   0.89915672   426349 
  182000   0.72397278   -2.9277413   -2.9277413   -2.0277851   0.10245626   -2.9277413   0.89995623   426349 
  183000   0.72283355   -2.9266529   -2.9266529   -2.0281128   0.11515987   -2.9266529   0.89854007   426349 
  184000   0.72292793    -2.927822    -2.927822   -2.0291646   0.10070978    -2.927822   0.89865739   426349 
  185000   0.72268708   -2.9286832   -2.9286832   -2.0303252  0.093491261   -2.9286832     0.898358   426349 
  186000   0.72273634   -2.9297723   -2.9297723    -2.031353   0.10664825   -2.9297723   0.89841924   426349 
  187000   0.72199551   -2.9304733   -2.9304733   -2.0329749   0.11444437   -2.9304733   0.89749832   426349 
  188000   0.72243939   -2.9314322   -2.9314322   -2.0333821  0.098869427   -2.9314322    0.8980501   426349 
  189000   0.72170668   -2.9320339   -2.9320339   -2.0348946   0.10991076   -2.9320339   0.89713928   426349 
  190000   0.72131367   -2.9320226   -2.9320226   -2.0353719   0.11191343   -2.9320226   0.89665074   426349 
  191000   0.72247118   -2.9341503   -2.9341503   -2.0360607   0.11171403   -2.9341503   0.89808962   426349 
  192000   0.72296204    -2.935615    -2.935615   -2.0369151   0.11149063    -2.935615    0.8986998   426349 
  193000   0.72178222   -2.9354872   -2.9354872    -2.038254   0.10937274   -2.9354872   0.89723319   426349 
  194000   0.72179083   -2.9367862   -2.9367862   -2.0395423   0.10320899   -2.9367862   0.89724389   426349 
  195000   0.72036585   -2.9354125   -2.9354125     -2.03994   0.10178504   -2.9354125   0.89547252   426349 
  196000   0.72037819   -2.9358691   -2.9358691   -2.0403812   0.10996937   -2.9358691   0.89548786   426349 
  197000   0.72010801    -2.936054    -2.936054    -2.040902   0.11062448    -2.936054   0.89515201   426349 
  198000    0.7199809   -2.9372019   -2.9372019   -2.0422079   0.11261491   -2.9372019   0.89499401   426349 
  199000   0.72061086   -2.9389291   -2.9389291    -2.043152   0.10099794   -2.9389291   0.89577709   426349 
  200000   0.71993881   -2.9386322   -2.9386322   -2.0436906   0.11310195   -2.9386322   0.89494168   426349 
  201000   0.71877335   -2.9381973   -2.9381973   -2.0447043   0.10533044   -2.9381973   0.89349292   426349 
  202000    0.7199886   -2.9415384   -2.9415384   -2.0465349   0.10694406   -2.9415384   0.89500358   426349 
  203000   0.71893671   -2.9413099   -2.9413099   -2.0476139   0.10568988   -2.9413099   0.89369599   426349 
  204000   0.71995888     -2.94309     -2.94309   -2.0481234   0.11222313     -2.94309   0.89496663   426349 
  205000   0.71887832   -2.9430976   -2.9430976   -2.0494742  0.096672741   -2.9430976   0.89362341   426349 
  206000   0.71920366   -2.9437145   -2.9437145   -2.0496867   0.10852292   -2.9437145   0.89402783   426349 
  207000   0.71887386   -2.9449293   -2.9449293   -2.0513114   0.10749098   -2.9449293   0.89361786   426349 
  208000   0.71859188    -2.945166    -2.945166   -2.0518987   0.11215219    -2.945166   0.89326734   426349 
  209000   0.71868674   -2.9456654   -2.9456654   -2.0522802   0.11013619   -2.9456654   0.89338525   426349 
  210000   0.71766345    -2.945899    -2.945899   -2.0537858   0.11207644    -2.945899   0.89211323   426349 
  211000   0.71835753   -2.9464198   -2.9464198   -2.0534438    0.1206475   -2.9464198   0.89297603   426349 
  212000   0.71640234   -2.9455461   -2.9455461   -2.0550005   0.10610191   -2.9455461   0.89054557   426349 
  213000   0.71728586   -2.9468695   -2.9468695   -2.0552256  0.095097697   -2.9468695   0.89164385   426349 
  214000   0.71649164   -2.9462159   -2.9462159   -2.0555594  0.095768686   -2.9462159   0.89065657   426349 
  215000    0.7170621   -2.9472012   -2.9472012   -2.0558355  0.098693301   -2.9472012    0.8913657   426349 
  216000   0.71693373     -2.94767     -2.94767   -2.0564638   0.10808476     -2.94767   0.89120613   426349 
  217000   0.71646205   -2.9478441   -2.9478441   -2.0572244    0.1008944   -2.9478441   0.89061979   426349 
  218000   0.71632221   -2.9477428   -2.9477428   -2.0572969   0.11703471   -2.9477428   0.89044595   426349 
  219000   0.71660022   -2.9496293   -2.9496293   -2.0588378   0.10255289   -2.9496293   0.89079154   426349 
  220000   0.71629104   -2.9508626   -2.9508626   -2.0604554   0.10949937   -2.9508626   0.89040721   426349 
  221000   0.71503295   -2.9496199   -2.9496199   -2.0607766  0.091865951   -2.9496199   0.88884331   426349 
  222000   0.71525252   -2.9503642   -2.9503642   -2.0612479   0.10631531   -2.9503642   0.88911624   426349 
  223000   0.71397931   -2.9494784   -2.9494784   -2.0619449   0.10451596   -2.9494784   0.88753354   426349 
  224000   0.71625161   -2.9530239   -2.9530239   -2.0626657   0.11188132   -2.9530239    0.8903582   426349 
  225000    0.7162596   -2.9533148   -2.9533148   -2.0629467    0.1108881   -2.9533148   0.89036812   426349 
  226000    0.7160603   -2.9545982   -2.9545982   -2.0644778   0.10929665   -2.9545982   0.89012037   426349 
  227000   0.71540847   -2.9542219   -2.9542219   -2.0649118   0.10633595   -2.9542219   0.88931011   426349 
  228000    0.7140228   -2.9524949   -2.9524949   -2.0649073    0.1040607   -2.9524949    0.8875876   426349 
  229000   0.71278395   -2.9521344   -2.9521344   -2.0660868   0.10301702   -2.9521344   0.88604761   426349 
  230000   0.71382785   -2.9538523   -2.9538523    -2.066507  0.095730887   -2.9538523   0.88734526   426349 
  231000   0.71435201   -2.9542895   -2.9542895   -2.0662926   0.11382109   -2.9542895   0.88799684   426349 
  232000   0.71216497   -2.9523103   -2.9523103   -2.0670321  0.098316189   -2.9523103   0.88527817   426349 
  233000   0.71281367   -2.9535538   -2.9535538   -2.0674693  0.099162367   -2.9535538   0.88608456   426349 
  234000   0.71322706   -2.9547747   -2.9547747   -2.0681763   0.10734041   -2.9547747   0.88659844   426349 
  235000   0.71238119   -2.9544104   -2.9544104   -2.0688634   0.10357903   -2.9544104   0.88554695   426349 
  236000   0.71307017   -2.9554591   -2.9554591   -2.0690557  0.098334122   -2.9554591   0.88640341   426349 
  237000   0.71313268   -2.9567167   -2.9567167   -2.0702356   0.10995087   -2.9567167   0.88648111   426349 
  238000   0.71243665   -2.9568059   -2.9568059     -2.07119  0.096702646   -2.9568059   0.88561589   426349 
  239000   0.71269766   -2.9571266   -2.9571266   -2.0711862   0.10285694   -2.9571266   0.88594035   426349 
  240000   0.71165242   -2.9564349   -2.9564349   -2.0717939   0.10291721   -2.9564349   0.88464103   426349 
  241000   0.71223625   -2.9583948   -2.9583948    -2.073028   0.11239247   -2.9583948   0.88536678   426349 
  242000   0.71375155   -2.9612697   -2.9612697   -2.0740193   0.10285399   -2.9612697   0.88725042   426349 
  243000   0.71099928   -2.9587809   -2.9587809   -2.0749518    0.1082547   -2.9587809   0.88382913   426349 
  244000   0.71148076   -2.9612342   -2.9612342   -2.0768065  0.092639467   -2.9612342   0.88442764   426349 
  245000   0.70985663    -2.960479    -2.960479   -2.0780702   0.10284473    -2.960479   0.88240873   426349 
  246000   0.71020438   -2.9619917   -2.9619917   -2.0791507  0.095105484   -2.9619917   0.88284101   426349 
  247000   0.71005087   -2.9619558   -2.9619558   -2.0793057  0.093884953   -2.9619558   0.88265018   426349 
  248000   0.71019128   -2.9632848   -2.9632848   -2.0804601  0.098273913   -2.9632848   0.88282471   426349 
  249000   0.71064921   -2.9639034   -2.9639034   -2.0805094   0.11242759   -2.9639034   0.88339396   426349 
  250000    0.7110629   -2.9640023   -2.9640023   -2.0800941   0.10922603   -2.9640023   0.88390821   426349 
  251000   0.70976559   -2.9632052   -2.9632052   -2.0809097   0.10031965   -2.9632052   0.88229555   426349 
  252000   0.71082699   -2.9654841   -2.9654841   -2.0818691   0.10415058   -2.9654841   0.88361495   426349 
  253000   0.71037529    -2.965859    -2.965859   -2.0828056   0.10315657    -2.965859   0.88305345   426349 
  254000   0.71010202   -2.9659454   -2.9659454   -2.0832316  0.090961458   -2.9659454   0.88271376   426349 
  255000   0.71017248   -2.9675351   -2.9675351   -2.0847338   0.10341534   -2.9675351   0.88280135   426349 
  256000   0.70909009   -2.9670865   -2.9670865   -2.0856307  0.091630495   -2.9670865   0.88145585   426349 
  257000   0.71019398   -2.9694806   -2.9694806   -2.0866526   0.10943134   -2.9694806   0.88282808   426349 
  258000   0.70908433    -2.968475    -2.968475   -2.0870263  0.096831403    -2.968475    0.8814487   426349 
  259000   0.70839836   -2.9686468   -2.9686468   -2.0880509   0.10317594   -2.9686468   0.88059598   426349 
  260000   0.70750157   -2.9686713   -2.9686713   -2.0891901  0.095213661   -2.9686713   0.87948119   426349 
  261000   0.70772067   -2.9693662   -2.9693662   -2.0896127   0.10297606   -2.9693662   0.87975355   426349 
  262000   0.70781745   -2.9700807   -2.9700807   -2.0902068   0.10901476   -2.9700807   0.87987386   426349 
  263000   0.70749277   -2.9700722   -2.9700722   -2.0906019  0.097031595   -2.9700722   0.87947026   426349 
  264000   0.70677227   -2.9697786   -2.9697786    -2.091204  0.094519636   -2.9697786   0.87857462   426349 
  265000   0.70711798   -2.9700843   -2.9700843   -2.0910799   0.10185195   -2.9700843   0.87900437   426349 
  266000   0.70620721   -2.9702902   -2.9702902   -2.0924179  0.085861091   -2.9702902   0.87787221   426349 
  267000   0.70796384   -2.9724511   -2.9724511   -2.0923953  0.097215454   -2.9724511   0.88005583   426349 
  268000   0.70699157   -2.9723983   -2.9723983   -2.0935511   0.10002541   -2.9723983   0.87884722   426349 
  269000   0.70673905   -2.9715509   -2.9715509   -2.0930176  0.099865522   -2.9715509   0.87853332   426349 
  270000   0.70569475   -2.9718736   -2.9718736   -2.0946384   0.10310214   -2.9718736   0.87723517   426349 
  271000   0.70647447   -2.9732898   -2.9732898   -2.0950853   0.10123611   -2.9732898   0.87820443   426349 
  272000   0.70705709   -2.9744899   -2.9744899   -2.0955612   0.09815045   -2.9744899   0.87892867   426349 
  273000   0.70772596   -2.9763496   -2.9763496   -2.0965894  0.096886702   -2.9763496   0.87976013   426349 
  274000   0.70535451   -2.9739404   -2.9739404   -2.0971282  0.099774268   -2.9739404   0.87681223   426349 
  275000    0.7058348   -2.9749538   -2.9749538   -2.0975445  0.081543958   -2.9749538   0.87740926   426349 
  276000   0.70636404   -2.9759099   -2.9759099   -2.0978428   0.10640299   -2.9759099   0.87806715   426349 
  277000   0.70514766   -2.9746736   -2.9746736   -2.0981185  0.095706875   -2.9746736    0.8765551   426349 
  278000   0.70573177   -2.9756337   -2.9756337   -2.0983525  0.098121264   -2.9756337   0.87728119   426349 
  279000   0.70335636   -2.9736633   -2.9736633    -2.099335  0.096634869   -2.9736633   0.87432836   426349 
  280000   0.70514635    -2.975653    -2.975653   -2.0990995  0.091843067    -2.975653   0.87655347   426349 
  281000   0.70571425   -2.9774255   -2.9774255    -2.100166   0.10322218   -2.9774255   0.87725941   426349 
  282000   0.70474458   -2.9774713   -2.9774713   -2.1014173   0.10203073   -2.9774713   0.87605404   426349 
  283000   0.70416347   -2.9771446   -2.9771446    -2.101813   0.10431358   -2.9771446   0.87533167   426349 
  284000   0.70403606    -2.978093    -2.978093   -2.1029197   0.10403519    -2.978093   0.87517328   426349 
  285000   0.70304902    -2.977186    -2.977186   -2.1032397  0.095779137    -2.977186   0.87394631   426349 
  286000     0.705086   -2.9811568   -2.9811568   -2.1046783   0.09610741   -2.9811568   0.87647844   426349 
  287000   0.70380697   -2.9803282   -2.9803282   -2.1054397  0.096680471   -2.9803282    0.8748885   426349 
  288000   0.70276545   -2.9805956   -2.9805956   -2.1070018   0.10296839   -2.9805956   0.87359381   426349 
  289000     0.702764   -2.9812069   -2.9812069   -2.1076149  0.098802466   -2.9812069   0.87359202   426349 
  290000     0.703726   -2.9822829   -2.9822829    -2.107495  0.095392041   -2.9822829   0.87478785   426349 
  291000   0.70121671   -2.9808593   -2.9808593   -2.1091907  0.092497208   -2.9808593   0.87166861   426349 
  292000   0.70159188   -2.9825308   -2.9825308   -2.1103958  0.089270234   -2.9825308   0.87213497   426349 
  293000   0.70209085   -2.9842865   -2.9842865   -2.1115313  0.094452692   -2.9842865   0.87275523   426349 
  294000    0.7021153   -2.9839671   -2.9839671   -2.1111814  0.097260543   -2.9839671   0.87278563   426349 
  295000   0.70150032   -2.9839264   -2.9839264   -2.1119052   0.10470206   -2.9839264   0.87202116   426349 
  296000   0.70191392   -2.9843087   -2.9843087   -2.1117734    0.1049913   -2.9843087    0.8725353   426349 
  297000    0.7024052   -2.9854739   -2.9854739   -2.1123279   0.10710002   -2.9854739   0.87314599   426349 
  298000   0.70257382    -2.986373    -2.986373   -2.1130174  0.086397365    -2.986373    0.8733556   426349 
  299000   0.70341686   -2.9879729   -2.9879729   -2.1135694  0.092433165   -2.9879729   0.87440357   426349 
  300000    0.7018417   -2.9863468   -2.9863468   -2.1139013    0.1017957   -2.9863468   0.87244553   426349 
  301000   0.70268459   -2.9882733   -2.9882733     -2.11478  0.092886681   -2.9882733    0.8734933   426349 
  302000    0.7013264   -2.9872645   -2.9872645   -2.1154595   0.09860338   -2.9872645   0.87180497   426349 
  303000   0.70094988   -2.9877078   -2.9877078   -2.1163709  0.083927403   -2.9877078   0.87133691   426349 
  304000   0.70164451   -2.9890574   -2.9890574    -2.116857  0.088374765   -2.9890574    0.8722004   426349 
  305000   0.70145879   -2.9889763   -2.9889763   -2.1170068  0.095053442   -2.9889763   0.87196954   426349 
  306000   0.70136419   -2.9904719   -2.9904719     -2.11862   0.10701785   -2.9904719   0.87185194   426349 
  307000   0.70102667   -2.9903275   -2.9903275   -2.1188951     0.102143   -2.9903275   0.87143237   426349 
  308000   0.69906731   -2.9886667   -2.9886667   -2.1196699    0.1022536   -2.9886667   0.86899673   426349 
  309000   0.69884074   -2.9893269   -2.9893269   -2.1206118  0.097350056   -2.9893269   0.86871509   426349 
  310000   0.69873312   -2.9890756   -2.9890756   -2.1204943   0.09929973   -2.9890756   0.86858131   426349 
  311000   0.70024402   -2.9917935   -2.9917935   -2.1213341   0.11209105   -2.9917935   0.87045948   426349 
  312000   0.69933132   -2.9917334   -2.9917334   -2.1224085   0.10123875   -2.9917334   0.86932492   426349 
  313000   0.69962885   -2.9923092   -2.9923092   -2.1226144  0.087083252   -2.9923092   0.86969477   426349 
  314000    0.6999457   -2.9926361   -2.9926361   -2.1225474  0.099043516   -2.9926361   0.87008864   426349 
  315000   0.69925176   -2.9930884   -2.9930884   -2.1238624   0.10274515   -2.9930884   0.86922602   426349 
  316000   0.69843886   -2.9930041   -2.9930041   -2.1247886  0.098224713   -2.9930041   0.86821552   426349 
  317000   0.69883876   -2.9936986   -2.9936986    -2.124986  0.093303458   -2.9936986   0.86871262   426349 
  318000   0.69724094   -2.9930266   -2.9930266   -2.1263002  0.095765225   -2.9930266   0.86672641   426349 
  319000   0.69756151   -2.9939539   -2.9939539    -2.126829  0.094489641   -2.9939539    0.8671249   426349 
  320000   0.69793715   -2.9952819   -2.9952819     -2.12769  0.091362256   -2.9952819   0.86759185   426349 
  321000   0.69994209   -2.9975751   -2.9975751   -2.1274909   0.10075584   -2.9975751   0.87008415   426349 
  322000   0.69837709   -2.9968692   -2.9968692   -2.1287304  0.090186562   -2.9968692   0.86813874   426349 
  323000   0.69808644    -2.997316    -2.997316   -2.1295386   0.10030298    -2.997316   0.86777743   426349 
  324000   0.69815771   -2.9980861   -2.9980861   -2.1302201  0.091970386   -2.9980861   0.86786602   426349 
  325000   0.69834342   -2.9983564   -2.9983564   -2.1302595  0.096202551   -2.9983564   0.86809687   426349 
  326000    0.6971991   -2.9972774   -2.9972774    -2.130603   0.08792775   -2.9972774   0.86667439   426349 
  327000   0.69833875   -2.9985019   -2.9985019   -2.1304108  0.097082442   -2.9985019   0.86809107   426349 
  328000   0.69732115   -2.9979424   -2.9979424   -2.1311163  0.095568201   -2.9979424   0.86682612   426349 
  329000   0.69787575    -2.999686    -2.999686   -2.1321705  0.091444344    -2.999686   0.86751552   426349 
  330000   0.69922159   -3.0011548   -3.0011548   -2.1319663  0.096508179   -3.0011548   0.86918852   426349 
  331000    0.6975869   -2.9998752   -2.9998752   -2.1327187  0.088792224   -2.9998752   0.86715647   426349 
  332000   0.69697564   -2.9994287   -2.9994287   -2.1330321  0.095323213   -2.9994287   0.86639662   426349 
  333000   0.69612245   -2.9984915   -2.9984915   -2.1331555  0.089495881   -2.9984915   0.86533604   426349 
  334000   0.69695887   -3.0000156   -3.0000156   -2.1336399  0.092616309   -3.0000156   0.86637577   426349 
  335000   0.69567882    -2.999228    -2.999228   -2.1344434  0.098300155    -2.999228   0.86478457   426349 
  336000      0.69675   -3.0011119   -3.0011119   -2.1349958  0.096401904   -3.0011119   0.86611613   426349 
  337000   0.69695029   -3.0020702   -3.0020702   -2.1357051  0.097453354   -3.0020702    0.8663651   426349 
  338000   0.69745768   -3.0032511   -3.0032511   -2.1362553  0.097063302   -3.0032511   0.86699584   426349 
  339000   0.69702948   -3.0036876   -3.0036876    -2.137224  0.088927716   -3.0036876   0.86646354   426349 
  340000    0.6971043   -3.0040072   -3.0040072   -2.1374506  0.086392221   -3.0040072   0.86655655   426349 
  341000   0.69637805   -3.0043751   -3.0043751   -2.1387213   0.10009812   -3.0043751   0.86565377   426349 
  342000   0.69732644   -3.0061911   -3.0061911   -2.1393584   0.10268391   -3.0061911   0.86683269   426349 
  343000   0.69458198   -3.0033478   -3.0033478   -2.1399267   0.10029004   -3.0033478   0.86342111   426349 
  344000   0.69598787   -3.0048738   -3.0048738    -2.139705  0.094073639   -3.0048738   0.86516874   426349 
  345000   0.69757289   -3.0077176   -3.0077176   -2.1405786   0.09019424   -3.0077176   0.86713905   426349 
  346000   0.69587009   -3.0058517   -3.0058517   -2.1408294  0.089276954   -3.0058517   0.86502233   426349 
  347000   0.69490973   -3.0054876   -3.0054876    -2.141659  0.083332698   -3.0054876   0.86382853   426349 
  348000   0.69565386   -3.0063587   -3.0063587   -2.1416052  0.091371495   -3.0063587   0.86475353   426349 
  349000   0.69583186   -3.0070239   -3.0070239   -2.1420491  0.093763309   -3.0070239    0.8649748   426349 
  350000   0.69575403   -3.0071576   -3.0071576   -2.1422795   0.09727261   -3.0071576   0.86487806   426349 
  351000   0.69520155   -3.0072773   -3.0072773    -2.143086  0.092880963   -3.0072773   0.86419128   426349 
  352000   0.69393807   -3.0059571   -3.0059571   -2.1433364  0.088654608   -3.0059571   0.86262067   426349 
  353000   0.69523331   -3.0094674   -3.0094674   -2.1452366  0.096641248   -3.0094674   0.86423076   426349 
  354000   0.69444828   -3.0093306   -3.0093306   -2.1460757   0.09895125   -3.0093306   0.86325491   426349 
  355000   0.69380222     -3.00854     -3.00854   -2.1460882  0.098377764     -3.00854    0.8624518   426349 
  356000   0.69529152   -3.0107287   -3.0107287   -2.1464256  0.086708094   -3.0107287   0.86430312   426349 
  357000   0.69344122   -3.0091874   -3.0091874   -2.1471843  0.094382915   -3.0091874   0.86200305   426349 
  358000   0.69361055   -3.0105989   -3.0105989   -2.1483853  0.098539013   -3.0105989   0.86221354   426349 
  359000   0.69338272   -3.0107364   -3.0107364   -2.1488061   0.10195268   -3.0107364   0.86193033   426349 
  360000   0.69424637   -3.0120415   -3.0120415   -2.1490376  0.088246659   -3.0120415   0.86300392   426349 
  361000   0.69388206   -3.0125024   -3.0125024   -2.1499514  0.087011845   -3.0125024   0.86255105   426349 
  362000   0.69381111   -3.0131999   -3.0131999   -2.1507371  0.098855458   -3.0131999   0.86246285   426349 
  363000   0.69361993   -3.0126497   -3.0126497   -2.1504245  0.099529194   -3.0126497    0.8622252   426349 
  364000   0.69297637   -3.0124355   -3.0124355   -2.1510103  0.077662053   -3.0124355    0.8614252   426349 
  365000   0.69321219   -3.0125381   -3.0125381   -2.1508197  0.094022421   -3.0125381   0.86171835   426349 
  366000    0.6938965   -3.0138353   -3.0138353   -2.1512663  0.094328746   -3.0138353     0.862569   426349 
  367000   0.69289437   -3.0136258   -3.0136258   -2.1523025  0.099793141   -3.0136258   0.86132327   426349 
  368000   0.69212803    -3.013817    -3.013817   -2.1534464  0.093404627    -3.013817   0.86037065   426349 
  369000    0.6913342   -3.0133039   -3.0133039   -2.1539201  0.096067114   -3.0133039   0.85938386   426349 
  370000   0.69126075   -3.0149794   -3.0149794   -2.1556868  0.098913861   -3.0149794   0.85929256   426349 
  371000   0.69043301   -3.0147748   -3.0147748   -2.1565112  0.084137613   -3.0147748    0.8582636   426349 
  372000   0.69283525   -3.0183726   -3.0183726   -2.1571228  0.089156565   -3.0183726   0.86124978   426349 
  373000   0.69200002   -3.0167776   -3.0167776   -2.1565661  0.089309418   -3.0167776   0.86021152   426349 
  374000   0.69164043   -3.0167815   -3.0167815   -2.1570169   0.09702991   -3.0167815   0.85976453   426349 
  375000   0.69268962   -3.0192515   -3.0192515   -2.1581828  0.085144452   -3.0192515   0.86106875   426349 
  376000   0.69086448   -3.0175596   -3.0175596   -2.1587596  0.090779701   -3.0175596   0.85879995   426349 
  377000   0.69047287   -3.0178763   -3.0178763   -2.1595631  0.085416203   -3.0178763   0.85831315   426349 
  378000   0.69001935   -3.0180237   -3.0180237   -2.1602743  0.098697051   -3.0180237   0.85774939   426349 
  379000    0.6903118    -3.018287    -3.018287   -2.1601741  0.087633837    -3.018287   0.85811293   426349 
  380000   0.69050203   -3.0190382   -3.0190382   -2.1606888  0.086605797   -3.0190382    0.8583494   426349 
  381000   0.68977194    -3.018328    -3.018328   -2.1608862  0.077898521    -3.018328   0.85744185   426349 
  382000   0.69054462   -3.0190932   -3.0190932   -2.1606909  0.099202723   -3.0190932   0.85840234   426349 
  383000   0.69039651   -3.0201596   -3.0201596   -2.1619414  0.091218708   -3.0201596   0.85821823   426349 
  384000    0.6892209   -3.0194049   -3.0194049    -2.162648  0.087342967   -3.0194049   0.85675685   426349 
  385000   0.68827853   -3.0175629   -3.0175629   -2.1619775  0.092381726   -3.0175629   0.85558541   426349 
  386000   0.68958864   -3.0201203   -3.0201203   -2.1629064   0.10375761   -3.0201203   0.85721398   426349 
  387000   0.69055906   -3.0214092   -3.0214092   -2.1629889  0.085598648   -3.0214092    0.8584203   426349 
  388000   0.68913049   -3.0203136   -3.0203136   -2.1636691   0.07994647   -3.0203136   0.85664446   426349 
  389000   0.68893829    -3.020361    -3.020361   -2.1639555  0.089477381    -3.020361   0.85640555   426349 
  390000   0.68967304   -3.0211334   -3.0211334   -2.1638145  0.088087513   -3.0211334    0.8573189   426349 
  391000   0.68910659   -3.0214735   -3.0214735   -2.1648587  0.095717765   -3.0214735   0.85661475   426349 
  392000   0.68921292   -3.0226095   -3.0226095   -2.1658626  0.097297414   -3.0226095   0.85674694   426349 
  393000   0.68956468   -3.0230606   -3.0230606   -2.1658764  0.094346827   -3.0230606   0.85718419   426349 
  394000   0.68917634   -3.0228448   -3.0228448   -2.1661433  0.091417956   -3.0228448   0.85670146   426349 
  395000   0.68922584   -3.0231463   -3.0231463   -2.1663833  0.096181685   -3.0231463   0.85676299   426349 
  396000   0.68906408   -3.0228831   -3.0228831   -2.1663212  0.076288082   -3.0228831   0.85656192   426349 
  397000   0.68923057   -3.0236605   -3.0236605   -2.1668916  0.087584339   -3.0236605   0.85676887   426349 
  398000   0.68921233   -3.0238775   -3.0238775   -2.1671313  0.081948144   -3.0238775    0.8567462   426349 
  399000   0.68881416   -3.0239026   -3.0239026   -2.1676514  0.098882385   -3.0239026   0.85625124   426349 
  400000   0.68796738   -3.0243413   -3.0243413   -2.1691427    0.0899914   -3.0243413   0.85519863   426349 
  401000   0.68893773   -3.0253458   -3.0253458   -2.1689409  0.082171817   -3.0253458   0.85640485   426349 
  402000   0.68854941   -3.0252258   -3.0252258   -2.1693036  0.092397753   -3.0252258   0.85592214   426349 
  403000   0.68896324   -3.0252822   -3.0252822   -2.1688456  0.083583188   -3.0252822   0.85643656   426349 
  404000   0.68796992   -3.0250792   -3.0250792   -2.1698774  0.092579253   -3.0250792   0.85520178   426349 
  405000   0.68961741   -3.0269107   -3.0269107   -2.1696609  0.087518161   -3.0269107   0.85724975   426349 
  406000   0.68823049   -3.0260651   -3.0260651   -2.1705394  0.083310543   -3.0260651   0.85552569   426349 
  407000   0.68870185   -3.0274684   -3.0274684   -2.1713568  0.085645494   -3.0274684   0.85611163   426349 
  408000   0.68721434   -3.0259337   -3.0259337   -2.1716711  0.093035074   -3.0259337   0.85426254   426349 
  409000    0.6872655   -3.0267275   -3.0267275   -2.1724013  0.098521254   -3.0267275   0.85432613   426349 
  410000   0.68744974   -3.0276711   -3.0276711   -2.1731159  0.088001155   -3.0276711   0.85455516   426349 
  411000   0.68715503   -3.0267609   -3.0267609   -2.1725721  0.082945688   -3.0267609   0.85418881   426349 
  412000   0.68781944    -3.027753    -3.027753   -2.1727383  0.096760377    -3.027753   0.85501472   426349 
  413000   0.68666602   -3.0271936   -3.0271936   -2.1736127  0.094664515   -3.0271936   0.85358093   426349 
  414000   0.68672107   -3.0285051   -3.0285051   -2.1748557  0.086367332   -3.0285051   0.85364937   426349 
  415000   0.68609252   -3.0272592   -3.0272592   -2.1743911   0.08744282   -3.0272592   0.85286803   426349 
  416000   0.68725857   -3.0294716   -3.0294716   -2.1751541  0.086009597   -3.0294716   0.85431752   426349 
  417000   0.68554887   -3.0282034   -3.0282034   -2.1760111  0.092519634   -3.0282034   0.85219222   426349 
  418000   0.68712475   -3.0301517   -3.0301517   -2.1760006  0.097782417   -3.0301517   0.85415117   426349 
  419000   0.68698603    -3.030079    -3.030079   -2.1761003  0.088249939    -3.030079   0.85397873   426349 
  420000   0.68583573   -3.0297832   -3.0297832   -2.1772343  0.099153055   -3.0297832   0.85254882   426349 
  421000   0.68620351   -3.0297497   -3.0297497   -2.1767437  0.091335538   -3.0297497     0.853006   426349 
  422000   0.68550724   -3.0295631   -3.0295631   -2.1774226  0.086237377   -3.0295631   0.85214048   426349 
  423000   0.68587483   -3.0311237   -3.0311237   -2.1785263  0.091740083   -3.0311237   0.85259742   426349 
  424000   0.68545108    -3.030688    -3.030688   -2.1786173  0.086929515    -3.030688   0.85207066   426349 
  425000   0.68546858   -3.0305886   -3.0305886   -2.1784962  0.088363438   -3.0305886   0.85209242   426349 
  426000   0.68584541   -3.0322053   -3.0322053   -2.1796444  0.092246185   -3.0322053   0.85256085   426349 
  427000    0.6852644   -3.0321594   -3.0321594   -2.1803208   0.08424659   -3.0321594    0.8518386   426349 
  428000   0.68562343   -3.0328238   -3.0328238   -2.1805389  0.086696946   -3.0328238    0.8522849   426349 
  429000   0.68401234   -3.0317514   -3.0317514   -2.1814692  0.090559681   -3.0317514    0.8502822   426349 
  430000   0.68514083   -3.0335937   -3.0335937   -2.1819087  0.078242408   -3.0335937     0.851685   426349 
  431000    0.6850805   -3.0343394   -3.0343394   -2.1827294  0.088283833   -3.0343394      0.85161   426349 
  432000   0.68430438   -3.0344714   -3.0344714   -2.1838262  0.095402565   -3.0344714   0.85064522   426349 
  433000   0.68424965   -3.0350315   -3.0350315   -2.1844543  0.079345355   -3.0350315   0.85057719   426349 
  434000   0.68258533   -3.0339452   -3.0339452   -2.1854368   0.08993788   -3.0339452   0.84850831   426349 
  435000   0.68369257     -3.03557     -3.03557   -2.1856853   0.10134417     -3.03557   0.84988469   426349 
  436000   0.68415093    -3.036442    -3.036442   -2.1859876   0.08786487    -3.036442   0.85045447   426349 
  437000    0.6836314   -3.0368148   -3.0368148   -2.1870061  0.086961638   -3.0368148   0.84980865   426349 
  438000   0.68267121   -3.0357573   -3.0357573   -2.1871423  0.082624058   -3.0357573   0.84861507   426349 
  439000    0.6828922   -3.0363261   -3.0363261   -2.1874363  0.091287473   -3.0363261   0.84888977   426349 
  440000   0.68300914   -3.0374483   -3.0374483   -2.1884131  0.084800162   -3.0374483   0.84903514   426349 
  441000   0.68369445   -3.0388622   -3.0388622   -2.1889752  0.084235325   -3.0388622   0.84988704   426349 
  442000   0.68252787   -3.0383858   -3.0383858    -2.189949  0.083457811   -3.0383858   0.84843688   426349 
  443000   0.68258684   -3.0391325   -3.0391325   -2.1906223  0.086549775   -3.0391325   0.84851019   426349 
  444000   0.68222828   -3.0394829   -3.0394829   -2.1914184  0.075417377   -3.0394829   0.84806447   426349 
  445000   0.68263615   -3.0393494   -3.0393494   -2.1907779  0.093901566   -3.0393494   0.84857148   426349 
  446000   0.68330812    -3.040683    -3.040683   -2.1912762  0.074730541    -3.040683   0.84940679   426349 
  447000   0.68387373   -3.0425252   -3.0425252   -2.1924153  0.086564321   -3.0425252   0.85010989   426349 
  448000   0.68298813   -3.0421499   -3.0421499   -2.1931409  0.089761603   -3.0421499   0.84900902   426349 
  449000   0.68200603   -3.0407081   -3.0407081     -2.19292  0.088554824   -3.0407081   0.84778819   426349 
  450000   0.68272007   -3.0416742   -3.0416742   -2.1929984  0.095084487   -3.0416742    0.8486758   426349 
  451000   0.68206651   -3.0407891   -3.0407891   -2.1929257  0.089816495   -3.0407891   0.84786337   426349 
  452000   0.68201733   -3.0413475   -3.0413475   -2.1935453  0.085017907   -3.0413475   0.84780224   426349 
  453000   0.68209386   -3.0421577   -3.0421577   -2.1942603  0.089395956   -3.0421577   0.84789737   426349 
  454000   0.68304987   -3.0436869   -3.0436869   -2.1946012  0.083755851   -3.0436869   0.84908577   426349 
  455000   0.68261415   -3.0438351   -3.0438351   -2.1952909   0.09325524   -3.0438351   0.84854413   426349 
  456000   0.68259631   -3.0446688   -3.0446688   -2.1961469  0.094714261   -3.0446688   0.84852196   426349 
  457000   0.68235176   -3.0441796   -3.0441796   -2.1959616  0.077348914   -3.0441796   0.84821796   426349 
  458000   0.68272809    -3.046106    -3.046106   -2.1974202  0.070353709    -3.046106   0.84868576   426349 
  459000   0.68171843   -3.0452368   -3.0452368   -2.1978061  0.070309444   -3.0452368   0.84743069   426349 
  460000   0.68214062   -3.0457075   -3.0457075    -2.197752  0.086499054   -3.0457075    0.8479555   426349 
  461000   0.68040969   -3.0445845   -3.0445845   -2.1987807  0.077679848   -3.0445845   0.84580381   426349 
  462000   0.68020316   -3.0448987   -3.0448987   -2.1993516  0.087736514   -3.0448987   0.84554708   426349 
  463000    0.6807461   -3.0454049   -3.0454049   -2.1991829  0.095813282   -3.0454049   0.84622199   426349 
  464000   0.68077639   -3.0454958   -3.0454958   -2.1992361  0.075720971   -3.0454958   0.84625965   426349 
  465000   0.68153229     -3.04738     -3.04738   -2.2001807  0.077543941     -3.04738    0.8471993   426349 
  466000   0.68171218    -3.047644    -3.047644   -2.2002211  0.089966848    -3.047644   0.84742292   426349 
  467000   0.68095366   -3.0472512   -3.0472512   -2.2007711  0.087054488   -3.0472512   0.84648002   426349 
  468000   0.68104667   -3.0476039   -3.0476039   -2.2010083  0.079511473   -3.0476039   0.84659562   426349 
  469000    0.6813982   -3.0482859   -3.0482859   -2.2012533  0.085671851   -3.0482859   0.84703261   426349 
  470000   0.68125233   -3.0489882   -3.0489882   -2.2021369  0.084390798   -3.0489882   0.84685129   426349 
  471000   0.68024949   -3.0486408   -3.0486408   -2.2030361  0.072555184   -3.0486408   0.84560467   426349 
  472000   0.68110306   -3.0496465   -3.0496465   -2.2029807   0.08311784   -3.0496465   0.84666573   426349 
  473000    0.6811779   -3.0501187   -3.0501187   -2.2033599  0.088204766   -3.0501187   0.84675876   426349 
  474000   0.68135071    -3.051072    -3.051072   -2.2040984  0.079813994    -3.051072   0.84697358   426349 
  475000   0.67965361   -3.0503134   -3.0503134   -2.2054494  0.084023047   -3.0503134   0.84486395   426349 
  476000   0.68075924   -3.0522495   -3.0522495   -2.2060112  0.087917857   -3.0522495   0.84623833   426349 
  477000   0.67901543   -3.0503363   -3.0503363   -2.2062657  0.087482547   -3.0503363   0.84407064   426349 
  478000   0.67966112   -3.0513155   -3.0513155   -2.2064423  0.080266511   -3.0513155   0.84487328   426349 
  479000   0.67985576   -3.0520232   -3.0520232    -2.206908  0.080772887   -3.0520232   0.84511523   426349 
  480000   0.67934948   -3.0526228   -3.0526228   -2.2081369  0.083581704   -3.0526228   0.84448589   426349 
  481000   0.67784843   -3.0503353   -3.0503353   -2.2077153  0.083209691   -3.0503353   0.84261996   426349 
  482000   0.67923848   -3.0525328   -3.0525328   -2.2081849  0.081051971   -3.0525328   0.84434791   426349 
  483000   0.67728836   -3.0500048   -3.0500048   -2.2080811  0.079924821   -3.0500048   0.84192374   426349 
  484000   0.67873695   -3.0518435   -3.0518435    -2.208119  0.090385856   -3.0518435   0.84372446   426349 
  485000   0.67719682    -3.051327    -3.051327    -2.209517  0.082644007    -3.051327   0.84180996   426349 
  486000   0.67872487   -3.0532312   -3.0532312   -2.2095217  0.093297129   -3.0532312   0.84370944   426349 
  487000   0.67821886   -3.0531841   -3.0531841   -2.2101036  0.090145519   -3.0531841   0.84308044   426349 
  488000   0.67823302   -3.0534747   -3.0534747   -2.2103767  0.082672106   -3.0534747   0.84309804   426349 
  489000   0.67794111   -3.0538004   -3.0538004   -2.2110652  0.084926085   -3.0538004   0.84273517   426349 
  490000   0.67744402   -3.0537318   -3.0537318   -2.2116146  0.087138084   -3.0537318   0.84211725   426349 
  491000   0.67866348   -3.0548678   -3.0548678   -2.2112346  0.081953049   -3.0548678   0.84363314   426349 
  492000   0.67831116   -3.0548955   -3.0548955   -2.2117003  0.076817707   -3.0548955   0.84319517   426349 
  493000   0.67849165   -3.0560167   -3.0560167   -2.2125972  0.085800667   -3.0560167   0.84341953   426349 
  494000   0.67838974   -3.0550624   -3.0550624   -2.2117695  0.075574849   -3.0550624   0.84329286   426349 
  495000   0.67868402   -3.0554414   -3.0554414   -2.2117827  0.080520201   -3.0554414   0.84365866   426349 
  496000   0.67833928   -3.0558338   -3.0558338   -2.2126037  0.085819046   -3.0558338   0.84323012   426349 
  497000    0.6784185   -3.0561328   -3.0561328   -2.2128042  0.082883147   -3.0561328   0.84332861   426349 
  498000    0.6778143   -3.0561857   -3.0561857   -2.2136082  0.082133835   -3.0561857   0.84257753   426349 
  499000    0.6759623   -3.0548089   -3.0548089   -2.2145335  0.093917218   -3.0548089   0.84027535   426349 
  500000   0.67731397   -3.0569717   -3.0569717   -2.2150161  0.083302281   -3.0569717   0.84195559   426349 
  501000   0.67686641   -3.0566694   -3.0566694   -2.2152701  0.069978144   -3.0566694   0.84139923   426349 
  502000   0.67800394   -3.0588429   -3.0588429   -2.2160297  0.077938841   -3.0588429   0.84281327   426349 
  503000   0.67684436    -3.057323    -3.057323   -2.2159511  0.087639667    -3.057323   0.84137182   426349 
  504000   0.67738417   -3.0579891   -3.0579891   -2.2159462  0.082177075   -3.0579891   0.84204285   426349 
  505000   0.67695891   -3.0582433   -3.0582433   -2.2167291  0.077148487   -3.0582433   0.84151421   426349 
  506000   0.67676136    -3.058199    -3.058199   -2.2169304  0.084547127    -3.058199   0.84126864   426349 
  507000   0.67650588   -3.0586691   -3.0586691    -2.217718   0.08947379   -3.0586691   0.84095106   426349 
  508000   0.67584686   -3.0586042   -3.0586042   -2.2184724  0.083159511   -3.0586042   0.84013184   426349 
  509000   0.67665492   -3.0604919   -3.0604919   -2.2193555  0.074537512   -3.0604919   0.84113633   426349 
  510000   0.67682026   -3.0605474   -3.0605474   -2.2192055   0.07267395   -3.0605474   0.84134186   426349 
  511000   0.67541686    -3.059752    -3.059752   -2.2201547   0.07477628    -3.059752   0.83959732   426349 
  512000   0.67586502   -3.0612858   -3.0612858   -2.2211314  0.082469771   -3.0612858   0.84015443   426349 
  513000   0.67732185   -3.0632379   -3.0632379   -2.2212725  0.085337582   -3.0632379   0.84196539   426349 
  514000   0.67577393   -3.0615168   -3.0615168   -2.2214756  0.085171471   -3.0615168   0.84004119   426349 
  515000   0.67723967   -3.0645161   -3.0645161   -2.2226529  0.074698724   -3.0645161   0.84186323   426349 
  516000   0.67766862    -3.065587    -3.065587   -2.2231906   0.08323432    -3.065587   0.84239645   426349 
  517000   0.67543631   -3.0635474   -3.0635474   -2.2239259  0.085377824   -3.0635474    0.8396215   426349 
  518000   0.67605863   -3.0654732   -3.0654732   -2.2250782  0.085013759   -3.0654732   0.84039509   426349 
  519000   0.67490791   -3.0640909   -3.0640909   -2.2251262  0.078772343   -3.0640909   0.83896465   426349 
  520000   0.67576595   -3.0653952   -3.0653952   -2.2253639   0.07743057   -3.0653952   0.84003127   426349 
  521000   0.67466999   -3.0638615   -3.0638615   -2.2251926   0.08369217   -3.0638615    0.8386689   426349 
  522000   0.67402542   -3.0642878   -3.0642878   -2.2264202  0.079553325   -3.0642878   0.83786765   426349 
  523000   0.67515833   -3.0660095   -3.0660095   -2.2267335  0.062910182   -3.0660095   0.83927596   426349 
  524000    0.6744559   -3.0657418   -3.0657418   -2.2273391  0.077788969   -3.0657418   0.83840277   426349 
  525000   0.67458825   -3.0661801   -3.0661801   -2.2276128  0.083044796   -3.0661801    0.8385673   426349 
  526000   0.67443053   -3.0661198   -3.0661198   -2.2277486  0.085211567   -3.0661198   0.83837124   426349 
  527000   0.67414408   -3.0663919   -3.0663919   -2.2283768   0.06035204   -3.0663919   0.83801516   426349 
  528000    0.6742423   -3.0678755   -3.0678755   -2.2297383  0.078629994   -3.0678755   0.83813726   426349 
  529000   0.67473781   -3.0684285   -3.0684285   -2.2296753   0.08209002   -3.0684285   0.83875321   426349 
  530000   0.67470958   -3.0683003   -3.0683003   -2.2295822  0.076345007   -3.0683003   0.83871812   426349 
  531000   0.67276535   -3.0664309   -3.0664309   -2.2301296  0.085476771   -3.0664309   0.83630128   426349 
  532000    0.6738541   -3.0687991   -3.0687991   -2.2311444  0.072150626   -3.0687991   0.83765469   426349 
  533000   0.67380472   -3.0681034   -3.0681034   -2.2305101  0.066746754   -3.0681034   0.83759331   426349 
  534000   0.67281521   -3.0672112   -3.0672112    -2.230848  0.071683216   -3.0672112   0.83636326   426349 
  535000   0.67295838    -3.067977    -3.067977   -2.2314358  0.085519791    -3.067977   0.83654124   426349 
  536000   0.67403789   -3.0698352   -3.0698352    -2.231952  0.078713903   -3.0698352   0.83788316   426349 
  537000    0.6736465   -3.0694255   -3.0694255   -2.2320289  0.076274764   -3.0694255   0.83739662   426349 
  538000   0.67312022   -3.0685926   -3.0685926   -2.2318502  0.073928433   -3.0685926   0.83674242   426349 
  539000   0.67424269   -3.0700038   -3.0700038    -2.231866  0.082704368   -3.0700038   0.83813773   426349 
  540000   0.67379506   -3.0710929   -3.0710929   -2.2335116  0.080649827   -3.0710929    0.8375813   426349 
  541000   0.67300007    -3.070294    -3.070294    -2.233701  0.071601851    -3.070294   0.83659306   426349 
  542000   0.67234399   -3.0692443   -3.0692443   -2.2334668  0.081834864   -3.0692443    0.8357775   426349 
  543000    0.6705054   -3.0679885   -3.0679885   -2.2344965  0.077799166   -3.0679885   0.83349199   426349 
  544000   0.67095049   -3.0688909   -3.0688909   -2.2348456  0.082283159   -3.0688909   0.83404527   426349 
  545000   0.67103763   -3.0691789   -3.0691789   -2.2350253  0.071555617   -3.0691789    0.8341536   426349 
  546000   0.67229026    -3.071169    -3.071169   -2.2354583  0.093026431    -3.071169   0.83571072   426349 
  547000   0.67019652   -3.0690015   -3.0690015   -2.2358935  0.080931555   -3.0690015   0.83310802   426349 
  548000     0.671969   -3.0722745   -3.0722745   -2.2369632  0.072253175   -3.0722745   0.83531136   426349 
  549000   0.67167096   -3.0721473   -3.0721473   -2.2372064  0.067033032   -3.0721473   0.83494087   426349 
  550000   0.67060445   -3.0708682   -3.0708682   -2.2372531  0.063601859   -3.0708682   0.83361511   426349 
  551000   0.67147427   -3.0721276   -3.0721276   -2.2374312  0.087096795   -3.0721276   0.83469637   426349 
  552000   0.67217348   -3.0734511   -3.0734511   -2.2378856  0.081473043   -3.0734511   0.83556554   426349 
  553000   0.67185881   -3.0733704   -3.0733704   -2.2381961  0.082475887   -3.0733704   0.83517438   426349 
  554000   0.67121971   -3.0734355   -3.0734355   -2.2390555  0.069867005   -3.0734355   0.83437993   426349 
  555000   0.67129474   -3.0734575   -3.0734575   -2.2389843  0.090123214   -3.0734575    0.8344732   426349 
  556000   0.67136695   -3.0740022   -3.0740022   -2.2394392  0.080505728   -3.0740022   0.83456296   426349 
  557000   0.67185998   -3.0744009   -3.0744009   -2.2392251  0.078306592   -3.0744009   0.83517584   426349 
  558000   0.67120499   -3.0737642   -3.0737642   -2.2394026  0.083200637   -3.0737642   0.83436164   426349 
  559000   0.67173603   -3.0754614   -3.0754614   -2.2404397  0.072603676   -3.0754614   0.83502176   426349 
  560000   0.67086796   -3.0733473   -3.0733473   -2.2394046   0.07788667   -3.0733473   0.83394268   426349 
  561000   0.67169027   -3.0757021   -3.0757021   -2.2407373  0.070606656   -3.0757021   0.83496487   426349 
  562000   0.67095116   -3.0752631   -3.0752631    -2.241217  0.086363068   -3.0752631    0.8340461   426349 
  563000   0.67046902   -3.0759544   -3.0759544   -2.2425077  0.067657204   -3.0759544   0.83344677   426349 
  564000   0.66997082   -3.0760443   -3.0760443   -2.2432168  0.084811262   -3.0760443   0.83282746   426349 
  565000   0.67146315    -3.077687    -3.077687   -2.2430045  0.076662812    -3.077687   0.83468255   426349 
  566000   0.67062818   -3.0764875   -3.0764875   -2.2428429  0.078240461   -3.0764875   0.83364461   426349 
  567000   0.67159743    -3.078115    -3.078115   -2.2432655  0.070932383    -3.078115   0.83484946   426349 
  568000   0.67066446   -3.0771331   -3.0771331   -2.2434433  0.079302293   -3.0771331   0.83368971   426349 
  569000   0.66947163    -3.076381    -3.076381    -2.244174  0.076323196    -3.076381   0.83220693   426349 
  570000   0.67005724   -3.0779107   -3.0779107   -2.2449758  0.088227504   -3.0779107   0.83293489   426349 
  571000   0.67006114   -3.0782563   -3.0782563   -2.2453166  0.086047967   -3.0782563   0.83293974   426349 
  572000   0.67044778   -3.0789496   -3.0789496   -2.2455293   0.06965062   -3.0789496   0.83342037   426349 
  573000   0.67168667   -3.0808468   -3.0808468   -2.2458864  0.088306121   -3.0808468   0.83496041   426349 
  574000   0.67059312   -3.0799996   -3.0799996   -2.2463986    0.0845203   -3.0799996   0.83360103   426349 
  575000   0.67178151   -3.0824463   -3.0824463    -2.247368  0.074960509   -3.0824463   0.83507829   426349 
  576000   0.67124019   -3.0823202   -3.0823202   -2.2479148  0.081709749   -3.0823202   0.83440539   426349 
  577000   0.67039641    -3.082134    -3.082134   -2.2487775  0.074398363    -3.082134    0.8333565   426349 
  578000   0.67106296   -3.0828434   -3.0828434   -2.2486583  0.077757568   -3.0828434   0.83418508   426349 
  579000   0.66932918   -3.0815096   -3.0815096   -2.2494798  0.068147784   -3.0815096   0.83202986   426349 
  580000   0.67059018   -3.0832956   -3.0832956   -2.2496982  0.078959021   -3.0832956   0.83359737   426349 
  581000   0.66993306   -3.0826539   -3.0826539   -2.2498734  0.076978324   -3.0826539   0.83278052   426349 
  582000    0.6693987   -3.0833115   -3.0833115   -2.2511952  0.067545504   -3.0833115   0.83211628   426349 
  583000   0.66973303   -3.0836034   -3.0836034   -2.2510715  0.075134308   -3.0836034   0.83253187   426349 
  584000   0.66815019   -3.0826423   -3.0826423   -2.2520781  0.070402566   -3.0826423   0.83056427   426349 
  585000    0.6695662   -3.0839146   -3.0839146   -2.2515901  0.078376931   -3.0839146   0.83232448   426349 
  586000   0.66911043   -3.0830441   -3.0830441   -2.2512862  0.080700097   -3.0830441   0.83175792   426349 
  587000   0.66911618   -3.0833423   -3.0833423   -2.2515772  0.083734891   -3.0833423   0.83176507   426349 
  588000   0.66894078   -3.0826912   -3.0826912   -2.2511442   0.06270905   -3.0826912   0.83154703   426349 
  589000   0.66964289   -3.0831458   -3.0831458    -2.250726  0.082368578   -3.0831458   0.83241982   426349 
  590000   0.67096342   -3.0853256   -3.0853256   -2.2512643  0.060466295   -3.0853256   0.83406134   426349 
  591000   0.67029145   -3.0845174   -3.0845174   -2.2512914  0.076124798   -3.0845174   0.83322603   426349 
  592000   0.66969442   -3.0847144   -3.0847144   -2.2522306  0.079121107   -3.0847144   0.83248388   426349 
  593000   0.67063606   -3.0859154   -3.0859154    -2.252261  0.074339285   -3.0859154   0.83365441   426349 
  594000   0.66922951   -3.0850064   -3.0850064   -2.2531004  0.084718408   -3.0850064   0.83190596   426349 
  595000   0.66747237   -3.0831151   -3.0831151   -2.2533934   0.08908638   -3.0831151   0.82972168   426349 
  596000   0.66759579   -3.0837109   -3.0837109   -2.2538358   0.09213601   -3.0837109   0.82987511   426349 
  597000   0.66677613   -3.0834989   -3.0834989   -2.2546426  0.079986626   -3.0834989   0.82885621   426349 
  598000   0.66842152   -3.0858028   -3.0858028   -2.2549013  0.063589379   -3.0858028   0.83090156   426349 
  599000   0.66734942   -3.0853824   -3.0853824   -2.2558135  0.078234435   -3.0853824   0.82956885   426349 
  600000   0.66798592   -3.0855047   -3.0855047   -2.2551446  0.082288615   -3.0855047   0.83036007   426349 
  601000   0.66967603   -3.0879198   -3.0879198   -2.2554587  0.069058631   -3.0879198   0.83246101   426349 
  602000   0.66920227    -3.087319    -3.087319   -2.2554469  0.078988455    -3.087319    0.8318721   426349 
  603000   0.66838471   -3.0863195   -3.0863195   -2.2554637  0.071239443   -3.0863195    0.8308558   426349 
  604000   0.66854277   -3.0875972   -3.0875972    -2.256545  0.086265116   -3.0875972   0.83105228   426349 
  605000   0.66802998   -3.0872612   -3.0872612   -2.2568464  0.081676085   -3.0872612   0.83041484   426349 
  606000   0.66712078   -3.0870733   -3.0870733   -2.2577887  0.073105969   -3.0870733   0.82928463   426349 
  607000   0.66512163   -3.0851595   -3.0851595     -2.25836  0.081007374   -3.0851595   0.82679953   426349 
  608000   0.66745913   -3.0883594   -3.0883594   -2.2586542  0.071921279   -3.0883594   0.82970523   426349 
  609000   0.66599178   -3.0878699   -3.0878699   -2.2599887  0.073321333   -3.0878699   0.82788119   426349 
  610000   0.66805081   -3.0900415   -3.0900415   -2.2596008  0.071408918   -3.0900415   0.83044073   426349 
  611000   0.66732957   -3.0895205   -3.0895205   -2.2599763  0.080234363   -3.0895205   0.82954418   426349 
  612000   0.66568991   -3.0880838   -3.0880838   -2.2605778  0.081350864   -3.0880838   0.82750594   426349 
  613000   0.66604967   -3.0892258   -3.0892258   -2.2612726  0.064260156   -3.0892258   0.82795316   426349 
  614000   0.66676301   -3.0902353   -3.0902353   -2.2613954  0.068788682   -3.0902353    0.8288399   426349 
  615000   0.66573407   -3.0894308   -3.0894308   -2.2618699  0.068452778   -3.0894308   0.82756084   426349 
  616000    0.6655232   -3.0894803   -3.0894803   -2.2621815  0.072896067   -3.0894803   0.82729871   426349 
  617000   0.66580861   -3.0904961   -3.0904961   -2.2628426   0.08210079   -3.0904961    0.8276535   426349 
  618000   0.66681119   -3.0920646   -3.0920646   -2.2631648  0.070454512   -3.0920646   0.82889978   426349 
  619000    0.6653763   -3.0916524   -3.0916524   -2.2645362  0.071797028   -3.0916524    0.8271161   426349 
  620000   0.66530958   -3.0926008   -3.0926008   -2.2655676   0.07300311   -3.0926008   0.82703317   426349 
  621000   0.66531982   -3.0930821   -3.0930821   -2.2660362  0.069175264   -3.0930821   0.82704589   426349 
  622000    0.6645086   -3.0922814   -3.0922814   -2.2662439  0.066576298   -3.0922814   0.82603748   426349 
  623000   0.66673908   -3.0947656   -3.0947656   -2.2659555  0.080649631   -3.0947656   0.82881015   426349 
  624000   0.66550337   -3.0937902   -3.0937902   -2.2665161  0.074749053   -3.0937902   0.82727407   426349 
  625000   0.66550531   -3.0944501   -3.0944501   -2.2671736  0.070343322   -3.0944501   0.82727648   426349 
  626000   0.66618501   -3.0950292   -3.0950292   -2.2669078  0.065612964   -3.0950292   0.82812139   426349 
  627000   0.66522837   -3.0942315   -3.0942315   -2.2672993  0.079264889   -3.0942315   0.82693222   426349 
  628000    0.6664837   -3.0953707   -3.0953707    -2.266878  0.083929933   -3.0953707   0.82849269   426349 
  629000   0.66696248   -3.0958257   -3.0958257   -2.2667378  0.076160171   -3.0958257   0.82908785   426349 
  630000   0.66563299   -3.0946114   -3.0946114   -2.2671762   0.07232353   -3.0946114   0.82743519   426349 
  631000   0.66660098   -3.0964441   -3.0964441   -2.2678056  0.082533389   -3.0964441   0.82863848   426349 
  632000   0.66549101   -3.0953164   -3.0953164   -2.2680577  0.068404612   -3.0953164    0.8272587   426349 
  633000   0.66587314   -3.0966597   -3.0966597   -2.2689259    0.0737539   -3.0966597   0.82773372   426349 
  634000     0.664294   -3.0941137   -3.0941137    -2.268343  0.072931664   -3.0941137   0.82577071   426349 
  635000   0.66484045   -3.0949616   -3.0949616   -2.2685116  0.078925665   -3.0949616      0.82645   426349 
  636000   0.66472336   -3.0948012   -3.0948012   -2.2684967  0.077053306   -3.0948012   0.82630445   426349 
  637000   0.66591542   -3.0955595   -3.0955595   -2.2677732  0.069370675   -3.0955595   0.82778627   426349 
  638000   0.66487294   -3.0949081   -3.0949081   -2.2684177  0.082971964   -3.0949081   0.82649039   426349 
  639000   0.66658166   -3.0972286   -3.0972286   -2.2686141  0.078016974   -3.0972286   0.82861447   426349 
  640000   0.66550381   -3.0965085   -3.0965085   -2.2692338  0.070862221   -3.0965085   0.82727461   426349 
  641000   0.66534505    -3.096661    -3.096661   -2.2695838  0.072848927    -3.096661   0.82707726   426349 
  642000   0.66548107   -3.0971839   -3.0971839   -2.2699375  0.081232051   -3.0971839   0.82724634   426349 
  643000   0.66448947   -3.0965479   -3.0965479   -2.2705342  0.078641721   -3.0965479    0.8260137   426349 
  644000   0.66439025   -3.0966095   -3.0966095   -2.2707191  0.065168263   -3.0966095   0.82589036   426349 
  645000   0.66460592   -3.0969935   -3.0969935   -2.2708351  0.069640732   -3.0969935   0.82615846   426349 
  646000   0.66398664   -3.0979189   -3.0979189   -2.2725302  0.068620849   -3.0979189   0.82538864   426349 
  647000   0.66538604   -3.0996835   -3.0996835   -2.2725553  0.065125232   -3.0996835   0.82712821   426349 
  648000   0.66279592   -3.0974524   -3.0974524    -2.273544  0.077047764   -3.0974524   0.82390848   426349 
  649000   0.66367023   -3.0986533   -3.0986533    -2.273658  0.060064097   -3.0986533   0.82499533   426349 
  650000   0.66495134   -3.1005394   -3.1005394   -2.2739515  0.073775947   -3.1005394   0.82658785   426349 
  651000    0.6632376   -3.0982935   -3.0982935    -2.273836  0.076658533   -3.0982935   0.82445752   426349 
  652000   0.66476017    -3.100813    -3.100813   -2.2744628  0.077624384    -3.100813   0.82635021   426349 
  653000   0.66437341    -3.099712    -3.099712   -2.2738426  0.066068166    -3.099712   0.82586943   426349 
  654000   0.66377221   -3.0989792   -3.0989792   -2.2738572  0.072521259   -3.0989792   0.82512209   426349 
  655000   0.66462149    -3.100375    -3.100375   -2.2741972  0.085266049    -3.100375   0.82617781   426349 
  656000   0.66467703   -3.1003825   -3.1003825   -2.2741357  0.073647758   -3.1003825   0.82624686   426349 
  657000   0.66268893   -3.0992479   -3.0992479   -2.2754724  0.073277969   -3.0992479   0.82377549   426349 
  658000   0.66385135   -3.1007282   -3.1007282   -2.2755077  0.060760399   -3.1007282   0.82522046   426349 
  659000   0.66379972   -3.1010424   -3.1010424   -2.2758862  0.055933564   -3.1010424   0.82515628   426349 
  660000   0.66378283   -3.1009596   -3.1009596   -2.2758243  0.070262767   -3.1009596   0.82513529   426349 
  661000   0.66376357   -3.1010931   -3.1010931   -2.2759818  0.081996741   -3.1010931   0.82511135   426349 
  662000   0.66321989   -3.1010261   -3.1010261   -2.2765906  0.076414267   -3.1010261   0.82443551   426349 
  663000    0.6626907    -3.100948    -3.100948   -2.2771704  0.068138286    -3.100948   0.82377769   426349 
  664000   0.66322134   -3.1009598   -3.1009598   -2.2765225   0.08175455   -3.1009598   0.82443732   426349 
  665000   0.66260786   -3.1016544   -3.1016544   -2.2779797  0.069085213   -3.1016544   0.82367471   426349 
  666000   0.66383117   -3.1034699   -3.1034699   -2.2782746  0.075088451   -3.1034699   0.82519539   426349 
  667000   0.66337471   -3.1033203   -3.1033203   -2.2786924  0.066439944   -3.1033203   0.82462797   426349 
  668000   0.66271014   -3.1036311   -3.1036311   -2.2798293  0.069079053   -3.1036311   0.82380186   426349 
  669000   0.66239455     -3.10305     -3.10305   -2.2796405  0.069892014     -3.10305   0.82340955   426349 
  670000   0.66245977   -3.1031393   -3.1031393   -2.2796487  0.074878535   -3.1031393   0.82349063   426349 
  671000   0.66299526   -3.1050689   -3.1050689   -2.2809126  0.070155479   -3.1050689   0.82415627   426349 
  672000   0.66215847   -3.1038058   -3.1038058   -2.2806897  0.077632486   -3.1038058   0.82311608   426349 
  673000    0.6619274   -3.1053043   -3.1053043   -2.2824755  0.080956941   -3.1053043   0.82282885   426349 
  674000   0.66106886   -3.1045984   -3.1045984   -2.2828368  0.072904786   -3.1045984   0.82176161   426349 
  675000   0.66030736    -3.103934    -3.103934    -2.283119  0.082856377    -3.103934     0.820815   426349 
  676000   0.66284388   -3.1071742   -3.1071742   -2.2832061  0.075216431   -3.1071742   0.82396811   426349 
  677000   0.66230098   -3.1062362   -3.1062362   -2.2829429  0.078271933   -3.1062362   0.82329323   426349 
  678000   0.66146606     -3.10628     -3.10628   -2.2840247  0.076301963     -3.10628   0.82225537   426349 
  679000   0.66180143   -3.1071413   -3.1071413    -2.284469  0.061285244   -3.1071413   0.82267225   426349 
  680000   0.66354755   -3.1096419   -3.1096419   -2.2847991  0.061150974   -3.1096419   0.82484282   426349 
  681000   0.66344014   -3.1090203   -3.1090203    -2.284311  0.075121218   -3.1090203   0.82470931   426349 
  682000   0.66326714   -3.1091618   -3.1091618   -2.2846676    0.0684334   -3.1091618   0.82449425   426349 
  683000   0.66242344   -3.1085303   -3.1085303   -2.2850848  0.069305335   -3.1085303   0.82344547   426349 
  684000   0.66254564   -3.1093556   -3.1093556   -2.2857582  0.062267089   -3.1093556   0.82359736   426349 
  685000   0.66112844   -3.1075312   -3.1075312   -2.2856955  0.066741163   -3.1075312   0.82183567   426349 
  686000   0.66142056   -3.1077576   -3.1077576   -2.2855588  0.071923573   -3.1077576    0.8221988   426349 
  687000   0.66241404   -3.1089468   -3.1089468   -2.2855131  0.067711457   -3.1089468   0.82343377   426349 
  688000    0.6615935   -3.1078592   -3.1078592   -2.2854454  0.075504927   -3.1078592   0.82241378   426349 
  689000   0.66240725    -3.108795    -3.108795   -2.2853696  0.072937567    -3.108795   0.82342534   426349 
  690000    0.6615972    -3.108498    -3.108498   -2.2860796  0.075729002    -3.108498   0.82241838   426349 
  691000   0.66110309   -3.1078538   -3.1078538   -2.2860497  0.066571327   -3.1078538   0.82180416   426349 
  692000    0.6598269    -3.106964    -3.106964   -2.2867463   0.07972854    -3.106964   0.82021775   426349 
  693000   0.66133284   -3.1095995   -3.1095995   -2.2875098  0.070185539   -3.1095995   0.82208976   426349 
  694000   0.66035028   -3.1089593   -3.1089593   -2.2880909  0.080386403   -3.1089593   0.82086835   426349 
  695000   0.66077911   -3.1105043   -3.1105043   -2.2891028  0.064982163   -3.1105043   0.82140143   426349 
  696000   0.65964067   -3.1092269   -3.1092269   -2.2892406  0.073097247   -3.1092269   0.81998626   426349 
  697000   0.66091585    -3.110831    -3.110831   -2.2892596  0.069607906    -3.110831   0.82157141   426349 
  698000   0.66123236   -3.1122839   -3.1122839    -2.290319  0.072595788   -3.1122839   0.82196485   426349 
  699000   0.66138751    -3.114135    -3.114135   -2.2919773  0.064991201    -3.114135   0.82215771   426349 
  700000   0.66049335   -3.1126134   -3.1126134   -2.2915672  0.070065598   -3.1126134   0.82104621   426349 
  701000   0.65946184   -3.1109363   -3.1109363   -2.2911723  0.064154405   -3.1109363   0.81976395   426349 
  702000     0.660605    -3.112854    -3.112854    -2.291669  0.072527273    -3.112854   0.82118499   426349 
  703000   0.65976061   -3.1123175   -3.1123175   -2.2921822  0.079803356   -3.1123175   0.82013535   426349 
  704000   0.65927827   -3.1111352   -3.1111352   -2.2915994  0.070194636   -3.1111352   0.81953576   426349 
  705000   0.65968397   -3.1124068   -3.1124068   -2.2923667  0.071169167   -3.1124068   0.82004009   426349 
  706000   0.65921876   -3.1123634   -3.1123634   -2.2929016  0.066809588   -3.1123634   0.81946179   426349 
  707000   0.65953351   -3.1133332   -3.1133332   -2.2934802  0.057007582   -3.1133332   0.81985305   426349 
  708000   0.65974893   -3.1140154   -3.1140154   -2.2938946  0.074390308   -3.1140154   0.82012083   426349 
  709000   0.65778858   -3.1113224   -3.1113224   -2.2936384  0.075544611   -3.1113224   0.81768396   426349 
  710000   0.65917984    -3.113989    -3.113989   -2.2945756  0.060732046    -3.113989   0.81941341   426349 
  711000   0.66059409   -3.1160281   -3.1160281   -2.2948567  0.069309639   -3.1160281   0.82117143   426349 
  712000   0.66046074   -3.1157964   -3.1157964   -2.2947907  0.078306746   -3.1157964   0.82100566   426349 
  713000   0.65975268   -3.1153004   -3.1153004   -2.2951749  0.064264664   -3.1153004    0.8201255   426349 
  714000   0.65825874   -3.1138378   -3.1138378   -2.2955694  0.071207246   -3.1138378    0.8182684   426349 
  715000    0.6607969   -3.1171606   -3.1171606    -2.295737  0.075445611   -3.1171606   0.82142354   426349 
  716000   0.66028401   -3.1165977   -3.1165977   -2.2958117  0.069163936   -3.1165977   0.82078598   426349 
  717000   0.65963601    -3.116116    -3.116116   -2.2961355  0.078746067    -3.116116   0.81998046   426349 
  718000   0.66000757   -3.1169099   -3.1169099   -2.2964675  0.073400714   -3.1169099   0.82044234   426349 
  719000   0.65885959   -3.1150809   -3.1150809   -2.2960655  0.074797154   -3.1150809   0.81901532   426349 
  720000   0.65819998   -3.1160561   -3.1160561   -2.2978607  0.074556554   -3.1160561   0.81819536   426349 
  721000   0.65897602    -3.116512    -3.116512   -2.2973519  0.073607533    -3.116512   0.81916005   426349 
  722000   0.65872599   -3.1166852   -3.1166852   -2.2978359  0.062589076   -3.1166852   0.81884924   426349 
  723000    0.6581213   -3.1167992   -3.1167992   -2.2987017  0.071359105   -3.1167992   0.81809756   426349 
  724000   0.65741508   -3.1166788   -3.1166788   -2.2994592  0.072890564   -3.1166788   0.81721967   426349 
  725000   0.65818002   -3.1171004   -3.1171004   -2.2989299  0.069953611   -3.1171004   0.81817055   426349 
  726000    0.6590473   -3.1175863   -3.1175863   -2.2983377  0.082080054   -3.1175863   0.81924865   426349 
  727000   0.65871894   -3.1176023   -3.1176023   -2.2987619  0.069386687   -3.1176023   0.81884047   426349 
  728000   0.65835259   -3.1177329   -3.1177329   -2.2993479   0.06796876   -3.1177329   0.81838507   426349 
  729000   0.65830325   -3.1185745   -3.1185745   -2.3002507  0.065549276   -3.1185745   0.81832373   426349 
  730000    0.6582621   -3.1188033   -3.1188033   -2.3005307  0.063523318   -3.1188033   0.81827258   426349 
  731000   0.65787378   -3.1187175   -3.1187175   -2.3009276  0.071686139   -3.1187175   0.81778987   426349 
  732000   0.65793519   -3.1185502   -3.1185502    -2.300684  0.081542009   -3.1185502   0.81786621   426349 
  733000    0.6589659   -3.1196178   -3.1196178   -2.3004703  0.073604961   -3.1196178   0.81914746   426349 
  734000   0.65875916    -3.119866    -3.119866   -2.3009756  0.072047065    -3.119866   0.81889047   426349 
  735000   0.65848611   -3.1204597   -3.1204597   -2.3019087  0.072040458   -3.1204597   0.81855104   426349 
  736000   0.65678044   -3.1183261   -3.1183261   -2.3018954  0.073415316   -3.1183261   0.81643076   426349 
  737000   0.65902685   -3.1214341   -3.1214341   -2.3022109  0.081979949   -3.1214341   0.81922322   426349 
  738000   0.65716417   -3.1194862   -3.1194862   -2.3025785   0.06309385   -3.1194862   0.81690777   426349 
  739000   0.65713945   -3.1199969   -3.1199969   -2.3031199  0.062172328   -3.1199969   0.81687704   426349 
  740000   0.65747932   -3.1201209   -3.1201209   -2.3028214  0.081008206   -3.1201209   0.81729953   426349 
  741000   0.65811192   -3.1208446   -3.1208446   -2.3027587  0.064339438   -3.1208446    0.8180859   426349 
  742000   0.65758908   -3.1206334   -3.1206334   -2.3031974  0.058422278   -3.1206334   0.81743597   426349 
  743000   0.65716593   -3.1205497   -3.1205497   -2.3036397  0.072315033   -3.1205497   0.81690995   426349 
  744000   0.65714232   -3.1209404   -3.1209404   -2.3040597  0.075869314   -3.1209404   0.81688061   426349 
  745000   0.65836252   -3.1217745   -3.1217745   -2.3033771  0.069451895   -3.1217745   0.81839741   426349 
  746000   0.65752842   -3.1218659   -3.1218659   -2.3045054  0.070932587   -3.1218659   0.81736056   426349 
  747000   0.65709624   -3.1224395   -3.1224395   -2.3056162  0.072413292   -3.1224395   0.81682333   426349 
  748000   0.65673177   -3.1222326   -3.1222326   -2.3058623  0.062750627   -3.1222326   0.81637026   426349 
  749000   0.65610104   -3.1232452   -3.1232452   -2.3076589  0.064833674   -3.1232452   0.81558621   426349 
  750000   0.65533543   -3.1227575   -3.1227575    -2.308123  0.074614611   -3.1227575    0.8146345   426349 
  751000   0.65812387   -3.1263299   -3.1263299   -2.3082292  0.074824819   -3.1263299   0.81810075   426349 
  752000   0.65772961   -3.1255685   -3.1255685   -2.3079579  0.069642319   -3.1255685   0.81761065   426349 
  753000   0.65764793   -3.1258991   -3.1258991     -2.30839  0.064617457   -3.1258991   0.81750911   426349 
  754000   0.65683806   -3.1245706   -3.1245706   -2.3080683  0.060774518   -3.1245706   0.81650239   426349 
  755000   0.65697836   -3.1248576   -3.1248576   -2.3081808  0.069543792   -3.1248576   0.81667679   426349 
  756000   0.65738508    -3.125158    -3.125158   -2.3079756  0.061633639    -3.125158   0.81718237   426349 
  757000   0.65754329   -3.1258322   -3.1258322   -2.3084532  0.053853222   -3.1258322   0.81737904   426349 
  758000   0.65664245   -3.1249831   -3.1249831   -2.3087238  0.074538252   -3.1249831   0.81625923   426349 
  759000   0.65664654   -3.1253429   -3.1253429   -2.3090786  0.077815039   -3.1253429   0.81626431   426349 
  760000    0.6561652   -3.1257217   -3.1257217   -2.3100557   0.06841076   -3.1257217   0.81566597   426349 
  761000   0.65789926   -3.1276634   -3.1276634   -2.3098419  0.071235095   -3.1276634   0.81782155   426349 
  762000   0.65792436   -3.1287662   -3.1287662   -2.3109135  0.059923951   -3.1287662   0.81785275   426349 
  763000   0.65795919   -3.1295363   -3.1295363   -2.3116403  0.075716415   -3.1295363   0.81789604   426349 
  764000   0.65713381   -3.1291317   -3.1291317   -2.3122617  0.079826906   -3.1291317   0.81687003   426349 
  765000   0.65690574   -3.1302482   -3.1302482   -2.3136617  0.052150472   -3.1302482   0.81658652   426349 
  766000   0.65708183   -3.1304473   -3.1304473   -2.3136419  0.070652284   -3.1304473   0.81680541   426349 
  767000   0.65689301   -3.1299544   -3.1299544   -2.3133837  0.075057546   -3.1299544   0.81657069   426349 
  768000   0.65654771   -3.1297244   -3.1297244   -2.3135829  0.063887903   -3.1297244   0.81614146   426349 
  769000   0.65495615   -3.1288239   -3.1288239   -2.3146609  0.064744287   -3.1288239   0.81416302   426349 
  770000   0.65652947   -3.1312237   -3.1312237   -2.3151049  0.066677001   -3.1312237   0.81611879   426349 
  771000    0.6567651   -3.1309813   -3.1309813   -2.3145696  0.072470232   -3.1309813   0.81641169   426349 
  772000   0.65509245   -3.1288789   -3.1288789   -2.3145465   0.07268984   -3.1288789   0.81433246   426349 
  773000   0.65665872   -3.1308853   -3.1308853   -2.3146059   0.07078409   -3.1308853   0.81627945   426349 
  774000   0.65608754   -3.1297571   -3.1297571   -2.3141877   0.06858853   -3.1297571   0.81556943   426349 
  775000   0.65644016   -3.1305411   -3.1305411   -2.3145333  0.070801312   -3.1305411   0.81600777   426349 
  776000   0.65717445   -3.1321332   -3.1321332   -2.3152126  0.074962946   -3.1321332   0.81692055   426349 
  777000   0.65615211   -3.1317682   -3.1317682   -2.3161185   0.06759007   -3.1317682    0.8156497   426349 
  778000    0.6560735   -3.1308308   -3.1308308   -2.3152788  0.076678233   -3.1308308   0.81555198   426349 
  779000   0.65479909    -3.130108    -3.130108   -2.3161402  0.059722462    -3.130108   0.81396778   426349 
  780000   0.65541738   -3.1314173   -3.1314173    -2.316681  0.065800707   -3.1314173   0.81473637   426349 
  781000   0.65513278   -3.1308159   -3.1308159   -2.3164333  0.063005216   -3.1308159   0.81438259   426349 
  782000   0.65571903   -3.1316397   -3.1316397   -2.3165283  0.072108092   -3.1316397   0.81511135   426349 
  783000   0.65403601   -3.1307433   -3.1307433    -2.317724   0.06673832   -3.1307433   0.81301922   426349 
  784000   0.65543427   -3.1328113   -3.1328113    -2.318054  0.070364441   -3.1328113   0.81475736   426349 
  785000   0.65594231   -3.1332133   -3.1332133   -2.3178244  0.068673786   -3.1332133    0.8153889   426349 
  786000   0.65496963   -3.1317519   -3.1317519   -2.3175721  0.068954637   -3.1317519   0.81417978   426349 
  787000   0.65579707   -3.1333179   -3.1333179   -2.3181096  0.075975248   -3.1333179   0.81520835   426349 
  788000    0.6550359   -3.1323806   -3.1323806   -2.3181184  0.060572186   -3.1323806   0.81426216   426349 
  789000   0.65482685   -3.1322745   -3.1322745   -2.3182722   0.06897594   -3.1322745   0.81400229   426349 
  790000   0.65599436   -3.1330933   -3.1330933   -2.3176397  0.069256214   -3.1330933   0.81545361   426349 
  791000   0.65578159   -3.1336839   -3.1336839   -2.3184948  0.068572072   -3.1336839   0.81518911   426349 
  792000   0.65498924   -3.1320072   -3.1320072    -2.317803  0.074247822   -3.1320072   0.81420415   426349 
  793000   0.65453986   -3.1317239   -3.1317239   -2.3180784  0.075093632   -3.1317239   0.81364554   426349 
  794000   0.65507655   -3.1327357   -3.1327357    -2.318423   0.07216358   -3.1327357   0.81431269   426349 
  795000   0.65417823   -3.1332964   -3.1332964   -2.3201004  0.068040462   -3.1332964     0.813196   426349 
  796000   0.65417933   -3.1327638   -3.1327638   -2.3195664  0.073800258   -3.1327638   0.81319737   426349 
  797000   0.65394883   -3.1331922   -3.1331922   -2.3202814  0.065131397   -3.1331922   0.81291084   426349 
  798000   0.65380256   -3.1325122   -3.1325122   -2.3197832  0.067404298   -3.1325122   0.81272902   426349 
  799000   0.65423807   -3.1331264   -3.1331264    -2.319856  0.064827533   -3.1331264   0.81327039   426349 
  800000   0.65362407    -3.133977    -3.133977   -2.3214699  0.065068651    -3.133977   0.81250714   426349 
  801000   0.65400412   -3.1346684   -3.1346684   -2.3216889  0.066963279   -3.1346684   0.81297958   426349 
  802000   0.65559906   -3.1366111   -3.1366111   -2.3216489  0.075981422   -3.1366111   0.81496222   426349 
  803000   0.65392838   -3.1348364   -3.1348364    -2.321951  0.069424386   -3.1348364   0.81288542   426349 
  804000   0.65453429   -3.1348903   -3.1348903   -2.3212517  0.073224399   -3.1348903   0.81363861   426349 
  805000   0.65569247   -3.1361836   -3.1361836   -2.3211053  0.081703141   -3.1361836   0.81507832   426349 
  806000   0.65523625   -3.1353758   -3.1353758   -2.3208645  0.068549239   -3.1353758   0.81451121   426349 
  807000   0.65362596   -3.1337036   -3.1337036   -2.3211941  0.067410196   -3.1337036   0.81250949   426349 
  808000   0.65415592   -3.1344271   -3.1344271   -2.3212589  0.063830062   -3.1344271   0.81316827   426349 
  809000   0.65420963   -3.1350391   -3.1350391    -2.321804  0.066625776   -3.1350391   0.81323504   426349 
  810000   0.65433456   -3.1351706   -3.1351706   -2.3217803  0.069274274   -3.1351706   0.81339033   426349 
  811000   0.65359373   -3.1349919   -3.1349919   -2.3225225  0.058053098   -3.1349919   0.81246942   426349 
  812000   0.65333113   -3.1350937   -3.1350937   -2.3229507  0.063640457   -3.1350937   0.81214299   426349 
  813000   0.65353356   -3.1363746   -3.1363746   -2.3239799  0.066812594   -3.1363746   0.81239463   426349 
  814000   0.65311783   -3.1354094   -3.1354094   -2.3235316  0.075748342   -3.1354094   0.81187784   426349 
  815000   0.65301371   -3.1359561   -3.1359561   -2.3242077  0.069818116   -3.1359561   0.81174841   426349 
  816000   0.65396796   -3.1378514   -3.1378514   -2.3249167  0.074942345   -3.1378514   0.81293462   426349 
  817000   0.65424095   -3.1378605   -3.1378605   -2.3245865  0.063981539   -3.1378605   0.81327398   426349 
  818000   0.65433547   -3.1390545   -3.1390545    -2.325663  0.074135138   -3.1390545   0.81339147   426349 
  819000   0.65339874   -3.1383341   -3.1383341   -2.3261071  0.074341359   -3.1383341   0.81222703   426349 
  820000   0.65325367   -3.1383537   -3.1383537    -2.326307  0.070851117   -3.1383537    0.8120467   426349 
  821000   0.65371787   -3.1394199   -3.1394199   -2.3267962  0.068457327   -3.1394199   0.81262374   426349 
  822000   0.65347671   -3.1393732   -3.1393732   -2.3270493  0.059378986   -3.1393732   0.81232396   426349 
  823000   0.65292088   -3.1385365   -3.1385365   -2.3269035   0.06067063   -3.1385365   0.81163302   426349 
  824000   0.65322532   -3.1387911   -3.1387911   -2.3267796  0.060657419   -3.1387911   0.81201147   426349 
  825000   0.65250501   -3.1385806   -3.1385806   -2.3274645  0.064994405   -3.1385806   0.81111606   426349 
  826000   0.65249284   -3.1383727   -3.1383727   -2.3272718  0.064950032   -3.1383727   0.81110093   426349 
  827000   0.65420075   -3.1406501   -3.1406501   -2.3274261  0.074646588   -3.1406501     0.813224   426349 
  828000   0.65254771   -3.1394704   -3.1394704   -2.3283012  0.077554041   -3.1394704   0.81116914   426349 
  829000   0.65231891   -3.1393747   -3.1393747   -2.3284899  0.065308842   -3.1393747   0.81088472   426349 
  830000   0.65227854   -3.1400047   -3.1400047   -2.3291702  0.058984786   -3.1400047   0.81083454   426349 
  831000   0.65183661   -3.1395718   -3.1395718   -2.3292866  0.076913486   -3.1395718   0.81028518   426349 
  832000   0.65265407   -3.1412115   -3.1412115   -2.3299101  0.070188627   -3.1412115   0.81130136   426349 
  833000   0.65240421   -3.1414243   -3.1414243   -2.3304335  0.070361569   -3.1414243   0.81099075   426349 
  834000   0.65212986   -3.1412869   -3.1412869   -2.3306372  0.065228358   -3.1412869   0.81064972   426349 
  835000   0.65281512   -3.1420198   -3.1420198   -2.3305182  0.071437853   -3.1420198   0.81150155   426349 
  836000   0.65341154   -3.1427709   -3.1427709    -2.330528  0.058903172   -3.1427709   0.81224295   426349 
  837000   0.65228835   -3.1414043   -3.1414043   -2.3305576  0.068860578   -3.1414043   0.81084673   426349 
  838000   0.65163395   -3.1411194   -3.1411194   -2.3310861  0.064214727   -3.1411194   0.81003326   426349 
  839000   0.65068936   -3.1406792   -3.1406792   -2.3318201  0.064447752   -3.1406792   0.80885906   426349 
  840000   0.65189829   -3.1415883   -3.1415883   -2.3312264  0.065513407   -3.1415883   0.81036185   426349 
  841000   0.65199147   -3.1417926   -3.1417926   -2.3313149  0.071414923   -3.1417926   0.81047768   426349 
  842000   0.65150119    -3.142058    -3.142058   -2.3321898  0.067055737    -3.142058   0.80986823   426349 
  843000    0.6524904   -3.1428515   -3.1428515   -2.3317536  0.062614928   -3.1428515    0.8110979   426349 
  844000   0.65259885   -3.1433925   -3.1433925   -2.3321598  0.069032001   -3.1433925   0.81123271   426349 
  845000   0.65205208   -3.1426286   -3.1426286   -2.3320756   0.07403493   -3.1426286   0.81055302   426349 
  846000   0.65189064   -3.1426307   -3.1426307   -2.3322784  0.069055374   -3.1426307   0.81035234   426349 
  847000   0.65340913   -3.1443169   -3.1443169    -2.332077  0.062156917   -3.1443169   0.81223995   426349 
  848000   0.65216816   -3.1424588   -3.1424588   -2.3317615  0.061017432   -3.1424588   0.81069733   426349 
  849000   0.65189874   -3.1427359   -3.1427359   -2.3323735  0.069420412   -3.1427359   0.81036242   426349 
  850000   0.65242864    -3.143469    -3.143469   -2.3324479  0.071326451    -3.143469   0.81102112   426349 
  851000   0.65349928   -3.1447771   -3.1447771   -2.3324251  0.063092489   -3.1447771   0.81235201   426349 
  852000   0.65342866   -3.1442666   -3.1442666   -2.3320024  0.061398202   -3.1442666   0.81226423   426349 
  853000   0.65227287   -3.1438675   -3.1438675     -2.33304  0.055523759   -3.1438675   0.81082749   426349 
  854000   0.65229691   -3.1444343   -3.1444343   -2.3335769  0.059930907   -3.1444343   0.81085738   426349 
  855000   0.65038675   -3.1429703   -3.1429703   -2.3344874  0.073242911   -3.1429703   0.80848289   426349 
  856000   0.65068191   -3.1437252   -3.1437252   -2.3348754  0.064660703   -3.1437252    0.8088498   426349 
  857000   0.65165733   -3.1447083   -3.1447083    -2.334646  0.069769467   -3.1447083   0.81006232   426349 
  858000   0.65021009    -3.143059    -3.143059   -2.3347957  0.058543324    -3.143059   0.80826329   426349 
  859000    0.6509123   -3.1448214   -3.1448214   -2.3356852  0.073057825   -3.1448214   0.80913619   426349 
  860000   0.65112172   -3.1456457   -3.1456457   -2.3362491  0.064951668   -3.1456457   0.80939652   426349 
  861000   0.65064232   -3.1450625   -3.1450625   -2.3362619  0.068751369   -3.1450625   0.80880059   426349 
  862000   0.64976998   -3.1444727   -3.1444727   -2.3367565  0.069019717   -3.1444727    0.8077162   426349 
  863000   0.65035722   -3.1449916   -3.1449916   -2.3365454  0.061726282   -3.1449916   0.80844618   426349 
  864000   0.65205563   -3.1480263   -3.1480263   -2.3374688  0.062809708   -3.1480263   0.81055744   426349 
  865000   0.65086774   -3.1472539   -3.1472539   -2.3381731  0.066406093   -3.1472539    0.8090808   426349 
  866000   0.65152365     -3.14816     -3.14816   -2.3382639  0.066628586     -3.14816   0.80989615   426349 
  867000    0.6496148   -3.1453947   -3.1453947   -2.3378714  0.061286987   -3.1453947   0.80752329   426349 
  868000   0.64922148   -3.1449763   -3.1449763   -2.3379419  0.057475571   -3.1449763   0.80703436   426349 
  869000   0.65118284   -3.1475029   -3.1475029   -2.3380304  0.064429426   -3.1475029   0.80947249   426349 
  870000   0.65142951   -3.1478573   -3.1478573   -2.3380782   0.06853528   -3.1478573   0.80977913   426349 
  871000   0.64982725    -3.147094    -3.147094   -2.3393066  0.063734653    -3.147094   0.80778739   426349 
  872000   0.64909199   -3.1464028   -3.1464028   -2.3395294  0.060940949   -3.1464028    0.8068734   426349 
  873000   0.65010774   -3.1479789   -3.1479789   -2.3398429  0.062856141   -3.1479789   0.80813607   426349 
  874000   0.64999655   -3.1482158   -3.1482158    -2.340218  0.056648535   -3.1482158   0.80799784   426349 
  875000   0.64970866   -3.1478225   -3.1478225   -2.3401826  0.060084758   -3.1478225   0.80763997   426349 
  876000   0.65058672   -3.1491399   -3.1491399   -2.3404084  0.055484891   -3.1491399   0.80873147   426349 
  877000   0.64974492   -3.1485569   -3.1485569   -2.3408719  0.056191898   -3.1485569   0.80768504   426349 
  878000   0.64952788   -3.1476673   -3.1476673    -2.340252  0.060174773   -3.1476673   0.80741525   426349 
  879000   0.64855705   -3.1474774   -3.1474774    -2.341269  0.058874938   -3.1474774   0.80620842   426349 
  880000   0.64815124   -3.1473289   -3.1473289   -2.3416249  0.061294549   -3.1473289   0.80570397   426349 
  881000   0.64944594   -3.1491809   -3.1491809   -2.3418675  0.054594752   -3.1491809   0.80731339   426349 
  882000   0.64928169   -3.1488677   -3.1488677   -2.3417585  0.057543826   -3.1488677   0.80710921   426349 
  883000   0.64852953   -3.1476535   -3.1476535   -2.3414792  0.057964339   -3.1476535   0.80617422   426349 
  884000   0.65071793   -3.1497666   -3.1497666    -2.340872  0.068163467   -3.1497666   0.80889457   426349 
  885000   0.65081693   -3.1502473   -3.1502473   -2.3412296  0.076442968   -3.1502473   0.80901764   426349 
  886000    0.6508603   -3.1509626   -3.1509626    -2.341891  0.065840752   -3.1509626   0.80907155   426349 
  887000   0.64888485    -3.148954    -3.148954   -2.3423381  0.069060973    -3.148954    0.8066159   426349 
  888000   0.64846368   -3.1500292   -3.1500292   -2.3439368  0.075279325   -3.1500292   0.80609236   426349 
  889000    0.6483123   -3.1499334   -3.1499334   -2.3440292  0.058550205   -3.1499334   0.80590418   426349 
  890000   0.64942164   -3.1504094   -3.1504094   -2.3431263  0.059406837   -3.1504094   0.80728318   426349 
  891000   0.64898601   -3.1508424   -3.1508424   -2.3441007  0.067535665   -3.1508424   0.80674166   426349 
  892000   0.64892375   -3.1513075   -3.1513075   -2.3446433  0.072932135   -3.1513075   0.80666426   426349 
  893000   0.64972163   -3.1530391   -3.1530391    -2.345383  0.066121784   -3.1530391   0.80765609   426349 
  894000    0.6488298   -3.1528495   -3.1528495   -2.3463021  0.050666659   -3.1528495   0.80654748   426349 
  895000    0.6486396    -3.152577    -3.152577    -2.346266  0.067868572    -3.152577   0.80631104   426349 
  896000   0.64839077   -3.1525326   -3.1525326   -2.3465309  0.068321821   -3.1525326   0.80600172   426349 
  897000   0.64881359     -3.15299     -3.15299   -2.3464627  0.058289382     -3.15299   0.80652732   426349 
  898000   0.64871838    -3.152981    -3.152981    -2.346572    0.0668321    -3.152981   0.80640897   426349 
  899000   0.65013801   -3.1549675   -3.1549675   -2.3467938  0.059515966   -3.1549675   0.80817369   426349 
  900000   0.65001711   -3.1546623   -3.1546623   -2.3466389  0.060524046   -3.1546623    0.8080234   426349 
  901000   0.64895576   -3.1536233   -3.1536233   -2.3469192  0.071682112   -3.1536233   0.80670405   426349 
  902000   0.64956121   -3.1539356   -3.1539356   -2.3464789  0.062369197   -3.1539356   0.80745668   426349 
  903000   0.64900025   -3.1536943   -3.1536943    -2.346935  0.062341152   -3.1536943   0.80675936   426349 
  904000   0.64910705   -3.1543481   -3.1543481    -2.347456  0.067341523   -3.1543481   0.80689212   426349 
  905000   0.64915873    -3.154625    -3.154625   -2.3476686  0.063867617    -3.154625   0.80695636   426349 
  906000   0.64836086   -3.1540807   -3.1540807   -2.3481162  0.065188262   -3.1540807   0.80596455   426349 
  907000   0.64797694   -3.1540096   -3.1540096   -2.3485223  0.073294984   -3.1540096    0.8054873   426349 
  908000   0.64736443   -3.1540705   -3.1540705   -2.3493446  0.076722527   -3.1540705    0.8047259   426349 
  909000   0.64844472   -3.1558416   -3.1558416   -2.3497728   0.06443088   -3.1558416   0.80606879   426349 
  910000   0.64844338   -3.1551289   -3.1551289   -2.3490617  0.063371529   -3.1551289   0.80606712   426349 
  911000   0.64831825   -3.1554258   -3.1554258   -2.3495143  0.076938593   -3.1554258   0.80591158   426349 
  912000   0.64850619   -3.1543905   -3.1543905   -2.3482453  0.069208442   -3.1543905    0.8061452   426349 
  913000   0.64849501   -3.1543558   -3.1543558   -2.3482245  0.063546246   -3.1543558    0.8061313   426349 
  914000   0.64851032   -3.1548312   -3.1548312   -2.3486809  0.059038466   -3.1548312   0.80615034   426349 
  915000   0.64858984   -3.1556038   -3.1556038   -2.3493546  0.061877237   -3.1556038   0.80624919   426349 
  916000   0.64853492   -3.1560157   -3.1560157   -2.3498347  0.062193908   -3.1560157   0.80618091   426349 
  917000   0.64902966   -3.1567506   -3.1567506   -2.3499547  0.060623184   -3.1567506   0.80679592   426349 
  918000   0.64847596   -3.1560161   -3.1560161   -2.3499084  0.067806739   -3.1560161   0.80610763   426349 
  919000    0.6469859   -3.1552502   -3.1552502   -2.3509949  0.074220239   -3.1552502   0.80425536   426349 
  920000   0.64932537   -3.1585918   -3.1585918   -2.3514283  0.060921848   -3.1585918   0.80716351   426349 
  921000   0.64773006   -3.1567951   -3.1567951   -2.3516147   0.05403738   -3.1567951   0.80518042   426349 
  922000    0.6477702   -3.1574794   -3.1574794   -2.3522491  0.064836628   -3.1574794   0.80523031   426349 
  923000   0.64763613   -3.1573252   -3.1573252   -2.3522615  0.062130351   -3.1573252   0.80506365   426349 
  924000     0.647452   -3.1568613   -3.1568613   -2.3520266  0.056802107   -3.1568613   0.80483476   426349 
  925000   0.64869981   -3.1594549   -3.1594549    -2.353069  0.063803103   -3.1594549   0.80638589   426349 
  926000   0.64738692   -3.1579756   -3.1579756   -2.3532217   0.06883673   -3.1579756   0.80475387   426349 
  927000   0.64849788    -3.159053    -3.159053   -2.3529181  0.069676231    -3.159053   0.80613488   426349 
  928000   0.64772491   -3.1577227   -3.1577227   -2.3525487  0.059482347   -3.1577227   0.80517401   426349 
  929000    0.6467874   -3.1573342   -3.1573342   -2.3533256  0.061520736   -3.1573342   0.80400861   426349 
  930000   0.64802258   -3.1587692   -3.1587692   -2.3532252  0.067663474   -3.1587692   0.80554404   426349 
  931000   0.64781448   -3.1587241   -3.1587241   -2.3534388  0.059231781   -3.1587241   0.80528536   426349 
  932000   0.64784046    -3.158361    -3.158361   -2.3530434  0.069071767    -3.158361   0.80531764   426349 
  933000   0.64821361   -3.1591949   -3.1591949   -2.3534134  0.064763604   -3.1591949   0.80578151   426349 
  934000   0.64698312   -3.1581681   -3.1581681   -2.3539162  0.055040198   -3.1581681   0.80425191   426349 
  935000   0.64726483   -3.1585876   -3.1585876   -2.3539855  0.063003023   -3.1585876   0.80460209   426349 
  936000   0.64713363   -3.1598541   -3.1598541   -2.3554151  0.057749184   -3.1598541     0.804439   426349 
  937000   0.64596898   -3.1585207   -3.1585207   -2.3555295  0.071436975   -3.1585207   0.80299124   426349 
  938000   0.64690668   -3.1600757   -3.1600757   -2.3559188  0.054563622   -3.1600757   0.80415688   426349 
  939000   0.64707599   -3.1602767   -3.1602767   -2.3559093   0.06134432   -3.1602767   0.80436735   426349 
  940000   0.64807418   -3.1616122   -3.1616122   -2.3560041  0.072911683   -3.1616122   0.80560818   426349 
  941000   0.64736618   -3.1614424   -3.1614424   -2.3567143  0.066022896   -3.1614424   0.80472808   426349 
  942000   0.64807529   -3.1629042   -3.1629042   -2.3572947   0.05710538   -3.1629042   0.80560956   426349 
  943000   0.64763336   -3.1621966   -3.1621966   -2.3571364  0.065462631   -3.1621966   0.80506021   426349 
  944000   0.64669653   -3.1614232   -3.1614232   -2.3575276  0.063428829   -3.1614232   0.80389565   426349 
  945000   0.64626045    -3.160843    -3.160843   -2.3574894  0.061874425    -3.160843   0.80335356   426349 
  946000   0.64726579   -3.1627506   -3.1627506   -2.3581473  0.061753612   -3.1627506   0.80460329   426349 
  947000   0.64667593   -3.1622265   -3.1622265   -2.3583565  0.058916163   -3.1622265   0.80387005   426349 
  948000   0.64761529   -3.1627934   -3.1627934   -2.3577557  0.059020208   -3.1627934   0.80503774   426349 
  949000   0.64676308    -3.162038    -3.162038   -2.3580597  0.062975901    -3.162038   0.80397838   426349 
  950000   0.64662969   -3.1623233   -3.1623233   -2.3585107  0.053898385   -3.1623233   0.80381257   426349 
  951000   0.64634245   -3.1619368   -3.1619368   -2.3584813  0.064135036   -3.1619368   0.80345551   426349 
  952000   0.64709781   -3.1631972   -3.1631972   -2.3588028  0.067723625   -3.1631972   0.80439448   426349 
  953000   0.64631225   -3.1619864   -3.1619864   -2.3585684  0.067553538   -3.1619864   0.80341796   426349 
  954000   0.64680197   -3.1630517   -3.1630517    -2.359025  0.066934655   -3.1630517   0.80402672   426349 
  955000   0.64625221    -3.162938    -3.162938   -2.3595947  0.066211667    -3.162938   0.80334332   426349 
  956000   0.64832331    -3.164641    -3.164641   -2.3587231  0.063988546    -3.164641   0.80591786   426349 
  957000   0.64624213    -3.162666    -3.162666   -2.3593352  0.064574888    -3.162666   0.80333079   426349 
  958000   0.64653025   -3.1634096   -3.1634096   -2.3597207  0.061894079   -3.1634096   0.80368895   426349 
  959000   0.64639053   -3.1636298   -3.1636298   -2.3601145   0.05037403   -3.1636298   0.80351527   426349 
  960000   0.64597122   -3.1636151   -3.1636151    -2.360621  0.049964676   -3.1636151   0.80299403   426349 
  961000   0.64468508   -3.1622648   -3.1622648   -2.3608696  0.063109272   -3.1622648   0.80139526   426349 
  962000   0.64687748   -3.1651204   -3.1651204   -2.3609998  0.073119217   -3.1651204   0.80412058   426349 
  963000   0.64587036   -3.1637685   -3.1637685   -2.3608998  0.069267696   -3.1637685   0.80286865   426349 
  964000   0.64573384   -3.1635533   -3.1635533   -2.3608543  0.060574742   -3.1635533   0.80269895   426349 
  965000   0.64643031   -3.1650079   -3.1650079   -2.3614432  0.059336768   -3.1650079   0.80356472   426349 
  966000   0.64500705   -3.1636704   -3.1636704    -2.361875  0.069233793   -3.1636704   0.80179549   426349 
  967000   0.64543973   -3.1645778   -3.1645778   -2.3622445  0.065680575   -3.1645778   0.80233335   426349 
  968000   0.64597865   -3.1652867   -3.1652867   -2.3622834  0.062719173   -3.1652867   0.80300327   426349 
  969000   0.64570062   -3.1656207   -3.1656207    -2.362963  0.070740555   -3.1656207   0.80265765   426349 
  970000    0.6444291   -3.1650137   -3.1650137   -2.3639367  0.062445036   -3.1650137   0.80107705   426349 
  971000   0.64604705   -3.1666323   -3.1666323    -2.363544  0.072459446   -3.1666323    0.8030883   426349 
  972000    0.6463031   -3.1674216   -3.1674216    -2.364015  0.064142535   -3.1674216   0.80340658   426349 
  973000   0.64489744   -3.1663745   -3.1663745   -2.3647153  0.057002044   -3.1663745   0.80165924   426349 
  974000   0.64517637   -3.1672397   -3.1672397   -2.3652338  0.070368662   -3.1672397   0.80200597   426349 
  975000   0.64600573   -3.1684301   -3.1684301   -2.3653932  0.066955421   -3.1684301   0.80303693   426349 
  976000   0.64551086   -3.1665671   -3.1665671   -2.3641453  0.073092402   -3.1665671   0.80242177   426349 
  977000   0.64600712   -3.1676416   -3.1676416   -2.3646029  0.060986347   -3.1676416   0.80303865   426349 
  978000   0.64578892   -3.1681678   -3.1681678   -2.3654004  0.059682024   -3.1681678   0.80276742   426349 
  979000   0.64564446   -3.1680493   -3.1680493   -2.3654615  0.069291624   -3.1680493   0.80258784   426349 
  980000   0.64473223    -3.166789    -3.166789   -2.3653351  0.055453776    -3.166789   0.80145386   426349 
  981000   0.64500673   -3.1671358   -3.1671358   -2.3653407   0.07598302   -3.1671358    0.8017951   426349 
  982000   0.64585607   -3.1677201   -3.1677201   -2.3648692  0.061106497   -3.1677201   0.80285089   426349 
  983000   0.64548895   -3.1678015   -3.1678015    -2.365407  0.064698701   -3.1678015   0.80239453   426349 
  984000   0.64550133   -3.1682038   -3.1682038   -2.3657939  0.058896342   -3.1682038   0.80240992   426349 
  985000   0.64448613   -3.1669429   -3.1669429   -2.3657949  0.069706158   -3.1669429   0.80114795   426349 
  986000   0.64513422   -3.1674304   -3.1674304   -2.3654768  0.058495782   -3.1674304   0.80195358   426349 
  987000   0.64450096   -3.1670107   -3.1670107   -2.3658443  0.069446783   -3.1670107   0.80116639   426349 
  988000   0.64415678   -3.1667029   -3.1667029   -2.3659644  0.073114267   -3.1667029   0.80073854   426349 
  989000    0.6455274   -3.1687056   -3.1687056   -2.3662633  0.067393965   -3.1687056   0.80244233   426349 
  990000   0.64577178    -3.170134    -3.170134   -2.3673879  0.055639422    -3.170134   0.80274612   426349 
  991000   0.64518206   -3.1684927   -3.1684927   -2.3664797  0.060889517   -3.1684927   0.80201305   426349 
  992000   0.64430659   -3.1669013   -3.1669013   -2.3659765  0.066790674   -3.1669013   0.80092476   426349 
  993000   0.64494008   -3.1690351   -3.1690351   -2.3673228  0.062430137   -3.1690351   0.80171224   426349 
  994000   0.64404907   -3.1682854   -3.1682854   -2.3676808  0.057896214   -3.1682854   0.80060465   426349 
  995000   0.64524767   -3.1699338   -3.1699338   -2.3678392  0.066086946   -3.1699338    0.8020946   426349 
  996000   0.64615478   -3.1709015   -3.1709015   -2.3676792  0.057482956   -3.1709015   0.80322221   426349 
  997000   0.64514335   -3.1693778   -3.1693778   -2.3674129  0.053199204   -3.1693778   0.80196493   426349 
  998000   0.64636191   -3.1714786   -3.1714786   -2.3679989    0.0661826   -3.1714786    0.8034797   426349 
  999000   0.64492617   -3.1705198   -3.1705198   -2.3688248  0.058506522   -3.1705198   0.80169495   426349 
 1000000   0.64530476   -3.1713937   -3.1713937   -2.3692282  0.058528314   -3.1713937   0.80216557   426349 
 1001000   0.64519672    -3.171408    -3.171408   -2.3693767  0.066382121    -3.171408   0.80203127   426349 
 1002000   0.64497737    -3.171788    -3.171788   -2.3700294   0.06106517    -3.171788    0.8017586   426349 
 1003000   0.64485941   -3.1712203   -3.1712203   -2.3696083  0.070200022   -3.1712203   0.80161196   426349 
 1004000    0.6451668   -3.1725198   -3.1725198   -2.3705257   0.06438004   -3.1725198   0.80199408   426349 
 1005000   0.64476877   -3.1721492   -3.1721492   -2.3706499  0.056069651   -3.1721492    0.8014993   426349 
 1006000   0.64491862   -3.1724879   -3.1724879   -2.3708024  0.067958905   -3.1724879   0.80168556   426349 
 1007000   0.64515591   -3.1736394   -3.1736394   -2.3716589  0.068326034   -3.1736394   0.80198054   426349 
 1008000   0.64473817   -3.1738516   -3.1738516   -2.3723903  0.050180568   -3.1738516   0.80146125   426349 
 1009000   0.64372928   -3.1726823   -3.1726823   -2.3724752   0.06847404   -3.1726823   0.80020712   426349 
 1010000   0.64442712   -3.1726802   -3.1726802   -2.3716056  0.062228051   -3.1726802    0.8010746   426349 
 1011000   0.64358162   -3.1718904   -3.1718904   -2.3718668  0.058275048   -3.1718904   0.80002357   426349 
 1012000    0.6436892   -3.1729986   -3.1729986   -2.3728413  0.055093096   -3.1729986   0.80015729   426349 
 1013000   0.64398897   -3.1737544   -3.1737544   -2.3732244  0.055871371   -3.1737544   0.80052994   426349 
 1014000   0.64290338   -3.1725372   -3.1725372   -2.3733567  0.056543582   -3.1725372   0.79918047   426349 
 1015000   0.64285981   -3.1730765   -3.1730765   -2.3739502  0.059286482   -3.1730765    0.7991263   426349 
 1016000   0.64324245   -3.1732414   -3.1732414   -2.3736394  0.067279714   -3.1732414   0.79960195   426349 
 1017000    0.6441806   -3.1735764   -3.1735764   -2.3728082  0.066395472   -3.1735764   0.80076815   426349 
 1018000   0.64425692   -3.1738849   -3.1738849   -2.3730219  0.067317223   -3.1738849   0.80086302   426349 
 1019000   0.64304636   -3.1723608   -3.1723608   -2.3730026  0.070136286   -3.1723608   0.79935819   426349 
 1020000   0.64362323   -3.1737879   -3.1737879   -2.3737126   0.07151868   -3.1737879   0.80007529   426349 
 1021000   0.64338633   -3.1742168   -3.1742168    -2.374436  0.055384725   -3.1742168   0.79978081   426349 
 1022000   0.64433929   -3.1758365   -3.1758365   -2.3748711  0.070238438   -3.1758365   0.80096542   426349 
 1023000   0.64444976   -3.1761156   -3.1761156   -2.3750128   0.07393189   -3.1761156   0.80110274   426349 
 1024000   0.64509722   -3.1780201   -3.1780201   -2.3761125  0.063977559   -3.1780201   0.80190758   426349 
 1025000   0.64474144   -3.1776022   -3.1776022   -2.3761369  0.066698897   -3.1776022   0.80146532   426349 
 1026000   0.64385129     -3.17656     -3.17656   -2.3762012  0.064326195     -3.17656   0.80035879   426349 
 1027000   0.64461979   -3.1775872   -3.1775872   -2.3762731  0.062048967   -3.1775872    0.8013141   426349 
 1028000   0.64368344   -3.1760676   -3.1760676   -2.3759175  0.078249552   -3.1760676   0.80015014   426349 
 1029000   0.64311208   -3.1759789   -3.1759789    -2.376539  0.066776282   -3.1759789   0.79943989   426349 
 1030000   0.64390192   -3.1768331   -3.1768331   -2.3764113  0.052346753   -3.1768331   0.80042173   426349 
 1031000   0.64335275   -3.1762513   -3.1762513   -2.3765122  0.066904122   -3.1762513   0.79973907   426349 
 1032000   0.64345857   -3.1771025   -3.1771025   -2.3772319   0.05913082   -3.1771025   0.79987061   426349 
 1033000   0.64354283   -3.1777593   -3.1777593    -2.377784  0.054466534   -3.1777593   0.79997535   426349 
 1034000   0.64357288   -3.1782341   -3.1782341   -2.3782214  0.059080134   -3.1782341   0.80001271   426349 
 1035000   0.64260891   -3.1783393   -3.1783393   -2.3795249  0.056905137   -3.1783393   0.79881441   426349 
 1036000   0.64229136    -3.177705    -3.177705   -2.3792853  0.066211799    -3.177705   0.79841967   426349 
 1037000   0.64227599   -3.1779911   -3.1779911   -2.3795905  0.064860672   -3.1779911   0.79840057   426349 
 1038000   0.64274649   -3.1787381   -3.1787381   -2.3797527  0.048671293   -3.1787381   0.79898543   426349 
 1039000   0.64286338   -3.1792726   -3.1792726   -2.3801419  0.049728815   -3.1792726   0.79913074   426349 
 1040000    0.6431158   -3.1803871   -3.1803871   -2.3809426  0.059014448   -3.1803871   0.79944452   426349 
 1041000   0.64321883   -3.1807829   -3.1807829   -2.3812103  0.062335746   -3.1807829   0.79957259   426349 
 1042000   0.64282577   -3.1798536   -3.1798536   -2.3807696  0.059317978   -3.1798536   0.79908399   426349 
 1043000   0.64345189   -3.1803828   -3.1803828   -2.3805205  0.057870882   -3.1803828    0.7998623   426349 
 1044000   0.64281487   -3.1796966   -3.1796966   -2.3806262  0.055701487   -3.1796966   0.79907043   426349 
 1045000   0.64402372   -3.1814789   -3.1814789   -2.3809057  0.053447988   -3.1814789   0.80057313   426349 
 1046000   0.64226163   -3.1802498   -3.1802498   -2.3818671  0.059240898   -3.1802498   0.79838271   426349 
 1047000   0.64245999   -3.1808512   -3.1808512   -2.3822219  0.077849485   -3.1808512   0.79862929   426349 
 1048000   0.64165908   -3.1797692   -3.1797692   -2.3821355  0.064674875   -3.1797692    0.7976337   426349 
 1049000   0.64186721   -3.1808441   -3.1808441   -2.3829517  0.073697332   -3.1808441   0.79789243   426349 
 1050000   0.64201068   -3.1808171   -3.1808171   -2.3827463   0.07085836   -3.1808171   0.79807076   426349 
 1051000   0.64148225   -3.1798294   -3.1798294   -2.3824156  0.051445727   -3.1798294   0.79741389   426349 
 1052000   0.64285214   -3.1815557   -3.1815557    -2.382439   0.06786589   -3.1815557   0.79911676   426349 
 1053000   0.64398686   -3.1832849   -3.1832849   -2.3827576  0.059106268   -3.1832849   0.80052732   426349 
 1054000   0.64232567   -3.1812076   -3.1812076   -2.3827453  0.060619627   -3.1812076   0.79846233   426349 
 1055000   0.64144182   -3.1811551   -3.1811551   -2.3837915  0.056102736   -3.1811551   0.79736363   426349 
 1056000   0.64228911   -3.1824063   -3.1824063   -2.3839894  0.060563358   -3.1824063   0.79841688   426349 
 1057000   0.64189789   -3.1812831   -3.1812831   -2.3833525  0.065456841   -3.1812831   0.79793056   426349 
 1058000   0.64265913   -3.1823094   -3.1823094   -2.3834325  0.051072543   -3.1823094   0.79887684   426349 
 1059000   0.64225389   -3.1819134   -3.1819134   -2.3835403  0.051540682   -3.1819134   0.79837309   426349 
 1060000   0.64272969   -3.1825726   -3.1825726   -2.3836081  0.061514633   -3.1825726   0.79896455   426349 
 1061000   0.64198386   -3.1814153   -3.1814153   -2.3833779  0.060974202   -3.1814153   0.79803743   426349 
 1062000   0.64247674   -3.1822662   -3.1822662   -2.3836161  0.061242413   -3.1822662   0.79865011   426349 
 1063000    0.6419699   -3.1814829   -3.1814829   -2.3834628  0.060208355   -3.1814829   0.79802008   426349 
 1064000   0.64066057   -3.1812688   -3.1812688   -2.3848764  0.072682786   -3.1812688   0.79639247   426349 
 1065000   0.64091094   -3.1817633   -3.1817633   -2.3850596  0.051024787   -3.1817633   0.79670369   426349 
 1066000   0.64257605   -3.1833178   -3.1833178   -2.3845442  0.060796851   -3.1833178   0.79877357   426349 
 1067000    0.6409453   -3.1805984   -3.1805984    -2.383852  0.059933131   -3.1805984   0.79674641   426349 
 1068000   0.64238179   -3.1824198   -3.1824198   -2.3838877  0.055678128   -3.1824198   0.79853208   426349 
 1069000   0.64120911   -3.1818397   -3.1818397   -2.3847653  0.054223044   -3.1818397   0.79707434   426349 
 1070000   0.64208962   -3.1831736   -3.1831736   -2.3850047    0.0680432   -3.1831736    0.7981689   426349 
 1071000   0.64237593   -3.1840393   -3.1840393   -2.3855145  0.060175156   -3.1840393    0.7985248   426349 
 1072000   0.64224299   -3.1849954   -3.1849954   -2.3866359  0.056458716   -3.1849954   0.79835955   426349 
 1073000   0.64062168   -3.1825069   -3.1825069   -2.3861627  0.054339561   -3.1825069   0.79634413   426349 
 1074000   0.64171409   -3.1846609   -3.1846609   -2.3869589  0.055833165   -3.1846609   0.79770208   426349 
 1075000   0.64229734   -3.1848466   -3.1848466   -2.3864195  0.061530399   -3.1848466    0.7984271   426349 
 1076000    0.6417094   -3.1842002   -3.1842002   -2.3865039  0.067246615   -3.1842002   0.79769625   426349 
 1077000   0.64061104   -3.1842125   -3.1842125   -2.3878816  0.052001673   -3.1842125   0.79633089   426349 
 1078000   0.64032937   -3.1835639   -3.1835639   -2.3875831   0.05592159   -3.1835639   0.79598076   426349 
 1079000   0.64176812   -3.1853983   -3.1853983   -2.3876291  0.054040832   -3.1853983   0.79776925   426349 
 1080000   0.64175339   -3.1855115   -3.1855115   -2.3877606  0.061960478   -3.1855115   0.79775093   426349 
 1081000   0.64201063   -3.1856557   -3.1856557    -2.387585  0.059506892   -3.1856557    0.7980707   426349 
 1082000   0.64225701   -3.1863965   -3.1863965   -2.3880195  0.059811284   -3.1863965   0.79837698   426349 
 1083000   0.64178332   -3.1856241   -3.1856241    -2.387836   0.04642276   -3.1856241   0.79778813   426349 
 1084000   0.64261263   -3.1861235   -3.1861235   -2.3873045  0.068825122   -3.1861235   0.79881904   426349 
 1085000    0.6433198   -3.1869248   -3.1869248   -2.3872267  0.051724415   -3.1869248   0.79969811   426349 
 1086000   0.64183145   -3.1857835   -3.1857835   -2.3879356  0.068422543   -3.1857835   0.79784797   426349 
 1087000   0.64313095   -3.1878344   -3.1878344   -2.3883711  0.069470165   -3.1878344   0.79946335   426349 
 1088000   0.64065077   -3.1861156   -3.1861156   -2.3897354  0.065806038   -3.1861156   0.79638028   426349 
 1089000   0.64200391   -3.1881846   -3.1881846   -2.3901223  0.058230697   -3.1881846   0.79806235   426349 
 1090000   0.64085106   -3.1866441   -3.1866441   -2.3900149   0.07039248   -3.1866441   0.79662927   426349 
 1091000   0.64211066   -3.1883133   -3.1883133   -2.3901182  0.063698014   -3.1883133   0.79819505   426349 
 1092000   0.64148069   -3.1881227   -3.1881227   -2.3907108  0.047496488   -3.1881227   0.79741195   426349 
 1093000   0.64105883   -3.1875699   -3.1875699   -2.3906823  0.053738034   -3.1875699   0.79688754   426349 
 1094000   0.64155818   -3.1884222   -3.1884222   -2.3909139  0.060101526   -3.1884222   0.79750827   426349 
 1095000   0.64209184   -3.1896025   -3.1896025   -2.3914308  0.062866082   -3.1896025   0.79817165   426349 
 1096000   0.64043662   -3.1880081   -3.1880081    -2.391894   0.06687188   -3.1880081   0.79611408   426349 
 1097000   0.64022129   -3.1889299   -3.1889299   -2.3930835  0.053175487   -3.1889299   0.79584641   426349 
 1098000   0.64019167   -3.1892887   -3.1892887   -2.3934791  0.059561014   -3.1892887   0.79580959   426349 
 1099000   0.64111227   -3.1906416   -3.1906416   -2.3936876   0.06519461   -3.1906416   0.79695396   426349 
 1100000   0.63929813   -3.1883166   -3.1883166   -2.3936177  0.070640761   -3.1883166   0.79469885   426349 
 1101000   0.63921276   -3.1880043   -3.1880043   -2.3934116  0.061945772   -3.1880043   0.79459272   426349 
 1102000   0.63976065   -3.1889001   -3.1889001   -2.3936263  0.064202983   -3.1889001    0.7952738   426349 
 1103000   0.64086025   -3.1905362   -3.1905362   -2.3938955  0.058408297   -3.1905362   0.79664068   426349 
 1104000   0.64059653   -3.1898214   -3.1898214   -2.3935086  0.052800808   -3.1898214   0.79631287   426349 
 1105000   0.64030795   -3.1892803   -3.1892803   -2.3933262  0.058169036   -3.1892803   0.79595413   426349 
 1106000   0.64070751   -3.1898574   -3.1898574   -2.3934066  0.060940914   -3.1898574   0.79645082   426349 
 1107000   0.64029244   -3.1898502   -3.1898502   -2.3939153  0.051140351   -3.1898502   0.79593485   426349 
 1108000   0.64053619   -3.1912034   -3.1912034   -2.3949656  0.065923097   -3.1912034   0.79623786   426349 
 1109000   0.64041599   -3.1910022   -3.1910022   -2.3949137  0.050540317   -3.1910022   0.79608844   426349 
 1110000   0.63977027   -3.1896466   -3.1896466   -2.3943608  0.069053503   -3.1896466   0.79528576   426349 
 1111000   0.63911365   -3.1897234   -3.1897234   -2.3952539  0.060785694   -3.1897234   0.79446952   426349 
 1112000   0.63912869   -3.1902042   -3.1902042    -2.395716  0.065916106   -3.1902042   0.79448822   426349 
 1113000   0.63966941    -3.190089    -3.190089   -2.3949286  0.055029015    -3.190089   0.79516038   426349 
 1114000    0.6401719   -3.1907179   -3.1907179   -2.3949329  0.058800168   -3.1907179   0.79578502   426349 
 1115000   0.63975818   -3.1899856   -3.1899856   -2.3947148  0.040048476   -3.1899856   0.79527073   426349 
 1116000    0.6397993   -3.1910468   -3.1910468   -2.3957249  0.053858262   -3.1910468   0.79532184   426349 
 1117000   0.64114178   -3.1927224   -3.1927224   -2.3957318  0.044325834   -3.1927224   0.79699065   426349 
 1118000   0.63897029   -3.1894569   -3.1894569   -2.3951656  0.068494199   -3.1894569   0.79429131   426349 
 1119000   0.63974801   -3.1908901   -3.1908901    -2.395632   0.06650013   -3.1908901   0.79525808   426349 
 1120000   0.64058478   -3.1917043   -3.1917043   -2.3954061  0.052615038   -3.1917043   0.79629826   426349 
 1121000   0.64078878   -3.1925769   -3.1925769    -2.396025  0.060007952   -3.1925769   0.79655184   426349 
 1122000   0.64010833   -3.1923247   -3.1923247   -2.3966187  0.054824774   -3.1923247   0.79570599   426349 
 1123000   0.64100198   -3.1934724   -3.1934724   -2.3966555   0.06159088   -3.1934724   0.79681686   426349 
 1124000    0.6402377   -3.1928981   -3.1928981   -2.3970313  0.055473339   -3.1928981    0.7958668   426349 
 1125000   0.64040632   -3.1939347   -3.1939347   -2.3978583   0.04430613   -3.1939347   0.79607642   426349 
 1126000   0.64018932    -3.193533    -3.193533   -2.3977263  0.061342029    -3.193533   0.79580667   426349 
 1127000   0.64008662    -3.194087    -3.194087    -2.398408  0.066494406    -3.194087   0.79567901   426349 
 1128000   0.63894488   -3.1931688   -3.1931688   -2.3989091  0.054798249   -3.1931688   0.79425973   426349 
 1129000   0.63856252   -3.1927968   -3.1927968   -2.3990124  0.060980011   -3.1927968   0.79378443   426349 
 1130000   0.63850574   -3.1929922   -3.1929922   -2.3992783  0.061418235   -3.1929922   0.79371384   426349 
 1131000   0.63789333   -3.1924464   -3.1924464   -2.3994939  0.048530617   -3.1924464   0.79295257   426349 
 1132000   0.63817408   -3.1928982   -3.1928982   -2.3995966  0.049349578   -3.1928982   0.79330157   426349 
 1133000   0.63969037   -3.1948411   -3.1948411   -2.3996547   0.05027342   -3.1948411   0.79518644   426349 
 1134000   0.63924777   -3.1947239   -3.1947239   -2.4000877  0.068530871   -3.1947239   0.79463625   426349 
 1135000   0.63744535   -3.1933234   -3.1933234   -2.4009278  0.060793098   -3.1933234   0.79239569   426349 
 1136000   0.63866506   -3.1946675   -3.1946675   -2.4007556  0.066708382   -3.1946675   0.79391189   426349 
 1137000   0.63737715   -3.1928533   -3.1928533   -2.4005424   0.06766313   -3.1928533   0.79231091   426349 
 1138000   0.63760849   -3.1937018   -3.1937018   -2.4011033  0.054227286   -3.1937018   0.79259849   426349 
 1139000   0.63784287    -3.193685    -3.193685   -2.4007951  0.064010386    -3.193685   0.79288984   426349 
 1140000   0.63867651   -3.1953375   -3.1953375   -2.4014114  0.042426948   -3.1953375   0.79392613   426349 
 1141000   0.63904986   -3.1958936   -3.1958936   -2.4015034  0.063678596   -3.1958936   0.79439023   426349 
 1142000   0.63820823     -3.19469     -3.19469    -2.401346   0.06064195     -3.19469   0.79334401   426349 
 1143000   0.63822699   -3.1945175   -3.1945175   -2.4011502  0.061759411   -3.1945175   0.79336733   426349 
 1144000   0.63801755   -3.1947772   -3.1947772   -2.4016702   0.05709759   -3.1947772   0.79310698   426349 
 1145000   0.63912654   -3.1964147   -3.1964147   -2.4019291  0.052647268   -3.1964147   0.79448555   426349 
 1146000   0.63814775   -3.1961269   -3.1961269   -2.4028581  0.058288203   -3.1961269   0.79326883   426349 
 1147000   0.63749141   -3.1952335   -3.1952335   -2.4027805  0.052239749   -3.1952335   0.79245295   426349 
 1148000   0.63861393   -3.1973315   -3.1973315   -2.4034831   0.06386469   -3.1973315   0.79384833   426349 
 1149000   0.63852934   -3.1970046   -3.1970046   -2.4032614  0.053392165   -3.1970046   0.79374318   426349 
 1150000   0.63818983   -3.1962646   -3.1962646   -2.4029435  0.060662019   -3.1962646   0.79332114   426349 
 1151000   0.63848503   -3.1968875   -3.1968875   -2.4031994  0.072149607   -3.1968875    0.7936881   426349 
 1152000   0.63967911   -3.1979628   -3.1979628   -2.4027904  0.058157245   -3.1979628   0.79517243   426349 
 1153000   0.63807862   -3.1963582   -3.1963582   -2.4031753  0.055861709   -3.1963582    0.7931829   426349 
 1154000   0.63764128   -3.1968866   -3.1968866   -2.4042474  0.052929731   -3.1968866   0.79263925   426349 
 1155000   0.63679334   -3.1972419   -3.1972419   -2.4056568  0.058534543   -3.1972419   0.79158519   426349 
 1156000   0.63703857   -3.1971208   -3.1971208   -2.4052308  0.052103581   -3.1971208   0.79189003   426349 
 1157000   0.63747866   -3.1983978   -3.1983978   -2.4059607  0.063160053   -3.1983978    0.7924371   426349 
 1158000    0.6365451   -3.1968099   -3.1968099   -2.4055333  0.067404155   -3.1968099   0.79127661   426349 
 1159000   0.63876272   -3.1995486   -3.1995486   -2.4055154  0.062051726   -3.1995486   0.79403329   426349 
 1160000   0.63798393   -3.1981374   -3.1981374   -2.4050723  0.054579898   -3.1981374   0.79306519   426349 
 1161000   0.63745495   -3.1981685   -3.1981685   -2.4057609  0.056787221   -3.1981685   0.79240762   426349 
 1162000   0.63706715     -3.19697     -3.19697   -2.4050445  0.055158209     -3.19697   0.79192555   426349 
 1163000   0.63816161   -3.1988404   -3.1988404   -2.4055544   0.05813919   -3.1988404   0.79328607   426349 
 1164000    0.6376628   -3.1987735   -3.1987735   -2.4061075  0.055377396   -3.1987735     0.792666   426349 
 1165000   0.63760925   -3.1987768   -3.1987768   -2.4061773  0.056068457   -3.1987768   0.79259943   426349 
 1166000   0.63736708   -3.1986046   -3.1986046   -2.4063062   0.04960978   -3.1986046    0.7922984   426349 
 1167000   0.63724773   -3.1988607   -3.1988607   -2.4067106  0.048716751   -3.1988607   0.79215004   426349 
 1168000   0.63707762    -3.198544    -3.198544   -2.4066054  0.046082726    -3.198544   0.79193857   426349 
 1169000   0.63587446   -3.1973963   -3.1973963   -2.4069534  0.049125315   -3.1973963   0.79044295   426349 
 1170000   0.63729329   -3.1990619   -3.1990619   -2.4068552  0.049829152   -3.1990619   0.79220667   426349 
 1171000   0.63716039   -3.1991111   -3.1991111   -2.4070697  0.058604566   -3.1991111   0.79204146   426349 
 1172000   0.63712204   -3.1985812   -3.1985812   -2.4065874   0.05830691   -3.1985812   0.79199379   426349 
 1173000   0.63627171   -3.1982767   -3.1982767   -2.4073399  0.048531833   -3.1982767   0.79093677   426349 
 1174000   0.63647812   -3.1980604   -3.1980604    -2.406867  0.063525228   -3.1980604   0.79119334   426349 
 1175000   0.63781081   -3.2011918   -3.2011918   -2.4083418  0.063465138   -3.2011918      0.79285   426349 
 1176000    0.6368207   -3.1996848   -3.1996848   -2.4080656  0.061980025   -3.1996848    0.7916192   426349 
 1177000   0.63821456   -3.2009442   -3.2009442   -2.4075923  0.049829301   -3.2009442   0.79335188   426349 
 1178000   0.63674603   -3.1993382   -3.1993382   -2.4078119  0.062483627   -3.1993382   0.79152638   426349 
 1179000   0.63695491   -3.2009743   -3.2009743   -2.4091883  0.056016681   -3.2009743   0.79178604   426349 
 1180000   0.63697151   -3.2013081   -3.2013081   -2.4095014  0.057304012   -3.2013081   0.79180667   426349 
 1181000   0.63634304   -3.2009906   -3.2009906   -2.4099651  0.041784974   -3.2009906   0.79102544   426349 
 1182000   0.63768386   -3.2027972   -3.2027972    -2.410105  0.059185822   -3.2027972   0.79269219   426349 
 1183000   0.63687621    -3.201057    -3.201057   -2.4093688  0.046837412    -3.201057    0.7916882   426349 
 1184000   0.63688348   -3.2020047   -3.2020047   -2.4103075   0.04590902   -3.2020047   0.79169725   426349 
 1185000   0.63580147   -3.2013418   -3.2013418   -2.4109896  0.058597325   -3.2013418   0.79035222   426349 
 1186000   0.63685522   -3.2025968   -3.2025968   -2.4109347  0.049565802   -3.2025968   0.79166211   426349 
 1187000   0.63676566   -3.2022043   -3.2022043   -2.4106535  0.051215592   -3.2022043   0.79155078   426349 
 1188000   0.63535817   -3.2017243   -3.2017243   -2.4119232  0.052449453   -3.2017243   0.78980117   426349 
 1189000   0.63553815   -3.2015723   -3.2015723   -2.4115474  0.061269116   -3.2015723    0.7900249   426349 
 1190000   0.63654933   -3.2027896   -3.2027896   -2.4115077  0.064622174   -3.2027896   0.79128187   426349 
 1191000   0.63569651   -3.2020525   -3.2020525   -2.4118308  0.069088955   -3.2020525   0.79022174   426349 
 1192000   0.63636961   -3.2031159   -3.2031159   -2.4120574  0.061800613   -3.2031159   0.79105846   426349 
 1193000   0.63816032   -3.2051948   -3.2051948   -2.4119104  0.058375737   -3.2051948   0.79328446   426349 
 1194000   0.63578638   -3.2037848   -3.2037848   -2.4134513  0.059087736   -3.2037848   0.79033345   426349 
 1195000   0.63525647    -3.203157    -3.203157   -2.4134822  0.067908985    -3.203157   0.78967474   426349 
 1196000   0.63579781   -3.2041889   -3.2041889   -2.4138412  0.045853432   -3.2041889   0.79034767   426349 
 1197000    0.6375492   -3.2056381   -3.2056381   -2.4131133  0.061908418   -3.2056381   0.79252478   426349 
 1198000   0.63672872   -3.2043204   -3.2043204   -2.4128155  0.060549434   -3.2043204   0.79150487   426349 
 1199000   0.63556291   -3.2034892   -3.2034892   -2.4134336   0.05106793   -3.2034892   0.79005567   426349 
 1200000   0.63580288   -3.2034018   -3.2034018   -2.4130478  0.067348866   -3.2034018   0.79035397   426349 
 1201000   0.63621165   -3.2049672   -3.2049672   -2.4141051   0.06179027   -3.2049672   0.79086211   426349 
 1202000   0.63594001   -3.2051196   -3.2051196   -2.4145951  0.063733077   -3.2051196   0.79052444   426349 
 1203000   0.63613153   -3.2048045   -3.2048045    -2.414042  0.051870657   -3.2048045   0.79076251   426349 
 1204000   0.63592867   -3.2047608   -3.2047608   -2.4142504  0.048887225   -3.2047608   0.79051034   426349 
 1205000   0.63636072   -3.2060062   -3.2060062   -2.4149588  0.045567601   -3.2060062   0.79104741   426349 
 1206000   0.63518895    -3.204481    -3.204481   -2.4148902  0.048394421    -3.204481    0.7895908   426349 
 1207000   0.63593149   -3.2058993   -3.2058993   -2.4153855  0.056946707   -3.2058993   0.79051384   426349 
 1208000   0.63542249   -3.2050442   -3.2050442   -2.4151631  0.053763771   -3.2050442   0.78988112   426349 
 1209000   0.63588505   -3.2069709   -3.2069709   -2.4165148   0.04670817   -3.2069709   0.79045611   426349 
 1210000   0.63478982    -3.205158    -3.205158   -2.4160634  0.050232576    -3.205158   0.78909465   426349 
 1211000   0.63537794   -3.2055475   -3.2055475   -2.4157218    0.0657275   -3.2055475   0.78982574   426349 
 1212000   0.63683259    -3.206698    -3.206698    -2.415064  0.052524763    -3.206698   0.79163399   426349 
 1213000   0.63621232   -3.2063582   -3.2063582   -2.4154952  0.055207334   -3.2063582   0.79086294   426349 
 1214000   0.63576122   -3.2051781   -3.2051781   -2.4148759   0.04779823   -3.2051781   0.79030218   426349 
 1215000   0.63676936   -3.2069408   -3.2069408   -2.4153854  0.055551701   -3.2069408   0.79155539   426349 
 1216000   0.63610456   -3.2069489   -3.2069489   -2.4162199  0.048517699   -3.2069489   0.79072899   426349 
 1217000   0.63574963   -3.2066897   -3.2066897   -2.4164019  0.045522559   -3.2066897   0.79028778   426349 
 1218000   0.63491668   -3.2056036   -3.2056036   -2.4163512  0.055472272   -3.2056036   0.78925235   426349 
 1219000   0.63578107   -3.2070412   -3.2070412   -2.4167144  0.056208895   -3.2070412   0.79032686   426349 
 1220000   0.63487107   -3.2059723   -3.2059723   -2.4167766  0.045537828   -3.2059723   0.78919565   426349 
 1221000   0.63452366    -3.204893    -3.204893   -2.4161292  0.048060591    -3.204893    0.7887638   426349 
 1222000   0.63520128   -3.2054886   -3.2054886   -2.4158825  0.055707489   -3.2054886   0.78960613   426349 
 1223000   0.63577197   -3.2073295   -3.2073295    -2.417014  0.065577115   -3.2073295   0.79031555   426349 
 1224000   0.63495854   -3.2069729   -3.2069729   -2.4176685  0.058100232   -3.2069729   0.78930439   426349 
 1225000   0.63537194    -3.207635    -3.207635   -2.4178167  0.059812207    -3.207635   0.78981828   426349 
 1226000   0.63513501   -3.2072741   -3.2072741   -2.4177504  0.056493761   -3.2072741   0.78952375   426349 
 1227000   0.63396282   -3.2057767   -3.2057767   -2.4177101  0.052134652   -3.2057767   0.78806663   426349 
 1228000    0.6343387   -3.2066272   -3.2066272   -2.4180934  0.049135628   -3.2066272   0.78853387   426349 
 1229000   0.63488312   -3.2074511   -3.2074511   -2.4182404  0.067144316   -3.2074511   0.78921064   426349 
 1230000    0.6349875   -3.2084042   -3.2084042   -2.4190638  0.056368964   -3.2084042   0.78934039   426349 
 1231000    0.6349924    -3.207401    -3.207401   -2.4180545  0.056189297    -3.207401   0.78934648   426349 
 1232000   0.63584544   -3.2082773   -3.2082773   -2.4178704  0.054716038   -3.2082773   0.79040687   426349 
 1233000   0.63486352   -3.2080185   -3.2080185   -2.4188323  0.049876831   -3.2080185   0.78918627   426349 
 1234000    0.6357384   -3.2100174   -3.2100174   -2.4197436  0.053384474   -3.2100174   0.79027381   426349 
 1235000    0.6351279   -3.2094197   -3.2094197   -2.4199048  0.059611747   -3.2094197   0.78951492   426349 
 1236000   0.63583645   -3.2102777   -3.2102777    -2.419882  0.064188079   -3.2102777    0.7903957   426349 
 1237000   0.63423738   -3.2087367   -3.2087367   -2.4203288  0.061618028   -3.2087367   0.78840793   426349 
 1238000   0.63526583    -3.210361    -3.210361   -2.4206746  0.053953224    -3.210361   0.78968637   426349 
 1239000    0.6358802   -3.2114252   -3.2114252   -2.4209751   0.04797539   -3.2114252   0.79045009   426349 
 1240000   0.63461988   -3.2090461   -3.2090461   -2.4201627  0.057076948   -3.2090461   0.78888341   426349 
 1241000   0.63543369   -3.2103492   -3.2103492   -2.4204541  0.065816695   -3.2103492   0.78989504   426349 
 1242000   0.63595656   -3.2110968   -3.2110968   -2.4205518  0.053317221   -3.2110968   0.79054501   426349 
 1243000   0.63399023   -3.2083373   -3.2083373   -2.4202366  0.052981637   -3.2083373    0.7881007   426349 
 1244000   0.63507044   -3.2099152   -3.2099152   -2.4204717  0.056581762   -3.2099152   0.78944349   426349 
 1245000   0.63381871   -3.2080924   -3.2080924   -2.4202049  0.055077117   -3.2080924   0.78788749   426349 
 1246000   0.63559916    -3.210401    -3.210401   -2.4203003  0.051466427    -3.210401   0.79010073   426349 
 1247000   0.63480017   -3.2096529   -3.2096529   -2.4205454  0.066355034   -3.2096529   0.78910753   426349 
 1248000   0.63529759   -3.2105568   -3.2105568    -2.420831  0.049667583   -3.2105568   0.78972586   426349 
 1249000   0.63488999   -3.2098561   -3.2098561   -2.4206369  0.046801246   -3.2098561   0.78921917   426349 
 1250000   0.63472371   -3.2094853   -3.2094853   -2.4204729  0.062986527   -3.2094853   0.78901248   426349 
 1251000   0.63449092   -3.2092522   -3.2092522   -2.4205291  0.045918492   -3.2092522    0.7887231   426349 
 1252000   0.63531655   -3.2100437   -3.2100437   -2.4202943   0.05682656   -3.2100437   0.78974942   426349 
 1253000    0.6343353    -3.209011    -3.209011   -2.4204814  0.066714829    -3.209011   0.78852965   426349 
 1254000   0.63358956   -3.2085009   -3.2085009   -2.4208982  0.054759218   -3.2085009   0.78760264   426349 
 1255000   0.63511034   -3.2104816   -3.2104816   -2.4209885  0.050477236   -3.2104816   0.78949309   426349 
 1256000   0.63390066   -3.2088507   -3.2088507   -2.4208614  0.054426192   -3.2088507   0.78798936   426349 
 1257000   0.63448116   -3.2099112   -3.2099112   -2.4212002  0.051443991   -3.2099112   0.78871097   426349 
 1258000   0.63461592   -3.2096242   -3.2096242   -2.4207457  0.046903467   -3.2096242   0.78887848   426349 
 1259000   0.63510959   -3.2098666   -3.2098666   -2.4203744  0.043755064   -3.2098666   0.78949215   426349 
 1260000   0.63522244   -3.2110589   -3.2110589   -2.4214264  0.057372938   -3.2110589   0.78963244   426349 
 1261000   0.63553974   -3.2110497   -3.2110497   -2.4210228  0.038626076   -3.2110497   0.79002687   426349 
 1262000   0.63510758   -3.2111979   -3.2111979   -2.4217082  0.061024401   -3.2111979   0.78948965   426349 
 1263000   0.63508606   -3.2122594   -3.2122594   -2.4227965  0.069043066   -3.2122594   0.78946291   426349 
 1264000   0.63421175   -3.2110363   -3.2110363   -2.4226603  0.050822477   -3.2110363   0.78837607   426349 
 1265000   0.63484901   -3.2121376   -3.2121376   -2.4229694  0.054387021   -3.2121376   0.78916823   426349 
 1266000   0.63445444   -3.2113542   -3.2113542   -2.4226765  0.061087834   -3.2113542   0.78867776   426349 
 1267000   0.63530536   -3.2132965   -3.2132965    -2.423561  0.043141706   -3.2132965   0.78973552   426349 
 1268000   0.63478547   -3.2121345   -3.2121345   -2.4230453  0.045967831   -3.2121345   0.78908924   426349 
 1269000   0.63486626   -3.2135297   -3.2135297     -2.42434  0.067218194   -3.2135297   0.78918968   426349 
 1270000   0.63444673   -3.2128338   -3.2128338   -2.4241656  0.042795437   -3.2128338   0.78866817   426349 
 1271000    0.6349227     -3.21348     -3.21348   -2.4242202  0.057105522     -3.21348   0.78925984   426349 
 1272000   0.63453743   -3.2132542   -3.2132542   -2.4244733  0.061642495   -3.2132542   0.78878091   426349 
 1273000   0.63505376   -3.2136474   -3.2136474   -2.4242246  0.060961408   -3.2136474   0.78942276   426349 
 1274000   0.63523542   -3.2143348   -3.2143348   -2.4246863  0.060673309   -3.2143348   0.78964857   426349 
 1275000   0.63583154   -3.2149672   -3.2149672   -2.4245776  0.052831404   -3.2149672    0.7903896   426349 
 1276000   0.63547287   -3.2150067   -3.2150067   -2.4250629  0.051143832   -3.2150067   0.78994374   426349 
 1277000   0.63561604   -3.2149526   -3.2149526   -2.4248309  0.042181062   -3.2149526   0.79012171   426349 
 1278000   0.63571676   -3.2147169   -3.2147169     -2.42447  0.055095018   -3.2147169   0.79024692   426349 
 1279000   0.63578341   -3.2158939   -3.2158939   -2.4255641  0.061854989   -3.2158939   0.79032976   426349 
 1280000   0.63497149   -3.2153668   -3.2153668   -2.4260463  0.063640551   -3.2153668   0.78932049   426349 
 1281000    0.6346742   -3.2149055   -3.2149055   -2.4259546  0.043393677   -3.2149055   0.78895093   426349 
 1282000   0.63455158    -3.214319    -3.214319   -2.4255205  0.048815129    -3.214319    0.7887985   426349 
 1283000   0.63497483   -3.2155919   -3.2155919   -2.4262673  0.046707913   -3.2155919   0.78932464   426349 
 1284000    0.6345858   -3.2151057   -3.2151057   -2.4262646  0.071354258   -3.2151057   0.78884105   426349 
 1285000   0.63364538   -3.2139421   -3.2139421   -2.4262701  0.047953778   -3.2139421   0.78767202   426349 
 1286000   0.63485312   -3.2151155   -3.2151155   -2.4259421   0.05486511   -3.2151155   0.78917334   426349 
 1287000    0.6359974   -3.2166395   -3.2166395   -2.4260437  0.050219699   -3.2166395   0.79059578   426349 
 1288000   0.63402504    -3.214222    -3.214222    -2.426078  0.055438174    -3.214222   0.78814397   426349 
 1289000   0.63430788   -3.2144556   -3.2144556     -2.42596  0.052591337   -3.2144556   0.78849556   426349 
 1290000   0.63451786   -3.2145229   -3.2145229   -2.4257664  0.047218796   -3.2145229   0.78875658   426349 
 1291000   0.63455333   -3.2140932   -3.2140932   -2.4252925  0.057547041   -3.2140932   0.78880068   426349 
 1292000   0.63457523   -3.2137337   -3.2137337   -2.4249058  0.048995064   -3.2137337   0.78882791   426349 
 1293000   0.63397501   -3.2137554   -3.2137554   -2.4256736   0.04580867   -3.2137554   0.78808179   426349 
 1294000   0.63452841   -3.2148415   -3.2148415   -2.4260718  0.051314455   -3.2148415    0.7887697   426349 
 1295000   0.63437921   -3.2157399   -3.2157399   -2.4271557  0.054178537   -3.2157399   0.78858423   426349 
 1296000   0.63427009   -3.2149418   -3.2149418   -2.4264932  0.056130142   -3.2149418   0.78844859   426349 
 1297000   0.63507501   -3.2163005   -3.2163005   -2.4268514  0.056836306   -3.2163005   0.78944917   426349 
 1298000   0.63449977   -3.2155762   -3.2155762   -2.4268421  0.054780497   -3.2155762    0.7887341   426349 
 1299000     0.634507   -3.2153941   -3.2153941    -2.426651   0.05174969   -3.2153941   0.78874309   426349 
 1300000   0.63551701   -3.2178184   -3.2178184   -2.4278198  0.044404309   -3.2178184   0.78999861   426349 
 1301000   0.63350367    -3.214837    -3.214837   -2.4273411  0.065411197    -3.214837   0.78749587   426349 
 1302000   0.63393255   -3.2153823   -3.2153823   -2.4273533  0.052887442   -3.2153823     0.788029   426349 
 1303000   0.63538198   -3.2175066   -3.2175066   -2.4276759  0.058104047   -3.2175066   0.78983076   426349 
 1304000   0.63439157   -3.2171448   -3.2171448   -2.4285452  0.056920022   -3.2171448    0.7885996   426349 
 1305000   0.63399721   -3.2170063   -3.2170063   -2.4288969  0.044198713   -3.2170063   0.78810937   426349 
 1306000   0.63588708   -3.2198721   -3.2198721   -2.4294134  0.056550547   -3.2198721   0.79045864   426349 
 1307000   0.63412627   -3.2176467   -3.2176467   -2.4293769  0.064221278   -3.2176467   0.78826982   426349 
 1308000   0.63404884   -3.2182045   -3.2182045    -2.430031   0.06722435   -3.2182045   0.78817356   426349 
 1309000   0.63397624   -3.2171212   -3.2171212   -2.4290379  0.060700994   -3.2171212   0.78808332   426349 
 1310000   0.63442097   -3.2176031   -3.2176031   -2.4289669  0.059963289   -3.2176031   0.78863615   426349 
 1311000   0.63474845   -3.2186806   -3.2186806   -2.4296374  0.061997137   -3.2186806   0.78904322   426349 
 1312000   0.63440967   -3.2181833   -3.2181833   -2.4295612  0.061547249   -3.2181833    0.7886221   426349 
 1313000    0.6340025   -3.2176339   -3.2176339   -2.4295179  0.059219535   -3.2176339   0.78811595   426349 
 1314000   0.63390183   -3.2181687   -3.2181687   -2.4301779  0.061755312   -3.2181687   0.78799081   426349 
 1315000   0.63341665    -3.217654    -3.217654   -2.4302663  0.069784093    -3.217654   0.78738769   426349 
 1316000   0.63479907   -3.2187479   -3.2187479   -2.4296417  0.057364904   -3.2187479   0.78910615   426349 
 1317000   0.63445128   -3.2182019   -3.2182019   -2.4295281  0.055218442   -3.2182019   0.78867382   426349 
 1318000   0.63377893   -3.2177947   -3.2177947   -2.4299567  0.046256069   -3.2177947   0.78783804   426349 
 1319000   0.63362366   -3.2175555   -3.2175555   -2.4299105  0.053422272   -3.2175555   0.78764503   426349 
 1320000   0.63465085   -3.2186059   -3.2186059    -2.429684    0.0501408   -3.2186059   0.78892191   426349 
 1321000   0.63367129   -3.2177699   -3.2177699   -2.4300657   0.05659006   -3.2177699   0.78770423   426349 
 1322000   0.63422145   -3.2186028   -3.2186028   -2.4302147  0.050344791   -3.2186028   0.78838813   426349 
 1323000    0.6335333   -3.2180738   -3.2180738   -2.4305411  0.056600274   -3.2180738    0.7875327   426349 
 1324000   0.63385551   -3.2187267   -3.2187267   -2.4307934  0.055554057   -3.2187267   0.78793323   426349 
 1325000   0.63347544   -3.2190813   -3.2190813   -2.4316205  0.048882461   -3.2190813   0.78746078   426349 
 1326000   0.63286696   -3.2190474   -3.2190474    -2.432343  0.050611941   -3.2190474   0.78670439   426349 
 1327000   0.63468653   -3.2205676   -3.2205676   -2.4316013  0.053433863   -3.2205676   0.78896626   426349 
 1328000   0.63453457   -3.2205914   -3.2205914    -2.431814  0.049826198   -3.2205914   0.78877736   426349 
 1329000    0.6345719   -3.2200918   -3.2200918   -2.4312681  0.059331701   -3.2200918   0.78882377   426349 
 1330000   0.63368146   -3.2185509   -3.2185509   -2.4308341  0.051314801   -3.2185509   0.78771687   426349 
 1331000   0.63396118   -3.2197075   -3.2197075   -2.4316429  0.050893764   -3.2197075   0.78806459   426349 
 1332000    0.6348876   -3.2203521   -3.2203521   -2.4311359   0.05985204   -3.2203521   0.78921621   426349 
 1333000   0.63480063   -3.2213358   -3.2213358   -2.4322277  0.061422758   -3.2213358    0.7891081   426349 
 1334000   0.63371661   -3.2202004   -3.2202004   -2.4324398  0.054713606   -3.2202004   0.78776057   426349 
 1335000   0.63369625   -3.2208227   -3.2208227   -2.4330874  0.046341827   -3.2208227   0.78773526   426349 
 1336000   0.63304417   -3.2207928   -3.2207928   -2.4338681  0.048683171   -3.2207928   0.78692467   426349 
 1337000   0.63339574   -3.2210128   -3.2210128   -2.4336511  0.050404903   -3.2210128    0.7873617   426349 
 1338000   0.63278047   -3.2203332   -3.2203332   -2.4337363  0.057948434   -3.2203332   0.78659687   426349 
 1339000   0.63418155   -3.2219385   -3.2219385   -2.4335999   0.04706975   -3.2219385   0.78833853   426349 
 1340000   0.63369037   -3.2209444   -3.2209444   -2.4332165  0.048756438   -3.2209444   0.78772795   426349 
 1341000   0.63204934   -3.2189243   -3.2189243   -2.4332363  0.053707035   -3.2189243   0.78568802   426349 
 1342000   0.63340818   -3.2217115   -3.2217115   -2.4343343  0.041049343   -3.2217115   0.78737716   426349 
 1343000    0.6326829   -3.2210773   -3.2210773   -2.4346017  0.052099554   -3.2210773   0.78647559   426349 
 1344000   0.63317616   -3.2215505   -3.2215505   -2.4344618  0.046474111   -3.2215505   0.78708875   426349 
 1345000   0.63346239   -3.2229252   -3.2229252   -2.4354807  0.046906877   -3.2229252   0.78744455   426349 
 1346000   0.63327574   -3.2223098   -3.2223098   -2.4350972  0.055557213   -3.2223098   0.78721254   426349 
 1347000   0.63485984   -3.2246752   -3.2246752   -2.4354935   0.05441933   -3.2246752    0.7891817   426349 
 1348000   0.63372163   -3.2225825   -3.2225825   -2.4348157  0.047889852   -3.2225825   0.78776681   426349 
 1349000   0.63285906    -3.222481    -3.222481   -2.4357864  0.051581281    -3.222481   0.78669457   426349 
 1350000   0.63286271   -3.2230661   -3.2230661    -2.436367  0.054797294   -3.2230661    0.7866991   426349 
 1351000   0.63369552   -3.2245591   -3.2245591   -2.4368247  0.058594086   -3.2245591   0.78773435   426349 
 1352000   0.63317884   -3.2237102   -3.2237102   -2.4366182  0.050240033   -3.2237102   0.78709208   426349 
 1353000   0.63371473   -3.2236763   -3.2236763   -2.4359181  0.068317615   -3.2236763   0.78775823   426349 
 1354000   0.63341931   -3.2245871   -3.2245871   -2.4371961  0.049286571   -3.2245871   0.78739101   426349 
 1355000   0.63400644   -3.2244525   -3.2244525   -2.4363317  0.051705281   -3.2244525   0.78812085   426349 
 1356000   0.63293138   -3.2234251   -3.2234251   -2.4366406  0.050114347   -3.2234251   0.78678446   426349 
 1357000   0.63174566   -3.2226332   -3.2226332   -2.4373227  0.058531966   -3.2226332   0.78531053   426349 
 1358000   0.63457838   -3.2267021   -3.2267021   -2.4378703  0.059456323   -3.2267021   0.78883182   426349 
 1359000   0.63340611   -3.2246144   -3.2246144   -2.4372398  0.060067208   -3.2246144    0.7873746   426349 
 1360000   0.63338408   -3.2256122   -3.2256122    -2.438265  0.058717558   -3.2256122    0.7873472   426349 
 1361000   0.63334883   -3.2258518   -3.2258518   -2.4385484  0.054685437   -3.2258518   0.78730339   426349 
 1362000   0.63361033   -3.2268241   -3.2268241   -2.4391957  0.035837969   -3.2268241   0.78762845   426349 
 1363000   0.63171307   -3.2246237   -3.2246237   -2.4393537  0.060208662   -3.2246237   0.78527001   426349 
 1364000   0.63292644   -3.2262097   -3.2262097   -2.4394314  0.053334941   -3.2262097   0.78677833   426349 
 1365000   0.63333794    -3.226448    -3.226448   -2.4391582   0.05592546    -3.226448   0.78728985   426349 
 1366000   0.63215516   -3.2259074   -3.2259074   -2.4400878  0.048811242   -3.2259074   0.78581956   426349 
 1367000   0.63231842   -3.2266503   -3.2266503   -2.4406278  0.046577585   -3.2266503   0.78602251   426349 
 1368000   0.63120206   -3.2255326   -3.2255326   -2.4408978  0.060157096   -3.2255326   0.78463478   426349 
 1369000   0.63271004   -3.2269146   -3.2269146   -2.4404053  0.051339748   -3.2269146   0.78650932   426349 
 1370000   0.63101191   -3.2249346   -3.2249346   -2.4405362  0.068877704   -3.2249346   0.78439841   426349 
 1371000   0.63263499   -3.2264333   -3.2264333   -2.4400173  0.054149075   -3.2264333   0.78641603   426349 
 1372000   0.63356527   -3.2274292   -3.2274292   -2.4398568  0.051527403   -3.2274292   0.78757245   426349 
 1373000   0.63068804   -3.2248908   -3.2248908    -2.440895  0.062014192   -3.2248908   0.78399582   426349 
 1374000   0.63139051   -3.2268446   -3.2268446   -2.4419756  0.055480332   -3.2268446   0.78486905   426349 
 1375000   0.63164188   -3.2268404   -3.2268404   -2.4416589  0.045541264   -3.2268404   0.78518151   426349 
 1376000   0.63101026   -3.2268074   -3.2268074    -2.442411  0.041623571   -3.2268074   0.78439636   426349 
 1377000    0.6320573   -3.2270319   -3.2270319    -2.441334  0.067928589   -3.2270319   0.78569792   426349 
 1378000   0.63101785   -3.2269877   -3.2269877    -2.442582  0.057636799   -3.2269877   0.78440579   426349 
 1379000   0.63202031    -3.227917    -3.227917   -2.4422651  0.055684577    -3.227917   0.78565193   426349 
 1380000   0.63260164   -3.2290539   -3.2290539   -2.4426794  0.049380623   -3.2290539   0.78637457   426349 
 1381000   0.63234415   -3.2289526   -3.2289526   -2.4428981  0.051529862   -3.2289526   0.78605449   426349 
 1382000    0.6304806    -3.226959    -3.226959   -2.4432211  0.055240106    -3.226959   0.78373795   426349 
 1383000   0.63195812   -3.2291008   -3.2291008   -2.4435262  0.054273966   -3.2291008   0.78557463   426349 
 1384000   0.63204351   -3.2297112   -3.2297112   -2.4440305  0.056459226   -3.2297112   0.78568077   426349 
 1385000   0.63085566   -3.2283208   -3.2283208   -2.4441167  0.055164751   -3.2283208   0.78420418   426349 
 1386000   0.63246388   -3.2299792   -3.2299792   -2.4437759  0.042513467   -3.2299792   0.78620333   426349 
 1387000   0.63352483   -3.2315969   -3.2315969   -2.4440747  0.056885195   -3.2315969   0.78752218   426349 
 1388000   0.63183775   -3.2294275   -3.2294275   -2.4440025  0.050528243   -3.2294275     0.785425   426349 
 1389000   0.63178101   -3.2289519   -3.2289519   -2.4435974  0.049673443   -3.2289519   0.78535447   426349 
 1390000   0.63233893   -3.2302275   -3.2302275   -2.4441795  0.057106999   -3.2302275   0.78604801   426349 
 1391000   0.63212499   -3.2306317   -3.2306317   -2.4448496  0.054147141   -3.2306317   0.78578206   426349 
 1392000   0.63217966    -3.230908    -3.230908    -2.445058  0.052271437    -3.230908   0.78585002   426349 
 1393000   0.63161642   -3.2300587   -3.2300587   -2.4449088  0.046864013   -3.2300587   0.78514986   426349 
 1394000   0.63250658   -3.2315832   -3.2315832   -2.4453268  0.063558167   -3.2315832   0.78625641   426349 
 1395000   0.63115697   -3.2297507   -3.2297507    -2.445172  0.051828173   -3.2297507   0.78457873   426349 
 1396000    0.6318261   -3.2299788   -3.2299788   -2.4445683  0.062556899   -3.2299788   0.78541051   426349 
 1397000   0.63191597   -3.2309223   -3.2309223   -2.4454001  0.049149342   -3.2309223   0.78552223   426349 
 1398000   0.63129157   -3.2296303   -3.2296303   -2.4448843  0.046488715   -3.2296303   0.78474605   426349 
 1399000   0.63193884   -3.2312618   -3.2312618   -2.4457112  0.056879249   -3.2312618   0.78555066   426349 
 1400000   0.63096027   -3.2307654   -3.2307654   -2.4464311   0.04438658   -3.2307654   0.78433422   426349 
 1401000   0.63056603   -3.2309131   -3.2309131    -2.447069  0.050881232   -3.2309131   0.78384415   426349 
 1402000   0.63060856   -3.2315997   -3.2315997   -2.4477026   0.05501433   -3.2315997   0.78389702   426349 
 1403000   0.63073303    -3.231656    -3.231656   -2.4476042  0.059963692    -3.231656   0.78405173   426349 
 1404000   0.63156339   -3.2324911   -3.2324911   -2.4474071  0.052767951   -3.2324911   0.78508395   426349 
 1405000   0.63092745   -3.2313408   -3.2313408   -2.4470473  0.051289669   -3.2313408   0.78429343   426349 
 1406000   0.63070577    -3.231282    -3.231282   -2.4472641   0.06258494    -3.231282   0.78401785   426349 
 1407000   0.63159716   -3.2316702   -3.2316702   -2.4465443  0.058187562   -3.2316702   0.78512592   426349 
 1408000   0.63081686   -3.2306189   -3.2306189    -2.446463  0.047744362   -3.2306189   0.78415594   426349 
 1409000   0.63084709   -3.2310466   -3.2310466    -2.446853  0.052549196   -3.2310466   0.78419353   426349 
 1410000   0.63172081   -3.2323911   -3.2323911   -2.4471115  0.056816884   -3.2323911   0.78527963   426349 
 1411000   0.62992144   -3.2292502   -3.2292502   -2.4462074   0.05525256   -3.2292502   0.78304286   426349 
 1412000   0.63214407   -3.2318896   -3.2318896   -2.4460839  0.044488705   -3.2318896   0.78580578   426349 
 1413000   0.63165411   -3.2318894   -3.2318894   -2.4466927  0.047380279   -3.2318894   0.78519672   426349 
 1414000   0.63146627   -3.2317269   -3.2317269   -2.4467637  0.049553373   -3.2317269   0.78496322   426349 
 1415000   0.63127991    -3.232044    -3.232044   -2.4473125  0.034473759    -3.232044   0.78473155   426349 
 1416000   0.63001627   -3.2313797   -3.2313797   -2.4482189  0.055730372   -3.2313797   0.78316075   426349 
 1417000   0.63078616   -3.2332704   -3.2332704   -2.4491526  0.060597932   -3.2332704   0.78411778   426349 
 1418000   0.63063912   -3.2336357   -3.2336357   -2.4497007  0.055644777   -3.2336357     0.783935   426349 
 1419000   0.63063938   -3.2329586   -3.2329586   -2.4490232  0.050991039   -3.2329586   0.78393533   426349 
 1420000   0.63157402   -3.2347165   -3.2347165   -2.4496193  0.059301129   -3.2347165   0.78509716   426349 
 1421000   0.63021782   -3.2329314   -3.2329314   -2.4495201  0.055477581   -3.2329314    0.7834113   426349 
 1422000    0.6297167   -3.2326534   -3.2326534    -2.449865  0.051616865   -3.2326534   0.78278836   426349 
 1423000   0.63166751   -3.2358689   -3.2358689   -2.4506555  0.055862931   -3.2358689   0.78521337   426349 
 1424000   0.63103844   -3.2348914   -3.2348914     -2.45046  0.054759268   -3.2348914   0.78443139   426349 
 1425000   0.63118231   -3.2346738   -3.2346738   -2.4500635  0.058128032   -3.2346738   0.78461023   426349 
 1426000    0.6310673   -3.2344946   -3.2344946   -2.4500274  0.045496851   -3.2344946   0.78446726   426349 
 1427000   0.63131128   -3.2350478   -3.2350478   -2.4502773  0.038110322   -3.2350478   0.78477055   426349 
 1428000   0.63169291   -3.2351702   -3.2351702   -2.4499253  0.045392184   -3.2351702   0.78524495   426349 
 1429000   0.63259001   -3.2360298   -3.2360298   -2.4496697  0.050101862   -3.2360298   0.78636011   426349 
 1430000   0.63059279   -3.2345745   -3.2345745   -2.4506971  0.056299175   -3.2345745   0.78387742   426349 
 1431000   0.63002032   -3.2336218   -3.2336218    -2.450456  0.061804739   -3.2336218   0.78316578   426349 
 1432000   0.62830677   -3.2320517   -3.2320517    -2.451016   0.04214315   -3.2320517    0.7810357   426349 
 1433000   0.63089908   -3.2356115   -3.2356115   -2.4513533  0.041679488   -3.2356115   0.78425816   426349 
 1434000   0.63077751    -3.235584    -3.235584    -2.451477  0.062796027    -3.235584   0.78410703   426349 
 1435000   0.63088384   -3.2349529   -3.2349529   -2.4507137  0.053246862   -3.2349529    0.7842392   426349 
 1436000   0.63075763   -3.2350034   -3.2350034   -2.4509211  0.045039376   -3.2350034   0.78408232   426349 
 1437000   0.62961765   -3.2349308   -3.2349308   -2.4522656  0.055031092   -3.2349308   0.78266524   426349 
 1438000   0.63107735   -3.2364694   -3.2364694   -2.4519897  0.053564444   -3.2364694   0.78447975   426349 
 1439000   0.63011329   -3.2352331   -3.2352331   -2.4519517  0.044946158   -3.2352331   0.78328135   426349 
 1440000   0.62955424   -3.2347774   -3.2347774    -2.452191  0.050639383   -3.2347774   0.78258641   426349 
 1441000   0.63107368   -3.2363004   -3.2363004   -2.4518252   0.05736078   -3.2363004   0.78447519   426349 
 1442000    0.6301161   -3.2356177   -3.2356177   -2.4523328  0.062372765   -3.2356177   0.78328484   426349 
 1443000   0.62902833   -3.2348956   -3.2348956   -2.4529629  0.045328343   -3.2348956   0.78193266   426349 
 1444000    0.6300552   -3.2362612   -3.2362612   -2.4530521  0.060788013   -3.2362612   0.78320914   426349 
 1445000   0.63022379   -3.2360467   -3.2360467    -2.452628  0.056299528   -3.2360467   0.78341871   426349 
 1446000   0.63090533   -3.2369295   -3.2369295   -2.4526636  0.044232024   -3.2369295   0.78426593   426349 
 1447000   0.62999901   -3.2362212   -3.2362212   -2.4530819  0.054022439   -3.2362212   0.78313929   426349 
 1448000   0.63045677    -3.237108    -3.237108   -2.4533997  0.052935272    -3.237108   0.78370832   426349 
 1449000   0.62983983   -3.2360141   -3.2360141   -2.4530726   0.05110799   -3.2360141   0.78294142   426349 
 1450000   0.62954054   -3.2358004   -3.2358004    -2.453231  0.056049308   -3.2358004   0.78256938   426349 
 1451000   0.63143561   -3.2389484   -3.2389484   -2.4540233  0.048015198   -3.2389484    0.7849251   426349 
 1452000    0.6300191   -3.2391579   -3.2391579   -2.4559936  0.050866749   -3.2391579   0.78316427   426349 
 1453000   0.63068444   -3.2390927   -3.2390927   -2.4551014  0.054106154   -3.2390927   0.78399134   426349 
 1454000   0.62983198   -3.2391445   -3.2391445   -2.4562129  0.053986384   -3.2391445   0.78293166   426349 
 1455000    0.6315846   -3.2415104   -3.2415104   -2.4564001  0.053483675   -3.2415104   0.78511031   426349 
 1456000   0.63023941   -3.2387733   -3.2387733   -2.4553351   0.05785206   -3.2387733   0.78343813   426349 
 1457000   0.63003261   -3.2388247   -3.2388247   -2.4556437  0.063603802   -3.2388247   0.78318106   426349 
 1458000   0.62968046   -3.2389207   -3.2389207   -2.4561774  0.056385758   -3.2389207   0.78274331   426349 
 1459000   0.63008936   -3.2389206   -3.2389206    -2.455669  0.061329176   -3.2389206   0.78325161   426349 
 1460000   0.62979364   -3.2377499   -3.2377499   -2.4548659  0.046484153   -3.2377499     0.782884   426349 
 1461000    0.6309732   -3.2399576   -3.2399576   -2.4556073  0.048972695   -3.2399576   0.78435029   426349 
 1462000   0.63090984   -3.2397376   -3.2397376   -2.4554661  0.053485847   -3.2397376   0.78427153   426349 
 1463000   0.63041051   -3.2393358   -3.2393358    -2.455685  0.059407907   -3.2393358   0.78365082   426349 
 1464000   0.62998338   -3.2397658   -3.2397658    -2.456646  0.057364211   -3.2397658   0.78311987   426349 
 1465000   0.62968567    -3.239382    -3.239382   -2.4566322  0.048753955    -3.239382   0.78274979   426349 
 1466000   0.63027411   -3.2402421   -3.2402421   -2.4567609  0.060835046   -3.2402421   0.78348126   426349 
 1467000   0.63005843   -3.2398661   -3.2398661    -2.456653  0.053023791   -3.2398661   0.78321317   426349 
 1468000   0.63145949   -3.2422149   -3.2422149   -2.4572601  0.054057451   -3.2422149   0.78495478   426349 
 1469000   0.62949563   -3.2402863   -3.2402863   -2.4577727  0.047940567   -3.2402863   0.78251355   426349 
 1470000   0.62972578   -3.2418575   -3.2418575   -2.4590578  0.048467132   -3.2418575   0.78279964   426349 
 1471000   0.62931261   -3.2414928   -3.2414928   -2.4592068  0.045430056   -3.2414928   0.78228604   426349 
 1472000     0.628508    -3.239789    -3.239789   -2.4585031   0.05578442    -3.239789   0.78128585   426349 
 1473000   0.62854776   -3.2400811   -3.2400811   -2.4587458  0.056779665   -3.2400811   0.78133527   426349 
 1474000    0.6306106    -3.242543    -3.242543   -2.4586435  0.044846545    -3.242543   0.78389955   426349 
 1475000   0.63026073   -3.2428783   -3.2428783   -2.4594137  0.040467784   -3.2428783   0.78346464   426349 
 1476000   0.62996295   -3.2417958   -3.2417958   -2.4587014  0.050966559   -3.2417958   0.78309447   426349 
 1477000   0.62924266   -3.2410521   -3.2410521    -2.458853  0.051113402   -3.2410521    0.7821991   426349 
 1478000   0.62993372   -3.2417155   -3.2417155   -2.4586573  0.043044863   -3.2417155   0.78305813   426349 
 1479000   0.62967705   -3.2414322   -3.2414322   -2.4586932  0.054106361   -3.2414322   0.78273908   426349 
 1480000   0.62968897   -3.2425879   -3.2425879    -2.459834  0.058335162   -3.2425879   0.78275389   426349 
 1481000   0.62843531    -3.240435    -3.240435   -2.4592395  0.059974743    -3.240435   0.78119548   426349 
 1482000   0.62876793   -3.2423383   -3.2423383   -2.4607294  0.065231104   -3.2423383   0.78160896   426349 
 1483000   0.62830105   -3.2416985   -3.2416985   -2.4606699  0.045990833   -3.2416985   0.78102859   426349 
 1484000   0.62822904   -3.2416373   -3.2416373   -2.4606982  0.069598873   -3.2416373   0.78093908   426349 
 1485000   0.62775773   -3.2414858   -3.2414858   -2.4611326  0.057826402   -3.2414858    0.7803532   426349 
 1486000   0.62953253   -3.2438283   -3.2438283   -2.4612689  0.049554091   -3.2438283   0.78255942   426349 
 1487000   0.63013754   -3.2451643   -3.2451643   -2.4618528  0.066235764   -3.2451643   0.78331149   426349 
 1488000   0.62851508   -3.2435099   -3.2435099   -2.4622153  0.045721582   -3.2435099   0.78129465   426349 
 1489000   0.62972239   -3.2443014   -3.2443014   -2.4615059   0.03560104   -3.2443014   0.78279543   426349 
 1490000   0.62911342   -3.2442903   -3.2442903   -2.4622519  0.049840374   -3.2442903   0.78203844   426349 
 1491000   0.62834694   -3.2425299   -3.2425299   -2.4614443  0.045131199   -3.2425299   0.78108564   426349 
 1492000   0.62982306   -3.2442023   -3.2442023   -2.4612817  0.060178122   -3.2442023   0.78292058   426349 
 1493000   0.62856042    -3.243314    -3.243314    -2.461963  0.054245045    -3.243314   0.78135102   426349 
 1494000   0.62853089   -3.2425997   -3.2425997   -2.4612854  0.058912039   -3.2425997    0.7813143   426349 
 1495000   0.62855422   -3.2422585   -3.2422585   -2.4609152  0.046508941   -3.2422585    0.7813433   426349 
 1496000   0.62953523    -3.243701    -3.243701   -2.4611382  0.056744638    -3.243701   0.78256278   426349 
 1497000   0.62871099   -3.2438258   -3.2438258   -2.4622876  0.041968198   -3.2438258   0.78153818   426349 
 1498000   0.62920415   -3.2442312   -3.2442312     -2.46208  0.049942709   -3.2442312   0.78215122   426349 
 1499000     0.629339   -3.2449052   -3.2449052   -2.4625863  0.054036196   -3.2449052   0.78231885   426349 
 1500000   0.62851743   -3.2445983   -3.2445983   -2.4633008  0.049975513   -3.2445983   0.78129757   426349 
 1501000   0.62995316   -3.2465301   -3.2465301   -2.4634478  0.049441201   -3.2465301    0.7830823   426349 
 1502000    0.6277217   -3.2444296   -3.2444296   -2.4641212  0.049012543   -3.2444296   0.78030842   426349 
 1503000   0.62766691   -3.2442152   -3.2442152   -2.4639749  0.046390673   -3.2442152   0.78024031   426349 
 1504000   0.62781201   -3.2435758   -3.2435758   -2.4631551  0.059824118   -3.2435758   0.78042068   426349 
 1505000   0.62883286   -3.2447359   -3.2447359   -2.4630462  0.057370888   -3.2447359   0.78168967   426349 
 1506000   0.62722743   -3.2434564   -3.2434564   -2.4637624  0.062020356   -3.2434564     0.779694   426349 
 1507000   0.62813652   -3.2448608   -3.2448608   -2.4640368  0.053556573   -3.2448608   0.78082406   426349 
 1508000    0.6280557   -3.2444967   -3.2444967   -2.4637731  0.046956557   -3.2444967    0.7807236   426349 
 1509000   0.62839602   -3.2457732   -3.2457732   -2.4646265  0.042419301   -3.2457732   0.78114665   426349 
 1510000   0.62768195   -3.2454059   -3.2454059   -2.4651469  0.048212376   -3.2454059     0.780259   426349 
 1511000   0.62875862   -3.2458892   -3.2458892   -2.4642918  0.047159642   -3.2458892   0.78159739   426349 
 1512000   0.62908304   -3.2463731   -3.2463731   -2.4643724  0.053812173   -3.2463731   0.78200068   426349 
 1513000   0.62846469   -3.2459827   -3.2459827   -2.4647507  0.051277397   -3.2459827   0.78123201   426349 
 1514000   0.62764769   -3.2458555   -3.2458555   -2.4656391  0.047974428   -3.2458555   0.78021641   426349 
 1515000   0.62930383   -3.2476993   -3.2476993   -2.4654242  0.051718368   -3.2476993   0.78227513   426349 
 1516000   0.62929884   -3.2480206   -3.2480206   -2.4657517  0.059175037   -3.2480206   0.78226893   426349 
 1517000   0.62911041   -3.2480211   -3.2480211   -2.4659864  0.046661152   -3.2480211   0.78203469   426349 
 1518000   0.62840545   -3.2473655   -3.2473655   -2.4662072   0.05803676   -3.2473655   0.78115837   426349 
 1519000   0.62838673   -3.2472728   -3.2472728   -2.4661377  0.042784951   -3.2472728   0.78113511   426349 
 1520000   0.62800488    -3.247311    -3.247311   -2.4666505  0.049741415    -3.247311   0.78066043   426349 
 1521000   0.62762959   -3.2467696   -3.2467696   -2.4665757  0.056544764   -3.2467696   0.78019391   426349 
 1522000   0.62847395   -3.2486529   -3.2486529   -2.4674094  0.038227188   -3.2486529   0.78124352   426349 
 1523000   0.62803424    -3.247339    -3.247339   -2.4666421  0.042560081    -3.247339   0.78069693   426349 
 1524000   0.62812698   -3.2473387   -3.2473387   -2.4665265  0.055246598   -3.2473387   0.78081221   426349 
 1525000   0.62878755   -3.2489912   -3.2489912   -2.4673579  0.052095695   -3.2489912   0.78163336   426349 
 1526000   0.62704527   -3.2465262   -3.2465262   -2.4670586  0.050063068   -3.2465262   0.77946756   426349 
 1527000   0.62787358   -3.2477614   -3.2477614   -2.4672642  0.051907797   -3.2477614   0.78049721   426349 
 1528000   0.62904635   -3.2490939   -3.2490939   -2.4671388  0.045122351   -3.2490939   0.78195507   426349 
 1529000   0.62787426   -3.2476533   -3.2476533   -2.4671552  0.042326758   -3.2476533   0.78049806   426349 
 1530000    0.6277823   -3.2479382   -3.2479382   -2.4675545  0.043525094   -3.2479382   0.78038375   426349 
 1531000   0.62726481   -3.2480378   -3.2480378   -2.4682974  0.034563045   -3.2480378   0.77974047   426349 
 1532000   0.62769787   -3.2474349   -3.2474349   -2.4671561  0.049710926   -3.2474349   0.78027879   426349 
 1533000   0.62726583   -3.2476154   -3.2476154   -2.4678737  0.051146863   -3.2476154   0.77974174   426349 
 1534000   0.62733045   -3.2480997   -3.2480997   -2.4682776  0.054580407   -3.2480997   0.77982206   426349 
 1535000   0.62742925   -3.2484455   -3.2484455   -2.4685007  0.049949135   -3.2484455   0.77994488   426349 
 1536000   0.62799846    -3.249488    -3.249488   -2.4688355   0.04985685    -3.249488   0.78065245   426349 
 1537000   0.62889914   -3.2503616   -3.2503616   -2.4685895  0.054054519   -3.2503616   0.78177207   426349 
 1538000    0.6271827   -3.2476552   -3.2476552   -2.4680168  0.043651447   -3.2476552    0.7796384   426349 
 1539000   0.62780475   -3.2491716   -3.2491716     -2.46876  0.044512643   -3.2491716   0.78041165   426349 
 1540000   0.62854747   -3.2498833   -3.2498833   -2.4685484   0.06019438   -3.2498833   0.78133491   426349 
 1541000   0.62746251   -3.2488964   -3.2488964   -2.4689102  0.039926202   -3.2488964   0.77998623   426349 
 1542000    0.6284936    -3.250192    -3.250192    -2.468924  0.049859288    -3.250192   0.78126795   426349 
 1543000   0.62907961   -3.2508474   -3.2508474    -2.468851  0.061132698   -3.2508474    0.7819964   426349 
 1544000   0.62894716   -3.2511599   -3.2511599   -2.4693282  0.038799295   -3.2511599   0.78183176   426349 
 1545000   0.62851188   -3.2508889   -3.2508889   -2.4695982  0.051009248   -3.2508889   0.78129067   426349 
 1546000   0.62874956   -3.2516417   -3.2516417   -2.4700555  0.049737967   -3.2516417   0.78158613   426349 
 1547000   0.62855069   -3.2515758   -3.2515758   -2.4702369  0.056949187   -3.2515758   0.78133891   426349 
 1548000   0.62803131   -3.2506387   -3.2506387   -2.4699454  0.038589404   -3.2506387   0.78069328   426349 
 1549000   0.62777832   -3.2506795   -3.2506795   -2.4703007  0.055559921   -3.2506795    0.7803788   426349 
 1550000   0.62658816   -3.2496315   -3.2496315   -2.4707322  0.043747734   -3.2496315   0.77889934   426349 
 1551000   0.62629389   -3.2496997   -3.2496997   -2.4711662  0.044752497   -3.2496997   0.77853353   426349 
 1552000   0.62593261    -3.249152    -3.249152   -2.4710676  0.053016069    -3.249152   0.77808444   426349 
 1553000   0.62706516   -3.2499717   -3.2499717   -2.4704794  0.046239243   -3.2499717   0.77949228   426349 
 1554000   0.62649217   -3.2504046   -3.2504046   -2.4716246  0.048709895   -3.2504046   0.77878001   426349 
 1555000   0.62775338   -3.2513649   -3.2513649   -2.4710171  0.053008766   -3.2513649    0.7803478   426349 
 1556000   0.62729497   -3.2508084   -3.2508084   -2.4710304  0.047598085   -3.2508084   0.77977796   426349 
 1557000   0.62652594   -3.2498506   -3.2498506   -2.4710287  0.046974849   -3.2498506   0.77882199   426349 
 1558000   0.62835174   -3.2518769   -3.2518769   -2.4707853  0.058543904   -3.2518769    0.7810916   426349 
 1559000    0.6285249   -3.2515117   -3.2515117   -2.4702048  0.047212126   -3.2515117   0.78130686   426349 
 1560000     0.626233   -3.2493899   -3.2493899   -2.4709321  0.045344233   -3.2493899   0.77845785   426349 
 1561000   0.62616499   -3.2499337   -3.2499337   -2.4715603    0.0378455   -3.2499337   0.77837331   426349 
 1562000    0.6264116   -3.2499419   -3.2499419   -2.4712621  0.049811869   -3.2499419   0.77867985   426349 
 1563000   0.62670889   -3.2509999   -3.2509999   -2.4719505  0.052906932   -3.2509999   0.77904941   426349 
 1564000   0.62737103   -3.2519616   -3.2519616    -2.472089  0.052575657   -3.2519616   0.77987251   426349 
 1565000   0.62646231   -3.2513063   -3.2513063   -2.4725635  0.048285266   -3.2513063   0.77874289   426349 
 1566000    0.6272628   -3.2519932   -3.2519932   -2.4722553  0.056371295   -3.2519932   0.77973796   426349 
 1567000   0.62858247   -3.2536296   -3.2536296   -2.4722511  0.045719495   -3.2536296   0.78137842   426349 
 1568000   0.62637947   -3.2513887   -3.2513887   -2.4727487  0.054102277   -3.2513887   0.77863992   426349 
 1569000   0.62614554   -3.2506302   -3.2506302    -2.472281  0.049357009   -3.2506302   0.77834912   426349 
 1570000   0.62600067   -3.2506616   -3.2506616   -2.4724925  0.050498196   -3.2506616   0.77816903   426349 
 1571000   0.62707395   -3.2523557   -3.2523557   -2.4728524   0.05008399   -3.2523557   0.77950321   426349 
 1572000   0.62727078   -3.2518549   -3.2518549   -2.4721071  0.053465571   -3.2518549   0.77974789   426349 
 1573000   0.62707214   -3.2517962   -3.2517962   -2.4722952  0.043050611   -3.2517962   0.77950096   426349 
 1574000   0.62826809   -3.2532157   -3.2532157   -2.4722281  0.043742771   -3.2532157   0.78098763   426349 
 1575000   0.62734124   -3.2529081   -3.2529081   -2.4730726  0.047876925   -3.2529081   0.77983547   426349 
 1576000   0.62731493   -3.2531633   -3.2531633   -2.4733605  0.052860478   -3.2531633   0.77980276   426349 
 1577000   0.62826539   -3.2543655   -3.2543655   -2.4733812  0.060450953   -3.2543655   0.78098427   426349 
 1578000   0.62734724   -3.2526643   -3.2526643   -2.4728213  0.037982504   -3.2526643   0.77984294   426349 
 1579000   0.62660929   -3.2530182   -3.2530182   -2.4740926  0.047036248   -3.2530182    0.7789256   426349 
 1580000   0.62713066   -3.2533642   -3.2533642   -2.4737905  0.050120131   -3.2533642   0.77957371   426349 
 1581000   0.62700581   -3.2530381   -3.2530381   -2.4736196  0.055879209   -3.2530381   0.77941851   426349 
 1582000   0.62634599   -3.2523737   -3.2523737   -2.4737754  0.046664956   -3.2523737   0.77859829   426349 
 1583000   0.62646968   -3.2533702   -3.2533702   -2.4746182  0.039884955   -3.2533702   0.77875205   426349 
 1584000   0.62630297    -3.253182    -3.253182   -2.4746371  0.056420595    -3.253182   0.77854482   426349 
 1585000   0.62719429   -3.2549528   -3.2549528      -2.4753  0.047588298   -3.2549528    0.7796528   426349 
 1586000   0.62645434   -3.2536159   -3.2536159   -2.4748829  0.050276528   -3.2536159   0.77873299   426349 
 1587000   0.62693663   -3.2546954   -3.2546954   -2.4753629  0.052958336   -3.2546954   0.77933251   426349 
 1588000   0.62757865   -3.2549669   -3.2549669   -2.4748363  0.063507238   -3.2549669   0.78013059   426349 
 1589000    0.6254972   -3.2530571   -3.2530571   -2.4755139  0.054223513   -3.2530571   0.77754318   426349 
 1590000   0.62652025      -3.2545      -3.2545   -2.4756851  0.060363944      -3.2545   0.77881492   426349 
 1591000   0.62645747   -3.2544608   -3.2544608   -2.4757239  0.057585465   -3.2544608   0.77873688   426349 
 1592000   0.62578982   -3.2540036   -3.2540036   -2.4760967  0.048625539   -3.2540036   0.77790693   426349 
 1593000   0.62636811   -3.2551643   -3.2551643   -2.4765385  0.059929608   -3.2551643   0.77862579   426349 
 1594000   0.62699622   -3.2555567   -3.2555567   -2.4761501  0.043542804   -3.2555567   0.77940659   426349 
 1595000      0.62615   -3.2543612   -3.2543612   -2.4760065   0.05313934   -3.2543612   0.77835467   426349 
 1596000   0.62584292   -3.2544239   -3.2544239   -2.4764509  0.038402598   -3.2544239   0.77797294   426349 
 1597000   0.62681606   -3.2549317   -3.2549317    -2.475749  0.054074838   -3.2549317   0.77918263   426349 
 1598000   0.62610979   -3.2544848   -3.2544848   -2.4761801  0.038478662   -3.2544848   0.77830468   426349 
 1599000   0.62555051   -3.2542786   -3.2542786   -2.4766691   0.05817338   -3.2542786   0.77760946   426349 
 1600000   0.62564531   -3.2550772   -3.2550772   -2.4773499  0.052891974   -3.2550772    0.7777273   426349 
 1601000   0.62566116   -3.2558912   -3.2558912   -2.4781442  0.052791133   -3.2558912     0.777747   426349 
 1602000   0.62681835   -3.2572774   -3.2572774   -2.4780919  0.048703831   -3.2572774   0.77918548   426349 
 1603000   0.62699557   -3.2565355   -3.2565355   -2.4771297  0.053141543   -3.2565355   0.77940577   426349 
 1604000   0.62680556    -3.256611    -3.256611   -2.4774414   0.04753027    -3.256611   0.77916958   426349 
 1605000   0.62703977   -3.2570756   -3.2570756   -2.4776148  0.057041531   -3.2570756   0.77946073   426349 
 1606000   0.62674213    -3.257268    -3.257268   -2.4781773  0.051806101    -3.257268   0.77909073   426349 
 1607000   0.62774185   -3.2594694   -3.2594694   -2.4791359  0.048019318   -3.2594694   0.78033346   426349 
 1608000   0.62620038   -3.2575587   -3.2575587   -2.4791414  0.055405766   -3.2575587    0.7784173   426349 
 1609000   0.62609902   -3.2574498   -3.2574498   -2.4791585  0.051511221   -3.2574498   0.77829129   426349 
 1610000   0.62517691   -3.2563805   -3.2563805   -2.4792355  0.058557487   -3.2563805   0.77714503   426349 
 1611000   0.62590203   -3.2576582   -3.2576582   -2.4796118  0.047198334   -3.2576582   0.77804642   426349 
 1612000   0.62555862   -3.2574552   -3.2574552   -2.4798357  0.049856413   -3.2574552   0.77761953   426349 
 1613000    0.6253583   -3.2567848   -3.2567848   -2.4794142  0.046808509   -3.2567848   0.77737052   426349 
 1614000   0.62617128    -3.257323    -3.257323   -2.4789419  0.057581995    -3.257323   0.77838111   426349 
 1615000   0.62599031   -3.2568546   -3.2568546   -2.4786984  0.065799479   -3.2568546   0.77815615   426349 
 1616000   0.62681029   -3.2571632   -3.2571632   -2.4779878   0.05709225   -3.2571632   0.77917545   426349 
 1617000   0.62567331   -3.2573899   -3.2573899   -2.4796278  0.048029831   -3.2573899   0.77776211   426349 
 1618000   0.62710841   -3.2590717   -3.2590717   -2.4795257  0.049075375   -3.2590717   0.77954604   426349 
 1619000   0.62699903   -3.2589271   -3.2589271    -2.479517  0.053515333   -3.2589271   0.77941008   426349 
 1620000   0.62696434    -3.259374    -3.259374   -2.4800071  0.059439546    -3.259374   0.77936696   426349 
 1621000   0.62682233   -3.2590258   -3.2590258   -2.4798354  0.047039215   -3.2590258   0.77919043   426349 
 1622000   0.62578207   -3.2581753   -3.2581753    -2.480278  0.064667522   -3.2581753    0.7778973   426349 
 1623000   0.62575366   -3.2587991   -3.2587991   -2.4809371  0.053506295   -3.2587991   0.77786199   426349 
 1624000   0.62725166   -3.2611961   -3.2611961   -2.4814719   0.04796063   -3.2611961   0.77972412   426349 
 1625000   0.62702189    -3.259673    -3.259673   -2.4802345  0.060008515    -3.259673    0.7794385   426349 
 1626000   0.62765506   -3.2607818   -3.2607818   -2.4805562  0.035511099   -3.2607818   0.78022557   426349 
 1627000   0.62587381   -3.2590454   -3.2590454    -2.481034  0.049481249   -3.2590454   0.77801134   426349 
 1628000   0.62535625   -3.2585343   -3.2585343   -2.4811663  0.045006899   -3.2585343   0.77736797   426349 
 1629000   0.62544198   -3.2594203   -3.2594203   -2.4819458  0.046672351   -3.2594203   0.77747454   426349 
 1630000   0.62556863   -3.2596728   -3.2596728   -2.4820408   0.05178475   -3.2596728   0.77763197   426349 
 1631000   0.62488175   -3.2593712   -3.2593712   -2.4825931  0.040882624   -3.2593712   0.77677813   426349 
 1632000   0.62471715   -3.2588172   -3.2588172   -2.4822437  0.044969444   -3.2588172   0.77657351   426349 
 1633000   0.62420738   -3.2583752   -3.2583752   -2.4824353  0.056008516   -3.2583752   0.77593983   426349 
 1634000   0.62462586   -3.2585731   -3.2585731   -2.4821131  0.049091446   -3.2585731   0.77646004   426349 
 1635000   0.62560167   -3.2598149   -3.2598149   -2.4821418  0.053492064   -3.2598149   0.77767304   426349 
 1636000   0.62551742   -3.2601196   -3.2601196   -2.4825513  0.044612666   -3.2601196   0.77756832   426349 
 1637000   0.62536035   -3.2604457   -3.2604457   -2.4830727   0.05121716   -3.2604457   0.77737307   426349 
 1638000   0.62507262   -3.2602774   -3.2602774    -2.483262  0.035619628   -3.2602774    0.7770154   426349 
 1639000   0.62582673   -3.2607847   -3.2607847   -2.4828319   0.04183267   -3.2607847   0.77795282   426349 
 1640000   0.62635928    -3.261112    -3.261112   -2.4824972  0.054895865    -3.261112   0.77861482   426349 
 1641000   0.62485392   -3.2590213   -3.2590213   -2.4822778  0.040814581   -3.2590213   0.77674353   426349 
 1642000   0.62601958   -3.2613025   -3.2613025     -2.48311  0.045570294   -3.2613025   0.77819254   426349 
 1643000   0.62528015   -3.2614431   -3.2614431   -2.4841697  0.053968929   -3.2614431   0.77727337   426349 
 1644000    0.6257154   -3.2624307   -3.2624307   -2.4846163  0.041029186   -3.2624307   0.77781442   426349 
 1645000   0.62584358   -3.2623762   -3.2623762   -2.4844024  0.046511367   -3.2623762   0.77797376   426349 
 1646000   0.62500188    -3.261745    -3.261745   -2.4848175  0.037425743    -3.261745   0.77692747   426349 
 1647000   0.62549168    -3.262332    -3.262332   -2.4847957  0.054495283    -3.262332   0.77753632   426349 
 1648000   0.62452806   -3.2616517   -3.2616517   -2.4853133  0.045589605   -3.2616517   0.77633847   426349 
 1649000   0.62530511   -3.2620916   -3.2620916   -2.4847872  0.034083042   -3.2620916    0.7773044   426349 
 1650000   0.62545389   -3.2622438   -3.2622438   -2.4847545  0.046876971   -3.2622438   0.77748934   426349 
 1651000   0.62495101   -3.2622494   -3.2622494   -2.4853852  0.053515145   -3.2622494   0.77686422   426349 
 1652000   0.62508117   -3.2630939   -3.2630939   -2.4860679  0.052503593   -3.2630939   0.77702603   426349 
 1653000   0.62431449   -3.2625971   -3.2625971   -2.4865241  0.052106324   -3.2625971   0.77607299   426349 
 1654000   0.62462321   -3.2631965   -3.2631965   -2.4867398  0.045409869   -3.2631965   0.77645674   426349 
 1655000   0.62464143   -3.2636266   -3.2636266   -2.4871472   0.06170477   -3.2636266    0.7764794   426349 
 1656000   0.62327906    -3.262189    -3.262189   -2.4874032  0.050878218    -3.262189   0.77478586   426349 
 1657000   0.62409035   -3.2628533   -3.2628533   -2.4870589  0.044411678   -3.2628533   0.77579436   426349 
 1658000    0.6240247   -3.2641669   -3.2641669   -2.4884542  0.050418467   -3.2641669   0.77571275   426349 
 1659000   0.62570014   -3.2656494   -3.2656494   -2.4878539  0.056379939   -3.2656494   0.77779546   426349 
 1660000   0.62376912   -3.2637742   -3.2637742   -2.4883791  0.046350828   -3.2637742   0.77539504   426349 
 1661000   0.62423418    -3.264684    -3.264684   -2.4887109  0.044540809    -3.264684   0.77597315   426349 
 1662000   0.62451839   -3.2640858   -3.2640858   -2.4877594  0.055146611   -3.2640858   0.77632645   426349 
 1663000    0.6249361   -3.2648061   -3.2648061   -2.4879604  0.060345187   -3.2648061   0.77684569   426349 
 1664000   0.62507462   -3.2649677   -3.2649677   -2.4879499  0.048840779   -3.2649677   0.77701788   426349 
 1665000   0.62488776   -3.2653109   -3.2653109   -2.4885253  0.045213511   -3.2653109    0.7767856   426349 
 1666000   0.62524217   -3.2656774   -3.2656774   -2.4884512  0.042567003   -3.2656774   0.77722616   426349 
 1667000   0.62427757   -3.2645595   -3.2645595   -2.4885324  0.053397158   -3.2645595   0.77602709   426349 
 1668000   0.62446144   -3.2655832   -3.2655832   -2.4893275    0.0491518   -3.2655832   0.77625565   426349 
 1669000   0.62522932   -3.2665384   -3.2665384   -2.4893282  0.051986976   -3.2665384   0.77721018   426349 
 1670000    0.6247049   -3.2663557   -3.2663557   -2.4897974   0.04566729   -3.2663557   0.77655829   426349 
 1671000   0.62421247   -3.2654816   -3.2654816   -2.4895354  0.047287319   -3.2654816   0.77594617   426349 
 1672000    0.6240501   -3.2652679   -3.2652679   -2.4895236  0.059944994   -3.2652679   0.77574432   426349 
 1673000   0.62451004   -3.2654252   -3.2654252   -2.4891091  0.049319213   -3.2654252   0.77631606   426349 
 1674000   0.62564343   -3.2672252   -3.2672252   -2.4895003   0.04974505   -3.2672252   0.77772496   426349 
 1675000   0.62418732   -3.2656185   -3.2656185   -2.4897036  0.060081419   -3.2656185    0.7759149   426349 
 1676000   0.62508847   -3.2668227   -3.2668227   -2.4897876    0.0457849   -3.2668227    0.7770351   426349 
 1677000   0.62536403   -3.2676603   -3.2676603   -2.4902827  0.043927992   -3.2676603   0.77737765   426349 
 1678000   0.62609836   -3.2690068   -3.2690068   -2.4907163  0.052327535   -3.2690068   0.77829047   426349 
 1679000   0.62402248   -3.2664424   -3.2664424   -2.4907324  0.055703699   -3.2664424   0.77570999   426349 
 1680000   0.62430079   -3.2667302   -3.2667302   -2.4906742  0.058470843   -3.2667302   0.77605595   426349 
 1681000   0.62379801   -3.2668187   -3.2668187   -2.4913877   0.04384364   -3.2668187   0.77543095   426349 
 1682000   0.62465012   -3.2676774   -3.2676774   -2.4911872   0.04419545   -3.2676774    0.7764902   426349 
 1683000   0.62344755   -3.2660727   -3.2660727   -2.4910774  0.044743095   -3.2660727   0.77499531   426349 
 1684000   0.62437698   -3.2674879   -3.2674879   -2.4913372  0.049861955   -3.2674879   0.77615066   426349 
 1685000   0.62354037   -3.2664592   -3.2664592   -2.4913486  0.046977755   -3.2664592   0.77511068   426349 
 1686000   0.62465767   -3.2674374   -3.2674374   -2.4909378  0.048147466   -3.2674374   0.77649959   426349 
 1687000   0.62419921   -3.2668178   -3.2668178   -2.4908882  0.040741625   -3.2668178   0.77592968   426349 
 1688000   0.62376215   -3.2653765   -3.2653765   -2.4899901   0.04931211   -3.2653765   0.77538638   426349 
 1689000   0.62333131   -3.2665118   -3.2665118    -2.491661  0.050109076   -3.2665118   0.77485081   426349 
 1690000   0.62394164   -3.2669347   -3.2669347   -2.4913252  0.048164769   -3.2669347    0.7756095   426349 
 1691000   0.62251191   -3.2659446   -3.2659446   -2.4921123  0.046496172   -3.2659446   0.77383223   426349 
 1692000   0.62247024   -3.2655739   -3.2655739   -2.4917935   0.06235385   -3.2655739   0.77378043   426349 
 1693000   0.62346901   -3.2668908   -3.2668908   -2.4918688  0.049542505   -3.2668908   0.77502198   426349 
 1694000   0.62417867   -3.2674686   -3.2674686   -2.4915644  0.044516387   -3.2674686   0.77590414   426349 
 1695000   0.62277549   -3.2658076   -3.2658076   -2.4916478  0.040921594   -3.2658076   0.77415988   426349 
 1696000   0.62310987     -3.26654     -3.26654   -2.4919645  0.044288652     -3.26654   0.77457554   426349 
 1697000   0.62434052   -3.2686101   -3.2686101   -2.4925047  0.042153985   -3.2686101   0.77610534   426349 
 1698000    0.6233748    -3.267348    -3.267348   -2.4924432  0.047546101    -3.267348   0.77490487   426349 
 1699000    0.6244854   -3.2682549   -3.2682549   -2.4919695  0.041728425   -3.2682549   0.77628543   426349 
 1700000   0.62445441   -3.2680024   -3.2680024   -2.4917554   0.06238599   -3.2680024   0.77624691   426349 
 1701000   0.62498449   -3.2696415   -3.2696415   -2.4927357  0.047484883   -3.2696415   0.77690585   426349 
 1702000   0.62273331   -3.2675364   -3.2675364    -2.493429  0.041353655   -3.2675364   0.77410745   426349 
 1703000   0.62372308   -3.2683427   -3.2683427   -2.4930049  0.061574443   -3.2683427   0.77533781   426349 
 1704000   0.62418945   -3.2689134   -3.2689134   -2.4929958  0.044851382   -3.2689134   0.77591755   426349 
 1705000   0.62540842   -3.2700837   -3.2700837   -2.4926509  0.053173228   -3.2700837   0.77743283   426349 
 1706000   0.62484783   -3.2699065   -3.2699065   -2.4931705  0.051687405   -3.2699065   0.77673597   426349 
 1707000   0.62488691   -3.2701645   -3.2701645   -2.4933799  0.040729715   -3.2701645   0.77678454   426349 
 1708000   0.62361491   -3.2687928   -3.2687928   -2.4935894  0.044471733   -3.2687928   0.77520335   426349 
 1709000    0.6246916   -3.2699212   -3.2699212   -2.4933795  0.050975708   -3.2699212   0.77654176   426349 
 1710000   0.62433936   -3.2700021   -3.2700021   -2.4938982  0.054091448   -3.2700021    0.7761039   426349 
 1711000    0.6222923   -3.2677955   -3.2677955   -2.4942363  0.037054276   -3.2677955   0.77355924   426349 
 1712000   0.62354509   -3.2693962   -3.2693962   -2.4942797  0.048774098   -3.2693962   0.77511655   426349 
 1713000   0.62405518    -3.270365    -3.270365   -2.4946144  0.041495728    -3.270365   0.77575063   426349 
 1714000   0.62483167   -3.2711974   -3.2711974   -2.4944815  0.040557464   -3.2711974   0.77671588   426349 
 1715000   0.62383186   -3.2701183   -3.2701183   -2.4946453  0.056402186   -3.2701183   0.77547303   426349 
 1716000   0.62293335   -3.2694917   -3.2694917   -2.4951356  0.045160487   -3.2694917   0.77435612   426349 
 1717000   0.62370767   -3.2711015   -3.2711015   -2.4957829  0.045065781   -3.2711015   0.77531865   426349 
 1718000   0.62437069   -3.2707912   -3.2707912   -2.4946483  0.045156051   -3.2707912   0.77614285   426349 
 1719000   0.62446562   -3.2717691   -3.2717691   -2.4955083  0.062833743   -3.2717691   0.77626084   426349 
 1720000   0.62350974   -3.2708858   -3.2708858   -2.4958131   0.04930297   -3.2708858   0.77507261   426349 
 1721000   0.62377441   -3.2710382   -3.2710382   -2.4956365  0.048035925   -3.2710382   0.77540162   426349 
 1722000   0.62376705   -3.2706763   -3.2706763   -2.4952838  0.059100265   -3.2706763   0.77539247   426349 
 1723000   0.62350943   -3.2703207   -3.2703207   -2.4952484  0.050812458   -3.2703207   0.77507223   426349 
 1724000   0.62340057   -3.2708832   -3.2708832   -2.4959463  0.046698211   -3.2708832    0.7749369   426349 
 1725000   0.62352381   -3.2705175   -3.2705175   -2.4954274  0.050194888   -3.2705175   0.77509011   426349 
 1726000   0.62312658   -3.2699212   -3.2699212   -2.4953249  0.051307398   -3.2699212   0.77459631   426349 
 1727000   0.62385651   -3.2713724   -3.2713724   -2.4958687  0.043941499   -3.2713724   0.77550367   426349 
 1728000   0.62300826   -3.2705597   -3.2705597   -2.4961105  0.049985371   -3.2705597   0.77444923   426349 
 1729000   0.62345909   -3.2713239   -3.2713239   -2.4963142   0.04723959   -3.2713239   0.77500964   426349 
 1730000   0.62297761    -3.270659    -3.270659   -2.4962479  0.043219087    -3.270659   0.77441113   426349 
 1731000   0.62364619   -3.2713526   -3.2713526   -2.4961103  0.039080883   -3.2713526   0.77524223   426349 
 1732000   0.62431528   -3.2722695   -3.2722695   -2.4961956  0.053082135   -3.2722695   0.77607396   426349 
 1733000   0.62378723   -3.2718906   -3.2718906   -2.4964731  0.051394782   -3.2718906   0.77541756   426349 
 1734000   0.62303471   -3.2708111   -3.2708111    -2.496329  0.047339295   -3.2708111   0.77448211   426349 
 1735000   0.62491819    -3.273421    -3.273421   -2.4965976  0.055693635    -3.273421   0.77682343   426349 
 1736000   0.62300397   -3.2711126   -3.2711126   -2.4966687  0.051504431   -3.2711126    0.7744439   426349 
 1737000   0.62367612   -3.2716675   -3.2716675   -2.4963881  0.056510565   -3.2716675   0.77527943   426349 
 1738000   0.62284965   -3.2713974   -3.2713974   -2.4971453  0.056053983   -3.2713974   0.77425206   426349 
 1739000   0.62275474   -3.2713912   -3.2713912   -2.4972571  0.042278008   -3.2713912   0.77413409   426349 
 1740000   0.62286577    -3.271818    -3.271818   -2.4975459  0.050154374    -3.271818    0.7742721   426349 
 1741000   0.62231517    -3.271782    -3.271782   -2.4981943  0.042886585    -3.271782   0.77358766   426349 
 1742000   0.62325088    -3.272173    -3.272173   -2.4974222   0.05463519    -3.272173   0.77475082   426349 
 1743000   0.62428407   -3.2731337   -3.2731337   -2.4970985  0.050599582   -3.2731337   0.77603517   426349 
 1744000   0.62352271   -3.2729411   -3.2729411   -2.4978524  0.055312823   -3.2729411   0.77508874   426349 
 1745000   0.62375314   -3.2727819   -3.2727819   -2.4974067  0.054824382   -3.2727819   0.77537518   426349 
 1746000   0.62353689    -3.273272    -3.273272   -2.4981657  0.045461184    -3.273272   0.77510636   426349 
 1747000   0.62306262   -3.2729356   -3.2729356   -2.4984188  0.044394394   -3.2729356    0.7745168   426349 
 1748000   0.62305642   -3.2729058   -3.2729058   -2.4983967  0.047765288   -3.2729058    0.7745091   426349 
 1749000   0.62351603   -3.2733938   -3.2733938   -2.4983134  0.050307582   -3.2733938   0.77508043   426349 
 1750000   0.62264395   -3.2721402   -3.2721402   -2.4981438  0.045793372   -3.2721402   0.77399636   426349 
 1751000    0.6230336   -3.2728206   -3.2728206   -2.4983399  0.042491039   -3.2728206   0.77448073   426349 
 1752000   0.62325759   -3.2720631   -3.2720631    -2.497304  0.046335725   -3.2720631   0.77475917   426349 
 1753000   0.62326556   -3.2733075   -3.2733075   -2.4985384  0.045847451   -3.2733075   0.77476907   426349 
 1754000   0.62193343   -3.2711443   -3.2711443   -2.4980311  0.054379667   -3.2711443   0.77311313   426349 
 1755000   0.62343749   -3.2722886   -3.2722886   -2.4973058  0.049662174   -3.2722886    0.7749828   426349 
 1756000   0.62359918   -3.2729754   -3.2729754   -2.4977916   0.04620267   -3.2729754   0.77518379   426349 
 1757000   0.62434446   -3.2735988   -3.2735988   -2.4974886  0.044764132   -3.2735988   0.77611023   426349 
 1758000   0.62238429   -3.2715662   -3.2715662   -2.4978927  0.040756592   -3.2715662   0.77367359   426349 
 1759000   0.62349499   -3.2729095   -3.2729095   -2.4978553  0.051338165   -3.2729095   0.77505428   426349 
 1760000   0.62351392   -3.2731114   -3.2731114   -2.4980336  0.040118769   -3.2731114    0.7750778   426349 
 1761000   0.62306514   -3.2731324   -3.2731324   -2.4986124  0.045189856   -3.2731324   0.77451994   426349 
 1762000   0.62346691   -3.2734522   -3.2734522   -2.4984329   0.04128924   -3.2734522   0.77501937   426349 
 1763000   0.62346479   -3.2737977   -3.2737977    -2.498781   0.04379582   -3.2737977   0.77501673   426349 
 1764000   0.62345844   -3.2740468   -3.2740468    -2.499038  0.037617946   -3.2740468   0.77500884   426349 
 1765000   0.62336339   -3.2741423   -3.2741423   -2.4992516  0.045857777   -3.2741423   0.77489069   426349 
 1766000   0.62302555   -3.2743827   -3.2743827    -2.499912  0.048730676   -3.2743827   0.77447072   426349 
 1767000   0.62257221   -3.2732525   -3.2732525   -2.4993453  0.032587032   -3.2732525   0.77390719   426349 
 1768000   0.62274782   -3.2735432   -3.2735432   -2.4994177  0.045380395   -3.2735432   0.77412549   426349 
 1769000   0.62352699   -3.2749201   -3.2749201   -2.4998261  0.051410672   -3.2749201   0.77509405   426349 
 1770000   0.62305045   -3.2740992   -3.2740992   -2.4995975   0.05025326   -3.2740992   0.77450167   426349 
 1771000   0.62342223   -3.2746604   -3.2746604   -2.4996966  0.049040053   -3.2746604   0.77496383   426349 
 1772000   0.62497608   -3.2763402   -3.2763402   -2.4994448  0.050871238   -3.2763402   0.77689539   426349 
 1773000   0.62433365   -3.2750591   -3.2750591   -2.4989623  0.050914544   -3.2750591    0.7760968   426349 
 1774000   0.62354462   -3.2742273   -3.2742273   -2.4991113  0.048513216   -3.2742273   0.77511597   426349 
 1775000    0.6232814   -3.2749415   -3.2749415   -2.5001528  0.049131642   -3.2749415   0.77478877   426349 
 1776000   0.62353468   -3.2753789   -3.2753789   -2.5002753  0.053132365   -3.2753789   0.77510361   426349 
 1777000   0.62392088   -3.2760902   -3.2760902   -2.5005065  0.052253415   -3.2760902   0.77558369   426349 
 1778000   0.62309855   -3.2755427   -3.2755427   -2.5009813  0.046624931   -3.2755427   0.77456147   426349 
 1779000   0.62293406   -3.2743169   -3.2743169   -2.4999599   0.05690502   -3.2743169     0.774357   426349 
 1780000   0.62431178   -3.2771424   -3.2771424   -2.5010728  0.049208436   -3.2771424   0.77606961   426349 
 1781000   0.62366644    -3.276055    -3.276055   -2.5007876  0.050390025    -3.276055    0.7752674   426349 
 1782000   0.62437367   -3.2773671   -3.2773671   -2.5012206  0.046560505   -3.2773671   0.77614655   426349 
 1783000   0.62284075   -3.2758796   -3.2758796   -2.5016386   0.04501826   -3.2758796   0.77424101   426349 
 1784000    0.6225804   -3.2760512   -3.2760512   -2.5021338  0.050630649   -3.2760512   0.77391736   426349 
 1785000   0.62255821   -3.2764101   -3.2764101   -2.5025203  0.043938179   -3.2764101   0.77388978   426349 
 1786000   0.62332919   -3.2777043   -3.2777043   -2.5028562  0.034172855   -3.2777043   0.77484817   426349 
 1787000   0.62387542   -3.2779591   -3.2779591   -2.5024319  0.046106968   -3.2779591   0.77552718   426349 
 1788000   0.62315497   -3.2769931   -3.2769931   -2.5023615   0.05947713   -3.2769931   0.77463161   426349 
 1789000   0.62310355   -3.2764655   -3.2764655   -2.5018978  0.045820838   -3.2764655   0.77456769   426349 
 1790000    0.6228838   -3.2767924   -3.2767924   -2.5024979  0.050148328   -3.2767924   0.77429452   426349 
 1791000   0.62438548   -3.2785659   -3.2785659   -2.5024047   0.04138514   -3.2785659   0.77616123   426349 
 1792000   0.62461245   -3.2786223   -3.2786223   -2.5021789  0.042699302   -3.2786223   0.77644336   426349 
 1793000   0.62239884   -3.2770701   -3.2770701   -2.5033784   0.04706917   -3.2770701   0.77369168   426349 
 1794000   0.62267827   -3.2779659   -3.2779659   -2.5039269  0.042160956   -3.2779659   0.77403903   426349 
 1795000   0.62213204   -3.2767345   -3.2767345   -2.5033745  0.044423761   -3.2767345   0.77336002   426349 
 1796000   0.62227169   -3.2771117   -3.2771117    -2.503578  0.052560887   -3.2771117   0.77353362   426349 
 1797000   0.62269776   -3.2780805   -3.2780805   -2.5040172  0.065228496   -3.2780805   0.77406325   426349 
 1798000    0.6225283     -3.27819     -3.27819   -2.5043374  0.046498556     -3.27819   0.77385261   426349 
 1799000   0.62236374   -3.2771828   -3.2771828   -2.5035348   0.04615426   -3.2771828   0.77364805   426349 
 1800000   0.62405371   -3.2792739   -3.2792739   -2.5035251  0.039948022   -3.2792739   0.77574882   426349 
 1801000   0.62377854   -3.2789521   -3.2789521   -2.5035453  0.047945263   -3.2789521   0.77540675   426349 
 1802000   0.62234836   -3.2779682   -3.2779682   -2.5043393  0.037075685   -3.2779682   0.77362892   426349 
 1803000   0.62296756   -3.2789724   -3.2789724   -2.5045737  0.044402348   -3.2789724   0.77439864   426349 
 1804000   0.62150107    -3.277714    -3.277714   -2.5051383  0.055026203    -3.277714   0.77257568   426349 
 1805000   0.62237327   -3.2781647   -3.2781647   -2.5045049   0.05246182   -3.2781647   0.77365989   426349 
 1806000   0.62190805   -3.2777425   -3.2777425   -2.5046609  0.052187468   -3.2777425   0.77308158   426349 
 1807000   0.62129434   -3.2766793   -3.2766793   -2.5043606  0.040436972   -3.2766793    0.7723187   426349 
 1808000   0.62128205   -3.2767199   -3.2767199   -2.5044165  0.037769367   -3.2767199   0.77230341   426349 
 1809000   0.62113889   -3.2755028   -3.2755028   -2.5033773   0.04996958   -3.2755028   0.77212546   426349 
 1810000   0.62181943   -3.2766861   -3.2766861   -2.5037147  0.055539452   -3.2766861   0.77297142   426349 
 1811000   0.62133219   -3.2758705   -3.2758705   -2.5035048  0.048869757   -3.2758705   0.77236575   426349 
 1812000   0.62321502    -3.278253    -3.278253   -2.5035467    0.0492595    -3.278253   0.77470625   426349 
 1813000   0.62215398   -3.2781155   -3.2781155   -2.5047282   0.04126476   -3.2781155   0.77338729   426349 
 1814000   0.62167945   -3.2781016   -3.2781016   -2.5053042   0.04716159   -3.2781016   0.77279742   426349 
 1815000   0.62203321   -3.2786487   -3.2786487   -2.5054115   0.05604361   -3.2786487   0.77323717   426349 
 1816000   0.62316449   -3.2804106   -3.2804106   -2.5057672  0.043667149   -3.2804106   0.77464344   426349 
 1817000   0.62196713   -3.2787421   -3.2787421    -2.505587  0.041306377   -3.2787421   0.77315502   426349 
 1818000   0.62229281   -3.2794061   -3.2794061   -2.5058462   0.04954467   -3.2794061   0.77355988   426349 
 1819000   0.62208606    -3.278455    -3.278455   -2.5051522  0.049780823    -3.278455   0.77330286   426349 
 1820000   0.62288888   -3.2795691   -3.2795691   -2.5052683  0.049084011   -3.2795691   0.77430083   426349 
 1821000   0.62335378   -3.2798242   -3.2798242   -2.5049455  0.044713459   -3.2798242   0.77487875   426349 
 1822000   0.62311157   -3.2803505   -3.2803505   -2.5057728  0.047679483   -3.2803505   0.77457766   426349 
 1823000   0.62355277   -3.2807937   -3.2807937   -2.5056676  0.044527753   -3.2807937   0.77512611   426349 
 1824000   0.62359864   -3.2811305   -3.2811305   -2.5059474  0.051459392   -3.2811305   0.77518312   426349 
 1825000   0.62214245   -3.2792548   -3.2792548   -2.5058818  0.053190747   -3.2792548   0.77337296   426349 
 1826000    0.6229428   -3.2808097   -3.2808097   -2.5064419  0.060618393   -3.2808097   0.77436786   426349 
 1827000   0.62230586   -3.2805536   -3.2805536   -2.5069775  0.041431898   -3.2805536   0.77357609   426349 
 1828000   0.62235203   -3.2807246   -3.2807246   -2.5070911  0.035241859   -3.2807246   0.77363349   426349 
 1829000    0.6215052   -3.2797476   -3.2797476   -2.5071668  0.050351788   -3.2797476    0.7725808   426349 
 1830000   0.62137252   -3.2802728   -3.2802728   -2.5078569  0.043734079   -3.2802728   0.77241588   426349 
 1831000   0.62124603   -3.2796659   -3.2796659   -2.5074073   0.03748271   -3.2796659   0.77225863   426349 
 1832000   0.62175101   -3.2796301   -3.2796301   -2.5067437  0.047316235   -3.2796301   0.77288637   426349 
 1833000   0.62263278   -3.2805044   -3.2805044    -2.506522  0.044333875   -3.2805044   0.77398247   426349 
 1834000   0.62138295   -3.2792365   -3.2792365   -2.5068076  0.053411898   -3.2792365   0.77242884   426349 
 1835000   0.62269249   -3.2813173   -3.2813173   -2.5072606  0.039714505   -3.2813173    0.7740567   426349 
 1836000   0.62366665   -3.2825786   -3.2825786   -2.5073109  0.048983426   -3.2825786   0.77526767   426349 
 1837000   0.62269704   -3.2829143   -3.2829143    -2.508852  0.050899636   -3.2829143   0.77406236   426349 
 1838000   0.62195945   -3.2815117   -3.2815117   -2.5083663  0.058290714   -3.2815117   0.77314547   426349 
 1839000   0.62206384    -3.282093    -3.282093   -2.5088177  0.051506246    -3.282093   0.77327524   426349 
 1840000   0.62244914   -3.2827963   -3.2827963   -2.5090421  0.040415035   -3.2827963    0.7737542   426349 
 1841000   0.62215468   -3.2819303   -3.2819303   -2.5085421  0.049868589   -3.2819303   0.77338816   426349 
 1842000   0.62143768   -3.2818364   -3.2818364   -2.5093395  0.048458669   -3.2818364   0.77249688   426349 
 1843000   0.62079392   -3.2809223   -3.2809223   -2.5092257   0.03952671   -3.2809223   0.77169663   426349 
 1844000   0.62211292   -3.2824963   -3.2824963     -2.50916  0.052222161   -3.2824963   0.77333625   426349 
 1845000   0.62182766   -3.2819697   -3.2819697   -2.5089881   0.05708363   -3.2819697   0.77298165   426349 
 1846000   0.62051435   -3.2804172   -3.2804172   -2.5090681  0.055592449   -3.2804172    0.7713491   426349 
 1847000     0.621539   -3.2820595   -3.2820595   -2.5094367  0.043690508   -3.2820595   0.77262283   426349 
 1848000   0.62196652   -3.2830277   -3.2830277   -2.5098735  0.040990284   -3.2830277   0.77315427   426349 
 1849000   0.62126194   -3.2820243   -3.2820243   -2.5097459  0.045834416   -3.2820243   0.77227841   426349 
 1850000   0.62073452   -3.2815906   -3.2815906   -2.5099678  0.048998176   -3.2815906   0.77162279   426349 
 1851000   0.62131088   -3.2826223   -3.2826223    -2.510283  0.056084345   -3.2826223   0.77233925   426349 
 1852000   0.62242262    -3.283331    -3.283331   -2.5096098  0.036519358    -3.283331   0.77372124   426349 
 1853000   0.62275636   -3.2838979   -3.2838979   -2.5097618  0.044895757   -3.2838979    0.7741361   426349 
 1854000   0.62172867   -3.2818269   -3.2818269   -2.5089683   0.03525697   -3.2818269    0.7728586   426349 
 1855000   0.62182335   -3.2823472   -3.2823472   -2.5093709   0.05384681   -3.2823472   0.77297629   426349 
 1856000   0.62095571   -3.2812795   -3.2812795   -2.5093817  0.052354546   -3.2812795   0.77189775   426349 
 1857000   0.62235121    -3.282454    -3.282454   -2.5088215  0.050078604    -3.282454   0.77363246   426349 
 1858000   0.62250773   -3.2832227   -3.2832227   -2.5093956  0.041568267   -3.2832227   0.77382703   426349 
 1859000   0.62132681   -3.2814807   -3.2814807   -2.5091216  0.039555297   -3.2814807   0.77235906   426349 
 1860000   0.62275722   -3.2833583   -3.2833583   -2.5092211  0.034720122   -3.2833583   0.77413717   426349 
 1861000   0.62256717    -3.283713    -3.283713    -2.509812  0.044537762    -3.283713   0.77390092   426349 
 1862000   0.62150215    -3.281619    -3.281619    -2.509042  0.039682326    -3.281619   0.77257702   426349 
 1863000   0.62177607   -3.2821508   -3.2821508   -2.5092332  0.056955998   -3.2821508   0.77291753   426349 
 1864000   0.62162103   -3.2824842   -3.2824842   -2.5097594  0.039593723   -3.2824842    0.7727248   426349 
 1865000   0.62172795   -3.2833658   -3.2833658   -2.5105081  0.041845185   -3.2833658   0.77285771   426349 
 1866000   0.62188165   -3.2834562   -3.2834562   -2.5104074  0.055580527   -3.2834562   0.77304876   426349 
 1867000    0.6218724   -3.2834816   -3.2834816   -2.5104444  0.049376781   -3.2834816   0.77303727   426349 
 1868000   0.62208409   -3.2834946   -3.2834946   -2.5101942  0.042721188   -3.2834946   0.77330041   426349 
 1869000   0.62133831   -3.2826825   -3.2826825   -2.5103092  0.051736581   -3.2826825   0.77237335   426349 
 1870000   0.62137906   -3.2825355   -3.2825355   -2.5101115  0.045986897   -3.2825355     0.772424   426349 
 1871000   0.62212376   -3.2842355   -3.2842355   -2.5108858  0.036727805   -3.2842355   0.77334972   426349 
 1872000   0.62096547   -3.2834457   -3.2834457   -2.5115358  0.046246027   -3.2834457   0.77190988   426349 
 1873000   0.62151197   -3.2839554   -3.2839554   -2.5113662  0.044708461   -3.2839554   0.77258923   426349 
 1874000   0.62095242   -3.2825483   -3.2825483   -2.5106547  0.049817446   -3.2825483   0.77189366   426349 
 1875000   0.62114512   -3.2829294   -3.2829294   -2.5107962  0.049510061   -3.2829294    0.7721332   426349 
 1876000   0.62207778    -3.283338    -3.283338   -2.5100454  0.033529265    -3.283338   0.77329258   426349 
 1877000   0.62142226   -3.2836321   -3.2836321   -2.5111543  0.054448962   -3.2836321   0.77247771   426349 
 1878000   0.62000997   -3.2824722   -3.2824722   -2.5117501  0.057919391   -3.2824722   0.77072211   426349 
 1879000   0.62110319   -3.2839588   -3.2839588   -2.5118777  0.039948769   -3.2839588   0.77208108   426349 
 1880000   0.62002951    -3.281927    -3.281927   -2.5111806  0.043456789    -3.281927   0.77074641   426349 
 1881000   0.62108837     -3.28419     -3.28419   -2.5121273  0.050366017     -3.28419   0.77206266   426349 
 1882000   0.62184442    -3.285235    -3.285235   -2.5122325  0.060828908    -3.285235   0.77300248   426349 
 1883000   0.62101934   -3.2837432   -3.2837432   -2.5117663  0.042107936   -3.2837432   0.77197685   426349 
 1884000   0.62018336   -3.2824365   -3.2824365   -2.5114988  0.045380007   -3.2824365   0.77093765   426349 
 1885000   0.62063654   -3.2839804   -3.2839804   -2.5124794  0.052271665   -3.2839804     0.771501   426349 
 1886000   0.62101574   -3.2839999   -3.2839999   -2.5120276  0.032086158   -3.2839999   0.77197237   426349 
 1887000   0.62240574   -3.2851562   -3.2851562   -2.5114559  0.042916228   -3.2851562   0.77370025   426349 
 1888000    0.6203371    -3.283077    -3.283077   -2.5119482  0.047019095    -3.283077   0.77112877   426349 
 1889000   0.62171443   -3.2840753   -3.2840753   -2.5112344  0.044432619   -3.2840753   0.77284089   426349 
 1890000   0.61984339   -3.2818221   -3.2818221   -2.5113071  0.048696541   -3.2818221   0.77051505   426349 
 1891000   0.62102256   -3.2830659   -3.2830659   -2.5110851  0.050080278   -3.2830659   0.77198084   426349 
 1892000   0.62071901   -3.2826325   -3.2826325   -2.5110289  0.037894696   -3.2826325   0.77160352   426349 
 1893000   0.62148247   -3.2834314   -3.2834314   -2.5108789  0.047480469   -3.2834314   0.77255255   426349 
 1894000   0.62029324   -3.2829767   -3.2829767   -2.5119025  0.040416537   -3.2829767   0.77107424   426349 
 1895000    0.6200032    -3.282983    -3.282983   -2.5122693  0.038326747    -3.282983    0.7707137   426349 
 1896000   0.62058402   -3.2830588   -3.2830588   -2.5116231  0.048944942   -3.2830588   0.77143571   426349 
 1897000   0.62224119   -3.2851405   -3.2851405   -2.5116448  0.039471306   -3.2851405    0.7734957   426349 
 1898000   0.62130643   -3.2839137   -3.2839137     -2.51158  0.036841466   -3.2839137   0.77233372   426349 
 1899000   0.62075001   -3.2842272   -3.2842272   -2.5125852  0.058084789   -3.2842272   0.77164204   426349 
 1900000   0.62263723   -3.2856165   -3.2856165   -2.5116285  0.046669275   -3.2856165   0.77398802   426349 
 1901000   0.62100472   -3.2835455   -3.2835455   -2.5115868   0.04955338   -3.2835455   0.77195867   426349 
 1902000   0.62237159   -3.2856682   -3.2856682   -2.5120104  0.053445647   -3.2856682    0.7736578   426349 
 1903000   0.62153534   -3.2846186   -3.2846186   -2.5120003  0.048683188   -3.2846186   0.77261828   426349 
 1904000   0.62190534   -3.2849059   -3.2849059   -2.5118277  0.044882551   -3.2849059   0.77307822   426349 
 1905000   0.62073085    -3.283918    -3.283918   -2.5122998  0.040470264    -3.283918   0.77161823   426349 
 1906000   0.62189724   -3.2860137   -3.2860137   -2.5129456  0.050964495   -3.2860137   0.77306815   426349 
 1907000   0.62126686    -3.285884    -3.285884   -2.5135994  0.042599756    -3.285884   0.77228453   426349 
 1908000   0.62212469   -3.2870679   -3.2870679   -2.5137171  0.041290704   -3.2870679   0.77335089   426349 
 1909000    0.6206418   -3.2853411   -3.2853411   -2.5138336  0.047448256   -3.2853411   0.77150753   426349 
 1910000   0.62118063   -3.2858524   -3.2858524   -2.5136751  0.047120321   -3.2858524   0.77217735   426349 
 1911000   0.62101771   -3.2862367   -3.2862367   -2.5142619  0.041347604   -3.2862367   0.77197482   426349 
 1912000   0.62152648   -3.2864118   -3.2864118   -2.5138046  0.048508961   -3.2864118   0.77260726   426349 
 1913000   0.62130857   -3.2862635   -3.2862635   -2.5139271  0.058098984   -3.2862635   0.77233639   426349 
 1914000   0.62265486   -3.2879673   -3.2879673   -2.5139574  0.041001368   -3.2879673   0.77400993   426349 
 1915000   0.62153175    -3.285923    -3.285923   -2.5133092  0.047924422    -3.285923   0.77261381   426349 
 1916000   0.62125406   -3.2861208   -3.2861208   -2.5138522  0.053553467   -3.2861208   0.77226863   426349 
 1917000   0.62180538   -3.2874455   -3.2874455   -2.5144915  0.050718126   -3.2874455   0.77295396   426349 
 1918000   0.62219412   -3.2879071   -3.2879071   -2.5144699  0.037131628   -3.2879071   0.77343719   426349 
 1919000   0.62222704    -3.287937    -3.287937   -2.5144589  0.037900352    -3.287937   0.77347811   426349 
 1920000   0.62145291   -3.2869644   -3.2869644   -2.5144486  0.056466509   -3.2869644   0.77251581   426349 
 1921000   0.62166209   -3.2878442   -3.2878442   -2.5150684  0.039666841   -3.2878442   0.77277584   426349 
 1922000   0.62164826   -3.2876364   -3.2876364   -2.5148778  0.049222143   -3.2876364   0.77275864   426349 
 1923000   0.62243396   -3.2879822   -3.2879822   -2.5142469  0.048546435   -3.2879822   0.77373533   426349 
 1924000   0.62128677    -3.286541    -3.286541   -2.5142318  0.042723604    -3.286541   0.77230928   426349 
 1925000   0.62093948   -3.2857793   -3.2857793   -2.5139018   0.05229979   -3.2857793   0.77187757   426349 
 1926000   0.62234153   -3.2885367   -3.2885367   -2.5149163  0.048117416   -3.2885367   0.77362043   426349 
 1927000   0.62067865   -3.2869519   -3.2869519   -2.5153986  0.042009356   -3.2869519   0.77155334   426349 
 1928000   0.61999368   -3.2871034   -3.2871034   -2.5164015  0.037747917   -3.2871034   0.77070187   426349 
 1929000   0.62155398   -3.2888569   -3.2888569   -2.5162154  0.047237437   -3.2888569   0.77264144   426349 
 1930000    0.6198549   -3.2870776   -3.2870776   -2.5165482  0.055716237   -3.2870776   0.77052935   426349 
 1931000   0.62057628   -3.2873534   -3.2873534   -2.5159273  0.039978263   -3.2873534   0.77142609   426349 
 1932000   0.61960662    -3.286116    -3.286116   -2.5158952  0.047980915    -3.286116   0.77022072   426349 
 1933000   0.62093875   -3.2882902   -3.2882902   -2.5164135  0.048806044   -3.2882902   0.77187666   426349 
 1934000   0.61967478   -3.2872259   -3.2872259   -2.5169204  0.045904345   -3.2872259   0.77030545   426349 
 1935000   0.62129799   -3.2890558   -3.2890558   -2.5167326  0.044787278   -3.2890558   0.77232323   426349 
 1936000   0.62080471   -3.2879301   -3.2879301   -2.5162201  0.042883898   -3.2879301   0.77171004   426349 
 1937000   0.62084224   -3.2880013   -3.2880013   -2.5162446  0.048276996   -3.2880013    0.7717567   426349 
 1938000   0.62091318   -3.2885621   -3.2885621   -2.5167172   0.03659658   -3.2885621   0.77184488   426349 
 1939000    0.6218417   -3.2896983   -3.2896983   -2.5166992  0.040634022   -3.2896983    0.7729991   426349 
 1940000   0.62177186   -3.2893078   -3.2893078   -2.5163955  0.039641212   -3.2893078   0.77291229   426349 
 1941000   0.62071838   -3.2878193   -3.2878193   -2.5162165  0.044495895   -3.2878193   0.77160272   426349 
 1942000   0.62200943   -3.2892193   -3.2892193   -2.5160117  0.050825896   -3.2892193   0.77320761   426349 
 1943000    0.6222481   -3.2899199   -3.2899199   -2.5164156  0.040054866   -3.2899199   0.77350429   426349 
 1944000   0.62118818   -3.2885069   -3.2885069   -2.5163202  0.051003371   -3.2885069   0.77218673   426349 
 1945000   0.62034323   -3.2879848   -3.2879848   -2.5168484  0.044061775   -3.2879848   0.77113639   426349 
 1946000   0.62114355   -3.2892484   -3.2892484   -2.5171172  0.052604167   -3.2892484   0.77213125   426349 
 1947000   0.62139912     -3.29009     -3.29009    -2.517641  0.057836588     -3.29009   0.77244894   426349 
 1948000   0.62101514   -3.2905303   -3.2905303   -2.5185587  0.053143942   -3.2905303   0.77197162   426349 
 1949000    0.6213172   -3.2913726   -3.2913726   -2.5190255  0.049252523   -3.2913726   0.77234711   426349 
 1950000    0.6212492   -3.2912576   -3.2912576    -2.518995  0.053105162   -3.2912576   0.77226258   426349 
 1951000   0.62146833   -3.2913235   -3.2913235   -2.5187886  0.045806114   -3.2913235   0.77253497   426349 
 1952000   0.62180768   -3.2913639   -3.2913639   -2.5184071   0.04844051   -3.2913639   0.77295681   426349 
 1953000   0.62103239   -3.2905456   -3.2905456   -2.5185525  0.058584153   -3.2905456   0.77199307   426349 
 1954000   0.62098885   -3.2914335   -3.2914335   -2.5194945  0.035038113   -3.2914335   0.77193894   426349 
 1955000   0.62027278   -3.2908292   -3.2908292   -2.5197804  0.050857953   -3.2908292   0.77104881   426349 
 1956000   0.62137741   -3.2923446   -3.2923446   -2.5199226  0.062815499   -3.2923446   0.77242196   426349 
 1957000   0.62065469   -3.2912113   -3.2912113   -2.5196877  0.043848418   -3.2912113   0.77152356   426349 
 1958000   0.62136607    -3.291846    -3.291846   -2.5194382  0.046929217    -3.291846   0.77240785   426349 
 1959000   0.62039585   -3.2912859   -3.2912859   -2.5200841   0.04711756   -3.2912859   0.77120179   426349 
 1960000   0.62095318   -3.2925015   -3.2925015   -2.5206069  0.044898882   -3.2925015    0.7718946   426349 
 1961000   0.62006328   -3.2918315   -3.2918315   -2.5210431  0.047529014   -3.2918315   0.77078838   426349 
 1962000   0.61938968   -3.2908331   -3.2908331   -2.5208821  0.041202245   -3.2908331   0.76995105   426349 
 1963000   0.62074088   -3.2913665   -3.2913665   -2.5197358  0.056460658   -3.2913665    0.7716307   426349 
 1964000   0.62033621   -3.2912579   -3.2912579   -2.5201302  0.050337436   -3.2912579   0.77112766   426349 
 1965000   0.62011091   -3.2909583   -3.2909583   -2.5201107  0.050577874   -3.2909583   0.77084759   426349 
 1966000   0.62015874   -3.2907618   -3.2907618   -2.5198547  0.044365568   -3.2907618   0.77090705   426349 
 1967000   0.61985096   -3.2907763   -3.2907763   -2.5202519  0.056391614   -3.2907763   0.77052445   426349 
 1968000   0.61936442    -3.290492    -3.290492   -2.5205724  0.049220232    -3.290492   0.76991964   426349 
 1969000   0.62003721   -3.2910665   -3.2910665   -2.5203105  0.047137821   -3.2910665   0.77075598   426349 
 1970000   0.62087804   -3.2923801   -3.2923801   -2.5205789  0.052447876   -3.2923801    0.7718012   426349 
 1971000   0.62060921   -3.2919684   -3.2919684   -2.5205013  0.053075798   -3.2919684   0.77146703   426349 
 1972000   0.62185066     -3.29413     -3.29413   -2.5211198  0.037365069     -3.29413   0.77301024   426349 
 1973000   0.62070369   -3.2923356   -3.2923356   -2.5207512  0.043230249   -3.2923356   0.77158447   426349 
 1974000   0.62091558   -3.2928417   -3.2928417   -2.5209938  0.039695888   -3.2928417   0.77184787   426349 
 1975000   0.62010459   -3.2916686   -3.2916686   -2.5208289  0.051086415   -3.2916686   0.77083973   426349 
 1976000   0.62130625      -3.2924      -3.2924   -2.5200665  0.051749527      -3.2924    0.7723335   426349 
 1977000   0.62049229   -3.2919555   -3.2919555   -2.5206339  0.046440108   -3.2919555   0.77132169   426349 
 1978000   0.62067029   -3.2933894   -3.2933894   -2.5218464  0.044223535   -3.2933894   0.77154295   426349 
 1979000   0.62027103   -3.2929798   -3.2929798   -2.5219332   0.05163629   -3.2929798   0.77104663   426349 
 1980000   0.61930147   -3.2928881   -3.2928881   -2.5230467  0.056913221   -3.2928881    0.7698414   426349 
 1981000   0.62016949   -3.2934724   -3.2934724    -2.522552  0.053101539   -3.2934724   0.77092041   426349 
 1982000   0.61940572   -3.2927062   -3.2927062   -2.5227352  0.051844795   -3.2927062   0.76997098   426349 
 1983000   0.61912929   -3.2921184   -3.2921184   -2.5224911   0.04120739   -3.2921184   0.76962736   426349 
 1984000   0.61978004   -3.2927124   -3.2927124   -2.5222761  0.033326626   -3.2927124    0.7704363   426349 
 1985000   0.62100482   -3.2941456   -3.2941456   -2.5221868  0.052410243   -3.2941456   0.77195879   426349 
 1986000   0.62094808   -3.2924443   -3.2924443    -2.520556  0.046661663   -3.2924443   0.77188826   426349 
 1987000   0.62035458    -3.292482    -3.292482   -2.5213315  0.048586198    -3.292482    0.7711505   426349 
 1988000   0.62125535   -3.2941857   -3.2941857   -2.5219155  0.049317735   -3.2941857   0.77227023   426349 
 1989000   0.61991811    -3.292939    -3.292939    -2.522331   0.04961887    -3.292939   0.77060793   426349 
 1990000   0.61925571   -3.2927491   -3.2927491   -2.5229646  0.043595641   -3.2927491   0.76978451   426349 
 1991000   0.61975948   -3.2937931   -3.2937931   -2.5233823  0.029325561   -3.2937931   0.77041074   426349 
 1992000   0.61887327   -3.2926881   -3.2926881    -2.523379  0.045793866   -3.2926881   0.76930911   426349 
 1993000   0.61938158   -3.2933469   -3.2933469   -2.5234059  0.046160168   -3.2933469   0.76994097   426349 
 1994000   0.61931763   -3.2934983   -3.2934983   -2.5236368  0.053710181   -3.2934983   0.76986149   426349 
 1995000   0.61998545   -3.2947991   -3.2947991   -2.5241074  0.051689653   -3.2947991   0.77069164   426349 
 1996000   0.62128596   -3.2962631   -3.2962631   -2.5239548  0.038371803   -3.2962631   0.77230828   426349 
 1997000    0.6207458   -3.2960792   -3.2960792   -2.5244424  0.054082287   -3.2960792   0.77163681   426349 
 1998000   0.62007498   -3.2946756   -3.2946756   -2.5238727  0.038756098   -3.2946756   0.77080293   426349 
 1999000   0.61913454    -3.293833    -3.293833   -2.5241991  0.046300107    -3.293833   0.76963388   426349 
 2000000   0.61894503    -3.293585    -3.293585   -2.5241867   0.04333584    -3.293585   0.76939831   426349 
 2001000   0.62041939   -3.2950497   -3.2950497   -2.5238186  0.035913773   -3.2950497   0.77123105   426349 
 2002000   0.61929424   -3.2935006   -3.2935006   -2.5236682  0.040129487   -3.2935006   0.76983241   426349 
 2003000   0.62017902   -3.2948022   -3.2948022     -2.52387   0.04583118   -3.2948022   0.77093226   426349 
 2004000   0.61998986   -3.2954309   -3.2954309   -2.5247338  0.037542736   -3.2954309   0.77069712   426349 
 2005000   0.61974684   -3.2951413   -3.2951413   -2.5247463  0.039949931   -3.2951413   0.77039503   426349 
 2006000   0.61993183   -3.2949419   -3.2949419   -2.5243169  0.053294011   -3.2949419   0.77062498   426349 
 2007000   0.61953634   -3.2952545   -3.2952545   -2.5251212  0.037158184   -3.2952545   0.77013336   426349 
 2008000   0.61863781   -3.2948077   -3.2948077   -2.5257913  0.051662789   -3.2948077   0.76901642   426349 
 2009000   0.62041793   -3.2962206   -3.2962206   -2.5249913  0.040851756   -3.2962206   0.77122924   426349 
 2010000   0.62016896    -3.296796    -3.296796   -2.5258762  0.045617301    -3.296796   0.77091975   426349 
 2011000   0.61994966   -3.2967274   -3.2967274   -2.5260802  0.041059459   -3.2967274   0.77064714   426349 
 2012000   0.61869316   -3.2954605   -3.2954605   -2.5263753  0.042815474   -3.2954605   0.76908522   426349 
 2013000    0.6197731   -3.2969269   -3.2969269   -2.5264993  0.043821894   -3.2969269   0.77042767   426349 
 2014000   0.61943508   -3.2964002   -3.2964002   -2.5263927  0.043616404   -3.2964002   0.77000748   426349 
 2015000   0.62113838   -3.2987472   -3.2987472   -2.5266224  0.054700844   -3.2987472   0.77212482   426349 
 2016000   0.62097801   -3.2982359   -3.2982359   -2.5263104  0.039158905   -3.2982359   0.77192546   426349 
 2017000   0.62021752   -3.2975806   -3.2975806   -2.5266005  0.048134904   -3.2975806   0.77098012   426349 
 2018000    0.6205749   -3.2978632   -3.2978632   -2.5264388  0.048548201   -3.2978632   0.77142437   426349 
 2019000   0.62163825   -3.2984392   -3.2984392    -2.525693   0.05152498   -3.2984392    0.7727462   426349 
 2020000   0.62105913   -3.2982003   -3.2982003    -2.526174  0.049493209   -3.2982003    0.7720263   426349 
 2021000   0.62081265   -3.2981152   -3.2981152   -2.5263953  0.051618874   -3.2981152   0.77171991   426349 
 2022000   0.62093129   -3.2988706   -3.2988706   -2.5270032   0.04666825   -3.2988706    0.7718674   426349 
 2023000   0.61965393    -3.297989    -3.297989   -2.5277095  0.055333519    -3.297989   0.77027953   426349 
 2024000   0.61876686   -3.2973093   -3.2973093   -2.5281324  0.048305122   -3.2973093   0.76917684   426349 
 2025000   0.61981647   -3.2994666   -3.2994666    -2.528985  0.046074736   -3.2994666   0.77048158   426349 
 2026000   0.61810705   -3.2976664   -3.2976664   -2.5293097  0.035181022   -3.2976664   0.76835663   426349 
 2027000   0.61841181   -3.2978734   -3.2978734   -2.5291379  0.048425329   -3.2978734   0.76873548   426349 
 2028000   0.61892888   -3.2986579   -3.2986579   -2.5292796  0.059862701   -3.2986579   0.76937823   426349 
 2029000   0.61852941    -3.298069    -3.298069   -2.5291873  0.049305617    -3.298069   0.76888167   426349 
 2030000   0.61991616   -3.2995113   -3.2995113   -2.5289058  0.043896746   -3.2995113   0.77060551   426349 
 2031000   0.62098668   -3.3005407   -3.3005407   -2.5286044  0.041464068   -3.3005407   0.77193625   426349 
 2032000    0.6206644   -3.2994169   -3.2994169   -2.5278813   0.03966301   -3.2994169   0.77153563   426349 
 2033000   0.62096114   -3.3003153   -3.3003153   -2.5284108  0.039280252   -3.3003153   0.77190449   426349 
 2034000   0.62006991   -3.2993524   -3.2993524   -2.5285558  0.049868398   -3.2993524   0.77079663   426349 
 2035000    0.6195205   -3.2990823   -3.2990823   -2.5289686  0.041859959   -3.2990823   0.77011367   426349 
 2036000   0.61879968     -3.29845     -3.29845   -2.5292324  0.046884103     -3.29845   0.76921763   426349 
 2037000   0.61916118   -3.2994791   -3.2994791   -2.5298121  0.048956073   -3.2994791   0.76966701   426349 
 2038000   0.61963703    -3.299418    -3.299418   -2.5291595  0.044660547    -3.299418   0.77025853   426349 
 2039000   0.62019496   -3.3001238   -3.3001238   -2.5291717  0.040965285   -3.3001238   0.77095207   426349 
 2040000   0.61999246    -3.299876    -3.299876   -2.5291757  0.042598161    -3.299876   0.77070035   426349 
 2041000   0.61957927   -3.2995151   -3.2995151   -2.5293284  0.045442726   -3.2995151   0.77018672   426349 
 2042000   0.61798036   -3.2983809   -3.2983809   -2.5301818  0.042228111   -3.2983809   0.76819914   426349 
 2043000   0.61959877   -3.3007752   -3.3007752   -2.5305643  0.049347543   -3.3007752   0.77021096   426349 
 2044000   0.61893605   -3.2995367   -3.2995367   -2.5301496  0.048118779   -3.2995367   0.76938714   426349 
 2045000   0.61929905   -3.3004497   -3.3004497   -2.5306113  0.027081071   -3.3004497   0.76983839   426349 
 2046000   0.61927969   -3.3005546   -3.3005546   -2.5307403   0.04636993   -3.3005546   0.76981432   426349 
 2047000   0.61919119   -3.3004356   -3.3004356   -2.5307313  0.034148924   -3.3004356   0.76970431   426349 
 2048000   0.62014024   -3.3011471   -3.3011471    -2.530263  0.046910003   -3.3011471   0.77088405   426349 
 2049000   0.61966104    -3.301635    -3.301635   -2.5313467   0.04629141    -3.301635   0.77028837   426349 
 2050000   0.61911406   -3.3003336   -3.3003336   -2.5307252  0.054374234   -3.3003336   0.76960842   426349 
 2051000   0.61991611   -3.3016466   -3.3016466   -2.5310411  0.050311208   -3.3016466   0.77060545   426349 
 2052000   0.61877088   -3.3010192   -3.3010192   -2.5318374  0.052978677   -3.3010192   0.76918182   426349 
 2053000   0.61964622   -3.3018383   -3.3018383   -2.5315683  0.049013139   -3.3018383   0.77026995   426349 
 2054000   0.61857745   -3.3002771   -3.3002771   -2.5313357  0.050013478   -3.3002771   0.76894138   426349 
 2055000   0.61863898   -3.3007906   -3.3007906   -2.5317727  0.044760614   -3.3007906   0.76901787   426349 
 2056000   0.61870191   -3.3012619   -3.3012619   -2.5321658  0.041987786   -3.3012619    0.7690961   426349 
 2057000   0.61805593   -3.3010913   -3.3010913   -2.5327982  0.046254612   -3.3010913   0.76829309   426349 
 2058000     0.618404   -3.3010776   -3.3010776   -2.5323519  0.033826878   -3.3010776   0.76872577   426349 
 2059000   0.61948435   -3.3026416   -3.3026416   -2.5325729  0.032948557   -3.3026416   0.77006873   426349 
 2060000   0.61898503   -3.3022389   -3.3022389   -2.5327909  0.038697709   -3.3022389   0.76944804   426349 
 2061000   0.61882888   -3.3022122   -3.3022122   -2.5329582  0.049710624   -3.3022122   0.76925393   426349 
 2062000   0.61881274   -3.3023089   -3.3023089   -2.5330751  0.038934092   -3.3023089   0.76923386   426349 
 2063000   0.61794485   -3.3013209   -3.3013209   -2.5331659  0.049723901   -3.3013209     0.768155   426349 
 2064000    0.6182731   -3.3023436   -3.3023436   -2.5337806  0.040599998   -3.3023436   0.76856305   426349 
 2065000   0.61759997     -3.30145     -3.30145   -2.5337237  0.040588597     -3.30145   0.76772629   426349 
 2066000   0.61858266    -3.302074    -3.302074   -2.5331262  0.042602215    -3.302074   0.76894785   426349 
 2067000   0.61947796   -3.3022458   -3.3022458    -2.532185  0.049186125   -3.3022458   0.77006079   426349 
 2068000    0.6198315   -3.3027503   -3.3027503   -2.5322501  0.060153303   -3.3027503   0.77050027   426349 
 2069000   0.61974183   -3.3030099   -3.3030099   -2.5326211  0.048540485   -3.3030099    0.7703888   426349 
 2070000   0.61918593   -3.3033493   -3.3033493   -2.5336515  0.036830922   -3.3033493   0.76969777   426349 
 2071000   0.61874091   -3.3029822   -3.3029822   -2.5338377  0.046099198   -3.3029822   0.76914457   426349 
 2072000   0.61936937   -3.3036428   -3.3036428    -2.533717  0.049741522   -3.3036428    0.7699258   426349 
 2073000   0.61850811   -3.3025259   -3.3025259   -2.5336707  0.042908232   -3.3025259   0.76885518   426349 
 2074000    0.6190836   -3.3026413   -3.3026413   -2.5330707  0.044077488   -3.3026413   0.76957056   426349 
 2075000   0.61893139   -3.3020259   -3.3020259   -2.5326446  0.037655244   -3.3020259   0.76938135   426349 
 2076000   0.61948496   -3.3029849   -3.3029849   -2.5329154  0.041308773   -3.3029849   0.77006949   426349 
 2077000   0.61891564   -3.3019812   -3.3019812   -2.5326194  0.046300818   -3.3019812   0.76936177   426349 
 2078000   0.61773413   -3.3014596   -3.3014596   -2.5335665  0.031354242   -3.3014596   0.76789307   426349 
 2079000     0.618482   -3.3018764   -3.3018764   -2.5330537  0.034074286   -3.3018764   0.76882273   426349 
 2080000   0.61815299   -3.3018552   -3.3018552   -2.5334415  0.049210874   -3.3018552   0.76841374   426349 
 2081000   0.61895286   -3.3031901   -3.3031901   -2.5337821   0.04241324   -3.3031901   0.76940804   426349 
 2082000   0.61886932   -3.3030726   -3.3030726   -2.5337684  0.044357578   -3.3030726    0.7693042   426349 
 2083000   0.61870396   -3.3032325   -3.3032325   -2.5341338  0.034731744   -3.3032325   0.76909864   426349 
 2084000   0.61852297   -3.3023132   -3.3023132   -2.5334395  0.042350896   -3.3023132   0.76887366   426349 
 2085000   0.61826887   -3.3024056   -3.3024056   -2.5338478  0.041094873   -3.3024056   0.76855779   426349 
 2086000   0.61842091   -3.3019293   -3.3019293   -2.5331825  0.036650167   -3.3019293   0.76874679   426349 
 2087000   0.61713681   -3.3004454   -3.3004454   -2.5332948  0.038222155   -3.3004454   0.76715055   426349 
 2088000    0.6184539   -3.3025343   -3.3025343   -2.5337465  0.044771346   -3.3025343   0.76878779   426349 
 2089000   0.61691513   -3.2999022   -3.2999022   -2.5330272  0.054881558   -3.2999022   0.76687498   426349 
 2090000   0.61851434    -3.302257    -3.302257   -2.5333941   0.04333647    -3.302257   0.76886293   426349 
 2091000   0.61856432   -3.3014934   -3.3014934   -2.5325684  0.049107146   -3.3014934   0.76892506   426349 
 2092000   0.61888359   -3.3019149   -3.3019149    -2.532593  0.048470397   -3.3019149   0.76932194   426349 
 2093000   0.61921848   -3.3026287   -3.3026287   -2.5328905  0.038757638   -3.3026287   0.76973823   426349 
 2094000   0.61910759   -3.3030545   -3.3030545   -2.5334541  0.049158965   -3.3030545   0.76960038   426349 
 2095000   0.61814391   -3.3014397   -3.3014397   -2.5330372  0.040314274   -3.3014397   0.76840245   426349 
 2096000   0.61849472   -3.3022393   -3.3022393   -2.5334008  0.043364317   -3.3022393   0.76883854   426349 
 2097000    0.6189853   -3.3024229   -3.3024229   -2.5329745  0.041641432   -3.3024229   0.76944837   426349 
 2098000    0.6179501    -3.301141    -3.301141   -2.5329795  0.038692283    -3.301141   0.76816153   426349 
 2099000   0.61912103     -3.30266     -3.30266   -2.5330429  0.039399535     -3.30266   0.76961709   426349 
 2100000   0.61768353   -3.3014019   -3.3014019   -2.5335718  0.043377824   -3.3014019   0.76783017   426349 
 2101000   0.61841346   -3.3022372   -3.3022372   -2.5334997  0.042901154   -3.3022372   0.76873753   426349 
 2102000    0.6189984   -3.3025947   -3.3025947   -2.5331301  0.042335218   -3.3025947   0.76946465   426349 
 2103000   0.62030548   -3.3039692   -3.3039692   -2.5328797  0.046979553   -3.3039692   0.77108945   426349 
 2104000   0.61886874   -3.3032614   -3.3032614    -2.533958  0.034424277   -3.3032614   0.76930348   426349 
 2105000   0.61928896   -3.3039342   -3.3039342   -2.5341083  0.032995447   -3.3039342   0.76982584   426349 
 2106000   0.61833753   -3.3022694   -3.3022694   -2.5336262  0.043743849   -3.3022694   0.76864314   426349 
 2107000    0.6188193   -3.3029305   -3.3029305   -2.5336885  0.051150681   -3.3029305   0.76924202   426349 
 2108000   0.61861463   -3.3029922   -3.3029922   -2.5340046  0.046809691   -3.3029922    0.7689876   426349 
 2109000   0.61888848   -3.3034534   -3.3034534   -2.5341254  0.045227504   -3.3034534   0.76932801   426349 
 2110000   0.61928861   -3.3037112   -3.3037112   -2.5338858  0.052830881   -3.3037112   0.76982541   426349 
 2111000   0.61884843   -3.3046373   -3.3046373   -2.5353591   0.02940221   -3.3046373   0.76927823   426349 
 2112000    0.6189263   -3.3043789   -3.3043789   -2.5350039  0.041148337   -3.3043789   0.76937503   426349 
 2113000   0.61930983   -3.3054319   -3.3054319   -2.5355801  0.036176095   -3.3054319   0.76985179   426349 
 2114000   0.61857476   -3.3045194   -3.3045194   -2.5355813  0.047850831   -3.3045194   0.76893803   426349 
 2115000    0.6193922   -3.3056518   -3.3056518   -2.5356977  0.043376204   -3.3056518   0.76995418   426349 
 2116000   0.61898806   -3.3045195   -3.3045195   -2.5350677  0.042553482   -3.3045195   0.76945181   426349 
 2117000   0.61947107   -3.3061064   -3.3061064   -2.5360542  0.052197332   -3.3061064   0.77005222   426349 
 2118000   0.61901183   -3.3062535   -3.3062535   -2.5367721  0.049189174   -3.3062535   0.76948135   426349 
 2119000    0.6195287   -3.3066016   -3.3066016   -2.5364777  0.044553354   -3.3066016   0.77012386   426349 
 2120000   0.61804772   -3.3049421   -3.3049421   -2.5366592  0.046558881   -3.3049421   0.76828289   426349 
 2121000   0.61833034   -3.3058761   -3.3058761   -2.5372419  0.047685263   -3.3058761   0.76863421   426349 
 2122000   0.61919725   -3.3068593   -3.3068593   -2.5371475  0.063049668   -3.3068593   0.76971184   426349 
 2123000   0.61918171   -3.3067267   -3.3067267   -2.5370341  0.055371194   -3.3067267   0.76969253   426349 
 2124000   0.61824507   -3.3051514   -3.3051514   -2.5366232  0.046083709   -3.3051514    0.7685282   426349 
 2125000   0.61751343   -3.3050996   -3.3050996   -2.5374809   0.03799635   -3.3050996   0.76761872   426349 
 2126000   0.61847917   -3.3058955   -3.3058955   -2.5370763   0.04121047   -3.3058955   0.76881921   426349 
 2127000    0.6178303   -3.3049512   -3.3049512   -2.5369386  0.047256824   -3.3049512   0.76801261   426349 
 2128000    0.6176118   -3.3048313   -3.3048313   -2.5370903  0.039442879   -3.3048313   0.76774099   426349 
 2129000   0.61810019   -3.3053793   -3.3053793   -2.5370312  0.046653848   -3.3053793    0.7683481   426349 
 2130000   0.61763616   -3.3048914   -3.3048914   -2.5371201  0.050177415   -3.3048914   0.76777128   426349 
 2131000   0.61814109   -3.3062085   -3.3062085   -2.5378096  0.061107156   -3.3062085   0.76839895   426349 
 2132000   0.61872985   -3.3067215   -3.3067215   -2.5375907  0.043401354   -3.3067215   0.76913082   426349 
 2133000   0.62059766   -3.3102609   -3.3102609   -2.5388083  0.055035397   -3.3102609   0.77145266   426349 
 2134000   0.61829241   -3.3077839   -3.3077839   -2.5391968   0.03785201   -3.3077839   0.76858705   426349 
 2135000   0.61898245   -3.3084393   -3.3084393   -2.5389944  0.033250375   -3.3084393   0.76944483   426349 
 2136000   0.61862277   -3.3072632   -3.3072632   -2.5382654  0.048658518   -3.3072632   0.76899771   426349 
 2137000   0.61872903     -3.30814     -3.30814   -2.5390102  0.054066784     -3.30814   0.76912981   426349 
 2138000   0.62043935   -3.3108244   -3.3108244   -2.5395685  0.044589809   -3.3108244   0.77125587   426349 
 2139000   0.61879534   -3.3097349   -3.3097349   -2.5405226  0.046761764   -3.3097349   0.76921223   426349 
 2140000   0.61833029   -3.3094248   -3.3094248   -2.5407906  0.036347222   -3.3094248   0.76863413   426349 
 2141000   0.61671282   -3.3080259   -3.3080259   -2.5414024  0.049533383   -3.3080259   0.76662349   426349 
 2142000   0.61966089   -3.3110324   -3.3110324   -2.5407442  0.053690839   -3.3110324   0.77028818   426349 
 2143000    0.6196382   -3.3115193   -3.3115193   -2.5412593  0.045908112   -3.3115193   0.77025998   426349 
 2144000   0.61930903   -3.3119904   -3.3119904   -2.5421396  0.042033427   -3.3119904   0.76985079   426349 
 2145000   0.61883005   -3.3114725   -3.3114725   -2.5422171  0.045678317   -3.3114725   0.76925538   426349 
 2146000    0.6189545   -3.3113237   -3.3113237   -2.5419136  0.039879425   -3.3113237   0.76941009   426349 
 2147000   0.61943627   -3.3115765   -3.3115765   -2.5415676  0.045164346   -3.3115765   0.77000896   426349 
 2148000   0.61952766   -3.3110396   -3.3110396    -2.540917  0.059931642   -3.3110396   0.77012257   426349 
 2149000   0.61859852   -3.3103752   -3.3103752   -2.5414076  0.044782175   -3.3103752   0.76896757   426349 
 2150000   0.61873187   -3.3105357   -3.3105357   -2.5414024  0.053928216   -3.3105357   0.76913333   426349 
 2151000    0.6181371   -3.3096832   -3.3096832   -2.5412892  0.041889725   -3.3096832     0.768394   426349 
 2152000   0.61832699   -3.3098674   -3.3098674   -2.5412374  0.043695282   -3.3098674   0.76863004   426349 
 2153000   0.61881982   -3.3111076   -3.3111076   -2.5418649  0.040193753   -3.3111076   0.76924266   426349 
 2154000   0.61840872   -3.3112282   -3.3112282   -2.5424966  0.038791344   -3.3112282   0.76873164   426349 
 2155000   0.61697986   -3.3093507   -3.3093507   -2.5423952  0.050288647   -3.3093507   0.76695544   426349 
 2156000   0.61709479   -3.3095136   -3.3095136   -2.5424152  0.047400901   -3.3095136   0.76709832   426349 
 2157000   0.61785927   -3.3102152   -3.3102152   -2.5421666  0.048096369   -3.3102152   0.76804862   426349 
 2158000   0.61812243   -3.3095984   -3.3095984   -2.5412226   0.05165897   -3.3095984   0.76837575   426349 
 2159000   0.62005847   -3.3120536   -3.3120536   -2.5412712   0.04851747   -3.3120536   0.77078241   426349 
 2160000   0.61776415   -3.3097564   -3.3097564    -2.541826  0.042363466   -3.3097564   0.76793038   426349 
 2161000   0.61846191   -3.3104559   -3.3104559   -2.5416581  0.035117531   -3.3104559   0.76879775   426349 
 2162000   0.61924065   -3.3115289   -3.3115289   -2.5417632  0.051284062   -3.3115289   0.76976579   426349 
 2163000   0.61969051   -3.3123507   -3.3123507   -2.5420257  0.039911741   -3.3123507     0.770325   426349 
 2164000   0.61860624   -3.3100362   -3.3100362   -2.5410591  0.050572108   -3.3100362   0.76897716   426349 
 2165000   0.61765262   -3.3089566   -3.3089566   -2.5411648  0.041602479   -3.3089566   0.76779175   426349 
 2166000   0.61870489   -3.3102096   -3.3102096   -2.5411098  0.031712191   -3.3102096    0.7690998   426349 
 2167000   0.61808907   -3.3100454   -3.3100454   -2.5417111  0.038479456   -3.3100454   0.76833429   426349 
 2168000   0.61895551   -3.3112127   -3.3112127   -2.5418013   0.05078008   -3.3112127   0.76941134   426349 
 2169000   0.61798204   -3.3093672   -3.3093672   -2.5411659  0.034903665   -3.3093672   0.76820124   426349 
 2170000   0.61880972   -3.3111505   -3.3111505   -2.5419204  0.045808718   -3.3111505   0.76923011   426349 
 2171000    0.6180719   -3.3109981   -3.3109981   -2.5426851  0.045399431   -3.3109981   0.76831294   426349 
 2172000   0.61768359   -3.3115083   -3.3115083   -2.5436781  0.045155097   -3.3115083   0.76783024   426349 
 2173000   0.61797517   -3.3114296   -3.3114296   -2.5432369  0.044624341   -3.3114296   0.76819269   426349 
 2174000   0.61716916   -3.3104333   -3.3104333   -2.5432425  0.051053268   -3.3104333   0.76719076   426349 
 2175000   0.61759512   -3.3112523   -3.3112523   -2.5435321  0.056930775   -3.3112523   0.76772026   426349 
 2176000   0.61774232   -3.3112008   -3.3112008   -2.5432976  0.033441654   -3.3112008   0.76790324   426349 
 2177000   0.61659961   -3.3098705   -3.3098705   -2.5433877  0.046056641   -3.3098705   0.76648276   426349 
 2178000   0.61662061   -3.3101893   -3.3101893   -2.5436804  0.033924549   -3.3101893   0.76650887   426349 
 2179000   0.61770426   -3.3118059   -3.3118059   -2.5439499  0.047738889   -3.3118059   0.76785593   426349 
 2180000   0.61776739   -3.3129172   -3.3129172   -2.5449828  0.036477593   -3.3129172   0.76793441   426349 
 2181000   0.61888619    -3.314723    -3.314723   -2.5453978  0.042175638    -3.314723   0.76932517   426349 
 2182000   0.61853112   -3.3141568   -3.3141568    -2.545273  0.047815409   -3.3141568   0.76888379   426349 
 2183000    0.6192872   -3.3138107   -3.3138107    -2.543987  0.037560959   -3.3138107   0.76982366   426349 
 2184000   0.61748584   -3.3120735   -3.3120735    -2.544489  0.047476245   -3.3120735   0.76758443   426349 
 2185000   0.61812115   -3.3126781   -3.3126781   -2.5443039  0.046760835   -3.3126781   0.76837416   426349 
 2186000   0.61910672    -3.313626    -3.313626   -2.5440267  0.053366956    -3.313626    0.7695993   426349 
 2187000   0.61936563    -3.314704    -3.314704   -2.5447829  0.052884592    -3.314704   0.76992115   426349 
 2188000   0.61857489    -3.314348    -3.314348   -2.5454098  0.038897427    -3.314348   0.76893819   426349 
 2189000   0.61803192   -3.3134373   -3.3134373   -2.5451741   0.03754837   -3.3134373   0.76826324   426349 
 2190000   0.61779547   -3.3127761   -3.3127761   -2.5448068  0.055405931   -3.3127761   0.76796932   426349 
 2191000   0.61760003   -3.3121274   -3.3121274    -2.544401  0.054642517   -3.3121274   0.76772637   426349 
 2192000   0.61861271     -3.31377     -3.31377   -2.5447848  0.039713108     -3.31377   0.76898521   426349 
 2193000   0.61816655   -3.3132795   -3.3132795   -2.5448489  0.046381027   -3.3132795   0.76843059   426349 
 2194000   0.61863883   -3.3140012   -3.3140012   -2.5449835  0.040279311   -3.3140012   0.76901768   426349 
 2195000   0.61861245   -3.3148508   -3.3148508   -2.5458659  0.047027854   -3.3148508   0.76898488   426349 
 2196000   0.61720768   -3.3127808   -3.3127808   -2.5455422  0.039718088   -3.3127808   0.76723864   426349 
 2197000   0.61765767   -3.3134592   -3.3134592   -2.5456612  0.038145243   -3.3134592   0.76779802   426349 
 2198000   0.61848935   -3.3150746   -3.3150746   -2.5462427  0.050361811   -3.3150746   0.76883186   426349 
 2199000   0.61856386   -3.3149182   -3.3149182   -2.5459937  0.041057624   -3.3149182   0.76892449   426349 
 2200000   0.61783371   -3.3145964   -3.3145964   -2.5465796  0.042576186   -3.3145964   0.76801685   426349 
 2201000   0.61837305   -3.3154987   -3.3154987   -2.5468114  0.030338291   -3.3154987    0.7686873   426349 
 2202000   0.61805114   -3.3146795   -3.3146795   -2.5463924  0.046511773   -3.3146795   0.76828713   426349 
 2203000   0.61626536   -3.3133001   -3.3133001   -2.5472328  0.045525155   -3.3133001   0.76606726   426349 
 2204000   0.61732692   -3.3143238   -3.3143238    -2.546937  0.041366227   -3.3143238   0.76738687   426349 
 2205000   0.61815067   -3.3151511   -3.3151511   -2.5467402  0.050634003   -3.3151511   0.76841086   426349 
 2206000   0.61723617   -3.3134654   -3.3134654   -2.5461914   0.04988824   -3.3134654   0.76727406   426349 
 2207000   0.61751215   -3.3149371   -3.3149371   -2.5473199  0.031662697   -3.3149371   0.76761712   426349 
 2208000   0.61646011   -3.3132233   -3.3132233    -2.546914  0.043537139   -3.3132233   0.76630936   426349 
 2209000   0.61707354    -3.314691    -3.314691   -2.5476191  0.035210009    -3.314691    0.7670719   426349 
 2210000   0.61714788   -3.3144983   -3.3144983    -2.547334  0.042223675   -3.3144983   0.76716431   426349 
 2211000   0.61743025   -3.3146232   -3.3146232   -2.5471079  0.042663166   -3.3146232   0.76751532   426349 
 2212000     0.617109   -3.3148442   -3.3148442   -2.5477283   0.04589708   -3.3148442   0.76711598   426349 
 2213000   0.61715277   -3.3148838   -3.3148838   -2.5477134   0.04545449   -3.3148838   0.76717039   426349 
 2214000   0.61628285   -3.3141238   -3.3141238   -2.5480348  0.036068074   -3.3141238     0.766089   426349 
 2215000   0.61734346   -3.3152737   -3.3152737   -2.5478662  0.039885276   -3.3152737   0.76740743   426349 
 2216000   0.61607771   -3.3139322   -3.3139322   -2.5480982  0.042266859   -3.3139322     0.765834   426349 
 2217000   0.61713531   -3.3152391   -3.3152391   -2.5480904  0.038987663   -3.3152391   0.76714868   426349 
 2218000   0.61780384   -3.3155354   -3.3155354   -2.5475557  0.040554867   -3.3155354   0.76797973   426349 
 2219000   0.61679496   -3.3152922   -3.3152922   -2.5485666  0.044639148   -3.3152922    0.7667256   426349 
 2220000   0.61662207   -3.3148747   -3.3148747    -2.548364  0.045070952   -3.3148747   0.76651069   426349 
 2221000   0.61685577   -3.3147326   -3.3147326   -2.5479315  0.045866119   -3.3147326   0.76680119   426349 
 2222000   0.61759554   -3.3151899   -3.3151899   -2.5474691  0.035177842   -3.3151899   0.76772078   426349 
 2223000   0.61635798   -3.3133881   -3.3133881   -2.5472057  0.045300476   -3.3133881    0.7661824   426349 
 2224000   0.61771054   -3.3157193   -3.3157193   -2.5478555  0.041909084   -3.3157193   0.76786375   426349 
 2225000   0.61799757   -3.3163156   -3.3163156    -2.548095   0.04514842   -3.3163156   0.76822054   426349 
 2226000   0.61731632   -3.3152919   -3.3152919   -2.5479182  0.052561689   -3.3152919    0.7673737   426349 
 2227000   0.61587436   -3.3147909   -3.3147909   -2.5492097  0.046829161   -3.3147909   0.76558122   426349 
 2228000   0.61581624   -3.3147117   -3.3147117   -2.5492028  0.059559796   -3.3147117   0.76550897   426349 
 2229000   0.61685619   -3.3154834   -3.3154834   -2.5486816   0.04931232   -3.3154834   0.76680172   426349 
 2230000   0.61722844   -3.3166216   -3.3166216   -2.5493572  0.057146224   -3.3166216   0.76726445   426349 
 2231000   0.61678009   -3.3164776   -3.3164776   -2.5497705  0.050034761   -3.3164776   0.76670712   426349 
 2232000   0.61729223   -3.3169975   -3.3169975   -2.5496538   0.04528469   -3.3169975   0.76734374   426349 
 2233000   0.61701091   -3.3167737   -3.3167737   -2.5497797    0.0308536   -3.3167737   0.76699405   426349 
 2234000   0.61666767   -3.3164821   -3.3164821   -2.5499148  0.022899902   -3.3164821   0.76656736   426349 
 2235000   0.61561426   -3.3161303   -3.3161303   -2.5508724  0.046796983   -3.3161303   0.76525789   426349 
 2236000    0.6156438   -3.3165059   -3.3165059   -2.5512112  0.026354136   -3.3165059   0.76529461   426349 
 2237000    0.6178843   -3.3189105   -3.3189105   -2.5508308  0.042668704   -3.3189105   0.76807974   426349 
 2238000   0.61703594   -3.3188577   -3.3188577   -2.5518325  0.030850362   -3.3188577   0.76702515   426349 
 2239000   0.61498277   -3.3172276   -3.3172276   -2.5527547  0.034815923   -3.3172276    0.7644729   426349 
 2240000   0.61577999   -3.3173155   -3.3173155   -2.5518516  0.055791327   -3.3173155   0.76546391   426349 
 2241000   0.61607001   -3.3173358   -3.3173358   -2.5515114  0.034071788   -3.3173358   0.76582443   426349 
 2242000   0.61679921   -3.3177526   -3.3177526   -2.5510217  0.048619746   -3.3177526   0.76673089   426349 
 2243000   0.61507219   -3.3162774   -3.3162774   -2.5516934  0.047680778   -3.3162774   0.76458406   426349 
 2244000   0.61731249   -3.3184322   -3.3184322   -2.5510633   0.04592418   -3.3184322   0.76736894   426349 
 2245000   0.61655953   -3.3164682   -3.3164682   -2.5500353   0.04445031   -3.3164682   0.76643294   426349 
 2246000   0.61753931   -3.3180599   -3.3180599    -2.550409  0.038623726   -3.3180599   0.76765089   426349 
 2247000   0.61645303   -3.3180668   -3.3180668   -2.5517663  0.046741185   -3.3180668   0.76630056   426349 
 2248000   0.61721427   -3.3184742   -3.3184742   -2.5512273  0.059047398   -3.3184742   0.76724683   426349 
 2249000   0.61640382   -3.3168602   -3.3168602   -2.5506208  0.046574826   -3.3168602   0.76623938   426349 
 2250000   0.61665123   -3.3182032   -3.3182032   -2.5516563  0.040270421   -3.3182032   0.76654693   426349 
 2251000   0.61586774   -3.3168384   -3.3168384   -2.5512654   0.04854516   -3.3168384     0.765573   426349 
 2252000   0.61651684   -3.3175592   -3.3175592   -2.5511793  0.045198291   -3.3175592   0.76637988   426349 
 2253000   0.61613612    -3.318118    -3.318118   -2.5522114  0.047100028    -3.318118   0.76590662   426349 
 2254000   0.61617081   -3.3181778   -3.3181778    -2.552228  0.046824651   -3.3181778   0.76594973   426349 
 2255000    0.6176454   -3.3194531   -3.3194531   -2.5516703  0.046699698   -3.3194531   0.76778277   426349 
 2256000   0.61717952   -3.3189589   -3.3189589   -2.5517553  0.039326587   -3.3189589   0.76720364   426349 
 2257000   0.61751909    -3.319398    -3.319398   -2.5517722  0.045086236    -3.319398   0.76762576   426349 
 2258000   0.61739731   -3.3194244   -3.3194244   -2.5519501  0.042116903   -3.3194244   0.76747437   426349 
 2259000    0.6163432   -3.3189103   -3.3189103   -2.5527463  0.048505627   -3.3189103   0.76616403   426349 
 2260000   0.61762018   -3.3205963   -3.3205963   -2.5528449   0.03416597   -3.3205963   0.76775142   426349 
 2261000   0.61663675   -3.3192309   -3.3192309    -2.552702  0.036404979   -3.3192309   0.76652893   426349 
 2262000    0.6157415   -3.3185251   -3.3185251    -2.553109  0.056331851   -3.3185251   0.76541607   426349 
 2263000   0.61494823   -3.3176846   -3.3176846   -2.5532546  0.037002027   -3.3176846   0.76442997   426349 
 2264000   0.61618392   -3.3194625   -3.3194625   -2.5534965    0.0348151   -3.3194625   0.76596603   426349 
 2265000   0.61591751   -3.3200701   -3.3200701   -2.5544352  0.054891512   -3.3200701   0.76563486   426349 
 2266000   0.61632454   -3.3204036   -3.3204036   -2.5542628  0.055744101   -3.3204036   0.76614083   426349 
 2267000   0.61675047   -3.3215511   -3.3215511   -2.5548808  0.045439938   -3.3215511    0.7666703   426349 
 2268000   0.61682787   -3.3210724   -3.3210724   -2.5543059  0.045928581   -3.3210724   0.76676651   426349 
 2269000   0.61667423   -3.3207357   -3.3207357   -2.5541602  0.045534104   -3.3207357   0.76657553   426349 
 2270000   0.61663157   -3.3201078   -3.3201078   -2.5535853  0.050362455   -3.3201078    0.7665225   426349 
 2271000   0.61650325   -3.3205585   -3.3205585   -2.5541956   0.05063746   -3.3205585   0.76636299   426349 
 2272000   0.61698274   -3.3225548   -3.3225548   -2.5555958  0.052155467   -3.3225548   0.76695902   426349 
 2273000   0.61515558   -3.3208304   -3.3208304   -2.5561427  0.042270019   -3.3208304   0.76468772   426349 
 2274000   0.61693721   -3.3228093   -3.3228093   -2.5559069  0.046039668   -3.3228093   0.76690243   426349 
 2275000   0.61747099   -3.3235987   -3.3235987   -2.5560328  0.031212238   -3.3235987   0.76756596   426349 
 2276000   0.61601819   -3.3216475   -3.3216475   -2.5558875  0.035486662   -3.3216475   0.76576001   426349 
 2277000   0.61586846   -3.3214672   -3.3214672   -2.5558933   0.04628517   -3.3214672   0.76557389   426349 
 2278000   0.61689814   -3.3232636   -3.3232636   -2.5564098  0.047858153   -3.3232636   0.76685386   426349 
 2279000   0.61692934   -3.3232407   -3.3232407   -2.5563481  0.057670108   -3.3232407   0.76689264   426349 
 2280000   0.61656916   -3.3225957   -3.3225957   -2.5561508  0.037090015   -3.3225957   0.76644492   426349 
 2281000   0.61619577   -3.3231451   -3.3231451   -2.5571644  0.046408981   -3.3231451   0.76598076   426349 
 2282000   0.61657864   -3.3228837   -3.3228837    -2.556427  0.045375717   -3.3228837    0.7664567   426349 
 2283000   0.61664726   -3.3229062   -3.3229062   -2.5563642  0.044478101   -3.3229062     0.766542   426349 
 2284000   0.61674909   -3.3229507   -3.3229507   -2.5562821  0.043865114   -3.3229507   0.76666858   426349 
 2285000   0.61599983   -3.3224451   -3.3224451   -2.5567079  0.031985795   -3.3224451    0.7657372   426349 
 2286000   0.61662834   -3.3233357   -3.3233357   -2.5568172  0.041647085   -3.3233357   0.76651848   426349 
 2287000   0.61569079   -3.3231183   -3.3231183   -2.5577652  0.052075874   -3.3231183   0.76535303   426349 
 2288000    0.6153922   -3.3220221   -3.3220221   -2.5570402  0.042483017   -3.3220221   0.76498186   426349 
 2289000   0.61537867   -3.3228696   -3.3228696   -2.5579045    0.0423718   -3.3228696   0.76496504   426349 
 2290000   0.61560685   -3.3235328   -3.3235328   -2.5582841  0.042230778   -3.3235328   0.76524869   426349 
 2291000   0.61504767   -3.3231333   -3.3231333   -2.5585797   0.04195148   -3.3231333   0.76455358   426349 
 2292000   0.61542585   -3.3235944   -3.3235944   -2.5585707  0.052400232   -3.3235944   0.76502369   426349 
 2293000    0.6164225   -3.3246028   -3.3246028   -2.5583402  0.046216346   -3.3246028    0.7662626   426349 
 2294000   0.61493838   -3.3225066   -3.3225066   -2.5580889  0.041000426   -3.3225066   0.76441772   426349 
 2295000   0.61523989   -3.3225627   -3.3225627   -2.5577702  0.045293462   -3.3225627   0.76479252   426349 
 2296000   0.61547043   -3.3226615   -3.3226615   -2.5575823  0.044697519   -3.3226615   0.76507911   426349 
 2297000   0.61590534   -3.3230274   -3.3230274   -2.5574076  0.032694194   -3.3230274   0.76561974   426349 
 2298000   0.61544138   -3.3219758   -3.3219758   -2.5569328   0.04400524   -3.3219758   0.76504299   426349 
 2299000   0.61601834   -3.3228615   -3.3228615   -2.5571013  0.037091993   -3.3228615    0.7657602   426349 
 2300000   0.61532794   -3.3215461   -3.3215461   -2.5566441  0.040444539   -3.3215461   0.76490198   426349 
 2301000   0.61514915   -3.3218864   -3.3218864   -2.5572067   0.04811858   -3.3218864   0.76467973   426349 
 2302000   0.61655779   -3.3238544   -3.3238544   -2.5574236   0.03871632   -3.3238544   0.76643078   426349 
 2303000   0.61723025   -3.3240513   -3.3240513   -2.5567846   0.04383134   -3.3240513    0.7672667   426349 
 2304000   0.61573469   -3.3225872   -3.3225872   -2.5571796  0.046488069   -3.3225872    0.7654076   426349 
 2305000   0.61584503   -3.3239643   -3.3239643   -2.5584195  0.041839357   -3.3239643   0.76554477   426349 
 2306000   0.61660255   -3.3244966   -3.3244966   -2.5580101  0.037286966   -3.3244966   0.76648642   426349 
 2307000   0.61708591   -3.3240058   -3.3240058   -2.5569185  0.048921845   -3.3240058   0.76708727   426349 
 2308000     0.616063    -3.324215    -3.324215   -2.5583993  0.039569899    -3.324215   0.76581572   426349 
 2309000   0.61650071   -3.3237901   -3.3237901   -2.5574303  0.043977535   -3.3237901   0.76635983   426349 
 2310000   0.61725847   -3.3246265   -3.3246265   -2.5573248   0.03210788   -3.3246265   0.76730178   426349 
 2311000   0.61673134   -3.3238034   -3.3238034   -2.5571569  0.060504598   -3.3238034   0.76664651   426349 
 2312000   0.61599082   -3.3233542   -3.3233542   -2.5576283  0.050992641   -3.3233542   0.76572599   426349 
 2313000   0.61460134   -3.3226425   -3.3226425   -2.5586437  0.050398146   -3.3226425   0.76399876   426349 
 2314000   0.61574256   -3.3238382   -3.3238382   -2.5584209  0.035337962   -3.3238382   0.76541739   426349 
 2315000   0.61620036   -3.3250443   -3.3250443   -2.5590579  0.037336466   -3.3250443   0.76598646   426349 
 2316000   0.61586475   -3.3249742   -3.3249742    -2.559405  0.036948258   -3.3249742   0.76556928   426349 
 2317000   0.61611155   -3.3239064   -3.3239064   -2.5580303  0.055744387   -3.3239064   0.76587607   426349 
 2318000   0.61622967   -3.3245415   -3.3245415   -2.5585186  0.039587789   -3.3245415    0.7660229   426349 
 2319000   0.61584832   -3.3238622   -3.3238622   -2.5583134  0.048218157   -3.3238622   0.76554885   426349 
 2320000   0.61475709   -3.3224986   -3.3224986   -2.5583062  0.053361618   -3.3224986   0.76419237   426349 
 2321000   0.61523249   -3.3227726   -3.3227726   -2.5579893   0.04277773   -3.3227726   0.76478333   426349 
 2322000   0.61558234   -3.3237272   -3.3237272    -2.558509  0.049226157   -3.3237272   0.76521822   426349 
 2323000   0.61649561   -3.3248393   -3.3248393   -2.5584858  0.033839217   -3.3248393   0.76635349   426349 
 2324000   0.61498628   -3.3240273   -3.3240273   -2.5595501  0.049505041   -3.3240273   0.76447727   426349 
 2325000   0.61521165    -3.324602    -3.324602   -2.5598446  0.039110295    -3.324602   0.76475742   426349 
 2326000    0.6165879   -3.3258078   -3.3258078   -2.5593396  0.043718049   -3.3258078   0.76646821   426349 
 2327000   0.61570669   -3.3238347   -3.3238347   -2.5584619  0.056308322   -3.3238347    0.7653728   426349 
 2328000     0.616132   -3.3242979   -3.3242979   -2.5583964  0.047611615   -3.3242979   0.76590149   426349 
 2329000   0.61517694   -3.3243957   -3.3243957   -2.5596815  0.046699452   -3.3243957   0.76471427   426349 
 2330000   0.61694441   -3.3262271   -3.3262271   -2.5593158  0.049862222   -3.3262271   0.76691138   426349 
 2331000   0.61564973   -3.3253691   -3.3253691   -2.5600671  0.036550946   -3.3253691   0.76530199   426349 
 2332000   0.61607325   -3.3253393   -3.3253393   -2.5595109  0.032175594   -3.3253393   0.76582846   426349 
 2333000   0.61547748   -3.3249613   -3.3249613   -2.5598734  0.042993713   -3.3249613   0.76508787   426349 
 2334000   0.61556547   -3.3251349   -3.3251349   -2.5599376   0.04979363   -3.3251349   0.76519725   426349 
 2335000   0.61475453   -3.3234841   -3.3234841    -2.559295  0.044377572   -3.3234841   0.76418918   426349 
 2336000   0.61589936   -3.3243098   -3.3243098   -2.5586975  0.051754476   -3.3243098    0.7656123   426349 
 2337000   0.61669739   -3.3252939   -3.3252939   -2.5586896  0.038398182   -3.3252939   0.76660432   426349 
 2338000   0.61597378   -3.3239355   -3.3239355   -2.5582306  0.045972987   -3.3239355   0.76570481   426349 
 2339000   0.61502165   -3.3231896   -3.3231896   -2.5586684  0.044347009   -3.3231896   0.76452124   426349 
 2340000   0.61535441   -3.3243691   -3.3243691   -2.5594342  0.041087444   -3.3243691   0.76493489   426349 
 2341000   0.61399832   -3.3231048   -3.3231048   -2.5598556  0.043493858   -3.3231048   0.76324915   426349 
 2342000   0.61536827   -3.3243294   -3.3243294   -2.5593773  0.036826338   -3.3243294   0.76495211   426349 
 2343000   0.61558658     -3.32562     -3.32562   -2.5603965  0.040911666     -3.32562   0.76522348   426349 
 2344000   0.61545308   -3.3253825   -3.3253825    -2.560325  0.034036413   -3.3253825   0.76505753   426349 
 2345000   0.61537066   -3.3253928   -3.3253928   -2.5604377  0.044171811   -3.3253928   0.76495509   426349 
 2346000   0.61599264   -3.3255716   -3.3255716   -2.5598434  0.046160376   -3.3255716   0.76572825   426349 
 2347000   0.61540625   -3.3251304   -3.3251304   -2.5601311  0.032926713   -3.3251304   0.76499933   426349 
 2348000   0.61475133   -3.3247874   -3.3247874   -2.5606022  0.040754655   -3.3247874   0.76418521   426349 
 2349000   0.61710909   -3.3272275   -3.3272275   -2.5601114  0.049544042   -3.3272275   0.76711609   426349 
 2350000   0.61618592   -3.3271076   -3.3271076   -2.5611391  0.046683811   -3.3271076   0.76596852   426349 
 2351000   0.61554419   -3.3266237   -3.3266237   -2.5614529  0.043043006   -3.3266237   0.76517079   426349 
 2352000   0.61531135   -3.3263749   -3.3263749   -2.5614935  0.049602887   -3.3263749   0.76488136   426349 
 2353000   0.61509353   -3.3263012   -3.3263012   -2.5616906  0.041696805   -3.3263012   0.76461058   426349 
 2354000   0.61614733   -3.3281349   -3.3281349   -2.5622143  0.045230672   -3.3281349   0.76592054   426349 
 2355000   0.61665837   -3.3280529   -3.3280529    -2.561497  0.031569603   -3.3280529   0.76655581   426349 
 2356000   0.61564429   -3.3274198   -3.3274198   -2.5621246  0.041574455   -3.3274198   0.76529523   426349 
 2357000   0.61654511   -3.3282282   -3.3282282   -2.5618132  0.033623236   -3.3282282   0.76641502   426349 
 2358000    0.6152461   -3.3274864   -3.3274864   -2.5626862  0.038753504   -3.3274864   0.76480024   426349 
 2359000   0.61593943   -3.3274092   -3.3274092    -2.561747  0.043098185   -3.3274092   0.76566211   426349 
 2360000   0.61626246   -3.3278158   -3.3278158   -2.5617521  0.040901902   -3.3278158   0.76606367   426349 
 2361000   0.61553381   -3.3271079   -3.3271079   -2.5619501  0.045043992   -3.3271079   0.76515789   426349 
 2362000   0.61440409    -3.325986    -3.325986   -2.5622324  0.048232292    -3.325986   0.76375356   426349 
 2363000   0.61410292   -3.3255845   -3.3255845   -2.5622053  0.039395302   -3.3255845   0.76337919   426349 
 2364000   0.61607915   -3.3274212   -3.3274212   -2.5615854  0.042946951   -3.3274212   0.76583579   426349 
 2365000   0.61536154   -3.3263151   -3.3263151   -2.5613714  0.041596897   -3.3263151   0.76494374   426349 
 2366000   0.61576613   -3.3269867   -3.3269867     -2.56154  0.048330468   -3.3269867   0.76544669   426349 
 2367000   0.61537595   -3.3264677   -3.3264677    -2.561506    0.0391919   -3.3264677   0.76496166   426349 
 2368000     0.616886   -3.3286841   -3.3286841   -2.5618454  0.045792137   -3.3286841   0.76683877   426349 
 2369000   0.61490996    -3.326655    -3.326655   -2.5622726  0.026381952    -3.326655    0.7643824   426349 
 2370000   0.61413082   -3.3262893   -3.3262893   -2.5628754  0.040965215   -3.3262893   0.76341387   426349 
 2371000   0.61528655   -3.3269929   -3.3269929   -2.5621424  0.041830046   -3.3269929   0.76485053   426349 
 2372000   0.61518293   -3.3270228   -3.3270228   -2.5623011  0.042069689   -3.3270228   0.76472172   426349 
 2373000   0.61476494   -3.3261727   -3.3261727   -2.5619706  0.049058513   -3.3261727   0.76420213   426349 
 2374000   0.61536317   -3.3270885   -3.3270885   -2.5621427  0.042723686   -3.3270885   0.76494577   426349 
 2375000   0.61703084   -3.3291918   -3.3291918   -2.5621729  0.044214354   -3.3291918   0.76701882   426349 
 2376000    0.6164083   -3.3289205   -3.3289205   -2.5626756   0.03038326   -3.3289205   0.76624495   426349 
 2377000   0.61677005   -3.3291573   -3.3291573   -2.5624627  0.044069762   -3.3291573   0.76669463   426349 
 2378000   0.61560301   -3.3285477   -3.3285477   -2.5633037  0.041429818   -3.3285477   0.76524391   426349 
 2379000   0.61522261   -3.3286603   -3.3286603   -2.5638893   0.04782812   -3.3286603   0.76477105   426349 
 2380000   0.61443696   -3.3270439   -3.3270439   -2.5632495  0.051985848   -3.3270439   0.76379442   426349 
 2381000    0.6140584   -3.3266993   -3.3266993   -2.5633754  0.048337572   -3.3266993   0.76332384   426349 
 2382000   0.61511227   -3.3289682   -3.3289682   -2.5643343  0.040226538   -3.3289682   0.76463388   426349 
 2383000    0.6145518   -3.3286452   -3.3286452    -2.564708  0.038224419   -3.3286452   0.76393718   426349 
 2384000   0.61456754   -3.3287597   -3.3287597    -2.564803  0.043545166   -3.3287597   0.76395674   426349 
 2385000   0.61437787   -3.3281104   -3.3281104   -2.5643895  0.037651425   -3.3281104   0.76372097   426349 
 2386000   0.61484414   -3.3286168   -3.3286168   -2.5643162  0.039891407   -3.3286168   0.76430058   426349 
 2387000   0.61565627   -3.3297601   -3.3297601     -2.56445  0.047443638   -3.3297601   0.76531012   426349 
 2388000   0.61532834   -3.3294274   -3.3294274    -2.564525  0.020543735   -3.3294274   0.76490248   426349 
 2389000     0.615105   -3.3293743   -3.3293743   -2.5647494  0.036685223   -3.3293743   0.76462485   426349 
 2390000   0.61621694   -3.3306174   -3.3306174   -2.5646103  0.048595443   -3.3306174   0.76600707   426349 
 2391000   0.61561671   -3.3298883   -3.3298883   -2.5646274  0.038117376   -3.3298883   0.76526094   426349 
 2392000   0.61469097   -3.3289719   -3.3289719   -2.5648617  0.054269612   -3.3289719   0.76411017   426349 
 2393000   0.61517376   -3.3296524   -3.3296524   -2.5649421   0.05218578   -3.3296524   0.76471033   426349 
 2394000   0.61495328   -3.3295992   -3.3295992    -2.565163  0.048685659   -3.3295992   0.76443624   426349 
 2395000   0.61410285   -3.3293145   -3.3293145   -2.5659354  0.034329936   -3.3293145   0.76337909   426349 
 2396000   0.61443613   -3.3296701   -3.3296701   -2.5658767  0.049813681   -3.3296701   0.76379339   426349 
 2397000    0.6141484   -3.3287607   -3.3287607    -2.565325  0.035899643   -3.3287607   0.76343572   426349 
 2398000   0.61510577   -3.3297433   -3.3297433   -2.5651175  0.043726687   -3.3297433   0.76462581   426349 
 2399000   0.61491547    -3.329664    -3.329664   -2.5652747  0.036832066    -3.329664   0.76438925   426349 
 2400000   0.61584914   -3.3311813   -3.3311813   -2.5656314  0.041315348   -3.3311813   0.76554987   426349 
 2401000   0.61443625    -3.329929    -3.329929   -2.5661354  0.040578678    -3.329929   0.76379354   426349 
 2402000   0.61503396   -3.3301836   -3.3301836   -2.5656471  0.044290432   -3.3301836   0.76453654   426349 
 2403000   0.61471835   -3.3300958   -3.3300958   -2.5659515  0.045352113   -3.3300958   0.76414421   426349 
 2404000   0.61468066   -3.3308139   -3.3308139   -2.5667166  0.028824629   -3.3308139   0.76409736   426349 
 2405000   0.61566327   -3.3311922   -3.3311922   -2.5658734  0.043599786   -3.3311922   0.76531882   426349 
 2406000   0.61515752   -3.3304509   -3.3304509   -2.5657608  0.039676898   -3.3304509   0.76469013   426349 
 2407000   0.61541942   -3.3309032   -3.3309032   -2.5658875  0.039555814   -3.3309032    0.7650157   426349 
 2408000   0.61552334   -3.3313454   -3.3313454   -2.5662006  0.036012091   -3.3313454   0.76514488   426349 
 2409000   0.61438253   -3.3301874   -3.3301874   -2.5664606  0.039278505   -3.3301874   0.76372676   426349 
 2410000   0.61446685   -3.3299502   -3.3299502   -2.5661186  0.036337279   -3.3299502   0.76383157   426349 
 2411000   0.61532206    -3.331712    -3.331712   -2.5668173  0.040874286    -3.331712   0.76489466   426349 
 2412000   0.61510419   -3.3316969   -3.3316969    -2.567073  0.043327959   -3.3316969   0.76462384   426349 
 2413000   0.61517977    -3.331614    -3.331614   -2.5668963  0.043540984    -3.331614    0.7647178   426349 
 2414000   0.61519789   -3.3308007   -3.3308007   -2.5660604  0.036282225   -3.3308007   0.76474032   426349 
 2415000   0.61511046    -3.330933    -3.330933   -2.5663014  0.049858315    -3.330933   0.76463164   426349 
 2416000   0.61429107   -3.3296824   -3.3296824   -2.5660693  0.052408163   -3.3296824   0.76361306   426349 
 2417000   0.61498562   -3.3312279   -3.3312279   -2.5667514  0.036052136   -3.3312279   0.76447645   426349 
 2418000   0.61521508   -3.3322092   -3.3322092   -2.5674475  0.044962044   -3.3322092   0.76476168   426349 
 2419000   0.61535521   -3.3325937   -3.3325937   -2.5676578  0.035270959   -3.3325937   0.76493587   426349 
 2420000     0.614454   -3.3324652   -3.3324652   -2.5686496  0.033809766   -3.3324652    0.7638156   426349 
 2421000   0.61427658   -3.3323403   -3.3323403   -2.5687452  0.037821658   -3.3323403   0.76359505   426349 
 2422000   0.61547687   -3.3331692   -3.3331692   -2.5680821  0.043780265   -3.3331692   0.76508711   426349 
 2423000   0.61507647   -3.3331463   -3.3331463   -2.5685569  0.039740788   -3.3331463   0.76458938   426349 
 2424000   0.61412066   -3.3324323   -3.3324323   -2.5690311  0.046035754   -3.3324323   0.76340123   426349 
 2425000   0.61424925     -3.33213     -3.33213    -2.568569  0.046864448     -3.33213   0.76356108   426349 
 2426000   0.61511579   -3.3337591   -3.3337591   -2.5691209  0.043530142   -3.3337591   0.76463826   426349 
 2427000   0.61359631   -3.3325692   -3.3325692   -2.5698197  0.032810481   -3.3325692   0.76274942   426349 
 2428000   0.61500879    -3.334031    -3.334031   -2.5695258  0.035626351    -3.334031   0.76450525   426349 
 2429000    0.6145171   -3.3333001   -3.3333001    -2.569406  0.037333215   -3.3333001   0.76389405   426349 
 2430000   0.61512125   -3.3334569   -3.3334569   -2.5688118  0.044223738   -3.3334569   0.76464505   426349 
 2431000   0.61466291   -3.3334145   -3.3334145   -2.5693392  0.044742177   -3.3334145    0.7640753   426349 
 2432000   0.61539766   -3.3337103   -3.3337103   -2.5687217  0.042496503   -3.3337103   0.76498865   426349 
 2433000   0.61552619   -3.3342744   -3.3342744   -2.5691259  0.049473105   -3.3342744   0.76514842   426349 
 2434000   0.61568012   -3.3336804   -3.3336804   -2.5683406   0.05247298   -3.3336804   0.76533977   426349 
 2435000   0.61577391   -3.3346853   -3.3346853    -2.569229  0.039582706   -3.3346853   0.76545636   426349 
 2436000   0.61492294   -3.3333312   -3.3333312   -2.5689327  0.035751784   -3.3333312   0.76439853   426349 
 2437000   0.61576686   -3.3347382   -3.3347382   -2.5692906  0.048252414   -3.3347382    0.7654476   426349 
 2438000   0.61563219   -3.3343377   -3.3343377   -2.5690575  0.047889411   -3.3343377   0.76528019   426349 
 2439000   0.61478421    -3.333106    -3.333106   -2.5688799  0.040288828    -3.333106   0.76422608   426349 
 2440000   0.61425705   -3.3322931   -3.3322931   -2.5687223  0.039366899   -3.3322931   0.76357077   426349 
 2441000   0.61499038   -3.3339544   -3.3339544    -2.569472  0.043397338   -3.3339544   0.76448236   426349 
 2442000    0.6148961   -3.3332747   -3.3332747   -2.5689095  0.041075243   -3.3332747   0.76436516   426349 
 2443000   0.61464691   -3.3333574   -3.3333574    -2.569302   0.04599036   -3.3333574    0.7640554   426349 
 2444000   0.61425617   -3.3328525   -3.3328525   -2.5692829  0.033693514   -3.3328525   0.76356968   426349 
 2445000   0.61433727   -3.3319236   -3.3319236   -2.5682531  0.052843324   -3.3319236   0.76367049   426349 
 2446000   0.61450858   -3.3322165   -3.3322165    -2.568333  0.044325861   -3.3322165   0.76388345   426349 
 2447000   0.61445773    -3.332267    -3.332267   -2.5684468  0.048708317    -3.332267   0.76382024   426349 
 2448000   0.61491011   -3.3325205   -3.3325205    -2.568138  0.035678847   -3.3325205   0.76438259   426349 
 2449000   0.61628434   -3.3343205   -3.3343205   -2.5682296  0.045465417   -3.3343205   0.76609086   426349 
 2450000   0.61457961   -3.3319028   -3.3319028    -2.567931   0.04529689   -3.3319028   0.76397174   426349 
 2451000   0.61569801   -3.3336826   -3.3336826   -2.5683206  0.045740584   -3.3336826   0.76536201   426349 
 2452000   0.61464298   -3.3327831   -3.3327831   -2.5687326  0.053708203   -3.3327831   0.76405052   426349 
 2453000   0.61426475   -3.3334009   -3.3334009   -2.5698205  0.037138347   -3.3334009   0.76358035   426349 
 2454000   0.61524451   -3.3344084   -3.3344084   -2.5696101  0.044612495   -3.3344084   0.76479826   426349 
 2455000   0.61558955   -3.3352557   -3.3352557   -2.5700285  0.037105422   -3.3352557   0.76522718   426349 
 2456000   0.61414121   -3.3339164   -3.3339164   -2.5704896  0.049995577   -3.3339164   0.76342677   426349 
 2457000   0.61332555   -3.3331692   -3.3331692   -2.5707564   0.02864827   -3.3331692   0.76241285   426349 
 2458000   0.61350788   -3.3334116   -3.3334116   -2.5707721  0.045254122   -3.3334116    0.7626395   426349 
 2459000    0.6136177   -3.3336634   -3.3336634   -2.5708874  0.036312079   -3.3336634   0.76277601   426349 
 2460000   0.61545566   -3.3353349   -3.3353349   -2.5702742  0.043827596   -3.3353349   0.76506074   426349 
 2461000   0.61512811   -3.3352509   -3.3352509   -2.5705973  0.046683177   -3.3352509   0.76465357   426349 
 2462000   0.61428164   -3.3345532   -3.3345532   -2.5709519   0.05771071   -3.3345532   0.76360134   426349 
 2463000   0.61505985   -3.3363343   -3.3363343   -2.5717656  0.033746112   -3.3363343   0.76456872   426349 
 2464000   0.61596461   -3.3369098   -3.3369098   -2.5712163  0.039506101   -3.3369098   0.76569341   426349 
 2465000   0.61529686   -3.3361303   -3.3361303   -2.5712669   0.04885645   -3.3361303   0.76486334   426349 
 2466000   0.61471854   -3.3358172   -3.3358172   -2.5716728  0.047229266   -3.3358172   0.76414445   426349 
 2467000   0.61456082   -3.3357225   -3.3357225   -2.5717742  0.037957495   -3.3357225   0.76394838   426349 
 2468000   0.61574844   -3.3373831   -3.3373831   -2.5719584  0.045354863   -3.3373831   0.76542469   426349 
 2469000   0.61556817   -3.3371318   -3.3371318   -2.5719312  0.044292755   -3.3371318    0.7652006   426349 
 2470000    0.6145205   -3.3353486   -3.3353486   -2.5714503  0.034486366   -3.3353486   0.76389826   426349 
 2471000   0.61382614    -3.335042    -3.335042   -2.5720069  0.045114631    -3.335042   0.76303512   426349 
 2472000   0.61426329   -3.3352112   -3.3352112   -2.5716327  0.050365862   -3.3352112   0.76357854   426349 
 2473000   0.61522664   -3.3356082   -3.3356082   -2.5708321   0.03746474   -3.3356082   0.76477605   426349 
 2474000   0.61416892   -3.3346823   -3.3346823   -2.5712211  0.043823517   -3.3346823   0.76346123   426349 
 2475000   0.61417708   -3.3349395   -3.3349395   -2.5714681  0.036478901   -3.3349395   0.76347137   426349 
 2476000   0.61559972   -3.3363444   -3.3363444   -2.5711046  0.028380389   -3.3363444   0.76523982   426349 
 2477000   0.61526119   -3.3362393   -3.3362393   -2.5714203  0.032357574   -3.3362393     0.764819   426349 
 2478000   0.61340841    -3.334708    -3.334708   -2.5721922  0.044545581    -3.334708   0.76251584   426349 
 2479000   0.61469898   -3.3361435   -3.3361435   -2.5720234  0.044571133   -3.3361435   0.76412013   426349 
 2480000   0.61506532   -3.3359052   -3.3359052   -2.5713297  0.043906667   -3.3359052   0.76457552   426349 
 2481000   0.61532186   -3.3362372   -3.3362372   -2.5713428  0.046574128   -3.3362372   0.76489442   426349 
 2482000   0.61419174   -3.3353366   -3.3353366    -2.571847  0.048155328   -3.3353366   0.76348959   426349 
 2483000    0.6135012   -3.3341402   -3.3341402    -2.571509  0.047615984   -3.3341402    0.7626312   426349 
 2484000   0.61553551   -3.3369278   -3.3369278   -2.5717678  0.035495902   -3.3369278   0.76516001   426349 
 2485000   0.61427661   -3.3359835   -3.3359835   -2.5723884  0.042513689   -3.3359835    0.7635951   426349 
 2486000   0.61530712   -3.3376277   -3.3376277   -2.5727516  0.042434035   -3.3376277   0.76487609   426349 
 2487000    0.6148427   -3.3371322   -3.3371322   -2.5728334  0.032330813   -3.3371322   0.76429878   426349 
 2488000   0.61451968   -3.3370034   -3.3370034   -2.5731062  0.043021258   -3.3370034   0.76389724   426349 
 2489000   0.61475211   -3.3374171   -3.3374171   -2.5732309  0.046700606   -3.3374171   0.76418618   426349 
 2490000   0.61467999   -3.3371922   -3.3371922   -2.5730957  0.036738144   -3.3371922   0.76409653   426349 
 2491000   0.61389828   -3.3366591   -3.3366591   -2.5735343  0.037439889   -3.3366591   0.76312479   426349 
 2492000   0.61476581   -3.3377707   -3.3377707   -2.5735675  0.035813741   -3.3377707    0.7642032   426349 
 2493000   0.61533589   -3.3384161   -3.3384161   -2.5735043  0.043711333   -3.3384161   0.76491186   426349 
 2494000   0.61529281   -3.3381978   -3.3381978   -2.5733395  0.038003073   -3.3381978   0.76485831   426349 
 2495000   0.61384931     -3.33678     -3.33678    -2.573716  0.046873587     -3.33678   0.76306393   426349 
 2496000   0.61431933   -3.3368985   -3.3368985   -2.5732503  0.046835179   -3.3368985    0.7636482   426349 
 2497000   0.61589884   -3.3379333   -3.3379333   -2.5723216  0.049160589   -3.3379333   0.76561165   426349 
 2498000    0.6152125   -3.3371248   -3.3371248   -2.5723663  0.046608089   -3.3371248   0.76475847   426349 
 2499000   0.61509005   -3.3376916   -3.3376916   -2.5730853  0.035101784   -3.3376916   0.76460626   426349 
 2500000   0.61382854    -3.336545    -3.336545   -2.5735069  0.050381037    -3.336545    0.7630381   426349 
 2501000   0.61458098   -3.3379776   -3.3379776   -2.5740042  0.040974225   -3.3379776   0.76397345   426349 
 2502000   0.61453076   -3.3374248   -3.3374248   -2.5735138  0.036290045   -3.3374248   0.76391102   426349 
 2503000   0.61374796   -3.3365837   -3.3365837   -2.5736457  0.050426906   -3.3365837   0.76293794   426349 
 2504000   0.61476163    -3.337852    -3.337852    -2.573654  0.037848975    -3.337852   0.76419801   426349 
 2505000   0.61483613   -3.3370436   -3.3370436    -2.572753  0.053644335   -3.3370436   0.76429062   426349 
 2506000   0.61481786   -3.3371862   -3.3371862   -2.5729183  0.047493254   -3.3371862    0.7642679   426349 
 2507000   0.61270583   -3.3354135   -3.3354135   -2.5737711  0.041659687   -3.3354135   0.76164248   426349 
 2508000   0.61530846   -3.3381182   -3.3381182   -2.5732405  0.041867645   -3.3381182   0.76487776   426349 
 2509000   0.61471139   -3.3379679   -3.3379679   -2.5738324  0.046475379   -3.3379679   0.76413556   426349 
 2510000   0.61460123   -3.3372333   -3.3372333   -2.5732347   0.03241445   -3.3372333   0.76399862   426349 
 2511000    0.6139597   -3.3372062   -3.3372062   -2.5740051  0.048108693   -3.3372062   0.76320114   426349 
 2512000   0.61478665   -3.3373499   -3.3373499   -2.5731208  0.042362586   -3.3373499   0.76422911   426349 
 2513000   0.61358584   -3.3362952   -3.3362952   -2.5735587  0.040418297   -3.3362952   0.76273641   426349 
 2514000   0.61519074   -3.3377883   -3.3377883   -2.5730568  0.052997516   -3.3377883   0.76473142   426349 
 2515000   0.61437886   -3.3375445   -3.3375445   -2.5738223  0.050105211   -3.3375445    0.7637222   426349 
 2516000   0.61446443   -3.3369097   -3.3369097   -2.5730811  0.043587231   -3.3369097   0.76382856   426349 
 2517000   0.61424793   -3.3368992   -3.3368992   -2.5733397  0.034435606   -3.3368992   0.76355944   426349 
 2518000   0.61360586   -3.3361309   -3.3361309   -2.5733696  0.042693561   -3.3361309   0.76276129   426349 
 2519000   0.61527795   -3.3383153   -3.3383153   -2.5734754  0.037751634   -3.3383153   0.76483984   426349 
 2520000   0.61384765   -3.3366164   -3.3366164   -2.5735545  0.044044515   -3.3366164   0.76306186   426349 
 2521000   0.61471738   -3.3374422   -3.3374422   -2.5732992  0.047583636   -3.3374422   0.76414301   426349 
 2522000   0.61509965    -3.337628    -3.337628   -2.5730098  0.040855865    -3.337628    0.7646182   426349 
 2523000   0.61297094   -3.3355891   -3.3355891    -2.573617  0.037968752   -3.3355891   0.76197204   426349 
 2524000   0.61358081     -3.33686     -3.33686   -2.5741298  0.047739576     -3.33686   0.76273015   426349 
 2525000   0.61297061   -3.3359316   -3.3359316   -2.5739599  0.041131789   -3.3359316   0.76197163   426349 
 2526000   0.61375335   -3.3376984   -3.3376984   -2.5747537  0.043572972   -3.3376984   0.76294464   426349 
 2527000   0.61448735   -3.3383516   -3.3383516   -2.5744946   0.04861476   -3.3383516   0.76385706   426349 
 2528000   0.61596556   -3.3392323   -3.3392323   -2.5735378  0.045562544   -3.3392323   0.76569459   426349 
 2529000    0.6145724   -3.3382219   -3.3382219   -2.5742591  0.035373896   -3.3382219   0.76396278   426349 
 2530000    0.6143197   -3.3378281   -3.3378281   -2.5741795  0.041074403   -3.3378281   0.76364865   426349 
 2531000   0.61371722   -3.3370129   -3.3370129   -2.5741131  0.035468254   -3.3370129   0.76289972   426349 
 2532000   0.61519148   -3.3386917   -3.3386917   -2.5739593  0.036860508   -3.3386917   0.76473234   426349 
 2533000   0.61459203   -3.3381125   -3.3381125   -2.5741253  0.035875615   -3.3381125   0.76398719   426349 
 2534000   0.61374945   -3.3376565   -3.3376565   -2.5747167  0.036804945   -3.3376565   0.76293979   426349 
 2535000   0.61525003   -3.3392522   -3.3392522   -2.5744471  0.046957724   -3.3392522   0.76480513   426349 
 2536000   0.61478405   -3.3377163   -3.3377163   -2.5734904  0.038073856   -3.3377163   0.76422588   426349 
 2537000   0.61485371   -3.3372679   -3.3372679   -2.5729554  0.035641816   -3.3372679   0.76431248   426349 
 2538000   0.61321528   -3.3357286   -3.3357286   -2.5734529  0.051146088   -3.3357286   0.76227577   426349 
 2539000   0.61252526   -3.3346742   -3.3346742   -2.5732562  0.049223093   -3.3346742   0.76141802   426349 
 2540000    0.6138728   -3.3367742   -3.3367742    -2.573681  0.046981261   -3.3367742   0.76309312   426349 
 2541000   0.61432621   -3.3372472   -3.3372472   -2.5735904  0.031716703   -3.3372472   0.76365674   426349 
 2542000   0.61305376   -3.3357272   -3.3357272   -2.5736522     0.046975   -3.3357272     0.762075   426349 
 2543000   0.61273056   -3.3354046   -3.3354046   -2.5737314  0.043877792   -3.3354046   0.76167323   426349 
 2544000   0.61282216   -3.3364523   -3.3364523   -2.5746652  0.048806084   -3.3364523   0.76178709   426349 
 2545000    0.6133421   -3.3374648   -3.3374648   -2.5750314  0.026366283   -3.3374648   0.76243343   426349 
 2546000   0.61354641    -3.338018    -3.338018   -2.5753306  0.043607413    -3.338018   0.76268739   426349 
 2547000   0.61386278   -3.3382301   -3.3382301   -2.5751494  0.037883657   -3.3382301   0.76308066   426349 
 2548000    0.6140086   -3.3387643   -3.3387643   -2.5755024  0.034447631   -3.3387643   0.76326194   426349 
 2549000   0.61407933   -3.3390851   -3.3390851   -2.5757352  0.038643697   -3.3390851   0.76334986   426349 
 2550000   0.61439986   -3.3396125   -3.3396125   -2.5758642  0.046258692   -3.3396125    0.7637483   426349 
 2551000   0.61489487   -3.3397296   -3.3397296    -2.575366  0.034872536   -3.3397296   0.76436363   426349 
 2552000   0.61410196   -3.3392607   -3.3392607   -2.5758827  0.043199266   -3.3392607   0.76337798   426349 
 2553000   0.61357044   -3.3392643   -3.3392643   -2.5765471  0.037189359   -3.3392643   0.76271727   426349 
 2554000   0.61431648   -3.3402351   -3.3402351   -2.5765904  0.046823811   -3.3402351   0.76364465   426349 
 2555000   0.61417142   -3.3406994   -3.3406994   -2.5772351  0.042186077   -3.3406994   0.76346433   426349 
 2556000    0.6128454   -3.3388037   -3.3388037   -2.5769877  0.043512927   -3.3388037   0.76181599   426349 
 2557000   0.61359581   -3.3403522   -3.3403522   -2.5776034   0.03656632   -3.3403522    0.7627488   426349 
 2558000    0.6144871   -3.3417411   -3.3417411   -2.5778844  0.032060399   -3.3417411   0.76385675   426349 
 2559000   0.61357656   -3.3405958   -3.3405958   -2.5778709  0.039658944   -3.3405958   0.76272487   426349 
 2560000    0.6136789   -3.3409951   -3.3409951    -2.578143  0.038803853   -3.3409951   0.76285209   426349 
 2561000   0.61417809   -3.3423233   -3.3423233   -2.5788507  0.040380762   -3.3423233   0.76347263   426349 
 2562000   0.61305512   -3.3415059   -3.3415059   -2.5794292   0.04302778   -3.3415059   0.76207668   426349 
 2563000   0.61431109    -3.342882    -3.342882   -2.5792441  0.038235254    -3.342882   0.76363796   426349 
 2564000   0.61344367   -3.3423075   -3.3423075   -2.5797478  0.031983773   -3.3423075   0.76255969   426349 
 2565000   0.61344288   -3.3419578   -3.3419578   -2.5793991  0.039478432   -3.3419578    0.7625587   426349 
 2566000   0.61350986   -3.3415888   -3.3415888   -2.5789468  0.047714931   -3.3415888   0.76264196   426349 
 2567000   0.61260312    -3.340327    -3.340327   -2.5788122  0.041775278    -3.340327   0.76151481   426349 
 2568000   0.61477054   -3.3422991   -3.3422991     -2.57809  0.049119718   -3.3422991   0.76420909   426349 
 2569000   0.61398089   -3.3416174   -3.3416174   -2.5783899  0.045245322   -3.3416174   0.76322748   426349 
 2570000   0.61388369   -3.3417271   -3.3417271   -2.5786204   0.04790558   -3.3417271   0.76310666   426349 
 2571000   0.61385947   -3.3416141   -3.3416141   -2.5785376   0.04082908   -3.3416141   0.76307656   426349 
 2572000   0.61373311   -3.3417119   -3.3417119   -2.5787924  0.047951178   -3.3417119   0.76291948   426349 
 2573000   0.61282163   -3.3410235   -3.3410235    -2.579237  0.045367235   -3.3410235   0.76178644   426349 
 2574000    0.6136014   -3.3415721   -3.3415721   -2.5788163    0.0434846   -3.3415721   0.76275575   426349 
 2575000     0.613055   -3.3408436   -3.3408436   -2.5787671  0.042647384   -3.3408436   0.76207654   426349 
 2576000   0.61319258   -3.3408112   -3.3408112   -2.5785637  0.027668915   -3.3408112   0.76224755   426349 
 2577000   0.61422824   -3.3414831   -3.3414831   -2.5779481  0.048526426   -3.3414831   0.76353497   426349 
 2578000   0.61446406   -3.3413961   -3.3413961   -2.5775679  0.044775473   -3.3413961    0.7638281   426349 
 2579000   0.61398784   -3.3412939   -3.3412939   -2.5780578  0.040131113   -3.3412939   0.76323612   426349 
 2580000   0.61342315   -3.3408059   -3.3408059   -2.5782718  0.048844777   -3.3408059   0.76253417   426349 
 2581000   0.61390139   -3.3412884   -3.3412884   -2.5781598  0.037449973   -3.3412884   0.76312866   426349 
 2582000   0.61373159   -3.3411933   -3.3411933   -2.5782757  0.047571142   -3.3411933   0.76291758   426349 
 2583000   0.61333888   -3.3411292   -3.3411292   -2.5786998  0.030400427   -3.3411292   0.76242942   426349 
 2584000   0.61434452   -3.3413032   -3.3413032   -2.5776236  0.049221881   -3.3413032   0.76367951   426349 
 2585000   0.61494446   -3.3419475   -3.3419475   -2.5775222   0.05010246   -3.3419475   0.76442528   426349 
 2586000   0.61258333   -3.3394092   -3.3394092    -2.577919  0.041967549   -3.3394092   0.76149021   426349 
 2587000   0.61401322   -3.3409391   -3.3409391   -2.5776715  0.044591071   -3.3409391   0.76326767   426349 
 2588000   0.61364791   -3.3407718   -3.3407718   -2.5779582  0.039195263   -3.3407718   0.76281357   426349 
 2589000   0.61357318   -3.3411448   -3.3411448   -2.5784242  0.039160574   -3.3411448   0.76272067   426349 
 2590000   0.61313434    -3.340573    -3.340573   -2.5783979  0.036669879    -3.340573   0.76217516   426349 
 2591000   0.61379206   -3.3410647   -3.3410647   -2.5780719   0.03595777   -3.3410647   0.76299276   426349 
 2592000   0.61414928   -3.3418613   -3.3418613   -2.5784244  0.061112708   -3.3418613   0.76343681   426349 
 2593000   0.61350229    -3.341402    -3.341402   -2.5787695  0.040705949    -3.341402   0.76263254   426349 
 2594000   0.61470892   -3.3429686   -3.3429686   -2.5788361  0.040900917   -3.3429686   0.76413249   426349 
 2595000   0.61425693   -3.3417475   -3.3417475   -2.5781769  0.034390696   -3.3417475   0.76357062   426349 
 2596000   0.61468764   -3.3414294   -3.3414294   -2.5773234  0.038397039   -3.3414294   0.76410603   426349 
 2597000   0.61413675   -3.3414956   -3.3414956   -2.5780744  0.042081936   -3.3414956   0.76342123   426349 
 2598000   0.61378279   -3.3417523   -3.3417523   -2.5787711  0.029063306   -3.3417523   0.76298124   426349 
 2599000   0.61243197   -3.3398813   -3.3398813   -2.5785793  0.044905046   -3.3398813   0.76130205   426349 
 2600000   0.61435373   -3.3426757   -3.3426757   -2.5789848  0.044926134   -3.3426757   0.76369096   426349 
 2601000   0.61304291   -3.3415732   -3.3415732   -2.5795117  0.045399747   -3.3415732    0.7620615   426349 
 2602000   0.61344826   -3.3420987   -3.3420987   -2.5795333   0.04760359   -3.3420987   0.76256539   426349 
 2603000   0.61344056   -3.3428886   -3.3428886   -2.5803328  0.038388502   -3.3428886   0.76255581   426349 
 2604000    0.6118414   -3.3415989   -3.3415989    -2.581031  0.037795622   -3.3415989   0.76056793   426349 
 2605000   0.61203701   -3.3414921   -3.3414921    -2.580681  0.036942481   -3.3414921   0.76081109   426349 
 2606000   0.61345723    -3.343001    -3.343001   -2.5804245  0.038334363    -3.343001   0.76257654   426349 
 2607000   0.61386192   -3.3432551   -3.3432551   -2.5801755  0.039607653   -3.3432551   0.76307959   426349 
 2608000   0.61417345   -3.3434424   -3.3434424   -2.5799756  0.042823108   -3.3434424   0.76346686   426349 
 2609000    0.6134364   -3.3428947   -3.3428947   -2.5803441  0.041781772   -3.3428947   0.76255065   426349 
 2610000    0.6140296   -3.3434263   -3.3434263   -2.5801383  0.032475997   -3.3434263   0.76328804   426349 
 2611000    0.6140251   -3.3437544   -3.3437544    -2.580472  0.031627544   -3.3437544   0.76328244   426349 
 2612000   0.61323253   -3.3424758   -3.3424758   -2.5801786  0.046112785   -3.3424758   0.76229722   426349 
 2613000   0.61268882   -3.3417319   -3.3417319   -2.5801105  0.040060776   -3.3417319   0.76162135   426349 
 2614000   0.61282521   -3.3410246   -3.3410246   -2.5792337  0.045271595   -3.3410246   0.76179089   426349 
 2615000   0.61432864   -3.3432931   -3.3432931   -2.5796333  0.035351283   -3.3432931   0.76365977   426349 
 2616000   0.61318126   -3.3428775   -3.3428775    -2.580644   0.04345631   -3.3428775   0.76223348   426349 
 2617000   0.61245973   -3.3413285   -3.3413285   -2.5799919  0.037171399   -3.3413285   0.76133657   426349 
 2618000   0.61500901   -3.3442867   -3.3442867   -2.5797812  0.039943695   -3.3442867   0.76450552   426349 
 2619000   0.61380438   -3.3427043   -3.3427043   -2.5796962  0.034324699   -3.3427043   0.76300807   426349 
 2620000   0.61329262   -3.3427584   -3.3427584   -2.5803865  0.039794588   -3.3427584   0.76237191   426349 
 2621000   0.61436613   -3.3431375   -3.3431375   -2.5794312  0.043045617   -3.3431375   0.76370638   426349 
 2622000   0.61276416   -3.3422695   -3.3422695   -2.5805545  0.044957876   -3.3422695   0.76171499   426349 
 2623000   0.61329814   -3.3424739   -3.3424739   -2.5800951   0.03526384   -3.3424739   0.76237877   426349 
 2624000   0.61343024   -3.3428971   -3.3428971   -2.5803541  0.038924924   -3.3428971   0.76254299   426349 
 2625000   0.61483414   -3.3442286   -3.3442286   -2.5799404  0.044680827   -3.3442286   0.76428815   426349 
 2626000    0.6144306   -3.3437214   -3.3437214   -2.5799349  0.040975492   -3.3437214   0.76378651   426349 
 2627000   0.61310201   -3.3418255   -3.3418255   -2.5796905  0.049947143   -3.3418255   0.76213497   426349 
 2628000   0.61427876   -3.3434629   -3.3434629   -2.5798651   0.03732132   -3.3434629   0.76359776   426349 
 2629000   0.61327098   -3.3418747   -3.3418747   -2.5795297  0.041643919   -3.3418747   0.76234501   426349 
 2630000   0.61366406   -3.3424665   -3.3424665   -2.5796329  0.031635618   -3.3424665   0.76283364   426349 
 2631000   0.61442822   -3.3432761   -3.3432761   -2.5794925  0.033222506   -3.3432761   0.76378355   426349 
 2632000   0.61469236   -3.3433536   -3.3433536   -2.5792417  0.051571878   -3.3433536    0.7641119   426349 
 2633000   0.61291505   -3.3420743   -3.3420743   -2.5801718  0.043426881   -3.3420743   0.76190257   426349 
 2634000   0.61340486   -3.3424574   -3.3424574    -2.579946  0.035629654   -3.3424574   0.76251143   426349 
 2635000   0.61433607   -3.3440902   -3.3440902   -2.5804212  0.051358595   -3.3440902     0.763669   426349 
 2636000   0.61410495   -3.3441593   -3.3441593   -2.5807776  0.039683901   -3.3441593    0.7633817   426349 
 2637000   0.61187393   -3.3422042   -3.3422042   -2.5815958  0.036391131   -3.3422042   0.76060837   426349 
 2638000   0.61254138   -3.3431607   -3.3431607   -2.5817226  0.030160848   -3.3431607   0.76143806   426349 
 2639000   0.61318006    -3.343992    -3.343992     -2.58176  0.038949829    -3.343992   0.76223199   426349 
 2640000   0.61269788   -3.3434876   -3.3434876    -2.581855  0.036658377   -3.3434876    0.7616326   426349 
 2641000   0.61365307    -3.344237    -3.344237    -2.581417  0.047228887    -3.344237   0.76281998   426349 
 2642000   0.61213837   -3.3425141   -3.3425141    -2.581577  0.041329128   -3.3425141   0.76093709   426349 
 2643000   0.61172216   -3.3420957   -3.3420957    -2.581676  0.047936654   -3.3420957    0.7604197   426349 
 2644000   0.61322058   -3.3439294   -3.3439294    -2.581647  0.038493176   -3.3439294   0.76228236   426349 
 2645000   0.61287024   -3.3429356   -3.3429356   -2.5810887  0.050298635   -3.3429356   0.76184687   426349 
 2646000   0.61334035   -3.3432814   -3.3432814   -2.5808502  0.044771332   -3.3432814   0.76243124   426349 
 2647000   0.61280706   -3.3430351   -3.3430351   -2.5812668  0.034987674   -3.3430351   0.76176833   426349 
 2648000   0.61330074   -3.3438433   -3.3438433   -2.5814613   0.03259616   -3.3438433   0.76238201   426349 
 2649000   0.61312667   -3.3434813   -3.3434813   -2.5813157  0.044001709   -3.3434813   0.76216562   426349 
 2650000   0.61391997   -3.3449572   -3.3449572   -2.5818054  0.051788123   -3.3449572   0.76315176   426349 
 2651000   0.61339602   -3.3446856   -3.3446856   -2.5821852   0.04350141   -3.3446856   0.76250045   426349 
 2652000   0.61301785   -3.3442767   -3.3442767   -2.5822463  0.046106526   -3.3442767   0.76203035   426349 
 2653000   0.61453887   -3.3459324   -3.3459324   -2.5820113  0.035442061   -3.3459324   0.76392111   426349 
 2654000   0.61306113   -3.3445633   -3.3445633   -2.5824792  0.043819908   -3.3445633   0.76208415   426349 
 2655000   0.61248836   -3.3441952   -3.3441952    -2.582823  0.037449211   -3.3441952   0.76137216   426349 
 2656000   0.61367347   -3.3457573   -3.3457573   -2.5829119  0.038046127   -3.3457573   0.76284534   426349 
 2657000   0.61376402   -3.3464903   -3.3464903   -2.5835324  0.025317585   -3.3464903    0.7629579   426349 
 2658000   0.61430081   -3.3470246   -3.3470246   -2.5833994  0.048781306   -3.3470246   0.76362517   426349 
 2659000   0.61437267   -3.3472788   -3.3472788   -2.5835643  0.039130064   -3.3472788    0.7637145   426349 
 2660000   0.61261945    -3.345806    -3.345806   -2.5842709  0.035039054    -3.345806   0.76153511   426349 
 2661000   0.61255363   -3.3461972   -3.3461972    -2.584744  0.038795827   -3.3461972   0.76145329   426349 
 2662000   0.61209013   -3.3459254   -3.3459254   -2.5850483  0.051114406   -3.3459254   0.76087713   426349 
 2663000   0.61322007   -3.3473413   -3.3473413   -2.5850596   0.03596981   -3.3473413   0.76228173   426349 
 2664000   0.61235935   -3.3455593   -3.3455593   -2.5843475  0.034394845   -3.3455593   0.76121178   426349 
 2665000   0.61329511   -3.3461133   -3.3461133   -2.5837383  0.042738435   -3.3461133   0.76237501   426349 
 2666000   0.61379126   -3.3467528   -3.3467528    -2.583761  0.038976551   -3.3467528   0.76299176   426349 
 2667000    0.6128687   -3.3458989   -3.3458989   -2.5840539  0.037584081   -3.3458989   0.76184495   426349 
 2668000   0.61394458   -3.3472907   -3.3472907   -2.5841083  0.043802647   -3.3472907   0.76318236   426349 
 2669000   0.61265631    -3.345335    -3.345335   -2.5837541  0.046435893    -3.345335   0.76158093   426349 
 2670000   0.61407129   -3.3473847   -3.3473847   -2.5840449  0.027445093   -3.3473847   0.76333986   426349 
 2671000   0.61368175   -3.3470554   -3.3470554   -2.5841997  0.037672712   -3.3470554   0.76285564   426349 
 2672000   0.61143237   -3.3448142   -3.3448142   -2.5847548  0.032767528   -3.3448142   0.76005947   426349 
 2673000   0.61295463   -3.3459488   -3.3459488    -2.583997   0.05037594   -3.3459488   0.76195176   426349 
 2674000   0.61205238   -3.3462175   -3.3462175   -2.5853873  0.034814087   -3.3462175   0.76083019   426349 
 2675000    0.6129431   -3.3464503   -3.3464503   -2.5845129  0.031279619   -3.3464503   0.76193743   426349 
 2676000     0.612545   -3.3454434   -3.3454434   -2.5840009  0.044421047   -3.3454434   0.76144256   426349 
 2677000   0.61334189   -3.3466357   -3.3466357   -2.5842025  0.037751887   -3.3466357   0.76243316   426349 
 2678000    0.6138257   -3.3470338   -3.3470338   -2.5839993  0.046511654   -3.3470338   0.76303458   426349 
 2679000   0.61328499   -3.3458827   -3.3458827   -2.5835203  0.048172016   -3.3458827   0.76236243   426349 
 2680000    0.6137721   -3.3464177   -3.3464177   -2.5834498   0.04066684   -3.3464177   0.76296795   426349 
 2681000   0.61353648   -3.3456467   -3.3456467   -2.5829717  0.047709284   -3.3456467   0.76267506   426349 
 2682000   0.61322544   -3.3459512   -3.3459512   -2.5836628  0.057979078   -3.3459512    0.7622884   426349 
 2683000   0.61372817   -3.3458571   -3.3458571   -2.5829437  0.045358814   -3.3458571   0.76291334   426349 
 2684000   0.61375107   -3.3463147   -3.3463147   -2.5833729  0.042630509   -3.3463147    0.7629418   426349 
 2685000   0.61445916   -3.3462879   -3.3462879   -2.5824659  0.042461587   -3.3462879   0.76382202   426349 
 2686000   0.61216891   -3.3441502   -3.3441502   -2.5831752  0.037865014   -3.3441502   0.76097505   426349 
 2687000   0.61325597   -3.3445876   -3.3445876   -2.5822613  0.040146031   -3.3445876   0.76232636   426349 
 2688000      0.61326   -3.3442907   -3.3442907   -2.5819594  0.043490024   -3.3442907   0.76233136   426349 
 2689000   0.61306162   -3.3449504   -3.3449504   -2.5828656  0.043863125   -3.3449504   0.76208476   426349 
 2690000   0.61266173   -3.3444392   -3.3444392   -2.5828515  0.043578408   -3.3444392   0.76158767   426349 
 2691000   0.61246228   -3.3449246   -3.3449246   -2.5835849  0.033915921   -3.3449246   0.76133973   426349 
 2692000   0.61235998   -3.3446956   -3.3446956   -2.5834831   0.04223569   -3.3446956   0.76121256   426349 
 2693000   0.61203985   -3.3451079   -3.3451079   -2.5842933  0.042756697   -3.3451079   0.76081462   426349 
 2694000   0.61231589   -3.3459772   -3.3459772   -2.5848194  0.030549798   -3.3459772   0.76115776   426349 
 2695000   0.61198243   -3.3454846   -3.3454846   -2.5847414  0.050087667   -3.3454846   0.76074325   426349 
 2696000   0.61366457   -3.3467597   -3.3467597   -2.5839254   0.03666408   -3.3467597   0.76283427   426349 
 2697000   0.61430834    -3.346747    -3.346747   -2.5831125  0.047249677    -3.346747   0.76363454   426349 
 2698000   0.61390558   -3.3468354   -3.3468354   -2.5837015  0.049400517   -3.3468354   0.76313387   426349 
 2699000   0.61384639   -3.3471435   -3.3471435   -2.5840832  0.034886029   -3.3471435   0.76306029   426349 
 2700000   0.61215783   -3.3460903   -3.3460903    -2.585129  0.038669757   -3.3460903   0.76096127   426349 
 2701000   0.61272685   -3.3468219   -3.3468219   -2.5851533  0.033846663   -3.3468219   0.76166861   426349 
 2702000   0.61414597   -3.3476202   -3.3476202   -2.5841876  0.051940715   -3.3476202    0.7634327   426349 
 2703000   0.61502946   -3.3485283   -3.3485283   -2.5839974  0.044482968   -3.3485283   0.76453094   426349 
 2704000   0.61363736   -3.3467822   -3.3467822   -2.5839817  0.042098077   -3.3467822   0.76280046   426349 
 2705000   0.61475554   -3.3480643   -3.3480643   -2.5838739  0.049724996   -3.3480643   0.76419044   426349 
 2706000   0.61378573   -3.3473002   -3.3473002   -2.5843153  0.047708301   -3.3473002   0.76298489   426349 
 2707000   0.61472434    -3.348096    -3.348096   -2.5839443  0.038873922    -3.348096   0.76415166   426349 
 2708000   0.61304133   -3.3457104   -3.3457104   -2.5836508  0.045626707   -3.3457104   0.76205954   426349 
 2709000   0.61343649   -3.3464857   -3.3464857   -2.5839349  0.038533202   -3.3464857   0.76255076   426349 
 2710000   0.61329467   -3.3463889   -3.3463889   -2.5840144  0.047668535   -3.3463889   0.76237446   426349 
 2711000   0.61404648   -3.3470057   -3.3470057   -2.5836967  0.036912326   -3.3470057   0.76330903   426349 
 2712000   0.61361674   -3.3466163   -3.3466163   -2.5838415  0.039381303   -3.3466163   0.76277482   426349 
 2713000   0.61389816    -3.347188    -3.347188   -2.5840633  0.040765557    -3.347188   0.76312465   426349 
 2714000   0.61245527   -3.3465522   -3.3465522   -2.5852212  0.042162075   -3.3465522   0.76133102   426349 
 2715000   0.61234995   -3.3461435   -3.3461435   -2.5849434  0.046816506   -3.3461435    0.7612001   426349 
 2716000   0.61288136   -3.3463927   -3.3463927    -2.584532  0.042078654   -3.3463927   0.76186069   426349 
 2717000   0.61234399   -3.3450998   -3.3450998   -2.5839071  0.050005162   -3.3450998    0.7611927   426349 
 2718000    0.6124939     -3.34439     -3.34439    -2.583011  0.044618813     -3.34439   0.76137904   426349 
 2719000   0.61343175   -3.3455488   -3.3455488   -2.5830039  0.037565351   -3.3455488   0.76254486   426349 
 2720000   0.61333396   -3.3459867   -3.3459867   -2.5835634  0.041788818   -3.3459867   0.76242331   426349 
 2721000   0.61280717   -3.3455839   -3.3455839   -2.5838154  0.041412085   -3.3455839   0.76176846   426349 
 2722000   0.61303205   -3.3458388   -3.3458388   -2.5837908  0.040191712   -3.3458388   0.76204801   426349 
 2723000   0.61241124   -3.3451655   -3.3451655   -2.5838892  0.034852067   -3.3451655   0.76127628   426349 
 2724000   0.61286153   -3.3463028   -3.3463028   -2.5844667  0.044489382   -3.3463028   0.76183603   426349 
 2725000   0.61241022   -3.3454482   -3.3454482   -2.5841731  0.044138326   -3.3454482   0.76127502   426349 
 2726000   0.61138562   -3.3434287   -3.3434287   -2.5834273  0.040332509   -3.3434287   0.76000136   426349 
 2727000   0.61337345   -3.3457474   -3.3457474   -2.5832751  0.038398714   -3.3457474   0.76247238   426349 
 2728000   0.61256303   -3.3444292   -3.3444292   -2.5829642  0.034748125   -3.3444292   0.76146497   426349 
 2729000    0.6134188   -3.3465539   -3.3465539   -2.5840252   0.05715137   -3.3465539   0.76252877   426349 
 2730000   0.61316145   -3.3465298   -3.3465298   -2.5843209  0.037948406   -3.3465298   0.76220886   426349 
 2731000   0.61312285   -3.3457376   -3.3457376   -2.5835767  0.047845766   -3.3457376   0.76216088   426349 
 2732000   0.61287629     -3.34599     -3.34599   -2.5841356  0.033914635     -3.34599   0.76185438   426349 
 2733000    0.6135842   -3.3467822   -3.3467822   -2.5840479  0.045364472   -3.3467822   0.76273437   426349 
 2734000   0.61340733   -3.3469101   -3.3469101   -2.5843956  0.033775092   -3.3469101   0.76251451   426349 
 2735000   0.61340866   -3.3475154   -3.3475154   -2.5849992  0.042206963   -3.3475154   0.76251616   426349 
 2736000   0.61333095   -3.3466487   -3.3466487   -2.5842291  0.042318386   -3.3466487   0.76241956   426349 
 2737000   0.61417234   -3.3480789   -3.3480789   -2.5846134  0.048853996   -3.3480789   0.76346547   426349 
 2738000   0.61380837   -3.3471678   -3.3471678   -2.5841548  0.046053041   -3.3471678   0.76301303   426349 
 2739000   0.61316218   -3.3474783   -3.3474783   -2.5852685  0.042949036   -3.3474783   0.76220976   426349 
 2740000   0.61434168   -3.3491382   -3.3491382   -2.5854622  0.046239082   -3.3491382   0.76367597   426349 
 2741000   0.61308161   -3.3471723   -3.3471723   -2.5850627  0.051109565   -3.3471723   0.76210961   426349 
 2742000   0.61362301   -3.3488509   -3.3488509   -2.5860683  0.034211844   -3.3488509   0.76278261   426349 
 2743000   0.61320864   -3.3483776   -3.3483776   -2.5861101  0.048385003   -3.3483776   0.76226752   426349 
 2744000   0.61375092     -3.34863     -3.34863   -2.5856884  0.043864715     -3.34863   0.76294162   426349 
 2745000   0.61432656   -3.3496607   -3.3496607   -2.5860035   0.04448518   -3.3496607   0.76365718   426349 
 2746000   0.61249323   -3.3478826   -3.3478826   -2.5865044  0.043000223   -3.3478826   0.76137821   426349 
 2747000   0.61326554   -3.3488816   -3.3488816   -2.5865434   0.04100414   -3.3488816   0.76233825   426349 
 2748000   0.61257854   -3.3484202   -3.3484202    -2.586936  0.033804822   -3.3484202   0.76148425   426349 
 2749000   0.61239594    -3.348306    -3.348306   -2.5870487   0.03305432    -3.348306   0.76125726   426349 
 2750000   0.61157321   -3.3477143   -3.3477143   -2.5874797  0.031955209   -3.3477143   0.76023454   426349 
 2751000   0.61173427   -3.3473952   -3.3473952   -2.5869605  0.043626467   -3.3473952   0.76043475   426349 
 2752000   0.61310355    -3.348976    -3.348976   -2.5868392  0.039464077    -3.348976   0.76213688   426349 
 2753000    0.6125569   -3.3483081   -3.3483081   -2.5868508  0.039380094   -3.3483081   0.76145736   426349 
 2754000   0.61204046   -3.3479997   -3.3479997   -2.5871844  0.045467982   -3.3479997   0.76081537   426349 
 2755000   0.61290596    -3.348667    -3.348667   -2.5867758  0.044904733    -3.348667   0.76189126   426349 
 2756000   0.61240216   -3.3486151   -3.3486151   -2.5873501  0.037249931   -3.3486151     0.761265   426349 
 2757000   0.61242206   -3.3483931   -3.3483931   -2.5871034   0.04364982   -3.3483931   0.76128974   426349 
 2758000    0.6122413   -3.3481726   -3.3481726   -2.5871076  0.035205403   -3.3481726   0.76106504   426349 
 2759000   0.61346998   -3.3492823   -3.3492823   -2.5866899   0.05615667   -3.3492823   0.76259239   426349 
 2760000   0.61295764   -3.3485913   -3.3485913   -2.5866358  0.052955181   -3.3485913   0.76195551   426349 
 2761000   0.61214303   -3.3482118   -3.3482118   -2.5872689  0.043357407   -3.3482118   0.76094288   426349 
 2762000   0.61241079   -3.3485178   -3.3485178    -2.587242    0.0341776   -3.3485178   0.76127572   426349 
 2763000   0.61392978   -3.3504238   -3.3504238   -2.5872598    0.0511017   -3.3504238   0.76316396   426349 
 2764000    0.6136254   -3.3501298   -3.3501298   -2.5873442  0.038918235   -3.3501298   0.76278559   426349 
 2765000   0.61371845   -3.3505898   -3.3505898   -2.5876886  0.041897377   -3.3505898   0.76290125   426349 
 2766000   0.61322411   -3.3506645   -3.3506645   -2.5883778  0.043358211   -3.3506645   0.76228675   426349 
 2767000   0.61266986   -3.3497906   -3.3497906   -2.5881928  0.042445468   -3.3497906   0.76159778   426349 
 2768000   0.61317054   -3.3494058   -3.3494058   -2.5871857  0.049340172   -3.3494058   0.76222015   426349 
 2769000   0.61482107   -3.3515791   -3.3515791   -2.5873072  0.046723377   -3.3515791    0.7642719   426349 
 2770000   0.61404644   -3.3504183   -3.3504183   -2.5871093  0.036350379   -3.3504183   0.76330897   426349 
 2771000   0.61416547   -3.3504105   -3.3504105   -2.5869535  0.037326686   -3.3504105   0.76345693   426349 
 2772000   0.61385725   -3.3502659   -3.3502659   -2.5871921  0.041467278   -3.3502659   0.76307379   426349 
 2773000   0.61324904   -3.3493293   -3.3493293   -2.5870116  0.045595442   -3.3493293   0.76231774   426349 
 2774000   0.61202939   -3.3486482   -3.3486482   -2.5878466  0.038313367   -3.3486482   0.76080162   426349 
 2775000   0.61240099    -3.349117    -3.349117   -2.5878534  0.043693044    -3.349117   0.76126355   426349 
 2776000   0.61134458   -3.3479491   -3.3479491   -2.5879988  0.037393945   -3.3479491   0.75995035   426349 
 2777000   0.61042274   -3.3474782   -3.3474782   -2.5886738  0.033224142   -3.3474782   0.75880442   426349 
 2778000   0.61194146    -3.349794    -3.349794   -2.5891017  0.035194261    -3.349794   0.76069231   426349 
 2779000   0.61323719   -3.3506359   -3.3506359   -2.5883329  0.037940216   -3.3506359   0.76230301   426349 
 2780000   0.61284966   -3.3499889   -3.3499889   -2.5881676  0.044731843   -3.3499889   0.76182128   426349 
 2781000   0.61242058   -3.3494407   -3.3494407   -2.5881528   0.03604805   -3.3494407   0.76128789   426349 
 2782000   0.61374291   -3.3508796   -3.3508796   -2.5879479  0.045838779   -3.3508796   0.76293165   426349 
 2783000   0.61292886   -3.3498761   -3.3498761   -2.5879564  0.049612524   -3.3498761   0.76191973   426349 
 2784000   0.61324827   -3.3499017   -3.3499017   -2.5875849  0.046370479   -3.3499017   0.76231679   426349 
 2785000   0.61480809   -3.3529737   -3.3529737   -2.5887179  0.042590897   -3.3529737   0.76425576   426349 
 2786000   0.61199314   -3.3499846   -3.3499846   -2.5892281  0.048479105   -3.3499846   0.76075656   426349 
 2787000   0.61340874   -3.3518797   -3.3518797   -2.5893634  0.044167141   -3.3518797   0.76251626   426349 
 2788000   0.61212632   -3.3497851   -3.3497851    -2.588863  0.039099813   -3.3497851    0.7609221   426349 
 2789000   0.61298056   -3.3512314   -3.3512314   -2.5892474  0.044486201   -3.3512314     0.761984   426349 
 2790000    0.6126718    -3.351481    -3.351481   -2.5898808  0.042010619    -3.351481   0.76160018   426349 
 2791000   0.61261894   -3.3510972   -3.3510972   -2.5895627  0.046393796   -3.3510972   0.76153448   426349 
 2792000   0.61315574   -3.3517595   -3.3517595   -2.5895577  0.042508971   -3.3517595   0.76220176   426349 
 2793000    0.6130454   -3.3510272   -3.3510272   -2.5889626  0.045954534   -3.3510272    0.7620646   426349 
 2794000   0.61229824   -3.3500338   -3.3500338   -2.5888979  0.046650461   -3.3500338   0.76113582   426349 
 2795000   0.61302008   -3.3502471   -3.3502471    -2.588214  0.048213356   -3.3502471   0.76203312   426349 
 2796000   0.61233172   -3.3491633   -3.3491633   -2.5879859  0.037340892   -3.3491633   0.76117744   426349 
 2797000   0.61223588   -3.3501553   -3.3501553    -2.589097  0.041940317   -3.3501553    0.7610583   426349 
 2798000   0.61249736   -3.3495685   -3.3495685   -2.5881851   0.03271062   -3.3495685   0.76138334   426349 
 2799000   0.61213755    -3.348936    -3.348936   -2.5879999  0.045789427    -3.348936   0.76093607   426349 
 2800000   0.61327737   -3.3506751   -3.3506751   -2.5883221  0.031577617   -3.3506751   0.76235296   426349 
 2801000   0.61306403   -3.3503596   -3.3503596   -2.5882718  0.040136907   -3.3503596   0.76208776   426349 
 2802000   0.61404954    -3.351169    -3.351169   -2.5878561  0.033058594    -3.351169   0.76331282   426349 
 2803000   0.61331854   -3.3511599   -3.3511599   -2.5887557  0.042872897   -3.3511599   0.76240413   426349 
 2804000   0.61312609   -3.3508491   -3.3508491   -2.5886842  0.038526395   -3.3508491    0.7621649   426349 
 2805000   0.61342308   -3.3522569   -3.3522569   -2.5897228  0.043690378   -3.3522569   0.76253409   426349 
 2806000   0.61372294   -3.3533901   -3.3533901   -2.5904833  0.039334283   -3.3533901   0.76290684   426349 
 2807000   0.61271111   -3.3526916   -3.3526916   -2.5910425  0.052856159   -3.3526916   0.76164905   426349 
 2808000   0.61350875   -3.3541933   -3.3541933   -2.5915527  0.037947797   -3.3541933   0.76264057   426349 
 2809000   0.61263645    -3.352367    -3.352367   -2.5908108  0.034759195    -3.352367   0.76155625   426349 
 2810000    0.6133662   -3.3534544   -3.3534544   -2.5909911  0.042731464   -3.3534544   0.76246338   426349 
 2811000   0.61266088   -3.3529327   -3.3529327   -2.5913461  0.045005551   -3.3529327   0.76158661   426349 
 2812000   0.61188019   -3.3519628   -3.3519628   -2.5913467  0.049303795   -3.3519628   0.76061615   426349 
 2813000   0.61145875   -3.3518423   -3.3518423     -2.59175  0.037435384   -3.3518423   0.76009227   426349 
 2814000   0.61435076   -3.3548362   -3.3548362    -2.591149  0.041997236   -3.3548362   0.76368727   426349 
 2815000    0.6128293   -3.3531931   -3.3531931   -2.5913971  0.057127087   -3.3531931   0.76179597   426349 
 2816000   0.61304288   -3.3535152   -3.3535152   -2.5914538  0.039219118   -3.3535152   0.76206147   426349 
 2817000   0.61302901   -3.3537231   -3.3537231   -2.5916789  0.040543536   -3.3537231   0.76204423   426349 
 2818000    0.6132912   -3.3541347   -3.3541347   -2.5917646  0.042639477   -3.3541347   0.76237014   426349 
 2819000   0.61329392   -3.3538199   -3.3538199   -2.5914464  0.040549985   -3.3538199   0.76237353   426349 
 2820000    0.6115324   -3.3528281   -3.3528281   -2.5926443  0.042455885   -3.3528281   0.76018381   426349 
 2821000   0.61070569   -3.3515163   -3.3515163   -2.5923602  0.043754325   -3.3515163   0.75915616   426349 
 2822000    0.6115231   -3.3523577   -3.3523577   -2.5921855  0.046305428   -3.3523577   0.76017226   426349 
 2823000   0.61064707    -3.351247    -3.351247   -2.5921638  0.031349662    -3.351247   0.75908329   426349 
 2824000   0.61224786   -3.3534073   -3.3534073   -2.5923341  0.044741851   -3.3534073   0.76107319   426349 
 2825000   0.61231004   -3.3536642   -3.3536642   -2.5925137  0.050136223   -3.3536642   0.76115049   426349 
 2826000   0.61170825   -3.3527086   -3.3527086   -2.5923062  0.042688145   -3.3527086   0.76040242   426349 
 2827000   0.61177084   -3.3531371   -3.3531371   -2.5926568  0.047396956   -3.3531371   0.76048022   426349 
 2828000   0.61142962    -3.353767    -3.353767    -2.593711  0.037557838    -3.353767   0.76005605   426349 
 2829000   0.61239012   -3.3546234   -3.3546234   -2.5933733  0.051207425   -3.3546234   0.76125003   426349 
 2830000   0.61213906   -3.3549419   -3.3549419    -2.594004  0.048113206   -3.3549419   0.76093794   426349 
 2831000   0.61129206    -3.354225    -3.354225   -2.5943399  0.043677125    -3.354225   0.75988506   426349 
 2832000   0.61242353   -3.3556245   -3.3556245    -2.594333  0.030704606   -3.3556245   0.76129156   426349 
 2833000   0.61375379   -3.3568105   -3.3568105   -2.5938654  0.041257489   -3.3568105   0.76294518   426349 
 2834000   0.61378345   -3.3562102   -3.3562102   -2.5932282  0.036878604   -3.3562102   0.76298205   426349 
 2835000   0.61293298   -3.3551825   -3.3551825   -2.5932577  0.043893887   -3.3551825   0.76192486   426349 
 2836000   0.61240935   -3.3551667   -3.3551667   -2.5938928  0.035961719   -3.3551667   0.76127394   426349 
 2837000   0.61286219   -3.3560186   -3.3560186   -2.5941817  0.047931998   -3.3560186   0.76183685   426349 
 2838000   0.61354636   -3.3562575   -3.3562575   -2.5935701   0.03929648   -3.3562575   0.76268733   426349 
 2839000   0.61329377   -3.3559058   -3.3559058   -2.5935325  0.047377726   -3.3559058   0.76237334   426349 
 2840000   0.61369855   -3.3565425   -3.3565425    -2.593666  0.037940008   -3.3565425   0.76287652   426349 
 2841000   0.61284992   -3.3550491   -3.3550491   -2.5932275  0.045002765   -3.3550491   0.76182161   426349 
 2842000    0.6124705   -3.3540784   -3.3540784   -2.5927285  0.038147048   -3.3540784   0.76134996   426349 
 2843000   0.61162893   -3.3530472   -3.3530472   -2.5927434  0.034192734   -3.3530472   0.76030381   426349 
 2844000   0.61268115    -3.354626    -3.354626   -2.5930142  0.042807572    -3.354626   0.76161181   426349 
 2845000   0.61071503   -3.3523471   -3.3523471   -2.5931793  0.040716804   -3.3523471   0.75916776   426349 
 2846000   0.61177443   -3.3535452   -3.3535452   -2.5930606  0.036526259   -3.3535452   0.76048467   426349 
 2847000   0.60994151   -3.3517436   -3.3517436   -2.5935374  0.034920451   -3.3517436   0.75820621   426349 
 2848000   0.61059708   -3.3523401   -3.3523401   -2.5933189    0.0407387   -3.3523401   0.75902114   426349 
 2849000   0.61165459   -3.3532364   -3.3532364   -2.5929006  0.035563666   -3.3532364   0.76033572   426349 
 2850000   0.61157544   -3.3531619   -3.3531619   -2.5929246  0.042820298   -3.3531619   0.76023732   426349 
 2851000   0.61213611   -3.3544423   -3.3544423   -2.5935081  0.033773032   -3.3544423   0.76093428   426349 
 2852000   0.61148294   -3.3538438   -3.3538438   -2.5937215  0.039792905   -3.3538438   0.76012234   426349 
 2853000   0.61259176   -3.3551613   -3.3551613   -2.5936606  0.036656952   -3.3551613   0.76150068   426349 
 2854000   0.61245319    -3.354855    -3.354855   -2.5935266  0.044250753    -3.354855   0.76132843   426349 
 2855000   0.61281811   -3.3555469   -3.3555469   -2.5937648   0.04990779   -3.3555469   0.76178206   426349 
 2856000   0.61320719   -3.3557274   -3.3557274   -2.5934617  0.039739914   -3.3557274   0.76226572   426349 
 2857000   0.61279919   -3.3557658   -3.3557658   -2.5940072  0.040622267   -3.3557658   0.76175855   426349 
 2858000   0.61303618   -3.3557268   -3.3557268   -2.5936737  0.056406564   -3.3557268   0.76205313   426349 
 2859000   0.61409716   -3.3574414   -3.3574414   -2.5940694  0.040213254   -3.3574414   0.76337202   426349 
 2860000   0.61382534    -3.357255    -3.357255   -2.5942208  0.038382281    -3.357255   0.76303412   426349 
 2861000   0.61345878   -3.3567666   -3.3567666   -2.5941882  0.041228573   -3.3567666   0.76257846   426349 
 2862000   0.61403527   -3.3567193   -3.3567193   -2.5934243  0.044269231   -3.3567193   0.76329508   426349 
 2863000   0.61258495   -3.3558798   -3.3558798   -2.5943875  0.039843078   -3.3558798   0.76149223   426349 
 2864000   0.61060498   -3.3537638   -3.3537638   -2.5947328  0.054204502   -3.3537638   0.75903096   426349 
 2865000   0.61075239   -3.3546455   -3.3546455   -2.5954313   0.05131233   -3.3546455    0.7592142   426349 
 2866000   0.60977676   -3.3536094   -3.3536094    -2.595608  0.034031045   -3.3536094   0.75800141   426349 
 2867000    0.6109303   -3.3545581   -3.3545581   -2.5951228  0.038822824   -3.3545581   0.75943536   426349 
 2868000   0.61171728   -3.3555002   -3.3555002   -2.5950865  0.050737571   -3.3555002   0.76041363   426349 
 2869000   0.61210652    -3.354567    -3.354567   -2.5936695  0.040158746    -3.354567   0.76089749   426349 
 2870000   0.61062151   -3.3532261   -3.3532261   -2.5941746  0.043927867   -3.3532261    0.7590515   426349 
 2871000   0.61226738   -3.3559852   -3.3559852   -2.5948877  0.044808666   -3.3559852   0.76109746   426349 
 2872000   0.61220124   -3.3553091   -3.3553091   -2.5942939  0.048884855   -3.3553091   0.76101524   426349 
 2873000    0.6123135   -3.3553564   -3.3553564   -2.5942016  0.045784554   -3.3553564   0.76115479   426349 
 2874000   0.61202889   -3.3547386   -3.3547386   -2.5939376  0.046857743   -3.3547386   0.76080099   426349 
 2875000    0.6125971   -3.3551612   -3.3551612   -2.5936539  0.034904054   -3.3551612   0.76150733   426349 
 2876000   0.61177206   -3.3545208   -3.3545208    -2.594039  0.040844931   -3.3545208   0.76048174   426349 
 2877000   0.61171364   -3.3543816   -3.3543816   -2.5939725  0.035335799   -3.3543816   0.76040911   426349 
 2878000   0.61075457    -3.354031    -3.354031   -2.5948141  0.034835499    -3.354031   0.75921692   426349 
 2879000   0.61135408   -3.3549405   -3.3549405   -2.5949784  0.036557973   -3.3549405   0.75996215   426349 
 2880000    0.6130427   -3.3570588   -3.3570588   -2.5949976  0.037360808   -3.3570588   0.76206124   426349 
 2881000   0.61148088   -3.3547542   -3.3547542   -2.5946344  0.031221027   -3.3547542   0.76011977   426349 
 2882000   0.61263814   -3.3562142   -3.3562142   -2.5946558  0.032975519   -3.3562142   0.76155834   426349 
 2883000   0.61222805   -3.3561151   -3.3561151   -2.5950666  0.039072815   -3.3561151   0.76104856   426349 
 2884000   0.61271048   -3.3565324   -3.3565324   -2.5948841  0.046067339   -3.3565324   0.76164826   426349 
 2885000   0.61360955   -3.3573884   -3.3573884   -2.5946225  0.032079739   -3.3573884   0.76276588   426349 
 2886000   0.61268305   -3.3570152   -3.3570152    -2.595401   0.03540858   -3.3570152   0.76161416   426349 
 2887000    0.6117959   -3.3564588   -3.3564588   -2.5959474  0.040608969   -3.3564588   0.76051137   426349 
 2888000   0.61118089   -3.3562013   -3.3562013   -2.5964545  0.037507701   -3.3562013   0.75974686   426349 
 2889000   0.61055822   -3.3552046   -3.3552046   -2.5962318  0.030874528   -3.3552046   0.75897283   426349 
 2890000   0.61085686   -3.3553005   -3.3553005   -2.5959564  0.029731496   -3.3553005   0.75934407   426349 
 2891000     0.612042   -3.3572662   -3.3572662   -2.5964489  0.045724712   -3.3572662    0.7608173   426349 
 2892000   0.61131605   -3.3564824   -3.3564824   -2.5965675  0.034646509   -3.3564824   0.75991487   426349 
 2893000    0.6109676   -3.3565955   -3.3565955   -2.5971137  0.032088016   -3.3565955   0.75948173   426349 
 2894000    0.6103508   -3.3556061   -3.3556061   -2.5968911  0.025912125   -3.3556061     0.758715   426349 
 2895000   0.61166229   -3.3573793   -3.3573793   -2.5970341  0.043488173   -3.3573793   0.76034528   426349 
 2896000   0.61214703   -3.3589413   -3.3589413   -2.5979935  0.030450021   -3.3589413   0.76094786   426349 
 2897000   0.61237514   -3.3594545   -3.3594545   -2.5982231  0.044766982   -3.3594545   0.76123141   426349 
 2898000   0.61136473   -3.3581121   -3.3581121   -2.5981367  0.024949326   -3.3581121   0.75997539   426349 
 2899000    0.6126049   -3.3589011   -3.3589011   -2.5973841  0.038436928   -3.3589011   0.76151702   426349 
 2900000   0.61134172   -3.3575721   -3.3575721   -2.5976253  0.050995721   -3.3575721   0.75994679   426349 
 2901000   0.61193492   -3.3578588   -3.3578588   -2.5971747  0.047489795   -3.3578588   0.76068418   426349 
 2902000   0.61231994   -3.3586606   -3.3586606   -2.5974978  0.043895201   -3.3586606   0.76116279   426349 
 2903000    0.6112517   -3.3581652   -3.3581652   -2.5983303  0.038088997   -3.3581652   0.75983489   426349 
 2904000     0.611911   -3.3580508   -3.3580508   -2.5973964  0.044019139   -3.3580508   0.76065445   426349 
 2905000   0.61321154   -3.3596373   -3.3596373   -2.5973662  0.046887034   -3.3596373   0.76227113   426349 
 2906000   0.61243813   -3.3587743   -3.3587743   -2.5974646  0.040975547   -3.3587743   0.76130972   426349 
 2907000    0.6125183   -3.3585203   -3.3585203    -2.597111  0.046418862   -3.3585203   0.76140937   426349 
 2908000   0.61249541   -3.3578801   -3.3578801   -2.5964992  0.032344182   -3.3578801   0.76138092   426349 
 2909000   0.61259591    -3.358593    -3.358593   -2.5970872   0.02710644    -3.358593   0.76150584   426349 
 2910000   0.61326592   -3.3587942   -3.3587942   -2.5964554  0.035150155   -3.3587942   0.76233873   426349 
 2911000   0.61187761    -3.357833    -3.357833   -2.5972201  0.046293639    -3.357833   0.76061294   426349 
 2912000   0.61234726   -3.3589959   -3.3589959   -2.5977992   0.03388102   -3.3589959   0.76119675   426349 
 2913000   0.61244546   -3.3594121   -3.3594121   -2.5980933  0.043200209   -3.3594121   0.76131883   426349 
 2914000   0.61142773   -3.3582421   -3.3582421   -2.5981884  0.030869563   -3.3582421   0.76005371   426349 
 2915000   0.61213007   -3.3592242   -3.3592242   -2.5982974  0.040807708   -3.3592242   0.76092677   426349 
 2916000    0.6120295   -3.3592439   -3.3592439   -2.5984421  0.050614834   -3.3592439   0.76080175   426349 
 2917000   0.61216485   -3.3594289   -3.3594289   -2.5984589  0.037064223   -3.3594289   0.76097001   426349 
 2918000   0.61213478   -3.3586622   -3.3586622   -2.5977296  0.041367095   -3.3586622   0.76093262   426349 
 2919000   0.61263676   -3.3598692   -3.3598692   -2.5983125  0.037936694   -3.3598692   0.76155662   426349 
 2920000   0.61157575   -3.3591192   -3.3591192   -2.5988815  0.045429197   -3.3591192   0.76023771   426349 
 2921000   0.61134607   -3.3578293   -3.3578293   -2.5978771  0.041687648   -3.3578293   0.75995219   426349 
 2922000   0.61133528    -3.358264    -3.358264   -2.5983252  0.034964232    -3.358264   0.75993878   426349 
 2923000   0.61188883   -3.3588761   -3.3588761   -2.5982492  0.040151867   -3.3588761   0.76062689   426349 
 2924000   0.61152513     -3.35891     -3.35891   -2.5987352  0.028560328     -3.35891   0.76017478   426349 
 2925000   0.61237027   -3.3603673   -3.3603673    -2.599142  0.036877562   -3.3603673   0.76122536   426349 
 2926000      0.61151   -3.3600358   -3.3600358   -2.5998799  0.045181972   -3.3600358   0.76015597   426349 
 2927000   0.61191921   -3.3605765   -3.3605765   -2.5999118   0.04629718   -3.3605765   0.76066465   426349 
 2928000    0.6127569   -3.3613604   -3.3613604   -2.5996544  0.040033602   -3.3613604   0.76170597   426349 
 2929000   0.61175265   -3.3597036   -3.3597036   -2.5992459  0.052550958   -3.3597036   0.76045761   426349 
 2930000   0.61240157   -3.3602275   -3.3602275   -2.5989632  0.047684264   -3.3602275   0.76126427   426349 
 2931000   0.61315458   -3.3613833   -3.3613833   -2.5991829  0.038816117   -3.3613833   0.76220031   426349 
 2932000   0.61226683   -3.3597991   -3.3597991   -2.5987023  0.036418773   -3.3597991   0.76109677   426349 
 2933000   0.61191947   -3.3599908   -3.3599908   -2.5993259  0.030732903   -3.3599908   0.76066497   426349 
 2934000   0.61196204     -3.36063     -3.36063   -2.5999121   0.04629069     -3.36063    0.7607179   426349 
 2935000   0.61145988   -3.3601823   -3.3601823   -2.6000886  0.041932189   -3.3601823   0.76009367   426349 
 2936000   0.61286378   -3.3620814   -3.3620814   -2.6002425  0.041794865   -3.3620814   0.76183883   426349 
 2937000   0.61262415   -3.3619605   -3.3619605   -2.6004195   0.03367848   -3.3619605   0.76154095   426349 
 2938000   0.61185784   -3.3617361   -3.3617361   -2.6011478  0.045159634   -3.3617361   0.76058837   426349 
 2939000   0.61181899   -3.3621984   -3.3621984   -2.6016584   0.04218961   -3.3621984   0.76054008   426349 
 2940000   0.61177008   -3.3628763   -3.3628763    -2.602397  0.046845216   -3.3628763   0.76047928   426349 
 2941000   0.61151634   -3.3616792   -3.3616792   -2.6015154  0.034410538   -3.3616792   0.76016385   426349 
 2942000   0.61231288   -3.3628732   -3.3628732   -2.6017192  0.047862395   -3.3628732   0.76115402   426349 
 2943000    0.6107988   -3.3606108   -3.3606108   -2.6013389  0.042256916   -3.3606108   0.75927189   426349 
 2944000   0.61228255    -3.361874    -3.361874   -2.6007577  0.034435363    -3.361874   0.76111631   426349 
 2945000   0.61216273   -3.3612814   -3.3612814    -2.600314  0.043708318   -3.3612814   0.76096737   426349 
 2946000   0.61186872   -3.3612438   -3.3612438   -2.6006419  0.050349227   -3.3612438   0.76060189   426349 
 2947000   0.61098684   -3.3601206   -3.3601206    -2.600615  0.039688128   -3.3601206   0.75950564   426349 
 2948000   0.61180453    -3.360933    -3.360933   -2.6004109  0.030966532    -3.360933    0.7605221   426349 
 2949000   0.61186125    -3.360807    -3.360807   -2.6002144  0.039969747    -3.360807    0.7605926   426349 
 2950000   0.61128537   -3.3598248   -3.3598248    -2.599948  0.049983607   -3.3598248   0.75987674   426349 
 2951000   0.61121527   -3.3600108   -3.3600108   -2.6002212  0.043626832   -3.3600108    0.7597896   426349 
 2952000   0.61124892   -3.3606998   -3.3606998   -2.6008683   0.04619832   -3.3606998   0.75983143   426349 
 2953000   0.61264471   -3.3621941   -3.3621941   -2.6006276  0.030352785   -3.3621941   0.76156651   426349 
 2954000   0.61188332   -3.3615201   -3.3615201   -2.6009001  0.041490483   -3.3615201   0.76062004   426349 
 2955000    0.6116867    -3.361076    -3.361076   -2.6007004  0.040228548    -3.361076   0.76037563   426349 
 2956000   0.61177078   -3.3618375   -3.3618375   -2.6013573  0.043559785   -3.3618375   0.76048014   426349 
 2957000   0.61221328    -3.361447    -3.361447   -2.6004168  0.046721557    -3.361447    0.7610302   426349 
 2958000   0.61220689   -3.3615526   -3.3615526   -2.6005303  0.042119146   -3.3615526   0.76102226   426349 
 2959000   0.61247728   -3.3614397   -3.3614397   -2.6000813  0.048325707   -3.3614397   0.76135838   426349 
 2960000   0.61104594   -3.3605304   -3.3605304   -2.6009513  0.044240905   -3.3605304   0.75957911   426349 
 2961000   0.61172531   -3.3618396   -3.3618396    -2.601416   0.03718834   -3.3618396   0.76042361   426349 
 2962000   0.61124908   -3.3611592   -3.3611592   -2.6013276   0.03558466   -3.3611592   0.75983163   426349 
 2963000   0.61128657   -3.3612562   -3.3612562   -2.6013779  0.033985566   -3.3612562   0.75987823   426349 
 2964000   0.61187946   -3.3625274   -3.3625274   -2.6019122  0.039000573   -3.3625274   0.76061524   426349 
 2965000   0.61180749   -3.3623609   -3.3623609   -2.6018351  0.042582228   -3.3623609   0.76052578   426349 
 2966000   0.61204174   -3.3629635   -3.3629635   -2.6021465  0.046132193   -3.3629635   0.76081697   426349 
 2967000   0.61174466   -3.3622964   -3.3622964   -2.6018487  0.043309119   -3.3622964   0.76044767   426349 
 2968000   0.61257082   -3.3624223   -3.3624223   -2.6009476  0.052941411   -3.3624223   0.76147466   426349 
 2969000   0.61173832    -3.362241    -3.362241   -2.6018012  0.038227215    -3.362241    0.7604398   426349 
 2970000    0.6128642   -3.3639428   -3.3639428   -2.6021035  0.043918175   -3.3639428   0.76183936   426349 
 2971000   0.61075962   -3.3614845   -3.3614845   -2.6022613  0.043242045   -3.3614845   0.75922319   426349 
 2972000   0.61105389   -3.3620819   -3.3620819   -2.6024929  0.035259642   -3.3620819     0.759589   426349 
 2973000   0.61072346   -3.3616256   -3.3616256   -2.6024473  0.049839178   -3.3616256   0.75917824   426349 
 2974000   0.61071962   -3.3616897   -3.3616897   -2.6025162  0.038351562   -3.3616897   0.75917347   426349 
 2975000   0.61013947   -3.3604892   -3.3604892   -2.6020369  0.033124012   -3.3604892    0.7584523   426349 
 2976000   0.61032467   -3.3616411   -3.3616411   -2.6029586   0.03728352   -3.3616411   0.75868252   426349 
 2977000    0.6107066    -3.361584    -3.361584   -2.6024267  0.045273655    -3.361584   0.75915728   426349 
 2978000   0.61055023   -3.3614058   -3.3614058   -2.6024429  0.033910983   -3.3614058   0.75896291   426349 
 2979000    0.6099167   -3.3604777   -3.3604777   -2.6023023  0.034602436   -3.3604777   0.75817538   426349 
 2980000   0.61081119   -3.3612726   -3.3612726   -2.6019853  0.038746612   -3.3612726    0.7592873   426349 
 2981000    0.6106664   -3.3609373   -3.3609373     -2.60183  0.049240875   -3.3609373   0.75910731   426349 
 2982000       0.6107   -3.3608935   -3.3608935   -2.6017445  0.036812634   -3.3608935   0.75914908   426349 
 2983000   0.61088421   -3.3614248   -3.3614248   -2.6020467  0.042233809   -3.3614248   0.75937807   426349 
 2984000   0.61165975   -3.3623114   -3.3623114   -2.6019693  0.043323752   -3.3623114   0.76034213   426349 
 2985000   0.61159997   -3.3619297   -3.3619297   -2.6016619  0.043402838   -3.3619297   0.76026781   426349 
 2986000   0.61245886   -3.3630183   -3.3630183   -2.6016828  0.037898578   -3.3630183   0.76133548   426349 
 2987000   0.61135131   -3.3622627   -3.3622627    -2.602304   0.02815423   -3.3622627   0.75995871   426349 
 2988000   0.61273762   -3.3636008   -3.3636008   -2.6019188  0.033487714   -3.3636008     0.761682   426349 
 2989000   0.61194048   -3.3630199   -3.3630199   -2.6023288  0.045863063   -3.3630199   0.76069109   426349 
 2990000   0.61166401   -3.3632076   -3.3632076   -2.6028602  0.036921107   -3.3632076   0.76034742   426349 
 2991000   0.61165799   -3.3633745   -3.3633745   -2.6030346  0.038035703   -3.3633745   0.76033994   426349 
 2992000   0.61113323   -3.3634631   -3.3634631   -2.6037755  0.045975054   -3.3634631   0.75968762   426349 
 2993000   0.61020057   -3.3620928   -3.3620928   -2.6035645  0.037540324   -3.3620928   0.75852825   426349 
 2994000    0.6121182   -3.3648086   -3.3648086   -2.6038966  0.046732123   -3.3648086   0.76091202   426349 
 2995000   0.61105325    -3.363845    -3.363845   -2.6042568  0.044494897    -3.363845   0.75958819   426349 
 2996000   0.61051544   -3.3628391   -3.3628391   -2.6039194  0.041362202   -3.3628391   0.75891965   426349 
 2997000   0.61233688   -3.3648423   -3.3648423   -2.6036584  0.040117801   -3.3648423   0.76118385   426349 
 2998000   0.61182549   -3.3633113   -3.3633113   -2.6027631  0.043151856   -3.3633113   0.76054815   426349 
 2999000   0.61223584   -3.3643256   -3.3643256   -2.6032673  0.034702418   -3.3643256   0.76105825   426349 
 3000000   0.61193853   -3.3629634   -3.3629634   -2.6022747   0.05032342   -3.3629634   0.76068867   426349 
 3001000   0.61118097   -3.3628582   -3.3628582   -2.6031112  0.045752578   -3.3628582   0.75974696   426349 
 3002000   0.61238631   -3.3648685   -3.3648685   -2.6036232  0.039341625   -3.3648685   0.76124529   426349 
 3003000   0.61151557   -3.3628635   -3.3628635   -2.6027006  0.042064184   -3.3628635    0.7601629   426349 
 3004000   0.61106829   -3.3638593   -3.3638593   -2.6042524  0.031968959   -3.3638593    0.7596069   426349 
 3005000   0.61101619   -3.3637447   -3.3637447   -2.6042026  0.035719828   -3.3637447   0.75954213   426349 
 3006000    0.6107325   -3.3631269   -3.3631269   -2.6039374   0.05115307   -3.3631269   0.75918947   426349 
 3007000   0.61143427    -3.363306    -3.363306   -2.6032441  0.031864109    -3.363306   0.76006183   426349 
 3008000   0.61186253   -3.3640444   -3.3640444   -2.6034502  0.051853778   -3.3640444    0.7605942   426349 
 3009000   0.61196954   -3.3637229   -3.3637229   -2.6029957  0.031600904   -3.3637229   0.76072722   426349 
 3010000   0.61203209   -3.3633309   -3.3633309    -2.602526   0.04909224   -3.3633309   0.76080497   426349 
 3011000   0.61090976   -3.3624554   -3.3624554   -2.6030456    0.0339465   -3.3624554   0.75940983   426349 
 3012000   0.61144853   -3.3629083   -3.3629083   -2.6028287  0.047438656   -3.3629083   0.76007957   426349 
 3013000    0.6111552   -3.3630184   -3.3630184   -2.6033035  0.037644967   -3.3630184   0.75971493   426349 
 3014000   0.61087517   -3.3625586   -3.3625586   -2.6031918  0.034254717   -3.3625586   0.75936683   426349 
 3015000   0.61061186   -3.3620648   -3.3620648   -2.6030253  0.041525605   -3.3620648   0.75903951   426349 
 3016000   0.61091217    -3.362499    -3.362499   -2.6030862  0.031668822    -3.362499   0.75941282   426349 
 3017000   0.61171033   -3.3634545   -3.3634545   -2.6030495  0.041558559   -3.3634545   0.76040499   426349 
 3018000   0.61106859   -3.3628001   -3.3628001   -2.6031928  0.035081027   -3.3628001   0.75960726   426349 
 3019000   0.61015933   -3.3610656   -3.3610656   -2.6025887  0.040697534   -3.3610656   0.75847698   426349 
 3020000   0.61164208   -3.3632023   -3.3632023   -2.6028822  0.035137939   -3.3632023   0.76032016   426349 
 3021000   0.61076855   -3.3620443   -3.3620443     -2.60281   0.02846249   -3.3620443   0.75923429   426349 
 3022000   0.61083106    -3.362516    -3.362516    -2.603204  0.042462876    -3.362516   0.75931199   426349 
 3023000   0.61070428    -3.362334    -3.362334   -2.6031796  0.031195334    -3.362334    0.7591544   426349 
 3024000   0.61031466   -3.3622416   -3.3622416   -2.6035715  0.034661138   -3.3622416   0.75867007   426349 
 3025000   0.61036552   -3.3619801   -3.3619801   -2.6032468  0.039959999   -3.3619801    0.7587333   426349 
 3026000   0.61102674   -3.3631886   -3.3631886   -2.6036334  0.041394873   -3.3631886   0.75955525   426349 
 3027000    0.6108175   -3.3633905   -3.3633905   -2.6040954  0.033123583   -3.3633905   0.75929514   426349 
 3028000   0.61057731    -3.362099    -3.362099   -2.6031025  0.042817917    -3.362099   0.75899656   426349 
 3029000   0.61085991    -3.361999    -3.361999   -2.6026511  0.043091777    -3.361999   0.75934786   426349 
 3030000   0.61174242   -3.3637184   -3.3637184   -2.6032735  0.034237543   -3.3637184   0.76044488   426349 
 3031000   0.61133108   -3.3633086   -3.3633086    -2.603375  0.046102671   -3.3633086   0.75993356   426349 
 3032000   0.61129005   -3.3628728   -3.3628728   -2.6029903  0.047370253   -3.3628728   0.75988256   426349 
 3033000   0.61323078   -3.3652615   -3.3652615   -2.6029664  0.042269427   -3.3652615   0.76229504   426349 
 3034000   0.61101388   -3.3630728   -3.3630728   -2.6035336  0.037565863   -3.3630728   0.75953926   426349 
 3035000    0.6116504   -3.3631128   -3.3631128   -2.6027823    0.0372768   -3.3631128    0.7603305   426349 
 3036000   0.61115693   -3.3635653   -3.3635653   -2.6038482  0.038574073   -3.3635653   0.75971708   426349 
 3037000    0.6116564   -3.3647118   -3.3647118   -2.6043738  0.042670647   -3.3647118   0.76033796   426349 
 3038000   0.61055101   -3.3630494   -3.3630494   -2.6040856  0.037876614   -3.3630494   0.75896387   426349 
 3039000   0.61179749   -3.3644823   -3.3644823   -2.6039689  0.050702709   -3.3644823   0.76051335   426349 
 3040000   0.61182178    -3.364506    -3.364506   -2.6039625  0.039255122    -3.364506   0.76054354   426349 
 3041000   0.61018654   -3.3615685   -3.3615685   -2.6030577  0.029332331   -3.3615685    0.7585108   426349 
 3042000   0.61201257   -3.3636897   -3.3636897    -2.602909  0.035306785   -3.3636897   0.76078071   426349 
 3043000    0.6099142   -3.3614092   -3.3614092    -2.603237  0.033466491   -3.3614092   0.75817227   426349 
 3044000   0.61159013   -3.3626515   -3.3626515   -2.6023959  0.039367108   -3.3626515   0.76025558   426349 
 3045000   0.61133792   -3.3625496   -3.3625496   -2.6026076  0.037266357   -3.3625496   0.75994207   426349 
 3046000   0.61173363   -3.3634003   -3.3634003   -2.6029663  0.034170757   -3.3634003   0.76043397   426349 
 3047000   0.61101842   -3.3621719   -3.3621719    -2.602627  0.033614947   -3.3621719    0.7595449   426349 
 3048000   0.61026439   -3.3604348   -3.3604348   -2.6018272  0.042193077   -3.3604348   0.75860758   426349 
 3049000    0.6107416   -3.3619485   -3.3619485   -2.6027477  0.032578987   -3.3619485   0.75920079   426349 
 3050000    0.6107543   -3.3632348   -3.3632348   -2.6040183  0.042677927   -3.3632348   0.75921658   426349 
 3051000   0.61036176   -3.3627839   -3.3627839   -2.6040553  0.041262074   -3.3627839   0.75872862   426349 
 3052000   0.61088176   -3.3636145   -3.3636145   -2.6042395  0.041807753   -3.3636145   0.75937503   426349 
 3053000   0.61095732   -3.3635667   -3.3635667   -2.6040978   0.03238811   -3.3635667   0.75946894   426349 
 3054000   0.61027939   -3.3620296   -3.3620296   -2.6034033  0.033455964   -3.3620296   0.75862623   426349 
 3055000   0.61181106   -3.3643838   -3.3643838   -2.6038536  0.035896524   -3.3643838   0.76053021   426349 
 3056000   0.61080057   -3.3638521   -3.3638521    -2.604578  0.034824574   -3.3638521    0.7592741   426349 
 3057000   0.61181575    -3.364759    -3.364759   -2.6042229  0.039361677    -3.364759   0.76053605   426349 
 3058000   0.61106122   -3.3630622   -3.3630622   -2.6034641  0.035751288   -3.3630622    0.7595981   426349 
 3059000   0.61115255   -3.3630745   -3.3630745   -2.6033628  0.049989488   -3.3630745   0.75971164   426349 
 3060000   0.61162726   -3.3631698   -3.3631698    -2.602868  0.040794525   -3.3631698   0.76030174   426349 
 3061000   0.61265701   -3.3645255   -3.3645255   -2.6029437  0.048786288   -3.3645255    0.7615818   426349 
 3062000   0.61260671   -3.3647009   -3.3647009   -2.6031817  0.041384509   -3.3647009   0.76151927   426349 
 3063000   0.61127348   -3.3635947   -3.3635947   -2.6037328   0.04673048   -3.3635947   0.75986196   426349 
 3064000   0.61169134   -3.3645843   -3.3645843   -2.6042029  0.047473144   -3.3645843    0.7603814   426349 
 3065000   0.61207637   -3.3647869   -3.3647869   -2.6039269  0.030860177   -3.3647869   0.76086002   426349 
 3066000   0.61165506   -3.3638619   -3.3638619   -2.6035257  0.034233955   -3.3638619   0.76033629   426349 
 3067000   0.61162213   -3.3642325   -3.3642325   -2.6039372  0.039439653   -3.3642325   0.76029536   426349 
 3068000   0.61194453    -3.365154    -3.365154   -2.6044579  0.034455898    -3.365154   0.76069613   426349 
 3069000     0.611564   -3.3652563   -3.3652563   -2.6050332  0.050417191   -3.3652563    0.7602231   426349 
 3070000   0.61153009   -3.3654587   -3.3654587   -2.6052777  0.018310152   -3.3654587   0.76018094   426349 
 3071000   0.61144934   -3.3649247   -3.3649247   -2.6048441  0.039470077   -3.3649247   0.76008057   426349 
 3072000   0.61140786   -3.3644945   -3.3644945   -2.6044655  0.054521357   -3.3644945     0.760029   426349 
 3073000   0.61089528   -3.3643279   -3.3643279   -2.6049361  0.036605004   -3.3643279   0.75939183   426349 
 3074000    0.6120185   -3.3660261   -3.3660261    -2.605238  0.041248089   -3.3660261   0.76078808   426349 
 3075000   0.61108478   -3.3649448   -3.3649448   -2.6053174  0.044663243   -3.3649448   0.75962739   426349 
 3076000   0.61062042   -3.3643202   -3.3643202   -2.6052701  0.038852772   -3.3643202   0.75905015   426349 
 3077000    0.6117857    -3.365824    -3.365824   -2.6053253  0.037382179    -3.365824    0.7604987   426349 
 3078000   0.61085288   -3.3645902   -3.3645902    -2.605251  0.045625282   -3.3645902   0.75933913   426349 
 3079000   0.61019012   -3.3638155   -3.3638155   -2.6053003    0.0384044   -3.3638155   0.75851526   426349 
 3080000   0.61156609    -3.365885    -3.365885   -2.6056593  0.040512562    -3.365885    0.7602257   426349 
 3081000   0.61142903   -3.3654591   -3.3654591   -2.6054038  0.042373201   -3.3654591   0.76005532   426349 
 3082000   0.61060351   -3.3646663   -3.3646663   -2.6056371  0.028870794   -3.3646663   0.75902913   426349 
 3083000   0.61139421   -3.3652308   -3.3652308   -2.6052187  0.039759812   -3.3652308   0.76001204   426349 
 3084000    0.6123114   -3.3660192   -3.3660192    -2.604867  0.041842676   -3.3660192   0.76115218   426349 
 3085000     0.611341   -3.3662078   -3.3662078   -2.6062619  0.046214953   -3.3662078   0.75994589   426349 
 3086000   0.61076864   -3.3673106   -3.3673106   -2.6080762  0.034042781   -3.3673106   0.75923441   426349 
 3087000   0.61074351   -3.3677698   -3.3677698   -2.6085666  0.041500809   -3.3677698   0.75920317   426349 
 3088000   0.61066327   -3.3685485   -3.3685485   -2.6094451  0.035895724   -3.3685485   0.75910342   426349 
 3089000   0.61029038   -3.3671298   -3.3671298   -2.6084899  0.040495082   -3.3671298   0.75863989   426349 
 3090000   0.61122805   -3.3692118   -3.3692118   -2.6094063  0.039468731   -3.3692118   0.75980548   426349 
 3091000   0.61152704   -3.3696953   -3.3696953   -2.6095182  0.043594743   -3.3696953   0.76017715   426349 
 3092000   0.61117144   -3.3694826   -3.3694826   -2.6097475  0.044520714   -3.3694826   0.75973512   426349 
 3093000   0.61033574   -3.3680137   -3.3680137   -2.6093174  0.039153833   -3.3680137   0.75869627   426349 
 3094000   0.61043616   -3.3677832   -3.3677832   -2.6089621  0.033104133   -3.3677832    0.7588211   426349 
 3095000    0.6106204   -3.3686411   -3.3686411   -2.6095909  0.050491283   -3.3686411   0.75905013   426349 
 3096000   0.61099409   -3.3689415   -3.3689415   -2.6094269  0.046785351   -3.3689415   0.75951465   426349 
 3097000   0.61014682   -3.3677433   -3.3677433   -2.6092819  0.046149126   -3.3677433   0.75846142   426349 
 3098000   0.61121355   -3.3685605   -3.3685605   -2.6087731  0.050794686   -3.3685605   0.75978747   426349 
 3099000   0.61119718   -3.3682193   -3.3682193   -2.6084521  0.039919402   -3.3682193   0.75976711   426349 
 3100000   0.61024499   -3.3679523   -3.3679523   -2.6093688  0.053456092   -3.3679523   0.75858346   426349 
 3101000   0.61044274   -3.3671037   -3.3671037   -2.6082744  0.033974992   -3.3671037   0.75882929   426349 
 3102000   0.61202069    -3.369228    -3.369228   -2.6084372  0.044033118    -3.369228    0.7607908   426349 
 3103000   0.61076273    -3.367214    -3.367214   -2.6079869  0.032582582    -3.367214   0.75922705   426349 
 3104000   0.61163308   -3.3678324   -3.3678324   -2.6075234  0.041591181   -3.3678324   0.76030897   426349 
 3105000   0.61195079    -3.367801    -3.367801   -2.6070971  0.031861823    -3.367801   0.76070391   426349 
 3106000   0.61106975   -3.3674648   -3.3674648   -2.6078561   0.03422544   -3.3674648   0.75960871   426349 
 3107000   0.61075812   -3.3674166   -3.3674166   -2.6081953  0.030180897   -3.3674166   0.75922132   426349 
 3108000   0.61119778   -3.3680899   -3.3680899    -2.608322  0.034895131   -3.3680899   0.75976786   426349 
 3109000   0.61189861   -3.3685803   -3.3685803   -2.6079413  0.032107525   -3.3685803   0.76063904   426349 
 3110000   0.61110886   -3.3683039   -3.3683039   -2.6086465  0.035649037   -3.3683039   0.75965733   426349 
 3111000   0.61122441   -3.3684982   -3.3684982   -2.6086972   0.04379391   -3.3684982   0.75980097   426349 
 3112000   0.61092454   -3.3681261   -3.3681261   -2.6086979  0.041521881   -3.3681261    0.7594282   426349 
 3113000   0.61066449   -3.3678792   -3.3678792   -2.6087743  0.040624907   -3.3678792   0.75910494   426349 
 3114000   0.61048913   -3.3679349   -3.3679349   -2.6090479  0.039232348   -3.3679349   0.75888695   426349 
 3115000   0.61142984   -3.3700043   -3.3700043    -2.609948   0.04163659   -3.3700043   0.76005633   426349 
 3116000   0.61075157   -3.3693563   -3.3693563   -2.6101431  0.035807185   -3.3693563   0.75921319   426349 
 3117000   0.61060445   -3.3700037   -3.3700037   -2.6109734   0.04053227   -3.3700037   0.75903031   426349 
 3118000   0.61147612   -3.3707259   -3.3707259    -2.610612  0.040139263   -3.3707259   0.76011386   426349 
 3119000   0.61149377   -3.3706772   -3.3706772   -2.6105414  0.036623101   -3.3706772    0.7601358   426349 
 3120000   0.61073804   -3.3690617   -3.3690617   -2.6098653  0.033275486   -3.3690617   0.75919636   426349 
 3121000   0.61072976   -3.3696236   -3.3696236   -2.6104375  0.028573018   -3.3696236   0.75918607   426349 
 3122000   0.61085416   -3.3702227   -3.3702227    -2.610882  0.036018236   -3.3702227   0.75934072   426349 
 3123000   0.61025034   -3.3696926   -3.3696926   -2.6111025  0.028878184   -3.3696926   0.75859011   426349 
 3124000   0.61074563   -3.3694571   -3.3694571   -2.6102513  0.041432962   -3.3694571    0.7592058   426349 
 3125000   0.61109054   -3.3693396   -3.3693396   -2.6097051  0.036751936   -3.3693396   0.75963455   426349 
 3126000   0.60950387    -3.368479    -3.368479   -2.6108168  0.031168405    -3.368479   0.75766219   426349 
 3127000   0.61125084   -3.3703904   -3.3703904   -2.6105566  0.030551408   -3.3703904   0.75983381   426349 
 3128000   0.61206643   -3.3709664   -3.3709664   -2.6101187  0.049873434   -3.3709664   0.76084765   426349 
 3129000   0.61211379   -3.3709625   -3.3709625   -2.6100559  0.042659129   -3.3709625   0.76090653   426349 
 3130000   0.61048064   -3.3689951   -3.3689951   -2.6101187   0.03598758   -3.3689951    0.7588764   426349 
 3131000   0.61215009   -3.3707815   -3.3707815   -2.6098298  0.034659815   -3.3707815   0.76095166   426349 
 3132000   0.61039636   -3.3693255   -3.3693255   -2.6105539  0.033740996   -3.3693255   0.75877163   426349 
 3133000   0.61160041   -3.3700286   -3.3700286   -2.6097603   0.03035863   -3.3700286   0.76026836   426349 
 3134000   0.61169203   -3.3702081   -3.3702081   -2.6098258  0.029226179   -3.3702081   0.76038224   426349 
 3135000   0.61088567   -3.3697474   -3.3697474   -2.6103675  0.045326356   -3.3697474   0.75937989   426349 
 3136000    0.6103286   -3.3690072   -3.3690072   -2.6103198  0.037700614   -3.3690072    0.7586874   426349 
 3137000    0.6096299   -3.3685591   -3.3685591   -2.6107402   0.02924643   -3.3685591   0.75781886   426349 
 3138000    0.6107708   -3.3694883   -3.3694883   -2.6102512  0.031759665   -3.3694883   0.75923709   426349 
 3139000   0.61134639    -3.370584    -3.370584   -2.6106314  0.036646402    -3.370584   0.75995259   426349 
 3140000   0.61036563   -3.3686692   -3.3686692   -2.6099357  0.045132809   -3.3686692   0.75873343   426349 
 3141000   0.61141839   -3.3703141   -3.3703141    -2.610272  0.032544612   -3.3703141    0.7600421   426349 
 3142000   0.61010651   -3.3698712   -3.3698712   -2.6114599  0.030289533   -3.3698712   0.75841132   426349 
 3143000   0.61108944    -3.371019    -3.371019   -2.6113859  0.041261236    -3.371019   0.75963318   426349 
 3144000   0.61101045   -3.3704001   -3.3704001   -2.6108651  0.036398315   -3.3704001   0.75953499   426349 
 3145000   0.61076987   -3.3700823   -3.3700823   -2.6108464  0.039868993   -3.3700823   0.75923594   426349 
 3146000    0.6115221    -3.371296    -3.371296    -2.611125  0.035496614    -3.371296   0.76017101   426349 
 3147000   0.61059815   -3.3705199   -3.3705199   -2.6114974  0.028663955   -3.3705199   0.75902247   426349 
 3148000   0.61097895   -3.3700526   -3.3700526   -2.6105568  0.035677154   -3.3700526   0.75949583   426349 
 3149000     0.611378   -3.3699993   -3.3699993   -2.6100074  0.043506431   -3.3699993   0.75999189   426349 
 3150000   0.61186471   -3.3706384   -3.3706384   -2.6100415  0.035197284   -3.3706384   0.76059691   426349 
 3151000   0.61062171    -3.369306    -3.369306   -2.6102543  0.052402259    -3.369306   0.75905176   426349 
 3152000   0.61121332   -3.3697361   -3.3697361   -2.6099489  0.038719791   -3.3697361   0.75978717   426349 
 3153000   0.61167204   -3.3709074   -3.3709074     -2.61055  0.039960749   -3.3709074    0.7603574   426349 
 3154000   0.61157345   -3.3705817   -3.3705817   -2.6103468   0.04350014   -3.3705817   0.76023484   426349 
 3155000   0.61152946   -3.3707781   -3.3707781   -2.6105979  0.051753712   -3.3707781   0.76018017   426349 
 3156000   0.61144345   -3.3707097   -3.3707097   -2.6106364  0.043613051   -3.3707097   0.76007325   426349 
 3157000   0.61092644   -3.3701824   -3.3701824   -2.6107518  0.043549593   -3.3701824   0.75943056   426349 
 3158000   0.61093367   -3.3701208   -3.3701208   -2.6106813  0.032675263   -3.3701208   0.75943955   426349 
 3159000   0.61208671   -3.3714234   -3.3714234   -2.6105505  0.035938449   -3.3714234   0.76087287   426349 
 3160000   0.61143559   -3.3702746   -3.3702746   -2.6102111  0.042173729   -3.3702746   0.76006347   426349 
 3161000   0.61133366   -3.3703602   -3.3703602   -2.6104234  0.033628216   -3.3703602   0.75993676   426349 
 3162000    0.6106676   -3.3693041   -3.3693041   -2.6101953  0.034124673   -3.3693041    0.7591088   426349 
 3163000   0.61083064   -3.3695154   -3.3695154   -2.6102039  0.034686192   -3.3695154   0.75931147   426349 
 3164000    0.6102865    -3.368731    -3.368731   -2.6100959  0.032930274    -3.368731   0.75863506   426349 
 3165000   0.61100168     -3.36946     -3.36946   -2.6099359  0.041543284     -3.36946   0.75952409   426349 
 3166000   0.61095998   -3.3700622   -3.3700622   -2.6105899  0.037670533   -3.3700622   0.75947225   426349 
 3167000   0.61047301    -3.369867    -3.369867   -2.6110001  0.039108175    -3.369867   0.75886692   426349 
 3168000   0.61078247    -3.370596    -3.370596   -2.6113444  0.048707901    -3.370596   0.75925159   426349 
 3169000   0.61064735   -3.3703862   -3.3703862   -2.6113026  0.033066139   -3.3703862   0.75908363   426349 
 3170000   0.60973631   -3.3692497   -3.3692497   -2.6112986   0.04257302   -3.3692497   0.75795113   426349 
 3171000    0.6105615   -3.3699483   -3.3699483   -2.6109714  0.039695038   -3.3699483   0.75897691   426349 
 3172000   0.61044818    -3.370256    -3.370256     -2.61142  0.043137001    -3.370256   0.75883605   426349 
 3173000    0.6109629   -3.3699309   -3.3699309    -2.610455   0.04547206   -3.3699309   0.75947588   426349 
 3174000   0.60994366   -3.3693386   -3.3693386   -2.6111297  0.033818559   -3.3693386   0.75820889   426349 
 3175000   0.61006841   -3.3692096   -3.3692096   -2.6108456   0.03019245   -3.3692096   0.75836396   426349 
 3176000   0.61000283   -3.3693487   -3.3693487   -2.6110663  0.029312516   -3.3693487   0.75828244   426349 
 3177000   0.61104889   -3.3699907   -3.3699907    -2.610408   0.03280155   -3.3699907   0.75958278   426349 
 3178000   0.61086786   -3.3703151   -3.3703151   -2.6109573  0.037551218   -3.3703151   0.75935774   426349 
 3179000   0.60996751   -3.3692768   -3.3692768   -2.6110382  0.035319253   -3.3692768   0.75823853   426349 
 3180000    0.6102391   -3.3693941   -3.3693941   -2.6108179  0.024454286   -3.3693941   0.75857614   426349 
 3181000   0.61096221   -3.3708758   -3.3708758   -2.6114008  0.036498636   -3.3708758   0.75947503   426349 
 3182000   0.61143891   -3.3723445   -3.3723445   -2.6122769  0.032029326   -3.3723445    0.7600676   426349 
 3183000   0.61052402   -3.3717502   -3.3717502   -2.6128198  0.029576534   -3.3717502   0.75893033   426349 
 3184000   0.60952212   -3.3706952   -3.3706952   -2.6130103  0.037712329   -3.3706952   0.75768488   426349 
 3185000   0.61048906   -3.3716406   -3.3716406   -2.6127537  0.041075827   -3.3716406   0.75888686   426349 
 3186000   0.61096697   -3.3715311   -3.3715311   -2.6120501  0.044916703   -3.3715311   0.75948094   426349 
 3187000   0.60979501   -3.3706346   -3.3706346   -2.6126105  0.046439132   -3.3706346    0.7580241   426349 
 3188000   0.61023111   -3.3716618   -3.3716618   -2.6130955  0.024413647   -3.3716618   0.75856621   426349 
 3189000   0.60988784   -3.3709928   -3.3709928   -2.6128533  0.037178943   -3.3709928    0.7581395   426349 
 3190000   0.61008835   -3.3714547   -3.3714547    -2.613066  0.028532984   -3.3714547   0.75838874   426349 
 3191000   0.61067507   -3.3718032   -3.3718032   -2.6126851  0.034718338   -3.3718032   0.75911808   426349 
 3192000   0.61172392   -3.3725658   -3.3725658   -2.6121439  0.035361498   -3.3725658   0.76042189   426349 
 3193000   0.61121956   -3.3724089   -3.3724089    -2.612614  0.028427118   -3.3724089   0.75979494   426349 
 3194000   0.61049611   -3.3726301   -3.3726301   -2.6137345   0.04683462   -3.3726301   0.75889562   426349 
 3195000   0.61011534   -3.3718482   -3.3718482   -2.6134259  0.041585594   -3.3718482   0.75842229   426349 
 3196000    0.6102491    -3.372469    -3.372469   -2.6138805  0.045755632    -3.372469   0.75858857   426349 
 3197000   0.61000802   -3.3726222   -3.3726222   -2.6143333  0.036165897   -3.3726222   0.75828889   426349 
 3198000   0.60925908   -3.3718595   -3.3718595   -2.6145016  0.051350516   -3.3718595    0.7573579   426349 
 3199000   0.61092645   -3.3743313   -3.3743313   -2.6149007  0.028926303   -3.3743313   0.75943057   426349 
 3200000    0.6111235   -3.3741177   -3.3741177   -2.6144422  0.038412227   -3.3741177   0.75967552   426349 
 3201000   0.61010491   -3.3728796   -3.3728796   -2.6144703  0.038227449   -3.3728796   0.75840934   426349 
 3202000   0.60958059   -3.3725509   -3.3725509   -2.6147933  0.039613314   -3.3725509   0.75775756   426349 
 3203000   0.60941526   -3.3722988   -3.3722988   -2.6147468  0.026810276   -3.3722988   0.75755204   426349 
 3204000   0.60927477   -3.3714874   -3.3714874     -2.61411  0.049779228   -3.3714874    0.7573774   426349 
 3205000   0.60901981   -3.3718511   -3.3718511   -2.6147906  0.034926129   -3.3718511   0.75706047   426349 
 3206000   0.60982813    -3.373355    -3.373355   -2.6152898  0.037859798    -3.373355   0.75806527   426349 
 3207000   0.60944095   -3.3722303   -3.3722303   -2.6146463   0.04014507   -3.3722303   0.75758398   426349 
 3208000   0.60923601   -3.3722808   -3.3722808   -2.6149516  0.037166959   -3.3722808   0.75732922   426349 
 3209000   0.60906051    -3.371493    -3.371493   -2.6143819  0.032044174    -3.371493   0.75711106   426349 
 3210000   0.60999753   -3.3728268   -3.3728268    -2.614551  0.053334516   -3.3728268   0.75827585   426349 
 3211000   0.61022896   -3.3731088   -3.3731088   -2.6145452  0.041104998   -3.3731088   0.75856353   426349 
 3212000   0.61006255   -3.3730663   -3.3730663   -2.6147096  0.032816178   -3.3730663   0.75835668   426349 
 3213000   0.61005947    -3.372098    -3.372098   -2.6137452  0.038991125    -3.372098   0.75835285   426349 
 3214000    0.6111746   -3.3735887   -3.3735887   -2.6138497  0.036049018   -3.3735887   0.75973905   426349 
 3215000    0.6112423   -3.3732079   -3.3732079   -2.6133847  0.040628749   -3.3732079   0.75982319   426349 
 3216000   0.61061795   -3.3721793   -3.3721793   -2.6131322  0.037626158   -3.3721793   0.75904708   426349 
 3217000   0.60978414   -3.3718968   -3.3718968   -2.6138862  0.040380287   -3.3718968   0.75801059   426349 
 3218000   0.60935085   -3.3711927   -3.3711927   -2.6137207  0.026366313   -3.3711927   0.75747197   426349 
 3219000   0.60965833   -3.3713894   -3.3713894   -2.6135352   0.03869245   -3.3713894    0.7578542   426349 
 3220000   0.60945012   -3.3707981   -3.3707981   -2.6132027  0.047172028   -3.3707981   0.75759537   426349 
 3221000     0.610169   -3.3712744   -3.3712744   -2.6127854  0.034059018   -3.3712744     0.758489   426349 
 3222000   0.61040026   -3.3719768   -3.3719768   -2.6132003  0.033388514   -3.3719768   0.75877647   426349 
 3223000   0.61024437   -3.3719003   -3.3719003   -2.6133176  0.037459444   -3.3719003   0.75858269   426349 
 3224000   0.60932799   -3.3711995   -3.3711995    -2.613756  0.044162993   -3.3711995   0.75744356   426349 
 3225000   0.60774078   -3.3698048   -3.3698048   -2.6143343  0.043336707   -3.3698048   0.75547054   426349 
 3226000   0.60938377   -3.3717645   -3.3717645   -2.6142516  0.024241248   -3.3717645    0.7575129   426349 
 3227000   0.60904057   -3.3716269   -3.3716269   -2.6145406  0.050034611   -3.3716269   0.75708628   426349 
 3228000   0.60999008   -3.3719125   -3.3719125   -2.6136459  0.051380414   -3.3719125   0.75826659   426349 
 3229000   0.60878941   -3.3703751   -3.3703751    -2.613601  0.054299972   -3.3703751   0.75677406   426349 
 3230000   0.60980502   -3.3727523   -3.3727523   -2.6147158  0.034698494   -3.3727523   0.75803655   426349 
 3231000    0.6095321   -3.3722183   -3.3722183    -2.614521  0.042322553   -3.3722183   0.75769729   426349 
 3232000   0.60985231   -3.3719106   -3.3719106   -2.6138152  0.044798959   -3.3719106   0.75809534   426349 
 3233000   0.61060127   -3.3730014   -3.3730014   -2.6139751  0.045483473   -3.3730014   0.75902635   426349 
 3234000   0.61015557   -3.3720161   -3.3720161   -2.6135438  0.048574551   -3.3720161    0.7584723   426349 
 3235000   0.61080102   -3.3732182   -3.3732182   -2.6139436  0.043312325   -3.3732182   0.75927465   426349 
 3236000   0.60894969    -3.371448    -3.371448   -2.6144747  0.038883352    -3.371448    0.7569733   426349 
 3237000   0.60955488    -3.372589    -3.372589   -2.6148634  0.041324912    -3.372589    0.7577256   426349 
 3238000   0.60972747   -3.3726619   -3.3726619   -2.6147218  0.033037616   -3.3726619   0.75794014   426349 
 3239000   0.61035001   -3.3731752   -3.3731752   -2.6144612   0.03730896   -3.3731752   0.75871401   426349 
 3240000   0.61095252   -3.3735037   -3.3735037   -2.6140407   0.02855354   -3.3735037   0.75946298   426349 
 3241000   0.61014463   -3.3727549   -3.3727549   -2.6142962  0.035737569   -3.3727549   0.75845871   426349 
 3242000   0.61050327   -3.3734169   -3.3734169   -2.6145124  0.054339854   -3.3734169   0.75890453   426349 
 3243000   0.60986852   -3.3730079   -3.3730079   -2.6148924  0.039797728   -3.3730079   0.75811549   426349 
 3244000   0.60873026   -3.3716546   -3.3716546   -2.6149541  0.038521363   -3.3716546   0.75670054   426349 
 3245000   0.60902193   -3.3719438   -3.3719438   -2.6148807  0.026388474   -3.3719438    0.7570631   426349 
 3246000   0.60877753   -3.3714078   -3.3714078   -2.6146485  0.048634804   -3.3714078   0.75675929   426349 
 3247000   0.61005929   -3.3732517   -3.3732517   -2.6148991  0.029137903   -3.3732517   0.75835263   426349 
 3248000   0.60886733   -3.3714763   -3.3714763   -2.6146054  0.039642813   -3.3714763   0.75687092   426349 
 3249000   0.60929725   -3.3719809   -3.3719809   -2.6145756  0.025426838   -3.3719809   0.75740535   426349 
 3250000   0.61064498   -3.3722352   -3.3722352   -2.6131545  0.046538062   -3.3722352   0.75908068   426349 
 3251000   0.60973928    -3.371729    -3.371729   -2.6137742  0.050399609    -3.371729   0.75795482   426349 
 3252000   0.61239206   -3.3751928   -3.3751928   -2.6139404  0.037744061   -3.3751928   0.76125245   426349 
 3253000   0.61080345   -3.3734321   -3.3734321   -2.6141544  0.038255944   -3.3734321   0.75927768   426349 
 3254000   0.61116732   -3.3739232   -3.3739232   -2.6141932  0.040618056   -3.3739232   0.75972999   426349 
 3255000   0.61015965   -3.3736096   -3.3736096   -2.6151322  0.040686302   -3.3736096   0.75847738   426349 
 3256000    0.6108039   -3.3743815   -3.3743815   -2.6151033  0.033469274   -3.3743815   0.75927824   426349 
 3257000   0.61083011   -3.3751745   -3.3751745   -2.6158637  0.029798921   -3.3751745   0.75931082   426349 
 3258000   0.60889786   -3.3732377   -3.3732377   -2.6163288  0.039364562   -3.3732377   0.75690888   426349 
 3259000   0.60950819   -3.3735489   -3.3735489   -2.6158814  0.045269664   -3.3735489   0.75766757   426349 
 3260000   0.61053136   -3.3742426   -3.3742426   -2.6153032  0.036802841   -3.3742426   0.75893944   426349 
 3261000   0.60983848   -3.3733679   -3.3733679   -2.6152897  0.038896285   -3.3733679   0.75807815   426349 
 3262000   0.60964232   -3.3736685   -3.3736685   -2.6158342  0.043246842   -3.3736685   0.75783429   426349 
 3263000   0.60918651   -3.3739169   -3.3739169   -2.6166492  0.036253882   -3.3739169   0.75726769   426349 
 3264000   0.60902409   -3.3741657   -3.3741657   -2.6170999  0.032827999   -3.3741657   0.75706579   426349 
 3265000    0.6099984   -3.3746061   -3.3746061   -2.6163291  0.031507088   -3.3746061   0.75827693   426349 
 3266000   0.61004331   -3.3751742   -3.3751742   -2.6168414  0.024225211   -3.3751742   0.75833276   426349 
 3267000   0.61048703   -3.3756243   -3.3756243   -2.6167399  0.033744579   -3.3756243   0.75888434   426349 
 3268000   0.60987646   -3.3745718   -3.3745718   -2.6164464  0.036269119   -3.3745718   0.75812535   426349 
 3269000   0.61035071   -3.3749867   -3.3749867   -2.6162718  0.045639072   -3.3749867   0.75871489   426349 
 3270000   0.60971525   -3.3747555   -3.3747555   -2.6168306  0.035618486   -3.3747555   0.75792495   426349 
 3271000   0.60964235   -3.3746411   -3.3746411   -2.6168067  0.053745427   -3.3746411   0.75783433   426349 
 3272000   0.60999006   -3.3749461   -3.3749461   -2.6166796  0.045542112   -3.3749461   0.75826656   426349 
 3273000   0.60997353   -3.3743224   -3.3743224   -2.6160763  0.038454283   -3.3743224   0.75824602   426349 
 3274000   0.60979323    -3.373997    -3.373997   -2.6159751  0.037087904    -3.373997   0.75802189   426349 
 3275000    0.6096715   -3.3738856   -3.3738856    -2.616015  0.047437193   -3.3738856   0.75787057   426349 
 3276000   0.61077523   -3.3753207   -3.3753207   -2.6160781  0.043723603   -3.3753207    0.7592426   426349 
 3277000   0.61023792   -3.3760529   -3.3760529   -2.6174782   0.03262422   -3.3760529   0.75857468   426349 
 3278000   0.60880327   -3.3750425   -3.3750425   -2.6182512  0.036188515   -3.3750425   0.75679129   426349 
 3279000   0.60837285   -3.3744465   -3.3744465   -2.6181903   0.04351654   -3.3744465   0.75625625   426349 
 3280000   0.60952208   -3.3754383   -3.3754383   -2.6177534  0.036382137   -3.3754383   0.75768483   426349 
 3281000   0.60868755   -3.3747411   -3.3747411   -2.6180937  0.041064215   -3.3747411   0.75664744   426349 
 3282000   0.60984777   -3.3761879   -3.3761879   -2.6180982  0.035414774   -3.3761879   0.75808969   426349 
 3283000   0.60810413    -3.374138    -3.374138   -2.6182158  0.037361014    -3.374138    0.7559222   426349 
 3284000   0.60997101   -3.3769472   -3.3769472   -2.6187043  0.033353554   -3.3769472   0.75824289   426349 
 3285000   0.60917416   -3.3756881   -3.3756881   -2.6184358  0.031126232   -3.3756881   0.75725234   426349 
 3286000   0.60914013   -3.3746042   -3.3746042   -2.6173941  0.027892997   -3.3746042   0.75721003   426349 
 3287000   0.60941276   -3.3734018   -3.3734018   -2.6158528  0.039739828   -3.3734018   0.75754894   426349 
 3288000   0.61132309   -3.3773354   -3.3773354   -2.6174118  0.028104919   -3.3773354   0.75992362   426349 
 3289000    0.6093694   -3.3752179   -3.3752179   -2.6177229  0.042732865   -3.3752179   0.75749503   426349 
 3290000   0.60994933   -3.3759595   -3.3759595   -2.6177436  0.043063761   -3.3759595   0.75821593   426349 
 3291000   0.60858433   -3.3747383   -3.3747383   -2.6182192  0.042637521   -3.3747383   0.75651912   426349 
 3292000   0.61003674   -3.3763583   -3.3763583   -2.6180337  0.036282445   -3.3763583    0.7583246   426349 
 3293000   0.60988405   -3.3761964   -3.3761964   -2.6180617  0.034643862   -3.3761964   0.75813478   426349 
 3294000   0.60970848   -3.3768249   -3.3768249   -2.6189083   0.03434073   -3.3768249   0.75791654   426349 
 3295000   0.60981777   -3.3767016   -3.3767016   -2.6186492  0.034897243   -3.3767016   0.75805239   426349 
 3296000   0.60856453    -3.375749    -3.375749   -2.6192545   0.04681463    -3.375749   0.75649452   426349 
 3297000   0.60791992   -3.3748865   -3.3748865   -2.6191933  0.036223084   -3.3748865   0.75569322   426349 
 3298000   0.60869596   -3.3756142   -3.3756142   -2.6189563  0.032860059   -3.3756142   0.75665789   426349 
 3299000   0.60956717   -3.3767464   -3.3767464   -2.6190056   0.03777085   -3.3767464   0.75774088   426349 
 3300000   0.60887741    -3.376032    -3.376032   -2.6191485  0.037871499    -3.376032   0.75688345   426349 
 3301000   0.60962261    -3.376306    -3.376306   -2.6184962  0.037815419    -3.376306    0.7578098   426349 
 3302000   0.60799444   -3.3746359   -3.3746359     -2.61885  0.032845852   -3.3746359   0.75578585   426349 
 3303000   0.60881818    -3.375539    -3.375539   -2.6187292  0.043114656    -3.375539   0.75680983   426349 
 3304000    0.6087802   -3.3748314   -3.3748314   -2.6180688  0.034565323   -3.3748314   0.75676261   426349 
 3305000   0.60913823   -3.3760841   -3.3760841   -2.6188765   0.04685429   -3.3760841   0.75720767   426349 
 3306000   0.60830959   -3.3752299   -3.3752299   -2.6190523  0.047010948   -3.3752299    0.7561776   426349 
 3307000   0.60878151   -3.3758718   -3.3758718   -2.6191076  0.037995147   -3.3758718   0.75676424   426349 
 3308000   0.60969316   -3.3764735   -3.3764735    -2.618576  0.041609947   -3.3764735   0.75789749   426349 
 3309000    0.6091696    -3.375949    -3.375949   -2.6187024  0.040455035    -3.375949   0.75724667   426349 
 3310000   0.60878515      -3.3752      -3.3752   -2.6184312  0.039307676      -3.3752   0.75676876   426349 
 3311000   0.60878221   -3.3760379   -3.3760379   -2.6192727  0.045867111   -3.3760379   0.75676511   426349 
 3312000   0.60939599   -3.3774429   -3.3774429   -2.6199148  0.041251669   -3.3774429   0.75752809   426349 
 3313000   0.61108001   -3.3794167   -3.3794167   -2.6197952  0.036961683   -3.3794167   0.75962146   426349 
 3314000   0.60961262   -3.3773892   -3.3773892   -2.6195918  0.039296281   -3.3773892   0.75779738   426349 
 3315000   0.60876324   -3.3762301   -3.3762301   -2.6194886  0.028915387   -3.3762301   0.75674152   426349 
 3316000   0.60965038   -3.3779235   -3.3779235   -2.6200792  0.028835548   -3.3779235   0.75784431   426349 
 3317000     0.609143   -3.3769934   -3.3769934   -2.6197798  0.036573201   -3.3769934   0.75721361   426349 
 3318000    0.6088227   -3.3767955   -3.3767955   -2.6199801  0.036870427   -3.3767955   0.75681544   426349 
 3319000   0.60957805   -3.3782032   -3.3782032   -2.6204488  0.030934161   -3.3782032    0.7577544   426349 
 3320000   0.60881212   -3.3768252   -3.3768252    -2.620023  0.038231135   -3.3768252   0.75680229   426349 
 3321000   0.60889853   -3.3769932   -3.3769932   -2.6200835  0.043239581   -3.3769932   0.75690971   426349 
 3322000   0.60875237   -3.3768996   -3.3768996   -2.6201716   0.02402256   -3.3768996   0.75672802   426349 
 3323000   0.60820867   -3.3761991   -3.3761991   -2.6201469  0.031516966   -3.3761991   0.75605216   426349 
 3324000   0.60919481   -3.3771223   -3.3771223   -2.6198443   0.03265641   -3.3771223   0.75727801   426349 
 3325000   0.60943355   -3.3776313   -3.3776313   -2.6200565  0.037681696   -3.3776313   0.75757477   426349 
 3326000   0.61059059    -3.378437    -3.378437   -2.6194239  0.031127752    -3.378437   0.75901307   426349 
 3327000   0.61079702   -3.3781644   -3.3781644   -2.6188947  0.045298055   -3.3781644   0.75926968   426349 
 3328000   0.60943276   -3.3769177   -3.3769177   -2.6193439  0.041118259   -3.3769177   0.75757379   426349 
 3329000   0.60855762   -3.3758377   -3.3758377   -2.6193518  0.031707991   -3.3758377   0.75648593   426349 
 3330000   0.60850573   -3.3759543   -3.3759543   -2.6195329  0.047364588   -3.3759543   0.75642143   426349 
 3331000   0.60950439   -3.3776329   -3.3776329   -2.6199701  0.034523563   -3.3776329   0.75766284   426349 
 3332000   0.60820659   -3.3756394   -3.3756394   -2.6195898  0.035383026   -3.3756394   0.75604957   426349 
 3333000   0.60961041   -3.3767927   -3.3767927   -2.6189981  0.035803825   -3.3767927   0.75779463   426349 
 3334000   0.61144522   -3.3785703   -3.3785703   -2.6184949  0.040409331   -3.3785703   0.76007545   426349 
 3335000   0.60868056   -3.3754723   -3.3754723   -2.6188336  0.032618939   -3.3754723   0.75663875   426349 
 3336000   0.61045821   -3.3779779   -3.3779779   -2.6191294  0.033090031   -3.3779779   0.75884852   426349 
 3337000   0.60929908    -3.376712    -3.376712   -2.6193044  0.033608856    -3.376712   0.75740762   426349 
 3338000   0.60940728   -3.3776132   -3.3776132   -2.6200711  0.049263604   -3.3776132   0.75754212   426349 
 3339000   0.60820372   -3.3768279   -3.3768279   -2.6207819  0.042443902   -3.3768279     0.756046   426349 
 3340000   0.60794876   -3.3770015   -3.3770015   -2.6212724  0.030191297   -3.3770015   0.75572907   426349 
 3341000   0.60725034    -3.376103    -3.376103   -2.6212421   0.03731639    -3.376103   0.75486087   426349 
 3342000   0.60848588   -3.3778844   -3.3778844   -2.6214877  0.030583538   -3.3778844   0.75639675   426349 
 3343000   0.60945246     -3.37911     -3.37911   -2.6215117  0.046336539     -3.37911   0.75759828   426349 
 3344000   0.60971782   -3.3799494   -3.3799494   -2.6220213  0.037304666   -3.3799494   0.75792814   426349 
 3345000   0.61108818   -3.3811462   -3.3811462   -2.6215146   0.04630991   -3.3811462   0.75963161   426349 
 3346000   0.61032968   -3.3807376   -3.3807376   -2.6220488  0.048374802   -3.3807376   0.75868875   426349 
 3347000    0.6095189   -3.3791626   -3.3791626   -2.6214818  0.052358701   -3.3791626   0.75768088   426349 
 3348000   0.60963478   -3.3792475   -3.3792475   -2.6214226  0.038508635   -3.3792475   0.75782492   426349 
 3349000   0.60938725   -3.3792269   -3.3792269   -2.6217096  0.041374112   -3.3792269   0.75751722   426349 
 3350000   0.60925381   -3.3785796   -3.3785796   -2.6212283  0.041615562   -3.3785796   0.75735135   426349 
 3351000    0.6097101   -3.3796807   -3.3796807   -2.6217622  0.045603832   -3.3796807   0.75791855   426349 
 3352000   0.61068557   -3.3811754   -3.3811754   -2.6220442  0.036566812   -3.3811754   0.75913114   426349 
 3353000   0.60827035   -3.3777823   -3.3777823   -2.6216535  0.035416038   -3.3777823   0.75612883   426349 
 3354000   0.61030196   -3.3805427   -3.3805427   -2.6218885   0.03315594   -3.3805427   0.75865429   426349 
 3355000   0.60942712    -3.380146    -3.380146   -2.6225792  0.042757148    -3.380146   0.75756678   426349 
 3356000   0.61089336   -3.3816004   -3.3816004    -2.622211  0.048482453   -3.3816004   0.75938943   426349 
 3357000   0.60967264   -3.3801381   -3.3801381   -2.6222662  0.047539881   -3.3801381   0.75787198   426349 
 3358000    0.6092965   -3.3806431   -3.3806431   -2.6232387  0.033679345   -3.3806431   0.75740441   426349 
 3359000    0.6087086   -3.3800879   -3.3800879   -2.6234143  0.045630123   -3.3800879   0.75667361   426349 
 3360000   0.60907991   -3.3800743   -3.3800743   -2.6229392  0.033755754   -3.3800743   0.75713518   426349 
 3361000   0.61005683   -3.3808192   -3.3808192   -2.6224696  0.047826415   -3.3808192   0.75834957   426349 
 3362000   0.60989481   -3.3813617   -3.3813617   -2.6232135  0.044745044   -3.3813617   0.75814817   426349 
 3363000   0.60840936   -3.3797948   -3.3797948   -2.6234932  0.044805313   -3.3797948   0.75630163   426349 
 3364000   0.61003673   -3.3819059   -3.3819059   -2.6235814  0.027390495   -3.3819059   0.75832457   426349 
 3365000   0.60884901   -3.3794066   -3.3794066   -2.6225585  0.041924019   -3.3794066   0.75684815   426349 
 3366000   0.60917279   -3.3808821   -3.3808821   -2.6236315  0.033663221   -3.3808821   0.75725064   426349 
 3367000   0.60896128   -3.3804819   -3.3804819   -2.6234942  0.034920105   -3.3804819   0.75698772   426349 
 3368000   0.60857655    -3.380009    -3.380009   -2.6234996  0.032157057    -3.380009   0.75650946   426349 
 3369000   0.61018103   -3.3822037   -3.3822037   -2.6236997  0.033447828   -3.3822037   0.75850395   426349 
 3370000   0.61004513   -3.3820229   -3.3820229   -2.6236878  0.042917756   -3.3820229   0.75833502   426349 
 3371000   0.60982741   -3.3817183   -3.3817183   -2.6236539  0.036872683   -3.3817183   0.75806438   426349 
 3372000   0.61024212   -3.3830376   -3.3830376   -2.6244577   0.03982853   -3.3830376   0.75857989   426349 
 3373000   0.60939575   -3.3815911   -3.3815911   -2.6240633  0.026630847   -3.3815911    0.7575278   426349 
 3374000   0.60867628   -3.3804371   -3.3804371   -2.6238037   0.03881311   -3.3804371   0.75663343   426349 
 3375000   0.60780144   -3.3804952   -3.3804952   -2.6249492  0.024316661   -3.3804952   0.75554594   426349 
 3376000   0.60817495   -3.3804075   -3.3804075   -2.6243973  0.040378672   -3.3804075   0.75601023   426349 
 3377000   0.60888742   -3.3807897   -3.3807897   -2.6238939  0.039317798   -3.3807897   0.75689589   426349 
 3378000   0.60889536   -3.3813459   -3.3813459   -2.6244401  0.039870414   -3.3813459   0.75690577   426349 
 3379000   0.60793529   -3.3803155   -3.3803155   -2.6246032  0.021067961   -3.3803155   0.75571232   426349 
 3380000   0.60850907   -3.3804887   -3.3804887   -2.6240631  0.036044718   -3.3804887   0.75642558   426349 
 3381000   0.60893055   -3.3808916   -3.3808916   -2.6239421  0.049891971   -3.3808916   0.75694951   426349 
 3382000   0.60959586   -3.3817826   -3.3817826   -2.6240061  0.037359109   -3.3817826   0.75777655   426349 
 3383000   0.60905593    -3.381244    -3.381244   -2.6241387  0.041092791    -3.381244   0.75710537   426349 
 3384000   0.60874066   -3.3812214   -3.3812214   -2.6245079  0.051274031   -3.3812214   0.75671347   426349 
 3385000    0.6090418   -3.3819587   -3.3819587   -2.6248709  0.048581056   -3.3819587    0.7570878   426349 
 3386000   0.60990832   -3.3824973   -3.3824973   -2.6243323  0.045315963   -3.3824973   0.75816496   426349 
 3387000   0.60947653   -3.3820874   -3.3820874   -2.6244592  0.032778225   -3.3820874   0.75762821   426349 
 3388000   0.60869004   -3.3811189   -3.3811189   -2.6244683   0.04285352   -3.3811189   0.75665054   426349 
 3389000    0.6087529   -3.3810241   -3.3810241   -2.6242954  0.033203527   -3.3810241   0.75672867   426349 
 3390000   0.60845057   -3.3805204   -3.3805204   -2.6241676  0.032231475   -3.3805204   0.75635286   426349 
 3391000   0.60913986   -3.3810885   -3.3810885   -2.6238788  0.041396655   -3.3810885   0.75720969   426349 
 3392000   0.60800218   -3.3798915   -3.3798915    -2.624096  0.039515323   -3.3798915   0.75579547   426349 
 3393000   0.60894824   -3.3805862   -3.3805862   -2.6236147   0.04030372   -3.3805862   0.75697149   426349 
 3394000   0.60940907   -3.3817623   -3.3817623   -2.6242179   0.03252346   -3.3817623   0.75754435   426349 
 3395000   0.61043487   -3.3818879   -3.3818879   -2.6230684  0.027780517   -3.3818879    0.7588195   426349 
 3396000   0.60855466   -3.3800794   -3.3800794   -2.6235971  0.036127776   -3.3800794   0.75648225   426349 
 3397000   0.60951388   -3.3815051   -3.3815051   -2.6238305  0.027751259   -3.3815051   0.75767464   426349 
 3398000   0.60901114    -3.381301    -3.381301   -2.6242513  0.023652784    -3.381301   0.75704969   426349 
 3399000   0.60970954   -3.3817629   -3.3817629    -2.623845  0.045095763   -3.3817629   0.75791786   426349 
 3400000   0.60906765   -3.3816161   -3.3816161   -2.6244961  0.035027107   -3.3816161   0.75711994   426349 
 3401000   0.60913717   -3.3824764   -3.3824764     -2.62527  0.030898834   -3.3824764   0.75720636   426349 
 3402000    0.6087574   -3.3817553   -3.3817553   -2.6250211  0.038740404   -3.3817553   0.75673427   426349 
 3403000   0.60938121   -3.3835405   -3.3835405   -2.6260308  0.044076388   -3.3835405   0.75750972   426349 
 3404000   0.60951247   -3.3825858   -3.3825858   -2.6249129  0.044117515   -3.3825858   0.75767288   426349 
 3405000   0.60956125   -3.3831855   -3.3831855    -2.625452  0.033245567   -3.3831855   0.75773352   426349 
 3406000   0.60924431   -3.3830084   -3.3830084   -2.6256689  0.044697619   -3.3830084   0.75733954   426349 
 3407000   0.60992522   -3.3838232   -3.3838232   -2.6256372  0.049897068   -3.3838232   0.75818597   426349 
 3408000   0.60969516    -3.383345    -3.383345    -2.625445   0.04246707    -3.383345   0.75789998   426349 
 3409000    0.6092245   -3.3836081   -3.3836081   -2.6262932  0.048694444   -3.3836081   0.75731491   426349 
 3410000   0.60798186   -3.3826707   -3.3826707   -2.6269005  0.048115066   -3.3826707   0.75577021   426349 
 3411000   0.60746965    -3.382049    -3.382049   -2.6269155  0.037528826    -3.382049   0.75513349   426349 
 3412000   0.60881115   -3.3835047   -3.3835047   -2.6267036  0.033451838   -3.3835047   0.75680108   426349 
 3413000   0.60879986   -3.3838724   -3.3838724   -2.6270854   0.03217407   -3.3838724   0.75678705   426349 
 3414000   0.60896968   -3.3833314   -3.3833314   -2.6263332  0.027229627   -3.3833314   0.75699816   426349 
 3415000   0.60931308   -3.3842211   -3.3842211   -2.6267961  0.038234115   -3.3842211   0.75742503   426349 
 3416000   0.60897956   -3.3835122   -3.3835122   -2.6265018  0.023118859   -3.3835122   0.75701044   426349 
 3417000   0.60869155   -3.3835124   -3.3835124     -2.62686  0.027386744   -3.3835124   0.75665241   426349 
 3418000   0.60966749   -3.3852294   -3.3852294   -2.6273639  0.027630397   -3.3852294   0.75786558   426349 
 3419000   0.60944304    -3.384284    -3.384284   -2.6266974  0.039283873    -3.384284   0.75758658   426349 
 3420000   0.60912154   -3.3832845   -3.3832845   -2.6260975   0.03442693   -3.3832845   0.75718693   426349 
 3421000   0.60988613   -3.3829269   -3.3829269   -2.6247896  0.041330627   -3.3829269   0.75813738   426349 
 3422000   0.60842467   -3.3816864   -3.3816864   -2.6253657  0.040913572   -3.3816864   0.75632066   426349 
 3423000    0.6099103   -3.3840461   -3.3840461   -2.6258787   0.03462785   -3.3840461   0.75816742   426349 
 3424000   0.60862876   -3.3824427   -3.3824427   -2.6258683  0.041984313   -3.3824427   0.75657436   426349 
 3425000   0.60895596   -3.3827947   -3.3827947   -2.6258136  0.042116789   -3.3827947    0.7569811   426349 
 3426000   0.60941521   -3.3839797   -3.3839797   -2.6264277  0.035982635   -3.3839797   0.75755198   426349 
 3427000    0.6100987   -3.3845622   -3.3845622   -2.6261606  0.046117881   -3.3845622   0.75840161   426349 
 3428000    0.6087351   -3.3823564   -3.3823564   -2.6256498   0.03204603   -3.3823564   0.75670655   426349 
 3429000   0.60786091    -3.381085    -3.381085   -2.6254651  0.037758317    -3.381085   0.75561986   426349 
 3430000   0.60649832   -3.3800077   -3.3800077   -2.6260816  0.052236541   -3.3800077   0.75392605   426349 
 3431000   0.60729718   -3.3815624   -3.3815624   -2.6266433  0.037210231   -3.3815624    0.7549191   426349 
 3432000   0.60886013   -3.3834444   -3.3834444   -2.6265824  0.032023795   -3.3834444   0.75686198   426349 
 3433000   0.60877271   -3.3830365   -3.3830365   -2.6262832  0.039156279   -3.3830365    0.7567533   426349 
 3434000    0.6090325   -3.3831056   -3.3831056   -2.6260293  0.024366854   -3.3831056   0.75707625   426349 
 3435000   0.60918561   -3.3840534   -3.3840534   -2.6267868  0.036316568   -3.3840534   0.75726657   426349 
 3436000   0.60842965   -3.3833269   -3.3833269   -2.6270001   0.03775685   -3.3833269   0.75632685   426349 
 3437000    0.6100638   -3.3850825   -3.3850825   -2.6267242   0.03431903   -3.3850825   0.75835823   426349 
 3438000   0.60828559   -3.3830626   -3.3830626   -2.6269148  0.029319543   -3.3830626   0.75614777   426349 
 3439000   0.60799866    -3.382405    -3.382405   -2.6266139  0.044250863    -3.382405    0.7557911   426349 
 3440000   0.60863474    -3.383764    -3.383764   -2.6271822  0.039961262    -3.383764    0.7565818   426349 
 3441000   0.60718029   -3.3824524   -3.3824524   -2.6276786  0.043472367   -3.3824524    0.7547738   426349 
 3442000    0.6084396   -3.3837006   -3.3837006   -2.6273614  0.033231428   -3.3837006   0.75633922   426349 
 3443000   0.60788317   -3.3839823   -3.3839823   -2.6283347  0.033742318   -3.3839823   0.75564753   426349 
 3444000   0.60768845   -3.3834111   -3.3834111   -2.6280057  0.033049416   -3.3834111   0.75540548   426349 
 3445000   0.60918132   -3.3851299   -3.3851299   -2.6278687  0.040585679   -3.3851299   0.75726124   426349 
 3446000   0.60817182   -3.3843549   -3.3843549   -2.6283486  0.043550585   -3.3843549   0.75600634   426349 
 3447000   0.60971337   -3.3858849   -3.3858849   -2.6279623  0.042787219   -3.3858849   0.75792262   426349 
 3448000   0.60896446   -3.3844991   -3.3844991   -2.6275075  0.038988919   -3.3844991   0.75699166   426349 
 3449000   0.60944436   -3.3850947   -3.3850947   -2.6275065  0.046985431   -3.3850947   0.75758821   426349 
 3450000   0.60794553   -3.3841077   -3.3841077   -2.6283827  0.049635632   -3.3841077   0.75572506   426349 
 3451000   0.61009677    -3.386644    -3.386644   -2.6282448  0.040104286    -3.386644   0.75839922   426349 
 3452000   0.60796253   -3.3844669   -3.3844669   -2.6287207   0.03874819   -3.3844669   0.75574618   426349 
 3453000   0.60918666   -3.3860354   -3.3860354   -2.6287675  0.038556754   -3.3860354   0.75726788   426349 
 3454000   0.60875945   -3.3850219   -3.3850219   -2.6282851  0.043664639   -3.3850219   0.75673682   426349 
 3455000   0.60810592   -3.3840606   -3.3840606   -2.6281362  0.042537339   -3.3840606   0.75592442   426349 
 3456000   0.60877424   -3.3845313   -3.3845313   -2.6277761   0.02958913   -3.3845313   0.75675521   426349 
 3457000   0.60745897   -3.3823464   -3.3823464   -2.6272262  0.037876691   -3.3823464   0.75512022   426349 
 3458000   0.60812814    -3.383486    -3.383486   -2.6275339  0.035714765    -3.383486   0.75595205   426349 
 3459000    0.6082771   -3.3833005   -3.3833005   -2.6271633  0.033346116   -3.3833005   0.75613722   426349 
 3460000   0.60793681   -3.3830936   -3.3830936   -2.6273794  0.035644527   -3.3830936   0.75571421   426349 
 3461000   0.60822466    -3.383012    -3.383012     -2.62694  0.035567465    -3.383012   0.75607204   426349 
 3462000    0.6077311   -3.3825255   -3.3825255    -2.627067  0.027341729   -3.3825255    0.7554585   426349 
 3463000   0.60864846   -3.3838247   -3.3838247   -2.6272258  0.045910641   -3.3838247   0.75659886   426349 
 3464000   0.60874565   -3.3836275   -3.3836275   -2.6269079  0.025171638   -3.3836275   0.75671966   426349 
 3465000     0.606905   -3.3825676   -3.3825676    -2.628136  0.041780092   -3.3825676   0.75443159   426349 
 3466000   0.60796185   -3.3832066   -3.3832066   -2.6274613  0.033855144   -3.3832066   0.75574534   426349 
 3467000   0.60805974    -3.384065    -3.384065    -2.628198  0.040204143    -3.384065   0.75586702   426349 
 3468000   0.60865574   -3.3847369   -3.3847369    -2.628129  0.046002753   -3.3847369    0.7566079   426349 
 3469000   0.60706696   -3.3824437   -3.3824437   -2.6278107  0.037600324   -3.3824437   0.75463292   426349 
 3470000   0.60874061   -3.3845889   -3.3845889   -2.6278755  0.034111521   -3.3845889    0.7567134   426349 
 3471000   0.60822972   -3.3842677   -3.3842677   -2.6281894  0.042067604   -3.3842677   0.75607832   426349 
 3472000   0.60861554   -3.3856792   -3.3856792   -2.6291213  0.026982853   -3.3856792   0.75655793   426349 
 3473000   0.60875613   -3.3850699   -3.3850699   -2.6283372   0.04015205   -3.3850699   0.75673269   426349 
 3474000   0.61013654   -3.3866428   -3.3866428   -2.6281942  0.044867202   -3.3866428   0.75844865   426349 
 3475000    0.6083159   -3.3849158   -3.3849158   -2.6287303  0.036376911   -3.3849158   0.75618546   426349 
 3476000   0.60731304   -3.3845554   -3.3845554   -2.6296165  0.029540372   -3.3845554   0.75493881   426349 
 3477000   0.60687245   -3.3835887   -3.3835887   -2.6291975  0.039295483   -3.3835887   0.75439112   426349 
 3478000   0.60802384   -3.3847105   -3.3847105   -2.6288881  0.044195375   -3.3847105    0.7558224   426349 
 3479000    0.6082363    -3.384531    -3.384531   -2.6284445  0.034550525    -3.384531    0.7560865   426349 
 3480000   0.60866244   -3.3854576   -3.3854576   -2.6288414  0.038287472   -3.3854576   0.75661622   426349 
 3481000   0.60984454   -3.3873035   -3.3873035   -2.6292178   0.03565996   -3.3873035   0.75808567   426349 
 3482000    0.6074483   -3.3846717   -3.3846717   -2.6295647  0.042420587   -3.3846717   0.75510695   426349 
 3483000     0.607935   -3.3851081   -3.3851081   -2.6293962  0.038156703   -3.3851081   0.75571196   426349 
 3484000   0.60872169   -3.3854153   -3.3854153   -2.6287254  0.026846115   -3.3854153   0.75668988   426349 
 3485000   0.60897116   -3.3855249   -3.3855249    -2.628525  0.039601318   -3.3855249   0.75699999   426349 
 3486000   0.60813634    -3.384601    -3.384601   -2.6286388  0.039442219    -3.384601   0.75596224   426349 
 3487000   0.60929305    -3.385262    -3.385262   -2.6278618  0.036180062    -3.385262   0.75740012   426349 
 3488000   0.60812225   -3.3839021   -3.3839021   -2.6279573  0.042598196   -3.3839021   0.75594473   426349 
 3489000   0.60963911   -3.3859681   -3.3859681   -2.6281378  0.040857135   -3.3859681    0.7578303   426349 
 3490000   0.60894099    -3.384216    -3.384216   -2.6272535  0.027574993    -3.384216   0.75696249   426349 
 3491000   0.60948727   -3.3848312   -3.3848312   -2.6271896  0.029587159   -3.3848312   0.75764155   426349 
 3492000   0.60787286   -3.3831731   -3.3831731   -2.6275384   0.02634274   -3.3831731   0.75563472   426349 
 3493000   0.60848623   -3.3845089   -3.3845089   -2.6281117  0.040564874   -3.3845089   0.75639719   426349 
 3494000   0.60986991   -3.3852916   -3.3852916   -2.6271744  0.046002022   -3.3852916   0.75811721   426349 
 3495000   0.60730095   -3.3823931   -3.3823931   -2.6274693  0.036922651   -3.3823931   0.75492379   426349 
 3496000   0.60959845   -3.3852598   -3.3852598   -2.6274801   0.03463607   -3.3852598   0.75777976   426349 
 3497000   0.60928013   -3.3858666   -3.3858666   -2.6284825  0.043393259   -3.3858666   0.75738406   426349 
 3498000   0.60955369   -3.3857654   -3.3857654   -2.6280412  0.043494218   -3.3857654   0.75772412   426349 
 3499000   0.60847318   -3.3848077   -3.3848077   -2.6284268  0.040899412   -3.3848077   0.75638096   426349 
 3500000   0.60854407   -3.3857448   -3.3857448   -2.6292757  0.041695068   -3.3857448   0.75646909   426349 
 3501000   0.60936097   -3.3860187   -3.3860187   -2.6285341  0.035369232   -3.3860187   0.75748456   426349 
 3502000   0.60789287   -3.3844299   -3.3844299   -2.6287703  0.035860434   -3.3844299   0.75565959   426349 
 3503000   0.60965116   -3.3859686   -3.3859686   -2.6281233  0.032576258   -3.3859686   0.75784529   426349 
 3504000   0.60895055   -3.3856024   -3.3856024    -2.628628  0.037929542   -3.3856024   0.75697437   426349 
 3505000   0.60795009   -3.3842773   -3.3842773   -2.6285465  0.040902931   -3.3842773   0.75573072   426349 
 3506000   0.60914077   -3.3858111   -3.3858111   -2.6286003  0.039734474   -3.3858111   0.75721083   426349 
 3507000   0.60933425   -3.3849861   -3.3849861   -2.6275348  0.039310301   -3.3849861   0.75745133   426349 
 3508000   0.60785396    -3.383601    -3.383601   -2.6279898  0.040722978    -3.383601   0.75561123   426349 
 3509000   0.60833119   -3.3849711   -3.3849711   -2.6287667  0.027938225   -3.3849711   0.75620446   426349 
 3510000   0.60735612   -3.3841993   -3.3841993   -2.6292069  0.031843253   -3.3841993   0.75499236   426349 
 3511000   0.60925644   -3.3859415   -3.3859415   -2.6285869  0.037355774   -3.3859415   0.75735462   426349 
 3512000   0.60963245   -3.3854264   -3.3854264   -2.6276044  0.045984923   -3.3854264   0.75782203   426349 
 3513000    0.6091466   -3.3853537   -3.3853537   -2.6281356  0.047936479   -3.3853537   0.75721808   426349 
 3514000    0.6094692   -3.3855858   -3.3855858   -2.6279667  0.032941188   -3.3855858   0.75761909   426349 
 3515000   0.60868099   -3.3849316   -3.3849316   -2.6282923  0.033158091   -3.3849316   0.75663929   426349 
 3516000   0.60866484    -3.385183    -3.385183   -2.6285638  0.035885925    -3.385183   0.75661921   426349 
 3517000   0.60879553   -3.3852525   -3.3852525   -2.6284708  0.031587605   -3.3852525   0.75678167   426349 
 3518000   0.60829353   -3.3839796   -3.3839796    -2.627822  0.036927128   -3.3839796   0.75615765   426349 
 3519000   0.60906333   -3.3857331   -3.3857331   -2.6286185  0.046888852   -3.3857331   0.75711456   426349 
 3520000    0.6093024   -3.3864301   -3.3864301   -2.6290184  0.032149804   -3.3864301   0.75741175   426349 
 3521000   0.60858709   -3.3862769   -3.3862769   -2.6297544  0.038712344   -3.3862769   0.75652256   426349 
 3522000   0.60927755   -3.3864134   -3.3864134   -2.6290326  0.049261353   -3.3864134   0.75738085   426349 
 3523000   0.60914084   -3.3865341   -3.3865341   -2.6293232  0.032129227   -3.3865341   0.75721092   426349 
 3524000   0.60905916   -3.3852129   -3.3852129   -2.6281035  0.046618542   -3.3852129   0.75710938   426349 
 3525000   0.61002642   -3.3865591   -3.3865591   -2.6282474  0.036924523   -3.3865591   0.75831176   426349 
 3526000   0.60855085   -3.3846366   -3.3846366   -2.6281591   0.01885315   -3.3846366   0.75647751   426349 
 3527000   0.60847619   -3.3843249   -3.3843249   -2.6279402  0.034626204   -3.3843249   0.75638471   426349 
 3528000   0.60918393   -3.3855856   -3.3855856   -2.6283211  0.040327162   -3.3855856   0.75726448   426349 
 3529000   0.60884625   -3.3845711   -3.3845711   -2.6277263  0.042316029   -3.3845711   0.75684472   426349 
 3530000   0.60927616   -3.3847367   -3.3847367   -2.6273576   0.04915144   -3.3847367   0.75737913   426349 
 3531000   0.60960679   -3.3845779   -3.3845779   -2.6267877  0.037930714   -3.3845779   0.75779013   426349 
 3532000   0.60747761   -3.3834701   -3.3834701   -2.6283268  0.037061869   -3.3834701   0.75514339   426349 
 3533000   0.60851521   -3.3851654   -3.3851654   -2.6287322  0.039831939   -3.3851654   0.75643321   426349 
 3534000   0.60755205   -3.3841318   -3.3841318   -2.6288959  0.035721834   -3.3841318   0.75523592   426349 
 3535000   0.60853738   -3.3847611   -3.3847611   -2.6283003  0.035136792   -3.3847611   0.75646077   426349 
 3536000   0.60791318   -3.3843856   -3.3843856   -2.6287008  0.038194582   -3.3843856   0.75568483   426349 
 3537000   0.60859536   -3.3866209   -3.3866209   -2.6300881  0.036367306   -3.3866209   0.75653285   426349 
 3538000   0.60873395    -3.386585    -3.386585   -2.6298799  0.036277772    -3.386585   0.75670512   426349 
 3539000    0.6090319   -3.3866462   -3.3866462   -2.6295707  0.035789092   -3.3866462   0.75707549   426349 
 3540000   0.60877003   -3.3864281   -3.3864281   -2.6296781   0.02566452   -3.3864281   0.75674997   426349 
 3541000   0.60783224   -3.3851422   -3.3851422    -2.629558  0.046879496   -3.3851422   0.75558423   426349 
 3542000    0.6082093   -3.3847503   -3.3847503   -2.6286973  0.046643186   -3.3847503   0.75605294   426349 
 3543000   0.60740287    -3.384263    -3.384263   -2.6292126  0.040076893    -3.384263   0.75505049   426349 
 3544000   0.60842429   -3.3854838   -3.3854838   -2.6291637  0.042957146   -3.3854838   0.75632018   426349 
 3545000   0.60864395    -3.385804    -3.385804   -2.6292107  0.035196211    -3.385804   0.75659325   426349 
 3546000   0.60827379   -3.3852192   -3.3852192   -2.6290861  0.047192675   -3.3852192    0.7561331   426349 
 3547000    0.6092247   -3.3860925   -3.3860925   -2.6287773  0.034615526   -3.3860925   0.75731516   426349 
 3548000   0.60798376   -3.3849387   -3.3849387   -2.6291661  0.042765283   -3.3849387   0.75577258   426349 
 3549000   0.60935558   -3.3865634   -3.3865634   -2.6290855  0.040633966   -3.3865634   0.75747785   426349 
 3550000   0.60893362   -3.3856749   -3.3856749   -2.6287216  0.041315347   -3.3856749   0.75695332   426349 
 3551000   0.60880668   -3.3858831   -3.3858831   -2.6290876  0.037279306   -3.3858831   0.75679553   426349 
 3552000   0.60922803   -3.3858206   -3.3858206   -2.6285013  0.051986495   -3.3858206   0.75731931   426349 
 3553000   0.60967409     -3.38645     -3.38645   -2.6285762  0.044685224     -3.38645   0.75787379   426349 
 3554000   0.60893417   -3.3857227   -3.3857227   -2.6287687  0.032332548   -3.3857227     0.756954   426349 
 3555000   0.60880169   -3.3858251   -3.3858251   -2.6290357  0.045753033   -3.3858251   0.75678932   426349 
 3556000   0.60864068   -3.3851177   -3.3851177   -2.6285286  0.040664856   -3.3851177   0.75658917   426349 
 3557000   0.60921731   -3.3859811   -3.3859811   -2.6286752  0.029565205   -3.3859811   0.75730597   426349 
 3558000   0.60677188   -3.3829738   -3.3829738   -2.6287077   0.03939232   -3.3829738   0.75426611   426349 
 3559000   0.60680447   -3.3830171   -3.3830171   -2.6287105  0.031638695   -3.3830171   0.75430662   426349 
 3560000   0.60787328   -3.3845952   -3.3845952   -2.6289599  0.029260768   -3.3845952   0.75563524   426349 
 3561000    0.6084087   -3.3849386   -3.3849386   -2.6286378  0.032458942   -3.3849386   0.75630081   426349 
 3562000   0.60877568   -3.3855116   -3.3855116   -2.6287546  0.038491618   -3.3855116   0.75675699   426349 
 3563000   0.60904388   -3.3857937   -3.3857937   -2.6287033    0.0390289   -3.3857937   0.75709038   426349 
 3564000   0.60823971    -3.385694    -3.385694   -2.6296033  0.038080109    -3.385694   0.75609074   426349 
 3565000   0.60788622   -3.3857575   -3.3857575   -2.6301061  0.033987393   -3.3857575   0.75565132   426349 
 3566000   0.60848692   -3.3864366   -3.3864366   -2.6300385  0.043112912   -3.3864366   0.75639805   426349 
 3567000   0.60823778   -3.3859047   -3.3859047   -2.6298164  0.033246351   -3.3859047   0.75608834   426349 
 3568000   0.60829839   -3.3856398   -3.3856398   -2.6294761  0.025189916   -3.3856398   0.75616369   426349 
 3569000   0.60863211   -3.3867939   -3.3867939   -2.6302154  0.035368641   -3.3867939   0.75657853   426349 
 3570000   0.60878935   -3.3864783   -3.3864783   -2.6297044   0.04104594   -3.3864783   0.75677399   426349 
 3571000   0.60790289   -3.3852552   -3.3852552   -2.6295831  0.042617501   -3.3852552   0.75567205   426349 
 3572000   0.60767432   -3.3849416   -3.3849416   -2.6295536  0.037508091   -3.3849416   0.75538792   426349 
 3573000   0.60747631   -3.3853202   -3.3853202   -2.6301784  0.039190623   -3.3853202   0.75514177   426349 
 3574000   0.60881539    -3.387136    -3.387136   -2.6303297  0.037798255    -3.387136   0.75680636   426349 
 3575000   0.60886958    -3.387791    -3.387791   -2.6309172  0.040033476    -3.387791   0.75687372   426349 
 3576000   0.60690799   -3.3864412   -3.3864412   -2.6320059  0.038293804   -3.3864412    0.7544353   426349 
 3577000   0.60792949    -3.387601    -3.387601   -2.6318959   0.03966436    -3.387601   0.75570511   426349 
 3578000   0.60793923    -3.387358    -3.387358   -2.6316408  0.039565723    -3.387358   0.75571722   426349 
 3579000   0.60695017   -3.3857455   -3.3857455   -2.6312577  0.039019668   -3.3857455   0.75448774   426349 
 3580000    0.6089435   -3.3873323   -3.3873323   -2.6303667  0.037444656   -3.3873323    0.7569656   426349 
 3581000   0.60884732   -3.3874841   -3.3874841    -2.630638   0.04932633   -3.3874841   0.75684605   426349 
 3582000   0.60865785   -3.3879261   -3.3879261   -2.6313156  0.029165415   -3.3879261   0.75661052   426349 
 3583000     0.607866   -3.3874071   -3.3874071   -2.6317809  0.023846598   -3.3874071   0.75562618   426349 
 3584000   0.60725546   -3.3859826   -3.3859826   -2.6311154   0.02824285   -3.3859826   0.75486724   426349 
 3585000   0.60696827   -3.3860199   -3.3860199   -2.6315097  0.031494229   -3.3860199   0.75451024   426349 
 3586000   0.60812986   -3.3872496   -3.3872496   -2.6312954  0.035244751   -3.3872496   0.75595419   426349 
 3587000    0.6093989   -3.3886454   -3.3886454   -2.6311137  0.037278749   -3.3886454    0.7575317   426349 
 3588000   0.60893965   -3.3873182   -3.3873182   -2.6303574   0.03555332   -3.3873182   0.75696082   426349 
 3589000   0.60864226   -3.3876949   -3.3876949   -2.6311037  0.046559595   -3.3876949   0.75659114   426349 
 3590000   0.60868015   -3.3879742   -3.3879742   -2.6313359  0.036416638   -3.3879742   0.75663825   426349 
 3591000   0.60877913   -3.3881686   -3.3881686   -2.6314074  0.036426369   -3.3881686   0.75676128   426349 
 3592000   0.60836801    -3.386596    -3.386596   -2.6303458  0.041427838    -3.386596   0.75625022   426349 
 3593000   0.60833505   -3.3867432   -3.3867432   -2.6305339  0.049552641   -3.3867432   0.75620925   426349 
 3594000   0.60716639   -3.3866622   -3.3866622   -2.6319056  0.032730484   -3.3866622   0.75475652   426349 
 3595000   0.60792599   -3.3870437   -3.3870437    -2.631343  0.038766267   -3.3870437   0.75570076   426349 
 3596000    0.6076222     -3.38644     -3.38644   -2.6311169  0.033780914     -3.38644   0.75532312   426349 
 3597000   0.60723778   -3.3861229   -3.3861229   -2.6312777  0.035781401   -3.3861229   0.75484526   426349 
 3598000   0.60762902   -3.3866122   -3.3866122   -2.6312806  0.040885778   -3.3866122   0.75533161   426349 
 3599000   0.60805985   -3.3872552   -3.3872552    -2.631388   0.03988311   -3.3872552   0.75586716   426349 
 3600000   0.60926023   -3.3882765   -3.3882765   -2.6309172  0.037024673   -3.3882765   0.75735933   426349 
 3601000   0.60853582   -3.3873454   -3.3873454   -2.6308866  0.039432526   -3.3873454   0.75645882   426349 
 3602000   0.60878043   -3.3870962   -3.3870962   -2.6303333  0.041795545   -3.3870962    0.7567629   426349 
 3603000   0.60943077   -3.3889788   -3.3889788   -2.6314075  0.045009345   -3.3889788   0.75757132   426349 
 3604000   0.60921671   -3.3887638   -3.3887638   -2.6314586  0.027536619   -3.3887638   0.75730523   426349 
 3605000   0.60825623   -3.3883756   -3.3883756   -2.6322643  0.029270813   -3.3883756   0.75611127   426349 
 3606000   0.60827422   -3.3887095   -3.3887095   -2.6325759  0.030614192   -3.3887095   0.75613364   426349 
 3607000   0.60878963   -3.3887638   -3.3887638   -2.6319894  0.035894931   -3.3887638   0.75677433   426349 
 3608000   0.60874007   -3.3880499   -3.3880499   -2.6313372  0.032646742   -3.3880499   0.75671273   426349 
 3609000   0.60806709   -3.3879935   -3.3879935   -2.6321173   0.03887713   -3.3879935   0.75587615   426349 
 3610000   0.60807865   -3.3878551   -3.3878551   -2.6319646   0.04584877   -3.3878551   0.75589053   426349 
 3611000   0.60754701   -3.3875552   -3.3875552   -2.6323256  0.037832115   -3.3875552   0.75522965   426349 
 3612000    0.6094477   -3.3895108   -3.3895108   -2.6319184  0.032688517   -3.3895108   0.75759237   426349 
 3613000   0.60826595   -3.3885064   -3.3885064   -2.6323831  0.046109967   -3.3885064   0.75612336   426349 
 3614000   0.60881827   -3.3890565   -3.3890565   -2.6322466  0.041054192   -3.3890565   0.75680993   426349 
 3615000   0.60851976   -3.3884406   -3.3884406   -2.6320017  0.037253048   -3.3884406   0.75643887   426349 
 3616000   0.60932318   -3.3892142   -3.3892142   -2.6317766    0.0435264   -3.3892142   0.75743758   426349 
 3617000   0.60899959   -3.3894591   -3.3894591   -2.6324237  0.037101205   -3.3894591   0.75703533   426349 
 3618000   0.60923235   -3.3884755   -3.3884755   -2.6311509  0.038740141   -3.3884755   0.75732467   426349 
 3619000   0.60756534   -3.3873945   -3.3873945   -2.6321421  0.042335071   -3.3873945   0.75525244   426349 
 3620000   0.60731135   -3.3869433   -3.3869433   -2.6320066  0.032541679   -3.3869433   0.75493671   426349 
 3621000   0.60851567   -3.3880013   -3.3880013   -2.6315675  0.043565291   -3.3880013   0.75643378   426349 
 3622000   0.60814924   -3.3883969   -3.3883969   -2.6324187  0.036010496   -3.3883969   0.75597828   426349 
 3623000    0.6076018   -3.3877079   -3.3877079   -2.6324102  0.041890423   -3.3877079   0.75529776   426349 
 3624000   0.60797736    -3.388063    -3.388063   -2.6322984  0.032030823    -3.388063   0.75576462   426349 
 3625000   0.60665188   -3.3864881   -3.3864881   -2.6323712  0.040973463   -3.3864881   0.75411694   426349 
 3626000   0.60721237   -3.3875768   -3.3875768   -2.6327631  0.029951419   -3.3875768   0.75481367   426349 
 3627000   0.60788219    -3.388884    -3.388884   -2.6332377  0.042654409    -3.388884   0.75564631   426349 
 3628000   0.60755163   -3.3881144   -3.3881144    -2.632879  0.044390032   -3.3881144    0.7552354   426349 
 3629000   0.60842938   -3.3889323   -3.3889323   -2.6326058  0.032937638   -3.3889323   0.75632652   426349 
 3630000   0.60782476   -3.3869884   -3.3869884   -2.6314135  0.046930551   -3.3869884   0.75557493   426349 
 3631000    0.6086012   -3.3890877   -3.3890877   -2.6325476  0.029621558   -3.3890877    0.7565401   426349 
 3632000    0.6072615   -3.3878062   -3.3878062   -2.6329315  0.043693706   -3.3878062   0.75487475   426349 
 3633000   0.60875428   -3.3890528   -3.3890528   -2.6323224  0.034979099   -3.3890528   0.75673039   426349 
 3634000   0.60859651   -3.3892296   -3.3892296   -2.6326954  0.036433505   -3.3892296   0.75653428   426349 
 3635000   0.60915251   -3.3900337   -3.3900337   -2.6328082  0.043343488   -3.3900337   0.75722543   426349 
 3636000   0.60803692   -3.3891878   -3.3891878   -2.6333491  0.043148043   -3.3891878   0.75583866   426349 
 3637000   0.60868825   -3.3904361   -3.3904361   -2.6337878  0.045522235   -3.3904361   0.75664832   426349 
 3638000   0.60758358   -3.3891976   -3.3891976   -2.6339225  0.042394169   -3.3891976   0.75527512   426349 
 3639000   0.60809144   -3.3893606   -3.3893606   -2.6334542   0.03070182   -3.3893606   0.75590643   426349 
 3640000   0.60904392    -3.390563    -3.390563   -2.6334726  0.034588099    -3.390563   0.75709043   426349 
 3641000   0.60886181   -3.3904721   -3.3904721    -2.633608  0.031354469   -3.3904721   0.75686406   426349 
 3642000    0.6072206   -3.3882332   -3.3882332   -2.6334093  0.045392735   -3.3882332    0.7548239   426349 
 3643000   0.60844534   -3.3899459   -3.3899459   -2.6335995  0.040202664   -3.3899459   0.75634636   426349 
 3644000   0.60739423    -3.389017    -3.389017   -2.6339772  0.040528762    -3.389017   0.75503974   426349 
 3645000   0.60756734   -3.3896478   -3.3896478   -2.6343929  0.045361224   -3.3896478   0.75525493   426349 
 3646000   0.60774499   -3.3907426   -3.3907426   -2.6352669  0.040512395   -3.3907426   0.75547577   426349 
 3647000   0.60801603   -3.3903993   -3.3903993   -2.6345866  0.035609735   -3.3903993   0.75581269   426349 
 3648000   0.60842844   -3.3909021   -3.3909021   -2.6345768  0.037189526   -3.3909021   0.75632534   426349 
 3649000   0.60819192    -3.390539    -3.390539   -2.6345077  0.032637244    -3.390539   0.75603133   426349 
 3650000   0.60739559   -3.3897429   -3.3897429   -2.6347014  0.048993459   -3.3897429   0.75504143   426349 
 3651000   0.60821071   -3.3903503   -3.3903503   -2.6342956  0.039382129   -3.3903503   0.75605469   426349 
 3652000   0.60943063   -3.3913169   -3.3913169   -2.6337458  0.036922404   -3.3913169   0.75757115   426349 
 3653000   0.60861876   -3.3904051   -3.3904051   -2.6338431  0.034096569   -3.3904051   0.75656193   426349 
 3654000   0.60865944   -3.3912199   -3.3912199   -2.6346074  0.020088149   -3.3912199    0.7566125   426349 
 3655000   0.60940209   -3.3921331   -3.3921331   -2.6345974  0.038434726   -3.3921331   0.75753567   426349 
 3656000   0.60793772   -3.3899073   -3.3899073    -2.634192  0.034847053   -3.3899073   0.75571534   426349 
 3657000   0.60871847   -3.3901037   -3.3901037   -2.6334178  0.043564877   -3.3901037   0.75668588   426349 
 3658000   0.60882329   -3.3909471   -3.3909471    -2.634131  0.027431288   -3.3909471   0.75681618   426349 
 3659000    0.6101579   -3.3920108   -3.3920108   -2.6335356  0.034789078   -3.3920108    0.7584752   426349 
 3660000   0.60907474    -3.390799    -3.390799   -2.6336702  0.038821193    -3.390799   0.75712875   426349 
 3661000   0.60971904    -3.391146    -3.391146   -2.6332163  0.044235965    -3.391146   0.75792966   426349 
 3662000   0.60745825   -3.3896222   -3.3896222   -2.6345029  0.033180718   -3.3896222   0.75511932   426349 
 3663000   0.60777476   -3.3903679   -3.3903679   -2.6348552  0.035418513   -3.3903679   0.75551277   426349 
 3664000   0.60783136   -3.3901823   -3.3901823   -2.6345991  0.040996854   -3.3901823   0.75558313   426349 
 3665000   0.60732562   -3.3894614   -3.3894614   -2.6345069  0.029899308   -3.3894614   0.75495445   426349 
 3666000   0.60751308   -3.3885891   -3.3885891   -2.6334016  0.041073365   -3.3885891   0.75518749   426349 
 3667000   0.60824023   -3.3901681   -3.3901681   -2.6340767  0.042288721   -3.3901681   0.75609138   426349 
 3668000   0.60667406   -3.3877157   -3.3877157   -2.6335712  0.034192297   -3.3877157   0.75414451   426349 
 3669000   0.60866653   -3.3895898   -3.3895898   -2.6329685  0.038796361   -3.3895898   0.75662131   426349 
 3670000     0.609388   -3.3906111   -3.3906111   -2.6330929  0.039727837   -3.3906111   0.75751816   426349 
 3671000   0.60902448   -3.3901481   -3.3901481   -2.6330818  0.043964869   -3.3901481   0.75706628   426349 
 3672000   0.60796897   -3.3894446   -3.3894446   -2.6336904   0.03932831   -3.3894446   0.75575419   426349 
 3673000   0.60735608   -3.3893261   -3.3893261   -2.6343337  0.043515913   -3.3893261   0.75499232   426349 
 3674000   0.60924509   -3.3907567   -3.3907567   -2.6334162  0.038821704   -3.3907567   0.75734051   426349 
 3675000   0.60711354   -3.3882969   -3.3882969   -2.6336061  0.034932853   -3.3882969   0.75469083   426349 
 3676000   0.60741887   -3.3884705   -3.3884705   -2.6334002  0.042694149   -3.3884705   0.75507037   426349 
 3677000   0.60838313    -3.389769    -3.389769      -2.6335  0.036751369    -3.389769   0.75626902   426349 
 3678000   0.60805054   -3.3889532   -3.3889532   -2.6330976  0.036559588   -3.3889532   0.75585559   426349 
 3679000   0.60798512   -3.3885782   -3.3885782   -2.6328039   0.03843041   -3.3885782   0.75577427   426349 
 3680000   0.60917003   -3.3904874   -3.3904874   -2.6332402  0.048256896   -3.3904874   0.75724721   426349 
 3681000   0.60947826   -3.3906261   -3.3906261   -2.6329957  0.053866347   -3.3906261   0.75763035   426349 
 3682000   0.60829562   -3.3894123   -3.3894123    -2.633252  0.030699197   -3.3894123   0.75616024   426349 
 3683000   0.60847067   -3.3906551   -3.3906551   -2.6342773  0.031817948   -3.3906551   0.75637784   426349 
 3684000   0.60797132   -3.3902171   -3.3902171     -2.63446  0.036505873   -3.3902171   0.75575711   426349 
 3685000   0.60768246   -3.3888408   -3.3888408   -2.6334427  0.038887486   -3.3888408   0.75539803   426349 
 3686000   0.60758852   -3.3893711   -3.3893711   -2.6340899  0.033600066   -3.3893711   0.75528126   426349 
 3687000   0.60821939   -3.3901214   -3.3901214   -2.6340559  0.042657172   -3.3901214   0.75606549   426349 
 3688000   0.60890604   -3.3911795   -3.3911795   -2.6342605  0.029215846   -3.3911795   0.75691904   426349 
 3689000   0.60778531   -3.3897598   -3.3897598   -2.6342339  0.031946665   -3.3897598   0.75552588   426349 
 3690000    0.6087932   -3.3907609   -3.3907609   -2.6339821  0.038928431   -3.3907609   0.75677877   426349 
 3691000   0.60807576   -3.3898935   -3.3898935   -2.6340065  0.040734474   -3.3898935   0.75588694   426349 
 3692000   0.60864674   -3.3905538   -3.3905538   -2.6339571  0.043034187   -3.3905538   0.75659671   426349 
 3693000   0.60809406   -3.3909222   -3.3909222   -2.6350125  0.035953985   -3.3909222   0.75590968   426349 
 3694000   0.60770805   -3.3902112   -3.3902112   -2.6347813  0.034162589   -3.3902112   0.75542985   426349 
 3695000   0.60658455   -3.3888838   -3.3888838   -2.6348505  0.036209599   -3.3888838   0.75403324   426349 
 3696000   0.60732565   -3.3899477   -3.3899477   -2.6349933  0.030498792   -3.3899477   0.75495449   426349 
 3697000    0.6092032   -3.3924896   -3.3924896   -2.6352012   0.03318932   -3.3924896   0.75728844   426349 
 3698000   0.60782503   -3.3900961   -3.3900961   -2.6345208  0.040057901   -3.3900961   0.75557526   426349 
 3699000   0.60777716     -3.38943     -3.38943   -2.6339142  0.030207525     -3.38943   0.75551575   426349 
 3700000   0.60877213   -3.3908781   -3.3908781   -2.6341256  0.046323763   -3.3908781   0.75675257   426349 
 3701000   0.60856605   -3.3910939   -3.3910939   -2.6345975  0.023507021   -3.3910939   0.75649641   426349 
 3702000   0.60768092   -3.3911409   -3.3911409   -2.6357448  0.043504923   -3.3911409   0.75539612   426349 
 3703000   0.60767844   -3.3909226   -3.3909226   -2.6355295  0.040751096   -3.3909226   0.75539304   426349 
 3704000   0.60871906   -3.3918343   -3.3918343   -2.6351477  0.032728442   -3.3918343   0.75668661   426349 
 3705000   0.60921257   -3.3920786   -3.3920786   -2.6347785  0.043507164   -3.3920786   0.75730008   426349 
 3706000   0.60900891   -3.3914523   -3.3914523   -2.6344054  0.039109206   -3.3914523   0.75704692   426349 
 3707000   0.60834245   -3.3910619   -3.3910619   -2.6348434  0.042713998   -3.3910619   0.75621845   426349 
 3708000   0.60845088   -3.3916004   -3.3916004   -2.6352471  0.040557619   -3.3916004   0.75635324   426349 
 3709000   0.60846165   -3.3911935   -3.3911935   -2.6348269  0.048529547   -3.3911935   0.75636663   426349 
 3710000   0.60859396   -3.3913826   -3.3913826   -2.6348515  0.044723566   -3.3913826   0.75653111   426349 
 3711000   0.60939804   -3.3919386   -3.3919386    -2.634408  0.033293561   -3.3919386   0.75753063   426349 
 3712000    0.6091455   -3.3911588   -3.3911588    -2.633942  0.039307825   -3.3911588   0.75721671   426349 
 3713000   0.60880139   -3.3912979   -3.3912979   -2.6345089  0.037250026   -3.3912979   0.75678895   426349 
 3714000   0.60889892   -3.3916164   -3.3916164   -2.6347062  0.042132938   -3.3916164    0.7569102   426349 
 3715000   0.60797062   -3.3903097   -3.3903097   -2.6345535  0.043706138   -3.3903097   0.75575624   426349 
 3716000   0.60765929   -3.3899816   -3.3899816   -2.6346123  0.032532472   -3.3899816   0.75536924   426349 
 3717000   0.60701563   -3.3897587   -3.3897587   -2.6351896  0.041155899   -3.3897587    0.7545691   426349 
 3718000   0.60773964   -3.3904931   -3.3904931    -2.635024  0.032990359   -3.3904931   0.75546911   426349 
 3719000    0.6071068   -3.3892777   -3.3892777   -2.6345952  0.033518607   -3.3892777   0.75468244   426349 
 3720000   0.60704426   -3.3893046   -3.3893046   -2.6346999  0.037990497   -3.3893046    0.7546047   426349 
 3721000   0.60891015   -3.3912606   -3.3912606   -2.6343365  0.028726734   -3.3912606   0.75692415   426349 
 3722000   0.60779817   -3.3905616   -3.3905616   -2.6350197  0.030363054   -3.3905616   0.75554187   426349 
 3723000   0.60789716    -3.390618    -3.390618   -2.6349531  0.033425527    -3.390618   0.75566493   426349 
 3724000   0.60690848    -3.389971    -3.389971    -2.635535  0.030517603    -3.389971   0.75443592   426349 
 3725000   0.60766021   -3.3904572   -3.3904572   -2.6350868  0.028458718   -3.3904572   0.75537038   426349 
 3726000    0.6077738   -3.3897693   -3.3897693   -2.6342578  0.029290063   -3.3897693   0.75551158   426349 
 3727000   0.60786019   -3.3899172   -3.3899172   -2.6342982  0.047856436   -3.3899172   0.75561896   426349 
 3728000   0.60822529   -3.3904819   -3.3904819   -2.6344091  0.037387692   -3.3904819   0.75607282   426349 
 3729000   0.60782321   -3.3896545   -3.3896545   -2.6340815  0.039472585   -3.3896545   0.75557299   426349 
 3730000   0.60917449   -3.3912194   -3.3912194   -2.6339666  0.038248187   -3.3912194   0.75725274   426349 
 3731000   0.60871118   -3.3905527   -3.3905527   -2.6338759  0.037216584   -3.3905527   0.75667681   426349 
 3732000   0.60771862   -3.3902742   -3.3902742   -2.6348312  0.038760629   -3.3902742   0.75544299   426349 
 3733000   0.60950082   -3.3926879   -3.3926879   -2.6350295  0.029939866   -3.3926879   0.75765839   426349 
 3734000   0.60923015   -3.3928206   -3.3928206   -2.6354987  0.039272893   -3.3928206   0.75732194   426349 
 3735000   0.60758463   -3.3911683   -3.3911683   -2.6358918  0.033273483   -3.3911683   0.75527642   426349 
 3736000   0.60781596   -3.3910195   -3.3910195   -2.6354555  0.038821616   -3.3910195   0.75556398   426349 
 3737000   0.60697991    -3.390507    -3.390507   -2.6359823  0.020271193    -3.390507   0.75452471   426349 
 3738000   0.60581656   -3.3898972   -3.3898972   -2.6368186  0.034440508   -3.3898972   0.75307858   426349 
 3739000   0.60841927   -3.3926804   -3.3926804   -2.6363664  0.033233663   -3.3926804   0.75631394   426349 
 3740000   0.60803654   -3.3914262   -3.3914262    -2.635588  0.034361119   -3.3914262   0.75583819   426349 
 3741000   0.60879782    -3.392151    -3.392151   -2.6353665  0.027728643    -3.392151   0.75678452   426349 
 3742000   0.60976378   -3.3935409   -3.3935409   -2.6355556  0.035616018   -3.3935409   0.75798528   426349 
 3743000   0.60982474   -3.3940499   -3.3940499   -2.6359888  0.058364905   -3.3940499   0.75806106   426349 
 3744000   0.60916767   -3.3932823   -3.3932823    -2.636038  0.045486602   -3.3932823   0.75724427   426349 
 3745000   0.60913051   -3.3933032   -3.3933032   -2.6361051  0.047878932   -3.3933032   0.75719808   426349 
 3746000   0.60984776      -3.3941      -3.3941   -2.6360103  0.053682998      -3.3941   0.75808967   426349 
 3747000    0.6086988   -3.3936862   -3.3936862   -2.6370248  0.040517297   -3.3936862   0.75666143   426349 
 3748000   0.60856715   -3.3936306   -3.3936306   -2.6371328  0.045461408   -3.3936306   0.75649777   426349 
 3749000   0.60964185   -3.3953696   -3.3953696   -2.6375358  0.027946052   -3.3953696   0.75783371   426349 
 3750000   0.60951715   -3.3938726   -3.3938726   -2.6361939  0.039070518   -3.3938726    0.7576787   426349 
 3751000    0.6094047   -3.3930199   -3.3930199    -2.635481  0.045261232   -3.3930199   0.75753891   426349 
 3752000   0.60818588   -3.3915675   -3.3915675   -2.6355437  0.036841277   -3.3915675   0.75602383   426349 
 3753000   0.60797822   -3.3916605   -3.3916605   -2.6358948  0.043653588   -3.3916605   0.75576569   426349 
 3754000   0.60889592   -3.3923833   -3.3923833   -2.6354769  0.027414998   -3.3923833   0.75690646   426349 
 3755000   0.60811662   -3.3913938   -3.3913938   -2.6354561  0.029956947   -3.3913938   0.75593773   426349 
 3756000   0.60777067   -3.3907926   -3.3907926   -2.6352849  0.044161473   -3.3907926   0.75550769   426349 
 3757000   0.60813685   -3.3906796   -3.3906796   -2.6347167  0.036934242   -3.3906796   0.75596288   426349 
 3758000   0.60857879   -3.3910629   -3.3910629   -2.6345506  0.028119015   -3.3910629   0.75651225   426349 
 3759000   0.60891908   -3.3921321   -3.3921321   -2.6351968   0.02440382   -3.3921321   0.75693526   426349 
 3760000   0.60888103   -3.3914091   -3.3914091   -2.6345212  0.045092684   -3.3914091   0.75688795   426349 
 3761000   0.60820202   -3.3900755   -3.3900755   -2.6340316  0.030623033   -3.3900755   0.75604389   426349 
 3762000   0.60916087   -3.3917743   -3.3917743   -2.6345385  0.023585574   -3.3917743   0.75723581   426349 
 3763000   0.60789397     -3.39118     -3.39118   -2.6355191  0.038534784     -3.39118   0.75566096   426349 
 3764000    0.6080822   -3.3912225   -3.3912225   -2.6353275  0.034491501   -3.3912225   0.75589494   426349 
 3765000   0.60888277   -3.3924214   -3.3924214   -2.6355313  0.045425559   -3.3924214   0.75689011   426349 
 3766000   0.60811615   -3.3915073   -3.3915073   -2.6355701  0.058296032   -3.3915073   0.75593715   426349 
 3767000   0.60762911   -3.3913656   -3.3913656   -2.6360339  0.038724733   -3.3913656   0.75533172   426349 
 3768000   0.60917033   -3.3926658   -3.3926658   -2.6354182  0.031339351   -3.3926658   0.75724758   426349 
 3769000   0.60910958   -3.3932209   -3.3932209   -2.6360489  0.039328638   -3.3932209   0.75717205   426349 
 3770000   0.60815949   -3.3921077   -3.3921077   -2.6361167  0.039292747   -3.3921077   0.75599102   426349 
 3771000    0.6088567   -3.3928903   -3.3928903   -2.6360326  0.025443971   -3.3928903   0.75685771   426349 
 3772000   0.60960959   -3.3937765   -3.3937765   -2.6359828  0.045846551   -3.3937765   0.75779361   426349 
 3773000   0.60876498   -3.3932879   -3.3932879   -2.6365442  0.046491372   -3.3932879   0.75674369   426349 
 3774000   0.60774009   -3.3920285   -3.3920285   -2.6365588   0.03464708   -3.3920285   0.75546967   426349 
 3775000   0.60765962    -3.392571    -3.392571   -2.6372014  0.042404248    -3.392571   0.75536964   426349 
 3776000   0.60929081   -3.3946253   -3.3946253    -2.637228  0.040948162   -3.3946253   0.75739734   426349 
 3777000   0.60750834   -3.3926171   -3.3926171   -2.6374355   0.05156674   -3.3926171   0.75518159   426349 
 3778000   0.60910614   -3.3943233   -3.3943233   -2.6371555  0.037085099   -3.3943233   0.75716779   426349 
 3779000    0.6088975   -3.3945009   -3.3945009   -2.6375925  0.033957327   -3.3945009   0.75690842   426349 
 3780000   0.60789961   -3.3940337   -3.3940337   -2.6383657  0.028117677   -3.3940337   0.75566797   426349 
 3781000   0.60759572   -3.3930819   -3.3930819   -2.6377917  0.034786671   -3.3930819   0.75529021   426349 
 3782000   0.60856489   -3.3936648   -3.3936648   -2.6371699  0.033048906   -3.3936648   0.75649496   426349 
 3783000   0.60790287   -3.3933226   -3.3933226   -2.6376506  0.032865658   -3.3933226   0.75567202   426349 
 3784000   0.60839744   -3.3936922   -3.3936922   -2.6374054  0.034068257   -3.3936922   0.75628682   426349 
 3785000   0.60884262   -3.3937078   -3.3937078   -2.6368676  0.036776711   -3.3937078   0.75684021   426349 
 3786000   0.60853026   -3.3931287   -3.3931287   -2.6366768  0.042382543   -3.3931287   0.75645192   426349 
 3787000   0.60794279   -3.3925826   -3.3925826   -2.6368609  0.029684631   -3.3925826   0.75572165   426349 
 3788000   0.60890044   -3.3934061   -3.3934061    -2.636494  0.037119194   -3.3934061   0.75691208   426349 
 3789000   0.60902527   -3.3934348   -3.3934348   -2.6363675  0.037707867   -3.3934348   0.75706726   426349 
 3790000   0.60867779   -3.3935714   -3.3935714   -2.6369361  0.042062546   -3.3935714    0.7566353   426349 
 3791000   0.60792926    -3.393039    -3.393039   -2.6373341  0.041386296    -3.393039   0.75570483   426349 
 3792000    0.6077262   -3.3926711   -3.3926711   -2.6372187  0.035629904   -3.3926711    0.7554524   426349 
 3793000    0.6082224   -3.3925835   -3.3925835   -2.6365143  0.032710493   -3.3925835   0.75606922   426349 
 3794000   0.60770004   -3.3927151   -3.3927151   -2.6372952   0.03826062   -3.3927151   0.75541989   426349 
 3795000   0.60797137   -3.3934833   -3.3934833   -2.6377262  0.030596978   -3.3934833   0.75575717   426349 
 3796000   0.60781958   -3.3925206   -3.3925206   -2.6369521  0.040129309   -3.3925206   0.75556848   426349 
 3797000   0.60789689     -3.39212     -3.39212   -2.6364554  0.029716277     -3.39212   0.75566459   426349 
 3798000   0.60773586    -3.391907    -3.391907   -2.6364426  0.033503231    -3.391907   0.75546442   426349 
 3799000   0.60832331   -3.3933445   -3.3933445   -2.6371498  0.028384024   -3.3933445   0.75619466   426349 
 3800000   0.60829654   -3.3928443   -3.3928443    -2.636683  0.039843354   -3.3928443   0.75616138   426349 
 3801000   0.60805086   -3.3930824   -3.3930824   -2.6372265  0.039826333   -3.3930824   0.75585599   426349 
 3802000   0.60777365   -3.3929655   -3.3929655   -2.6374541  0.030074283   -3.3929655   0.75551139   426349 
 3803000   0.60709808   -3.3919091   -3.3919091   -2.6372375  0.042198583   -3.3919091   0.75467161   426349 
 3804000   0.60840039   -3.3929327   -3.3929327   -2.6366423  0.043406953   -3.3929327   0.75629048   426349 
 3805000   0.60886809   -3.3934099   -3.3934099   -2.6365381  0.031216595   -3.3934099   0.75687187   426349 
 3806000   0.60786731   -3.3923679   -3.3923679     -2.63674  0.044207516   -3.3923679   0.75562782   426349 
 3807000   0.60648443   -3.3915215   -3.3915215   -2.6376127  0.045089546   -3.3915215   0.75390879   426349 
 3808000    0.6083897    -3.392848    -3.392848   -2.6365708  0.029337761    -3.392848   0.75627719   426349 
 3809000   0.60836939   -3.3939199   -3.3939199    -2.637668  0.043666139   -3.3939199   0.75625195   426349 
 3810000    0.6088579   -3.3941023   -3.3941023   -2.6372431  0.031486201   -3.3941023    0.7568592   426349 
 3811000   0.60742084   -3.3921311   -3.3921311   -2.6370583  0.024819551   -3.3921311   0.75507282   426349 
 3812000    0.6085027    -3.393926    -3.393926   -2.6375084  0.043382169    -3.393926   0.75641765   426349 
 3813000   0.60940588   -3.3945742   -3.3945742   -2.6370338  0.035298207   -3.3945742   0.75754039   426349 
 3814000   0.60945934   -3.3954471   -3.3954471   -2.6378403  0.038000653   -3.3954471   0.75760684   426349 
 3815000   0.60790669   -3.3941273   -3.3941273   -2.6384505  0.026406107   -3.3941273   0.75567677   426349 
 3816000   0.60792632    -3.394478    -3.394478   -2.6387769  0.028098502    -3.394478   0.75570117   426349 
 3817000    0.6080051   -3.3952746   -3.3952746   -2.6394755  0.042260372   -3.3952746    0.7557991   426349 
 3818000   0.60830086   -3.3951933   -3.3951933   -2.6390265  0.040979347   -3.3951933   0.75616675   426349 
 3819000   0.60720708   -3.3940605   -3.3940605   -2.6392534  0.031487931   -3.3940605    0.7548071   426349 
 3820000   0.60823762   -3.3954242   -3.3954242    -2.639336   0.02939297   -3.3954242   0.75608814   426349 
 3821000   0.60833889   -3.3943169   -3.3943169   -2.6381029  0.035426829   -3.3943169   0.75621403   426349 
 3822000   0.60882668   -3.3946999   -3.3946999   -2.6378795  0.033520502   -3.3946999   0.75682039   426349 
 3823000   0.60901602   -3.3945238   -3.3945238    -2.637468  0.042410182   -3.3945238   0.75705575   426349 
 3824000   0.60855691   -3.3942953   -3.3942953   -2.6378103  0.036454157   -3.3942953   0.75648505   426349 
 3825000   0.60881731   -3.3945167   -3.3945167    -2.637708   0.03044822   -3.3945167   0.75680874   426349 
 3826000   0.60835726    -3.394349    -3.394349   -2.6381122  0.034553657    -3.394349   0.75623687   426349 
 3827000   0.60764021   -3.3943784   -3.3943784   -2.6390329  0.038779806   -3.3943784   0.75534551   426349 
 3828000   0.60834776   -3.3947324   -3.3947324   -2.6385073  0.035591485   -3.3947324   0.75622505   426349 
 3829000   0.60707634   -3.3928335   -3.3928335   -2.6381889  0.038550068   -3.3928335   0.75464458   426349 
 3830000    0.6078008   -3.3949287   -3.3949287   -2.6393836   0.02884723   -3.3949287   0.75554514   426349 
 3831000   0.60685012   -3.3935761   -3.3935761   -2.6392128  0.043425079   -3.3935761   0.75436336   426349 
 3832000   0.60725919   -3.3939227   -3.3939227   -2.6390508   0.03503609   -3.3939227   0.75487188   426349 
 3833000   0.60572498   -3.3921631   -3.3921631   -2.6391983   0.02185358   -3.3921631   0.75296473   426349 
 3834000   0.60708559   -3.3939392   -3.3939392   -2.6392832  0.033181482   -3.3939392   0.75465607   426349 
 3835000   0.60687828   -3.3921766   -3.3921766   -2.6377782   0.03438029   -3.3921766   0.75439837   426349 
 3836000   0.60785965   -3.3940719   -3.3940719   -2.6384536  0.037796279   -3.3940719    0.7556183   426349 
 3837000   0.60683801   -3.3928814   -3.3928814   -2.6385331  0.030759319   -3.3928814   0.75434831   426349 
 3838000   0.60573701   -3.3921754   -3.3921754   -2.6391957  0.039062262   -3.3921754   0.75297969   426349 
 3839000    0.6071212   -3.3936689   -3.3936689   -2.6389686  0.035914636   -3.3936689   0.75470034   426349 
 3840000   0.60708281   -3.3936471   -3.3936471   -2.6389945  0.030296606   -3.3936471   0.75465262   426349 
 3841000   0.60834758   -3.3952868   -3.3952868    -2.639062  0.036781939   -3.3952868   0.75622483   426349 
 3842000   0.60837431   -3.3951758   -3.3951758   -2.6389178  0.042523703   -3.3951758   0.75625805   426349 
 3843000   0.60805242   -3.3944874   -3.3944874   -2.6386295  0.043440407   -3.3944874   0.75585792   426349 
 3844000   0.60790904   -3.3955969   -3.3955969   -2.6399172  0.040815848   -3.3955969   0.75567969   426349 
 3845000   0.60965758   -3.3974968   -3.3974968   -2.6396435  0.045601802   -3.3974968   0.75785327   426349 
 3846000    0.6087932   -3.3965853   -3.3965853   -2.6398065  0.044342651   -3.3965853   0.75677877   426349 
 3847000   0.60950284   -3.3977741   -3.3977741   -2.6401132  0.034972743   -3.3977741   0.75766091   426349 
 3848000   0.60877036   -3.3967151   -3.3967151   -2.6399647  0.036673881   -3.3967151   0.75675037   426349 
 3849000   0.60802032   -3.3969224   -3.3969224   -2.6411044  0.045270329   -3.3969224   0.75581802   426349 
 3850000   0.60965168   -3.3981398   -3.3981398   -2.6402938  0.045664618   -3.3981398   0.75784593   426349 
 3851000    0.6068235   -3.3955541   -3.3955541   -2.6412238  0.034489358   -3.3955541   0.75433028   426349 
 3852000   0.60752661   -3.3972391   -3.3972391   -2.6420348  0.029737983   -3.3972391    0.7552043   426349 
 3853000   0.60737345   -3.3972876   -3.3972876   -2.6422737   0.03834412   -3.3972876   0.75501391   426349 
 3854000   0.60728359   -3.3958449   -3.3958449   -2.6409427    0.0381538   -3.3958449   0.75490221   426349 
 3855000   0.60766725   -3.3956984   -3.3956984   -2.6403193  0.043572478   -3.3956984   0.75537913   426349 
 3856000   0.60810051   -3.3962734   -3.3962734   -2.6403557  0.031205254   -3.3962734    0.7559177   426349 
 3857000   0.60808632   -3.3962062   -3.3962062   -2.6403062  0.039569476   -3.3962062   0.75590006   426349 
 3858000   0.60810961   -3.3982305   -3.3982305   -2.6423015  0.042065375   -3.3982305   0.75592901   426349 
 3859000   0.60829706   -3.3977816   -3.3977816   -2.6416195  0.041502908   -3.3977816   0.75616203   426349 
 3860000   0.60732348   -3.3957684   -3.3957684   -2.6408166   0.04034084   -3.3957684   0.75495179   426349 
 3861000   0.60751964   -3.3956984   -3.3956984   -2.6405027  0.044560726   -3.3956984   0.75519564   426349 
 3862000   0.60805467   -3.3970493   -3.3970493   -2.6411886   0.03432359   -3.3970493   0.75586072   426349 
 3863000    0.6075899    -3.396365    -3.396365    -2.641082  0.039733081    -3.396365   0.75528297   426349 
 3864000   0.60781403    -3.396779    -3.396779   -2.6412175  0.036669136    -3.396779   0.75556158   426349 
 3865000   0.60719228   -3.3960088   -3.3960088   -2.6412201   0.03366523   -3.3960088    0.7547887   426349 
 3866000   0.60786922    -3.397176    -3.397176   -2.6415459  0.034927584    -3.397176   0.75563019   426349 
 3867000   0.60746232   -3.3969528   -3.3969528   -2.6418285  0.037234239   -3.3969528   0.75512438   426349 
 3868000   0.60672361   -3.3964864   -3.3964864   -2.6422803  0.034351543   -3.3964864    0.7542061   426349 
 3869000   0.60674813   -3.3959726   -3.3959726    -2.641736  0.039060072   -3.3959726   0.75423659   426349 
 3870000   0.60707982   -3.3960496   -3.3960496   -2.6414007  0.030230847   -3.3960496   0.75464891   426349 
 3871000   0.60799842   -3.3968548   -3.3968548   -2.6410641  0.035242971   -3.3968548   0.75579079   426349 
 3872000    0.6089825   -3.3983418   -3.3983418   -2.6413277  0.042357907   -3.3983418   0.75701409   426349 
 3873000   0.60794166   -3.3967205   -3.3967205   -2.6410003  0.040726013   -3.3967205   0.75572024   426349 
 3874000   0.60784044    -3.396959    -3.396959   -2.6413646  0.037815744    -3.396959   0.75559441   426349 
 3875000   0.60925857   -3.3990159   -3.3990159   -2.6416586  0.029298589   -3.3990159   0.75735727   426349 
 3876000   0.60856064   -3.3981532   -3.3981532   -2.6416635   0.03483071   -3.3981532   0.75648968   426349 
 3877000   0.60781245   -3.3978601   -3.3978601   -2.6423005  0.030032985   -3.3978601   0.75555963   426349 
 3878000   0.60779237   -3.3980455   -3.3980455   -2.6425108  0.033486382   -3.3980455   0.75553466   426349 
 3879000   0.60610335   -3.3955682   -3.3955682   -2.6421331  0.036319636   -3.3955682   0.75343507   426349 
 3880000   0.60777563   -3.3978657   -3.3978657   -2.6423519  0.033213665   -3.3978657   0.75551385   426349 
 3881000   0.60663487   -3.3970488   -3.3970488    -2.642953  0.035810461   -3.3970488   0.75409579   426349 
 3882000   0.60639747   -3.3961503   -3.3961503   -2.6423496  0.040268799   -3.3961503   0.75380068   426349 
 3883000   0.60724786   -3.3963518   -3.3963518   -2.6414941   0.03790741   -3.3963518   0.75485779   426349 
 3884000   0.60793913   -3.3968749   -3.3968749   -2.6411578  0.019814969   -3.3968749   0.75571709   426349 
 3885000   0.60767635   -3.3967902   -3.3967902   -2.6413998  0.044402284   -3.3967902   0.75539044   426349 
 3886000   0.60800507   -3.3974264   -3.3974264   -2.6416274  0.040594446   -3.3974264   0.75579906   426349 
 3887000   0.60718337    -3.397039    -3.397039   -2.6422613  0.044398471    -3.397039   0.75477763   426349 
 3888000    0.6073332   -3.3974861   -3.3974861   -2.6425222  0.035006745   -3.3974861   0.75496388   426349 
 3889000   0.60768519   -3.3980842   -3.3980842   -2.6426828  0.039587173   -3.3980842   0.75540143   426349 
 3890000   0.60795329   -3.3981356   -3.3981356   -2.6424009  0.021932474   -3.3981356    0.7557347   426349 
 3891000   0.60628301   -3.3958976   -3.3958976   -2.6422392  0.031815569   -3.3958976   0.75365841   426349 
 3892000   0.60736507   -3.3975921   -3.3975921   -2.6425886  0.037649457   -3.3975921    0.7550035   426349 
 3893000     0.606611   -3.3962494   -3.3962494   -2.6421833  0.054427784   -3.3962494   0.75406612   426349 
 3894000   0.60746577    -3.397316    -3.397316   -2.6421873  0.036948666    -3.397316   0.75512867   426349 
 3895000   0.60783159   -3.3973594   -3.3973594    -2.641776   0.04612716   -3.3973594   0.75558341   426349 
 3896000   0.60733483   -3.3964726   -3.3964726   -2.6415067  0.032301511   -3.3964726   0.75496591   426349 
 3897000   0.60716873    -3.395616    -3.395616   -2.6408566  0.035448434    -3.395616   0.75475943   426349 
 3898000   0.60759618   -3.3964176   -3.3964176   -2.6411268  0.028683577   -3.3964176   0.75529078   426349 
 3899000   0.60867778   -3.3967415   -3.3967415   -2.6401062  0.034566983   -3.3967415   0.75663529   426349 
 3900000   0.60639005   -3.3937592   -3.3937592   -2.6399677   0.03110209   -3.3937592   0.75379146   426349 
 3901000   0.60763574    -3.395374    -3.395374   -2.6400341  0.037600979    -3.395374   0.75533996   426349 
 3902000   0.60735125   -3.3956109   -3.3956109   -2.6406246  0.034681659   -3.3956109   0.75498631   426349 
 3903000   0.60726216   -3.3957028   -3.3957028   -2.6408272  0.031325766   -3.3957028   0.75487557   426349 
 3904000   0.60653688   -3.3945339   -3.3945339   -2.6405599  0.039707656   -3.3945339   0.75397399   426349 
 3905000   0.60675836   -3.3951969   -3.3951969   -2.6409476  0.033501215   -3.3951969    0.7542493   426349 
 3906000   0.60621055   -3.3939323   -3.3939323    -2.640364  0.039039863   -3.3939323   0.75356833   426349 
 3907000   0.60748463   -3.3950141   -3.3950141   -2.6398619  0.044321275   -3.3950141   0.75515211   426349 
 3908000   0.60787444   -3.3960006   -3.3960006    -2.640364  0.036290377   -3.3960006   0.75563668   426349 
 3909000   0.60807009   -3.3964991   -3.3964991   -2.6406193  0.031985265   -3.3964991   0.75587988   426349 
 3910000   0.60712839   -3.3956086   -3.3956086   -2.6408993  0.045755147   -3.3956086   0.75470928   426349 
 3911000   0.60736888   -3.3955893   -3.3955893   -2.6405811  0.044082719   -3.3955893   0.75500822   426349 
 3912000   0.60638039   -3.3946694   -3.3946694     -2.64089  0.035030445   -3.3946694   0.75377946   426349 
 3913000   0.60818098   -3.3968925   -3.3968925   -2.6408747  0.035662924   -3.3968925   0.75601773   426349 
 3914000    0.6070254   -3.3964993   -3.3964993    -2.641918  0.023003436   -3.3964993   0.75458126   426349 
 3915000    0.6070961   -3.3961367   -3.3961367   -2.6414676  0.025957879   -3.3961367   0.75466914   426349 
 3916000   0.60774366   -3.3966902   -3.3966902   -2.6412161  0.033961178   -3.3966902   0.75547411   426349 
 3917000   0.60794398   -3.3981082   -3.3981082    -2.642385  0.031876081   -3.3981082   0.75572312   426349 
 3918000   0.60883826   -3.3991043   -3.3991043   -2.6422695  0.041930334   -3.3991043   0.75683479   426349 
 3919000   0.60786195   -3.3989961   -3.3989961    -2.643375  0.032380634   -3.3989961   0.75562116   426349 
 3920000   0.60818507   -3.3989545   -3.3989545   -2.6429317  0.022712468   -3.3989545   0.75602282   426349 
 3921000   0.60693391   -3.3979905   -3.3979905   -2.6435229  0.036564135   -3.3979905   0.75446753   426349 
 3922000   0.60752336   -3.3988072   -3.3988072   -2.6436069  0.045815618   -3.3988072   0.75520026   426349 
 3923000     0.606558   -3.3980545   -3.3980545   -2.6440543  0.047626354   -3.3980545   0.75400024   426349 
 3924000   0.60796431   -3.3991528   -3.3991528   -2.6434044  0.029344317   -3.3991528    0.7557484   426349 
 3925000   0.60674696   -3.3981502   -3.3981502   -2.6439151  0.037103094   -3.3981502   0.75423513   426349 
 3926000   0.60771926   -3.3997414   -3.3997414   -2.6442976  0.029745546   -3.3997414   0.75544378   426349 
 3927000   0.60660099   -3.3978319   -3.3978319   -2.6437783  0.031314587   -3.3978319   0.75405368   426349 
 3928000   0.60615751   -3.3972727   -3.3972727   -2.6437703  0.041246636   -3.3972727    0.7535024   426349 
 3929000   0.60701374   -3.3978172   -3.3978172   -2.6432505  0.026421812   -3.3978172   0.75456676   426349 
 3930000   0.60632979   -3.3973624   -3.3973624   -2.6436459  0.039710435   -3.3973624   0.75371656   426349 
 3931000   0.60628271   -3.3972688   -3.3972688   -2.6436108  0.037019803   -3.3972688   0.75365803   426349 
 3932000   0.60800743   -3.3990524   -3.3990524   -2.6432504  0.032055839   -3.3990524   0.75580199   426349 
 3933000   0.60643972   -3.3976738   -3.3976738   -2.6438205  0.048442973   -3.3976738   0.75385321   426349 
 3934000   0.60671804   -3.3976385   -3.3976385   -2.6434394  0.032786361   -3.3976385   0.75419918   426349 
 3935000   0.60650827    -3.397576    -3.397576   -2.6436376  0.021548378    -3.397576   0.75393843   426349 
 3936000   0.60721371   -3.3978897   -3.3978897   -2.6430743   0.03572058   -3.3978897   0.75481534   426349 
 3937000   0.60669334   -3.3975241   -3.3975241   -2.6433556  0.037075069   -3.3975241   0.75416848   426349 
 3938000   0.60730884   -3.3976728   -3.3976728   -2.6427392  0.031613938   -3.3976728   0.75493359   426349 
 3939000   0.60633299   -3.3970903   -3.3970903   -2.6433697  0.037227178   -3.3970903   0.75372053   426349 
 3940000   0.60644342   -3.3970498   -3.3970498    -2.643192  0.037594602   -3.3970498    0.7538578   426349 
 3941000   0.60662038   -3.3966409   -3.3966409   -2.6425631  0.025887372   -3.3966409   0.75407778   426349 
 3942000   0.60534142    -3.395433    -3.395433    -2.642945  0.033274484    -3.395433   0.75248794   426349 
 3943000   0.60781142   -3.3977426   -3.3977426   -2.6421843  0.043257655   -3.3977426   0.75555834   426349 
 3944000   0.60754822   -3.3967192   -3.3967192    -2.641488  0.034108127   -3.3967192   0.75523116   426349 
 3945000   0.60680771   -3.3965965   -3.3965965   -2.6422859  0.041287132   -3.3965965   0.75431065   426349 
 3946000   0.60764664   -3.3973604   -3.3973604   -2.6420069  0.036965484   -3.3973604   0.75535351   426349 
 3947000    0.6074665   -3.3976156   -3.3976156   -2.6424861  0.041411587   -3.3976156   0.75512957   426349 
 3948000   0.60676042   -3.3971399   -3.3971399   -2.6428881   0.05057114   -3.3971399   0.75425187   426349 
 3949000   0.60862234   -3.3985341   -3.3985341   -2.6419677  0.048983828   -3.3985341   0.75656638   426349 
 3950000   0.60891549   -3.3986144   -3.3986144   -2.6416837  0.041167801   -3.3986144   0.75693079   426349 
 3951000    0.6074904   -3.3965588   -3.3965588   -2.6413995  0.030386468   -3.3965588   0.75515928   426349 
 3952000   0.60736729   -3.3974755   -3.3974755   -2.6424692  0.043530547   -3.3974755   0.75500626   426349 
 3953000   0.60798278   -3.3986065   -3.3986065   -2.6428351  0.036728895   -3.3986065   0.75577135   426349 
 3954000   0.60669424   -3.3976239   -3.3976239   -2.6434543  0.039770529   -3.3976239    0.7541696   426349 
 3955000   0.60648751   -3.3976765   -3.3976765   -2.6437639  0.038706393   -3.3976765   0.75391262   426349 
 3956000   0.60778248   -3.3992855   -3.3992855   -2.6437631   0.03968723   -3.3992855   0.75552237   426349 
 3957000   0.60689725   -3.3980175   -3.3980175   -2.6435955  0.032408957   -3.3980175   0.75442195   426349 
 3958000   0.60800161   -3.3991905   -3.3991905   -2.6433958  0.041104294   -3.3991905   0.75579476   426349 
 3959000   0.60676679   -3.3977527   -3.3977527   -2.6434929  0.048083003   -3.3977527   0.75425979   426349 
 3960000    0.6061754   -3.3969559   -3.3969559   -2.6434313  0.038646015   -3.3969559   0.75352464   426349 
 3961000   0.60674736   -3.3982483   -3.3982483   -2.6440127  0.038267412   -3.3982483   0.75423563   426349 
 3962000   0.60756923   -3.3994198   -3.3994198   -2.6441625  0.031373613   -3.3994198   0.75525728   426349 
 3963000   0.60801467   -3.3994908   -3.3994908   -2.6436798  0.038030756   -3.3994908   0.75581099   426349 
 3964000   0.60644999   -3.3973849   -3.3973849   -2.6435189  0.030398409   -3.3973849   0.75386597   426349 
 3965000   0.60725224    -3.398813    -3.398813   -2.6439497  0.046827563    -3.398813   0.75486324   426349 
 3966000   0.60831132    -3.400082    -3.400082   -2.6439023  0.035399755    -3.400082   0.75617976   426349 
 3967000   0.60692683   -3.3985885   -3.3985885   -2.6441297  0.034186005   -3.3985885   0.75445872   426349 
 3968000    0.6079895   -3.4000215   -3.4000215   -2.6442418  0.039122974   -3.4000215   0.75577971   426349 
 3969000   0.60680137   -3.3987781   -3.3987781   -2.6444753  0.038700433   -3.3987781   0.75430277   426349 
 3970000   0.60663785    -3.398274    -3.398274   -2.6441745  0.046104413    -3.398274    0.7540995   426349 
 3971000   0.60689849   -3.3990062   -3.3990062   -2.6445827   0.04700252   -3.3990062    0.7544235   426349 
 3972000   0.60602945   -3.3978588   -3.3978588   -2.6445156  0.041677117   -3.3978588   0.75334321   426349 
 3973000   0.60757777   -3.3988264   -3.3988264   -2.6435585  0.029636172   -3.3988264    0.7552679   426349 
 3974000   0.60824014   -3.3992001   -3.3992001   -2.6431088  0.035879325   -3.3992001   0.75609127   426349 
 3975000   0.60855523   -3.3994745   -3.3994745   -2.6429916    0.0335387   -3.3994745   0.75648296   426349 
 3976000   0.60780876   -3.3989122   -3.3989122   -2.6433571  0.042839517   -3.3989122   0.75555503   426349 
 3977000   0.60765877   -3.3992165   -3.3992165   -2.6438479  0.023693041   -3.3992165   0.75536859   426349 
 3978000    0.6068988   -3.3979066   -3.3979066   -2.6434828  0.033864991   -3.3979066   0.75442389   426349 
 3979000   0.60719172   -3.3990402   -3.3990402   -2.6442522  0.037320961   -3.3990402   0.75478801   426349 
 3980000   0.60734472   -3.3996856   -3.3996856   -2.6447074  0.043941407   -3.3996856    0.7549782   426349 
 3981000   0.60612314   -3.3978688   -3.3978688   -2.6444091  0.035957054   -3.3978688   0.75345967   426349 
 3982000    0.6046704   -3.3964743   -3.3964743   -2.6448205  0.039425697   -3.3964743    0.7516538   426349 
 3983000    0.6078322   -3.3992296   -3.3992296   -2.6436454  0.035344596   -3.3992296   0.75558418   426349 
 3984000   0.60778108   -3.3991699   -3.3991699   -2.6436492  0.033475342   -3.3991699   0.75552063   426349 
 3985000   0.60677007   -3.3983373   -3.3983373   -2.6440734   0.03184897   -3.3983373   0.75426386   426349 
 3986000   0.60722437   -3.3986791   -3.3986791   -2.6438505  0.044806548   -3.3986791   0.75482859   426349 
 3987000   0.60796328   -3.3989848   -3.3989848   -2.6432376  0.030738916   -3.3989848   0.75574712   426349 
 3988000   0.60718123   -3.3976399   -3.3976399   -2.6428649  0.040570089   -3.3976399   0.75477497   426349 
 3989000   0.60712162   -3.3988323   -3.3988323   -2.6441315  0.030915394   -3.3988323   0.75470087   426349 
 3990000   0.60720918   -3.3989385   -3.3989385   -2.6441287  0.041949685   -3.3989385   0.75480971   426349 
 3991000   0.60797772   -3.3995002   -3.3995002   -2.6437352  0.030051665   -3.3995002   0.75576507   426349 
 3992000   0.60748259   -3.3986729   -3.3986729   -2.6435233  0.044270645   -3.3986729   0.75514958   426349 
 3993000   0.60755484    -3.398493    -3.398493   -2.6432536  0.032409876    -3.398493   0.75523939   426349 
 3994000   0.60864223   -3.4001129   -3.4001129   -2.6435218  0.036991249   -3.4001129   0.75659111   426349 
 3995000    0.6080803   -3.3997912   -3.3997912   -2.6438986  0.036249411   -3.3997912   0.75589258   426349 
 3996000   0.60826684   -3.3993472   -3.3993472   -2.6432228  0.043328674   -3.3993472   0.75612446   426349 
 3997000   0.60892495   -3.4004819   -3.4004819   -2.6435394  0.039801847   -3.4004819   0.75694254   426349 
 3998000   0.60792851   -3.3996284   -3.3996284   -2.6439245  0.042026596   -3.3996284    0.7557039   426349 
 3999000   0.60827136   -3.4000115   -3.4000115   -2.6438814  0.032540704   -3.4000115   0.75613009   426349 
 4000000   0.60907951   -3.4008685   -3.4008685   -2.6437338  0.034293592   -3.4008685   0.75713468   426349 
 4001000   0.60893382   -3.4006765   -3.4006765    -2.643723  0.036689178   -3.4006765   0.75695358   426349 
 4002000   0.60783921   -3.4000922   -3.4000922   -2.6444993  0.041431158   -3.4000922   0.75559289   426349 
 4003000    0.6079024   -3.3999922   -3.3999922   -2.6443208  0.042757894   -3.3999922   0.75567144   426349 
 4004000   0.60686356   -3.3988593   -3.3988593   -2.6444792  0.039455037   -3.3988593   0.75438007   426349 
 4005000   0.60721798   -3.3989357   -3.3989357   -2.6441151  0.027501949   -3.3989357   0.75482064   426349 
 4006000   0.60683616   -3.3984026   -3.3984026   -2.6440566  0.037506194   -3.3984026   0.75434601   426349 
 4007000   0.60702952   -3.3976892   -3.3976892   -2.6431028  0.050003567   -3.3976892   0.75458638   426349 
 4008000   0.60654018   -3.3974801   -3.3974801    -2.643502   0.03210181   -3.3974801   0.75397809   426349 
 4009000   0.60709518   -3.3975735   -3.3975735   -2.6429055  0.037235256   -3.3975735   0.75466799   426349 
 4010000    0.6073145   -3.3978344   -3.3978344   -2.6428937  0.034141519   -3.3978344   0.75494063   426349 
 4011000   0.60734717   -3.3976356   -3.3976356   -2.6426543  0.030548696   -3.3976356   0.75498124   426349 
 4012000   0.60564226   -3.3962139   -3.3962139    -2.643352  0.036852457   -3.3962139    0.7528619   426349 
 4013000   0.60700219   -3.3974258   -3.3974258   -2.6428734  0.033572847   -3.3974258    0.7545524   426349 
 4014000   0.60693953   -3.3976313   -3.3976313   -2.6431568  0.035110939   -3.3976313   0.75447452   426349 
 4015000   0.60635969   -3.3973499   -3.3973499   -2.6435961  0.031931477   -3.3973499   0.75375372   426349 
 4016000   0.60690409   -3.3976053   -3.3976053   -2.6431748  0.034731168   -3.3976053   0.75443045   426349 
 4017000   0.60647501   -3.3978984   -3.3978984   -2.6440013  0.034833799   -3.3978984   0.75389707   426349 
 4018000   0.60624555   -3.3974546   -3.3974546   -2.6438428  0.038523479   -3.3974546   0.75361184   426349 
 4019000   0.60615486   -3.3965227   -3.3965227   -2.6430236  0.035266374   -3.3965227    0.7534991   426349 
 4020000   0.60656013   -3.3967458   -3.3967458   -2.6427429  0.042127119   -3.3967458   0.75400288   426349 
 4021000    0.6076942   -3.3985929   -3.3985929   -2.6431803  0.034686765   -3.3985929   0.75541263   426349 
 4022000   0.60688935   -3.3990298   -3.3990298   -2.6446176  0.039804127   -3.3990298   0.75441214   426349 
 4023000   0.60608238   -3.3983804   -3.3983804   -2.6449714  0.038953282   -3.3983804     0.753409   426349 
 4024000   0.60681659   -3.3989198   -3.3989198   -2.6445981  0.034616705   -3.3989198   0.75432169   426349 
 4025000   0.60614259   -3.3980932   -3.3980932   -2.6446093  0.042762776   -3.3980932   0.75348385   426349 
 4026000   0.60560268   -3.3978119   -3.3978119   -2.6449992  0.043400424   -3.3978119    0.7528127   426349 
 4027000   0.60633426   -3.3990789   -3.3990789   -2.6453568  0.043887345   -3.3990789   0.75372211   426349 
 4028000   0.60543502   -3.3975294   -3.3975294   -2.6449251  0.037386071   -3.3975294   0.75260429   426349 
 4029000   0.60673036   -3.3985753   -3.3985753   -2.6443608  0.040409411   -3.3985753   0.75421449   426349 
 4030000   0.60663368   -3.3983471   -3.3983471   -2.6442528  0.043660146   -3.3983471   0.75409432   426349 
 4031000   0.60643534   -3.3985037   -3.3985037    -2.644656    0.0332229   -3.3985037   0.75384776   426349 
 4032000   0.60779286   -3.4000695   -3.4000695   -2.6445343  0.030320256   -3.4000695   0.75553527   426349 
 4033000    0.6066401   -3.3973072   -3.3973072   -2.6432049   0.03721497   -3.3973072    0.7541023   426349 
 4034000   0.60681484   -3.3980216   -3.3980216   -2.6437021  0.030267497   -3.3980216   0.75431951   426349 
 4035000   0.60608345   -3.3967918   -3.3967918   -2.6433815  0.033152774   -3.3967918   0.75341033   426349 
 4036000    0.6072511   -3.3986795   -3.3986795   -2.6438176     0.034986   -3.3986795   0.75486182   426349 
 4037000   0.60610049   -3.3978565   -3.3978565    -2.644425  0.028699266   -3.3978565   0.75343152   426349 
 4038000   0.60595667   -3.3965347   -3.3965347    -2.643282  0.036284862   -3.3965347   0.75325274   426349 
 4039000   0.60691973   -3.3976514   -3.3976514   -2.6432015  0.036606021   -3.3976514   0.75444989   426349 
 4040000   0.60743928   -3.3982771   -3.3982771   -2.6431814   0.04849403   -3.3982771   0.75509574   426349 
 4041000   0.60780748   -3.3981635   -3.3981635   -2.6426101  0.037925941   -3.3981635   0.75555345   426349 
 4042000   0.60848225    -3.399428    -3.399428   -2.6430358  0.036052329    -3.399428   0.75639224   426349 
 4043000    0.6073562   -3.3978285   -3.3978285    -2.642836  0.037521963   -3.3978285   0.75499246   426349 
 4044000    0.6060845   -3.3966513   -3.3966513   -2.6432397  0.045401353   -3.3966513   0.75341165   426349 
 4045000   0.60805621   -3.3999543   -3.3999543   -2.6440916   0.03726487   -3.3999543   0.75586263   426349 
 4046000   0.60696466   -3.3983131   -3.3983131   -2.6438074  0.032575855   -3.3983131   0.75450575   426349 
 4047000   0.60850729   -3.3990883   -3.3990883   -2.6426649  0.035147087   -3.3990883   0.75642337   426349 
 4048000    0.6083055   -3.3998328   -3.3998328   -2.6436602  0.031427887   -3.3998328   0.75617252   426349 
 4049000   0.60763172   -3.3988169   -3.3988169    -2.643482  0.032392086   -3.3988169   0.75533495   426349 
 4050000   0.60692344   -3.3981889   -3.3981889   -2.6437344  0.027064477   -3.3981889   0.75445451   426349 
 4051000   0.60675709   -3.3983055   -3.3983055   -2.6440578  0.044428547   -3.3983055   0.75424773   426349 
 4052000   0.60814114   -3.3996152   -3.3996152    -2.643647  0.041908086   -3.3996152   0.75596821   426349 
 4053000   0.60717242   -3.3991246   -3.3991246   -2.6443606  0.041835688   -3.3991246   0.75476401   426349 
 4054000   0.60812462   -3.4007995   -3.4007995   -2.6448518  0.037771815   -3.4007995   0.75594767   426349 
 4055000   0.60742364   -3.4000184   -3.4000184   -2.6449421  0.048292958   -3.4000184    0.7550763   426349 
 4056000    0.6080629   -3.4003647   -3.4003647   -2.6444938  0.046075961   -3.4003647   0.75587095   426349 
 4057000   0.60729922   -3.3987915   -3.3987915   -2.6438699  0.030253209   -3.3987915   0.75492163   426349 
 4058000   0.60746286   -3.3995419   -3.3995419   -2.6444168  0.034819801   -3.3995419   0.75512505   426349 
 4059000   0.60803808   -3.4003808   -3.4003808   -2.6445407  0.035485693   -3.4003808    0.7558401   426349 
 4060000   0.60863645   -3.4013332   -3.4013332   -2.6447492  0.035409774   -3.4013332   0.75658392   426349 
 4061000   0.60762052   -3.4006817   -3.4006817   -2.6453607  0.036871517   -3.4006817   0.75532103   426349 
 4062000   0.60768753   -3.4000069   -3.4000069   -2.6446026  0.039764659   -3.4000069   0.75540434   426349 
 4063000    0.6068522   -3.3993328   -3.3993328   -2.6449669  0.043681916   -3.3993328   0.75436595   426349 
 4064000   0.60730568   -3.4005265   -3.4005265   -2.6455968  0.037329041   -3.4005265   0.75492967   426349 
 4065000   0.60626881   -3.3994462   -3.3994462   -2.6458054  0.040083365   -3.3994462   0.75364076   426349 
 4066000   0.60636649   -3.4002763   -3.4002763   -2.6465142  0.044884257   -3.4002763   0.75376217   426349 
 4067000   0.60657222   -3.4001674   -3.4001674   -2.6461495  0.036518312   -3.4001674   0.75401791   426349 
 4068000   0.60891321   -3.4019953   -3.4019953   -2.6450673  0.028422344   -3.4019953   0.75692795   426349 
 4069000   0.60747982   -3.4002551   -3.4002551    -2.645109   0.03627414   -3.4002551   0.75514614   426349 
 4070000   0.60604977   -3.3987301   -3.3987301   -2.6453617  0.041208829   -3.3987301   0.75336847   426349 
 4071000   0.60764031   -3.4012112   -3.4012112   -2.6458656  0.034908197   -3.4012112   0.75534563   426349 
 4072000   0.60684962   -3.4003359   -3.4003359   -2.6459732  0.028089313   -3.4003359   0.75436274   426349 
 4073000   0.60620196   -3.3987264   -3.3987264   -2.6451687  0.033572406   -3.3987264   0.75355766   426349 
 4074000   0.60725014   -3.4004501   -3.4004501   -2.6455895  0.031310952   -3.4004501   0.75486063   426349 
 4075000   0.60762691   -3.4006413   -3.4006413   -2.6453123   0.03841759   -3.4006413   0.75532898   426349 
 4076000   0.60733564   -3.4007491   -3.4007491   -2.6457822  0.041522236   -3.4007491    0.7549669   426349 
 4077000   0.60689781   -3.4006217   -3.4006217   -2.6461991  0.038016309   -3.4006217   0.75442265   426349 
 4078000   0.60752403    -3.400959    -3.400959   -2.6457579  0.038517318    -3.400959   0.75520109   426349 
 4079000   0.60793245   -3.4017013   -3.4017013   -2.6459925  0.033504543   -3.4017013    0.7557088   426349 
 4080000   0.60740029   -3.4009046   -3.4009046   -2.6458573  0.049618413   -3.4009046   0.75504727   426349 
 4081000   0.60677723   -3.4005621   -3.4005621   -2.6462894  0.047740152   -3.4005621   0.75427276   426349 
 4082000   0.60760494    -3.401113    -3.401113   -2.6458114  0.041345321    -3.401113   0.75530168   426349 
 4083000   0.60714112   -3.4009109   -3.4009109   -2.6461858  0.033714484   -3.4009109    0.7547251   426349 
 4084000   0.60729185   -3.4008654   -3.4008654   -2.6459529  0.045178118   -3.4008654   0.75491247   426349 
 4085000    0.6070853   -3.4006526   -3.4006526   -2.6459969  0.039657136   -3.4006526   0.75465571   426349 
 4086000    0.6070993    -3.400722    -3.400722   -2.6460488  0.029446262    -3.400722   0.75467312   426349 
 4087000   0.60745832   -3.4003024   -3.4003024    -2.645183  0.042510308   -3.4003024    0.7551194   426349 
 4088000   0.60760938   -3.4005523   -3.4005523   -2.6452451  0.033095402   -3.4005523   0.75530719   426349 
 4089000   0.60815645    -3.401434    -3.401434   -2.6454468  0.041639627    -3.401434   0.75598724   426349 
 4090000   0.60739048   -3.4012949   -3.4012949   -2.6462598  0.036020042   -3.4012949   0.75503507   426349 
 4091000   0.60741898   -3.4007887   -3.4007887   -2.6457182   0.02263884   -3.4007887    0.7550705   426349 
 4092000   0.60763027   -3.4012106   -3.4012106   -2.6458774  0.044513737   -3.4012106   0.75533316   426349 
 4093000   0.60743926   -3.4010079   -3.4010079   -2.6459122  0.036335086   -3.4010079   0.75509571   426349 
 4094000   0.60759826   -3.4016064   -3.4016064   -2.6463131  0.034147279   -3.4016064   0.75529337   426349 
 4095000   0.60683481   -3.4000338   -3.4000338   -2.6456895  0.035762482   -3.4000338   0.75434433   426349 
 4096000   0.60837849   -3.4013906   -3.4013906   -2.6451274  0.029964487   -3.4013906   0.75626326   426349 
 4097000   0.60741996   -3.4009795   -3.4009795   -2.6459078  0.037427954   -3.4009795   0.75507173   426349 
 4098000   0.60764965   -3.4003143   -3.4003143    -2.644957  0.031598472   -3.4003143   0.75535725   426349 
 4099000   0.60745954   -3.4007018   -3.4007018   -2.6455809  0.038770096   -3.4007018   0.75512093   426349 
 4100000   0.60733814    -3.400466    -3.400466    -2.645496  0.039388869    -3.400466   0.75497002   426349 
 4101000   0.60766131   -3.4009384   -3.4009384   -2.6455667  0.047147228   -3.4009384   0.75537175   426349 
 4102000   0.60610296    -3.399183    -3.399183   -2.6457484  0.031854222    -3.399183   0.75343459   426349 
 4103000   0.60718412   -3.4001888   -3.4001888   -2.6454102  0.040469371   -3.4001888   0.75477856   426349 
 4104000   0.60782297   -3.4007977   -3.4007977    -2.645225  0.040321193   -3.4007977    0.7555727   426349 
 4105000   0.60816399   -3.4019852   -3.4019852   -2.6459886  0.027414012   -3.4019852   0.75599661   426349 
 4106000    0.6072935   -3.4012422   -3.4012422   -2.6463277  0.035081899   -3.4012422   0.75491453   426349 
 4107000   0.60675391   -3.4005842   -3.4005842   -2.6463404  0.044052519   -3.4005842   0.75424377   426349 
 4108000   0.60667735   -3.4006586   -3.4006586     -2.64651  0.034853424   -3.4006586    0.7541486   426349 
 4109000   0.60749748   -3.4018702   -3.4018702   -2.6467021  0.040935022   -3.4018702   0.75516809   426349 
 4110000   0.60699201   -3.4007282   -3.4007282   -2.6461885  0.031730266   -3.4007282   0.75453975   426349 
 4111000   0.60755591   -3.4014091   -3.4014091   -2.6461684  0.038312357   -3.4014091   0.75524072   426349 
 4112000   0.60761486   -3.4018978   -3.4018978   -2.6465838  0.045078625   -3.4018978     0.755314   426349 
 4113000   0.60743846   -3.4016869   -3.4016869   -2.6465921  0.029308957   -3.4016869   0.75509472   426349 
 4114000   0.60784373   -3.4025597   -3.4025597   -2.6469612  0.057740769   -3.4025597   0.75559851   426349 
 4115000    0.6082751   -3.4023012   -3.4023012   -2.6461664   0.03963287   -3.4023012   0.75613473   426349 
 4116000   0.60623807    -3.400387    -3.400387   -2.6467844   0.03536589    -3.400387   0.75360254   426349 
 4117000   0.60808996   -3.4021846   -3.4021846     -2.64628  0.027310008   -3.4021846   0.75590459   426349 
 4118000   0.60717805   -3.4007057   -3.4007057   -2.6459347  0.040459425   -3.4007057   0.75477101   426349 
 4119000   0.60776546   -3.4014619   -3.4014619   -2.6459607  0.033650184   -3.4014619   0.75550121   426349 
 4120000   0.60739262   -3.4012712   -3.4012712   -2.6462335  0.035149158   -3.4012712   0.75503773   426349 
 4121000   0.60680453   -3.4015722   -3.4015722   -2.6472655  0.028623704   -3.4015722   0.75430669   426349 
 4122000   0.60682664   -3.4016136   -3.4016136   -2.6472794  0.030256928   -3.4016136   0.75433418   426349 
 4123000   0.60662024   -3.4011325   -3.4011325   -2.6470549  0.026711024   -3.4011325   0.75407761   426349 
 4124000   0.60704263   -3.4013577   -3.4013577    -2.646755   0.03627271   -3.4013577   0.75460267   426349 
 4125000   0.60635673   -3.4004664   -3.4004664   -2.6467163  0.035400265   -3.4004664   0.75375005   426349 
 4126000   0.60641988   -3.4002284   -3.4002284   -2.6463998  0.031957088   -3.4002284   0.75382855   426349 
 4127000   0.60613385   -3.3999272   -3.3999272   -2.6464542  0.044874691   -3.3999272   0.75347298   426349 
 4128000   0.60624041    -3.400109    -3.400109   -2.6465036  0.036232683    -3.400109   0.75360545   426349 
 4129000    0.6069963   -3.4005736   -3.4005736   -2.6460285  0.036576138   -3.4005736   0.75454508   426349 
 4130000   0.60682843   -3.4010349   -3.4010349   -2.6466985  0.037114919   -3.4010349   0.75433641   426349 
 4131000   0.60675104   -3.4013582   -3.4013582    -2.647118  0.032933689   -3.4013582    0.7542402   426349 
 4132000   0.60726193   -3.4028115   -3.4028115   -2.6479362  0.038570898   -3.4028115   0.75487528   426349 
 4133000   0.60737414   -3.4022507   -3.4022507   -2.6472359  0.037316606   -3.4022507   0.75501476   426349 
 4134000   0.60774367   -3.4026047   -3.4026047   -2.6471306  0.036045211   -3.4026047   0.75547413   426349 
 4135000   0.60767028   -3.4034888   -3.4034888   -2.6481059  0.050501656   -3.4034888   0.75538289   426349 
 4136000   0.60669113   -3.4015573   -3.4015573   -2.6473916  0.042763807   -3.4015573   0.75416573   426349 
 4137000    0.6067624    -3.402588    -3.402588   -2.6483337  0.031419656    -3.402588   0.75425433   426349 
 4138000   0.60685937   -3.4022152   -3.4022152   -2.6478403  0.029692858   -3.4022152   0.75437487   426349 
 4139000   0.60628085   -3.4008774   -3.4008774   -2.6472217  0.038416557   -3.4008774   0.75365572   426349 
 4140000   0.60716813   -3.4014168   -3.4014168   -2.6466582  0.032203515   -3.4014168   0.75475868   426349 
 4141000   0.60816133   -3.4026385   -3.4026385   -2.6466452  0.031445333   -3.4026385    0.7559933   426349 
 4142000   0.60744063   -3.4024772   -3.4024772   -2.6473798  0.029259113   -3.4024772   0.75509742   426349 
 4143000   0.60784784   -3.4027066   -3.4027066    -2.647103  0.040027661   -3.4027066   0.75560361   426349 
 4144000   0.60789827   -3.4021522   -3.4021522   -2.6464859  0.029680596   -3.4021522    0.7556663   426349 
 4145000   0.60739004    -3.401638    -3.401638   -2.6466035  0.049594239    -3.401638   0.75503453   426349 
 4146000   0.60633775   -3.4015767   -3.4015767   -2.6478503  0.041302903   -3.4015767   0.75372645   426349 
 4147000   0.60692556   -3.4020003   -3.4020003   -2.6475431  0.025253648   -3.4020003   0.75445715   426349 
 4148000   0.60665305   -3.4009405   -3.4009405   -2.6468221   0.03702094   -3.4009405    0.7541184   426349 
 4149000    0.6064783   -3.4001692   -3.4001692   -2.6462681   0.03485731   -3.4001692   0.75390116   426349 
 4150000    0.6063007   -3.3999181   -3.3999181   -2.6462377  0.031445302   -3.3999181    0.7536804   426349 
 4151000   0.60614909   -3.3997344   -3.3997344   -2.6462424  0.040690103   -3.3997344   0.75349193   426349 
 4152000   0.60677447   -3.4004039   -3.4004039   -2.6461345  0.036436973   -3.4004039   0.75426933   426349 
 4153000   0.60628143   -3.4002585   -3.4002585   -2.6466021  0.026804046   -3.4002585   0.75365645   426349 
 4154000   0.60643891   -3.4012339   -3.4012339   -2.6473817  0.036695434   -3.4012339    0.7538522   426349 
 4155000   0.60665917   -3.4010366   -3.4010366   -2.6469106  0.036707241   -3.4010366   0.75412601   426349 
 4156000   0.60604838   -3.4010221   -3.4010221   -2.6476554  0.031655071   -3.4010221   0.75336674   426349 
 4157000   0.60665792   -3.4015145   -3.4015145     -2.64739  0.030381112   -3.4015145   0.75412444   426349 
 4158000   0.60682412   -3.4021614   -3.4021614   -2.6478304  0.035165537   -3.4021614   0.75433105   426349 
 4159000   0.60748808   -3.4017725   -3.4017725   -2.6466161  0.036170156   -3.4017725   0.75515641   426349 
 4160000   0.60729835   -3.4015996   -3.4015996    -2.646679  0.038502511   -3.4015996   0.75492056   426349 
 4161000   0.60780791   -3.4026055   -3.4026055   -2.6470515  0.041262093   -3.4026055   0.75555398   426349 
 4162000   0.60836681   -3.4033503   -3.4033503   -2.6471015   0.04314303   -3.4033503   0.75624873   426349 
 4163000   0.60791855   -3.4027597   -3.4027597   -2.6470682  0.043156735   -3.4027597   0.75569151   426349 
 4164000   0.60782037   -3.4024948   -3.4024948   -2.6469253  0.034903195   -3.4024948   0.75556947   426349 
 4165000   0.60697625   -3.4021931   -3.4021931   -2.6476729  0.040560866   -3.4021931   0.75452016   426349 
 4166000   0.60713882   -3.4028229   -3.4028229   -2.6481006  0.048289619   -3.4028229   0.75472225   426349 
 4167000   0.60639113   -3.4016544   -3.4016544   -2.6478616  0.036317861   -3.4016544   0.75379281   426349 
 4168000   0.60592861   -3.4015588   -3.4015588   -2.6483409  0.036652634   -3.4015588   0.75321786   426349 
 4169000   0.60503706   -3.4006247   -3.4006247   -2.6485151  0.025822449   -3.4006247   0.75210959   426349 
 4170000   0.60512315   -3.4003497   -3.4003497   -2.6481331  0.042333897   -3.4003497   0.75221661   426349 
 4171000   0.60640035   -3.4016824   -3.4016824   -2.6478781  0.032502971   -3.4016824   0.75380427   426349 
 4172000   0.60739077   -3.4026864   -3.4026864   -2.6476509   0.03092839   -3.4026864   0.75503543   426349 
 4173000   0.60716931   -3.4020808   -3.4020808   -2.6473207  0.031619978   -3.4020808   0.75476015   426349 
 4174000   0.60708648   -3.4016736   -3.4016736   -2.6470165    0.0386957   -3.4016736   0.75465718   426349 
 4175000   0.60697883   -3.4012237   -3.4012237   -2.6467004  0.040178314   -3.4012237   0.75452337   426349 
 4176000    0.6068876   -3.4019001   -3.4019001   -2.6474901  0.031908735   -3.4019001   0.75440996   426349 
 4177000   0.60629479    -3.401042    -3.401042   -2.6473689  0.023495442    -3.401042   0.75367305   426349 
 4178000   0.60671923    -3.401458    -3.401458   -2.6472573  0.041895585    -3.401458   0.75420067   426349 
 4179000   0.60713132   -3.4021466   -3.4021466   -2.6474337   0.03092041   -3.4021466   0.75471292   426349 
 4180000   0.60618103   -3.4007005   -3.4007005   -2.6471688  0.035123111   -3.4007005   0.75353164   426349 
 4181000   0.60728465   -3.4021661   -3.4021661   -2.6472626  0.034427543   -3.4021661   0.75490353   426349 
 4182000   0.60691815   -3.4015144   -3.4015144   -2.6470665  0.031104115   -3.4015144   0.75444793   426349 
 4183000   0.60694896    -3.401456    -3.401456   -2.6469697  0.039121965    -3.401456   0.75448623   426349 
 4184000   0.60724718   -3.4011387   -3.4011387   -2.6462817  0.031681574   -3.4011387   0.75485695   426349 
 4185000   0.60755858   -3.4025612   -3.4025612   -2.6473172  0.035473708   -3.4025612   0.75524404   426349 
 4186000   0.60805379   -3.4033766   -3.4033766   -2.6475169  0.025746093   -3.4033766   0.75585962   426349 
 4187000   0.60790622   -3.4033579   -3.4033579   -2.6476817  0.048733603   -3.4033579   0.75567619   426349 
 4188000   0.60652663   -3.4017684   -3.4017684   -2.6478072  0.038396886   -3.4017684   0.75396125   426349 
 4189000   0.60657894   -3.4011819   -3.4011819   -2.6471556  0.036017233   -3.4011819   0.75402626   426349 
 4190000   0.60582937   -3.4009244   -3.4009244   -2.6478299  0.029798892   -3.4009244    0.7530945   426349 
 4191000   0.60581253   -3.4009197   -3.4009197   -2.6478461  0.031653858   -3.4009197   0.75307356   426349 
 4192000   0.60720321   -3.4027053   -3.4027053    -2.647903  0.033347192   -3.4027053   0.75480229   426349 
 4193000   0.60709831   -3.4023112   -3.4023112   -2.6476393  0.030987941   -3.4023112   0.75467189   426349 
 4194000   0.60612179   -3.4006322   -3.4006322   -2.6471742  0.034287935   -3.4006322   0.75345799   426349 
 4195000   0.60708557   -3.4020774   -3.4020774   -2.6474214  0.026431929   -3.4020774   0.75465605   426349 
 4196000   0.60715491   -3.4026151   -3.4026151   -2.6478728  0.037464558   -3.4026151   0.75474225   426349 
 4197000   0.60690391   -3.4024758   -3.4024758   -2.6480456  0.034513089   -3.4024758   0.75443023   426349 
 4198000   0.60569384   -3.4006492   -3.4006492   -2.6477232  0.044049014   -3.4006492   0.75292602   426349 
 4199000   0.60716911   -3.4028316   -3.4028316   -2.6480717  0.036741621   -3.4028316    0.7547599   426349 
 4200000    0.6063889   -3.4017104   -3.4017104   -2.6479204  0.035310572   -3.4017104   0.75379004   426349 
 4201000    0.6057729   -3.4008962   -3.4008962   -2.6478719   0.02275977   -3.4008962   0.75302429   426349 
 4202000   0.60662104    -3.401527    -3.401527   -2.6474484   0.03385963    -3.401527   0.75407861   426349 
 4203000   0.60663498   -3.4023175   -3.4023175   -2.6482216  0.041511903   -3.4023175   0.75409594   426349 
 4204000    0.6068152   -3.4030969   -3.4030969    -2.648777  0.025382268   -3.4030969   0.75431996   426349 
 4205000   0.60650641   -3.4027156   -3.4027156   -2.6487795  0.040604531   -3.4027156    0.7539361   426349 
 4206000   0.60677394   -3.4033946   -3.4033946    -2.649126  0.035680619   -3.4033946   0.75426867   426349 
 4207000   0.60618914   -3.4023546   -3.4023546   -2.6488129  0.030411901   -3.4023546   0.75354172   426349 
 4208000     0.606185   -3.4025155   -3.4025155   -2.6489789  0.027022054   -3.4025155   0.75353658   426349 
 4209000   0.60639372   -3.4028409   -3.4028409   -2.6490449  0.036301992   -3.4028409   0.75379603   426349 
 4210000    0.6063576   -3.4031584   -3.4031584   -2.6494073  0.020544259   -3.4031584   0.75375112   426349 
 4211000   0.60809382   -3.4044724   -3.4044724    -2.648563  0.028814935   -3.4044724   0.75590939   426349 
 4212000   0.60729964   -3.4031935   -3.4031935   -2.6482713  0.038616414   -3.4031935   0.75492216   426349 
 4213000   0.60732574   -3.4037551   -3.4037551   -2.6488005  0.031228444   -3.4037551    0.7549546   426349 
 4214000   0.60660458   -3.4025093   -3.4025093   -2.6484511  0.031463677   -3.4025093   0.75405814   426349 
 4215000   0.60684849   -3.4027243   -3.4027243   -2.6483629  0.048447183   -3.4027243   0.75436135   426349 
 4216000   0.60605036   -3.4020851   -3.4020851   -2.6487159  0.045719629   -3.4020851   0.75336921   426349 
 4217000   0.60779038   -3.4044931   -3.4044931   -2.6489609  0.034688016   -3.4044931   0.75553219   426349 
 4218000   0.60653918   -3.4020027   -3.4020027   -2.6480259  0.031890222   -3.4020027   0.75397685   426349 
 4219000   0.60547223   -3.4008632   -3.4008632   -2.6482127  0.040144599   -3.4008632   0.75265054   426349 
 4220000    0.6068716   -3.4022029   -3.4022029   -2.6478128  0.033944455   -3.4022029   0.75439007   426349 
 4221000    0.6059446   -3.4021136   -3.4021136   -2.6488758  0.045674853   -3.4021136   0.75323774   426349 
 4222000   0.60621422   -3.4022359   -3.4022359    -2.648663  0.031136484   -3.4022359    0.7535729   426349 
 4223000   0.60696346   -3.4034369   -3.4034369   -2.6489326  0.035116132   -3.4034369   0.75450426   426349 
 4224000   0.60690939   -3.4027807   -3.4027807   -2.6483437  0.036010765   -3.4027807   0.75443704   426349 
 4225000   0.60681915   -3.4028128   -3.4028128   -2.6484879   0.03196123   -3.4028128   0.75432487   426349 
 4226000   0.60707619   -3.4024654   -3.4024654    -2.647821  0.034371483   -3.4024654    0.7546444   426349 
 4227000   0.60613827   -3.4018855   -3.4018855    -2.648407  0.027238311   -3.4018855   0.75347848   426349 
 4228000   0.60755801   -3.4036999   -3.4036999   -2.6484566   0.03320897   -3.4036999   0.75524333   426349 
 4229000   0.60726653   -3.4025114   -3.4025114   -2.6476304  0.028234127   -3.4025114     0.754881   426349 
 4230000   0.60751396   -3.4035481   -3.4035481   -2.6483596  0.039369649   -3.4035481   0.75518857   426349 
 4231000   0.60820512   -3.4033876   -3.4033876   -2.6473399  0.034116731   -3.4033876   0.75604774   426349 
 4232000   0.60741206   -3.4033043   -3.4033043   -2.6482424  0.035450088   -3.4033043   0.75506191   426349 
 4233000   0.60632557   -3.4023558   -3.4023558   -2.6486445  0.033187139   -3.4023558   0.75371131   426349 
 4234000    0.6068578   -3.4025078   -3.4025078   -2.6481349  0.038600236   -3.4025078   0.75437292   426349 
 4235000   0.60630253   -3.4020135   -3.4020135   -2.6483308  0.036092997   -3.4020135   0.75368267   426349 
 4236000   0.60553504    -3.400945    -3.400945   -2.6482164  0.045999305    -3.400945   0.75272862   426349 
 4237000   0.60724853    -3.402908    -3.402908   -2.6480494  0.033320977    -3.402908   0.75485862   426349 
 4238000   0.60756969   -3.4026452   -3.4026452   -2.6473873  0.039923154   -3.4026452   0.75525785   426349 
 4239000   0.60748366   -3.4019894   -3.4019894   -2.6468385  0.028835809   -3.4019894   0.75515091   426349 
 4240000   0.60803963   -3.4018384   -3.4018384   -2.6459963  0.034397805   -3.4018384   0.75584203   426349 
 4241000   0.60846231   -3.4023664   -3.4023664   -2.6459989  0.038251362   -3.4023664   0.75636745   426349 
 4242000   0.60779026   -3.4031711   -3.4031711   -2.6476391  0.029054973   -3.4031711   0.75553204   426349 
 4243000   0.60825222   -3.4037479   -3.4037479   -2.6476416  0.036074068   -3.4037479   0.75610629   426349 
 4244000   0.60739094   -3.4033753   -3.4033753   -2.6483396  0.038200625   -3.4033753   0.75503566   426349 
 4245000   0.60694227   -3.4030858   -3.4030858   -2.6486078  0.041225975   -3.4030858   0.75447792   426349 
 4246000   0.60702405   -3.4038389   -3.4038389   -2.6492593   0.03135102   -3.4038389   0.75457958   426349 
 4247000   0.60863808   -3.4050991   -3.4050991   -2.6485132  0.040675606   -3.4050991   0.75658594   426349 
 4248000   0.60740572   -3.4047214   -3.4047214   -2.6496674  0.031585477   -3.4047214   0.75505402   426349 
 4249000    0.6076313   -3.4057427   -3.4057427   -2.6504082  0.039237877   -3.4057427   0.75533444   426349 
 4250000   0.60747397   -3.4051398   -3.4051398   -2.6500009  0.037782381   -3.4051398   0.75513886   426349 
 4251000   0.60734562   -3.4048523   -3.4048523    -2.649873  0.043229656   -3.4048523   0.75497931   426349 
 4252000   0.60682662   -3.4037053   -3.4037053   -2.6493712  0.035859364   -3.4037053   0.75433416   426349 
 4253000   0.60699948   -3.4039924   -3.4039924   -2.6494433  0.039899779   -3.4039924   0.75454904   426349 
 4254000   0.60798818   -3.4055622   -3.4055622   -2.6497841  0.036362462   -3.4055622   0.75577807   426349 
 4255000   0.60765186    -3.405783    -3.405783    -2.650423  0.042273746    -3.405783      0.75536   426349 
 4256000   0.60849843   -3.4069443   -3.4069443   -2.6505319  0.045125147   -3.4069443   0.75641235   426349 
 4257000   0.60744495   -3.4054191   -3.4054191   -2.6503163  0.038229142   -3.4054191   0.75510279   426349 
 4258000   0.60689089   -3.4056601   -3.4056601   -2.6512461  0.026497828   -3.4056601   0.75441405   426349 
 4259000   0.60746696   -3.4065007   -3.4065007   -2.6513705  0.038528971   -3.4065007   0.75513015   426349 
 4260000   0.60597244   -3.4043583   -3.4043583    -2.651086  0.032024183   -3.4043583   0.75327234   426349 
 4261000   0.60698331   -3.4046394   -3.4046394   -2.6501105  0.043279227   -3.4046394   0.75452893   426349 
 4262000   0.60735731   -3.4049833   -3.4049833   -2.6499895  0.033766339   -3.4049833   0.75499384   426349 
 4263000   0.60717565   -3.4048754   -3.4048754   -2.6501074  0.034549358   -3.4048754   0.75476802   426349 
 4264000   0.60632122   -3.4040532   -3.4040532   -2.6503473  0.039960823   -3.4040532    0.7537059   426349 
 4265000   0.60727068   -3.4048915   -3.4048915   -2.6500054  0.031869678   -3.4048915   0.75488616   426349 
 4266000   0.60742978   -3.4046185   -3.4046185   -2.6495346  0.030864638   -3.4046185   0.75508394   426349 
 4267000   0.60616952    -3.403377    -3.403377   -2.6498596  0.044285928    -3.403377   0.75351732   426349 
 4268000   0.60725329   -3.4046379   -3.4046379   -2.6497733  0.038630905   -3.4046379   0.75486455   426349 
 4269000   0.60602896   -3.4027525   -3.4027525   -2.6494099  0.040569039   -3.4027525   0.75334261   426349 
 4270000   0.60573355    -3.402504    -3.402504   -2.6495286  0.035621457    -3.402504   0.75297539   426349 
 4271000   0.60600698   -3.4023799   -3.4023799   -2.6490646  0.036212426   -3.4023799   0.75331527   426349 
 4272000   0.60744975   -3.4034136   -3.4034136   -2.6483048  0.031759398   -3.4034136   0.75510876   426349 
 4273000   0.60715313   -3.4030809   -3.4030809   -2.6483409  0.036583848   -3.4030809   0.75474003   426349 
 4274000   0.60781771    -3.403409    -3.403409   -2.6478429  0.042674538    -3.403409   0.75556615   426349 
 4275000   0.60853303   -3.4044731   -3.4044731   -2.6480177  0.033173933   -3.4044731   0.75645536   426349 
 4276000   0.60823714   -3.4034321   -3.4034321   -2.6473445  0.036333956   -3.4034321   0.75608754   426349 
 4277000   0.60683744   -3.4018974   -3.4018974   -2.6475498  0.034562267   -3.4018974    0.7543476   426349 
 4278000   0.60765492   -3.4036372   -3.4036372   -2.6482734  0.045068462   -3.4036372    0.7553638   426349 
 4279000    0.6073349   -3.4035475   -3.4035475   -2.6485815  0.042847001   -3.4035475   0.75496598   426349 
 4280000   0.60797314   -3.4039748   -3.4039748   -2.6482154  0.046806685   -3.4039748   0.75575938   426349 
 4281000   0.60764651   -3.4038086   -3.4038086   -2.6484553    0.0365668   -3.4038086   0.75535334   426349 
 4282000   0.60730173   -3.4042496   -3.4042496   -2.6493248  0.034552734   -3.4042496   0.75492475   426349 
 4283000   0.60759925   -3.4047498   -3.4047498   -2.6494552  0.036562244   -3.4047498   0.75529459   426349 
 4284000   0.60638412     -3.40324     -3.40324    -2.649456  0.047313794     -3.40324   0.75378409   426349 
 4285000   0.60649173   -3.4033863   -3.4033863   -2.6494685  0.034263705   -3.4033863   0.75391786   426349 
 4286000   0.60586244   -3.4030028   -3.4030028   -2.6498672  0.041169681   -3.4030028    0.7531356   426349 
 4287000   0.60761139   -3.4047837   -3.4047837    -2.649474  0.025071491   -3.4047837   0.75530969   426349 
 4288000   0.60745198   -3.4045119   -3.4045119   -2.6494004  0.045894881   -3.4045119   0.75511153   426349 
 4289000   0.60660975   -3.4028298   -3.4028298   -2.6487652   0.04463651   -3.4028298   0.75406457   426349 
 4290000   0.60817151   -3.4048354   -3.4048354   -2.6488294  0.029568495   -3.4048354   0.75600596   426349 
 4291000   0.60692854   -3.4030801   -3.4030801   -2.6486193  0.038341315   -3.4030801   0.75446085   426349 
 4292000   0.60749128   -3.4043833   -3.4043833   -2.6492229  0.031770259   -3.4043833   0.75516038   426349 
 4293000   0.60672192    -3.403511    -3.403511    -2.649307  0.034350306    -3.403511     0.754204   426349 
 4294000   0.60706196   -3.4042194   -3.4042194   -2.6495927  0.040858263   -3.4042194    0.7546267   426349 
 4295000   0.60682523   -3.4043208   -3.4043208   -2.6499884  0.037279726   -3.4043208   0.75433243   426349 
 4296000   0.60774691   -3.4048775   -3.4048775   -2.6493994  0.031602387   -3.4048775   0.75547814   426349 
 4297000   0.60656645   -3.4036737   -3.4036737   -2.6496629  0.037538535   -3.4036737   0.75401074   426349 
 4298000    0.6076353   -3.4059443   -3.4059443   -2.6506049  0.040924341   -3.4059443   0.75533942   426349 
 4299000   0.60758076    -3.405549    -3.405549   -2.6502774  0.042996139    -3.405549   0.75527161   426349 
 4300000    0.6062376   -3.4029664   -3.4029664   -2.6493644   0.04195735   -3.4029664   0.75360196   426349 
 4301000   0.60750117   -3.4043845   -3.4043845   -2.6492119   0.03658161   -3.4043845   0.75517268   426349 
 4302000   0.60772551   -3.4048888   -3.4048888   -2.6494372  0.033964459   -3.4048888   0.75545155   426349 
 4303000   0.60797879   -3.4054586   -3.4054586   -2.6496922  0.042631321   -3.4054586    0.7557664   426349 
 4304000   0.60606187   -3.4040114   -3.4040114   -2.6506279  0.037805426   -3.4040114   0.75338351   426349 
 4305000   0.60723074   -3.4050327   -3.4050327   -2.6501962  0.029203008   -3.4050327   0.75483651   426349 
 4306000   0.60642676   -3.4044392   -3.4044392   -2.6506021  0.035209624   -3.4044392    0.7538371   426349 
 4307000   0.60593417   -3.4039863   -3.4039863   -2.6507615  0.038342716   -3.4039863   0.75322477   426349 
 4308000   0.60646929   -3.4042438   -3.4042438   -2.6503539  0.031710919   -3.4042438   0.75388996   426349 
 4309000   0.60753773   -3.4057361   -3.4057361   -2.6505179  0.051599714   -3.4057361   0.75521812   426349 
 4310000   0.60786061   -3.4054966   -3.4054966   -2.6498771  0.040277064   -3.4054966   0.75561949   426349 
 4311000   0.60723956   -3.4048931   -3.4048931   -2.6500456  0.044564136   -3.4048931   0.75484747   426349 
 4312000   0.60810739   -3.4061118   -3.4061118   -2.6501856  0.027064066   -3.4061118   0.75592625   426349 
 4313000   0.60588549    -3.403719    -3.403719   -2.6505548  0.037023531    -3.403719   0.75316425   426349 
 4314000   0.60573146   -3.4034171   -3.4034171   -2.6504444    0.0448947   -3.4034171   0.75297278   426349 
 4315000   0.60647109    -3.403688    -3.403688   -2.6497958  0.028525752    -3.403688    0.7538922   426349 
 4316000   0.60650404   -3.4044573   -3.4044573   -2.6505242   0.04226995   -3.4044573   0.75393316   426349 
 4317000   0.60609216   -3.4046837   -3.4046837   -2.6512626  0.038890004   -3.4046837   0.75342116   426349 
 4318000   0.60688308    -3.405764    -3.405764   -2.6513597  0.020970626    -3.405764   0.75440435   426349 
 4319000    0.6069731   -3.4062175   -3.4062175   -2.6517013  0.030873633   -3.4062175   0.75451624   426349 
 4320000   0.60542576   -3.4041449   -3.4041449   -2.6515521  0.027964383   -3.4041449   0.75259278   426349 
 4321000   0.60586209   -3.4053092   -3.4053092    -2.652174  0.020481454   -3.4053092   0.75313517   426349 
 4322000   0.60628859   -3.4060586   -3.4060586   -2.6523932  0.033133557   -3.4060586   0.75366534   426349 
 4323000   0.60544357   -3.4044202   -3.4044202   -2.6518053   0.02576046   -3.4044202   0.75261492   426349 
 4324000   0.60562712   -3.4041618   -3.4041618   -2.6513187  0.044726087   -3.4041618   0.75284308   426349 
 4325000   0.60526342   -3.4042218   -3.4042218   -2.6518309   0.03589797   -3.4042218   0.75239097   426349 
 4326000   0.60652119   -3.4050585   -3.4050585    -2.651104  0.030845354   -3.4050585   0.75395448   426349 
 4327000   0.60773793   -3.4070363   -3.4070363   -2.6515693  0.031240128   -3.4070363   0.75546699   426349 
 4328000   0.60715597   -3.4064089   -3.4064089   -2.6516653  0.042514219   -3.4064089   0.75474357   426349 
 4329000   0.60785277   -3.4079076   -3.4079076   -2.6522978  0.031922309   -3.4079076   0.75560974   426349 
 4330000   0.60656184   -3.4065589   -3.4065589   -2.6525539  0.031410416   -3.4065589   0.75400501   426349 
 4331000    0.6069191   -3.4069533   -3.4069533   -2.6525041  0.027889755   -3.4069533   0.75444912   426349 
 4332000    0.6066893   -3.4065521   -3.4065521   -2.6523887  0.038320925   -3.4065521   0.75416345   426349 
 4333000   0.60888612   -3.4084676   -3.4084676   -2.6515733  0.033165719   -3.4084676   0.75689428   426349 
 4334000   0.60860229   -3.4085327   -3.4085327   -2.6519912  0.035606739   -3.4085327   0.75654146   426349 
 4335000   0.60830031   -3.4092237   -3.4092237   -2.6530577  0.034528285   -3.4092237   0.75616608   426349 
 4336000   0.60690125   -3.4076527   -3.4076527   -2.6532258  0.030325694   -3.4076527   0.75442692   426349 
 4337000   0.60774493   -3.4082167   -3.4082167    -2.652741  0.035992348   -3.4082167   0.75547569   426349 
 4338000   0.60656574   -3.4071176   -3.4071176   -2.6531078  0.038534318   -3.4071176   0.75400986   426349 
 4339000   0.60831642   -3.4087257   -3.4087257   -2.6525396  0.040173363   -3.4087257    0.7561861   426349 
 4340000   0.60736042   -3.4077571   -3.4077571   -2.6527594  0.047031599   -3.4077571   0.75499772   426349 
 4341000   0.60812465   -3.4090623   -3.4090623   -2.6531146  0.042109153   -3.4090623   0.75594771   426349 
 4342000   0.60731117   -3.4079103   -3.4079103   -2.6529738  0.032076092   -3.4079103    0.7549365   426349 
 4343000   0.60696911   -3.4073817   -3.4073817   -2.6528704  0.032392282   -3.4073817   0.75451128   426349 
 4344000   0.60638607    -3.407435    -3.407435   -2.6536485  0.043357304    -3.407435   0.75378651   426349 
 4345000   0.60585458   -3.4062164   -3.4062164   -2.6530905  0.042064527   -3.4062164   0.75312584   426349 
 4346000   0.60677814   -3.4080186   -3.4080186   -2.6537447  0.040455013   -3.4080186   0.75427389   426349 
 4347000   0.60643801   -3.4071959   -3.4071959   -2.6533448  0.037199912   -3.4071959   0.75385108   426349 
 4348000   0.60576391   -3.4059523   -3.4059523   -2.6529392  0.027190605   -3.4059523   0.75301312   426349 
 4349000   0.60571011   -3.4066375   -3.4066375   -2.6536912  0.029214244   -3.4066375   0.75294625   426349 
 4350000   0.60556717   -3.4066222   -3.4066222   -2.6538536  0.033470077   -3.4066222   0.75276856   426349 
 4351000   0.60457522   -3.4059688   -3.4059688   -2.6544333  0.029669481   -3.4059688   0.75153549   426349 
 4352000   0.60568111   -3.4075766   -3.4075766   -2.6546664  0.041953598   -3.4075766   0.75291019   426349 
 4353000   0.60610814   -3.4070639   -3.4070639   -2.6536229  0.028816335   -3.4070639   0.75344103   426349 
 4354000   0.60641884   -3.4075518   -3.4075518   -2.6537245    0.0361567   -3.4075518   0.75382726   426349 
 4355000   0.60709237   -3.4083344   -3.4083344   -2.6536699  0.033215618   -3.4083344   0.75466451   426349 
 4356000   0.60597394   -3.4060796   -3.4060796   -2.6528054  0.033114834   -3.4060796    0.7532742   426349 
 4357000   0.60733043   -3.4083838   -3.4083838   -2.6534233   0.03457133   -3.4083838   0.75496044   426349 
 4358000   0.60690863   -3.4084158   -3.4084158   -2.6539797  0.049989918   -3.4084158    0.7544361   426349 
 4359000   0.60702648   -3.4080472   -3.4080472   -2.6534646  0.038271536   -3.4080472    0.7545826   426349 
 4360000   0.60689547   -3.4081857   -3.4081857    -2.653766  0.047199056   -3.4081857   0.75441974   426349 
 4361000   0.60650623    -3.407462    -3.407462   -2.6535261   0.03608888    -3.407462   0.75393589   426349 
 4362000   0.60744445   -3.4088222   -3.4088222   -2.6537201  0.043291277   -3.4088222   0.75510217   426349 
 4363000   0.60832014     -3.40942     -3.40942   -2.6532292  0.036577634     -3.40942   0.75619073   426349 
 4364000   0.60782562   -3.4085208   -3.4085208   -2.6529448  0.044352189   -3.4085208   0.75557599   426349 
 4365000   0.60751745   -3.4081297   -3.4081297   -2.6529367  0.031604635   -3.4081297   0.75519292   426349 
 4366000   0.60698694   -3.4078605   -3.4078605   -2.6533271  0.033591294   -3.4078605   0.75453345   426349 
 4367000   0.60668106   -3.4083316   -3.4083316   -2.6541783  0.029028877   -3.4083316   0.75415321   426349 
 4368000   0.60688574   -3.4087796   -3.4087796   -2.6543719  0.034899948   -3.4087796   0.75440764   426349 
 4369000   0.60736937   -3.4094161   -3.4094161   -2.6544073   0.02430025   -3.4094161   0.75500884   426349 
 4370000   0.60694344   -3.4087356   -3.4087356   -2.6542562  0.032144281   -3.4087356   0.75447937   426349 
 4371000   0.60540866   -3.4069566   -3.4069566   -2.6543851  0.036021027   -3.4069566   0.75257151   426349 
 4372000   0.60646899   -3.4082641   -3.4082641   -2.6543745  0.029831822   -3.4082641    0.7538896   426349 
 4373000   0.60627607   -3.4076098   -3.4076098     -2.65396  0.040141847   -3.4076098   0.75364978   426349 
 4374000   0.60579616   -3.4078616   -3.4078616   -2.6548083  0.022562089   -3.4078616   0.75305321   426349 
 4375000   0.60625203   -3.4073107   -3.4073107   -2.6536908  0.039389218   -3.4073107    0.7536199   426349 
 4376000   0.60688396   -3.4084445   -3.4084445    -2.654039  0.043265794   -3.4084445   0.75440544   426349 
 4377000   0.60656119    -3.407947    -3.407947   -2.6539428  0.031258551    -3.407947    0.7540042   426349 
 4378000   0.60643916   -3.4077167   -3.4077167   -2.6538642  0.054898623   -3.4077167   0.75385251   426349 
 4379000   0.60609439   -3.4065538   -3.4065538   -2.6531298  0.039473741   -3.4065538   0.75342394   426349 
 4380000   0.60686005   -3.4077244   -3.4077244   -2.6533487  0.040569682   -3.4077244   0.75437571   426349 
 4381000   0.60874991   -3.4096946   -3.4096946   -2.6529697  0.041528732   -3.4096946   0.75672496   426349 
 4382000   0.60675961   -3.4075919   -3.4075919   -2.6533411  0.044149825   -3.4075919   0.75425086   426349 
 4383000     0.606422   -3.4074895   -3.4074895   -2.6536583  0.030860553   -3.4074895   0.75383118   426349 
 4384000    0.6068032   -3.4077177   -3.4077177   -2.6534127  0.044764853   -3.4077177   0.75430504   426349 
 4385000   0.60723988   -3.4079566   -3.4079566   -2.6531087  0.053247334   -3.4079566   0.75484787   426349 
 4386000   0.60646562   -3.4070372   -3.4070372   -2.6531518  0.034082776   -3.4070372    0.7538854   426349 
 4387000   0.60700906   -3.4071601   -3.4071601   -2.6525991  0.031009576   -3.4071601   0.75456094   426349 
 4388000   0.60674034   -3.4079792   -3.4079792   -2.6537523  0.037591357   -3.4079792    0.7542269   426349 
 4389000   0.60610349   -3.4070461   -3.4070461   -2.6536109   0.02494833   -3.4070461   0.75343525   426349 
 4390000   0.60570083   -3.4070565   -3.4070565   -2.6541218  0.031510082   -3.4070565   0.75293471   426349 
 4391000   0.60541004   -3.4066263   -3.4066263   -2.6540531  0.031586086   -3.4066263   0.75257324   426349 
 4392000   0.60410546   -3.4056589   -3.4056589   -2.6547074  0.033186281   -3.4056589   0.75095153   426349 
 4393000   0.60404002    -3.405278    -3.405278   -2.6544078  0.030134142    -3.405278   0.75087019   426349 
 4394000   0.60573131   -3.4075925   -3.4075925   -2.6546199   0.04347993   -3.4075925    0.7529726   426349 
 4395000   0.60627685   -3.4089438   -3.4089438    -2.655293  0.039429565   -3.4089438   0.75365074   426349 
 4396000   0.60472436   -3.4071428   -3.4071428    -2.655422  0.026605221   -3.4071428   0.75172088   426349 
 4397000    0.6073161   -3.4102159   -3.4102159   -2.6552733  0.037747339   -3.4102159   0.75494261   426349 
 4398000   0.60639832   -3.4087725   -3.4087725   -2.6549708  0.032677018   -3.4087725   0.75380175   426349 
 4399000   0.60689202   -3.4096691   -3.4096691   -2.6552536  0.036643486   -3.4096691   0.75441545   426349 
 4400000   0.60578516   -3.4086212   -3.4086212   -2.6555817  0.037328012   -3.4086212   0.75303953   426349 
 4401000   0.60572127   -3.4087206   -3.4087206   -2.6557605  0.032740595   -3.4087206   0.75296012   426349 
 4402000   0.60559748   -3.4090535   -3.4090535   -2.6562472  0.035210938   -3.4090535   0.75280624   426349 
 4403000   0.60567424   -3.4086255   -3.4086255   -2.6557238  0.044014759   -3.4086255   0.75290165   426349 
 4404000   0.60633393   -3.4089279   -3.4089279   -2.6552062  0.043384933   -3.4089279    0.7537217   426349 
 4405000   0.60698211   -3.4097616   -3.4097616   -2.6552342  0.045671129   -3.4097616   0.75452744   426349 
 4406000   0.60782243   -3.4109161   -3.4109161   -2.6553441  0.029551872   -3.4109161   0.75557203   426349 
 4407000   0.60787544    -3.411643    -3.411643    -2.656005  0.037350702    -3.411643   0.75563793   426349 
 4408000   0.60675342   -3.4096264   -3.4096264   -2.6553832  0.034424845   -3.4096264   0.75424316   426349 
 4409000   0.60752519   -3.4119517   -3.4119517   -2.6567492  0.045423004   -3.4119517   0.75520253   426349 
 4410000   0.60697203   -3.4110249   -3.4110249     -2.65651  0.032875116   -3.4110249   0.75451491   426349 
 4411000   0.60673131   -3.4101581   -3.4101581   -2.6559424   0.03302394   -3.4101581   0.75421567   426349 
 4412000   0.60655417   -3.4096826   -3.4096826   -2.6556872  0.049233754   -3.4096826   0.75399548   426349 
 4413000   0.60644105   -3.4098248   -3.4098248   -2.6559699   0.04479636   -3.4098248   0.75385486   426349 
 4414000   0.60645386   -3.4091555   -3.4091555   -2.6552848  0.028707481   -3.4091555   0.75387079   426349 
 4415000   0.60658058   -3.4090144   -3.4090144   -2.6549861  0.040623983   -3.4090144   0.75402831   426349 
 4416000   0.60625876   -3.4088674   -3.4088674   -2.6552391  0.034855668   -3.4088674   0.75362826   426349 
 4417000    0.6053309   -3.4081065   -3.4081065   -2.6556316  0.033872688   -3.4081065   0.75247486   426349 
 4418000   0.60646107   -3.4089456   -3.4089456   -2.6550659  0.031247786   -3.4089456   0.75387975   426349 
 4419000   0.60551506   -3.4077099   -3.4077099   -2.6550061  0.016070069   -3.4077099   0.75270378   426349 
 4420000   0.60773125   -3.4098981   -3.4098981   -2.6544394  0.023568974   -3.4098981   0.75545869   426349 
 4421000   0.60716057   -3.4084302   -3.4084302   -2.6536809   0.04136278   -3.4084302   0.75474929   426349 
 4422000   0.60701519    -3.408705    -3.408705   -2.6541364  0.031614301    -3.408705   0.75456857   426349 
 4423000   0.60723874   -3.4085201   -3.4085201   -2.6536737  0.028385463   -3.4085201   0.75484645   426349 
 4424000   0.60619182   -3.4078346   -3.4078346   -2.6542896  0.035565325   -3.4078346   0.75354505   426349 
 4425000   0.60700266   -3.4087809   -3.4087809   -2.6542279  0.034888632   -3.4087809   0.75455298   426349 
 4426000   0.60667153   -3.4082093   -3.4082093   -2.6540679  0.035941712   -3.4082093   0.75414137   426349 
 4427000   0.60605889   -3.4077246   -3.4077246   -2.6543448  0.037057102   -3.4077246   0.75337981   426349 
 4428000    0.6070169   -3.4089803   -3.4089803   -2.6544096  0.026114408   -3.4089803   0.75457069   426349 
 4429000   0.60607817   -3.4080725   -3.4080725   -2.6546687  0.044198747   -3.4080725   0.75340378   426349 
 4430000   0.60746513    -3.409991    -3.409991   -2.6548632  0.031118657    -3.409991   0.75512788   426349 
 4431000   0.60593764   -3.4085335   -3.4085335   -2.6553044  0.040867121   -3.4085335   0.75322909   426349 
 4432000   0.60689072   -3.4100577   -3.4100577   -2.6556439  0.046548238   -3.4100577   0.75441384   426349 
 4433000   0.60855013    -3.411821    -3.411821   -2.6553444  0.037076396    -3.411821   0.75647661   426349 
 4434000   0.60752233   -3.4109269   -3.4109269    -2.655728  0.032408584   -3.4109269   0.75519898   426349 
 4435000   0.60610902   -3.4094141   -3.4094141    -2.655972   0.03569789   -3.4094141   0.75344212   426349 
 4436000   0.60687444   -3.4104588   -3.4104588   -2.6560652  0.044139426   -3.4104588   0.75439361   426349 
 4437000   0.60654755   -3.4090007   -3.4090007   -2.6550134  0.033557971   -3.4090007   0.75398725   426349 
 4438000    0.6071771   -3.4106187   -3.4106187   -2.6558489  0.034995358   -3.4106187   0.75476983   426349 
 4439000   0.60685176   -3.4103436   -3.4103436   -2.6559782  0.025663552   -3.4103436   0.75436541   426349 
 4440000   0.60680713   -3.4098811   -3.4098811   -2.6555711  0.041270582   -3.4098811   0.75430993   426349 
 4441000   0.60586571    -3.409138    -3.409138   -2.6559984  0.047801152    -3.409138   0.75313966   426349 
 4442000   0.60637869   -3.4097319   -3.4097319   -2.6559545  0.029633198   -3.4097319   0.75377734   426349 
 4443000   0.60632548   -3.4098066   -3.4098066   -2.6560954  0.027963641   -3.4098066   0.75371119   426349 
 4444000   0.60565565   -3.4092548   -3.4092548   -2.6563762  0.029237153   -3.4092548   0.75287854   426349 
 4445000   0.60681296   -3.4103429   -3.4103429   -2.6560257  0.032334831   -3.4103429   0.75431717   426349 
 4446000   0.60581093   -3.4094537   -3.4094537   -2.6563821  0.046333541   -3.4094537   0.75307157   426349 
 4447000   0.60685284   -3.4112956   -3.4112956   -2.6569288   0.03413574   -3.4112956   0.75436675   426349 
 4448000   0.60588768   -3.4102226   -3.4102226   -2.6570556  0.034667346   -3.4102226   0.75316698   426349 
 4449000   0.60630075   -3.4107507   -3.4107507   -2.6570702  0.036221874   -3.4107507   0.75368046   426349 
 4450000   0.60551203   -3.4100962   -3.4100962   -2.6573962  0.030318029   -3.4100962   0.75270002   426349 
 4451000    0.6060539   -3.4106242   -3.4106242   -2.6572506  0.032902048   -3.4106242    0.7533736   426349 
 4452000   0.60566714   -3.4100628   -3.4100628     -2.65717  0.035490569   -3.4100628   0.75289283   426349 
 4453000   0.60595485   -3.4097895   -3.4097895   -2.6565391  0.037318196   -3.4097895   0.75325047   426349 
 4454000   0.60698439   -3.4111414   -3.4111414   -2.6566111  0.042187612   -3.4111414   0.75453027   426349 
 4455000   0.60520347   -3.4097309   -3.4097309   -2.6574144  0.030431757   -3.4097309   0.75231645   426349 
 4456000   0.60545627   -3.4104637   -3.4104637    -2.657833  0.034834365   -3.4104637    0.7526307   426349 
 4457000   0.60466179   -3.4103544   -3.4103544   -2.6587114  0.032474035   -3.4103544    0.7516431   426349 
 4458000   0.60544784   -3.4111561   -3.4111561   -2.6585359   0.03095493   -3.4111561   0.75262022   426349 
 4459000   0.60620457   -3.4119537   -3.4119537   -2.6583928   0.04431105   -3.4119537   0.75356089   426349 
 4460000   0.60559679   -3.4112177   -3.4112177   -2.6584123   0.02587345   -3.4112177   0.75280538   426349 
 4461000   0.60530659   -3.4106307   -3.4106307    -2.658186  0.031773066   -3.4106307   0.75244463   426349 
 4462000   0.60578552   -3.4108897   -3.4108897   -2.6578498  0.021265443   -3.4108897   0.75303999   426349 
 4463000   0.60657983   -3.4116488   -3.4116488   -2.6576214  0.043648552   -3.4116488   0.75402737   426349 
 4464000   0.60593251   -3.4111537   -3.4111537    -2.657931   0.03357525   -3.4111537   0.75322271   426349 
 4465000   0.60641794   -3.4114845   -3.4114845   -2.6576584  0.041163386   -3.4114845   0.75382614   426349 
 4466000   0.60560289   -3.4107441   -3.4107441   -2.6579311   0.03516028   -3.4107441   0.75281296   426349 
 4467000   0.60648193   -3.4121132   -3.4121132   -2.6582075  0.025359006   -3.4121132   0.75390568   426349 
 4468000     0.605805   -3.4118049   -3.4118049   -2.6587407  0.047678131   -3.4118049   0.75306421   426349 
 4469000   0.60620813   -3.4111306   -3.4111306   -2.6575652  0.039193638   -3.4111306   0.75356533   426349 
 4470000     0.605684   -3.4105696   -3.4105696   -2.6576558   0.04046496   -3.4105696   0.75291379   426349 
 4471000   0.60589013     -3.41175     -3.41175     -2.65858  0.027383403     -3.41175   0.75317002   426349 
 4472000   0.60577461   -3.4110219   -3.4110219   -2.6579955  0.033484438   -3.4110219   0.75302643   426349 
 4473000   0.60608914   -3.4108851   -3.4108851   -2.6574677  0.049609227   -3.4108851   0.75341741   426349 
 4474000    0.6067741   -3.4118178   -3.4118178   -2.6575489  0.030860609   -3.4118178   0.75426887   426349 
 4475000   0.60657134   -3.4114924   -3.4114924   -2.6574756  0.030325911   -3.4114924   0.75401682   426349 
 4476000   0.60590036    -3.410782    -3.410782   -2.6575993  0.035822416    -3.410782   0.75318275   426349 
 4477000   0.60554533   -3.4101885   -3.4101885    -2.657447  0.036222855   -3.4101885   0.75274141   426349 
 4478000   0.60497198   -3.4098252   -3.4098252   -2.6577965  0.036055154   -3.4098252   0.75202869   426349 
 4479000   0.60398553   -3.4084784   -3.4084784    -2.657676  0.036562929   -3.4084784   0.75080246   426349 
 4480000   0.60642965   -3.4114753   -3.4114753   -2.6576346  0.030870947   -3.4114753   0.75384069   426349 
 4481000   0.60448021    -3.409796    -3.409796   -2.6583786   0.02673361    -3.409796   0.75141738   426349 
 4482000   0.60554204   -3.4106301   -3.4106301   -2.6578928  0.035928656   -3.4106301   0.75273732   426349 
 4483000   0.60591981   -3.4113815   -3.4113815   -2.6581746  0.038796824   -3.4113815   0.75320692   426349 
 4484000   0.60547736   -3.4108985   -3.4108985   -2.6582416  0.036994621   -3.4108985   0.75265691   426349 
 4485000   0.60683228    -3.411736    -3.411736   -2.6573948  0.038976337    -3.411736    0.7543412   426349 
 4486000   0.60576054   -3.4108994   -3.4108994   -2.6578905  0.029501203   -3.4108994   0.75300893   426349 
 4487000   0.60572829   -3.4105398   -3.4105398   -2.6575709  0.037006032   -3.4105398   0.75296884   426349 
 4488000   0.60587138   -3.4109813   -3.4109813   -2.6578346   0.02843165   -3.4109813   0.75314672   426349 
 4489000   0.60683546   -3.4129704   -3.4129704   -2.6586252  0.033520834   -3.4129704   0.75434515   426349 
 4490000   0.60612126    -3.412265    -3.412265   -2.6588077  0.027963786    -3.412265   0.75345734   426349 
 4491000    0.6067249   -3.4123186   -3.4123186   -2.6581108  0.036697668   -3.4123186   0.75420771   426349 
 4492000   0.60615782   -3.4116743   -3.4116743   -2.6581715  0.039483116   -3.4116743   0.75350279   426349 
 4493000   0.60536103   -3.4106128   -3.4106128   -2.6581005  0.036435474   -3.4106128    0.7525123   426349 
 4494000   0.60654822   -3.4119126   -3.4119126   -2.6579245  0.030008036   -3.4119126   0.75398809   426349 
 4495000   0.60543868   -3.4105488   -3.4105488     -2.65794  0.027799344   -3.4105488   0.75260883   426349 
 4496000   0.60490714   -3.4097327   -3.4097327   -2.6577847  0.040395495   -3.4097327   0.75194809   426349 
 4497000   0.60651081   -3.4113256   -3.4113256    -2.657384  0.029261888   -3.4113256   0.75394158   426349 
 4498000   0.60572479     -3.41064     -3.41064   -2.6576755  0.027886546     -3.41064   0.75296449   426349 
 4499000   0.60584552   -3.4104298   -3.4104298   -2.6573152  0.042193326   -3.4104298   0.75311457   426349 
 4500000   0.60626848   -3.4103082   -3.4103082   -2.6566678  0.041128976   -3.4103082   0.75364034   426349 
 4501000   0.60442067   -3.4085368   -3.4085368   -2.6571934  0.034778272   -3.4085368   0.75134336   426349 
 4502000   0.60509654   -3.4098915   -3.4098915   -2.6577079  0.030243786   -3.4098915   0.75218352   426349 
 4503000   0.60424561   -3.4094106   -3.4094106   -2.6582848  0.038263535   -3.4094106   0.75112575   426349 
 4504000   0.60608417   -3.4110516   -3.4110516   -2.6576404  0.045554566   -3.4110516   0.75341124   426349 
 4505000   0.60523733   -3.4092528   -3.4092528   -2.6568943  0.034757048   -3.4092528   0.75235854   426349 
 4506000   0.60521824    -3.409361    -3.409361   -2.6570262  0.035371452    -3.409361   0.75233481   426349 
 4507000   0.60661832     -3.41059     -3.41059   -2.6565148  0.037059562     -3.41059   0.75407523   426349 
 4508000   0.60689165   -3.4108608   -3.4108608   -2.6564459   0.04305549   -3.4108608   0.75441499   426349 
 4509000   0.60629976   -3.4104616   -3.4104616   -2.6567823  0.024283665   -3.4104616   0.75367923   426349 
 4510000   0.60596933   -3.4099147   -3.4099147   -2.6566462   0.03369198   -3.4099147   0.75326847   426349 
 4511000   0.60631233   -3.4105498   -3.4105498   -2.6568549  0.035186295   -3.4105498   0.75369486   426349 
 4512000   0.60679984   -3.4109861   -3.4109861   -2.6566852  0.027039676   -3.4109861   0.75430087   426349 
 4513000   0.60689097   -3.4112276   -3.4112276   -2.6568134  0.055983734   -3.4112276   0.75441415   426349 
 4514000   0.60657958   -3.4106796   -3.4106796   -2.6566525  0.045440892   -3.4106796   0.75402707   426349 
 4515000   0.60576949   -3.4103721   -3.4103721   -2.6573521  0.032927495   -3.4103721   0.75302005   426349 
 4516000   0.60577218   -3.4099906   -3.4099906   -2.6569672   0.04485232   -3.4099906   0.75302341   426349 
 4517000   0.60512943   -3.4093455   -3.4093455   -2.6571211  0.035295021   -3.4093455   0.75222442   426349 
 4518000    0.6053531   -3.4093552   -3.4093552   -2.6568527  0.031710595   -3.4093552   0.75250245   426349 
 4519000   0.60579607   -3.4092132   -3.4092132   -2.6561601  0.042244829   -3.4092132    0.7530531   426349 
 4520000    0.6049054   -3.4090913   -3.4090913   -2.6571454  0.032944055   -3.4090913   0.75194592   426349 
 4521000   0.60421152   -3.4079012   -3.4079012   -2.6568178  0.036316404   -3.4079012   0.75108337   426349 
 4522000   0.60641876   -3.4112609   -3.4112609   -2.6574338  0.029584265   -3.4112609   0.75382715   426349 
 4523000   0.60682874   -3.4111888   -3.4111888    -2.656852  0.034257204   -3.4111888   0.75433679   426349 
 4524000   0.60597412   -3.4105539   -3.4105539   -2.6572795  0.034745048   -3.4105539   0.75327443   426349 
 4525000   0.60538407   -3.4100893   -3.4100893   -2.6575483  0.047035247   -3.4100893   0.75254095   426349 
 4526000   0.60561971   -3.4096519   -3.4096519   -2.6568181  0.027791229   -3.4096519   0.75283387   426349 
 4527000   0.60591859   -3.4096615   -3.4096615   -2.6564561   0.03716116   -3.4096615    0.7532054   426349 
 4528000   0.60654842   -3.4103911   -3.4103911   -2.6564028  0.037794354   -3.4103911   0.75398833   426349 
 4529000   0.60632262   -3.4102324   -3.4102324   -2.6565247     0.031635   -3.4102324   0.75370764   426349 
 4530000   0.60732454    -3.411819    -3.411819   -2.6568658   0.04270672    -3.411819    0.7549531   426349 
 4531000   0.60598661   -3.4099609   -3.4099609   -2.6566709  0.037150628   -3.4099609   0.75328996   426349 
 4532000   0.60788279   -3.4122942   -3.4122942   -2.6566472  0.038845528   -3.4122942   0.75564706   426349 
 4533000   0.60617991   -3.4107806   -3.4107806   -2.6572503  0.039078255   -3.4107806   0.75353024   426349 
 4534000   0.60636241   -3.4109455   -3.4109455   -2.6571884  0.033673903   -3.4109455    0.7537571   426349 
 4535000   0.60584532   -3.4109212   -3.4109212   -2.6578068  0.033844311   -3.4109212   0.75311432   426349 
 4536000   0.60563001   -3.4104138   -3.4104138   -2.6575672  0.037807615   -3.4104138   0.75284667   426349 
 4537000   0.60619538   -3.4107384   -3.4107384   -2.6571889  0.045162779   -3.4107384   0.75354948   426349 
 4538000    0.6062859   -3.4113762   -3.4113762   -2.6577142  0.036603756   -3.4113762     0.753662   426349 
 4539000   0.60506388   -3.4094521   -3.4094521   -2.6573092  0.041587732   -3.4094521   0.75214293   426349 
 4540000   0.60666245     -3.41145     -3.41145   -2.6573199  0.036827368     -3.41145   0.75413008   426349 
 4541000   0.60759225   -3.4127199   -3.4127199    -2.657434  0.036180195   -3.4127199   0.75528589   426349 
 4542000   0.60469464   -3.4094531   -3.4094531   -2.6577692  0.037242019   -3.4094531   0.75168393   426349 
 4543000    0.6066662   -3.4115161   -3.4115161   -2.6573814   0.02718573   -3.4115161   0.75413474   426349 
 4544000   0.60614894    -3.410778    -3.410778   -2.6572863  0.031858186    -3.410778   0.75349175   426349 
 4545000   0.60508419   -3.4096743   -3.4096743   -2.6575061  0.031787665   -3.4096743   0.75216818   426349 
 4546000   0.60587505   -3.4111443   -3.4111443   -2.6579931  0.030379036   -3.4111443   0.75315128   426349 
 4547000   0.60523037   -3.4097699   -3.4097699     -2.65742  0.039385904   -3.4097699   0.75234988   426349 
 4548000   0.60623356   -3.4109163   -3.4109163   -2.6573193  0.034802824   -3.4109163   0.75359693   426349 
 4549000   0.60681772   -3.4118711   -3.4118711    -2.657548  0.034780921   -3.4118711   0.75432309   426349 
 4550000   0.60547011    -3.409812    -3.409812   -2.6571641  0.023979512    -3.409812   0.75264791   426349 
 4551000   0.60521333   -3.4100044   -3.4100044   -2.6576757  0.036011346   -3.4100044   0.75232871   426349 
 4552000   0.60559054   -3.4105543   -3.4105543   -2.6577567  0.031713286   -3.4105543   0.75279761   426349 
 4553000   0.60703102   -3.4118898   -3.4118898   -2.6573015  0.030037302   -3.4118898   0.75458824   426349 
 4554000   0.60650377   -3.4108216   -3.4108216   -2.6568888  0.022931552   -3.4108216   0.75393283   426349 
 4555000   0.60665246   -3.4109265   -3.4109265   -2.6568088  0.033871314   -3.4109265   0.75411766   426349 
 4556000   0.60586593   -3.4107105   -3.4107105   -2.6575706  0.034814044   -3.4107105   0.75313994   426349 
 4557000   0.60649185   -3.4112218   -3.4112218   -2.6573038  0.040599632   -3.4112218   0.75391801   426349 
 4558000   0.60580443   -3.4102859   -3.4102859   -2.6572224  0.040063199   -3.4102859   0.75306349   426349 
 4559000   0.60635689   -3.4110181   -3.4110181   -2.6572678  0.033462589   -3.4110181   0.75375025   426349 
 4560000   0.60536064    -3.410041    -3.410041   -2.6575292  0.029500902    -3.410041   0.75251182   426349 
 4561000    0.6038911   -3.4086057   -3.4086057   -2.6579206  0.035762141   -3.4086057   0.75068507   426349 
 4562000   0.60561662   -3.4107327   -3.4107327   -2.6579026    0.0288681   -3.4107327   0.75283003   426349 
 4563000   0.60550734    -3.410068    -3.410068   -2.6573739  0.033974362    -3.410068   0.75269419   426349 
 4564000   0.60534286   -3.4100044   -3.4100044   -2.6575146  0.030975625   -3.4100044   0.75248973   426349 
 4565000   0.60605135    -3.410755    -3.410755   -2.6573846  0.032083293    -3.410755   0.75337043   426349 
 4566000    0.6056175   -3.4101907   -3.4101907   -2.6573596   0.03304366   -3.4101907   0.75283112   426349 
 4567000   0.60478396   -3.4087846   -3.4087846   -2.6569897  0.043406044   -3.4087846   0.75179496   426349 
 4568000   0.60551974    -3.410244    -3.410244   -2.6575344  0.026200411    -3.410244    0.7527096   426349 
 4569000   0.60718229   -3.4123568   -3.4123568   -2.6575805  0.036497615   -3.4123568   0.75477628   426349 
 4570000   0.60565926   -3.4098351   -3.4098351    -2.656952  0.035366386   -3.4098351   0.75288303   426349 
 4571000   0.60564102   -3.4100514   -3.4100514    -2.657191  0.038452657   -3.4100514   0.75286036   426349 
 4572000   0.60641715    -3.411082    -3.411082   -2.6572569  0.038181582    -3.411082   0.75382515   426349 
 4573000    0.6067734   -3.4113198   -3.4113198   -2.6570518  0.034824224   -3.4113198     0.754268   426349 
 4574000   0.60602722   -3.4108429   -3.4108429   -2.6575025  0.036531783   -3.4108429   0.75334044   426349 
 4575000   0.60568306   -3.4099922   -3.4099922   -2.6570796  0.041020172   -3.4099922   0.75291261   426349 
 4576000   0.60475133   -3.4094019   -3.4094019   -2.6576475  0.038436312   -3.4094019    0.7517544   426349 
 4577000   0.60504907   -3.4098688   -3.4098688   -2.6577442   0.04208337   -3.4098688   0.75212452   426349 
 4578000   0.60577977   -3.4102042   -3.4102042   -2.6571714   0.03390245   -3.4102042   0.75303283   426349 
 4579000   0.60526822   -3.4088378   -3.4088378   -2.6564408  0.032490851   -3.4088378   0.75239694   426349 
 4580000   0.60672808   -3.4108563   -3.4108563   -2.6566447  0.038742835   -3.4108563   0.75421166   426349 
 4581000   0.60619872   -3.4105176   -3.4105176    -2.656964   0.03080856   -3.4105176   0.75355362   426349 
 4582000   0.60673932    -3.411241    -3.411241   -2.6570154  0.036669406    -3.411241   0.75422564   426349 
 4583000   0.60626728   -3.4117971   -3.4117971   -2.6581583  0.042931383   -3.4117971   0.75363885   426349 
 4584000   0.60588595   -3.4107334   -3.4107334   -2.6575686  0.035026799   -3.4107334   0.75316483   426349 
 4585000   0.60637716   -3.4115305   -3.4115305   -2.6577551  0.052178902   -3.4115305   0.75377544   426349 
 4586000   0.60630198   -3.4104987   -3.4104987   -2.6568167  0.038522115   -3.4104987   0.75368199   426349 
 4587000   0.60390667   -3.4073135   -3.4073135   -2.6566091  0.032788091   -3.4073135   0.75070442   426349 
 4588000   0.60661518   -3.4103247   -3.4103247   -2.6562534  0.038435239   -3.4103247   0.75407132   426349 
 4589000   0.60692566    -3.411516    -3.411516   -2.6570587  0.042755244    -3.411516   0.75445727   426349 
 4590000   0.60603035   -3.4109388   -3.4109388   -2.6575945  0.037357445   -3.4109388   0.75334433   426349 
 4591000   0.60519181   -3.4096504   -3.4096504   -2.6573485  0.035127494   -3.4096504   0.75230195   426349 
 4592000   0.60579135    -3.410705    -3.410705   -2.6576577  0.031093903    -3.410705   0.75304723   426349 
 4593000   0.60590723     -3.41168     -3.41168   -2.6584887  0.032535921     -3.41168   0.75319128   426349 
 4594000    0.6050387    -3.410876    -3.410876   -2.6587644  0.037595444    -3.410876   0.75211162   426349 
 4595000   0.60558199   -3.4114681   -3.4114681   -2.6586811   0.04181838   -3.4114681   0.75278698   426349 
 4596000   0.60605793   -3.4113284   -3.4113284   -2.6579498  0.035510114   -3.4113284   0.75337861   426349 
 4597000   0.60557563   -3.4107906   -3.4107906   -2.6580115   0.04352793   -3.4107906   0.75277907   426349 
 4598000   0.60659978   -3.4119885   -3.4119885   -2.6579363  0.046371712   -3.4119885   0.75405217   426349 
 4599000   0.60570398   -3.4112727   -3.4112727   -2.6583341  0.033963469   -3.4112727   0.75293863   426349 
 4600000   0.60658722   -3.4118988   -3.4118988   -2.6578623  0.039885835   -3.4118988   0.75403657   426349 
 4601000   0.60632467   -3.4117989   -3.4117989   -2.6580887  0.035857927   -3.4117989   0.75371019   426349 
 4602000   0.60618113   -3.4111055   -3.4111055   -2.6575738  0.027459249   -3.4111055   0.75353176   426349 
 4603000   0.60603781   -3.4112521   -3.4112521   -2.6578985  0.036057891   -3.4112521    0.7533536   426349 
 4604000    0.6056452   -3.4113714   -3.4113714   -2.6585059  0.036273842   -3.4113714   0.75286556   426349 
 4605000   0.60620997   -3.4115112   -3.4115112   -2.6579436  0.038380272   -3.4115112   0.75356761   426349 
 4606000   0.60473289    -3.410045    -3.410045   -2.6583135  0.041267917    -3.410045   0.75173148   426349 
 4607000   0.60567136   -3.4114577   -3.4114577   -2.6585596   0.04195505   -3.4114577   0.75289807   426349 
 4608000   0.60443622   -3.4098559   -3.4098559   -2.6584932  0.030326609   -3.4098559    0.7513627   426349 
 4609000   0.60420032   -3.4088097   -3.4088097   -2.6577402  0.037942219   -3.4088097   0.75106945   426349 
 4610000   0.60558552   -3.4094578   -3.4094578   -2.6566664  0.028079863   -3.4094578   0.75279137   426349 
 4611000   0.60479974   -3.4088511   -3.4088511   -2.6570365  0.031298663   -3.4088511   0.75181458   426349 
 4612000   0.60611155   -3.4105666   -3.4105666   -2.6571213  0.039659477   -3.4105666   0.75344527   426349 
 4613000   0.60439464   -3.4086193   -3.4086193   -2.6573083  0.035714353   -3.4086193   0.75131101   426349 
 4614000   0.60454247   -3.4094793   -3.4094793   -2.6579846  0.034261451   -3.4094793   0.75149478   426349 
 4615000   0.60585347   -3.4106174   -3.4106174   -2.6574929  0.039784154   -3.4106174   0.75312445   426349 
 4616000   0.60583439    -3.411342    -3.411342   -2.6582413   0.03648735    -3.411342   0.75310074   426349 
 4617000   0.60566573   -3.4106192   -3.4106192   -2.6577282  0.043863287   -3.4106192   0.75289108   426349 
 4618000   0.60453824   -3.4091359   -3.4091359   -2.6576464  0.041850752   -3.4091359   0.75148952   426349 
 4619000   0.60604003     -3.41129     -3.41129   -2.6579336  0.034093623     -3.41129   0.75335636   426349 
 4620000   0.60480557   -3.4106488   -3.4106488    -2.658827  0.033842955   -3.4106488   0.75182183   426349 
 4621000   0.60462229   -3.4098208   -3.4098208   -2.6582268  0.027885913   -3.4098208     0.751594   426349 
 4622000    0.6045111   -3.4104272   -3.4104272   -2.6589714  0.030208088   -3.4104272   0.75145578   426349 
 4623000   0.60385745   -3.4095418   -3.4095418   -2.6588985  0.042884608   -3.4095418   0.75064324   426349 
 4624000   0.60360414   -3.4094307   -3.4094307   -2.6591023  0.040554391   -3.4094307   0.75032836   426349 
 4625000   0.60529437   -3.4114677   -3.4114677   -2.6590382  0.034322054   -3.4114677   0.75242945   426349 
 4626000    0.6068888   -3.4132132   -3.4132132   -2.6588018  0.045180602   -3.4132132   0.75441144   426349 
 4627000    0.6060628   -3.4116608   -3.4116608   -2.6582761  0.032998954   -3.4116608   0.75338467   426349 
 4628000   0.60603211   -3.4117621   -3.4117621   -2.6584156  0.031249314   -3.4117621   0.75334652   426349 
 4629000    0.6052532   -3.4105073   -3.4105073    -2.658129  0.037339089   -3.4105073   0.75237826   426349 
 4630000   0.60595637   -3.4115812   -3.4115812   -2.6583288  0.039454275   -3.4115812   0.75325236   426349 
 4631000   0.60542992   -3.4110693   -3.4110693   -2.6584713  0.028509255   -3.4110693   0.75259795   426349 
 4632000   0.60491459   -3.4105192   -3.4105192   -2.6585619  0.031775121   -3.4105192   0.75195735   426349 
 4633000   0.60540006   -3.4103471   -3.4103471   -2.6577863  0.036790753   -3.4103471   0.75256083   426349 
 4634000   0.60415046   -3.4094672   -3.4094672   -2.6584598  0.033341092   -3.4094672   0.75100748   426349 
 4635000   0.60488738   -3.4108578   -3.4108578   -2.6589343  0.031445386   -3.4108578   0.75192352   426349 
 4636000   0.60701321   -3.4129932   -3.4129932   -2.6584271  0.032727639   -3.4129932   0.75456611   426349 
 4637000    0.6059832   -3.4123337   -3.4123337   -2.6590479  0.030757551   -3.4123337   0.75328571   426349 
 4638000   0.60635629   -3.4125723   -3.4125723   -2.6588228  0.044210256   -3.4125723    0.7537495   426349 
 4639000   0.60610594   -3.4123644   -3.4123644   -2.6589261  0.030192922   -3.4123644   0.75343829   426349 
 4640000   0.60512933   -3.4110553   -3.4110553    -2.658831  0.042550826   -3.4110553   0.75222428   426349 
 4641000   0.60504703   -3.4108577   -3.4108577   -2.6587357   0.04234508   -3.4108577   0.75212198   426349 
 4642000    0.6063255   -3.4115461   -3.4115461   -2.6578349  0.034274115   -3.4115461   0.75371123   426349 
 4643000   0.60445816   -3.4096967   -3.4096967   -2.6583068   0.03059989   -3.4096967   0.75138997   426349 
 4644000   0.60503652   -3.4106948   -3.4106948   -2.6585859  0.031155258   -3.4106948   0.75210892   426349 
 4645000   0.60504462    -3.410946    -3.410946    -2.658827  0.030458062    -3.410946   0.75211898   426349 
 4646000   0.60546138   -3.4113757   -3.4113757   -2.6587387  0.048980481   -3.4113757   0.75263705   426349 
 4647000   0.60619801   -3.4124427   -3.4124427   -2.6588899  0.043155137   -3.4124427   0.75355274   426349 
 4648000   0.60464575   -3.4101221   -3.4101221   -2.6584989   0.03761368   -3.4101221   0.75162316   426349 
 4649000   0.60560076   -3.4109946   -3.4109946   -2.6581842  0.031182966   -3.4109946   0.75281032   426349 
 4650000   0.60541308    -3.411234    -3.411234    -2.658657  0.032489507    -3.411234   0.75257701   426349 
 4651000   0.60535648    -3.411402    -3.411402   -2.6588954  0.037891302    -3.411402   0.75250665   426349 
 4652000   0.60572758   -3.4122124   -3.4122124   -2.6592444   0.03726225   -3.4122124   0.75296796   426349 
 4653000   0.60506379   -3.4121432   -3.4121432   -2.6600004  0.032170491   -3.4121432   0.75214282   426349 
 4654000   0.60502923   -3.4112906   -3.4112906   -2.6591907  0.034346511   -3.4112906   0.75209986   426349 
 4655000   0.60540008   -3.4122284   -3.4122284   -2.6596676  0.048923488   -3.4122284   0.75256085   426349 
 4656000   0.60531321   -3.4123938   -3.4123938    -2.659941  0.038342208   -3.4123938   0.75245286   426349 
 4657000   0.60488354   -3.4115955   -3.4115955   -2.6596767  0.040096225   -3.4115955   0.75191875   426349 
 4658000   0.60559847   -3.4119887   -3.4119887   -2.6591812  0.046194475   -3.4119887   0.75280747   426349 
 4659000   0.60626374   -3.4127781   -3.4127781   -2.6591437  0.033977613   -3.4127781   0.75363445   426349 
 4660000    0.6052139   -3.4115741   -3.4115741   -2.6592446  0.038786408   -3.4115741   0.75232942   426349 
 4661000   0.60639034   -3.4131253   -3.4131253   -2.6593335  0.030001788   -3.4131253   0.75379183   426349 
 4662000   0.60589703   -3.4132073   -3.4132073   -2.6600287  0.041750255   -3.4132073    0.7531786   426349 
 4663000   0.60507923   -3.4129296   -3.4129296   -2.6607676   0.03731876   -3.4129296   0.75216201   426349 
 4664000   0.60440194   -3.4116856   -3.4116856   -2.6603655  0.041240991   -3.4116856   0.75132009   426349 
 4665000   0.60448734   -3.4120984   -3.4120984   -2.6606722  0.031535862   -3.4120984   0.75142625   426349 
 4666000    0.6046017   -3.4122482   -3.4122482   -2.6606798  0.027762449   -3.4122482   0.75156841   426349 
 4667000   0.60475375   -3.4117923   -3.4117923   -2.6600349  0.028678319   -3.4117923   0.75175741   426349 
 4668000   0.60732547   -3.4141267   -3.4141267   -2.6591724   0.03442859   -3.4141267   0.75495426   426349 
 4669000   0.60558636   -3.4120437   -3.4120437   -2.6592513  0.040259888   -3.4120437   0.75279242   426349 
 4670000   0.60506611   -3.4115037   -3.4115037    -2.659358  0.039911266   -3.4115037    0.7521457   426349 
 4671000   0.60607208    -3.413223    -3.413223   -2.6598268  0.028212473    -3.413223   0.75339621   426349 
 4672000   0.60625269   -3.4128967   -3.4128967    -2.659276  0.032713397   -3.4128967   0.75362071   426349 
 4673000   0.60721947   -3.4141915   -3.4141915    -2.659369  0.043266679   -3.4141915    0.7548225   426349 
 4674000   0.60642234   -3.4132671   -3.4132671   -2.6594355   0.04042126   -3.4132671    0.7538316   426349 
 4675000   0.60700583   -3.4134686   -3.4134686   -2.6589117  0.038435454   -3.4134686   0.75455692   426349 
 4676000   0.60621227    -3.412786    -3.412786   -2.6592155  0.031213412    -3.412786   0.75357048   426349 
 4677000   0.60642721   -3.4138091   -3.4138091   -2.6599714  0.041920726   -3.4138091   0.75383766   426349 
 4678000   0.60678123     -3.41486     -3.41486   -2.6605823  0.038001661     -3.41486   0.75427773   426349 
 4679000    0.6057413   -3.4139736   -3.4139736   -2.6609885  0.036422191   -3.4139736   0.75298501   426349 
 4680000   0.60621936   -3.4137641   -3.4137641   -2.6601849  0.037453841   -3.4137641   0.75357928   426349 
 4681000   0.60661765   -3.4143698   -3.4143698   -2.6602954  0.033079265   -3.4143698   0.75407439   426349 
 4682000   0.60691649   -3.4148209   -3.4148209    -2.660375   0.03705857   -3.4148209   0.75444587   426349 
 4683000   0.60602783     -3.41291     -3.41291   -2.6595688  0.039406785     -3.41291   0.75334119   426349 
 4684000   0.60634364   -3.4126698   -3.4126698   -2.6589361   0.03602978   -3.4126698   0.75373377   426349 
 4685000   0.60671202   -3.4131798   -3.4131798   -2.6589881  0.026131907   -3.4131798    0.7541917   426349 
 4686000   0.60550498   -3.4121453   -3.4121453    -2.659454  0.035530331   -3.4121453   0.75269125   426349 
 4687000   0.60567383   -3.4122384   -3.4122384   -2.6593372  0.028382237   -3.4122384   0.75290114   426349 
 4688000    0.6062204   -3.4133322   -3.4133322   -2.6597517  0.044686199   -3.4133322   0.75358058   426349 
 4689000   0.60557029   -3.4121846   -3.4121846   -2.6594122  0.035501945   -3.4121846   0.75277244   426349 
 4690000   0.60539521   -3.4123717   -3.4123717   -2.6598169  0.032646593   -3.4123717    0.7525548   426349 
 4691000   0.60548449   -3.4118952   -3.4118952   -2.6592294  0.031790865   -3.4118952   0.75266579   426349 
 4692000   0.60531123   -3.4115622   -3.4115622   -2.6591118  0.026852064   -3.4115622    0.7524504   426349 
 4693000   0.60559728   -3.4113698   -3.4113698   -2.6585638  0.045801065   -3.4113698   0.75280599   426349 
 4694000   0.60652889   -3.4129662   -3.4129662   -2.6590022  0.035195996   -3.4129662   0.75396406   426349 
 4695000   0.60644902   -3.4124181   -3.4124181   -2.6585533  0.040106955   -3.4124181   0.75386477   426349 
 4696000   0.60437589    -3.410149    -3.410149   -2.6588613   0.02949937    -3.410149    0.7512877   426349 
 4697000    0.6050785   -3.4116201   -3.4116201    -2.659459  0.042389643   -3.4116201    0.7521611   426349 
 4698000   0.60577216   -3.4116613   -3.4116613   -2.6586379  0.037285913   -3.4116613   0.75302338   426349 
 4699000   0.60455141   -3.4107698   -3.4107698   -2.6592639  0.036696061   -3.4107698   0.75150589   426349 
 4700000   0.60561798   -3.4120475   -3.4120475   -2.6592158  0.042062837   -3.4120475   0.75283172   426349 
 4701000   0.60441842    -3.410883    -3.410883   -2.6595424   0.04119959    -3.410883   0.75134057   426349 
 4702000   0.60544332   -3.4117182   -3.4117182   -2.6591036  0.032175086   -3.4117182    0.7526146   426349 
 4703000   0.60575236   -3.4119757   -3.4119757    -2.658977  0.034650634   -3.4119757   0.75299876   426349 
 4704000   0.60673886   -3.4141974   -3.4141974   -2.6599724  0.044472693   -3.4141974   0.75422506   426349 
 4705000   0.60642736   -3.4131185   -3.4131185   -2.6592807  0.025619795   -3.4131185   0.75383784   426349 
 4706000    0.6064726   -3.4135195   -3.4135195   -2.6596255  0.029393347   -3.4135195   0.75389408   426349 
 4707000   0.60656286   -3.4144747   -3.4144747   -2.6604684  0.019633317   -3.4144747   0.75400628   426349 
 4708000   0.60633187   -3.4142834   -3.4142834   -2.6605642  0.041396788   -3.4142834   0.75371914   426349 
 4709000   0.60672401   -3.4146383   -3.4146383   -2.6604317  0.040621857   -3.4146383   0.75420661   426349 
 4710000    0.6058252   -3.4130403   -3.4130403    -2.659951  0.044641232   -3.4130403   0.75308931   426349 
 4711000   0.60698873   -3.4147632   -3.4147632   -2.6602275  0.041733579   -3.4147632   0.75453567   426349 
 4712000   0.60721828     -3.41439     -3.41439   -2.6595689  0.036068244     -3.41439   0.75482102   426349 
 4713000   0.60693399   -3.4146752   -3.4146752   -2.6602076  0.032578377   -3.4146752   0.75446763   426349 
 4714000   0.60696164   -3.4148573   -3.4148573   -2.6603553    0.0309505   -3.4148573     0.754502   426349 
 4715000   0.60664168   -3.4140637   -3.4140637   -2.6599595  0.033604841   -3.4140637   0.75410426   426349 
 4716000   0.60636465   -3.4147283   -3.4147283   -2.6609684  0.028295263   -3.4147283   0.75375989   426349 
 4717000   0.60640934   -3.4144659   -3.4144659   -2.6606504  0.037453684   -3.4144659   0.75381544   426349 
 4718000   0.60725415    -3.415965    -3.415965   -2.6610993  0.040856839    -3.415965   0.75486561   426349 
 4719000    0.6081158   -3.4167851   -3.4167851   -2.6608484  0.043180525   -3.4167851   0.75593671   426349 
 4720000   0.60646417   -3.4153057   -3.4153057   -2.6614221   0.02911854   -3.4153057    0.7538836   426349 
 4721000   0.60586765    -3.414597    -3.414597   -2.6614549  0.031275082    -3.414597   0.75314208   426349 
 4722000   0.60525145   -3.4135703   -3.4135703   -2.6611942  0.037522349   -3.4135703    0.7523761   426349 
 4723000   0.60479999   -3.4125189   -3.4125189    -2.660704  0.030442703   -3.4125189    0.7518149   426349 
 4724000   0.60480506   -3.4122376   -3.4122376   -2.6604164  0.043861144   -3.4122376   0.75182119   426349 
 4725000   0.60607153   -3.4137442   -3.4137442   -2.6603486  0.024472941   -3.4137442   0.75339552   426349 
 4726000   0.60494101   -3.4127913   -3.4127913   -2.6608011  0.026869321   -3.4127913    0.7519902   426349 
 4727000   0.60596016   -3.4130718   -3.4130718   -2.6598147   0.03900897   -3.4130718   0.75325707   426349 
 4728000   0.60605813   -3.4138563   -3.4138563   -2.6604775  0.038015805   -3.4138563   0.75337887   426349 
 4729000   0.60560704   -3.4131093   -3.4131093   -2.6602912  0.032868683   -3.4131093   0.75281812   426349 
 4730000   0.60403082   -3.4117908   -3.4117908   -2.6609321  0.038959575   -3.4117908   0.75085876   426349 
 4731000   0.60433966   -3.4126391   -3.4126391   -2.6613964  0.037185408   -3.4126391   0.75124266   426349 
 4732000   0.60436595   -3.4122291   -3.4122291   -2.6609538  0.037771093   -3.4122291   0.75127534   426349 
 4733000   0.60540483   -3.4124275   -3.4124275   -2.6598608  0.039162335   -3.4124275   0.75256676   426349 
 4734000   0.60611588   -3.4129725   -3.4129725   -2.6595219  0.029827202   -3.4129725   0.75345065   426349 
 4735000   0.60644676   -3.4133074   -3.4133074   -2.6594455  0.041906662   -3.4133074   0.75386196   426349 
 4736000   0.60693305   -3.4139725   -3.4139725    -2.659506  0.034100507   -3.4139725   0.75446646   426349 
 4737000   0.60695798   -3.4137258   -3.4137258   -2.6592284  0.035631566   -3.4137258   0.75449745   426349 
 4738000   0.60590359   -3.4131809   -3.4131809   -2.6599941  0.035764526   -3.4131809   0.75318676   426349 
 4739000   0.60694087    -3.413341    -3.413341   -2.6588648  0.042134048    -3.413341   0.75447618   426349 
 4740000   0.60587324   -3.4121325   -3.4121325   -2.6589835  0.047946422   -3.4121325   0.75314902   426349 
 4741000   0.60552427   -3.4125952   -3.4125952     -2.65988   0.04356797   -3.4125952   0.75271523   426349 
 4742000   0.60612371   -3.4134694   -3.4134694    -2.660009  0.035776696   -3.4134694   0.75346039   426349 
 4743000   0.60633713   -3.4140712   -3.4140712   -2.6603456  0.040675566   -3.4140712   0.75372569   426349 
 4744000   0.60556001   -3.4127943   -3.4127943   -2.6600346  0.034336616   -3.4127943   0.75275966   426349 
 4745000   0.60691393   -3.4135714   -3.4135714   -2.6591287  0.026145288   -3.4135714   0.75444269   426349 
 4746000   0.60765925   -3.4150508   -3.4150508   -2.6596816  0.039058715   -3.4150508   0.75536918   426349 
 4747000   0.60496681   -3.4124346   -3.4124346   -2.6604123  0.034646978   -3.4124346   0.75202226   426349 
 4748000   0.60547832   -3.4134638   -3.4134638   -2.6608057  0.036332082   -3.4134638   0.75265811   426349 
 4749000   0.60508198   -3.4126835   -3.4126835    -2.660518  0.039412206   -3.4126835   0.75216543   426349 
 4750000   0.60688997   -3.4148254   -3.4148254   -2.6604125  0.037771286   -3.4148254    0.7544129   426349 
 4751000   0.60581513   -3.4134193   -3.4134193   -2.6603425  0.042084126   -3.4134193    0.7530768   426349 
 4752000   0.60624889   -3.4143154   -3.4143154   -2.6606994  0.047457424   -3.4143154   0.75361599   426349 
 4753000   0.60647149    -3.415355    -3.415355   -2.6614623  0.034124777    -3.415355    0.7538927   426349 
 4754000   0.60553002   -3.4146324   -3.4146324     -2.66191  0.033954262   -3.4146324   0.75272238   426349 
 4755000   0.60585827   -3.4145916   -3.4145916   -2.6614611  0.038893468   -3.4145916   0.75313042   426349 
 4756000   0.60525633   -3.4138265   -3.4138265   -2.6614443  0.037681182   -3.4138265   0.75238215   426349 
 4757000   0.60547682   -3.4142368   -3.4142368   -2.6615805  0.033808181   -3.4142368   0.75265625   426349 
 4758000   0.60377151   -3.4124805   -3.4124805   -2.6619441  0.037003177   -3.4124805   0.75053641   426349 
 4759000   0.60517426   -3.4141567   -3.4141567   -2.6618765  0.024034829   -3.4141567   0.75228014   426349 
 4760000   0.60658623   -3.4150782   -3.4150782   -2.6610429   0.03850055   -3.4150782   0.75403534   426349 
 4761000   0.60550471   -3.4139536   -3.4139536   -2.6612627  0.030332515   -3.4139536   0.75269091   426349 
 4762000    0.6055798   -3.4140329   -3.4140329   -2.6612487  0.053021679   -3.4140329   0.75278425   426349 
 4763000   0.60477187   -3.4139028   -3.4139028   -2.6621229  0.039919241   -3.4139028   0.75177993   426349 
 4764000   0.60519488   -3.4145458   -3.4145458   -2.6622401  0.033158248   -3.4145458   0.75230577   426349 
 4765000    0.6052835   -3.4144576   -3.4144576   -2.6620416  0.027923456   -3.4144576   0.75241594   426349 
 4766000    0.6059205   -3.4151076   -3.4151076   -2.6618998  0.042872344   -3.4151076   0.75320778   426349 
 4767000   0.60570674   -3.4147441   -3.4147441    -2.661802  0.041710972   -3.4147441   0.75294206   426349 
 4768000   0.60639093   -3.4159458   -3.4159458   -2.6621532   0.03047184   -3.4159458   0.75379256   426349 
 4769000   0.60546873   -3.4140182   -3.4140182    -2.661372  0.031891735   -3.4140182   0.75264619   426349 
 4770000   0.60713876   -3.4159469   -3.4159469   -2.6612248  0.028130889   -3.4159469   0.75472217   426349 
 4771000   0.60523394   -3.4139623   -3.4139623    -2.661608  0.044783229   -3.4139623   0.75235433   426349 
 4772000   0.60566155    -3.414922    -3.414922   -2.6620361  0.049651871    -3.414922   0.75288589   426349 
 4773000   0.60556747   -3.4141575   -3.4141575   -2.6613886  0.033614514   -3.4141575   0.75276893   426349 
 4774000   0.60470513   -3.4134658   -3.4134658   -2.6617688   0.04260379   -3.4134658   0.75169697   426349 
 4775000   0.60631837   -3.4151892   -3.4151892   -2.6614869  0.039598044   -3.4151892   0.75370236   426349 
 4776000   0.60523522   -3.4142331   -3.4142331   -2.6618772  0.030484561   -3.4142331   0.75235591   426349 
 4777000   0.60573624   -3.4152992   -3.4152992   -2.6623204  0.016163582   -3.4152992   0.75297872   426349 
 4778000   0.60497803   -3.4143808   -3.4143808   -2.6623446  0.035572712   -3.4143808   0.75203621   426349 
 4779000   0.60583128   -3.4155359   -3.4155359   -2.6624391  0.041660425   -3.4155359   0.75309687   426349 
 4780000   0.60555426   -3.4159856   -3.4159856   -2.6632331  0.028407271   -3.4159856   0.75275251   426349 
 4781000   0.60549696   -3.4156494   -3.4156494   -2.6629681  0.025570808   -3.4156494   0.75268128   426349 
 4782000   0.60474448   -3.4150821   -3.4150821   -2.6633362  0.037203292   -3.4150821   0.75174588   426349 
 4783000   0.60527693   -3.4156514   -3.4156514   -2.6632437  0.027796295   -3.4156514   0.75240777   426349 
 4784000   0.60652229   -3.4172606   -3.4172606   -2.6633048  0.033620464   -3.4172606   0.75395585   426349 
 4785000    0.6050674    -3.415774    -3.415774   -2.6636267  0.041057591    -3.415774   0.75214731   426349 
 4786000   0.60539868   -3.4165878   -3.4165878   -2.6640287  0.031987304   -3.4165878   0.75255911   426349 
 4787000   0.60459394   -3.4158408   -3.4158408   -2.6642821  0.033765969   -3.4158408   0.75155875   426349 
 4788000   0.60468281   -3.4157093   -3.4157093     -2.66404  0.030991133   -3.4157093   0.75166923   426349 
 4789000    0.6056201   -3.4163477   -3.4163477   -2.6635134  0.038397527   -3.4163477   0.75283436   426349 
 4790000   0.60574896   -3.4160239   -3.4160239   -2.6630293  0.040924207   -3.4160239   0.75299454   426349 
 4791000   0.60600224   -3.4163816   -3.4163816   -2.6630722  0.036237247   -3.4163816   0.75330938   426349 
 4792000   0.60592777   -3.4160052   -3.4160052   -2.6627884  0.048557634   -3.4160052   0.75321682   426349 
 4793000   0.60597052    -3.416812    -3.416812    -2.663542   0.03035756    -3.416812   0.75326995   426349 
 4794000   0.60588306   -3.4171632   -3.4171632   -2.6640019  0.052935166   -3.4171632   0.75316124   426349 
 4795000   0.60610218   -3.4175195   -3.4175195   -2.6640859  0.034442175   -3.4175195   0.75343362   426349 
 4796000   0.60535159   -3.4171144   -3.4171144   -2.6646138  0.039344121   -3.4171144   0.75250057   426349 
 4797000   0.60586898   -3.4175829   -3.4175829   -2.6644392  0.023307876   -3.4175829   0.75314374   426349 
 4798000   0.60638248   -3.4185647   -3.4185647   -2.6647827  0.037649456   -3.4185647   0.75378206   426349 
 4799000   0.60486855   -3.4164227   -3.4164227   -2.6645225     0.034908   -3.4164227   0.75190012   426349 
 4800000   0.60415726   -3.4159851   -3.4159851   -2.6649692  0.033072339   -3.4159851   0.75101592   426349 
 4801000   0.60430006   -3.4163105   -3.4163105    -2.665117  0.039818718   -3.4163105   0.75119344   426349 
 4802000   0.60468506   -3.4161601   -3.4161601   -2.6644881  0.026661095   -3.4161601   0.75167202   426349 
 4803000   0.60457964   -3.4153257   -3.4153257   -2.6637847  0.019694168   -3.4153257   0.75154098   426349 
 4804000   0.60534565   -3.4162103   -3.4162103   -2.6637171  0.032124192   -3.4162103   0.75249319   426349 
 4805000   0.60500124   -3.4163017   -3.4163017   -2.6642367   0.03721763   -3.4163017   0.75206506   426349 
 4806000   0.60500627   -3.4160595   -3.4160595   -2.6639881     0.032253   -3.4160595   0.75207132   426349 
 4807000   0.60549612   -3.4162937   -3.4162937   -2.6636135  0.037259812   -3.4162937   0.75268023   426349 
 4808000   0.60464717   -3.4151581   -3.4151581   -2.6635332  0.042144328   -3.4151581   0.75162493   426349 
 4809000   0.60478686   -3.4153105   -3.4153105   -2.6635119  0.039775784   -3.4153105   0.75179856   426349 
 4810000   0.60566534   -3.4162642   -3.4162642   -2.6633736  0.024760414   -3.4162642    0.7528906   426349 
 4811000   0.60609959   -3.4168405   -3.4168405   -2.6634101  0.033071672   -3.4168405    0.7534304   426349 
 4812000   0.60647998   -3.4174608   -3.4174608   -2.6635576  0.038157095   -3.4174608   0.75390326   426349 
 4813000   0.60568515   -3.4164562   -3.4164562    -2.663541  0.042410554   -3.4164562   0.75291522   426349 
 4814000   0.60564938   -3.4170078   -3.4170078   -2.6641371  0.042659776   -3.4170078   0.75287076   426349 
 4815000   0.60438664   -3.4152798   -3.4152798   -2.6639788  0.029599505   -3.4152798   0.75130106   426349 
 4816000   0.60479513   -3.4163455   -3.4163455   -2.6645366   0.03191564   -3.4163455   0.75180885   426349 
 4817000   0.60598521   -3.4170709   -3.4170709   -2.6637827  0.034688929   -3.4170709   0.75328822   426349 
 4818000   0.60413517   -3.4156492   -3.4156492   -2.6646607  0.019458856   -3.4156492   0.75098847   426349 
 4819000   0.60367368   -3.4147245   -3.4147245   -2.6643097  0.037767327   -3.4147245   0.75041479   426349 
 4820000   0.60468732   -3.4151536   -3.4151536   -2.6634788  0.040154534   -3.4151536   0.75167483   426349 
 4821000   0.60525504   -3.4153851   -3.4153851   -2.6630045  0.035471443   -3.4153851   0.75238056   426349 
 4822000   0.60519165   -3.4151515   -3.4151515   -2.6628498  0.042774458   -3.4151515   0.75230176   426349 
 4823000   0.60505997   -3.4150998   -3.4150998   -2.6629617  0.039883561   -3.4150998   0.75213806   426349 
 4824000   0.60547799   -3.4155178   -3.4155178   -2.6628601  0.045031166   -3.4155178    0.7526577   426349 
 4825000   0.60463589   -3.4153364   -3.4153364   -2.6637255  0.031817532   -3.4153364    0.7516109   426349 
 4826000   0.60535055   -3.4160953   -3.4160953    -2.663596  0.037468921   -3.4160953   0.75249929   426349 
 4827000   0.60434349    -3.415117    -3.415117   -2.6638696  0.032270242    -3.415117   0.75124742   426349 
 4828000    0.6046563   -3.4151474   -3.4151474   -2.6635111  0.039597495   -3.4151474   0.75163628   426349 
 4829000   0.60354565   -3.4136806   -3.4136806   -2.6634249  0.039365154   -3.4136806   0.75025564   426349 
 4830000   0.60412914   -3.4143844   -3.4143844   -2.6634034  0.035502009   -3.4143844   0.75098097   426349 
 4831000   0.60561806   -3.4159419   -3.4159419   -2.6631101  0.036944454   -3.4159419   0.75283182   426349 
 4832000   0.60557564   -3.4152721   -3.4152721    -2.662493   0.04315646   -3.4152721   0.75277908   426349 
 4833000   0.60617355   -3.4163017   -3.4163017   -2.6627794  0.028044121   -3.4163017   0.75352234   426349 
 4834000   0.60382999   -3.4140608   -3.4140608   -2.6634517  0.033551745   -3.4140608    0.7506091   426349 
 4835000   0.60553168   -3.4153616   -3.4153616   -2.6626372  0.036858337   -3.4153616   0.75272444   426349 
 4836000   0.60495832   -3.4147013   -3.4147013   -2.6626896  0.041502789   -3.4147013   0.75201171   426349 
 4837000   0.60555836   -3.4161658   -3.4161658   -2.6634082  0.041115178   -3.4161658   0.75275761   426349 
 4838000   0.60450784   -3.4148485   -3.4148485   -2.6633968  0.037349308   -3.4148485   0.75145173   426349 
 4839000   0.60518022   -3.4150598   -3.4150598   -2.6627723  0.035955637   -3.4150598   0.75228755   426349 
 4840000   0.60492506   -3.4145401   -3.4145401   -2.6625698  0.041935435   -3.4145401   0.75197036   426349 
 4841000   0.60468116   -3.4135688   -3.4135688   -2.6619016  0.038630373   -3.4135688   0.75166718   426349 
 4842000   0.60596192    -3.415447    -3.415447   -2.6621877  0.029908183    -3.415447   0.75325927   426349 
 4843000   0.60525491   -3.4140714   -3.4140714    -2.661691  0.039291603   -3.4140714   0.75238039   426349 
 4844000   0.60607261   -3.4154226   -3.4154226   -2.6620257  0.031141481   -3.4154226   0.75339686   426349 
 4845000     0.604762   -3.4136958   -3.4136958   -2.6619282  0.041126527   -3.4136958   0.75176767   426349 
 4846000   0.60479989   -3.4134877   -3.4134877   -2.6616729   0.03316045   -3.4134877   0.75181477   426349 
 4847000   0.60486566    -3.413624    -3.413624   -2.6617275   0.03302638    -3.413624   0.75189652   426349 
 4848000   0.60423885   -3.4135811   -3.4135811   -2.6624638  0.035561583   -3.4135811   0.75111735   426349 
 4849000   0.60255317   -3.4119506   -3.4119506   -2.6629287  0.038231708   -3.4119506   0.74902191   426349 
 4850000   0.60477492   -3.4151265   -3.4151265   -2.6633428   0.03401237   -3.4151265   0.75178373   426349 
 4851000   0.60430683   -3.4133153   -3.4133153   -2.6621134  0.034173784   -3.4133153   0.75120185   426349 
 4852000   0.60487846   -3.4146755   -3.4146755   -2.6627631  0.035048797   -3.4146755   0.75191244   426349 
 4853000   0.60435431   -3.4143319   -3.4143319    -2.663071   0.03390514   -3.4143319   0.75126088   426349 
 4854000   0.60443425   -3.4143593   -3.4143593    -2.662999   0.03674848   -3.4143593   0.75136025   426349 
 4855000    0.6051082   -3.4154098   -3.4154098   -2.6632118  0.024923303   -3.4154098   0.75219802   426349 
 4856000   0.60356926   -3.4140187   -3.4140187   -2.6637337  0.035953386   -3.4140187   0.75028499   426349 
 4857000   0.60507532   -3.4152437   -3.4152437   -2.6630865  0.045301151   -3.4152437   0.75215715   426349 
 4858000   0.60473079   -3.4148915   -3.4148915   -2.6631626  0.032978552   -3.4148915   0.75172887   426349 
 4859000   0.60399535   -3.4140768   -3.4140768   -2.6632622  0.040265044   -3.4140768   0.75081466   426349 
 4860000    0.6055323   -3.4155645   -3.4155645   -2.6628393  0.045759287   -3.4155645   0.75272521   426349 
 4861000   0.60410525   -3.4139826   -3.4139826   -2.6630313  0.033530965   -3.4139826   0.75095128   426349 
 4862000   0.60408722   -3.4141364   -3.4141364   -2.6632075   0.02020094   -3.4141364   0.75092886   426349 
 4863000   0.60366405   -3.4144797   -3.4144797   -2.6640769  0.039711611   -3.4144797   0.75040283   426349 
 4864000   0.60576092    -3.416178    -3.416178   -2.6631686  0.032903288    -3.416178   0.75300941   426349 
 4865000   0.60626345   -3.4167807   -3.4167807   -2.6631467  0.031694066   -3.4167807   0.75363408   426349 
 4866000   0.60502198   -3.4156334   -3.4156334   -2.6635425   0.03071446   -3.4156334   0.75209084   426349 
 4867000   0.60500713   -3.4157484   -3.4157484    -2.663676  0.037951212   -3.4157484   0.75207238   426349 
 4868000    0.6042634   -3.4153568   -3.4153568   -2.6642089  0.039223047   -3.4153568   0.75114787   426349 
 4869000   0.60414229   -3.4151374   -3.4151374   -2.6641401  0.042587457   -3.4151374   0.75099731   426349 
 4870000   0.60472345   -3.4159785   -3.4159785   -2.6642588   0.04463777   -3.4159785   0.75171975   426349 
 4871000   0.60499324   -3.4155533   -3.4155533   -2.6634982  0.034428332   -3.4155533   0.75205512   426349 
 4872000   0.60511926   -3.4162011   -3.4162011   -2.6639894  0.039792438   -3.4162011   0.75221178   426349 
 4873000   0.60544538   -3.4163567   -3.4163567   -2.6637395  0.032144948   -3.4163567   0.75261716   426349 
 4874000   0.60442527    -3.415533    -3.415533    -2.664184  0.032473178    -3.415533   0.75134908   426349 
 4875000   0.60425031   -3.4148844   -3.4148844   -2.6637528  0.037300001   -3.4148844    0.7511316   426349 
 4876000   0.60424345   -3.4157157   -3.4157157   -2.6645927  0.043959051   -3.4157157   0.75112307   426349 
 4877000   0.60506269   -3.4158997   -3.4158997   -2.6637583  0.029323927   -3.4158997   0.75214145   426349 
 4878000   0.60382976   -3.4140462   -3.4140462   -2.6634374  0.046289493   -3.4140462   0.75060882   426349 
 4879000     0.605295    -3.415665    -3.415665   -2.6632347  0.037184997    -3.415665   0.75243023   426349 
 4880000   0.60479302   -3.4146414   -3.4146414   -2.6628352  0.029037606   -3.4146414   0.75180623   426349 
 4881000   0.60490274   -3.4144052   -3.4144052   -2.6624626  0.038329621   -3.4144052   0.75194262   426349 
 4882000   0.60480627   -3.4145638   -3.4145638   -2.6627411  0.042338612   -3.4145638    0.7518227   426349 
 4883000   0.60523569   -3.4151502   -3.4151502   -2.6627937   0.03605778   -3.4151502   0.75235651   426349 
 4884000   0.60570819   -3.4158564   -3.4158564   -2.6629126  0.033666787   -3.4158564   0.75294386   426349 
 4885000   0.60463521   -3.4141605   -3.4141605   -2.6625504   0.03185227   -3.4141605   0.75161005   426349 
 4886000   0.60435788   -3.4138037   -3.4138037   -2.6625384  0.039757765   -3.4138037   0.75126532   426349 
 4887000   0.60432487   -3.4143512   -3.4143512   -2.6631269  0.031565577   -3.4143512   0.75122429   426349 
 4888000   0.60531642   -3.4152647   -3.4152647   -2.6628078   0.02951962   -3.4152647   0.75245686   426349 
 4889000   0.60422464   -3.4136555   -3.4136555   -2.6625558  0.041826058   -3.4136555   0.75109969   426349 
 4890000   0.60476496   -3.4144153   -3.4144153    -2.662644  0.037975733   -3.4144153   0.75177134   426349 
 4891000   0.60479525   -3.4145928   -3.4145928   -2.6627838  0.037001484   -3.4145928   0.75180899   426349 
 4892000   0.60440872   -3.4144561   -3.4144561   -2.6631276   0.02455963   -3.4144561   0.75132852   426349 
 4893000   0.60453338    -3.414586    -3.414586   -2.6631025  0.033545981    -3.414586   0.75148348   426349 
 4894000   0.60482416   -3.4155782   -3.4155782   -2.6637333  0.036855814   -3.4155782   0.75184494   426349 
 4895000   0.60476261   -3.4153798   -3.4153798   -2.6636113  0.042147251   -3.4153798   0.75176842   426349 
 4896000   0.60362136   -3.4134136   -3.4134136   -2.6630638  0.032873079   -3.4134136   0.75034976   426349 
 4897000    0.6052962   -3.4150577   -3.4150577    -2.662626  0.019244364   -3.4150577   0.75243172   426349 
 4898000   0.60466477   -3.4151071   -3.4151071   -2.6634603  0.029840622   -3.4151071    0.7516468   426349 
 4899000   0.60441114    -3.414897    -3.414897   -2.6635655  0.035495843    -3.414897   0.75133152   426349 
 4900000   0.60479348   -3.4151407   -3.4151407   -2.6633339  0.028992505   -3.4151407    0.7518068   426349 
 4901000   0.60511527   -3.4156666   -3.4156666   -2.6634598  0.047354653   -3.4156666   0.75220681   426349 
 4902000   0.60507855   -3.4159071   -3.4159071   -2.6637459  0.036790295   -3.4159071   0.75216116   426349 
 4903000    0.6044114   -3.4142909   -3.4142909    -2.662959   0.04878629   -3.4142909   0.75133185   426349 
 4904000   0.60568112   -3.4162606   -3.4162606   -2.6633504   0.03608166   -3.4162606   0.75291021   426349 
 4905000   0.60579673    -3.415786    -3.415786   -2.6627321  0.035360674    -3.415786   0.75305392   426349 
 4906000   0.60575727   -3.4154355   -3.4154355   -2.6624307  0.032178569   -3.4154355   0.75300487   426349 
 4907000    0.6058132   -3.4158223   -3.4158223   -2.6627479  0.041323955   -3.4158223    0.7530744   426349 
 4908000   0.60537948   -3.4153828   -3.4153828   -2.6628475  0.036205546   -3.4153828   0.75253524   426349 
 4909000   0.60593775    -3.416456    -3.416456   -2.6632268  0.042323671    -3.416456   0.75322921   426349 
 4910000   0.60527101   -3.4147344   -3.4147344    -2.662334  0.034231495   -3.4147344    0.7524004   426349 
 4911000   0.60504397   -3.4142241   -3.4142241   -2.6621059  0.039717779   -3.4142241   0.75211818   426349 
 4912000   0.60524547   -3.4152378   -3.4152378   -2.6628692  0.034779751   -3.4152378   0.75236865   426349 
 4913000   0.60509871   -3.4161559   -3.4161559   -2.6639697  0.027324912   -3.4161559   0.75218622   426349 
 4914000   0.60505402   -3.4159087   -3.4159087    -2.663778  0.028044288   -3.4159087   0.75213067   426349 
 4915000    0.6048983    -3.415763    -3.415763   -2.6638259  0.034842452    -3.415763    0.7519371   426349 
 4916000   0.60562188   -3.4162305   -3.4162305   -2.6633939  0.031553311   -3.4162305   0.75283656   426349 
 4917000   0.60500508   -3.4152015   -3.4152015   -2.6631317   0.03160699   -3.4152015   0.75206983   426349 
 4918000   0.60592162   -3.4157075   -3.4157075   -2.6624983  0.037997276   -3.4157075   0.75320917   426349 
 4919000   0.60646104   -3.4161543   -3.4161543   -2.6622746  0.046199795   -3.4161543   0.75387972   426349 
 4920000   0.60653543   -3.4166132   -3.4166132    -2.662641  0.026874303   -3.4166132   0.75397218   426349 
 4921000   0.60522518   -3.4154864   -3.4154864   -2.6631429  0.028403529   -3.4154864   0.75234344   426349 
 4922000   0.60540633   -3.4157355   -3.4157355   -2.6631669  0.034836966   -3.4157355   0.75256862   426349 
 4923000   0.60413165   -3.4132634   -3.4132634   -2.6622793  0.045170713   -3.4132634    0.7509841   426349 
 4924000    0.6045562   -3.4150923   -3.4150923   -2.6635804  0.033531627   -3.4150923   0.75151184   426349 
 4925000    0.6051091   -3.4145584   -3.4145584   -2.6623593  0.033902627   -3.4145584   0.75219914   426349 
 4926000   0.60620318   -3.4156053   -3.4156053   -2.6620462  0.033553144   -3.4156053   0.75355917   426349 
 4927000   0.60513857   -3.4138037   -3.4138037    -2.661568   0.03629208   -3.4138037   0.75223577   426349 
 4928000   0.60599338   -3.4150868   -3.4150868   -2.6617885   0.03065417   -3.4150868   0.75329837   426349 
 4929000   0.60568707    -3.414364    -3.414364   -2.6614464  0.044702449    -3.414364    0.7529176   426349 
 4930000   0.60483849   -3.4134565   -3.4134565   -2.6615937   0.03514727   -3.4134565   0.75186275   426349 
 4931000   0.60587478    -3.415048    -3.415048    -2.661897  0.037461638    -3.415048   0.75315094   426349 
 4932000   0.60406302   -3.4131506   -3.4131506   -2.6622519  0.031259656   -3.4131506   0.75089877   426349 
 4933000   0.60482765   -3.4142081   -3.4142081   -2.6623589  0.032579479   -3.4142081   0.75184928   426349 
 4934000   0.60394376   -3.4135624   -3.4135624   -2.6628119  0.033767589   -3.4135624   0.75075053   426349 
 4935000   0.60372824   -3.4128861   -3.4128861   -2.6624035  0.047600003   -3.4128861   0.75048262   426349 
 4936000   0.60511207   -3.4145991   -3.4145991   -2.6623962  0.032986918   -3.4145991   0.75220283   426349 
 4937000   0.60480648   -3.4141817   -3.4141817   -2.6623587   0.04065612   -3.4141817   0.75182296   426349 
 4938000   0.60494537   -3.4145124   -3.4145124   -2.6625168  0.039273084   -3.4145124   0.75199561   426349 
 4939000   0.60440411   -3.4139084   -3.4139084   -2.6625856  0.042488737   -3.4139084   0.75132278   426349 
 4940000   0.60582085   -3.4154996   -3.4154996   -2.6624157  0.035796205   -3.4154996    0.7530839   426349 
 4941000   0.60463293   -3.4138261   -3.4138261   -2.6622188  0.031193046   -3.4138261   0.75160722   426349 
 4942000   0.60659765   -3.4166445   -3.4166445   -2.6625949  0.041197701   -3.4166445   0.75404953   426349 
 4943000   0.60507975   -3.4142986   -3.4142986   -2.6621359  0.033711204   -3.4142986   0.75216266   426349 
 4944000   0.60476415   -3.4147198   -3.4147198   -2.6629494  0.034109788   -3.4147198   0.75177034   426349 
 4945000   0.60270305   -3.4117037   -3.4117037   -2.6624955  0.028643127   -3.4117037   0.74920822   426349 
 4946000   0.60457695   -3.4145134   -3.4145134   -2.6629757  0.035815123   -3.4145134   0.75153764   426349 
 4947000    0.6052649   -3.4149561   -3.4149561   -2.6625633  0.030227096   -3.4149561   0.75239281   426349 
 4948000   0.60509725   -3.4151828   -3.4151828   -2.6629984  0.038864903   -3.4151828   0.75218441   426349 
 4949000   0.60491018      -3.4148      -3.4148   -2.6628481  0.031845721      -3.4148   0.75195187   426349 
 4950000   0.60378566    -3.412774    -3.412774     -2.66222  0.029315091    -3.412774   0.75055399   426349 
 4951000   0.60519391   -3.4147226   -3.4147226   -2.6624181  0.031704923   -3.4147226   0.75230456   426349 
 4952000   0.60458563   -3.4149878   -3.4149878   -2.6634394  0.032621728   -3.4149878   0.75154843   426349 
 4953000   0.60470437   -3.4146886   -3.4146886   -2.6629925  0.050810463   -3.4146886   0.75169603   426349 
 4954000   0.60510843    -3.415099    -3.415099   -2.6629007   0.03443133    -3.415099    0.7521983   426349 
 4955000   0.60567577   -3.4160702   -3.4160702   -2.6631667  0.041809063   -3.4160702   0.75290356   426349 
 4956000   0.60449983   -3.4136593   -3.4136593   -2.6622175   0.03324048   -3.4136593   0.75144177   426349 
 4957000   0.60481024   -3.4141985   -3.4141985   -2.6623708  0.041005879   -3.4141985   0.75182764   426349 
 4958000   0.60606933   -3.4144865   -3.4144865   -2.6610937  0.037655213   -3.4144865   0.75339278   426349 
 4959000   0.60476302   -3.4142637   -3.4142637   -2.6624948  0.029247928   -3.4142637   0.75176894   426349 
 4960000   0.60440903   -3.4139885   -3.4139885   -2.6626596  0.035672175   -3.4139885    0.7513289   426349 
 4961000     0.606025   -3.4156743   -3.4156743   -2.6623367  0.029758298   -3.4156743   0.75333768   426349 
 4962000   0.60485817   -3.4143771   -3.4143771   -2.6624899  0.029439756   -3.4143771   0.75188722   426349 
 4963000   0.60484608   -3.4133222   -3.4133222     -2.66145  0.030190459   -3.4133222   0.75187219   426349 
 4964000   0.60499096   -3.4137627   -3.4137627   -2.6617104  0.044093975   -3.4137627   0.75205229   426349 
 4965000   0.60528682   -3.4140022   -3.4140022   -2.6615822  0.034724215   -3.4140022   0.75242006   426349 
 4966000   0.60493333    -3.414144    -3.414144   -2.6621634  0.037995386    -3.414144   0.75198064   426349 
 4967000   0.60533064   -3.4146536   -3.4146536   -2.6621791   0.04020532   -3.4146536   0.75247453   426349 
 4968000   0.60426816   -3.4128812   -3.4128812   -2.6617275  0.031168459   -3.4128812   0.75115378   426349 
 4969000   0.60467337   -3.4138483   -3.4138483   -2.6621908  0.042930062   -3.4138483   0.75165749   426349 
 4970000   0.60551713   -3.4146553   -3.4146553    -2.661949  0.027657055   -3.4146553   0.75270636   426349 
 4971000    0.6053854   -3.4141794   -3.4141794   -2.6616368  0.040830806   -3.4141794    0.7525426   426349 
 4972000   0.60438479   -3.4132488   -3.4132488     -2.66195  0.037620217   -3.4132488   0.75129877   426349 
 4973000    0.6036335   -3.4123734   -3.4123734   -2.6620086  0.044574116   -3.4123734   0.75036485   426349 
 4974000   0.60295468    -3.411645    -3.411645    -2.662124  0.029817447    -3.411645   0.74952102   426349 
 4975000   0.60292415   -3.4121913   -3.4121913   -2.6627082  0.048621182   -3.4121913   0.74948307   426349 
 4976000   0.60547721   -3.4148324   -3.4148324   -2.6621756  0.020169385   -3.4148324   0.75265673   426349 
 4977000   0.60513589   -3.4146143   -3.4146143   -2.6623818  0.031000893   -3.4146143   0.75223244   426349 
 4978000   0.60502558   -3.4146422   -3.4146422   -2.6625469  0.034006006   -3.4146422   0.75209532   426349 
 4979000   0.60541299   -3.4154896   -3.4154896   -2.6629127  0.043417839   -3.4154896   0.75257691   426349 
 4980000   0.60469884   -3.4144791   -3.4144791   -2.6627899  0.038520851   -3.4144791   0.75168915   426349 
 4981000   0.60581046   -3.4157484   -3.4157484   -2.6626774  0.038687875   -3.4157484   0.75307099   426349 
 4982000    0.6056288   -3.4153124   -3.4153124   -2.6624673   0.04620651   -3.4153124   0.75284517   426349 
 4983000   0.60421974   -3.4141571   -3.4141571   -2.6630636   0.05176148   -3.4141571   0.75109359   426349 
 4984000    0.6055517   -3.4157432   -3.4157432   -2.6629939  0.033715076   -3.4157432   0.75274932   426349 
 4985000   0.60469885   -3.4150502   -3.4150502   -2.6633611  0.031867428   -3.4150502   0.75168916   426349 
 4986000   0.60683343   -3.4172985   -3.4172985   -2.6629559  0.029398205   -3.4172985   0.75434262   426349 
 4987000    0.6055447   -3.4154464   -3.4154464   -2.6627057  0.039752077   -3.4154464   0.75274063   426349 
 4988000    0.6051985   -3.4148059   -3.4148059   -2.6624956  0.041699326   -3.4148059   0.75231028   426349 
 4989000   0.60602563   -3.4158899   -3.4158899   -2.6625514   0.02769522   -3.4158899   0.75333846   426349 
 4990000   0.60551262   -3.4154599   -3.4154599   -2.6627592  0.026906798   -3.4154599   0.75270074   426349 
 4991000   0.60542814   -3.4161902   -3.4161902   -2.6635945  0.031738213   -3.4161902   0.75259573   426349 
 4992000   0.60462043   -3.4143988   -3.4143988   -2.6628071  0.046044055   -3.4143988   0.75159169   426349 
 4993000   0.60478592   -3.4147322   -3.4147322   -2.6629348  0.019620089   -3.4147322    0.7517974   426349 
 4994000   0.60551824   -3.4163325   -3.4163325   -2.6636247  0.038829632   -3.4163325   0.75270773   426349 
 4995000   0.60594735   -3.4158301   -3.4158301   -2.6625889  0.036497312   -3.4158301   0.75324116   426349 
 4996000    0.6046349   -3.4136606   -3.4136606   -2.6620509  0.028477323   -3.4136606   0.75160967   426349 
 4997000   0.60603243   -3.4149938   -3.4149938   -2.6616469  0.034859607   -3.4149938   0.75334691   426349 
 4998000   0.60545694   -3.4152427   -3.4152427   -2.6626111  0.046831613   -3.4152427   0.75263154   426349 
 4999000   0.60638263   -3.4165553   -3.4165553   -2.6627731  0.040883433   -3.4165553   0.75378224   426349 
 5000000    0.6044808   -3.4143058   -3.4143058   -2.6628876  0.033820909   -3.4143058   0.75141812   426349 
Loop time of 15936.1 on 288 procs for 5000000 steps with 426349 atoms

Performance: 135541.506 tau/day, 313.753 timesteps/s
91.6% CPU use with 288 MPI tasks x 1 OpenMP threads

MPI task timing breakdown:
Section |  min time  |  avg time  |  max time  |%varavg|  %CPU | %total
-----------------------------------------------------------------------
Pair    | 337.1      | 1997.6     | 4624.3     |1552.0 |  94.9 | 12.54
Bond    | 3.2213     | 3.3981     | 3.6063     |   3.8 | 100.0 |  0.02
Neigh   | 679.35     | 3154.2     | 6564.5     |1663.5 |  99.1 | 19.79
Comm    | 2245.2     | 5723.9     | 12660      |3074.4 |  90.2 | 35.92
Output  | 619.88     | 637.37     | 652.17     |  56.2 |  88.0 |  4.00
Modify  | 832.12     | 4196.3     | 10429      |2670.7 |  89.8 | 26.33
Other   |            | 223.3      |            |       |       |  1.40

Nlocal:        1480.38 ave        2270 max         588 min
Histogram: 2 4 0 4 92 140 34 4 3 5
Nghost:        5881.89 ave        7594 max        2090 min
Histogram: 10 6 8 15 21 11 25 76 91 25
Neighs:        31052.1 ave       55403 max        3192 min
Histogram: 21 5 5 16 57 68 59 48 7 2

Total # of neighbors = 8943015
Ave neighs/atom = 20.975809
Ave special neighs/atom = 0.0000000
Neighbor list builds = 497962
Dangerous builds = 456243

Total wall time: 4:25:41
