LAMMPS (24 Dec 2020)
OMP_NUM_THREADS environment is not set. Defaulting to 1 thread. (src/comm.cpp:94)
  using 1 OpenMP thread(s) per MPI task
# Simple rigid body system
# needed variables: startTemp, temp

units		lj
atom_style	full
dimension 	3
boundary	p p f
pair_style	lj/cut/opt 2.5

variable 	gcmcdisplace	equal 0
variable 	sigma		equal 1.0
variable 	epsilon 	equal 1.0


read_restart	restart.dat.3000000
Reading restart file ...
  restart file = 24 Dec 2020, LAMMPS = 24 Dec 2020
WARNING: Restart file used different # of processors: 48 vs. 192 (src/read_restart.cpp:697)
  restoring atom style full from restart
  orthogonal box = (0.0000000 0.0000000 0.0000000) to (80.000000 80.000000 160.00000)
  6 by 4 by 8 MPI processor grid
  restoring pair style lj/cut/opt from restart
  439061 atoms
Finding 1-2 1-3 1-4 neighbors ...
  special bond factors lj:    0        0        0       
  special bond factors coul:  0        0        0       
     0 = max # of 1-2 neighbors
     0 = max # of 1-3 neighbors
     0 = max # of 1-4 neighbors
     1 = max # of special neighbors
  special bonds CPU = 1.420 seconds
  read_restart CPU = 1.715 seconds

mass		1 1.0
mass		2 1.0
mass		3 1.0


group		solvent type 1
439061 atoms in group solvent


neighbor 	0.4 bin

pair_coeff	1 1 1.0 1.0
pair_coeff	2 2 0.0 0.0
pair_coeff	3 3 0.0 0.0
pair_coeff	2 3 0.0 0.0
pair_coeff	1 2*3 0.0 0.0

pair_modify 	shift yes


balance 	1.05 shift z 10 1.05
Balancing ...
Neighbor list info ...
  update every 1 steps, delay 10 steps, check yes
  max neighbors/atom: 2000, page size: 100000
  master list distance cutoff = 2.9
  ghost atom cutoff = 2.9
  binsize = 1.45, bins = 56 56 111
  1 neighbor lists, perpetual/occasional/extra = 1 0 0
  (1) pair lj/cut/opt, perpetual
      attributes: half, newton on
      pair build: half/bin/newton
      stencil: half/bin/3d/newton
      bin: standard
 rebalancing time: 0.025 seconds
  iteration count = 5
  initial/final maximal load/proc = 3162.0000 2575.0000
  initial/final imbalance factor  = 1.3827327 1.1260394
  x cuts: 0.0000000 0.16666667 0.33333333 0.50000000 0.66666667 0.83333333 1.0000000
  y cuts: 0.0000000 0.25000000 0.50000000 0.75000000 1.0000000
  z cuts: 0.0000000 0.097656250 0.18359375 0.27734375 0.37890625 0.47656250 0.57031250 0.67968750 1.0000000


####################### WALLS ###########################


variable       epsilonWall equal 2*${epsilon}
variable       epsilonWall equal 2*1

variable       cutoffTop   equal   0.7147*${sigma}
variable       cutoffTop   equal   0.7147*1

variable       cutoffLow   equal   3*${sigma}
variable       cutoffLow   equal   3*1


fix            topWall all wall/lj93 zhi EDGE                ${epsilonWall} ${sigma} ${cutoffTop} units box
fix            topWall all wall/lj93 zhi EDGE                2 ${sigma} ${cutoffTop} units box
fix            topWall all wall/lj93 zhi EDGE                2 1 ${cutoffTop} units box
fix            topWall all wall/lj93 zhi EDGE                2 1 0.7147 units box

fix            lowWall all wall/lj93 zlo EDGE                ${epsilonWall} ${sigma} ${cutoffLow} units box
fix            lowWall all wall/lj93 zlo EDGE                2 ${sigma} ${cutoffLow} units box
fix            lowWall all wall/lj93 zlo EDGE                2 1 ${cutoffLow} units box
fix            lowWall all wall/lj93 zlo EDGE                2 1 3 units box


###################### COMPUTES ##########################

compute        bin1 solvent chunk/atom bin/1d z upper 1.0



######################	FIXES ############################


fix 		peclet solvent ave/chunk 1000 1 1000 bin1 density/number norm 		 none ave one file density.profile

fix 		 temp solvent ave/chunk 1000 1 1000 bin1 temp norm none ave one file temp.profile

fix 		2 solvent nve

## Thermostat


region		regthermo block EDGE EDGE EDGE EDGE 0 20

group 		thermo dynamic solvent region regthermo every 1000
dynamic group thermo defined

fix 		3 thermo langevin ${startTemp} ${temp} 10 156453
fix 		3 thermo langevin 1.0 ${temp} 10 156453
fix 		3 thermo langevin 1.0 1.0 10 156453


## Evaporation

region		regevap block EDGE EDGE EDGE EDGE 140 158
fix 		gcmc solvent gcmc 100 100 0 1 780493 ${temp} ${mu} ${gcmcdisplace} region regevap
fix 		gcmc solvent gcmc 100 100 0 1 780493 1.0 ${mu} ${gcmcdisplace} region regevap
fix 		gcmc solvent gcmc 100 100 0 1 780493 1.0 -2.4 ${gcmcdisplace} region regevap
fix 		gcmc solvent gcmc 100 100 0 1 780493 1.0 -2.4 0 region regevap


#### Load balancing

fix 		bal all balance 1000 1.05 shift z 10 1.05

############### Diagnostics and computes ###################
#compute 	com cube	  rigid/local	1 mol x y z
#compute 	quat cube	  rigid/local	1 mol quatw quati quatj quatk

thermo 		1000
thermo_style 	custom step temp epair etotal press pe ke atoms

dump		1 all custom 100000 dump.lammpstrj id mol type x y z
dump 		2 all image 10000 image.*.png type type
dump 		3 all movie 1000 movie.avi type type
#dump 		com cube local 1000 dump.*.xyz c_com[*]
#dump		quat cube      local 1000 dump.*.quat c_quat[*]


restart 	1000000 restart.dat
timestep 	0.005
timer 		full
New timer settings: style=full  mode=nosync  timeout=off


run		5000000
Per MPI rank memory allocation (min/avg/max) = 9.923 | 9.986 | 10.01 Mbytes
Step Temp E_pair TotEng Press PotEng KinEng Atoms 
 3000000     1.016004   -3.1352716   -1.6112691  0.079025997   -3.1352716    1.5240025   439061 
 3001000    1.0154664   -3.1340767   -1.6113557  0.074016916   -3.1340767     1.522721   439198 
 3002000    1.0162043     -3.13487   -1.6115525  0.073658662     -3.13487    1.5233176   439345 
 3003000    1.0153265   -3.1328703   -1.6112564  0.078169073   -3.1328703    1.5216139   439457 
 3004000     1.017528   -3.1338578    -1.609458  0.073428608   -3.1338578    1.5243997   439605 
 3005000     1.017521   -3.1333783   -1.6095124    0.0770477   -3.1333783    1.5238658   439756 
 3006000    1.0178441    -3.132289   -1.6082996  0.074660432    -3.132289    1.5239894   439860 
 3007000    1.0170844   -3.1315221   -1.6089646  0.078125043   -3.1315221    1.5225576   439945 
 3008000    1.0176433   -3.1298753   -1.6069484  0.077754704   -3.1298753     1.522927   440080 
 3009000    1.0187403   -3.1311686   -1.6069671  0.072962148   -3.1311686    1.5242015   440186 
 3010000    1.0188847   -3.1303897   -1.6064914  0.073571299   -3.1303897    1.5238983   440336 
 3011000     1.018155   -3.1295379   -1.6072047  0.075856473   -3.1295379    1.5223332   440473 
 3012000    1.0209566   -3.1319206   -1.6057275  0.079580919   -3.1319206    1.5261931   440568 
 3013000    1.0208465   -3.1313377   -1.6058217   0.07846672   -3.1313377     1.525516   440716 
 3014000    1.0227709   -3.1321938   -1.6042736   0.08087839   -3.1321938    1.5279202   440852 
 3015000    1.0224204    -3.129768   -1.6028008  0.076743649    -3.129768    1.5269672   440976 
 3016000    1.0235398   -3.1293236   -1.6010347  0.077699543   -3.1293236    1.5282889   441077 
 3017000    1.0250238   -3.1311975   -1.6011785  0.083281953   -3.1311975    1.5300191   441217 
 3018000    1.0250643   -3.1293604   -1.5997385  0.079929275   -3.1293604    1.5296219   441349 
 3019000    1.0247616   -3.1292904   -1.6006606  0.080433131   -3.1292904    1.5286298   441505 
 3020000    1.0245154   -3.1288925   -1.6009967  0.083031963   -3.1288925    1.5278958   441611 
 3021000    1.0259894   -3.1302891   -1.6006004  0.080848029   -3.1302891    1.5296888   441728 
 3022000    1.0251228   -3.1287276   -1.6008013  0.079490132   -3.1287276    1.5279263   441864 
 3023000    1.0263163   -3.1298115   -1.6005008  0.081833323   -3.1298115    1.5293107   441978 
 3024000    1.0252309   -3.1275123   -1.6002475  0.082999605   -3.1275123    1.5272648   442102 
 3025000    1.0266429   -3.1296959    -1.600995  0.084009835   -3.1296959    1.5287008   442295 
 3026000    1.0254358     -3.12637    -1.599898  0.077922193     -3.12637     1.526472   442420 
 3027000    1.0280542   -3.1299583   -1.6000381  0.076762012   -3.1299583    1.5299202   442550 
 3028000    1.0282465   -3.1292358   -1.5994372  0.081933845   -3.1292358    1.5297986   442668 
 3029000    1.0269619   -3.1269786   -1.5994743  0.079644549   -3.1269786    1.5275043   442779 
 3030000    1.0282963   -3.1268919   -1.5978345  0.079735089   -3.1268919    1.5290574   442904 
 3031000    1.0298691   -3.1286015   -1.5975717  0.078430149   -3.1286015    1.5310298   443010 
 3032000    1.0295126   -3.1268935   -1.5967356  0.077626053   -3.1268935    1.5301578   443109 
 3033000    1.0307979   -3.1272939   -1.5956337  0.081043673   -3.1272939    1.5316602   443227 
 3034000    1.0304291   -3.1262017   -1.5955349  0.076892508   -3.1262017    1.5306668   443356 
 3035000    1.0295393   -3.1261697   -1.5972247  0.081720879   -3.1261697    1.5289449   443472 
 3036000    1.0325353   -3.1270269   -1.5941235  0.082520806   -3.1270269    1.5329034   443614 
 3037000    1.0319085   -3.1258321   -1.5942632  0.085367096   -3.1258321     1.531569   443731 
 3038000    1.0318234   -3.1255993   -1.5944707  0.081897763   -3.1255993    1.5311286   443822 
 3039000    1.0307719   -3.1224932   -1.5932488  0.079553948   -3.1224932    1.5292445   443916 
 3040000    1.0325602   -3.1234627   -1.5920448  0.085313786   -3.1234627     1.531418   444055 
 3041000    1.0340653   -3.1245154   -1.5913554  0.079106277   -3.1245154      1.53316   444197 
 3042000    1.0349568   -3.1249994   -1.5910357  0.085006885   -3.1249994    1.5339638   444347 
 3043000    1.0345202   -3.1232783   -1.5905136  0.083955712   -3.1232783    1.5327648   444507 
 3044000    1.0347256   -3.1215726   -1.5889207   0.08902163   -3.1215726    1.5326519   444628 
 3045000    1.0352766   -3.1222762   -1.5892529  0.089546736   -3.1222762    1.5330232   444757 
 3046000    1.0357296   -3.1238499   -1.5905385   0.08748683   -3.1238499    1.5333114   444868 
 3047000    1.0354641   -3.1245307   -1.5920051  0.081849261   -3.1245307    1.5325256   444982 
 3048000    1.0348254   -3.1219399   -1.5908482  0.085674588   -3.1219399    1.5310917   445124 
 3049000    1.0366794   -3.1227886   -1.5894395  0.080937606   -3.1227886    1.5333491   445265 
 3050000    1.0376514   -3.1228916   -1.5885114  0.086370185   -3.1228916    1.5343801   445383 
 3051000    1.0364384   -3.1207755    -1.588595  0.083946042   -3.1207755    1.5321805   445501 
 3052000    1.0353808   -3.1188661   -1.5886406  0.085619905   -3.1188661    1.5302255   445615 
 3053000     1.036411   -3.1201347     -1.58872  0.083436378   -3.1201347    1.5314147   445712 
 3054000    1.0375051   -3.1206742   -1.5880383  0.083462629   -3.1206742    1.5326359   445827 
 3055000    1.0394245    -3.122215    -1.587057  0.080155655    -3.122215     1.535158   445918 
 3056000    1.0405645   -3.1226486   -1.5862961  0.080617935   -3.1226486    1.5363525   446060 
 3057000    1.0405905   -3.1207379   -1.5847843  0.086066282   -3.1207379    1.5359536   446187 
 3058000    1.0407319   -3.1214755   -1.5858123   0.08976838   -3.1214755    1.5356632   446332 
 3059000    1.0411461   -3.1212703   -1.5853882  0.081905495   -3.1212703    1.5358821   446446 
 3060000    1.0412047   -3.1195013   -1.5840625  0.086743723   -3.1195013    1.5354389   446600 
 3061000    1.0422262   -3.1214889   -1.5848911  0.088491922   -3.1214889    1.5365978   446701 
 3062000    1.0427876   -3.1206094   -1.5835762  0.085617824   -3.1206094    1.5370331   446815 
 3063000    1.0440361   -3.1202489   -1.5818059  0.086572319   -3.1202489     1.538443   446940 
 3064000    1.0432272   -3.1178591   -1.5809897  0.089243002   -3.1178591    1.5368694   447051 
 3065000    1.0432675    -3.117628   -1.5809811  0.088583976    -3.117628    1.5366469   447133 
 3066000    1.0434721   -3.1177889    -1.581277  0.087184707   -3.1177889    1.5365119   447260 
 3067000    1.0435438    -3.118814   -1.5826809  0.090751438    -3.118814    1.5361331   447401 
 3068000    1.0446129   -3.1205139   -1.5831988  0.082907602   -3.1205139    1.5373151   447515 
 3069000    1.0446441   -3.1202057   -1.5832671  0.083693916   -3.1202057    1.5369387   447638 
 3070000    1.0449298   -3.1193951   -1.5823417   0.08596619   -3.1193951    1.5370534   447727 
 3071000    1.0444334   -3.1186496   -1.5827689  0.086501293   -3.1186496    1.5358807   447856 
 3072000    1.0445667   -3.1181109   -1.5823325  0.083803982   -3.1181109    1.5357784   447943 
 3073000    1.0447112   -3.1170064   -1.5812863  0.087656315   -3.1170064    1.5357201   448022 
 3074000    1.0452245   -3.1163366   -1.5803729  0.086012013   -3.1163366    1.5359637   448171 
 3075000    1.0462013   -3.1168455   -1.5799093  0.087297574   -3.1168455    1.5369362   448306 
 3076000    1.0449261   -3.1142522   -1.5795351  0.093092224   -3.1142522    1.5347171   448407 
 3077000    1.0455357   -3.1157938   -1.5805717   0.08544113   -3.1157938    1.5352221   448521 
 3078000    1.0457162    -3.114939   -1.5798147  0.083127758    -3.114939    1.5351244   448627 
 3079000    1.0487775   -3.1168854   -1.5776616  0.083136573   -3.1168854    1.5392239   448742 
 3080000     1.045985   -3.1128851   -1.5781291  0.091114058   -3.1128851    1.5347561   448850 
 3081000    1.0467443   -3.1145476   -1.5790264  0.086821864   -3.1145476    1.5355213   448952 
 3082000    1.0470784   -3.1143765   -1.5787687  0.092820865   -3.1143765    1.5356078   449070 
 3083000    1.0480687   -3.1143542   -1.5777185  0.090866993   -3.1143542    1.5366357   449194 
 3084000    1.0492355   -3.1162775   -1.5783009  0.085636263   -3.1162775    1.5379766   449302 
 3085000    1.0487791    -3.115533   -1.5786255  0.086162153    -3.115533    1.5369075   449419 
 3086000    1.0500924   -3.1156222   -1.5771496  0.088312566   -3.1156222    1.5384726   449524 
 3087000    1.0489193   -3.1144314   -1.5779784  0.085656848   -3.1144314    1.5364531   449612 
 3088000    1.0493233   -3.1136912   -1.5771384  0.086403942   -3.1136912    1.5365528   449756 
 3089000    1.0510484   -3.1149737   -1.5762471  0.085781708   -3.1149737    1.5387266   449859 
 3090000    1.0499227   -3.1136842   -1.5769883  0.087684466   -3.1136842    1.5366959   449971 
 3091000    1.0507243     -3.11544   -1.5779159   0.09203208     -3.11544    1.5375241   450072 
 3092000    1.0505962   -3.1148892   -1.5779181  0.088599273   -3.1148892    1.5369711   450179 
 3093000    1.0510796   -3.1140881   -1.5767581  0.092382393   -3.1140881      1.53733   450281 
 3094000     1.051089   -3.1139565    -1.576978  0.087645467   -3.1139565    1.5369785   450388 
 3095000    1.0518044   -3.1143816   -1.5765959  0.090234065   -3.1143816    1.5377857   450458 
 3096000     1.054143   -3.1164139   -1.5756127  0.089691012   -3.1164139    1.5408012   450576 
 3097000    1.0531762   -3.1150983   -1.5760961  0.091415756   -3.1150983    1.5390022   450689 
 3098000    1.0540534   -3.1167724   -1.5767927  0.085923909   -3.1167724    1.5399798   450778 
 3099000     1.053712   -3.1145754   -1.5755588  0.090897325   -3.1145754    1.5390167   450914 
 3100000    1.0548685   -3.1141143   -1.5738423  0.091643415   -3.1141143    1.5402721   451041 
 3101000    1.0538873   -3.1125073   -1.5739305  0.095211959   -3.1125073    1.5385767   451118 
 3102000    1.0548286   -3.1144346   -1.5748762  0.086728787   -3.1144346    1.5395584   451233 
 3103000    1.0550186   -3.1150292   -1.5755926  0.090630517   -3.1150292    1.5394367   451350 
 3104000    1.0551688   -3.1146101   -1.5752237  0.089605969   -3.1146101    1.5393864   451429 
 3105000    1.0541609   -3.1130565   -1.5753996  0.094127027   -3.1130565     1.537657   451505 
 3106000    1.0558422    -3.115025   -1.5752669  0.093453635    -3.115025    1.5397581   451608 
 3107000    1.0564735   -3.1147794   -1.5744894  0.093264087   -3.1147794      1.54029   451722 
 3108000    1.0564871   -3.1152264   -1.5752268  0.087872563   -3.1152264    1.5399996   451813 
 3109000    1.0565717   -3.1144684   -1.5747374  0.090779278   -3.1144684     1.539731   451928 
 3110000    1.0583313   -3.1163309   -1.5743974  0.091191201   -3.1163309    1.5419335   452034 
 3111000    1.0571653   -3.1144308   -1.5745674  0.093258246   -3.1144308    1.5398634   452143 
 3112000    1.0575559   -3.1141147   -1.5739683  0.089438321   -3.1141147    1.5401464   452227 
 3113000     1.057058   -3.1127965   -1.5737565  0.091094049   -3.1127965      1.53904   452339 
 3114000    1.0587298   -3.1146347   -1.5734843  0.086233356   -3.1146347    1.5411504   452434 
 3115000    1.0558036   -3.1107887   -1.5742239  0.089358453   -3.1107887    1.5365648   452530 
 3116000    1.0573388   -3.1110362   -1.5725498  0.086845043   -3.1110362    1.5384864   452622 
 3117000    1.0583227   -3.1122862    -1.572637  0.088830972   -3.1122862    1.5396492   452701 
 3118000    1.0586367   -3.1106538   -1.5708879  0.094847262   -3.1106538    1.5397659   452801 
 3119000    1.0586665   -3.1123787   -1.5729706  0.089526051   -3.1123787    1.5394081   452919 
 3120000    1.0583453   -3.1114145   -1.5728098  0.093166795   -3.1114145    1.5386047   453018 
 3121000    1.0596394   -3.1118129   -1.5717961  0.092884338   -3.1118129    1.5400169   453156 
 3122000     1.057765   -3.1081354   -1.5711241  0.094177326   -3.1081354    1.5370112   453239 
 3123000    1.0610472   -3.1113844   -1.5700493  0.092954703   -3.1113844    1.5413351   453370 
 3124000    1.0618549   -3.1125743   -1.5703006  0.086498808   -3.1125743    1.5422737   453439 
 3125000    1.0602622   -3.1104788   -1.5707934   0.09035067   -3.1104788    1.5396853   453520 
 3126000    1.0607818   -3.1093715   -1.5692135      0.09025   -3.1093715     1.540158   453603 
 3127000    1.0592759   -3.1074171   -1.5697744  0.090373813   -3.1074171    1.5376427   453700 
 3128000    1.0604548   -3.1088432   -1.5697639  0.092966102   -3.1088432    1.5390793   453781 
 3129000    1.0605926   -3.1073095    -1.568349  0.098122278   -3.1073095    1.5389605   453875 
 3130000    1.0621301   -3.1099173   -1.5691332  0.092399035   -3.1099173    1.5407841   453995 
 3131000    1.0624809   -3.1097734   -1.5688402  0.084188929   -3.1097734    1.5409332   454101 
 3132000    1.0610255   -3.1083408   -1.5697488  0.091425435   -3.1083408     1.538592   454169 
 3133000    1.0614229   -3.1084521   -1.5695481  0.089082092   -3.1084521    1.5389039   454247 
 3134000    1.0622623    -3.110208   -1.5703955   0.09579017    -3.110208    1.5398125   454338 
 3135000    1.0613439   -3.1084588   -1.5704143  0.089850763   -3.1084588    1.5380446   454467 
 3136000    1.0620412   -3.1089338   -1.5702682  0.093397748   -3.1089338    1.5386656   454582 
 3137000    1.0622048   -3.1097744   -1.5712541   0.08485196   -3.1097744    1.5385203   454695 
 3138000    1.0630058   -3.1105362   -1.5712214  0.084383943   -3.1105362    1.5393148   454803 
 3139000     1.061712   -3.1080967   -1.5709495  0.095946346   -3.1080967    1.5371473   454890 
 3140000    1.0615326    -3.107283   -1.5705205  0.093686322    -3.107283    1.5367625   454927 
 3141000    1.0631551   -3.1089367   -1.5701704  0.090774859   -3.1089367    1.5387663   455029 
 3142000    1.0643202   -3.1113447   -1.5712474  0.090975622   -3.1113447    1.5400973   455134 
 3143000     1.064798    -3.111761    -1.571243   0.09493105    -3.111761     1.540518   455214 
 3144000    1.0643779   -3.1112092   -1.5716576  0.091791171   -3.1112092    1.5395516   455320 
 3145000    1.0648695    -3.111979   -1.5720647   0.09063739    -3.111979    1.5399143   455423 
 3146000    1.0657187   -3.1128025   -1.5719646  0.091721742   -3.1128025    1.5408379   455513 
 3147000    1.0660775    -3.112013    -1.571059  0.090622503    -3.112013     1.540954   455632 
 3148000     1.067821   -3.1113088   -1.5681124   0.09556034   -3.1113088    1.5431964   455714 
 3149000    1.0692577   -3.1142527   -1.5692783  0.095537473   -3.1142527    1.5449744   455802 
 3150000    1.0667682   -3.1114969   -1.5705083     0.098218   -3.1114969    1.5409886   455917 
 3151000    1.0668924    -3.109672    -1.568886  0.097824682    -3.109672     1.540786   456030 
 3152000    1.0682506   -3.1112577   -1.5689362  0.094843363   -3.1112577    1.5423214   456156 
 3153000    1.0714194   -3.1152233   -1.5685812  0.092424035   -3.1152233    1.5466421   456231 
 3154000    1.0694311   -3.1122701   -1.5688365  0.086942876   -3.1122701    1.5434336   456331 
 3155000    1.0683223   -3.1095221   -1.5680737  0.095565336   -3.1095221    1.5414484   456445 
 3156000    1.0684991    -3.109739   -1.5683834  0.092385789    -3.109739    1.5413557   456548 
 3157000    1.0694345   -3.1100826   -1.5678303  0.094546118   -3.1100826    1.5422523   456682 
 3158000    1.0679083   -3.1101255   -1.5704719  0.094979645   -3.1101255    1.5396536   456800 
 3159000    1.0683406   -3.1099324   -1.5699455  0.094887257   -3.1099324    1.5399869   456886 
 3160000    1.0707077   -3.1123407   -1.5692727  0.091846198   -3.1123407     1.543068   456984 
 3161000    1.0710877   -3.1108133   -1.5676062  0.089313019   -3.1108133    1.5432071   457105 
 3162000      1.07102   -3.1090701   -1.5664061  0.096928823   -3.1090701     1.542664   457237 
 3163000    1.0710679   -3.1093955   -1.5670234  0.091849508   -3.1093955    1.5423721   457344 
 3164000    1.0716291   -3.1096553   -1.5667686  0.092756337   -3.1096553    1.5428867   457431 
 3165000    1.0713994   -3.1092282   -1.5669689  0.091750832   -3.1092282    1.5422593   457519 
 3166000    1.0717813    -3.109359   -1.5668433  0.092440642    -3.109359    1.5425157   457606 
 3167000      1.07317   -3.1100783   -1.5659183  0.091737012   -3.1100783      1.54416   457711 
 3168000    1.0727924   -3.1105349   -1.5671712  0.092213131   -3.1105349    1.5433638   457786 
 3169000    1.0714779   -3.1078445   -1.5666748   0.09398555   -3.1078445    1.5411697   457876 
 3170000    1.0716683   -3.1080739   -1.5668996  0.095865068   -3.1080739    1.5411743   457956 
 3171000    1.0725014   -3.1085682   -1.5665863   0.09168575   -3.1085682    1.5419819   458072 
 3172000    1.0732065   -3.1087851   -1.5661499   0.09592803   -3.1087851    1.5426352   458179 
 3173000    1.0737419   -3.1089883    -1.565964  0.097534361   -3.1089883    1.5430243   458292 
 3174000    1.0737673   -3.1086704   -1.5660809  0.089155628   -3.1086704    1.5425896   458432 
 3175000    1.0740217    -3.109026   -1.5663704  0.092608801    -3.109026    1.5426556   458521 
 3176000    1.0744835   -3.1089077   -1.5659455  0.091171124   -3.1089077    1.5429622   458627 
 3177000    1.0756136   -3.1088449   -1.5645361  0.091994458   -3.1088449    1.5443088   458709 
 3178000     1.077429   -3.1099795   -1.5633407  0.093513189   -3.1099795    1.5466389   458791 
 3179000    1.0756035   -3.1080329   -1.5643914  0.096400276   -3.1080329    1.5436415   458903 
 3180000    1.0753934   -3.1093122   -1.5661774  0.093108897   -3.1093122    1.5431348   458964 
 3181000    1.0745937   -3.1068661   -1.5652483  0.092769199   -3.1068661    1.5416179   459074 
 3182000     1.076108   -3.1080077    -1.564604  0.096673378   -3.1080077    1.5434037   459189 
 3183000    1.0774992   -3.1107297   -1.5656538  0.096729223   -3.1107297     1.545076   459285 
 3184000    1.0759624   -3.1072605   -1.5647375  0.096375143   -3.1072605     1.542523   459389 
 3185000     1.076701   -3.1086904   -1.5654176  0.093270396   -3.1086904    1.5432728   459481 
 3186000    1.0763991   -3.1068753   -1.5643542  0.095243585   -3.1068753    1.5425212   459576 
 3187000      1.07758   -3.1089907   -1.5650259  0.088225727   -3.1089907    1.5439648   459650 
 3188000    1.0771288   -3.1067563   -1.5637703  0.093304775   -3.1067563     1.542986   459749 
 3189000    1.0773026   -3.1075647   -1.5645345  0.091059053   -3.1075647    1.5430302   459810 
 3190000    1.0779851   -3.1076507   -1.5639385  0.094385377   -3.1076507    1.5437123   459898 
 3191000     1.078714   -3.1084408    -1.564044  0.098689813   -3.1084408    1.5443968   460005 
 3192000    1.0791664    -3.106931   -1.5621618  0.096119662    -3.106931    1.5447692   460087 
 3193000    1.0792134   -3.1076586   -1.5631242  0.098516429   -3.1076586    1.5445343   460177 
 3194000    1.0806247   -3.1092635   -1.5629748  0.093700363   -3.1092635    1.5462887   460256 
 3195000    1.0802183   -3.1078658   -1.5624978  0.099158776   -3.1078658    1.5453681   460357 
 3196000    1.0812879   -3.1099432   -1.5633037  0.098253432   -3.1099432    1.5466395   460434 
 3197000    1.0819045   -3.1091236    -1.562039  0.099413882   -3.1091236    1.5470846   460564 
 3198000     1.082216   -3.1072579   -1.5600771   0.10038913   -3.1072579    1.5471807   460668 
 3199000    1.0822279   -3.1068747   -1.5599658  0.096854073   -3.1068747    1.5469089   460754 
 3200000    1.0829711   -3.1071729   -1.5596282  0.098422845   -3.1071729    1.5475446   460881 
 3201000    1.0832513   -3.1090793   -1.5613962  0.099427213   -3.1090793    1.5476831   460959 
 3202000    1.0839238   -3.1091816   -1.5608365   0.10089943   -3.1091816     1.548345   461048 
 3203000    1.0830664   -3.1074514   -1.5606062  0.097399596   -3.1074514    1.5468452   461130 
 3204000    1.0825832   -3.1074358    -1.561559  0.097436419   -3.1074358    1.5458769   461213 
 3205000    1.0833832   -3.1083965    -1.561726  0.093931906   -3.1083965    1.5466705   461317 
 3206000    1.0823896   -3.1070989   -1.5622388  0.092548536   -3.1070989    1.5448601   461434 
 3207000    1.0812875   -3.1061696   -1.5632034  0.092512801   -3.1061696    1.5429661   461530 
 3208000    1.0798103   -3.1033384   -1.5627974   0.09396461   -3.1033384     1.540541   461625 
 3209000    1.0820158   -3.1061913   -1.5626742  0.089100546   -3.1061913     1.543517   461676 
 3210000    1.0820378   -3.1054382   -1.5621338  0.094833247   -3.1054382    1.5433044   461749 
 3211000     1.082996   -3.1059153   -1.5616087  0.086484549   -3.1059153    1.5443065   461858 
 3212000    1.0827333   -3.1045195   -1.5609017  0.097671106   -3.1045195    1.5436178   461952 
 3213000    1.0833959   -3.1053819   -1.5611437  0.095862301   -3.1053819    1.5442381   462049 
 3214000    1.0837975   -3.1045386    -1.559952  0.098439389   -3.1045386    1.5445866   462116 
 3215000    1.0848948    -3.105155   -1.5593157  0.097379603    -3.105155    1.5458394   462209 
 3216000    1.0830567   -3.1032059   -1.5603294  0.099524096   -3.1032059    1.5428766   462312 
 3217000    1.0852484   -3.1055811   -1.5598632  0.094079944   -3.1055811    1.5457179   462396 
 3218000    1.0860148   -3.1059762   -1.5594845   0.09542207   -3.1059762    1.5464917   462491 
 3219000    1.0873913   -3.1074208   -1.5592199  0.094629064   -3.1074208    1.5482008   462566 
 3220000    1.0876825   -3.1078472   -1.5594527  0.095456561   -3.1078472    1.5483944   462632 
 3221000    1.0851656   -3.1044093   -1.5598317  0.095106798   -3.1044093    1.5445777   462702 
 3222000    1.0850152   -3.1053392   -1.5612926  0.092101223   -3.1053392    1.5440466   462797 
 3223000     1.084571   -3.1041118   -1.5609374   0.10134007   -3.1041118    1.5431744   462869 
 3224000     1.085356    -3.104953   -1.5608651   0.10020259    -3.104953    1.5440878   462930 
 3225000    1.0879416   -3.1088845   -1.5613421  0.090818783   -3.1088845    1.5475423   462997 
 3226000    1.0868092   -3.1077716   -1.5621038   0.10134604   -3.1077716    1.5456678   463076 
 3227000    1.0871762   -3.1089102   -1.5631143  0.099136702   -3.1089102    1.5457959   463194 
 3228000    1.0872311    -3.108479    -1.562962   0.09803406    -3.108479    1.5455169   463301 
 3229000    1.0891204   -3.1098825   -1.5619939  0.094538183   -3.1098825    1.5478885   463395 
 3230000    1.0869413   -3.1090602   -1.5645985  0.098495409   -3.1090602    1.5444616   463494 
 3231000    1.0877315    -3.109492   -1.5642344   0.10008096    -3.109492    1.5452576   463592 
 3232000    1.0884771   -3.1115348   -1.5655247  0.096009146   -3.1115348    1.5460101   463684 
 3233000    1.0896178   -3.1135626   -1.5662927  0.093958381   -3.1135626    1.5472699   463792 
 3234000    1.0896824   -3.1130839   -1.5660059  0.096480422   -3.1130839     1.547078   463877 
 3235000    1.0911234   -3.1135856   -1.5646954  0.097926455   -3.1135856    1.5488902   463947 
 3236000    1.0910065   -3.1119909   -1.5636338   0.10099774   -3.1119909    1.5483571   464057 
 3237000    1.0899556   -3.1111658   -1.5646533  0.099116075   -3.1111658    1.5465125   464163 
 3238000    1.0923829   -3.1135805   -1.5639645   0.10423708   -3.1135805     1.549616   464265 
 3239000    1.0919001   -3.1128849   -1.5643041  0.099053257   -3.1128849    1.5485808   464370 
 3240000    1.0914179   -3.1120488   -1.5644684  0.098558316   -3.1120488    1.5475803   464465 
 3241000    1.0921306   -3.1122174   -1.5640064   0.10124999   -3.1122174     1.548211   464579 
 3242000    1.0918543   -3.1100337   -1.5625609   0.10218622   -3.1100337    1.5474728   464683 
 3243000     1.093515   -3.1114931   -1.5619434  0.095037427   -3.1114931    1.5495497   464766 
 3244000    1.0921016   -3.1093461   -1.5620888   0.09599803   -3.1093461    1.5472573   464853 
 3245000    1.0907039   -3.1077291   -1.5628143  0.098908917   -3.1077291    1.5449148   464962 
 3246000    1.0928086   -3.1095158   -1.5618329  0.095036855   -3.1095158    1.5476829   465026 
 3247000    1.0932827   -3.1097544   -1.5617429  0.096279652   -3.1097544    1.5480115   465129 
 3248000    1.0932312   -3.1091283   -1.5614327  0.098592276   -3.1091283    1.5476956   465202 
 3249000    1.0950909   -3.1091853   -1.5591567  0.099311155   -3.1091853    1.5500286   465292 
 3250000     1.094298   -3.1077131   -1.5591463   0.10068363   -3.1077131    1.5485668   465394 
 3251000    1.0931865   -3.1066924   -1.5599412   0.09532939   -3.1066924    1.5467513   465467 
 3252000    1.0933907   -3.1061713   -1.5594999   0.09946007   -3.1061713    1.5466714   465578 
 3253000    1.0948471   -3.1079101   -1.5595111  0.092857413   -3.1079101    1.5483989   465678 
 3254000    1.0948427   -3.1065768   -1.5584699  0.094135597   -3.1065768    1.5481069   465764 
 3255000    1.0941996   -3.1058263   -1.5589709  0.091599915   -3.1058263    1.5468554   465867 
 3256000    1.0938264   -3.1054949   -1.5594824  0.094350441   -3.1054949    1.5460126   465962 
 3257000    1.0938213   -3.1048082    -1.559108  0.094942164   -3.1048082    1.5457002   466054 
 3258000    1.0942245   -3.1046465   -1.5586618  0.096662457   -3.1046465    1.5459847   466140 
 3259000    1.0939999    -3.103873   -1.5584079  0.095794943    -3.103873    1.5454652   466201 
 3260000    1.0950233   -3.1048714   -1.5582392  0.097580335   -3.1048714    1.5466322   466285 
 3261000    1.0960147   -3.1065565   -1.5589455  0.095098858   -3.1065565     1.547611   466412 
 3262000    1.0962062   -3.1073319   -1.5596296  0.091075961   -3.1073319    1.5477022   466466 
 3263000    1.0953363   -3.1051765   -1.5589677  0.094645915   -3.1051765    1.5462088   466546 
 3264000    1.0954315   -3.1053213   -1.5591736  0.094570059   -3.1053213    1.5461477   466605 
 3265000    1.0966822   -3.1074388   -1.5597647  0.096478182   -3.1074388    1.5476742   466677 
 3266000    1.0963254   -3.1053934   -1.5584581   0.10193784   -3.1053934    1.5469352   466748 
 3267000    1.0982719   -3.1073381   -1.5578887  0.098058709   -3.1073381    1.5494494   466818 
 3268000    1.0977601   -3.1066503   -1.5582746   0.10240455   -3.1066503    1.5483758   466924 
 3269000    1.0989831   -3.1073596   -1.5574347  0.098420493   -3.1073596    1.5499249   466977 
 3270000    1.0993568   -3.1074501     -1.55735  0.094030736   -3.1074501    1.5501001   467083 
 3271000    1.0987784   -3.1063877   -1.5574182   0.10084072   -3.1063877    1.5489695   467178 
 3272000    1.1009506   -3.1091024   -1.5573498  0.097746736   -3.1091024    1.5517526   467262 
 3273000    1.1006957   -3.1090613   -1.5578836   0.10098026   -3.1090613    1.5511776   467327 
 3274000    1.1015753   -3.1108356   -1.5587339   0.09605494   -3.1108356    1.5521018   467422 
 3275000    1.1004843   -3.1094001   -1.5592137  0.098291003   -3.1094001    1.5501864   467536 
 3276000    1.1011644     -3.10935   -1.5584676  0.097201297     -3.10935    1.5508824   467615 
 3277000    1.0999446   -3.1072217    -1.558372   0.10459167   -3.1072217    1.5488497   467710 
 3278000    1.1003103   -3.1071307   -1.5581037   0.10456024   -3.1071307    1.5490269   467812 
 3279000    1.1000663   -3.1077876   -1.5593857  0.097563914   -3.1077876     1.548402   467897 
 3280000    1.1021025   -3.1093952   -1.5584552  0.099105119   -3.1093952      1.55094   467996 
 3281000    1.1005549   -3.1071525   -1.5586486   0.09767648   -3.1071525    1.5485039   468074 
 3282000    1.1030199   -3.1096529   -1.5580685  0.094957461   -3.1096529    1.5515844   468191 
 3283000    1.1007867   -3.1057994   -1.5576044   0.10075885   -3.1057994    1.5481951   468266 
 3284000    1.0998412   -3.1061941   -1.5594939  0.099561124   -3.1061941    1.5467002   468316 
 3285000    1.1017524   -3.1077967   -1.5586834  0.094294041   -3.1077967    1.5491133   468399 
 3286000    1.0998083   -3.1054157   -1.5592868  0.095007182   -3.1054157    1.5461289   468475 
 3287000    1.1022623   -3.1077567   -1.5584656  0.095247647   -3.1077567    1.5492911   468562 
 3288000    1.1022793   -3.1086685   -1.5596213   0.10058295   -3.1086685    1.5490472   468643 
 3289000    1.1005638   -3.1056796   -1.5594029  0.098130704   -3.1056796    1.5462767   468752 
 3290000    1.1029987   -3.1073557   -1.5580282  0.091965791   -3.1073557    1.5493275   468864 
 3291000    1.1032792   -3.1067586   -1.5572122  0.098431865   -3.1067586    1.5495464   468917 
 3292000    1.1026251   -3.1061299   -1.5576705   0.10154653   -3.1061299    1.5484594   468968 
 3293000    1.1030997   -3.1072729   -1.5584179  0.092675155   -3.1072729     1.548855   469050 
 3294000    1.1022216   -3.1067679   -1.5594164  0.096101415   -3.1067679    1.5473515   469132 
 3295000    1.1023034   -3.1050175    -1.557772  0.096774673   -3.1050175    1.5472455   469199 
 3296000    1.1029546   -3.1059784   -1.5580531  0.098443843   -3.1059784    1.5479253   469270 
 3297000    1.1053318   -3.1082842   -1.5572839  0.095575912   -3.1082842    1.5510004   469349 
 3298000    1.1031547   -3.1063446   -1.5585607   0.09952535   -3.1063446    1.5477839   469398 
 3299000    1.1047259   -3.1084801   -1.5587195  0.089753554   -3.1084801    1.5497605   469467 
 3300000     1.103876    -3.106836   -1.5584359   0.09532917    -3.106836       1.5484   469518 
 3301000    1.1047924   -3.1051573   -1.5557292   0.10154434   -3.1051573     1.549428   469596 
 3302000    1.1049817   -3.1055005   -1.5561303  0.098240162   -3.1055005    1.5493702   469694 
 3303000      1.10651   -3.1076121   -1.5563731   0.10183592   -3.1076121    1.5512391   469777 
 3304000    1.1052701   -3.1056211   -1.5564401  0.096243669   -3.1056211    1.5491809   469874 
 3305000    1.1065102   -3.1065074   -1.5559877    0.1015897   -3.1065074    1.5505197   469995 
 3306000    1.1060313   -3.1064491   -1.5568839  0.098371893   -3.1064491    1.5495652   470081 
 3307000    1.1064652   -3.1065954   -1.5566597  0.098829528   -3.1065954    1.5499357   470153 
 3308000    1.1059263   -3.1055218   -1.5566903  0.099018181   -3.1055218    1.5488315   470259 
 3309000    1.1058505   -3.1063944   -1.5579588    0.1004818   -3.1063944    1.5484356   470347 
 3310000    1.1070036   -3.1072388   -1.5575214   0.09859348   -3.1072388    1.5497175   470448 
 3311000    1.1065534   -3.1067556   -1.5579679    0.1006277   -3.1067556    1.5487877   470539 
 3312000    1.1068289   -3.1062239    -1.557314   0.09848868   -3.1062239    1.5489099   470619 
 3313000    1.1068618   -3.1051579   -1.5565146   0.10051131   -3.1051579    1.5486433   470714 
 3314000    1.1082057   -3.1068765   -1.5566229  0.098572646   -3.1068765    1.5502536   470796 
 3315000    1.1093308   -3.1079446   -1.5563972   0.10001239   -3.1079446    1.5515474   470881 
 3316000    1.1071714   -3.1061145   -1.5578012   0.10127015   -3.1061145    1.5483134   470946 
 3317000    1.1093294   -3.1071395   -1.5560816    0.1012527   -3.1071395    1.5510579   471029 
 3318000    1.1105008   -3.1068695   -1.5543913   0.10285627   -3.1068695    1.5524782   471095 
 3319000    1.1096516   -3.1066699   -1.5555336  0.098516195   -3.1066699    1.5511363   471142 
 3320000    1.1088433   -3.1057419   -1.5559461   0.10340905   -3.1057419    1.5497959   471206 
 3321000    1.1088442   -3.1060936   -1.5565135   0.09865255   -3.1060936      1.54958   471272 
 3322000    1.1094563   -3.1067012   -1.5565848  0.098483846   -3.1067012    1.5501164   471369 
 3323000    1.1101383   -3.1068048   -1.5559066   0.10052372   -3.1068048    1.5508981   471421 
 3324000    1.1095473    -3.105784   -1.5559612  0.096263636    -3.105784    1.5498227   471497 
 3325000     1.109477   -3.1046579   -1.5552554  0.099342018   -3.1046579    1.5494025   471595 
 3326000    1.1105496   -3.1063648   -1.5557734  0.099385502   -3.1063648    1.5505914   471689 
 3327000    1.1105543   -3.1051417   -1.5549217   0.09866222   -3.1051417    1.5502199   471804 
 3328000    1.1112955   -3.1064616   -1.5555161   0.10026958   -3.1064616    1.5509455   471898 
 3329000    1.1101442   -3.1059783   -1.5568201    0.1036877   -3.1059783    1.5491582   471953 
 3330000    1.1103918   -3.1041993   -1.5550303   0.10374769   -3.1041993    1.5491689   472055 
 3331000    1.1115557   -3.1055243   -1.5549484   0.10225893   -3.1055243    1.5505759   472121 
 3332000    1.1111293   -3.1047378   -1.5549438   0.10060657   -3.1047378     1.549794   472178 
 3333000    1.1127794   -3.1053949   -1.5536411  0.098998381   -3.1053949    1.5517538   472282 
 3334000    1.1135643   -3.1069002   -1.5543413   0.10015979   -3.1069002     1.552559   472370 
 3335000    1.1131546   -3.1062969   -1.5546309   0.10251754   -3.1062969    1.5516659   472468 
 3336000    1.1127966   -3.1050513   -1.5542291  0.096297156   -3.1050513    1.5508222   472573 
 3337000    1.1134196   -3.1050667    -1.553606  0.099719491   -3.1050667    1.5514607   472643 
 3338000    1.1133175   -3.1044262   -1.5533244  0.097860684   -3.1044262    1.5511017   472709 
 3339000    1.1138593   -3.1053001   -1.5536011  0.098721218   -3.1053001    1.5516991   472757 
 3340000    1.1133275    -3.105563    -1.554831  0.097222273    -3.105563    1.5507319   472826 
 3341000     1.113268   -3.1044787    -1.554069   0.10000759   -3.1044787    1.5504097   472899 
 3342000    1.1137037   -3.1039937   -1.5532494     0.100145   -3.1039937    1.5507443   472982 
 3343000    1.1147424   -3.1040808   -1.5520084   0.10164487   -3.1040808    1.5520724   473018 
 3344000    1.1126928   -3.1031418   -1.5540835   0.09567296   -3.1031418    1.5490582   473067 
 3345000    1.1129151   -3.1025046    -1.553412    0.1055394   -3.1025046    1.5490926   473151 
 3346000    1.1154577   -3.1051561   -1.5527573  0.097719641   -3.1051561    1.5523988   473222 
 3347000    1.1159271   -3.1054934   -1.5527267  0.098674336   -3.1054934    1.5527667   473309 
 3348000    1.1157761   -3.1043664   -1.5521476    0.0962482   -3.1043664    1.5522188   473412 
 3349000    1.1153961   -3.1021675   -1.5508738  0.096968112   -3.1021675    1.5512937   473533 
 3350000    1.1164839   -3.1031577   -1.5507315  0.097520791   -3.1031577    1.5524263   473649 
 3351000    1.1147445   -3.1002303   -1.5505203   0.10057937   -3.1002303      1.54971   473740 
 3352000    1.1161476   -3.1017352   -1.5503433   0.09788758   -3.1017352     1.551392   473822 
 3353000    1.1167105   -3.1016957   -1.5497769   0.10147617   -3.1016957    1.5519189   473900 
 3354000    1.1177717   -3.1024631   -1.5493152  0.099403241   -3.1024631    1.5531479   473975 
 3355000    1.1172722   -3.1017032   -1.5495245  0.097651651   -3.1017032    1.5521787   474059 
 3356000    1.1177101    -3.101173   -1.5486709   0.10352763    -3.101173    1.5525021   474146 
 3357000    1.1179557   -3.1010843   -1.5484866   0.10801602   -3.1010843    1.5525977   474221 
 3358000    1.1181881   -3.1011538     -1.54842   0.10498931   -3.1011538    1.5527338   474278 
 3359000    1.1195717   -3.1033295   -1.5489168  0.099613946   -3.1033295    1.5544127   474352 
 3360000     1.119659   -3.1035026   -1.5492407   0.10368904   -3.1035026    1.5542619   474435 
 3361000    1.1203991   -3.1039395   -1.5488765  0.097829188   -3.1039395     1.555063   474504 
 3362000    1.1195575   -3.1023223   -1.5487252   0.10533788   -3.1023223    1.5535971   474595 
 3363000    1.1191502   -3.1019954   -1.5491077   0.10467762   -3.1019954    1.5528878   474639 
 3364000    1.1206005   -3.1017097   -1.5471207   0.10090888   -3.1017097     1.554589   474734 
 3365000    1.1206339   -3.1011451   -1.5467324   0.10246417   -3.1011451    1.5544128   474802 
 3366000    1.1204863   -3.1024334   -1.5485167   0.10909412   -3.1024334    1.5539167   474891 
 3367000    1.1222019   -3.1038425   -1.5477857   0.10163147   -3.1038425    1.5560568   474964 
 3368000    1.1209479   -3.1032557   -1.5491799   0.10384984   -3.1032557    1.5540759   475038 
 3369000    1.1193861   -3.1018322   -1.5502026   0.10204544   -3.1018322    1.5516296   475124 
 3370000     1.121199   -3.1042998   -1.5503665  0.099423559   -3.1042998    1.5539332   475188 
 3371000    1.1222189   -3.1041157    -1.549011    0.1021816   -3.1041157    1.5551047   475262 
 3372000    1.1212046   -3.1018227   -1.5483688  0.098763112   -3.1018227     1.553454   475337 
 3373000    1.1213892   -3.1011568   -1.5477739   0.10036975   -3.1011568    1.5533829   475437 
 3374000    1.1241305   -3.1060611   -1.5492083   0.10181899   -3.1060611    1.5568528   475537 
 3375000    1.1230729   -3.1042739   -1.5492618  0.098420486   -3.1042739     1.555012   475652 
 3376000    1.1237507   -3.1043565   -1.5485662    0.1067801   -3.1043565    1.5557903   475701 
 3377000    1.1239142   -3.1051658   -1.5495055   0.10071953   -3.1051658    1.5556602   475810 
 3378000    1.1254201    -3.107845   -1.5503788  0.097559569    -3.107845    1.5574663   475895 
 3379000    1.1238329   -3.1052013   -1.5502255   0.10494574   -3.1052013    1.5549757   475985 
 3380000    1.1242742   -3.1047933   -1.5495827    0.1047611   -3.1047933    1.5552106   476100 
 3381000     1.123176   -3.1029373    -1.549533  0.099705377   -3.1029373    1.5534043   476188 
 3382000    1.1220915   -3.1004982   -1.5488219   0.10483374   -3.1004982    1.5516763   476258 
 3383000    1.1239115   -3.1037584   -1.5498199   0.10584945   -3.1037584    1.5539386   476336 
 3384000     1.124304   -3.1051267   -1.5509229   0.10409895   -3.1051267    1.5542038   476421 
 3385000    1.1240951   -3.1044637   -1.5508193   0.10572605   -3.1044637    1.5536444   476504 
 3386000    1.1240826   -3.1047614   -1.5514016   0.10361425   -3.1047614    1.5533598   476586 
 3387000    1.1258629    -3.106781   -1.5513167   0.10072831    -3.106781    1.5554643   476695 
 3388000    1.1247961    -3.105039   -1.5513191   0.10263061    -3.105039    1.5537198   476778 
 3389000    1.1266585   -3.1076705   -1.5516489  0.099298084   -3.1076705    1.5560216   476861 
 3390000    1.1259909   -3.1070444    -1.552261  0.098873433   -3.1070444    1.5547834   476958 
 3391000    1.1245504    -3.103847   -1.5513457   0.10611692    -3.103847    1.5525013   477048 
 3392000    1.1248977   -3.1041401   -1.5513644   0.10919777   -3.1041401    1.5527757   477111 
 3393000    1.1263657   -3.1051389   -1.5505877   0.10701547   -3.1051389    1.5545512   477188 
 3394000    1.1274866   -3.1065589   -1.5507639   0.10320527   -3.1065589     1.555795   477281 
 3395000    1.1280762   -3.1075942   -1.5512073   0.10404003   -3.1075942    1.5563868   477349 
 3396000    1.1278193    -3.108032   -1.5522115   0.10473054    -3.108032    1.5558206   477414 
 3397000    1.1274054   -3.1069615   -1.5519464   0.10382349   -3.1069615    1.5550151   477486 
 3398000    1.1278599   -3.1064636   -1.5511148    0.1038047   -3.1064636    1.5553487   477576 
 3399000    1.1299804   -3.1102269   -1.5521985   0.10077214   -3.1102269    1.5580284   477651 
 3400000     1.127374   -3.1055203   -1.5513394    0.1079181   -3.1055203    1.5541808   477729 
 3401000    1.1279482   -3.1066958   -1.5519383   0.10354765   -3.1066958    1.5547575   477795 
 3402000    1.1297538   -3.1084199    -1.551395    0.1037046   -3.1084199    1.5570249   477863 
 3403000    1.1292343   -3.1059043   -1.5497811   0.10486471   -3.1059043    1.5561233   477920 
 3404000    1.1289126   -3.1067715   -1.5513585    0.1092817   -3.1067715     1.555413   478002 
 3405000    1.1303955   -3.1092433   -1.5520022  0.093801453   -3.1092433    1.5572411   478068 
 3406000    1.1292521   -3.1072764   -1.5518479   0.10643723   -3.1072764    1.5554285   478141 
 3407000    1.1309352    -3.107414   -1.5499636   0.10582621    -3.107414    1.5574503   478232 
 3408000    1.1303376   -3.1061615   -1.5496806   0.10324996   -3.1061615    1.5564809   478277 
 3409000    1.1294152   -3.1059428   -1.5508945   0.10163275   -3.1059428    1.5550482   478327 
 3410000    1.1288694   -3.1045872   -1.5504074   0.09614548   -3.1045872    1.5541797   478363 
 3411000    1.1304833   -3.1065778   -1.5503453   0.10054787   -3.1065778    1.5562325   478415 
 3412000    1.1293274   -3.1039388   -1.5495703   0.10676098   -3.1039388    1.5543685   478499 
 3413000    1.1292742   -3.1034571   -1.5493794   0.10072404   -3.1034571    1.5540776   478566 
 3414000    1.1304998   -3.1055027   -1.5500407   0.10287001   -3.1055027     1.555462   478659 
 3415000    1.1298175   -3.1048305   -1.5505443   0.10374144   -3.1048305    1.5542861   478732 
 3416000    1.1314715   -3.1063608   -1.5500268  0.099610769   -3.1063608     1.556334   478802 
 3417000    1.1298869    -3.104554   -1.5506593   0.10494016    -3.104554    1.5538947   478882 
 3418000    1.1307127   -3.1059429   -1.5511072   0.10272985   -3.1059429    1.5548357   478942 
 3419000    1.1313646    -3.106415   -1.5508616   0.10265071    -3.106415    1.5555534   478997 
 3420000    1.1321675   -3.1081367     -1.55171   0.10267863   -3.1081367    1.5564267   479068 
 3421000    1.1300168   -3.1048891   -1.5516104  0.099484084   -3.1048891    1.5532786   479127 
 3422000    1.1332059   -3.1083219   -1.5509522   0.10553782   -3.1083219    1.5573697   479217 
 3423000    1.1307424   -3.1047862   -1.5510841   0.10806563   -3.1047862    1.5537021   479304 
 3424000    1.1316489   -3.1069935   -1.5523053   0.10665538   -3.1069935    1.5546882   479384 
 3425000    1.1312258   -3.1056234   -1.5517887   0.10637569   -3.1056234    1.5538347   479468 
 3426000    1.1349439    -3.109701   -1.5510323  0.098894102    -3.109701    1.5586687   479552 
 3427000    1.1341864   -3.1083522   -1.5509284   0.10439173   -3.1083522    1.5574238   479615 
 3428000    1.1347289   -3.1077678   -1.5499076   0.10771568   -3.1077678    1.5578602   479710 
 3429000    1.1351606   -3.1083514   -1.5501324   0.10136661   -3.1083514     1.558219   479782 
 3430000    1.1354627   -3.1089819   -1.5505399   0.10569147   -3.1089819     1.558442   479841 
 3431000     1.135139   -3.1076493   -1.5498821   0.10778338   -3.1076493    1.5577673   479912 
 3432000    1.1358961   -3.1100485   -1.5514143  0.097015461   -3.1100485    1.5586341   479965 
 3433000    1.1350698   -3.1081796   -1.5508773   0.10293486   -3.1081796    1.5573023   480026 
 3434000    1.1366187   -3.1096003   -1.5503516   0.10510807   -3.1096003    1.5592488   480081 
 3435000    1.1344314   -3.1082016   -1.5521219   0.10800516   -3.1082016    1.5560797   480133 
 3436000    1.1347554   -3.1082096    -1.551812   0.10241853   -3.1082096    1.5563976   480172 
 3437000    1.1342443   -3.1081806   -1.5527269   0.10305469   -3.1081806    1.5554537   480247 
 3438000    1.1349344    -3.108998   -1.5528637  0.099680847    -3.108998    1.5561344   480329 
 3439000    1.1354665   -3.1088479   -1.5523178   0.10001228   -3.1088479    1.5565301   480432 
 3440000    1.1353132   -3.1073653   -1.5512429   0.10387757   -3.1073653    1.5561224   480493 
 3441000    1.1356249   -3.1076194   -1.5513288    0.1025472   -3.1076194    1.5562906   480573 
 3442000    1.1354706   -3.1080099    -1.552164    0.1088686   -3.1080099     1.555846   480645 
 3443000    1.1363705   -3.1085677   -1.5516831  0.099146495   -3.1085677    1.5568846   480705 
 3444000    1.1363501   -3.1079835   -1.5514312    0.1073684   -3.1079835    1.5565523   480799 
 3445000    1.1360098   -3.1078895   -1.5519456   0.10150291   -3.1078895    1.5559439   480843 
 3446000    1.1350896    -3.106047   -1.5516027   0.10763515    -3.106047    1.5544443   480917 
 3447000    1.1367789   -3.1081298   -1.5515437   0.10139417   -3.1081298    1.5565861   480970 
 3448000    1.1370955   -3.1072857   -1.5505024   0.10255709   -3.1072857    1.5567833   481043 
 3449000    1.1363133   -3.1059649   -1.5504691    0.1021686   -3.1059649    1.5554958   481110 
 3450000    1.1368296   -3.1055912   -1.5496118    0.1037246   -3.1055912    1.5559794   481179 
 3451000    1.1386174   -3.1069021   -1.5487283   0.10496964   -3.1069021    1.5581738   481257 
 3452000    1.1369168   -3.1044407    -1.548801    0.1074611   -3.1044407    1.5556397   481321 
 3453000    1.1384329   -3.1046601   -1.5472243   0.11050775   -3.1046601    1.5574359   481407 
 3454000    1.1376888   -3.1044344   -1.5482493   0.10655992   -3.1044344    1.5561851   481479 
 3455000    1.1392403   -3.1073318   -1.5492316   0.10099297   -3.1073318    1.5581003   481543 
 3456000    1.1397917   -3.1062988   -1.5477939   0.10224726   -3.1062988    1.5585049   481651 
 3457000    1.1392609   -3.1048056    -1.547295   0.10579478   -3.1048056    1.5575106   481734 
 3458000    1.1384561   -3.1043286   -1.5481508   0.10154976   -3.1043286    1.5561778   481806 
 3459000    1.1382625   -3.1033887    -1.547763   0.10457647   -3.1033887    1.5556257   481895 
 3460000    1.1401325   -3.1050697    -1.547247   0.10757082   -3.1050697    1.5578227   482006 
 3461000    1.1388663   -3.1034352   -1.5475525   0.10549931   -3.1034352    1.5558827   482071 
 3462000    1.1411145   -3.1056275   -1.5468997   0.10526585   -3.1056275    1.5587278   482141 
 3463000    1.1395155   -3.1034272   -1.5471417   0.10473966   -3.1034272    1.5562855   482221 
 3464000    1.1403543   -3.1053917   -1.5482772  0.097644568   -3.1053917    1.5571145   482319 
 3465000    1.1410212   -3.1057133   -1.5479368  0.098735208   -3.1057133    1.5577765   482396 
 3466000    1.1393054   -3.1041614   -1.5489434   0.10124851   -3.1041614     1.555218   482463 
 3467000    1.1409171   -3.1044633   -1.5472647   0.10466261   -3.1044633    1.5571986   482531 
 3468000    1.1426546   -3.1067031   -1.5473819     0.104885   -3.1067031    1.5593212   482608 
 3469000    1.1425682   -3.1058007   -1.5468396    0.1000105   -3.1058007    1.5589611   482683 
 3470000    1.1423149   -3.1064858    -1.548048   0.09908313   -3.1064858    1.5584379   482738 
 3471000    1.1424175   -3.1058256   -1.5474673   0.10258256   -3.1058256    1.5583582   482806 
 3472000    1.1401586    -3.103951   -1.5489253   0.10742815    -3.103951    1.5550257   482884 
 3473000     1.139817   -3.1049255   -1.5506231   0.10322917   -3.1049255    1.5543024   482964 
 3474000    1.1411329   -3.1050359   -1.5491388    0.1006991   -3.1050359     1.555897   483026 
 3475000    1.1409598   -3.1050651   -1.5496585   0.10536132   -3.1050651    1.5554066   483105 
 3476000    1.1441513   -3.1076218   -1.5480839   0.10032793   -3.1076218    1.5595379   483173 
 3477000    1.1439576   -3.1070171   -1.5480368   0.10092241   -3.1070171    1.5589803   483264 
 3478000    1.1446099   -3.1073806   -1.5477179   0.10708028   -3.1073806    1.5596627   483328 
 3479000     1.144914   -3.1076711   -1.5478555   0.10959311   -3.1076711    1.5598156   483409 
 3480000    1.1432988   -3.1056798   -1.5482484    0.1058629   -3.1056798    1.5574314   483466 
 3481000    1.1445624   -3.1075036   -1.5485637   0.10493067   -3.1075036    1.5589399   483532 
 3482000    1.1441463   -3.1065664   -1.5484672   0.10384082   -3.1065664    1.5580992   483617 
 3483000    1.1430693   -3.1064621    -1.550045   0.10123251   -3.1064621    1.5564171   483684 
 3484000    1.1445892   -3.1072016   -1.5489663   0.10473418   -3.1072016    1.5582352   483762 
 3485000    1.1456013    -3.108644   -1.5492953   0.10167164    -3.108644    1.5593488   483844 
 3486000    1.1447658   -3.1086736   -1.5505586   0.10414603   -3.1086736    1.5581149   483874 
 3487000    1.1464172   -3.1101252   -1.5499173   0.10268127   -3.1101252    1.5602079   483922 
 3488000    1.1455023     -3.10929   -1.5505044    0.1049599     -3.10929    1.5587856   483977 
 3489000    1.1447083   -3.1081989    -1.550732   0.10028208   -3.1081989    1.5574669   484051 
 3490000    1.1453026   -3.1083955   -1.5503164   0.10576945   -3.1083955    1.5580791   484112 
 3491000    1.1460705    -3.108904   -1.5499926   0.10484081    -3.108904    1.5589114   484178 
 3492000    1.1463325    -3.107605   -1.5486625    0.1082561    -3.107605    1.5589426   484279 
 3493000    1.1467712    -3.108336    -1.549003   0.10731511    -3.108336     1.559333   484343 
 3494000    1.1477957   -3.1108271   -1.5503007    0.1025443   -3.1108271    1.5605264   484405 
 3495000    1.1490981   -3.1099711   -1.5479383   0.10724475   -3.1099711    1.5620327   484487 
 3496000    1.1472489   -3.1087858   -1.5494889   0.10515277   -3.1087858    1.5592968   484556 
 3497000    1.1492121   -3.1102446   -1.5485082    0.1083961   -3.1102446    1.5617364   484627 
 3498000    1.1488245   -3.1091362   -1.5482486   0.10742207   -3.1091362    1.5608876   484727 
 3499000      1.14893   -3.1093597   -1.5485382   0.11000846   -3.1093597    1.5608215   484792 
 3500000     1.150243   -3.1103374    -1.547961   0.10622957   -3.1103374    1.5623764   484863 
 3501000    1.1489339   -3.1090771   -1.5487041   0.10755259   -3.1090771     1.560373   484933 
 3502000    1.1497216   -3.1089399    -1.547642   0.10960256   -3.1089399    1.5612979   484978 
 3503000    1.1498049   -3.1081095   -1.5469078   0.10959962   -3.1081095    1.5612018   485043 
 3504000    1.1513529   -3.1090352   -1.5460344   0.10474237   -3.1090352    1.5630008   485137 
 3505000    1.1493621   -3.1082406   -1.5482158   0.10419341   -3.1082406    1.5600248   485222 
 3506000    1.1496981   -3.1089662   -1.5486525   0.10241664   -3.1089662    1.5603137   485274 
 3507000    1.1500567   -3.1097456   -1.5491446  0.098901635   -3.1097456     1.560601   485336 
 3508000    1.1503079   -3.1091996   -1.5485022    0.1006466   -3.1091996    1.5606974   485412 
 3509000     1.149874   -3.1077095   -1.5477936   0.10323994   -3.1077095     1.559916   485472 
 3510000    1.1496277   -3.1070592   -1.5477311    0.1023193   -3.1070592    1.5593281   485551 
 3511000    1.1506832   -3.1078125   -1.5472551   0.10908251   -3.1078125    1.5605573   485614 
 3512000    1.1508002    -3.108211   -1.5476911   0.10367109    -3.108211    1.5605199   485675 
 3513000    1.1522287   -3.1109984    -1.548683  0.096049045   -3.1109984    1.5623155   485719 
 3514000    1.1510434   -3.1090463   -1.5486046    0.1055766   -3.1090463    1.5604417   485802 
 3515000    1.1488648   -3.1076988   -1.5503998   0.10378304   -3.1076988     1.557299   485861 
 3516000    1.1488747   -3.1067303   -1.5496102   0.10449759   -3.1067303    1.5571201   485921 
 3517000    1.1508463   -3.1083407   -1.5487474   0.10256987   -3.1083407    1.5595933   485983 
 3518000     1.151361    -3.108636   -1.5485763   0.10432284    -3.108636    1.5600598   486055 
 3519000    1.1504478   -3.1085301   -1.5499162   0.10120232   -3.1085301    1.5586139   486120 
 3520000    1.1515928   -3.1097585   -1.5498724    0.1032251   -3.1097585    1.5598861   486207 
 3521000    1.1508619   -3.1090621   -1.5503777   0.10598266   -3.1090621    1.5586844   486273 
 3522000    1.1517892   -3.1095097   -1.5498003   0.10539734   -3.1095097    1.5597094   486345 
 3523000    1.1518483   -3.1099352   -1.5503671   0.10594857   -3.1099352    1.5595681   486414 
 3524000    1.1536654   -3.1116857   -1.5499076   0.10479368   -3.1116857     1.561778   486492 
 3525000    1.1530985   -3.1100134   -1.5491857   0.11160423   -3.1100134    1.5608277   486549 
 3526000    1.1525391   -3.1086943   -1.5489028   0.11005601   -3.1086943    1.5597915   486636 
 3527000    1.1545601   -3.1120871   -1.5497434    0.1105562   -3.1120871    1.5623437   486693 
 3528000    1.1529539   -3.1100419   -1.5501857   0.10738495   -3.1100419    1.5598562   486791 
 3529000    1.1546245   -3.1108704   -1.5490204    0.1051359   -3.1108704    1.5618499   486874 
 3530000     1.155596   -3.1117963   -1.5488217   0.11542282   -3.1117963    1.5629747   486933 
 3531000    1.1547508   -3.1117486   -1.5500934   0.10927731   -3.1117486    1.5616552   486988 
 3532000     1.154209   -3.1111766    -1.550488   0.11156961   -3.1111766    1.5606885   487061 
 3533000    1.1546719   -3.1114963   -1.5504864   0.10912199   -3.1114963    1.5610099   487156 
 3534000    1.1563558   -3.1136854   -1.5505595   0.10756996   -3.1136854     1.563126   487206 
 3535000    1.1547953   -3.1121404   -1.5512681   0.10446886   -3.1121404    1.5608723   487251 
 3536000    1.1544917   -3.1108192   -1.5505237   0.10372422   -3.1108192    1.5602955   487303 
 3537000    1.1550756    -3.112131   -1.5512544   0.10659252    -3.112131    1.5608765   487368 
 3538000    1.1584266   -3.1153657   -1.5501858   0.10480521   -3.1153657    1.5651799   487438 
 3539000     1.156782   -3.1126402   -1.5498779   0.10609146   -3.1126402    1.5627623   487499 
 3540000    1.1556622   -3.1112297   -1.5502589   0.10740968   -3.1112297    1.5609709   487586 
 3541000    1.1557748   -3.1097497   -1.5489309   0.11433837   -3.1097497    1.5608189   487681 
 3542000    1.1564906   -3.1112897   -1.5496674   0.11174928   -3.1112897    1.5616223   487732 
 3543000    1.1559763   -3.1106447   -1.5499665   0.10956281   -3.1106447    1.5606782   487810 
 3544000     1.156399   -3.1116463   -1.5506279   0.10613528   -3.1116463    1.5610184   487882 
 3545000    1.1561718   -3.1092192   -1.5486864   0.10382128   -3.1092192    1.5605327   487938 
 3546000    1.1573851   -3.1115859    -1.549678   0.10849262   -3.1115859    1.5619079   488020 
 3547000    1.1572741   -3.1112452   -1.5497432   0.10580063   -3.1112452     1.561502   488100 
 3548000    1.1564826   -3.1096854   -1.5494399   0.10490239   -3.1096854    1.5602455   488159 
 3549000    1.1581955   -3.1109676   -1.5486224   0.10512158   -3.1109676    1.5623452   488225 
 3550000    1.1567813   -3.1094911    -1.549306   0.10305015   -3.1094911    1.5601851   488304 
 3551000    1.1564788   -3.1092103   -1.5496377   0.10315765   -3.1092103    1.5595727   488368 
 3552000     1.155956   -3.1081644   -1.5496382   0.10821263   -3.1081644    1.5585262   488475 
 3553000    1.1584059   -3.1092261   -1.5476878   0.10495376   -3.1092261    1.5615383   488566 
 3554000    1.1582168   -3.1087117   -1.5477542   0.10403761   -3.1087117    1.5609575   488668 
 3555000    1.1605787   -3.1115733   -1.5476119   0.10738293   -3.1115733    1.5639615   488724 
 3556000    1.1609836   -3.1111464   -1.5467993   0.10822867   -3.1111464    1.5643471   488774 
 3557000    1.1588957   -3.1083442   -1.5469318   0.10451116   -3.1083442    1.5614124   488812 
 3558000    1.1600378   -3.1104367   -1.5478148  0.098873636   -3.1104367    1.5626219   488915 
 3559000    1.1587183   -3.1082191   -1.5475438   0.10611302   -3.1082191    1.5606753   488968 
 3560000    1.1602259   -3.1109525   -1.5484958    0.1034168   -3.1109525    1.5624567   489046 
 3561000    1.1596897   -3.1126359   -1.5510705   0.10729051   -3.1126359    1.5615653   489099 
 3562000    1.1587748   -3.1120143   -1.5518947   0.10270474   -3.1120143    1.5601197   489166 
 3563000    1.1594336   -3.1119932   -1.5511652   0.10368365   -3.1119932     1.560828   489222 
 3564000    1.1599459   -3.1125959   -1.5513272   0.10612494   -3.1125959    1.5612687   489300 
 3565000       1.1605   -3.1131674   -1.5513763    0.1085921   -3.1131674    1.5617911   489370 
 3566000    1.1601513   -3.1119029   -1.5508523   0.10807141   -3.1119029    1.5610507   489455 
 3567000    1.1612992   -3.1138936   -1.5515059   0.10898609   -3.1138936    1.5623877   489520 
 3568000    1.1605437   -3.1133245   -1.5521796   0.10803308   -3.1133245    1.5611449   489591 
 3569000    1.1601444   -3.1127103   -1.5523416   0.10864556   -3.1127103    1.5603687   489666 
 3570000    1.1618846   -3.1140436   -1.5515961   0.11266062   -3.1140436    1.5624475   489748 
 3571000    1.1611479   -3.1128488   -1.5515927   0.10937829   -3.1128488    1.5612561   489811 
 3572000    1.1640221   -3.1173559   -1.5525324   0.10926486   -3.1173559    1.5648236   489904 
 3573000    1.1601116   -3.1125988   -1.5532455   0.11167086   -3.1125988    1.5593533   489971 
 3574000    1.1630401   -3.1156727   -1.5526382   0.10513225   -3.1156727    1.5630345   490051 
 3575000     1.164492   -3.1193214   -1.5545464   0.10430703   -3.1193214    1.5647749   490117 
 3576000    1.1630365    -3.117178   -1.5546426   0.10775478    -3.117178    1.5625354   490206 
 3577000    1.1624866   -3.1156385   -1.5541064   0.11065626   -3.1156385    1.5615321   490289 
 3578000    1.1637639   -3.1172842   -1.5541734   0.11275533   -3.1172842    1.5631109   490332 
 3579000    1.1643371   -3.1167296   -1.5530626    0.1082872   -3.1167296     1.563667   490399 
 3580000     1.164639   -3.1171539   -1.5532854    0.1043809   -3.1171539    1.5638685   490463 
 3581000    1.1655604   -3.1183055   -1.5534295   0.10769643   -3.1183055    1.5648759   490535 
 3582000    1.1645471   -3.1165392   -1.5532182   0.10835516   -3.1165392    1.5633211   490596 
 3583000    1.1654099   -3.1181163   -1.5538347   0.10881713   -3.1181163    1.5642816   490658 
 3584000    1.1656868   -3.1188226   -1.5543925   0.11020683   -3.1188226    1.5644302   490728 
 3585000     1.165784   -3.1181664   -1.5538162    0.1090934   -3.1181664    1.5643501   490794 
 3586000     1.165275    -3.119187   -1.5556823   0.10876577    -3.119187    1.5635047   490845 
 3587000    1.1648335   -3.1181008     -1.55544   0.10427871   -3.1181008    1.5626608   490924 
 3588000    1.1640284    -3.116776   -1.5554021     0.102344    -3.116776     1.561374   490989 
 3589000    1.1645996   -3.1176949   -1.5557965   0.10553944   -3.1176949    1.5618984   491065 
 3590000    1.1646861   -3.1186403   -1.5567849   0.10519715   -3.1186403    1.5618554   491115 
 3591000    1.1630258   -3.1154165   -1.5559591   0.11035244   -3.1154165    1.5594574   491169 
 3592000    1.1644258   -3.1179734   -1.5568454   0.10634655   -3.1179734     1.561128   491234 
 3593000    1.1645471   -3.1170579   -1.5559483   0.10212901   -3.1170579    1.5611096   491291 
 3594000    1.1650395   -3.1183752   -1.5568058   0.10653946   -3.1183752    1.5615694   491354 
 3595000    1.1633866   -3.1169555   -1.5578079   0.10268367   -3.1169555    1.5591476   491419 
 3596000     1.163921   -3.1169141   -1.5573359    0.1038651   -3.1169141    1.5595782   491509 
 3597000    1.1658965   -3.1188445   -1.5568894   0.10359514   -3.1188445    1.5619551   491594 
 3598000    1.1634171   -3.1151821   -1.5567611   0.10949521   -3.1151821    1.5584211   491661 
 3599000    1.1654336   -3.1176617   -1.5568347   0.10139697   -3.1176617     1.560827   491754 
 3600000    1.1650508   -3.1175462   -1.5573683   0.10688888   -3.1175462    1.5601778   491797 
 3601000    1.1664162   -3.1189121   -1.5571058   0.10934034   -3.1189121    1.5618063   491860 
 3602000    1.1644332   -3.1173326   -1.5584192   0.10523938   -3.1173326    1.5589134   491935 
 3603000      1.16596   -3.1188232     -1.55798   0.10498809   -3.1188232    1.5608432   491971 
 3604000    1.1663587   -3.1181762   -1.5569453   0.10575875   -3.1181762     1.561231   492017 
 3605000    1.1681221   -3.1198034   -1.5564059   0.11237113   -3.1198034    1.5633975   492078 
 3606000    1.1670994   -3.1193978   -1.5575817   0.10280996   -3.1193978    1.5618161   492145 
 3607000    1.1678607   -3.1208379   -1.5581522   0.11000032   -3.1208379    1.5626857   492192 
 3608000    1.1677913   -3.1197517    -1.557378   0.10835609   -3.1197517    1.5623737   492261 
 3609000    1.1685821   -3.1200799   -1.5568545   0.10578415   -3.1200799    1.5632254   492326 
 3610000    1.1695165   -3.1191216   -1.5548561   0.11217897   -3.1191216    1.5642656   492392 
 3611000    1.1687438   -3.1194125   -1.5565328   0.10988365   -3.1194125    1.5628797   492503 
 3612000    1.1691825   -3.1197148   -1.5564643   0.10896191   -3.1197148    1.5632505   492571 
 3613000    1.1684038   -3.1198927   -1.5579212   0.11081398   -3.1198927    1.5619715   492646 
 3614000    1.1691586    -3.119831   -1.5571358   0.10792075    -3.119831    1.5626952   492736 
 3615000    1.1688674   -3.1183933   -1.5563283   0.10544692   -3.1183933     1.562065   492812 
 3616000    1.1695498    -3.120385    -1.557649   0.10714154    -3.120385     1.562736   492888 
 3617000    1.1684169   -3.1188635   -1.5577679   0.11104188   -3.1188635    1.5610956   492928 
 3618000    1.1686301   -3.1186195    -1.557464   0.10330502   -3.1186195    1.5611555   492999 
 3619000    1.1702079   -3.1210672   -1.5579815   0.10595377   -3.1210672    1.5630857   493055 
 3620000    1.1709351   -3.1221621   -1.5582604    0.1059105   -3.1221621    1.5639017   493104 
 3621000    1.1691303   -3.1205433   -1.5592738   0.10883875   -3.1205433    1.5612695   493174 
 3622000    1.1689646   -3.1192773   -1.5584982   0.10709777   -3.1192773    1.5607792   493259 
 3623000    1.1697848    -3.119331   -1.5576562    0.1114883    -3.119331    1.5616748   493322 
 3624000     1.171933   -3.1212056   -1.5569228   0.10071787   -3.1212056    1.5642828   493404 
 3625000    1.1697838   -3.1179375   -1.5568367    0.1038256   -3.1179375    1.5611008   493503 
 3626000     1.170974   -3.1214949   -1.5589798   0.10293897   -3.1214949     1.562515   493558 
 3627000    1.1700476   -3.1179199   -1.5568593   0.10826212   -3.1179199    1.5610606   493627 
 3628000    1.1731518   -3.1221353   -1.5571139   0.10621974   -3.1221353    1.5650214   493684 
 3629000     1.170843   -3.1183063   -1.5566558   0.11128724   -3.1183063    1.5616505   493776 
 3630000    1.1724451   -3.1190837   -1.5555719   0.10932343   -3.1190837    1.5635118   493863 
 3631000    1.1737995   -3.1204293   -1.5554093   0.11587334   -3.1204293      1.56502   493957 
 3632000    1.1726888    -3.119289   -1.5560031   0.10744822    -3.119289    1.5632859   494037 
 3633000    1.1714429   -3.1184757   -1.5571351   0.11139096   -3.1184757    1.5613406   494127 
 3634000     1.173913   -3.1217912   -1.5573135   0.10780072   -3.1217912    1.5644777   494176 
 3635000    1.1722617   -3.1203897   -1.5583719   0.10431644   -3.1203897    1.5620178   494258 
 3636000     1.174289   -3.1220612   -1.5575572   0.10469726   -3.1220612     1.564504   494326 
 3637000    1.1725183   -3.1203339   -1.5583659   0.11486083   -3.1203339     1.561968   494382 
 3638000    1.1733588   -3.1203975   -1.5574712   0.10748743   -3.1203975    1.5629263   494433 
 3639000    1.1741939   -3.1220106   -1.5581238   0.11079131   -3.1220106    1.5638868   494481 
 3640000    1.1727803   -3.1200764    -1.558328   0.10871736   -3.1200764    1.5617484   494562 
 3641000    1.1733173    -3.120519   -1.5582198   0.11449519    -3.120519    1.5622992   494614 
 3642000    1.1731476   -3.1219024   -1.5599934   0.11059634   -3.1219024    1.5619089   494666 
 3643000    1.1722493   -3.1216515   -1.5610994    0.1070529   -3.1216515    1.5605521   494717 
 3644000    1.1724466    -3.121913   -1.5613411   0.10946479    -3.121913    1.5605719   494794 
 3645000    1.1732277   -3.1222085   -1.5608399   0.10717096   -3.1222085    1.5613686   494871 
 3646000    1.1724765   -3.1211329   -1.5609344   0.10984634   -3.1211329    1.5601986   494925 
 3647000    1.1737013   -3.1227098   -1.5611401   0.10933945   -3.1227098    1.5615697   495007 
 3648000    1.1743868   -3.1218687   -1.5596364   0.10223929   -3.1218687    1.5622324   495086 
 3649000    1.1749096   -3.1217354   -1.5589843   0.10982611   -3.1217354    1.5627511   495142 
 3650000     1.175678   -3.1214154   -1.5578506   0.11278021   -3.1214154    1.5635647   495208 
 3651000    1.1749115   -3.1204234   -1.5580262    0.1079294   -3.1204234    1.5623971   495255 
 3652000    1.1773383   -3.1234901   -1.5580935     0.110264   -3.1234901    1.5653966   495327 
 3653000    1.1777007   -3.1232444   -1.5576156   0.10684055   -3.1232444    1.5656287   495406 
 3654000    1.1779151   -3.1233844   -1.5576286   0.11135156   -3.1233844    1.5657558   495456 
 3655000    1.1770641   -3.1230088   -1.5586368   0.11241921   -3.1230088     1.564372   495536 
 3656000    1.1758222   -3.1219618   -1.5593886   0.11588958   -3.1219618    1.5625732   495583 
 3657000    1.1775955   -3.1231043   -1.5583797   0.11017925   -3.1231043    1.5647245   495648 
 3658000    1.1787229   -3.1252344   -1.5592171   0.11300745   -3.1252344    1.5660173   495713 
 3659000    1.1777639   -3.1239751   -1.5593867   0.10891451   -3.1239751    1.5645884   495762 
 3660000    1.1772176   -3.1231948   -1.5595875   0.11363201   -3.1231948    1.5636073   495843 
 3661000    1.1766738   -3.1235824   -1.5609085   0.10322038   -3.1235824    1.5626739   495910 
 3662000    1.1755919   -3.1224546   -1.5614536   0.10423912   -3.1224546     1.561001   495985 
 3663000     1.176293   -3.1226262   -1.5608706   0.11408895   -3.1226262    1.5617556   496041 
 3664000    1.1763257   -3.1224112   -1.5607569   0.10610939   -3.1224112    1.5616542   496087 
 3665000    1.1764268   -3.1228645   -1.5612114   0.10828448   -3.1228645     1.561653   496130 
 3666000    1.1762661   -3.1222272   -1.5610454   0.10635119   -3.1222272    1.5611818   496212 
 3667000    1.1771775    -3.123434   -1.5612724   0.10852222    -3.123434    1.5621615   496285 
 3668000    1.1775124   -3.1228625   -1.5605116    0.1085717   -3.1228625    1.5623509   496366 
 3669000     1.178673   -3.1239415   -1.5602334   0.10201479   -3.1239415    1.5637081   496424 
 3670000    1.1791648   -3.1237597   -1.5596071  0.099520617   -3.1237597    1.5641526   496490 
 3671000    1.1788104   -3.1237755   -1.5603543   0.10533712   -3.1237755    1.5634212   496573 
 3672000    1.1798021   -3.1230539   -1.5585507   0.10658543   -3.1230539    1.5645033   496647 
 3673000    1.1821997   -3.1253785   -1.5579673   0.10766642   -3.1253785    1.5674113   496733 
 3674000     1.182381   -3.1258147   -1.5582419   0.10587869   -3.1258147    1.5675728   496758 
 3675000    1.1807025   -3.1232236   -1.5580873    0.1146049   -3.1232236    1.5651363   496825 
 3676000    1.1816921   -3.1236574   -1.5574708    0.1062783   -3.1236574    1.5661865   496908 
 3677000    1.1812656   -3.1238392    -1.558511   0.10866116   -3.1238392    1.5653282   497001 
 3678000    1.1817862    -3.123846   -1.5580485   0.11092925    -3.123846    1.5657975   497071 
 3679000    1.1820721   -3.1233277   -1.5574664   0.11197313   -3.1233277    1.5658613   497171 
 3680000    1.1816035   -3.1230701   -1.5581253    0.1185142   -3.1230701    1.5649448   497265 
 3681000    1.1832105   -3.1252286   -1.5583162   0.10910514   -3.1252286    1.5669123   497316 
 3682000    1.1826104    -3.125188   -1.5593001   0.10753678    -3.125188    1.5658879   497389 
 3683000    1.1827384   -3.1253285   -1.5595324   0.11155979   -3.1253285    1.5657961   497472 
 3684000    1.1829362   -3.1257211    -1.559893   0.10483295   -3.1257211    1.5658281   497545 
 3685000    1.1822862   -3.1244572   -1.5597221   0.11653177   -3.1244572    1.5647351   497619 
 3686000    1.1820483   -3.1249319   -1.5606877   0.11181256   -3.1249319    1.5642442   497675 
 3687000    1.1818723   -3.1246174   -1.5607539   0.11272686   -3.1246174    1.5638636   497722 
 3688000    1.1807785   -3.1237884   -1.5616358   0.11114818   -3.1237884    1.5621526   497806 
 3689000    1.1803195   -3.1233185   -1.5619081   0.11295624   -3.1233185    1.5614104   497849 
 3690000    1.1835527   -3.1259123   -1.5604701   0.11028447   -3.1259123    1.5654422   497927 
 3691000     1.182066   -3.1245771    -1.561365    0.1059314   -3.1245771    1.5632121   498011 
 3692000    1.1823178   -3.1249216   -1.5615647   0.11502723   -3.1249216    1.5633568   498071 
 3693000    1.1844907   -3.1271744   -1.5611614   0.10498633   -3.1271744    1.5660131   498140 
 3694000    1.1828192   -3.1246377    -1.561139   0.11469318   -3.1246377    1.5634987   498237 
 3695000    1.1822495     -3.12578   -1.5632696   0.10841912     -3.12578    1.5625104   498312 
 3696000    1.1831676   -3.1245263   -1.5609656   0.10991842   -3.1245263    1.5635607   498364 
 3697000    1.1843834    -3.126059   -1.5611742   0.10608492    -3.126059    1.5648848   498454 
 3698000    1.1837527   -3.1243839   -1.5605333   0.11535357   -3.1243839    1.5638506   498518 
 3699000    1.1874817   -3.1286925   -1.5601074   0.10641541   -3.1286925    1.5685851   498579 
 3700000    1.1864396   -3.1277961   -1.5607038   0.10903063   -3.1277961    1.5670923   498616 
 3701000    1.1845572   -3.1256614   -1.5612533   0.10771813   -3.1256614    1.5644082   498679 
 3702000    1.1866465   -3.1289218   -1.5620371   0.11123629   -3.1289218    1.5668847   498769 
 3703000    1.1868704   -3.1291747   -1.5621483   0.10563713   -3.1291747    1.5670264   498818 
 3704000    1.1861959   -3.1271606   -1.5612163   0.10403987   -3.1271606    1.5659443   498879 
 3705000    1.1870054   -3.1287718   -1.5618593   0.11222841   -3.1287718    1.5669125   498911 
 3706000    1.1859805   -3.1272004   -1.5618479   0.11380246   -3.1272004    1.5653525   498977 
 3707000    1.1867705   -3.1256274   -1.5594958   0.11325366   -3.1256274    1.5661316   499061 
 3708000    1.1878441   -3.1274563   -1.5601812   0.11165093   -3.1274563    1.5672751   499148 
 3709000    1.1869938    -3.127455   -1.5615245   0.10934528    -3.127455    1.5659305   499219 
 3710000    1.1871947   -3.1281381   -1.5621277   0.10905599   -3.1281381    1.5660104   499278 
 3711000    1.1870713   -3.1279311   -1.5622653   0.11248861   -3.1279311    1.5656658   499336 
 3712000    1.1888034   -3.1296017   -1.5618115    0.1088103   -3.1296017    1.5677902   499387 
 3713000    1.1869557   -3.1279278   -1.5627593   0.10313755   -3.1279278    1.5651685   499446 
 3714000    1.1863449   -3.1275263   -1.5633699   0.11348259   -3.1275263    1.5641564   499512 
 3715000    1.1882565   -3.1291994   -1.5626543    0.1077717   -3.1291994     1.566545   499554 
 3716000    1.1871895   -3.1297085   -1.5647173   0.10712276   -3.1297085    1.5649911   499601 
 3717000    1.1882313   -3.1299343   -1.5637767   0.11021928   -3.1299343    1.5661576   499667 
 3718000     1.189171   -3.1299986   -1.5628251   0.11050402   -3.1299986    1.5671735   499738 
 3719000    1.1885372   -3.1293644   -1.5631423   0.11541625   -3.1293644    1.5662222   499775 
 3720000    1.1883984   -3.1297609   -1.5638501   0.10536069   -3.1297609    1.5659108   499816 
 3721000    1.1883003   -3.1292098   -1.5636882   0.11028177   -3.1292098    1.5655217   499899 
 3722000    1.1885452   -3.1292419   -1.5635353   0.11089514   -3.1292419    1.5657065   499943 
 3723000    1.1905506    -3.130803   -1.5627151   0.11635272    -3.130803    1.5680879   500026 
 3724000      1.18997   -3.1290349   -1.5619373   0.11330895   -3.1290349    1.5670975   500098 
 3725000    1.1892045   -3.1279509   -1.5619836   0.11442453   -3.1279509    1.5659672   500137 
 3726000    1.1899912    -3.128653   -1.5618033   0.11283971    -3.128653    1.5668498   500186 
 3727000    1.1894212   -3.1287664   -1.5628956   0.10799891   -3.1287664    1.5658708   500259 
 3728000    1.1891802   -3.1283004   -1.5630255   0.11090454   -3.1283004    1.5652749   500348 
 3729000    1.1894375   -3.1288645   -1.5634762   0.11286263   -3.1288645    1.5653883   500420 
 3730000    1.1885369    -3.127781   -1.5637436   0.11291905    -3.127781    1.5640374   500473 
 3731000    1.1893102   -3.1283701   -1.5635714   0.10776261   -3.1283701    1.5647986   500555 
 3732000     1.190136   -3.1285206   -1.5628261   0.10783324   -3.1285206    1.5656945   500616 
 3733000    1.1894829   -3.1266722    -1.561987   0.10775962   -3.1266722    1.5646852   500664 
 3734000    1.1895015   -3.1269632    -1.562388   0.10705191   -3.1269632    1.5645752   500707 
 3735000      1.19177    -3.128974   -1.5616246   0.10946242    -3.128974    1.5673494   500774 
 3736000    1.1920196   -3.1278443   -1.5604077   0.10443422   -3.1278443    1.5674366   500851 
 3737000    1.1902333   -3.1268996   -1.5619275   0.11045488   -3.1268996    1.5649721   500888 
 3738000    1.1914337   -3.1275821   -1.5611787   0.10447317   -3.1275821    1.5664035   500935 
 3739000    1.1938027    -3.130575   -1.5612073   0.10947991    -3.130575    1.5693677   500983 
 3740000    1.1902444   -3.1265896   -1.5620059   0.11235454   -3.1265896    1.5645837   501017 
 3741000    1.1900375   -3.1258912   -1.5617386   0.10730376   -3.1258912    1.5641526   501068 
 3742000    1.1916033   -3.1263172    -1.560266   0.11302583   -3.1263172    1.5660512   501119 
 3743000    1.1923446   -3.1266856   -1.5598883    0.1090781   -3.1266856    1.5667972   501192 
 3744000    1.1922932    -3.126657   -1.5602179    0.1115243    -3.126657    1.5664391   501285 
 3745000    1.1925643   -3.1268032     -1.56013   0.10884541   -3.1268032    1.5666733   501324 
 3746000    1.1912264   -3.1248275   -1.5601366   0.11045385   -3.1248275    1.5646909   501396 
 3747000    1.1914915   -3.1277049   -1.5628093   0.10982259   -3.1277049    1.5648957   501442 
 3748000    1.1913556   -3.1270523   -1.5625692   0.11083288   -3.1270523    1.5644831   501517 
 3749000    1.1901576   -3.1264336   -1.5636857   0.10513723   -3.1264336    1.5627478   501569 
 3750000      1.19164   -3.1272536    -1.562762   0.10174822   -3.1272536    1.5644916   501634 
 3751000    1.1910988   -3.1278565   -1.5642499   0.10263792   -3.1278565    1.5636065   501690 
 3752000    1.1926229   -3.1288387    -1.563375   0.10779437   -3.1288387    1.5654637   501736 
 3753000    1.1917222   -3.1272205    -1.563095   0.10763964   -3.1272205    1.5641255   501786 
 3754000    1.1921734   -3.1279352   -1.5633702   0.10762373   -3.1279352     1.564565   501835 
 3755000    1.1940816   -3.1306809   -1.5638145   0.10967562   -3.1306809    1.5668663   501900 
 3756000    1.1960366   -3.1316505   -1.5624128   0.10456903   -3.1316505    1.5692377   501962 
 3757000    1.1941355   -3.1284722   -1.5618661   0.11475757   -3.1284722    1.5666062   502006 
 3758000    1.1933724   -3.1282918   -1.5628552   0.11082905   -3.1282918    1.5654366   502060 
 3759000    1.1947207   -3.1298944   -1.5628702   0.11145225   -3.1298944    1.5670242   502118 
 3760000    1.1945037   -3.1293149   -1.5627905   0.11063934   -3.1293149    1.5665244   502187 
 3761000    1.1967069   -3.1320642   -1.5629035   0.10901623   -3.1320642    1.5691607   502268 
 3762000    1.1955762   -3.1310271   -1.5634988   0.11007209   -3.1310271    1.5675283   502316 
 3763000    1.1938839   -3.1299572   -1.5648098   0.10830434   -3.1299572    1.5651474   502368 
 3764000    1.1960594   -3.1330737   -1.5653364   0.11247961   -3.1330737    1.5677373   502452 
 3765000    1.1941016    -3.131923   -1.5669574   0.11500089    -3.131923    1.5649656   502518 
 3766000    1.1948003   -3.1330888   -1.5673945   0.11400065   -3.1330888    1.5656943   502578 
 3767000    1.1967927   -3.1349567    -1.566873   0.11227071   -3.1349567    1.5680837   502649 
 3768000    1.1959808    -3.133033   -1.5662468   0.11779685    -3.133033    1.5667861   502724 
 3769000    1.1955744   -3.1325709   -1.5664885   0.11371048   -3.1325709    1.5660824   502779 
 3770000    1.1976209   -3.1342285   -1.5657431   0.11281988   -3.1342285    1.5684854   502868 
 3771000    1.1976049   -3.1354391   -1.5671867   0.10999519   -3.1354391    1.5682524   502936 
 3772000    1.1992369   -3.1380156   -1.5677478   0.11264238   -3.1380156    1.5702678   502975 
 3773000    1.1963225   -3.1347596   -1.5684449   0.11196215   -3.1347596    1.5663147   503019 
 3774000    1.1964148   -3.1336032    -1.567311   0.10664197   -3.1336032    1.5662923   503065 
 3775000    1.1946107   -3.1331537   -1.5694066   0.10644753   -3.1331537    1.5637471   503124 
 3776000    1.1962732   -3.1347056   -1.5690064   0.10856944   -3.1347056    1.5656992   503196 
 3777000     1.197972   -3.1353439   -1.5675833   0.11319893   -3.1353439    1.5677606   503248 
 3778000    1.1971306   -3.1335076    -1.567038   0.11294042   -3.1335076    1.5664696   503309 
 3779000    1.1977494   -3.1327717    -1.565726   0.11232021   -3.1327717    1.5670457   503384 
 3780000    1.1985059   -3.1346986   -1.5668592   0.11084187   -3.1346986    1.5678394   503447 
 3781000    1.1980716   -3.1324615   -1.5653708   0.11247858   -3.1324615    1.5670907   503505 
 3782000    1.1996459    -3.134235   -1.5652908   0.10795646    -3.134235    1.5689442   503571 
 3783000    1.1996748    -3.132232     -1.56344   0.11239251    -3.132232    1.5687919   503632 
 3784000     1.199218   -3.1320637   -1.5640622    0.1022262   -3.1320637    1.5680015   503694 
 3785000    1.2015316   -3.1339387   -1.5630991   0.11183621   -3.1339387    1.5708396   503754 
 3786000    1.1989604   -3.1315307   -1.5642301   0.10596545   -3.1315307    1.5673006   503811 
 3787000    1.1992375   -3.1335098    -1.566046   0.10801704   -3.1335098    1.5674638   503875 
 3788000     1.198425   -3.1313827   -1.5652108   0.11087203   -3.1313827    1.5661719   503949 
 3789000    1.1971757   -3.1295957   -1.5652303   0.10758544   -3.1295957    1.5643654   504005 
 3790000    1.1996687   -3.1330114   -1.5655409   0.11328167   -3.1330114    1.5674705   504054 
 3791000    1.1981786     -3.13195   -1.5665818   0.10789446     -3.13195    1.5653683   504104 
 3792000    1.2000822    -3.133558   -1.5659235   0.10748837    -3.133558    1.5676345   504175 
 3793000    1.1976302   -3.1290927    -1.564838   0.11417967   -3.1290927    1.5642547   504232 
 3794000    1.1986188   -3.1300558   -1.5646961   0.10406797   -3.1300558    1.5653597   504292 
 3795000    1.1997518   -3.1302464   -1.5635966   0.10691029   -3.1302464    1.5666498   504353 
 3796000    1.2002253   -3.1312498   -1.5641929   0.11254289   -3.1312498    1.5670569   504421 
 3797000    1.2004217   -3.1321821   -1.5650677   0.10980905   -3.1321821    1.5671145   504485 
 3798000     1.199932   -3.1315099   -1.5652614   0.11577811   -3.1315099    1.5662485   504558 
 3799000    1.2012595   -3.1337026   -1.5658487   0.10543884   -3.1337026    1.5678538   504599 
 3800000     1.200287   -3.1332206   -1.5668377   0.10661716   -3.1332206    1.5663829   504664 
 3801000    1.2021497   -3.1350812   -1.5665534   0.11043164   -3.1350812    1.5685278   504756 
 3802000    1.2023785   -3.1357744   -1.5671564   0.10810163   -3.1357744     1.568618   504823 
 3803000    1.2001302   -3.1337947   -1.5682277   0.10779287   -3.1337947     1.565567   504861 
 3804000    1.2006665   -3.1349343   -1.5688538   0.11289264   -3.1349343    1.5660805   504921 
 3805000    1.2008594   -3.1358846   -1.5696951   0.10839032   -3.1358846    1.5661895   504967 
 3806000    1.2018736    -3.136273   -1.5689439   0.11109256    -3.136273    1.5673291   505026 
 3807000    1.2018259   -3.1370721   -1.5699605   0.10920956   -3.1370721    1.5671117   505076 
 3808000    1.2014447   -3.1359762   -1.5695415   0.11295386   -3.1359762    1.5664348   505134 
 3809000    1.2015869   -3.1363304   -1.5698932   0.11048711   -3.1363304    1.5664372   505193 
 3810000    1.2038758   -3.1385893   -1.5693919   0.11492443   -3.1385893    1.5691974   505265 
 3811000    1.2042327    -3.137867    -1.568341   0.10759811    -3.137867    1.5695259   505309 
 3812000    1.2036453   -3.1379134   -1.5693331    0.1088956   -3.1379134    1.5685803   505367 
 3813000    1.2036684   -3.1375664   -1.5690987   0.11599111   -3.1375664    1.5684677   505413 
 3814000    1.2042942   -3.1386095   -1.5694412   0.11735738   -3.1386095    1.5691683   505450 
 3815000    1.2046158   -3.1387224   -1.5694145   0.11078273   -3.1387224    1.5693079   505540 
 3816000    1.2046151   -3.1395161   -1.5702867   0.10432721   -3.1395161    1.5692294   505565 
 3817000    1.2068869   -3.1413356   -1.5693396   0.11540286   -3.1413356     1.571996   505627 
 3818000    1.2046817   -3.1389811   -1.5700839   0.11509702   -3.1389811    1.5688972   505700 
 3819000    1.2037874   -3.1379099   -1.5702765   0.12071359   -3.1379099    1.5676334   505732 
 3820000    1.2035454   -3.1377129   -1.5705156   0.10929415   -3.1377129    1.5671974   505771 
 3821000    1.2055186   -3.1406398   -1.5710189   0.11352159   -3.1406398    1.5696209   505818 
 3822000    1.2019703   -3.1362318   -1.5713918   0.11215485   -3.1362318      1.56484   505870 
 3823000    1.2019438   -3.1354908   -1.5707842   0.11642263   -3.1354908    1.5647066   505902 
 3824000    1.2040483   -3.1377002   -1.5704769   0.11432308   -3.1377002    1.5672232   505974 
 3825000     1.203456   -3.1369173   -1.5706942   0.11124731   -3.1369173    1.5662232   506048 
 3826000    1.2049967   -3.1387946   -1.5707864   0.11123221   -3.1387946    1.5680082   506119 
 3827000    1.2061875   -3.1374672   -1.5680644   0.11429776   -3.1374672    1.5694028   506169 
 3828000    1.2047354   -3.1356495   -1.5683374   0.11835356   -3.1356495    1.5673121   506234 
 3829000    1.2046666   -3.1366635   -1.5696204   0.10589434   -3.1366635    1.5670431   506292 
 3830000    1.2049816   -3.1347954   -1.5674262   0.10665567   -3.1347954    1.5673692   506319 
 3831000     1.206314   -3.1359637   -1.5670379   0.10826399   -3.1359637    1.5689258   506376 
 3832000    1.2061897   -3.1353187   -1.5667311   0.11472898   -3.1353187    1.5685875   506433 
 3833000    1.2067284   -3.1360828   -1.5669373   0.11170581   -3.1360828    1.5691455   506479 
 3834000    1.2060203   -3.1357001   -1.5677261    0.1113336   -3.1357001    1.5679741   506560 
 3835000    1.2069459   -3.1368587   -1.5678145   0.11054081   -3.1368587    1.5690442   506603 
 3836000     1.207934    -3.139626   -1.5694211   0.10986062    -3.139626    1.5702048   506643 
 3837000    1.2079061   -3.1386623   -1.5686705   0.10828771   -3.1386623    1.5699918   506700 
 3838000    1.2074562   -3.1375293   -1.5682678   0.11064163   -3.1375293    1.5692615   506747 
 3839000    1.2060732   -3.1362746   -1.5689806   0.11000841   -3.1362746     1.567294   506802 
 3840000    1.2066244   -3.1373596   -1.5695534   0.11339558   -3.1373596    1.5678062   506868 
 3841000    1.2068591    -3.137796   -1.5697964   0.11031879    -3.137796    1.5679997   506904 
 3842000    1.2060151   -3.1365343   -1.5697672   0.11039575   -3.1365343    1.5667672   506948 
 3843000    1.2082733     -3.13794   -1.5684589   0.11270681     -3.13794    1.5694811   507019 
 3844000    1.2082132   -3.1389042   -1.5696313   0.11553693   -3.1389042     1.569273   507061 
 3845000    1.2068396   -3.1369185   -1.5695995   0.11896807   -3.1369185     1.567319   507116 
 3846000    1.2072585   -3.1379283   -1.5703095    0.1125234   -3.1379283    1.5676188   507195 
 3847000    1.2080967   -3.1398665   -1.5713635   0.11330841   -3.1398665     1.568503   507261 
 3848000    1.2077209   -3.1380377   -1.5702079   0.11717763   -3.1380377    1.5678297   507321 
 3849000    1.2074393   -3.1392214   -1.5719056   0.11136737   -3.1392214    1.5673158   507369 
 3850000    1.2102861   -3.1424609   -1.5717099   0.11102104   -3.1424609     1.570751   507453 
 3851000    1.2083025   -3.1415469    -1.573602   0.11187825   -3.1415469     1.567945   507528 
 3852000     1.209682    -3.141376   -1.5717771   0.10925634    -3.141376    1.5695989   507572 
 3853000    1.2096025   -3.1405174   -1.5712474   0.11467611   -3.1405174    1.5692701   507645 
 3854000    1.2082196   -3.1391026    -1.571781   0.11449633   -3.1391026    1.5673216   507695 
 3855000    1.2091629   -3.1407132   -1.5723718   0.11234413   -3.1407132    1.5683414   507761 
 3856000    1.2086832   -3.1401878   -1.5726754   0.11041343   -3.1401878    1.5675124   507828 
 3857000    1.2105896    -3.141918   -1.5721805   0.10786416    -3.141918    1.5697375   507908 
 3858000    1.2097411    -3.141514   -1.5730806   0.10849329    -3.141514    1.5684335   507974 
 3859000    1.2102069   -3.1401501    -1.571366   0.11757104   -3.1401501    1.5687841   508056 
 3860000     1.212325   -3.1423686   -1.5710275   0.11376793   -3.1423686     1.571341   508117 
 3861000    1.2097536   -3.1398223   -1.5719869   0.11389921   -3.1398223    1.5678354   508173 
 3862000    1.2112767    -3.141605   -1.5720057   0.11744453    -3.141605    1.5695993   508241 
 3863000    1.2121963   -3.1429041   -1.5722892   0.11321438   -3.1429041    1.5706148   508298 
 3864000    1.2104491   -3.1404685   -1.5723582    0.1168768   -3.1404685    1.5681103   508376 
 3865000     1.213469    -3.144267    -1.572464   0.11154031    -3.144267    1.5718031   508447 
 3866000     1.211303   -3.1407998   -1.5719567   0.11526651   -3.1407998    1.5688431   508497 
 3867000    1.2111073    -3.141187   -1.5727577   0.11022946    -3.141187    1.5684293   508549 
 3868000    1.2114686   -3.1409824   -1.5722579   0.11173761   -3.1409824    1.5687245   508605 
 3869000    1.2115096   -3.1408481   -1.5722432   0.11612464   -3.1408481    1.5686049   508661 
 3870000    1.2120078   -3.1425006   -1.5734173   0.11256265   -3.1425006    1.5690833   508715 
 3871000    1.2122532   -3.1427051   -1.5734707   0.10851667   -3.1427051    1.5692344   508769 
 3872000    1.2111793   -3.1409549   -1.5732769    0.1147681   -3.1409549    1.5676779   508823 
 3873000    1.2124554   -3.1421512   -1.5729665   0.11148834   -3.1421512    1.5691847   508870 
 3874000    1.2128799   -3.1428074   -1.5731968   0.10937003   -3.1428074    1.5696106   508910 
 3875000    1.2141342   -3.1445502   -1.5735509   0.10901495   -3.1445502    1.5709993   508986 
 3876000    1.2121313   -3.1430394   -1.5747673   0.11683603   -3.1430394     1.568272   509030 
 3877000    1.2125799   -3.1434146   -1.5747162   0.11384491   -3.1434146    1.5686984   509080 
 3878000    1.2128502   -3.1442888   -1.5754317   0.11085062   -3.1442888    1.5688571   509142 
 3879000    1.2132673    -3.143474   -1.5742499   0.11634158    -3.143474     1.569224   509198 
 3880000    1.2140318   -3.1452793   -1.5751806   0.10986713   -3.1452793    1.5700987   509235 
 3881000     1.213843   -3.1459152   -1.5761809   0.10820821   -3.1459152    1.5697343   509274 
 3882000    1.2139099   -3.1450913   -1.5753907   0.11713574   -3.1450913    1.5697006   509313 
 3883000    1.2138462   -3.1438304   -1.5743848   0.11418108   -3.1438304    1.5694456   509369 
 3884000    1.2141002   -3.1449355   -1.5753525   0.10847958   -3.1449355    1.5695831   509431 
 3885000    1.2135167   -3.1450688   -1.5763664    0.1129876   -3.1450688    1.5687025   509472 
 3886000    1.2152129   -3.1466243   -1.5759666   0.10964389   -3.1466243    1.5706577   509549 
 3887000    1.2140924   -3.1444719    -1.575404    0.1127156   -3.1444719    1.5690679   509595 
 3888000    1.2155252   -3.1457476   -1.5749698   0.11350456   -3.1457476    1.5707778   509641 
 3889000    1.2134325   -3.1444399   -1.5765664   0.11396632   -3.1444399    1.5678735   509706 
 3890000    1.2150779   -3.1462443   -1.5764665   0.11580415   -3.1462443    1.5697778   509778 
 3891000    1.2152588   -3.1478592   -1.5780356   0.11005751   -3.1478592    1.5698236   509839 
 3892000    1.2151681   -3.1485303    -1.578984   0.10781121   -3.1485303    1.5695463   509891 
 3893000    1.2159806   -3.1483919   -1.5779316    0.1150298   -3.1483919    1.5704603   509935 
 3894000    1.2153091   -3.1469362    -1.577454   0.11457532   -3.1469362    1.5694822   509971 
 3895000    1.2155425   -3.1474163   -1.5777526   0.11388538   -3.1474163    1.5696636   510010 
 3896000    1.2141526   -3.1462511   -1.5784929   0.11326425   -3.1462511    1.5677581   510046 
 3897000    1.2138881   -3.1459243   -1.5786675   0.11445132   -3.1459243    1.5672568   510098 
 3898000    1.2160002   -3.1478295    -1.578012   0.11576299   -3.1478295    1.5698175   510152 
 3899000    1.2150512    -3.146708   -1.5783091   0.11735313    -3.146708    1.5683988   510215 
 3900000    1.2151117   -3.1469443   -1.5786151   0.11501481   -3.1469443    1.5683293   510263 
 3901000    1.2170938   -3.1499909   -1.5793311   0.11418446   -3.1499909    1.5706598   510337 
 3902000     1.215276   -3.1475598   -1.5794364   0.11731922   -3.1475598    1.5681235   510399 
 3903000    1.2168419   -3.1495069   -1.5795075   0.11172843   -3.1495069    1.5699994   510446 
 3904000    1.2166499   -3.1481456   -1.5784309   0.11368921   -3.1481456    1.5697147   510458 
 3905000    1.2147752   -3.1450958   -1.5779072    0.1164816   -3.1450958    1.5671886   510493 
 3906000    1.2159025    -3.148156   -1.5796728   0.10638521    -3.148156    1.5684832   510545 
 3907000    1.2178487   -3.1507082   -1.5798283   0.11005072   -3.1507082    1.5708799   510582 
 3908000    1.2173069   -3.1483247   -1.5783437   0.10821567   -3.1483247    1.5699811   510647 
 3909000    1.2175178   -3.1489552   -1.5788958   0.11073079   -3.1489552    1.5700594   510710 
 3910000    1.2157077   -3.1461271   -1.5786136   0.11747674   -3.1461271    1.5675135   510779 
 3911000     1.218884   -3.1494505   -1.5780231   0.11099593   -3.1494505    1.5714274   510838 
 3912000    1.2176502   -3.1471923   -1.5775061   0.11318132   -3.1471923    1.5696862   510887 
 3913000    1.2180257   -3.1474459   -1.5773801    0.1169748   -3.1474459    1.5700658   510921 
 3914000    1.2190182   -3.1482051   -1.5770876   0.11330356   -3.1482051    1.5711175   510995 
 3915000    1.2182822   -3.1488563   -1.5788318   0.10790749   -3.1488563    1.5700245   511042 
 3916000    1.2180643   -3.1477338   -1.5781068   0.11259939   -3.1477338     1.569627   511080 
 3917000    1.2184468   -3.1488238   -1.5788513   0.11270229   -3.1488238    1.5699725   511128 
 3918000    1.2189425   -3.1481559   -1.5777752   0.11203417   -3.1481559    1.5703807   511203 
 3919000     1.220125   -3.1497782   -1.5781199   0.11173163   -3.1497782    1.5716583   511283 
 3920000    1.2188138     -3.15014    -1.580358   0.11645523     -3.15014     1.569782   511344 
 3921000    1.2180558   -3.1486337   -1.5799446   0.11049563   -3.1486337    1.5686891   511382 
 3922000    1.2198142   -3.1502535   -1.5795241   0.11029758   -3.1502535    1.5707294   511455 
 3923000    1.2178292   -3.1489251    -1.580905   0.11028397   -3.1489251    1.5680201   511505 
 3924000    1.2188734   -3.1495446   -1.5803487   0.11755535   -3.1495446    1.5691959   511560 
 3925000    1.2194262   -3.1498794   -1.5801406   0.11536577   -3.1498794    1.5697388   511615 
 3926000    1.2199774   -3.1506764   -1.5803969   0.11828318   -3.1506764    1.5702795   511670 
 3927000    1.2205004   -3.1505792   -1.5797523   0.11544249   -3.1505792    1.5708268   511711 
 3928000    1.2210862   -3.1521234   -1.5807791   0.10988402   -3.1521234    1.5713443   511788 
 3929000    1.2220313   -3.1538104   -1.5814281   0.11777509   -3.1538104    1.5723823   511846 
 3930000    1.2223505   -3.1541714   -1.5815105   0.11313208   -3.1541714    1.5726609   511889 
 3931000    1.2232581   -3.1558825    -1.582263   0.11090076   -3.1558825    1.5736196   511957 
 3932000    1.2218274   -3.1539664   -1.5823439   0.11274312   -3.1539664    1.5716225   512008 
 3933000      1.22061   -3.1523199   -1.5824043   0.11678575   -3.1523199    1.5699156   512054 
 3934000    1.2231627   -3.1549765   -1.5819405   0.11162577   -3.1549765    1.5730359   512107 
 3935000    1.2218133    -3.153827   -1.5826952   0.10832383    -3.153827    1.5711318   512162 
 3936000    1.2229257   -3.1553697   -1.5829241    0.1147811   -3.1553697    1.5724456   512200 
 3937000    1.2222616   -3.1557843   -1.5843306   0.11589706   -3.1557843    1.5714537   512245 
 3938000    1.2226687   -3.1554605   -1.5835694   0.12158963   -3.1554605    1.5718911   512273 
 3939000    1.2219379    -3.155672   -1.5848768   0.12136356    -3.155672    1.5707952   512324 
 3940000    1.2218029   -3.1556582   -1.5851683   0.11222606   -3.1556582    1.5704899   512367 
 3941000     1.221725   -3.1567166   -1.5865046   0.11300413   -3.1567166     1.570212   512425 
 3942000    1.2201598   -3.1553152   -1.5872923   0.11060374   -3.1553152    1.5680229   512483 
 3943000    1.2206848   -3.1550019   -1.5864911   0.11543738   -3.1550019    1.5685108   512544 
 3944000    1.2219487   -3.1559643   -1.5859704   0.10868049   -3.1559643     1.569994   512590 
 3945000    1.2204836   -3.1541213   -1.5861169   0.11522348   -3.1541213    1.5680044   512625 
 3946000    1.2211342   -3.1545435   -1.5859265    0.1187787   -3.1545435     1.568617   512698 
 3947000       1.2222   -3.1555621   -1.5856986   0.11391808   -3.1555621    1.5698635   512738 
 3948000    1.2236167   -3.1567531   -1.5852721   0.11380699   -3.1567531     1.571481   512804 
 3949000    1.2209263   -3.1541858   -1.5863222    0.1118852   -3.1541858    1.5678636   512857 
 3950000     1.222114   -3.1553332   -1.5861249    0.1078821   -3.1553332    1.5692083   512916 
 3951000    1.2230893   -3.1548001    -1.584465   0.11089411   -3.1548001    1.5703351   512957 
 3952000    1.2226899   -3.1546863     -1.58502   0.11158717   -3.1546863    1.5696662   513008 
 3953000    1.2232022   -3.1544229      -1.5842   0.11765511   -3.1544229    1.5702229   513041 
 3954000    1.2228186   -3.1550758   -1.5855074    0.1112159   -3.1550758    1.5695684   513094 
 3955000    1.2227581   -3.1548635   -1.5855808   0.11274614   -3.1548635    1.5692827   513162 
 3956000    1.2227558   -3.1538919   -1.5847803   0.11276641   -3.1538919    1.5691116   513217 
 3957000    1.2225062   -3.1524721   -1.5837817   0.11749192   -3.1524721    1.5686904   513250 
 3958000    1.2235266    -3.153333   -1.5835136   0.11650405    -3.153333    1.5698194   513309 
 3959000    1.2231834   -3.1530588   -1.5838265   0.11414092   -3.1530588    1.5692322   513357 
 3960000      1.22503   -3.1565411   -1.5850469   0.10915361   -3.1565411    1.5714942   513392 
 3961000    1.2240733   -3.1540556   -1.5839417   0.11327425   -3.1540556    1.5701139   513442 
 3962000    1.2240774   -3.1540201   -1.5840324   0.10887546   -3.1540201    1.5699877   513485 
 3963000    1.2238436    -3.153677   -1.5841634   0.11441917    -3.153677    1.5695136   513542 
 3964000    1.2239367   -3.1530065   -1.5834988   0.11401168   -3.1530065    1.5695077   513583 
 3965000    1.2229611   -3.1517026   -1.5835863   0.11706108   -3.1517026    1.5681162   513629 
 3966000    1.2234159   -3.1525853   -1.5840265   0.11091133   -3.1525853    1.5685588   513675 
 3967000    1.2246191   -3.1528529   -1.5828706   0.11336898   -3.1528529    1.5699823   513714 
 3968000    1.2262843     -3.15449   -1.5825411   0.12062465     -3.15449    1.5719489   513769 
 3969000    1.2261086   -3.1546925   -1.5831035   0.10993117   -3.1546925     1.571589   513813 
 3970000    1.2251989   -3.1532673   -1.5830093   0.11914032   -3.1532673    1.5702579   513867 
 3971000    1.2248545    -3.153434    -1.583819   0.11186848    -3.153434    1.5696149   513933 
 3972000    1.2262987   -3.1548692   -1.5835289   0.11144059   -3.1548692    1.5713403   513974 
 3973000    1.2259503   -3.1533501   -1.5825999   0.11895397   -3.1533501    1.5707502   514021 
 3974000     1.226515   -3.1543646   -1.5830407   0.11610908   -3.1543646    1.5713239   514070 
 3975000     1.225063   -3.1534183   -1.5840889   0.11199011   -3.1534183    1.5693294   514114 
 3976000    1.2270309   -3.1561735    -1.584424   0.10836486   -3.1561735    1.5717495   514147 
 3977000    1.2262142   -3.1549149    -1.584407   0.11513306   -3.1549149    1.5705079   514211 
 3978000    1.2280727   -3.1560018   -1.5833155   0.11460168   -3.1560018    1.5726863   514277 
 3979000    1.2272327    -3.155325   -1.5838519   0.11730416    -3.155325    1.5714731   514322 
 3980000    1.2278625    -3.156525   -1.5844105   0.11467286    -3.156525    1.5721145   514376 
 3981000    1.2253284   -3.1547734   -1.5860346   0.11883772   -3.1547734    1.5687387   514419 
 3982000    1.2262772   -3.1559546   -1.5861385    0.1190728   -3.1559546    1.5698161   514464 
 3983000    1.2249574   -3.1549905   -1.5869492   0.10769191   -3.1549905    1.5680413   514492 
 3984000    1.2266245   -3.1583441    -1.588297   0.10523909   -3.1583441    1.5700471   514534 
 3985000    1.2262057   -3.1567858    -1.587476   0.11805584   -3.1567858    1.5693098   514600 
 3986000    1.2271687    -3.157695    -1.587345   0.10892664    -3.157695      1.57035   514663 
 3987000    1.2253269   -3.1554754   -1.5875615   0.11898061   -3.1554754    1.5679139   514689 
 3988000    1.2272963     -3.15745   -1.5871717   0.11898262     -3.15745    1.5702783   514740 
 3989000    1.2257473   -3.1568134   -1.5886115   0.10958954   -3.1568134     1.568202   514771 
 3990000    1.2273131   -3.1585853   -1.5885936   0.11369172   -3.1585853    1.5699917   514841 
 3991000    1.2278485   -3.1590975   -1.5885946   0.11366234   -3.1590975    1.5705028   514898 
 3992000    1.2283433    -3.159077   -1.5881031    0.1135627    -3.159077    1.5709739   514951 
 3993000    1.2287935   -3.1583404   -1.5869065   0.11958738   -3.1583404    1.5714338   514989 
 3994000     1.228075   -3.1580094   -1.5876134   0.11318242   -3.1580094     1.570396   515028 
 3995000    1.2266201   -3.1565989   -1.5881547   0.11904347   -3.1565989    1.5684442   515058 
 3996000     1.228404   -3.1585844   -1.5879903   0.11312931   -3.1585844    1.5705941   515101 
 3997000    1.2272914   -3.1572249   -1.5882574   0.11521579   -3.1572249    1.5689675   515168 
 3998000    1.2282482   -3.1596184   -1.5896563   0.11929711   -3.1596184    1.5699621   515243 
 3999000    1.2284434   -3.1591826    -1.589099   0.11412615   -3.1591826    1.5700837   515285 
 4000000    1.2286789   -3.1596853   -1.5894713   0.11452163   -3.1596853     1.570214   515341 
 4001000    1.2294493   -3.1601059   -1.5890628   0.11393824   -3.1601059    1.5710431   515392 
 4002000    1.2290249   -3.1599706   -1.5895979   0.11458922   -3.1599706    1.5703727   515434 
 4003000    1.2269354   -3.1567273   -1.5891855   0.11630176   -3.1567273    1.5675418   515487 
 4004000    1.2285684   -3.1590603   -1.5895814   0.11438405   -3.1590603    1.5694789   515536 
 4005000    1.2271022   -3.1571273   -1.5897312   0.11094753   -3.1571273    1.5673961   515605 
 4006000    1.2269465   -3.1560619    -1.589032   0.11473212   -3.1560619      1.56703   515660 
 4007000    1.2292251   -3.1583795   -1.5885854   0.11509959   -3.1583795    1.5697941   515708 
 4008000    1.2277471   -3.1557765   -1.5880159   0.11383569   -3.1557765    1.5677606   515756 
 4009000     1.230636   -3.1588968   -1.5876665   0.11278496   -3.1588968    1.5712303   515828 
 4010000    1.2312367   -3.1583827   -1.5865318   0.11396276   -3.1583827    1.5718509   515876 
 4011000    1.2308366   -3.1578942   -1.5866638   0.11672753   -3.1578942    1.5712305   515912 
 4012000    1.2307183   -3.1574719    -1.586502   0.11200561   -3.1574719    1.5709699   515948 
 4013000    1.2296792   -3.1576866   -1.5882165   0.11201447   -3.1576866    1.5694701   516005 
 4014000    1.2286334   -3.1553867   -1.5874003   0.11965697   -3.1553867    1.5679864   516054 
 4015000    1.2298903   -3.1562553   -1.5868503   0.11469758   -3.1562553     1.569405   516115 
 4016000    1.2305265   -3.1569782    -1.586944    0.1156928   -3.1569782    1.5700342   516175 
 4017000     1.230883   -3.1581064   -1.5878606   0.11656205   -3.1581064    1.5702458   516255 
 4018000    1.2300591   -3.1571156    -1.588006   0.10968639   -3.1571156    1.5691096   516283 
 4019000    1.2298881     -3.15762   -1.5888378   0.11700812     -3.15762    1.5687822   516319 
 4020000     1.231516   -3.1593118   -1.5886023     0.114321   -3.1593118    1.5707095   516368 
 4021000    1.2304742   -3.1578239   -1.5885981   0.11536496   -3.1578239    1.5692258   516419 
 4022000    1.2313845   -3.1590481   -1.5887739   0.11159701   -3.1590481    1.5702742   516456 
 4023000    1.2334542   -3.1612007   -1.5884486   0.11320616   -3.1612007    1.5727521   516509 
 4024000     1.231859   -3.1589071   -1.5882529   0.11927582   -3.1589071    1.5706542   516530 
 4025000    1.2334127   -3.1610401   -1.5885388   0.11581545   -3.1610401    1.5725013   516574 
 4026000     1.233163   -3.1614187   -1.5894185   0.11506202   -3.1614187    1.5720003   516634 
 4027000    1.2331057   -3.1603509   -1.5886062   0.11633778   -3.1603509    1.5717447   516694 
 4028000    1.2339273   -3.1608546   -1.5882026   0.11638224   -3.1608546     1.572652   516740 
 4029000    1.2338301   -3.1611456   -1.5887726   0.11715063   -3.1611456     1.572373   516791 
 4030000    1.2363546    -3.162817   -1.5873336   0.12368302    -3.162817    1.5754834   516826 
 4031000    1.2346592   -3.1611461   -1.5879662   0.11909659   -3.1611461    1.5731799   516873 
 4032000    1.2348489   -3.1611903   -1.5878996   0.11670926   -3.1611903    1.5732907   516916 
 4033000    1.2355917   -3.1634395   -1.5893212   0.11405704   -3.1634395    1.5741183   516955 
 4034000    1.2329953   -3.1605939   -1.5899018   0.11349588   -3.1605939    1.5706921   516994 
 4035000    1.2332551    -3.161444   -1.5905091   0.11546172    -3.161444    1.5709349   517023 
 4036000    1.2348993   -3.1637488   -1.5908838   0.11705861   -3.1637488     1.572865   517077 
 4037000    1.2337033   -3.1630897   -1.5918483   0.11346253   -3.1630897    1.5712414   517110 
 4038000    1.2317973   -3.1612342    -1.592572   0.11829932   -3.1612342    1.5686623   517160 
 4039000    1.2315398   -3.1599874   -1.5917471   0.12075329   -3.1599874    1.5682403   517191 
 4040000    1.2321244   -3.1615005   -1.5926825   0.11559097   -3.1615005     1.568818   517246 
 4041000    1.2330402   -3.1636823   -1.5938683    0.1119072   -3.1636823     1.569814   517302 
 4042000    1.2307466   -3.1609226   -1.5942436   0.10943909   -3.1609226     1.566679   517373 
 4043000    1.2333122   -3.1642825   -1.5944954    0.1119028   -3.1642825    1.5697871   517425 
 4044000    1.2338145    -3.163663   -1.5933549   0.11456912    -3.163663    1.5703081   517464 
 4045000    1.2345838   -3.1638389   -1.5927158    0.1124466   -3.1638389    1.5711232   517518 
 4046000    1.2350062   -3.1633069   -1.5917645   0.11696644   -3.1633069    1.5715424   517557 
 4047000    1.2353406   -3.1621349    -1.590319   0.11117911   -3.1621349     1.571816   517607 
 4048000     1.238804   -3.1674115   -1.5913227   0.11544318   -3.1674115    1.5760887   517651 
 4049000    1.2360087   -3.1638171   -1.5913363   0.11471765   -3.1638171    1.5724807   517668 
 4050000    1.2371363   -3.1647436   -1.5909013   0.11490055   -3.1647436    1.5738423   517692 
 4051000    1.2359183   -3.1634218   -1.5912231    0.1236628   -3.1634218    1.5721987   517723 
 4052000    1.2364015   -3.1641618    -1.591485   0.11376096   -3.1641618    1.5726767   517768 
 4053000    1.2361065   -3.1632134    -1.590997   0.12132175   -3.1632134    1.5722164   517796 
 4054000    1.2369108   -3.1648012   -1.5917258   0.11857329   -3.1648012    1.5730754   517850 
 4055000    1.2370213   -3.1660837   -1.5931017   0.11369972   -3.1660837     1.572982   517927 
 4056000    1.2363816   -3.1661086   -1.5940978   0.12006953   -3.1661086    1.5720108   517979 
 4057000    1.2360815   -3.1660049   -1.5945244   0.11183283   -3.1660049    1.5714805   518028 
 4058000    1.2347053   -3.1646898   -1.5951467   0.11949673   -3.1646898    1.5695431   518090 
 4059000    1.2348789   -3.1655175   -1.5959023   0.11519305   -3.1655175    1.5696153   518139 
 4060000    1.2368683   -3.1686947   -1.5967054   0.11549618   -3.1686947    1.5719893   518190 
 4061000    1.2337853   -3.1654407   -1.5975423   0.11224619   -3.1654407    1.5678985   518247 
 4062000    1.2362233   -3.1669561   -1.5961322   0.11512684   -3.1669561    1.5708239   518304 
 4063000    1.2336651   -3.1639328   -1.5965017   0.12019412   -3.1639328    1.5674312   518351 
 4064000    1.2354076   -3.1663624   -1.5967809   0.11825277   -3.1663624    1.5695815   518372 
 4065000     1.235856   -3.1670992   -1.5970631   0.10762616   -3.1670992    1.5700361   518410 
 4066000    1.2357741   -3.1674636    -1.597692   0.11639744   -3.1674636    1.5697716   518463 
 4067000    1.2345547   -3.1655489   -1.5975078   0.11632473   -3.1655489    1.5680411   518523 
 4068000    1.2365599   -3.1673319    -1.596962   0.11666661   -3.1673319    1.5703699   518595 
 4069000    1.2374887    -3.168383   -1.5970639   0.11703486    -3.168383    1.5713192   518671 
 4070000    1.2364995   -3.1667278   -1.5968281    0.1169864   -3.1667278    1.5698996   518725 
 4071000    1.2375403   -3.1673679   -1.5963377   0.11096427   -3.1673679    1.5710303   518788 
 4072000    1.2383811   -3.1671381   -1.5952132   0.11744533   -3.1671381     1.571925   518845 
 4073000    1.2387433   -3.1682441   -1.5959806   0.11688283   -3.1682441    1.5722635   518885 
 4074000    1.2425645   -3.1729559   -1.5959791   0.11551557   -3.1729559    1.5769767   518930 
 4075000    1.2406091   -3.1705303   -1.5962263    0.1208527   -3.1705303     1.574304   518993 
 4076000    1.2402556   -3.1687383   -1.5950648   0.11700586   -3.1687383    1.5736735   519053 
 4077000    1.2390422   -3.1673159   -1.5953485   0.11667254   -3.1673159    1.5719674   519108 
 4078000    1.2398308   -3.1685648   -1.5957182   0.11246357   -3.1685648    1.5728466   519148 
 4079000    1.2416243   -3.1709696   -1.5959964    0.1116987   -3.1709696    1.5749732   519197 
 4080000    1.2398092   -3.1673584    -1.594833   0.12088741   -3.1673584    1.5725253   519245 
 4081000    1.2374118   -3.1662886    -1.596946   0.11563674   -3.1662886    1.5693426   519292 
 4082000    1.2406821   -3.1705507   -1.5971697   0.11442315   -3.1705507     1.573381   519328 
 4083000    1.2383122   -3.1675761   -1.5973215   0.11388452   -3.1675761    1.5702547   519368 
 4084000     1.237983     -3.16764   -1.5979599   0.11824008     -3.16764    1.5696801   519420 
 4085000    1.2397295   -3.1678658   -1.5961437   0.11297575   -3.1678658    1.5717221   519477 
 4086000    1.2416862   -3.1690458   -1.5949612   0.11478258   -3.1690458    1.5740846   519516 
 4087000    1.2428791   -3.1702625   -1.5947839   0.11369666   -3.1702625    1.5754786   519555 
 4088000    1.2413128   -3.1688115   -1.5954577   0.11427262   -3.1688115    1.5733538   519601 
 4089000    1.2402591   -3.1673623    -1.595459   0.12420697   -3.1673623    1.5719033   519639 
 4090000    1.2408916   -3.1687807    -1.596218   0.11574243   -3.1687807    1.5725627   519686 
 4091000    1.2428189   -3.1712052    -1.596391   0.11384077   -3.1712052    1.5748142   519749 
 4092000     1.243161   -3.1717373   -1.5966229   0.11847043   -3.1717373    1.5751144   519793 
 4093000    1.2422241   -3.1705202   -1.5967806   0.11970806   -3.1705202    1.5737395   519855 
 4094000     1.242714   -3.1729449   -1.5987694   0.11611439   -3.1729449    1.5741754   519916 
 4095000    1.2421234    -3.172017   -1.5987319   0.11001159    -3.172017    1.5732851   519963 
 4096000    1.2430228   -3.1708886   -1.5965794   0.11882748   -3.1708886    1.5743092   520001 
 4097000    1.2429338   -3.1715221   -1.5974345   0.11273406   -3.1715221    1.5740876   520037 
 4098000    1.2436114   -3.1724986   -1.5977255   0.12339845   -3.1724986    1.5747731   520094 
 4099000    1.2426623   -3.1715789   -1.5981226   0.11984823   -3.1715789    1.5734563   520132 
 4100000    1.2421876   -3.1702506   -1.5975739   0.12373422   -3.1702506    1.5726768   520191 
 4101000    1.2426602   -3.1715762   -1.5984311   0.12143792   -3.1715762    1.5731451   520234 
 4102000    1.2433622   -3.1720138   -1.5981131   0.11861326   -3.1720138    1.5739007   520278 
 4103000    1.2431838   -3.1721407   -1.5986321   0.11847463   -3.1721407    1.5735085   520333 
 4104000    1.2458248   -3.1754602   -1.5987696   0.11316699   -3.1754602    1.5766906   520386 
 4105000    1.2441389   -3.1737111   -1.5993901   0.11467026   -3.1737111     1.574321   520464 
 4106000    1.2424029    -3.171199   -1.5991925   0.12222676    -3.171199    1.5720065   520503 
 4107000    1.2431477   -3.1717394   -1.5989174   0.11825464   -3.1717394     1.572822   520545 
 4108000    1.2441766   -3.1727527   -1.5987952   0.12310311   -3.1727527    1.5739575   520600 
 4109000    1.2435711   -3.1730159   -1.5999816   0.11785719   -3.1730159    1.5730343   520652 
 4110000    1.2412674   -3.1698686   -1.5998931   0.12108867   -3.1698686    1.5699755   520700 
 4111000    1.2429657   -3.1720805   -1.6000926   0.11762608   -3.1720805    1.5719878   520745 
 4112000     1.242694   -3.1722409   -1.6007506   0.11546289   -3.1722409    1.5714903   520796 
 4113000    1.2438072   -3.1725525   -1.5997753   0.11653941   -3.1725525    1.5727771   520836 
 4114000    1.2433078   -3.1715921   -1.5995641   0.11613879   -3.1715921     1.572028   520875 
 4115000    1.2435859   -3.1723811   -1.6001585   0.11565454   -3.1723811    1.5722226   520927 
 4116000    1.2429427   -3.1722365   -1.6009537   0.11927847   -3.1722365    1.5712828   520969 
 4117000    1.2426554   -3.1719122   -1.6011645   0.11395822   -3.1719122    1.5707477   521026 
 4118000    1.2452059   -3.1747741   -1.6009354   0.11738959   -3.1747741    1.5738387   521070 
 4119000    1.2432181   -3.1716836   -1.6004959   0.11306305   -3.1716836    1.5711877   521116 
 4120000    1.2448237   -3.1735653   -1.6004783   0.11659679   -3.1735653     1.573087   521159 
 4121000    1.2457713   -3.1742847   -1.6000666   0.11517847   -3.1742847    1.5742181   521181 
 4122000    1.2442683   -3.1715633   -1.5993984   0.11577714   -3.1715633    1.5721649   521232 
 4123000    1.2437648   -3.1723322   -1.6009242   0.11278502   -3.1723322    1.5714081   521272 
 4124000    1.2442835   -3.1742253   -1.6023488   0.11097755   -3.1742253    1.5718765   521334 
 4125000    1.2431344   -3.1730824   -1.6027931   0.11554732   -3.1730824    1.5702893   521379 
 4126000    1.2431275   -3.1736411   -1.6034749   0.11088051   -3.1736411    1.5701662   521417 
 4127000    1.2429089   -3.1727201   -1.6029354   0.10991342   -3.1727201    1.5697847   521452 
 4128000    1.2456165   -3.1762067   -1.6031079   0.12068524   -3.1762067    1.5730988   521487 
 4129000    1.2448742   -3.1743422   -1.6023557   0.12006304   -3.1743422    1.5719864   521545 
 4130000    1.2440505   -3.1733013   -1.6024634   0.11490748   -3.1733013    1.5708379   521581 
 4131000    1.2459752   -3.1760695   -1.6029762   0.11941592   -3.1760695    1.5730933   521639 
 4132000    1.2445673   -3.1745791   -1.6033718    0.1161641   -3.1745791    1.5712073   521675 
 4133000    1.2437912   -3.1732493    -1.603073   0.11567311   -3.1732493    1.5701763   521692 
 4134000    1.2431915   -3.1719768   -1.6026628   0.11905093   -3.1719768     1.569314   521727 
 4135000    1.2465542   -3.1758716   -1.6024183   0.11622103   -3.1758716    1.5734532   521762 
 4136000    1.2461174   -3.1750195   -1.6022924   0.11931009   -3.1750195    1.5727271   521820 
 4137000    1.2463953   -3.1745357   -1.6016146   0.11614557   -3.1745357    1.5729211   521872 
 4138000     1.247527   -3.1757944   -1.6015538   0.11958452   -3.1757944    1.5742406   521908 
 4139000    1.2464201   -3.1747499   -1.6021139    0.1166528   -3.1747499     1.572636   521977 
 4140000    1.2451955   -3.1748748   -1.6038591    0.1182212   -3.1748748    1.5710156   522002 
 4141000    1.2445079   -3.1746981   -1.6046823   0.11143676   -3.1746981    1.5700158   522046 
 4142000    1.2449092   -3.1761794   -1.6058409   0.12092927   -3.1761794    1.5703385   522107 
 4143000    1.2447855   -3.1769145   -1.6068342   0.11135731   -3.1769145    1.5700803   522141 
 4144000    1.2439233   -3.1746616   -1.6058341   0.11184514   -3.1746616    1.5688275   522196 
 4145000    1.2454136   -3.1765859   -1.6060052   0.11574557   -3.1765859    1.5705807   522238 
 4146000    1.2446002   -3.1744485   -1.6050498   0.11668442   -3.1744485    1.5693987   522290 
 4147000    1.2445965    -3.175093   -1.6058582   0.11623863    -3.175093    1.5692348   522343 
 4148000    1.2443486    -3.174741    -1.605999      0.11194    -3.174741     1.568742   522403 
 4149000    1.2459865   -3.1761783   -1.6054856    0.1101673   -3.1761783    1.5706927   522441 
 4150000      1.24613   -3.1759315   -1.6051602   0.12145545   -3.1759315    1.5707713   522475 
 4151000    1.2452502   -3.1746179   -1.6051418   0.11929685   -3.1746179    1.5694761   522537 
 4152000    1.2464972   -3.1752802   -1.6043496   0.11767323   -3.1752802    1.5709306   522576 
 4153000    1.2469243   -3.1769217   -1.6056032   0.11615519   -3.1769217    1.5713185   522626 
 4154000    1.2476749   -3.1773391   -1.6052012      0.11509   -3.1773391    1.5721379   522668 
 4155000    1.2480829   -3.1776895   -1.6051517   0.11900219   -3.1776895    1.5725378   522706 
 4156000    1.2479976   -3.1775821   -1.6053022   0.12705249   -3.1775821    1.5722799   522756 
 4157000    1.2479356    -3.178751   -1.6066816   0.11443082    -3.178751    1.5720694   522800 
 4158000    1.2475248   -3.1793658    -1.607928   0.12021043   -3.1793658    1.5714377   522838 
 4159000    1.2483456   -3.1798145   -1.6074632   0.11534354   -3.1798145    1.5723513   522878 
 4160000    1.2474519   -3.1779614   -1.6068349   0.12060334   -3.1779614    1.5711265   522911 
 4161000    1.2482974   -3.1800153   -1.6080494   0.11025652   -3.1800153     1.571966   522986 
 4162000    1.2483056   -3.1802069   -1.6083238   0.11539064   -3.1802069    1.5718831   523017 
 4163000    1.2496324   -3.1805627   -1.6072285   0.11642957   -3.1805627    1.5733342   523090 
 4164000    1.2468652   -3.1765554   -1.6068163   0.11818402   -3.1765554    1.5697391   523127 
 4165000    1.2492695   -3.1787897    -1.606234   0.11999376   -3.1787897    1.5725557   523197 
 4166000    1.2514248   -3.1816515   -1.6064942   0.11872561   -3.1816515    1.5751573   523234 
 4167000    1.2500521   -3.1794394   -1.6061572   0.11783627   -3.1794394    1.5732822   523283 
 4168000     1.250055   -3.1786682   -1.6054365    0.1124763   -3.1786682    1.5732317   523301 
 4169000    1.2480268   -3.1761916   -1.6056145   0.12392921   -3.1761916    1.5705771   523335 
 4170000    1.2508086   -3.1796514   -1.6057059   0.11894588   -3.1796514    1.5739456   523379 
 4171000     1.250178   -3.1785008   -1.6055051   0.11675251   -3.1785008    1.5729957   523431 
 4172000     1.250446    -3.179631   -1.6064393   0.12041308    -3.179631    1.5731917   523478 
 4173000    1.2500461   -3.1787556   -1.6062353    0.1161653   -3.1787556    1.5725203   523534 
 4174000    1.2501407   -3.1780494   -1.6056054   0.11635973   -3.1780494    1.5724441   523599 
 4175000    1.2521055   -3.1802033   -1.6054623   0.11469112   -3.1802033     1.574741   523657 
 4176000    1.2503837   -3.1797589   -1.6072644   0.11410649   -3.1797589    1.5724945   523684 
 4177000    1.2505868   -3.1783347   -1.6056689   0.11121408   -3.1783347    1.5726658   523712 
 4178000    1.2512014   -3.1793237   -1.6060833    0.1131231   -3.1793237    1.5732404   523778 
 4179000    1.2519789    -3.180418   -1.6063923   0.11987878    -3.180418    1.5740257   523842 
 4180000    1.2487216   -3.1770018   -1.6071911   0.11802277   -3.1770018    1.5698107   523882 
 4181000    1.2510786    -3.177501   -1.6048713   0.11685747    -3.177501    1.5726297   523930 
 4182000    1.2520841   -3.1810089   -1.6072534   0.12055594   -3.1810089    1.5737555   523976 
 4183000    1.2499415   -3.1785787   -1.6076752   0.12066366   -3.1785787    1.5709035   524029 
 4184000    1.2493801    -3.177803   -1.6077459   0.12131056    -3.177803    1.5700571   524076 
 4185000    1.2505796   -3.1801471   -1.6086816   0.11393906   -3.1801471    1.5714655   524109 
 4186000    1.2512825   -3.1816234   -1.6094126   0.11509776   -3.1816234    1.5722108   524155 
 4187000    1.2510301   -3.1807478    -1.609004   0.11845917   -3.1807478    1.5717438   524205 
 4188000    1.2500457   -3.1804519   -1.6100678    0.1159488   -3.1804519    1.5703842   524246 
 4189000    1.2498242   -3.1798058   -1.6097808   0.11143584   -3.1798058     1.570025   524273 
 4190000     1.251969   -3.1810197   -1.6084474   0.11525597   -3.1810197    1.5725723   524322 
 4191000    1.2503257    -3.181278   -1.6108627   0.11593627    -3.181278    1.5704153   524353 
 4192000     1.252392   -3.1836812   -1.6108475    0.1148731   -3.1836812    1.5728337   524412 
 4193000    1.2523174    -3.182044    -1.609478   0.11480283    -3.182044     1.572566   524470 
 4194000    1.2530139   -3.1839772   -1.6106595   0.11738177   -3.1839772    1.5733177   524511 
 4195000    1.2528368   -3.1825601   -1.6096417   0.12520997   -3.1825601    1.5729184   524570 
 4196000    1.2524388   -3.1833424   -1.6110286   0.11445677   -3.1833424    1.5723138   524605 
 4197000    1.2512354   -3.1821376   -1.6114035   0.11843294   -3.1821376    1.5707341   524628 
 4198000    1.2538939   -3.1848833   -1.6109198   0.11710799   -3.1848833    1.5739635   524664 
 4199000    1.2545718   -3.1855915   -1.6109481    0.1184143   -3.1855915    1.5746434   524721 
 4200000    1.2532848   -3.1837094   -1.6107773   0.11627236   -3.1837094    1.5729321   524753 
 4201000    1.2523378   -3.1829881   -1.6113253   0.11783196   -3.1829881    1.5716627   524780 
 4202000    1.2553029   -3.1873492   -1.6121214   0.11988771   -3.1873492    1.5752278   524832 
 4203000     1.253555   -3.1852077   -1.6122872   0.11858194   -3.1852077    1.5729205   524870 
 4204000    1.2541714   -3.1855439   -1.6119969   0.11616196   -3.1855439    1.5735471   524919 
 4205000    1.2537009   -3.1852837   -1.6123988   0.11625263   -3.1852837    1.5728849   524943 
 4206000     1.253787   -3.1857762   -1.6128613   0.12091383   -3.1857762    1.5729149   524969 
 4207000     1.253848   -3.1848481   -1.6119615   0.12225739   -3.1848481    1.5728866   525004 
 4208000     1.253736   -3.1853281   -1.6127588   0.11460129   -3.1853281    1.5725693   525063 
 4209000    1.2537251     -3.18514    -1.612725   0.11701327     -3.18514    1.5724149   525110 
 4210000    1.2542663    -3.184527    -1.611583   0.11742276    -3.184527    1.5729439   525160 
 4211000    1.2545054   -3.1859344   -1.6128015   0.11716965   -3.1859344    1.5731329   525197 
 4212000    1.2536621   -3.1845151   -1.6124965   0.11986302   -3.1845151    1.5720186   525216 
 4213000    1.2537112   -3.1845225    -1.612586   0.11805771   -3.1845225    1.5719365   525264 
 4214000    1.2550289   -3.1858431   -1.6123743   0.11799948   -3.1858431    1.5734688   525304 
 4215000    1.2530968   -3.1847978   -1.6139128   0.11024376   -3.1847978     1.570885   525358 
 4216000    1.2523822   -3.1852074   -1.6153198   0.11480426   -3.1852074    1.5698876   525392 
 4217000    1.2532475   -3.1853346   -1.6145119   0.11404418   -3.1853346    1.5708228   525442 
 4218000    1.2530161    -3.184812   -1.6144377   0.11636773    -3.184812    1.5703743   525495 
 4219000    1.2536199   -3.1854244   -1.6144698   0.11552395   -3.1854244    1.5709547   525554 
 4220000    1.2541907   -3.1853443    -1.613752   0.11817158   -3.1853443    1.5715923   525580 
 4221000    1.2540882   -3.1853476   -1.6140303    0.1214089   -3.1853476    1.5713173   525629 
 4222000    1.2550926    -3.187431   -1.6149689   0.11180214    -3.187431    1.5724621   525667 
 4223000    1.2533015   -3.1856636   -1.6155799   0.11622169   -3.1856636    1.5700837   525712 
 4224000    1.2543533   -3.1872431   -1.6159225   0.11935483   -3.1872431    1.5713206   525739 
 4225000    1.2533528   -3.1861546   -1.6161977   0.11475371   -3.1861546    1.5699569   525776 
 4226000    1.2544369   -3.1870725   -1.6158534   0.11692208   -3.1870725    1.5712191   525808 
 4227000    1.2558745    -3.187709   -1.6147611   0.11971775    -3.187709    1.5729479   525832 
 4228000    1.2544237   -3.1860081   -1.6150237   0.12295637   -3.1860081    1.5709845   525881 
 4229000    1.2571249   -3.1881224   -1.6138927    0.1149983   -3.1881224    1.5742296   525927 
 4230000    1.2559119   -3.1868537   -1.6141939   0.11999659   -3.1868537    1.5726599   525944 
 4231000    1.2577242   -3.1898282   -1.6149768   0.11791057   -3.1898282    1.5748514   525970 
 4232000    1.2568269   -3.1890098   -1.6153748   0.12117955   -3.1890098    1.5736351   526001 
 4233000    1.2572969   -3.1898094   -1.6157952   0.11410457   -3.1898094    1.5740141   526071 
 4234000    1.2575891   -3.1885087   -1.6142006   0.12299952   -3.1885087    1.5743081   526095 
 4235000    1.2584557   -3.1893142    -1.614098   0.12371935   -3.1893142    1.5752163   526154 
 4236000    1.2576088   -3.1889659   -1.6149173   0.12623928   -3.1889659    1.5740485   526190 
 4237000     1.258052   -3.1905687   -1.6161151   0.12428356   -3.1905687    1.5744536   526240 
 4238000    1.2581783   -3.1912604   -1.6167804   0.11435804   -3.1912604      1.57448   526284 
 4239000     1.256903   -3.1898226    -1.617064   0.11717051   -3.1898226    1.5727586   526326 
 4240000    1.2572957     -3.18968   -1.6165884   0.12259679     -3.18968    1.5730916   526379 
 4241000     1.256302   -3.1898553   -1.6181145   0.11337558   -3.1898553    1.5717408   526415 
 4242000    1.2582497   -3.1916911   -1.6176332   0.11292631   -3.1916911    1.5740579   526455 
 4243000    1.2563399   -3.1906403   -1.6190491   0.11437102   -3.1906403    1.5715912   526481 
 4244000    1.2567336   -3.1901818   -1.6181996   0.11020026   -3.1901818    1.5719822   526515 
 4245000    1.2570381   -3.1901229   -1.6178823   0.11548746   -3.1901229    1.5722406   526556 
 4246000    1.2557178   -3.1899064   -1.6193679   0.11630967   -3.1899064    1.5705386   526573 
 4247000    1.2566924   -3.1896257   -1.6179667   0.11907715   -3.1896257     1.571659   526606 
 4248000    1.2577176   -3.1911693   -1.6183835   0.11550879   -3.1911693    1.5727858   526658 
 4249000    1.2574922   -3.1908499   -1.6184923   0.11591933   -3.1908499    1.5723576   526707 
 4250000    1.2567302   -3.1891382   -1.6178765   0.11982995   -3.1891382    1.5712617   526755 
 4251000      1.25779   -3.1906887   -1.6182484   0.11299354   -3.1906887    1.5724404   526804 
 4252000    1.2591115   -3.1915731    -1.617618    0.1190994   -3.1915731    1.5739551   526850 
 4253000    1.2573465   -3.1895314    -1.617908   0.12379787   -3.1895314    1.5716234   526892 
 4254000    1.2580976   -3.1897542   -1.6173202   0.11933992   -3.1897542     1.572434   526935 
 4255000    1.2582261   -3.1896754   -1.6171346   0.11890481   -3.1896754    1.5725408   526953 
 4256000    1.2584722   -3.1893681    -1.616654   0.12256001   -3.1893681    1.5727141   526998 
 4257000    1.2587122   -3.1919622   -1.6190645   0.11294905   -3.1919622    1.5728976   527037 
 4258000    1.2564933   -3.1900871   -1.6200635   0.10984499   -3.1900871    1.5700236   527071 
 4259000    1.2557503    -3.189921   -1.6210252   0.12325354    -3.189921    1.5688958   527138 
 4260000    1.2586637   -3.1930621   -1.6206517   0.11252943   -3.1930621    1.5724104   527180 
 4261000    1.2566423   -3.1897267   -1.6199399   0.12148111   -3.1897267    1.5697868   527213 
 4262000    1.2587572   -3.1923258   -1.6199537   0.11954904   -3.1923258    1.5723721   527232 
 4263000    1.2579659   -3.1921008   -1.6208244   0.11713569   -3.1921008    1.5712764   527268 
 4264000    1.2572088   -3.1916351   -1.6214593   0.11674433   -3.1916351    1.5701758   527320 
 4265000    1.2572643   -3.1923769   -1.6222121   0.11273416   -3.1923769    1.5701648   527347 
 4266000     1.258097   -3.1923982   -1.6213664   0.11512586   -3.1923982    1.5710319   527405 
 4267000    1.2588413   -3.1933045   -1.6214892   0.11364524   -3.1933045    1.5718153   527454 
 4268000    1.2549963   -3.1884585   -1.6215571   0.12242652   -3.1884585    1.5669015   527492 
 4269000     1.258464   -3.1938931   -1.6227842   0.12359502   -3.1938931    1.5711089   527533 
 4270000    1.2582657   -3.1938398   -1.6230202   0.11919181   -3.1938398    1.5708196   527547 
 4271000    1.2593466   -3.1948953   -1.6228424   0.11656534   -3.1948953    1.5720529   527586 
 4272000    1.2580025   -3.1937572   -1.6235577   0.12199802   -3.1937572    1.5701994   527645 
 4273000    1.2590215   -3.1952345   -1.6238495   0.12141915   -3.1952345    1.5713849   527674 
 4274000    1.2592087   -3.1954518   -1.6239345   0.11513608   -3.1954518    1.5715173   527708 
 4275000    1.2601837   -3.1972066   -1.6245738   0.11495873   -3.1972066    1.5726327   527742 
 4276000    1.2574099   -3.1942415   -1.6252129   0.11751176   -3.1942415    1.5690286   527790 
 4277000    1.2589753   -3.1958921   -1.6250531   0.11813821   -3.1958921     1.570839   527838 
 4278000    1.2585928   -3.1959813   -1.6257207   0.11660437   -3.1959813    1.5702606   527872 
 4279000    1.2589228   -3.1958405   -1.6253198   0.12077715   -3.1958405    1.5705207   527923 
 4280000     1.260372   -3.1959723   -1.6237837    0.1163389   -3.1959723    1.5721886   527970 
 4281000     1.260906   -3.1966493   -1.6239614   0.11697816   -3.1966493    1.5726878   528026 
 4282000    1.2592753   -3.1949756   -1.6244108   0.12185928   -3.1949756    1.5705648   528056 
 4283000    1.2615327   -3.1964836   -1.6231958   0.11801755   -3.1964836    1.5732878   528087 
 4284000    1.2610706   -3.1976489   -1.6250594   0.11290102   -3.1976489    1.5725894   528128 
 4285000    1.2593488   -3.1957647   -1.6254205    0.1163448   -3.1957647    1.5703442   528161 
 4286000    1.2606099   -3.1973998   -1.6256171   0.12238621   -3.1973998    1.5717827   528206 
 4287000    1.2593649   -3.1953831   -1.6252686   0.12220358   -3.1953831    1.5701145   528245 
 4288000    1.2604448   -3.1966058   -1.6252818   0.10861694   -3.1966058     1.571324   528291 
 4289000     1.258242   -3.1946307   -1.6261656   0.11379366   -3.1946307    1.5684651   528329 
 4290000    1.2604296   -3.1984944   -1.6274154   0.11614522   -3.1984944     1.571079   528367 
 4291000     1.260083   -3.1971665   -1.6266622   0.12250899   -3.1971665    1.5705043   528415 
 4292000    1.2600657   -3.1957059   -1.6253688   0.11717172   -3.1957059    1.5703371   528464 
 4293000    1.2595156    -3.195332   -1.6257932    0.1243778    -3.195332    1.5695388   528502 
 4294000    1.2601752   -3.1968687   -1.6266892   0.11600711   -3.1968687    1.5701795   528563 
 4295000    1.2614172   -3.1972286     -1.62568   0.11813532   -3.1972286    1.5715486   528623 
 4296000    1.2608891   -3.1962652   -1.6254935   0.11940617   -3.1962652    1.5707718   528663 
 4297000    1.2615507   -3.1969047   -1.6254187   0.12092871   -3.1969047     1.571486   528700 
 4298000     1.260949   -3.1958818   -1.6252344   0.12245056   -3.1958818    1.5706474   528730 
 4299000    1.2611664    -3.197318   -1.6265276   0.12391817    -3.197318    1.5707904   528773 
 4300000    1.2605194   -3.1964872   -1.6265916   0.11979846   -3.1964872    1.5698956   528803 
 4301000    1.2617947   -3.1983938   -1.6269932   0.11785417   -3.1983938    1.5714006   528831 
 4302000    1.2619515   -3.1983503   -1.6269594    0.1195076   -3.1983503    1.5713909   528900 
 4303000    1.2620879   -3.1996558   -1.6282109   0.11467925   -3.1996558    1.5714449   528939 
 4304000    1.2609617   -3.1983384   -1.6284947   0.11672426   -3.1983384    1.5698437   529006 
 4305000    1.2627546   -3.1996072   -1.6276709   0.11699976   -3.1996072    1.5719362   529053 
 4306000    1.2627302   -3.2001757   -1.6283917    0.1191179   -3.2001757     1.571784   529094 
 4307000    1.2621392   -3.1996801   -1.6287416   0.11693877   -3.1996801    1.5709385   529131 
 4308000    1.2612677   -3.1973758   -1.6276881   0.12235837   -3.1973758    1.5696877   529187 
 4309000    1.2608738   -3.1971829   -1.6280389   0.11945824   -3.1971829     1.569144   529205 
 4310000     1.263192    -3.200298   -1.6283491   0.12108222    -3.200298    1.5719489   529232 
 4311000    1.2617392   -3.1983704   -1.6283896   0.11396817   -3.1983704    1.5699808   529286 
 4312000    1.2637944   -3.2000901    -1.627668   0.11703659   -3.2000901    1.5724221   529325 
 4313000    1.2636821   -3.1999144    -1.627831   0.11645438   -3.1999144    1.5720835   529392 
 4314000    1.2632056   -3.1995448   -1.6281521   0.11931748   -3.1995448    1.5713926   529425 
 4315000    1.2642902   -3.2000245    -1.627351   0.12214063   -3.2000245    1.5726735   529448 
 4316000     1.263377   -3.1988813   -1.6275188   0.11815584   -3.1988813    1.5713625   529507 
 4317000    1.2648844    -3.200426   -1.6273015   0.11933492    -3.200426    1.5731245   529545 
 4318000    1.2650148   -3.2003123   -1.6271592   0.11807287   -3.2003123    1.5731531   529590 
 4319000    1.2626405   -3.1990358   -1.6289808   0.12068074   -3.1990358     1.570055   529639 
 4320000    1.2641605   -3.2011021   -1.6291481   0.11090585   -3.2011021     1.571954   529636 
 4321000    1.2635773   -3.1991372   -1.6280389   0.11787185   -3.1991372    1.5710983   529680 
 4322000    1.2623852   -3.1982985   -1.6287595   0.12044381   -3.1982985     1.569539   529706 
 4323000    1.2618644   -3.1980051   -1.6292528   0.11259679   -3.1980051    1.5687523   529753 
 4324000    1.2641057    -3.200293   -1.6289055   0.11437545    -3.200293    1.5713874   529804 
 4325000    1.2633207   -3.1985113   -1.6281767   0.11643685   -3.1985113    1.5703345   529830 
 4326000    1.2641989   -3.1995171   -1.6282273   0.11788723   -3.1995171    1.5712898   529876 
 4327000     1.265038   -3.1993499   -1.6271032    0.1214246   -3.1993499    1.5722467   529905 
 4328000     1.266226   -3.1998802   -1.6262818   0.12066585   -3.1998802    1.5735984   529947 
 4329000    1.2658811   -3.1997318   -1.6267163   0.12100624   -3.1997318    1.5730155   529999 
 4330000    1.2666349   -3.2000059   -1.6261903   0.11900129   -3.2000059    1.5738156   530045 
 4331000    1.2678757   -3.2014958   -1.6262662   0.12474084   -3.2014958    1.5752295   530088 
 4332000    1.2674435   -3.2017616   -1.6272413   0.12604465   -3.2017616    1.5745203   530146 
 4333000    1.2669862   -3.2015735   -1.6277224   0.12358817   -3.2015735    1.5738512   530180 
 4334000    1.2667716   -3.2009308   -1.6274589   0.12103557   -3.2009308    1.5734719   530218 
 4335000    1.2672198   -3.2008543   -1.6270128   0.12244739   -3.2008543    1.5738415   530281 
 4336000    1.2670269   -3.2006903   -1.6272278   0.12685771   -3.2006903    1.5734625   530328 
 4337000    1.2671986   -3.2007864   -1.6272857   0.12572533   -3.2007864    1.5735007   530387 
 4338000    1.2673606   -3.2019193   -1.6283123   0.11989661   -3.2019193     1.573607   530419 
 4339000    1.2663974   -3.2007793   -1.6284839   0.12626853   -3.2007793    1.5722954   530458 
 4340000    1.2676392   -3.2030345    -1.629328   0.11770934   -3.2030345    1.5737065   530502 
 4341000    1.2676645   -3.2035204   -1.6298685   0.11954711   -3.2035204    1.5736519   530531 
 4342000    1.2677643   -3.2035189   -1.6298349   0.11792691   -3.2035189     1.573684   530562 
 4343000    1.2672455   -3.2036901   -1.6307154   0.11942232   -3.2036901    1.5729747   530584 
 4344000    1.2669147   -3.2040441   -1.6316548   0.11774537   -3.2040441    1.5723893   530643 
 4345000    1.2663113    -3.203452   -1.6319241     0.118232    -3.203452    1.5715279   530681 
 4346000    1.2654445   -3.2021792   -1.6318424   0.11514702   -3.2021792    1.5703367   530720 
 4347000    1.2663956   -3.2034334   -1.6320704   0.12108662   -3.2034334     1.571363   530772 
 4348000    1.2668277   -3.2039084   -1.6321484   0.11945655   -3.2039084      1.57176   530819 
 4349000     1.265542    -3.204239   -1.6341718   0.11897438    -3.204239    1.5700671   530852 
 4350000    1.2654421   -3.2048165   -1.6349857   0.10902256   -3.2048165    1.5698308   530890 
 4351000    1.2655419   -3.2046557   -1.6348045   0.12337061   -3.2046557    1.5698512   530925 
 4352000    1.2662441   -3.2052416   -1.6346051   0.11828807   -3.2052416    1.5706365   530954 
 4353000    1.2668132   -3.2057257   -1.6344603   0.11779975   -3.2057257    1.5712654   530980 
 4354000    1.2659849   -3.2046909    -1.634583   0.12026684   -3.2046909    1.5701079   531024 
 4355000    1.2670045   -3.2057165    -1.634483    0.1173551   -3.2057165    1.5712334   531071 
 4356000    1.2684591   -3.2069052   -1.6339478   0.12370943   -3.2069052    1.5729574   531098 
 4357000    1.2678216   -3.2072513   -1.6352029   0.11857835   -3.2072513    1.5720484   531138 
 4358000    1.2684796   -3.2072752    -1.634556   0.12105388   -3.2072752    1.5727192   531187 
 4359000    1.2677971   -3.2059357   -1.6341692   0.11849668   -3.2059357    1.5717665   531223 
 4360000    1.2693631   -3.2068566    -1.633202   0.11961008   -3.2068566    1.5736546   531241 
 4361000    1.2678894   -3.2057945   -1.6340674   0.11605689   -3.2057945    1.5717271   531275 
 4362000    1.2673076   -3.2054152   -1.6344596   0.11669627   -3.2054152    1.5709556   531292 
 4363000    1.2679588   -3.2058689   -1.6342126   0.12071055   -3.2058689    1.5716563   531328 
 4364000    1.2697493   -3.2078572   -1.6340497   0.12623673   -3.2078572    1.5738075   531351 
 4365000    1.2677147   -3.2056632    -1.634484   0.12366584   -3.2056632    1.5711792   531387 
 4366000     1.268583   -3.2070065   -1.6347925   0.11627691   -3.2070065     1.572214   531401 
 4367000     1.267586   -3.2070151   -1.6361698   0.11772194   -3.2070151    1.5708453   531446 
 4368000    1.2658468   -3.2057112   -1.6371215   0.12039197   -3.2057112    1.5685897   531480 
 4369000    1.2682347   -3.2077128   -1.6362647   0.11482413   -3.2077128    1.5714481   531514 
 4370000    1.2688327   -3.2085282   -1.6364011   0.11674549   -3.2085282     1.572127   531535 
 4371000    1.2695214   -3.2086059   -1.6357557   0.11449304   -3.2086059    1.5728502   531579 
 4372000    1.2660847   -3.2060743   -1.6375616   0.11741603   -3.2060743    1.5685127   531606 
 4373000    1.2680877   -3.2077476   -1.6368953   0.12121579   -3.2077476    1.5708523   531654 
 4374000    1.2679337   -3.2076249   -1.6371082   0.12089211   -3.2076249    1.5705167   531703 
 4375000    1.2682851   -3.2064028    -1.635572   0.12006603   -3.2064028    1.5708308   531744 
 4376000    1.2687378    -3.206347   -1.6350648   0.11475163    -3.206347    1.5712822   531781 
 4377000    1.2681439   -3.2069212   -1.6364839   0.11917888   -3.2069212    1.5704374   531818 
 4378000    1.2701255   -3.2093696   -1.6366674   0.11523781   -3.2093696    1.5727022   531882 
 4379000    1.2666202   -3.2059789   -1.6377145   0.11831607   -3.2059789    1.5682644   531915 
 4380000    1.2675833   -3.2069501   -1.6375787   0.12112229   -3.2069501    1.5693714   531944 
 4381000    1.2686173      -3.2072   -1.6366606   0.11561209      -3.2072    1.5705394   531982 
 4382000    1.2680924   -3.2071793   -1.6373812   0.11462887   -3.2071793    1.5697981   532013 
 4383000    1.2693746   -3.2084121   -1.6371065   0.12044373   -3.2084121    1.5713056   532040 
 4384000    1.2693303   -3.2072902   -1.6361605    0.1206629   -3.2072902    1.5711297   532081 
 4385000    1.2680745   -3.2063378   -1.6368598   0.12429879   -3.2063378    1.5694779   532114 
 4386000    1.2693933   -3.2074452   -1.6364088   0.12295576   -3.2074452    1.5710364   532139 
 4387000    1.2689867    -3.206882    -1.636461   0.11734711    -3.206882    1.5704211   532177 
 4388000    1.2694354   -3.2096419   -1.6387748   0.11868241   -3.2096419    1.5708671   532214 
 4389000    1.2693204   -3.2095937   -1.6389781   0.12138156   -3.2095937    1.5706156   532251 
 4390000    1.2689979   -3.2098007   -1.6397228   0.11151604   -3.2098007    1.5700779   532298 
 4391000    1.2684531   -3.2090523   -1.6398076   0.11629607   -3.2090523    1.5692447   532352 
 4392000    1.2703252   -3.2097723   -1.6383268    0.1207511   -3.2097723    1.5714455   532391 
 4393000     1.270994   -3.2106984   -1.6384993     0.116346   -3.2106984    1.5721991   532416 
 4394000     1.271447   -3.2123785   -1.6397047   0.11865953   -3.2123785    1.5726738   532445 
 4395000    1.2716971   -3.2126729   -1.6398021   0.11408143   -3.2126729    1.5728708   532483 
 4396000    1.2704938   -3.2109105   -1.6396459   0.12199837   -3.2109105    1.5712646   532523 
 4397000    1.2702088   -3.2111721   -1.6403869    0.1184449   -3.2111721    1.5707853   532566 
 4398000    1.2723784   -3.2127815   -1.6394727   0.11908176   -3.2127815    1.5733087   532620 
 4399000    1.2701039   -3.2114092   -1.6410751   0.12211011   -3.2114092    1.5703341   532675 
 4400000    1.2720444   -3.2132106   -1.6406603   0.12020849   -3.2132106    1.5725503   532737 
 4401000    1.2717243   -3.2123364   -1.6403028   0.12473249   -3.2123364    1.5720336   532778 
 4402000    1.2731008   -3.2145554   -1.6409472   0.12373769   -3.2145554    1.5736081   532821 
 4403000    1.2705373   -3.2117013   -1.6414444   0.11695733   -3.2117013    1.5702568   532883 
 4404000    1.2706542   -3.2121459   -1.6418301   0.12203379   -3.2121459    1.5703158   532912 
 4405000    1.2720798   -3.2146548   -1.6427424   0.11759878   -3.2146548    1.5719125   532968 
 4406000    1.2723411   -3.2150004   -1.6429066   0.11784311   -3.2150004    1.5720938   533016 
 4407000     1.272273   -3.2135932   -1.6417428    0.1207614   -3.2135932    1.5718504   533070 
 4408000    1.2720515   -3.2134718   -1.6419777   0.11962313   -3.2134718    1.5714941   533098 
 4409000    1.2717822   -3.2130753   -1.6420406   0.11679717   -3.2130753    1.5710348   533141 
 4410000    1.2729044   -3.2140693   -1.6418488   0.12066839   -3.2140693    1.5722205   533209 
 4411000    1.2711544   -3.2127122   -1.6427563   0.12005409   -3.2127122    1.5699559   533244 
 4412000    1.2724995   -3.2139976   -1.6425189   0.12277311   -3.2139976    1.5714787   533291 
 4413000    1.2719311   -3.2139563   -1.6432238   0.12328621   -3.2139563    1.5707325   533306 
 4414000     1.272321   -3.2140057   -1.6429094   0.12127485   -3.2140057    1.5710963   533346 
 4415000    1.2726685   -3.2140657   -1.6426346   0.11808747   -3.2140657    1.5714311   533378 
 4416000    1.2718095    -3.213344   -1.6431208   0.11553821    -3.213344    1.5702232   533428 
 4417000    1.2723903   -3.2135173   -1.6426418   0.11421394   -3.2135173    1.5708755   533450 
 4418000    1.2713286   -3.2114914   -1.6420237   0.11950264   -3.2114914    1.5694677   533483 
 4419000    1.2738501   -3.2141154   -1.6416588   0.12097372   -3.2141154    1.5724566   533525 
 4420000    1.2731284   -3.2128444   -1.6413935   0.11829957   -3.2128444    1.5714509   533564 
 4421000    1.2721252   -3.2116188   -1.6415181   0.12002686   -3.2116188    1.5701008   533602 
 4422000    1.2716327    -3.211017   -1.6416535    0.1226372    -3.211017    1.5693635   533646 
 4423000    1.2743163    -3.213987   -1.6414147   0.11808961    -3.213987    1.5725723   533681 
 4424000    1.2716456   -3.2118713   -1.6426947   0.11759777   -3.2118713    1.5691766   533715 
 4425000     1.270275   -3.2114624   -1.6440887   0.12237118   -3.2114624    1.5673737   533753 
 4426000    1.2705248   -3.2119962   -1.6444053    0.1148086   -3.2119962    1.5675909   533784 
 4427000    1.2711093   -3.2113963   -1.6431871   0.12678157   -3.2113963    1.5682092   533819 
 4428000    1.2719873   -3.2121174    -1.642919    0.1150005   -3.2121174    1.5691984   533851 
 4429000    1.2727893   -3.2130413   -1.6429771   0.11287658   -3.2130413    1.5700642   533893 
 4430000     1.273026   -3.2123524   -1.6421109   0.12354982   -3.2123524    1.5702415   533932 
 4431000    1.2737188   -3.2123443   -1.6413513   0.11621579   -3.2123443    1.5709931   533967 
 4432000    1.2734745    -3.211789   -1.6412002   0.11902249    -3.211789    1.5705888   534002 
 4433000    1.2731294   -3.2124035    -1.642399   0.11607151   -3.2124035    1.5700045   534056 
 4434000    1.2729979   -3.2114607   -1.6417595   0.11330062   -3.2114607    1.5697012   534104 
 4435000    1.2740645   -3.2130267   -1.6421251   0.12232236   -3.2130267    1.5709016   534143 
 4436000    1.2760748   -3.2150915   -1.6418407   0.11949515   -3.2150915    1.5732507   534187 
 4437000    1.2744852    -3.213422   -1.6422487   0.11808068    -3.213422    1.5711733   534227 
 4438000    1.2755964   -3.2151466   -1.6426947   0.11940328   -3.2151466    1.5724519   534258 
 4439000    1.2747898    -3.214223    -1.642886   0.11869805    -3.214223    1.5713371   534299 
 4440000    1.2746611   -3.2150213   -1.6439958   0.12046841   -3.2150213    1.5710255   534351 
 4441000    1.2756999   -3.2148156   -1.6426481    0.1198475   -3.2148156    1.5721675   534398 
 4442000    1.2769649   -3.2169292   -1.6433882   0.12146402   -3.2169292     1.573541   534461 
 4443000    1.2766678   -3.2165615    -1.643466   0.12376281   -3.2165615    1.5730955   534488 
 4444000    1.2764918   -3.2174466   -1.6446946   0.11958956   -3.2174466    1.5727521   534531 
 4445000    1.2772708   -3.2187116   -1.6450969   0.12113215   -3.2187116    1.5736147   534564 
 4446000    1.2755929   -3.2165755   -1.6451396   0.12110448   -3.2165755    1.5714358   534602 
 4447000    1.2756067   -3.2171725   -1.6458049   0.12262125   -3.2171725    1.5713676   534631 
 4448000    1.2759189   -3.2180713   -1.6464132    0.1148688   -3.2180713    1.5716581   534663 
 4449000    1.2754833   -3.2175525   -1.6464632   0.12018506   -3.2175525    1.5710892   534674 
 4450000    1.2755486    -3.217538   -1.6464683   0.12385211    -3.217538    1.5710697   534708 
 4451000    1.2747778   -3.2158519   -1.6458754   0.11916867   -3.2158519    1.5699764   534757 
 4452000    1.2756438   -3.2169317   -1.6460004   0.11749832   -3.2169317    1.5709313   534795 
 4453000    1.2764208   -3.2171674   -1.6453497   0.11912033   -3.2171674    1.5718177   534819 
 4454000    1.2746658   -3.2152257   -1.6457041   0.12039786   -3.2152257    1.5695215   534865 
 4455000    1.2748263   -3.2146134   -1.6450233   0.12671926   -3.2146134    1.5695901   534909 
 4456000    1.2750888   -3.2151419   -1.6453637   0.12113199   -3.2151419    1.5697782   534955 
 4457000    1.2755099    -3.216632   -1.6464704   0.12015985    -3.216632    1.5701616   535001 
 4458000    1.2757796   -3.2169978   -1.6465921   0.12138098   -3.2169978    1.5704057   535031 
 4459000    1.2755456   -3.2162282   -1.6462222   0.11943679   -3.2162282     1.570006   535069 
 4460000    1.2763995   -3.2164943   -1.6455341   0.11613779   -3.2164943    1.5709602   535102 
 4461000    1.2772285   -3.2179907   -1.6460924   0.11652285   -3.2179907    1.5718983   535130 
 4462000    1.2766052   -3.2167616   -1.6457272   0.11697492   -3.2167616    1.5710343   535163 
 4463000    1.2768216   -3.2170939   -1.6458637   0.12062712   -3.2170939    1.5712302   535187 
 4464000    1.2766165   -3.2173232    -1.646457   0.11959997   -3.2173232    1.5708662   535225 
 4465000    1.2752655   -3.2167648   -1.6476548   0.11377386   -3.2167648      1.56911   535257 
 4466000    1.2768052   -3.2199571   -1.6490936   0.11593937   -3.2199571    1.5708636   535305 
 4467000    1.2753646   -3.2182316   -1.6492372   0.12249025   -3.2182316    1.5689944   535338 
 4468000    1.2752461   -3.2191469   -1.6504242    0.1184654   -3.2191469    1.5687227   535381 
 4469000    1.2760332   -3.2197588   -1.6501411   0.12764998   -3.2197588    1.5696177   535406 
 4470000    1.2771034   -3.2209164   -1.6501408   0.11754685   -3.2209164    1.5707756   535460 
 4471000    1.2772862   -3.2205234    -1.649611   0.11623047   -3.2205234    1.5709124   535490 
 4472000     1.275618   -3.2178925   -1.6491402   0.12122068   -3.2178925    1.5687524   535527 
 4473000    1.2766714   -3.2205255   -1.6506095   0.11914744   -3.2205255     1.569916   535572 
 4474000    1.2762201   -3.2201475   -1.6508656   0.11375996   -3.2201475    1.5692819   535599 
 4475000    1.2765219   -3.2208365   -1.6513301   0.10995057   -3.2208365    1.5695064   535649 
 4476000    1.2762607   -3.2198131   -1.6506864   0.12219157   -3.2198131    1.5691267   535669 
 4477000    1.2773473   -3.2214194   -1.6510682   0.11747128   -3.2214194    1.5703512   535707 
 4478000    1.2782638    -3.223106   -1.6517306   0.11568852    -3.223106    1.5713754   535742 
 4479000    1.2775817   -3.2224901   -1.6520558   0.11637384   -3.2224901    1.5704342   535777 
 4480000    1.2775059    -3.222246   -1.6519811   0.11985676    -3.222246    1.5702649   535803 
 4481000    1.2778181   -3.2229888   -1.6524633   0.12143539   -3.2229888    1.5705255   535845 
 4482000    1.2789796   -3.2243036   -1.6524298    0.1177314   -3.2243036    1.5718739   535872 
 4483000    1.2769187   -3.2236451   -1.6543949   0.12252448   -3.2236451    1.5692502   535903 
 4484000    1.2763715   -3.2242528   -1.6558097   0.11742962   -3.2242528    1.5684431   535949 
 4485000     1.277286   -3.2243893   -1.6549103    0.1164382   -3.2243893     1.569479   535979 
 4486000    1.2774939   -3.2246779   -1.6550548   0.11593441   -3.2246779    1.5696231   536017 
 4487000    1.2769941   -3.2234829   -1.6546728   0.11858272   -3.2234829    1.5688101   536085 
 4488000     1.278393    -3.225785   -1.6553384    0.1218683    -3.225785    1.5704467   536113 
 4489000    1.2765333   -3.2227306   -1.6547235   0.11852766   -3.2227306    1.5680071   536166 
 4490000    1.2769551   -3.2221582   -1.6537821   0.12326817   -3.2221582     1.568376   536217 
 4491000    1.2782782    -3.223951   -1.6540671   0.12107879    -3.223951     1.569884   536257 
 4492000    1.2767975   -3.2224544   -1.6544562   0.11779987   -3.2224544    1.5679982   536280 
 4493000    1.2768035   -3.2223844   -1.6544783   0.12042533   -3.2223844    1.5679061   536314 
 4494000    1.2763656   -3.2210725   -1.6537859   0.11949323   -3.2210725    1.5672865   536342 
 4495000    1.2790626   -3.2239703   -1.6535125    0.1206795   -3.2239703    1.5704578   536390 
 4496000    1.2789317   -3.2239223   -1.6537189   0.12310072   -3.2239223    1.5702033   536422 
 4497000    1.2779772   -3.2223378   -1.6534263   0.11768378   -3.2223378    1.5689115   536463 
 4498000     1.277068   -3.2218344   -1.6541062   0.11603531   -3.2218344    1.5677281   536486 
 4499000    1.2798738   -3.2240923   -1.6530135    0.1125211   -3.2240923    1.5710789   536518 
 4500000    1.2802371   -3.2259055   -1.6544861   0.11655947   -3.2259055    1.5714194   536554 
 4501000    1.2780342    -3.223349   -1.6547241   0.11374701    -3.223349    1.5686248   536585 
 4502000    1.2775681   -3.2227484   -1.6547951   0.11848457   -3.2227484    1.5679534   536619 
 4503000     1.278839   -3.2231962   -1.6538001   0.11896799   -3.2231962    1.5693961   536659 
 4504000    1.2798843    -3.223241   -1.6526527   0.11999449    -3.223241    1.5705883   536690 
 4505000    1.2785988   -3.2223686   -1.6534543   0.11657106   -3.2223686    1.5689143   536723 
 4506000    1.2790541   -3.2234922   -1.6540748    0.1172693   -3.2234922    1.5694174   536742 
 4507000    1.2778014   -3.2211939     -1.65348   0.11784586   -3.2211939    1.5677139   536799 
 4508000    1.2788326   -3.2228655   -1.6539917   0.11612834   -3.2228655    1.5688738   536835 
 4509000    1.2779862   -3.2225844   -1.6548832   0.11620537   -3.2225844    1.5677012   536881 
 4510000    1.2771568   -3.2209164   -1.6543407   0.12110093   -3.2209164    1.5665757   536918 
 4511000    1.2792771   -3.2239051   -1.6548776   0.11917473   -3.2239051    1.5690274   536969 
 4512000    1.2811324    -3.225386   -1.6541941   0.11998682    -3.225386    1.5711918   537007 
 4513000    1.2806927   -3.2247918    -1.654265   0.12054899   -3.2247918    1.5705268   537050 
 4514000    1.2810495   -3.2254585   -1.6546521   0.11554055   -3.2254585    1.5708064   537104 
 4515000    1.2807313   -3.2244208   -1.6540748   0.12230175   -3.2244208     1.570346   537128 
 4516000     1.280533   -3.2247909   -1.6548488   0.12394049   -3.2247909    1.5699421   537183 
 4517000      1.28281   -3.2284131   -1.6557554   0.11674791   -3.2284131    1.5726577   537209 
 4518000    1.2830174   -3.2287929   -1.6559717   0.11866068   -3.2287929    1.5728212   537240 
 4519000    1.2818351   -3.2283355   -1.6570222   0.12172191   -3.2283355    1.5713133   537260 
 4520000    1.2818174   -3.2282905   -1.6571042   0.11758456   -3.2282905    1.5711863   537296 
 4521000    1.2792308   -3.2269981   -1.6590903   0.12531143   -3.2269981    1.5679078   537333 
 4522000    1.2795933   -3.2275462   -1.6592846   0.11697458   -3.2275462    1.5682616   537364 
 4523000    1.2815312   -3.2300503   -1.6595188   0.11333942   -3.2300503    1.5705315   537400 
 4524000    1.2804353   -3.2281437   -1.6590866   0.12010947   -3.2281437    1.5690571   537445 
 4525000    1.2814901    -3.228479   -1.6582198   0.11934161    -3.228479    1.5702591   537476 
 4526000    1.2798508   -3.2283153   -1.6601816   0.11870495   -3.2283153    1.5681336   537516 
 4527000    1.2801089   -3.2282183   -1.6598734   0.12031118   -3.2282183    1.5683449   537552 
 4528000    1.2806404   -3.2290837   -1.6601313     0.118731   -3.2290837    1.5689523   537567 
 4529000    1.2823967   -3.2312674   -1.6602892   0.12360351   -3.2312674    1.5709782   537610 
 4530000    1.2809871   -3.2299103   -1.6607785   0.11687704   -3.2299103    1.5691318   537651 
 4531000    1.2809438   -3.2297573   -1.6607982   0.11316143   -3.2297573    1.5689591   537692 
 4532000    1.2815248   -3.2292578   -1.6597329   0.11558512   -3.2292578    1.5695249   537742 
 4533000    1.2799678   -3.2279936   -1.6604922   0.11699091   -3.2279936    1.5675014   537782 
 4534000    1.2834002   -3.2309004   -1.6593302   0.11975483   -3.2309004    1.5715703   537828 
 4535000    1.2811114    -3.228079   -1.6594223   0.12194392    -3.228079    1.5686567   537866 
 4536000    1.2813062    -3.227658    -1.658856   0.12404183    -3.227658     1.568802   537898 
 4537000    1.2818424   -3.2286453   -1.6592832   0.11997188   -3.2286453    1.5693622   537931 
 4538000    1.2824134   -3.2303869   -1.6604627   0.11821684   -3.2303869    1.5699242   537978 
 4539000      1.28121   -3.2285223   -1.6601267    0.1162038   -3.2285223    1.5683955   537997 
 4540000    1.2823711   -3.2298414    -1.660147   0.11554741   -3.2298414    1.5696944   538039 
 4541000    1.2819464    -3.229391   -1.6603273   0.11523114    -3.229391    1.5690637   538077 
 4542000    1.2814799    -3.229061   -1.6606673   0.11775219    -3.229061    1.5683936   538111 
 4543000    1.2824466   -3.2290462   -1.6595803   0.11758562   -3.2290462    1.5694659   538149 
 4544000    1.2840079   -3.2302844   -1.6590099   0.12551711   -3.2302844    1.5712745   538184 
 4545000    1.2843223   -3.2307812   -1.6593001   0.11765485   -3.2307812    1.5714811   538245 
 4546000    1.2831327   -3.2292616   -1.6593382   0.11805095   -3.2292616    1.5699234   538280 
 4547000    1.2836435   -3.2287752   -1.6583027   0.12442865   -3.2287752    1.5704725   538306 
 4548000     1.285011   -3.2295535   -1.6575365   0.11638802   -3.2295535     1.572017   538350 
 4549000    1.2824455   -3.2270078    -1.658205   0.12266055   -3.2270078    1.5688028   538376 
 4550000    1.2852547    -3.229551   -1.6573613   0.12350584    -3.229551    1.5721897   538393 
 4551000     1.284024   -3.2282275   -1.6576367   0.12614251   -3.2282275    1.5705908   538425 
 4552000    1.2838663   -3.2278327    -1.657566   0.11864968   -3.2278327    1.5702667   538470 
 4553000    1.2836249   -3.2279058   -1.6579927   0.11928763   -3.2279058    1.5699131   538490 
 4554000    1.2826899   -3.2270603   -1.6584217   0.12005291   -3.2270603    1.5686386   538535 
 4555000    1.2840956   -3.2289162   -1.6586811   0.11680515   -3.2289162    1.5702351   538577 
 4556000    1.2833774   -3.2280902   -1.6588265   0.11477527   -3.2280902    1.5692636   538609 
 4557000    1.2841279    -3.228539   -1.6585064   0.11384835    -3.228539    1.5700326   538660 
 4558000    1.2833638     -3.22726   -1.6583043   0.11805222     -3.22726    1.5689557   538709 
 4559000    1.2843343   -3.2282154   -1.6581316   0.11274049   -3.2282154    1.5700839   538729 
 4560000    1.2840098   -3.2276203     -1.65807   0.11960436   -3.2276203    1.5695503   538776 
 4561000    1.2856813    -3.228894   -1.6574435    0.1186523    -3.228894    1.5714506   538825 
 4562000    1.2837569   -3.2269926    -1.657935   0.12078173   -3.2269926    1.5690576   538839 
 4563000    1.2846958    -3.228485   -1.6583323   0.11813099    -3.228485    1.5701527   538857 
 4564000    1.2829596   -3.2263909   -1.6584154   0.11898231   -3.2263909    1.5679754   538876 
 4565000    1.2837394   -3.2277906   -1.6589611   0.11874774   -3.2277906    1.5688295   538910 
 4566000    1.2857491   -3.2302266   -1.6590285   0.11415836   -3.2302266     1.571198   538940 
 4567000    1.2834729   -3.2276906   -1.6593731   0.11586696   -3.2276906    1.5683176   538974 
 4568000    1.2841371   -3.2281777   -1.6591153   0.11936693   -3.2281777    1.5690623   538997 
 4569000     1.285215   -3.2295165   -1.6592683   0.12184854   -3.2295165    1.5702482   539042 
 4570000     1.286919   -3.2320098    -1.659773   0.12052444   -3.2320098    1.5722368   539074 
 4571000      1.28547   -3.2307243   -1.6604063   0.12009251   -3.2307243     1.570318   539125 
 4572000    1.2862854   -3.2317398   -1.6605394   0.12235382   -3.2317398    1.5712004   539164 
 4573000    1.2848217   -3.2302348   -1.6609125   0.12133452   -3.2302348    1.5693222   539195 
 4574000    1.2848132   -3.2303172   -1.6610664    0.1183827   -3.2303172    1.5692508   539216 
 4575000    1.2867668   -3.2327091    -1.661215   0.11428448   -3.2327091    1.5714941   539265 
 4576000    1.2853553   -3.2325683   -1.6628388   0.12522853   -3.2325683    1.5697294   539279 
 4577000    1.2860363   -3.2329545   -1.6624924   0.12201933   -3.2329545    1.5704621   539313 
 4578000    1.2856347   -3.2325463   -1.6626386   0.12397712   -3.2325463    1.5699077   539335 
 4579000    1.2871318   -3.2350639   -1.6634068   0.12382428   -3.2350639    1.5716571   539362 
 4580000    1.2865384   -3.2350457   -1.6642325   0.11868916   -3.2350457    1.5708132   539403 
 4581000    1.2855563   -3.2347493   -1.6652342   0.11612064   -3.2347493    1.5695151   539437 
 4582000    1.2849715   -3.2345008   -1.6658073   0.11828865   -3.2345008    1.5686935   539474 
 4583000    1.2851816   -3.2347392   -1.6659636   0.12108304   -3.2347392    1.5687756   539534 
 4584000    1.2854454   -3.2353057   -1.6662954   0.11942276   -3.2353057    1.5690103   539564 
 4585000    1.2858425   -3.2349565   -1.6655226   0.11603381   -3.2349565    1.5694339   539585 
 4586000    1.2854493   -3.2351915   -1.6663568    0.1191328   -3.2351915    1.5688348   539626 
 4587000    1.2847189   -3.2353072   -1.6675207   0.11513029   -3.2353072    1.5677865   539680 
 4588000    1.2841444   -3.2350746   -1.6681169   0.11780929   -3.2350746    1.5669577   539724 
 4589000    1.2861442   -3.2362881   -1.6669803    0.1169775   -3.2362881    1.5693078   539755 
 4590000    1.2860248   -3.2356925   -1.6666583   0.11350094   -3.2356925    1.5690342   539799 
 4591000    1.2863649   -3.2357874   -1.6663993   0.12030699   -3.2357874    1.5693881   539820 
 4592000    1.2865071   -3.2364497   -1.6670073   0.11848083   -3.2364497    1.5694424   539861 
 4593000    1.2871895   -3.2360082   -1.6658788   0.11700081   -3.2360082    1.5701294   539911 
 4594000    1.2859348   -3.2342556   -1.6657817   0.12184923   -3.2342556     1.568474   539954 
 4595000    1.2874857   -3.2362777   -1.6660255   0.12144985   -3.2362777    1.5702523   539993 
 4596000    1.2885056   -3.2366347   -1.6652433   0.11607119   -3.2366347    1.5713914   540029 
 4597000    1.2873447   -3.2361906     -1.66634   0.11911775   -3.2361906    1.5698506   540072 
 4598000    1.2874805   -3.2359695   -1.6660608   0.11800728   -3.2359695    1.5699087   540109 
 4599000    1.2871772   -3.2356844   -1.6662996    0.1174183   -3.2356844    1.5693848   540162 
 4600000    1.2876998   -3.2360056   -1.6660709   0.11649202   -3.2360056    1.5699347   540192 
 4601000    1.2860074   -3.2347174   -1.6669562   0.11924217   -3.2347174    1.5677612   540230 
 4602000    1.2857434   -3.2340939   -1.6667416   0.11797253   -3.2340939    1.5673523   540260 
 4603000     1.287335   -3.2351649    -1.666009   0.12195676   -3.2351649    1.5691559   540307 
 4604000    1.2878668    -3.236524   -1.6667983   0.11312756    -3.236524    1.5697257   540334 
 4605000    1.2884182   -3.2367336   -1.6664869   0.11820666   -3.2367336    1.5702467   540386 
 4606000     1.288227   -3.2365847   -1.6666319   0.11612566   -3.2365847    1.5699527   540407 
 4607000    1.2887096   -3.2362362   -1.6658175   0.11550704   -3.2362362    1.5704187   540449 
 4608000    1.2879353   -3.2350041   -1.6656247   0.11766067   -3.2350041    1.5693794   540482 
 4609000    1.2874772   -3.2344626   -1.6657836   0.12070233   -3.2344626     1.568679   540531 
 4610000    1.2892832   -3.2364828   -1.6656586    0.1200202   -3.2364828    1.5708242   540550 
 4611000    1.2889578   -3.2362215   -1.6658577   0.11852732   -3.2362215    1.5703639   540572 
 4612000     1.286746   -3.2343403    -1.666761   0.11740054   -3.2343403    1.5675793   540603 
 4613000    1.2900096   -3.2381984   -1.6667771    0.1223711   -3.2381984    1.5714214   540649 
 4614000    1.2885714   -3.2373283   -1.6677779   0.12516628   -3.2373283    1.5695504   540690 
 4615000    1.2879256   -3.2368789    -1.668173    0.1260943   -3.2368789    1.5687058   540710 
 4616000    1.2876826   -3.2379581   -1.6696323    0.1193034   -3.2379581    1.5683258   540739 
 4617000    1.2884245   -3.2402213   -1.6710414   0.11289422   -3.2402213    1.5691799   540756 
 4618000    1.2865263   -3.2377627   -1.6710191   0.12091556   -3.2377627    1.5667436   540799 
 4619000    1.2876342   -3.2396405   -1.6716115   0.11801566   -3.2396405     1.568029   540821 
 4620000    1.2876108   -3.2402835     -1.67237   0.12112835   -3.2402835    1.5679135   540851 
 4621000    1.2873252   -3.2402854   -1.6727718   0.11609644   -3.2402854    1.5675136   540869 
 4622000     1.287755   -3.2405582   -1.6725792   0.11976116   -3.2405582     1.567979   540889 
 4623000    1.2875564   -3.2405138   -1.6728259   0.12087904   -3.2405138    1.5676879   540906 
 4624000    1.2894749   -3.2423576   -1.6723948   0.11740787   -3.2423576    1.5699628   540927 
 4625000    1.2878523   -3.2415358   -1.6736499   0.12358366   -3.2415358    1.5678859   540962 
 4626000    1.2883358    -3.241146    -1.672776   0.11408385    -3.241146    1.5683701   540998 
 4627000    1.2861668   -3.2390024   -1.6733365   0.11911416   -3.2390024    1.5656659   541020 
 4628000    1.2886384   -3.2417989   -1.6732722   0.11468904   -3.2417989    1.5685268   541071 
 4629000    1.2886548   -3.2427215   -1.6742588    0.1251715   -3.2427215    1.5684626   541100 
 4630000    1.2885077   -3.2417575   -1.6736246   0.12373785   -3.2417575    1.5681329   541152 
 4631000    1.2876193   -3.2415063   -1.6745212   0.12103043   -3.2415063    1.5669851   541175 
 4632000    1.2887385   -3.2420459   -1.6737973   0.11891237   -3.2420459    1.5682486   541209 
 4633000    1.2893309   -3.2428598   -1.6739685   0.12012358   -3.2428598    1.5688913   541236 
 4634000    1.2881147   -3.2412714   -1.6739817   0.11613573   -3.2412714    1.5672897   541278 
 4635000    1.2880281   -3.2410674   -1.6740191   0.12452236   -3.2410674    1.5670483   541325 
 4636000     1.287585   -3.2392642    -1.672865   0.12063951   -3.2392642    1.5663992   541363 
 4637000    1.2897385   -3.2424042   -1.6734633   0.11750858   -3.2424042    1.5689409   541390 
 4638000    1.2905854   -3.2431195   -1.6732268   0.11886062   -3.2431195    1.5698928   541417 
 4639000    1.2894827   -3.2421749   -1.6736697    0.1139348   -3.2421749    1.5685051   541433 
 4640000    1.2882091   -3.2415493   -1.6747005   0.11927811   -3.2415493    1.5668488   541470 
 4641000    1.2875196   -3.2414612   -1.6755349   0.12067486   -3.2414612    1.5659263   541499 
 4642000     1.285965   -3.2404373   -1.6765116   0.11917202   -3.2404373    1.5639258   541537 
 4643000    1.2891437     -3.24238   -1.6747215   0.11846585     -3.24238    1.5676584   541583 
 4644000    1.2887633   -3.2410649   -1.6739472   0.12210392   -3.2410649    1.5671177   541610 
 4645000    1.2891129   -3.2414804   -1.6739636   0.12034052   -3.2414804    1.5675168   541619 
 4646000    1.2892962   -3.2419339   -1.6743186   0.11681858   -3.2419339    1.5676152   541662 
 4647000    1.2898181   -3.2430535   -1.6748848    0.1203192   -3.2430535    1.5681687   541690 
 4648000    1.2903397   -3.2429435   -1.6742767     0.117109   -3.2429435    1.5686668   541737 
 4649000    1.2900866   -3.2423188   -1.6740524   0.11300203   -3.2423188    1.5682664   541769 
 4650000    1.2914575   -3.2426639   -1.6728121   0.12249945   -3.2426639    1.5698518   541797 
 4651000    1.2911089   -3.2426961   -1.6733405   0.12290636   -3.2426961    1.5693556   541822 
 4652000    1.2908565   -3.2424103   -1.6734367   0.12288548   -3.2424103    1.5689736   541848 
 4653000    1.2914649   -3.2428002   -1.6731653   0.11755717   -3.2428002    1.5696349   541875 
 4654000    1.2907221   -3.2425156    -1.673882   0.12623141   -3.2425156    1.5686336   541909 
 4655000    1.2932469   -3.2447863   -1.6731685   0.12110705   -3.2447863    1.5716179   541938 
 4656000    1.2922164   -3.2438865   -1.6736396   0.12508685   -3.2438865    1.5702469   541979 
 4657000    1.2901632   -3.2414088   -1.6737437   0.12298115   -3.2414088    1.5676651   542009 
 4658000    1.2896088   -3.2408504    -1.673937   0.12670296   -3.2408504    1.5669134   542036 
 4659000    1.2924689   -3.2457202   -1.6754244   0.12379254   -3.2457202    1.5702958   542068 
 4660000    1.2917508   -3.2452451   -1.6758796   0.11902893   -3.2452451    1.5693654   542088 
 4661000    1.2910335   -3.2455112   -1.6771127   0.11817316   -3.2455112    1.5683985   542121 
 4662000    1.2894161    -3.244239   -1.6779296   0.12082048    -3.244239    1.5663094   542164 
 4663000    1.2891804   -3.2436138   -1.6776572   0.11930791   -3.2436138    1.5659566   542187 
 4664000    1.2896079   -3.2456828   -1.6792791   0.11646296   -3.2456828    1.5664037   542212 
 4665000    1.2898443   -3.2455128   -1.6789375   0.12153707   -3.2455128    1.5665753   542252 
 4666000    1.2897376   -3.2458158    -1.679477   0.11403197   -3.2458158    1.5663388   542289 
 4667000     1.289115   -3.2462617   -1.6807974   0.11894765   -3.2462617    1.5654643   542330 
 4668000    1.2904322    -3.247272   -1.6802688   0.11724191    -3.247272    1.5670032   542351 
 4669000    1.2895265   -3.2456934   -1.6799027    0.1185531   -3.2456934    1.5657908   542390 
 4670000    1.2902579   -3.2472342   -1.6806882   0.11515923   -3.2472342     1.566546   542436 
 4671000    1.2899779   -3.2463813    -1.680259   0.12763839   -3.2463813    1.5661224   542465 
 4672000    1.2898331   -3.2459004   -1.6800058   0.12315823   -3.2459004    1.5658945   542483 
 4673000    1.2897475   -3.2462947   -1.6806512   0.11886594   -3.2462947    1.5656434   542534 
 4674000    1.2906044   -3.2480533   -1.6814938   0.11746006   -3.2480533    1.5665595   542577 
 4675000    1.2921985   -3.2492417   -1.6807936   0.11662076   -3.2492417    1.5684482   542593 
 4676000    1.2904372   -3.2490965   -1.6828353   0.11519405   -3.2490965    1.5662613   542610 
 4677000    1.2893433   -3.2476948   -1.6829055   0.11983343   -3.2476948    1.5647894   542660 
 4678000    1.2906113    -3.249823   -1.6835409   0.11529021    -3.249823    1.5662821   542676 
 4679000    1.2923814   -3.2512528   -1.6829439   0.12300356   -3.2512528    1.5683089   542718 
 4680000    1.2912745   -3.2509099   -1.6840481   0.11916309   -3.2509099    1.5668617   542754 
 4681000    1.2907074   -3.2496599   -1.6835065    0.1197469   -3.2496599    1.5661534   542761 
 4682000    1.2905852   -3.2492121   -1.6833454   0.11800088   -3.2492121    1.5658667   542809 
 4683000    1.2917607   -3.2509227   -1.6837049   0.11903338   -3.2509227    1.5672178   542835 
 4684000    1.2904184   -3.2488192   -1.6833771   0.11823882   -3.2488192    1.5654422   542886 
 4685000    1.2894673   -3.2479371   -1.6837869   0.12003188   -3.2479371    1.5641501   542934 
 4686000    1.2903528   -3.2491431   -1.6840198   0.11581876   -3.2491431    1.5651233   542969 
 4687000    1.2918335   -3.2499088   -1.6830529   0.11656371   -3.2499088    1.5668559   542991 
 4688000    1.2927749   -3.2510827   -1.6831803   0.12043072   -3.2510827    1.5679024   543024 
 4689000    1.2921453   -3.2488236   -1.6818089   0.12473989   -3.2488236    1.5670147   543067 
 4690000    1.2914224   -3.2484487   -1.6823885   0.12220935   -3.2484487    1.5660602   543094 
 4691000    1.2917276   -3.2483904   -1.6820294    0.1246228   -3.2483904     1.566361   543118 
 4692000    1.2949705   -3.2522865   -1.6820162   0.11581168   -3.2522865    1.5702703   543126 
 4693000    1.2929274   -3.2502972   -1.6826632   0.11642407   -3.2502972     1.567634   543181 
 4694000    1.2910386   -3.2469415   -1.6816925   0.12128347   -3.2469415    1.5652489   543214 
 4695000    1.2918258   -3.2477688   -1.6816751   0.12083704   -3.2477688    1.5660937   543252 
 4696000    1.2908999   -3.2472815   -1.6823794   0.11449076   -3.2472815    1.5649021   543276 
 4697000    1.2943134   -3.2506449   -1.6816308   0.11413646   -3.2506449    1.5690142   543285 
 4698000    1.2940048   -3.2498022   -1.6812775   0.11657823   -3.2498022    1.5685246   543325 
 4699000    1.2927009   -3.2497536   -1.6829537   0.11931124   -3.2497536    1.5667999   543375 
 4700000    1.2933321   -3.2496645   -1.6821746   0.11422334   -3.2496645    1.5674899   543401 
 4701000    1.2917848   -3.2476791   -1.6821912   0.12355123   -3.2476791    1.5654879   543445 
 4702000    1.2937526    -3.251815   -1.6840146   0.11907789    -3.251815    1.5678004   543470 
 4703000    1.2930384   -3.2504223   -1.6835997   0.11746113   -3.2504223    1.5668226   543509 
 4704000    1.2945854    -3.251282   -1.6827206   0.11719929    -3.251282    1.5685614   543556 
 4705000    1.2930573   -3.2492432   -1.6825735   0.11417106   -3.2492432    1.5666697   543570 
 4706000    1.2937486   -3.2497553   -1.6822943   0.11824886   -3.2497553     1.567461   543586 
 4707000    1.2956021   -3.2514453    -1.681805   0.11837816   -3.2514453    1.5696403   543609 
 4708000    1.2949416    -3.250524   -1.6817387   0.12307231    -3.250524    1.5687853   543628 
 4709000    1.2940019   -3.2489799   -1.6813994   0.12807365   -3.2489799    1.5675805   543651 
 4710000    1.2960487   -3.2523077   -1.6823255   0.12175977   -3.2523077    1.5699821   543678 
 4711000    1.2954678   -3.2522673   -1.6831216   0.11809439   -3.2522673    1.5691456   543724 
 4712000    1.2959587   -3.2525288   -1.6828809   0.11746153   -3.2525288    1.5696479   543756 
 4713000    1.2945074   -3.2520163   -1.6841897    0.1216926   -3.2520163    1.5678266   543778 
 4714000    1.2941301   -3.2521642   -1.6848608   0.11784498   -3.2521642    1.5673033   543801 
 4715000    1.2919818   -3.2491613   -1.6845029   0.12402827   -3.2491613    1.5646585   543816 
 4716000    1.2935643   -3.2524469   -1.6859699   0.11900177   -3.2524469     1.566477   543850 
 4717000    1.2929005   -3.2525487   -1.6869159   0.12319028   -3.2525487    1.5656329   543864 
 4718000    1.2921354   -3.2529997   -1.6883998    0.1149332   -3.2529997    1.5645999   543901 
 4719000    1.2927605   -3.2534111   -1.6881378   0.11741564   -3.2534111    1.5652733   543930 
 4720000    1.2932047   -3.2523792   -1.6866573   0.12283205   -3.2523792    1.5657219   543961 
 4721000    1.2935528   -3.2542269   -1.6882101   0.12201938   -3.2542269    1.5660168   544005 
 4722000     1.293026   -3.2525981   -1.6872882   0.12130908   -3.2525981    1.5653099   544029 
 4723000    1.2930351   -3.2534039   -1.6881721   0.12302927   -3.2534039    1.5652318   544060 
 4724000    1.2963877   -3.2571621   -1.6879845   0.12053694   -3.2571621    1.5691776   544099 
 4725000    1.2949049   -3.2559169   -1.6886176   0.12198362   -3.2559169    1.5672993   544128 
 4726000    1.2949626   -3.2560578   -1.6887204   0.12317922   -3.2560578    1.5673374   544139 
 4727000    1.2955465   -3.2561566   -1.6881788   0.11965411   -3.2561566    1.5679778   544162 
 4728000     1.294925   -3.2570626   -1.6899003   0.12004332   -3.2570626    1.5671623   544184 
 4729000    1.2934778   -3.2557215   -1.6904429   0.12129836   -3.2557215    1.5652785   544230 
 4730000    1.2935098   -3.2549276   -1.6896909   0.12000881   -3.2549276    1.5652367   544258 
 4731000    1.2954462    -3.257361   -1.6898732   0.12158861    -3.257361    1.5674877   544290 
 4732000    1.2953377   -3.2569944   -1.6897012   0.11816103   -3.2569944    1.5672932   544312 
 4733000    1.2933917   -3.2555493   -1.6906739   0.11308258   -3.2555493    1.5648753   544334 
 4734000    1.2937925   -3.2561906    -1.690931   0.11976115   -3.2561906    1.5652596   544369 
 4735000     1.292361   -3.2551628   -1.6917184   0.12131265   -3.2551628    1.5634444   544398 
 4736000    1.2950657   -3.2570706    -1.690472    0.1173642   -3.2570706    1.5665985   544439 
 4737000    1.2937425   -3.2552885    -1.690371   0.12322916   -3.2552885    1.5649174   544467 
 4738000    1.2951254    -3.257876   -1.6914527   0.11216746    -3.257876    1.5664233   544525 
 4739000    1.2950835   -3.2568963   -1.6905698   0.11909229   -3.2568963    1.5663265   544541 
 4740000    1.2968255   -3.2569481   -1.6886788   0.11724103   -3.2569481    1.5682693   544598 
 4741000    1.2950406   -3.2560905   -1.6900977   0.12615083   -3.2560905    1.5659928   544639 
 4742000    1.2958227   -3.2569962   -1.6900921   0.12340835   -3.2569962    1.5669041   544651 
 4743000    1.2956322   -3.2563067    -1.689679   0.12040194   -3.2563067    1.5666277   544667 
 4744000     1.294787   -3.2560446   -1.6905194   0.12181661   -3.2560446    1.5655252   544695 
 4745000    1.2944382   -3.2551591   -1.6901418   0.11841425   -3.2551591    1.5650173   544725 
 4746000    1.2966865   -3.2569404   -1.6892825   0.12066538   -3.2569404    1.5676578   544752 
 4747000    1.2946365    -3.254746   -1.6896642   0.11769429    -3.254746    1.5650818   544786 
 4748000    1.2966864   -3.2571047   -1.6896109   0.11650862   -3.2571047    1.5674937   544809 
 4749000    1.2948458   -3.2553339   -1.6900853    0.1225487   -3.2553339    1.5652486   544816 
 4750000    1.2942203   -3.2537098   -1.6893207   0.11872217   -3.2537098    1.5643891   544852 
 4751000    1.2982983   -3.2589113   -1.6896879   0.11114793   -3.2589113    1.5692234   544885 
 4752000    1.2940646   -3.2543603   -1.6903776   0.11898932   -3.2543603    1.5639827   544928 
 4753000    1.2950867   -3.2562725   -1.6911004   0.12499966   -3.2562725    1.5651721   544944 
 4754000    1.2963019   -3.2585668   -1.6919577   0.11514464   -3.2585668    1.5666091   544955 
 4755000    1.2981441   -3.2597161   -1.6909612   0.11700207   -3.2597161    1.5687549   544983 
 4756000    1.2941176   -3.2558547   -1.6919973   0.12237837   -3.2558547    1.5638575   544994 
 4757000    1.2955285   -3.2570762   -1.6915712   0.11744303   -3.2570762     1.565505   545014 
 4758000    1.2974933   -3.2575352   -1.6897452   0.11570248   -3.2575352      1.56779   545045 
 4759000    1.2966078   -3.2569824   -1.6903889   0.11808617   -3.2569824    1.5665936   545089 
 4760000     1.293895    -3.254973   -1.6917288   0.12146942    -3.254973    1.5632442   545114 
 4761000    1.2947152   -3.2553698   -1.6912063   0.12181651   -3.2553698    1.5641634   545139 
 4762000     1.296735   -3.2573047   -1.6907844    0.1253474   -3.2573047    1.5665203   545168 
 4763000    1.2951704   -3.2561877   -1.6916494   0.11747164   -3.2561877    1.5645383   545200 
 4764000    1.2955774   -3.2557007   -1.6907397   0.11687083   -3.2557007     1.564961   545224 
 4765000     1.296335   -3.2559362   -1.6901692   0.12070662   -3.2559362     1.565767   545262 
 4766000    1.2951434   -3.2560989   -1.6918256   0.11405664   -3.2560989    1.5642733   545281 
 4767000    1.2975304   -3.2589709   -1.6919468   0.11756793   -3.2589709    1.5670241   545327 
 4768000    1.2980556   -3.2571839   -1.6896347   0.12435677   -3.2571839    1.5675491   545365 
 4769000    1.2976244   -3.2576708   -1.6907372   0.11850658   -3.2576708    1.5669336   545398 
 4770000    1.2982618   -3.2581344   -1.6906007   0.11937047   -3.2581344    1.5675337   545457 
 4771000    1.2980071   -3.2570891   -1.6899347   0.11990744   -3.2570891    1.5671544   545482 
 4772000    1.2981469   -3.2576501   -1.6904448   0.11951742   -3.2576501    1.5672053   545523 
 4773000    1.2976687   -3.2569118   -1.6903842   0.12101908   -3.2569118    1.5665276   545558 
 4774000    1.2982234   -3.2585833    -1.691481   0.11694924   -3.2585833    1.5671023   545591 
 4775000    1.2980273    -3.258131    -1.691386   0.12049536    -3.258131     1.566745   545633 
 4776000    1.2984733    -3.259781   -1.6925723   0.11799257    -3.259781    1.5672087   545659 
 4777000    1.2972467   -3.2588029   -1.6932123   0.11730848   -3.2588029    1.5655906   545707 
 4778000    1.2957091   -3.2566077   -1.6929846   0.12611318   -3.2566077    1.5636232   545746 
 4779000    1.2970947   -3.2591399   -1.6939049   0.12184705   -3.2591399     1.565235   545767 
 4780000    1.2965608   -3.2598781    -1.695382   0.11463308   -3.2598781    1.5644961   545800 
 4781000     1.296865   -3.2602637   -1.6955209   0.11965504   -3.2602637    1.5647428   545842 
 4782000    1.2968175   -3.2600424   -1.6954486    0.1164771   -3.2600424    1.5645938   545874 
 4783000    1.2971805   -3.2606071   -1.6956213   0.11421482   -3.2606071    1.5649858   545890 
 4784000    1.2976115   -3.2607239   -1.6953328   0.11191204   -3.2607239    1.5653911   545930 
 4785000    1.2981322   -3.2610634   -1.6951388   0.11757799   -3.2610634    1.5659246   545963 
 4786000    1.2963715   -3.2596408   -1.6959032   0.12209222   -3.2596408    1.5637376   545985 
 4787000     1.295546   -3.2603559   -1.6977056   0.11801525   -3.2603559    1.5626503   546017 
 4788000    1.2957565   -3.2598847   -1.6970663    0.1207514   -3.2598847    1.5628184   546047 
 4789000    1.2968667   -3.2622716   -1.6982001   0.11953555   -3.2622716    1.5640715   546077 
 4790000    1.2968821   -3.2617631   -1.6978478   0.11771954   -3.2617631    1.5639153   546138 
 4791000    1.2976072   -3.2627247   -1.6980267   0.11877106   -3.2627247    1.5646981   546170 
 4792000    1.2993556   -3.2658002   -1.6990254   0.11320391   -3.2658002    1.5667747   546181 
 4793000    1.2977356   -3.2635395   -1.6988156   0.11821146   -3.2635395     1.564724   546215 
 4794000    1.2987889    -3.264349   -1.6984554   0.12232477    -3.264349    1.5658936   546250 
 4795000    1.2980949   -3.2629735   -1.6980541    0.1248876   -3.2629735    1.5649193   546298 
 4796000    1.2976193   -3.2626772   -1.6984629   0.11703171   -3.2626772    1.5642143   546344 
 4797000    1.2984954   -3.2632969   -1.6980723   0.12121057   -3.2632969    1.5652246   546360 
 4798000    1.3008257   -3.2662605   -1.6982615   0.11843413   -3.2662605     1.567999   546372 
 4799000    1.3007885   -3.2654692   -1.6975924    0.1221198   -3.2654692    1.5678768   546399 
 4800000     1.298434   -3.2627423   -1.6978095   0.12260324   -3.2627423    1.5649329   546436 
 4801000    1.2991388   -3.2637259   -1.6980094   0.11768127   -3.2637259    1.5657165   546459 
 4802000     1.298477   -3.2637179   -1.6989136   0.12085804   -3.2637179    1.5648042   546499 
 4803000    1.2996946   -3.2645315   -1.6983975   0.11788141   -3.2645315     1.566134   546547 
 4804000    1.2999686   -3.2648783   -1.6984886   0.11774427   -3.2648783    1.5663897   546573 
 4805000    1.2971147   -3.2621854   -1.6992489   0.11965035   -3.2621854    1.5629366   546578 
 4806000    1.2970029   -3.2626292   -1.6998988    0.1161212   -3.2626292    1.5627304   546603 
 4807000    1.2975672   -3.2616939    -1.698378   0.12126768   -3.2616939    1.5633159   546636 
 4808000    1.2996629   -3.2635484   -1.6977305   0.11863795   -3.2635484    1.5658179   546644 
 4809000    1.2978735   -3.2625113   -1.6989035   0.12206702   -3.2625113    1.5636078   546663 
 4810000    1.2973654    -3.261432    -1.698545   0.11610099    -3.261432     1.562887   546701 
 4811000    1.2994781   -3.2642778   -1.6989145   0.11672398   -3.2642778    1.5653633   546725 
 4812000     1.298848   -3.2629803   -1.6984589   0.11619854   -3.2629803    1.5645214   546754 
 4813000    1.2994105   -3.2628968   -1.6977179    0.1146207   -3.2628968    1.5651788   546761 
 4814000    1.2984423   -3.2617768   -1.6978328   0.11880783   -3.2617768     1.563944   546785 
 4815000    1.2977946   -3.2610347   -1.6978795   0.12002918   -3.2610347    1.5631552   546788 
 4816000    1.2981101   -3.2621187   -1.6986835   0.11470544   -3.2621187    1.5634352   546823 
 4817000    1.2984762   -3.2621599   -1.6983582   0.11997151   -3.2621599    1.5638018   546849 
 4818000    1.2992279   -3.2628274   -1.6982119   0.11689536   -3.2628274    1.5646155   546881 
 4819000    1.2984043   -3.2608689   -1.6973196   0.11447227   -3.2608689    1.5635493   546907 
 4820000    1.2998487   -3.2638173   -1.6986831   0.11623621   -3.2638173    1.5651342   546961 
 4821000     1.298862   -3.2628107   -1.6989246   0.12000017   -3.2628107     1.563886   546982 
 4822000    1.3000998      -3.2631   -1.6977722   0.11828318      -3.2631    1.5653278   546999 
 4823000    1.3002487   -3.2626718   -1.6972191   0.11820015   -3.2626718    1.5654527   547018 
 4824000    1.2999746   -3.2629358    -1.697836   0.12471531   -3.2629358    1.5650998   547026 
 4825000     1.300295    -3.263458   -1.6980353    0.1183407    -3.263458    1.5654226   547048 
 4826000    1.2996693   -3.2633103    -1.698784   0.12234705   -3.2633103    1.5645263   547098 
 4827000    1.2997441   -3.2646416    -1.700111   0.11765117   -3.2646416    1.5645306   547128 
 4828000    1.2984047   -3.2639126   -1.7011228   0.12000454   -3.2639126    1.5627897   547173 
 4829000    1.2983531   -3.2639895   -1.7013647   0.11663251   -3.2639895    1.5626248   547209 
 4830000    1.2987617   -3.2654466     -1.70241   0.11792745   -3.2654466    1.5630366   547237 
 4831000    1.2976454   -3.2647561   -1.7031743   0.11694367   -3.2647561    1.5615818   547276 
 4832000    1.3001617   -3.2687598   -1.7041555   0.10527089   -3.2687598    1.5646043   547278 
 4833000    1.2970138   -3.2650251   -1.7043089   0.11733991   -3.2650251    1.5607163   547313 
 4834000    1.2989427   -3.2668549   -1.7039033   0.11369549   -3.2668549    1.5629517   547343 
 4835000    1.2982933   -3.2664452   -1.7043606    0.1215944   -3.2664452    1.5620846   547373 
 4836000    1.2991897   -3.2678827   -1.7047281   0.11499921   -3.2678827    1.5631546   547376 
 4837000     1.297735    -3.266359   -1.7050573    0.1217751    -3.266359    1.5613018   547412 
 4838000    1.3000146   -3.2688268   -1.7048911   0.11908686   -3.2688268    1.5639357   547450 
 4839000    1.3013195   -3.2708609   -1.7054325   0.11562319   -3.2708609    1.5654284   547477 
 4840000    1.2986621   -3.2678754   -1.7057066   0.11421584   -3.2678754    1.5621688   547499 
 4841000    1.2999966   -3.2684992    -1.704808    0.1152306   -3.2684992    1.5636913   547528 
 4842000    1.2997762   -3.2677046   -1.7043983   0.11220253   -3.2677046    1.5633063   547570 
 4843000    1.3007329   -3.2694228   -1.7050458   0.11969033   -3.2694228     1.564377   547598 
 4844000    1.3005056   -3.2678553   -1.7038774   0.11690763   -3.2678553    1.5639779   547642 
 4845000    1.3008933   -3.2684139   -1.7040612   0.11923146   -3.2684139    1.5643527   547674 
 4846000    1.3010654   -3.2698031   -1.7053263   0.12186908   -3.2698031    1.5644769   547703 
 4847000    1.3014594   -3.2695182   -1.7046505   0.12018255   -3.2695182    1.5648678   547732 
 4848000    1.3010967   -3.2697393   -1.7054047   0.12537971   -3.2697393    1.5643346   547766 
 4849000    1.3012123    -3.270123   -1.7056723    0.1237474    -3.270123    1.5644507   547774 
 4850000    1.3016972   -3.2711199   -1.7061747   0.11974227   -3.2711199    1.5649451   547805 
 4851000     1.300586   -3.2705523   -1.7070687   0.11953668   -3.2705523    1.5634836   547849 
 4852000    1.2991882   -3.2688481   -1.7071161   0.11955091   -3.2688481     1.561732   547874 
 4853000    1.3003004   -3.2703658   -1.7073595   0.11752109   -3.2703658    1.5630062   547896 
 4854000    1.3013351    -3.269842    -1.705652   0.12161395    -3.269842      1.56419   547917 
 4855000    1.3013445   -3.2699329   -1.7058116    0.1177867   -3.2699329    1.5641214   547945 
 4856000    1.2998543   -3.2683375   -1.7060842   0.12220061   -3.2683375    1.5622533   547972 
 4857000    1.3003119   -3.2705863   -1.7078458   0.11920705   -3.2705863    1.5627404   547994 
 4858000    1.3014617   -3.2706737   -1.7066284   0.11833172   -3.2706737    1.5640453   548021 
 4859000    1.3006788   -3.2679358   -1.7048884   0.11895103   -3.2679358    1.5630474   548041 
 4860000    1.3016502   -3.2695931   -1.7054896   0.11742661   -3.2695931    1.5641035   548080 
 4861000    1.3007712   -3.2692012   -1.7062795   0.11866772   -3.2692012    1.5629218   548124 
 4862000    1.3002712   -3.2700314   -1.7077959   0.11285415   -3.2700314    1.5622355   548154 
 4863000    1.3018832   -3.2708556   -1.7067633   0.12373699   -3.2708556    1.5640923   548182 
 4864000    1.3017815   -3.2716354    -1.707728   0.11197992   -3.2716354    1.5639074   548204 
 4865000    1.3014477   -3.2709052   -1.7074359   0.11549547   -3.2709052    1.5634693   548217 
 4866000    1.3019883   -3.2725261   -1.7084759    0.1127756   -3.2725261    1.5640502   548241 
 4867000    1.3008394   -3.2701463   -1.7076045   0.11644815   -3.2701463    1.5625418   548286 
 4868000    1.3009909   -3.2697691   -1.7071393   0.12505642   -3.2697691    1.5626298   548319 
 4869000    1.3014095    -3.270027   -1.7069457   0.11979547    -3.270027    1.5630813   548337 
 4870000    1.3023335   -3.2715465   -1.7074724   0.11847196   -3.2715465     1.564074   548378 
 4871000    1.3011373   -3.2703427   -1.7077622   0.11900448   -3.2703427    1.5625804   548398 
 4872000    1.3018049   -3.2713385   -1.7080389   0.11852934   -3.2713385    1.5632996   548427 
 4873000    1.3030476    -3.272234    -1.707579   0.12332134    -3.272234     1.564655   548475 
 4874000    1.3030654   -3.2723403   -1.7077781   0.12132344   -3.2723403    1.5645622   548515 
 4875000    1.3017026   -3.2715992   -1.7087787   0.11567354   -3.2715992    1.5628205   548552 
 4876000    1.3010536   -3.2708818   -1.7089202   0.11842369   -3.2708818    1.5619616   548580 
 4877000    1.3028047   -3.2728477   -1.7088323   0.11764686   -3.2728477    1.5640154   548597 
 4878000    1.3022614   -3.2732308   -1.7099474   0.12172423   -3.2732308    1.5632834   548625 
 4879000    1.3032275   -3.2735764    -1.709216   0.11516973   -3.2735764    1.5643604   548654 
 4880000    1.3043865   -3.2763366    -1.710662   0.11588554   -3.2763366    1.5656747   548681 
 4881000    1.3024023   -3.2740719    -1.710873    0.1085251   -3.2740719    1.5631989   548714 
 4882000    1.3013459   -3.2731621   -1.7112994   0.11340778   -3.2731621    1.5618627   548738 
 4883000    1.3012712   -3.2733218   -1.7116256    0.1186857   -3.2733218    1.5616962   548765 
 4884000    1.3022051   -3.2738334   -1.7110876   0.11250325   -3.2738334    1.5627458   548790 
 4885000    1.3027177   -3.2747227   -1.7114073   0.11036914   -3.2747227    1.5633154   548806 
 4886000     1.300059   -3.2726769   -1.7126231   0.12014793   -3.2726769    1.5600538   548831 
 4887000    1.3016834   -3.2750269   -1.7130808   0.11873456   -3.2750269    1.5619461   548851 
 4888000    1.3034302   -3.2755112   -1.7115603   0.12415967   -3.2755112    1.5639509   548883 
 4889000    1.3026495   -3.2755728   -1.7125985     0.115156   -3.2755728    1.5629743   548897 
 4890000    1.3031955   -3.2755355   -1.7119943   0.12131961   -3.2755355    1.5635412   548928 
 4891000    1.3028227    -3.275629   -1.7126974   0.11685636    -3.275629    1.5629316   548985 
 4892000    1.3013104   -3.2747945   -1.7137596   0.11427891   -3.2747945    1.5610349   549014 
 4893000    1.3030838   -3.2765216   -1.7134533   0.12011859   -3.2765216    1.5630683   549047 
 4894000    1.3013411   -3.2744831   -1.7135564   0.12046049   -3.2744831    1.5609267   549065 
 4895000     1.303232   -3.2760425   -1.7129501   0.11716757   -3.2760425    1.5630924   549101 
 4896000     1.302942   -3.2757221     -1.71308    0.1172844   -3.2757221    1.5626421   549137 
 4897000    1.3022504   -3.2769017   -1.7151716   0.11838084   -3.2769017    1.5617301   549166 
 4898000    1.3015418    -3.276232   -1.7154313   0.11191448    -3.276232    1.5608007   549194 
 4899000    1.3010907   -3.2752953   -1.7151293   0.11578608   -3.2752953     1.560166   549227 
 4900000    1.3046465   -3.2774777   -1.7131332   0.12006235   -3.2774777    1.5643444   549257 
 4901000     1.303021   -3.2749538   -1.7126324   0.11697938   -3.2749538    1.5623214   549283 
 4902000    1.3034956    -3.275469   -1.7126526   0.11492531    -3.275469    1.5628165   549309 
 4903000    1.3001051   -3.2716986    -1.713038   0.12213805   -3.2716986    1.5586607   549341 
 4904000    1.3027416   -3.2742538   -1.7125317   0.12125726   -3.2742538     1.561722   549376 
 4905000    1.3042318   -3.2757524   -1.7123663   0.11406187   -3.2757524    1.5633861   549419 
 4906000    1.3008881    -3.271884   -1.7125997    0.1249656    -3.271884    1.5592843   549452 
 4907000    1.3021945   -3.2751372   -1.7143948   0.11484085   -3.2751372    1.5607423   549490 
 4908000    1.3033191   -3.2764899   -1.7144821   0.12107574   -3.2764899    1.5620078   549519 
 4909000    1.3013159   -3.2743165   -1.7147607   0.11878706   -3.2743165    1.5595558   549537 
 4910000    1.3003851   -3.2753944   -1.7170363   0.11884203   -3.2753944    1.5583581   549566 
 4911000    1.3019424   -3.2768216   -1.7166313   0.11381005   -3.2768216    1.5601903   549578 
 4912000    1.3007356   -3.2754452   -1.7167607   0.11114587   -3.2754452    1.5586845   549599 
 4913000    1.3011884   -3.2755168   -1.7163436   0.11596279   -3.2755168    1.5591732   549618 
 4914000    1.3005161   -3.2746391    -1.716348   0.11923314   -3.2746391    1.5582911   549645 
 4915000    1.3023545   -3.2768934   -1.7165018   0.11368452   -3.2768934    1.5603916   549681 
 4916000    1.3026095   -3.2772721   -1.7166431   0.11665623   -3.2772721     1.560629   549705 
 4917000     1.303017   -3.2778475   -1.7168297   0.11530529   -3.2778475    1.5610178   549740 
 4918000    1.3036652   -3.2782812   -1.7165778   0.11242179   -3.2782812    1.5617035   549772 
 4919000      1.30437   -3.2791963   -1.7167252   0.11738311   -3.2791963    1.5624711   549799 
 4920000    1.3032292    -3.278881   -1.7178901    0.1143115    -3.278881    1.5609909   549839 
 4921000    1.3040052    -3.279433   -1.7175721   0.11417542    -3.279433    1.5618609   549860 
 4922000    1.3047508   -3.2807568   -1.7180597   0.12058256   -3.2807568     1.562697   549880 
 4923000     1.304116   -3.2804382   -1.7186464   0.11097245   -3.2804382    1.5617918   549931 
 4924000    1.3040783    -3.280593     -1.71894   0.11664836    -3.280593     1.561653   549964 
 4925000    1.3044259   -3.2805677   -1.7185468   0.12018986   -3.2805677     1.562021   549981 
 4926000    1.3035593   -3.2802018   -1.7192668   0.12092876   -3.2802018     1.560935   549998 
 4927000    1.3060718   -3.2818005   -1.7179337   0.12051128   -3.2818005    1.5638668   550025 
 4928000    1.3049448   -3.2792569   -1.7167707   0.11798819   -3.2792569    1.5624861   550036 
 4929000    1.3047854   -3.2801649   -1.7179464   0.11879871   -3.2801649    1.5622185   550063 
 4930000    1.3032264   -3.2783249   -1.7180382   0.12109159   -3.2783249    1.5602867   550086 
 4931000    1.3053247   -3.2800908   -1.7173572   0.11798817   -3.2800908    1.5627335   550109 
 4932000    1.3037067     -3.27855   -1.7177791   0.11892457     -3.27855    1.5607709   550118 
 4933000    1.3052777   -3.2812825   -1.7186762   0.11394285   -3.2812825    1.5626063   550134 
 4934000    1.3044874   -3.2809344   -1.7193055   0.11569432   -3.2809344    1.5616289   550145 
 4935000    1.3045851   -3.2797644    -1.718098   0.12114404   -3.2797644    1.5616664   550173 
 4936000    1.3059821   -3.2811807   -1.7179045   0.12196963   -3.2811807    1.5632762   550195 
 4937000    1.3049207   -3.2796461   -1.7177086   0.11869221   -3.2796461    1.5619375   550219 
 4938000    1.3043002   -3.2793859   -1.7182223   0.11662847   -3.2793859    1.5611636   550230 
 4939000    1.3050076   -3.2814872   -1.7195847   0.11592834   -3.2814872    1.5619025   550268 
 4940000    1.3028673   -3.2788729   -1.7196113   0.11482015   -3.2788729    1.5592616   550296 
 4941000    1.3021952   -3.2777076   -1.7193325   0.11525714   -3.2777076     1.558375   550325 
 4942000    1.3039408   -3.2798694   -1.7194677   0.11404655   -3.2798694    1.5604017   550347 
 4943000      1.30534   -3.2808423   -1.7188287   0.11601432   -3.2808423    1.5620136   550369 
 4944000    1.3027583   -3.2790893   -1.7202245   0.11477002   -3.2790893    1.5588648   550390 
 4945000    1.3045005   -3.2801481   -1.7192383   0.11243681   -3.2801481    1.5609098   550404 
 4946000    1.3028075   -3.2789321   -1.7201019   0.11459123   -3.2789321    1.5588302   550423 
 4947000    1.3033678   -3.2788092   -1.7193738   0.11859927   -3.2788092    1.5594354   550446 
 4948000    1.3048864   -3.2804465   -1.7192849   0.11783122   -3.2804465    1.5611616   550478 
 4949000    1.3046613   -3.2797764   -1.7190116   0.11031011   -3.2797764    1.5607648   550523 
 4950000    1.3051313   -3.2811918   -1.7199613   0.11509548   -3.2811918    1.5612305   550557 
 4951000    1.3060553   -3.2818839   -1.7195962   0.11821093   -3.2818839    1.5622877   550574 
 4952000    1.3059553   -3.2812061   -1.7190863     0.117482   -3.2812061    1.5621198   550591 
 4953000     1.304545    -3.280925   -1.7205573   0.11523707    -3.280925    1.5603677   550614 
 4954000    1.3057415    -3.282733   -1.7210674   0.11804586    -3.282733    1.5616655   550661 
 4955000    1.3056643   -3.2837117   -1.7222434   0.11639188   -3.2837117    1.5614683   550698 
 4956000    1.3035423   -3.2808871   -1.7219962   0.11337718   -3.2808871    1.5588909   550712 
 4957000    1.3039191   -3.2829949   -1.7236817   0.11853324   -3.2829949    1.5593132   550722 
 4958000    1.3041352    -3.283051   -1.7235984   0.11520022    -3.283051    1.5594526   550764 
 4959000    1.3039007   -3.2833769   -1.7242556   0.11304973   -3.2833769    1.5591213   550782 
 4960000    1.3035957   -3.2832421   -1.7245676   0.11788214   -3.2832421    1.5586745   550811 
 4961000    1.3044025   -3.2850591   -1.7254963   0.11596614   -3.2850591    1.5595628   550838 
 4962000     1.303605   -3.2841246   -1.7255917   0.11429667   -3.2841246    1.5585329   550865 
 4963000    1.3035666   -3.2839237   -1.7255386   0.11840055   -3.2839237    1.5583851   550901 
 4964000    1.3030054   -3.2841648   -1.7264986   0.12040896   -3.2841648    1.5576662   550918 
 4965000    1.3044902   -3.2857161   -1.7263118   0.11754222   -3.2857161    1.5594043   550931 
 4966000    1.3046738    -3.284637   -1.7250953   0.12271048    -3.284637    1.5595417   550960 
 4967000    1.3049873   -3.2855683   -1.7257226   0.11495061   -3.2855683    1.5598457   550985 
 4968000    1.3035385   -3.2835845   -1.7255356   0.11752488   -3.2835845    1.5580489   551008 
 4969000    1.3066426   -3.2862366   -1.7245512   0.11129102   -3.2862366    1.5616854   551034 
 4970000    1.3047746   -3.2822884   -1.7229347   0.12446738   -3.2822884    1.5593538   551069 
 4971000     1.305427   -3.2846615   -1.7246215   0.11613762   -3.2846615      1.56004   551102 
 4972000    1.3055181    -3.284237     -1.72419   0.11237504    -3.284237     1.560047   551138 
 4973000      1.30479   -3.2833114   -1.7241657   0.11940823   -3.2833114    1.5591457   551149 
 4974000    1.3057042   -3.2844145   -1.7242866   0.11748171   -3.2844145    1.5601278   551188 
 4975000    1.3071068     -3.28621   -1.7245197   0.11615347     -3.28621    1.5616904   551228 
 4976000    1.3048048    -3.283678   -1.7248087   0.11775445    -3.283678    1.5588693   551253 
 4977000    1.3061642   -3.2855445   -1.7251501    0.1159167   -3.2855445    1.5603944   551288 
 4978000    1.3052076   -3.2836658   -1.7244708   0.11679245   -3.2836658     1.559195   551308 
 4979000    1.3056688   -3.2849916   -1.7253108   0.11570784   -3.2849916    1.5596808   551331 
 4980000    1.3054775   -3.2838806   -1.7245498    0.1150367   -3.2838806    1.5593308   551374 
 4981000    1.3069053   -3.2860225   -1.7251392   0.11229502   -3.2860225    1.5608833   551428 
 4982000    1.3070796   -3.2865089   -1.7254514   0.11790257   -3.2865089    1.5610575   551440 
 4983000    1.3037737   -3.2828345   -1.7258184   0.11707851   -3.2828345    1.5570161   551473 
 4984000     1.304731   -3.2838795   -1.7258332   0.12136321   -3.2838795    1.5580464   551513 
 4985000    1.3067692   -3.2874012   -1.7269408   0.11535075   -3.2874012    1.5604604   551520 
 4986000    1.3071047   -3.2871133   -1.7263881   0.11385371   -3.2871133    1.5607252   551568 
 4987000    1.3068106   -3.2867901   -1.7265207   0.11690015   -3.2867901    1.5602694   551605 
 4988000    1.3078362   -3.2872292   -1.7258259   0.11159019   -3.2872292    1.5614033   551637 
 4989000    1.3064491   -3.2860089   -1.7263606   0.12072004   -3.2860089    1.5596483   551672 
 4990000    1.3074934   -3.2866691   -1.7258589   0.11801743   -3.2866691    1.5608102   551702 
 4991000    1.3079338   -3.2874143   -1.7261633   0.11711409   -3.2874143     1.561251   551732 
 4992000    1.3064529   -3.2853967   -1.7260067    0.1204287   -3.2853967      1.55939   551765 
 4993000    1.3066925   -3.2870529   -1.7274335   0.11800302   -3.2870529    1.5596194   551785 
 4994000     1.307715   -3.2880628   -1.7272851   0.12053058   -3.2880628    1.5607776   551807 
 4995000    1.3088966   -3.2897671   -1.7276443   0.10948788   -3.2897671    1.5621228   551830 
 4996000    1.3072218   -3.2873785   -1.7273195   0.11634493   -3.2873785    1.5600589   551853 
 4997000    1.3047901   -3.2853629   -1.7282539   0.11715375   -3.2853629     1.557109   551870 
 4998000    1.3061073   -3.2875181   -1.7289277   0.11108837   -3.2875181    1.5585904   551902 
 4999000    1.3065901   -3.2879628   -1.7288555   0.11517133   -3.2879628    1.5591073   551923 
 5000000    1.3047236   -3.2856471   -1.7287896   0.12136354   -3.2856471    1.5568575   551931 
 5001000    1.3083565   -3.2893392   -1.7281976   0.11514117   -3.2893392    1.5611416   551949 
 5002000    1.3051698   -3.2855227   -1.7282824   0.11609958   -3.2855227    1.5572404   551984 
 5003000    1.3075596   -3.2873202   -1.7273076   0.11261963   -3.2873202    1.5600126   552012 
 5004000    1.3069728   -3.2866197    -1.727375    0.1147772   -3.2866197    1.5592447   552036 
 5005000    1.3073047   -3.2875293   -1.7279338   0.11733671   -3.2875293    1.5595955   552052 
 5006000    1.3076043   -3.2880996   -1.7282173   0.11529373   -3.2880996    1.5598822   552077 
 5007000    1.3068013   -3.2877427   -1.7289002   0.11665404   -3.2877427    1.5588425   552106 
 5008000    1.3077476   -3.2887289   -1.7288028   0.11503432   -3.2887289    1.5599261   552122 
 5009000    1.3077738   -3.2881459   -1.7282479   0.11893565   -3.2881459     1.559898   552143 
 5010000    1.3080454    -3.287791   -1.7276482    0.1122796    -3.287791    1.5601428   552171 
 5011000    1.3074531   -3.2889069   -1.7295044   0.11819025   -3.2889069    1.5594025   552183 
 5012000    1.3073159   -3.2886776   -1.7294585   0.11305612   -3.2886776    1.5592191   552190 
 5013000    1.3074463   -3.2894781   -1.7302052   0.11172161   -3.2894781    1.5592729   552226 
 5014000    1.3069157   -3.2883158   -1.7297378   0.11409322   -3.2883158     1.558578   552248 
 5015000    1.3084593   -3.2902738   -1.7299057   0.11322104   -3.2902738     1.560368   552266 
 5016000    1.3066372   -3.2882594   -1.7301686   0.12109883   -3.2882594    1.5580908   552303 
 5017000    1.3064933   -3.2881398   -1.7302771   0.12046915   -3.2881398    1.5578627   552323 
 5018000    1.3076587   -3.2895136   -1.7303063    0.1154607   -3.2895136    1.5592072   552339 
 5019000    1.3074006   -3.2899982   -1.7311468   0.11267406   -3.2899982    1.5588514   552356 
 5020000    1.3081105   -3.2903488   -1.7307186   0.11742364   -3.2903488    1.5596301   552380 
 5021000    1.3078176   -3.2900728   -1.7308314   0.11766486   -3.2900728    1.5592414   552394 
 5022000     1.308697    -3.290606   -1.7303388   0.11662215    -3.290606    1.5602672   552402 
 5023000    1.3081386     -3.29171   -1.7322017   0.11713074     -3.29171    1.5595083   552435 
 5024000    1.3089391   -3.2915046   -1.7311012   0.11559631   -3.2915046    1.5604034   552456 
 5025000    1.3091633    -3.292151   -1.7315284   0.10955131    -3.292151    1.5606226   552473 
 5026000    1.3088692    -3.292141   -1.7319509   0.11903491    -3.292141    1.5601901   552502 
 5027000    1.3086412   -3.2928572   -1.7330206   0.11219406   -3.2928572    1.5598365   552531 
 5028000    1.3079859   -3.2916761   -1.7326941   0.11343104   -3.2916761     1.558982   552557 
 5029000    1.3089278   -3.2928273   -1.7328073   0.11888202   -3.2928273      1.56002   552587 
 5030000    1.3093201   -3.2924212   -1.7320128   0.11744371   -3.2924212    1.5604084   552615 
 5031000    1.3074199   -3.2911502   -1.7331191   0.11322879   -3.2911502    1.5580311   552655 
 5032000    1.3075718   -3.2909305   -1.7328029   0.11510907   -3.2909305    1.5581275   552685 
 5033000     1.307114   -3.2907672   -1.7332584   0.11637163   -3.2907672    1.5575087   552711 
 5034000    1.3083125   -3.2925217   -1.7336977   0.11698041   -3.2925217     1.558824   552751 
 5035000    1.3087436   -3.2932851   -1.7340575   0.11722779   -3.2932851    1.5592276   552790 
 5036000    1.3086437   -3.2928686   -1.7338672   0.11118268   -3.2928686    1.5590014   552828 
 5037000    1.3096369   -3.2935655   -1.7334345   0.11320846   -3.2935655     1.560131   552847 
 5038000    1.3095917   -3.2927692    -1.732771     0.111633   -3.2927692    1.5599982   552875 
 5039000    1.3073074   -3.2902769    -1.733042       0.1134   -3.2902769    1.5572349   552890 
 5040000    1.3096041   -3.2926467    -1.732755   0.10781915   -3.2926467    1.5598917   552918 
 5041000    1.3072418    -3.289785    -1.732786   0.12191099    -3.289785     1.556999   552946 
 5042000    1.3106521    -3.292671   -1.7316807   0.11667728    -3.292671    1.5609904   552971 
 5043000    1.3102822   -3.2918509   -1.7313266   0.12158483   -3.2918509    1.5605243   552980 
 5044000    1.3080134   -3.2898477   -1.7320988   0.12084797   -3.2898477     1.557749   553006 
 5045000    1.3100953   -3.2930542   -1.7329076   0.11586638   -3.2930542    1.5601466   553035 
 5046000     1.309566     -3.29236   -1.7329311   0.11676147     -3.29236    1.5594289   553066 
 5047000    1.3097286   -3.2921949   -1.7326542   0.11813744   -3.2921949    1.5595407   553095 
 5048000    1.3104109    -3.292817    -1.732557   0.11339546    -3.292817      1.56026   553128 
 5049000    1.3109135    -3.292791   -1.7319919   0.12027251    -3.292791    1.5607992   553149 
 5050000    1.3113447   -3.2931535   -1.7319058   0.11799966   -3.2931535    1.5612477   553172 
 5051000    1.3113371   -3.2942642   -1.7330706   0.11460669   -3.2942642    1.5611935   553188 
 5052000     1.311487    -3.294442   -1.7331576   0.11827568    -3.294442    1.5612844   553219 
 5053000     1.311241   -3.2943598   -1.7334472   0.11486163   -3.2943598    1.5609126   553247 
 5054000    1.3101662   -3.2941977   -1.7346294   0.11540406   -3.2941977    1.5595683   553270 
 5055000    1.3091616   -3.2919832   -1.7336473   0.12172413   -3.2919832    1.5583359   553283 
 5056000    1.3109177   -3.2939547   -1.7336075   0.11242929   -3.2939547    1.5603472   553311 
 5057000    1.3101453   -3.2928489   -1.7334803   0.11593076   -3.2928489    1.5593686   553332 
 5058000    1.3104526   -3.2941838   -1.7345142   0.11287331   -3.2941838    1.5596696   553355 
 5059000    1.3096432   -3.2940646   -1.7354175   0.11168609   -3.2940646    1.5586471   553376 
 5060000    1.3095835   -3.2929384   -1.7344243   0.11708885   -3.2929384    1.5585141   553398 
 5061000    1.3095497   -3.2928272   -1.7344096   0.11535015   -3.2928272    1.5584176   553418 
 5062000    1.3104729   -3.2936699   -1.7342664   0.11930635   -3.2936699    1.5594035   553458 
 5063000     1.309358   -3.2931029   -1.7351077   0.11750479   -3.2931029    1.5579952   553487 
 5064000    1.3106544   -3.2940407   -1.7345903    0.1160118   -3.2940407    1.5594504   553518 
 5065000    1.3116266   -3.2952922   -1.7347978    0.1142019   -3.2952922    1.5604944   553558 
 5066000    1.3089769   -3.2922747    -1.735034   0.11859557   -3.2922747    1.5572407   553594 
 5067000    1.3119645   -3.2943468   -1.7336394   0.11127028   -3.2943468    1.5607075   553625 
 5068000    1.3126116   -3.2940247   -1.7325897    0.1167885   -3.2940247     1.561435   553640 
 5069000    1.3140465   -3.2962471   -1.7331616   0.11488341   -3.2962471    1.5630855   553660 
 5070000    1.3101496   -3.2926352   -1.7342781   0.11893235   -3.2926352    1.5583571   553693 
 5071000    1.3103863   -3.2925058   -1.7338784   0.12093961   -3.2925058    1.5586274   553697 
 5072000    1.3127651   -3.2943843    -1.732998    0.1167723   -3.2943843    1.5613863   553722 
 5073000     1.312575   -3.2958796   -1.7347757   0.12073561   -3.2958796    1.5611039   553742 
 5074000    1.3128783   -3.2950212   -1.7336327   0.11994202   -3.2950212    1.5613885   553769 
 5075000    1.3123571   -3.2941343   -1.7334109    0.1207329   -3.2941343    1.5607235   553785 
 5076000    1.3120395   -3.2943707   -1.7340588   0.11820886   -3.2943707     1.560312   553797 
 5077000    1.3091725   -3.2920689   -1.7352507    0.1199234   -3.2920689    1.5568182   553827 
 5078000    1.3123159    -3.296155   -1.7356863   0.11599925    -3.296155    1.5604688   553858 
 5079000    1.3118535   -3.2968012   -1.7369751   0.11426897   -3.2968012     1.559826   553891 
 5080000    1.3092653   -3.2953922   -1.7387223   0.11581527   -3.2953922    1.5566699   553919 
 5081000    1.3114204   -3.2976567    -1.738509   0.11420885   -3.2976567    1.5591478   553949 
 5082000    1.3102486   -3.2962163   -1.7385122   0.11880204   -3.2962163    1.5577041   553967 
 5083000    1.3110435   -3.2976571   -1.7391262   0.11319602   -3.2976571    1.5585309   554009 
 5084000    1.3105985   -3.2965829   -1.7386457   0.11724638   -3.2965829    1.5579372   554032 
 5085000    1.3101979   -3.2965292   -1.7391694   0.11072586   -3.2965292    1.5573598   554068 
 5086000    1.3120586   -3.2978966   -1.7383982   0.11603146   -3.2978966    1.5594983   554094 
 5087000    1.3096797   -3.2957521   -1.7391937   0.12133823   -3.2957521    1.5565584   554134 
 5088000    1.3114057   -3.2984393    -1.739911   0.11901955   -3.2984393    1.5585282   554163 
 5089000    1.3116686   -3.2982599    -1.739453   0.11680938   -3.2982599    1.5588069   554175 
 5090000    1.3124165   -3.2987504   -1.7391701   0.11716434   -3.2987504    1.5595803   554216 
 5091000    1.3118525   -3.2979497    -1.739124   0.11778853   -3.2979497    1.5588257   554246 
 5092000    1.3108838   -3.2976655   -1.7400385   0.12052605   -3.2976655     1.557627   554263 
 5093000    1.3120514   -3.2984897   -1.7395542   0.11969528   -3.2984897    1.5589355   554291 
 5094000    1.3152195   -3.3005181   -1.7379029   0.11839378   -3.3005181    1.5626152   554321 
 5095000    1.3131412   -3.2990372   -1.7389953   0.11557052   -3.2990372    1.5600419   554358 
 5096000    1.3129734   -3.2983307   -1.7386486   0.11972248   -3.2983307     1.559682   554415 
 5097000    1.3128329   -3.2982622   -1.7387527   0.12383085   -3.2982622    1.5595096   554417 
 5098000    1.3127873   -3.2971806   -1.7377899   0.11789016   -3.2971806    1.5593907   554440 
 5099000    1.3128484   -3.2982922   -1.7389133   0.10890248   -3.2982922    1.5593789   554470 
 5100000    1.3125618   -3.2983563   -1.7393768   0.11513571   -3.2983563    1.5589795   554491 
 5101000    1.3126106    -3.298594   -1.7396156   0.11627088    -3.298594    1.5589783   554512 
 5102000    1.3118629   -3.2976252   -1.7396445   0.11827655   -3.2976252    1.5579807   554551 
 5103000    1.3104039   -3.2961931   -1.7400377   0.11577274   -3.2961931    1.5561555   554584 
 5104000    1.3131393   -3.2980663   -1.7387524   0.11711501   -3.2980663    1.5593138   554616 
 5105000     1.311681   -3.2967044   -1.7392093    0.1142892   -3.2967044    1.5574951   554647 
 5106000    1.3132062   -3.2981475   -1.7388751   0.11311811   -3.2981475    1.5592724   554659 
 5107000    1.3113379   -3.2957847   -1.7388149   0.11502172   -3.2957847    1.5569698   554689 
 5108000    1.3121715    -3.297769   -1.7398263   0.11926403    -3.297769    1.5579428   554695 
 5109000    1.3120597   -3.2966264   -1.7388698   0.11176754   -3.2966264    1.5577566   554714 
 5110000    1.3126006   -3.2974493   -1.7391404   0.11487586   -3.2974493     1.558309   554746 
 5111000    1.3129861   -3.2977164   -1.7390623    0.1176879   -3.2977164    1.5586541   554786 
 5112000    1.3136346   -3.2975594   -1.7382366   0.11370326   -3.2975594    1.5593228   554822 
 5113000    1.3129385   -3.2977201   -1.7392544   0.11391931   -3.2977201    1.5584656   554833 
 5114000    1.3118133   -3.2968844   -1.7398077   0.11956538   -3.2968844    1.5570767   554852 
 5115000    1.3127024   -3.2979275   -1.7398853   0.11701947   -3.2979275    1.5580422   554884 
 5116000    1.3124699   -3.2971626   -1.7394722   0.11762481   -3.2971626    1.5576904   554911 
 5117000    1.3132932   -3.2984828   -1.7399556   0.11863437   -3.2984828    1.5585272   554961 
 5118000    1.3117696   -3.2974023   -1.7407618   0.11961485   -3.2974023    1.5566405   554989 
 5119000    1.3137188   -3.3003255   -1.7414254    0.1086896   -3.3003255    1.5589002   555008 
 5120000    1.3144358   -3.3017111    -1.742036   0.11059551   -3.3017111    1.5596752   555035 
 5121000    1.3117166   -3.2986312   -1.7422444   0.11720769   -3.2986312    1.5563868   555057 
 5122000    1.3133763   -3.3014129   -1.7431494   0.11436311   -3.3014129    1.5582635   555090 
 5123000    1.3142515   -3.3014798   -1.7422987   0.11364207   -3.3014798    1.5591811   555133 
 5124000    1.3144477   -3.3005934   -1.7412441   0.11528528   -3.3005934    1.5593493   555156 
 5125000    1.3129721   -3.2988388   -1.7413327   0.11918643   -3.2988388    1.5575062   555189 
 5126000    1.3149986    -3.301427   -1.7416011   0.11646877    -3.301427    1.5598258   555219 
 5127000    1.3156285   -3.3013813   -1.7408954   0.11575356   -3.3013813    1.5604859   555250 
 5128000    1.3165758   -3.3019959   -1.7404651   0.11857171   -3.3019959    1.5615307   555278 
 5129000    1.3151058   -3.3015241   -1.7418239   0.11541693   -3.3015241    1.5597002   555309 
 5130000    1.3158819    -3.302078   -1.7415023   0.11880162    -3.302078    1.5605757   555325 
 5131000    1.3156839   -3.3015343   -1.7412721   0.12230261   -3.3015343    1.5602622   555353 
 5132000    1.3167167   -3.3032455   -1.7418176   0.11846471   -3.3032455    1.5614279   555374 
 5133000    1.3172312   -3.3042323   -1.7423097   0.11264825   -3.3042323    1.5619227   555415 
 5134000    1.3149624   -3.3029738   -1.7437976   0.12254549   -3.3029738    1.5591762   555435 
 5135000    1.3149443   -3.3034253   -1.7443631   0.11415606   -3.3034253    1.5590622   555468 
 5136000    1.3137887   -3.3029645   -1.7453817   0.11265998   -3.3029645    1.5575828   555507 
 5137000    1.3134285    -3.302886   -1.7458145   0.11667748    -3.302886    1.5570716   555537 
 5138000    1.3145784   -3.3029138   -1.7445743   0.11847144   -3.3029138    1.5583395   555571 
 5139000    1.3150186   -3.3025452   -1.7437204   0.11721804   -3.3025452    1.5588247   555584 
 5140000    1.3142451   -3.3036042    -1.745772   0.12165044   -3.3036042    1.5578322   555611 
 5141000    1.3138389   -3.3019876    -1.744721   0.12095208   -3.3019876    1.5572666   555641 
 5142000    1.3150975   -3.3037238   -1.7450384   0.11936013   -3.3037238    1.5586854   555667 
 5143000    1.3142484   -3.3017891   -1.7441914   0.11750705   -3.3017891    1.5575977   555696 
 5144000    1.3153371   -3.3031218   -1.7443262   0.11558133   -3.3031218    1.5587955   555729 
 5145000    1.3166545   -3.3038607   -1.7435377   0.12028761   -3.3038607     1.560323   555741 
 5146000    1.3167994   -3.3047907   -1.7443605   0.11377237   -3.3047907    1.5604301   555764 
 5147000    1.3171672   -3.3048086   -1.7440015   0.11620955   -3.3048086    1.5608071   555785 
 5148000    1.3162131   -3.3033419   -1.7437159   0.11976098   -3.3033419     1.559626   555803 
 5149000    1.3161971   -3.3034578   -1.7439069   0.11717664   -3.3034578    1.5595509   555823 
 5150000    1.3152505   -3.3024432   -1.7440476   0.11706016   -3.3024432    1.5583956   555835 
 5151000     1.314754   -3.3015566   -1.7438418   0.12516641   -3.3015566    1.5577148   555868 
 5152000    1.3167632   -3.3035606   -1.7435157   0.11649282   -3.3035606    1.5600449   555886 
 5153000    1.3153434   -3.3017471   -1.7434012   0.12297246   -3.3017471    1.5583459   555892 
 5154000    1.3168646   -3.3045925   -1.7445258   0.10793057   -3.3045925    1.5600667   555921 
 5155000    1.3147255   -3.3024555   -1.7449594   0.11633893   -3.3024555    1.5574962   555934 
 5156000    1.3154714   -3.3029249   -1.7446096   0.11592199   -3.3029249    1.5583153   555957 
 5157000    1.3150565   -3.3033347    -1.745522   0.11736768   -3.3033347    1.5578127   555961 
 5158000    1.3146892    -3.303713   -1.7464224   0.12115911    -3.303713    1.5572906   555992 
 5159000     1.315459   -3.3049923   -1.7468262   0.11054921   -3.3049923    1.5581661   556005 
 5160000    1.3143999   -3.3036442   -1.7468334   0.11691758   -3.3036442    1.5568108   556041 
 5161000    1.3146118   -3.3031486   -1.7461652   0.11449052   -3.3031486    1.5569834   556069 
 5162000     1.315016   -3.3031712   -1.7457511   0.11711137   -3.3031712    1.5574201   556084 
 5163000    1.3139283   -3.3022266    -1.746092   0.12057991   -3.3022266    1.5561346   556083 
 5164000    1.3162728   -3.3045494    -1.745708   0.12361089   -3.3045494    1.5588413   556108 
 5165000    1.3172286   -3.3068145   -1.7468862   0.11686188   -3.3068145    1.5599283   556124 
 5166000    1.3142222   -3.3032286   -1.7469025    0.1166718   -3.3032286    1.5563261   556139 
 5167000     1.313637   -3.3025512   -1.7469824   0.11895071   -3.3025512    1.5555687   556162 
 5168000    1.3143823   -3.3037727   -1.7473998   0.11971553   -3.3037727    1.5563728   556190 
 5169000    1.3153646   -3.3064366   -1.7490182   0.11246343   -3.3064366    1.5574185   556232 
 5170000    1.3171871   -3.3071587   -1.7476582    0.1135765   -3.3071587    1.5595006   556259 
 5171000    1.3165874   -3.3063673   -1.7476216   0.11901254   -3.3063673    1.5587458   556275 
 5172000    1.3153602   -3.3057687   -1.7485542   0.11207703   -3.3057687    1.5572145   556303 
 5173000    1.3158168   -3.3071702   -1.7494488   0.11879023   -3.3071702    1.5577214   556315 
 5174000    1.3141796   -3.3053829   -1.7496584   0.12022858   -3.3053829    1.5557245   556336 
 5175000    1.3134228   -3.3042775   -1.7495131   0.11693775   -3.3042775    1.5547644   556359 
 5176000    1.3145627   -3.3070177   -1.7509488   0.11930784   -3.3070177    1.5560689   556375 
 5177000    1.3145463    -3.307153   -1.7512153   0.11780336    -3.307153    1.5559377   556415 
 5178000    1.3146243    -3.308091   -1.7521338   0.11672713    -3.308091    1.5559572   556441 
 5179000    1.3156874   -3.3076163   -1.7504792   0.11951582   -3.3076163    1.5571372   556469 
 5180000    1.3148335    -3.307823   -1.7517552   0.11586236    -3.307823    1.5560678   556490 
 5181000    1.3151312   -3.3074988   -1.7512017    0.1214625   -3.3074988    1.5562971   556534 
 5182000    1.3159339   -3.3070389   -1.7498982   0.11449902   -3.3070389    1.5571407   556572 
 5183000    1.3152867   -3.3085987   -1.7522574   0.12268917   -3.3085987    1.5563413   556584 
 5184000    1.3161178   -3.3090491   -1.7518306   0.12079932   -3.3090491    1.5572185   556622 
 5185000    1.3159545   -3.3082795   -1.7513046   0.11934819   -3.3082795    1.5569748   556640 
 5186000    1.3162535   -3.3099658   -1.7526736   0.12108815   -3.3099658    1.5572922   556653 
 5187000    1.3168635   -3.3097319   -1.7517684   0.11731651   -3.3097319    1.5579635   556671 
 5188000    1.3168753   -3.3101168   -1.7522065   0.12210172   -3.3101168    1.5579104   556695 
 5189000    1.3160942   -3.3090374   -1.7520847   0.12062054   -3.3090374    1.5569527   556707 
 5190000    1.3159567   -3.3084337   -1.7517164   0.11361356   -3.3084337    1.5567173   556733 
 5191000    1.3167572   -3.3096587   -1.7520755     0.116506   -3.3096587    1.5575832   556762 
 5192000    1.3171552   -3.3100413   -1.7520908    0.1155281   -3.3100413    1.5579505   556799 
 5193000    1.3169236   -3.3094406   -1.7518369   0.12421326   -3.3094406    1.5576037   556825 
 5194000    1.3168208   -3.3097164    -1.752293   0.11820918   -3.3097164    1.5574234   556846 
 5195000    1.3162668   -3.3106419   -1.7539408   0.11503753   -3.3106419    1.5567011   556870 
 5196000    1.3165923   -3.3102625   -1.7532352   0.12019455   -3.3102625    1.5570273   556891 
 5197000    1.3147425   -3.3081972   -1.7534384   0.11730087   -3.3081972    1.5547587   556920 
 5198000    1.3163785   -3.3107922   -1.7541686   0.11479189   -3.3107922    1.5566236   556945 
 5199000    1.3171322   -3.3102646   -1.7527666   0.11727335   -3.3102646     1.557498   556951 
 5200000    1.3168798    -3.310333   -1.7532284   0.11771674    -3.310333    1.5571045   556985 
 5201000    1.3164191   -3.3103016   -1.7538284   0.11538734   -3.3103016    1.5564732   557016 
 5202000    1.3163165   -3.3102772   -1.7540036   0.11730431   -3.3102772    1.5562736   557044 
 5203000    1.3154926   -3.3089836   -1.7537399   0.12442456   -3.3089836    1.5552437   557064 
 5204000    1.3180331   -3.3115524   -1.7533416    0.1253499   -3.3115524    1.5582108   557077 
 5205000    1.3181102   -3.3104717   -1.7522173   0.12223309   -3.3104717    1.5582545   557094 
 5206000    1.3193136   -3.3125101   -1.7528947   0.11874072   -3.3125101    1.5596154   557116 
 5207000    1.3174386   -3.3105528   -1.7532182   0.11951184   -3.3105528    1.5573346   557139 
 5208000    1.3160798   -3.3099944   -1.7542799   0.11536117   -3.3099944    1.5557145   557144 
 5209000    1.3177055    -3.312623   -1.7550315     0.113775    -3.312623    1.5575915   557160 
 5210000    1.3168376   -3.3109087   -1.7544185   0.12142266   -3.3109087    1.5564902   557187 
 5211000    1.3148679   -3.3082305   -1.7541383   0.12096662   -3.3082305    1.5540922   557212 
 5212000    1.3180707   -3.3112032   -1.7534121    0.1147262   -3.3112032    1.5577911   557243 
 5213000    1.3182648   -3.3114709   -1.7535091   0.11673175   -3.3114709    1.5579618   557264 
 5214000    1.3182923   -3.3124568   -1.7545464   0.11409472   -3.3124568    1.5579104   557294 
 5215000    1.3189723   -3.3134788   -1.7548068   0.11549876   -3.3134788    1.5586721   557309 
 5216000    1.3160925   -3.3093021   -1.7540582   0.12088596   -3.3093021    1.5552438   557318 
 5217000     1.317908   -3.3117289   -1.7544179   0.12139464   -3.3117289     1.557311   557346 
 5218000    1.3183843   -3.3131965   -1.7553841   0.11256752   -3.3131965    1.5578123   557368 
 5219000    1.3192063    -3.313869   -1.7551749   0.11260024    -3.313869    1.5586941   557400 
 5220000    1.3172055   -3.3121543   -1.7558578   0.11187688   -3.3121543    1.5562965   557412 
 5221000    1.3172821   -3.3120619   -1.7557195   0.11688034   -3.3120619    1.5563424   557428 
 5222000    1.3178699   -3.3119993   -1.7551132   0.11810013   -3.3119993    1.5568861   557482 
 5223000    1.3171381   -3.3105405   -1.7545803   0.11742858   -3.3105405    1.5559601   557504 
 5224000    1.3193404   -3.3140215   -1.7555772     0.115805   -3.3140215    1.5584443   557546 
 5225000    1.3191896   -3.3128431   -1.7546412    0.1157714   -3.3128431     1.558202   557569 
 5226000    1.3187099   -3.3122753   -1.7547434   0.11450025   -3.3122753    1.5575319   557606 
 5227000    1.3177921   -3.3105998   -1.7542328   0.12588681   -3.3105998     1.556367   557635 
 5228000    1.3185443   -3.3117878   -1.7546163   0.11767377   -3.3117878    1.5571716   557665 
 5229000    1.3170462   -3.3118649    -1.756549   0.12016779   -3.3118649    1.5553158   557696 
 5230000    1.3177911   -3.3129555   -1.7567906   0.11674918   -3.3129555    1.5561648   557707 
 5231000     1.318232   -3.3124228   -1.7558014   0.11751409   -3.3124228    1.5566213   557730 
 5232000    1.3189051   -3.3137232   -1.7563964   0.11484719   -3.3137232    1.5573269   557762 
 5233000    1.3177882   -3.3122032   -1.7562817   0.11703199   -3.3122032    1.5559215   557793 
 5234000    1.3187221   -3.3135366   -1.7566016   0.11545754   -3.3135366    1.5569349   557825 
 5235000    1.3180178   -3.3136695   -1.7576163   0.11480851   -3.3136695    1.5560531   557843 
 5236000     1.316007   -3.3122493   -1.7585952   0.11317879   -3.3122493    1.5536541   557852 
 5237000    1.3154477   -3.3125015   -1.7595466   0.11224898   -3.3125015    1.5529548   557866 
 5238000    1.3171695   -3.3145417   -1.7595987   0.11893457   -3.3145417     1.554943   557882 
 5239000    1.3174052    -3.314521   -1.7593668   0.11278468    -3.314521    1.5551542   557906 
 5240000    1.3177563   -3.3146484    -1.759155    0.1186104   -3.3146484    1.5554934   557933 
 5241000    1.3177599   -3.3140589   -1.7586281   0.12247625   -3.3140589    1.5554308   557957 
 5242000    1.3197357   -3.3164864   -1.7588016   0.11895091   -3.3164864    1.5576848   557985 
 5243000    1.3184936   -3.3145866   -1.7584265   0.11949371   -3.3145866    1.5561601   558006 
 5244000    1.3200874   -3.3160704   -1.7582078   0.12197541   -3.3160704    1.5578626   558070 
 5245000    1.3195834   -3.3154053   -1.7582296   0.11909167   -3.3154053    1.5571757   558103 
 5246000     1.318314    -3.314645    -1.758998   0.11783619    -3.314645    1.5556471   558114 
 5247000    1.3198696   -3.3155195   -1.7581483   0.12234101   -3.3155195    1.5573712   558154 
 5248000    1.3193541   -3.3148825   -1.7581726   0.11829827   -3.3148825    1.5567099   558173 
 5249000    1.3202584   -3.3157448   -1.7579931   0.11959461   -3.3157448    1.5577517   558182 
 5250000    1.3215642    -3.316766   -1.7575211    0.1184869    -3.316766    1.5592449   558199 
 5251000    1.3223902   -3.3182426   -1.7581097   0.11783811   -3.3182426    1.5601329   558230 
 5252000    1.3202837   -3.3161982   -1.7586678   0.11759096   -3.3161982    1.5575304   558272 
 5253000    1.3189299   -3.3140896   -1.7582371   0.11734486   -3.3140896    1.5558525   558301 
 5254000    1.3188887   -3.3152627   -1.7595173   0.11853422   -3.3152627    1.5557454   558322 
 5255000    1.3192238   -3.3150736   -1.7590026   0.11354389   -3.3150736     1.556071   558347 
 5256000    1.3195386   -3.3158842   -1.7595254   0.11500181   -3.3158842    1.5563588   558377 
 5257000    1.3198359   -3.3154832   -1.7588462   0.11816194   -3.3154832     1.556637   558403 
 5258000    1.3186274   -3.3147141   -1.7596166   0.11855699   -3.3147141    1.5550975   558444 
 5259000    1.3182797   -3.3154104   -1.7608177   0.10958257   -3.3154104    1.5545927   558478 
 5260000    1.3174985   -3.3145354   -1.7609502   0.11618548   -3.3145354    1.5535852   558509 
 5261000    1.3176345   -3.3138465   -1.7601705   0.11410674   -3.3138465    1.5536761   558534 
 5262000    1.3196567   -3.3161142    -1.760076   0.11033855   -3.3161142    1.5560382   558542 
 5263000    1.3188678   -3.3155711    -1.760541   0.11861622   -3.3155711    1.5550301   558570 
 5264000    1.3197468   -3.3153574   -1.7593745   0.12100082   -3.3153574    1.5559829   558600 
 5265000     1.316768   -3.3138425   -1.7614578   0.12012351   -3.3138425    1.5523847   558631 
 5266000    1.3206418   -3.3169485   -1.7600609    0.1184526   -3.3169485    1.5568876   558654 
 5267000    1.3198412   -3.3163947   -1.7605122    0.1196039   -3.3163947    1.5558825   558676 
 5268000      1.32039    -3.317643   -1.7611581   0.12065257    -3.317643    1.5564848   558692 
 5269000    1.3204498   -3.3179164   -1.7614363   0.12037989   -3.3179164    1.5564802   558719 
 5270000    1.3190843   -3.3159363   -1.7611465   0.12416269   -3.3159363    1.5547898   558748 
 5271000    1.3218582   -3.3196477    -1.761658   0.12050629   -3.3196477    1.5579897   558773 
 5272000    1.3221307   -3.3191819   -1.7609435   0.11462518   -3.3191819    1.5582384   558799 
 5273000    1.3218529   -3.3181914   -1.7603083    0.1196078   -3.3181914    1.5578831   558809 
 5274000    1.3223326   -3.3183723    -1.759974   0.12449215   -3.3183723    1.5583983   558827 
 5275000    1.3228627   -3.3185191   -1.7595826   0.11808593   -3.3185191    1.5589366   558858 
 5276000    1.3222576    -3.318707   -1.7605255   0.12392616    -3.318707    1.5581816   558873 
 5277000    1.3212871   -3.3178625   -1.7609137   0.11799596   -3.3178625    1.5569488   558905 
 5278000    1.3219559   -3.3194238   -1.7617705   0.12436263   -3.3194238    1.5576532   558935 
 5279000    1.3200871    -3.317418   -1.7620362   0.11907654    -3.317418    1.5553818   558960 
 5280000    1.3212035   -3.3193403   -1.7626905   0.12234223   -3.3193403    1.5566498   558977 
 5281000    1.3203374    -3.318764   -1.7632209   0.12497423    -3.318764    1.5555431   559008 
 5282000    1.3189064    -3.316956   -1.7631322   0.12075508    -3.316956    1.5538238   559020 
 5283000    1.3216757   -3.3202814   -1.7632675   0.11713159   -3.3202814    1.5570139   559046 
 5284000    1.3213136   -3.3196888   -1.7631516   0.12232675   -3.3196888    1.5565372   559064 
 5285000    1.3204027   -3.3188929   -1.7635094   0.12027933   -3.3188929    1.5553835   559093 
 5286000    1.3199285   -3.3176423   -1.7629009   0.11900527   -3.3176423    1.5547414   559123 
 5287000    1.3210114   -3.3182647   -1.7622922   0.12481642   -3.3182647    1.5559725   559139 
 5288000    1.3202218   -3.3169832   -1.7619824   0.11496559   -3.3169832    1.5550008   559154 
 5289000    1.3223621   -3.3195659   -1.7621361   0.11274583   -3.3195659    1.5574298   559187 
 5290000    1.3212599   -3.3183108   -1.7622849   0.12017842   -3.3183108    1.5560259   559225 
 5291000     1.321216   -3.3177019   -1.7618251   0.11537493   -3.3177019    1.5558767   559260 
 5292000    1.3211158   -3.3185862   -1.7628691   0.12591878   -3.3185862    1.5557171   559275 
 5293000    1.3221783   -3.3179385   -1.7610399   0.12265395   -3.3179385    1.5568986   559300 
 5294000    1.3226173   -3.3198015   -1.7624416    0.1136383   -3.3198015    1.5573598   559320 
 5295000    1.3230437   -3.3207766   -1.7629342   0.11681981   -3.3207766    1.5578424   559327 
 5296000    1.3212871    -3.317171   -1.7613969   0.12154089    -3.317171    1.5557741   559327 
 5297000    1.3210201   -3.3185525   -1.7631428   0.11708128   -3.3185525    1.5554097   559345 
 5298000    1.3217565   -3.3198423   -1.7636073   0.11963178   -3.3198423     1.556235   559360 
 5299000    1.3216408    -3.319327   -1.7632366   0.12293742    -3.319327    1.5560904   559363 
 5300000    1.3224133   -3.3211501   -1.7642086   0.12126887   -3.3211501    1.5569415   559384 
 5301000    1.3215849   -3.3198687   -1.7639581   0.11590657   -3.3198687    1.5559106   559404 
 5302000    1.3208832   -3.3197028   -1.7646628   0.12221079   -3.3197028      1.55504   559420 
 5303000    1.3231839   -3.3222997   -1.7646152   0.11332885   -3.3222997    1.5576845   559443 
 5304000    1.3237444    -3.323134   -1.7648399   0.11407549    -3.323134    1.5582941   559461 
 5305000    1.3200258   -3.3202883   -1.7664467   0.12003058   -3.3202883    1.5538417   559488 
 5306000    1.3206847   -3.3212194   -1.7666854   0.11738429   -3.3212194     1.554534   559518 
 5307000    1.3207143   -3.3209529   -1.7664786   0.11482664   -3.3209529    1.5544744   559552 
 5308000    1.3211142   -3.3207301   -1.7658128   0.11577763   -3.3207301    1.5549173   559562 
 5309000    1.3205654    -3.321206   -1.7669847   0.12133703    -3.321206    1.5542213   559580 
 5310000    1.3236151   -3.3242216   -1.7665056   0.11236472   -3.3242216     1.557716   559614 
 5311000    1.3233264   -3.3224756   -1.7651384   0.12052022   -3.3224756    1.5573372   559628 
 5312000    1.3238163   -3.3235432   -1.7656767   0.11991703   -3.3235432    1.5578665   559645 
 5313000    1.3232355   -3.3229424   -1.7658096   0.11782042   -3.3229424    1.5571329   559663 
 5314000    1.3226949   -3.3224863    -1.766073   0.11538978   -3.3224863    1.5564133   559693 
 5315000    1.3230367   -3.3232741   -1.7664892   0.12148449   -3.3232741    1.5567849   559704 
 5316000    1.3220491   -3.3223777   -1.7668493   0.11628439   -3.3223777    1.5555283   559738 
 5317000    1.3228899   -3.3220548     -1.76559   0.11933015   -3.3220548    1.5564648   559757 
 5318000    1.3229212   -3.3231475   -1.7667293   0.12032618   -3.3231475    1.5564182   559787 
 5319000    1.3234789   -3.3232404   -1.7662217    0.1222636   -3.3232404    1.5570187   559807 
 5320000    1.3229772   -3.3230542   -1.7666953   0.11807339   -3.3230542     1.556359   559832 
 5321000    1.3217451   -3.3221892   -1.7673214   0.11945691   -3.3221892    1.5548678   559847 
 5322000    1.3226588    -3.322712   -1.7668638   0.12118598    -3.322712    1.5558482   559881 
 5323000    1.3228172   -3.3248769   -1.7689479    0.1194092   -3.3248769    1.5559289   559919 
 5324000    1.3202151   -3.3227811     -1.76996   0.11448782   -3.3227811    1.5528211   559936 
 5325000    1.3209956   -3.3227743   -1.7691044   0.11836462   -3.3227743    1.5536698   559961 
 5326000    1.3219332   -3.3239969   -1.7693215   0.11116472   -3.3239969    1.5546754   559996 
 5327000    1.3221229   -3.3227181   -1.7678113   0.11820749   -3.3227181    1.5549068   559993 
 5328000    1.3223946   -3.3237875   -1.7686305   0.11902099   -3.3237875    1.5551569   560018 
 5329000    1.3216987    -3.323853    -1.769606   0.11741011    -3.323853    1.5542469   560051 
 5330000     1.321442   -3.3245849   -1.7706953   0.11462656   -3.3245849    1.5538895   560071 
 5331000    1.3217729   -3.3243319   -1.7700838   0.11943456   -3.3243319    1.5542481   560082 
 5332000    1.3212639   -3.3238389   -1.7702365   0.11801932   -3.3238389    1.5536024   560099 
 5333000    1.3226212   -3.3266878   -1.7715282   0.11882085   -3.3266878    1.5551595   560113 
 5334000    1.3207489   -3.3235821   -1.7707376    0.1187723   -3.3235821    1.5528445   560154 
 5335000    1.3215521   -3.3240596   -1.7703624   0.11858714   -3.3240596    1.5536972   560187 
 5336000    1.3223875   -3.3263225   -1.7717541   0.11476011   -3.3263225    1.5545684   560227 
 5337000    1.3214274   -3.3244494    -1.771079   0.11959452   -3.3244494    1.5533704   560252 
 5338000     1.321889   -3.3250756   -1.7712097   0.11640487   -3.3250756    1.5538658   560269 
 5339000    1.3225371   -3.3282158   -1.7736575   0.11529034   -3.3282158    1.5545583   560294 
 5340000    1.3219178   -3.3265798   -1.7728049   0.12008022   -3.3265798    1.5537749   560314 
 5341000    1.3236056   -3.3284229   -1.7727364   0.11826714   -3.3284229    1.5556865   560340 
 5342000    1.3228082   -3.3257884   -1.7710945   0.12021071   -3.3257884    1.5546939   560360 
 5343000    1.3245793   -3.3279386   -1.7712131   0.11494975   -3.3279386    1.5567255   560378 
 5344000    1.3230603   -3.3266405   -1.7717613   0.11749846   -3.3266405    1.5548792   560400 
 5345000    1.3220989   -3.3249004    -1.771176   0.12345231   -3.3249004    1.5537244   560409 
 5346000    1.3236555   -3.3283716   -1.7728513   0.12049199   -3.3283716    1.5555203   560421 
 5347000    1.3248516   -3.3283503    -1.771491   0.11884263   -3.3283503    1.5568593   560445 
 5348000    1.3241329   -3.3269773   -1.7710263   0.11947315   -3.3269773    1.5559509   560468 
 5349000    1.3247682   -3.3276221   -1.7710052   0.12002782   -3.3276221    1.5566169   560497 
 5350000    1.3235856   -3.3270765    -1.771913   0.11964378   -3.3270765    1.5551635   560520 
 5351000    1.3228195   -3.3267051   -1.7724945   0.11890818   -3.3267051    1.5542106   560539 
 5352000    1.3232044   -3.3263025   -1.7717117   0.12225055   -3.3263025    1.5545908   560565 
 5353000    1.3234176   -3.3282995    -1.773547   0.11592617   -3.3282995    1.5547525   560597 
 5354000      1.32349   -3.3278799   -1.7731422   0.11739685   -3.3278799    1.5547378   560633 
 5355000    1.3227933   -3.3278789   -1.7739707   0.11311579   -3.3278789    1.5539082   560637 
 5356000    1.3214093   -3.3259795   -1.7737248   0.12065324   -3.3259795    1.5522547   560647 
 5357000    1.3207239   -3.3257127   -1.7743267   0.11207351   -3.3257127     1.551386   560670 
 5358000    1.3221569   -3.3265297   -1.7734965   0.11790988   -3.3265297    1.5530332   560683 
 5359000    1.3227753   -3.3269228   -1.7732132   0.11886443   -3.3269228    1.5537096   560701 
 5360000      1.32283   -3.3265522   -1.7728725   0.11258217   -3.3265522    1.5536797   560735 
 5361000    1.3235575   -3.3266195   -1.7721768   0.11308397   -3.3266195    1.5544427   560768 
 5362000    1.3240259    -3.326928   -1.7719796   0.11428135    -3.326928    1.5549484   560784 
 5363000    1.3215524   -3.3240854    -1.772064   0.12057137   -3.3240854    1.5520214   560792 
 5364000    1.3235395   -3.3265136   -1.7722251   0.11793575   -3.3265136    1.5542885   560816 
 5365000    1.3246036   -3.3272663    -1.771792   0.11911823   -3.3272663    1.5554743   560839 
 5366000     1.324917   -3.3272247   -1.7714128   0.11945734   -3.3272247    1.5558119   560850 
 5367000     1.324401   -3.3264307   -1.7713052   0.12211415   -3.3264307    1.5551255   560879 
 5368000     1.323338   -3.3249825   -1.7711717   0.12187061   -3.3249825    1.5538109   560903 
 5369000    1.3251368   -3.3272097   -1.7713339   0.12170277   -3.3272097    1.5558758   560920 
 5370000    1.3235441   -3.3270558   -1.7730749   0.11538456   -3.3270558    1.5539809   560929 
 5371000    1.3239101   -3.3273267   -1.7729993   0.12747811   -3.3273267    1.5543274   560959 
 5372000    1.3236517   -3.3277578   -1.7738501   0.11961927   -3.3277578    1.5539077   561001 
 5373000    1.3236081   -3.3292226   -1.7753993   0.11436801   -3.3292226    1.5538233   561013 
 5374000    1.3217926   -3.3266395   -1.7749945   0.12021247   -3.3266395     1.551645   561030 
 5375000    1.3242799   -3.3286434   -1.7741479   0.11439956   -3.3286434    1.5544955   561055 
 5376000    1.3244635   -3.3292937   -1.7746214   0.11752953   -3.3292937    1.5546723   561069 
 5377000    1.3249769   -3.3308419   -1.7755864   0.11842451   -3.3308419    1.5552555   561076 
 5378000      1.32515   -3.3306657   -1.7752292   0.11622432   -3.3306657    1.5554365   561084 
 5379000    1.3249021   -3.3297376   -1.7746364   0.12127907   -3.3297376    1.5551012   561100 
 5380000    1.3242862   -3.3300113   -1.7756607   0.11594474   -3.3300113    1.5543506   561110 
 5381000    1.3241738    -3.329673   -1.7755347   0.11605906    -3.329673    1.5541383   561139 
 5382000    1.3260314   -3.3313496   -1.7750783   0.12023812   -3.3313496    1.5562713   561156 
 5383000    1.3261797   -3.3309891   -1.7745908   0.11870135   -3.3309891    1.5563983   561173 
 5384000    1.3256479   -3.3306947   -1.7749926   0.12025627   -3.3306947    1.5557021   561199 
 5385000    1.3256799    -3.331125   -1.7754407   0.11617702    -3.331125    1.5556842   561219 
 5386000    1.3231521   -3.3294296   -1.7768086    0.1235643   -3.3294296     1.552621   561254 
 5387000    1.3258207    -3.332958   -1.7772666   0.11596459    -3.332958    1.5556914   561276 
 5388000     1.324664    -3.332541   -1.7782871   0.11507866    -3.332541    1.5542538   561305 
 5389000    1.3229524   -3.3298581    -1.777665   0.11947571   -3.3298581    1.5521931   561324 
 5390000    1.3242183   -3.3311015   -1.7774952   0.11712836   -3.3311015    1.5536063   561350 
 5391000    1.3254906   -3.3325759   -1.7775267    0.1146891   -3.3325759    1.5550492   561368 
 5392000    1.3227406    -3.328964   -1.7772213   0.11785021    -3.328964    1.5517428   561397 
 5393000    1.3236122   -3.3299882   -1.7773529   0.11675069   -3.3299882    1.5526352   561444 
 5394000    1.3229134   -3.3294282   -1.7776238   0.11582275   -3.3294282    1.5518045   561448 
 5395000    1.3234554   -3.3295192   -1.7770872   0.12010441   -3.3295192     1.552432   561451 
 5396000    1.3223412   -3.3285886   -1.7774968   0.12768319   -3.3285886    1.5510918   561463 
 5397000    1.3255881   -3.3309463   -1.7761289   0.12619468   -3.3309463    1.5548174   561493 
 5398000    1.3272776   -3.3324885   -1.7757283   0.11638019   -3.3324885    1.5567602   561507 
 5399000    1.3257705   -3.3324403   -1.7775031   0.11746134   -3.3324403    1.5549372   561527 
 5400000    1.3238742   -3.3297362   -1.7770978   0.12257444   -3.3297362    1.5526384   561554 
 5401000    1.3251111   -3.3306311   -1.7765781   0.11550175   -3.3306311     1.554053   561567 
 5402000    1.3252745    -3.331444   -1.7772658    0.1160079    -3.331444    1.5541783   561591 
 5403000    1.3247029   -3.3301862   -1.7767806   0.11685922   -3.3301862    1.5534056   561628 
 5404000    1.3264879   -3.3306725    -1.775207   0.12146944   -3.3306725    1.5554655   561640 
 5405000    1.3257267   -3.3307512   -1.7762475   0.11990657   -3.3307512    1.5545037   561665 
 5406000    1.3247592   -3.3305513    -1.777218   0.12242721   -3.3305513    1.5533333   561678 
 5407000    1.3252656   -3.3318954   -1.7780015   0.11688131   -3.3318954    1.5538939   561690 
 5408000    1.3252015   -3.3311978   -1.7774316   0.12296529   -3.3311978    1.5537662   561709 
 5409000    1.3245892   -3.3310914   -1.7780956   0.11833028   -3.3310914    1.5529958   561728 
 5410000    1.3249363   -3.3308954   -1.7775894   0.12378513   -3.3308954     1.553306   561763 
 5411000    1.3264492   -3.3322757   -1.7772432   0.12131368   -3.3322757    1.5550325   561780 
 5412000    1.3263891   -3.3322793   -1.7773836   0.11984158   -3.3322793    1.5548957   561804 
 5413000    1.3274445   -3.3318595   -1.7757211   0.12098236   -3.3318595    1.5561384   561802 
 5414000    1.3262279   -3.3316133    -1.776973   0.11717499   -3.3316133    1.5546402   561828 
 5415000    1.3235077   -3.3285054   -1.7771339   0.12370705   -3.3285054    1.5513715   561857 
 5416000    1.3244549   -3.3311773   -1.7787425   0.12556796   -3.3311773    1.5524348   561874 
 5417000    1.3258623   -3.3316752    -1.777646   0.12007752   -3.3316752    1.5540292   561894 
 5418000    1.3259556   -3.3334058   -1.7793696   0.11802286   -3.3334058    1.5540362   561931 
 5419000    1.3243725   -3.3314781    -1.779372   0.11859658   -3.3314781    1.5521062   561958 
 5420000     1.325299   -3.3325353   -1.7794097   0.12047438   -3.3325353    1.5531257   561982 
 5421000    1.3260919   -3.3337925   -1.7797957   0.11673132   -3.3337925    1.5539968   562003 
 5422000    1.3233921   -3.3313833   -1.7805558   0.11536595   -3.3313833    1.5508275   562005 
 5423000    1.3214667   -3.3307527   -1.7822586   0.12146696   -3.3307527    1.5484941   562033 
 5424000    1.3241653   -3.3341392   -1.7825243    0.1147719   -3.3341392    1.5516148   562048 
 5425000    1.3252733   -3.3341481   -1.7812985   0.11646494   -3.3341481    1.5528496   562071 
 5426000    1.3260076   -3.3349827   -1.7812948   0.11316566   -3.3349827    1.5536879   562079 
 5427000    1.3249267   -3.3344717   -1.7820807   0.11538606   -3.3344717     1.552391   562090 
 5428000    1.3250143   -3.3335623   -1.7811294   0.11624596   -3.3335623    1.5524329   562112 
 5429000     1.325603    -3.334043   -1.7810336   0.11910421    -3.334043    1.5530094   562153 
 5430000    1.3248276   -3.3325313   -1.7804718   0.11893661   -3.3325313    1.5520595   562168 
 5431000    1.3264398   -3.3346181   -1.7807445   0.12017599   -3.3346181    1.5538736   562195 
 5432000    1.3271938    -3.334862   -1.7801493   0.12309969    -3.334862    1.5547126   562211 
 5433000    1.3264647   -3.3354542   -1.7816481   0.11797901   -3.3354542    1.5538061   562230 
 5434000    1.3264621   -3.3348875   -1.7811563   0.11435858   -3.3348875    1.5537312   562256 
 5435000     1.326982   -3.3356378   -1.7814441    0.1197572   -3.3356378    1.5541936   562309 
 5436000    1.3282078   -3.3368591   -1.7813183   0.10772408   -3.3368591    1.5555408   562341 
 5437000    1.3279354   -3.3378868   -1.7827148   0.11192064   -3.3378868     1.555172   562359 
 5438000    1.3273693   -3.3376804   -1.7832542     0.115588   -3.3376804    1.5544262   562389 
 5439000    1.3261969    -3.335259   -1.7822776   0.11918185    -3.335259    1.5529814   562415 
 5440000    1.3264999   -3.3361227   -1.7828528   0.11854518   -3.3361227    1.5532699   562439 
 5441000    1.3249876   -3.3348455   -1.7834457   0.12198978   -3.3348455    1.5513998   562475 
 5442000    1.3268925   -3.3373896    -1.783834   0.11420215   -3.3373896    1.5535556   562502 
 5443000    1.3261161   -3.3368384   -1.7842774   0.11879803   -3.3368384     1.552561   562533 
 5444000     1.327173   -3.3365937   -1.7828284   0.12100257   -3.3365937    1.5537652   562545 
 5445000    1.3258891   -3.3351497   -1.7829649   0.12004427   -3.3351497    1.5521848   562573 
 5446000    1.3284893   -3.3386719   -1.7835149   0.12196621   -3.3386719     1.555157   562599 
 5447000    1.3271801   -3.3375155   -1.7839712   0.11654224   -3.3375155    1.5535443   562628 
 5448000    1.3250771   -3.3347656    -1.783716   0.12002982   -3.3347656    1.5510496   562640 
 5449000    1.3270412   -3.3361406   -1.7828168   0.11768759   -3.3361406    1.5533238   562649 
 5450000    1.3277855   -3.3377018   -1.7836007   0.12287939   -3.3377018    1.5541011   562683 
 5451000    1.3276172   -3.3372573   -1.7834278   0.12363954   -3.3372573    1.5538295   562710 
 5452000    1.3271697   -3.3366113   -1.7833607   0.12100656   -3.3366113    1.5532506   562730 
 5453000     1.326634    -3.335924   -1.7833777   0.12035182    -3.335924    1.5525464   562758 
 5454000    1.3267109   -3.3356409   -1.7830625   0.11979467   -3.3356409    1.5525784   562779 
 5455000    1.3265696   -3.3360921   -1.7837618   0.11904349   -3.3360921    1.5523303   562809 
 5456000    1.3246207   -3.3337345   -1.7837646   0.12055058   -3.3337345    1.5499699   562838 
 5457000     1.326748    -3.336222   -1.7838292    0.1176937    -3.336222    1.5523928   562862 
 5458000    1.3273161   -3.3376271   -1.7845999    0.1187362   -3.3376271    1.5530272   562873 
 5459000    1.3271641   -3.3373389   -1.7845722   0.11532982   -3.3373389    1.5527666   562903 
 5460000    1.3253248   -3.3354317   -1.7848336   0.12200913   -3.3354317    1.5505981   562909 
 5461000    1.3258688   -3.3359221   -1.7847535   0.12231805   -3.3359221    1.5511685   562933 
 5462000    1.3257137   -3.3362372    -1.785341   0.12246692   -3.3362372    1.5508962   562966 
 5463000    1.3281572   -3.3387614   -1.7850536   0.11880142   -3.3387614    1.5537078   562983 
 5464000     1.327767   -3.3382381   -1.7850558   0.11796398   -3.3382381    1.5531823   563008 
 5465000    1.3290994   -3.3398842   -1.7851986   0.11198551   -3.3398842    1.5546856   563028 
 5466000    1.3273733   -3.3373006   -1.7846836   0.11513968   -3.3373006     1.552617   563046 
 5467000    1.3283355   -3.3378129   -1.7841035   0.11589199   -3.3378129    1.5537094   563058 
 5468000    1.3272172   -3.3367639    -1.784404   0.12201399   -3.3367639    1.5523599   563073 
 5469000    1.3279969   -3.3379078   -1.7846827   0.11683818   -3.3379078     1.553225   563090 
 5470000    1.3288919   -3.3379133   -1.7837104   0.12169247   -3.3379133    1.5542029   563115 
 5471000    1.3288477   -3.3381458   -1.7840858   0.11873281   -3.3381458      1.55406   563148 
 5472000    1.3257436   -3.3354003   -1.7850089   0.11840424   -3.3354003    1.5503914   563162 
 5473000    1.3281696   -3.3378175   -1.7846636   0.12190687   -3.3378175    1.5531539   563189 
 5474000    1.3288468   -3.3376192   -1.7837064   0.11258142   -3.3376192    1.5539128   563201 
 5475000    1.3292182   -3.3376009   -1.7833505   0.11398962   -3.3376009    1.5542505   563236 
 5476000    1.3278799   -3.3369658   -1.7843491   0.11585201   -3.3369658    1.5526167   563261 
 5477000    1.3274245   -3.3378235   -1.7857971   0.11656222   -3.3378235    1.5520263   563282 
 5478000    1.3300428   -3.3410183   -1.7859914   0.11732568   -3.3410183    1.5550269   563304 
 5479000      1.32691   -3.3381875   -1.7868702   0.12213296   -3.3381875    1.5513173   563321 
 5480000    1.3269738   -3.3386496   -1.7873293   0.12120175   -3.3386496    1.5513204   563347 
 5481000    1.3278722   -3.3404983   -1.7881993   0.11299339   -3.3404983     1.552299   563373 
 5482000    1.3277786   -3.3392348   -1.7870892   0.11433001   -3.3392348    1.5521455   563389 
 5483000    1.3276456   -3.3382352   -1.7863196   0.11349476   -3.3382352    1.5519156   563416 
 5484000     1.328131   -3.3394496   -1.7869995   0.11721641   -3.3394496      1.55245   563428 
 5485000    1.3286008   -3.3408322   -1.7878579   0.11917954   -3.3408322    1.5529743   563437 
 5486000    1.3269063   -3.3381984   -1.7873038   0.11892026   -3.3381984    1.5508946   563473 
 5487000    1.3289289   -3.3404037   -1.7872196   0.11238157   -3.3404037    1.5531841   563500 
 5488000    1.3282953   -3.3405062   -1.7881176   0.12220914   -3.3405062    1.5523885   563520 
 5489000     1.327724   -3.3400687   -1.7884331   0.12003697   -3.3400687    1.5516356   563551 
 5490000    1.3265679   -3.3385676   -1.7883189   0.11474006   -3.3385676    1.5502487   563564 
 5491000    1.3293641   -3.3409412   -1.7874854   0.12435374   -3.3409412    1.5534557   563586 
 5492000    1.3282474   -3.3407125   -1.7885975   0.11882909   -3.3407125     1.552115   563599 
 5493000    1.3281536   -3.3404714   -1.7885568   0.11941249   -3.3404714    1.5519145   563632 
 5494000    1.3276834   -3.3413555   -1.7900042   0.11629104   -3.3413555    1.5513513   563637 
 5495000    1.3289606   -3.3425334   -1.7897862   0.11975423   -3.3425334    1.5527473   563672 
 5496000    1.3277732   -3.3413295   -1.7900385   0.11695467   -3.3413295    1.5512911   563697 
 5497000    1.3274313   -3.3408225   -1.7899969     0.119572   -3.3408225    1.5508257   563721 
 5498000     1.326646    -3.340588   -1.7907349   0.12149882    -3.340588    1.5498532   563741 
 5499000    1.3284921   -3.3435013   -1.7915272   0.11590496   -3.3435013    1.5519741   563754 
 5500000    1.3293325   -3.3440755    -1.791183   0.11921257   -3.3440755    1.5528925   563777 
 5501000    1.3291695   -3.3441781   -1.7915477   0.11926676   -3.3441781    1.5526305   563803 
 5502000    1.3295805   -3.3437408   -1.7907156   0.12185142   -3.3437408    1.5530252   563834 
 5503000    1.3281848   -3.3416926   -1.7903472   0.11985326   -3.3416926    1.5513454   563852 
 5504000    1.3298091   -3.3447207   -1.7915551   0.11724478   -3.3447207    1.5531656   563880 
 5505000    1.3294046   -3.3442374   -1.7915801   0.10882718   -3.3442374    1.5526573   563893 
 5506000    1.3288859   -3.3434227   -1.7914483   0.11929452   -3.3434227    1.5519744   563921 
 5507000    1.3304296   -3.3450793   -1.7913709   0.11334733   -3.3450793    1.5537083   563946 
 5508000    1.3290027   -3.3429663   -1.7910178   0.12098675   -3.3429663    1.5519485   563980 
 5509000    1.3284302   -3.3433088   -1.7920976   0.11521627   -3.3433088    1.5512112   564005 
 5510000     1.329658   -3.3441777   -1.7915879   0.11601574   -3.3441777    1.5525898   564025 
 5511000    1.3295348   -3.3445806    -1.792187   0.11735008   -3.3445806    1.5523936   564044 
 5512000    1.3291467   -3.3439289   -1.7920737   0.11492027   -3.3439289    1.5518552   564075 
 5513000    1.3304953   -3.3446159    -1.791244   0.11463582   -3.3446159    1.5533719   564096 
 5514000    1.3277441   -3.3430254    -1.792926     0.114823   -3.3430254    1.5500994   564118 
 5515000    1.3284495   -3.3434643   -1.7926238   0.12315285   -3.3434643    1.5508405   564148 
 5516000     1.330454   -3.3443586   -1.7912358   0.12336218   -3.3443586    1.5531227   564169 
 5517000    1.3301811   -3.3437853   -1.7910473   0.11770813   -3.3437853     1.552738   564193 
 5518000    1.3302008   -3.3436528   -1.7909633   0.11519667   -3.3436528    1.5526895   564219 
 5519000    1.3306832   -3.3439032   -1.7907083   0.12001211   -3.3439032    1.5531949   564240 
 5520000    1.3321125   -3.3447527   -1.7899612   0.12144222   -3.3447527    1.5547915   564266 
 5521000     1.331042   -3.3435291   -1.7899899   0.12122445   -3.3435291    1.5535393   564267 
 5522000    1.3303474   -3.3430176   -1.7903302   0.12361374   -3.3430176    1.5526873   564282 
 5523000    1.3306555   -3.3437386   -1.7907523   0.11708151   -3.3437386    1.5529863   564304 
 5524000    1.3316473   -3.3449142   -1.7908392   0.12266523   -3.3449142     1.554075   564329 
 5525000    1.3293882   -3.3437646   -1.7923618   0.12545038   -3.3437646    1.5514028   564342 
 5526000    1.3294094   -3.3438562    -1.792489   0.11943973   -3.3438562    1.5513671   564364 
 5527000    1.3303325   -3.3446208   -1.7922177   0.11638835   -3.3446208    1.5524031   564379 
 5528000    1.3322874   -3.3456931   -1.7910832   0.11991899   -3.3456931    1.5546099   564406 
 5529000    1.3311161    -3.343866   -1.7906999    0.1187541    -3.343866    1.5531661   564434 
 5530000    1.3320621   -3.3454826   -1.7912705   0.11825019   -3.3454826    1.5542121   564455 
 5531000     1.329714   -3.3436707   -1.7922697   0.11828634   -3.3436707    1.5514009   564481 
 5532000    1.3307442    -3.345262   -1.7926949   0.11705034    -3.345262    1.5525671   564494 
 5533000    1.3301426   -3.3455483   -1.7937463   0.11569345   -3.3455483     1.551802   564517 
 5534000    1.3294816   -3.3444265   -1.7934478    0.1209646   -3.3444265    1.5509787   564536 
 5535000    1.3286305   -3.3436829   -1.7937466   0.11864508   -3.3436829    1.5499363   564554 
 5536000    1.3285593   -3.3443536     -1.79458   0.11804999   -3.3443536    1.5497737   564583 
 5537000    1.3303884   -3.3467243   -1.7948967   0.11045327   -3.3467243    1.5518276   564612 
 5538000     1.330158    -3.346447   -1.7949074   0.11628594    -3.346447    1.5515396   564619 
 5539000     1.328945   -3.3446835   -1.7946685   0.12046198   -3.3446835    1.5500149   564659 
 5540000    1.3301449   -3.3456963    -1.794323   0.11785152   -3.3456963    1.5513733   564674 
 5541000    1.3300477   -3.3464142    -1.795201   0.11824423   -3.3464142    1.5512132   564691 
 5542000    1.3309986   -3.3465189   -1.7942792   0.11530035   -3.3465189    1.5522397   564721 
 5543000    1.3306923   -3.3461985   -1.7943984    0.1243617   -3.3461985    1.5518001   564751 
 5544000    1.3318882    -3.348064   -1.7949875    0.1170382    -3.348064    1.5530765   564794 
 5545000    1.3295919   -3.3445785   -1.7942455   0.12542653   -3.3445785    1.5503329   564818 
 5546000     1.329779   -3.3455525   -1.7950646   0.12115897   -3.3455525    1.5504879   564841 
 5547000    1.3300087   -3.3465824    -1.795898   0.12422157   -3.3465824    1.5506843   564867 
 5548000    1.3319162   -3.3467599   -1.7939396   0.12346513   -3.3467599    1.5528204   564899 
 5549000    1.3323079    -3.348058   -1.7948057   0.11881436    -3.348058    1.5532523   564908 
 5550000    1.3303053   -3.3457078   -1.7948314   0.12296716   -3.3457078    1.5508764   564923 
 5551000    1.3336517   -3.3486175   -1.7938894   0.11991812   -3.3486175    1.5547281   564941 
 5552000    1.3318028   -3.3467682   -1.7943026    0.1193138   -3.3467682    1.5524655   564980 
 5553000    1.3310652    -3.346504   -1.7949367   0.12118179    -3.346504    1.5515673   564994 
 5554000    1.3309778   -3.3478341   -1.7964153   0.11621718   -3.3478341    1.5514187   565011 
 5555000    1.3291944   -3.3461068   -1.7968409   0.11761315   -3.3461068    1.5492659   565038 
 5556000     1.330986   -3.3478721   -1.7965893   0.11723328   -3.3478721    1.5512828   565064 
 5557000    1.3304787   -3.3468734   -1.7962449   0.11883063   -3.3468734    1.5506285   565087 
 5558000    1.3320346   -3.3480411   -1.7957037   0.11582007   -3.3480411    1.5523374   565125 
 5559000     1.330907   -3.3478508   -1.7969291   0.11395523   -3.3478508    1.5509217   565162 
 5560000    1.3306191   -3.3467082   -1.7962153   0.12068681   -3.3467082     1.550493   565196 
 5561000    1.3321346   -3.3491956   -1.7970026    0.1135851   -3.3491956     1.552193   565220 
 5562000    1.3305436    -3.347535   -1.7972453   0.11541303    -3.347535    1.5502898   565238 
 5563000    1.3328098   -3.3491211    -1.796254   0.12061053   -3.3491211    1.5528671   565261 
 5564000    1.3329958   -3.3491605   -1.7961344   0.11604071   -3.3491605    1.5530262   565282 
 5565000    1.3326736   -3.3493675   -1.7968047    0.1208597   -3.3493675    1.5525628   565314 
 5566000    1.3329889   -3.3492502   -1.7964134   0.11915981   -3.3492502    1.5528368   565348 
 5567000     1.333813   -3.3498262   -1.7960789   0.11837189   -3.3498262    1.5537473   565366 
 5568000    1.3335018   -3.3490251     -1.79572   0.12485337   -3.3490251    1.5533051   565395 
 5569000    1.3318421   -3.3475803   -1.7962661   0.12415593   -3.3475803    1.5513143   565416 
 5570000    1.3327033   -3.3489339   -1.7967127    0.1259746   -3.3489339    1.5522212   565451 
 5571000    1.3315974   -3.3466354   -1.7957762   0.12938918   -3.3466354    1.5508592   565478 
 5572000    1.3332777   -3.3481725   -1.7954113   0.12274775   -3.3481725    1.5527612   565498 
 5573000    1.3322235   -3.3473986   -1.7959255   0.11907615   -3.3473986    1.5514732   565520 
 5574000    1.3323826    -3.347366     -1.79579    0.1256917    -3.347366    1.5515761   565550 
 5575000    1.3327205   -3.3487372   -1.7967978   0.11664532   -3.3487372    1.5519394   565561 
 5576000    1.3331818   -3.3488917   -1.7964892   0.12198058   -3.3488917    1.5524025   565588 
 5577000    1.3337458    -3.349267   -1.7962793   0.11871444    -3.349267    1.5529878   565614 
 5578000    1.3323342   -3.3483024    -1.797079   0.11949489   -3.3483024    1.5512234   565658 
 5579000    1.3332601   -3.3505083   -1.7983001    0.1153494   -3.3505083    1.5522082   565692 
 5580000    1.3324058   -3.3498431   -1.7987144   0.12095185   -3.3498431    1.5511286   565723 
 5581000    1.3323075   -3.3488147   -1.7978856   0.12038479   -3.3488147    1.5509292   565754 
 5582000    1.3321648    -3.348381    -1.797648   0.12232393    -3.348381     1.550733   565765 
 5583000    1.3337987   -3.3509611    -1.798425   0.11406578   -3.3509611    1.5525361   565801 
 5584000    1.3334102   -3.3504048   -1.7983786   0.12069318   -3.3504048    1.5520263   565822 
 5585000    1.3340294   -3.3503816   -1.7976511   0.12088203   -3.3503816    1.5527305   565828 
 5586000     1.334147   -3.3509891   -1.7981463   0.12243585   -3.3509891    1.5528428   565837 
 5587000    1.3329286   -3.3497636   -1.7983939   0.12654291   -3.3497636    1.5513697   565857 
 5588000    1.3344573   -3.3521319   -1.7990461   0.11698344   -3.3521319    1.5530858   565880 
 5589000    1.3327296   -3.3503715   -1.7993595   0.12712892   -3.3503715     1.551012   565903 
 5590000    1.3335652   -3.3525787   -1.8006188   0.11996745   -3.3525787    1.5519599   565912 
 5591000    1.3327216   -3.3516499    -1.800743   0.11662824   -3.3516499    1.5509069   565938 
 5592000     1.332716   -3.3509463   -1.8001063   0.12122024   -3.3509463      1.55084   565960 
 5593000    1.3324554   -3.3514169   -1.8009348   0.11824084   -3.3514169     1.550482   565980 
 5594000    1.3334101   -3.3538755   -1.8023291   0.11545191   -3.3538755    1.5515463   565997 
 5595000    1.3317016   -3.3516684   -1.8021813   0.11761411   -3.3516684    1.5494871   566023 
 5596000    1.3311499   -3.3514454   -1.8026605   0.12054216   -3.3514454     1.548785   566045 
 5597000    1.3327116   -3.3536006   -1.8030753   0.11871825   -3.3536006    1.5505253   566073 
 5598000    1.3325871   -3.3543943   -1.8040604   0.11703063   -3.3543943    1.5503339   566090 
 5599000    1.3326469   -3.3535967   -1.8032452   0.11816422   -3.3535967    1.5503515   566109 
 5600000    1.3328601   -3.3539942   -1.8034741   0.11262102   -3.3539942    1.5505201   566138 
 5601000    1.3335803   -3.3553171   -1.8040031    0.1195308   -3.3553171    1.5513141   566154 
 5602000    1.3321741    -3.352627   -1.8029926   0.12735188    -3.352627    1.5496345   566170 
 5603000    1.3355393   -3.3564822   -1.8030266   0.11478037   -3.3564822    1.5534556   566204 
 5604000    1.3350884   -3.3545982   -1.8017026   0.12258512   -3.3545982    1.5528956   566217 
 5605000    1.3346588   -3.3539197   -1.8016198   0.11718131   -3.3539197    1.5522999   566252 
 5606000    1.3351226   -3.3545963    -1.801831    0.1171903   -3.3545963    1.5527653   566279 
 5607000     1.333673   -3.3535824   -1.8025413   0.11845944   -3.3535824    1.5510411   566293 
 5608000    1.3320411   -3.3525827   -1.8035078   0.11793582   -3.3525827    1.5490748   566318 
 5609000    1.3336163   -3.3538442   -1.8030059   0.11277111   -3.3538442    1.5508382   566343 
 5610000    1.3341333   -3.3546501     -1.80326   0.12307513   -3.3546501    1.5513901   566361 
 5611000    1.3320837   -3.3535358   -1.8045673   0.11965933   -3.3535358    1.5489684   566375 
 5612000    1.3328332   -3.3548547   -1.8051379   0.11728959   -3.3548547    1.5497168   566420 
 5613000    1.3333629   -3.3546688   -1.8044099    0.1187474   -3.3546688    1.5502589   566447 
 5614000    1.3325827    -3.353544   -1.8042936   0.11908449    -3.353544    1.5492505   566484 
 5615000    1.3348312   -3.3544594   -1.8026524   0.11384761   -3.3544594    1.5518071   566505 
 5616000    1.3339152   -3.3539741   -1.8032894   0.11770562   -3.3539741    1.5506847   566526 
 5617000     1.334669   -3.3557876    -1.804306   0.11191818   -3.3557876    1.5514817   566555 
 5618000    1.3355101   -3.3547797   -1.8023532    0.1207671   -3.3547797    1.5524264   566567 
 5619000    1.3339846   -3.3528809   -1.8022907   0.12626266   -3.3528809    1.5505902   566590 
 5620000    1.3347302   -3.3533573    -1.801936   0.12749118   -3.3533573    1.5514213   566603 
 5621000    1.3367247   -3.3566484   -1.8029937   0.11669663   -3.3566484    1.5536546   566634 
 5622000    1.3349247   -3.3540783   -1.8025925   0.12365808   -3.3540783    1.5514858   566662 
 5623000    1.3341086   -3.3542728   -1.8038203   0.12102044   -3.3542728    1.5504525   566693 
 5624000    1.3362193   -3.3559753   -1.8031794   0.11535074   -3.3559753    1.5527959   566733 
 5625000    1.3347029   -3.3548287   -1.8038606   0.11856602   -3.3548287     1.550968   566757 
 5626000     1.336156   -3.3561213   -1.8035058   0.12721114   -3.3561213    1.5526155   566772 
 5627000     1.336648   -3.3561011   -1.8029879   0.12017394   -3.3561011    1.5531132   566799 
 5628000    1.3343729   -3.3538827   -1.8035005   0.12467114   -3.3538827    1.5503822   566831 
 5629000    1.3357658   -3.3553629   -1.8034719   0.12016195   -3.3553629     1.551891   566871 
 5630000    1.3356431   -3.3550077    -1.803355   0.12108696   -3.3550077    1.5516527   566906 
 5631000    1.3361179   -3.3551304   -1.8029809   0.12013479   -3.3551304    1.5521494   566926 
 5632000    1.3355928   -3.3554006   -1.8039515   0.12239359   -3.3554006    1.5514491   566959 
 5633000    1.3360871   -3.3541609   -1.8021896   0.12366736   -3.3541609    1.5519713   566978 
 5634000    1.3360661   -3.3543867   -1.8025137   0.12154741   -3.3543867     1.551873   567005 
 5635000    1.3358331   -3.3542258   -1.8026836   0.11992919   -3.3542258    1.5515422   567027 
 5636000    1.3355106   -3.3541422   -1.8030047   0.12567097   -3.3541422    1.5511375   567038 
 5637000     1.336065   -3.3550761   -1.8033138   0.12485737   -3.3550761    1.5517622   567045 
 5638000      1.33534   -3.3560766   -1.8052629   0.11841314   -3.3560766    1.5508136   567084 
 5639000    1.3351113   -3.3546052   -1.8041037   0.11877272   -3.3546052    1.5505015   567101 
 5640000    1.3357589   -3.3552224   -1.8040646   0.11822908   -3.3552224    1.5511578   567136 
 5641000    1.3370938   -3.3562488   -1.8036038   0.12327103   -3.3562488     1.552645   567159 
 5642000    1.3358593   -3.3546591   -1.8034941   0.12081397   -3.3546591     1.551165   567176 
 5643000    1.3363428   -3.3549125   -1.8032627   0.12116165   -3.3549125    1.5516498   567204 
 5644000    1.3370676   -3.3550242   -1.8025547   0.12278674   -3.3550242    1.5524695   567212 
 5645000    1.3383411   -3.3569028   -1.8030286   0.12208084   -3.3569028    1.5538742   567239 
 5646000    1.3374479   -3.3564656   -1.8036832    0.1173069   -3.3564656    1.5527824   567259 
 5647000    1.3357321   -3.3555245   -1.8047778   0.12277703   -3.3555245    1.5507467   567275 
 5648000    1.3366489   -3.3561419   -1.8043856   0.12322254   -3.3561419    1.5517563   567295 
 5649000     1.338572   -3.3580417   -1.8041021   0.12316236   -3.3580417    1.5539396   567313 
 5650000    1.3384629   -3.3580122   -1.8042567   0.12425289   -3.3580122    1.5537554   567334 
 5651000    1.3368343   -3.3575723   -1.8057785    0.1227376   -3.3575723    1.5517938   567360 
 5652000    1.3372271   -3.3579218   -1.8056885   0.12469304   -3.3579218    1.5522333   567366 
 5653000    1.3347219   -3.3552764   -1.8059647   0.12648127   -3.3552764    1.5493117   567371 
 5654000    1.3352943   -3.3562661   -1.8063583   0.12198712   -3.3562661    1.5499078   567396 
 5655000    1.3371084     -3.35825   -1.8063077   0.12001591     -3.35825    1.5519423   567422 
 5656000    1.3356917   -3.3572237   -1.8070022    0.1220721   -3.3572237    1.5502215   567450 
 5657000    1.3364522   -3.3574497   -1.8063892   0.12138761   -3.3574497    1.5510605   567466 
 5658000    1.3370273   -3.3580658   -1.8063708   0.12307518   -3.3580658     1.551695   567478 
 5659000    1.3358118   -3.3572133   -1.8069973    0.1193953   -3.3572133    1.5502161   567503 
 5660000    1.3376792   -3.3601883    -1.807868   0.11743643   -3.3601883    1.5523203   567526 
 5661000      1.33793   -3.3598737   -1.8073007    0.1140343   -3.3598737    1.5525731   567540 
 5662000    1.3365203    -3.358881   -1.8080121   0.11704436    -3.358881    1.5508689   567565 
 5663000    1.3376218    -3.360056   -1.8079773   0.12303069    -3.360056    1.5520787   567590 
 5664000    1.3362563   -3.3593927   -1.8089586   0.11979399   -3.3593927    1.5504342   567612 
 5665000    1.3358986   -3.3588389   -1.8088444   0.11836255   -3.3588389    1.5499945   567621 
 5666000    1.3360688   -3.3581312    -1.807991   0.12659599   -3.3581312    1.5501401   567640 
 5667000    1.3374316   -3.3612975   -1.8096664   0.11864779   -3.3612975    1.5516311   567673 
 5668000    1.3360363   -3.3580577   -1.8080808   0.12827884   -3.3580577    1.5499769   567686 
 5669000    1.3384431   -3.3601796   -1.8075009   0.12093589   -3.3601796    1.5526788   567719 
 5670000    1.3375411   -3.3598807   -1.8083412   0.12007212   -3.3598807    1.5515395   567753 
 5671000    1.3379338   -3.3590461   -1.8071386   0.12369582   -3.3590461    1.5519076   567785 
 5672000    1.3383916   -3.3603046   -1.8079344    0.1196868   -3.3603046    1.5523702   567810 
 5673000    1.3378813    -3.359671   -1.8079091   0.11753366    -3.359671    1.5517619   567816 
 5674000    1.3384431   -3.3594257   -1.8070914   0.12339459   -3.3594257    1.5523343   567845 
 5675000    1.3387729   -3.3594308   -1.8067605   0.12131882   -3.3594308    1.5526703   567862 
 5676000    1.3387418   -3.3596467   -1.8070535   0.12368952   -3.3596467    1.5525932   567877 
 5677000    1.3395105   -3.3603824   -1.8069497   0.12245782   -3.3603824    1.5534327   567896 
 5678000    1.3383645    -3.358725   -1.8066814   0.12662695    -3.358725    1.5520436   567918 
 5679000     1.339525   -3.3603532   -1.8070377   0.12343591   -3.3603532    1.5533155   567945 
 5680000    1.3383981   -3.3586844   -1.8067549   0.11762459   -3.3586844    1.5519295   567974 
 5681000    1.3381454   -3.3587308   -1.8071653   0.12906864   -3.3587308    1.5515655   568000 
 5682000    1.3397583   -3.3605327   -1.8071081   0.12224007   -3.3605327    1.5534246   568004 
 5683000    1.3386229   -3.3593681   -1.8073118   0.11589981   -3.3593681    1.5520563   568023 
 5684000    1.3396478   -3.3605619   -1.8074213   0.12084918   -3.3605619    1.5531406   568061 
 5685000    1.3384059   -3.3604795   -1.8088223   0.11984385   -3.3604795    1.5516572   568077 
 5686000    1.3370953    -3.358896   -1.8088592   0.12361513    -3.358896    1.5500368   568114 
 5687000    1.3395063   -3.3613061   -1.8085564   0.11892656   -3.3613061    1.5527497   568144 
 5688000    1.3387075   -3.3607373   -1.8089901   0.11787392   -3.3607373    1.5517473   568172 
 5689000    1.3396466   -3.3619539   -1.8092164   0.11843282   -3.3619539    1.5527374   568208 
 5690000    1.3382935   -3.3594604   -1.8083185   0.12231998   -3.3594604    1.5511418   568218 
 5691000    1.3395432   -3.3612856   -1.8087609   0.12104464   -3.3612856    1.5525247   568242 
 5692000    1.3399147   -3.3620126   -1.8091065   0.11790539   -3.3620126    1.5529061   568260 
 5693000    1.3398698   -3.3612451   -1.8084511   0.12488978   -3.3612451     1.552794   568282 
 5694000     1.339103   -3.3610079   -1.8091545   0.12365289   -3.3610079    1.5518534   568301 
 5695000    1.3396089   -3.3626451   -1.8102519   0.12093469   -3.3626451    1.5523932   568318 
 5696000    1.3390158   -3.3625742   -1.8109283   0.12080794   -3.3625742    1.5516459   568340 
 5697000    1.3402993    -3.362877   -1.8097875     0.122041    -3.362877    1.5530894   568356 
 5698000    1.3397028   -3.3630333   -1.8107224   0.12933416   -3.3630333    1.5523109   568388 
 5699000    1.3407915   -3.3651493   -1.8116262   0.12300387   -3.3651493    1.5535231   568406 
 5700000    1.3394918   -3.3651464   -1.8131592   0.12428496   -3.3651464    1.5519871   568417 
 5701000    1.3383993   -3.3626361   -1.8119393   0.12507266   -3.3626361    1.5506968   568426 
 5702000    1.3395577   -3.3653988   -1.8133953   0.11885151   -3.3653988    1.5520035   568439 
 5703000    1.3379978   -3.3626575   -1.8125377   0.12199189   -3.3626575    1.5501198   568467 
 5704000    1.3393667   -3.3643922   -1.8127684   0.11943261   -3.3643922    1.5516239   568497 
 5705000    1.3398694   -3.3651356    -1.812984   0.12403732   -3.3651356    1.5521516   568517 
 5706000    1.3387961   -3.3642423   -1.8134104   0.11830483   -3.3642423    1.5508319   568545 
 5707000    1.3397433   -3.3658282    -1.813959   0.12608613   -3.3658282    1.5518691   568567 
 5708000    1.3393465    -3.366104   -1.8147709   0.12307395    -3.366104    1.5513331   568595 
 5709000    1.3402499   -3.3658662   -1.8135604   0.11860768   -3.3658662    1.5523058   568622 
 5710000     1.338878   -3.3650524   -1.8143902   0.12520738   -3.3650524    1.5506622   568642 
 5711000    1.3397262   -3.3656138    -1.814043   0.11970964   -3.3656138    1.5515709   568669 
 5712000    1.3393091   -3.3645085   -1.8134861   0.12330888   -3.3645085    1.5510224   568693 
 5713000    1.3393574   -3.3634097   -1.8124213   0.12350188   -3.3634097    1.5509883   568726 
 5714000    1.3405642   -3.3644548    -1.812148   0.12045021   -3.3644548    1.5523067   568755 
 5715000    1.3412471   -3.3655351   -1.8124841   0.12420019   -3.3655351    1.5530511   568772 
 5716000    1.3405099   -3.3645823   -1.8124968    0.1208429   -3.3645823    1.5520855   568813 
 5717000    1.3394527   -3.3641523   -1.8133563   0.12330293   -3.3641523    1.5507961   568837 
 5718000    1.3391685   -3.3646674   -1.8142576   0.11594377   -3.3646674    1.5504098   568858 
 5719000    1.3398773   -3.3654846   -1.8143197   0.11914166   -3.3654846    1.5511649   568882 
 5720000     1.338916   -3.3642545   -1.8142378   0.11950925   -3.3642545    1.5500166   568895 
 5721000    1.3392635   -3.3644928    -1.814123   0.12510491   -3.3644928    1.5503698   568913 
 5722000    1.3383974   -3.3650704   -1.8157739   0.11687416   -3.3650704    1.5492965   568939 
 5723000     1.339545   -3.3662136   -1.8156951   0.11977058   -3.3662136    1.5505186   568978 
 5724000    1.3400086   -3.3661218   -1.8151156   0.11310091   -3.3661218    1.5510061   568996 
 5725000    1.3385778   -3.3654174   -1.8161028   0.12470283   -3.3654174    1.5493146   569009 
 5726000    1.3392578     -3.36501   -1.8149328   0.12580228     -3.36501    1.5500772   569018 
 5727000    1.3396445   -3.3660615   -1.8156485    0.1248517   -3.3660615     1.550413   569059 
 5728000    1.3401422   -3.3653174   -1.8143856   0.12152331   -3.3653174    1.5509318   569080 
 5729000    1.3410569   -3.3674754   -1.8155532   0.12186535   -3.3674754    1.5519221   569105 
 5730000    1.3416522   -3.3685538   -1.8159618   0.12659188   -3.3685538    1.5525919   569112 
 5731000    1.3401976   -3.3672358   -1.8163872   0.12422896   -3.3672358    1.5508487   569134 
 5732000    1.3418161   -3.3682296   -1.8155898   0.12514983   -3.3682296    1.5526398   569164 
 5733000    1.3408451   -3.3666411   -1.8152013   0.12438614   -3.3666411    1.5514399   569192 
 5734000    1.3407353   -3.3669604   -1.8157457   0.12295001   -3.3669604    1.5512147   569228 
 5735000    1.3393645   -3.3663375   -1.8167578   0.12584345   -3.3663375    1.5495798   569246 
 5736000    1.3414162   -3.3688435   -1.8169773   0.12040574   -3.3688435    1.5518662   569278 
 5737000    1.3387763   -3.3667295   -1.8179146   0.12504565   -3.3667295    1.5488149   569277 
 5738000    1.3413177   -3.3699315   -1.8182283   0.12147627   -3.3699315    1.5517032   569296 
 5739000    1.3395355   -3.3664929   -1.8169222   0.12472113   -3.3664929    1.5495707   569322 
 5740000    1.3399439   -3.3675048   -1.8175162   0.12656475   -3.3675048    1.5499886   569342 
 5741000    1.3410368   -3.3686781   -1.8174661   0.12777473   -3.3686781    1.5512121   569357 
 5742000    1.3414238   -3.3692309   -1.8176257   0.12714509   -3.3692309    1.5516052   569377 
 5743000     1.339862   -3.3674244   -1.8176939   0.11856063   -3.3674244    1.5497306   569402 
 5744000    1.3416229    -3.369342   -1.8176128   0.12005662    -3.369342    1.5517292   569416 
 5745000    1.3407538   -3.3683673   -1.8176896   0.12160959   -3.3683673    1.5506777   569433 
 5746000     1.341449   -3.3687852   -1.8173825   0.12250464   -3.3687852    1.5514027   569462 
 5747000    1.3401002   -3.3672035    -1.817388   0.12618485   -3.3672035    1.5498156   569472 
 5748000    1.3430596   -3.3695527     -1.81638   0.11740306   -3.3695527    1.5531727   569496 
 5749000    1.3407288   -3.3671527   -1.8167218   0.12256896   -3.3671527    1.5504309   569513 
 5750000    1.3407324   -3.3679931   -1.8176233   0.12254537   -3.3679931    1.5503698   569537 
 5751000    1.3393637   -3.3662059   -1.8174814   0.12242164   -3.3662059    1.5487246   569560 
 5752000    1.3424043   -3.3686181   -1.8164676   0.12375506   -3.3686181    1.5521505   569593 
 5753000    1.3401248   -3.3673018    -1.817844   0.11820647   -3.3673018    1.5494577   569614 
 5754000    1.3406199   -3.3667873   -1.8168388   0.12585226   -3.3667873    1.5499485   569644 
 5755000    1.3423708   -3.3687171   -1.8167988   0.12276573   -3.3687171    1.5519183   569664 
 5756000    1.3427483   -3.3687046   -1.8163881   0.11964291   -3.3687046    1.5523165   569678 
 5757000    1.3429127   -3.3688745    -1.816455   0.12466698   -3.3688745    1.5524195   569710 
 5758000    1.3395141    -3.366145   -1.8177141    0.1246529    -3.366145    1.5484309   569732 
 5759000    1.3405916   -3.3679579   -1.8183005   0.12502184   -3.3679579    1.5496574   569739 
 5760000    1.3437093    -3.369719   -1.8165124   0.12860655    -3.369719    1.5532067   569759 
 5761000    1.3415423   -3.3681623   -1.8175121   0.11920548   -3.3681623    1.5506502   569778 
 5762000    1.3420796   -3.3691062   -1.8179303   0.12661859   -3.3691062    1.5511759   569813 
 5763000    1.3408555   -3.3687562   -1.8190305   0.12173946   -3.3687562    1.5497257   569826 
 5764000    1.3404137   -3.3677762   -1.8186344   0.12312041   -3.3677762    1.5491418   569853 
 5765000     1.340538   -3.3685098   -1.8192706   0.12629004   -3.3685098    1.5492391   569870 
 5766000    1.3406916   -3.3691677   -1.8198053   0.11918821   -3.3691677    1.5493623   569890 
 5767000    1.3426397    -3.371302   -1.8197973   0.12230008    -3.371302    1.5515047   569930 
 5768000    1.3396814   -3.3694104   -1.8213432   0.12268582   -3.3694104    1.5480672   569937 
 5769000    1.3405262   -3.3706862   -1.8216918   0.12014941   -3.3706862    1.5489945   569955 
 5770000    1.3399319    -3.370767   -1.8224918   0.11389275    -3.370767    1.5482752   569967 
 5771000    1.3406335    -3.371302    -1.822265   0.11618144    -3.371302     1.549037   569985 
 5772000    1.3404634   -3.3723063   -1.8234959   0.12186805   -3.3723063    1.5488105   569996 
 5773000    1.3406489   -3.3720799   -1.8230877   0.12293259   -3.3720799    1.5489922   570008 
 5774000    1.3405242   -3.3715907   -1.8227861   0.12394116   -3.3715907    1.5488046   570024 
 5775000    1.3416551   -3.3723016   -1.8222611   0.11826738   -3.3723016    1.5500406   570050 
 5776000    1.3388266   -3.3711549     -1.82445   0.11958844   -3.3711549    1.5467049   570075 
 5777000    1.3410895   -3.3737875   -1.8245309    0.1209267   -3.3737875    1.5492566   570098 
 5778000    1.3404193   -3.3735654   -1.8251319   0.11804943   -3.3735654    1.5484335   570116 
 5779000    1.3397563   -3.3730302   -1.8254249   0.11972328   -3.3730302    1.5476053   570139 
 5780000    1.3404431   -3.3728144    -1.824443   0.12685526   -3.3728144    1.5483714   570149 
 5781000    1.3415084   -3.3737697   -1.8242682   0.11320131   -3.3737697    1.5495015   570186 
 5782000    1.3425801   -3.3749474   -1.8242462   0.11872488   -3.3749474    1.5507012   570200 
 5783000    1.3410418   -3.3736927   -1.8248253   0.11729929   -3.3736927    1.5488674   570221 
 5784000     1.341757   -3.3731389   -1.8234998   0.11802307   -3.3731389     1.549639   570241 
 5785000    1.3401944   -3.3715337   -1.8237292   0.12333387   -3.3715337    1.5478045   570252 
 5786000    1.3419038   -3.3731325   -1.8234027   0.12193439   -3.3731325    1.5497298   570270 
 5787000     1.341708   -3.3732097   -1.8237712   0.12270408   -3.3732097    1.5494385   570294 
 5788000    1.3408308   -3.3721699   -1.8237987    0.1190086   -3.3721699    1.5483712   570314 
 5789000    1.3417763   -3.3741051   -1.8247209   0.11889065   -3.3741051    1.5493842   570343 
 5790000    1.3408248   -3.3726818   -1.8244532   0.12313143   -3.3726818    1.5482286   570364 
 5791000    1.3425953   -3.3737708   -1.8235225   0.11883158   -3.3737708    1.5502484   570373 
 5792000    1.3428019   -3.3740955   -1.8236928   0.11817568   -3.3740955    1.5504027   570404 
 5793000    1.3415713   -3.3720327   -1.8230997   0.11923231   -3.3720327     1.548933   570422 
 5794000    1.3435496   -3.3735724   -1.8224152   0.12281863   -3.3735724    1.5511573   570444 
 5795000    1.3416728   -3.3718632   -1.8229407   0.12027609   -3.3718632    1.5489225   570469 
 5796000    1.3425688   -3.3727053   -1.8228244    0.1183935   -3.3727053    1.5498809   570497 
 5797000    1.3407328   -3.3721084   -1.8243822   0.11290215   -3.3721084    1.5477262   570510 
 5798000    1.3399122   -3.3705411    -1.823784   0.11646417   -3.3705411    1.5467571   570518 
 5799000    1.3406429   -3.3711715   -1.8236495   0.11497552   -3.3711715    1.5475219   570547 
 5800000    1.3420028   -3.3725795   -1.8235665   0.11696081   -3.3725795     1.549013   570576 
 5801000      1.34098   -3.3713919   -1.8236111   0.11713739   -3.3713919    1.5477808   570595 
 5802000    1.3413039   -3.3717035   -1.8236058   0.12048043   -3.3717035    1.5480977   570616 
 5803000    1.3422033   -3.3724786   -1.8233862   0.12011537   -3.3724786    1.5490924   570632 
 5804000    1.3421716   -3.3724245   -1.8234256   0.11577691   -3.3724245    1.5489988   570653 
 5805000    1.3438186   -3.3746958    -1.823875   0.12548767   -3.3746958    1.5508208   570682 
 5806000    1.3423022    -3.373551    -1.824559   0.11729209    -3.373551    1.5489921   570711 
 5807000    1.3401627   -3.3711224   -1.8246454   0.12596622   -3.3711224     1.546477   570728 
 5808000    1.3437601   -3.3744939    -1.823939   0.11638266   -3.3744939    1.5505549   570755 
 5809000    1.3436731   -3.3742756   -1.8238509   0.12528922   -3.3742756    1.5504247   570766 
 5810000    1.3439427   -3.3746102   -1.8239559   0.11837008   -3.3746102    1.5506542   570796 
 5811000    1.3443937   -3.3757504    -1.824622   0.11982782   -3.3757504    1.5511284   570813 
 5812000    1.3417032   -3.3725469    -1.824577   0.12773809   -3.3725469    1.5479699   570833 
 5813000    1.3426437   -3.3737297   -1.8246557   0.12229256   -3.3737297     1.549074   570826 
 5814000    1.3434275   -3.3758332   -1.8259336   0.12313206   -3.3758332    1.5498996   570855 
 5815000    1.3445458   -3.3769265   -1.8257938    0.1242975   -3.3769265    1.5511326   570876 
 5816000    1.3447111   -3.3772228    -1.825951   0.11798242   -3.3772228    1.5512718   570895 
 5817000    1.3424003   -3.3751322   -1.8265616   0.12437419   -3.3751322    1.5485707   570908 
 5818000    1.3424693    -3.375063   -1.8264751   0.12606987    -3.375063    1.5485879   570931 
 5819000    1.3433646   -3.3769113   -1.8273666   0.12464647   -3.3769113    1.5495447   570959 
 5820000     1.343901   -3.3763941   -1.8262524   0.11517314   -3.3763941    1.5501417   570967 
 5821000    1.3422306   -3.3749593   -1.8267878   0.11945686   -3.3749593    1.5481716   570983 
 5822000    1.3421696   -3.3761097   -1.8280681   0.12254369   -3.3761097    1.5480416   571005 
 5823000    1.3424538   -3.3754529   -1.8271215   0.12061577   -3.3754529    1.5483315   571019 
 5824000    1.3444392   -3.3777112   -1.8271144   0.11506156   -3.3777112    1.5505969   571028 
 5825000     1.343244   -3.3771938   -1.8280323   0.11821315   -3.3771938    1.5491614   571049 
 5826000    1.3408718   -3.3746574   -1.8282968   0.11610289   -3.3746574    1.5463605   571073 
 5827000    1.3428129   -3.3760482   -1.8275115   0.12100453   -3.3760482    1.5485367   571096 
 5828000    1.3408019   -3.3755488   -1.8293582   0.12000101   -3.3755488    1.5461906   571106 
 5829000    1.3421115   -3.3756822   -1.8280382   0.12343903   -3.3756822    1.5476439   571127 
 5830000    1.3435181   -3.3766043   -1.8273763   0.11963939   -3.3766043     1.549228   571141 
 5831000    1.3421772   -3.3753838   -1.8277643   0.11667038   -3.3753838    1.5476194   571164 
 5832000    1.3434262   -3.3762724   -1.8272697   0.12025472   -3.3762724    1.5490026   571185 
 5833000    1.3434541   -3.3767914   -1.8277891   0.11962529   -3.3767914    1.5490022   571197 
 5834000    1.3429567   -3.3760036   -1.8276426   0.12039754   -3.3760036    1.5483609   571222 
 5835000    1.3431108   -3.3752535   -1.8267583   0.12141869   -3.3752535    1.5484953   571238 
 5836000    1.3435301   -3.3765154   -1.8276045   0.12523584   -3.3765154    1.5489109   571263 
 5837000    1.3422463   -3.3757996   -1.8284175   0.12926503   -3.3757996    1.5473821   571281 
 5838000    1.3440888   -3.3773841   -1.8279457   0.12179575   -3.3773841    1.5494384   571306 
 5839000    1.3439819   -3.3767689   -1.8275107   0.12575271   -3.3767689    1.5492581   571327 
 5840000    1.3436218   -3.3771811   -1.8283868   0.11759901   -3.3771811    1.5487943   571345 
 5841000     1.343068   -3.3763521   -1.8282748   0.11906367   -3.3763521    1.5480774   571374 
 5842000    1.3447877   -3.3781735   -1.8281627   0.12244173   -3.3781735    1.5500108   571392 
 5843000    1.3435909   -3.3771292   -1.8285738   0.12831762   -3.3771292    1.5485554   571420 
 5844000    1.3451134   -3.3793843   -1.8291203   0.11731064   -3.3793843     1.550264   571437 
 5845000    1.3441559   -3.3775735   -1.8284727   0.12724833   -3.3775735    1.5491008   571459 
 5846000    1.3442489   -3.3785693   -1.8294399   0.12125955   -3.3785693    1.5491294   571488 
 5847000    1.3450875   -3.3776752   -1.8276662   0.12944267   -3.3776752     1.550009   571520 
 5848000     1.343784   -3.3774997   -1.8290875   0.12552176   -3.3774997    1.5484122   571555 
 5849000    1.3430788   -3.3769291   -1.8293918   0.12282594   -3.3769291    1.5475373   571578 
 5850000    1.3446505   -3.3782052   -1.8288922   0.12202607   -3.3782052     1.549313   571591 
 5851000    1.3431371   -3.3761467   -1.8286179    0.1218601   -3.3761467    1.5475287   571606 
 5852000    1.3423436   -3.3766009   -1.8300622   0.12439349   -3.3766009    1.5465386   571634 
 5853000    1.3446816   -3.3786917   -1.8295352   0.12239623   -3.3786917    1.5491565   571662 
 5854000    1.3447329   -3.3792148   -1.8300318    0.1159411   -3.3792148     1.549183   571674 
 5855000    1.3450307   -3.3783974    -1.828931   0.12014441   -3.3783974    1.5494664   571696 
 5856000    1.3440413   -3.3798937   -1.8315968   0.11851398   -3.3798937    1.5482969   571707 
 5857000    1.3435483    -3.378022   -1.8303391   0.12642011    -3.378022     1.547683   571724 
 5858000    1.3435254   -3.3782589   -1.8306727   0.12025884   -3.3782589    1.5475862   571750 
 5859000     1.344502   -3.3797612   -1.8311179   0.12304378   -3.3797612    1.5486433   571775 
 5860000    1.3431147   -3.3790131   -1.8320244    0.1235663   -3.3790131    1.5469887   571796 
 5861000    1.3437005   -3.3797138   -1.8321099   0.11696247   -3.3797138    1.5476038   571818 
 5862000    1.3454376   -3.3815356   -1.8319798    0.1164524   -3.3815356    1.5495558   571836 
 5863000    1.3425316   -3.3783549   -1.8322163   0.11912632   -3.3783549    1.5461386   571862 
 5864000     1.344866   -3.3803053   -1.8315189   0.12431406   -3.3803053    1.5487864   571877 
 5865000    1.3436291   -3.3805339   -1.8332207    0.1243632   -3.3805339    1.5473132   571895 
 5866000    1.3453561    -3.381398   -1.8321123   0.11929202    -3.381398    1.5492857   571901 
 5867000    1.3443999   -3.3805599   -1.8324241   0.12506447   -3.3805599    1.5481359   571919 
 5868000    1.3441484   -3.3810629   -1.8332789   0.11992528   -3.3810629     1.547784   571942 
 5869000    1.3435815   -3.3801664   -1.8331055   0.12361509   -3.3801664     1.547061   571968 
 5870000     1.346612   -3.3826012   -1.8321349   0.12103655   -3.3826012    1.5504663   571999 
 5871000    1.3476581   -3.3838238   -1.8322181   0.12015085   -3.3838238    1.5516057   572023 
 5872000    1.3469541    -3.384265   -1.8335322   0.12591588    -3.384265    1.5507328   572046 
 5873000    1.3444833   -3.3815692   -1.8337459   0.12370522   -3.3815692    1.5478233   572070 
 5874000    1.3434172   -3.3802993   -1.8337817   0.12762431   -3.3802993    1.5465175   572099 
 5875000    1.3445358   -3.3820596   -1.8342814   0.12242088   -3.3820596    1.5477782   572109 
 5876000    1.3438323   -3.3817175   -1.8348059   0.12279781   -3.3817175    1.5469116   572130 
 5877000    1.3440705   -3.3819278   -1.8348043   0.11906455   -3.3819278    1.5471235   572153 
 5878000    1.3437005   -3.3818754    -1.835221   0.11807205   -3.3818754    1.5466544   572169 
 5879000    1.3426612      -3.3823   -1.8369094   0.11859383      -3.3823    1.5453906   572194 
 5880000    1.3451393   -3.3838309   -1.8356394   0.11888934   -3.3838309    1.5481914   572213 
 5881000    1.3433354   -3.3809584   -1.8349296    0.1227057   -3.3809584    1.5460289   572245 
 5882000    1.3449837   -3.3824696   -1.8345708   0.12331991   -3.3824696    1.5478988   572255 
 5883000    1.3439219   -3.3823819   -1.8357916   0.11817605   -3.3823819    1.5465903   572287 
 5884000    1.3451712   -3.3830313   -1.8350439   0.12210216   -3.3830313    1.5479874   572302 
 5885000    1.3439627   -3.3816248   -1.8350442   0.12280983   -3.3816248    1.5465805   572308 
 5886000    1.3427519   -3.3815699   -1.8364206   0.11934927   -3.3815699    1.5451494   572322 
 5887000    1.3436246   -3.3822845    -1.836193   0.11882124   -3.3822845    1.5460914   572345 
 5888000      1.34309   -3.3810059   -1.8355431   0.12029779   -3.3810059    1.5454628   572350 
 5889000    1.3446004   -3.3823173     -1.83513   0.12044611   -3.3823173    1.5471872   572355 
 5890000    1.3450213   -3.3820181   -1.8344169   0.12367006   -3.3820181    1.5476013   572381 
 5891000      1.34558   -3.3830117   -1.8348054   0.12578177   -3.3830117    1.5482063   572395 
 5892000    1.3463744   -3.3841494   -1.8350805   0.12053548   -3.3841494    1.5490689   572414 
 5893000     1.347304   -3.3851829   -1.8350634   0.11847431   -3.3851829    1.5501195   572421 
 5894000     1.345751   -3.3819992   -1.8337098   0.12854967   -3.3819992    1.5482894   572437 
 5895000     1.348275   -3.3841976   -1.8330314   0.12286965   -3.3841976    1.5511662   572447 
 5896000    1.3481664   -3.3835134   -1.8325426   0.12923366   -3.3835134    1.5509708   572473 
 5897000    1.3473632   -3.3823093   -1.8323573   0.12490724   -3.3823093     1.549952   572508 
 5898000    1.3473826   -3.3820879   -1.8321839    0.1227701   -3.3820879     1.549904   572534 
 5899000    1.3475706   -3.3819737   -1.8319294   0.12459551   -3.3819737    1.5500444   572562 
 5900000    1.3464234   -3.3814127   -1.8327717   0.11917735   -3.3814127     1.548641   572593 
 5901000    1.3480098    -3.383294    -1.832915   0.12443836    -3.383294     1.550379   572625 
 5902000    1.3465452   -3.3820194   -1.8333439   0.12285625   -3.3820194    1.5486756   572632 
 5903000    1.3454615    -3.381038   -1.8336358    0.1311784    -3.381038    1.5474022   572642 
 5904000    1.3463339   -3.3821522   -1.8337954   0.12040662   -3.3821522    1.5483569   572660 
 5905000    1.3461756   -3.3827822   -1.8346615   0.12062564   -3.3827822    1.5481207   572680 
 5906000    1.3451778     -3.38173   -1.8347594   0.12137478     -3.38173    1.5469706   572681 
 5907000    1.3452574   -3.3820263    -1.835002   0.12655958   -3.3820263    1.5470243   572695 
 5908000    1.3480271   -3.3841306   -1.8339672   0.11614597   -3.3841306    1.5501634   572712 
 5909000    1.3468552   -3.3831073   -1.8343538   0.12701162   -3.3831073    1.5487535   572735 
 5910000    1.3449181   -3.3809753   -1.8345302    0.1199725   -3.3809753    1.5464451   572765 
 5911000    1.3481005   -3.3844973   -1.8344363   0.11657909   -3.3844973     1.550061   572781 
 5912000    1.3466006   -3.3824803    -1.834179   0.12670442   -3.3824803    1.5483012   572794 
 5913000    1.3468497   -3.3837821   -1.8352538   0.12372008   -3.3837821    1.5485283   572816 
 5914000    1.3466688   -3.3835279   -1.8352482   0.12143841   -3.3835279    1.5482797   572831 
 5915000    1.3471812     -3.38386   -1.8350453   0.12605366     -3.38386    1.5488148   572851 
 5916000    1.3480636   -3.3845885   -1.8348431   0.12345001   -3.3845885    1.5497454   572882 
 5917000    1.3474438   -3.3853701   -1.8363995   0.12421886   -3.3853701    1.5489706   572905 
 5918000    1.3477101   -3.3850606   -1.8358136   0.12345473   -3.3850606     1.549247   572916 
 5919000    1.3466473   -3.3839215    -1.835926   0.12263199   -3.3839215    1.5479955   572927 
 5920000    1.3476108   -3.3853891   -1.8363805   0.12983107   -3.3853891    1.5490085   572962 
 5921000     1.347701   -3.3853794   -1.8363078   0.12075697   -3.3853794    1.5490716   572977 
 5922000    1.3471547    -3.385512   -1.8371359   0.12459445    -3.385512    1.5483761   573002 
 5923000    1.3459008   -3.3848046   -1.8379048   0.12238772   -3.3848046    1.5468998   573015 
 5924000    1.3458084   -3.3849466   -1.8382177   0.12413302   -3.3849466    1.5467289   573039 
 5925000    1.3485799   -3.3882516   -1.8383726    0.1219772   -3.3882516     1.549879   573052 
 5926000    1.3451442   -3.3836321   -1.8378204   0.12752867   -3.3836321    1.5458117   573096 
 5927000    1.3462877   -3.3862949   -1.8391906    0.1231494   -3.3862949    1.5471043   573104 
 5928000    1.3467689    -3.385803   -1.8382106   0.12589242    -3.385803    1.5475924   573128 
 5929000    1.3477821   -3.3868442   -1.8381605   0.12996385   -3.3868442    1.5486837   573155 
 5930000    1.3487394   -3.3876337   -1.8379231   0.12711392   -3.3876337    1.5497107   573182 
 5931000    1.3470158   -3.3859182   -1.8382203   0.12510224   -3.3859182    1.5476979   573194 
 5932000    1.3476238   -3.3856662   -1.8373238   0.12864544   -3.3856662    1.5483424   573214 
 5933000     1.347759   -3.3867879   -1.8383738   0.12234293   -3.3867879    1.5484141   573245 
 5934000    1.3469884   -3.3867701   -1.8392927   0.12501771   -3.3867701    1.5474774   573264 
 5935000    1.3467858    -3.387781   -1.8406092   0.12097223    -3.387781    1.5471718   573291 
 5936000    1.3472235   -3.3881833   -1.8405492   0.12279555   -3.3881833    1.5476342   573306 
 5937000    1.3468151   -3.3878954   -1.8408006   0.11889264   -3.3878954    1.5470948   573332 
 5938000    1.3471003   -3.3893282   -1.8420084   0.12890752   -3.3893282    1.5473198   573370 
 5939000    1.3458822   -3.3881453   -1.8422569   0.12537133   -3.3881453    1.5458884   573382 
 5940000    1.3462368   -3.3882904   -1.8420513   0.12285349   -3.3882904     1.546239   573403 
 5941000    1.3464798   -3.3883024   -1.8418302   0.12078115   -3.3883024    1.5464722   573420 
 5942000    1.3467305   -3.3888165   -1.8421319   0.11966577   -3.3888165    1.5466847   573448 
 5943000    1.3487737   -3.3912478   -1.8422382   0.11349465   -3.3912478    1.5490097   573456 
 5944000    1.3470791    -3.389493   -1.8424916   0.11910686    -3.389493    1.5470014   573479 
 5945000    1.3462682   -3.3885245   -1.8424733   0.11821777   -3.3885245    1.5460513   573486 
 5946000    1.3472682   -3.3888318   -1.8416861   0.12232015   -3.3888318    1.5471457   573506 
 5947000     1.348099   -3.3894995   -1.8414429   0.12404825   -3.3894995    1.5480566   573522 
 5948000    1.3489439   -3.3909042   -1.8419287    0.1272364   -3.3909042    1.5489755   573541 
 5949000    1.3467781   -3.3894282   -1.8430017   0.13003309   -3.3894282    1.5464265   573564 
 5950000    1.3485251   -3.3903455    -1.841948   0.12579542   -3.3903455    1.5483974   573577 
 5951000    1.3485593   -3.3908463   -1.8424528   0.12107479   -3.3908463    1.5483935   573593 
 5952000    1.3481952   -3.3905928   -1.8426687   0.12310248   -3.3905928    1.5479241   573612 
 5953000    1.3473371   -3.3893567   -1.8424528   0.13125421   -3.3893567    1.5469039   573625 
 5954000    1.3480541   -3.3906539   -1.8429753   0.11848622   -3.3906539    1.5476786   573643 
 5955000    1.3489528   -3.3908712    -1.842223   0.12056658   -3.3908712    1.5486482   573666 
 5956000    1.3486324   -3.3908723   -1.8426593   0.11845082   -3.3908723     1.548213   573691 
 5957000    1.3477403   -3.3903235   -1.8431806   0.12260219   -3.3903235    1.5471429   573708 
 5958000    1.3466692   -3.3888251    -1.842936   0.12130328   -3.3888251    1.5458891   573717 
 5959000    1.3479589   -3.3898661   -1.8425855   0.12330298   -3.3898661    1.5472806   573750 
 5960000     1.346792    -3.387963    -1.842065   0.12500593    -3.387963    1.5458981   573766 
 5961000    1.3470833   -3.3892206    -1.843069   0.12028668   -3.3892206    1.5461516   573796 
 5962000    1.3474897   -3.3894145   -1.8428827   0.12471951   -3.3894145    1.5465318   573828 
 5963000     1.347554   -3.3902176   -1.8436713   0.12635537   -3.3902176    1.5465463   573850 
 5964000    1.3470393   -3.3872117   -1.8412804   0.12967055   -3.3872117    1.5459313   573859 
 5965000    1.3492067   -3.3904169   -1.8420332   0.12670417   -3.3904169    1.5483837   573872 
 5966000    1.3490635   -3.3894612   -1.8412823    0.1215057   -3.3894612    1.5481789   573887 
 5967000    1.3487154   -3.3891924   -1.8414912   0.11902234   -3.3891924    1.5477012   573916 
 5968000      1.34702   -3.3875448   -1.8418672   0.12713876   -3.3875448    1.5456776   573945 
 5969000    1.3477422   -3.3898544   -1.8433993   0.12586654   -3.3898544    1.5464551   573964 
 5970000    1.3486528   -3.3898737   -1.8424332   0.12130886   -3.3898737    1.5474406   573986 
 5971000    1.3493504     -3.38964   -1.8414556    0.1294953     -3.38964    1.5481844   574007 
 5972000    1.3485772    -3.389538   -1.8422974   0.12105349    -3.389538    1.5472406   574028 
 5973000    1.3484629   -3.3880998   -1.8410819   0.13047338   -3.3880998    1.5470179   574062 
 5974000    1.3498038   -3.3894931   -1.8409881   0.12052341   -3.3894931     1.548505   574081 
 5975000    1.3497076   -3.3904876   -1.8421928   0.12252817   -3.3904876    1.5482948   574118 
 5976000    1.3486707   -3.3899021   -1.8428426   0.12593351   -3.3899021    1.5470595   574135 
 5977000     1.351401   -3.3930957   -1.8429393   0.11758707   -3.3930957    1.5501564   574148 
 5978000    1.3481238   -3.3888676   -1.8425324   0.12471717   -3.3888676    1.5463352   574171 
 5979000    1.3487338   -3.3896031   -1.8426355   0.12601296   -3.3896031    1.5469676   574196 
 5980000    1.3505019   -3.3912776   -1.8423307   0.12756786   -3.3912776     1.548947   574214 
 5981000    1.3497125   -3.3909693   -1.8429789   0.12057521   -3.3909693    1.5479904   574233 
 5982000    1.3509147   -3.3925549   -1.8432343   0.12629473   -3.3925549    1.5493206   574251 
 5983000    1.3518366    -3.393589   -1.8432678   0.12341359    -3.393589    1.5503212   574272 
 5984000    1.3503568   -3.3913754   -1.8428053   0.12814997   -3.3913754    1.5485702   574292 
 5985000    1.3497264   -3.3915045   -1.8437004   0.12265083   -3.3915045    1.5478042   574308 
 5986000    1.3508972   -3.3919773   -1.8428818   0.12505283   -3.3919773    1.5490955   574327 
 5987000    1.3507826   -3.3924131    -1.843476   0.12419116   -3.3924131    1.5489371   574337 
 5988000    1.3501394   -3.3927774   -1.8445885   0.12105521   -3.3927774    1.5481888   574341 
 5989000    1.3494671   -3.3918462   -1.8445011     0.123322   -3.3918462    1.5473451   574368 
 5990000     1.349088   -3.3929836   -1.8461405    0.1146904   -3.3929836    1.5468431   574393 
 5991000    1.3485591   -3.3922951   -1.8461177   0.12285445   -3.3922951    1.5461775   574415 
 5992000    1.3497256   -3.3923796   -1.8449374   0.12015757   -3.3923796    1.5474422   574442 
 5993000    1.3497258   -3.3931445    -1.845756   0.11902445   -3.3931445    1.5473885   574462 
 5994000    1.3494505   -3.3924938   -1.8454451   0.11992307   -3.3924938    1.5470487   574471 
 5995000    1.3499586   -3.3931391    -1.845551    0.1286772   -3.3931391    1.5475881   574487 
 5996000    1.3504181   -3.3925383   -1.8444638    0.1205031   -3.3925383    1.5480745   574502 
 5997000    1.3491351   -3.3921759   -1.8456153    0.1210601   -3.3921759    1.5465605   574518 
 5998000    1.3482748   -3.3915696   -1.8460813   0.13074928   -3.3915696    1.5454883   574550 
 5999000    1.3494367   -3.3918544     -1.84508   0.12537422   -3.3918544    1.5467744   574567 
 6000000    1.3500141    -3.393331   -1.8459487   0.12689065    -3.393331    1.5473824   574587 
 6001000    1.3496254   -3.3923609   -1.8454752   0.12465762   -3.3923609    1.5468857   574606 
 6002000    1.3499404   -3.3928705   -1.8456292   0.11966003   -3.3928705    1.5472413   574608 
 6003000    1.3512034    -3.393152   -1.8445358   0.12280163    -3.393152    1.5486162   574635 
 6004000    1.3498337   -3.3926224   -1.8456245   0.12800273   -3.3926224    1.5469979   574653 
 6005000    1.3506176   -3.3926416   -1.8447804   0.12397983   -3.3926416    1.5478612   574666 
 6006000    1.3504952   -3.3929861   -1.8453163   0.12085553   -3.3929861    1.5476698   574685 
 6007000    1.3493048   -3.3928581   -1.8466008   0.12419505   -3.3928581    1.5462572   574703 
 6008000    1.3486485   -3.3913473    -1.845888     0.123721   -3.3913473    1.5454593   574720 
 6009000     1.349952   -3.3923486   -1.8454224   0.12736173   -3.3923486    1.5469262   574730 
 6010000     1.349459   -3.3927923   -1.8464606    0.1261323   -3.3927923    1.5463317   574741 
 6011000    1.3496486   -3.3930578   -1.8465842   0.12601617   -3.3930578    1.5464736   574769 
 6012000     1.349832   -3.3934674   -1.8468079   0.12439127   -3.3934674    1.5466595   574778 
 6013000    1.3482594   -3.3922322   -1.8474311    0.1219423   -3.3922322    1.5448011   574799 
 6014000    1.3493836   -3.3949254   -1.8488577   0.11970676   -3.3949254    1.5460677   574807 
 6015000    1.3494035   -3.3948273   -1.8487852   0.12164331   -3.3948273    1.5460421   574825 
 6016000     1.349798   -3.3950928   -1.8486874   0.12665385   -3.3950928    1.5464054   574858 
 6017000    1.3465968   -3.3916697   -1.8489801   0.12213634   -3.3916697    1.5426896   574876 
 6018000    1.3512232   -3.3966677   -1.8487346   0.12334567   -3.3966677    1.5479331   574897 
 6019000    1.3507809   -3.3946641   -1.8472942   0.12575456   -3.3946641    1.5473698   574918 
 6020000      1.35128   -3.3956021   -1.8477251   0.12614528   -3.3956021     1.547877   574942 
 6021000    1.3513243   -3.3960331   -1.8481701   0.11949935   -3.3960331    1.5478631   574966 
 6022000      1.35165   -3.3961951   -1.8480074    0.1252871   -3.3961951    1.5481878   574984 
 6023000    1.3509712   -3.3944386   -1.8470822   0.12674268   -3.3944386    1.5473564   575004 
 6024000    1.3515345    -3.397184   -1.8492605   0.13249703    -3.397184    1.5479235   575033 
 6025000    1.3486857   -3.3949682   -1.8503531   0.12311704   -3.3949682    1.5446151   575050 
 6026000    1.3503459   -3.3961788   -1.8497241   0.12364405   -3.3961788    1.5464547   575073 
 6027000    1.3499735   -3.3961617   -1.8502357   0.12395478   -3.3961617     1.545926   575111 
 6028000    1.3499976   -3.3963179   -1.8504099   0.12743466   -3.3963179    1.5459079   575128 
 6029000    1.3515522   -3.3968963   -1.8492269   0.11928943   -3.3968963    1.5476693   575135 
 6030000     1.349155    -3.394609   -1.8497412    0.1278189    -3.394609    1.5448678   575156 
 6031000    1.3509622   -3.3969167   -1.8500307   0.12795042   -3.3969167     1.546886   575175 
 6032000    1.3488526    -3.395291   -1.8508687   0.12218698    -3.395291    1.5444222   575193 
 6033000    1.3488956   -3.3955911   -1.8511492   0.12300209   -3.3955911    1.5444419   575204 
 6034000    1.3507195   -3.3964216   -1.8499021   0.12305768   -3.3964216    1.5465195   575208 
 6035000    1.3521137   -3.3977663    -1.849656   0.12623439   -3.3977663    1.5481103   575210 
 6036000    1.3508147   -3.3956904     -1.84907   0.12532959   -3.3956904    1.5466204   575211 
 6037000     1.349631   -3.3954203   -1.8502036   0.12625402   -3.3954203    1.5452168   575229 
 6038000    1.3502927   -3.3961841   -1.8502394   0.12718575   -3.3961841    1.5459447   575240 
 6039000    1.3504925   -3.3956297   -1.8495475   0.12764951   -3.3956297    1.5460822   575274 
 6040000    1.3513569   -3.3989404   -1.8519117   0.11937428   -3.3989404    1.5470287   575290 
 6041000    1.3509304   -3.3976869   -1.8512217   0.12181101   -3.3976869    1.5464652   575318 
 6042000    1.3495116   -3.3971696   -1.8523367   0.12477441   -3.3971696    1.5448329   575321 
 6043000     1.349394   -3.3973027   -1.8526661   0.12360751   -3.3973027    1.5446366   575344 
 6044000    1.3499861   -3.3961987   -1.8509408   0.12461915   -3.3961987     1.545258   575365 
 6045000    1.3510102   -3.3978658   -1.8514463   0.11987638   -3.3978658    1.5464195   575369 
 6046000    1.3501416   -3.3960563   -1.8506741   0.12516284   -3.3960563    1.5453822   575385 
 6047000    1.3510537   -3.3970541   -1.8506977   0.11941493   -3.3970541    1.5463564   575411 
 6048000    1.3523598   -3.3995407   -1.8517486    0.1243315   -3.3995407    1.5477921   575433 
 6049000    1.3524335   -3.4002423   -1.8524438   0.11753754   -3.4002423    1.5477985   575462 
 6050000    1.3506081   -3.3982733   -1.8525989   0.12437043   -3.3982733    1.5456744   575475 
 6051000    1.3521401   -3.3982316   -1.8508738   0.12100904   -3.3982316    1.5473578   575501 
 6052000    1.3505762   -3.3969916   -1.8514879    0.1290749   -3.3969916    1.5455037   575525 
 6053000    1.3509363     -3.39729   -1.8514119   0.12328303     -3.39729    1.5458781   575539 
 6054000     1.350991    -3.397521   -1.8516044   0.12297228    -3.397521    1.5459166   575548 
 6055000    1.3523845   -3.3986563   -1.8511963   0.11891068   -3.3986563    1.5474599   575567 
 6056000    1.3516937   -3.3975658   -1.8509499   0.12130939   -3.3975658    1.5466159   575587 
 6057000    1.3528536   -3.3982847    -1.850409   0.12433103   -3.3982847    1.5478757   575612 
 6058000    1.3524514   -3.3975816   -1.8502225   0.12285157   -3.3975816    1.5473592   575633 
 6059000     1.352386   -3.3986627    -1.851459   0.12361573   -3.3986627    1.5472037   575663 
 6060000    1.3530545   -3.3992856   -1.8513359   0.12536198   -3.3992856    1.5479497   575670 
 6061000    1.3520972   -3.3997536   -1.8529448   0.12841138   -3.3997536    1.5468088   575687 
 6062000    1.3522771    -3.398599   -1.8516167   0.12438624    -3.398599    1.5469823   575699 
 6063000    1.3520376   -3.3990292   -1.8523638   0.12216271   -3.3990292    1.5466653   575715 
 6064000    1.3523448   -3.3991362   -1.8521651   0.12227553   -3.3991362    1.5469711   575732 
 6065000    1.3508115   -3.3983094   -1.8531325    0.1234921   -3.3983094    1.5451769   575747 
 6066000    1.3520911   -3.3983613   -1.8517342   0.12487618   -3.3983613    1.5466271   575752 
 6067000    1.3521461   -3.3987011   -1.8520272   0.12508165   -3.3987011    1.5466739   575758 
 6068000    1.3526941   -3.3984397   -1.8512007   0.12507629   -3.3984397     1.547239   575781 
 6069000    1.3515686    -3.398066   -1.8521332   0.12970869    -3.398066    1.5459328   575788 
 6070000    1.3524413   -3.3987677   -1.8519011    0.1226693   -3.3987677    1.5468665   575812 
 6071000     1.351322   -3.3972451   -1.8516963   0.12815226   -3.3972451    1.5455487   575826 
 6072000    1.3508178   -3.3973897    -1.852431   0.12806657   -3.3973897    1.5449587   575831 
 6073000    1.3515421   -3.3970972   -1.8513397   0.13308296   -3.3970972    1.5457575   575842 
 6074000    1.3531469   -3.3997366   -1.8521867   0.12853304   -3.3997366    1.5475499   575858 
 6075000    1.3529857   -3.3982892     -1.85098   0.12547449   -3.3982892    1.5473092   575879 
 6076000    1.3542409   -3.4003035    -1.851618   0.12586255   -3.4003035    1.5486855   575901 
 6077000    1.3529025   -3.3993811   -1.8522746   0.12674812   -3.3993811    1.5471065   575919 
 6078000    1.3543338   -3.3999257   -1.8512066   0.12513252   -3.3999257    1.5487191   575928 
 6079000    1.3538374      -3.3993   -1.8512105   0.12348678      -3.3993    1.5480896   575951 
 6080000    1.3556022   -3.4017087   -1.8516442    0.1265335   -3.4017087    1.5500646   575967 
 6081000    1.3518819   -3.3983142   -1.8525492     0.129695   -3.3983142     1.545765   575984 
 6082000     1.352406   -3.3992456   -1.8529189   0.12372372   -3.3992456    1.5463267   575998 
 6083000     1.351493   -3.3982303   -1.8529475   0.12834582   -3.3982303    1.5452828   575998 
 6084000     1.352369    -3.400952   -1.8547106   0.11997384    -3.400952    1.5462414   576014 
 6085000    1.3529413   -3.4008648   -1.8539852   0.12352893   -3.4008648    1.5468797   576020 
 6086000     1.351442    -3.399455    -1.854338   0.13014614    -3.399455    1.5451171   576038 
 6087000     1.351604   -3.3989326   -1.8536731   0.12512542   -3.3989326    1.5452594   576054 
 6088000     1.351448    -3.398786   -1.8537264   0.12859593    -3.398786    1.5450597   576062 
 6089000    1.3525913   -3.4009453    -1.854643   0.12961753   -3.4009453    1.5463023   576086 
 6090000    1.3530596   -3.4008461   -1.8540756   0.12603578   -3.4008461    1.5467705   576111 
 6091000    1.3546792   -3.4015507    -1.853055   0.12243778   -3.4015507    1.5484957   576158 
 6092000    1.3540174   -3.4003658   -1.8527018   0.12950104   -3.4003658     1.547664   576186 
 6093000    1.3537603   -3.3995488   -1.8522485   0.12983237   -3.3995488    1.5473003   576212 
 6094000     1.354534   -3.4014461   -1.8532991   0.13136093   -3.4014461     1.548147   576226 
 6095000    1.3541911   -3.4010435   -1.8533503   0.12160776   -3.4010435    1.5476932   576249 
 6096000     1.353667   -3.4006352   -1.8536268   0.12610792   -3.4006352    1.5470084   576281 
 6097000    1.3539424   -3.4014217   -1.8541388   0.12481954   -3.4014217    1.5472829   576296 
 6098000    1.3538266   -3.4017046    -1.854597   0.12902892   -3.4017046    1.5471076   576312 
 6099000    1.3541126   -3.4015658   -1.8541529   0.12979745   -3.4015658    1.5474129   576320 
 6100000    1.3541966   -3.4027762   -1.8553103   0.12290926   -3.4027762    1.5474659   576336 
 6101000    1.3526264   -3.4004688   -1.8548695   0.12926244   -3.4004688    1.5455992   576363 
 6102000    1.3533043   -3.4004703   -1.8541367   0.12409393   -3.4004703    1.5463336   576378 
 6103000     1.352693   -3.3997799   -1.8542117   0.12776456   -3.3997799    1.5455681   576403 
 6104000    1.3531636   -3.3998942    -1.853842   0.12106788   -3.3998942    1.5460521   576423 
 6105000    1.3529314   -3.4002362   -1.8545058   0.12823159   -3.4002362    1.5457305   576444 
 6106000    1.3550613   -3.4013592   -1.8532597   0.12438916   -3.4013592    1.5480995   576468 
 6107000    1.3544995   -3.4013849   -1.8539541   0.12268333   -3.4013849    1.5474308   576478 
 6108000    1.3527197   -3.4005207     -1.85515   0.12862074   -3.4005207    1.5453707   576488 
 6109000      1.35314   -3.4018441   -1.8560576   0.12511462   -3.4018441    1.5457865   576512 
 6110000    1.3524848   -3.4018454   -1.8568663   0.12682728   -3.4018454    1.5449791   576534 
 6111000    1.3533199   -3.4033841   -1.8574698   0.12477467   -3.4033841    1.5459143   576541 
 6112000    1.3533024   -3.4033341   -1.8574613   0.12614478   -3.4033341    1.5458728   576549 
 6113000    1.3537147   -3.4032929   -1.8569813   0.12659355   -3.4032929    1.5463116   576561 
 6114000    1.3543594   -3.4032861   -1.8562864   0.12739802   -3.4032861    1.5469998   576579 
 6115000    1.3542185   -3.4034213   -1.8566684    0.1234357   -3.4034213    1.5467529   576611 
 6116000    1.3532567   -3.4024245   -1.8568425   0.12712244   -3.4024245     1.545582   576638 
 6117000    1.3533247   -3.4016687   -1.8560519   0.13587457   -3.4016687    1.5456168   576654 
 6118000    1.3556316   -3.4049318   -1.8567314   0.12755038   -3.4049318    1.5482005   576673 
 6119000    1.3537365   -3.4025235   -1.8565329   0.12733722   -3.4025235    1.5459906   576690 
 6120000    1.3531539   -3.4025439   -1.8572266   0.12491083   -3.4025439    1.5453173   576693 
 6121000    1.3545389   -3.4035751   -1.8567083   0.12710549   -3.4035751    1.5468668   576705 
 6122000    1.3544108   -3.4033206   -1.8566672   0.13246833   -3.4033206    1.5466533   576730 
 6123000    1.3547935   -3.4040684   -1.8569835   0.12926898   -3.4040684     1.547085   576732 
 6124000     1.355126   -3.4040503   -1.8566285   0.13219351   -3.4040503    1.5474218   576748 
 6125000    1.3563776   -3.4059062   -1.8570902   0.12222093   -3.4059062    1.5488161   576761 
 6126000    1.3550673    -3.402821   -1.8555145   0.12858179    -3.402821    1.5473065   576766 
 6127000    1.3553934   -3.4039915   -1.8563905   0.13042441   -3.4039915     1.547601   576795 
 6128000    1.3530149   -3.4012348   -1.8564272     0.126854   -3.4012348    1.5448076   576824 
 6129000    1.3548522   -3.4031338   -1.8562768   0.12121022   -3.4031338     1.546857   576842 
 6130000    1.3549837   -3.4033224   -1.8563635   0.12243635   -3.4033224    1.5469589   576860 
 6131000     1.356195   -3.4042773   -1.8559999   0.12586162   -3.4042773    1.5482774   576884 
 6132000    1.3541417   -3.4030952   -1.8572208   0.12740232   -3.4030952    1.5458743   576906 
 6133000    1.3563134   -3.4042726   -1.8559486    0.1232177   -3.4042726     1.548324   576917 
 6134000    1.3572167   -3.4049633   -1.8556483   0.12134412   -3.4049633    1.5493149   576932 
 6135000    1.3555739   -3.4033392   -1.8559318   0.12555877   -3.4033392    1.5474074   576944 
 6136000    1.3562659   -3.4048317   -1.8566665   0.12663422   -3.4048317    1.5481652   576956 
 6137000    1.3557922   -3.4043959   -1.8568412   0.12522055   -3.4043959    1.5475547   576982 
 6138000    1.3566594    -3.404263   -1.8557319   0.12868306    -3.404263    1.5485311   576987 
 6139000    1.3557753   -3.4033046    -1.855839   0.12919797   -3.4033046    1.5474657   577008 
 6140000    1.3562331   -3.4053446   -1.8574235   0.12070806   -3.4053446    1.5479211   577033 
 6141000    1.3567012   -3.4055283   -1.8570917   0.12281076   -3.4055283    1.5484366   577040 
 6142000     1.353898   -3.4039343    -1.858748   0.12550273   -3.4039343    1.5451863   577059 
 6143000    1.3544519    -3.404795    -1.859006   0.12197771    -3.404795     1.545789   577070 
 6144000    1.3533338   -3.4034534   -1.8589752   0.12602804   -3.4034534    1.5444782   577083 
 6145000    1.3543952   -3.4048047   -1.8591634   0.12669728   -3.4048047    1.5456412   577101 
 6146000    1.3549286   -3.4054192   -1.8591906   0.12724718   -3.4054192    1.5462286   577109 
 6147000    1.3543263    -3.405372   -1.8598897   0.12532842    -3.405372    1.5454823   577131 
 6148000    1.3552125   -3.4072394    -1.860786   0.12992559   -3.4072394    1.5464534   577146 
 6149000    1.3576115    -3.409053    -1.859921   0.12930114    -3.409053    1.5491319   577168 
 6150000    1.3564684   -3.4072376   -1.8594395   0.13334793   -3.4072376    1.5477981   577179 
 6151000    1.3572351   -3.4081259   -1.8595228   0.13065093   -3.4081259    1.5486031   577205 
 6152000    1.3566796   -3.4075428   -1.8596325    0.1268203   -3.4075428    1.5479103   577227 
 6153000    1.3556275    -3.405848   -1.8592453   0.13305115    -3.405848    1.5466027   577267 
 6154000    1.3566525   -3.4075879   -1.8598775   0.12486413   -3.4075879    1.5477104   577290 
 6155000    1.3560995   -3.4061854    -1.859154   0.13417364   -3.4061854    1.5470314   577308 
 6156000    1.3548926   -3.4058198   -1.8601868   0.13335112   -3.4058198    1.5456331   577316 
 6157000    1.3565841   -3.4074905    -1.859992    0.1296323   -3.4074905    1.5474984   577340 
 6158000    1.3563628   -3.4076902   -1.8605166   0.12923732   -3.4076902    1.5471735   577367 
 6159000    1.3553148   -3.4072931   -1.8613926   0.12115209   -3.4072931    1.5459005   577396 
 6160000    1.3572849   -3.4088074   -1.8607187    0.1256241   -3.4088074    1.5480887   577418 
 6161000    1.3562515   -3.4075564   -1.8607107   0.13224597   -3.4075564    1.5468457   577442 
 6162000    1.3567108   -3.4066024   -1.8592838   0.12592559   -3.4066024    1.5473187   577461 
 6163000    1.3558106   -3.4064916   -1.8602478    0.1274546   -3.4064916    1.5462438   577479 
 6164000    1.3542444   -3.4046892   -1.8602664   0.12734974   -3.4046892    1.5444228   577492 
 6165000    1.3559394    -3.406458    -1.860161   0.12655625    -3.406458     1.546297   577514 
 6166000    1.3556565   -3.4054561   -1.8595273   0.12906887   -3.4054561    1.5459288   577531 
 6167000    1.3551009   -3.4052643   -1.8599959   0.12558964   -3.4052643    1.5452684   577541 
 6168000    1.3556438   -3.4053825   -1.8595271   0.12938721   -3.4053825    1.5458554   577553 
 6169000    1.3557952   -3.4052072   -1.8592433   0.12926399   -3.4052072    1.5459639   577577 
 6170000    1.3575585    -3.407234   -1.8592944   0.12379916    -3.407234    1.5479397   577590 
 6171000     1.356501   -3.4076197   -1.8609288   0.12597459   -3.4076197     1.546691   577606 
 6172000    1.3569124   -3.4076724   -1.8605874   0.12828079   -3.4076724     1.547085   577634 
 6173000    1.3555733   -3.4049967    -1.859484   0.12593095   -3.4049967    1.5455128   577651 
 6174000    1.3566038   -3.4068718   -1.8602056   0.12119619   -3.4068718    1.5466663   577659 
 6175000    1.3569622   -3.4065774     -1.85954    0.1243085   -3.4065774    1.5470374   577673 
 6176000     1.358026   -3.4074353   -1.8592333   0.12421622   -3.4074353     1.548202   577691 
 6177000    1.3585885   -3.4086726   -1.8598481   0.12229387   -3.4086726    1.5488245   577698 
 6178000    1.3583591   -3.4085039   -1.8599812   0.12369008   -3.4085039    1.5485228   577713 
 6179000    1.3577826   -3.4076283   -1.8598216   0.12896415   -3.4076283    1.5478066   577735 
 6180000    1.3579758   -3.4081096   -1.8601471   0.13104994   -3.4081096    1.5479625   577759 
 6181000    1.3570135   -3.4075419   -1.8607245   0.12917191   -3.4075419    1.5468174   577777 
 6182000    1.3562144   -3.4067049   -1.8608706   0.12827695   -3.4067049    1.5458343   577804 
 6183000    1.3599343   -3.4101725   -1.8601492   0.12523808   -3.4101725    1.5500234   577823 
 6184000    1.3579555   -3.4084898   -1.8607165   0.12916607   -3.4084898    1.5477733   577821 
 6185000    1.3565925   -3.4066088   -1.8604318   0.12769167   -3.4066088     1.546177   577837 
 6186000    1.3576436   -3.4083129    -1.860962   0.12856267   -3.4083129    1.5473509   577846 
 6187000    1.3587327    -3.409442   -1.8608982   0.12941392    -3.409442    1.5485438   577864 
 6188000    1.3563944   -3.4072853   -1.8614358   0.12298627   -3.4072853    1.5458495   577875 
 6189000     1.355476   -3.4071239   -1.8623879   0.12828861   -3.4071239     1.544736   577900 
 6190000    1.3583614   -3.4087343   -1.8607529   0.12998906   -3.4087343    1.5479814   577916 
 6191000    1.3575965   -3.4086354   -1.8615846   0.12913917   -3.4086354    1.5470509   577938 
 6192000    1.3572634   -3.4083327   -1.8617471   0.12850391   -3.4083327    1.5465856   577970 
 6193000    1.3585388   -3.4101265   -1.8621465   0.12650256   -3.4101265      1.54798   577992 
 6194000    1.3575135   -3.4085938   -1.8618623   0.12622562   -3.4085938    1.5467315   578022 
 6195000    1.3590586   -3.4098603   -1.8614085   0.12218017   -3.4098603    1.5484518   578037 
 6196000    1.3572158   -3.4083052   -1.8620307   0.12611846   -3.4083052    1.5462745   578066 
 6197000    1.3574196   -3.4085226   -1.8620533   0.13120215   -3.4085226    1.5464693   578080 
 6198000    1.3577062   -3.4090441    -1.862267   0.12588835   -3.4090441    1.5467771   578087 
 6199000    1.3590121   -3.4095641   -1.8613581   0.12332154   -3.4095641     1.548206   578109 
 6200000    1.3604107    -3.411409    -1.861658   0.12377199    -3.411409     1.549751   578127 
 6201000    1.3592466   -3.4099499   -1.8616349    0.1248752   -3.4099499     1.548315   578168 
 6202000    1.3596313   -3.4110025   -1.8623027   0.12734744   -3.4110025    1.5486997   578188 
 6203000    1.3580695   -3.4101439    -1.863266   0.12296701   -3.4101439    1.5468779   578204 
 6204000    1.3583169   -3.4100803     -1.86295   0.12991851   -3.4100803    1.5471303   578215 
 6205000    1.3572563   -3.4094335   -1.8635701   0.12921858   -3.4094335    1.5458634   578237 
 6206000    1.3579982   -3.4104405   -1.8637936   0.12629192   -3.4104405    1.5466469   578260 
 6207000     1.356963   -3.4092205   -1.8638435     0.125971   -3.4092205     1.545377   578294 
 6208000    1.3578918   -3.4103129   -1.8639476   0.12553412   -3.4103129    1.5463653   578320 
 6209000    1.3590111   -3.4125929   -1.8649957   0.12403894   -3.4125929    1.5475971   578336 
 6210000    1.3578942   -3.4108369   -1.8645438   0.13177743   -3.4108369    1.5462931   578348 
 6211000    1.3582138   -3.4112509    -1.864642    0.1281876   -3.4112509    1.5466089   578366 
 6212000    1.3587827   -3.4115956   -1.8644057   0.12785501   -3.4115956    1.5471899   578391 
 6213000    1.3575248   -3.4109845   -1.8652725   0.12821195   -3.4109845    1.5457121   578408 
 6214000    1.3592656   -3.4127082   -1.8650541   0.12826039   -3.4127082    1.5476541   578423 
 6215000    1.3568641   -3.4105358   -1.8656588   0.12703528   -3.4105358     1.544877   578439 
 6216000    1.3574355    -3.411243   -1.8657661   0.12545969    -3.411243    1.5454769   578458 
 6217000    1.3579501   -3.4109113   -1.8648913    0.1229588   -3.4109113      1.54602   578474 
 6218000    1.3590272   -3.4111189   -1.8639235   0.12878712   -3.4111189    1.5471954   578493 
 6219000    1.3573101   -3.4102909   -1.8650877   0.12640472   -3.4102909    1.5452032   578507 
 6220000    1.3575744   -3.4111159   -1.8656465   0.12387022   -3.4111159    1.5454694   578520 
 6221000    1.3596927   -3.4120606   -1.8642333   0.12528718   -3.4120606    1.5478273   578540 
 6222000    1.3600636   -3.4127365   -1.8645271   0.12657056   -3.4127365    1.5482094   578555 
 6223000    1.3583455   -3.4108559    -1.864653   0.12686875   -3.4108559    1.5462028   578574 
 6224000    1.3588818   -3.4116057   -1.8648352   0.12783788   -3.4116057    1.5467705   578590 
 6225000    1.3593826   -3.4115294    -1.864237   0.12999073   -3.4115294    1.5472925   578608 
 6226000    1.3592991   -3.4123354   -1.8651941   0.12626462   -3.4123354    1.5471413   578629 
 6227000    1.3592327   -3.4124879   -1.8654543   0.12189797   -3.4124879    1.5470336   578641 
 6228000    1.3580187   -3.4113311   -1.8657434   0.13358912   -3.4113311    1.5455878   578665 
 6229000    1.3579107   -3.4126069   -1.8672034   0.12457863   -3.4126069    1.5454035   578688 
 6230000    1.3560735   -3.4106467   -1.8673742   0.13588949   -3.4106467    1.5432725   578703 
 6231000    1.3595755    -3.413355   -1.8661558   0.12461259    -3.413355    1.5471992   578725 
 6232000    1.3599573   -3.4144067   -1.8668399   0.12911474   -3.4144067    1.5475668   578750 
 6233000    1.3594345   -3.4136744     -1.86674   0.12832179   -3.4136744    1.5469344   578764 
 6234000    1.3584848   -3.4132953   -1.8674469   0.13108313   -3.4132953    1.5458484   578766 
 6235000    1.3600011   -3.4143721    -1.866841   0.12976251   -3.4143721    1.5475311   578782 
 6236000    1.3600129   -3.4145341    -1.867011   0.12926229   -3.4145341    1.5475231   578790 
 6237000    1.3589276   -3.4142477    -1.868005   0.13271458   -3.4142477    1.5462427   578807 
 6238000    1.3596817   -3.4155278   -1.8684804   0.13378501   -3.4155278    1.5470474   578827 
 6239000    1.3598108   -3.4143381   -1.8672001   0.13451464   -3.4143381    1.5471381   578848 
 6240000    1.3596465   -3.4148655   -1.8679838   0.12167595   -3.4148655    1.5468817   578874 
 6241000     1.357063   -3.4121011   -1.8682254   0.13132024   -3.4121011    1.5438757   578899 
 6242000    1.3578068   -3.4139482   -1.8692583   0.12828113   -3.4139482    1.5446899   578911 
 6243000     1.359024   -3.4150944   -1.8690812   0.12285337   -3.4150944    1.5460132   578934 
 6244000    1.3588753   -3.4155909   -1.8697842   0.12354022   -3.4155909    1.5458067   578948 
 6245000    1.3591618   -3.4147562   -1.8686824   0.12623308   -3.4147562    1.5460739   578970 
 6246000     1.361453   -3.4171693   -1.8685186   0.12563368   -3.4171693    1.5486507   578981 
 6247000       1.3595   -3.4146866   -1.8682762   0.13095053   -3.4146866    1.5464104   578988 
 6248000    1.3593026   -3.4145426   -1.8683648    0.1281868   -3.4145426    1.5461779   578991 
 6249000     1.359734   -3.4144694   -1.8678354    0.1299541   -3.4144694     1.546634   579004 
 6250000    1.3591882   -3.4135866   -1.8676081    0.1292154   -3.4135866    1.5459784   579017 
 6251000    1.3593879   -3.4150118   -1.8688437   0.11922632   -3.4150118    1.5461681   579031 
 6252000    1.3589712   -3.4141563   -1.8685022    0.1309931   -3.4141563    1.5456541   579046 
 6253000    1.3591944   -3.4140244   -1.8681672   0.13110069   -3.4140244    1.5458573   579065 
 6254000    1.3605433   -3.4153746   -1.8680553   0.12824687   -3.4153746    1.5473192   579092 
 6255000    1.3606374   -3.4163703   -1.8690028   0.11985238   -3.4163703    1.5473675   579114 
 6256000    1.3588717   -3.4136633   -1.8683358   0.13300612   -3.4136633    1.5453275   579126 
 6257000    1.3583368   -3.4135909   -1.8689464    0.1285366   -3.4135909    1.5446445   579154 
 6258000    1.3568228   -3.4114733   -1.8685771   0.13047165   -3.4114733    1.5428962   579164 
 6259000    1.3593068   -3.4142088   -1.8685494   0.12432063   -3.4142088    1.5456595   579187 
 6260000    1.3598399   -3.4146405   -1.8683855   0.12725792   -3.4146405     1.546255   579191 
 6261000    1.3601062   -3.4148376   -1.8683198   0.12381982   -3.4148376    1.5465177   579206 
 6262000    1.3600831   -3.4149494    -1.868506   0.12832365   -3.4149494    1.5464434   579224 
 6263000     1.358985   -3.4144567   -1.8693339   0.13323677   -3.4144567    1.5451229   579251 
 6264000      1.35975   -3.4148386   -1.8688967   0.12360333   -3.4148386    1.5459419   579270 
 6265000    1.3598926    -3.415104   -1.8690374   0.13153995    -3.415104    1.5460666   579284 
 6266000    1.3605486   -3.4157907   -1.8690183   0.13025123   -3.4157907    1.5467724   579299 
 6267000    1.3601678   -3.4156918   -1.8694138   0.12426147   -3.4156918     1.546278   579322 
 6268000    1.3596498   -3.4151223   -1.8694598   0.13088577   -3.4151223    1.5456625   579332 
 6269000    1.3581925    -3.413839   -1.8698757   0.12364931    -3.413839    1.5439633   579348 
 6270000    1.3594391   -3.4163092   -1.8709475   0.12695963   -3.4163092    1.5453617   579355 
 6271000    1.3574712    -3.414225    -1.871111   0.12586292    -3.414225    1.5431139   579359 
 6272000    1.3588192   -3.4168549   -1.8722512   0.12254199   -3.4168549    1.5446037   579375 
 6273000       1.3595   -3.4167373   -1.8713865   0.12795435   -3.4167373    1.5453509   579385 
 6274000      1.36039   -3.4170678    -1.870772   0.12589031   -3.4170678    1.5462958   579410 
 6275000    1.3589799   -3.4151832   -1.8705222   0.12713101   -3.4151832     1.544661   579422 
 6276000    1.3572184   -3.4141208   -1.8714939   0.12214512   -3.4141208    1.5426269   579434 
 6277000     1.358901   -3.4157972   -1.8713299    0.1241901   -3.4157972    1.5444673   579461 
 6278000    1.3604392   -3.4167751   -1.8705835   0.12577671   -3.4167751    1.5461916   579470 
 6279000    1.3606732   -3.4170343    -1.870598   0.13124024   -3.4170343    1.5464362   579478 
 6280000    1.3603002   -3.4162744   -1.8702914   0.12874912   -3.4162744     1.545983   579489 
 6281000    1.3600565    -3.417107    -1.871417   0.12613931    -3.417107    1.5456899   579495 
 6282000    1.3595891   -3.4165987   -1.8714879   0.13061846   -3.4165987    1.5451108   579513 
 6283000    1.3607123   -3.4176487   -1.8712721   0.12849247   -3.4176487    1.5463766   579517 
 6284000    1.3597246   -3.4163332   -1.8711138   0.12819671   -3.4163332    1.5452194   579530 
 6285000    1.3595632    -3.416249   -1.8712637   0.13065275    -3.416249    1.5449853   579549 
 6286000    1.3603068   -3.4171685   -1.8713728   0.12519506   -3.4171685    1.5457957   579562 
 6287000    1.3599534   -3.4171927   -1.8718546   0.12868256   -3.4171927    1.5453381   579583 
 6288000    1.3590536   -3.4162008   -1.8718905   0.13253739   -3.4162008    1.5443103   579585 
 6289000    1.3586533   -3.4162406    -1.872457   0.12609933   -3.4162406    1.5437836   579612 
 6290000    1.3591099   -3.4172195   -1.8729571   0.12769867   -3.4172195    1.5442624   579627 
 6291000    1.3596249   -3.4184883   -1.8736861   0.12856505   -3.4184883    1.5448022   579644 
 6292000    1.3595519   -3.4181434   -1.8735066   0.13031878   -3.4181434    1.5446368   579675 
 6293000     1.360576   -3.4192571   -1.8735396   0.13361904   -3.4192571    1.5457176   579706 
 6294000     1.360165   -3.4192901   -1.8740715   0.12722798   -3.4192901    1.5452186   579718 
 6295000    1.3593033   -3.4192782   -1.8750651   0.12475284   -3.4192782    1.5442131   579728 
 6296000    1.3601742   -3.4203825   -1.8751987   0.12009365   -3.4203825    1.5451838   579735 
 6297000    1.3605978   -3.4209277    -1.875316   0.12444867   -3.4209277    1.5456117   579755 
 6298000    1.3599817   -3.4182413   -1.8733561   0.12053928   -3.4182413    1.5448852   579765 
 6299000    1.3596536   -3.4183956   -1.8739232   0.12192206   -3.4183956    1.5444725   579780 
 6300000    1.3594575    -3.418692   -1.8745221   0.12536582    -3.418692    1.5441698   579810 
 6301000    1.3587152   -3.4185131   -1.8752583   0.13088744   -3.4185131    1.5432548   579837 
 6302000    1.3597757   -3.4207438   -1.8763377   0.12568874   -3.4207438     1.544406   579857 
 6303000    1.3597962   -3.4212528   -1.8768421    0.1235339   -3.4212528    1.5444107   579864 
 6304000    1.3600583   -3.4219095   -1.8772544   0.12421844   -3.4219095    1.5446551   579884 
 6305000    1.3582289   -3.4192031   -1.8766736   0.12929366   -3.4192031    1.5425296   579902 
 6306000    1.3591802   -3.4198869   -1.8763568   0.12129899   -3.4198869      1.54353   579932 
 6307000    1.3618784   -3.4223474   -1.8757798   0.12427686   -3.4223474    1.5465676   579942 
 6308000    1.3602398   -3.4200375   -1.8753894   0.12960992   -3.4200375    1.5446481   579964 
 6309000    1.3615128   -3.4206964   -1.8746373   0.12454533   -3.4206964    1.5460591   579977 
 6310000    1.3612262   -3.4201454   -1.8744677   0.13384107   -3.4201454    1.5456777   579998 
 6311000     1.359525   -3.4178937    -1.874185   0.13581919   -3.4178937    1.5437087   580012 
 6312000    1.3606228   -3.4201867   -1.8752608   0.12443029   -3.4201867    1.5449259   580023 
 6313000    1.3601917   -3.4192578   -1.8748532   0.12455105   -3.4192578    1.5444045   580035 
 6314000    1.3614514   -3.4201665   -1.8743664   0.12505271   -3.4201665    1.5458002   580048 
 6315000    1.3617179    -3.421019   -1.8749749   0.12726615    -3.421019    1.5460441   580070 
 6316000    1.3620938   -3.4207632   -1.8743323   0.13029518   -3.4207632    1.5464309   580085 
 6317000      1.36094   -3.4208444   -1.8757502    0.1279455   -3.4208444    1.5450943   580095 
 6318000    1.3601745   -3.4210282   -1.8768696   0.12309797   -3.4210282    1.5441586   580120 
 6319000    1.3620291   -3.4222969   -1.8760221   0.12294676   -3.4222969    1.5462748   580116 
 6320000    1.3601471   -3.4202677   -1.8761695   0.12425089   -3.4202677    1.5440983   580131 
 6321000    1.3611378   -3.4219072   -1.8767216   0.12039308   -3.4219072    1.5451856   580145 
 6322000    1.3608159   -3.4211447   -1.8763564    0.1248295   -3.4211447    1.5447883   580157 
 6323000    1.3601818   -3.4204878   -1.8764566   0.12812179   -3.4204878    1.5440312   580171 
 6324000    1.3582624   -3.4195278   -1.8777419   0.12559833   -3.4195278    1.5417859   580196 
 6325000    1.3602657   -3.4215733   -1.8775373   0.11908675   -3.4215733    1.5440359   580205 
 6326000    1.3604944   -3.4223513   -1.8781249   0.12443045   -3.4223513    1.5442264   580231 
 6327000    1.3599548   -3.4213591   -1.8778038   0.12972026   -3.4213591    1.5435554   580253 
 6328000    1.3605359   -3.4223219   -1.8781469   0.12701137   -3.4223219     1.544175   580268 
 6329000     1.359151   -3.4213835   -1.8788043   0.12891169   -3.4213835    1.5425793   580277 
 6330000    1.3613262   -3.4225116   -1.8774982   0.12726961   -3.4225116    1.5450134   580290 
 6331000     1.361206   -3.4233252   -1.8784589   0.12529143   -3.4233252    1.5448663   580294 
 6332000    1.3603636   -3.4214095   -1.8775366   0.12651922   -3.4214095     1.543873   580308 
 6333000    1.3617593   -3.4226532   -1.8772627   0.13091647   -3.4226532    1.5453904   580333 
 6334000    1.3619523   -3.4221112   -1.8765523   0.13162661   -3.4221112    1.5455589   580352 
 6335000      1.36329   -3.4234115   -1.8763694   0.12793107   -3.4234115    1.5470422   580365 
 6336000    1.3624765   -3.4225022   -1.8764071   0.12724696   -3.4225022    1.5460951   580374 
 6337000    1.3608395   -3.4222873   -1.8780685   0.13217386   -3.4222873    1.5442188   580381 
 6338000    1.3618553   -3.4229213   -1.8776216   0.12963225   -3.4229213    1.5452997   580408 
 6339000    1.3628189   -3.4244258   -1.8781074   0.12874454   -3.4244258    1.5463185   580436 
 6340000    1.3623619   -3.4243201   -1.8785549   0.12743601   -3.4243201    1.5457652   580449 
 6341000    1.3597032   -3.4218322    -1.879126   0.12873683   -3.4218322    1.5427062   580465 
 6342000    1.3597209   -3.4230176   -1.8803578   0.12152601   -3.4230176    1.5426598   580490 
 6343000    1.3617782   -3.4240502   -1.8791175   0.12294093   -3.4240502    1.5449327   580513 
 6344000    1.3610225   -3.4220047   -1.8779772   0.12278359   -3.4220047    1.5440275   580531 
 6345000    1.3601058   -3.4222836   -1.8793201   0.13041046   -3.4222836    1.5429636   580540 
 6346000    1.3604902   -3.4229799    -1.879644   0.12828232   -3.4229799    1.5433359   580564 
 6347000    1.3609218    -3.422652   -1.8788797   0.12549704    -3.422652    1.5437723   580584 
 6348000    1.3612738   -3.4228657   -1.8787366   0.13019312   -3.4228657    1.5441291   580600 
 6349000    1.3606823   -3.4227944   -1.8793549   0.12877401   -3.4227944    1.5434395   580607 
 6350000    1.3596946   -3.4206348   -1.8783662   0.12727549   -3.4206348    1.5422686   580626 
 6351000    1.3602735   -3.4206694   -1.8778185   0.13306035   -3.4206694    1.5428509   580654 
 6352000    1.3616026   -3.4228295    -1.878527   0.12937365   -3.4228295    1.5443025   580675 
 6353000    1.3623064   -3.4238797   -1.8788216   0.12911917   -3.4238797    1.5450581   580691 
 6354000    1.3628047   -3.4234747   -1.8779179   0.13269332   -3.4234747    1.5455568   580716 
 6355000    1.3626348   -3.4234249   -1.8780955   0.13396255   -3.4234249    1.5453294   580729 
 6356000    1.3617822   -3.4232296   -1.8788856   0.12764971   -3.4232296     1.544344   580736 
 6357000     1.362208   -3.4233606   -1.8785577   0.12890036   -3.4233606    1.5448029   580745 
 6358000    1.3607241   -3.4220326   -1.8789816   0.12925212   -3.4220326     1.543051   580771 
 6359000    1.3607504   -3.4227239   -1.8797147   0.13246178   -3.4227239    1.5430092   580798 
 6360000    1.3628102   -3.4245658   -1.8792608   0.12778015   -3.4245658    1.5453049   580813 
 6361000    1.3632355   -3.4258841   -1.8800996   0.13155202   -3.4258841    1.5457845   580814 
 6362000    1.3624541   -3.4246027   -1.8797228   0.12572196   -3.4246027    1.5448799   580821 
 6363000    1.3613012   -3.4228103   -1.8792749     0.128125   -3.4228103    1.5435353   580835 
 6364000    1.3624205   -3.4235187   -1.8787568   0.12305736   -3.4235187    1.5447619   580851 
 6365000    1.3626111    -3.423769   -1.8788469    0.1275844    -3.423769    1.5449222   580872 
 6366000    1.3634367   -3.4240505   -1.8782401    0.1332137   -3.4240505    1.5458104   580890 
 6367000    1.3625669   -3.4234765   -1.8787081   0.13164445   -3.4234765    1.5447684   580911 
 6368000    1.3629209   -3.4241169   -1.8789711    0.1324474   -3.4241169    1.5451457   580920 
 6369000    1.3641024   -3.4248834   -1.8784248   0.12614482   -3.4248834    1.5464586   580930 
 6370000    1.3651968    -3.425298   -1.8776387   0.12128928    -3.425298    1.5476593   580945 
 6371000    1.3627259   -3.4232945   -1.8785081   0.13019619   -3.4232945    1.5447864   580972 
 6372000     1.361709   -3.4227084    -1.879112   0.12856234   -3.4227084    1.5435965   580986 
 6373000    1.3616427   -3.4226416   -1.8791734   0.12844506   -3.4226416    1.5434682   581006 
 6374000    1.3605462   -3.4218226    -1.879624   0.12712873   -3.4218226    1.5421987   581016 
 6375000    1.3621409   -3.4241968   -1.8802384   0.12586963   -3.4241968    1.5439585   581034 
 6376000    1.3621188   -3.4238795   -1.8800231    0.1203264   -3.4238795    1.5438564   581063 
 6377000    1.3606522   -3.4211393   -1.8789692   0.12700566   -3.4211393    1.5421702   581072 
 6378000    1.3630858   -3.4237467   -1.8788953    0.1286903   -3.4237467    1.5448514   581101 
 6379000     1.363649   -3.4251108   -1.8796504   0.12877954   -3.4251108    1.5454604   581112 
 6380000    1.3630735   -3.4253845   -1.8805844   0.12711622   -3.4253845    1.5448002   581115 
 6381000    1.3633215    -3.425041   -1.8800129   0.13442694    -3.425041    1.5450281   581135 
 6382000    1.3637552    -3.425368   -1.8799121   0.13200027    -3.425368    1.5454558   581159 
 6383000    1.3640052   -3.4259359   -1.8802367    0.1306536   -3.4259359    1.5456992   581174 
 6384000    1.3631979   -3.4264435    -1.881691   0.13367077   -3.4264435    1.5447525   581186 
 6385000    1.3636792    -3.426088   -1.8808698    0.1347012    -3.426088    1.5452182   581216 
 6386000    1.3618384   -3.4249318   -1.8818686    0.1346851   -3.4249318    1.5430633   581242 
 6387000    1.3655293   -3.4271461     -1.87997   0.13258591   -3.4271461     1.547176   581268 
 6388000    1.3647104   -3.4268771   -1.8806662   0.13331503   -3.4268771    1.5462109   581282 
 6389000     1.363185   -3.4256732   -1.8812463   0.13571705   -3.4256732    1.5444269   581303 
 6390000    1.3647627   -3.4264617   -1.8803191   0.13383857   -3.4264617    1.5461426   581330 
 6391000    1.3647387   -3.4275269   -1.8814434   0.12620459   -3.4275269    1.5460835   581342 
 6392000    1.3621892   -3.4256923   -1.8825342   0.12892664   -3.4256923     1.543158   581356 
 6393000    1.3604698    -3.424576    -1.883395     0.135683    -3.424576     1.541181   581367 
 6394000    1.3644468   -3.4283586   -1.8827255   0.12690219   -3.4283586    1.5456331   581387 
 6395000    1.3634607   -3.4268259   -1.8823709   0.12977585   -3.4268259     1.544455   581410 
 6396000    1.3639154   -3.4269029    -1.881994   0.12934905   -3.4269029    1.5449089   581433 
 6397000    1.3646202   -3.4272908    -1.881658   0.13273132   -3.4272908    1.5456328   581461 
 6398000    1.3631301   -3.4256114   -1.8817141   0.13040218   -3.4256114    1.5438973   581479 
 6399000    1.3649645   -3.4271391    -1.881204   0.13402503   -3.4271391    1.5459351   581494 
 6400000    1.3660461   -3.4283649    -1.881274   0.13381482   -3.4283649    1.5470909   581520 
 6401000    1.3650363   -3.4282165   -1.8823198   0.12403815   -3.4282165    1.5458967   581539 
 6402000     1.364161   -3.4268186   -1.8819503   0.12694559   -3.4268186    1.5448683   581553 
 6403000    1.3639123   -3.4272158   -1.8826689    0.1304348   -3.4272158    1.5445469   581568 
 6404000    1.3638563    -3.426034    -1.881609   0.13213866    -3.426034     1.544425   581590 
 6405000    1.3643453    -3.427134   -1.8822217   0.12470454    -3.427134    1.5449123   581615 
 6406000    1.3652601   -3.4281981   -1.8822845   0.12315361   -3.4281981    1.5459136   581628 
 6407000    1.3648669   -3.4275134    -1.882061   0.12933774   -3.4275134    1.5454524   581634 
 6408000    1.3627588   -3.4261228    -1.883137   0.13082949   -3.4261228    1.5429858   581664 
 6409000    1.3622428   -3.4261105    -1.883754   0.12807389   -3.4261105    1.5423566   581681 
 6410000    1.3637487   -3.4282608   -1.8842391   0.12950391   -3.4282608    1.5440217   581696 
 6411000    1.3637056   -3.4285754    -1.884653   0.13019869   -3.4285754    1.5439224   581715 
 6412000    1.3633455   -3.4286164   -1.8851095   0.12718464   -3.4286164    1.5435068   581718 
 6413000    1.3642098   -3.4301879   -1.8857345   0.12697586   -3.4301879    1.5444535   581730 
 6414000    1.3641516   -3.4300473   -1.8857022   0.13088558   -3.4300473    1.5443451   581746 
 6415000    1.3646624   -3.4298462   -1.8849547   0.12638828   -3.4298462    1.5448915   581758 
 6416000    1.3633559   -3.4292512    -1.885852    0.1307084   -3.4292512    1.5433992   581763 
 6417000    1.3628747   -3.4291147   -1.8862973   0.13197088   -3.4291147    1.5428174   581777 
 6418000    1.3637939   -3.4299763   -1.8862033   0.13065416   -3.4299763     1.543773   581809 
 6419000    1.3644943   -3.4301863   -1.8856497   0.13340034   -3.4301863    1.5445366   581820 
 6420000    1.3654666   -3.4304414   -1.8848759   0.13140543   -3.4304414    1.5455655   581847 
 6421000    1.3668072   -3.4323057   -1.8852707   0.12965831   -3.4323057    1.5470351   581865 
 6422000    1.3635664   -3.4299533   -1.8866288    0.1363898   -3.4299533    1.5433245   581881 
 6423000    1.3646786    -3.430804   -1.8862978   0.13439281    -3.430804    1.5445063   581910 
 6424000    1.3637397   -3.4298135   -1.8864149   0.12996347   -3.4298135    1.5433986   581927 
 6425000    1.3629425   -3.4288161   -1.8863541   0.12727074   -3.4288161     1.542462   581940 
 6426000    1.3624248   -3.4290636   -1.8872061   0.13049694   -3.4290636    1.5418575   581947 
 6427000    1.3637892   -3.4303859   -1.8870293   0.12570554   -3.4303859    1.5433566   581964 
 6428000    1.3638669   -3.4307649   -1.8873973   0.12837862   -3.4307649    1.5433676   581993 
 6429000    1.3637406   -3.4304198   -1.8872084    0.1263499   -3.4304198    1.5432114   581998 
 6430000    1.3637659   -3.4303896   -1.8871867   0.13420781   -3.4303896    1.5432028   582012 
 6431000     1.364062    -3.429691   -1.8861981   0.13391056    -3.429691    1.5434929   582029 
 6432000    1.3650831   -3.4302758    -1.885686   0.12980668   -3.4302758    1.5445898   582051 
 6433000    1.3651611   -3.4314599   -1.8868667   0.12737868   -3.4314599    1.5445932   582083 
 6434000    1.3638868   -3.4299173   -1.8868162   0.13125634   -3.4299173     1.543101   582102 
 6435000    1.3661133   -3.4315967   -1.8860137   0.13017591   -3.4315967     1.545583   582116 
 6436000    1.3656543   -3.4294851   -1.8845038   0.12766238   -3.4294851    1.5449813   582147 
 6437000    1.3644742   -3.4278294   -1.8842309   0.12804286   -3.4278294    1.5435986   582165 
 6438000    1.3657624   -3.4299585   -1.8849318   0.12741357   -3.4299585    1.5450267   582176 
 6439000    1.3673944   -3.4308239   -1.8839881   0.12491468   -3.4308239    1.5468358   582190 
 6440000     1.364945   -3.4283597    -1.884332   0.13096158   -3.4283597    1.5440277   582204 
 6441000    1.3653135   -3.4287074   -1.8843025   0.13046649   -3.4287074    1.5444048   582219 
 6442000    1.3647412   -3.4286402    -1.884957   0.13558115   -3.4286402    1.5436832   582247 
 6443000    1.3647438   -3.4294873    -1.885841   0.12241439   -3.4294873    1.5436464   582262 
 6444000    1.3671818   -3.4309759   -1.8846012    0.1291762   -3.4309759    1.5463748   582273 
 6445000     1.365789   -3.4292247   -1.8844651   0.13050871   -3.4292247    1.5447596   582288 
 6446000    1.3666553   -3.4297364   -1.8840235   0.13075611   -3.4297364    1.5457129   582298 
 6447000    1.3652164   -3.4277249   -1.8836951   0.13666686   -3.4277249    1.5440298   582319 
 6448000    1.3675605   -3.4290645    -1.882434   0.13742351   -3.4290645    1.5466305   582338 
 6449000    1.3687466   -3.4310425   -1.8830787   0.13405903   -3.4310425    1.5479639   582341 
 6450000    1.3673087   -3.4294673   -1.8831428   0.13268534   -3.4294673    1.5463245   582346 
 6451000    1.3670134   -3.4294286   -1.8834965   0.14033102   -3.4294286    1.5459321   582368 
 6452000    1.3660924   -3.4289431   -1.8840923   0.13226441   -3.4289431    1.5448507   582383 
 6453000    1.3678124   -3.4306072   -1.8838247   0.12937769   -3.4306072    1.5467825   582388 
 6454000    1.3661327   -3.4290524    -1.884241   0.13384759   -3.4290524    1.5448114   582415 
 6455000    1.3673131   -3.4306837     -1.88458   0.13686565   -3.4306837    1.5461037   582431 
 6456000    1.3690133   -3.4326237   -1.8846454   0.12706943   -3.4326237    1.5479784   582449 
 6457000    1.3659775   -3.4296859   -1.8851773   0.12802393   -3.4296859    1.5445086   582463 
 6458000    1.3672066   -3.4309623   -1.8851065   0.13114227   -3.4309623    1.5458559   582479 
 6459000     1.366551   -3.4295733    -1.884517   0.13114887   -3.4295733    1.5450563   582501 
 6460000    1.3670293   -3.4306219   -1.8850274   0.13212753   -3.4306219    1.5455944   582502 
 6461000    1.3670504   -3.4306736    -1.885074    0.1303967   -3.4306736    1.5455996   582509 
 6462000    1.3667724   -3.4303496   -1.8850988   0.13171478   -3.4303496    1.5452509   582522 
 6463000    1.3684216   -3.4329059   -1.8858356   0.12679537   -3.4329059    1.5470703   582539 
 6464000     1.365257   -3.4293827   -1.8859061   0.13269569   -3.4293827    1.5434766   582545 
 6465000    1.3681416   -3.4332933   -1.8866087   0.12985363   -3.4332933    1.5466847   582565 
 6466000    1.3663768   -3.4323065   -1.8876514   0.13226631   -3.4323065    1.5446551   582578 
 6467000    1.3660567   -3.4326917    -1.888417   0.13265936   -3.4326917    1.5442747   582585 
 6468000    1.3645588   -3.4311589   -1.8886013   0.13151746   -3.4311589    1.5425576   582594 
 6469000    1.3650513   -3.4328503   -1.8897545   0.12935778   -3.4328503    1.5430958   582601 
 6470000    1.3632955   -3.4315999   -1.8905339   0.12883216   -3.4315999     1.541066   582618 
 6471000    1.3655309   -3.4325514   -1.8889797   0.12961999   -3.4325514    1.5435717   582626 
 6472000    1.3659469   -3.4341369   -1.8901294   0.12659269   -3.4341369    1.5440075   582639 
 6473000    1.3656144   -3.4335838   -1.8899919   0.12839274   -3.4335838    1.5435919   582654 
 6474000    1.3656485     -3.43285   -1.8892619   0.13400655     -3.43285     1.543588   582670 
 6475000    1.3671205   -3.4349081   -1.8896563   0.12619166   -3.4349081    1.5452518   582670 
 6476000    1.3668459   -3.4333719   -1.8884411   0.13766645   -3.4333719    1.5449308   582674 
 6477000    1.3653807   -3.4316694   -1.8884423   0.13535221   -3.4316694    1.5432271   582692 
 6478000    1.3663528   -3.4328273     -1.88852   0.13234734   -3.4328273    1.5443073   582699 
 6479000    1.3669096   -3.4334638   -1.8885723   0.12848833   -3.4334638    1.5448914   582716 
 6480000    1.3650957   -3.4320456   -1.8892359   0.13452984   -3.4320456    1.5428096   582728 
 6481000    1.3657857   -3.4326793   -1.8891269   0.13449536   -3.4326793    1.5435524   582742 
 6482000    1.3644736   -3.4320022   -1.8899486   0.13008502   -3.4320022    1.5420537   582748 
 6483000    1.3663616   -3.4350298   -1.8908584   0.12495205   -3.4350298    1.5441714   582754 
 6484000    1.3640902   -3.4325202   -1.8909687   0.12806177   -3.4325202    1.5415515   582774 
 6485000     1.365671    -3.433523   -1.8902274   0.12629968    -3.433523    1.5432956   582790 
 6486000    1.3660323   -3.4343459   -1.8906843   0.12753139   -3.4343459    1.5436616   582806 
 6487000    1.3644805    -3.434175   -1.8923305    0.1289418    -3.434175    1.5418445   582830 
 6488000    1.3641039   -3.4346521   -1.8932649   0.12510451   -3.4346521    1.5413872   582842 
 6489000     1.364053   -3.4350209   -1.8937256   0.13134629   -3.4350209    1.5412953   582855 
 6490000    1.3657541   -3.4365362    -1.893369   0.12910055   -3.4365362    1.5431672   582874 
 6491000    1.3650431   -3.4352282     -1.89292   0.12287641   -3.4352282    1.5423082   582895 
 6492000    1.3646849   -3.4335803   -1.8917271   0.12968018   -3.4335803    1.5418532   582914 
 6493000    1.3655363    -3.433542   -1.8907586   0.13478585    -3.433542    1.5427834   582926 
 6494000    1.3660345   -3.4356064   -1.8922681   0.13086946   -3.4356064    1.5433383   582929 
 6495000     1.366186   -3.4356714   -1.8922043   0.12726021   -3.4356714    1.5434671   582945 
 6496000     1.365232   -3.4350852   -1.8927488   0.12825395   -3.4350852    1.5423364   582965 
 6497000    1.3650473   -3.4358235   -1.8937327    0.1280466   -3.4358235    1.5420908   582979 
 6498000    1.3654746   -3.4353726    -1.892852   0.12933992   -3.4353726    1.5425205   582999 
 6499000    1.3675786    -3.435991    -1.891152   0.12915999    -3.435991     1.544839   583021 
 6500000    1.3675043   -3.4365281   -1.8917968   0.12583336   -3.4365281    1.5447313   583030 
 6501000    1.3677867   -3.4372234   -1.8922208   0.12957583   -3.4372234    1.5450026   583048 
 6502000    1.3662982   -3.4342532   -1.8909506   0.13972277   -3.4342532    1.5433026   583055 
 6503000    1.3680841   -3.4363036   -1.8910393   0.13056504   -3.4363036    1.5452642   583076 
 6504000     1.366436   -3.4352727    -1.891915   0.13572151   -3.4352727    1.5433578   583093 
 6505000    1.3675431   -3.4364259   -1.8918284   0.12590926   -3.4364259    1.5445976   583097 
 6506000     1.368492   -3.4382879    -1.892669    0.1288523   -3.4382879    1.5456189   583116 
 6507000    1.3664276   -3.4362142    -1.892977     0.129154   -3.4362142    1.5432371   583135 
 6508000    1.3663799    -3.435345   -1.8922015   0.13120643    -3.435345    1.5431435   583150 
 6509000    1.3682686   -3.4370004   -1.8917213   0.13002839   -3.4370004    1.5452792   583149 
 6510000    1.3647842   -3.4342941   -1.8930082   0.12865233   -3.4342941    1.5412859   583171 
 6511000    1.3668595   -3.4366533   -1.8930396   0.12761798   -3.4366533    1.5436137   583177 
 6512000    1.3650664   -3.4344167   -1.8928464   0.13261276   -3.4344167    1.5415702   583184 
 6513000    1.3667289   -3.4355907    -1.892188   0.13132669   -3.4355907    1.5434027   583201 
 6514000    1.3654489   -3.4348976   -1.8929933   0.13393904   -3.4348976    1.5419044   583221 
 6515000    1.3652395   -3.4350769    -1.893425   0.12942292   -3.4350769     1.541652   583227 
 6516000    1.3656581   -3.4359831   -1.8938689   0.12557151   -3.4359831    1.5421142   583231 
 6517000    1.3659793   -3.4371076   -1.8946731   0.13243434   -3.4371076    1.5424345   583247 
 6518000     1.364791   -3.4353048   -1.8942358   0.12983624   -3.4353048    1.5410689   583256 
 6519000    1.3639757   -3.4343554   -1.8942598   0.13077124   -3.4343554    1.5400955   583276 
 6520000    1.3659669   -3.4369432   -1.8946363   0.12583605   -3.4369432    1.5423068   583290 
 6521000    1.3650167   -3.4365127   -1.8953184   0.12343326   -3.4365127    1.5411943   583305 
 6522000     1.366468   -3.4368963   -1.8941268   0.12678298   -3.4368963    1.5427695   583329 
 6523000    1.3675131   -3.4384677   -1.8945686   0.13067257   -3.4384677    1.5438991   583348 
 6524000    1.3663181   -3.4377564   -1.8952222   0.12998752   -3.4377564    1.5425341   583354 
 6525000    1.3667152   -3.4380776   -1.8951428   0.12598332   -3.4380776    1.5429348   583372 
 6526000     1.364831   -3.4366445   -1.8958658    0.1271324   -3.4366445    1.5407787   583383 
 6527000    1.3663094   -3.4382051   -1.8957866   0.12901362   -3.4382051    1.5424185   583394 
 6528000    1.3667356   -3.4387903   -1.8959197   0.13050949   -3.4387903    1.5428706   583405 
 6529000    1.3660194   -3.4376636   -1.8956333   0.13425915   -3.4376636    1.5420303   583417 
 6530000    1.3664557   -3.4392153   -1.8967373   0.13295331   -3.4392153     1.542478   583434 
 6531000    1.3666076    -3.438552   -1.8959635   0.13049794    -3.438552    1.5425885   583457 
 6532000    1.3662127   -3.4383167    -1.896203   0.13489568   -3.4383167    1.5421138   583468 
 6533000    1.3667477   -3.4396579     -1.89698   0.13015499   -3.4396579     1.542678   583483 
 6534000    1.3658551   -3.4381364   -1.8964817   0.12968459   -3.4381364    1.5416547   583489 
 6535000    1.3654429   -3.4374327   -1.8962513    0.1376711   -3.4374327    1.5411814   583492 
 6536000    1.3654692   -3.4373159   -1.8961312   0.13503926   -3.4373159    1.5411847   583502 
 6537000    1.3654518   -3.4376349   -1.8965411   0.12951751   -3.4376349    1.5410938   583529 
 6538000    1.3672081    -3.439336   -1.8962653   0.12874385    -3.439336    1.5430707   583531 
 6539000    1.3671171   -3.4389601   -1.8960186   0.13045946   -3.4389601    1.5429416   583541 
 6540000    1.3665277   -3.4377278    -1.895507   0.12878898   -3.4377278    1.5422208   583562 
 6541000    1.3649162   -3.4358086   -1.8954197   0.12983706   -3.4358086    1.5403889   583567 
 6542000    1.3661705   -3.4366191   -1.8948383    0.1289184   -3.4366191    1.5417808   583576 
 6543000    1.3682574   -3.4381447   -1.8940538    0.1290931   -3.4381447    1.5440909   583593 
 6544000    1.3674566    -3.436512   -1.8933142   0.12587323    -3.436512    1.5431977   583589 
 6545000        1.367   -3.4367184   -1.8940915   0.13135942   -3.4367184    1.5426269   583610 
 6546000    1.3683163   -3.4377985   -1.8937444   0.13320844   -3.4377985    1.5440542   583632 
 6547000    1.3671553   -3.4370961   -1.8944023   0.12909627   -3.4370961    1.5426938   583651 
 6548000    1.3670548   -3.4365532   -1.8940097   0.13234349   -3.4365532    1.5425434   583665 
 6549000    1.3702913   -3.4402476   -1.8940628   0.12730483   -3.4402476    1.5461848   583669 
 6550000    1.3680561   -3.4376131     -1.89399   0.13151326   -3.4376131    1.5436231   583684 
 6551000    1.3669543   -3.4367862    -1.894446   0.12995486   -3.4367862    1.5423402   583699 
 6552000    1.3675736   -3.4372515   -1.8942416   0.12776401   -3.4372515    1.5430099   583710 
 6553000    1.3692049   -3.4393648   -1.8945541   0.12955775   -3.4393648    1.5448108   583725 
 6554000    1.3683626   -3.4389461   -1.8951544   0.13290048   -3.4389461    1.5437917   583751 
 6555000    1.3677908   -3.4381195   -1.8949968   0.12588876   -3.4381195    1.5431227   583760 
 6556000    1.3678125   -3.4389012     -1.89582    0.1253223   -3.4389012    1.5430812   583785 
 6557000     1.367683   -3.4377773   -1.8948634   0.13442595   -3.4377773    1.5429139   583793 
 6558000    1.3692987   -3.4396509   -1.8949619   0.13253314   -3.4396509     1.544689   583811 
 6559000    1.3687469   -3.4393839   -1.8953782   0.13134769   -3.4393839    1.5440057   583834 
 6560000     1.368051   -3.4381359   -1.8949443   0.13262465   -3.4381359    1.5431916   583845 
 6561000    1.3682852   -3.4382634    -1.894842   0.13064682   -3.4382634    1.5434214   583858 
 6562000    1.3692158   -3.4401275   -1.8956987   0.13356198   -3.4401275    1.5444288   583874 
 6563000    1.3684229   -3.4393878   -1.8958586     0.127537   -3.4393878    1.5435292   583876 
 6564000    1.3690404   -3.4401784   -1.8960109   0.13591545   -3.4401784    1.5441675   583898 
 6565000    1.3674662   -3.4389328   -1.8965725   0.13824697   -3.4389328    1.5423603   583910 
 6566000    1.3673499   -3.4392102   -1.8970287   0.13526937   -3.4392102    1.5421815   583928 
 6567000    1.3692355   -3.4411232    -1.896852   0.12953731   -3.4411232    1.5442712   583942 
 6568000    1.3692899   -3.4405501   -1.8962572   0.13421439   -3.4405501    1.5442929   583957 
 6569000    1.3691006   -3.4410716    -1.897053    0.1340478   -3.4410716    1.5440185   583980 
 6570000    1.3685726   -3.4402409   -1.8968944   0.13771685   -3.4402409    1.5433465   584009 
 6571000    1.3683416   -3.4402409    -1.897221   0.13246103   -3.4402409    1.5430199   584034 
 6572000    1.3686991   -3.4411964   -1.8977946   0.12783943   -3.4411964    1.5434019   584042 
 6573000    1.3669988   -3.4393857   -1.8979486   0.12870082   -3.4393857     1.541437   584060 
 6574000    1.3703632   -3.4438613   -1.8986542   0.13094439   -3.4438613     1.545207   584069 
 6575000    1.3684221   -3.4407639   -1.8978196   0.13002324   -3.4407639    1.5429443   584097 
 6576000    1.3687833   -3.4412215   -1.8979201   0.13266683   -3.4412215    1.5433013   584116 
 6577000    1.3677716   -3.4413915   -1.8992361   0.13141263   -3.4413915    1.5421554   584118 
 6578000    1.3668913   -3.4401909   -1.8990889   0.13677864   -3.4401909    1.5411021   584141 
 6579000    1.3672078   -3.4402723   -1.8988688    0.1258938   -3.4402723    1.5414035   584162 
 6580000    1.3691986   -3.4411688    -1.897526   0.13166475   -3.4411688    1.5436427   584164 
 6581000    1.3691171   -3.4407733   -1.8972912   0.12959955   -3.4407733    1.5434821   584190 
 6582000    1.3680285   -3.4392177    -1.897005   0.14057358   -3.4392177    1.5422127   584206 
 6583000    1.3686545   -3.4403586   -1.8974931   0.13256325   -3.4403586    1.5428655   584226 
 6584000    1.3680351   -3.4401922   -1.8980645   0.13621761   -3.4401922    1.5421277   584241 
 6585000     1.369106   -3.4406113   -1.8973345   0.13057982   -3.4406113    1.5432768   584263 
 6586000     1.368124   -3.4400194   -1.8978812   0.12798943   -3.4400194    1.5421382   584275 
 6587000    1.3689213   -3.4400121   -1.8970043   0.13040329   -3.4400121    1.5430078   584286 
 6588000    1.3683831   -3.4402653   -1.8978906   0.13624226   -3.4402653    1.5423748   584296 
 6589000    1.3706345   -3.4424949   -1.8976433    0.1379737   -3.4424949    1.5448516   584319 
 6590000    1.3699428    -3.441515   -1.8975011   0.12743727    -3.441515    1.5440139   584341 
 6591000    1.3689684   -3.4409489   -1.8980993   0.13192842   -3.4409489    1.5428497   584366 
 6592000    1.3687852   -3.4411593   -1.8985556   0.12634457   -3.4411593    1.5426037   584381 
 6593000    1.3692626   -3.4418754    -1.898768   0.13250976   -3.4418754    1.5431074   584394 
 6594000     1.368805   -3.4421142   -1.8995781   0.13032897   -3.4421142    1.5425362   584415 
 6595000    1.3672429   -3.4415845   -1.9008403   0.13644404   -3.4415845    1.5407442   584427 
 6596000    1.3672419   -3.4409501    -1.900244   0.13109602   -3.4409501    1.5407061   584441 
 6597000    1.3680014    -3.441143   -1.8996444   0.13471324    -3.441143    1.5414987   584465 
 6598000     1.368022    -3.442624   -1.9011548   0.13079213    -3.442624    1.5414692   584485 
 6599000    1.3692636   -3.4438431   -1.9010198   0.13639712   -3.4438431    1.5428233   584502 
 6600000     1.367793   -3.4441635   -1.9030368   0.12958122   -3.4441635    1.5411267   584517 
 6601000    1.3687008   -3.4445242     -1.90243    0.1274778   -3.4445242    1.5420942   584538 
 6602000    1.3683667    -3.444052   -1.9023684   0.13205958    -3.444052    1.5416835   584551 
 6603000    1.3672542   -3.4428459   -1.9024448   0.12705166   -3.4428459    1.5404011   584562 
 6604000    1.3680644   -3.4435551   -1.9022491   0.13133007   -3.4435551     1.541306   584565 
 6605000    1.3693779   -3.4445275   -1.9018025   0.13519346   -3.4445275    1.5427251   584588 
 6606000    1.3677971   -3.4437944   -1.9029188   0.13204505   -3.4437944    1.5408757   584614 
 6607000    1.3688369   -3.4437314   -1.9017081   0.13325852   -3.4437314    1.5420233   584623 
 6608000    1.3699567   -3.4438176   -1.9005857   0.12717599   -3.4438176     1.543232   584643 
 6609000    1.3698516   -3.4422805    -1.899196   0.13844687   -3.4422805    1.5430846   584654 
 6610000    1.3705702    -3.444202   -1.9003739   0.13141388    -3.444202    1.5438281   584679 
 6611000    1.3702324   -3.4429037   -1.8994905   0.13694413   -3.4429037    1.5434132   584692 
 6612000     1.369531   -3.4431208   -1.9005635   0.13328242   -3.4431208    1.5425573   584717 
 6613000    1.3715079   -3.4444187    -1.899656   0.13354116   -3.4444187    1.5447628   584725 
 6614000    1.3700384   -3.4428562   -1.8997777   0.13181396   -3.4428562    1.5430785   584736 
 6615000     1.369568   -3.4432465    -1.900732   0.12752448   -3.4432465    1.5425144   584749 
 6616000     1.368982   -3.4426736   -1.9008693   0.13238823   -3.4426736    1.5418043   584768 
 6617000     1.368529   -3.4426722   -1.9014202   0.13159744   -3.4426722     1.541252   584784 
 6618000    1.3687444   -3.4440492    -1.902581   0.12386358   -3.4440492    1.5414682   584794 
 6619000    1.3696562   -3.4450877   -1.9026243    0.1314329   -3.4450877    1.5424634   584806 
 6620000    1.3686611   -3.4434566   -1.9021613   0.12882284   -3.4434566    1.5412954   584824 
 6621000    1.3677143   -3.4428468   -1.9026808   0.13241719   -3.4428468     1.540166   584848 
 6622000    1.3681306    -3.442471   -1.9018916   0.12761713    -3.442471    1.5405794   584869 
 6623000    1.3701815   -3.4449476   -1.9020773   0.12713484   -3.4449476    1.5428703   584876 
 6624000    1.3696785    -3.444732   -1.9024781   0.13122634    -3.444732    1.5422539   584895 
 6625000     1.371298   -3.4459392   -1.9019385   0.13321227   -3.4459392    1.5440008   584924 
 6626000     1.370426   -3.4436133    -1.900647   0.13693885   -3.4436133    1.5429663   584944 
 6627000    1.3707721   -3.4428844   -1.8995918   0.13956658   -3.4428844    1.5432927   584968 
 6628000    1.3710192   -3.4446773   -1.9011724   0.12685233   -3.4446773    1.5435049   584993 
 6629000    1.3714472   -3.4449593   -1.9010333   0.13233561   -3.4449593     1.543926   585016 
 6630000    1.3704345   -3.4438146   -1.9010682   0.12851843   -3.4438146    1.5427464   585031 
 6631000    1.3704433   -3.4444679   -1.9017511   0.13487441   -3.4444679    1.5427168   585046 
 6632000    1.3705997   -3.4457229    -1.902875   0.13107111   -3.4457229    1.5428479   585063 
 6633000    1.3700405   -3.4455389   -1.9033415   0.13086892   -3.4455389    1.5421974   585071 
 6634000    1.3702185   -3.4458598   -1.9035068   0.13079076   -3.4458598     1.542353   585088 
 6635000    1.3689538   -3.4450865   -1.9042045   0.13163859   -3.4450865     1.540882   585106 
 6636000    1.3702347    -3.447244   -1.9049573   0.12121088    -3.447244    1.5422868   585120 
 6637000    1.3698505   -3.4464862   -1.9046634   0.12949651   -3.4464862    1.5418228   585132 
 6638000    1.3690113   -3.4456031   -1.9047591   0.12956187   -3.4456031     1.540844   585145 
 6639000     1.368835   -3.4466188   -1.9060311   0.12738083   -3.4466188    1.5405877   585167 
 6640000    1.3690021   -3.4465543   -1.9058866   0.13104914   -3.4465543    1.5406677   585208 
 6641000    1.3693833   -3.4460537    -1.905036   0.13430359   -3.4460537    1.5410177   585238 
 6642000    1.3693645   -3.4458734   -1.9049399   0.13100715   -3.4458734    1.5409334   585262 
 6643000    1.3680246   -3.4446463   -1.9052812   0.13652511   -3.4446463    1.5393651   585285 
 6644000    1.3696989   -3.4450691   -1.9038594   0.13300735   -3.4450691    1.5412097   585300 
 6645000    1.3700711   -3.4459176   -1.9043313   0.13082011   -3.4459176    1.5415863   585316 
 6646000    1.3716798   -3.4460473   -1.9027195   0.12877433   -3.4460473    1.5433278   585342 
 6647000    1.3704063   -3.4445763    -1.902734   0.13557821   -3.4445763    1.5418423   585362 
 6648000    1.3705234   -3.4447107   -1.9027946   0.13087985   -3.4447107    1.5419161   585384 
 6649000     1.370833   -3.4444098    -1.902198   0.14011496   -3.4444098    1.5422118   585404 
 6650000    1.3716081   -3.4469172   -1.9039152   0.13028814   -3.4469172     1.543002   585435 
 6651000     1.370631   -3.4471458   -1.9052615   0.13478856   -3.4471458    1.5418843   585442 
 6652000    1.3711096   -3.4466034   -1.9042543   0.13421457   -3.4466034    1.5423491   585470 
 6653000    1.3698008   -3.4457383   -1.9049116   0.13308349   -3.4457383    1.5408267   585489 
 6654000    1.3705736   -3.4477699   -1.9060949   0.13219051   -3.4477699     1.541675   585497 
 6655000    1.3700617   -3.4464449   -1.9054063     0.131482   -3.4464449    1.5410386   585520 
 6656000    1.3703011   -3.4471259   -1.9058364   0.13128047   -3.4471259    1.5412895   585527 
 6657000    1.3681572   -3.4454218   -1.9065727   0.13164993   -3.4454218    1.5388491   585538 
 6658000    1.3700276   -3.4467537   -1.9058508   0.13204054   -3.4467537    1.5409028   585557 
 6659000    1.3702232   -3.4476431   -1.9065597    0.1300813   -3.4476431    1.5410834   585572 
 6660000    1.3692597   -3.4457703   -1.9058074   0.13384561   -3.4457703    1.5399629   585586 
 6661000    1.3695658   -3.4469639   -1.9067277   0.13454366   -3.4469639    1.5402362   585613 
 6662000     1.370887   -3.4484318   -1.9067493   0.13476201   -3.4484318    1.5416825   585628 
 6663000    1.3707843   -3.4485338   -1.9070694   0.13288832   -3.4485338    1.5414644   585667 
 6664000    1.3706267   -3.4486262   -1.9073654   0.13126302   -3.4486262    1.5412608   585677 
 6665000    1.3717076    -3.449681     -1.90726   0.12689225    -3.449681     1.542421   585698 
 6666000     1.370276   -3.4478373   -1.9070708   0.13591116   -3.4478373    1.5407665   585715 
 6667000    1.3721411   -3.4488845   -1.9060735   0.13436985   -3.4488845     1.542811   585735 
 6668000    1.3709815   -3.4470479   -1.9056012   0.13446797   -3.4470479    1.5414467   585758 
 6669000    1.3719938   -3.4488741   -1.9063315   0.13429283   -3.4488741    1.5425427   585774 
 6670000     1.371277   -3.4477993    -1.906131    0.1311939   -3.4477993    1.5416683   585800 
 6671000    1.3716847   -3.4491962   -1.9071195   0.13648158   -3.4491962    1.5420767   585819 
 6672000    1.3695403   -3.4481822   -1.9085372   0.13108602   -3.4481822    1.5396449   585827 
 6673000    1.3702141   -3.4482258   -1.9078498    0.1299206   -3.4482258     1.540376   585837 
 6674000    1.3702814   -3.4493767    -1.908946   0.13355825   -3.4493767    1.5404307   585845 
 6675000    1.3699753   -3.4486041   -1.9085411   0.13151741   -3.4486041     1.540063   585854 
 6676000    1.3707358   -3.4489365   -1.9080608   0.13218578   -3.4489365    1.5408758   585870 
 6677000     1.370377   -3.4480532   -1.9076491   0.13622678   -3.4480532     1.540404   585896 
 6678000    1.3712609   -3.4492287   -1.9078521   0.12642526   -3.4492287    1.5413766   585904 
 6679000    1.3715227   -3.4498476   -1.9082135   0.13072938   -3.4498476    1.5416341   585918 
 6680000    1.3699816   -3.4483047   -1.9084765   0.14087816   -3.4483047    1.5398282   585946 
 6681000    1.3704299   -3.4490476   -1.9087707   0.13352938   -3.4490476    1.5402769   585967 
 6682000    1.3695951   -3.4484237   -1.9091455   0.13223591   -3.4484237    1.5392782   585990 
 6683000    1.3720958   -3.4499791   -1.9079193   0.12798589   -3.4499791    1.5420597   586001 
 6684000    1.3705923     -3.44885   -1.9084957   0.13507007     -3.44885    1.5403543   586007 
 6685000    1.3724837    -3.450725   -1.9082793   0.12708652    -3.450725    1.5424457   586020 
 6686000    1.3724772   -3.4511139   -1.9087018   0.12386855   -3.4511139    1.5424121   586030 
 6687000     1.373064   -3.4509831   -1.9079404   0.12589775   -3.4509831    1.5430426   586041 
 6688000    1.3728273    -3.452103   -1.9093607   0.12932313    -3.452103    1.5427423   586054 
 6689000    1.3723242   -3.4515899   -1.9094262   0.13414715   -3.4515899    1.5421638   586059 
 6690000    1.3718135   -3.4513939   -1.9098329   0.13340041   -3.4513939     1.541561   586070 
 6691000    1.3720236   -3.4508002   -1.9090241   0.13233676   -3.4508002     1.541776   586078 
 6692000    1.3731708   -3.4526396   -1.9096165   0.13116739   -3.4526396    1.5430231   586094 
 6693000    1.3721289   -3.4509818   -1.9091558    0.1352058   -3.4509818    1.5418259   586104 
 6694000    1.3708444   -3.4504152   -1.9100904    0.1336048   -3.4504152    1.5403248   586126 
 6695000    1.3707162   -3.4514188   -1.9112801   0.13115551   -3.4514188    1.5401387   586142 
 6696000    1.3723667   -3.4528662   -1.9109283   0.13238796   -3.4528662    1.5419379   586163 
 6697000    1.3719371   -3.4519514   -1.9105277   0.12491891   -3.4519514    1.5414237   586175 
 6698000    1.3719415   -3.4517866   -1.9103606   0.13721261   -3.4517866     1.541426   586176 
 6699000    1.3718584   -3.4512513   -1.9099291   0.13210946   -3.4512513    1.5413222   586180 
 6700000    1.3714261   -3.4521107   -1.9113163   0.13021342   -3.4521107    1.5407944   586196 
 6701000    1.3730045   -3.4531216   -1.9105854   0.13038362   -3.4531216    1.5425362   586208 
 6702000    1.3729324   -3.4521587   -1.9097641   0.12955877   -3.4521587    1.5423947   586231 
 6703000    1.3717807   -3.4510727   -1.9099877   0.13898892   -3.4510727     1.541085   586237 
 6704000    1.3722695   -3.4518231   -1.9102258    0.1373863   -3.4518231    1.5415973   586251 
 6705000     1.371393   -3.4503032   -1.9097405   0.13627325   -3.4503032    1.5405627   586270 
 6706000    1.3722641   -3.4517302   -1.9102362   0.13516377   -3.4517302     1.541494   586288 
 6707000    1.3709871    -3.451239   -1.9112084   0.12990044    -3.451239    1.5400305   586299 
 6708000    1.3707728   -3.4509801   -1.9112086   0.13426686   -3.4509801    1.5397715   586306 
 6709000    1.3706255   -3.4515057   -1.9119548   0.13191307   -3.4515057    1.5395509   586327 
 6710000    1.3709382   -3.4520393   -1.9121792   0.13515683   -3.4520393    1.5398601   586343 
 6711000    1.3717587   -3.4542858   -1.9135882   0.12509273   -3.4542858    1.5406976   586375 
 6712000    1.3701043    -3.452075   -1.9132645   0.13723228    -3.452075    1.5388105   586386 
 6713000    1.3711572   -3.4523382   -1.9123949   0.13389984   -3.4523382    1.5399433   586405 
 6714000    1.3706627   -3.4520296   -1.9126574   0.13343865   -3.4520296    1.5393721   586411 
 6715000    1.3734199    -3.455792    -1.913368    0.1242901    -3.455792     1.542424   586428 
 6716000    1.3712593   -3.4527354   -1.9128062   0.13707003   -3.4527354    1.5399292   586454 
 6717000    1.3722306   -3.4540143   -1.9130338   0.12667675   -3.4540143    1.5409806   586469 
 6718000    1.3704681   -3.4514355   -1.9124682   0.13686284   -3.4514355    1.5389673   586482 
 6719000    1.3714835   -3.4524796   -1.9124221   0.12983524   -3.4524796    1.5400576   586501 
 6720000    1.3709649   -3.4533681   -1.9139164    0.1364805   -3.4533681    1.5394516   586510 
 6721000    1.3722257   -3.4546056   -1.9137961   0.12854659   -3.4546056    1.5408095   586532 
 6722000    1.3730753   -3.4562668   -1.9145242   0.12459875   -3.4562668    1.5417425   586540 
 6723000    1.3717248   -3.4539991   -1.9138071   0.13137768   -3.4539991     1.540192   586553 
 6724000    1.3712412   -3.4533124   -1.9136818   0.13032473   -3.4533124    1.5396307   586560 
 6725000    1.3732011   -3.4545619   -1.9127649   0.13272507   -3.4545619     1.541797   586573 
 6726000    1.3714667   -3.4522933   -1.9124962   0.13270069   -3.4522933    1.5397971   586593 
 6727000    1.3727719   -3.4541977   -1.9129535   0.13152986   -3.4541977    1.5412442   586600 
 6728000    1.3723604    -3.453605   -1.9128175   0.13476991    -3.453605    1.5407874   586598 
 6729000    1.3733448   -3.4544074   -1.9125331   0.13045926   -3.4544074    1.5418742   586605 
 6730000    1.3723315   -3.4536476   -1.9129845   0.13286225   -3.4536476     1.540663   586633 
 6731000    1.3721422   -3.4547896   -1.9143574   0.13218146   -3.4547896    1.5404322   586640 
 6732000    1.3736083   -3.4550417   -1.9129926   0.12759705   -3.4550417    1.5420491   586651 
 6733000    1.3722641   -3.4549214   -1.9144337   0.13008271   -3.4549214    1.5404877   586671 
 6734000    1.3709341   -3.4531398   -1.9141741   0.12868907   -3.4531398    1.5389657   586682 
 6735000    1.3723077   -3.4553659   -1.9149002   0.13060226   -3.4553659    1.5404657   586698 
 6736000    1.3722397   -3.4548351   -1.9145009   0.13016102   -3.4548351    1.5403342   586719 
 6737000    1.3719319   -3.4540987   -1.9141809    0.1337033   -3.4540987    1.5399178   586746 
 6738000    1.3705931   -3.4528811   -1.9145159   0.13971401   -3.4528811    1.5383652   586765 
 6739000    1.3725759   -3.4553738    -1.914804   0.12879392   -3.4553738    1.5405698   586773 
 6740000    1.3709351   -3.4537759   -1.9150923   0.13136754   -3.4537759    1.5386836   586790 
 6741000    1.3710406   -3.4532757   -1.9145104   0.13459232   -3.4532757    1.5387653   586804 
 6742000    1.3718686   -3.4546444   -1.9149839   0.13263151   -3.4546444    1.5396605   586817 
 6743000    1.3724452    -3.455622   -1.9153722    0.1256495    -3.455622    1.5402499   586839 
 6744000    1.3702601   -3.4528041   -1.9150668   0.13235576   -3.4528041    1.5377373   586862 
 6745000    1.3734366   -3.4567182   -1.9154739   0.12533223   -3.4567182    1.5412442   586884 
 6746000    1.3729805   -3.4564089    -1.915687   0.13429302   -3.4564089     1.540722   586888 
 6747000    1.3728883   -3.4561521   -1.9155861   0.13558828   -3.4561521     1.540566   586908 
 6748000    1.3727066   -3.4559986   -1.9156732   0.13888553   -3.4559986    1.5403254   586922 
 6749000    1.3721568    -3.456483   -1.9167981   0.13207682    -3.456483    1.5396848   586931 
 6750000    1.3715641   -3.4560963   -1.9171028   0.13744913   -3.4560963    1.5389935   586941 
 6751000    1.3720643   -3.4557055   -1.9161639   0.13508204   -3.4557055    1.5395416   586946 
 6752000    1.3716718   -3.4559794   -1.9169017   0.13151103   -3.4559794    1.5390777   586955 
 6753000    1.3709576   -3.4554341   -1.9172128   0.12927196   -3.4554341    1.5382213   586976 
 6754000    1.3715019   -3.4570023   -1.9181756   0.12835085   -3.4570023    1.5388267   586978 
 6755000    1.3721112   -3.4567307   -1.9173016   0.13347371   -3.4567307    1.5394291   587009 
 6756000    1.3717812   -3.4564527   -1.9174332   0.13327728   -3.4564527    1.5390195   587024 
 6757000    1.3719866   -3.4566372   -1.9174371   0.12876351   -3.4566372    1.5392001   587043 
 6758000    1.3715488    -3.454629   -1.9159542   0.13377061    -3.454629    1.5386749   587056 
 6759000    1.3726155   -3.4560002   -1.9161706   0.13345079   -3.4560002    1.5398296   587072 
 6760000    1.3730541   -3.4565644   -1.9162612   0.13413082   -3.4565644    1.5403032   587079 
 6761000    1.3726806   -3.4568409   -1.9170144   0.13413502   -3.4568409    1.5398265   587101 
 6762000    1.3744753   -3.4574111   -1.9156081   0.13007274   -3.4574111     1.541803   587115 
 6763000    1.3720434   -3.4554639   -1.9164072   0.13168606   -3.4554639    1.5390567   587122 
 6764000     1.372937   -3.4565152   -1.9164588   0.13772484   -3.4565152    1.5400564   587123 
 6765000    1.3740728   -3.4583295   -1.9170357   0.12931549   -3.4583295    1.5412938   587137 
 6766000    1.3739447   -3.4574913   -1.9164252   0.13139985   -3.4574913    1.5410661   587169 
 6767000    1.3727284   -3.4551258   -1.9154528   0.13634421   -3.4551258     1.539673   587180 
 6768000    1.3726651   -3.4558969    -1.916329   0.13659688   -3.4558969    1.5395679   587193 
 6769000    1.3751502   -3.4574149   -1.9150965   0.13639234   -3.4574149    1.5423184   587207 
 6770000    1.3730375   -3.4553063   -1.9153915   0.13576788   -3.4553063    1.5399148   587220 
 6771000    1.3746859   -3.4579434   -1.9162507   0.13184084   -3.4579434    1.5416927   587247 
 6772000    1.3742637   -3.4571774   -1.9160291   0.13920131   -3.4571774    1.5411483   587274 
 6773000    1.3743757     -3.45769   -1.9164634   0.13290425     -3.45769    1.5412266   587292 
 6774000    1.3739276    -3.456267   -1.9156084   0.13486756    -3.456267    1.5406586   587317 
 6775000    1.3736623   -3.4553612   -1.9150001   0.13727353   -3.4553612    1.5403611   587317 
 6776000    1.3750311    -3.456872   -1.9150233   0.14046956    -3.456872    1.5418487   587335 
 6777000    1.3746032   -3.4574106    -1.916081   0.13520777   -3.4574106    1.5413296   587350 
 6778000     1.374671    -3.456341   -1.9149827   0.14030216    -3.456341    1.5413584   587368 
 6779000    1.3744564   -3.4563748   -1.9152991   0.13235095   -3.4563748    1.5410757   587384 
 6780000    1.3747952   -3.4571269   -1.9157422   0.13900117   -3.4571269    1.5413847   587411 
 6781000    1.3737223   -3.4568355   -1.9166851   0.13803772   -3.4568355    1.5401504   587423 
 6782000    1.3740306   -3.4567668   -1.9163285   0.13338635   -3.4567668    1.5404383   587445 
 6783000    1.3749643   -3.4583373   -1.9168417   0.12717326   -3.4583373    1.5414956   587441 
 6784000     1.373457   -3.4581934   -1.9183954   0.13568679   -3.4581934    1.5397979   587444 
 6785000    1.3739886   -3.4573141   -1.9169596   0.13318746   -3.4573141    1.5403546   587459 
 6786000     1.375362   -3.4585158    -1.916674   0.13231256   -3.4585158    1.5418418   587479 
 6787000     1.373538   -3.4580383   -1.9182833   0.13152204   -3.4580383     1.539755   587495 
 6788000    1.3737627   -3.4579592   -1.9179837   0.12965159   -3.4579592    1.5399755   587507 
 6789000    1.3726526   -3.4564001   -1.9177397   0.13427507   -3.4564001    1.5386604   587534 
 6790000    1.3737161   -3.4580514   -1.9182277   0.13488128   -3.4580514    1.5398236   587545 
 6791000    1.3741856   -3.4567653   -1.9164914   0.13670455   -3.4567653    1.5402739   587574 
 6792000     1.373597   -3.4576888   -1.9180982   0.13353793   -3.4576888    1.5395906   587583 
 6793000    1.3740029   -3.4591874   -1.9192152   0.13063791   -3.4591874    1.5399722   587611 
 6794000    1.3745362   -3.4600786   -1.9195559   0.13215956   -3.4600786    1.5405227   587629 
 6795000     1.372748   -3.4587516   -1.9202698   0.12989872   -3.4587516    1.5384818   587643 
 6796000    1.3737682   -3.4599685   -1.9203983   0.12911192   -3.4599685    1.5395702   587664 
 6797000    1.3729164    -3.458451   -1.9198878   0.13187771    -3.458451    1.5385632   587684 
 6798000    1.3734072   -3.4597173   -1.9206642   0.13414408   -3.4597173    1.5390531   587707 
 6799000    1.3733921   -3.4601013   -1.9210966    0.1337816   -3.4601013    1.5390047   587719 
 6800000    1.3738902   -3.4600109   -1.9204638   0.12950847   -3.4600109    1.5395471   587725 
 6801000    1.3745488   -3.4597192   -1.9194917   0.13870319   -3.4597192    1.5402275   587747 
 6802000    1.3744888   -3.4606647   -1.9205333   0.13204755   -3.4606647    1.5401315   587758 
 6803000    1.3736307   -3.4595784   -1.9204635   0.14126519   -3.4595784    1.5391149   587779 
 6804000    1.3739937   -3.4615539   -1.9221082   0.13548395   -3.4615539    1.5394457   587808 
 6805000    1.3738156   -3.4596822   -1.9204491   0.13544152   -3.4596822    1.5392331   587813 
 6806000     1.374424   -3.4603266   -1.9204826   0.13254993   -3.4603266     1.539844   587840 
 6807000    1.3761935   -3.4614949   -1.9197314   0.13827577   -3.4614949    1.5417635   587864 
 6808000    1.3751628   -3.4602133   -1.9196412   0.13941531   -3.4602133    1.5405721   587878 
 6809000     1.374105   -3.4605785   -1.9212307   0.13318514   -3.4605785    1.5393478   587893 
 6810000    1.3738662   -3.4611177   -1.9220558   0.13719863   -3.4611177    1.5390619   587900 
 6811000     1.374337   -3.4608941   -1.9213439   0.13200449   -3.4608941    1.5395502   587915 
 6812000    1.3761558   -3.4626819   -1.9211494      0.13343   -3.4626819    1.5415325   587936 
 6813000    1.3755512   -3.4619278   -1.9211407   0.13496895   -3.4619278    1.5407871   587962 
 6814000    1.3736541   -3.4596064   -1.9210096   0.13651748   -3.4596064    1.5385967   587987 
 6815000    1.3748125   -3.4603332   -1.9204521    0.1358719   -3.4603332    1.5398811   587992 
 6816000    1.3751898   -3.4604938   -1.9202608    0.1349254   -3.4604938    1.5402329   588019 
 6817000    1.3758068   -3.4623439   -1.9214566   0.13201174   -3.4623439    1.5408873   588033 
 6818000     1.374332   -3.4610581    -1.921867   0.13793619   -3.4610581    1.5391911   588050 
 6819000    1.3740567   -3.4599512   -1.9211234    0.1345505   -3.4599512    1.5388278   588071 
 6820000    1.3751544   -3.4612356   -1.9212491   0.12444961   -3.4612356    1.5399864   588098 
 6821000     1.375906   -3.4611776   -1.9203784   0.13152534   -3.4611776    1.5407992   588109 
 6822000    1.3767107   -3.4621319   -1.9204577   0.13573623   -3.4621319    1.5416742   588119 
 6823000    1.3756578   -3.4612769    -1.920808   0.13892594   -3.4612769    1.5404689   588129 
 6824000    1.3759233   -3.4628282   -1.9221039   0.13843894   -3.4628282    1.5407243   588145 
 6825000    1.3761691   -3.4633865   -1.9223974   0.13058093   -3.4633865    1.5409891   588149 
 6826000     1.374677   -3.4616679    -1.922402   0.13918126   -3.4616679    1.5392659   588169 
 6827000    1.3767286   -3.4631753    -1.921654   0.13394101   -3.4631753    1.5415213   588185 
 6828000    1.3745266   -3.4609168   -1.9219108   0.13865661   -3.4609168     1.539006   588204 
 6829000    1.3764322   -3.4627537   -1.9216692   0.13422201   -3.4627537    1.5410846   588225 
 6830000    1.3749583   -3.4612049   -1.9217915   0.13762641   -3.4612049    1.5394135   588233 
 6831000    1.3742629   -3.4607706    -1.922175   0.14076712   -3.4607706    1.5385956   588248 
 6832000    1.3746458    -3.461037   -1.9220545   0.13627297    -3.461037    1.5389825   588264 
 6833000    1.3747241   -3.4620488    -1.923018   0.13595184   -3.4620488    1.5390309   588279 
 6834000    1.3752167   -3.4631189   -1.9235653   0.13290109   -3.4631189    1.5395536   588290 
 6835000    1.3759166   -3.4629163   -1.9226315    0.1334669   -3.4629163    1.5402848   588310 
 6836000    1.3752655   -3.4619152   -1.9223724   0.13575926   -3.4619152    1.5395428   588315 
 6837000    1.3761836   -3.4628068   -1.9223122   0.13071443   -3.4628068    1.5404947   588344 
 6838000    1.3745689   -3.4620585   -1.9234315     0.134661   -3.4620585     1.538627   588367 
 6839000    1.3763875   -3.4632291   -1.9225743   0.12979705   -3.4632291    1.5406548   588370 
 6840000    1.3771611   -3.4635021   -1.9220128   0.13526773   -3.4635021    1.5414893   588382 
 6841000    1.3784621   -3.4652519   -1.9223379   0.13762768   -3.4652519     1.542914   588394 
 6842000    1.3771989   -3.4643129   -1.9228573   0.13046976   -3.4643129    1.5414556   588411 
 6843000    1.3775416   -3.4643348   -1.9225428   0.13151125   -3.4643348     1.541792   588429 
 6844000    1.3753463   -3.4621937   -1.9229112   0.14342795   -3.4621937    1.5392826   588449 
 6845000    1.3753938   -3.4626502   -1.9233275   0.13457543   -3.4626502    1.5393227   588454 
 6846000    1.3768552   -3.4635085   -1.9225947   0.13737009   -3.4635085    1.5409138   588471 
 6847000    1.3767296   -3.4638951   -1.9231481   0.13790314   -3.4638951     1.540747   588481 
 6848000    1.3753577   -3.4616053   -1.9224093   0.13317311   -3.4616053     1.539196   588487 
 6849000    1.3779246   -3.4645054   -1.9224734   0.13157961   -3.4645054     1.542032   588501 
 6850000    1.3761844   -3.4629821   -1.9229395   0.13604885   -3.4629821    1.5400426   588517 
 6851000    1.3754607   -3.4617051    -1.922488    0.1371417   -3.4617051    1.5392171   588523 
 6852000    1.3767907   -3.4631924   -1.9225053   0.13509876   -3.4631924    1.5406871   588530 
 6853000    1.3768638   -3.4627522   -1.9220199   0.14068913   -3.4627522    1.5407323   588544 
 6854000    1.3778337   -3.4636175   -1.9218183   0.13471334   -3.4636175    1.5417993   588551 
 6855000    1.3794077   -3.4654223   -1.9218644   0.12996237   -3.4654223    1.5435579   588552 
 6856000    1.3769957   -3.4628365   -1.9220221   0.13415909   -3.4628365    1.5408145   588569 
 6857000    1.3772645   -3.4644557   -1.9234165   0.13083176   -3.4644557    1.5410392   588598 
 6858000    1.3758138   -3.4622735   -1.9228941   0.13620357   -3.4622735    1.5393794   588612 
 6859000    1.3757321   -3.4624905   -1.9232181   0.14125768   -3.4624905    1.5392724   588618 
 6860000     1.375974   -3.4630279   -1.9235399   0.13731898   -3.4630279     1.539488   588639 
 6861000    1.3780557   -3.4654136   -1.9236279   0.12974163   -3.4654136    1.5417857   588651 
 6862000    1.3755317   -3.4627726   -1.9238421   0.13878948   -3.4627726    1.5389305   588663 
 6863000     1.376043   -3.4645061   -1.9250534   0.13051624   -3.4645061    1.5394528   588682 
 6864000     1.374156   -3.4625902   -1.9252537   0.13182852   -3.4625902    1.5373365   588684 
 6865000    1.3756795   -3.4632002   -1.9241775   0.13417784   -3.4632002    1.5390226   588691 
 6866000    1.3753257    -3.462957   -1.9243694   0.13206459    -3.462957    1.5385876   588706 
 6867000    1.3772986   -3.4649469   -1.9242071   0.13326297   -3.4649469    1.5407397   588727 
 6868000    1.3768218   -3.4631632   -1.9230066   0.14207886   -3.4631632    1.5401566   588746 
 6869000    1.3772113   -3.4633597   -1.9228484   0.13722274   -3.4633597    1.5405113   588777 
 6870000    1.3762203   -3.4621549     -1.92276   0.13626925   -3.4621549     1.539395   588780 
 6871000    1.3785761   -3.4651699   -1.9231687   0.13384297   -3.4651699    1.5420012   588791 
 6872000    1.3780181   -3.4645616   -1.9232264   0.13383505   -3.4645616    1.5413351   588807 
 6873000     1.377693    -3.464236    -1.923288   0.13794222    -3.464236     1.540948   588816 
 6874000    1.3765044   -3.4630177   -1.9234384   0.14179455   -3.4630177    1.5395793   588831 
 6875000    1.3769868   -3.4638188   -1.9237313   0.13917929   -3.4638188    1.5400875   588843 
 6876000    1.3772075   -3.4647855   -1.9244773   0.13876976   -3.4647855    1.5403082   588853 
 6877000    1.3773585   -3.4642179   -1.9238115   0.13218529   -3.4642179    1.5404064   588880 
 6878000    1.3774762    -3.464805   -1.9242931   0.13315645    -3.464805    1.5405119   588890 
 6879000    1.3783382   -3.4655218   -1.9241008   0.13601704   -3.4655218     1.541421   588911 
 6880000    1.3778138   -3.4640733   -1.9232963   0.13742999   -3.4640733    1.5407769   588933 
 6881000     1.376101   -3.4637113   -1.9248967   0.13563037   -3.4637113    1.5388146   588951 
 6882000    1.3771911   -3.4640538   -1.9240568   0.13361398   -3.4640538     1.539997   588965 
 6883000    1.3779961   -3.4648284   -1.9239339   0.13263007   -3.4648284    1.5408945   588966 
 6884000    1.3773274   -3.4643457   -1.9242199   0.13883349   -3.4643457    1.5401258   588974 
 6885000    1.3769866   -3.4638797   -1.9241534    0.1380365   -3.4638797    1.5397264   588981 
 6886000    1.3779156   -3.4660855   -1.9253622   0.13552422   -3.4660855    1.5407233   588997 
 6887000    1.3775006   -3.4654842   -1.9252876   0.13600658   -3.4654842    1.5401966   589021 
 6888000    1.3774884   -3.4651744   -1.9250438   0.13960592   -3.4651744    1.5401307   589041 
 6889000    1.3779201   -3.4654898   -1.9249052    0.1363507   -3.4654898    1.5405846   589052 
 6890000    1.3768216   -3.4646806   -1.9253582   0.13988832   -3.4646806    1.5393224   589065 
 6891000     1.378724   -3.4660497   -1.9246083   0.13297356   -3.4660497    1.5414414   589068 
 6892000    1.3779772    -3.466688   -1.9261259   0.12894394    -3.466688     1.540562   589085 
 6893000    1.3762338   -3.4645546   -1.9259834   0.13866134   -3.4645546    1.5385712   589101 
 6894000     1.376316   -3.4649412   -1.9262938   0.13482728   -3.4649412    1.5386474   589107 
 6895000    1.3785912   -3.4676654   -1.9264822   0.13882335   -3.4676654    1.5411831   589110 
 6896000    1.3783236   -3.4672075   -1.9263994   0.13830604   -3.4672075    1.5408081   589139 
 6897000    1.3784329   -3.4674407   -1.9265444   0.13692069   -3.4674407    1.5408963   589152 
 6898000    1.3770001   -3.4658654   -1.9265943   0.13854398   -3.4658654    1.5392711   589161 
 6899000    1.3776177   -3.4670241   -1.9271149   0.13175585   -3.4670241    1.5399092   589181 
 6900000    1.3780596   -3.4676416   -1.9272881   0.13529264   -3.4676416    1.5403535   589200 
 6901000    1.3742906   -3.4646593   -1.9285552   0.13830613   -3.4646593    1.5361041   589214 
 6902000    1.3753084   -3.4657878   -1.9285539   0.13454814   -3.4657878    1.5372339   589217 
 6903000    1.3771667   -3.4676083   -1.9283522   0.13351311   -3.4676083    1.5392561   589238 
 6904000    1.3764246   -3.4674162   -1.9290183   0.14142589   -3.4674162    1.5383979   589249 
 6905000    1.3764292   -3.4669804   -1.9286112   0.13728902   -3.4669804    1.5383692   589262 
 6906000    1.3783247   -3.4687967   -1.9283299   0.12821013   -3.4687967    1.5404668   589270 
 6907000    1.3757589   -3.4669254   -1.9293654   0.14022759   -3.4669254    1.5375601   589285 
 6908000    1.3770782   -3.4678389   -1.9288698   0.13748437   -3.4678389    1.5389692   589310 
 6909000    1.3779674    -3.469165   -1.9292387   0.13516474    -3.469165    1.5399263   589324 
 6910000    1.3768884   -3.4674008   -1.9286907   0.13662845   -3.4674008    1.5387101   589328 
 6911000    1.3766408    -3.467705   -1.9293108   0.13118041    -3.467705    1.5383942   589343 
 6912000    1.3777025   -3.4673809   -1.9278368   0.13593733   -3.4673809    1.5395441   589357 
 6913000    1.3781088   -3.4678939   -1.9279612   0.14202641   -3.4678939    1.5399328   589382 
 6914000    1.3787607   -3.4691205   -1.9285167   0.13170976   -3.4691205    1.5406038   589404 
 6915000    1.3791878    -3.469005   -1.9279606   0.13859278    -3.469005    1.5410444   589418 
 6916000    1.3792697   -3.4689087   -1.9278304   0.13109083   -3.4689087    1.5410784   589440 
 6917000    1.3777582   -3.4665546   -1.9272147   0.13417218   -3.4665546    1.5393399   589459 
 6918000    1.3780008   -3.4670119   -1.9274428   0.13778653   -3.4670119    1.5395691   589475 
 6919000    1.3765897   -3.4658002   -1.9278572   0.13294606   -3.4658002     1.537943   589494 
 6920000     1.378142   -3.4674413   -1.9277928   0.13734816   -3.4674413    1.5396485   589505 
 6921000    1.3787106   -3.4685821   -1.9283427   0.13327281   -3.4685821    1.5402394   589522 
 6922000    1.3775554   -3.4676475   -1.9287299   0.12797168   -3.4676475    1.5389176   589534 
 6923000    1.3787662   -3.4682747   -1.9280072   0.13695716   -3.4682747    1.5402676   589535 
 6924000    1.3782387   -3.4681429   -1.9285116   0.13148333   -3.4681429    1.5396313   589553 
 6925000    1.3761644    -3.466251   -1.9289865   0.13586052    -3.466251    1.5372645   589572 
 6926000    1.3785607   -3.4690318   -1.9291243   0.12876097   -3.4690318    1.5399074   589585 
 6927000    1.3775304   -3.4678311   -1.9291085   0.13582008   -3.4678311    1.5387226   589598 
 6928000    1.3796448   -3.4692557   -1.9281922   0.14057623   -3.4692557    1.5410635   589606 
 6929000    1.3778692   -3.4692501   -1.9302092   0.13194393   -3.4692501    1.5390409   589621 
 6930000    1.3778353    -3.468678   -1.9296984   0.13547572    -3.468678    1.5389796   589630 
 6931000    1.3775654   -3.4684551   -1.9298291   0.13537534   -3.4684551     1.538626   589650 
 6932000     1.377677   -3.4683834   -1.9296563   0.13566713   -3.4683834    1.5387271   589659 
 6933000    1.3770553    -3.468035   -1.9300727   0.13625526    -3.468035    1.5379623   589686 
 6934000    1.3778407   -3.4694881   -1.9306852   0.13477918   -3.4694881     1.538803   589700 
 6935000    1.3775761   -3.4684943   -1.9300077   0.14076608   -3.4684943    1.5384866   589708 
 6936000    1.3775282   -3.4691749    -1.930794   0.13717101   -3.4691749    1.5383809   589728 
 6937000    1.3792828   -3.4709612    -1.930694    0.1360705   -3.4709612    1.5402672   589756 
 6938000    1.3795668    -3.470849   -1.9302803   0.13941739    -3.470849    1.5405687   589762 
 6939000    1.3794848   -3.4717222   -1.9312868   0.13208383   -3.4717222    1.5404353   589778 
 6940000     1.380588   -3.4726944   -1.9310506   0.12977857   -3.4726944    1.5416438   589787 
 6941000    1.3794006   -3.4704295   -1.9301351   0.13657453   -3.4704295    1.5402943   589796 
 6942000    1.3794716   -3.4701276   -1.9298402   0.13324433   -3.4701276    1.5402874   589829 
 6943000    1.3805789   -3.4714447    -1.929947   0.14174644   -3.4714447    1.5414977   589839 
 6944000    1.3794353   -3.4697931   -1.9296166   0.13803666   -3.4697931    1.5401764   589856 
 6945000    1.3782513   -3.4701874   -1.9313669   0.14070916   -3.4701874    1.5388206   589869 
 6946000    1.3786726   -3.4705514   -1.9312944   0.13814666   -3.4705514     1.539257   589882 
 6947000    1.3788599   -3.4699144   -1.9304848    0.1349048   -3.4699144    1.5394296   589896 
 6948000    1.3794463   -3.4709621    -1.930917   0.13982243   -3.4709621    1.5400451   589911 
 6949000    1.3808705   -3.4720517   -1.9304375   0.13699132   -3.4720517    1.5416142   589919 
 6950000    1.3806352    -3.471466   -1.9301354   0.13810345    -3.471466    1.5413306   589927 
 6951000    1.3801791   -3.4713472   -1.9305572   0.13387017   -3.4713472    1.5407901   589939 
 6952000    1.3794154   -3.4705066   -1.9305927   0.13762076   -3.4705066     1.539914   589948 
 6953000    1.3782404   -3.4687664   -1.9302033   0.13931114   -3.4687664    1.5385631   589963 
 6954000    1.3803172   -3.4713178   -1.9304884   0.13310247   -3.4713178    1.5408293   589983 
 6955000    1.3800159   -3.4721041   -1.9316476   0.13223158   -3.4721041    1.5404565   589997 
 6956000    1.3769322   -3.4685718    -1.931581   0.13773101   -3.4685718    1.5369908   590006 
 6957000    1.3779283   -3.4693417   -1.9312703   0.13013983   -3.4693417    1.5380714   590018 
 6958000    1.3775313   -3.4700201   -1.9324206   0.13190321   -3.4700201    1.5375996   590029 
 6959000    1.3775735   -3.4703384   -1.9327074   0.13640674   -3.4703384    1.5376311   590035 
 6960000    1.3779037    -3.469229   -1.9312658    0.1338103    -3.469229    1.5379631   590049 
 6961000    1.3780351   -3.4693431   -1.9312828   0.13383287   -3.4693431    1.5380603   590068 
 6962000    1.3787963   -3.4705443   -1.9316866   0.13836571   -3.4705443    1.5388577   590088 
 6963000    1.3763424   -3.4686928   -1.9325739   0.13742138   -3.4686928    1.5361189   590088 
 6964000    1.3771533   -3.4691128   -1.9320706   0.13822425   -3.4691128    1.5370422   590081 
 6965000    1.3806753    -3.471795   -1.9308741   0.13311574    -3.471795    1.5409209   590101 
 6966000    1.3810202   -3.4720121   -1.9307507   0.14139823   -3.4720121    1.5412613   590118 
 6967000    1.3795158   -3.4714382   -1.9319027    0.1363707   -3.4714382    1.5395355   590136 
 6968000    1.3795844   -3.4720272   -1.9324465   0.13798239   -3.4720272    1.5395807   590148 
 6969000    1.3791523   -3.4716846   -1.9326278   0.13753689   -3.4716846    1.5390568   590164 
 6970000    1.3792489   -3.4715202   -1.9324181   0.13563321   -3.4715202     1.539102   590188 
 6971000    1.3800444   -3.4715104   -1.9315833   0.14048286   -3.4715104    1.5399271   590212 
 6972000    1.3823009   -3.4744336   -1.9320173   0.13504243   -3.4744336    1.5424163   590223 
 6973000    1.3802704     -3.47307   -1.9329298   0.14179459     -3.47307    1.5401402   590227 
 6974000     1.379807   -3.4727839   -1.9332052   0.13062276   -3.4727839    1.5395787   590244 
 6975000    1.3802075   -3.4735443   -1.9335317    0.1304114   -3.4735443    1.5400126   590249 
 6976000     1.376887   -3.4711751   -1.9348961   0.13997033   -3.4711751     1.536279   590260 
 6977000    1.3772737   -3.4718315   -1.9351576    0.1380684   -3.4718315     1.536674   590274 
 6978000    1.3782407    -3.472113    -1.934407   0.13935219    -3.472113     1.537706   590292 
 6979000    1.3785084   -3.4735927   -1.9356166    0.1327288   -3.4735927     1.537976   590303 
 6980000    1.3777849   -3.4730508   -1.9359471   0.13781859   -3.4730508    1.5371037   590328 
 6981000    1.3771738   -3.4722934   -1.9359053   0.13438167   -3.4722934    1.5363881   590341 
 6982000    1.3791117   -3.4728047   -1.9342964   0.13941082   -3.4728047    1.5385083   590357 
 6983000    1.3789567   -3.4722846   -1.9339753   0.13787828   -3.4722846    1.5383094   590367 
 6984000    1.3797551   -3.4738949   -1.9347287   0.13505537   -3.4738949    1.5391662   590380 
 6985000     1.379819   -3.4742498   -1.9350359   0.14038914   -3.4742498    1.5392139   590389 
 6986000     1.380241   -3.4745908   -1.9349661   0.13490182   -3.4745908    1.5396247   590412 
 6987000    1.3797061   -3.4749486   -1.9359388   0.13372903   -3.4749486    1.5390098   590419 
 6988000    1.3811814   -3.4760891   -1.9354649   0.13698336   -3.4760891    1.5406242   590431 
 6989000    1.3793136   -3.4738063   -1.9353099   0.13641053   -3.4738063    1.5384964   590448 
 6990000    1.3809458   -3.4747376   -1.9344544   0.13441859   -3.4747376    1.5402831   590461 
 6991000    1.3804771   -3.4750874   -1.9353819   0.14111702   -3.4750874    1.5397055   590482 
 6992000    1.3795135   -3.4742487   -1.9356544   0.14106473   -3.4742487    1.5385943   590496 
 6993000    1.3811376   -3.4752217   -1.9348759    0.1385868   -3.4752217    1.5403457   590519 
 6994000    1.3829505   -3.4777635   -1.9354507   0.13092372   -3.4777635    1.5423128   590540 
 6995000    1.3807635   -3.4755343   -1.9356788   0.13384895   -3.4755343    1.5398555   590547 
 6996000    1.3805401   -3.4753341   -1.9357773   0.13973192   -3.4753341    1.5395568   590566 
 6997000     1.380271   -3.4758145    -1.936636   0.12564667   -3.4758145    1.5391785   590596 
 6998000    1.3804312   -3.4756124   -1.9362865   0.13226548   -3.4756124    1.5393259   590608 
 6999000    1.3801375   -3.4756456   -1.9366888   0.13613993   -3.4756456    1.5389567   590624 
 7000000    1.3805673   -3.4754571   -1.9360733   0.13566267   -3.4754571    1.5393838   590644 
 7001000     1.377322   -3.4727183   -1.9369972   0.13528312   -3.4727183     1.535721   590661 
 7002000    1.3802285   -3.4748498   -1.9359324   0.13444895   -3.4748498    1.5389174   590678 
 7003000    1.3788468   -3.4744006   -1.9370757   0.13453047   -3.4744006    1.5373249   590698 
 7004000    1.3795988   -3.4741296   -1.9360002   0.13347948   -3.4741296    1.5381294   590711 
 7005000    1.3794748   -3.4737728   -1.9357921   0.14086597   -3.4737728    1.5379807   590715 
 7006000    1.3792861   -3.4741961   -1.9364413   0.13416081   -3.4741961    1.5377548   590721 
 7007000    1.3802788   -3.4754598   -1.9366478   0.13964546   -3.4754598     1.538812   590740 
 7008000    1.3806016   -3.4752012    -1.936058   0.13176149   -3.4752012    1.5391432   590751 
 7009000    1.3807528   -3.4753748   -1.9361125   0.13499508   -3.4753748    1.5392623   590770 
 7010000    1.3808746   -3.4756861   -1.9363245   0.13972014   -3.4756861    1.5393616   590784 
 7011000    1.3820333   -3.4765133   -1.9359199   0.13700017   -3.4765133    1.5405934   590807 
 7012000    1.3795321   -3.4744232   -1.9366726   0.14087234   -3.4744232    1.5377505   590828 
 7013000    1.3803509   -3.4752079   -1.9365916   0.13007553   -3.4752079    1.5386163   590846 
 7014000    1.3802617   -3.4754694   -1.9369759   0.13643089   -3.4754694    1.5384935   590855 
 7015000    1.3791134   -3.4737683   -1.9365939   0.13924284   -3.4737683    1.5371744   590870 
 7016000    1.3802034   -3.4755228   -1.9371829    0.1332311   -3.4755228    1.5383399   590889 
 7017000    1.3804718   -3.4755327   -1.9369067   0.13746955   -3.4755327     1.538626   590894 
 7018000    1.3821917    -3.477602   -1.9370824   0.13314515    -3.477602    1.5405196   590903 
 7019000     1.380339   -3.4755709   -1.9371735   0.14258856   -3.4755709    1.5383974   590925 
 7020000    1.3797815   -3.4760474   -1.9383104   0.13659039   -3.4760474     1.537737   590940 
 7021000    1.3796363   -3.4753601   -1.9378135    0.1371768   -3.4753601    1.5375466   590951 
 7022000    1.3803767   -3.4763822    -1.938021   0.13730984   -3.4763822    1.5383613   590955 
 7023000    1.3792808   -3.4742909   -1.9371874   0.13892482   -3.4742909    1.5371036   590969 
 7024000     1.380856   -3.4758958   -1.9370681   0.13929072   -3.4758958    1.5388278   590981 
 7025000    1.3806413   -3.4756475   -1.9371215   0.13557744   -3.4756475    1.5385259   591005 
 7026000    1.3797052   -3.4743304   -1.9369021   0.13674643   -3.4743304    1.5374283   591026 
 7027000    1.3791294   -3.4744156   -1.9376342   0.13689899   -3.4744156    1.5367814   591028 
 7028000    1.3791379   -3.4738377    -1.937065   0.14326396   -3.4738377    1.5367727   591035 
 7029000    1.3796088   -3.4753937   -1.9381067   0.13782832   -3.4753937     1.537287   591039 
 7030000    1.3787367    -3.474601   -1.9383248   0.13525521    -3.474601    1.5362762   591054 
 7031000    1.3800818   -3.4747895     -1.93703     0.138135   -3.4747895    1.5377594   591060 
 7032000    1.3809353   -3.4755877   -1.9369032   0.13872153   -3.4755877    1.5386844   591070 
 7033000    1.3828357   -3.4764797   -1.9357378   0.13216011   -3.4764797    1.5407419   591093 
 7034000    1.3821979   -3.4756689   -1.9356638   0.13967767   -3.4756689    1.5400052   591103 
 7035000    1.3821533    -3.475614   -1.9356924   0.14258604    -3.475614    1.5399217   591116 
 7036000    1.3833528   -3.4774737   -1.9362313   0.13560026   -3.4774737    1.5412424   591122 
 7037000     1.382484   -3.4762245   -1.9359891   0.13877734   -3.4762245    1.5402354   591137 
 7038000     1.381113   -3.4761748   -1.9375215   0.13403751   -3.4761748    1.5386533   591158 
 7039000    1.3809418   -3.4754176    -1.936981   0.13877795   -3.4754176    1.5384365   591168 
 7040000    1.3811547   -3.4758612   -1.9372395   0.14067104   -3.4758612    1.5386217   591188 
 7041000    1.3821211   -3.4777912   -1.9381424   0.13530126   -3.4777912    1.5396488   591207 
 7042000    1.3820878   -3.4774828   -1.9379181   0.13497882   -3.4774828    1.5395648   591225 
 7043000    1.3802278   -3.4757194   -1.9382966   0.13492449   -3.4757194    1.5374227   591252 
 7044000    1.3829281   -3.4783153    -1.937916   0.13831303   -3.4783153    1.5403993   591264 
 7045000    1.3819076    -3.476702   -1.9374706   0.13695459    -3.476702    1.5392313   591276 
 7046000    1.3833342   -3.4795057   -1.9387323   0.13753854   -3.4795057    1.5407734   591294 
 7047000    1.3829856   -3.4794222   -1.9390917    0.1409264   -3.4794222    1.5403304   591315 
 7048000    1.3821421   -3.4780192   -1.9386751    0.1376318   -3.4780192    1.5393442   591333 
 7049000    1.3834632   -3.4794473   -1.9386709   0.13605591   -3.4794473    1.5407763   591348 
 7050000    1.3825489   -3.4781973   -1.9384991    0.1391786   -3.4781973    1.5396982   591371 
 7051000    1.3827823   -3.4780705   -1.9381384   0.13653437   -3.4780705    1.5399321   591381 
 7052000     1.383143    -3.478516   -1.9382238   0.14077456    -3.478516    1.5402922   591397 
 7053000    1.3839845   -3.4810484   -1.9398634   0.13616049   -3.4810484     1.541185   591414 
 7054000    1.3828205   -3.4793627   -1.9394896   0.13871836   -3.4793627    1.5398731   591420 
 7055000     1.381856   -3.4779849   -1.9392457   0.14225979   -3.4779849    1.5387393   591443 
 7056000    1.3830213   -3.4793177   -1.9393173   0.13691038   -3.4793177    1.5400004   591457 
 7057000    1.3809066   -3.4782168   -1.9406023   0.13971665   -3.4782168    1.5376145   591469 
 7058000    1.3819395   -3.4792816    -1.940556   0.13885326   -3.4792816    1.5387256   591484 
 7059000    1.3830713   -3.4798387   -1.9398867   0.14556503   -3.4798387    1.5399519   591497 
 7060000    1.3833705   -3.4788374    -1.938594   0.13416965   -3.4788374    1.5402434   591513 
 7061000    1.3832896   -3.4789468   -1.9388404    0.1376196   -3.4789468    1.5401065   591531 
 7062000     1.383095   -3.4796419   -1.9397756   0.13512483   -3.4796419    1.5398663   591540 
 7063000    1.3824506   -3.4779903   -1.9388648   0.13618685   -3.4779903    1.5391255   591549 
 7064000    1.3826687   -3.4778944   -1.9385703   0.13506972   -3.4778944    1.5393241   591566 
 7065000    1.3812558   -3.4760569    -1.938363   0.14204249   -3.4760569    1.5376939   591588 
 7066000    1.3829567   -3.4770344   -1.9374756   0.14238638   -3.4770344    1.5395588   591599 
 7067000    1.3848801   -3.4787219   -1.9370583   0.13031949   -3.4787219    1.5416636   591613 
 7068000     1.382907   -3.4776272    -1.938194   0.13695425   -3.4776272    1.5394332   591626 
 7069000    1.3812942   -3.4754733    -1.937851    0.1416184   -3.4754733    1.5376222   591632 
 7070000    1.3816362   -3.4754908   -1.9375294   0.14456392   -3.4754908    1.5379614   591648 
 7071000    1.3843674   -3.4781558   -1.9371958   0.13564458   -3.4781558    1.5409599   591664 
 7072000    1.3837685   -3.4777315   -1.9374746   0.14152415   -3.4777315    1.5402569   591678 
 7073000    1.3845452   -3.4784483   -1.9373582   0.14471054   -3.4784483    1.5410902   591690 
 7074000    1.3834911   -3.4774963   -1.9376029   0.13871698   -3.4774963    1.5398935   591699 
 7075000    1.3834458   -3.4778737   -1.9380905   0.13625455   -3.4778737    1.5397832   591722 
 7076000    1.3841409   -3.4786312   -1.9381186   0.14215398   -3.4786312    1.5405125   591739 
 7077000    1.3851009    -3.479897   -1.9383551   0.13635685    -3.479897    1.5415419   591754 
 7078000     1.383579    -3.479853   -1.9400465   0.13841605    -3.479853    1.5398065   591770 
 7079000    1.3823339   -3.4787418   -1.9403625   0.13712302   -3.4787418    1.5383792   591786 
 7080000    1.3843273   -3.4808693   -1.9403186   0.13422891   -3.4808693    1.5405507   591804 
 7081000     1.382801   -3.4798413   -1.9410463   0.13846345   -3.4798413     1.538795   591826 
 7082000    1.3842805   -3.4808602     -1.94045   0.14026094   -3.4808602    1.5404102   591838 
 7083000     1.384307   -3.4811772   -1.9407713   0.13728402   -3.4811772    1.5404059   591851 
 7084000    1.3820933   -3.4792728    -1.941364   0.13601186   -3.4792728    1.5379087   591864 
 7085000    1.3830831   -3.4797488   -1.9408011   0.13935605   -3.4797488    1.5389477   591888 
 7086000     1.383669   -3.4796609   -1.9400951   0.13414187   -3.4796609    1.5395658   591901 
 7087000    1.3838961   -3.4804536   -1.9406715   0.14554606   -3.4804536    1.5397821   591915 
 7088000    1.3831445   -3.4809708   -1.9420457   0.13522748   -3.4809708    1.5389251   591923 
 7089000    1.3817722   -3.4791454   -1.9417836   0.14406066   -3.4791454    1.5373619   591937 
 7090000    1.3823829   -3.4809013   -1.9428912   0.13736673   -3.4809013    1.5380101   591949 
 7091000    1.3832191   -3.4810639   -1.9421858     0.136874   -3.4810639    1.5388781   591973 
 7092000    1.3861933   -3.4850139   -1.9428712   0.13077048   -3.4850139    1.5421426   591990 
 7093000    1.3814152   -3.4814378   -1.9446367     0.139358   -3.4814378    1.5368011   592000 
 7094000    1.3834604   -3.4816405    -1.942585    0.1311407   -3.4816405    1.5390555   592008 
 7095000    1.3820536   -3.4801919   -1.9427118   0.13592039   -3.4801919    1.5374801   592012 
 7096000    1.3804442   -3.4787536   -1.9430898   0.14137269   -3.4787536    1.5356638   592022 
 7097000    1.3824749   -3.4809178    -1.943021   0.13734341   -3.4809178    1.5378968   592032 
 7098000    1.3841443   -3.4829352   -1.9432254   0.13854971   -3.4829352    1.5397097   592049 
 7099000    1.3839762   -3.4823739   -1.9428642   0.14066648   -3.4823739    1.5395098   592054 
 7100000     1.381617   -3.4801528   -1.9433245   0.14136369   -3.4801528    1.5368283   592076 
 7101000    1.3832086    -3.481116   -1.9425797   0.14012605    -3.481116    1.5385363   592100 
 7102000    1.3833445    -3.480823   -1.9421797   0.13737609    -3.480823    1.5386433   592117 
 7103000     1.383429   -3.4807311    -1.942012   0.13564702   -3.4807311    1.5387191   592124 
 7104000     1.384311   -3.4813924   -1.9417053   0.13561358   -3.4813924    1.5396871   592129 
 7105000    1.3836526    -3.480257   -1.9413074   0.13963907    -3.480257    1.5389496   592131 
 7106000     1.385015   -3.4817807   -1.9413522   0.14367859   -3.4817807    1.5404285   592145 
 7107000    1.3829857   -3.4795503   -1.9413815   0.13907679   -3.4795503    1.5381689   592146 
 7108000    1.3836539   -3.4807839   -1.9418952   0.13894078   -3.4807839    1.5388887   592155 
 7109000    1.3821989   -3.4805679    -1.943326   0.13866964   -3.4805679    1.5372419   592166 
 7110000    1.3838048   -3.4816099   -1.9426105   0.14098993   -3.4816099    1.5389994   592177 
 7111000    1.3838905   -3.4819482   -1.9428926   0.14054085   -3.4819482    1.5390556   592192 
 7112000    1.3816732   -3.4808756   -1.9443118    0.1412792   -3.4808756    1.5365638   592202 
 7113000    1.3825614   -3.4816337   -1.9441082    0.1409897   -3.4816337    1.5375256   592212 
 7114000    1.3828966   -3.4807993   -1.9429529   0.13768286   -3.4807993    1.5378464   592232 
 7115000    1.3839198   -3.4819876   -1.9430735   0.14002829   -3.4819876    1.5389141   592259 
 7116000    1.3822728   -3.4803949   -1.9433201   0.14075263   -3.4803949    1.5370748   592262 
 7117000    1.3839694   -3.4815264   -1.9426272   0.13780203   -3.4815264    1.5388992   592286 
 7118000    1.3837635   -3.4816695   -1.9430435   0.13974566   -3.4816695     1.538626   592303 
 7119000    1.3832889   -3.4825947   -1.9445198   0.13284018   -3.4825947    1.5380749   592312 
 7120000    1.3823072   -3.4823196   -1.9453518     0.142013   -3.4823196    1.5369678   592318 
 7121000    1.3843252   -3.4846341   -1.9454719   0.13783586   -3.4846341    1.5391623   592337 
 7122000      1.38472   -3.4849336   -1.9453532   0.14068216   -3.4849336    1.5395804   592345 
 7123000    1.3822024   -3.4834625   -1.9467332   0.14261268   -3.4834625    1.5367293   592365 
 7124000    1.3828372   -3.4844852   -1.9470839   0.14414382   -3.4844852    1.5374014   592378 
 7125000     1.383682   -3.4857029    -1.947383   0.13410189   -3.4857029    1.5383199   592386 
 7126000    1.3832596   -3.4842271   -1.9464184   0.14191177   -3.4842271    1.5378087   592402 
 7127000    1.3841523   -3.4858077   -1.9470533   0.13631426   -3.4858077    1.5387544   592420 
 7128000    1.3834114       -3.485   -1.9471291   0.13719046       -3.485     1.537871   592443 
 7129000    1.3842056   -3.4855731   -1.9468894   0.14052088   -3.4855731    1.5386837   592470 
 7130000    1.3850811   -3.4848675   -1.9452262   0.14039599   -3.4848675    1.5396413   592476 
 7131000    1.3845848   -3.4847784   -1.9457303   0.13891971   -3.4847784    1.5390481   592492 
 7132000    1.3835419   -3.4835711   -1.9457263   0.14484182   -3.4835711    1.5378448   592509 
 7133000    1.3824569   -3.4822374   -1.9456453   0.14388486   -3.4822374    1.5365921   592527 
 7134000     1.383625   -3.4832036   -1.9453547   0.14051226   -3.4832036    1.5378489   592543 
 7135000    1.3830262   -3.4828094   -1.9456598   0.14275906   -3.4828094    1.5371496   592556 
 7136000     1.384916   -3.4857043    -1.946475    0.1373923   -3.4857043    1.5392292   592564 
 7137000    1.3839095   -3.4842435   -1.9461564    0.1402967   -3.4842435    1.5380872   592573 
 7138000    1.3825737   -3.4818522   -1.9453041   0.14261508   -3.4818522    1.5365481   592594 
 7139000    1.3851161   -3.4849728   -1.9456277   0.13637835   -3.4849728    1.5393451   592605 
 7140000     1.384243   -3.4824319   -1.9440571   0.13691476   -3.4824319    1.5383748   592605 
 7141000    1.3825639   -3.4816518   -1.9451845   0.13685483   -3.4816518    1.5364672   592621 
 7142000    1.3836657   -3.4825576   -1.9448892   0.13768977   -3.4825576    1.5376683   592630 
 7143000    1.3838609   -3.4832892   -1.9454558   0.13925805   -3.4832892    1.5378334   592650 
 7144000    1.3832268   -3.4820684    -1.944963   0.13813618   -3.4820684    1.5371054   592659 
 7145000    1.3839158   -3.4838851   -1.9460557   0.13454676   -3.4838851    1.5378295   592675 
 7146000    1.3832722   -3.4836713   -1.9465908   0.13998032   -3.4836713    1.5370806   592688 
 7147000    1.3841329   -3.4839755   -1.9459695   0.14133157   -3.4839755    1.5380059   592700 
 7148000    1.3847754   -3.4845377   -1.9458309   0.13471024   -3.4845377    1.5387068   592705 
 7149000    1.3828462    -3.482066   -1.9455028   0.13990076    -3.482066    1.5365632   592705 
 7150000    1.3842892   -3.4843054   -1.9461596   0.14028943   -3.4843054    1.5381458   592713 
 7151000    1.3832989   -3.4839623   -1.9469402   0.14036655   -3.4839623    1.5370221   592722 
 7152000    1.3844869   -3.4851454   -1.9468422   0.14171476   -3.4851454    1.5383032   592737 
 7153000    1.3847725   -3.4863316   -1.9477578   0.14004224   -3.4863316    1.5385738   592755 
 7154000    1.3845129   -3.4864189   -1.9481725   0.13982397   -3.4864189    1.5382464   592770 
 7155000     1.383755   -3.4850127   -1.9476446   0.13896785   -3.4850127    1.5373681   592784 
 7156000    1.3829373   -3.4850316   -1.9486446   0.14000226   -3.4850316    1.5363871   592812 
 7157000    1.3842319   -3.4857257   -1.9479082   0.13939793   -3.4857257    1.5378175   592815 
 7158000    1.3850477    -3.486775   -1.9481135   0.14523398    -3.486775    1.5386615   592839 
 7159000    1.3848539   -3.4863267   -1.9479142   0.13815502   -3.4863267    1.5384125   592852 
 7160000    1.3837019   -3.4857545   -1.9486788   0.13931669   -3.4857545    1.5370757   592874 
 7161000    1.3852939   -3.4877857   -1.9489934   0.13780675   -3.4877857    1.5387923   592894 
 7162000     1.384553   -3.4870818   -1.9491385   0.14048815   -3.4870818    1.5379434   592904 
 7163000    1.3849634   -3.4879991   -1.9496362   0.13360445   -3.4879991    1.5383629   592918 
 7164000    1.3851325   -3.4881074   -1.9495774   0.13540401   -3.4881074      1.53853   592926 
 7165000    1.3851709    -3.488293   -1.9497567   0.12889449    -3.488293    1.5385363   592940 
 7166000    1.3844252   -3.4869875   -1.9493262   0.13773478   -3.4869875    1.5376614   592958 
 7167000    1.3832895   -3.4856386   -1.9492646   0.13930131   -3.4856386     1.536374   592968 
 7168000    1.3830844   -3.4860433   -1.9499671   0.13841944   -3.4860433    1.5360762   592995 
 7169000     1.384608   -3.4858199   -1.9481188   0.13288506   -3.4858199     1.537701   593021 
 7170000    1.3847545   -3.4857743    -1.947947   0.14148502   -3.4857743    1.5378273   593035 
 7171000    1.3833073   -3.4860021   -1.9498362   0.13805968   -3.4860021    1.5361659   593056 
 7172000    1.3841475   -3.4864776   -1.9494177   0.13358117   -3.4864776    1.5370599   593071 
 7173000    1.3837543   -3.4866137   -1.9500448   0.14068356   -3.4866137    1.5365689   593092 
 7174000    1.3858447   -3.4882239   -1.9493674   0.13315008   -3.4882239    1.5388565   593105 
 7175000    1.3855353   -3.4866017   -1.9481355   0.13984042   -3.4866017    1.5384662   593123 
 7176000    1.3866504   -3.4873864   -1.9477287   0.13551197   -3.4873864    1.5396576   593141 
 7177000    1.3850415   -3.4855774   -1.9477322   0.14950451   -3.4855774    1.5378453   593151 
 7178000    1.3848723   -3.4854825    -1.947864   0.14206866   -3.4854825    1.5376185   593166 
 7179000    1.3849755   -3.4863877   -1.9486856   0.13675212   -3.4863877    1.5377021   593178 
 7180000    1.3857969   -3.4874305   -1.9488346    0.1407829   -3.4874305    1.5385959   593185 
 7181000    1.3862372   -3.4880712   -1.9489969   0.13737362   -3.4880712    1.5390743   593189 
 7182000    1.3862382   -3.4888115   -1.9497931   0.13584414   -3.4888115    1.5390184   593211 
 7183000    1.3848484   -3.4878031   -1.9503848   0.13683822   -3.4878031    1.5374183   593233 
 7184000    1.3855365   -3.4880949   -1.9499542   0.13599053   -3.4880949    1.5381408   593249 
 7185000    1.3846056   -3.4871031   -1.9500009    0.1417039   -3.4871031    1.5371022   593251 
 7186000    1.3863039    -3.489056   -1.9500944   0.14016387    -3.489056    1.5389616   593261 
 7187000    1.3862199   -3.4894485   -1.9506191   0.13571535   -3.4894485    1.5388295   593276 
 7188000    1.3832171   -3.4865224   -1.9510263    0.1441188   -3.4865224    1.5354961   593276 
 7189000    1.3842151   -3.4882017   -1.9516082   0.13369327   -3.4882017    1.5365935   593280 
 7190000    1.3838073   -3.4881752   -1.9520525   0.13661163   -3.4881752    1.5361227   593287 
 7191000    1.3845866   -3.4887643   -1.9518283   0.13464784   -3.4887643     1.536936   593307 
 7192000    1.3836436   -3.4884677   -1.9526173   0.13425119   -3.4884677    1.5358504   593322 
 7193000    1.3834467   -3.4875929   -1.9520129   0.14119983   -3.4875929      1.53558   593342 
 7194000    1.3846747    -3.489541   -1.9526393   0.13886838    -3.489541    1.5369017   593358 
 7195000    1.3820454   -3.4873847   -1.9534169   0.14169415   -3.4873847    1.5339678   593364 
 7196000    1.3840622   -3.4900018   -1.9538162   0.13161552   -3.4900018    1.5361856   593372 
 7197000    1.3836084   -3.4894467   -1.9538113   0.13921217   -3.4894467    1.5356353   593390 
 7198000    1.3839299   -3.4883048   -1.9523462   0.14180407   -3.4883048    1.5359585   593403 
 7199000    1.3854492   -3.4892415   -1.9516331   0.13593432   -3.4892415    1.5376084   593417 
 7200000    1.3855529   -3.4889681   -1.9512886   0.13939762   -3.4889681    1.5376795   593434 
 7201000    1.3852001   -3.4888554   -1.9516193   0.13175359   -3.4888554    1.5372361   593454 
 7202000     1.384414   -3.4880166   -1.9516761   0.13644623   -3.4880166    1.5363405   593463 
 7203000    1.3845997   -3.4870639   -1.9505381   0.13650978   -3.4870639    1.5365258   593471 
 7204000     1.385638   -3.4883919   -1.9507579   0.13568893   -3.4883919     1.537634   593488 
 7205000    1.3864943   -3.4891144   -1.9505872   0.14078476   -3.4891144    1.5385272   593510 
 7206000     1.387958   -3.4898657   -1.9497739   0.13679088   -3.4898657    1.5400918   593533 
 7207000    1.3888493     -3.49131   -1.9502656   0.13792802     -3.49131    1.5410444   593547 
 7208000    1.3854478   -3.4873268   -1.9500826   0.14578601   -3.4873268    1.5372442   593557 
 7209000    1.3871821   -3.4900736   -1.9509491   0.13514244   -3.4900736    1.5391245   593574 
 7210000    1.3856109   -3.4875104   -1.9501448   0.14620562   -3.4875104    1.5373656   593580 
 7211000    1.3865917   -3.4885549   -1.9501373    0.1449081   -3.4885549    1.5384176   593594 
 7212000    1.3859753   -3.4876462   -1.9499747   0.14722448   -3.4876462    1.5376715   593618 
 7213000     1.388213   -3.4907363   -1.9506314    0.1413849   -3.4907363    1.5401049   593637 
 7214000    1.3876437   -3.4904764   -1.9510524   0.14046735   -3.4904764     1.539424   593656 
 7215000    1.3857939   -3.4883868   -1.9510357   0.14564957   -3.4883868    1.5373511   593664 
 7216000    1.3887912   -3.4919416   -1.9512654   0.13979655   -3.4919416    1.5406762   593664 
 7217000    1.3870606   -3.4896545   -1.9509318   0.14382793   -3.4896545    1.5387227   593677 
 7218000    1.3856808    -3.489411   -1.9522553   0.13869405    -3.489411    1.5371557   593691 
 7219000    1.3849426   -3.4886068   -1.9523191   0.14608415   -3.4886068    1.5362877   593710 
 7220000    1.3864553   -3.4895467   -1.9516147   0.13989206   -3.4895467     1.537932   593723 
 7221000    1.3878786   -3.4914704   -1.9519881   0.13588128   -3.4914704    1.5394823   593734 
 7222000    1.3867523   -3.4906945   -1.9525057   0.13768246   -3.4906945    1.5381889   593751 
 7223000    1.3874017   -3.4902573   -1.9513584   0.14060592   -3.4902573    1.5388988   593755 
 7224000    1.3832319   -3.4871356   -1.9529032   0.14626736   -3.4871356    1.5342323   593771 
 7225000    1.3872744   -3.4917293   -1.9530208   0.13582867   -3.4917293    1.5387084   593774 
 7226000    1.3865834   -3.4908567   -1.9529587   0.13723107   -3.4908567     1.537898   593791 
 7227000    1.3863685   -3.4905265   -1.9528876   0.13843462   -3.4905265    1.5376389   593799 
 7228000    1.3847685   -3.4893112    -1.953465    0.1391631   -3.4893112    1.5358462   593806 
 7229000    1.3849821   -3.4896315   -1.9535924   0.13581955   -3.4896315    1.5360391   593823 
 7230000    1.3850201    -3.490234   -1.9542019   0.13936476    -3.490234    1.5360321   593842 
 7231000    1.3863092   -3.4917955   -1.9543596   0.14164811   -3.4917955    1.5374359   593852 
 7232000    1.3869185   -3.4921398    -1.954036   0.14554589   -3.4921398    1.5381038   593855 
 7233000    1.3857877    -3.490565    -1.953741   0.14964875    -3.490565    1.5368239   593865 
 7234000    1.3867253   -3.4923235    -1.954496   0.13907205   -3.4923235    1.5378274   593879 
 7235000    1.3868636   -3.4924268   -1.9544874   0.13388264   -3.4924268    1.5379393   593895 
 7236000    1.3852675   -3.4904806    -1.954319   0.14210211   -3.4904806    1.5361616   593898 
 7237000    1.3869605    -3.492478   -1.9544959   0.14235113    -3.492478     1.537982   593920 
 7238000    1.3861517   -3.4915774   -1.9545129   0.14079888   -3.4915774    1.5370645   593928 
 7239000    1.3853058   -3.4905059   -1.9544026   0.14234944   -3.4905059    1.5361032   593937 
 7240000    1.3871021   -3.4914783   -1.9533937   0.14013306   -3.4914783    1.5380847   593941 
 7241000    1.3881593   -3.4928213   -1.9536084    0.1397039   -3.4928213    1.5392129   593958 
 7242000    1.3875826   -3.4919673   -1.9534482   0.13827679   -3.4919673    1.5385191   593979 
 7243000    1.3860472   -3.4910575   -1.9542849   0.14859552   -3.4910575    1.5367726   593996 
 7244000    1.3862864   -3.4916353   -1.9546208   0.14228568   -3.4916353    1.5370146   594005 
 7245000    1.3869709    -3.491623   -1.9538909   0.14519425    -3.491623    1.5377321   594021 
 7246000     1.387486   -3.4933417   -1.9550696   0.13713941   -3.4933417    1.5382721   594033 
 7247000    1.3870755   -3.4931798   -1.9554042   0.13656552   -3.4931798    1.5377756   594049 
 7248000    1.3850419   -3.4913936   -1.9559216   0.14035849   -3.4913936    1.5354719   594068 
 7249000    1.3858916    -3.492425   -1.9560577   0.14110624    -3.492425    1.5363673   594086 
 7250000    1.3861088   -3.4921097   -1.9555532   0.14078801   -3.4921097    1.5365565   594106 
 7251000    1.3870913   -3.4936755   -1.9560921   0.14079747   -3.4936755    1.5375834   594130 
 7252000    1.3868043   -3.4931218   -1.9558849   0.13424958   -3.4931218    1.5372369   594141 
 7253000     1.384578   -3.4901288    -1.955383   0.14465339   -3.4901288    1.5347458   594150 
 7254000    1.3868522   -3.4933743    -1.956118   0.13729632   -3.4933743    1.5372563   594154 
 7255000    1.3859344    -3.493248   -1.9570245   0.14273548    -3.493248    1.5362235   594160 
 7256000    1.3866228   -3.4936748   -1.9567374   0.13694912   -3.4936748    1.5369374   594179 
 7257000    1.3872466   -3.4938659   -1.9562604   0.13998729   -3.4938659    1.5376055   594188 
 7258000    1.3866559    -3.492395   -1.9554752   0.13720824    -3.492395    1.5369198   594200 
 7259000    1.3863548   -3.4929678   -1.9564206   0.14151922   -3.4929678    1.5365472   594215 
 7260000    1.3864253   -3.4923682   -1.9557636   0.13386923   -3.4923682    1.5366046   594223 
 7261000    1.3874371   -3.4937755   -1.9560779   0.13744787   -3.4937755    1.5376976   594234 
 7262000    1.3866421   -3.4925901   -1.9558098   0.13630536   -3.4925901    1.5367803   594248 
 7263000    1.3860169   -3.4929284   -1.9568979   0.14216602   -3.4929284    1.5360305   594270 
 7264000    1.3878516   -3.4949358   -1.9568927   0.13844525   -3.4949358    1.5380431   594278 
 7265000    1.3883024   -3.4948311   -1.9563324   0.14160012   -3.4948311    1.5384987   594295 
 7266000    1.3853653    -3.492281   -1.9570527   0.14614264    -3.492281    1.5352283   594301 
 7267000    1.3855106   -3.4932567   -1.9578854   0.14363658   -3.4932567    1.5353713   594308 
 7268000    1.3869652   -3.4948944   -1.9579215   0.14197093   -3.4948944    1.5369729   594312 
 7269000    1.3862017   -3.4939594   -1.9578869   0.14327833   -3.4939594    1.5360725   594333 
 7270000    1.3865053   -3.4946857      -1.9583   0.14121665   -3.4946857    1.5363857   594342 
 7271000    1.3880196   -3.4952811    -1.957246   0.14465924   -3.4952811    1.5380352   594353 
 7272000    1.3871475   -3.4946423   -1.9576096   0.14507739   -3.4946423    1.5370327   594367 
 7273000    1.3877319   -3.4951633   -1.9575141   0.14150048   -3.4951633    1.5376492   594379 
 7274000    1.3860776   -3.4941753   -1.9583696   0.13796169   -3.4941753    1.5358057   594383 
 7275000    1.3843706   -3.4932534     -1.95937   0.14162496   -3.4932534    1.5338834   594395 
 7276000    1.3858111   -3.4947151   -1.9592588   0.13835416   -3.4947151    1.5354563   594404 
 7277000    1.3851726   -3.4945694   -1.9598387   0.14094531   -3.4945694    1.5347307   594411 
 7278000    1.3873319   -3.4957293   -1.9586165   0.13331995   -3.4957293    1.5371128   594415 
 7279000    1.3863692   -3.4947998   -1.9587923   0.14302374   -3.4947998    1.5360074   594430 
 7280000    1.3851748   -3.4949512   -1.9602877   0.13896914   -3.4949512    1.5346634   594438 
 7281000    1.3856649   -3.4962517   -1.9610582   0.13254184   -3.4962517    1.5351935   594443 
 7282000    1.3855781   -3.4956765   -1.9606076    0.1399487   -3.4956765     1.535069   594454 
 7283000    1.3851116   -3.4945041   -1.9599546   0.14385013   -3.4945041    1.5345495   594455 
 7284000    1.3862566   -3.4969956   -1.9612111   0.13311907   -3.4969956    1.5357845   594468 
 7285000    1.3858985   -3.4968243   -1.9614649   0.13609178   -3.4968243    1.5353593   594479 
 7286000    1.3855828   -3.4963556   -1.9613977   0.13991988   -3.4963556     1.534958   594499 
 7287000    1.3843451   -3.4948841   -1.9612998   0.14117363   -3.4948841    1.5335843   594500 
 7288000    1.3858026   -3.4969802   -1.9618355   0.13451672   -3.4969802    1.5351446   594521 
 7289000    1.3857147    -3.495835   -1.9608006   0.13473473    -3.495835    1.5350344   594526 
 7290000      1.38577   -3.4960258   -1.9609819   0.13868675   -3.4960258     1.535044   594546 
 7291000    1.3850563   -3.4959129   -1.9616905   0.13217986   -3.4959129    1.5342224   594558 
 7292000    1.3857063   -3.4959458   -1.9610292   0.13528131   -3.4959458    1.5349167   594568 
 7293000    1.3856739   -3.4957915   -1.9609443   0.14166631   -3.4957915    1.5348472   594581 
 7294000    1.3863951   -3.4961679   -1.9605788   0.13580615   -3.4961679    1.5355892   594603 
 7295000    1.3860482   -3.4954613   -1.9602641   0.13611426   -3.4954613    1.5351972   594606 
 7296000    1.3854191   -3.4952955   -1.9608106   0.14262921   -3.4952955    1.5344849   594612 
 7297000    1.3858946    -3.495666   -1.9606906   0.13973423    -3.495666    1.5349754   594626 
 7298000    1.3853007   -3.4963145   -1.9620175   0.14106125   -3.4963145     1.534297   594634 
 7299000    1.3851208   -3.4953488   -1.9613026   0.14013333   -3.4953488    1.5340462   594654 
 7300000    1.3859393    -3.495339   -1.9604199   0.13995032    -3.495339    1.5349191   594667 
 7301000    1.3859237   -3.4955892   -1.9607053    0.1320835   -3.4955892    1.5348838   594674 
 7302000    1.3856569   -3.4943183   -1.9597325   0.13930071   -3.4943183    1.5345857   594675 
 7303000    1.3847995   -3.4934843   -1.9598713   0.13629575   -3.4934843     1.533613   594684 
 7304000     1.386599   -3.4953174   -1.9597373    0.1383821   -3.4953174    1.5355801   594694 
 7305000     1.386891   -3.4966865    -1.960796   0.14364992   -3.4966865    1.5358905   594699 
 7306000    1.3859908   -3.4958456   -1.9609519   0.13742911   -3.4958456    1.5348936   594699 
 7307000    1.3867353   -3.4967157   -1.9610415   0.13455431   -3.4967157    1.5356742   594716 
 7308000    1.3880498   -3.4970324   -1.9599517   0.13749127   -3.4970324    1.5370807   594735 
 7309000    1.3878517   -3.4969446   -1.9601427   0.13635288   -3.4969446    1.5368019   594758 
 7310000    1.3859969    -3.494985   -1.9602756   0.13645576    -3.494985    1.5347094   594773 
 7311000    1.3871711   -3.4960423   -1.9600922   0.13825693   -3.4960423    1.5359501   594796 
 7312000    1.3871958   -3.4963196   -1.9603576   0.13716233   -3.4963196     1.535962   594802 
 7313000    1.3883294    -3.496534    -1.959353   0.14315417    -3.496534     1.537181   594816 
 7314000    1.3874278   -3.4970767   -1.9609043    0.1352427   -3.4970767    1.5361724   594820 
 7315000     1.387611   -3.4971904   -1.9608513   0.13660818   -3.4971904    1.5363391   594834 
 7316000    1.3854049    -3.494481   -1.9606076    0.1411166    -3.494481    1.5338734   594843 
 7317000    1.3874118   -3.4973878   -1.9613055    0.1372717   -3.4973878    1.5360824   594848 
 7318000    1.3860007   -3.4963206   -1.9618032   0.13957971   -3.4963206    1.5345175   594849 
 7319000    1.3871561    -3.496426   -1.9606422   0.14094897    -3.496426    1.5357838   594854 
 7320000    1.3862036   -3.4959222   -1.9612368   0.13982075   -3.4959222    1.5346854   594871 
 7321000    1.3867679   -3.4972934   -1.9620529    0.1364624   -3.4972934    1.5352405   594898 
 7322000    1.3861267   -3.4973791   -1.9628872   0.14016324   -3.4973791    1.5344919   594913 
 7323000    1.3857897    -3.495952   -1.9618538   0.13840256    -3.495952    1.5340982   594921 
 7324000    1.3872117   -3.4974571   -1.9618235    0.1388628   -3.4974571    1.5356336   594936 
 7325000    1.3861946   -3.4968818   -1.9624127   0.13076155   -3.4968818    1.5344691   594951 
 7326000    1.3860451   -3.4965851   -1.9623048    0.1409865   -3.4965851    1.5342803   594960 
 7327000    1.3872819   -3.4972707   -1.9616445   0.14211547   -3.4972707    1.5356262   594969 
 7328000    1.3873924   -3.4979404    -1.962241   0.13858254   -3.4979404    1.5356994   594988 
 7329000    1.3874174   -3.4973299   -1.9616389   0.13978612   -3.4973299     1.535691   595002 
 7330000    1.3860293   -3.4973007   -1.9631487    0.1385415   -3.4973007     1.534152   595003 
 7331000    1.3864232   -3.4971811   -1.9626446   0.13564169   -3.4971811    1.5345364   595023 
 7332000    1.3869447   -3.4970703   -1.9620134   0.14398689   -3.4970703    1.5350568   595045 
 7333000    1.3882686    -3.498537   -1.9620381   0.14283599    -3.498537    1.5364989   595054 
 7334000     1.387806   -3.4981075   -1.9621903   0.14017124   -3.4981075    1.5359173   595081 
 7335000    1.3881411   -3.4983922   -1.9621274   0.13508387   -3.4983922    1.5362648   595090 
 7336000    1.3878419   -3.4984377   -1.9625323   0.13640478   -3.4984377    1.5359054   595101 
 7337000    1.3863281   -3.4976163   -1.9634429   0.13514004   -3.4976163    1.5341733   595123 
 7338000    1.3847213   -3.4976443   -1.9652929   0.13029322   -3.4976443    1.5323514   595140 
 7339000    1.3855868   -3.4982646   -1.9650018    0.1381998   -3.4982646    1.5332628   595158 
 7340000    1.3845514   -3.4973893   -1.9653057   0.13961444   -3.4973893    1.5320836   595171 
 7341000    1.3858243   -3.4992155    -1.965726   0.14304169   -3.4992155    1.5334895   595172 
 7342000    1.3859097   -3.4982839   -1.9647565   0.14460377   -3.4982839    1.5335273   595194 
 7343000    1.3869452   -3.4998241   -1.9651665   0.14745661   -3.4998241    1.5346576   595200 
 7344000    1.3879837   -3.5006825   -1.9649221   0.13296084   -3.5006825    1.5357604   595218 
 7345000    1.3887521   -3.5004244   -1.9638397   0.14086902   -3.5004244    1.5365847   595228 
 7346000     1.388215   -3.4985776   -1.9626336   0.13823599   -3.4985776     1.535944   595246 
 7347000    1.3894087   -3.5000303   -1.9628173   0.13627117   -3.5000303     1.537213   595266 
 7348000    1.3884607   -3.4986932    -1.962578   0.14325069   -3.4986932    1.5361152   595285 
 7349000    1.3878544   -3.4984815    -1.963081   0.14470243   -3.4984815    1.5354005   595302 
 7350000    1.3878107   -3.4995621   -1.9642769   0.14732313   -3.4995621    1.5352852   595328 
 7351000    1.3886511   -3.5006881   -1.9645119   0.13791498   -3.5006881    1.5361762   595343 
 7352000    1.3897176    -3.500633   -1.9633055   0.14090073    -3.500633    1.5373275   595354 
 7353000    1.3888265   -3.5009633   -1.9646757   0.13535395   -3.5009633    1.5362876   595375 
 7354000      1.38847   -3.5000487   -1.9641993    0.1403625   -3.5000487    1.5358495   595392 
 7355000    1.3864257   -3.4969849   -1.9634302   0.14469983   -3.4969849    1.5335546   595405 
 7356000    1.3883567   -3.4998829   -1.9642413   0.13616916   -3.4998829    1.5356416   595424 
 7357000    1.3881114   -3.4996211   -1.9642843    0.1419138   -3.4996211    1.5353367   595437 
 7358000    1.3867979   -3.4983499   -1.9644917   0.14046526   -3.4983499    1.5338581   595447 
 7359000     1.386728   -3.4996059   -1.9658612   0.13541755   -3.4996059    1.5337448   595461 
 7360000    1.3885955   -3.5001811    -1.964394   0.14183929   -3.5001811    1.5357871   595470 
 7361000    1.3886332    -3.500813   -1.9649998   0.14061313    -3.500813    1.5358132   595476 
 7362000     1.388391   -3.5007922   -1.9652855   0.13883375   -3.5007922    1.5355067   595491 
 7363000    1.3881492   -3.4988671    -1.963651   0.14377762   -3.4988671    1.5352161   595500 
 7364000    1.3880405   -3.4998349   -1.9647906   0.13904226   -3.4998349    1.5350443   595520 
 7365000    1.3885567   -3.5009362   -1.9653443   0.13895065   -3.5009362    1.5355919   595529 
 7366000    1.3879856   -3.5004217   -1.9655179   0.14913094   -3.5004217    1.5349037   595551 
 7367000    1.3871329   -3.4992605   -1.9653461   0.13805788   -3.4992605    1.5339144   595569 
 7368000     1.388859   -3.5006386   -1.9648567   0.14186597   -3.5006386    1.5357819   595585 
 7369000    1.3880367   -3.5012181   -1.9664331   0.14279509   -3.5012181     1.534785   595619 
 7370000     1.387383   -3.5003179   -1.9662686   0.13620238   -3.5003179    1.5340493   595624 
 7371000    1.3878229   -3.4997302   -1.9652512   0.13964588   -3.4997302     1.534479   595646 
 7372000    1.3865102   -3.4989102   -1.9659084   0.14052743   -3.4989102    1.5330019   595656 
 7373000    1.3884221   -3.5000467   -1.9649695   0.14101993   -3.5000467    1.5350771   595671 
 7374000    1.3884135   -3.5001637   -1.9651477   0.14226015   -3.5001637     1.535016   595691 
 7375000    1.3895426   -3.5015077   -1.9652949   0.13896649   -3.5015077    1.5362128   595711 
 7376000    1.3877139   -3.5002367   -1.9660662   0.14130428   -3.5002367    1.5341705   595719 
 7377000    1.3882103   -3.5008186   -1.9661251   0.13389278   -3.5008186    1.5346935   595729 
 7378000    1.3887021   -3.5018791   -1.9666883   0.13979794   -3.5018791    1.5351908   595747 
 7379000    1.3883361   -3.5014674   -1.9667431   0.14568421   -3.5014674    1.5347243   595771 
 7380000    1.3895982   -3.5017395   -1.9656715   0.14580441   -3.5017395     1.536068   595791 
 7381000    1.3889824   -3.5008518     -1.96548   0.13802084   -3.5008518    1.5353718   595797 
 7382000    1.3887323   -3.5002189   -1.9651879   0.14280364   -3.5002189     1.535031   595822 
 7383000    1.3885075   -3.4999733   -1.9652037   0.14255366   -3.4999733    1.5347696   595827 
 7384000    1.3902415   -3.5021132   -1.9654193   0.13454927   -3.5021132     1.536694   595824 
 7385000    1.3880957   -3.4997304   -1.9654417   0.14318331   -3.4997304    1.5342886   595837 
 7386000    1.3899228    -3.501552   -1.9652747   0.13977459    -3.501552    1.5362772   595849 
 7387000     1.390765   -3.5024855   -1.9652954   0.13794797   -3.5024855    1.5371901   595856 
 7388000    1.3898302   -3.5026651    -1.966547   0.14217676   -3.5026651    1.5361182   595871 
 7389000    1.3903354    -3.502866    -1.966223    0.1383047    -3.502866     1.536643   595884 
 7390000    1.3907019   -3.5023601   -1.9653765   0.13967488   -3.5023601    1.5369836   595909 
 7391000    1.3893801   -3.5002676   -1.9647836   0.14396409   -3.5002676    1.5354841   595924 
 7392000    1.3910014    -3.501704   -1.9644849   0.14356419    -3.501704    1.5372191   595946 
 7393000    1.3909446   -3.5019308   -1.9648234   0.14532745   -3.5019308    1.5371073   595965 
 7394000     1.391375   -3.5019458   -1.9643834   0.14644781   -3.5019458    1.5375623   595973 
 7395000    1.3903629   -3.5010513    -1.964646   0.14785938   -3.5010513    1.5364053   595988 
 7396000    1.3913612    -3.501567    -1.964074   0.13624853    -3.501567     1.537493   595994 
 7397000     1.391623   -3.5026064   -1.9648629   0.14445267   -3.5026064    1.5377435   596009 
 7398000     1.390656   -3.5016851   -1.9650669   0.14431151   -3.5016851    1.5366183   596031 
 7399000    1.3899117   -3.5014412   -1.9656968   0.14502904   -3.5014412    1.5357444   596051 
 7400000    1.3902896   -3.5018609   -1.9657145   0.13846146   -3.5018609    1.5361464   596057 
 7401000    1.3903316    -3.501891   -1.9657214   0.14629699    -3.501891    1.5361696   596066 
 7402000    1.3894046   -3.5009939    -1.965864    0.1432787   -3.5009939      1.53513   596072 
 7403000    1.3900034   -3.5020214   -1.9662582   0.13783198   -3.5020214    1.5357632   596083 
 7404000    1.3886316   -3.5018256   -1.9675754    0.1466517   -3.5018256    1.5342501   596082 
 7405000    1.3892409   -3.5032019   -1.9683147    0.1368596   -3.5032019    1.5348872   596096 
 7406000    1.3897659   -3.5041829   -1.9687569    0.1421231   -3.5041829     1.535426   596112 
 7407000    1.3901629    -3.504541   -1.9686943   0.13520325    -3.504541    1.5358467   596119 
 7408000    1.3886997   -3.5034728   -1.9692709   0.14257447   -3.5034728    1.5342018   596130 
 7409000    1.3903658   -3.5049608   -1.9689749   0.14021744   -3.5049608    1.5359858   596152 
 7410000    1.3889083   -3.5028643   -1.9685273   0.14610689   -3.5028643     1.534337   596167 
 7411000    1.3900828   -3.5032605   -1.9676672   0.14282097   -3.5032605    1.5355933   596183 
 7412000    1.3914898    -3.505049     -1.96794   0.14059265    -3.505049     1.537109   596198 
 7413000      1.39049   -3.5032741   -1.9673108    0.1412305   -3.5032741    1.5359633   596214 
 7414000    1.3904673     -3.50374   -1.9678403   0.14327756     -3.50374    1.5358996   596229 
 7415000    1.3925706   -3.5066448   -1.9684659   0.13995643   -3.5066448     1.538179   596246 
 7416000    1.3909522   -3.5042439   -1.9678783   0.14486659   -3.5042439    1.5363656   596256 
 7417000    1.3895237   -3.5025302   -1.9677631   0.14375691   -3.5025302    1.5347671   596264 
 7418000    1.3917076    -3.506459   -1.9693079   0.14214396    -3.506459     1.537151   596275 
 7419000    1.3894872   -3.5042035   -1.9695409   0.13418094   -3.5042035    1.5346625   596289 
 7420000    1.3892899   -3.5037648   -1.9693434   0.13423892   -3.5037648    1.5344215   596298 
 7421000    1.3891903   -3.5047863   -1.9705135   0.13609579   -3.5047863    1.5342728   596313 
 7422000    1.3884198   -3.5033181   -1.9699477   0.14336409   -3.5033181    1.5333704   596333 
 7423000    1.3884903   -3.5039927   -1.9705907   0.13690071   -3.5039927     1.533402   596351 
 7424000    1.3893766   -3.5042622   -1.9699381   0.14073622   -3.5042622    1.5343242   596373 
 7425000    1.3907796   -3.5048238   -1.9689786   0.13546182   -3.5048238    1.5358453   596384 
 7426000     1.392021   -3.5068776    -1.969713   0.13854152   -3.5068776    1.5371646   596404 
 7427000    1.3921083   -3.5063957   -1.9691579   0.14152979   -3.5063957    1.5372378   596413 
 7428000    1.3915616   -3.5049792    -1.968394   0.14441448   -3.5049792    1.5365852   596432 
 7429000    1.3918515   -3.5048913   -1.9680092    0.1457628   -3.5048913     1.536882   596441 
 7430000    1.3921242   -3.5051326   -1.9680164   0.13877577   -3.5051326    1.5371162   596467 
 7431000    1.3911951   -3.5038773    -1.967854   0.14337391   -3.5038773    1.5360233   596493 
 7432000    1.3909975   -3.5043136   -1.9686062   0.14007517   -3.5043136    1.5357073   596531 
 7433000    1.3916853   -3.5054821   -1.9690618   0.13917667   -3.5054821    1.5364204   596549 
 7434000    1.3898651   -3.5041855   -1.9698235   0.15058659   -3.5041855     1.534362   596568 
 7435000    1.3881904   -3.5040543   -1.9715515   0.14650653   -3.5040543    1.5325029   596572 
 7436000     1.390296   -3.5057945   -1.9709877   0.14192717   -3.5057945    1.5348068   596580 
 7437000    1.3908169   -3.5062847   -1.9709465   0.14042541   -3.5062847    1.5353382   596597 
 7438000    1.3924162   -3.5063924   -1.9693248   0.14320389   -3.5063924    1.5370675   596611 
 7439000    1.3914612    -3.505547   -1.9696083   0.14813839    -3.505547    1.5359387   596640 
 7440000     1.392456   -3.5068301   -1.9698423   0.14316558   -3.5068301    1.5369878   596659 
 7441000    1.3919308   -3.5062988   -1.9699037   0.14339922   -3.5062988    1.5363952   596664 
 7442000    1.3909936   -3.5064032   -1.9710888   0.14154759   -3.5064032    1.5353144   596682 
 7443000    1.3908913   -3.5053977     -1.97024    0.1458585   -3.5053977    1.5351578   596699 
 7444000    1.3909189   -3.5069486   -1.9718222   0.14171769   -3.5069486    1.5351265   596723 
 7445000    1.3911228   -3.5073155   -1.9719974   0.14420774   -3.5073155    1.5353181   596736 
 7446000    1.3913946   -3.5068696   -1.9712953   0.14084364   -3.5068696    1.5355743   596753 
 7447000    1.3907458   -3.5067046   -1.9719184    0.1409072   -3.5067046    1.5347862   596781 
 7448000    1.3905438   -3.5055328   -1.9710261   0.14075552   -3.5055328    1.5345067   596803 
 7449000    1.3893756   -3.5052458   -1.9720565   0.14352326   -3.5052458    1.5331894   596814 
 7450000    1.3911875   -3.5066804   -1.9715122   0.14022522   -3.5066804    1.5351682   596822 
 7451000    1.3911908   -3.5074558   -1.9723328   0.13970019   -3.5074558    1.5351231   596841 
 7452000    1.3901475   -3.5062162   -1.9722985   0.14154998   -3.5062162    1.5339178   596862 
 7453000    1.3916837   -3.5075663   -1.9720022   0.14524367   -3.5075663     1.535564   596881 
 7454000    1.3891553    -3.505104   -1.9723582   0.14793322    -3.505104    1.5327459   596892 
 7455000    1.3904036   -3.5061116   -1.9720216   0.14216665   -3.5061116    1.5340899   596905 
 7456000    1.3910346    -3.505929   -1.9711712   0.14245191    -3.505929    1.5347578   596916 
 7457000    1.3915224   -3.5056897   -1.9704118   0.14923133   -3.5056897     1.535278   596923 
 7458000    1.3911464   -3.5052777    -1.970412   0.14861492   -3.5052777    1.5348657   596922 
 7459000    1.3926545   -3.5065621   -1.9700686   0.13968738   -3.5065621    1.5364935   596936 
 7460000    1.3926623   -3.5069814   -1.9704921   0.14025709   -3.5069814    1.5364894   596941 
 7461000    1.3946496   -3.5085279   -1.9698564   0.13894887   -3.5085279    1.5386715   596945 
 7462000    1.3910876   -3.5053476   -1.9706084   0.14506396   -3.5053476    1.5347391   596946 
 7463000    1.3914237   -3.5063661   -1.9712922   0.14666737   -3.5063661    1.5350739   596960 
 7464000    1.3929807   -3.5079038   -1.9711456   0.14453608   -3.5079038    1.5367582   596973 
 7465000    1.3924857   -3.5078538   -1.9716777   0.13655355   -3.5078538    1.5361761   596987 
 7466000    1.3922878   -3.5080362   -1.9721196   0.14201911   -3.5080362    1.5359166   597003 
 7467000     1.391905   -3.5088132   -1.9733652    0.1379875   -3.5088132     1.535448   597021 
 7468000    1.3927989    -3.509362   -1.9729819   0.14087742    -3.509362    1.5363801   597042 
 7469000    1.3911598    -3.507327    -1.972773   0.14840988    -3.507327     1.534554   597049 
 7470000    1.3908247   -3.5073846   -1.9732336   0.14508001   -3.5073846     1.534151   597062 
 7471000    1.3902677   -3.5067255   -1.9732069   0.14861419   -3.5067255    1.5335186   597069 
 7472000    1.3895463   -3.5058925   -1.9732287   0.14193181   -3.5058925    1.5326638   597092 
 7473000    1.3910242   -3.5074256   -1.9731599   0.14146193   -3.5074256    1.5342657   597103 
 7474000    1.3935818   -3.5099156   -1.9728625   0.14439222   -3.5099156    1.5370531   597116 
 7475000     1.393192   -3.5099884   -1.9733754   0.14902253   -3.5099884     1.536613   597120 
 7476000    1.3901679    -3.506664    -1.973407   0.14375439    -3.506664     1.533257   597128 
 7477000    1.3929808    -3.508964   -1.9726483   0.14682581    -3.508964    1.5363157   597145 
 7478000    1.3939625   -3.5110002   -1.9736276   0.14166178   -3.5110002    1.5373726   597155 
 7479000    1.3911636   -3.5080336   -1.9737761   0.14431832   -3.5080336    1.5342575   597166 
 7480000    1.3910813   -3.5083596   -1.9742185   0.14351403   -3.5083596    1.5341411   597176 
 7481000    1.3909144   -3.5078175    -1.973876   0.14523793   -3.5078175    1.5339416   597182 
 7482000    1.3932748   -3.5102091   -1.9736772    0.1389099   -3.5102091    1.5365319   597187 
 7483000    1.3923527   -3.5086966   -1.9732203   0.14420307   -3.5086966    1.5354763   597202 
 7484000    1.3910888   -3.5088479   -1.9747679   0.14508264   -3.5088479      1.53408   597203 
 7485000    1.3905843   -3.5101299    -1.976614   0.13988791   -3.5101299    1.5335159   597206 
 7486000    1.3907562   -3.5092993   -1.9756529   0.14663327   -3.5092993    1.5336464   597229 
 7487000    1.3916232   -3.5103484   -1.9757896   0.14077333   -3.5103484    1.5345588   597246 
 7488000    1.3894965    -3.508504   -1.9763544   0.15002772    -3.508504    1.5321496   597271 
 7489000    1.3910642   -3.5101621   -1.9763173   0.13992256   -3.5101621    1.5338448   597284 
 7490000    1.3922262   -3.5111467   -1.9760823    0.1420154   -3.5111467    1.5350644   597308 
 7491000     1.390449    -3.508479     -1.97541   0.14163322    -3.508479     1.533069   597322 
 7492000    1.3906498   -3.5084737   -1.9752219    0.1448327   -3.5084737    1.5332518   597337 
 7493000    1.3912543   -3.5097428    -1.975863   0.13937393   -3.5097428    1.5338798   597352 
 7494000     1.391784   -3.5100287   -1.9755983   0.14361464   -3.5100287    1.5344304   597365 
 7495000    1.3911858   -3.5098209    -1.976073   0.13551489   -3.5098209    1.5337478   597374 
 7496000    1.3927153    -3.511134   -1.9757154   0.14481003    -3.511134    1.5354186   597380 
 7497000    1.3898687   -3.5082957    -1.976041   0.14671346   -3.5082957    1.5322547   597390 
 7498000    1.3922882   -3.5107541   -1.9758603   0.14634888   -3.5107541    1.5348938   597401 
 7499000    1.3911831   -3.5105616   -1.9769014   0.14841112   -3.5105616    1.5336601   597407 
 7500000    1.3913619   -3.5110832   -1.9772645   0.13954241   -3.5110832    1.5338186   597422 
 7501000    1.3904378   -3.5105997   -1.9778074   0.14536853   -3.5105997    1.5327923   597425 
 7502000     1.391467   -3.5114389   -1.9775402   0.13699608   -3.5114389    1.5338987   597436 
 7503000    1.3910556   -3.5108011   -1.9774047   0.14205057   -3.5108011    1.5333963   597455 
 7504000    1.3909608   -3.5102893   -1.9769975   0.14337967   -3.5102893    1.5332919   597455 
 7505000    1.3915839   -3.5113812    -1.977459   0.13705264   -3.5113812    1.5339222   597477 
 7506000    1.3919758   -3.5111518   -1.9768464   0.14248457   -3.5111518    1.5343054   597496 
 7507000    1.3911818   -3.5111019   -1.9777102   0.14456579   -3.5111019    1.5333917   597511 
 7508000    1.3921794   -3.5122008   -1.9777711   0.14160111   -3.5122008    1.5344297   597535 
 7509000    1.3921778   -3.5125462   -1.9781363     0.141601   -3.5125462    1.5344099   597542 
 7510000      1.39276   -3.5127349   -1.9777089   0.13545802   -3.5127349     1.535026   597552 
 7511000     1.392788   -3.5124407   -1.9774277   0.14417095   -3.5124407    1.5350131   597569 
 7512000    1.3923863   -3.5118587   -1.9773294   0.14341366   -3.5118587    1.5345293   597585 
 7513000    1.3913522    -3.511561   -1.9781892   0.14481397    -3.511561    1.5333717   597592 
 7514000    1.3913854   -3.5116231   -1.9782354   0.14129365   -3.5116231    1.5333877   597600 
 7515000    1.3909327   -3.5113069   -1.9784052   0.14277277   -3.5113069    1.5329016   597595 
 7516000    1.3921772   -3.5123481   -1.9781058   0.14661682   -3.5123481    1.5342423   597607 
 7517000    1.3912472   -3.5111107   -1.9779112   0.14147226   -3.5111107    1.5331995   597614 
 7518000     1.392051   -3.5126135   -1.9785615   0.13937987   -3.5126135     1.534052   597627 
 7519000    1.3916169   -3.5129619   -1.9794371   0.13697561   -3.5129619    1.5335248   597646 
 7520000    1.3913663   -3.5121402   -1.9789121   0.14203679   -3.5121402    1.5332281   597654 
 7521000    1.3915514   -3.5111244   -1.9777077   0.14164487   -3.5111244    1.5334167   597660 
 7522000    1.3921286   -3.5122239   -1.9782378   0.13567808   -3.5122239    1.5339861   597686 
 7523000    1.3912403   -3.5113336   -1.9783469   0.14694388   -3.5113336    1.5329867   597694 
 7524000    1.3904038   -3.5112122   -1.9791856   0.14605116   -3.5112122    1.5320266   597709 
 7525000    1.3934437    -3.512999   -1.9776537   0.13768658    -3.512999    1.5353453   597721 
 7526000    1.3920497   -3.5118947   -1.9781444   0.14011167   -3.5118947    1.5337503   597744 
 7527000    1.3924328   -3.5124734   -1.9783627   0.14418494   -3.5124734    1.5341108   597768 
 7528000    1.3929161    -3.512812   -1.9781893   0.14154584    -3.512812    1.5346227   597776 
 7529000    1.3917604   -3.5111509   -1.9778656    0.1451712   -3.5111509    1.5332853   597801 
 7530000     1.391646   -3.5099266   -1.9768186   0.14121682   -3.5099266     1.533108   597821 
 7531000    1.3940577   -3.5134863   -1.9777626     0.135565   -3.5134863    1.5357237   597837 
 7532000     1.393092   -3.5128442   -1.9782281   0.14128717   -3.5128442    1.5346162   597854 
 7533000    1.3902727   -3.5109484   -1.9794814   0.14358775   -3.5109484     1.531467   597871 
 7534000    1.3908288   -3.5120512   -1.9800177   0.14326276   -3.5120512    1.5320334   597889 
 7535000    1.3916726    -3.513962   -1.9810324   0.14303094    -3.513962    1.5329295   597902 
 7536000    1.3911316   -3.5142841   -1.9819709   0.14294982   -3.5142841    1.5323131   597910 
 7537000    1.3913425   -3.5138821   -1.9813444   0.14247467   -3.5138821    1.5325377   597913 
 7538000    1.3933667   -3.5153114   -1.9805927   0.13580548   -3.5153114    1.5347186   597932 
 7539000    1.3905995   -3.5129601   -1.9813253   0.14401198   -3.5129601    1.5316349   597946 
 7540000    1.3912245   -3.5143263   -1.9820236   0.14418143   -3.5143263    1.5323027   597954 
 7541000    1.3928078   -3.5160061   -1.9820185   0.14619168   -3.5160061    1.5339876   597977 
 7542000    1.3928593   -3.5146754   -1.9806773    0.1445437   -3.5146754    1.5339981   597995 
 7543000     1.391818   -3.5150116   -1.9821936   0.13966065   -3.5150116     1.532818   598008 
 7544000    1.3911279   -3.5138031   -1.9817682   0.14671451   -3.5138031    1.5320349   598017 
 7545000    1.3929977   -3.5158023    -1.981739   0.14207379   -3.5158023    1.5340633   598029 
 7546000    1.3920234   -3.5145344    -1.981562   0.14583991   -3.5145344    1.5329724   598036 
 7547000    1.3903801    -3.514662   -1.9835581   0.13883437    -3.514662    1.5311039   598059 
 7548000    1.3912026   -3.5150838    -1.983105   0.14063291   -3.5150838    1.5319788   598071 
 7549000    1.3897685   -3.5138585   -1.9834845   0.13794846   -3.5138585     1.530374   598081 
 7550000    1.3912882   -3.5158531   -1.9838082   0.13671701   -3.5158531    1.5320449   598082 
 7551000    1.3894365   -3.5143928   -1.9843972   0.14483134   -3.5143928    1.5299957   598086 
 7552000    1.3909131   -3.5143931    -1.982792   0.13667271   -3.5143931    1.5316011   598094 
 7553000    1.3908739   -3.5147374   -1.9832332   0.14437565   -3.5147374    1.5315042   598115 
 7554000    1.3899405   -3.5144167   -1.9840144   0.14114985   -3.5144167    1.5304023   598144 
 7555000    1.3916277   -3.5157088   -1.9834899   0.13650881   -3.5157088     1.532219   598160 
 7556000    1.3910727   -3.5140126   -1.9824304   0.14318111   -3.5140126    1.5315823   598170 
 7557000    1.3918164   -3.5147506   -1.9823674   0.14615667   -3.5147506    1.5323832   598177 
 7558000    1.3928483   -3.5157186   -1.9822455    0.1359607   -3.5157186    1.5334731   598195 
 7559000    1.3928879   -3.5149842   -1.9815085   0.13857626   -3.5149842    1.5334757   598211 
 7560000    1.3934304   -3.5158469   -1.9818278   0.14638174   -3.5158469    1.5340191   598232 
 7561000    1.3939661   -3.5169568   -1.9824197   0.13653062   -3.5169568     1.534537   598260 
 7562000    1.3914287   -3.5146353   -1.9829171   0.14547527   -3.5146353    1.5317182   598270 
 7563000    1.3918008   -3.5157428    -1.983638    0.1418363   -3.5157428    1.5321047   598279 
 7564000    1.3933723   -3.5171002   -1.9832963   0.14105956   -3.5171002    1.5338039   598291 
 7565000    1.3907495   -3.5149412   -1.9840705   0.14499627   -3.5149412    1.5308707   598309 
 7566000    1.3916382   -3.5154789   -1.9836453   0.14120104   -3.5154789    1.5318336   598315 
 7567000     1.392253   -3.5160013   -1.9835115   0.14045685   -3.5160013    1.5324898   598323 
 7568000    1.3927924   -3.5160801    -1.983017   0.14215863   -3.5160801     1.533063   598331 
 7569000    1.3929786   -3.5160798   -1.9828245   0.14346426   -3.5160798    1.5332552   598336 
 7570000    1.3935395   -3.5161248    -1.982242    0.1454567   -3.5161248    1.5338828   598332 
 7571000    1.3944953   -3.5168678   -1.9819714   0.13966409   -3.5168678    1.5348964   598347 
 7572000    1.3927951   -3.5167003   -1.9837188   0.14180149   -3.5167003    1.5329815   598364 
 7573000    1.3924532   -3.5160229   -1.9834664   0.14255776   -3.5160229    1.5325565   598383 
 7574000    1.3964092   -3.5197542   -1.9828847   0.14020403   -3.5197542    1.5368694   598399 
 7575000    1.3940892   -3.5166827   -1.9823846   0.14373928   -3.5166827    1.5342981   598406 
 7576000    1.3923235   -3.5158329   -1.9834909    0.1428045   -3.5158329    1.5323421   598411 
 7577000    1.3923511   -3.5152436   -1.9829071   0.13697896   -3.5152436    1.5323365   598425 
 7578000    1.3919686   -3.5144696    -1.982572   0.14708294   -3.5144696    1.5318977   598432 
 7579000    1.3927032   -3.5154982   -1.9828125   0.14049671   -3.5154982    1.5326857   598440 
 7580000    1.3923963   -3.5162531   -1.9839283   0.14074944   -3.5162531    1.5323248   598449 
 7581000    1.3933852   -3.5172508   -1.9838453   0.14205675   -3.5172508    1.5334055   598452 
 7582000    1.3926523   -3.5160538   -1.9834626   0.14166289   -3.5160538    1.5325912   598455 
 7583000      1.39277   -3.5167602   -1.9840446    0.1379963   -3.5167602    1.5327156   598457 
 7584000    1.3936516   -3.5182257   -1.9845706   0.14154985   -3.5182257    1.5336551   598469 
 7585000    1.3935576   -3.5175572   -1.9840184   0.14197949   -3.5175572    1.5335389   598474 
 7586000    1.3919495   -3.5162412   -1.9845002   0.14487312   -3.5162412     1.531741   598485 
 7587000     1.393285   -3.5165299   -1.9833731   0.14212028   -3.5165299    1.5331568   598506 
 7588000    1.3916139   -3.5150388   -1.9837618   0.14650153   -3.5150388     1.531277   598522 
 7589000    1.3930944   -3.5159668   -1.9830684   0.14547389   -3.5159668    1.5328984   598525 
 7590000    1.3944294   -3.5173977   -1.9830764   0.14295745   -3.5173977    1.5343213   598543 
 7591000    1.3944987   -3.5174862   -1.9831168   0.14223161   -3.5174862    1.5343694   598554 
 7592000    1.3912176   -3.5153128    -1.984569   0.14348916   -3.5153128    1.5307438   598560 
 7593000     1.392756   -3.5162835   -1.9838752   0.14799202   -3.5162835    1.5324083   598571 
 7594000    1.3931992   -3.5166877   -1.9838302   0.14503622   -3.5166877    1.5328575   598586 
 7595000    1.3932892   -3.5178875   -1.9849668   0.14220703   -3.5178875    1.5329207   598600 
 7596000    1.3950253   -3.5190736   -1.9842889   0.14141921   -3.5190736    1.5347847   598618 
 7597000    1.3940654   -3.5160998   -1.9823814   0.14616515   -3.5160998    1.5337183   598622 
 7598000    1.3928138   -3.5152441   -1.9829335   0.15402582   -3.5152441    1.5323106   598634 
 7599000    1.3939084   -3.5163349    -1.982838   0.14159943   -3.5163349    1.5334969   598641 
 7600000    1.3951259   -3.5173459   -1.9825351    0.1400183   -3.5173459    1.5348107   598651 
 7601000    1.3956387   -3.5175473   -1.9821827   0.14104045   -3.5175473    1.5353646   598655 
 7602000    1.3965741   -3.5183149   -1.9819802   0.14563121   -3.5183149    1.5363347   598678 
 7603000    1.3929449   -3.5161595   -1.9838377   0.14746958   -3.5161595    1.5323218   598686 
 7604000     1.394572   -3.5176907   -1.9835892   0.14228049   -3.5176907    1.5341015   598690 
 7605000    1.3953836   -3.5171331   -1.9822082   0.14177406   -3.5171331    1.5349249   598717 
 7606000    1.3947968   -3.5174346   -1.9831781   0.14231953   -3.5174346    1.5342565   598726 
 7607000    1.3929835    -3.516437   -1.9841393   0.14465213    -3.516437    1.5322977   598712 
 7608000    1.3937811   -3.5173676   -1.9842208   0.14488105   -3.5173676    1.5331469   598723 
 7609000    1.3944468   -3.5184773   -1.9846289   0.14440231   -3.5184773    1.5338484   598735 
 7610000    1.3940659   -3.5173907   -1.9839894   0.14695569   -3.5173907    1.5334013   598746 
 7611000     1.395631   -3.5190355   -1.9839358    0.1439312   -3.5190355    1.5350997   598755 
 7612000    1.3949923   -3.5179054   -1.9835261   0.14186652   -3.5179054    1.5343793   598762 
 7613000    1.3925814   -3.5155745    -1.983865   0.14947158   -3.5155745    1.5317095   598769 
 7614000    1.3930454   -3.5168104   -1.9846494   0.14573123   -3.5168104     1.532161   598792 
 7615000    1.3938168   -3.5182169   -1.9852356   0.14286511   -3.5182169    1.5329813   598803 
 7616000    1.3938693   -3.5178546   -1.9848616   0.14603295   -3.5178546     1.532993   598821 
 7617000     1.394198   -3.5177132   -1.9843459   0.14422341   -3.5177132    1.5333673   598816 
 7618000    1.3949278   -3.5176884   -1.9835236   0.14244357   -3.5176884    1.5341648   598818 
 7619000    1.3936949   -3.5159207   -1.9831706   0.14137192   -3.5159207      1.53275   598841 
 7620000    1.3947155   -3.5169674   -1.9830899   0.13991198   -3.5169674    1.5338775   598839 
 7621000    1.3946422   -3.5172922   -1.9835337   0.14718505   -3.5172922    1.5337585   598854 
 7622000    1.3928181    -3.515408   -1.9836914    0.1493651    -3.515408    1.5317166   598868 
 7623000    1.3964056   -3.5185528   -1.9829396   0.14263367   -3.5185528    1.5356132   598887 
 7624000     1.395092   -3.5167363   -1.9825881   0.14845217   -3.5167363    1.5341482   598895 
 7625000    1.3942101   -3.5169719   -1.9838243   0.15044884   -3.5169719    1.5331476   598907 
 7626000    1.3934263   -3.5167568    -1.984512   0.14270826   -3.5167568    1.5322447   598923 
 7627000    1.3942714   -3.5170868   -1.9839459   0.14416522   -3.5170868    1.5331408   598936 
 7628000    1.3952093   -3.5185851   -1.9844155   0.14226237   -3.5185851    1.5341696   598937 
 7629000    1.3949037   -3.5176942    -1.983894   0.14078553   -3.5176942    1.5338002   598950 
 7630000     1.394808   -3.5177325   -1.9840682   0.14719973   -3.5177325    1.5336643   598962 
 7631000    1.3949036   -3.5178897    -1.984128   0.14917569   -3.5178897    1.5337617   598965 
 7632000    1.3936039   -3.5169194   -1.9846073   0.14835767   -3.5169194    1.5323121   598973 
 7633000    1.3938922   -3.5167392     -1.98411   0.14762014   -3.5167392    1.5326291   598973 
 7634000    1.3965243   -3.5196332    -1.984169   0.14721942   -3.5196332    1.5354642   598996 
 7635000     1.395617   -3.5180066   -1.9835656   0.14649127   -3.5180066    1.5344411   599006 
 7636000    1.3954126   -3.5183313   -1.9841355   0.14774921   -3.5183313    1.5341958   599014 
 7637000    1.3947579   -3.5189626   -1.9855019   0.14722035   -3.5189626    1.5334607   599020 
 7638000    1.3952757   -3.5202787   -1.9862845   0.14252818   -3.5202787    1.5339941   599034 
 7639000    1.3948749   -3.5189708   -1.9854481   0.14549384   -3.5189708    1.5335227   599046 
 7640000    1.3954398    -3.519706   -1.9855673   0.13810827    -3.519706    1.5341386   599048 
 7641000    1.3940404   -3.5184068   -1.9858143   0.15014302   -3.5184068    1.5325925   599051 
 7642000    1.3948551   -3.5206221   -1.9871339   0.14546108   -3.5206221    1.5334882   599051 
 7643000    1.3935163   -3.5196529   -1.9876596   0.14469614   -3.5196529    1.5319933   599060 
 7644000    1.3954467   -3.5213084    -1.987221   0.14351175   -3.5213084    1.5340874   599071 
 7645000    1.3949062   -3.5202756   -1.9868311   0.14106462   -3.5202756    1.5334445   599090 
 7646000    1.3937199   -3.5186124   -1.9865078   0.14638466   -3.5186124    1.5321046   599104 
 7647000    1.3948994   -3.5191123   -1.9857367    0.1454216   -3.5191123    1.5333756   599114 
 7648000     1.394463   -3.5196546    -1.986769   0.14614997   -3.5196546    1.5328856   599118 
 7649000    1.3953174   -3.5193403   -1.9855411   0.14640173   -3.5193403    1.5337992   599128 
 7650000    1.3957942   -3.5195339   -1.9852591   0.14836791   -3.5195339    1.5342748   599147 
 7651000    1.3958117    -3.520687   -1.9864263   0.14246252    -3.520687    1.5342607   599160 
 7652000    1.3952356   -3.5206703   -1.9870889   0.14006865   -3.5206703    1.5335814   599178 
 7653000    1.3941024   -3.5196613   -1.9873639   0.14488558   -3.5196613    1.5322975   599193 
 7654000    1.3948433   -3.5198016   -1.9867077   0.14220539   -3.5198016    1.5330939   599200 
 7655000     1.395426    -3.520547   -1.9868408   0.14188751    -3.520547    1.5337062   599211 
 7656000    1.3958523   -3.5200597   -1.9859105   0.13944863   -3.5200597    1.5341491   599221 
 7657000    1.3940334   -3.5176813   -1.9855722   0.15005648   -3.5176813    1.5321091   599237 
 7658000    1.3936266   -3.5167098   -1.9850606   0.14726381   -3.5167098    1.5316492   599242 
 7659000    1.3954318   -3.5188011   -1.9852242   0.14824408   -3.5188011    1.5335769   599264 
 7660000    1.3967321   -3.5193669   -1.9843789   0.14441933   -3.5193669     1.534988   599271 
 7661000    1.3955328   -3.5194386   -1.9857661   0.14991505   -3.5194386    1.5336726   599270 
 7662000    1.3972857   -3.5207813   -1.9852208   0.14474853   -3.5207813    1.5355605   599285 
 7663000    1.3958773   -3.5188389   -1.9848467   0.14891243   -3.5188389    1.5339922   599293 
 7664000     1.395619    -3.519356   -1.9856681   0.14416493    -3.519356    1.5336879   599301 
 7665000     1.393782   -3.5184613   -1.9868279   0.14956984   -3.5184613    1.5316335   599315 
 7666000    1.3965934    -3.520364   -1.9856744   0.14429276    -3.520364    1.5346895   599328 
 7667000     1.395254   -3.5191531   -1.9859609   0.14382587   -3.5191531    1.5331922   599338 
 7668000    1.3947281   -3.5190722   -1.9864758   0.14111903   -3.5190722    1.5325964   599345 
 7669000    1.3952261    -3.520111   -1.9870237   0.14428843    -3.520111    1.5330873   599367 
 7670000    1.3943313   -3.5189749   -1.9869347   0.13897259   -3.5189749    1.5320402   599392 
 7671000    1.3951151   -3.5205085   -1.9876352   0.14125174   -3.5205085    1.5328733   599403 
 7672000    1.3957412   -3.5214278    -1.987887   0.14221965   -3.5214278    1.5335408   599411 
 7673000    1.3959671   -3.5215485   -1.9877979   0.14475725   -3.5215485    1.5337506   599426 
 7674000    1.3948562   -3.5203645   -1.9878652   0.14689192   -3.5203645    1.5324993   599438 
 7675000    1.3957051   -3.5216086   -1.9882048   0.14888745   -3.5216086    1.5334039   599449 
 7676000    1.3967461   -3.5219777   -1.9874378   0.14075163   -3.5219777    1.5345399   599452 
 7677000    1.3960009   -3.5214336   -1.9877508   0.14692553   -3.5214336    1.5336828   599467 
 7678000    1.3959021   -3.5216636   -1.9881405   0.14257794   -3.5216636    1.5335231   599487 
 7679000    1.3976761   -3.5225786   -1.9871425   0.14802123   -3.5225786    1.5354361   599501 
 7680000    1.3955921   -3.5215603   -1.9884519   0.14912766   -3.5215603    1.5331084   599516 
 7681000     1.394914   -3.5210176   -1.9886363   0.14047386   -3.5210176    1.5323814   599509 
 7682000    1.3949642   -3.5210449   -1.9886493   0.14109435   -3.5210449    1.5323956   599525 
 7683000    1.3963844   -3.5213899   -1.9874572   0.14862876   -3.5213899    1.5339327   599534 
 7684000    1.3968455   -3.5213203   -1.9868964   0.14479559   -3.5213203    1.5344239   599540 
 7685000    1.3965842   -3.5218031    -1.987674    0.1434826   -3.5218031    1.5341291   599543 
 7686000     1.396845   -3.5216224   -1.9872553    0.1407703   -3.5216224     1.534367   599562 
 7687000    1.3961214    -3.520564   -1.9870276   0.14974466    -3.520564    1.5335364   599576 
 7688000    1.3965225   -3.5212266   -1.9873111    0.1462083   -3.5212266    1.5339155   599600 
 7689000    1.3981688   -3.5218628   -1.9861467   0.14365947   -3.5218628    1.5357162   599603 
 7690000    1.3982743   -3.5213512   -1.9855422    0.1466741   -3.5213512     1.535809   599612 
 7691000    1.3968302   -3.5195956   -1.9854137   0.14692498   -3.5195956    1.5341818   599628 
 7692000    1.3956968   -3.5208243   -1.9879333   0.14793978   -3.5208243     1.532891   599646 
 7693000    1.3955703    -3.520792   -1.9880629   0.14965138    -3.520792    1.5327291   599655 
 7694000    1.3942071   -3.5202495   -1.9890355   0.14454799   -3.5202495     1.531214   599662 
 7695000    1.3959427   -3.5212727   -1.9881934   0.14390064   -3.5212727    1.5330793   599678 
 7696000     1.395967   -3.5213343   -1.9882692   0.14604824   -3.5213343    1.5330651   599694 
 7697000    1.3959366   -3.5221403   -1.9891623   0.14267799   -3.5221403     1.532978   599715 
 7698000    1.3957007   -3.5216451   -1.9889594   0.14202409   -3.5216451    1.5326857   599728 
 7699000    1.3957363   -3.5223372   -1.9896456   0.14214833   -3.5223372    1.5326916   599741 
 7700000    1.3956914   -3.5212962   -1.9887051   0.14216535   -3.5212962    1.5325912   599761 
 7701000    1.3948881   -3.5211236   -1.9894401   0.13993797   -3.5211236    1.5316835   599771 
 7702000    1.3978744   -3.5235319   -1.9886256   0.14741433   -3.5235319    1.5349063   599793 
 7703000    1.3969331   -3.5226661    -1.988824   0.15046181   -3.5226661    1.5338421   599805 
 7704000      1.39641   -3.5228907   -1.9896511   0.14575334   -3.5228907    1.5332396   599816 
 7705000    1.3959682   -3.5234863    -1.990765   0.14226304   -3.5234863    1.5327213   599829 
 7706000    1.3962402    -3.523293   -1.9903037     0.142974    -3.523293    1.5329893   599841 
 7707000    1.3963579   -3.5227504   -1.9896677   0.14691825   -3.5227504    1.5330827   599855 
 7708000    1.3954798   -3.5222061   -1.9901105   0.14889592   -3.5222061    1.5320956   599864 
 7709000    1.3965826   -3.5230892   -1.9898288   0.14551149   -3.5230892    1.5332604   599882 
 7710000    1.3957632   -3.5219493   -1.9896522   0.14618803   -3.5219493     1.532297   599907 
 7711000     1.398395   -3.5243772    -1.989196   0.14725823   -3.5243772    1.5351812   599909 
 7712000    1.3982513   -3.5241684   -1.9891733   0.14736481   -3.5241684    1.5349952   599920 
 7713000    1.3977398   -3.5236629   -1.9892702   0.14236277   -3.5236629    1.5343927   599936 
 7714000    1.3974688   -3.5233472   -1.9892954   0.14877156   -3.5233472    1.5340518   599953 
 7715000    1.3976025   -3.5238592   -1.9897091   0.14364772   -3.5238592      1.53415   599972 
 7716000    1.3972951   -3.5238587   -1.9900692   0.14234035   -3.5238587    1.5337895   599981 
 7717000    1.3965655   -3.5230444   -1.9900609   0.14014429   -3.5230444    1.5329835   599983 
 7718000    1.3985793   -3.5228661   -1.9877104   0.14816029   -3.5228661    1.5351557   599998 
 7719000    1.3976243   -3.5226632   -1.9886018   0.14256857   -3.5226632    1.5340614   600016 
 7720000    1.3969539   -3.5217518   -1.9884619    0.1422706   -3.5217518    1.5332898   600030 
 7721000    1.3968128    -3.522567   -1.9894704   0.15070128    -3.522567    1.5330966   600045 
 7722000    1.3979057   -3.5230943   -1.9888442   0.14570084   -3.5230943    1.5342501   600063 
 7723000    1.3989197   -3.5234359   -1.9881088   0.14499056   -3.5234359    1.5353272   600077 
 7724000    1.3985518   -3.5224224    -1.987517    0.1459199   -3.5224224    1.5349055   600084 
 7725000    1.3986508   -3.5227669   -1.9877759   0.14733903   -3.5227669    1.5349911   600093 
 7726000    1.3990573   -3.5224745   -1.9870731   0.14841863   -3.5224745    1.5354014   600107 
 7727000    1.3994486   -3.5236462   -1.9878486   0.14470352   -3.5236462    1.5357976   600120 
 7728000    1.4004877   -3.5243063   -1.9874144   0.14846017   -3.5243063    1.5368918   600138 
 7729000    1.3977744   -3.5226023   -1.9887085   0.14359775   -3.5226023    1.5338938   600146 
 7730000     1.398092    -3.522791   -1.9885742   0.14760152    -3.522791    1.5342168   600156 
 7731000    1.3983893   -3.5247958   -1.9902784   0.13505679   -3.5247958    1.5345175   600166 
 7732000    1.3982944   -3.5245273    -1.990137   0.14738429   -3.5245273    1.5343903   600175 
 7733000    1.3966157    -3.522276   -1.9897609    0.1458807    -3.522276     1.532515   600188 
 7734000     1.397763   -3.5239453   -1.9902224   0.14499195   -3.5239453    1.5337229   600208 
 7735000     1.396856    -3.522664   -1.9899466   0.14531561    -3.522664    1.5327175   600212 
 7736000    1.3975716   -3.5233095   -1.9898068   0.15131159   -3.5233095    1.5335027   600212 
 7737000    1.3967755    -3.522263   -1.9896722     0.149003    -3.522263    1.5325908   600227 
 7738000    1.3984809    -3.524499   -1.9900753   0.14700726    -3.524499    1.5344237   600242 
 7739000    1.3979686   -3.5240765   -1.9902533   0.14301003   -3.5240765    1.5338232   600257 
 7740000    1.3964977   -3.5224486   -1.9902519   0.15434522   -3.5224486    1.5321967   600262 
 7741000    1.3978929    -3.523536   -1.9898495   0.15067181    -3.523536    1.5336865   600278 
 7742000    1.3976217   -3.5242899   -1.9909444   0.14467047   -3.5242899    1.5333456   600295 
 7743000    1.4004734   -3.5272808   -1.9908655   0.14257134   -3.5272808    1.5364153   600318 
 7744000    1.3988617   -3.5249715   -1.9903371    0.1439026   -3.5249715    1.5346344   600323 
 7745000    1.3973617   -3.5235431   -1.9905772   0.14911063   -3.5235431    1.5329658   600332 
 7746000    1.3968989   -3.5247314   -1.9923192   0.14596133   -3.5247314    1.5324122   600350 
 7747000    1.3990023   -3.5266222   -1.9919256   0.14170178   -3.5266222    1.5346966   600359 
 7748000    1.3974703   -3.5245181   -1.9915633   0.15128884   -3.5245181    1.5329548   600383 
 7749000    1.3968901   -3.5236435   -1.9913481   0.14982078   -3.5236435    1.5322953   600392 
 7750000    1.3983449   -3.5249312   -1.9910631   0.14335915   -3.5249312    1.5338681   600401 
 7751000    1.3992769   -3.5259336   -1.9910635   0.14809649   -3.5259336    1.5348701   600409 
 7752000    1.3976776   -3.5251894    -1.992089   0.15029259   -3.5251894    1.5331004   600415 
 7753000    1.3970114   -3.5242614   -1.9919044   0.14747266   -3.5242614    1.5323569   600420 
 7754000    1.3986189   -3.5260581   -1.9919482   0.14295813   -3.5260581      1.53411   600424 
 7755000    1.3970509   -3.5243461   -1.9919689   0.15012358   -3.5243461    1.5323772   600429 
 7756000    1.3982311   -3.5258509   -1.9922124   0.14485729   -3.5258509    1.5336386   600442 
 7757000    1.3989425   -3.5255468   -1.9911483   0.14713375   -3.5255468    1.5343985   600450 
 7758000    1.3984899   -3.5249528   -1.9910611   0.15058191   -3.5249528    1.5338918   600454 
 7759000     1.397358   -3.5246175   -1.9920004   0.14877858   -3.5246175    1.5326171   600467 
 7760000    1.3977795   -3.5248678   -1.9918216    0.1477808   -3.5248678    1.5330462   600480 
 7761000     1.398375   -3.5253465    -1.991665   0.14763383   -3.5253465    1.5336815   600487 
 7762000    1.3976007   -3.5253513    -1.992519   0.14592114   -3.5253513    1.5328323   600487 
 7763000    1.3969005   -3.5244906   -1.9924594    0.1436833   -3.5244906    1.5320312   600500 
 7764000    1.3984189   -3.5263139   -1.9926507   0.14803035   -3.5263139    1.5336632   600513 
 7765000    1.3986926   -3.5262816   -1.9923463   0.14360042   -3.5262816    1.5339352   600524 
 7766000    1.3988106   -3.5251081   -1.9910945   0.14880265   -3.5251081    1.5340136   600544 
 7767000    1.3980826   -3.5249044     -1.99173    0.1479711   -3.5249044    1.5331744   600560 
 7768000    1.3987563   -3.5250184   -1.9911589    0.1455652   -3.5250184    1.5338595   600581 
 7769000    1.3983974   -3.5244353   -1.9910025   0.14626111   -3.5244353    1.5334328   600594 
 7770000    1.3975118   -3.5241488   -1.9917075   0.14518603   -3.5241488    1.5324412   600602 
 7771000    1.3989294   -3.5252399   -1.9912722   0.14748786   -3.5252399    1.5339677   600613 
 7772000    1.3987414   -3.5249567   -1.9912335   0.15226638   -3.5249567    1.5337232   600628 
 7773000    1.3978292   -3.5251149   -1.9924327   0.14444915   -3.5251149    1.5326821   600644 
 7774000    1.4012665   -3.5273393   -1.9909164   0.14692024   -3.5273393    1.5364229   600655 
 7775000    1.4000086   -3.5267341   -1.9916981   0.15163026   -3.5267341     1.535036   600658 
 7776000    1.3987246   -3.5259543   -1.9923696   0.15004186   -3.5259543    1.5335847   600675 
 7777000    1.3985051   -3.5263969   -1.9930937   0.14779798   -3.5263969    1.5333033   600691 
 7778000    1.3985819   -3.5264329   -1.9930582   0.14817735   -3.5264329    1.5333748   600696 
 7779000    1.3997267   -3.5290471   -1.9944506   0.14263805   -3.5290471    1.5345966   600709 
 7780000    1.3962537   -3.5261572   -1.9953861   0.14741993   -3.5261572    1.5307711   600716 
 7781000    1.3977769   -3.5272662   -1.9948557   0.14478399   -3.5272662    1.5324105   600728 
 7782000    1.3988974   -3.5287829   -1.9951822   0.14857614   -3.5287829    1.5336007   600743 
 7783000    1.3994711   -3.5290715   -1.9948956   0.14678081   -3.5290715    1.5341759   600764 
 7784000    1.3977005   -3.5280714   -1.9958416   0.15314559   -3.5280714    1.5322298   600766 
 7785000    1.3979973   -3.5288072   -1.9962826   0.14296793   -3.5288072    1.5325246   600778 
 7786000    1.3984464   -3.5294534   -1.9964672   0.14381655   -3.5294534    1.5329862   600790 
 7787000    1.3996139   -3.5306112   -1.9963962   0.14757109   -3.5306112     1.534215   600810 
 7788000    1.3971873   -3.5283083   -1.9968042   0.15122041   -3.5283083    1.5315041   600830 
 7789000    1.3992733   -3.5295654    -1.995808   0.14897637   -3.5295654    1.5337574   600843 
 7790000    1.3975163   -3.5280168   -1.9962005   0.14848839   -3.5280168    1.5318163   600849 
 7791000    1.3983299   -3.5281169   -1.9954141    0.1455283   -3.5281169    1.5327029   600851 
 7792000     1.398482   -3.5294118   -1.9965931   0.14611995   -3.5294118    1.5328187   600871 
 7793000    1.3985332   -3.5295315   -1.9967052   0.14745144   -3.5295315    1.5328263   600890 
 7794000    1.3978039   -3.5286437   -1.9967034   0.14400672   -3.5286437    1.5319402   600924 
 7795000    1.3982439   -3.5295165   -1.9971323   0.14357706   -3.5295165    1.5323842   600939 
 7796000    1.3971894   -3.5283133   -1.9970873    0.1455502   -3.5283133    1.5312261   600940 
 7797000    1.3981608   -3.5288268   -1.9965388   0.14877213   -3.5288268    1.5322881   600941 
 7798000    1.3984709   -3.5287303   -1.9961457   0.14732561   -3.5287303    1.5325846   600958 
 7799000    1.3985943   -3.5286031   -1.9959446   0.14893407   -3.5286031    1.5326585   600982 
 7800000    1.3991464   -3.5300808   -1.9968478   0.14454605   -3.5300808     1.533233   600994 
 7801000    1.3983154   -3.5289546   -1.9966501   0.14949094   -3.5289546    1.5323045   601001 
 7802000    1.3993781   -3.5287659   -1.9953351   0.14406094   -3.5287659    1.5334308   601016 
 7803000    1.3989712   -3.5275056   -1.9945692   0.14606068   -3.5275056    1.5329364   601035 
 7804000    1.3986814   -3.5277156   -1.9951451   0.15317155   -3.5277156    1.5325705   601054 
 7805000    1.3995673   -3.5283529   -1.9948399   0.15062983   -3.5283529     1.533513   601065 
 7806000    1.4006835   -3.5295232   -1.9948024     0.150784   -3.5295232    1.5347208   601071 
 7807000    1.4009299   -3.5302386   -1.9952735   0.14224218   -3.5302386    1.5349652   601081 
 7808000    1.3984284   -3.5279257   -1.9957524   0.15187779   -3.5279257    1.5321733   601101 
 7809000    1.3993075   -3.5291645   -1.9960458   0.15392245   -3.5291645    1.5331187   601108 
 7810000     1.398793   -3.5281759   -1.9956617   0.15099425   -3.5281759    1.5325143   601124 
 7811000    1.4000906     -3.52894   -1.9950551   0.15220317     -3.52894    1.5338849   601144 
 7812000    1.4017279   -3.5306669   -1.9950342   0.14829563   -3.5306669    1.5356327   601162 
 7813000    1.3994683   -3.5274016   -1.9942903   0.14797239   -3.5274016    1.5331113   601180 
 7814000    1.3992556   -3.5283298   -1.9954592   0.15018467   -3.5283298    1.5328706   601183 
 7815000    1.4006341   -3.5298391    -1.995489   0.14689147   -3.5298391    1.5343501   601195 
 7816000    1.3996909   -3.5284064   -1.9951354     0.149293   -3.5284064     1.533271   601213 
 7817000    1.4022047   -3.5310469   -1.9950503   0.14704159   -3.5310469    1.5359965   601224 
 7818000    1.4000625   -3.5293268    -1.995705   0.15171106   -3.5293268    1.5336219   601235 
 7819000    1.4001725   -3.5306481   -1.9969185   0.14391465   -3.5306481    1.5337296   601240 
 7820000     1.400626    -3.531162   -1.9969764   0.14734646    -3.531162    1.5341855   601256 
 7821000    1.4004754   -3.5306784   -1.9966731   0.14768485   -3.5306784    1.5340053   601262 
 7822000    1.3983774   -3.5291809    -1.997499   0.15192234   -3.5291809    1.5316818   601272 
 7823000    1.4008052   -3.5308412   -1.9965232   0.14636759   -3.5308412     1.534318   601281 
 7824000    1.3988374   -3.5289456    -1.996816   0.14938281   -3.5289456    1.5321296   601294 
 7825000    1.4009012    -3.530995   -1.9966688   0.15095189    -3.530995    1.5343263   601319 
 7826000    1.4002269   -3.5310833   -1.9975288   0.14897176   -3.5310833    1.5335546   601332 
 7827000    1.3999067   -3.5302895   -1.9971519   0.14936921   -3.5302895    1.5331376   601358 
 7828000    1.3989848   -3.5299025   -1.9978076   0.14548436   -3.5299025    1.5320948   601371 
 7829000    1.4010514   -3.5313078   -1.9969753   0.14410465   -3.5313078    1.5343325   601381 
 7830000    1.3993178   -3.5305445    -1.998169   0.14832274   -3.5305445    1.5323755   601404 
 7831000    1.3995908   -3.5308019   -1.9981658   0.15320422   -3.5308019    1.5326361   601419 
 7832000    1.4009225   -3.5310971   -1.9970307   0.14478174   -3.5310971    1.5340663   601430 
 7833000    1.4008658   -3.5318379   -1.9978948     0.145656   -3.5318379     1.533943   601454 
 7834000    1.4004089   -3.5312303   -1.9978207   0.14777454   -3.5312303    1.5334096   601467 
 7835000    1.3992651   -3.5310663   -1.9989396    0.1489179   -3.5310663    1.5321267   601479 
 7836000    1.4013104   -3.5314533   -1.9971076   0.14744489   -3.5314533    1.5343457   601487 
 7837000    1.4008491   -3.5313612   -1.9975435   0.14353354   -3.5313612    1.5338177   601496 
 7838000     1.400577   -3.5315936   -1.9981045   0.14471931   -3.5315936    1.5334891   601508 
 7839000    1.3998887   -3.5319812   -1.9993016    0.1481964   -3.5319812    1.5326795   601530 
 7840000    1.3980333   -3.5300003   -1.9994056   0.15168243   -3.5300003    1.5305947   601551 
 7841000    1.3986656   -3.5309589   -1.9997128   0.15025418   -3.5309589    1.5312462   601567 
 7842000    1.3996489   -3.5312427   -1.9989608   0.14614626   -3.5312427     1.532282   601583 
 7843000    1.3987473   -3.5296662   -1.9984172   0.15019402   -3.5296662    1.5312491   601601 
 7844000    1.3989926   -3.5308935    -1.999442   0.14921557   -3.5308935    1.5314514   601627 
 7845000    1.3999477   -3.5326812   -2.0002326   0.14320213   -3.5326812    1.5324486   601646 
 7846000    1.3995072   -3.5312666   -1.9993231   0.15408767   -3.5312666    1.5319435   601655 
 7847000     1.400661   -3.5324736   -1.9993028   0.14435192   -3.5324736    1.5331708   601669 
 7848000    1.4014862   -3.5331435   -1.9990974   0.15180498   -3.5331435     1.534046   601680 
 7849000    1.4005774   -3.5325428   -1.9995247   0.15564894   -3.5325428    1.5330181   601693 
 7850000    1.4017047   -3.5337661   -1.9995523   0.14720641   -3.5337661    1.5342138   601708 
 7851000    1.4013773   -3.5333687   -1.9995719   0.15430908   -3.5333687    1.5337967   601731 
 7852000    1.4003455   -3.5318582   -1.9992365    0.1524202   -3.5318582    1.5326217   601749 
 7853000    1.4020691   -3.5338563   -1.9993763   0.14309924   -3.5338563      1.53448   601760 
 7854000     1.402037   -3.5340555   -1.9996642   0.14406211   -3.5340555    1.5343913   601781 
 7855000    1.4007239   -3.5331111   -2.0002231   0.14700714   -3.5331111     1.532888   601807 
 7856000    1.4007895   -3.5326024   -1.9996732   0.14965059   -3.5326024    1.5329292   601819 
 7857000     1.402124    -3.535152   -2.0007905    0.1444259    -3.535152    1.5343616   601830 
 7858000    1.4009202   -3.5337744   -2.0007709   0.14763809   -3.5337744    1.5330036   601846 
 7859000    1.4012673   -3.5335412    -2.000191   0.15188359   -3.5335412    1.5333503   601859 
 7860000    1.3999801    -3.532606    -2.000705   0.14516584    -3.532606     1.531901   601875 
 7861000    1.3997229   -3.5329142   -2.0013354   0.14929261   -3.5329142    1.5315788   601891 
 7862000    1.4031574   -3.5368335   -2.0015299    0.1397474   -3.5368335    1.5353037   601904 
 7863000    1.3981405   -3.5310611   -2.0012646   0.15110108   -3.5310611    1.5297965   601911 
 7864000    1.3990377   -3.5322382   -2.0015007   0.15098308   -3.5322382    1.5307375   601927 
 7865000    1.4005218   -3.5342607   -2.0019427   0.14548936   -3.5342607     1.532318   601944 
 7866000    1.4010511   -3.5338454   -2.0009738   0.14793588   -3.5338454    1.5328716   601954 
 7867000    1.4004267   -3.5327046   -2.0005339   0.14458634   -3.5327046    1.5321707   601961 
 7868000    1.4004454   -3.5335626   -2.0014095   0.14581595   -3.5335626     1.532153   601976 
 7869000    1.3990644   -3.5317634   -2.0011594   0.15271604   -3.5317634     1.530604   601991 
 7870000    1.4004224   -3.5333153   -2.0012434   0.14448838   -3.5333153    1.5320719   601998 
 7871000    1.4002702    -3.533475   -2.0015645   0.14667814    -3.533475    1.5319105   601996 
 7872000    1.4019428   -3.5359271   -2.0022429   0.14092003   -3.5359271    1.5336842   602018 
 7873000    1.4007573   -3.5341238   -2.0017695    0.1451114   -3.5341238    1.5323543   602031 
 7874000    1.4006385   -3.5350146   -2.0028311   0.14692421   -3.5350146    1.5321835   602047 
 7875000    1.4007965   -3.5347712   -2.0024708   0.14043083   -3.5347712    1.5323004   602069 
 7876000    1.3981178   -3.5317754   -2.0024356   0.15214308   -3.5317754    1.5293398   602081 
 7877000    1.4011993   -3.5354884    -2.002811   0.14011442   -3.5354884    1.5326774   602094 
 7878000    1.4009331   -3.5346215   -2.0022633   0.14971355   -3.5346215    1.5323582   602105 
 7879000    1.4011185   -3.5352105   -2.0026979   0.15501446   -3.5352105    1.5325126   602124 
 7880000    1.4011215   -3.5341957   -2.0017052   0.15239631   -3.5341957    1.5324905   602134 
 7881000     1.401112   -3.5350542   -2.0026123    0.1487409   -3.5350542    1.5324419   602149 
 7882000    1.4028737   -3.5364519   -2.0021392   0.14810754   -3.5364519    1.5343127   602171 
 7883000    1.4029988   -3.5365813   -2.0021828   0.15131723   -3.5365813    1.5343985   602191 
 7884000    1.4028003   -3.5363641   -2.0022388   0.14633954   -3.5363641    1.5341253   602213 
 7885000     1.403061   -3.5370684   -2.0027037   0.14871897   -3.5370684    1.5343646   602231 
 7886000    1.4013386   -3.5352408   -2.0027903   0.15338044   -3.5352408    1.5324505   602243 
 7887000    1.4013483   -3.5355555   -2.0031021   0.14785088   -3.5355555    1.5324534   602246 
 7888000    1.4009391    -3.535091   -2.0030799    0.1478476    -3.535091    1.5320111   602244 
 7889000    1.4010182     -3.53506    -2.002998   0.14929305     -3.53506     1.532062   602258 
 7890000     1.401283   -3.5353943    -2.003058   0.14651209   -3.5353943    1.5323363   602264 
 7891000     1.399937   -3.5346819    -2.003848   0.14797296   -3.5346819    1.5308338   602276 
 7892000    1.4005092   -3.5347435   -2.0033043   0.15123466   -3.5347435    1.5314392   602284 
 7893000    1.4016133   -3.5364334     -2.00383   0.14396885   -3.5364334    1.5326034   602301 
 7894000    1.4017166   -3.5356911   -2.0029977   0.14750157   -3.5356911    1.5326934   602310 
 7895000    1.4020569   -3.5357443   -2.0026991   0.15405066   -3.5357443    1.5330451   602318 
 7896000     1.401934   -3.5351851   -2.0023125   0.15754141   -3.5351851    1.5328725   602333 
 7897000    1.4023754   -3.5359926   -2.0026654   0.15190745   -3.5359926    1.5333271   602344 
 7898000    1.4031896   -3.5372091   -2.0030019   0.14858757   -3.5372091    1.5342072   602348 
 7899000    1.4007892   -3.5353386   -2.0037788   0.14557576   -3.5353386    1.5315598   602357 
 7900000    1.4006293   -3.5354113   -2.0040339    0.1504154   -3.5354113    1.5313774   602360 
 7901000    1.4013615    -3.535402   -2.0032444   0.14879555    -3.535402    1.5321576   602368 
 7902000    1.4015546   -3.5360731   -2.0037248   0.15261095   -3.5360731    1.5323483   602376 
 7903000     1.401985    -3.535876    -2.003075   0.14982684    -3.535876     1.532801   602383 
 7904000    1.4016894   -3.5349756   -2.0025511   0.14777583   -3.5349756    1.5324245   602404 
 7905000    1.4019119   -3.5356265   -2.0029791   0.14878477   -3.5356265    1.5326473   602412 
 7906000     1.402424   -3.5364397    -2.003263   0.14398114   -3.5364397    1.5331767   602424 
 7907000    1.4031805   -3.5373409   -2.0033347   0.14444015   -3.5373409    1.5340062   602423 
 7908000    1.4036719   -3.5386619   -2.0041133   0.14762918   -3.5386619    1.5345485   602421 
 7909000    1.4016489   -3.5379221   -2.0056233   0.14836267   -3.5379221    1.5322988   602436 
 7910000    1.4019671   -3.5366934   -2.0040696    0.1517411   -3.5366934    1.5326238   602445 
 7911000    1.4015223   -3.5367124   -2.0045774   0.14612883   -3.5367124     1.532135   602446 
 7912000    1.4028868   -3.5368474   -2.0032361   0.15407188   -3.5368474    1.5336113   602452 
 7913000    1.4014963   -3.5351826   -2.0031396   0.15210863   -3.5351826     1.532043   602471 
 7914000    1.4011734   -3.5339741   -2.0022917   0.14700909   -3.5339741    1.5316824   602474 
 7915000     1.402656   -3.5357153   -2.0024251   0.14783502   -3.5357153    1.5332903   602479 
 7916000    1.4015329   -3.5358116   -2.0037694   0.14377377   -3.5358116    1.5320423   602487 
 7917000    1.4016562   -3.5357686   -2.0036043   0.15271695   -3.5357686    1.5321643   602492 
 7918000    1.4031312   -3.5365092   -2.0027376   0.15212011   -3.5365092    1.5337715   602494 
 7919000     1.402732   -3.5356026   -2.0022852   0.14617916   -3.5356026    1.5333174   602501 
 7920000    1.4044118   -3.5375658   -2.0024454   0.14965887   -3.5375658    1.5351204   602514 
 7921000    1.4037528   -3.5364143   -2.0020218   0.14669996   -3.5364143    1.5343925   602517 
 7922000    1.4022539   -3.5352934   -2.0025622   0.14767681   -3.5352934    1.5327312   602526 
 7923000    1.4031963   -3.5367294   -2.0030037   0.15181012   -3.5367294    1.5337257   602540 
 7924000     1.404398   -3.5376159   -2.0025972   0.14035552   -3.5376159    1.5350187   602548 
 7925000    1.4011941    -3.535965   -2.0044863   0.14835889    -3.535965    1.5314787   602563 
 7926000     1.402052   -3.5369064   -2.0045078   0.14999269   -3.5369064    1.5323986   602570 
 7927000    1.4034777   -3.5381898   -2.0042761   0.14775156   -3.5381898    1.5339136   602587 
 7928000    1.4019012   -3.5362924   -2.0040943   0.15235581   -3.5362924    1.5321982   602584 
 7929000    1.4010958   -3.5352497   -2.0039445   0.15400549   -3.5352497    1.5313052   602589 
 7930000     1.401208   -3.5365965   -2.0051916   0.15194713   -3.5365965    1.5314049   602598 
 7931000     1.401905   -3.5374762   -2.0053273   0.15261869   -3.5374762    1.5321489   602605 
 7932000    1.4019434   -3.5373295   -2.0051894   0.14737186   -3.5373295    1.5321401   602625 
 7933000    1.4016024   -3.5370925   -2.0053429   0.15321037   -3.5370925    1.5317496   602632 
 7934000    1.4019652   -3.5381375    -2.006027   0.14298257   -3.5381375    1.5321105   602646 
 7935000    1.4011797    -3.538013   -2.0067837   0.14958674    -3.538013    1.5312293   602655 
 7936000    1.4021578   -3.5386466   -2.0063561   0.14921843   -3.5386466    1.5322905   602658 
 7937000    1.3995093   -3.5358673   -2.0065168   0.15448171   -3.5358673    1.5293504   602676 
 7938000    1.4007391   -3.5361507   -2.0055072   0.14618081   -3.5361507    1.5306435   602696 
 7939000    1.4006263   -3.5368521   -2.0063444   0.15176251   -3.5368521    1.5305076   602701 
 7940000    1.4029533   -3.5385867   -2.0055439   0.14798803   -3.5385867    1.5330428   602704 
 7941000    1.4004694   -3.5364371   -2.0061364   0.15021822   -3.5364371    1.5303006   602715 
 7942000    1.4004904   -3.5364294   -2.0061313   0.14946332   -3.5364294    1.5302981   602725 
 7943000    1.4019014   -3.5376496   -2.0058122   0.15505848   -3.5376496    1.5318374   602726 
 7944000    1.4018125   -3.5372388   -2.0055188   0.14748561   -3.5372388    1.5317199   602734 
 7945000    1.4023498   -3.5381003   -2.0058314   0.14452996   -3.5381003    1.5322689   602749 
 7946000    1.4014103   -3.5369933   -2.0057789   0.15136526   -3.5369933    1.5312144   602760 
 7947000    1.4021125   -3.5375148   -2.0055661   0.14413983   -3.5375148    1.5319487   602773 
 7948000    1.4016071   -3.5371503   -2.0057996    0.1434517   -3.5371503    1.5313507   602791 
 7949000     1.401039   -3.5368744   -2.0061596   0.14647421   -3.5368744    1.5307148   602797 
 7950000    1.4021653   -3.5376831   -2.0057429   0.14976538   -3.5376831    1.5319403   602799 
 7951000     1.402677   -3.5395985   -2.0071068   0.14010589   -3.5395985    1.5324917   602802 
 7952000    1.4014472   -3.5385055   -2.0073574   0.14566444   -3.5385055    1.5311481   602802 
 7953000    1.4026523   -3.5385606   -2.0061111   0.14406779   -3.5385606    1.5324494   602808 
 7954000     1.400639   -3.5371838   -2.0069543   0.15262301   -3.5371838    1.5302295   602816 
 7955000    1.4019437   -3.5390025   -2.0074034   0.14721153   -3.5390025    1.5315991   602838 
 7956000    1.4025256   -3.5391464   -2.0069218   0.14715358   -3.5391464    1.5322246   602842 
 7957000     1.403022   -3.5401704   -2.0074365   0.14607852   -3.5401704    1.5327338   602855 
 7958000    1.4020807   -3.5383237    -2.006641   0.14947169   -3.5383237    1.5316827   602864 
 7959000    1.4028503   -3.5383181   -2.0058227   0.14837699   -3.5383181    1.5324955   602875 
 7960000    1.4033776    -3.538482   -2.0054359    0.1471776    -3.538482    1.5330461   602885 
 7961000    1.4017342   -3.5380997   -2.0068717   0.15182946   -3.5380997     1.531228   602894 
 7962000    1.4027254   -3.5395301   -2.0072525   0.15174376   -3.5395301    1.5322777   602907 
 7963000    1.4032818   -3.5386798   -2.0058427   0.15194083   -3.5386798    1.5328371   602926 
 7964000    1.4033904   -3.5400308   -2.0071056   0.15203237   -3.5400308    1.5329253   602938 
 7965000     1.403109   -3.5400155   -2.0074078   0.14802166   -3.5400155    1.5326077   602942 
 7966000    1.4010322   -3.5383436   -2.0080399   0.15856129   -3.5383436    1.5303037   602956 
 7967000    1.4029943   -3.5415472   -2.0091511   0.14724448   -3.5415472     1.532396   602976 
 7968000    1.4030196   -3.5410171   -2.0086442   0.14294218   -3.5410171    1.5323728   602996 
 7969000    1.4019435   -3.5395562   -2.0083561   0.14778281   -3.5395562       1.5312   602995 
 7970000    1.4010583   -3.5392722   -2.0090618   0.14676903   -3.5392722    1.5302104   603004 
 7971000    1.4010083   -3.5386863   -2.0085279   0.14887793   -3.5386863    1.5301583   603003 
 7972000    1.4039163   -3.5423464   -2.0090527   0.14992593   -3.5423464    1.5332937   603019 
 7973000     1.401316   -3.5391073   -2.0086636   0.15151517   -3.5391073    1.5304437   603023 
 7974000    1.4022914   -3.5413204   -2.0098522   0.14147879   -3.5413204    1.5314682   603039 
 7975000    1.4018401    -3.539993   -2.0090735   0.14640791    -3.539993    1.5309196   603061 
 7976000    1.4008174    -3.539398   -2.0096029   0.14882903    -3.539398     1.529795   603064 
 7977000    1.4021867   -3.5411126   -2.0098247   0.14762672   -3.5411126    1.5312879   603065 
 7978000    1.4027978   -3.5409529   -2.0090357   0.14700032   -3.5409529    1.5319172   603080 
 7979000    1.4013552   -3.5405496   -2.0102332   0.15040896   -3.5405496    1.5303164   603090 
 7980000    1.4008403   -3.5401625   -2.0104185   0.14836401   -3.5401625     1.529744   603094 
 7981000    1.4016053   -3.5406782   -2.0101394    0.1489224   -3.5406782    1.5305388   603110 
 7982000    1.4021708   -3.5403591   -2.0092638   0.14746292   -3.5403591    1.5310953   603134 
 7983000    1.4031129   -3.5414822   -2.0093708   0.14394336   -3.5414822    1.5321113   603139 
 7984000    1.4027001   -3.5412981   -2.0096959   0.14538885   -3.5412981    1.5316022   603162 
 7985000    1.4047012   -3.5431256   -2.0093664   0.14358325   -3.5431256    1.5337592   603173 
 7986000    1.4034211    -3.541829   -2.0094955   0.15298942    -3.541829    1.5323335   603184 
 7987000    1.4049721     -3.54316    -2.009161   0.14624969     -3.54316     1.533999   603195 
 7988000    1.4033158   -3.5416502   -2.0094951   0.15249941   -3.5416502    1.5321551   603209 
 7989000    1.4041201   -3.5414274   -2.0084094   0.15415571   -3.5414274     1.533018   603215 
 7990000    1.4028307   -3.5400707    -2.008491    0.1512921   -3.5400707    1.5315797   603227 
 7991000    1.4020311   -3.5390417   -2.0083781    0.1524727   -3.5390417    1.5306636   603244 
 7992000    1.4035522   -3.5408581   -2.0085719   0.14517198   -3.5408581    1.5322862   603259 
 7993000    1.4030768   -3.5407521   -2.0090204   0.15037786   -3.5407521    1.5317316   603273 
 7994000    1.4026225   -3.5413803   -2.0101395   0.14118294   -3.5413803    1.5312408   603271 
 7995000     1.401795   -3.5409211   -2.0106091   0.15303485   -3.5409211     1.530312   603281 
 7996000    1.4030806   -3.5407606   -2.0090629   0.14916999   -3.5407606    1.5316977   603288 
 7997000    1.4027394   -3.5414246   -2.0101121   0.15034144   -3.5414246    1.5313125   603293 
 7998000    1.4020973   -3.5413045   -2.0107234   0.14915379   -3.5413045    1.5305811   603305 
 7999000    1.4011936   -3.5403555   -2.0107482   0.15017102   -3.5403555    1.5296073   603300 
 8000000    1.4026297   -3.5411718   -2.0100146    0.1546537   -3.5411718    1.5311573   603307 
Loop time of 10161.4 on 192 procs for 5000000 steps with 603307 atoms

Performance: 212569.337 tau/day, 492.059 timesteps/s
99.2% CPU use with 192 MPI tasks x 1 OpenMP threads

MPI task timing breakdown:
Section |  min time  |  avg time  |  max time  |%varavg|  %CPU | %total
-----------------------------------------------------------------------
Pair    | 3362.6     | 4162.4     | 4553.5     | 509.7 |  99.1 | 40.96
Bond    | 3.3357     | 3.4742     | 3.7025     |   3.6 | 100.0 |  0.03
Neigh   | 1762.5     | 2018.9     | 2147.2     | 211.8 |  99.5 | 19.87
Comm    | 1273.4     | 2187.8     | 3170.1     | 961.6 |  99.0 | 21.53
Output  | 276.78     | 280.52     | 280.55     |   1.6 |  98.4 |  2.76
Modify  | 1211.8     | 1307.9     | 1833.6     | 539.0 |  99.1 | 12.87
Other   |            | 200.3      |            |       |       |  1.97

Nlocal:        3142.22 ave        3254 max        3023 min
Histogram: 1 2 15 35 40 36 34 19 7 3
Nghost:        4173.32 ave        4517 max        3370 min
Histogram: 9 38 1 0 0 0 0 2 87 55
Neighs:        93927.4 ave      101687 max       80979 min
Histogram: 2 10 7 4 17 25 47 50 28 2

Total # of neighbors = 18034068
Ave neighs/atom = 29.892025
Ave special neighs/atom = 0.0000000
Neighbor list builds = 505000
Dangerous builds = 450000

write_restart   restart_write.dat
System init for write_restart ...
write_data	data.write
System init for write_data ...
WARNING: Not all mixed pair coeffs generated from mixing. Use write_data with 'pair ij' option to store all pair coeffs. (src/write_data.cpp:312)

Total wall time: 2:49:25
