LAMMPS (24 Dec 2020)
OMP_NUM_THREADS environment is not set. Defaulting to 1 thread. (src/comm.cpp:94)
  using 1 OpenMP thread(s) per MPI task
# Simple rigid body system
# needed variables: startTemp, temp

units		lj
atom_style	full
dimension 	3
boundary	p p f
pair_style	lj/cut/opt 2.5

variable 	gcmcdisplace	equal 0
variable 	sigma		equal 1.0
variable 	epsilon 	equal 1.0


read_restart	restart.dat.3000000
Reading restart file ...
  restart file = 24 Dec 2020, LAMMPS = 24 Dec 2020
WARNING: Restart file used different # of processors: 48 vs. 192 (src/read_restart.cpp:697)
  restoring atom style full from restart
  orthogonal box = (0.0000000 0.0000000 0.0000000) to (80.000000 80.000000 160.00000)
  6 by 4 by 8 MPI processor grid
  restoring pair style lj/cut/opt from restart
  439061 atoms
Finding 1-2 1-3 1-4 neighbors ...
  special bond factors lj:    0        0        0       
  special bond factors coul:  0        0        0       
     0 = max # of 1-2 neighbors
     0 = max # of 1-3 neighbors
     0 = max # of 1-4 neighbors
     1 = max # of special neighbors
  special bonds CPU = 1.520 seconds
  read_restart CPU = 1.820 seconds

mass		1 1.0
mass		2 1.0
mass		3 1.0


group		solvent type 1
439061 atoms in group solvent


neighbor 	0.4 bin

pair_coeff	1 1 1.0 1.0
pair_coeff	2 2 0.0 0.0
pair_coeff	3 3 0.0 0.0
pair_coeff	2 3 0.0 0.0
pair_coeff	1 2*3 0.0 0.0

pair_modify 	shift yes


balance 	1.05 shift z 10 1.05
Balancing ...
Neighbor list info ...
  update every 1 steps, delay 10 steps, check yes
  max neighbors/atom: 2000, page size: 100000
  master list distance cutoff = 2.9
  ghost atom cutoff = 2.9
  binsize = 1.45, bins = 56 56 111
  1 neighbor lists, perpetual/occasional/extra = 1 0 0
  (1) pair lj/cut/opt, perpetual
      attributes: half, newton on
      pair build: half/bin/newton
      stencil: half/bin/3d/newton
      bin: standard
 rebalancing time: 0.025 seconds
  iteration count = 5
  initial/final maximal load/proc = 3162.0000 2575.0000
  initial/final imbalance factor  = 1.3827327 1.1260394
  x cuts: 0.0000000 0.16666667 0.33333333 0.50000000 0.66666667 0.83333333 1.0000000
  y cuts: 0.0000000 0.25000000 0.50000000 0.75000000 1.0000000
  z cuts: 0.0000000 0.097656250 0.18359375 0.27734375 0.37890625 0.47656250 0.57031250 0.67968750 1.0000000


####################### WALLS ###########################


variable       epsilonWall equal 2*${epsilon}
variable       epsilonWall equal 2*1

variable       cutoffTop   equal   0.7147*${sigma}
variable       cutoffTop   equal   0.7147*1

variable       cutoffLow   equal   3*${sigma}
variable       cutoffLow   equal   3*1


fix            topWall all wall/lj93 zhi EDGE                ${epsilonWall} ${sigma} ${cutoffTop} units box
fix            topWall all wall/lj93 zhi EDGE                2 ${sigma} ${cutoffTop} units box
fix            topWall all wall/lj93 zhi EDGE                2 1 ${cutoffTop} units box
fix            topWall all wall/lj93 zhi EDGE                2 1 0.7147 units box

fix            lowWall all wall/lj93 zlo EDGE                ${epsilonWall} ${sigma} ${cutoffLow} units box
fix            lowWall all wall/lj93 zlo EDGE                2 ${sigma} ${cutoffLow} units box
fix            lowWall all wall/lj93 zlo EDGE                2 1 ${cutoffLow} units box
fix            lowWall all wall/lj93 zlo EDGE                2 1 3 units box


###################### COMPUTES ##########################

compute        bin1 solvent chunk/atom bin/1d z upper 1.0



######################	FIXES ############################


fix 		peclet solvent ave/chunk 1000 1 1000 bin1 density/number norm 		 none ave one file density.profile

fix 		 temp solvent ave/chunk 1000 1 1000 bin1 temp norm none ave one file temp.profile

fix 		2 solvent nve

## Thermostat


region		regthermo block EDGE EDGE EDGE EDGE 0 20

group 		thermo dynamic solvent region regthermo every 1000
dynamic group thermo defined

fix 		3 thermo langevin ${startTemp} ${temp} 10 156453
fix 		3 thermo langevin 1.0 ${temp} 10 156453
fix 		3 thermo langevin 1.0 1.0 10 156453


## Evaporation

region		regevap block EDGE EDGE EDGE EDGE 140 158
fix 		gcmc solvent gcmc 100 100 0 1 780493 ${temp} ${mu} ${gcmcdisplace} region regevap
fix 		gcmc solvent gcmc 100 100 0 1 780493 1.0 ${mu} ${gcmcdisplace} region regevap
fix 		gcmc solvent gcmc 100 100 0 1 780493 1.0 -3.4 ${gcmcdisplace} region regevap
fix 		gcmc solvent gcmc 100 100 0 1 780493 1.0 -3.4 0 region regevap


#### Load balancing

fix 		bal all balance 1000 1.05 shift z 10 1.05

############### Diagnostics and computes ###################
#compute 	com cube	  rigid/local	1 mol x y z
#compute 	quat cube	  rigid/local	1 mol quatw quati quatj quatk

thermo 		1000
thermo_style 	custom step temp epair etotal press pe ke atoms

dump		1 all custom 100000 dump.lammpstrj id mol type x y z
dump 		2 all image 10000 image.*.png type type
dump 		3 all movie 1000 movie.avi type type
#dump 		com cube local 1000 dump.*.xyz c_com[*]
#dump		quat cube      local 1000 dump.*.quat c_quat[*]


restart 	1000000 restart.dat
timestep 	0.005
timer 		full
New timer settings: style=full  mode=nosync  timeout=off


run		5000000
Per MPI rank memory allocation (min/avg/max) = 9.923 | 9.986 | 10.01 Mbytes
Step Temp E_pair TotEng Press PotEng KinEng Atoms 
 3000000     1.016004   -3.1352716   -1.6112691  0.079025997   -3.1352716    1.5240025   439061 
 3001000    1.0151005   -3.1353404   -1.6123914  0.073605576   -3.1353404     1.522949   438974 
 3002000    1.0161726   -3.1371839   -1.6123206  0.074349283   -3.1371839    1.5248632   438886 
 3003000    1.0166486   -3.1404198   -1.6145886  0.076021351   -3.1404198    1.5258312   438813 
 3004000     1.014256   -3.1379183   -1.6152685  0.079109804   -3.1379183    1.5226498   438695 
 3005000    1.0154709   -3.1397111    -1.614869   0.07526668   -3.1397111    1.5248421   438589 
 3006000    1.0149975   -3.1385426   -1.6140637  0.073291385   -3.1385426    1.5244789   438489 
 3007000    1.0134323   -3.1363099   -1.6138139  0.077179755   -3.1363099     1.522496   438383 
 3008000    1.0127383   -3.1370796   -1.6151783  0.072443111   -3.1370796    1.5219013   438254 
 3009000    1.0141538   -3.1407358    -1.616363  0.076441969   -3.1407358    1.5243728   438155 
 3010000    1.0125496   -3.1391931   -1.6168493  0.077259215   -3.1391931    1.5223437   438045 
 3011000     1.013194   -3.1417302   -1.6181776  0.073395723   -3.1417302    1.5235526   437976 
 3012000    1.0109082   -3.1387189   -1.6182772  0.080339478   -3.1387189    1.5204417   437882 
 3013000    1.0116967    -3.140325   -1.6183916  0.075335274    -3.140325    1.5219335   437794 
 3014000    1.0094402   -3.1378332   -1.6190134  0.068682304   -3.1378332    1.5188199   437713 
 3015000    1.0116051   -3.1408006   -1.6184555  0.073530464   -3.1408006    1.5223451   437636 
 3016000    1.0097558   -3.1390728   -1.6191009  0.071850964   -3.1390728    1.5199719   437518 
 3017000    1.0087619    -3.138216   -1.6194555  0.075951562    -3.138216    1.5187605   437436 
 3018000     1.008864   -3.1399308   -1.6208048  0.073324321   -3.1399308     1.519126   437375 
 3019000    1.0097603   -3.1411066   -1.6205023  0.074361237   -3.1411066    1.5206042   437338 
 3020000    1.0087109    -3.139791    -1.620562  0.074426261    -3.139791     1.519229   437279 
 3021000    1.0077504    -3.138864   -1.6207623  0.079926254    -3.138864    1.5181017   437187 
 3022000    1.0082137   -3.1402373   -1.6211875  0.075175826   -3.1402373    1.5190498   437115 
 3023000    1.0084634   -3.1401823   -1.6204851  0.070538052   -3.1401823    1.5196973   437037 
 3024000    1.0086522    -3.141791   -1.6215102  0.067444583    -3.141791    1.5202809   436951 
 3025000     1.007113   -3.1411346   -1.6228853  0.071041666   -3.1411346    1.5182493   436868 
 3026000    1.0062753   -3.1399795   -1.6224998  0.073854939   -3.1399795    1.5174797   436726 
 3027000    1.0071917   -3.1424298   -1.6232829   0.07088799   -3.1424298    1.5191469   436644 
 3028000    1.0053782   -3.1403916   -1.6236603  0.074093546   -3.1403916    1.5167313   436552 
 3029000    1.0046997   -3.1402708   -1.6242125  0.073540883   -3.1402708    1.5160583   436451 
 3030000    1.0043478   -3.1400912   -1.6242998  0.071251236   -3.1400912    1.5157913   436375 
 3031000    1.0044699   -3.1408169   -1.6245564  0.073601945   -3.1408169    1.5162605   436293 
 3032000    1.0047766   -3.1424536   -1.6254868  0.075118887   -3.1424536    1.5169668   436223 
 3033000    1.0044454   -3.1430434   -1.6262602   0.07285199   -3.1430434    1.5167832   436132 
 3034000     1.003631   -3.1434192   -1.6274939  0.067840814   -3.1434192    1.5159253   436025 
 3035000     1.003948   -3.1434348   -1.6267002  0.071817575   -3.1434348    1.5167346   435930 
 3036000    1.0043409   -3.1457299   -1.6280779  0.064127556   -3.1457299     1.517652   435837 
 3037000    1.0054262   -3.1473916   -1.6276325  0.070032513   -3.1473916    1.5197592   435703 
 3038000    1.0046907   -3.1485531   -1.6295256  0.067026192   -3.1485531    1.5190275   435594 
 3039000    1.0036966   -3.1468935   -1.6290275  0.071583474   -3.1468935    1.5178659   435496 
 3040000    1.0024944   -3.1456309   -1.6293079  0.072547739   -3.1456309    1.5163229   435417 
 3041000    1.0034719   -3.1487794   -1.6307408  0.071625699   -3.1487794    1.5180386   435349 
 3042000    1.0019721   -3.1477978    -1.631847   0.06769543   -3.1477978    1.5159507   435297 
 3043000    1.0027618   -3.1479883   -1.6306721  0.069382417   -3.1479883    1.5173163   435248 
 3044000    1.0031482   -3.1495342   -1.6312983  0.070321844   -3.1495342    1.5182359   435152 
 3045000    1.0012515   -3.1496018   -1.6338987  0.073759625   -3.1496018    1.5157031   435055 
 3046000     1.001384    -3.149895   -1.6336358   0.07016247    -3.149895    1.5162593   434953 
 3047000    1.0027061   -3.1522827   -1.6337283    0.0710026   -3.1522827    1.5185544   434869 
 3048000    1.0019234   -3.1527866   -1.6351593  0.069877483   -3.1527866    1.5176273   434795 
 3049000    1.0011889   -3.1507573   -1.6340508  0.069317288   -3.1507573    1.5167066   434740 
 3050000    1.0012061   -3.1535095   -1.6364349  0.067711107   -3.1535095    1.5170746   434642 
 3051000    1.0013515   -3.1529328   -1.6353132  0.072370581   -3.1529328    1.5176196   434549 
 3052000    1.0003285   -3.1523634   -1.6359104    0.0729063   -3.1523634     1.516453   434439 
 3053000    1.0019487   -3.1556279   -1.6363585  0.072767523   -3.1556279    1.5192694   434336 
 3054000     1.000665   -3.1552476   -1.6376766  0.071376573   -3.1552476     1.517571   434265 
 3055000    0.9998079   -3.1541175   -1.6375041  0.067242305   -3.1541175    1.5166134   434167 
 3056000   0.99973563   -3.1534763   -1.6367909  0.073405999   -3.1534763    1.5166854   434115 
 3057000   0.99721184   -3.1517814   -1.6386007   0.07509171   -3.1517814    1.5131808   434022 
 3058000   0.99894137   -3.1542106   -1.6380911  0.071273745   -3.1542106    1.5161196   433932 
 3059000   0.99649163   -3.1530023   -1.6402626  0.068469936   -3.1530023    1.5127397   433835 
 3060000     0.995591   -3.1515963   -1.6399939  0.068281042   -3.1515963    1.5116024   433769 
 3061000   0.99759896   -3.1539307   -1.6390526   0.06902758   -3.1539307    1.5148781   433704 
 3062000   0.99665936   -3.1531738   -1.6393979  0.067965202   -3.1531738    1.5137759   433611 
 3063000   0.99766467   -3.1549836   -1.6393592  0.066043617   -3.1549836    1.5156244   433519 
 3064000   0.99450963   -3.1518028   -1.6407274  0.072125319   -3.1518028    1.5110753   433449 
 3065000   0.99432634   -3.1525937   -1.6414761  0.069837453   -3.1525937    1.5111176   433357 
 3066000   0.99537367   -3.1539366   -1.6410178  0.068385681   -3.1539366    1.5129187   433297 
 3067000   0.99448062   -3.1539767   -1.6422374  0.065529519   -3.1539767    1.5117393   433246 
 3068000   0.99606675   -3.1567954   -1.6422744  0.068906073   -3.1567954    1.5145209   433140 
 3069000   0.99561552   -3.1556576   -1.6415606  0.067427934   -3.1556576     1.514097   433065 
 3070000   0.99437699   -3.1535452    -1.640944  0.071422322   -3.1535452    1.5126012   432954 
 3071000    0.9962035   -3.1559571   -1.6402274  0.068656744   -3.1559571    1.5157297   432854 
 3072000   0.99404543   -3.1550587   -1.6423155  0.072982924   -3.1550587    1.5127432   432769 
 3073000   0.99459885   -3.1553109   -1.6413441  0.068859947   -3.1553109    1.5139668   432660 
 3074000    0.9947664   -3.1563716   -1.6419153  0.073498293   -3.1563716    1.5144563   432593 
 3075000   0.99473061    -3.157839   -1.6431956  0.063608739    -3.157839    1.5146434   432524 
 3076000    0.9943748   -3.1586498     -1.64424  0.066896597   -3.1586498    1.5144098   432436 
 3077000   0.99237889   -3.1566349   -1.6448453  0.072775915   -3.1566349    1.5117896   432316 
 3078000   0.99356471   -3.1579628   -1.6441532  0.069804736   -3.1579628    1.5138096   432255 
 3079000   0.99301855    -3.158422   -1.6451644  0.065976071    -3.158422    1.5132576   432175 
 3080000   0.99235017   -3.1579179   -1.6454899  0.064175815   -3.1579179     1.512428   432121 
 3081000   0.99047616   -3.1569182   -1.6471227  0.065281949   -3.1569182    1.5097955   432057 
 3082000   0.99217477   -3.1596317    -1.647058  0.065884772   -3.1596317    1.5125737   432003 
 3083000   0.99209225   -3.1622536    -1.649466  0.062175453   -3.1622536    1.5127876   431906 
 3084000   0.99087756   -3.1602142   -1.6489534  0.065308682   -3.1602142    1.5112608   431813 
 3085000   0.99019275   -3.1592865   -1.6487834  0.064088241   -3.1592865    1.5105032   431731 
 3086000   0.99096094   -3.1599218    -1.647914  0.063936215   -3.1599218    1.5120077   431636 
 3087000   0.99082684   -3.1604778   -1.6482087  0.064723858   -3.1604778    1.5122691   431503 
 3088000   0.99092598    -3.162056   -1.6494358  0.061810838    -3.162056    1.5126202   431446 
 3089000   0.98895621   -3.1607117   -1.6508498  0.068259446   -3.1607117    1.5098619   431375 
 3090000   0.98965742   -3.1621622   -1.6508058  0.064570767   -3.1621622    1.5113564   431254 
 3091000   0.98964216   -3.1625124   -1.6509305  0.065911483   -3.1625124    1.5115819   431183 
 3092000    0.9903432   -3.1636787   -1.6507348  0.073563683   -3.1636787    1.5129439   431100 
 3093000   0.98916357   -3.1647982   -1.6533303  0.062501806   -3.1647982    1.5114679   431007 
 3094000   0.98982402   -3.1653067   -1.6526331  0.064607051   -3.1653067    1.5126736   430951 
 3095000   0.98912277   -3.1656035   -1.6536543  0.071602064   -3.1656035    1.5119493   430852 
 3096000   0.98981442   -3.1661911   -1.6528298  0.067768241   -3.1661911    1.5133613   430751 
 3097000   0.99106617   -3.1681499   -1.6524596  0.069580686   -3.1681499    1.5156903   430633 
 3098000   0.99127005   -3.1671805   -1.6508862  0.068509125   -3.1671805    1.5162944   430550 
 3099000   0.99005531   -3.1667271   -1.6520903  0.068142153   -3.1667271    1.5146368   430493 
 3100000   0.98968862   -3.1667745   -1.6525087  0.070951061   -3.1667745    1.5142657   430439 
 3101000   0.99002223   -3.1696013   -1.6544626  0.059501945   -3.1696013    1.5151387   430336 
 3102000   0.98873852   -3.1683933   -1.6549202  0.066194021   -3.1683933    1.5134731   430251 
 3103000   0.98851955   -3.1687484   -1.6554628  0.065060104   -3.1687484    1.5132856   430209 
 3104000   0.98665161    -3.167348   -1.6565497  0.070624711    -3.167348    1.5107983   430103 
 3105000   0.98700213   -3.1683339   -1.6565806  0.069616878   -3.1683339    1.5117533   429984 
 3106000   0.98600629   -3.1683823   -1.6578135   0.06795477   -3.1683823    1.5105688   429887 
 3107000   0.98505464   -3.1670904   -1.6577092  0.065080427   -3.1670904    1.5093812   429810 
 3108000   0.98415861   -3.1656445   -1.6572046  0.067091281   -3.1656445    1.5084399   429687 
 3109000   0.98315532   -3.1664386   -1.6593505  0.066347313   -3.1664386     1.507088   429634 
 3110000   0.98334064   -3.1685428   -1.6608408  0.068294291   -3.1685428     1.507702   429540 
 3111000   0.98340837   -3.1686441   -1.6605714  0.064384453   -3.1686441    1.5080727   429464 
 3112000   0.98225027   -3.1675047   -1.6609028  0.062488692   -3.1675047    1.5066019   429377 
 3113000   0.98246376   -3.1679402   -1.6607476  0.065306856   -3.1679402    1.5071926   429302 
 3114000   0.98455583   -3.1707832   -1.6602122  0.061793494   -3.1707832     1.510571   429254 
 3115000   0.98391715   -3.1694707   -1.6596264  0.066748461   -3.1694707    1.5098443   429182 
 3116000   0.98409047   -3.1692713   -1.6587422  0.061938105   -3.1692713    1.5105291   429063 
 3117000   0.98310007   -3.1696854   -1.6602262  0.065603662   -3.1696854    1.5094592   428935 
 3118000   0.98249346   -3.1691728   -1.6603776  0.070913564   -3.1691728    1.5087951   428859 
 3119000   0.98407583   -3.1705416   -1.6590486  0.063633603   -3.1705416     1.511493   428783 
 3120000   0.98423495   -3.1709582   -1.6589669   0.06551668   -3.1709582    1.5119913   428711 
 3121000   0.98413409    -3.172209   -1.6600975  0.063671091    -3.172209    1.5121115   428633 
 3122000   0.98273214   -3.1713131   -1.6607954  0.064343136   -3.1713131    1.5105177   428474 
 3123000   0.98072294   -3.1693877    -1.661631  0.068073487   -3.1693877    1.5077567   428381 
 3124000   0.98079784   -3.1724454   -1.6640595  0.063287784   -3.1724454    1.5083859   428235 
 3125000   0.97944443   -3.1729935   -1.6662844  0.061491888   -3.1729935    1.5067091   428120 
 3126000   0.97995423   -3.1719518   -1.6641661  0.065135886   -3.1719518    1.5077857   428037 
 3127000   0.97868789   -3.1720493   -1.6658637  0.057975542   -3.1720493    1.5061856   427938 
 3128000   0.97982394   -3.1747964   -1.6664641  0.059653277   -3.1747964    1.5083323   427825 
 3129000   0.98015534   -3.1757771   -1.6667196  0.054694648   -3.1757771    1.5090576   427764 
 3130000   0.97900634   -3.1749256   -1.6674009  0.057988423   -3.1749256    1.5075247   427697 
 3131000    0.9800036   -3.1749151   -1.6655972  0.059868306   -3.1749151    1.5093179   427624 
 3132000   0.97754595   -3.1738938   -1.6680476  0.063484342   -3.1738938    1.5058463   427535 
 3133000   0.97634491   -3.1738368   -1.6695557  0.059852607   -3.1738368    1.5042812   427454 
 3134000    0.9775132    -3.176662   -1.6702249  0.055227507    -3.176662    1.5064371   427353 
 3135000   0.97550656   -3.1731757   -1.6695917  0.060512985   -3.1731757    1.5035839   427285 
 3136000   0.97563531   -3.1748427    -1.670821  0.059787955   -3.1748427    1.5040217   427217 
 3137000   0.97717221   -3.1767128   -1.6702196  0.060554101   -3.1767128    1.5064933   427188 
 3138000   0.97748095   -3.1755056      -1.6683  0.063905435   -3.1755056    1.5072056   427121 
 3139000    0.9779421    -3.177336   -1.6691968  0.062273301    -3.177336    1.5081391   427058 
 3140000   0.97853306   -3.1785832   -1.6691015  0.061398233   -3.1785832    1.5094817   426936 
 3141000   0.97887324    -3.178502   -1.6683151   0.06362433    -3.178502    1.5101869   426885 
 3142000   0.97751553   -3.1769844   -1.6686625  0.064613083   -3.1769844    1.5083219   426820 
 3143000   0.97930141   -3.1799453   -1.6685172  0.061498753   -3.1799453    1.5114281   426721 
 3144000    0.9786416   -3.1794134    -1.668908  0.062895764   -3.1794134    1.5105054   426694 
 3145000   0.97810533   -3.1783891   -1.6684567  0.066127503   -3.1783891    1.5099324   426622 
 3146000   0.97635933   -3.1769215   -1.6693734  0.058992532   -3.1769215     1.507548   426534 
 3147000    0.9761566   -3.1780287   -1.6706064  0.059851479   -3.1780287    1.5074223   426481 
 3148000   0.97400746   -3.1770872    -1.672571  0.062714042   -3.1770872    1.5045163   426364 
 3149000   0.97466103    -3.179641   -1.6738009   0.06407103    -3.179641    1.5058401   426275 
 3150000    0.9750317   -3.1815606   -1.6749181  0.059976974   -3.1815606    1.5066426   426210 
 3151000   0.97185824   -3.1783218    -1.676368  0.058326378   -3.1783218    1.5019538   426149 
 3152000    0.9735888   -3.1809149    -1.676103  0.058933481   -3.1809149    1.5048119   426097 
 3153000   0.97422327   -3.1804616    -1.674312   0.06263861   -3.1804616    1.5061496   425996 
 3154000   0.97336053   -3.1796698   -1.6746173  0.059942109   -3.1796698    1.5050525   425929 
 3155000    0.9719933   -3.1777571   -1.6744904  0.064947473   -3.1777571    1.5032667   425836 
 3156000   0.97275217   -3.1800337   -1.6753213  0.058318168   -3.1800337    1.5047124   425759 
 3157000    0.9731088    -3.179962   -1.6745141   0.05876522    -3.179962    1.5054479   425707 
 3158000   0.97172305   -3.1791031   -1.6754564  0.061428156   -3.1791031    1.5036467   425610 
 3159000   0.97259138   -3.1811869   -1.6758994  0.058313024   -3.1811869    1.5052875   425526 
 3160000    0.9716867   -3.1800397   -1.6759156  0.057629545   -3.1800397    1.5041241   425459 
 3161000   0.97263078   -3.1797727   -1.6741554  0.054176101   -3.1797727    1.5056174   425450 
 3162000   0.97335064   -3.1811121   -1.6740723  0.062102989   -3.1811121    1.5070399   425363 
 3163000   0.97093888    -3.178974   -1.6752582  0.062471349    -3.178974    1.5037158   425247 
 3164000   0.97207833   -3.1798595   -1.6741665   0.05915016   -3.1798595     1.505693   425187 
 3165000   0.97218918   -3.1804654   -1.6741792   0.06176725   -3.1804654    1.5062862   425068 
 3166000   0.97147706   -3.1800209   -1.6744768   0.06327477   -3.1800209    1.5055441   424966 
 3167000   0.97130991    -3.180784   -1.6752474  0.052581898    -3.180784    1.5055367   424895 
 3168000   0.97092875   -3.1814554   -1.6763431  0.056443266   -3.1814554    1.5051123   424848 
 3169000   0.96922333   -3.1801374   -1.6773929  0.054354593   -3.1801374    1.5027445   424770 
 3170000   0.96922163    -3.181928   -1.6788252  0.057377867    -3.181928    1.5031028   424668 
 3171000   0.96787624   -3.1796737   -1.6782897  0.056755098   -3.1796737     1.501384   424564 
 3172000   0.96678429   -3.1791479   -1.6792458  0.058275166   -3.1791479    1.4999022   424504 
 3173000   0.96697823   -3.1800793    -1.679696   0.05880026   -3.1800793    1.5003833   424453 
 3174000   0.96756945   -3.1816354   -1.6801083  0.059315932   -3.1816354     1.501527   424389 
 3175000   0.96776657   -3.1821317   -1.6799731  0.061204346   -3.1821317    1.5021586   424297 
 3176000   0.96895903   -3.1842784   -1.6799072  0.055896334   -3.1842784    1.5043712   424195 
 3177000   0.96827531   -3.1831927   -1.6796065  0.054863186   -3.1831927    1.5035861   424117 
 3178000   0.96580487    -3.180827   -1.6807375  0.059305268    -3.180827    1.5000895   424021 
 3179000   0.96651959   -3.1816874    -1.680247    0.0622276   -3.1816874    1.5014403   423953 
 3180000   0.96830245   -3.1856693   -1.6810655  0.057780015   -3.1856693    1.5046039   423842 
 3181000   0.96586928   -3.1836676   -1.6825435  0.056864581   -3.1836676    1.5011241   423757 
 3182000   0.96512433   -3.1830022   -1.6829473  0.059355161   -3.1830022    1.5000548   423732 
 3183000    0.9655718   -3.1841254   -1.6830386  0.055433519   -3.1841254    1.5010869   423637 
 3184000   0.96515538    -3.185213   -1.6846425  0.056876629    -3.185213    1.5005705   423600 
 3185000   0.96460447   -3.1857147    -1.685682  0.061970285   -3.1857147    1.5000327   423510 
 3186000   0.96586415   -3.1872376   -1.6850792   0.06001995   -3.1872376    1.5021583   423463 
 3187000   0.96711105    -3.188087   -1.6838509  0.053522377    -3.188087    1.5042361   423424 
 3188000   0.96717854   -3.1892269     -1.68463  0.060528767   -3.1892269    1.5045969   423352 
 3189000   0.96637461   -3.1888383   -1.6850906  0.062635238   -3.1888383    1.5037477   423239 
 3190000   0.96664682   -3.1903242   -1.6859397  0.056774126   -3.1903242    1.5043845   423179 
 3191000   0.96617084   -3.1912103   -1.6872929  0.055212464   -3.1912103    1.5039174   423102 
 3192000   0.96604113     -3.19183   -1.6878337  0.058405438     -3.19183    1.5039963   423023 
 3193000   0.96575884   -3.1918515    -1.687989  0.059246151   -3.1918515    1.5038626   422937 
 3194000   0.96678293   -3.1943661   -1.6887202  0.053893078   -3.1943661    1.5056459   422884 
 3195000   0.96647456   -3.1960503   -1.6905643  0.064943654   -3.1960503    1.5054861   422794 
 3196000   0.96447402   -3.1942069   -1.6916523  0.061117981   -3.1942069    1.5025546   422742 
 3197000   0.96510367   -3.1962251   -1.6924299  0.056927658   -3.1962251    1.5037952   422669 
 3198000   0.96317343   -3.1955397   -1.6944609  0.057078786   -3.1955397    1.5010788   422587 
 3199000    0.9632262   -3.1960702   -1.6945752  0.059981161   -3.1960702     1.501495   422493 
 3200000   0.96514183   -3.1988643   -1.6941124   0.05005714   -3.1988643    1.5047518   422417 
 3201000   0.96376647   -3.1979779   -1.6950715  0.058073503   -3.1979779    1.5029064   422333 
 3202000   0.96290627   -3.1998814   -1.6980213  0.051110517   -3.1998814    1.5018601   422250 
 3203000   0.96291296   -3.1993686   -1.6973415  0.057079218   -3.1993686    1.5020271   422206 
 3204000   0.96288991   -3.1999958   -1.6977841  0.054117858   -3.1999958    1.5022117   422144 
 3205000   0.96018629   -3.1976076   -1.6993121  0.058346512   -3.1976076    1.4982955   422059 
 3206000   0.96209007   -3.1992095   -1.6977299  0.058733141   -3.1992095    1.5014796   421999 
 3207000   0.96241235   -3.2001871    -1.697934  0.056760545   -3.2001871    1.5022531   421923 
 3208000    0.9618941   -3.2000946   -1.6984511  0.060366873   -3.2000946    1.5016435   421867 
 3209000   0.96167988   -3.2006322   -1.6989067  0.061354914   -3.2006322    1.5017255   421750 
 3210000   0.96244008   -3.2022567   -1.6989698  0.062434577   -3.2022567    1.5032869   421645 
 3211000   0.96189136   -3.2032372   -1.7006292  0.060049878   -3.2032372     1.502608   421595 
 3212000   0.96083911   -3.2036076   -1.7022552  0.051542999   -3.2036076    1.5013524   421486 
 3213000   0.95993179    -3.202772   -1.7025169  0.054193818    -3.202772    1.5002551   421396 
 3214000   0.96123322    -3.204803   -1.7022323  0.058817548    -3.204803    1.5025707   421317 
 3215000   0.96228658   -3.2045699   -1.7001955  0.063521702   -3.2045699    1.5043744   421273 
 3216000    0.9605499   -3.2035368   -1.7017098  0.058249997   -3.2035368    1.5018269   421226 
 3217000   0.96052971   -3.2041352   -1.7020723  0.056662318   -3.2041352    1.5020628   421151 
 3218000   0.95926294   -3.2031929   -1.7028794  0.055171786   -3.2031929    1.5003134   421086 
 3219000   0.95942383   -3.2034786   -1.7025606  0.059408368   -3.2034786    1.5009179   420987 
 3220000   0.95999103   -3.2052047   -1.7030426  0.054196176   -3.2052047    1.5021621   420887 
 3221000   0.95998169   -3.2054094   -1.7030514  0.060109065   -3.2054094    1.5023581   420828 
 3222000   0.95929081   -3.2052483    -1.703661  0.052146592   -3.2052483    1.5015873   420741 
 3223000   0.95979993   -3.2063302   -1.7036531  0.058433723   -3.2063302    1.5026771   420659 
 3224000   0.95591885   -3.2016856   -1.7047218  0.057246898   -3.2016856    1.4969638   420557 
 3225000   0.95617908   -3.2039585   -1.7062275  0.056383318   -3.2039585     1.497731   420456 
 3226000   0.95668027   -3.2042902   -1.7055461  0.059474079   -3.2042902    1.4987442   420392 
 3227000   0.95674277   -3.2056153    -1.706545  0.060981921   -3.2056153    1.4990703   420328 
 3228000   0.95544264   -3.2035992   -1.7063594  0.055907422   -3.2035992    1.4972398   420270 
 3229000   0.95592166   -3.2051974   -1.7068968  0.050481001   -3.2051974    1.4983006   420183 
 3230000    0.9555923   -3.2060051   -1.7080318  0.053073021   -3.2060051    1.4979733   420130 
 3231000    0.9532191   -3.2027814   -1.7082863  0.052667403   -3.2027814     1.494495   420062 
 3232000   0.95640751    -3.206311   -1.7066208  0.054815774    -3.206311    1.4996903   420007 
 3233000    0.9562243   -3.2071251   -1.7075614  0.051448554   -3.2071251    1.4995637   419962 
 3234000   0.95477806    -3.205375   -1.7078083  0.053159413    -3.205375    1.4975667   419886 
 3235000    0.9547393   -3.2062532   -1.7084156  0.057064477   -3.2062532    1.4978376   419793 
 3236000   0.95578528   -3.2097756   -1.7100219  0.050357778   -3.2097756    1.4997537   419716 
 3237000   0.95531169   -3.2087505    -1.709597  0.057644404   -3.2087505    1.4991535   419676 
 3238000   0.95606745   -3.2103382   -1.7098558  0.052308242   -3.2103382    1.5004825   419636 
 3239000   0.95530674   -3.2091005   -1.7096547  0.054144818   -3.2091005    1.4994458   419592 
 3240000   0.95404579   -3.2073693   -1.7096314  0.053877374   -3.2073693    1.4977379   419516 
 3241000   0.95590375   -3.2101587   -1.7092929  0.051444701   -3.2101587    1.5008658   419457 
 3242000   0.95505186   -3.2098142   -1.7100822   0.05713161   -3.2098142     1.499732   419400 
 3243000   0.95441573   -3.2091255   -1.7100743  0.057911698   -3.2091255    1.4990512   419311 
 3244000   0.95471996   -3.2094373   -1.7098009  0.058238812   -3.2094373    1.4996363   419281 
 3245000   0.95328653   -3.2085794   -1.7110911   0.05698092   -3.2085794    1.4974883   419252 
 3246000   0.95449293   -3.2114163   -1.7116823  0.054369499   -3.2114163     1.499734   419154 
 3247000   0.95647903   -3.2140166   -1.7110903  0.054269181   -3.2140166    1.5029263   419134 
 3248000   0.95605029   -3.2143178   -1.7118106  0.058198014   -3.2143178    1.5025072   419063 
 3249000   0.95587856    -3.215143   -1.7125902   0.05527521    -3.215143    1.5025528   418975 
 3250000   0.95490147   -3.2149245   -1.7137392  0.056637263   -3.2149245    1.5011853   418928 
 3251000   0.95566911   -3.2159643    -1.713357  0.056184239   -3.2159643    1.5026073   418868 
 3252000   0.95526478   -3.2149573   -1.7127956  0.054640964   -3.2149573    1.5021616   418815 
 3253000   0.95336251   -3.2136194   -1.7141197  0.056560904   -3.2136194    1.4994997   418723 
 3254000   0.95354237   -3.2155787   -1.7155561  0.057553437   -3.2155787    1.5000226   418656 
 3255000   0.95212487   -3.2141391   -1.7160314   0.06049132   -3.2141391    1.4981076   418568 
 3256000    0.9524187   -3.2169242   -1.7181645   0.05883981   -3.2169242    1.4987597   418515 
 3257000   0.95204758   -3.2174974   -1.7190747  0.056738981   -3.2174974    1.4984228   418446 
 3258000   0.95064538   -3.2152582   -1.7186632  0.052922325   -3.2152582     1.496595   418340 
 3259000   0.95151924   -3.2172615   -1.7189685  0.053170996   -3.2172615     1.498293   418250 
 3260000   0.95237636   -3.2198128   -1.7198689  0.055185305   -3.2198128    1.4999439   418166 
 3261000   0.95004986   -3.2156197   -1.7192254  0.060729456   -3.2156197    1.4963943   418134 
 3262000   0.95090385   -3.2175299    -1.719511  0.058227577   -3.2175299    1.4980189   418056 
 3263000   0.95085091    -3.218737   -1.7206259  0.055113047    -3.218737     1.498111   418007 
 3264000   0.95053469   -3.2183955   -1.7203848  0.053415517   -3.2183955    1.4980106   417896 
 3265000    0.9495298   -3.2175156   -1.7208379   0.05764174   -3.2175156    1.4966776   417826 
 3266000   0.94872735   -3.2169596   -1.7213357  0.054664488   -3.2169596     1.495624   417767 
 3267000   0.94800978   -3.2158282   -1.7211994  0.053123513   -3.2158282    1.4946287   417729 
 3268000   0.94727548   -3.2163813   -1.7226421  0.054010169   -3.2163813    1.4937392   417654 
 3269000   0.94864326   -3.2184413   -1.7223733  0.049257616   -3.2184413     1.496068   417606 
 3270000   0.94903123   -3.2172122   -1.7203209  0.060369672   -3.2172122    1.4968913   417547 
 3271000   0.94976634   -3.2192318   -1.7210662  0.051259681   -3.2192318    1.4981656   417515 
 3272000   0.94960655   -3.2179911   -1.7197833  0.057322718   -3.2179911    1.4982078   417433 
 3273000   0.94988597   -3.2184911   -1.7195911  0.053027909   -3.2184911       1.4989   417363 
 3274000   0.94920604   -3.2186617   -1.7206587  0.052293233   -3.2186617     1.498003   417314 
 3275000   0.94648975   -3.2147756   -1.7208339  0.057701157   -3.2147756    1.4939417   417251 
 3276000   0.94944543   -3.2188177   -1.7200311  0.056538346   -3.2188177    1.4987866   417201 
 3277000   0.94742053   -3.2150659   -1.7193359  0.053817299   -3.2150659    1.4957299   417162 
 3278000   0.94884059   -3.2183385    -1.720126  0.058644893   -3.2183385    1.4982125   417095 
 3279000   0.94644257   -3.2173136   -1.7227371  0.052420199   -3.2173136    1.4945765   417053 
 3280000   0.94694443   -3.2174348   -1.7218184  0.047663262   -3.2174348    1.4956165   416984 
 3281000   0.94616787   -3.2161841   -1.7216579  0.051177147   -3.2161841    1.4945261   416946 
 3282000   0.94743866   -3.2187465   -1.7220408  0.058641392   -3.2187465    1.4967057   416898 
 3283000   0.94627321   -3.2160233   -1.7209901   0.05494894   -3.2160233    1.4950332   416851 
 3284000   0.94640318   -3.2179094   -1.7223014  0.050508301   -3.2179094    1.4956081   416748 
 3285000   0.94379171   -3.2149593   -1.7233242    0.0541589   -3.2149593    1.4916351   416705 
 3286000   0.94458409   -3.2161963   -1.7230437  0.057554449   -3.2161963    1.4931525   416631 
 3287000   0.94383693   -3.2166302   -1.7243865  0.054364553   -3.2166302    1.4922437   416555 
 3288000   0.94551494    -3.219231   -1.7240113  0.048376968    -3.219231    1.4952197   416465 
 3289000   0.94432185   -3.2177273   -1.7241146  0.052840302   -3.2177273    1.4936127   416387 
 3290000   0.94549357   -3.2199894   -1.7244695   0.05190704   -3.2199894    1.4955199   416372 
 3291000   0.94316983   -3.2192719   -1.7271588  0.052044858   -3.2192719    1.4921131   416297 
 3292000   0.94403921   -3.2216224   -1.7276315  0.049666964   -3.2216224    1.4939909   416157 
 3293000   0.94430516   -3.2225321   -1.7279443  0.051436612   -3.2225321    1.4945878   416108 
 3294000   0.94310917   -3.2195011   -1.7265874  0.045931178   -3.2195011    1.4929137   416047 
 3295000   0.94373826   -3.2211215   -1.7270791  0.046767578   -3.2211215    1.4940424   416010 
 3296000   0.94371798   -3.2209746   -1.7267021  0.050367383   -3.2209746    1.4942725   415937 
 3297000   0.94361972   -3.2206952     -1.72651  0.052127308   -3.2206952    1.4941852   415918 
 3298000   0.94269688   -3.2190905   -1.7262266  0.058447882   -3.2190905    1.4928639   415879 
 3299000   0.94368636   -3.2207382   -1.7261492  0.051215657   -3.2207382     1.494589   415835 
 3300000   0.94293568   -3.2214596   -1.7278045  0.051026683   -3.2214596    1.4936551   415764 
 3301000   0.94209706   -3.2213862    -1.728959  0.058516101   -3.2213862    1.4924272   415736 
 3302000   0.94118668   -3.2204567   -1.7292816   0.05485924   -3.2204567    1.4911751   415683 
 3303000   0.94228819   -3.2226278   -1.7294561  0.048884793   -3.2226278    1.4931717   415613 
 3304000   0.94335236   -3.2220763   -1.7271751  0.052455263   -3.2220763    1.4949012   415601 
 3305000   0.94309952   -3.2216826    -1.727103  0.050384136   -3.2216826    1.4945796   415579 
 3306000   0.94287916   -3.2223998   -1.7279464  0.051600162   -3.2223998    1.4944534   415517 
 3307000   0.94285903   -3.2235911   -1.7289538  0.051296215   -3.2235911    1.4946373   415457 
 3308000   0.94357473   -3.2249778   -1.7289827  0.055645394   -3.2249778    1.4959951   415395 
 3309000   0.94401756   -3.2255056   -1.7286895  0.051371187   -3.2255056    1.4968161   415362 
 3310000   0.94335256   -3.2249234   -1.7290357  0.055535476   -3.2249234    1.4958877   415327 
 3311000   0.94367922   -3.2259523   -1.7292655  0.051942578   -3.2259523    1.4966868   415249 
 3312000   0.94303688   -3.2256847   -1.7297464  0.055306709   -3.2256847    1.4959382   415174 
 3313000     0.941157   -3.2238985   -1.7305898   0.04947056   -3.2238985    1.4933087   415076 
 3314000   0.94221625   -3.2243843   -1.7294525  0.052125761   -3.2243843    1.4949317   415092 
 3315000   0.94421153   -3.2301323   -1.7318003  0.054976535   -3.2301323    1.4983321   415027 
 3316000   0.94138516   -3.2278155   -1.7337056  0.056513607   -3.2278155    1.4941098   414954 
 3317000   0.94156987   -3.2269306   -1.7322286  0.052478039   -3.2269306     1.494702   414871 
 3318000   0.94054671   -3.2273863    -1.734125  0.057356557   -3.2273863    1.4932613   414820 
 3319000   0.93981134   -3.2268209   -1.7344249  0.052709398   -3.2268209     1.492396   414736 
 3320000   0.93993362   -3.2288073   -1.7360264   0.04908961   -3.2288073     1.492781   414683 
 3321000   0.93900536   -3.2271999    -1.735663  0.048978694   -3.2271999    1.4915369   414619 
 3322000   0.94063588   -3.2285296   -1.7341649   0.05186895   -3.2285296    1.4943647   414553 
 3323000    0.9412892   -3.2317656   -1.7360094  0.056584525   -3.2317656    1.4957562   414455 
 3324000   0.93993227   -3.2304786   -1.7367272   0.05757919   -3.2304786    1.4937514   414413 
 3325000   0.93939741   -3.2303676   -1.7374266  0.052637287   -3.2303676     1.492941   414402 
 3326000   0.94000616   -3.2301996   -1.7361506  0.054513058   -3.2301996    1.4940491   414363 
 3327000   0.94152317   -3.2314079   -1.7348935  0.051976675   -3.2314079    1.4965144   414348 
 3328000   0.94010631    -3.230188   -1.7358679  0.060688977    -3.230188    1.4943201   414332 
 3329000   0.93973499   -3.2297253   -1.7358584  0.057258089   -3.2297253    1.4938668   414294 
 3330000   0.93838314   -3.2298122   -1.7379755  0.054944936   -3.2298122    1.4918367   414261 
 3331000   0.93832394   -3.2309642   -1.7390956  0.051988057   -3.2309642    1.4918686   414226 
 3332000   0.93723091   -3.2302521   -1.7399523   0.05507828   -3.2302521    1.4902999   414179 
 3333000   0.93716091   -3.2307374   -1.7403977  0.049944627   -3.2307374    1.4903397   414137 
 3334000   0.93856574   -3.2336364   -1.7409869  0.048564775   -3.2336364    1.4926494   414116 
 3335000   0.93757024   -3.2314721   -1.7402223  0.050620744   -3.2314721    1.4912499   414065 
 3336000   0.93839316    -3.231578   -1.7390192  0.055060397    -3.231578    1.4925588   414065 
 3337000   0.93868477   -3.2333828   -1.7400644  0.051966421   -3.2333828    1.4933183   413983 
 3338000   0.93907112   -3.2340628   -1.7399422  0.056850395   -3.2340628    1.4941206   413931 
 3339000   0.94009543   -3.2369056   -1.7409529  0.053200468   -3.2369056    1.4959528   413875 
 3340000   0.93707053   -3.2337733   -1.7423601  0.055472633   -3.2337733    1.4914132   413799 
 3341000   0.93855981   -3.2357107   -1.7417648  0.052216365   -3.2357107    1.4939459   413754 
 3342000   0.93612103   -3.2334795   -1.7432318  0.054979766   -3.2334795    1.4902477   413703 
 3343000   0.93870069   -3.2385727   -1.7438751  0.050195994   -3.2385727    1.4946976   413608 
 3344000   0.93759987   -3.2363989   -1.7432989  0.048480736   -3.2363989       1.4931   413565 
 3345000   0.93681952   -3.2358106   -1.7436538  0.050484823   -3.2358106    1.4921568   413482 
 3346000   0.93598261   -3.2366406   -1.7454598  0.048031092   -3.2366406    1.4911808   413383 
 3347000      0.93516   -3.2362055   -1.7461839  0.046916377   -3.2362055    1.4900216   413341 
 3348000   0.93758674   -3.2407285   -1.7467391   0.05101166   -3.2407285    1.4939894   413313 
 3349000     0.936883   -3.2394916   -1.7467066  0.049841864   -3.2394916     1.492785   413336 
 3350000   0.93519737   -3.2349825   -1.7448004  0.054387844   -3.2349825    1.4901821   413313 
 3351000   0.93575884   -3.2368231   -1.7457066  0.053077763   -3.2368231    1.4911165   413302 
 3352000    0.9365057     -3.23802   -1.7454353  0.051809895     -3.23802    1.4925847   413225 
 3353000   0.93616708   -3.2384218   -1.7462071  0.058772608   -3.2384218    1.4922147   413178 
 3354000    0.9372717    -3.242233   -1.7479864  0.051589021    -3.242233    1.4942466   413103 
 3355000   0.93598573   -3.2413871   -1.7490641  0.051280897   -3.2413871    1.4923229   413068 
 3356000   0.93530255   -3.2412108   -1.7498328  0.050392837   -3.2412108    1.4913781   413028 
 3357000   0.93532568   -3.2419797   -1.7502288  0.054952222   -3.2419797    1.4917509   412935 
 3358000   0.93616093   -3.2433806   -1.7501494  0.052791832   -3.2433806    1.4932313   412894 
 3359000    0.9338895   -3.2402431   -1.7505556  0.050217911   -3.2402431    1.4896876   412872 
 3360000   0.93358017   -3.2411008   -1.7517335  0.050966243   -3.2411008    1.4893673   412824 
 3361000   0.93265271   -3.2413597   -1.7533098  0.053360288   -3.2413597    1.4880499   412779 
 3362000    0.9329127   -3.2430733   -1.7545257  0.046900353   -3.2430733    1.4885476   412756 
 3363000   0.93395272    -3.243147   -1.7528135  0.050845559    -3.243147    1.4903335   412721 
 3364000   0.93328936   -3.2440427    -1.754526  0.050614473   -3.2440427    1.4895167   412654 
 3365000   0.93308373   -3.2441857   -1.7549322  0.051804877   -3.2441857    1.4892535   412636 
 3366000   0.93396778   -3.2449071   -1.7541378  0.056773479   -3.2449071    1.4907693   412607 
 3367000   0.93287887   -3.2435477   -1.7542674  0.052717776   -3.2435477    1.4892803   412538 
 3368000   0.93223638    -3.243036   -1.7546046  0.051174569    -3.243036    1.4884313   412489 
 3369000   0.93403407   -3.2458431   -1.7545199  0.054962699   -3.2458431    1.4913233   412483 
 3370000   0.93468779   -3.2478126   -1.7553406  0.052237202   -3.2478126     1.492472   412454 
 3371000   0.93484091   -3.2478386   -1.7550859  0.052661176   -3.2478386    1.4927527   412444 
 3372000   0.93537838    -3.248124   -1.7542741  0.051211085    -3.248124    1.4938499   412378 
 3373000   0.93395141   -3.2472194   -1.7556122  0.053569095   -3.2472194    1.4916072   412368 
 3374000   0.93336035   -3.2457275   -1.7550427  0.051816482   -3.2457275    1.4906849   412362 
 3375000   0.93332418   -3.2459101   -1.7551637  0.058975071   -3.2459101    1.4907464   412329 
 3376000   0.93449434    -3.248473   -1.7554846  0.058310289    -3.248473    1.4929884   412226 
 3377000   0.93515076    -3.247442   -1.7533179  0.053710454    -3.247442    1.4941241   412202 
 3378000   0.93346709   -3.2471873   -1.7554818  0.053170462   -3.2471873    1.4917054   412127 
 3379000    0.9341032   -3.2493591   -1.7564126  0.056276398   -3.2493591    1.4929466   412065 
 3380000   0.93243741   -3.2462963   -1.7560917  0.051165473   -3.2462963    1.4902046   412087 
 3381000   0.93119781    -3.246126   -1.7576568  0.051058598    -3.246126    1.4884691   412019 
 3382000   0.93149445   -3.2455851   -1.7564792  0.052044064   -3.2455851    1.4891059   411974 
 3383000   0.93104288   -3.2464684   -1.7579578   0.05193871   -3.2464684    1.4885105   411939 
 3384000    0.9308793   -3.2455197   -1.7572346  0.049725885   -3.2455197    1.4882851   411929 
 3385000   0.93013556   -3.2446076   -1.7574069  0.051405923   -3.2446076    1.4872007   411900 
 3386000   0.93014941   -3.2450043   -1.7575756  0.046278681   -3.2450043    1.4874287   411843 
 3387000   0.93082196    -3.244106   -1.7555874  0.054243492    -3.244106    1.4885187   411839 
 3388000    0.9311844   -3.2480331   -1.7586238  0.051013957   -3.2480331    1.4894093   411753 
 3389000   0.93035605    -3.246592   -1.7583739  0.055494569    -3.246592    1.4882181   411716 
 3390000   0.93128527   -3.2479394   -1.7580757  0.048155727   -3.2479394    1.4898637   411672 
 3391000   0.93005729   -3.2450894   -1.7569589  0.054310673   -3.2450894    1.4881305   411608 
 3392000   0.92988124    -3.245399   -1.7573115   0.04838528    -3.245399    1.4880874   411542 
 3393000   0.92990065    -3.245146   -1.7569624  0.054741532    -3.245146    1.4881836   411524 
 3394000    0.9312524   -3.2471568   -1.7567121  0.045256805   -3.2471568    1.4904447   411497 
 3395000   0.92987243   -3.2436903   -1.7554578   0.04947545   -3.2436903    1.4882325   411498 
 3396000   0.93005712   -3.2443839    -1.755541  0.043649135   -3.2443839    1.4888428   411411 
 3397000   0.93178578   -3.2469811   -1.7553746  0.048248237   -3.2469811    1.4916065   411412 
 3398000   0.92852831    -3.243814    -1.757068  0.049081137    -3.243814     1.486746   411314 
 3399000   0.92753913     -3.24216   -1.7567956  0.051146867     -3.24216    1.4853644   411258 
 3400000   0.92763885   -3.2419907   -1.7563763  0.049012322   -3.2419907    1.4856144   411233 
 3401000    0.9291956   -3.2447241    -1.756403  0.047983264   -3.2447241    1.4883211   411174 
 3402000   0.92886677    -3.245396   -1.7573302  0.051598746    -3.245396    1.4880658   411099 
 3403000   0.92783596   -3.2448948   -1.7582634  0.049967654   -3.2448948    1.4866314   411039 
 3404000   0.92837547   -3.2446035    -1.757086  0.051409178   -3.2446035    1.4875175   411033 
 3405000   0.92812063   -3.2453387   -1.7579762   0.04749366   -3.2453387    1.4873625   410963 
 3406000   0.92900608   -3.2476804   -1.7587974   0.04914097   -3.2476804     1.488883   410935 
 3407000   0.92827457   -3.2459396   -1.7581639   0.04924013   -3.2459396    1.4877758   410917 
 3408000   0.92860631   -3.2480469   -1.7595112  0.050481592   -3.2480469    1.4885357   410854 
 3409000   0.92892798   -3.2492708   -1.7599912   0.04863641   -3.2492708    1.4892797   410791 
 3410000   0.92653937    -3.246546   -1.7608318  0.051816332    -3.246546    1.4857142   410718 
 3411000   0.92629247   -3.2474122   -1.7619891  0.045892282   -3.2474122    1.4854232   410689 
 3412000   0.92707677   -3.2492742   -1.7624159  0.048133608   -3.2492742    1.4868583   410640 
 3413000   0.92787069   -3.2509846   -1.7627044  0.048350679   -3.2509846    1.4882802   410599 
 3414000    0.9269709   -3.2501769   -1.7632096  0.045381399   -3.2501769    1.4869673   410563 
 3415000   0.92658359    -3.249488   -1.7629718  0.047809937    -3.249488    1.4865162   410516 
 3416000   0.92769774   -3.2525243   -1.7641881  0.045291208   -3.2525243    1.4883363   410507 
 3417000   0.92650055   -3.2518191    -1.765313  0.048240923   -3.2518191    1.4865061   410482 
 3418000   0.92600259   -3.2521843   -1.7662962  0.050984809   -3.2521843    1.4858882   410432 
 3419000   0.92413108    -3.250592   -1.7675118  0.049494532    -3.250592    1.4830802   410378 
 3420000    0.9249307   -3.2520338   -1.7674135  0.049118835   -3.2520338    1.4846203   410307 
 3421000   0.92480031   -3.2523046   -1.7677633  0.053227569   -3.2523046    1.4845413   410271 
 3422000   0.92625811   -3.2545768   -1.7676193  0.046798106   -3.2545768    1.4869575   410250 
 3423000   0.92674439   -3.2545077   -1.7666717   0.05157973   -3.2545077    1.4878361   410223 
 3424000    0.9279449   -3.2578735   -1.7681391  0.049178114   -3.2578735    1.4897344   410231 
 3425000   0.92795847   -3.2581888   -1.7681275  0.052475672   -3.2581888    1.4900613   410147 
 3426000   0.92646095   -3.2572355   -1.7695244   0.05382202   -3.2572355    1.4877111   410132 
 3427000    0.9268394   -3.2569668   -1.7683685  0.049638835   -3.2569668    1.4885983   410055 
 3428000    0.9269164   -3.2567986   -1.7679459   0.04881888   -3.2567986    1.4888526   410019 
 3429000   0.92756167   -3.2578722   -1.7678232  0.055316534   -3.2578722     1.490049   409975 
 3430000   0.92550714   -3.2562018   -1.7693118  0.055679184   -3.2562018      1.48689   409936 
 3431000   0.92675497   -3.2582774   -1.7692919  0.051986641   -3.2582774    1.4889855   409911 
 3432000   0.92605455   -3.2592425   -1.7711536  0.045970234   -3.2592425    1.4880889   409848 
 3433000    0.9244042   -3.2574585   -1.7717932  0.049471444   -3.2574585    1.4856653   409785 
 3434000   0.92589644   -3.2592199   -1.7708766  0.049222407   -3.2592199    1.4883433   409708 
 3435000   0.92402211   -3.2574508   -1.7719682  0.052792546   -3.2574508    1.4854826   409666 
 3436000   0.92458181    -3.258319   -1.7717044  0.049567427    -3.258319    1.4866147   409602 
 3437000   0.92473322   -3.2578368   -1.7708189  0.050911699   -3.2578368    1.4870178   409558 
 3438000   0.92390093   -3.2561021   -1.7701687  0.054278952   -3.2561021    1.4859334   409488 
 3439000    0.9238916    -3.256402   -1.7703639  0.050803158    -3.256402    1.4860382   409455 
 3440000   0.92383012   -3.2574574   -1.7713112  0.047989682   -3.2574574    1.4861462   409398 
 3441000   0.92393132   -3.2572326   -1.7706984  0.047106643   -3.2572326    1.4865341   409336 
 3442000   0.92269615   -3.2557365   -1.7710591  0.052867786   -3.2557365    1.4846774   409300 
 3443000   0.92297954   -3.2560824     -1.77088  0.055109537   -3.2560824    1.4852023   409281 
 3444000   0.92274221   -3.2555665   -1.7704957  0.048968626   -3.2555665    1.4850708   409212 
 3445000   0.92155793   -3.2548712   -1.7714635  0.046933385   -3.2548712    1.4834077   409145 
 3446000   0.92129261   -3.2554457   -1.7721424   0.05004225   -3.2554457    1.4833033   409056 
 3447000    0.9217113   -3.2553272   -1.7711213  0.048161596   -3.2553272    1.4842059   408993 
 3448000    0.9214741   -3.2546306    -1.770676  0.047164623   -3.2546306    1.4839546   408957 
 3449000   0.92054452   -3.2537688   -1.7711988  0.044532269   -3.2537688      1.48257   408926 
 3450000   0.92030123   -3.2536522   -1.7713617   0.04345667   -3.2536522    1.4822905   408895 
 3451000   0.92037031   -3.2536012   -1.7710036  0.047192213   -3.2536012    1.4825976   408841 
 3452000   0.92030728   -3.2527005   -1.7700014  0.048014092   -3.2527005    1.4826992   408785 
 3453000   0.91950815   -3.2524571   -1.7709077  0.045768731   -3.2524571    1.4815494   408747 
 3454000   0.92057451   -3.2535034   -1.7701996   0.05124796   -3.2535034    1.4833038   408737 
 3455000   0.91902247   -3.2520088   -1.7708832  0.044408087   -3.2520088    1.4811256   408648 
 3456000   0.92057337   -3.2545956   -1.7709923  0.044085495   -3.2545956    1.4836033   408654 
 3457000   0.91916885   -3.2516885   -1.7701784   0.04804863   -3.2516885    1.4815101   408607 
 3458000     0.920933   -3.2538042   -1.7693271  0.045961704   -3.2538042    1.4844771   408573 
 3459000   0.91959707   -3.2551162   -1.7726038  0.042094103   -3.2551162    1.4825124   408521 
 3460000   0.91844328   -3.2534083   -1.7728249   0.05083154   -3.2534083    1.4805834   408540 
 3461000   0.92022296   -3.2562301   -1.7725053  0.049814269   -3.2562301    1.4837248   408465 
 3462000   0.91989226    -3.256642   -1.7733342  0.042094539    -3.256642    1.4833078   408433 
 3463000   0.91956421   -3.2568565   -1.7739179  0.045778443   -3.2568565    1.4829386   408389 
 3464000   0.91775409   -3.2558124   -1.7756516  0.049977194   -3.2558124    1.4801608   408350 
 3465000   0.91950023   -3.2575165   -1.7743906  0.045746402   -3.2575165    1.4831259   408309 
 3466000   0.91882925   -3.2579371   -1.7754868  0.045955677   -3.2579371    1.4824503   408197 
 3467000   0.91751556   -3.2576176    -1.777149  0.040894552   -3.2576176    1.4804686   408159 
 3468000    0.9184945   -3.2587752   -1.7765963   0.04619988   -3.2587752    1.4821789   408123 
 3469000   0.91810829   -3.2574466   -1.7756912  0.045621015   -3.2574466    1.4817553   408068 
 3470000   0.91873931   -3.2597202   -1.7768665  0.045122802   -3.2597202    1.4828537   408046 
 3471000   0.92009967   -3.2630232    -1.777872  0.046169218   -3.2630232    1.4851513   408018 
 3472000   0.91945973   -3.2616582    -1.777438   0.04551581   -3.2616582    1.4842202   407990 
 3473000   0.91822365   -3.2606695   -1.7783356  0.048896417   -3.2606695    1.4823338   407960 
 3474000   0.92014917   -3.2660312   -1.7803996   0.04519672   -3.2660312    1.4856317   407908 
 3475000   0.92015749   -3.2644578    -1.778678  0.053872871   -3.2644578    1.4857799   407871 
 3476000   0.92090768   -3.2660546   -1.7789467  0.050172473   -3.2660546    1.4871079   407839 
 3477000   0.92065684   -3.2660266   -1.7790904  0.051047696   -3.2660266    1.4869362   407775 
 3478000   0.92083055   -3.2677894   -1.7804414  0.053951935   -3.2677894     1.487348   407739 
 3479000   0.91937804   -3.2659948   -1.7807197   0.05106853   -3.2659948    1.4852751   407664 
 3480000   0.91974444   -3.2675924    -1.781554  0.051969826   -3.2675924    1.4860383   407617 
 3481000   0.91925018   -3.2663842   -1.7811298  0.049504243   -3.2663842    1.4852543   407613 
 3482000   0.91834013   -3.2650762   -1.7812121   0.05209359   -3.2650762     1.483864   407591 
 3483000   0.91901522   -3.2672331   -1.7821507  0.054213355   -3.2672331    1.4850824   407556 
 3484000   0.91869824   -3.2657232    -1.781113  0.052227563   -3.2657232    1.4846102   407545 
 3485000   0.91930171   -3.2667936    -1.781066  0.054937099   -3.2667936    1.4857276   407506 
 3486000   0.92034199   -3.2691265   -1.7813635  0.048466579   -3.2691265     1.487763   407409 
 3487000   0.91867688   -3.2667533   -1.7814487  0.053067544   -3.2667533    1.4853046   407345 
 3488000     0.918226   -3.2665235   -1.7817584  0.048757849   -3.2665235    1.4847652   407293 
 3489000   0.91804746   -3.2660664   -1.7814952  0.046700615   -3.2660664    1.4845712   407267 
 3490000   0.91697948   -3.2659725   -1.7829426  0.047839227   -3.2659725    1.4830299   407216 
 3491000   0.91579338   -3.2634166   -1.7821268  0.048758013   -3.2634166    1.4812899   407167 
 3492000   0.91660927   -3.2646677   -1.7819088  0.050756794   -3.2646677    1.4827589   407126 
 3493000   0.91670469   -3.2646974   -1.7814271  0.050122949   -3.2646974    1.4832703   407028 
 3494000    0.9158156   -3.2636988   -1.7815284  0.049969536   -3.2636988    1.4821704   406935 
 3495000   0.91464682    -3.264003   -1.7836806  0.048838976    -3.264003    1.4803224   406923 
 3496000   0.91429109    -3.264666   -1.7846102  0.048153794    -3.264666    1.4800559   406838 
 3497000   0.91299334   -3.2619474   -1.7838761  0.048726817   -3.2619474    1.4780713   406806 
 3498000   0.91488353    -3.264051   -1.7828468  0.052963652    -3.264051    1.4812042   406786 
 3499000   0.91412233   -3.2639568   -1.7837193  0.045175668   -3.2639568    1.4802375   406713 
 3500000   0.91605167   -3.2664393   -1.7828624  0.052572028   -3.2664393    1.4835769   406654 
 3501000   0.91521862   -3.2653931   -1.7829759  0.047956038   -3.2653931    1.4824173   406602 
 3502000   0.91334963   -3.2630517   -1.7836144  0.047824589   -3.2630517    1.4794373   406589 
 3503000   0.91345746   -3.2642759     -1.78438  0.043246644   -3.2642759    1.4798959   406511 
 3504000   0.91406059   -3.2649667   -1.7840355  0.043241863   -3.2649667    1.4809313   406495 
 3505000   0.91437079   -3.2647399   -1.7832878  0.045914617   -3.2647399    1.4814521   406490 
 3506000   0.91299993   -3.2626623   -1.7833075  0.046433413   -3.2626623    1.4793548   406456 
 3507000   0.91397506   -3.2637398   -1.7827103  0.045256168   -3.2637398    1.4810295   406430 
 3508000     0.914174   -3.2640751   -1.7826394  0.045867711   -3.2640751    1.4814357   406407 
 3509000   0.91322459   -3.2635389   -1.7834887    0.0512842   -3.2635389    1.4800502   406365 
 3510000   0.91341787   -3.2639262   -1.7834389  0.049722133   -3.2639262    1.4804873   406331 
 3511000   0.91407146   -3.2646173   -1.7828737  0.042375175   -3.2646173    1.4817435   406277 
 3512000   0.91295691   -3.2621165   -1.7821141  0.049116374   -3.2621165    1.4800024   406259 
 3513000   0.91388669   -3.2639304   -1.7821581  0.048086874   -3.2639304    1.4817723   406187 
 3514000   0.91390019   -3.2645653   -1.7826106  0.043572737   -3.2645653    1.4819547   406143 
 3515000   0.91407561   -3.2669888   -1.7845744  0.045109952   -3.2669888    1.4824144   406095 
 3516000   0.91267249   -3.2649433   -1.7846842  0.041523794   -3.2649433    1.4802591   406062 
 3517000   0.91350374   -3.2640421   -1.7824129  0.045443277   -3.2640421    1.4816292   406056 
 3518000   0.91333055   -3.2649544   -1.7835076  0.049808683   -3.2649544    1.4814468   406029 
 3519000   0.91407584    -3.266376   -1.7835084   0.04628352    -3.266376    1.4828675   405971 
 3520000   0.91420376   -3.2669538   -1.7837362  0.051012346   -3.2669538    1.4832175   405932 
 3521000   0.91461191   -3.2691958   -1.7853343  0.047685867   -3.2691958    1.4838614   405937 
 3522000    0.9135599   -3.2680279   -1.7856615  0.047931546   -3.2680279    1.4823665   405879 
 3523000   0.91257836    -3.267416   -1.7865035  0.050203711    -3.267416    1.4809124   405841 
 3524000   0.91296001   -3.2681206   -1.7864866   0.04840814   -3.2681206     1.481634   405813 
 3525000    0.9118068   -3.2672819   -1.7872094  0.050862126   -3.2672819    1.4800725   405728 
 3526000   0.91147514   -3.2681127   -1.7884582  0.048855392   -3.2681127    1.4796545   405695 
 3527000   0.91142503   -3.2669484   -1.7871564   0.05008426   -3.2669484     1.479792   405635 
 3528000    0.9123447   -3.2689008   -1.7875901  0.051330205   -3.2689008    1.4813107   405628 
 3529000   0.91160906   -3.2697614   -1.7895137   0.04641138   -3.2697614    1.4802477   405592 
 3530000   0.91225059   -3.2709753   -1.7895325  0.050937037   -3.2709753    1.4814428   405550 
 3531000   0.91108978   -3.2699672   -1.7900921   0.05044839   -3.2699672    1.4798751   405463 
 3532000    0.9106304    -3.271435   -1.7920652  0.043099721    -3.271435    1.4793698   405397 
 3533000    0.9110158    -3.270896   -1.7907541   0.04683437    -3.270896    1.4801419   405357 
 3534000   0.91132742   -3.2718628   -1.7909771  0.047772454   -3.2718628    1.4808857   405292 
 3535000   0.91090378   -3.2717149   -1.7914519  0.045691994   -3.2717149     1.480263   405274 
 3536000   0.91246495   -3.2723813   -1.7893252  0.047385905   -3.2723813    1.4830562   405204 
 3537000    0.9119697   -3.2737422   -1.7913848  0.043758086   -3.2737422    1.4823573   405175 
 3538000   0.91232908   -3.2729034   -1.7899144   0.04784258   -3.2729034    1.4829891   405162 
 3539000   0.91186557   -3.2724603    -1.790049  0.046011538   -3.2724603    1.4824112   405114 
 3540000   0.91208887   -3.2716974   -1.7888645  0.043775025   -3.2716974    1.4828328   405098 
 3541000   0.91194906   -3.2727943   -1.7900936  0.050239274   -3.2727943    1.4827007   405072 
 3542000   0.91032324   -3.2704018   -1.7902202  0.047229735   -3.2704018    1.4801816   405038 
 3543000   0.91005413   -3.2692626   -1.7893871  0.046811333   -3.2692626    1.4798755   405002 
 3544000   0.90906172    -3.269202   -1.7908563  0.046701601    -3.269202    1.4783457   404979 
 3545000   0.90916361   -3.2688505   -1.7900908  0.047546313   -3.2688505    1.4787597   404911 
 3546000   0.90916921   -3.2689361   -1.7900614  0.043544985   -3.2689361    1.4788747   404882 
 3547000   0.90948615   -3.2703633   -1.7908232  0.044732059   -3.2703633    1.4795401   404841 
 3548000   0.90749183   -3.2679217   -1.7914582  0.054174934   -3.2679217    1.4764635   404795 
 3549000   0.90730781   -3.2677161   -1.7913878  0.047733832   -3.2677161    1.4763282   404750 
 3550000   0.90874963   -3.2698897   -1.7911168  0.040743618   -3.2698897    1.4787729   404723 
 3551000   0.90838259   -3.2688394   -1.7906126  0.048361141   -3.2688394    1.4782268   404709 
 3552000   0.90874846   -3.2704653   -1.7916833  0.045655614   -3.2704653     1.478782   404720 
 3553000    0.9084602   -3.2699677    -1.791578  0.048088497   -3.2699677    1.4783896   404699 
 3554000   0.90987584    -3.270267   -1.7896834  0.047477198    -3.270267    1.4805836   404729 
 3555000     0.910044   -3.2708995   -1.7897861  0.044795457   -3.2708995    1.4811134   404659 
 3556000   0.90825124   -3.2692046   -1.7908591  0.049962743   -3.2692046    1.4783455   404618 
 3557000   0.90878683   -3.2699559   -1.7905521  0.052434362   -3.2699559    1.4794037   404567 
 3558000   0.91069307   -3.2723214   -1.7898475  0.049807298   -3.2723214    1.4824739   404576 
 3559000   0.90870326   -3.2704177    -1.791066  0.051346134   -3.2704177    1.4793518   404544 
 3560000   0.90929691   -3.2723858    -1.791998  0.049375672   -3.2723858    1.4803877   404525 
 3561000   0.90768579   -3.2693655   -1.7915606  0.052444222   -3.2693655    1.4778049   404514 
 3562000   0.91117312   -3.2745057    -1.790803  0.050137181   -3.2745057    1.4837027   404454 
 3563000   0.91040095   -3.2738346   -1.7913013  0.052429784   -3.2738346    1.4825334   404430 
 3564000   0.91041265   -3.2735058   -1.7908031  0.047869909   -3.2735058    1.4827027   404389 
 3565000   0.90885754   -3.2735117   -1.7932465  0.046101426   -3.2735117    1.4802652   404363 
 3566000    0.9078527   -3.2716591   -1.7929902  0.051770876   -3.2716591    1.4786688   404352 
 3567000   0.90939521   -3.2732818   -1.7921555  0.046576136   -3.2732818    1.4811263   404367 
 3568000   0.90902716    -3.275437    -1.794782  0.040638924    -3.275437     1.480655   404332 
 3569000   0.90795532   -3.2733394   -1.7943022   0.05049987   -3.2733394    1.4790372   404297 
 3570000   0.91029964   -3.2767161   -1.7937611  0.045150063   -3.2767161    1.4829551   404270 
 3571000   0.90710206    -3.273431   -1.7955534  0.045334652    -3.273431    1.4778775   404234 
 3572000   0.90767631   -3.2750932   -1.7962947  0.046273993   -3.2750932    1.4787985   404238 
 3573000   0.90773169   -3.2754201   -1.7963229  0.047394259   -3.2754201    1.4790973   404181 
 3574000   0.90682801   -3.2738982   -1.7962844  0.051203033   -3.2738982    1.4776138   404184 
 3575000    0.9074875   -3.2760168   -1.7971381  0.041126233   -3.2760168    1.4788787   404132 
 3576000   0.90773283   -3.2755621   -1.7961958  0.047763221   -3.2755621    1.4793663   404108 
 3577000   0.90836312   -3.2771625    -1.796714  0.048561457   -3.2771625    1.4804485   404093 
 3578000   0.90785574   -3.2772107   -1.7974427   0.04820577   -3.2772107     1.479768   404053 
 3579000   0.90740215   -3.2775055   -1.7982718  0.043005911   -3.2775055    1.4792337   403997 
 3580000   0.90795626   -3.2778668   -1.7976492  0.051475994   -3.2778668    1.4802176   403975 
 3581000   0.90675121   -3.2767451    -1.798353  0.044121046   -3.2767451    1.4783921   403937 
 3582000   0.90769233   -3.2775731   -1.7975402   0.04690491   -3.2775731    1.4800328   403908 
 3583000   0.90728367   -3.2771931   -1.7976618  0.047864533   -3.2771931    1.4795313   403863 
 3584000   0.90695581   -3.2775011   -1.7982151  0.050857853   -3.2775011     1.479286   403784 
 3585000   0.90850151   -3.2787492   -1.7967292  0.049846957   -3.2787492      1.48202   403726 
 3586000   0.90879665   -3.2798552   -1.7971518  0.053029209   -3.2798552    1.4827035   403671 
 3587000   0.90841868   -3.2787438   -1.7965983  0.053165594   -3.2787438    1.4821455   403655 
 3588000   0.90951875   -3.2811152   -1.7970902  0.048043302   -3.2811152    1.4840249   403632 
 3589000   0.90834558   -3.2788398   -1.7966373  0.048865025   -3.2788398    1.4822025   403607 
 3590000   0.90878677   -3.2791864   -1.7961427  0.055567535   -3.2791864    1.4830437   403574 
 3591000   0.90846246   -3.2811868   -1.7985291  0.046444673   -3.2811868    1.4826577   403535 
 3592000   0.90534244   -3.2775265   -1.7999828  0.052867799   -3.2775265    1.4775437   403541 
 3593000   0.90617318   -3.2787453   -1.7997321  0.047780488   -3.2787453    1.4790131   403510 
 3594000   0.90771731   -3.2807842   -1.7989349  0.046113145   -3.2807842    1.4818492   403424 
 3595000   0.90604669   -3.2798525   -1.8007709  0.051402501   -3.2798525    1.4790816   403435 
 3596000   0.90535116   -3.2808431   -1.8028383   0.05042032   -3.2808431    1.4780048   403419 
 3597000   0.90600997   -3.2809224   -1.8017138  0.047337458   -3.2809224    1.4792087   403384 
 3598000   0.90620421   -3.2788717   -1.7994449  0.054245684   -3.2788717    1.4794268   403411 
 3599000   0.90485456   -3.2772179   -1.7999762  0.050271081   -3.2772179    1.4772417   403406 
 3600000   0.90635073   -3.2798203   -1.7998828  0.047257912   -3.2798203    1.4799374   403337 
 3601000   0.90535293   -3.2784698   -1.8001506  0.048471247   -3.2784698    1.4783192   403334 
 3602000    0.9064594   -3.2795157   -1.7994339  0.043497695   -3.2795157    1.4800819   403346 
 3603000   0.90709971   -3.2822038   -1.8009038  0.047666258   -3.2822038       1.4813   403299 
 3604000   0.90566227   -3.2817573   -1.8027387   0.04510451   -3.2817573    1.4790186   403281 
 3605000   0.90622359   -3.2830975   -1.8028576  0.047600721   -3.2830975      1.48024   403198 
 3606000   0.90675628   -3.2828831   -1.8018686  0.049235388   -3.2828831    1.4810146   403224 
 3607000   0.90579525   -3.2813266   -1.8016688  0.041387882   -3.2813266    1.4796577   403166 
 3608000   0.90483481   -3.2795199   -1.8014055  0.048138946   -3.2795199    1.4781145   403159 
 3609000   0.90508286   -3.2798521   -1.8012187  0.046051117   -3.2798521    1.4786334   403128 
 3610000   0.90419453   -3.2809542   -1.8036695  0.047653208   -3.2809542    1.4772847   403100 
 3611000   0.90483748   -3.2810379   -1.8027724  0.049451092   -3.2810379    1.4782655   403119 
 3612000   0.90472999   -3.2816053   -1.8034164  0.050151814   -3.2816053    1.4781889   403092 
 3613000   0.90441187   -3.2810638   -1.8031563  0.053582554   -3.2810638    1.4779075   403027 
 3614000   0.90665419   -3.2848793   -1.8031827  0.044516708   -3.2848793    1.4816967   402993 
 3615000   0.90657549    -3.283727   -1.8021957  0.052457756    -3.283727    1.4815313   403003 
 3616000   0.90556355   -3.2823554   -1.8024484   0.05205239   -3.2823554    1.4799069   402995 
 3617000   0.90512319   -3.2828797   -1.8035933  0.049526478   -3.2828797    1.4792864   402968 
 3618000   0.90423386   -3.2830985   -1.8050822  0.050579127   -3.2830985    1.4780163   402918 
 3619000   0.90412304   -3.2831467    -1.805051  0.053927337   -3.2831467    1.4780956   402847 
 3620000   0.90401084    -3.284504   -1.8063459  0.047974229    -3.284504    1.4781581   402780 
 3621000   0.90471527   -3.2842751   -1.8047081  0.049875583   -3.2842751     1.479567   402710 
 3622000   0.90422857   -3.2858999   -1.8069856  0.049053638   -3.2858999    1.4789143   402671 
 3623000    0.9034472   -3.2851827   -1.8073702   0.05115525   -3.2851827    1.4778125   402623 
 3624000   0.90395353   -3.2866249   -1.8079842  0.047859603   -3.2866249    1.4786407   402623 
 3625000   0.90323764    -3.283838    -1.806394   0.05417594    -3.283838     1.477444   402630 
 3626000    0.9016496   -3.2828269   -1.8079475  0.052627718   -3.2828269    1.4748794   402621 
 3627000   0.90211923   -3.2855295   -1.8096877  0.046588755   -3.2855295    1.4758419   402568 
 3628000   0.90170883   -3.2845757   -1.8092734  0.047698976   -3.2845757    1.4753024   402532 
 3629000   0.90332214   -3.2871968   -1.8092402  0.047178709   -3.2871968    1.4779566   402528 
 3630000   0.90305625   -3.2869602   -1.8094018  0.039685886   -3.2869602    1.4775583   402518 
 3631000   0.90260118   -3.2852811   -1.8084087  0.046405317   -3.2852811    1.4768724   402502 
 3632000   0.90245414   -3.2833217   -1.8065908  0.044610584   -3.2833217    1.4767309   402475 
 3633000   0.90461835    -3.287127   -1.8067848  0.041299142    -3.287127    1.4803422   402456 
 3634000   0.90239653   -3.2837205   -1.8069151  0.048350983   -3.2837205    1.4768054   402429 
 3635000    0.9028387   -3.2842388    -1.806662  0.049141531   -3.2842388    1.4775768   402416 
 3636000   0.90384259   -3.2861781   -1.8067966  0.049096356   -3.2861781    1.4793815   402372 
 3637000   0.90486787   -3.2865274   -1.8052358  0.044339673   -3.2865274    1.4812916   402309 
 3638000   0.90370801   -3.2856897   -1.8060872  0.047804054   -3.2856897    1.4796025   402252 
 3639000   0.90334057   -3.2844735   -1.8053476  0.054834602   -3.2844735    1.4791259   402218 
 3640000    0.9041967   -3.2847503   -1.8041122  0.047520234   -3.2847503    1.4806382   402188 
 3641000   0.90108395   -3.2817748   -1.8060944  0.049411942   -3.2817748    1.4756804   402150 
 3642000   0.90212371   -3.2849096    -1.807328  0.045809525   -3.2849096    1.4775816   402096 
 3643000   0.90168984   -3.2853913   -1.8082962  0.044672613   -3.2853913    1.4770951   402035 
 3644000   0.89993958   -3.2839593   -1.8096581  0.048820782   -3.2839593    1.4743012   402015 
 3645000   0.89928116   -3.2832095      -1.8098   0.04522054   -3.2832095    1.4734095   401964 
 3646000   0.89936377   -3.2829762   -1.8092334  0.042880706   -3.2829762    1.4737428   401910 
 3647000   0.89919597    -3.283261   -1.8096428  0.046409233    -3.283261    1.4736182   401869 
 3648000   0.89908519   -3.2830976   -1.8095803  0.046868687   -3.2830976    1.4735173   401847 
 3649000    0.9012761   -3.2872942   -1.8100208  0.048200517   -3.2872942    1.4772734   401802 
 3650000   0.90047722    -3.284829   -1.8087731   0.05090924    -3.284829    1.4760559   401777 
 3651000   0.90031708   -3.2844169   -1.8086382  0.046595201   -3.2844169    1.4757787   401781 
 3652000   0.90078989   -3.2852136   -1.8084541   0.04235524   -3.2852136    1.4767595   401725 
 3653000    0.9022372   -3.2871498   -1.8078813   0.04719681   -3.2871498    1.4792685   401688 
 3654000   0.90177013   -3.2859858   -1.8073027  0.051045157   -3.2859858    1.4786831   401639 
 3655000   0.90333403   -3.2862854   -1.8049863   0.05481525   -3.2862854    1.4812991   401625 
 3656000   0.90333718   -3.2883225   -1.8067489  0.050252617   -3.2883225    1.4815736   401552 
 3657000   0.90216912   -3.2855354   -1.8058923  0.048700025   -3.2855354    1.4796431   401556 
 3658000   0.90055702   -3.2829877   -1.8059997  0.051521241   -3.2829877    1.4769881   401559 
 3659000    0.9010579   -3.2845215   -1.8066273  0.047964913   -3.2845215    1.4778942   401536 
 3660000   0.90021687   -3.2844103   -1.8077558  0.043953479   -3.2844103    1.4766545   401498 
 3661000   0.89972517   -3.2837148   -1.8078484   0.04986516   -3.2837148    1.4758663   401493 
 3662000   0.89902734   -3.2826788    -1.807869  0.047708873   -3.2826788    1.4748098   401469 
 3663000    0.8989288   -3.2835151   -1.8088816  0.044122912   -3.2835151    1.4746335   401473 
 3664000   0.90033756   -3.2842074   -1.8070238  0.044269696   -3.2842074    1.4771836   401408 
 3665000   0.90097621   -3.2848152   -1.8065875   0.04599179   -3.2848152    1.4782278   401409 
 3666000   0.89932977   -3.2820317   -1.8065568  0.044369163   -3.2820317     1.475475   401423 
 3667000   0.90049571   -3.2840935   -1.8066026  0.049313676   -3.2840935    1.4774909   401395 
 3668000   0.89844042   -3.2829061   -1.8087727  0.047746204   -3.2829061    1.4741334   401391 
 3669000   0.89882564   -3.2835568    -1.808806  0.042901552   -3.2835568    1.4747508   401395 
 3670000     0.897889   -3.2825557   -1.8090848  0.037452323   -3.2825557    1.4734709   401325 
 3671000    0.8979613   -3.2839897   -1.8103671  0.042280639   -3.2839897    1.4736226   401316 
 3672000    0.8977721   -3.2823822   -1.8091619  0.047742782   -3.2823822    1.4732203   401341 
 3673000   0.89788051   -3.2842913    -1.810882  0.042477205   -3.2842913    1.4734093   401338 
 3674000   0.89768036   -3.2850656   -1.8117241  0.047211509   -3.2850656    1.4733415   401267 
 3675000   0.89563785   -3.2836086   -1.8134143  0.045710554   -3.2836086    1.4701943   401211 
 3676000   0.89713117   -3.2840716   -1.8113269  0.047620124   -3.2840716    1.4727447   401184 
 3677000   0.89724431   -3.2856179   -1.8127094  0.046739689   -3.2856179    1.4729084   401190 
 3678000   0.89765739   -3.2864497    -1.812595  0.044021798   -3.2864497    1.4738547   401117 
 3679000   0.89840074   -3.2866107   -1.8114693  0.040949828   -3.2866107    1.4751414   401099 
 3680000    0.8994277   -3.2874191   -1.8105693  0.048997903   -3.2874191    1.4768497   401093 
 3681000   0.90028755   -3.2893626   -1.8109278   0.04574364   -3.2893626    1.4784348   401046 
 3682000   0.89987745   -3.2888633   -1.8111314  0.050465449   -3.2888633    1.4777319   401054 
 3683000   0.89820818   -3.2871932   -1.8119744  0.045382461   -3.2871932    1.4752188   400992 
 3684000    0.8996982   -3.2895503   -1.8118217  0.049364112   -3.2895503    1.4777286   400975 
 3685000   0.89816438   -3.2879887   -1.8127425  0.052814129   -3.2879887    1.4752462   400965 
 3686000   0.90070154   -3.2915033   -1.8120234  0.044144848   -3.2915033    1.4794799   400947 
 3687000   0.89846897   -3.2878029   -1.8118872  0.050656748   -3.2878029    1.4759158   400919 
 3688000   0.90071454   -3.2922614   -1.8126789  0.047568557   -3.2922614    1.4795824   400925 
 3689000   0.90036022   -3.2906746   -1.8115561  0.051467268   -3.2906746    1.4791185   400893 
 3690000   0.89996136   -3.2891699   -1.8106293  0.047011448   -3.2891699    1.4785407   400872 
 3691000   0.90089675   -3.2913626   -1.8113258   0.04722463   -3.2913626    1.4800368   400883 
 3692000   0.89873428   -3.2892973   -1.8126215  0.048362434   -3.2892973    1.4766757   400831 
 3693000   0.89933924    -3.289468   -1.8116619  0.051908521    -3.289468    1.4778061   400794 
 3694000   0.90012654   -3.2911151   -1.8120521  0.053491289   -3.2911151    1.4790629   400804 
 3695000   0.90029879   -3.2907686   -1.8113894   0.05062822   -3.2907686    1.4793792   400795 
 3696000   0.89874769   -3.2908948   -1.8138985  0.051086777   -3.2908948    1.4769962   400750 
 3697000   0.89896649   -3.2910567    -1.813535  0.048473582   -3.2910567    1.4775217   400705 
 3698000   0.89774565   -3.2896052   -1.8139207  0.043585237   -3.2896052    1.4756846   400659 
 3699000   0.89821404   -3.2905055   -1.8140621  0.045273354   -3.2905055    1.4764434   400662 
 3700000   0.89499874   -3.2844802   -1.8132007  0.047586445   -3.2844802    1.4712795   400629 
 3701000   0.89683814   -3.2874437   -1.8130889   0.04753464   -3.2874437    1.4743548   400615 
 3702000   0.89695659   -3.2878093   -1.8131346  0.050248838   -3.2878093    1.4746746   400581 
 3703000   0.89839876   -3.2890443   -1.8117995  0.051352166   -3.2890443    1.4772448   400527 
 3704000   0.89790408    -3.289708   -1.8130701  0.047014783    -3.289708    1.4766379   400471 
 3705000   0.89713492    -3.289537   -1.8139171  0.044978411    -3.289537    1.4756198   400404 
 3706000   0.89500358   -3.2864876   -1.8142557  0.047548158   -3.2864876    1.4722318   400372 
 3707000   0.89642801   -3.2874499    -1.812735  0.046114058   -3.2874499    1.4747149   400334 
 3708000   0.89693188   -3.2892141    -1.813615  0.042319451   -3.2892141    1.4755991   400319 
 3709000   0.89418601   -3.2853252   -1.8140817  0.046327874   -3.2853252    1.4712434   400275 
 3710000   0.89723891   -3.2883433   -1.8118481  0.047149013   -3.2883433    1.4764952   400213 
 3711000    0.8965879   -3.2879954   -1.8124757  0.041151645   -3.2879954    1.4755197   400187 
 3712000   0.89579278   -3.2859186   -1.8115822  0.045745659   -3.2859186    1.4743365   400153 
 3713000    0.8959758    -3.285691   -1.8109169  0.047547885    -3.285691    1.4747741   400116 
 3714000   0.89556124    -3.286045   -1.8117469   0.04952602    -3.286045     1.474298   400060 
 3715000   0.89737079   -3.2880615   -1.8107328  0.048871624   -3.2880615    1.4773287   400046 
 3716000   0.89928115   -3.2914111   -1.8108005  0.046904681   -3.2914111    1.4806106   400009 
 3717000   0.89709801   -3.2885161   -1.8114556  0.047890178   -3.2885161    1.4770605   399997 
 3718000   0.89654986   -3.2865759   -1.8103551  0.042139925   -3.2865759    1.4762207   399980 
 3719000   0.89680539    -3.287883   -1.8111751  0.045538593    -3.287883    1.4767079   399962 
 3720000   0.89373563   -3.2836322   -1.8118539  0.039631743   -3.2836322    1.4717783   399928 
 3721000   0.89582235   -3.2868042   -1.8115157  0.045481715   -3.2868042    1.4752884   399908 
 3722000   0.89630796   -3.2875039   -1.8111906  0.048300864   -3.2875039    1.4763133   399847 
 3723000   0.89602405   -3.2894533   -1.8133898  0.047566968   -3.2894533    1.4760635   399788 
 3724000    0.8955855   -3.2884675   -1.8131191  0.044858898   -3.2884675    1.4753484   399786 
 3725000    0.8955922   -3.2876091   -1.8121648  0.048684613   -3.2876091    1.4754444   399763 
 3726000   0.89491064   -3.2881511    -1.813575  0.053922816   -3.2881511     1.474576   399694 
 3727000   0.89631553   -3.2901635   -1.8130989  0.048499751   -3.2901635    1.4770646   399647 
 3728000   0.89690929   -3.2912911   -1.8132333  0.048658274   -3.2912911    1.4780579   399643 
 3729000   0.89633626   -3.2904168    -1.813148  0.049385417   -3.2904168    1.4772688   399601 
 3730000   0.89573609   -3.2896083   -1.8131698  0.048685203   -3.2896083    1.4764385   399558 
 3731000   0.89598433    -3.289099   -1.8122994  0.051751322    -3.289099    1.4767997   399571 
 3732000   0.89552879   -3.2910832   -1.8149014  0.050862952   -3.2910832    1.4761818   399535 
 3733000   0.89417755   -3.2899116   -1.8158538  0.051421462   -3.2899116    1.4740578   399507 
 3734000   0.89653512   -3.2935817   -1.8153859  0.045554536   -3.2935817    1.4781958   399439 
 3735000   0.89527467   -3.2912506   -1.8150849  0.045946877   -3.2912506    1.4761657   399426 
 3736000   0.89338632   -3.2896669   -1.8164746  0.045762189   -3.2896669    1.4731922   399388 
 3737000   0.89394105   -3.2920241   -1.8175775  0.047435918   -3.2920241    1.4744466   399296 
 3738000    0.8922447   -3.2911641   -1.8192943  0.049512889   -3.2911641    1.4718699   399236 
 3739000   0.89383487   -3.2950316   -1.8201692  0.046188208   -3.2950316    1.4748625   399136 
 3740000   0.89160407   -3.2921375   -1.8208085  0.053219254   -3.2921375     1.471329   399096 
 3741000   0.89295726   -3.2960326   -1.8222379  0.046451195   -3.2960326    1.4737947   399033 
 3742000   0.89337908   -3.2953685   -1.8209736  0.046024526   -3.2953685    1.4743948   399059 
 3743000   0.89414824   -3.2949997   -1.8193059  0.048145471   -3.2949997    1.4756938   399051 
 3744000   0.89475431   -3.2956858   -1.8189547  0.050053068   -3.2956858    1.4767311   399041 
 3745000   0.89464325   -3.2962433   -1.8195068  0.049332138   -3.2962433    1.4767365   398990 
 3746000   0.89405676   -3.2955925   -1.8198351  0.050155994   -3.2955925    1.4757573   398993 
 3747000   0.89230888   -3.2949996   -1.8219686  0.048409531   -3.2949996     1.473031   398950 
 3748000   0.89283711   -3.2957356    -1.821755  0.052067447   -3.2957356    1.4739806   398929 
 3749000   0.89142259    -3.294365   -1.8225905  0.049482608    -3.294365    1.4717745   398894 
 3750000   0.89238284   -3.2947813   -1.8212995  0.047716808   -3.2947813    1.4734818   398861 
 3751000   0.89181578   -3.2940576    -1.821442  0.044204134   -3.2940576    1.4726156   398842 
 3752000   0.89419951   -3.2975479   -1.8209554   0.04767083   -3.2975479    1.4765925   398831 
 3753000   0.89249082   -3.2971701   -1.8230887  0.048832211   -3.2971701    1.4740814   398747 
 3754000   0.89160287   -3.2955611   -1.8228023  0.048519783   -3.2955611    1.4727588   398708 
 3755000   0.89220945   -3.2967191   -1.8229102  0.042911972   -3.2967191    1.4738089   398695 
 3756000   0.89263846   -3.2965652   -1.8218553   0.05142846   -3.2965652    1.4747099   398643 
 3757000   0.89244007   -3.2959938   -1.8214748  0.052947368   -3.2959938     1.474519   398606 
 3758000   0.89384672   -3.2984934   -1.8215984  0.044378605   -3.2984934     1.476895   398592 
 3759000   0.89263963    -3.296778   -1.8217702  0.049473473    -3.296778    1.4750078   398563 
 3760000   0.89389454   -3.2986692   -1.8213654  0.047228582   -3.2986692    1.4773038   398503 
 3761000   0.89128388   -3.2956276   -1.8224831  0.047793574   -3.2956276    1.4731446   398461 
 3762000   0.89163978   -3.2962741   -1.8223268  0.047893465   -3.2962741    1.4739473   398403 
 3763000   0.89252327   -3.2987213   -1.8231209   0.04421123   -3.2987213    1.4756004   398351 
 3764000   0.89139921   -3.2958195   -1.8219998  0.048739224   -3.2958195    1.4738197   398330 
 3765000   0.89019124   -3.2945775   -1.8226146  0.048066632   -3.2945775    1.4719629   398292 
 3766000   0.89224533   -3.2973437   -1.8219139  0.050992035   -3.2973437    1.4754298   398273 
 3767000   0.89190865   -3.2954087    -1.820406  0.043705304   -3.2954087    1.4750027   398238 
 3768000   0.89123854   -3.2948583   -1.8209527  0.047459656   -3.2948583    1.4739056   398235 
 3769000   0.89161937   -3.2960968   -1.8214651  0.051076377   -3.2960968    1.4746317   398209 
 3770000   0.89289545   -3.2961048   -1.8191623  0.045456227   -3.2961048    1.4769424   398155 
 3771000   0.89055194    -3.292957    -1.819717  0.050496518    -3.292957    1.4732399   398108 
 3772000   0.89007377   -3.2917482   -1.8191588  0.047513071   -3.2917482    1.4725895   398070 
 3773000   0.89156704   -3.2954142   -1.8201652  0.049666629   -3.2954142     1.475249   398019 
 3774000   0.89057084   -3.2925184   -1.8186882  0.049060458   -3.2925184    1.4738302   397957 
 3775000   0.89034839   -3.2937429   -1.8200068  0.050204462   -3.2937429    1.4737361   397883 
 3776000   0.89027535   -3.2948154   -1.8211594  0.048076639   -3.2948154     1.473656   397872 
 3777000   0.88930565   -3.2930311    -1.821021  0.048055357   -3.2930311    1.4720101   397883 
 3778000   0.88981367   -3.2963124   -1.8232689  0.045758974   -3.2963124    1.4730435   397831 
 3779000   0.88880252   -3.2949528   -1.8235128  0.043608702   -3.2949528    1.4714399   397812 
 3780000   0.88894935   -3.2952826   -1.8236181  0.040941764   -3.2952826    1.4716645   397817 
 3781000   0.88979548   -3.2958839   -1.8225631   0.04025732   -3.2958839    1.4733208   397748 
 3782000   0.89004151   -3.2950727   -1.8211407  0.041670485   -3.2950727     1.473932   397693 
 3783000   0.88966392   -3.2947378   -1.8213608  0.044220413   -3.2947378    1.4733771   397674 
 3784000   0.89018622   -3.2956216   -1.8212721  0.046104269   -3.2956216    1.4743496   397645 
 3785000   0.89098087   -3.2959349   -1.8201987  0.045848825   -3.2959349    1.4757362   397626 
 3786000   0.89106968   -3.2963535   -1.8203551  0.050444315   -3.2963535    1.4759984   397595 
 3787000   0.89234588   -3.2997509    -1.821501  0.047134109   -3.2997509    1.4782499   397558 
 3788000     0.891825     -3.29909   -1.8216992  0.047380273     -3.29909    1.4773907   397557 
 3789000   0.89068343    -3.297923   -1.8223046  0.045886796    -3.297923    1.4756184   397525 
 3790000   0.88843344   -3.2966551   -1.8244643  0.044377218   -3.2966551    1.4721907   397444 
 3791000   0.88801952   -3.2959473   -1.8242387  0.042516213   -3.2959473    1.4717085   397389 
 3792000   0.88918573   -3.2981349    -1.824297  0.042493117   -3.2981349    1.4738378   397336 
 3793000   0.88925833   -3.2973806   -1.8234595  0.048946356   -3.2973806    1.4739211   397346 
 3794000   0.88911589   -3.2995239   -1.8258946  0.043491785   -3.2995239    1.4736294   397361 
 3795000   0.88974007   -3.3018994   -1.8270796  0.046989935   -3.3018994    1.4748198   397319 
 3796000   0.88985188   -3.3011648   -1.8261634  0.045086066   -3.3011648    1.4750014   397320 
 3797000   0.88883771   -3.2992654   -1.8257225  0.048211653   -3.2992654    1.4735428   397260 
 3798000   0.88980496   -3.3020792   -1.8268177  0.049198674   -3.3020792    1.4752615   397229 
 3799000   0.88967167   -3.3018901   -1.8266713  0.053532009   -3.3018901    1.4752188   397181 
 3800000   0.88766516   -3.2983796   -1.8265621  0.051679869   -3.2983796    1.4718175   397201 
 3801000   0.88684463   -3.2981364   -1.8275238  0.050590341   -3.2981364    1.4706125   397159 
 3802000     0.888181   -3.3004997   -1.8276266  0.048844851   -3.3004997    1.4728731   397147 
 3803000   0.88911329   -3.3027705    -1.828266  0.040074705   -3.3027705    1.4745045   397124 
 3804000   0.88775531   -3.3028134   -1.8304645  0.047270996   -3.3028134    1.4723488   397098 
 3805000   0.88840356   -3.3038545    -1.830271  0.043337829   -3.3038545    1.4735835   397055 
 3806000    0.8878542   -3.3034481   -1.8306756   0.04827378   -3.3034481    1.4727724   397028 
 3807000   0.88906042   -3.3038499   -1.8291323  0.047586967   -3.3038499    1.4747176   397043 
 3808000   0.88894152    -3.305499   -1.8308672  0.052044773    -3.305499    1.4746318   397013 
 3809000   0.88829605   -3.3041333   -1.8305574  0.053763072   -3.3041333    1.4735759   397009 
 3810000   0.88833689   -3.3042581   -1.8306256  0.048901867   -3.3042581    1.4736325   397012 
 3811000   0.88754421   -3.3022247   -1.8297551  0.046151735   -3.3022247    1.4724696   396971 
 3812000     0.887215   -3.3013916   -1.8293977  0.043664064   -3.3013916    1.4719939   396952 
 3813000   0.88818253   -3.3034573   -1.8297059   0.05056605   -3.3034573    1.4737514   396911 
 3814000   0.88729569   -3.3013046   -1.8289209  0.042654939   -3.3013046    1.4723837   396883 
 3815000   0.88884659   -3.3045388   -1.8296373  0.047670439   -3.3045388    1.4749016   396898 
 3816000   0.88886949   -3.3036245    -1.828592  0.050142359   -3.3036245    1.4750325   396873 
 3817000    0.8882109   -3.3040446   -1.8298636  0.047599636   -3.3040446     1.474181   396808 
 3818000   0.88718405   -3.3010147   -1.8284823  0.046836308   -3.3010147    1.4725324   396793 
 3819000   0.88723224   -3.3006643   -1.8278849  0.047889257   -3.3006643    1.4727794   396748 
 3820000   0.88690334   -3.3018992   -1.8294505  0.046790725   -3.3018992    1.4724487   396690 
 3821000   0.88723228   -3.3016387   -1.8285548  0.049331888   -3.3016387    1.4730839   396666 
 3822000   0.88811739   -3.3027194   -1.8280953  0.045976477   -3.3027194    1.4746241   396647 
 3823000   0.88816579   -3.3034003   -1.8283983  0.045320845   -3.3034003     1.475002   396567 
 3824000    0.8874568   -3.3028402   -1.8289673  0.050361506   -3.3028402    1.4738729   396554 
 3825000   0.88818529   -3.3023649   -1.8272152   0.04368841   -3.3023649    1.4751497   396536 
 3826000   0.88702055   -3.2995714   -1.8263153   0.04558273   -3.2995714    1.4732561   396525 
 3827000   0.88718809   -3.2995938    -1.826026  0.048558461   -3.2995938    1.4735678   396516 
 3828000   0.88794853   -3.3006392   -1.8254326  0.052664454   -3.3006392    1.4752066   396415 
 3829000   0.88764439    -3.300292   -1.8255089  0.050056551    -3.300292    1.4747831   396393 
 3830000   0.88781462    -3.301551   -1.8263101  0.049976798    -3.301551    1.4752409   396346 
 3831000    0.8883491   -3.3018061   -1.8255244  0.049563158   -3.3018061    1.4762817   396305 
 3832000   0.88799557   -3.3021242   -1.8263108  0.040027101   -3.3021242    1.4758134   396273 
 3833000   0.88514756   -3.2988585   -1.8276522  0.046493836   -3.2988585    1.4712063   396239 
 3834000   0.88507754   -3.2985674   -1.8275592  0.041493431   -3.2985674    1.4710083   396261 
 3835000   0.88563954   -3.2994833   -1.8273961  0.042697707   -3.2994833    1.4720872   396222 
 3836000   0.88650527   -3.3005769   -1.8269874  0.049598464   -3.3005769    1.4735894   396205 
 3837000    0.8868828   -3.3015987   -1.8275082  0.041702763   -3.3015987    1.4740905   396239 
 3838000   0.88463486   -3.2966639   -1.8261167  0.044243116   -3.2966639    1.4705472   396187 
 3839000   0.88606684   -3.2997253   -1.8266304   0.04175961   -3.2997253    1.4730949   396142 
 3840000   0.88705527   -3.3010137   -1.8262607  0.045648717   -3.3010137    1.4747531   396138 
 3841000   0.88584181   -3.2986385   -1.8257913  0.043766653   -3.2986385    1.4728472   396108 
 3842000   0.88440375   -3.2965867   -1.8260525  0.049883699   -3.2965867    1.4705342   396087 
 3843000   0.88536843   -3.2992118   -1.8268915  0.044143954   -3.2992118    1.4723203   396038 
 3844000   0.88403026   -3.2964605   -1.8263321  0.049973005   -3.2964605    1.4701284   396029 
 3845000   0.88426709   -3.2976493   -1.8268559  0.048384444   -3.2976493    1.4707934   395956 
 3846000   0.88478943   -3.2990755    -1.827469    0.0483109   -3.2990755    1.4716064   395971 
 3847000    0.8852512   -3.2978958   -1.8256701  0.043098859   -3.2978958    1.4722257   396011 
 3848000   0.88536015   -3.2988901    -1.826472  0.038516109   -3.2988901    1.4724181   396008 
 3849000   0.88470266   -3.2988566   -1.8274911  0.049776266   -3.2988566    1.4713655   395997 
 3850000   0.88581432   -3.3003084   -1.8271424  0.043369649   -3.3003084     1.473166   396010 
 3851000   0.88453149   -3.2996086   -1.8282937     0.046812   -3.2996086    1.4713149   395934 
 3852000   0.88650253   -3.3025471   -1.8278493  0.046576119   -3.3025471    1.4746978   395906 
 3853000   0.88583828    -3.302291   -1.8286722  0.047420793    -3.302291    1.4736189   395899 
 3854000     0.885952   -3.3015476   -1.8274417  0.052456096   -3.3015476    1.4741059   395819 
 3855000   0.88658695    -3.303373   -1.8283113  0.049081868    -3.303373    1.4750618   395846 
 3856000   0.88571831   -3.3024999   -1.8288015   0.04850217   -3.3024999    1.4736985   395824 
 3857000    0.8860122   -3.3023779   -1.8282687  0.051904998   -3.3023779    1.4741093   395845 
 3858000   0.88550564   -3.3039895   -1.8306821  0.048899542   -3.3039895    1.4733074   395834 
 3859000   0.88582264   -3.3052169   -1.8312927  0.050630943   -3.3052169    1.4739242   395810 
 3860000   0.88515714   -3.3064207   -1.8334252  0.046742745   -3.3064207    1.4729955   395762 
 3861000   0.88429196    -3.304965   -1.8333275  0.046531925    -3.304965    1.4716375   395740 
 3862000   0.88526332   -3.3078214   -1.8343848  0.050353202   -3.3078214    1.4734365   395691 
 3863000   0.88594337    -3.309361   -1.8347329  0.043793001    -3.309361     1.474628   395675 
 3864000   0.88365551   -3.3045827   -1.8337219  0.045558406   -3.3045827    1.4708608   395664 
 3865000   0.88543701   -3.3105816    -1.836748  0.046310185   -3.3105816    1.4738336   395662 
 3866000   0.88517051   -3.3102882   -1.8368126  0.047860802   -3.3102882    1.4734757   395639 
 3867000    0.8838182   -3.3077428   -1.8364884  0.048760915   -3.3077428    1.4712543   395631 
 3868000   0.88545563   -3.3109395   -1.8368477  0.048539786   -3.3109395    1.4740919   395601 
 3869000   0.88476052   -3.3103081   -1.8371687  0.048420013   -3.3103081    1.4731395   395546 
 3870000   0.88395399   -3.3087674   -1.8369261  0.052163743   -3.3087674    1.4718413   395534 
 3871000   0.88437125   -3.3092832   -1.8365685  0.047477892   -3.3092832    1.4727147   395486 
 3872000   0.88430774   -3.3094603   -1.8367061  0.049861813   -3.3094603    1.4727542   395447 
 3873000   0.88472169   -3.3128344   -1.8392566  0.043264356   -3.3128344    1.4735778   395411 
 3874000   0.88508186   -3.3128191   -1.8386489  0.045823628   -3.3128191    1.4741702   395413 
 3875000   0.88373349   -3.3099247   -1.8379482  0.050549901   -3.3099247    1.4719765   395399 
 3876000   0.88419524   -3.3120588   -1.8392647  0.048292952   -3.3120588     1.472794   395386 
 3877000   0.88388162   -3.3102094   -1.8379936  0.047196841   -3.3102094    1.4722158   395401 
 3878000   0.88409123    -3.311799   -1.8390702   0.04820147    -3.311799    1.4727288   395357 
 3879000   0.88258366   -3.3099771   -1.8397521  0.045221448   -3.3099771    1.4702249   395355 
 3880000    0.8837112   -3.3116095   -1.8393462  0.042311413   -3.3116095    1.4722633   395312 
 3881000   0.88209258   -3.3092193    -1.839463  0.044261953   -3.3092193    1.4697563   395261 
 3882000   0.88125009   -3.3082443   -1.8397245  0.040036084   -3.3082443    1.4685197   395216 
 3883000   0.88166822    -3.308403   -1.8392571   0.04406783    -3.308403    1.4691459   395235 
 3884000   0.88025939    -3.307174   -1.8404648  0.043612628    -3.307174    1.4667093   395259 
 3885000   0.88102695   -3.3078266    -1.839779   0.04362594   -3.3078266    1.4680476   395243 
 3886000   0.88024382   -3.3062242   -1.8393257  0.051608471   -3.3062242    1.4668986   395201 
 3887000   0.88208086   -3.3086772   -1.8386243  0.046532852   -3.3086772    1.4700529   395176 
 3888000   0.88101056     -3.30882   -1.8403985  0.045128722     -3.30882    1.4684215   395135 
 3889000   0.87990961   -3.3064528   -1.8395767  0.044787414   -3.3064528    1.4668761   395057 
 3890000   0.88042876   -3.3079692   -1.8402685  0.046248045   -3.3079692    1.4677007   395068 
 3891000   0.88007287    -3.307846   -1.8405863  0.042622243    -3.307846    1.4672597   395027 
 3892000   0.88068321   -3.3074248   -1.8389877  0.040345492   -3.3074248    1.4684371   394984 
 3893000   0.88093349   -3.3069063   -1.8380184  0.042771258   -3.3069063    1.4688879   394975 
 3894000   0.88081352   -3.3088947   -1.8400023  0.038892364   -3.3088947    1.4688924   394920 
 3895000   0.87869215    -3.304589   -1.8391081  0.044536361    -3.304589    1.4654808   394886 
 3896000   0.88143404   -3.3093878   -1.8391889  0.042619861   -3.3093878    1.4701989   394847 
 3897000    0.8832619    -3.311433   -1.8381367  0.045493749    -3.311433    1.4732963   394834 
 3898000   0.88178397   -3.3097596   -1.8388429  0.049325281   -3.3097596    1.4709167   394811 
 3899000   0.88176093   -3.3086285   -1.8375415  0.050482292   -3.3086285    1.4710869   394755 
 3900000   0.88175243   -3.3092528   -1.8380607  0.047524476   -3.3092528     1.471192   394723 
 3901000   0.88303733    -3.309728   -1.8364071  0.044744018    -3.309728    1.4733209   394727 
 3902000   0.88275905   -3.3099036   -1.8369351  0.040090174   -3.3099036    1.4729686   394697 
 3903000   0.88165646   -3.3085236   -1.8372978  0.046329731   -3.3085236    1.4712257   394671 
 3904000   0.88177738   -3.3102201   -1.8386099  0.048039268   -3.3102201    1.4716102   394622 
 3905000     0.881627   -3.3098408   -1.8383511  0.043787539   -3.3098408    1.4714898   394587 
 3906000   0.88102275   -3.3080108   -1.8374252  0.046578755   -3.3080108    1.4705856   394559 
 3907000   0.87955073   -3.3054674   -1.8372459  0.050890755   -3.3054674    1.4682215   394534 
 3908000   0.88222073   -3.3105519   -1.8377241  0.044665955   -3.3105519    1.4728278   394494 
 3909000   0.88048118   -3.3084071   -1.8383529  0.051587089   -3.3084071    1.4700542   394459 
 3910000   0.87872329   -3.3061336   -1.8390814  0.048749194   -3.3061336    1.4670523   394477 
 3911000   0.87968917   -3.3066146   -1.8376928  0.049371868   -3.3066146    1.4689218   394408 
 3912000   0.87932668   -3.3059781   -1.8375946  0.048890904   -3.3059781    1.4683835   394390 
 3913000   0.87950689   -3.3051823   -1.8364644  0.043129888   -3.3051823    1.4687179   394381 
 3914000   0.88037017   -3.3074108   -1.8371245  0.041963031   -3.3074108    1.4702863   394347 
 3915000   0.88072879   -3.3101081   -1.8392117  0.046427036   -3.3101081    1.4708964   394344 
 3916000   0.87968885   -3.3079446   -1.8387328  0.047003227   -3.3079446    1.4692118   394330 
 3917000   0.87874422   -3.3063794   -1.8386113  0.048149882   -3.3063794    1.4677681   394294 
 3918000   0.88029384   -3.3079584   -1.8375684  0.043411441   -3.3079584      1.47039   394285 
 3919000   0.88059955   -3.3084944   -1.8375714  0.040833766   -3.3084944     1.470923   394279 
 3920000   0.87985234   -3.3057167   -1.8359859  0.045575898   -3.3057167    1.4697308   394264 
 3921000   0.87880557   -3.3050393   -1.8370309  0.045568168   -3.3050393    1.4680083   394257 
 3922000   0.88017174   -3.3060956   -1.8356634  0.045370222   -3.3060956    1.4704322   394219 
 3923000   0.88004576   -3.3075452   -1.8371855  0.050032722   -3.3075452    1.4703597   394182 
 3924000   0.87820246   -3.3047094   -1.8372656   0.04721634   -3.3047094    1.4674438   394138 
 3925000   0.88048926   -3.3065612    -1.835188   0.04587731   -3.3065612    1.4713732   394109 
 3926000   0.87944619   -3.3066637   -1.8369553  0.047684699   -3.3066637    1.4697085   394088 
 3927000   0.87940936   -3.3075408   -1.8377037  0.045266991   -3.3075408    1.4698371   394037 
 3928000   0.87888864   -3.3041508   -1.8352213  0.049066787   -3.3041508    1.4689295   394047 
 3929000   0.88004457    -3.306026   -1.8349891  0.044588646    -3.306026    1.4710369   394000 
 3930000   0.87916626   -3.3051909    -1.835514  0.043464492   -3.3051909     1.469677   393971 
 3931000   0.87898144   -3.3058215   -1.8362856  0.047747382   -3.3058215    1.4695359   393926 
 3932000    0.8790113   -3.3055952   -1.8359274  0.044045733   -3.3055952    1.4696679   393904 
 3933000   0.87830616   -3.3065862     -1.83784  0.045026003   -3.3065862    1.4687462   393835 
 3934000   0.87821324   -3.3060324   -1.8373185  0.045331833   -3.3060324    1.4687139   393802 
 3935000   0.87794496   -3.3052967   -1.8370874  0.049280627   -3.3052967    1.4682093   393817 
 3936000   0.87843541   -3.3065005   -1.8372696  0.041243676   -3.3065005    1.4692309   393763 
 3937000   0.87702759   -3.3043209   -1.8372807  0.049741858   -3.3043209    1.4670402   393719 
 3938000   0.87734152    -3.304239   -1.8365394  0.048270489    -3.304239    1.4676995   393683 
 3939000   0.87773059   -3.3054283    -1.837007  0.047495229   -3.3054283    1.4684213   393664 
 3940000   0.87837871    -3.308708   -1.8390121  0.044404647    -3.308708     1.469696   393613 
 3941000   0.87910362   -3.3089891   -1.8381027  0.043606787   -3.3089891    1.4708864   393619 
 3942000   0.87712922   -3.3064748   -1.8388843  0.048515723   -3.3064748    1.4675904   393617 
 3943000   0.87733045   -3.3072494   -1.8392067  0.043795588   -3.3072494    1.4680427   393586 
 3944000   0.87587837   -3.3067201   -1.8408166   0.04649199   -3.3067201    1.4659034   393508 
 3945000   0.87670769    -3.307256    -1.839849  0.045721292    -3.307256     1.467407   393477 
 3946000   0.87832181   -3.3098613   -1.8397563  0.049089606   -3.3098613     1.470105   393478 
 3947000    0.8777887   -3.3085572   -1.8393146  0.045519195   -3.3085572    1.4692425   393470 
 3948000   0.87815631   -3.3097449   -1.8398684  0.047004454   -3.3097449    1.4698765   393465 
 3949000   0.87702365   -3.3096567   -1.8415156   0.04783829   -3.3096567    1.4681411   393422 
 3950000   0.87634814   -3.3084008     -1.84126  0.051349074   -3.3084008    1.4671408   393387 
 3951000   0.87789366   -3.3107844   -1.8408694  0.047714081   -3.3107844    1.4699151   393337 
 3952000   0.87752189    -3.310804   -1.8416384  0.043056116    -3.310804    1.4691656   393371 
 3953000    0.8769867   -3.3107765   -1.8423725  0.047486606   -3.3107765     1.468404   393335 
 3954000   0.87699076   -3.3108269   -1.8423863  0.050098012   -3.3108269    1.4684406   393327 
 3955000   0.87660031     -3.30972   -1.8417652  0.041985448     -3.30972    1.4679548   393282 
 3956000   0.87672971   -3.3101104   -1.8419053  0.046275793   -3.3101104    1.4682051   393273 
 3957000   0.87894297   -3.3135404    -1.841423  0.041026008   -3.3135404    1.4721174   393218 
 3958000   0.87757964   -3.3117498   -1.8418336  0.046914459   -3.3117498    1.4699162   393196 
 3959000   0.87602602   -3.3105424    -1.843068  0.046706007   -3.3105424    1.4674744   393153 
 3960000   0.87592914   -3.3104293   -1.8429529  0.046973877   -3.3104293    1.4674764   393109 
 3961000   0.87772222   -3.3141983   -1.8435907  0.047455297   -3.3141983    1.4706076   393075 
 3962000   0.87762669   -3.3152204    -1.844683  0.048878503   -3.3152204    1.4705373   393051 
 3963000   0.87728398    -3.313244   -1.8432884  0.043879411    -3.313244    1.4699556   393053 
 3964000   0.87739839   -3.3119795   -1.8417761  0.044273392   -3.3119795    1.4702034   393038 
 3965000   0.87696253   -3.3123375   -1.8427448  0.051162514   -3.3123375    1.4695927   393006 
 3966000   0.87748825     -3.31397   -1.8435225  0.044607478     -3.31397    1.4704475   393013 
 3967000   0.87823787   -3.3147624   -1.8428639  0.048479453   -3.3147624    1.4718984   392961 
 3968000   0.87828711   -3.3145259   -1.8426048  0.047424722   -3.3145259     1.471921   392977 
 3969000   0.87784226   -3.3146716   -1.8432865  0.047516547   -3.3146716    1.4713852   392921 
 3970000    0.8777393   -3.3147411   -1.8433525  0.047835916   -3.3147411    1.4713886   392874 
 3971000   0.87804855   -3.3156332   -1.8435052  0.048534836   -3.3156332    1.4721281   392815 
 3972000   0.87617447   -3.3136059   -1.8446311  0.049549365   -3.3136059    1.4689748   392818 
 3973000   0.87755804   -3.3156444   -1.8442226   0.04802993   -3.3156444    1.4714218   392784 
 3974000   0.87613421   -3.3146955   -1.8454366  0.043177508   -3.3146955    1.4692589   392724 
 3975000   0.87571712   -3.3141437   -1.8453487  0.048021428   -3.3141437    1.4687951   392661 
 3976000   0.87603667   -3.3156084   -1.8461502  0.043635836   -3.3156084    1.4694583   392627 
 3977000   0.87561019   -3.3146992   -1.8459451  0.047314289   -3.3146992    1.4687541   392624 
 3978000   0.87643616   -3.3138158   -1.8437286  0.050600177   -3.3138158    1.4700872   392638 
 3979000   0.87565887    -3.313464   -1.8445459   0.04715199    -3.313464    1.4689181   392602 
 3980000   0.87550311   -3.3136619   -1.8449266   0.04705672   -3.3136619    1.4687354   392581 
 3981000   0.87653211   -3.3152504   -1.8446503  0.043448149   -3.3152504    1.4706002   392544 
 3982000   0.87606934   -3.3145954   -1.8445431  0.044634213   -3.3145954    1.4700522   392483 
 3983000   0.87503344   -3.3137103   -1.8452841  0.045022794   -3.3137103    1.4684262   392453 
 3984000   0.87374119    -3.312365   -1.8458756  0.044968395    -3.312365    1.4664893   392391 
 3985000   0.87398639   -3.3121539   -1.8452493  0.047131839   -3.3121539    1.4669046   392390 
 3986000   0.87331509   -3.3118409   -1.8461228  0.048478138   -3.3118409    1.4657181   392406 
 3987000     0.873339   -3.3122191   -1.8463712  0.051290611   -3.3122191    1.4658479   392382 
 3988000   0.87354391   -3.3116152   -1.8453001  0.041979481   -3.3116152    1.4663152   392349 
 3989000   0.87468985   -3.3123597   -1.8438553  0.043743089   -3.3123597    1.4685044   392278 
 3990000    0.8754281   -3.3125195    -1.842697  0.045821071   -3.3125195    1.4698226   392257 
 3991000   0.87458526   -3.3125037   -1.8441112  0.048940696   -3.3125037    1.4683925   392261 
 3992000   0.87456053   -3.3133603   -1.8449008  0.043135738   -3.3133603    1.4684595   392232 
 3993000   0.87355864   -3.3123411   -1.8455564  0.040204129   -3.3123411    1.4667847   392230 
 3994000    0.8736179   -3.3119191   -1.8449975  0.045473476   -3.3119191    1.4669217   392220 
 3995000    0.8746919   -3.3131745   -1.8444083  0.044168266   -3.3131745    1.4687662   392209 
 3996000   0.87495896   -3.3123222   -1.8431487  0.045090752   -3.3123222    1.4691735   392220 
 3997000   0.87533217   -3.3126137   -1.8427873  0.046976381   -3.3126137    1.4698264   392213 
 3998000   0.87596639   -3.3122581    -1.841408  0.050755719   -3.3122581    1.4708501   392224 
 3999000   0.87571843   -3.3112142   -1.8406905  0.049120671   -3.3112142    1.4705237   392200 
 4000000   0.87578616   -3.3129541   -1.8422342   0.04541639   -3.3129541    1.4707199   392178 
 4001000    0.8745293   -3.3120007   -1.8433128  0.046792381   -3.3120007    1.4686879   392157 
 4002000   0.87566544   -3.3151294   -1.8442559  0.051473689   -3.3151294    1.4708735   392083 
 4003000   0.87501966   -3.3145792   -1.8445167  0.050790744   -3.3145792    1.4700625   392010 
 4004000   0.87320271    -3.311991   -1.8449736  0.045664742    -3.311991    1.4670174   392008 
 4005000   0.87416364    -3.312999   -1.8444158  0.044156728    -3.312999    1.4685831   392021 
 4006000   0.87503462   -3.3138403   -1.8437227  0.043798491   -3.3138403    1.4701176   392002 
 4007000   0.87359875   -3.3141046   -1.8463207  0.050223954   -3.3141046    1.4677839   391981 
 4008000   0.87428308   -3.3146409    -1.845591  0.043029077   -3.3146409    1.4690499   391950 
 4009000   0.87391212   -3.3134966   -1.8451712  0.045121238   -3.3134966    1.4683254   391977 
 4010000   0.87404105   -3.3137428   -1.8450621  0.046597306   -3.3137428    1.4686806   391940 
 4011000   0.87441531   -3.3159903   -1.8464858  0.047868405   -3.3159903    1.4695045   391888 
 4012000   0.87501545   -3.3174252   -1.8468971  0.044708996   -3.3174252    1.4705281   391884 
 4013000   0.87331386    -3.314022   -1.8463461  0.051587515    -3.314022    1.4676759   391882 
 4014000   0.87462107   -3.3157595   -1.8457817  0.048627518   -3.3157595    1.4699778   391854 
 4015000    0.8747949   -3.3159232   -1.8456082  0.043718262   -3.3159232     1.470315   391842 
 4016000   0.87458222   -3.3148279   -1.8446828  0.051903606   -3.3148279    1.4701451   391792 
 4017000   0.87439405   -3.3143618    -1.844668  0.046659533   -3.3143618    1.4696938   391828 
 4018000   0.87589725   -3.3161136   -1.8438894  0.044842549   -3.3161136    1.4722242   391827 
 4019000   0.87415094   -3.3136116   -1.8442664  0.046501694   -3.3136116    1.4693452   391812 
 4020000   0.87392874   -3.3130103   -1.8440836   0.05212503   -3.3130103    1.4689267   391824 
 4021000   0.87457081   -3.3148391   -1.8446756  0.049627642   -3.3148391    1.4701635   391782 
 4022000   0.87514294   -3.3155883   -1.8443279  0.050966373   -3.3155883    1.4712604   391746 
 4023000   0.87230731   -3.3133306   -1.8468186  0.044076658   -3.3133306     1.466512   391741 
 4024000   0.87198579   -3.3136366   -1.8475641  0.049218323   -3.3136366    1.4660725   391714 
 4025000   0.87219189   -3.3127117   -1.8462328  0.045464119   -3.3127117    1.4664789   391698 
 4026000   0.87294672   -3.3140208   -1.8462278  0.047405459   -3.3140208     1.467793   391686 
 4027000   0.87307709   -3.3144993   -1.8462809  0.048963614   -3.3144993    1.4682184   391631 
 4028000   0.87213042    -3.313035   -1.8462625  0.041068989    -3.313035    1.4667725   391592 
 4029000     0.872052   -3.3140136   -1.8470846  0.048127304   -3.3140136     1.466929   391515 
 4030000   0.87271074   -3.3144545   -1.8463273  0.047626624   -3.3144545    1.4681272   391491 
 4031000   0.87280379   -3.3142005   -1.8460105  0.048073548   -3.3142005    1.4681899   391516 
 4032000   0.87484841   -3.3152912   -1.8435228   0.05197521   -3.3152912    1.4717684   391479 
 4033000   0.87527282   -3.3159222   -1.8433646  0.053147015   -3.3159222    1.4725576   391459 
 4034000   0.87494988   -3.3160428    -1.843848   0.04667803   -3.3160428    1.4721948   391411 
 4035000   0.87450613   -3.3151921    -1.843586  0.050303968   -3.3151921    1.4716061   391369 
 4036000    0.8743108   -3.3154498    -1.844195   0.04809147   -3.3154498    1.4712548   391375 
 4037000   0.87463587   -3.3157324   -1.8438854  0.053127081   -3.3157324     1.471847   391363 
 4038000   0.87557716    -3.316412   -1.8429509  0.049441138    -3.316412    1.4734611   391355 
 4039000    0.8751362   -3.3171455   -1.8441668  0.050234404   -3.3171455    1.4729787   391286 
 4040000   0.87416814   -3.3140638   -1.8425377  0.054633834   -3.3140638    1.4715261   391239 
 4041000   0.87349047   -3.3136535   -1.8432794  0.049571523   -3.3136535    1.4703741   391242 
 4042000   0.87195133   -3.3126878   -1.8447357  0.049015312   -3.3126878     1.467952   391197 
 4043000   0.87123781   -3.3117093   -1.8448498  0.041715142   -3.3117093    1.4668595   391168 
 4044000   0.87226467   -3.3150612   -1.8463377  0.045044517   -3.3150612    1.4687236   391132 
 4045000   0.87132586   -3.3136663   -1.8465798  0.044679861   -3.3136663    1.4670865   391147 
 4046000   0.86937969   -3.3112489   -1.8470274  0.044029469   -3.3112489    1.4642215   391037 
 4047000    0.8693963   -3.3109103   -1.8464512  0.043819186   -3.3109103    1.4644592   390981 
 4048000   0.87172287   -3.3134756   -1.8450185  0.042722804   -3.3134756     1.468457   390960 
 4049000   0.86978274   -3.3093326   -1.8438027  0.045626167   -3.3093326    1.4655299   390869 
 4050000   0.87260486   -3.3127612   -1.8422994  0.042003919   -3.3127612    1.4704618   390822 
 4051000   0.87389931   -3.3142893   -1.8414766  0.049866718   -3.3142893    1.4728127   390777 
 4052000    0.8709462   -3.3110336   -1.8431753  0.046337884   -3.3110336    1.4678583   390771 
 4053000    0.8702012   -3.3095384    -1.842808  0.046432459   -3.3095384    1.4667303   390737 
 4054000   0.87025198   -3.3081157    -1.841236  0.049079087   -3.3081157    1.4668797   390720 
 4055000   0.87082984   -3.3077283   -1.8399346  0.043961215   -3.3077283    1.4677937   390736 
 4056000   0.86958393   -3.3048118   -1.8390806  0.045012263   -3.3048118    1.4657312   390726 
 4057000   0.86969608   -3.3058038    -1.839681  0.050253041   -3.3058038    1.4661228   390672 
 4058000   0.87028877   -3.3074633   -1.8404352  0.049465619   -3.3074633    1.4670281   390697 
 4059000   0.87145056   -3.3085844   -1.8394625  0.047940726   -3.3085844    1.4691219   390661 
 4060000   0.87086958   -3.3062674   -1.8381287  0.046267071   -3.3062674    1.4681387   390662 
 4061000   0.87021563   -3.3047199   -1.8377212  0.045513244   -3.3047199    1.4669987   390672 
 4062000   0.87029048   -3.3050003   -1.8377665  0.046970112   -3.3050003    1.4672338   390643 
 4063000   0.86940205    -3.304512    -1.838686  0.045486503    -3.304512     1.465826   390619 
 4064000   0.86939589   -3.3063803   -1.8404633  0.043152459   -3.3063803     1.465917   390592 
 4065000   0.86911033   -3.3062014   -1.8405895  0.044417355   -3.3062014    1.4656118   390545 
 4066000   0.87013618   -3.3077745   -1.8404402  0.047971901   -3.3077745    1.4673342   390547 
 4067000   0.86968029   -3.3057402   -1.8389381  0.047602944   -3.3057402    1.4668021   390484 
 4068000   0.87106355   -3.3064781   -1.8374446  0.049787129   -3.3064781    1.4690335   390511 
 4069000   0.86932152   -3.3041398   -1.8380066  0.047855228   -3.3041398    1.4661331   390501 
 4070000   0.87065734   -3.3053186   -1.8368573  0.050912018   -3.3053186    1.4684612   390481 
 4071000   0.87035498   -3.3064143   -1.8383051  0.046137824   -3.3064143    1.4681092   390439 
 4072000     0.870754   -3.3081266   -1.8390885  0.042394269   -3.3081266    1.4690381   390371 
 4073000   0.87046405     -3.30787   -1.8391104  0.052010499     -3.30787    1.4687596   390315 
 4074000   0.87262929   -3.3118562   -1.8393941  0.044752811   -3.3118562    1.4724622   390302 
 4075000   0.87037664    -3.308025   -1.8392774  0.048012312    -3.308025    1.4687476   390279 
 4076000   0.86976989   -3.3082038   -1.8406042   0.04212104   -3.3082038    1.4675996   390312 
 4077000   0.87135009    -3.309474   -1.8391666  0.045585889    -3.309474    1.4703074   390301 
 4078000   0.87006712   -3.3080957   -1.8398968  0.049302346   -3.3080957     1.468199   390286 
 4079000    0.8711955   -3.3094622   -1.8392649  0.048228514   -3.3094622    1.4701972   390261 
 4080000   0.87027265   -3.3106706   -1.8418953  0.046410247   -3.3106706    1.4687754   390225 
 4081000   0.87107544   -3.3117553   -1.8415008  0.044097922   -3.3117553    1.4702546   390192 
 4082000   0.87056569   -3.3122778   -1.8426501  0.044150442   -3.3122778    1.4696277   390130 
 4083000    0.8678121   -3.3076061   -1.8424165  0.049886208   -3.3076061    1.4651896   390074 
 4084000   0.86823832   -3.3104039   -1.8443745  0.048176135   -3.3104039    1.4660295   390042 
 4085000   0.86836403   -3.3096941   -1.8433245  0.044625117   -3.3096941    1.4663696   390008 
 4086000   0.87098146   -3.3122274   -1.8412115  0.045222076   -3.3122274    1.4710158   389948 
 4087000   0.87066191   -3.3118965   -1.8411941  0.049996846   -3.3118965    1.4707024   389888 
 4088000    0.8700972   -3.3125001    -1.842695  0.049304325   -3.3125001    1.4698051   389873 
 4089000   0.87177023   -3.3146145   -1.8418019  0.053974955   -3.3146145    1.4728126   389825 
 4090000   0.86972689   -3.3118476   -1.8424607  0.056933599   -3.3118476    1.4693868   389818 
 4091000    0.8702476   -3.3122711   -1.8418084  0.050359241   -3.3122711    1.4704627   389766 
 4092000   0.86984004   -3.3141162   -1.8443195  0.049111816   -3.3141162    1.4697967   389760 
 4093000   0.86967114   -3.3134585   -1.8440717   0.04285234   -3.3134585    1.4693869   389793 
 4094000   0.86866239   -3.3115071   -1.8437531  0.041528086   -3.3115071     1.467754   389774 
 4095000   0.86638179   -3.3091133   -1.8451901   0.04370566   -3.3091133    1.4639231   389768 
 4096000   0.86659751   -3.3092975   -1.8448107  0.043889471   -3.3092975    1.4644867   389715 
 4097000    0.8672741   -3.3094374   -1.8437245  0.042172427   -3.3094374    1.4657129   389693 
 4098000   0.86938013   -3.3114761   -1.8421625  0.041094308   -3.3114761    1.4693136   389682 
 4099000   0.86804653   -3.3082573   -1.8411449  0.042925548   -3.3082573    1.4671124   389668 
 4100000   0.86850125   -3.3088646   -1.8409121  0.052184927   -3.3088646    1.4679525   389649 
 4101000    0.8695593   -3.3088341   -1.8390178  0.050617558   -3.3088341    1.4698163   389629 
 4102000   0.86991866   -3.3096003   -1.8391275  0.047580155   -3.3096003    1.4704728   389616 
 4103000   0.86894766   -3.3074108   -1.8385002  0.046397669   -3.3074108    1.4689106   389595 
 4104000   0.87156197   -3.3115869   -1.8383439  0.045424538   -3.3115869     1.473243   389618 
 4105000   0.87021748   -3.3096842   -1.8387025  0.050291336   -3.3096842    1.4709817   389615 
 4106000   0.86811426   -3.3063674    -1.838892  0.043636475   -3.3063674    1.4674754   389602 
 4107000   0.86865242   -3.3076115    -1.839117   0.04527281   -3.3076115    1.4684945   389573 
 4108000   0.86892103   -3.3099745   -1.8409957  0.043532025   -3.3099745    1.4689787   389565 
 4109000   0.86836063   -3.3081959   -1.8400364  0.045435284   -3.3081959    1.4681595   389531 
 4110000   0.86829924   -3.3093986   -1.8410564  0.043797738   -3.3093986    1.4683422   389455 
 4111000   0.86794499   -3.3085423   -1.8405919  0.047704408   -3.3085423    1.4679504   389400 
 4112000   0.86708848   -3.3087129   -1.8421019  0.045063985   -3.3087129     1.466611   389371 
 4113000   0.86573745   -3.3081423   -1.8437374  0.042533738   -3.3081423    1.4644049   389350 
 4114000   0.86834233   -3.3111885   -1.8423171  0.039605637   -3.3111885    1.4688714   389334 
 4115000   0.86837076   -3.3120794   -1.8430543  0.045883994   -3.3120794    1.4690251   389306 
 4116000   0.86655274   -3.3101047   -1.8440384  0.044482038   -3.3101047    1.4660663   389275 
 4117000   0.86631809   -3.3106153    -1.844769  0.047809011   -3.3106153    1.4658463   389228 
 4118000   0.86675215   -3.3121689   -1.8455165  0.042284516   -3.3121689    1.4666524   389209 
 4119000   0.86854535   -3.3152231   -1.8454911  0.047118387   -3.3152231     1.469732   389197 
 4120000   0.86939285   -3.3159454   -1.8447415  0.047037868   -3.3159454    1.4712039   389187 
 4121000   0.87055255   -3.3187932   -1.8454982  0.047472976   -3.3187932    1.4732951   389153 
 4122000   0.86748047   -3.3142644   -1.8460816   0.04731807   -3.3142644    1.4681828   389130 
 4123000   0.86675685   -3.3129586   -1.8458685  0.049227562   -3.3129586      1.46709   389095 
 4124000   0.86813288   -3.3175251   -1.8480796  0.046678909   -3.3175251    1.4694456   389088 
 4125000   0.86633498   -3.3161161   -1.8496534  0.046893757   -3.3161161    1.4664627   389072 
 4126000    0.8650897   -3.3147917   -1.8503278  0.052099804   -3.3147917    1.4644639   389043 
 4127000   0.86512547   -3.3148182   -1.8502185  0.046448456   -3.3148182    1.4645997   389023 
 4128000   0.86650269   -3.3169857   -1.8499903  0.040767346   -3.3169857    1.4669954   389006 
 4129000   0.86658099   -3.3169974   -1.8499561  0.044411814   -3.3169974    1.4670412   389029 
 4130000   0.86655501    -3.316068   -1.8490256  0.048808018    -3.316068    1.4670425   389017 
 4131000   0.86835271   -3.3185407   -1.8483339     0.045471   -3.3185407    1.4702068   388985 
 4132000    0.8696973   -3.3204485   -1.8478667  0.046261602   -3.3204485    1.4725818   388959 
 4133000   0.86805548   -3.3184112   -1.8485338  0.050095383   -3.3184112    1.4698774   388939 
 4134000    0.8684976   -3.3192993   -1.8486165  0.052274977   -3.3192993    1.4706828   388924 
 4135000   0.86868088   -3.3191247   -1.8479386   0.05171792   -3.3191247    1.4711861   388873 
 4136000   0.86680938   -3.3165391   -1.8484923  0.049136826   -3.3165391    1.4680467   388865 
 4137000    0.8666389   -3.3167682   -1.8489838  0.051555793   -3.3167682    1.4677844   388858 
 4138000   0.86729432   -3.3162235   -1.8472044   0.04925685   -3.3162235    1.4690191   388825 
 4139000   0.86661923   -3.3162386   -1.8481628  0.044318483   -3.3162386    1.4680758   388772 
 4140000   0.86635591   -3.3162133    -1.848493  0.044015007   -3.3162133    1.4677203   388748 
 4141000   0.86652109   -3.3153317   -1.8471616  0.049758975   -3.3153317    1.4681701   388703 
 4142000   0.86604765   -3.3131772   -1.8459716  0.045601207   -3.3131772    1.4672056   388746 
 4143000   0.86683978   -3.3143754   -1.8455066  0.047086182   -3.3143754    1.4688688   388661 
 4144000   0.86722281   -3.3149777   -1.8454712  0.043567923   -3.3149777    1.4695065   388664 
 4145000   0.86653778   -3.3120369   -1.8436459  0.050475682   -3.3120369     1.468391   388652 
 4146000   0.86746283   -3.3123894   -1.8422455  0.042768957   -3.3123894    1.4701439   388603 
 4147000   0.86591879   -3.3104907    -1.843073   0.05080988   -3.3104907    1.4674176   388632 
 4148000   0.86599699   -3.3099438   -1.8423823  0.046967185   -3.3099438    1.4675615   388629 
 4149000   0.86655564   -3.3117819   -1.8432095  0.047831079   -3.3117819    1.4685725   388612 
 4150000   0.86481226   -3.3083723   -1.8426337  0.044328924   -3.3083723    1.4657386   388580 
 4151000   0.86549734   -3.3094189   -1.8424399  0.043429434   -3.3094189     1.466979   388559 
 4152000   0.86252466   -3.3046897   -1.8424444  0.049208969   -3.3046897    1.4622453   388478 
 4153000   0.86470542    -3.305951   -1.8399558  0.045905327    -3.305951    1.4659952   388464 
 4154000   0.86606629   -3.3084279   -1.8401142  0.042923706   -3.3084279    1.4683137   388461 
 4155000   0.86517011    -3.308065    -1.841248  0.041151519    -3.308065     1.466817   388455 
 4156000   0.86293537   -3.3054349   -1.8422448  0.044392117   -3.3054349    1.4631901   388412 
 4157000   0.86315625   -3.3055945   -1.8418866  0.040930406   -3.3055945    1.4637079   388374 
 4158000   0.86388877   -3.3066286   -1.8414899  0.038594786   -3.3066286    1.4651387   388324 
 4159000    0.8639019   -3.3067825   -1.8413537  0.042919193   -3.3067825    1.4654289   388253 
 4160000   0.86256853     -3.30474   -1.8415428  0.042839694     -3.30474    1.4631972   388245 
 4161000   0.86339177   -3.3057973    -1.841098  0.045609008   -3.3057973    1.4646993   388217 
 4162000   0.86380957   -3.3072701   -1.8416732  0.045707695   -3.3072701    1.4655969   388167 
 4163000   0.86436721   -3.3073015   -1.8407321  0.043086655   -3.3073015    1.4665695   388160 
 4164000   0.86303844   -3.3063042   -1.8418345  0.044365882   -3.3063042    1.4644696   388119 
 4165000   0.86286952   -3.3073975   -1.8429617   0.04415154   -3.3073975    1.4644358   388052 
 4166000   0.86382911   -3.3092298   -1.8430634   0.04408773   -3.3092298    1.4661664   388025 
 4167000   0.86471663   -3.3104717   -1.8426173  0.046575139   -3.3104717    1.4678543   387977 
 4168000   0.86292049   -3.3089188   -1.8438528  0.045018097   -3.3089188     1.465066   387908 
 4169000   0.86365903   -3.3109528   -1.8445686  0.043140304   -3.3109528    1.4663841   387891 
 4170000   0.86405031   -3.3141128    -1.846879  0.038701051   -3.3141128    1.4672338   387842 
 4171000   0.86341299   -3.3127483   -1.8464834  0.045323901   -3.3127483     1.466265   387812 
 4172000   0.86650917    -3.317075   -1.8454458  0.050541684    -3.317075    1.4716292   387784 
 4173000   0.86599539   -3.3152013   -1.8444257   0.05208013   -3.3152013    1.4707756   387779 
 4174000   0.86595355   -3.3165172   -1.8458505  0.051363431   -3.3165172    1.4706667   387789 
 4175000   0.86639952   -3.3164542   -1.8449505  0.049593563   -3.3164542    1.4715037   387768 
 4176000   0.86608327   -3.3148056   -1.8437252  0.052916013   -3.3148056    1.4710804   387738 
 4177000   0.86568185   -3.3153763    -1.844917  0.052839968   -3.3153763    1.4704593   387722 
 4178000   0.86591579   -3.3170769   -1.8462126  0.047782553   -3.3170769    1.4708642   387720 
 4179000   0.86654212    -3.317127   -1.8452861  0.054880623    -3.317127    1.4718408   387743 
 4180000    0.8648134   -3.3137239   -1.8446754  0.052880401   -3.3137239    1.4690485   387705 
 4181000   0.86424667   -3.3125737   -1.8442531  0.049603405   -3.3125737    1.4683206   387643 
 4182000   0.86505998   -3.3156378   -1.8458937  0.043479712   -3.3156378    1.4697441   387632 
 4183000   0.86489544   -3.3144535   -1.8449738  0.046174214   -3.3144535    1.4694797   387628 
 4184000   0.86449197   -3.3138929   -1.8450116  0.045566286   -3.3138929    1.4688814   387605 
 4185000   0.86405482   -3.3123735   -1.8441213  0.049981002   -3.3123735    1.4682522   387575 
 4186000   0.86298165   -3.3100757   -1.8435184  0.040020826   -3.3100757    1.4665573   387541 
 4187000   0.86278887   -3.3098097   -1.8435119  0.046282512   -3.3098097    1.4662978   387523 
 4188000   0.86217592   -3.3096571   -1.8444124  0.049890315   -3.3096571    1.4652447   387526 
 4189000   0.86276491   -3.3098599   -1.8435839  0.046377729   -3.3098599     1.466276   387518 
 4190000   0.86246277   -3.3086189   -1.8428261  0.041353935   -3.3086189    1.4657928   387510 
 4191000   0.86248257   -3.3089036   -1.8430129  0.049251968   -3.3089036    1.4658907   387493 
 4192000   0.86414799   -3.3108879   -1.8421628  0.040526651   -3.3108879    1.4687251   387492 
 4193000   0.86337142   -3.3104002   -1.8429723  0.046512027   -3.3104002    1.4674279   387486 
 4194000   0.86321629   -3.3092164   -1.8419233  0.041236886   -3.3092164     1.467293   387452 
 4195000   0.86277005   -3.3086307   -1.8418425  0.041396231   -3.3086307    1.4667882   387385 
 4196000   0.86245882   -3.3074342   -1.8409329  0.047570127   -3.3074342    1.4665013   387321 
 4197000   0.86374928   -3.3108602   -1.8419712   0.04290244   -3.3108602     1.468889   387270 
 4198000   0.86387144   -3.3096117   -1.8404087  0.048841645   -3.3096117     1.469203   387242 
 4199000   0.86249678   -3.3081858   -1.8412905  0.049704901   -3.3081858    1.4668954   387234 
 4200000   0.86201636   -3.3068843   -1.8407227  0.048230505   -3.3068843    1.4661616   387212 
 4201000   0.86170952   -3.3080312   -1.8422211  0.046399477   -3.3080312      1.46581   387167 
 4202000   0.86248148   -3.3098767   -1.8427611  0.043445349   -3.3098767    1.4671156   387169 
 4203000   0.86116552   -3.3081266     -1.84317  0.044709991   -3.3081266    1.4649565   387148 
 4204000   0.86212491   -3.3103725   -1.8437119  0.042671725   -3.3103725    1.4666606   387129 
 4205000   0.86258074   -3.3121616   -1.8445474   0.04520251   -3.3121616    1.4676142   387082 
 4206000    0.8610497   -3.3101372     -1.84495   0.04686616   -3.3101372    1.4651872   387035 
 4207000   0.86277277   -3.3121665   -1.8440814   0.04878357   -3.3121665    1.4680851   387044 
 4208000   0.86353481   -3.3120091   -1.8427526  0.045179382   -3.3120091    1.4692565   387077 
 4209000   0.86315681   -3.3128254   -1.8441665  0.043527893   -3.3128254    1.4686589   387065 
 4210000   0.86309744   -3.3109721   -1.8425508  0.047109967   -3.3109721    1.4684213   387101 
 4211000   0.86140812   -3.3101822   -1.8444268  0.044923302   -3.3101822    1.4657554   387046 
 4212000    0.8616364   -3.3106738   -1.8441776  0.045203089   -3.3106738    1.4664962   386953 
 4213000   0.86150023   -3.3125624   -1.8461426  0.044946181   -3.3125624    1.4664198   386912 
 4214000   0.86140327   -3.3131987   -1.8469628  0.042687078   -3.3131987    1.4662359   386917 
 4215000   0.86035538   -3.3128752   -1.8482072  0.045632464   -3.3128752     1.464668   386860 
 4216000    0.8621741   -3.3148884   -1.8469194  0.047055027   -3.3148884    1.4679691   386806 
 4217000   0.86266816   -3.3148764   -1.8459598  0.048105007   -3.3148764    1.4689166   386778 
 4218000   0.86328182   -3.3160627   -1.8462228  0.046797893   -3.3160627    1.4698399   386810 
 4219000   0.86293106   -3.3148658   -1.8455244  0.049527554   -3.3148658    1.4693415   386784 
 4220000   0.86227151   -3.3139329   -1.8456158  0.049711764   -3.3139329    1.4683171   386758 
 4221000   0.86282751   -3.3145119   -1.8451834  0.047989532   -3.3145119    1.4693285   386741 
 4222000    0.8625991   -3.3135174   -1.8445095  0.051318555   -3.3135174    1.4690079   386723 
 4223000    0.8621564   -3.3151211   -1.8467873  0.050171289   -3.3151211    1.4683337   386702 
 4224000   0.86116466   -3.3134694   -1.8466958  0.042510649   -3.3134694    1.4667737   386668 
 4225000   0.86183554   -3.3146266   -1.8464863  0.047929993   -3.3146266    1.4681403   386609 
 4226000   0.86358789    -3.316235    -1.845022  0.045498417    -3.316235     1.471213   386586 
 4227000   0.86170087   -3.3143118   -1.8461275  0.045762573   -3.3143118    1.4681844   386537 
 4228000   0.86146116   -3.3152741   -1.8473539  0.043196625   -3.3152741    1.4679202   386499 
 4229000   0.86204868   -3.3149723   -1.8459559  0.046822054   -3.3149723    1.4690164   386474 
 4230000   0.86220579   -3.3163037    -1.846761   0.04111566   -3.3163037    1.4695427   386406 
 4231000   0.86112864   -3.3146919   -1.8468445  0.048545779   -3.3146919    1.4678473   386369 
 4232000   0.86042575   -3.3130253   -1.8460913  0.051422481   -3.3130253     1.466934   386294 
 4233000   0.86131311   -3.3141468   -1.8457303  0.046192575   -3.3141468    1.4684164   386302 
 4234000   0.86031953    -3.313711   -1.8468366   0.04626828    -3.313711    1.4668744   386262 
 4235000   0.86080848   -3.3142651    -1.846481  0.045573523   -3.3142651    1.4677841   386242 
 4236000   0.86109733   -3.3148351   -1.8462391  0.048813598   -3.3148351     1.468596   386158 
 4237000   0.86099211   -3.3151148   -1.8465423   0.04453505   -3.3151148    1.4685725   386117 
 4238000   0.86003975   -3.3133148   -1.8463135  0.046973561   -3.3133148    1.4670012   386103 
 4239000   0.85785874    -3.310015   -1.8467681  0.045504664    -3.310015    1.4632469   386112 
 4240000   0.85804416    -3.311676   -1.8479271  0.042759103    -3.311676    1.4637489   386063 
 4241000   0.85813206   -3.3127447   -1.8484476  0.044035085   -3.3127447    1.4642971   385958 
 4242000   0.85845759   -3.3134911   -1.8484259  0.046817698   -3.3134911    1.4650652   385902 
 4243000   0.85775537   -3.3110344    -1.847198  0.043310055   -3.3110344    1.4638364   385910 
 4244000   0.85778313   -3.3116466   -1.8477135  0.045457146   -3.3116466    1.4639331   385897 
 4245000   0.85956429   -3.3127596   -1.8459007  0.047881742   -3.3127596    1.4668589   385927 
 4246000   0.85976228   -3.3121009   -1.8446608   0.04635632   -3.3121009    1.4674401   385863 
 4247000   0.86110107    -3.314268   -1.8443828  0.045304573    -3.314268    1.4698851   385821 
 4248000   0.85984325   -3.3122731    -1.844459  0.049981854   -3.3122731    1.4678141   385801 
 4249000   0.86044864   -3.3143434   -1.8454082  0.044305324   -3.3143434    1.4689352   385778 
 4250000   0.85933746   -3.3135804   -1.8464814  0.048107168   -3.3135804     1.467099   385762 
 4251000   0.85817477   -3.3124773   -1.8473253  0.046221602   -3.3124773     1.465152   385752 
 4252000   0.85888487   -3.3132609   -1.8467825   0.04469282   -3.3132609    1.4664784   385722 
 4253000   0.85850197   -3.3133473   -1.8474505  0.046464094   -3.3133473    1.4658968   385703 
 4254000   0.85761118   -3.3132138   -1.8486177  0.041861431   -3.3132138    1.4645961   385645 
 4255000   0.85830526   -3.3159435   -1.8499606  0.047117596   -3.3159435    1.4659829   385592 
 4256000   0.85907662   -3.3166336    -1.849318  0.044889069   -3.3166336    1.4673156   385588 
 4257000   0.85793758   -3.3141947   -1.8489462  0.045195365   -3.3141947    1.4652485   385620 
 4258000   0.86012835   -3.3163425    -1.847261  0.044555175   -3.3163425    1.4690815   385596 
 4259000   0.85942379   -3.3164776    -1.848748  0.044512829   -3.3164776    1.4677296   385635 
 4260000   0.85979987   -3.3167031   -1.8481179  0.046809598   -3.3167031    1.4685852   385579 
 4261000   0.86041541   -3.3170704   -1.8471861  0.042407404   -3.3170704    1.4698843   385514 
 4262000   0.86061064   -3.3172823   -1.8469424  0.045336563   -3.3172823    1.4703399   385482 
 4263000   0.86072862   -3.3173596   -1.8467037  0.047091391   -3.3173596    1.4706559   385452 
 4264000   0.85998242   -3.3157687   -1.8463801  0.047163852   -3.3157687    1.4693886   385450 
 4265000   0.85912543    -3.315618   -1.8475642  0.043637092    -3.315618    1.4680538   385416 
 4266000   0.85959248   -3.3163146   -1.8475389  0.050693645   -3.3163146    1.4687757   385436 
 4267000   0.85999635   -3.3175901   -1.8480367  0.050843911   -3.3175901    1.4695534   385413 
 4268000   0.86027053   -3.3186519   -1.8484202   0.05156809   -3.3186519    1.4702317   385358 
 4269000   0.85892472   -3.3172517   -1.8492247  0.046863553   -3.3172517     1.468027   385333 
 4270000   0.85870479    -3.317407   -1.8494626  0.044739303    -3.317407    1.4679444   385256 
 4271000   0.85806626   -3.3177122   -1.8508213  0.043751377   -3.3177122    1.4668909   385246 
 4272000   0.85743384   -3.3160352   -1.8502406  0.043643563   -3.3160352    1.4657946   385250 
 4273000   0.85919089   -3.3165676   -1.8476931  0.045950712   -3.3165676    1.4688745   385230 
 4274000   0.85553994   -3.3125925   -1.8498039    0.0465548   -3.3125925    1.4627885   385189 
 4275000   0.85769202   -3.3168974   -1.8502922  0.045327721   -3.3168974    1.4666052   385153 
 4276000   0.85765933   -3.3158863   -1.8493637  0.047735484   -3.3158863    1.4665226   385160 
 4277000   0.85823016   -3.3177193   -1.8501673  0.041452708   -3.3177193     1.467552   385146 
 4278000   0.85697598       -3.316   -1.8504937  0.046965481       -3.316    1.4655064   385120 
 4279000   0.85693695   -3.3161742   -1.8507269  0.044299939   -3.3161742    1.4654472   385118 
 4280000   0.85835237    -3.319062   -1.8511637  0.044862986    -3.319062    1.4678982   385110 
 4281000   0.85770071    -3.317371   -1.8506709  0.045079665    -3.317371       1.4667   385132 
 4282000   0.85630875     -3.31429   -1.8497535  0.043224159     -3.31429    1.4645365   385075 
 4283000   0.85707118   -3.3154329   -1.8495658  0.046648239   -3.3154329    1.4658671   385068 
 4284000   0.85629311   -3.3150829   -1.8505352   0.04674553   -3.3150829    1.4645478   385065 
 4285000   0.85704026   -3.3152161   -1.8491659  0.049667924   -3.3152161    1.4660502   385006 
 4286000   0.85891825   -3.3179113   -1.8485913  0.047156533   -3.3179113      1.46932   384991 
 4287000   0.85828478   -3.3198481   -1.8517224  0.042075857   -3.3198481    1.4681257   385020 
 4288000   0.85721886   -3.3181009   -1.8516956  0.050399167   -3.3181009    1.4664053   384993 
 4289000   0.85814459   -3.3192262   -1.8511839  0.046609665   -3.3192262    1.4680423   384979 
 4290000   0.85718762   -3.3181579   -1.8516156  0.045226555   -3.3181579    1.4665423   384943 
 4291000    0.8585255   -3.3198481   -1.8508489  0.048166115   -3.3198481    1.4689992   384899 
 4292000   0.85769697   -3.3184891   -1.8510601  0.042611331   -3.3184891     1.467429   384939 
 4293000   0.85827673   -3.3173888    -1.848987  0.050360194   -3.3173888    1.4684018   384944 
 4294000   0.85778204   -3.3162842    -1.848641  0.050298925   -3.3162842    1.4676432   384921 
 4295000   0.85752101   -3.3161324   -1.8489778  0.047913883   -3.3161324    1.4671546   384932 
 4296000   0.85900404    -3.318217   -1.8485327  0.041700786    -3.318217    1.4696843   384934 
 4297000   0.85757189   -3.3174132   -1.8499619  0.046720272   -3.3174132    1.4674513   384877 
 4298000   0.85838246   -3.3183225   -1.8493925  0.044657497   -3.3183225      1.46893   384853 
 4299000   0.85823522   -3.3167552   -1.8480047  0.049849065   -3.3167552    1.4687505   384834 
 4300000     0.857706   -3.3163328   -1.8484651  0.044251814   -3.3163328    1.4678677   384828 
 4301000   0.85790821   -3.3175902   -1.8492429  0.047989583   -3.3175902    1.4683473   384793 
 4302000   0.85642374   -3.3154332   -1.8496038  0.049370104   -3.3154332    1.4658294   384787 
 4303000   0.85710713   -3.3176663   -1.8505795  0.044816342   -3.3176663    1.4670868   384764 
 4304000   0.85734081   -3.3168319   -1.8494291  0.043494582   -3.3168319    1.4674029   384786 
 4305000   0.85788094   -3.3163483   -1.8481164  0.045833193   -3.3163483     1.468232   384811 
 4306000     0.859167   -3.3181976   -1.8476729  0.046783056   -3.3181976    1.4705247   384787 
 4307000   0.85747404   -3.3158107   -1.8480463  0.045976507   -3.3158107    1.4677644   384751 
 4308000   0.85706145   -3.3139754   -1.8468905  0.045570338   -3.3139754    1.4670849   384744 
 4309000   0.85550596   -3.3126786    -1.848146  0.048511313   -3.3126786    1.4645326   384715 
 4310000   0.85700706   -3.3168029   -1.8495824  0.048777443   -3.3168029    1.4672206   384684 
 4311000   0.85733661   -3.3150498   -1.8471658  0.048208085   -3.3150498     1.467884   384658 
 4312000   0.85647994   -3.3138177    -1.847328  0.044004646   -3.3138177    1.4664897   384639 
 4313000   0.85839261   -3.3171532   -1.8473695  0.045105613   -3.3171532    1.4697837   384634 
 4314000   0.85584606   -3.3125514   -1.8470404  0.039499674   -3.3125514     1.465511   384611 
 4315000   0.85705841   -3.3149392   -1.8472263    0.0429011   -3.3149392    1.4677129   384578 
 4316000   0.85695082   -3.3131167   -1.8454735  0.044203458   -3.3131167    1.4676432   384548 
 4317000   0.85697277   -3.3135327   -1.8458443  0.046113868   -3.3135327    1.4676884   384546 
 4318000   0.85599542   -3.3112459   -1.8452962  0.049870723   -3.3112459    1.4659497   384563 
 4319000    0.8571233   -3.3128346   -1.8448083  0.041102649   -3.3128346    1.4680264   384525 
 4320000   0.85762291   -3.3139357   -1.8448206  0.046009354   -3.3139357    1.4691151   384464 
 4321000   0.85708634   -3.3118668    -1.843751  0.042277857   -3.3118668    1.4681158   384485 
 4322000   0.85660593   -3.3109768   -1.8434931  0.044687306   -3.3109768    1.4674837   384435 
 4323000   0.85754642   -3.3117469   -1.8425526  0.045748258   -3.3117469    1.4691943   384409 
 4324000   0.85599542   -3.3104471    -1.843849  0.046857335   -3.3104471     1.466598   384393 
 4325000   0.85477616   -3.3101417   -1.8455145  0.046397648   -3.3101417    1.4646272   384362 
 4326000   0.85706739   -3.3147566     -1.84615  0.044973499   -3.3147566    1.4686066   384348 
 4327000   0.85580089   -3.3119754   -1.8454168  0.043115022   -3.3119754    1.4665585   384316 
 4328000   0.85377739   -3.3096228     -1.84649  0.048920616   -3.3096228    1.4631328   384305 
 4329000   0.85534934   -3.3109254   -1.8450567   0.04548752   -3.3109254    1.4658686   384294 
 4330000   0.85579724   -3.3117938   -1.8449515  0.042015744   -3.3117938    1.4668424   384240 
 4331000   0.85407736   -3.3109695    -1.846995  0.045361368   -3.3109695    1.4639745   384219 
 4332000   0.85502391   -3.3117601   -1.8462356  0.041349577   -3.3117601    1.4655245   384238 
 4333000   0.85280564   -3.3099415   -1.8481012  0.039951417   -3.3099415    1.4618403   384207 
 4334000    0.8547223   -3.3120948   -1.8467403  0.042571049   -3.3120948    1.4653546   384147 
 4335000   0.85474708   -3.3108908   -1.8455166  0.046308206   -3.3108908    1.4653742   384153 
 4336000   0.85512386    -3.312247   -1.8462039  0.045727681    -3.312247     1.466043   384147 
 4337000   0.85559257    -3.312078   -1.8452964   0.04375718    -3.312078    1.4667817   384164 
 4338000    0.8550986   -3.3104786   -1.8444331  0.049974695   -3.3104786    1.4660455   384135 
 4339000   0.85411408   -3.3105313   -1.8459526  0.046998782   -3.3105313    1.4645787   384077 
 4340000    0.8535188   -3.3107753   -1.8469735  0.044166503   -3.3107753    1.4638019   384013 
 4341000   0.85252147   -3.3109034   -1.8486482  0.043826824   -3.3109034    1.4622552   383970 
 4342000   0.85226752   -3.3108276    -1.848772  0.043274946   -3.3108276    1.4620557   383908 
 4343000   0.85317758   -3.3118222   -1.8479041  0.047728991   -3.3118222    1.4639181   383829 
 4344000    0.8545363   -3.3146846   -1.8484925  0.043037794   -3.3146846    1.4661922   383844 
 4345000   0.85323261   -3.3112727   -1.8473365  0.047593886   -3.3112727    1.4639362   383849 
 4346000   0.85530755   -3.3140329   -1.8465709    0.0475272   -3.3140329    1.4674619   383858 
 4347000   0.85478089   -3.3136646   -1.8469496  0.045014346   -3.3136646     1.466715   383817 
 4348000   0.85454126   -3.3124574   -1.8459702  0.048889134   -3.3124574    1.4664872   383769 
 4349000   0.85566586   -3.3150852   -1.8465571  0.046288257   -3.3150852    1.4685281   383740 
 4350000   0.85475582   -3.3132982   -1.8462172  0.046260235   -3.3132982     1.467081   383710 
 4351000   0.85288551    -3.311304   -1.8472081  0.044175974    -3.311304    1.4640959   383651 
 4352000    0.8525799   -3.3119881   -1.8481574   0.04263317   -3.3119881    1.4638308   383583 
 4353000   0.85236704   -3.3104186   -1.8468884  0.046838959   -3.3104186    1.4635302   383566 
 4354000   0.85231161   -3.3107991   -1.8474785  0.045182696   -3.3107991    1.4633205   383596 
 4355000   0.85319851   -3.3119526   -1.8468993  0.043834076   -3.3119526    1.4650533   383541 
 4356000   0.85474441    -3.315699   -1.8478534   0.04867231    -3.315699    1.4678456   383505 
 4357000   0.85395413   -3.3152208   -1.8483804  0.044656134   -3.3152208    1.4668403   383413 
 4358000   0.85408003   -3.3143181   -1.8470893  0.045124182   -3.3143181    1.4672288   383368 
 4359000   0.85406566   -3.3126537   -1.8453845  0.048064404   -3.3126537    1.4672692   383351 
 4360000   0.85269788   -3.3108038   -1.8457048  0.049674983   -3.3108038     1.465099   383304 
 4361000   0.85246435   -3.3102477   -1.8457181  0.050437685   -3.3102477    1.4645296   383348 
 4362000   0.85181182   -3.3081593   -1.8445331  0.047415705   -3.3081593    1.4636262   383291 
 4363000   0.85256162   -3.3103048   -1.8450997  0.048747309   -3.3103048    1.4652051   383215 
 4364000   0.85361608   -3.3111086    -1.844076  0.042747497   -3.3111086    1.4670326   383211 
 4365000   0.85315163   -3.3089984   -1.8426263  0.044326366   -3.3089984    1.4663721   383175 
 4366000   0.85315891   -3.3097881   -1.8432619   0.04151941   -3.3097881    1.4665262   383138 
 4367000   0.85182434   -3.3092466   -1.8448348  0.045208899   -3.3092466    1.4644118   383091 
 4368000   0.85028321   -3.3065195    -1.844551  0.042476618   -3.3065195    1.4619685   383037 
 4369000   0.84934316   -3.3055464   -1.8451637  0.045442101   -3.3055464    1.4603827   383029 
 4370000   0.85063254   -3.3082805    -1.845425  0.044715233   -3.3082805    1.4628555   382962 
 4371000    0.8512676   -3.3092437   -1.8452081  0.042019543   -3.3092437    1.4640356   382939 
 4372000   0.85061784   -3.3091537   -1.8460713  0.046858445   -3.3091537    1.4630824   382896 
 4373000   0.85179491   -3.3101168   -1.8447648  0.044106833   -3.3101168    1.4653519   382832 
 4374000   0.85002002   -3.3077167   -1.8454028  0.044104867   -3.3077167    1.4623139   382828 
 4375000   0.84986967   -3.3070379   -1.8450361  0.045626941   -3.3070379    1.4620017   382842 
 4376000   0.85075682   -3.3100283   -1.8463208  0.043585545   -3.3100283    1.4637076   382795 
 4377000   0.85030363   -3.3099335   -1.8468184  0.044681793   -3.3099335    1.4631151   382746 
 4378000   0.84907804   -3.3073697   -1.8463405  0.041995074   -3.3073697    1.4610292   382740 
 4379000   0.85052121   -3.3094122   -1.8459533  0.041829187   -3.3094122    1.4634589   382754 
 4380000    0.8494308   -3.3101071   -1.8484328  0.041303025   -3.3101071    1.4616744   382730 
 4381000   0.85158422   -3.3130885   -1.8476091  0.044868965   -3.3130885    1.4654795   382704 
 4382000   0.85076124   -3.3130677    -1.848729  0.042708125   -3.3130677    1.4643387   382632 
 4383000   0.85141528   -3.3127197   -1.8471786  0.042825249   -3.3127197     1.465541   382612 
 4384000   0.85134949     -3.31225   -1.8468605  0.044512647     -3.31225    1.4653895   382622 
 4385000   0.85117267   -3.3119978   -1.8467403  0.050680427   -3.3119978    1.4652575   382577 
 4386000   0.85297824   -3.3127716   -1.8443253  0.043984026   -3.3127716    1.4684463   382556 
 4387000   0.85299371   -3.3138499   -1.8451812  0.048662072   -3.3138499    1.4686687   382505 
 4388000    0.8510007   -3.3135844   -1.8483013  0.049272209   -3.3135844    1.4652832   382493 
 4389000   0.85117323   -3.3142104   -1.8484807  0.041225501   -3.3142104    1.4657297   382454 
 4390000   0.85296629   -3.3165008   -1.8476528  0.047535835   -3.3165008    1.4688481   382446 
 4391000   0.85221089   -3.3145848   -1.8470721  0.053464934   -3.3145848    1.4675127   382455 
 4392000   0.85084402   -3.3145209   -1.8492509  0.049019162   -3.3145209      1.46527   382426 
 4393000   0.85233558   -3.3177347   -1.8497693   0.04595305   -3.3177347    1.4679654   382393 
 4394000   0.85201894   -3.3186875   -1.8511331  0.047573206   -3.3186875    1.4675544   382358 
 4395000    0.8498506    -3.315332   -1.8515699  0.048002878    -3.315332    1.4637621   382373 
 4396000   0.84893708   -3.3136362   -1.8513175  0.043483805   -3.3136362    1.4623187   382339 
 4397000   0.84911742   -3.3151716   -1.8523892  0.050662549   -3.3151716    1.4627824   382299 
 4398000   0.85053009   -3.3174446   -1.8522132  0.045288479   -3.3174446    1.4652313   382295 
 4399000   0.85162518   -3.3183168   -1.8512565  0.044914935   -3.3183168    1.4670603   382310 
 4400000   0.85182539   -3.3180315   -1.8507606  0.046510928   -3.3180315    1.4672709   382345 
 4401000   0.85184558   -3.3179192   -1.8506289  0.047637139   -3.3179192    1.4672903   382349 
 4402000   0.85191809   -3.3160529   -1.8487145  0.048051967   -3.3160529    1.4673385   382369 
 4403000    0.8523542   -3.3149978   -1.8470464  0.051928832   -3.3149978    1.4679514   382405 
 4404000   0.85167744   -3.3133067     -1.84654  0.045044701   -3.3133067    1.4667667   382410 
 4405000   0.84884741   -3.3117575   -1.8497806  0.047984939   -3.3117575    1.4619769   382388 
 4406000   0.84970344   -3.3112394    -1.847903  0.042083076   -3.3112394    1.4633364   382418 
 4407000   0.84918996   -3.3100111   -1.8475475  0.048734468   -3.3100111    1.4624636   382415 
 4408000   0.85291399   -3.3168261    -1.847999   0.04322994   -3.3168261    1.4688271   382428 
 4409000   0.85077433   -3.3128318   -1.8475936  0.045344094   -3.3128318    1.4652382   382403 
 4410000   0.85091486   -3.3123095   -1.8469558  0.046325357   -3.3123095    1.4653537   382436 
 4411000   0.85074389   -3.3127731   -1.8476487  0.050847525   -3.3127731    1.4651244   382419 
 4412000    0.8520167   -3.3133248   -1.8459969  0.042582194   -3.3133248    1.4673279   382416 
 4413000   0.85222135   -3.3128131   -1.8449754  0.044304135   -3.3128131    1.4678377   382375 
 4414000    0.8528968   -3.3120873   -1.8430632  0.048228575   -3.3120873    1.4690242   382369 
 4415000   0.85205806   -3.3102053   -1.8425183  0.045846267   -3.3102053     1.467687   382341 
 4416000   0.85308767   -3.3127738   -1.8433402  0.041174534   -3.3127738    1.4694336   382348 
 4417000   0.85037346   -3.3095144   -1.8444532  0.049982462   -3.3095144    1.4650611   382269 
 4418000   0.85024617   -3.3105131   -1.8455908  0.049041134   -3.3105131    1.4649223   382248 
 4419000   0.85124698   -3.3118747   -1.8450209  0.044097611   -3.3118747    1.4668539   382194 
 4420000   0.85069406   -3.3106528   -1.8446021  0.039375537   -3.3106528    1.4660507   382155 
 4421000   0.85039901    -3.310395   -1.8445996  0.043354697    -3.310395    1.4657954   382089 
 4422000   0.85250042   -3.3122164   -1.8428412  0.049550929   -3.3122164    1.4693752   382100 
 4423000   0.85064681   -3.3113607    -1.845192   0.04625685   -3.3113607    1.4661688   382103 
 4424000   0.85072122   -3.3107829   -1.8442978  0.049328729   -3.3107829    1.4664851   382054 
 4425000   0.84896143   -3.3090758   -1.8455094  0.043854498   -3.3090758    1.4635664   382024 
 4426000   0.84808037   -3.3087151   -1.8465412  0.045510606   -3.3087151    1.4621739   381991 
 4427000   0.84953196   -3.3121293   -1.8474528  0.038719895   -3.3121293    1.4646765   381991 
 4428000   0.84794332   -3.3099123   -1.8478676  0.043230291   -3.3099123    1.4620447   381963 
 4429000   0.84843379   -3.3091614   -1.8462212  0.042748407   -3.3091614    1.4629402   381950 
 4430000    0.8494924   -3.3102054   -1.8452902   0.04319989   -3.3102054    1.4649151   381911 
 4431000   0.84860466   -3.3086492   -1.8449468  0.046171483   -3.3086492    1.4637024   381828 
 4432000   0.84939428   -3.3101017   -1.8449108  0.047634664   -3.3101017     1.465191   381795 
 4433000   0.84960091   -3.3106206   -1.8449388   0.04946967   -3.3106206    1.4656817   381760 
 4434000   0.85017533   -3.3121661   -1.8455087   0.04717629   -3.3121661    1.4666573   381764 
 4435000    0.8500017   -3.3128704   -1.8463244  0.048688064   -3.3128704     1.466546   381715 
 4436000   0.84989732   -3.3114219   -1.8450329  0.049741198   -3.3114219     1.466389   381709 
 4437000   0.84976122   -3.3119394   -1.8457507  0.048569683   -3.3119394    1.4661887   381700 
 4438000   0.85069212   -3.3155306   -1.8475665  0.048012694   -3.3155306    1.4679641   381656 
 4439000   0.84926977   -3.3132236   -1.8477062  0.045045786   -3.3132236    1.4655174   381654 
 4440000   0.85021682    -3.313623   -1.8464098  0.042621564    -3.313623    1.4672132   381638 
 4441000   0.84833832   -3.3124695   -1.8483676  0.046498479   -3.3124695    1.4641019   381604 
 4442000   0.84872474   -3.3138477   -1.8489906  0.047910009   -3.3138477    1.4648571   381581 
 4443000   0.85095778   -3.3166692   -1.8478464  0.046383497   -3.3166692    1.4688228   381552 
 4444000   0.84983148   -3.3152073   -1.8482709  0.051162584   -3.3152073    1.4669364   381537 
 4445000   0.84995748   -3.3152463   -1.8479309  0.046023979   -3.3152463    1.4673154   381495 
 4446000   0.84962026   -3.3165212   -1.8495841  0.045018115   -3.3165212    1.4669371   381442 
 4447000   0.84938232   -3.3170436   -1.8503981  0.037619053   -3.3170436    1.4666454   381411 
 4448000   0.84885001   -3.3148305   -1.8490389  0.044400529   -3.3148305    1.4657916   381394 
 4449000   0.84726876   -3.3140095   -1.8506645  0.044233884   -3.3140095     1.463345   381320 
 4450000   0.84758654   -3.3145894   -1.8505726  0.047095924   -3.3145894    1.4640167   381288 
 4451000   0.84785351    -3.313878   -1.8492272  0.049422423    -3.313878    1.4646507   381243 
 4452000   0.84790705    -3.315442   -1.8505566  0.041431987    -3.315442    1.4648854   381206 
 4453000   0.84827081   -3.3145688   -1.8489935  0.043854462   -3.3145688    1.4655754   381190 
 4454000   0.84927607   -3.3147677     -1.84734  0.048577675   -3.3147677    1.4674277   381160 
 4455000   0.84820349   -3.3140004   -1.8484183  0.047611438   -3.3140004    1.4655821   381158 
 4456000   0.84873442   -3.3143594   -1.8479215   0.04101005   -3.3143594    1.4664379   381174 
 4457000   0.85007177   -3.3155202   -1.8467138  0.050708366   -3.3155202    1.4688064   381159 
 4458000   0.85074848   -3.3182215   -1.8480414  0.049087274   -3.3182215    1.4701801   381106 
 4459000   0.84729336   -3.3143453   -1.8500169  0.048945754   -3.3143453    1.4643284   381075 
 4460000   0.84784972   -3.3143941   -1.8490042  0.045001882   -3.3143941    1.4653899   381049 
 4461000   0.84690535   -3.3131828   -1.8492599  0.045474014   -3.3131828    1.4639229   381006 
 4462000   0.84663521    -3.314482   -1.8508378  0.042945719    -3.314482    1.4636441   380957 
 4463000   0.84567262   -3.3138307   -1.8516895   0.04826886   -3.3138307    1.4621412   380915 
 4464000   0.84672765   -3.3140009   -1.8501547  0.047224455   -3.3140009    1.4638462   380946 
 4465000   0.84749315   -3.3132956   -1.8480298  0.044901234   -3.3132956    1.4652658   380921 
 4466000   0.84726436   -3.3134245   -1.8484966  0.044816558   -3.3134245    1.4649279   380906 
 4467000   0.84903677   -3.3156584   -1.8476274  0.044703873   -3.3156584     1.468031   380896 
 4468000   0.84822694   -3.3116647   -1.8447952  0.045371246   -3.3116647    1.4668695   380834 
 4469000   0.84849597   -3.3119298   -1.8443869   0.04810011   -3.3119298    1.4675428   380780 
 4470000   0.84735446    -3.310871   -1.8452486  0.046430733    -3.310871    1.4656224   380766 
 4471000   0.84697138   -3.3124275     -1.84726  0.041228494   -3.3124275    1.4651676   380712 
 4472000   0.84549987   -3.3118894   -1.8491329  0.047061446   -3.3118894    1.4627565   380677 
 4473000   0.84388748   -3.3096637   -1.8496699  0.041352566   -3.3096637    1.4599938   380670 
 4474000   0.84441024   -3.3097755   -1.8486891  0.046458071   -3.3097755    1.4610863   380621 
 4475000   0.84659757   -3.3118923   -1.8470136  0.040944802   -3.3118923    1.4648788   380619 
 4476000   0.84639136   -3.3121273   -1.8473783  0.044040771   -3.3121273     1.464749   380560 
 4477000   0.84581317   -3.3115272   -1.8477942  0.045119376   -3.3115272     1.463733   380564 
 4478000   0.84568035   -3.3105468   -1.8469552  0.047116209   -3.3105468    1.4635916   380541 
 4479000   0.84575842    -3.312045   -1.8484414  0.042405087    -3.312045    1.4636037   380573 
 4480000    0.8467813   -3.3140579   -1.8483683  0.041700745   -3.3140579    1.4656896   380491 
 4481000   0.84645648   -3.3139613    -1.848676   0.04443604   -3.3139613    1.4652852   380450 
 4482000   0.84423111   -3.3094615   -1.8478902  0.048064139   -3.3094615    1.4615712   380414 
 4483000   0.84448804    -3.311013   -1.8490392  0.040765528    -3.311013    1.4619738   380425 
 4484000     0.845602   -3.3127864   -1.8486956  0.042943075   -3.3127864    1.4640909   380376 
 4485000   0.84502749   -3.3123046   -1.8490238  0.043122688   -3.3123046    1.4632808   380328 
 4486000   0.84535617   -3.3132004   -1.8493543   0.04562567   -3.3132004    1.4638461   380329 
 4487000   0.84568341   -3.3124537   -1.8480178  0.047153936   -3.3124537    1.4644359   380323 
 4488000   0.84502402   -3.3113379   -1.8480515  0.044144252   -3.3113379    1.4632863   380325 
 4489000   0.84613684   -3.3106822   -1.8454149  0.044974186   -3.3106822    1.4652673   380311 
 4490000   0.84566355   -3.3117286   -1.8472309   0.04619318   -3.3117286    1.4644977   380298 
 4491000   0.84479243   -3.3119539   -1.8489686  0.045899303   -3.3119539    1.4629853   380299 
 4492000   0.84554497   -3.3117589   -1.8472393  0.045506651   -3.3117589    1.4645196   380239 
 4493000   0.84691058   -3.3141721   -1.8471175  0.048712103   -3.3141721    1.4670546   380195 
 4494000   0.84594077    -3.312542   -1.8470478  0.046926145    -3.312542    1.4654942   380164 
 4495000   0.84633885   -3.3127339   -1.8465346  0.050337069   -3.3127339    1.4661992   380160 
 4496000   0.84602705    -3.313075   -1.8475162  0.044926581    -3.313075    1.4655588   380186 
 4497000   0.84766098      -3.3149   -1.8463871  0.048092478      -3.3149    1.4685129   380154 
 4498000   0.84529415   -3.3124301   -1.8479444   0.04576634   -3.3124301    1.4644857   380135 
 4499000   0.84625854   -3.3136644   -1.8474115   0.04771008   -3.3136644     1.466253   380110 
 4500000   0.84670766   -3.3146412   -1.8475368  0.045886964   -3.3146412    1.4671044   380091 
 4501000   0.84503383   -3.3114248   -1.8472398  0.049057939   -3.3114248    1.4641849   380096 
 4502000   0.84607944    -3.313047   -1.8468536  0.047347669    -3.313047    1.4661934   380045 
 4503000   0.84643508   -3.3128978   -1.8459801   0.04498341   -3.3128978    1.4669177   380017 
 4504000   0.84553191   -3.3123388   -1.8469439  0.045105611   -3.3123388    1.4653949   380006 
 4505000   0.84625436   -3.3124314   -1.8456648  0.048587407   -3.3124314    1.4667667   379975 
 4506000   0.84600949    -3.313456   -1.8470211  0.051517324    -3.313456    1.4664349   379951 
 4507000   0.84794327   -3.3166295   -1.8468311  0.043992047   -3.3166295    1.4697984   379948 
 4508000   0.84655316   -3.3137462   -1.8463458  0.049808709   -3.3137462    1.4674004   379945 
 4509000   0.84579748   -3.3128972    -1.846521  0.044125737   -3.3128972    1.4663761   379871 
 4510000    0.8461365   -3.3148318   -1.8476826  0.048455174   -3.3148318    1.4671493   379823 
 4511000   0.84642663   -3.3152147   -1.8474967  0.045707609   -3.3152147     1.467718   379806 
 4512000   0.84457881   -3.3126585   -1.8481138  0.049068023   -3.3126585    1.4645447   379798 
 4513000   0.84676423   -3.3148249   -1.8463861  0.042648494   -3.3148249    1.4684388   379771 
 4514000   0.84535743   -3.3118787   -1.8458834   0.04794923   -3.3118787    1.4659953   379772 
 4515000   0.84554738   -3.3125584    -1.846029  0.045829182   -3.3125584    1.4665293   379719 
 4516000    0.8443379   -3.3097903   -1.8454358  0.050123042   -3.3097903    1.4643545   379739 
 4517000   0.84488923   -3.3120358   -1.8466789  0.048185833   -3.3120358     1.465357   379727 
 4518000    0.8431436   -3.3091617   -1.8468169  0.043952385   -3.3091617    1.4623448   379723 
 4519000   0.84473442   -3.3098777   -1.8447699  0.043139153   -3.3098777    1.4651077   379722 
 4520000   0.84441488   -3.3112781   -1.8466976  0.046603093   -3.3112781    1.4645805   379715 
 4521000   0.84306185   -3.3076228   -1.8453929  0.046156244   -3.3076228    1.4622299   379716 
 4522000   0.84335213   -3.3075539   -1.8447435  0.046786721   -3.3075539    1.4628105   379696 
 4523000    0.8435777   -3.3076203    -1.844434  0.048152918   -3.3076203    1.4631863   379700 
 4524000   0.84410904   -3.3094589   -1.8452122  0.037207209   -3.3094589    1.4642467   379664 
 4525000   0.84416049   -3.3101412   -1.8456702  0.037741884   -3.3101412     1.464471   379629 
 4526000   0.84479949   -3.3106311   -1.8448662  0.044295637   -3.3106311    1.4657649   379581 
 4527000    0.8444337   -3.3100194   -1.8449934  0.037849133   -3.3100194     1.465026   379608 
 4528000   0.84425933   -3.3085437   -1.8437199  0.043317212   -3.3085437    1.4648238   379582 
 4529000   0.84346864    -3.305882   -1.8424263  0.048681319    -3.305882    1.4634558   379581 
 4530000    0.8465727   -3.3116192   -1.8427274   0.03924939   -3.3116192    1.4688918   379568 
 4531000   0.84473535   -3.3078868   -1.8422525  0.047387991   -3.3078868    1.4656343   379586 
 4532000   0.84524014   -3.3089289   -1.8421638  0.044810041   -3.3089289    1.4667651   379520 
 4533000   0.84445846   -3.3080135   -1.8422804  0.047450894   -3.3080135    1.4657331   379436 
 4534000   0.84524478   -3.3100139   -1.8428425  0.039935162   -3.3100139    1.4671714   379417 
 4535000   0.84397773   -3.3107501   -1.8456081  0.047611919   -3.3107501    1.4651419   379373 
 4536000   0.84400615   -3.3103292   -1.8450838  0.049105249   -3.3103292    1.4652453   379359 
 4537000   0.84408131   -3.3103608   -1.8449193  0.043613401   -3.3103608    1.4654415   379342 
 4538000   0.84452434   -3.3117573   -1.8456162   0.04482256   -3.3117573    1.4661411   379360 
 4539000   0.84434312   -3.3105645   -1.8446569  0.043916299   -3.3105645    1.4659076   379339 
 4540000    0.8435756   -3.3100878   -1.8454239  0.044721583   -3.3100878    1.4646639   379316 
 4541000   0.84213995   -3.3091901   -1.8470381  0.040163386   -3.3091901     1.462152   379321 
 4542000   0.84217394   -3.3084569   -1.8461842  0.040958553   -3.3084569    1.4622727   379305 
 4543000    0.8427415   -3.3101909   -1.8467129   0.04649197   -3.3101909    1.4634781   379248 
 4544000   0.84451314   -3.3130156   -1.8464185  0.046417169   -3.3130156    1.4665972   379237 
 4545000   0.84442253   -3.3119525    -1.845385  0.049171279   -3.3119525    1.4665674   379204 
 4546000   0.84447148   -3.3115681   -1.8448925  0.050219912   -3.3115681    1.4666756   379198 
 4547000   0.84561433   -3.3135951   -1.8448261  0.044771343   -3.3135951     1.468769   379170 
 4548000   0.84416063   -3.3117666   -1.8453679  0.046297318   -3.3117666    1.4663987   379130 
 4549000   0.84410194   -3.3106604   -1.8443636  0.049434632   -3.3106604    1.4662968   379130 
 4550000    0.8441495   -3.3116634   -1.8450673  0.046040108   -3.3116634     1.466596   379074 
 4551000   0.84335694   -3.3124189   -1.8472346  0.044156626   -3.3124189    1.4651843   379083 
 4552000   0.84357125   -3.3113854     -1.84591  0.048835606   -3.3113854    1.4654754   379104 
 4553000   0.84431919    -3.312593   -1.8457834  0.047087214    -3.312593    1.4668096   379095 
 4554000   0.84411238   -3.3116731   -1.8451571  0.049318538   -3.3116731    1.4665161   379078 
 4555000   0.84442049    -3.312757    -1.845605  0.043187563    -3.312757     1.467152   379052 
 4556000   0.84329703   -3.3120077   -1.8467806  0.042771476   -3.3120077    1.4652271   379045 
 4557000    0.8433832   -3.3094214   -1.8440059   0.04704648   -3.3094214    1.4654154   379035 
 4558000   0.84287243   -3.3097221   -1.8451285  0.050602702   -3.3097221    1.4645936   379018 
 4559000    0.8414757   -3.3083895   -1.8460299  0.044041028   -3.3083895    1.4623596   378968 
 4560000    0.8424516   -3.3085967   -1.8444754  0.042549814   -3.3085967    1.4641212   378951 
 4561000   0.84115617   -3.3072479    -1.845324  0.048020256   -3.3072479    1.4619239   378937 
 4562000   0.84415944   -3.3099366   -1.8428937   0.04930471   -3.3099366    1.4670429   378963 
 4563000   0.84291556   -3.3073297   -1.8424757  0.050735908   -3.3073297    1.4648541   378970 
 4564000   0.84356142   -3.3094159   -1.8434046  0.045946392   -3.3094159    1.4660113   378961 
 4565000   0.84375488   -3.3078181   -1.8414474  0.050396827   -3.3078181    1.4663707   378955 
 4566000   0.84404087   -3.3086712   -1.8415286  0.045159918   -3.3086712    1.4671427   378884 
 4567000   0.84470636   -3.3080297   -1.8396528  0.043624756   -3.3080297    1.4683769   378864 
 4568000   0.84334701   -3.3066533   -1.8404652  0.043442945   -3.3066533    1.4661881   378819 
 4569000   0.84312926   -3.3063474   -1.8403521  0.048736764   -3.3063474    1.4659953   378771 
 4570000   0.84330991   -3.3063385   -1.8400446  0.042814896   -3.3063385    1.4662939   378775 
 4571000   0.84142744   -3.3036905   -1.8406079  0.047520763   -3.3036905    1.4630826   378759 
 4572000   0.84283464   -3.3043904   -1.8389693  0.048025023   -3.3043904    1.4654211   378787 
 4573000    0.8436853   -3.3059585   -1.8390661  0.043716283   -3.3059585    1.4668924   378789 
 4574000   0.84398922   -3.3046994   -1.8371004   0.04750823   -3.3046994     1.467599   378743 
 4575000   0.84198423   -3.3013606    -1.837275  0.042361102   -3.3013606    1.4640855   378750 
 4576000   0.84359674   -3.3038689   -1.8369059  0.042547388   -3.3038689     1.466963   378731 
 4577000   0.84285325   -3.3039066   -1.8381629  0.049684463   -3.3039066    1.4657437   378712 
 4578000   0.84278812   -3.3043145   -1.8385524  0.049051701   -3.3043145     1.465762   378678 
 4579000   0.84172224   -3.3020173    -1.838051  0.046453325   -3.3020173    1.4639662   378663 
 4580000   0.84217042   -3.3034755    -1.838691   0.04689587   -3.3034755    1.4647844   378653 
 4581000   0.84134916   -3.3030053   -1.8393864  0.042462128   -3.3030053    1.4636189   378585 
 4582000   0.84228896   -3.3056526   -1.8403137  0.045398311   -3.3056526    1.4653389   378563 
 4583000   0.84117047   -3.3042968   -1.8409965  0.043847778   -3.3042968    1.4633003   378587 
 4584000   0.84270885   -3.3068536   -1.8408385  0.039774531   -3.3068536    1.4660152   378577 
 4585000   0.84380065   -3.3076678   -1.8395478  0.047025733   -3.3076678      1.46812   378524 
 4586000   0.84228887   -3.3064922   -1.8408863  0.052872556   -3.3064922    1.4656059   378494 
 4587000   0.84332319    -3.307627   -1.8400857  0.045100466    -3.307627    1.4675413   378459 
 4588000   0.84311764   -3.3068567   -1.8397002  0.048371679   -3.3068567    1.4671565   378466 
 4589000   0.84455066    -3.310177   -1.8403793  0.048411217    -3.310177    1.4697977   378428 
 4590000   0.84417041   -3.3106368   -1.8415862  0.046527412   -3.3106368    1.4690506   378450 
 4591000   0.84266899   -3.3078604   -1.8412754  0.047469531   -3.3078604     1.466585   378412 
 4592000   0.84329908   -3.3083179    -1.840388  0.043963703   -3.3083179    1.4679299   378348 
 4593000   0.84136454   -3.3075581   -1.8428989  0.050463969   -3.3075581    1.4646592   378323 
 4594000   0.84118011   -3.3086238   -1.8442082  0.047662592   -3.3086238    1.4644156   378303 
 4595000   0.84191316   -3.3095058   -1.8437947   0.04506769   -3.3095058    1.4657111   378298 
 4596000   0.84093609    -3.308792   -1.8446116  0.046753995    -3.308792    1.4641804   378254 
 4597000   0.84247559   -3.3113959   -1.8444885  0.046883316   -3.3113959    1.4669074   378242 
 4598000   0.84250762   -3.3113958   -1.8444094  0.046809608   -3.3113958    1.4669865   378236 
 4599000   0.84243388   -3.3094842   -1.8426843  0.044696509   -3.3094842    1.4667999   378251 
 4600000    0.8426878    -3.309369   -1.8420222  0.046092885    -3.309369    1.4673468   378224 
 4601000   0.84292613   -3.3093076   -1.8414605  0.046758335   -3.3093076    1.4678471   378202 
 4602000   0.84182413   -3.3083441   -1.8422648  0.049715967   -3.3083441    1.4660793   378163 
 4603000   0.84212596   -3.3090193   -1.8422087  0.046530293   -3.3090193    1.4668106   378110 
 4604000   0.84188304   -3.3087758    -1.842272  0.050991303   -3.3087758    1.4665038   378080 
 4605000   0.84163493   -3.3088924   -1.8428867  0.049639473   -3.3088924    1.4660057   378097 
 4606000   0.84202141    -3.309444    -1.842672  0.048331506    -3.309444     1.466772   378073 
 4607000   0.84135649   -3.3093973    -1.843737  0.048716362   -3.3093973    1.4656602   378061 
 4608000   0.84157347   -3.3105458   -1.8444998  0.048141155   -3.3105458     1.466046   378059 
 4609000   0.84155131   -3.3107236   -1.8446658  0.043148645   -3.3107236    1.4660578   378046 
 4610000   0.83927659   -3.3080508   -1.8459867  0.043547479   -3.3080508    1.4620641   378054 
 4611000   0.84044722   -3.3085641   -1.8444762  0.043658238   -3.3085641    1.4640879   378058 
 4612000   0.84209042   -3.3106432   -1.8435143  0.043532967   -3.3106432    1.4671289   378012 
 4613000   0.84249731   -3.3102873   -1.8423175  0.045798735   -3.3102873    1.4679698   377978 
 4614000    0.8414319   -3.3098023    -1.843553  0.048050828   -3.3098023    1.4662492   377943 
 4615000   0.84274628   -3.3119115   -1.8432864  0.046819557   -3.3119115    1.4686251   377921 
 4616000    0.8425564   -3.3123021   -1.8439224  0.049879038   -3.3123021    1.4683797   377899 
 4617000   0.84218254   -3.3121685   -1.8442928  0.048409086   -3.3121685    1.4678757   377861 
 4618000   0.84224308    -3.313151   -1.8450998  0.042291099    -3.313151    1.4680512   377843 
 4619000   0.84214446    -3.312904   -1.8447954  0.052014399    -3.312904    1.4681085   377784 
 4620000   0.84132051   -3.3131141   -1.8462361  0.049409652   -3.3131141    1.4668779   377731 
 4621000   0.84122207   -3.3134478   -1.8466017   0.04760917   -3.3134478    1.4668461   377695 
 4622000   0.84191733   -3.3144525   -1.8462735  0.048679609   -3.3144525     1.468179   377664 
 4623000   0.84063217   -3.3133828   -1.8473674  0.047435169   -3.3133828    1.4660155   377644 
 4624000   0.84146082   -3.3142215   -1.8466327  0.047455131   -3.3142215    1.4675888   377611 
 4625000   0.84178127   -3.3154936   -1.8474469  0.043618557   -3.3154936    1.4680466   377637 
 4626000   0.84262112    -3.317212   -1.8476968  0.048187429    -3.317212    1.4695152   377636 
 4627000   0.84278478   -3.3175123   -1.8476806  0.047257125   -3.3175123    1.4698318   377628 
 4628000   0.84246602   -3.3145877   -1.8452573  0.050564287   -3.3145877    1.4693303   377614 
 4629000   0.84162477   -3.3142679   -1.8462026  0.048569512   -3.3142679    1.4680653   377562 
 4630000   0.84104264   -3.3136628   -1.8465158  0.047409315   -3.3136628     1.467147   377537 
 4631000      0.84164   -3.3126949   -1.8444319   0.04831046   -3.3126949    1.4682629   377518 
 4632000    0.8416335   -3.3118408   -1.8435387  0.049646551   -3.3118408    1.4683022   377505 
 4633000     0.840634    -3.312085   -1.8454644  0.046749572    -3.312085    1.4666206   377489 
 4634000   0.84248058   -3.3130322   -1.8432055  0.046712036   -3.3130322    1.4698267   377493 
 4635000   0.84007221   -3.3101011   -1.8444568  0.046855046   -3.3101011    1.4656444   377488 
 4636000   0.84263293   -3.3117819   -1.8416427  0.048369573   -3.3117819    1.4701392   377481 
 4637000    0.8409199   -3.3081875   -1.8410254  0.044389577   -3.3081875    1.4671622   377478 
 4638000   0.84052304   -3.3086902   -1.8420495  0.046201847   -3.3086902    1.4666407   377434 
 4639000    0.8397784   -3.3069389   -1.8416596  0.043611379   -3.3069389    1.4652793   377450 
 4640000   0.83999156   -3.3092367   -1.8432398  0.042501983   -3.3092367    1.4659969   377361 
 4641000   0.83881068   -3.3077094   -1.8436144  0.046991503   -3.3077094     1.464095   377320 
 4642000   0.83877536   -3.3072295   -1.8431845  0.040913691   -3.3072295     1.464045   377317 
 4643000   0.83878354   -3.3068875   -1.8426381  0.048425213   -3.3068875    1.4642494   377268 
 4644000   0.83926067   -3.3067141   -1.8416705  0.049903976   -3.3067141    1.4650435   377278 
 4645000   0.84058894   -3.3091844   -1.8416472  0.046417463   -3.3091844    1.4675372   377233 
 4646000   0.83947112   -3.3075821   -1.8420664    0.0485073   -3.3075821    1.4655158   377251 
 4647000   0.83996555   -3.3090282   -1.8426259  0.050154824   -3.3090282    1.4664022   377245 
 4648000   0.83934484   -3.3072458   -1.8418456  0.048926568   -3.3072458    1.4654002   377224 
 4649000   0.83986965   -3.3073018   -1.8408221  0.046989557   -3.3073018    1.4664797   377182 
 4650000   0.84056433   -3.3075649   -1.8399967  0.046178302   -3.3075649    1.4675682   377214 
 4651000   0.84017191   -3.3050342   -1.8380928  0.046647518   -3.3050342    1.4669414   377199 
 4652000   0.83984695   -3.3055963    -1.839024  0.044856491   -3.3055963    1.4665723   377148 
 4653000   0.84067579    -3.306781   -1.8385979  0.048974764    -3.306781    1.4681831   377106 
 4654000   0.83927917   -3.3068346   -1.8408534  0.050695317   -3.3068346    1.4659812   377045 
 4655000   0.83780017   -3.3060027   -1.8423759  0.045321862   -3.3060027    1.4636268   376986 
 4656000   0.83837857   -3.3068773    -1.842174  0.048778417   -3.3068773    1.4647033   376969 
 4657000   0.83968936   -3.3089797   -1.8418268  0.051139125   -3.3089797    1.4671529   376928 
 4658000   0.83799106   -3.3077597   -1.8433838  0.046100576   -3.3077597    1.4643759   376879 
 4659000   0.83705448   -3.3063689   -1.8434472  0.043675887   -3.3063689    1.4629217   376832 
 4660000   0.83758812   -3.3083577   -1.8444489  0.045356405   -3.3083577    1.4639087   376818 
 4661000    0.8364809   -3.3044067   -1.8424874   0.04600205   -3.3044067    1.4619193   376832 
 4662000   0.83754603   -3.3055259   -1.8417723  0.041784877   -3.3055259    1.4637536   376839 
 4663000   0.83821599   -3.3078878   -1.8428156  0.046431435   -3.3078878    1.4650722   376801 
 4664000   0.83862809    -3.308123   -1.8422293  0.047425946    -3.308123    1.4658936   376775 
 4665000   0.83818083   -3.3070119   -1.8418301  0.048168659   -3.3070119    1.4651818   376757 
 4666000   0.83800482   -3.3051655   -1.8402058  0.045906646   -3.3051655    1.4649597   376735 
 4667000   0.83635316   -3.3030132   -1.8409021  0.046193354   -3.3030132    1.4621112   376725 
 4668000   0.83764376     -3.30603   -1.8415848  0.045003026     -3.30603    1.4644451   376705 
 4669000   0.83855992   -3.3067562   -1.8406588  0.049872442   -3.3067562    1.4660974   376692 
 4670000   0.83856103   -3.3079743   -1.8418593  0.044817378   -3.3079743     1.466115   376688 
 4671000   0.83702461   -3.3063809   -1.8428473  0.044197126   -3.3063809    1.4635336   376661 
 4672000   0.83661232   -3.3049973   -1.8421573  0.043482218   -3.3049973    1.4628399   376654 
 4673000   0.83560563   -3.3033971   -1.8423872  0.040047086   -3.3033971    1.4610099   376672 
 4674000   0.83724493   -3.3055623   -1.8416085  0.041058855   -3.3055623    1.4639538   376652 
 4675000   0.83570577   -3.3045752   -1.8431147  0.042502484   -3.3045752    1.4614604   376601 
 4676000   0.83680717   -3.3054705   -1.8418585  0.046612675   -3.3054705    1.4636119   376543 
 4677000   0.83827572   -3.3064186   -1.8402147  0.045874866   -3.3064186    1.4662039   376537 
 4678000   0.83854062   -3.3063586   -1.8396174  0.054196788   -3.3063586    1.4667412   376518 
 4679000   0.83815627   -3.3050131   -1.8387417   0.05017439   -3.3050131    1.4662714   376466 
 4680000   0.83854588   -3.3056442   -1.8386757  0.045888341   -3.3056442    1.4669686   376462 
 4681000   0.83994685   -3.3073914   -1.8378471  0.049778765   -3.3073914    1.4695444   376430 
 4682000   0.83896299   -3.3076915   -1.8397944  0.045241708   -3.3076915    1.4678972   376411 
 4683000   0.83928515    -3.307614   -1.8391415   0.04473328    -3.307614    1.4684725   376408 
 4684000   0.83758563   -3.3052768   -1.8397234  0.043442857   -3.3052768    1.4655534   376394 
 4685000   0.83661775   -3.3034634   -1.8395412   0.04546212   -3.3034634    1.4639221   376378 
 4686000   0.83789512   -3.3066892   -1.8406099  0.038415163   -3.3066892    1.4660794   376398 
 4687000   0.83814844   -3.3060041   -1.8393529  0.044824556   -3.3060041    1.4666512   376365 
 4688000   0.83600545   -3.3044744   -1.8415809  0.049886572   -3.3044744    1.4628935   376367 
 4689000   0.83715198   -3.3056413   -1.8407571  0.050145489   -3.3056413    1.4648842   376371 
 4690000    0.8374726   -3.3047289   -1.8391668  0.046583974   -3.3047289     1.465562   376341 
 4691000   0.83818826   -3.3047133   -1.8378833  0.045589026   -3.3047133      1.46683   376337 
 4692000   0.83845875   -3.3045119   -1.8368771  0.046551826   -3.3045119    1.4676348   376252 
 4693000   0.83901097   -3.3043163    -1.835586   0.05026041   -3.3043163    1.4687303   376219 
 4694000   0.83926236   -3.3054797   -1.8363601  0.046829365   -3.3054797    1.4691196   376232 
 4695000   0.83842654   -3.3050368   -1.8373374  0.048164317   -3.3050368    1.4676994   376221 
 4696000   0.83706087   -3.3058619   -1.8404207  0.047059575   -3.3058619    1.4654412   376187 
 4697000   0.83744475   -3.3067932    -1.840602  0.046670102   -3.3067932    1.4661912   376167 
 4698000   0.83685399   -3.3050037   -1.8398896  0.042813291   -3.3050037     1.465114   376178 
 4699000   0.83749458   -3.3064318   -1.8401495  0.040889938   -3.3064318    1.4662823   376166 
 4700000   0.83548815   -3.3028642   -1.8399469  0.049812734   -3.3028642    1.4629173   376128 
 4701000   0.83790742   -3.3049467   -1.8378987  0.043664153   -3.3049467     1.467048   376155 
 4702000   0.83840538   -3.3058737   -1.8379031  0.045298923   -3.3058737    1.4679706   376142 
 4703000   0.83818144   -3.3054764   -1.8379642  0.048050941   -3.3054764    1.4675122   376159 
 4704000   0.83770197   -3.3059216   -1.8392878  0.046005265   -3.3059216    1.4666337   376169 
 4705000    0.8373496   -3.3052483    -1.839177  0.049593767   -3.3052483    1.4660714   376155 
 4706000   0.83774508   -3.3054545   -1.8385425  0.047095776   -3.3054545     1.466912   376117 
 4707000   0.83839016   -3.3082191    -1.840041  0.039736403   -3.3082191    1.4681781   376082 
 4708000   0.83754947   -3.3064024    -1.839634  0.043825414   -3.3064024    1.4667683   376066 
 4709000   0.83632692   -3.3045693   -1.8399069  0.045073508   -3.3045693    1.4646624   376057 
 4710000   0.83720981   -3.3054777   -1.8391677  0.046442848   -3.3054777      1.46631   376031 
 4711000     0.836893    -3.305099   -1.8392971  0.045109685    -3.305099    1.4658019   376019 
 4712000    0.8368518   -3.3050398   -1.8393296  0.048800723   -3.3050398    1.4657102   376024 
 4713000   0.83734936    -3.305129   -1.8385902  0.048021155    -3.305129    1.4665388   376035 
 4714000   0.83798312   -3.3061634   -1.8384678  0.046285261   -3.3061634    1.4676956   376023 
 4715000   0.83711064   -3.3050162   -1.8385953  0.047689982   -3.3050162     1.466421   375958 
 4716000   0.83774156   -3.3068228    -1.839242  0.044739318   -3.3068228    1.4675808   375944 
 4717000   0.83729583   -3.3054446   -1.8384338  0.045369156   -3.3054446    1.4670107   375890 
 4718000   0.83774681   -3.3063324   -1.8384612  0.048549746   -3.3063324    1.4678712   375872 
 4719000   0.83765814   -3.3056431   -1.8376852  0.048141907   -3.3056431    1.4679579   375810 
 4720000   0.83654363   -3.3045062   -1.8382321  0.047919273   -3.3045062     1.466274   375741 
 4721000   0.83749415   -3.3059988   -1.8381017  0.047523196   -3.3059988    1.4678971   375752 
 4722000   0.83674699   -3.3044126   -1.8377899   0.04628569   -3.3044126    1.4666227   375743 
 4723000    0.8364034   -3.3053455   -1.8392704  0.047800607   -3.3053455    1.4660751   375729 
 4724000   0.83854416   -3.3068095   -1.8370016  0.044236236   -3.3068095    1.4698079   375734 
 4725000   0.83687967    -3.304335   -1.8374135  0.046902035    -3.304335    1.4669216   375726 
 4726000   0.83586224   -3.3020237   -1.8367568   0.04633838   -3.3020237    1.4652669   375693 
 4727000   0.83742938   -3.3050291   -1.8368197  0.044196156   -3.3050291    1.4682095   375643 
 4728000   0.83681135   -3.3058119   -1.8386039  0.045836132   -3.3058119     1.467208   375622 
 4729000    0.8364757   -3.3036945   -1.8371453  0.047868275   -3.3036945    1.4665492   375640 
 4730000     0.836153   -3.3027627   -1.8366973  0.044150565   -3.3027627    1.4660654   375619 
 4731000   0.83513884   -3.3018659   -1.8372278  0.042944804   -3.3018659    1.4646381   375529 
 4732000   0.83489644   -3.3032251   -1.8389224  0.039568292   -3.3032251    1.4643027   375506 
 4733000   0.83530316   -3.3034082   -1.8381815  0.046521968   -3.3034082    1.4652267   375452 
 4734000   0.83489035   -3.3022777   -1.8376268  0.048989763   -3.3022777    1.4646509   375414 
 4735000   0.83620288    -3.303543   -1.8363785  0.048290444    -3.303543    1.4671645   375360 
 4736000   0.83717589    -3.302572   -1.8336299  0.051074829    -3.302572    1.4689421   375342 
 4737000    0.8362915   -3.3013236   -1.8337964  0.050331927   -3.3013236    1.4675272   375307 
 4738000   0.83623716   -3.3017266   -1.8343534  0.050396435   -3.3017266    1.4673732   375322 
 4739000   0.83477877   -3.2988482    -1.833999  0.049951618   -3.2988482    1.4648492   375313 
 4740000   0.83520514    -3.299673   -1.8340366   0.04984567    -3.299673    1.4656364   375303 
 4741000   0.83628681   -3.3007899   -1.8331067   0.05052248   -3.3007899    1.4676832   375265 
 4742000   0.83611456   -3.3023552   -1.8348218  0.045356099   -3.3023552    1.4675334   375226 
 4743000   0.83470507   -3.3009964   -1.8356519  0.049290082   -3.3009964    1.4653446   375153 
 4744000    0.8357713   -3.3021145   -1.8349216  0.046414377   -3.3021145    1.4671929   375159 
 4745000   0.83577575   -3.3037776   -1.8363696  0.039482354   -3.3037776     1.467408   375106 
 4746000   0.83414015    -3.301596   -1.8369933  0.044974389    -3.301596    1.4646027   375089 
 4747000   0.83507049   -3.3015801   -1.8353556  0.044243001   -3.3015801    1.4662245   375092 
 4748000   0.83525671   -3.3004586   -1.8338133  0.044246218   -3.3004586    1.4666453   375068 
 4749000   0.83493794   -3.3011683   -1.8348481  0.045216157   -3.3011683    1.4663201   375008 
 4750000   0.83529706   -3.3034281   -1.8362973  0.046354121   -3.3034281    1.4671308   374962 
 4751000   0.83492154   -3.3020242   -1.8355569  0.048645606   -3.3020242    1.4664673   374963 
 4752000   0.83420254   -3.3012927   -1.8359319  0.045747566   -3.3012927    1.4653608   374923 
 4753000   0.83347113   -3.2999556   -1.8356882  0.045271919   -3.2999556    1.4642673   374874 
 4754000   0.83451866   -3.3026681   -1.8362592  0.043961455   -3.3026681    1.4664089   374797 
 4755000   0.83481808   -3.3023872   -1.8352134  0.044972521   -3.3023872    1.4671738   374736 
 4756000   0.83436107   -3.3019342   -1.8353523    0.0450952   -3.3019342     1.466582   374682 
 4757000   0.83462508   -3.3024224   -1.8350944   0.04931558   -3.3024224     1.467328   374610 
 4758000   0.83391722   -3.3009376   -1.8348149  0.046229175   -3.3009376    1.4661226   374600 
 4759000   0.83433419   -3.3030257   -1.8360877  0.049934813   -3.3030257     1.466938   374579 
 4760000    0.8345652     -3.30289    -1.835397  0.044873161     -3.30289     1.467493   374541 
 4761000    0.8336644   -3.3015144   -1.8356523  0.048406008   -3.3015144    1.4658621   374553 
 4762000    0.8345108   -3.3027634   -1.8354248  0.047760949   -3.3027634    1.4673386   374556 
 4763000   0.83676801   -3.3049798   -1.8336252  0.044818587   -3.3049798    1.4713546   374544 
 4764000   0.83681398   -3.3038111   -1.8323717  0.046025701   -3.3038111    1.4714394   374543 
 4765000   0.83485205   -3.3017355   -1.8337655  0.047504581   -3.3017355      1.46797   374548 
 4766000   0.83534801   -3.3031502    -1.834116  0.050361459   -3.3031502    1.4690342   374499 
 4767000   0.83507497    -3.300399   -1.8318959  0.053424498    -3.300399    1.4685031   374512 
 4768000   0.83633858   -3.3036108   -1.8329053    0.0473941   -3.3036108    1.4707055   374517 
 4769000   0.83448665   -3.3003475   -1.8327928  0.050643579   -3.3003475    1.4675547   374490 
 4770000   0.83387897   -3.2990387   -1.8327876  0.042137481   -3.2990387    1.4662511   374550 
 4771000   0.83406697   -3.2996705   -1.8329361  0.045253686   -3.2996705    1.4667344   374511 
 4772000   0.83374337   -3.2983612   -1.8320314   0.04527938   -3.2983612    1.4663298   374469 
 4773000   0.83255933   -3.2974616   -1.8330617  0.040394255   -3.2974616    1.4643999   374430 
 4774000   0.83383623   -3.2999341   -1.8331825  0.048796262   -3.2999341    1.4667516   374403 
 4775000   0.83326986   -3.2974668   -1.8316644  0.040708242   -3.2974668    1.4658023   374391 
 4776000   0.83260583   -3.2970756   -1.8322458  0.040080793   -3.2970756    1.4648299   374341 
 4777000   0.83361225   -3.2989409   -1.8322386  0.042250228   -3.2989409    1.4667024   374315 
 4778000    0.8329642   -3.2984588   -1.8329671  0.044208587   -3.2984588    1.4654917   374333 
 4779000   0.83246116   -3.2987412    -1.834162  0.043631499   -3.2987412    1.4645793   374340 
 4780000   0.83205853   -3.2983515   -1.8345744  0.042112939   -3.2983515     1.463777   374364 
 4781000   0.83331471   -3.2983782   -1.8322659  0.043651585   -3.2983782    1.4661123   374332 
 4782000   0.83273688   -3.2983834   -1.8331939  0.044301479   -3.2983834    1.4651896   374308 
 4783000   0.83283774   -3.2978333   -1.8323488  0.044711487   -3.2978333    1.4654845   374278 
 4784000    0.8342194   -3.3014052   -1.8334581  0.046662056   -3.3014052    1.4679471   374270 
 4785000   0.83438167   -3.3023219   -1.8339991  0.051308093   -3.3023219    1.4683229   374247 
 4786000   0.83431919   -3.3024295   -1.8342166  0.045822996   -3.3024295    1.4682129   374247 
 4787000   0.83363307    -3.300453   -1.8335259  0.051764074    -3.300453    1.4669271   374267 
 4788000   0.83318313   -3.3022417   -1.8360907  0.045290818   -3.3022417     1.466151   374263 
 4789000    0.8340842   -3.3015123   -1.8336227  0.047361026   -3.3015123    1.4678896   374224 
 4790000   0.83361651   -3.3020095   -1.8350057  0.043828135   -3.3020095    1.4670038   374240 
 4791000   0.83450239   -3.3035816   -1.8350777  0.042491359   -3.3035816    1.4685039   374255 
 4792000   0.83482508   -3.3043886    -1.835203  0.041981193   -3.3043886    1.4691856   374226 
 4793000    0.8327993     -3.30243   -1.8366059  0.051158971     -3.30243    1.4658242   374174 
 4794000   0.83427847   -3.3040196   -1.8356586   0.04587909   -3.3040196     1.468361   374191 
 4795000   0.83441503   -3.3053767   -1.8367401  0.042701787   -3.3053767    1.4686366   374182 
 4796000   0.83525028   -3.3046886   -1.8346487  0.047571833   -3.3046886      1.47004   374199 
 4797000    0.8332383   -3.3010269   -1.8345555  0.050580928   -3.3010269    1.4664714   374206 
 4798000   0.83240743   -3.3012955   -1.8360632  0.050356251   -3.3012955    1.4652323   374149 
 4799000     0.831957   -3.3023148   -1.8378518  0.050290844   -3.3023148    1.4644629   374143 
 4800000   0.83318147   -3.3050295   -1.8383681  0.047139545   -3.3050295    1.4666615   374132 
 4801000   0.83463637   -3.3067575   -1.8372561   0.04690789   -3.3067575    1.4695014   374061 
 4802000   0.83329256   -3.3053886   -1.8382414   0.04541026   -3.3053886    1.4671472   374058 
 4803000   0.83389116   -3.3057337   -1.8375522  0.053605779   -3.3057337    1.4681815   374063 
 4804000   0.83303069   -3.3035121   -1.8369161  0.048765574   -3.3035121     1.466596   374081 
 4805000   0.83433497   -3.3043618   -1.8350965  0.048800997   -3.3043618    1.4692653   373986 
 4806000   0.83209009   -3.3010506    -1.835813  0.048553081   -3.3010506    1.4652377   374005 
 4807000   0.83397601   -3.3050615   -1.8365186  0.046547873   -3.3050615    1.4685429   374009 
 4808000   0.83254302   -3.3054424   -1.8391445  0.041896927   -3.3054424    1.4662979   373938 
 4809000   0.83210622   -3.3030209    -1.837265  0.049325352   -3.3030209     1.465756   373880 
 4810000   0.83144973    -3.301813   -1.8372369  0.050257007    -3.301813     1.464576   373886 
 4811000   0.83319431   -3.3038453   -1.8360038  0.047462225   -3.3038453    1.4678414   373837 
 4812000   0.83116305   -3.3013829   -1.8368928  0.044332838   -3.3013829    1.4644902   373779 
 4813000   0.83100875   -3.3007947   -1.8364354  0.048400929   -3.3007947    1.4643593   373743 
 4814000   0.83291873    -3.304742   -1.8367657   0.04613124    -3.304742    1.4679764   373679 
 4815000   0.83207059    -3.304148   -1.8373602  0.045766773    -3.304148    1.4667878   373601 
 4816000   0.83148429   -3.3008739    -1.835104  0.045981352   -3.3008739    1.4657699   373597 
 4817000   0.83233538   -3.3018082   -1.8344752  0.052308317   -3.3018082    1.4673331   373581 
 4818000   0.83165546   -3.3004204   -1.8341996  0.045109419   -3.3004204    1.4662208   373559 
 4819000   0.83091788   -3.2975698   -1.8325082  0.050935572   -3.2975698    1.4650616   373523 
 4820000   0.83076261   -3.2992138   -1.8343044  0.043799767   -3.2992138    1.4649094   373492 
 4821000   0.82985978   -3.3014581   -1.8380231  0.041409944   -3.3014581     1.463435   373462 
 4822000   0.83120397   -3.3020835   -1.8362506  0.036412669   -3.3020835    1.4658329   373455 
 4823000   0.83064142   -3.2999704   -1.8351061    0.0445042   -3.2999704    1.4648644   373449 
 4824000    0.8306452   -3.3002521   -1.8352438  0.046165518   -3.3002521    1.4650083   373414 
 4825000   0.82934658   -3.2987955   -1.8358778  0.045813768   -3.2987955    1.4629178   373363 
 4826000   0.83042375   -3.2989196   -1.8341999  0.050849402   -3.2989196    1.4647198   373388 
 4827000   0.83145423   -3.3008266   -1.8340771  0.048614908   -3.3008266    1.4667494   373334 
 4828000    0.8315002   -3.3017284   -1.8349096  0.048722701   -3.3017284    1.4668188   373337 
 4829000    0.8306531   -3.3012653   -1.8356661  0.047697884   -3.3012653    1.4655992   373267 
 4830000    0.8308578   -3.3006648   -1.8347594  0.042090768   -3.3006648    1.4659054   373281 
 4831000   0.83071725    -3.301165   -1.8354212  0.047208877    -3.301165    1.4657438   373259 
 4832000   0.83034322   -3.2994201   -1.8341085  0.045171515   -3.2994201    1.4653116   373201 
 4833000    0.8315472   -3.3020969   -1.8344758  0.049424754   -3.3020969    1.4676211   373154 
 4834000   0.83077588   -3.3031285   -1.8367587   0.04846396   -3.3031285    1.4663698   373126 
 4835000   0.83120936   -3.3040133    -1.836902  0.045614396   -3.3040133    1.4671113   373132 
 4836000   0.83065965   -3.3032434   -1.8370827  0.050515662   -3.3032434    1.4661607   373127 
 4837000   0.83070105   -3.3024825   -1.8362016  0.047945371   -3.3024825    1.4662809   373115 
 4838000   0.82974296   -3.3018339   -1.8370517  0.049089818   -3.3018339    1.4647821   373066 
 4839000   0.82983283   -3.3020436   -1.8369732  0.045029618   -3.3020436    1.4650704   373033 
 4840000   0.83035663   -3.3025026    -1.836421  0.044742762   -3.3025026    1.4660816   373011 
 4841000   0.82977868   -3.3024742   -1.8374562  0.045606867   -3.3024742     1.465018   373022 
 4842000   0.82845979   -3.2998223   -1.8370035  0.042140455   -3.2998223    1.4628188   372989 
 4843000   0.82993752   -3.3031133   -1.8374534  0.043480293   -3.3031133    1.4656599   372930 
 4844000   0.82917292   -3.3012427    -1.836933   0.04649219   -3.3012427    1.4643096   372930 
 4845000   0.83048436    -3.303565   -1.8368449   0.04345195    -3.303565      1.46672   372906 
 4846000   0.82981085   -3.3027198   -1.8370517  0.044946514   -3.3027198    1.4656681   372871 
 4847000    0.8285962   -3.2996594     -1.83607  0.047974624   -3.2996594    1.4635894   372854 
 4848000   0.82928738   -3.3006675   -1.8356804  0.044122442   -3.3006675    1.4649871   372809 
 4849000   0.82897643   -3.3005551   -1.8359955  0.047109408   -3.3005551    1.4645596   372778 
 4850000   0.82886174   -3.3005858   -1.8362132  0.046347712   -3.3005858    1.4643727   372774 
 4851000   0.82814251   -3.3001639   -1.8369638   0.04232901   -3.3001639    1.4632001   372749 
 4852000   0.82929623   -3.3004812   -1.8351915  0.049969426   -3.3004812    1.4652896   372736 
 4853000   0.82835547   -3.3000686   -1.8362487  0.043668175   -3.3000686    1.4638198   372687 
 4854000   0.82773613   -3.2981074   -1.8353506  0.043871752   -3.2981074    1.4627568   372679 
 4855000   0.82798531    -3.298447   -1.8350732  0.047489031    -3.298447    1.4633738   372634 
 4856000   0.82974395   -3.3014976   -1.8350432   0.04205336   -3.3014976    1.4664545   372641 
 4857000   0.82863744   -3.2987911   -1.8341743   0.04513481   -3.2987911    1.4646168   372611 
 4858000    0.8281097   -3.2980047   -1.8342382  0.046641002   -3.2980047    1.4637665   372590 
 4859000   0.82931021   -3.3009869   -1.8349528  0.040244586   -3.3009869    1.4660341   372553 
 4860000   0.82857828   -3.2995542   -1.8347707  0.045476694   -3.2995542    1.4647835   372542 
 4861000   0.83053072   -3.3024199   -1.8340115  0.040522745   -3.3024199    1.4684085   372498 
 4862000   0.82821325   -3.2987926    -1.834281  0.047703784   -3.2987926    1.4645116   372447 
 4863000   0.82931044   -3.3006172   -1.8342048  0.044820439   -3.3006172    1.4664124   372457 
 4864000   0.82860679   -3.2994669   -1.8342043  0.043308433   -3.2994669    1.4652626   372433 
 4865000   0.82764394   -3.2990588    -1.835322  0.046866592   -3.2990588    1.4637368   372388 
 4866000   0.82867132   -3.2989743   -1.8331765  0.048012784   -3.2989743    1.4657978   372326 
 4867000   0.82797462   -3.2981879   -1.8336932  0.049968243   -3.2981879    1.4644947   372344 
 4868000   0.82790311    -3.298964   -1.8346233   0.04535025    -3.298964    1.4643407   372351 
 4869000   0.82590214   -3.2972955   -1.8363135  0.048026332   -3.2972955     1.460982   372305 
 4870000   0.82750675   -3.2988471   -1.8349637  0.047867851   -3.2988471    1.4638834   372289 
 4871000   0.82821403   -3.2988335   -1.8336832  0.046823819   -3.2988335    1.4651503   372285 
 4872000   0.82868834   -3.2999732   -1.8341098  0.044144908   -3.2999732    1.4658634   372317 
 4873000   0.82806207    -3.299314   -1.8347473  0.043973965    -3.299314    1.4645668   372365 
 4874000   0.82766479   -3.2992423    -1.835217  0.046181495   -3.2992423    1.4640253   372324 
 4875000   0.82826076   -3.3009091   -1.8358335  0.045958874   -3.3009091    1.4650756   372325 
 4876000    0.8279124   -3.3021103   -1.8375723  0.045432542   -3.3021103     1.464538   372305 
 4877000   0.82674956   -3.2987438   -1.8362313  0.045167632   -3.2987438    1.4625124   372297 
 4878000   0.82790086   -3.3004144   -1.8359007  0.047735481   -3.3004144    1.4645137   372306 
 4879000   0.82778223   -3.2994702   -1.8351585  0.045510169   -3.2994702    1.4643117   372304 
 4880000   0.82744279   -3.2990381   -1.8352443   0.04351463   -3.2990381    1.4637938   372283 
 4881000   0.82798463   -3.2997417   -1.8349579  0.043587663   -3.2997417    1.4647838   372275 
 4882000   0.82925722   -3.3006685   -1.8336412  0.042697931   -3.3006685    1.4670273   372277 
 4883000   0.82835471   -3.3007937   -1.8353237  0.048558712   -3.3007937      1.46547   372267 
 4884000   0.82840324     -3.30091   -1.8353541  0.047283774     -3.30091    1.4655559   372267 
 4885000   0.82850175   -3.3001896    -1.834235  0.046795527   -3.3001896    1.4659546   372210 
 4886000   0.82963788   -3.3023582   -1.8341527  0.045198318   -3.3023582    1.4682055   372149 
 4887000   0.82953311   -3.3008379   -1.8327547  0.046409385   -3.3008379    1.4680832   372133 
 4888000   0.82910155   -3.3001629   -1.8327488  0.044826048   -3.3001629    1.4674141   372109 
 4889000   0.82806344   -3.2989453   -1.8332425   0.04426273   -3.2989453    1.4657028   372077 
 4890000   0.82787364   -3.2987373   -1.8333153  0.052282232   -3.2987373     1.465422   372063 
 4891000   0.82798148   -3.2988115   -1.8330844  0.049544469   -3.2988115    1.4657271   372034 
 4892000   0.82873449   -3.3004216   -1.8332866  0.052349786   -3.3004216    1.4671351   372015 
 4893000   0.82742825   -3.2991145   -1.8343352  0.053957798   -3.2991145    1.4647793   372026 
 4894000   0.82647639   -3.2965453   -1.8332623  0.047678063   -3.2965453     1.463283   371978 
 4895000    0.8284437   -3.3007858   -1.8339763  0.046570595   -3.3007858    1.4668095   371967 
 4896000   0.82716431   -3.2981841   -1.8337225  0.044521995   -3.2981841    1.4644616   371988 
 4897000   0.82724383   -3.2979089   -1.8332199  0.042230428   -3.2979089     1.464689   371966 
 4898000   0.82683478   -3.2980037   -1.8338657  0.045001531   -3.2980037     1.464138   371922 
 4899000   0.82626865   -3.2966719   -1.8334814  0.041068572   -3.2966719    1.4631905   371908 
 4900000   0.82819709    -3.299941   -1.8332014  0.043166308    -3.299941    1.4667396   371874 
 4901000   0.82690527   -3.2985285   -1.8339309  0.046922934   -3.2985285    1.4645975   371837 
 4902000   0.82689765   -3.2987023   -1.8340671  0.045681747   -3.2987023    1.4646352   371824 
 4903000   0.82799417   -3.2998793   -1.8331322  0.045944557   -3.2998793     1.466747   371781 
 4904000   0.82633437   -3.2981569   -1.8343422  0.044845765   -3.2981569    1.4638147   371779 
 4905000   0.82912185   -3.3010844   -1.8323081  0.045295355   -3.3010844    1.4687763   371773 
 4906000   0.82858915    -3.299973   -1.8322233  0.047551748    -3.299973    1.4677497   371794 
 4907000   0.82847194   -3.2991658   -1.8316355  0.046980946   -3.2991658    1.4675302   371797 
 4908000   0.82777682   -3.2980472   -1.8314801  0.042127377   -3.2980472    1.4665671   371729 
 4909000   0.82704892   -3.2974675   -1.8318588  0.044792124   -3.2974675    1.4656087   371645 
 4910000   0.82619543   -3.2968705     -1.83253  0.049533571   -3.2968705    1.4643405   371583 
 4911000   0.82680565   -3.2972483   -1.8316526  0.045783396   -3.2972483    1.4655956   371539 
 4912000   0.82495928   -3.2958216   -1.8333374  0.046670383   -3.2958216    1.4624841   371498 
 4913000   0.82636934   -3.2989028   -1.8338795  0.048975731   -3.2989028    1.4650233   371488 
 4914000   0.82621551    -3.299461   -1.8344462  0.047694851    -3.299461    1.4650148   371421 
 4915000   0.82554747   -3.2974517   -1.8337593  0.049733558   -3.2974517    1.4636924   371456 
 4916000   0.82733525   -3.3012332    -1.834221  0.045647946   -3.3012332    1.4670122   371418 
 4917000   0.82564536   -3.2976406   -1.8337076  0.042070036   -3.2976406    1.4639329   371439 
 4918000   0.82490588   -3.2971318   -1.8343998  0.045332896   -3.2971318     1.462732   371411 
 4919000   0.82595784   -3.2979148   -1.8332504  0.047966803   -3.2979148    1.4646644   371394 
 4920000   0.82652229   -3.2984254   -1.8327404  0.042843227   -3.2984254    1.4656851   371389 
 4921000   0.82516345   -3.2978398   -1.8343713  0.048663241   -3.2978398    1.4634685   371340 
 4922000   0.82514852   -3.2980265   -1.8344977  0.049643291   -3.2980265    1.4635287   371318 
 4923000   0.82679288   -3.3000991    -1.833567  0.044582759   -3.3000991    1.4665321   371296 
 4924000   0.82719717   -3.3004953   -1.8332065  0.046574867   -3.3004953    1.4672888   371286 
 4925000   0.82549816   -3.2987834   -1.8342796  0.040627048   -3.2987834    1.4645038   371228 
 4926000   0.82561711   -3.3004737   -1.8355497  0.040655805   -3.3004737     1.464924   371175 
 4927000   0.82497412    -3.299111    -1.835391  0.046798913    -3.299111      1.46372   371191 
 4928000    0.8257714   -3.3008878   -1.8355479  0.047615819   -3.3008878    1.4653399   371139 
 4929000   0.82546498   -3.2994887   -1.8345505  0.046133771   -3.2994887    1.4649383   371103 
 4930000   0.82425614   -3.2989319   -1.8358866  0.043387271   -3.2989319    1.4630453   371039 
 4931000   0.82436435   -3.3008664    -1.837704  0.044588932   -3.3008664    1.4631624   371058 
 4932000   0.82528094   -3.3022899   -1.8374336  0.043032039   -3.3022899    1.4648564   371041 
 4933000   0.82472882   -3.3026286   -1.8386338  0.044243816   -3.3026286    1.4639947   371011 
 4934000   0.82492023   -3.3030947   -1.8387957  0.043928707   -3.3030947     1.464299   371020 
 4935000   0.82419287   -3.3012605   -1.8381461  0.040287531   -3.3012605    1.4631143   370993 
 4936000   0.82524209    -3.302696   -1.8375769   0.04430373    -3.302696    1.4651191   370957 
 4937000   0.82540473   -3.3030576   -1.8374838  0.043755945   -3.3030576    1.4655738   370915 
 4938000   0.82478466   -3.3015315   -1.8369797  0.048942828   -3.3015315    1.4645518   370895 
 4939000   0.82551979    -3.303062    -1.837197  0.050424094    -3.303062     1.465865   370893 
 4940000   0.82692947   -3.3045493   -1.8359594  0.052666828   -3.3045493    1.4685899   370837 
 4941000   0.82662389   -3.3060013   -1.8378748  0.049549803   -3.3060013    1.4681264   370817 
 4942000   0.82515817   -3.3037439   -1.8382879  0.050257256   -3.3037439     1.465456   370834 
 4943000   0.82455207   -3.3033722    -1.838961  0.050007691   -3.3033722    1.4644112   370826 
 4944000   0.82608416   -3.3069709   -1.8397318  0.048801187   -3.3069709     1.467239   370799 
 4945000   0.82496104   -3.3062324   -1.8410158  0.043732365   -3.3062324    1.4652166   370806 
 4946000   0.82454997   -3.3044746   -1.8398973  0.044670351   -3.3044746    1.4645773   370783 
 4947000   0.82462761   -3.3050244   -1.8401472  0.049472633   -3.3050244    1.4648772   370742 
 4948000   0.82435586   -3.3056253     -1.84114   0.04541158   -3.3056253    1.4644853   370719 
 4949000   0.82489917   -3.3039316    -1.838493  0.045743895   -3.3039316    1.4654386   370722 
 4950000   0.82372534   -3.3022486   -1.8387572   0.04703087   -3.3022486    1.4634915   370687 
 4951000   0.82653425   -3.3059449   -1.8372133  0.048975435   -3.3059449    1.4687316   370624 
 4952000   0.82564561   -3.3058869   -1.8386116  0.048239915   -3.3058869    1.4672753   370593 
 4953000   0.82417412   -3.3050888    -1.840136  0.045787867   -3.3050888    1.4649528   370519 
 4954000   0.82443709   -3.3056081   -1.8401128  0.041789486   -3.3056081    1.4654953   370500 
 4955000   0.82359739   -3.3027395   -1.8387565  0.044506135   -3.3027395     1.463983   370505 
 4956000   0.82428876   -3.3025699   -1.8373343  0.043802493   -3.3025699    1.4652356   370499 
 4957000   0.82347274    -3.303045   -1.8391216  0.045969094    -3.303045    1.4639234   370464 
 4958000   0.82405927    -3.302271   -1.8373049  0.046134517    -3.302271    1.4649661   370464 
 4959000   0.82351754   -3.3010031   -1.8368341  0.047124489   -3.3010031     1.464169   370422 
 4960000   0.82384773   -3.3010998   -1.8361499  0.044038836   -3.3010998    1.4649499   370373 
 4961000   0.82421603   -3.3023383   -1.8366109  0.043021282   -3.3023383    1.4657274   370342 
 4962000   0.82461447   -3.3026699   -1.8361547  0.046217583   -3.3026699    1.4665152   370322 
 4963000   0.82393663   -3.3009068   -1.8355614  0.051736685   -3.3009068    1.4653453   370313 
 4964000   0.82313645   -3.3000461   -1.8359538  0.045037759   -3.3000461    1.4640922   370270 
 4965000   0.82324058   -3.3015962    -1.837208  0.046053952   -3.3015962    1.4643882   370242 
 4966000   0.82347568   -3.3016547   -1.8368286  0.040338886   -3.3016547    1.4648262   370237 
 4967000   0.82433639   -3.3015138   -1.8352041  0.044637057   -3.3015138    1.4663097   370249 
 4968000   0.82372741   -3.2992404   -1.8339942  0.051269134   -3.2992404    1.4652463   370244 
 4969000   0.82528503   -3.3031468   -1.8350505  0.047355787   -3.3031468    1.4680963   370224 
 4970000   0.82349605   -3.3011778   -1.8361452  0.047478164   -3.3011778    1.4650326   370194 
 4971000   0.82534216   -3.3023209   -1.8340516  0.054718555   -3.3023209    1.4682693   370206 
 4972000   0.82602068   -3.3043788   -1.8348548  0.043083491   -3.3043788     1.469524   370194 
 4973000   0.82572987   -3.3035357   -1.8344061  0.045451968   -3.3035357    1.4691296   370163 
 4974000   0.82507559   -3.3025479   -1.8344673  0.046897487   -3.3025479    1.4680806   370134 
 4975000   0.82468817     -3.30234   -1.8350043  0.047732104     -3.30234    1.4673357   370148 
 4976000   0.82338025   -3.3008911   -1.8356331   0.05183623   -3.3008911     1.465258   370085 
 4977000   0.82210775   -3.2994753   -1.8365569  0.046449543   -3.2994753    1.4629184   370104 
 4978000    0.8233527   -3.3034002   -1.8381952   0.04877942   -3.3034002     1.465205   370086 
 4979000    0.8240012   -3.3045168   -1.8377971  0.044795923   -3.3045168    1.4667197   369995 
 4980000   0.82431333   -3.3038553   -1.8365443  0.044937491   -3.3038553     1.467311   369986 
 4981000   0.82387978   -3.3026738    -1.836079  0.044045094   -3.3026738    1.4665947   369972 
 4982000   0.82394857   -3.3027286   -1.8359678  0.044141101   -3.3027286    1.4667608   369961 
 4983000   0.82360598   -3.3027007   -1.8365181  0.046247793   -3.3027007    1.4661826   369953 
 4984000   0.82406102   -3.3037484     -1.83672  0.046926708   -3.3037484    1.4670284   369944 
 4985000   0.82372727   -3.3036583   -1.8370853  0.044471801   -3.3036583     1.466573   369909 
 4986000   0.82397715   -3.3041823   -1.8370057  0.047421047   -3.3041823    1.4671765   369869 
 4987000   0.82440187   -3.3044373   -1.8363736  0.040562803   -3.3044373    1.4680637   369836 
 4988000   0.82328335   -3.3024817   -1.8364216  0.044452611   -3.3024817      1.46606   369839 
 4989000   0.82259324   -3.3013863   -1.8365354  0.047301205   -3.3013863    1.4648509   369834 
 4990000   0.82208225   -3.3010433   -1.8370469  0.050064267   -3.3010433    1.4639964   369820 
 4991000   0.82343464   -3.3004873   -1.8340547  0.048110107   -3.3004873    1.4664325   369813 
 4992000   0.82212495   -3.2981496   -1.8341405  0.050996577   -3.2981496    1.4640091   369836 
 4993000   0.82329302   -3.3003493   -1.8341927  0.047304417   -3.3003493    1.4661566   369819 
 4994000   0.82399464   -3.3033884   -1.8358832  0.043008088   -3.3033884    1.4675052   369794 
 4995000   0.82387217   -3.3032692   -1.8359385  0.050534854   -3.3032692    1.4673308   369783 
 4996000   0.82359964   -3.3021513   -1.8352266  0.049158381   -3.3021513    1.4669247   369763 
 4997000    0.8213272   -3.3004913   -1.8373806  0.045099362   -3.3004913    1.4631107   369704 
 4998000   0.82114936   -3.3002629   -1.8373266  0.043374766   -3.3002629    1.4629364   369668 
 4999000   0.82005777   -3.2988277   -1.8378914  0.043410156   -3.2988277    1.4609363   369682 
 5000000   0.81940797    -3.298933   -1.8389924  0.042107926    -3.298933    1.4599406   369641 
 5001000   0.81976643   -3.3001452   -1.8393328  0.045241043   -3.3001452    1.4608124   369582 
 5002000   0.81971053   -3.3010218   -1.8400837  0.043521323   -3.3010218    1.4609381   369525 
 5003000   0.82135689    -3.303218   -1.8392149  0.046253904    -3.303218    1.4640031   369492 
 5004000   0.82139218   -3.3035385   -1.8393259  0.047794722   -3.3035385    1.4642126   369455 
 5005000    0.8223809   -3.3038747    -1.837717  0.043459078   -3.3038747    1.4661577   369409 
 5006000   0.82257279   -3.3043015   -1.8378534  0.045572559   -3.3043015    1.4664482   369422 
 5007000   0.82153795    -3.303919   -1.8390777  0.048604942    -3.303919    1.4648412   369362 
 5008000   0.82182032   -3.3045913   -1.8391157  0.045604998   -3.3045913    1.4654756   369329 
 5009000   0.82121538   -3.3036529   -1.8389784  0.045931159   -3.3036529    1.4646745   369259 
 5010000   0.82319231   -3.3054331   -1.8372764  0.047688803   -3.3054331    1.4681567   369270 
 5011000   0.82209319   -3.3043837   -1.8379967  0.047171068   -3.3043837     1.466387   369222 
 5012000   0.82246817   -3.3054541   -1.8383227  0.043229832   -3.3054541    1.4671314   369203 
 5013000   0.82139569   -3.3041761   -1.8388784  0.050816378   -3.3041761    1.4652977   369183 
 5014000   0.82101062    -3.304838   -1.8402034  0.051145596    -3.304838    1.4646345   369177 
 5015000   0.82112487   -3.3045593   -1.8396177  0.044772547   -3.3045593    1.4649415   369151 
 5016000   0.82126344   -3.3043033   -1.8390233  0.044929698   -3.3043033      1.46528   369128 
 5017000    0.8215795   -3.3062861   -1.8403707  0.046776032   -3.3062861    1.4659154   369110 
 5018000   0.82110153   -3.3066802   -1.8415739  0.039372166   -3.3066802    1.4651063   369099 
 5019000   0.82101979   -3.3054954   -1.8404715   0.04684175   -3.3054954    1.4650239   369083 
 5020000   0.82104454   -3.3058687   -1.8407728  0.046460904   -3.3058687    1.4650959   369076 
 5021000   0.82127622   -3.3075177   -1.8418892  0.044703183   -3.3075177    1.4656284   369046 
 5022000   0.82118034   -3.3056334   -1.8402476  0.045706678   -3.3056334    1.4653858   369064 
 5023000   0.82115783   -3.3054259   -1.8401477  0.043625097   -3.3054259    1.4652782   369081 
 5024000   0.82205173   -3.3057185   -1.8387022  0.045726404   -3.3057185    1.4670164   369045 
 5025000   0.82237764   -3.3071625   -1.8393935  0.046953521   -3.3071625     1.467769   369002 
 5026000   0.82137016   -3.3027016    -1.836838  0.052747918   -3.3027016    1.4658636   369029 
 5027000   0.82203743   -3.3046214   -1.8376306  0.046383886   -3.3046214    1.4669908   369045 
 5028000   0.81939927   -3.3014087   -1.8390426  0.047982014   -3.3014087     1.462366   369024 
 5029000   0.82021276   -3.3033973   -1.8396429  0.047312208   -3.3033973    1.4637544   369040 
 5030000   0.81996488   -3.3033619   -1.8398952  0.044000981   -3.3033619    1.4634667   369001 
 5031000   0.82031049    -3.304515   -1.8403204  0.045686219    -3.304515    1.4641946   368973 
 5032000   0.82003255   -3.3042635   -1.8405094  0.040655067   -3.3042635    1.4637541   368959 
 5033000   0.82151866   -3.3071456   -1.8405401  0.043767304   -3.3071456    1.4666055   368909 
 5034000   0.82112093   -3.3050528   -1.8391137  0.047934457   -3.3050528    1.4659392   368898 
 5035000   0.82167106   -3.3040642   -1.8370712  0.048666063   -3.3040642    1.4669929   368880 
 5036000   0.82158823   -3.3051105   -1.8381382  0.048437382   -3.3051105    1.4669723   368848 
 5037000   0.82122093   -3.3050378   -1.8387571  0.046938019   -3.3050378    1.4662807   368857 
 5038000   0.81932856   -3.3037335   -1.8407722  0.048165963   -3.3037335    1.4629614   368842 
 5039000   0.82151613   -3.3070004   -1.8400137   0.04103978   -3.3070004    1.4669867   368812 
 5040000    0.8196683   -3.3045029    -1.840673  0.049457984   -3.3045029    1.4638299   368776 
 5041000   0.81971132   -3.3051125   -1.8413724  0.047128078   -3.3051125    1.4637401   368818 
 5042000   0.81997967   -3.3059512   -1.8416605  0.047247021   -3.3059512    1.4642907   368800 
 5043000   0.82027955   -3.3054494   -1.8405159  0.048016802   -3.3054494    1.4649335   368773 
 5044000   0.82063523   -3.3056474   -1.8401026  0.045456203   -3.3056474    1.4655448   368779 
 5045000   0.82001171   -3.3053293   -1.8406001  0.046737399   -3.3053293    1.4647292   368704 
 5046000   0.82189007   -3.3056729   -1.8375168  0.048407522   -3.3056729     1.468156   368686 
 5047000   0.81919125   -3.3033904   -1.8398171  0.047122781   -3.3033904    1.4635733   368626 
 5048000   0.82026379    -3.304177   -1.8386795  0.049549109    -3.304177    1.4654974   368624 
 5049000   0.82018599   -3.3044906   -1.8390129  0.050390379   -3.3044906    1.4654777   368594 
 5050000   0.82010429   -3.3052336    -1.839882  0.049040155   -3.3052336    1.4653516   368589 
 5051000    0.8192439   -3.3028266   -1.8389607  0.047143351   -3.3028266    1.4638659   368576 
 5052000   0.81999728   -3.3041258   -1.8389694   0.04586357   -3.3041258    1.4651564   368590 
 5053000   0.81907726   -3.3027443      -1.8392  0.045395379   -3.3027443    1.4635443   368582 
 5054000   0.81966857   -3.3021217   -1.8374135  0.043693339   -3.3021217    1.4647082   368555 
 5055000   0.81877112   -3.3003466   -1.8370357  0.042175868   -3.3003466    1.4633109   368503 
 5056000   0.81966368   -3.3027797   -1.8378298  0.042996584   -3.3027797    1.4649499   368492 
 5057000   0.81860571   -3.3002513    -1.837228  0.041274534   -3.3002513    1.4630233   368501 
 5058000   0.82033525   -3.3020869   -1.8357856  0.045751914   -3.3020869    1.4663013   368454 
 5059000   0.82071185   -3.3029051   -1.8357116  0.041927806   -3.3029051    1.4671935   368399 
 5060000    0.8185267    -3.299941   -1.8365983  0.048480545    -3.299941    1.4633427   368385 
 5061000   0.81810267   -3.2977643   -1.8350407  0.046176074   -3.2977643    1.4627236   368350 
 5062000   0.81901378   -3.2985738   -1.8342689  0.049822784   -3.2985738    1.4643049   368362 
 5063000   0.81885564     -3.29862   -1.8344785  0.042232821     -3.29862    1.4641414   368332 
 5064000   0.81721842   -3.2975213   -1.8361962  0.039135862   -3.2975213    1.4613251   368304 
 5065000   0.81726338   -3.2988681   -1.8372006  0.040207936   -3.2988681    1.4616674   368238 
 5066000   0.81846554   -3.2994284   -1.8355871  0.043229755   -3.2994284    1.4638413   368232 
 5067000   0.81827992   -3.2989636   -1.8353072  0.044436722   -3.2989636    1.4636564   368195 
 5068000   0.81656084   -3.2969123   -1.8362673  0.046414114   -3.2969123     1.460645   368179 
 5069000     0.817393   -3.2976395   -1.8352995  0.042758372   -3.2976395    1.4623401   368127 
 5070000   0.81944738   -3.3001434   -1.8340882   0.04492221   -3.3001434    1.4660552   368117 
 5071000   0.81799083    -3.298899   -1.8352708  0.044657778    -3.298899    1.4636283   368072 
 5072000    0.8161204   -3.2965549   -1.8361663  0.044498211   -3.2965549    1.4603886   368045 
 5073000   0.81800618    -3.298955   -1.8350806  0.043301716    -3.298955    1.4638745   368017 
 5074000   0.81908348   -3.2990941   -1.8333117  0.044075729   -3.2990941    1.4657825   368022 
 5075000   0.81890879   -3.2998838    -1.834195  0.044901267   -3.2998838    1.4656889   367967 
 5076000   0.81790255    -3.297599   -1.8335997   0.04796375    -3.297599    1.4639993   367939 
 5077000   0.81874829   -3.2992294   -1.8337561  0.051879164   -3.2992294    1.4654733   367949 
 5078000   0.81774223   -3.2977395   -1.8339714  0.049527468   -3.2977395     1.463768   367925 
 5079000   0.81817693    -3.299207   -1.8346728  0.042724357    -3.299207    1.4645342   367928 
 5080000   0.81829365    -3.298896   -1.8339857  0.043560488    -3.298896    1.4649104   367886 
 5081000    0.8181587   -3.2987818    -1.834113  0.043849651   -3.2987818    1.4646688   367886 
 5082000    0.8185003   -3.3002377   -1.8348498  0.046535242   -3.3002377    1.4653879   367859 
 5083000   0.81982076   -3.3010872   -1.8333632  0.051493741   -3.3010872     1.467724   367866 
 5084000   0.81941024   -3.3003058   -1.8330974  0.048399139   -3.3003058    1.4672084   367811 
 5085000   0.81762353   -3.2965988   -1.8325458  0.048351071   -3.2965988     1.464053   367800 
 5086000   0.81712322   -3.2969637   -1.8336633  0.047619785   -3.2969637    1.4633003   367764 
 5087000   0.81813496   -3.2985417   -1.8333738   0.04323179   -3.2985417    1.4651679   367750 
 5088000   0.81749002   -3.2968511   -1.8328501      0.04572   -3.2968511     1.464001   367753 
 5089000   0.81687606   -3.2967785    -1.833865  0.047699622   -3.2967785    1.4629134   367750 
 5090000   0.81625624   -3.2987216   -1.8367512  0.044504501   -3.2987216    1.4619704   367708 
 5091000   0.81532935   -3.2980273    -1.837725  0.049131629   -3.2980273    1.4603023   367710 
 5092000   0.81731416   -3.3008682   -1.8368477  0.048610367   -3.3008682    1.4640204   367669 
 5093000   0.81669533   -3.2977974   -1.8351082  0.047568066   -3.2977974    1.4626892   367725 
 5094000   0.81767365   -3.2981119   -1.8335192  0.045374871   -3.2981119    1.4645927   367687 
 5095000   0.81767051   -3.2992437   -1.8346049  0.043786901   -3.2992437    1.4646388   367674 
 5096000   0.81800615   -3.2987921   -1.8336437   0.04477199   -3.2987921    1.4651484   367697 
 5097000   0.81790045   -3.2987651   -1.8337423  0.045736307   -3.2987651    1.4650228   367681 
 5098000   0.81878742   -3.2990017   -1.8323782  0.049740103   -3.2990017    1.4666235   367678 
 5099000   0.81838951   -3.3000962   -1.8340858  0.044966208   -3.3000962    1.4660105   367653 
 5100000    0.8186867   -3.2996169   -1.8329624  0.046906049   -3.2996169    1.4666545   367625 
 5101000   0.81808608   -3.2997751   -1.8340091  0.045913196   -3.2997751    1.4657659   367578 
 5102000   0.81693082   -3.2967161   -1.8331474  0.048749094   -3.2967161    1.4635686   367610 
 5103000   0.81768755   -3.2975563    -1.832636  0.047920768   -3.2975563    1.4649204   367611 
 5104000   0.81733062   -3.2977208   -1.8333244  0.046279914   -3.2977208    1.4643964   367582 
 5105000   0.81662945   -3.2964194   -1.8333071  0.046418738   -3.2964194    1.4631123   367589 
 5106000   0.81700806    -3.298325   -1.8343353  0.047063215    -3.298325    1.4639898   367539 
 5107000   0.81731618   -3.2992286    -1.834623  0.043510939   -3.2992286    1.4646057   367523 
 5108000   0.81584441   -3.2956526    -1.833736  0.043032519   -3.2956526    1.4619166   367536 
 5109000   0.81459987   -3.2947465   -1.8349965  0.044322441   -3.2947465      1.45975   367520 
 5110000   0.81417351   -3.2930729   -1.8339558  0.042296559   -3.2930729     1.459117   367487 
 5111000   0.81417952   -3.2914067   -1.8321836  0.046902307   -3.2914067    1.4592231   367463 
 5112000   0.81489187    -3.292803   -1.8322913  0.046377905    -3.292803    1.4605117   367460 
 5113000   0.81519261   -3.2940039   -1.8326191  0.041021878   -3.2940039    1.4613848   367376 
 5114000    0.8147444   -3.2934035   -1.8326314  0.045866641   -3.2934035    1.4607722   367328 
 5115000   0.81490913   -3.2923638   -1.8311491  0.044663726   -3.2923638    1.4612147   367291 
 5116000   0.81629578   -3.2944989   -1.8307659  0.048263527   -3.2944989     1.463733   367283 
 5117000   0.81879312   -3.2986421   -1.8302711  0.048954218   -3.2986421     1.468371   367243 
 5118000   0.81627699   -3.2947951   -1.8308129  0.048130273   -3.2947951    1.4639823   367212 
 5119000   0.81675844   -3.2961057   -1.8313876  0.049308114   -3.2961057    1.4647181   367244 
 5120000   0.81824004    -3.296872   -1.8294729  0.048378693    -3.296872    1.4673991   367238 
 5121000   0.81770647   -3.2966712   -1.8300453  0.052492231   -3.2966712    1.4666259   367192 
 5122000   0.81773816    -3.296645   -1.8299502  0.049223453    -3.296645    1.4666947   367189 
 5123000   0.81634398   -3.2952033   -1.8309653    0.0518125   -3.2952033     1.464238   367178 
 5124000   0.81725301   -3.2965082   -1.8306118  0.049792985   -3.2965082    1.4658964   367171 
 5125000   0.81771171   -3.2965919   -1.8299686   0.04964745   -3.2965919    1.4666233   367195 
 5126000   0.81769519   -3.2963126   -1.8297868  0.048446113   -3.2963126    1.4665258   367212 
 5127000   0.81758034   -3.2958507   -1.8294391  0.047386794   -3.2958507    1.4664117   367189 
 5128000    0.8173845   -3.2951653    -1.829009  0.046570114   -3.2951653    1.4661563   367165 
 5129000   0.81682325   -3.2950179   -1.8298405  0.051142443   -3.2950179    1.4651774   367158 
 5130000   0.81760372    -3.295784   -1.8291267  0.044790339    -3.295784    1.4666573   367138 
 5131000   0.81706778   -3.2947273   -1.8289834  0.044016187   -3.2947273    1.4657438   367126 
 5132000   0.81408475   -3.2897219   -1.8292816  0.047365181   -3.2897219    1.4604403   367114 
 5133000   0.81643632   -3.2938859   -1.8292828  0.044457155   -3.2938859    1.4646031   367128 
 5134000   0.81709286   -3.2937684   -1.8276401  0.047063782   -3.2937684    1.4661283   367041 
 5135000   0.81761097    -3.296566   -1.8293722  0.048559312    -3.296566    1.4671938   367007 
 5136000   0.81626863   -3.2943842   -1.8294595  0.051793877   -3.2943842    1.4649247   366972 
 5137000   0.81752058   -3.2954896    -1.828414  0.048440289   -3.2954896    1.4670756   366996 
 5138000   0.81661771   -3.2941962    -1.828605  0.050030067   -3.2941962    1.4655911   366962 
 5139000    0.8159186   -3.2918604   -1.8274082  0.042855083   -3.2918604    1.4644522   366933 
 5140000   0.81503523   -3.2917825   -1.8289278  0.046814969   -3.2917825    1.4628547   366936 
 5141000   0.81454273   -3.2919565   -1.8297466  0.045356423   -3.2919565    1.4622098   366876 
 5142000   0.81452665   -3.2937665    -1.831458  0.037297621   -3.2937665    1.4623085   366844 
 5143000    0.8149275    -3.294327   -1.8311832  0.047346537    -3.294327    1.4631438   366815 
 5144000   0.81472254    -3.293282   -1.8304822  0.043050236    -3.293282    1.4627998   366809 
 5145000   0.81430883   -3.2917737   -1.8295772  0.040096941   -3.2917737    1.4621965   366774 
 5146000   0.81278948    -3.291247   -1.8316474  0.042551639    -3.291247    1.4595996   366741 
 5147000   0.81415635   -3.2947189   -1.8325531  0.045136555   -3.2947189    1.4621659   366713 
 5148000   0.81520825   -3.2961456   -1.8319349   0.04490446   -3.2961456    1.4642107   366674 
 5149000   0.81393541   -3.2940104   -1.8321218  0.045351664   -3.2940104    1.4618887   366683 
 5150000   0.81513788   -3.2958086   -1.8318281  0.044643687   -3.2958086    1.4639805   366700 
 5151000   0.81499654   -3.2943223   -1.8305397  0.045471464   -3.2943223    1.4637826   366686 
 5152000   0.81474919    -3.294973   -1.8315229  0.045854935    -3.294973    1.4634501   366658 
 5153000   0.81464733   -3.2945709   -1.8311521  0.043819186   -3.2945709    1.4634188   366620 
 5154000   0.81622486   -3.2960107   -1.8296501   0.04636334   -3.2960107    1.4663606   366593 
 5155000   0.81555429   -3.2962461   -1.8311102  0.045081073   -3.2962461    1.4651359   366598 
 5156000    0.8159582   -3.2974017   -1.8314202   0.04413942   -3.2974017    1.4659815   366568 
 5157000   0.81569294    -3.297567   -1.8317582  0.046440854    -3.297567    1.4658088   366492 
 5158000   0.81662036   -3.2998595    -1.832372   0.04893459   -3.2998595    1.4674874   366489 
 5159000   0.81591561   -3.3004251   -1.8341321   0.04473533   -3.3004251     1.466293   366471 
 5160000   0.81350674   -3.2958268   -1.8338867  0.048716159   -3.2958268      1.46194   366477 
 5161000   0.81303888   -3.2952495   -1.8340226  0.050673342   -3.2952495    1.4612269   366445 
 5162000   0.81598601   -3.2991681   -1.8326006  0.041525752   -3.2991681    1.4665676   366434 
 5163000   0.81410853   -3.2975883   -1.8343432  0.046546404   -3.2975883    1.4632451   366421 
 5164000   0.81380838   -3.2966178   -1.8338163  0.043508867   -3.2966178    1.4628015   366397 
 5165000   0.81724656   -3.2999622   -1.8309727  0.044054415   -3.2999622    1.4689895   366395 
 5166000   0.81477485   -3.2952604   -1.8307578  0.046544615   -3.2952604    1.4645027   366406 
 5167000   0.81509826   -3.2948724   -1.8296645  0.047834839   -3.2948724    1.4652079   366375 
 5168000   0.81458401   -3.2948625   -1.8305909  0.045925227   -3.2948625    1.4642715   366378 
 5169000   0.81472825   -3.2946448    -1.830042  0.047893618   -3.2946448    1.4646028   366360 
 5170000   0.81424877   -3.2948572   -1.8309325  0.044808438   -3.2948572    1.4639247   366314 
 5171000   0.81484136   -3.2952008   -1.8301028  0.044957482   -3.2952008    1.4650981   366287 
 5172000   0.81363116   -3.2931599   -1.8298543  0.042703133   -3.2931599    1.4633056   366191 
 5173000   0.81432211   -3.2946403   -1.8299681  0.042856296   -3.2946403    1.4646723   366160 
 5174000    0.8141628   -3.2928267   -1.8283129  0.044883486   -3.2928267    1.4645137   366128 
 5175000    0.8142618   -3.2931598      -1.8283  0.047671088   -3.2931598    1.4648598   366086 
 5176000   0.81406686   -3.2929828   -1.8283456  0.043933092   -3.2929828    1.4646372   366054 
 5177000   0.81281901   -3.2918005   -1.8294803  0.048473425   -3.2918005    1.4623202   366072 
 5178000   0.81434406   -3.2941194   -1.8290715  0.046779938   -3.2941194    1.4650479   366076 
 5179000   0.81449875   -3.2935055   -1.8280633  0.050593867   -3.2935055    1.4654422   366047 
 5180000   0.81370892   -3.2916022    -1.827525  0.046715575   -3.2916022    1.4640772   366033 
 5181000   0.81232733   -3.2902137   -1.8284586  0.048162032   -3.2902137     1.461755   365992 
 5182000   0.81380155   -3.2929407   -1.8284488  0.043487739   -3.2929407    1.4644919   365971 
 5183000   0.81292765    -3.292048   -1.8289009  0.041292511    -3.292048    1.4631471   365914 
 5184000    0.8124053   -3.2914283   -1.8292253  0.048040223   -3.2914283     1.462203   365915 
 5185000   0.81271385   -3.2916935   -1.8289432  0.047443578   -3.2916935    1.4627503   365917 
 5186000   0.81466411   -3.2949528   -1.8286923   0.04717917   -3.2949528    1.4662605   365917 
 5187000   0.81462188   -3.2937988     -1.82745  0.046847421   -3.2937988    1.4663488   365876 
 5188000   0.81453765   -3.2935821   -1.8272126  0.046699171   -3.2935821    1.4663695   365833 
 5189000   0.81536463    -3.295624   -1.8275771  0.048088903    -3.295624    1.4680469   365786 
 5190000   0.81376956   -3.2937855   -1.8286105  0.042784699   -3.2937855     1.465175   365786 
 5191000   0.81222916   -3.2923677   -1.8300422  0.047010408   -3.2923677    1.4623256   365805 
 5192000   0.81306529   -3.2921069   -1.8282039  0.044057451   -3.2921069    1.4639029   365787 
 5193000   0.81354517   -3.2951465   -1.8303155    0.0479833   -3.2951465     1.464831   365771 
 5194000   0.81418329   -3.2962186   -1.8302907  0.046304495   -3.2962186    1.4659279   365784 
 5195000   0.81230396   -3.2933516   -1.8306675  0.047587343   -3.2933516    1.4626842   365749 
 5196000    0.8123543   -3.2946538    -1.831683  0.045866224   -3.2946538    1.4629708   365700 
 5197000   0.81319237     -3.29435   -1.8298819   0.04762649     -3.29435    1.4644681   365703 
 5198000   0.81327322   -3.2957076   -1.8309858   0.04997249   -3.2957076    1.4647218   365676 
 5199000   0.81472722   -3.2992815   -1.8316481  0.045170117   -3.2992815    1.4676335   365603 
 5200000   0.81316366   -3.2973858   -1.8325048  0.051355647   -3.2973858     1.464881   365587 
 5201000   0.81420369   -3.2977637   -1.8308807  0.048461956   -3.2977637     1.466883   365555 
 5202000   0.81475349   -3.2991442    -1.831343  0.050144721   -3.2991442    1.4678012   365573 
 5203000   0.81286514   -3.2956894   -1.8310858  0.051367039   -3.2956894    1.4646036   365522 
 5204000   0.81485928   -3.2993977   -1.8311086  0.047238967   -3.2993977     1.468289   365499 
 5205000    0.8146599   -3.2994653   -1.8314592  0.048962112   -3.2994653    1.4680061   365480 
 5206000   0.81351908   -3.2980139    -1.831859  0.045588688   -3.2980139    1.4661549   365429 
 5207000   0.81351016    -3.298335    -1.832156    0.0486751    -3.298335     1.466179   365419 
 5208000   0.81277595   -3.2981397   -1.8330194  0.049818086   -3.2981397    1.4651203   365353 
 5209000   0.81321793   -3.2976939   -1.8316885  0.049689363   -3.2976939    1.4660053   365331 
 5210000   0.81426961   -3.2986079   -1.8306264  0.047498151   -3.2986079    1.4679816   365311 
 5211000   0.81218481   -3.2959745   -1.8315951  0.051577447   -3.2959745    1.4643794   365272 
 5212000    0.8120015   -3.2958309   -1.8317178  0.048536135   -3.2958309     1.464113   365256 
 5213000   0.81146762   -3.2952971   -1.8321067  0.045018438   -3.2952971    1.4631905   365246 
 5214000   0.81291566   -3.2964489   -1.8306434  0.047729782   -3.2964489    1.4658055   365245 
 5215000   0.81203343   -3.2949363   -1.8306735  0.045559893   -3.2949363    1.4642628   365233 
 5216000   0.81248926   -3.2964766   -1.8311953  0.047580571   -3.2964766    1.4652813   365184 
 5217000   0.81261304   -3.2970707     -1.83153  0.045321463   -3.2970707    1.4655407   365175 
 5218000   0.81147932   -3.2933763   -1.8297039  0.049205131   -3.2933763    1.4636724   365131 
 5219000   0.81268458   -3.2937551   -1.8280292   0.04668816   -3.2937551    1.4657259   365161 
 5220000      0.81239   -3.2926282   -1.8271446  0.044541268   -3.2926282    1.4654836   365089 
 5221000   0.81305379   -3.2915183   -1.8247328  0.045937754   -3.2915183    1.4667854   365063 
 5222000   0.81236882    -3.292091   -1.8262642  0.044828002    -3.292091    1.4658268   364994 
 5223000   0.81207523   -3.2912285   -1.8258713  0.045971004   -3.2912285    1.4653573   364979 
 5224000    0.8126543   -3.2922065    -1.825961  0.045505272   -3.2922065    1.4662455   365018 
 5225000   0.81134936   -3.2904076   -1.8265326  0.046192982   -3.2904076     1.463875   365022 
 5226000   0.81198837   -3.2906589   -1.8256431   0.04286455   -3.2906589    1.4650159   365025 
 5227000   0.81211869    -3.290357    -1.824829  0.045423141    -3.290357     1.465528   364956 
 5228000   0.81152548    -3.288979   -1.8244171  0.042406612    -3.288979    1.4645619   364930 
 5229000   0.81187093   -3.2872357     -1.82193  0.044883413   -3.2872357    1.4653058   364900 
 5230000   0.81029972   -3.2867871   -1.8241328  0.046322856   -3.2867871    1.4626544   364854 
 5231000   0.81228986   -3.2905006   -1.8241936  0.043835072   -3.2905006     1.466307   364839 
 5232000   0.81158698   -3.2883087   -1.8232102  0.041592641   -3.2883087    1.4650984   364824 
 5233000   0.81220249     -3.28858   -1.8223141  0.044473805     -3.28858    1.4662658   364810 
 5234000   0.81083489   -3.2869139   -1.8230728  0.046010018   -3.2869139     1.463841   364799 
 5235000   0.81203284   -3.2898698   -1.8237093   0.04716376   -3.2898698    1.4661605   364760 
 5236000    0.8116288   -3.2883797   -1.8227719  0.045181485   -3.2883797    1.4656078   364716 
 5237000   0.81082763   -3.2870318    -1.822931  0.047235371   -3.2870318    1.4641009   364731 
 5238000   0.81144361   -3.2888837   -1.8235983  0.041526131   -3.2888837    1.4652854   364713 
 5239000   0.81114336   -3.2891794   -1.8243117  0.043319123   -3.2891794    1.4648678   364682 
 5240000   0.80966752   -3.2859951   -1.8236844  0.042185509   -3.2859951    1.4623108   364655 
 5241000    0.8117596   -3.2896595   -1.8234457    0.0475915   -3.2896595    1.4662138   364624 
 5242000   0.81133019   -3.2892091   -1.8237829   0.04884717   -3.2892091    1.4654262   364627 
 5243000     0.812615   -3.2920995   -1.8241313  0.046376104   -3.2920995    1.4679682   364572 
 5244000   0.81155353   -3.2900476   -1.8239204  0.048010818   -3.2900476    1.4661271   364553 
 5245000   0.81152747   -3.2911401   -1.8248469  0.042021891   -3.2911401    1.4662932   364500 
 5246000   0.81240521   -3.2922312   -1.8241829  0.046906796   -3.2922312    1.4680483   364458 
 5247000   0.81311377   -3.2927494   -1.8233804  0.045415683   -3.2927494     1.469369   364448 
 5248000   0.81175167   -3.2915935   -1.8244403  0.041833386   -3.2915935    1.4671532   364387 
 5249000   0.81047679   -3.2892383   -1.8243853  0.044283898   -3.2892383     1.464853   364386 
 5250000   0.81104229   -3.2904717   -1.8245121  0.049375925   -3.2904717    1.4659595   364365 
 5251000    0.8113007   -3.2903891   -1.8240148  0.044324668   -3.2903891    1.4663743   364378 
 5252000   0.81165859   -3.2909197   -1.8238181  0.047515332   -3.2909197    1.4671017   364358 
 5253000   0.81192185   -3.2912703   -1.8237129  0.048633853   -3.2912703    1.4675574   364363 
 5254000   0.81201376   -3.2920255   -1.8241288  0.045035646   -3.2920255    1.4678968   364320 
 5255000   0.81193416   -3.2929103   -1.8251373  0.048952909   -3.2929103     1.467773   364315 
 5256000    0.8121548   -3.2916901   -1.8234376  0.046329732   -3.2916901    1.4682525   364295 
 5257000   0.81018575   -3.2895692   -1.8248925  0.045008059   -3.2895692    1.4646766   364299 
 5258000    0.8098598    -3.290111    -1.825895  0.046284438    -3.290111     1.464216   364267 
 5259000   0.80890964   -3.2888089   -1.8262747    0.0509957   -3.2888089    1.4625342   364258 
 5260000   0.80997219   -3.2897711   -1.8253319  0.041562754   -3.2897711    1.4644393   364262 
 5261000   0.80890626   -3.2886914   -1.8261191   0.04379769   -3.2886914    1.4625723   364247 
 5262000   0.80892694   -3.2904449   -1.8277509  0.043543279   -3.2904449     1.462694   364226 
 5263000   0.80886159   -3.2899546   -1.8272743  0.044026618   -3.2899546    1.4626803   364200 
 5264000   0.80936464   -3.2901108   -1.8266213   0.04380867   -3.2901108    1.4634895   364225 
 5265000   0.81056155   -3.2907318   -1.8250861  0.049075651   -3.2907318    1.4656457   364227 
 5266000   0.81017928    -3.290012   -1.8250173  0.047680754    -3.290012    1.4649947   364217 
 5267000   0.81026397   -3.2904206   -1.8250072  0.046732746   -3.2904206    1.4654134   364151 
 5268000   0.81190495   -3.2932804   -1.8248185  0.044475263   -3.2932804    1.4684618   364131 
 5269000   0.81197951   -3.2918096   -1.8232371  0.055390581   -3.2918096    1.4685725   364137 
 5270000   0.81188466   -3.2924277   -1.8239542  0.047319396   -3.2924277    1.4684735   364119 
 5271000   0.81070125   -3.2900402   -1.8237273  0.052701218   -3.2900402     1.466313   364124 
 5272000   0.81206743   -3.2912596   -1.8225038   0.05300564   -3.2912596    1.4687557   364131 
 5273000   0.81035702   -3.2883581   -1.8226637  0.053411489   -3.2883581    1.4656944   364123 
 5274000   0.81065514   -3.2895213   -1.8232796  0.049454648   -3.2895213    1.4662416   364121 
 5275000   0.81096087   -3.2913922   -1.8245654  0.045669387   -3.2913922    1.4668268   364113 
 5276000    0.8112987   -3.2929258   -1.8252542  0.048465782   -3.2929258    1.4676717   364055 
 5277000    0.8098822   -3.2916777   -1.8264438  0.048400375   -3.2916777    1.4652339   364024 
 5278000   0.81027132   -3.2928926    -1.826866  0.047248993   -3.2928926    1.4660265   364002 
 5279000   0.80969865   -3.2923083   -1.8272293  0.049519516   -3.2923083    1.4650789   363980 
 5280000   0.81056513   -3.2926578   -1.8258377  0.053378238   -3.2926578      1.46682   363937 
 5281000   0.81087179   -3.2916189   -1.8241431  0.048945147   -3.2916189    1.4674758   363912 
 5282000   0.80889817   -3.2896705   -1.8257021  0.044421356   -3.2896705    1.4639684   363896 
 5283000    0.8103814   -3.2927054   -1.8258672  0.050251818   -3.2927054    1.4668382   363850 
 5284000   0.81073846   -3.2930052   -1.8255853  0.050302067   -3.2930052      1.46742   363866 
 5285000   0.81016458   -3.2938214   -1.8273675   0.05078453   -3.2938214    1.4664538   363848 
 5286000   0.80885512   -3.2916461   -1.8274981  0.049327955   -3.2916461     1.464148   363832 
 5287000    0.8096554   -3.2915408   -1.8258838  0.050762206   -3.2915408    1.4656571   363817 
 5288000   0.80901753   -3.2910439   -1.8263523  0.044315816   -3.2910439    1.4646916   363770 
 5289000   0.80848693   -3.2921554   -1.8282595  0.044075036   -3.2921554    1.4638959   363729 
 5290000   0.80764625   -3.2906523   -1.8281941  0.048366559   -3.2906523    1.4624582   363708 
 5291000   0.80891841   -3.2928366    -1.827954  0.043511195   -3.2928366    1.4648826   363678 
 5292000   0.80858867   -3.2927614   -1.8283592   0.04824947   -3.2927614    1.4644022   363649 
 5293000    0.8085844   -3.2932524   -1.8288941  0.042886553   -3.2932524    1.4643583   363658 
 5294000   0.80790689   -3.2915491   -1.8282408  0.044918332   -3.2915491    1.4633083   363614 
 5295000   0.80853911   -3.2924162   -1.8278178  0.048657883   -3.2924162    1.4645984   363578 
 5296000   0.80768545   -3.2908993   -1.8275896  0.045837734   -3.2908993    1.4633097   363514 
 5297000   0.80841446   -3.2926348    -1.827956  0.046379274   -3.2926348    1.4646788   363502 
 5298000   0.80821451    -3.292324   -1.8278262  0.046884531    -3.292324    1.4644979   363457 
 5299000   0.80799458   -3.2929977   -1.8288299  0.047405445   -3.2929977    1.4641678   363440 
 5300000   0.80729629   -3.2912722   -1.8283295  0.048616472   -3.2912722    1.4629427   363430 
 5301000   0.80909612   -3.2936169   -1.8272916  0.043843816   -3.2936169    1.4663253   363400 
 5302000   0.80867642   -3.2928118   -1.8271221  0.044357728   -3.2928118    1.4656897   363369 
 5303000   0.80773655   -3.2918044   -1.8277981  0.046960188   -3.2918044    1.4640064   363364 
 5304000   0.80897177   -3.2926949   -1.8261349   0.05080399   -3.2926949      1.46656   363286 
 5305000   0.80816377   -3.2929766   -1.8278129  0.048685134   -3.2929766    1.4651638   363269 
 5306000   0.80975561   -3.2939512   -1.8258126    0.0528218   -3.2939512    1.4681386   363247 
 5307000   0.80921192    -3.293775   -1.8264202  0.051133542    -3.293775    1.4673548   363197 
 5308000   0.80883371   -3.2924039   -1.8256339  0.048751919   -3.2924039      1.46677   363172 
 5309000   0.80849079   -3.2912663   -1.8250656  0.046010839   -3.2912663    1.4662006   363159 
 5310000   0.80860137   -3.2908556   -1.8243172  0.051250796   -3.2908556    1.4665385   363125 
 5311000   0.80765713     -3.29039   -1.8254269  0.046454551     -3.29039    1.4649631   363091 
 5312000   0.80777391    -3.290892   -1.8257332  0.042746282    -3.290892    1.4651588   363095 
 5313000   0.80741387   -3.2899098   -1.8250894   0.04602929   -3.2899098    1.4648204   363017 
 5314000   0.80796826   -3.2915377   -1.8256307  0.045670568   -3.2915377    1.4659069   362997 
 5315000   0.80673232   -3.2914964   -1.8277713  0.045713848   -3.2914964     1.463725   362982 
 5316000    0.8071974   -3.2906937   -1.8261046  0.046754317   -3.2906937     1.464589   362977 
 5317000   0.80738016   -3.2903133   -1.8252473  0.053175685   -3.2903133    1.4650659   362941 
 5318000   0.80685758   -3.2896863   -1.8256291  0.048992852   -3.2896863    1.4640572   362956 
 5319000   0.80661491   -3.2892045   -1.8255796   0.04737093   -3.2892045    1.4636249   362954 
 5320000    0.8062855    -3.287733   -1.8246494  0.048089538    -3.287733    1.4630836   362940 
 5321000   0.80693827   -3.2872547   -1.8228332   0.04332843   -3.2872547    1.4644214   362902 
 5322000   0.80611433   -3.2853003   -1.8223338  0.054118834   -3.2853003    1.4629665   362892 
 5323000   0.80920913   -3.2902611   -1.8214919  0.046762651   -3.2902611    1.4687692   362846 
 5324000   0.80985813   -3.2915863    -1.821327  0.050861829   -3.2915863    1.4702592   362769 
 5325000   0.80976015   -3.2921853   -1.8219337  0.049686261   -3.2921853    1.4702516   362727 
 5326000   0.81023202   -3.2923823   -1.8211645  0.045970501   -3.2923823    1.4712178   362700 
 5327000   0.80964217   -3.2906791    -1.820285  0.047697867   -3.2906791    1.4703941   362639 
 5328000    0.8079279   -3.2872096   -1.8198763  0.053914463   -3.2872096    1.4673334   362626 
 5329000   0.80695413   -3.2881996   -1.8224772   0.04492149   -3.2881996    1.4657225   362587 
 5330000   0.80787197   -3.2896019    -1.822099  0.042382096   -3.2896019    1.4675029   362559 
 5331000    0.8075046   -3.2880289   -1.8209545    0.0454654   -3.2880289    1.4670744   362500 
 5332000   0.80669857   -3.2881785   -1.8223663  0.044972779   -3.2881785    1.4658121   362450 
 5333000   0.80621918   -3.2876808   -1.8226225  0.048089573   -3.2876808    1.4650583   362421 
 5334000   0.80634525   -3.2889161   -1.8236247   0.04949363   -3.2889161    1.4652914   362420 
 5335000   0.80632313    -3.288078   -1.8227216  0.043590253    -3.288078    1.4653564   362394 
 5336000   0.80647083   -3.2874685   -1.8216496  0.049175207   -3.2874685    1.4658189   362346 
 5337000     0.806209   -3.2874896   -1.8220131  0.047536024   -3.2874896    1.4654765   362313 
 5338000   0.80605594    -3.287264   -1.8220657  0.045309254    -3.287264    1.4651983   362313 
 5339000   0.80560454   -3.2866451   -1.8222229  0.041272154   -3.2866451    1.4644222   362302 
 5340000   0.80693131   -3.2885099   -1.8218257  0.041685976   -3.2885099    1.4666842   362339 
 5341000   0.80608906   -3.2863992   -1.8211892  0.043365046   -3.2863992    1.4652099   362325 
 5342000   0.80539862   -3.2850864     -1.82099  0.047895025   -3.2850864    1.4640964   362290 
 5343000   0.80621514   -3.2872749   -1.8216214  0.042560959   -3.2872749    1.4656535   362272 
 5344000   0.80624202   -3.2869247   -1.8212709  0.048405589   -3.2869247    1.4656538   362284 
 5345000   0.80653332   -3.2871499   -1.8209666  0.045472744   -3.2871499    1.4661834   362284 
 5346000   0.80653559   -3.2859439   -1.8195905  0.046515585   -3.2859439    1.4663535   362243 
 5347000   0.80482868   -3.2843243   -1.8209166  0.046840319   -3.2843243    1.4634077   362204 
 5348000   0.80549594   -3.2849435   -1.8203226  0.047793678   -3.2849435     1.464621   362204 
 5349000   0.80584629   -3.2872204   -1.8218694  0.041659269   -3.2872204     1.465351   362181 
 5350000   0.80686484   -3.2883391   -1.8210913  0.047666998   -3.2883391    1.4672477   362170 
 5351000   0.80713985   -3.2896444   -1.8217872  0.047720578   -3.2896444    1.4678573   362143 
 5352000   0.80686332   -3.2893165    -1.821877  0.048342101   -3.2893165    1.4674395   362122 
 5353000   0.80669348   -3.2884363   -1.8214799  0.051456079   -3.2884363    1.4669564   362165 
 5354000   0.80714999   -3.2872032   -1.8193519  0.051772742   -3.2872032    1.4678514   362149 
 5355000   0.80697594    -3.288798   -1.8209267  0.045943515    -3.288798    1.4678713   362066 
 5356000   0.80623074   -3.2869811   -1.8203722  0.052806045   -3.2869811    1.4666089   362043 
 5357000   0.80692957   -3.2887014   -1.8207523  0.047884668   -3.2887014    1.4679491   362026 
 5358000   0.80524219   -3.2870023    -1.822054  0.048415471   -3.2870023    1.4649483   362009 
 5359000   0.80504605    -3.286742   -1.8222113  0.047451679    -3.286742    1.4645307   362024 
 5360000   0.80616873    -3.287846   -1.8212566  0.047208538    -3.287846    1.4665893   362020 
 5361000   0.80554093   -3.2865076   -1.8210077  0.046717848   -3.2865076    1.4654998   362007 
 5362000   0.80618922   -3.2881863   -1.8212842  0.046054416   -3.2881863    1.4669021   361952 
 5363000    0.8054401   -3.2872601   -1.8218344   0.04688425   -3.2872601    1.4654257   361980 
 5364000   0.80390819   -3.2841599   -1.8214325  0.045529325   -3.2841599    1.4627274   361958 
 5365000   0.80569089   -3.2857164   -1.8196481  0.044426573   -3.2857164    1.4660683   361934 
 5366000   0.80635729   -3.2876353   -1.8202652  0.042279159   -3.2876353    1.4673701   361912 
 5367000   0.80389922   -3.2847149   -1.8216441  0.046261915   -3.2847149    1.4630709   361869 
 5368000   0.80506663   -3.2861931   -1.8209611  0.047319228   -3.2861931     1.465232   361860 
 5369000   0.80554885   -3.2869116   -1.8206278  0.045238361   -3.2869116    1.4662838   361817 
 5370000   0.80503797   -3.2843485    -1.819023  0.049604913   -3.2843485    1.4653256   361824 
 5371000   0.80528036   -3.2848221   -1.8189055  0.047180646   -3.2848221    1.4659167   361787 
 5372000   0.80397872   -3.2847732   -1.8211734  0.043375807   -3.2847732    1.4635998   361774 
 5373000   0.80616177   -3.2867916   -1.8191731  0.049818588   -3.2867916    1.4676185   361763 
 5374000   0.80704963    -3.287905   -1.8186254  0.046703518    -3.287905    1.4692796   361752 
 5375000   0.80737926   -3.2882772   -1.8181131  0.047843945   -3.2882772    1.4701641   361682 
 5376000   0.80513535   -3.2855026   -1.8191406   0.05132717   -3.2855026     1.466362   361612 
 5377000   0.80440138   -3.2846833   -1.8196864  0.042946488   -3.2846833    1.4649969   361619 
 5378000   0.80492597   -3.2849591   -1.8189703   0.04768092   -3.2849591    1.4659888   361610 
 5379000   0.80469076   -3.2861822   -1.8205853  0.044023855   -3.2861822    1.4655968   361601 
 5380000   0.80403279    -3.284776   -1.8202803  0.039855949    -3.284776    1.4644957   361577 
 5381000   0.80360137   -3.2836965   -1.8199016  0.043621677   -3.2836965    1.4637949   361556 
 5382000    0.8037232   -3.2842208   -1.8200218  0.045895187   -3.2842208    1.4641991   361511 
 5383000   0.80490874   -3.2846065   -1.8183572  0.044913267   -3.2846065    1.4662493   361538 
 5384000   0.80576996   -3.2861778   -1.8183962  0.049106719   -3.2861778    1.4677816   361547 
 5385000   0.80584451    -3.285188   -1.8171894  0.046243164    -3.285188    1.4679986   361527 
 5386000   0.80475504   -3.2835522   -1.8174491  0.049495701   -3.2835522    1.4661032   361505 
 5387000   0.80695424   -3.2865844   -1.8163608  0.045486665   -3.2865844    1.4702235   361477 
 5388000   0.80803985    -3.287703   -1.8153509  0.046212308    -3.287703    1.4723522   361440 
 5389000   0.80789572   -3.2861102   -1.8139922  0.044280499   -3.2861102     1.472118   361433 
 5390000   0.80552837   -3.2832573   -1.8152174  0.049244397   -3.2832573    1.4680399   361375 
 5391000   0.80580145   -3.2838084   -1.8153114  0.048007746   -3.2838084     1.468497   361385 
 5392000    0.8055799   -3.2858141   -1.8177534  0.051639261   -3.2858141    1.4680607   361393 
 5393000    0.8033197   -3.2845978   -1.8205547    0.0489612   -3.2845978    1.4640431   361368 
 5394000   0.80313465   -3.2850629   -1.8214138  0.041945679   -3.2850629    1.4636491   361382 
 5395000   0.80378837   -3.2833728   -1.8184431  0.042924299   -3.2833728    1.4649297   361360 
 5396000   0.80466238    -3.284663   -1.8179009  0.046832914    -3.284663     1.466762   361301 
 5397000   0.80569324   -3.2865507   -1.8176698  0.042903273   -3.2865507     1.468881   361242 
 5398000   0.80510287   -3.2877361   -1.8197892  0.043581761   -3.2877361    1.4679469   361207 
 5399000   0.80357372   -3.2853784   -1.8202318  0.047477945   -3.2853784    1.4651466   361210 
 5400000   0.80494736   -3.2877687     -1.81989  0.046758869   -3.2877687    1.4678787   361154 
 5401000   0.80346757   -3.2856755   -1.8203695  0.049785595   -3.2856755     1.465306   361123 
 5402000    0.8033547   -3.2846814   -1.8194636    0.0465422   -3.2846814    1.4652178   361094 
 5403000   0.80266343   -3.2832262   -1.8192367  0.049261726   -3.2832262    1.4639895   361086 
 5404000   0.80433948   -3.2870448    -1.819848   0.04470885   -3.2870448    1.4671968   361049 
 5405000   0.80442927     -3.28511    -1.817851  0.047069194     -3.28511     1.467259   361074 
 5406000   0.80231248   -3.2833938   -1.8198052  0.049058435   -3.2833938    1.4635885   361027 
 5407000   0.80410821   -3.2857668    -1.818679  0.046466457   -3.2857668    1.4670878   360972 
 5408000   0.80393685   -3.2856106   -1.8187989  0.045515021   -3.2856106    1.4668117   360963 
 5409000   0.80322841   -3.2842575    -1.818653  0.050653835   -3.2842575    1.4656044   360942 
 5410000     0.803415   -3.2836383   -1.8175837  0.047504625   -3.2836383    1.4660546   360915 
 5411000   0.80258627    -3.282121   -1.8174569    0.0448424    -3.282121    1.4646641   360885 
 5412000   0.80309878   -3.2837211   -1.8180242  0.050151279   -3.2837211    1.4656968   360861 
 5413000   0.80191242   -3.2844741   -1.8207315  0.044914175   -3.2844741    1.4637426   360809 
 5414000   0.80124215   -3.2825296   -1.8200267  0.052455008   -3.2825296    1.4625029   360813 
 5415000   0.80194945   -3.2828738    -1.818946  0.043398357   -3.2828738    1.4639279   360780 
 5416000   0.80221925   -3.2835096   -1.8190284  0.044341348   -3.2835096    1.4644812   360765 
 5417000   0.80173169    -3.282083   -1.8185933  0.042637263    -3.282083    1.4634898   360790 
 5418000   0.80302327   -3.2829895   -1.8170445  0.048214128   -3.2829895    1.4659449   360766 
 5419000   0.80312057   -3.2828064   -1.8167285  0.049948236   -3.2828064    1.4660779   360777 
 5420000   0.80438103   -3.2852765   -1.8167512   0.04670238   -3.2852765    1.4685253   360741 
 5421000   0.80352353   -3.2838552   -1.8167327  0.046378508   -3.2838552    1.4671225   360701 
 5422000   0.80333491   -3.2829829   -1.8160136  0.049616742   -3.2829829    1.4669693   360654 
 5423000   0.80368617   -3.2838845   -1.8162656  0.048487168   -3.2838845    1.4676188   360652 
 5424000   0.80409601   -3.2840933   -1.8156324  0.042533137   -3.2840933    1.4684609   360629 
 5425000    0.8019212   -3.2818388    -1.817309  0.047774899   -3.2818388    1.4645298   360619 
 5426000   0.80257122   -3.2840041   -1.8182383  0.047328962   -3.2840041    1.4657657   360607 
 5427000   0.80170642   -3.2833587   -1.8189978  0.045566528   -3.2833587    1.4643609   360564 
 5428000   0.80226375   -3.2846005   -1.8192175  0.049809777   -3.2846005     1.465383   360563 
 5429000   0.80157012   -3.2827249   -1.8185358  0.040762844   -3.2827249    1.4641891   360545 
 5430000   0.80074344   -3.2807958   -1.8181735  0.045627922   -3.2807958    1.4626223   360559 
 5431000   0.80176925   -3.2816139   -1.8169229   0.04628018   -3.2816139     1.464691   360511 
 5432000   0.80152878   -3.2806135   -1.8164837  0.043679503   -3.2806135    1.4641299   360541 
 5433000   0.80161689    -3.280966   -1.8165208  0.048843278    -3.280966    1.4644451   360503 
 5434000   0.80127318   -3.2817666   -1.8177951  0.042751193   -3.2817666    1.4639716   360465 
 5435000   0.80109555   -3.2785683   -1.8148766   0.05139455   -3.2785683    1.4636917   360454 
 5436000   0.80213717    -3.281127   -1.8156095  0.043781982    -3.281127    1.4655176   360473 
 5437000   0.80201645   -3.2826831   -1.8172315  0.048048265   -3.2826831    1.4654515   360435 
 5438000   0.80012181   -3.2780075   -1.8159002  0.048298646   -3.2780075    1.4621072   360406 
 5439000   0.80263557   -3.2825927   -1.8158715  0.046675988   -3.2825927    1.4667211   360401 
 5440000   0.80178483    -3.281492   -1.8163255   0.04447959    -3.281492    1.4651665   360401 
 5441000   0.80145317   -3.2800823   -1.8157087  0.043758595   -3.2800823    1.4643735   360447 
 5442000   0.80121086   -3.2812061   -1.8172022   0.04265136   -3.2812061    1.4640039   360429 
 5443000   0.80177698   -3.2801045   -1.8151231  0.047879855   -3.2801045    1.4649814   360443 
 5444000   0.80031147   -3.2776199    -1.815231  0.049041982   -3.2776199    1.4623889   360422 
 5445000   0.80086037   -3.2793926   -1.8158505   0.04542147   -3.2793926    1.4635421   360385 
 5446000   0.80251458   -3.2823925   -1.8158558  0.046119475   -3.2823925    1.4665367   360392 
 5447000   0.80121368   -3.2812093   -1.8169809  0.049807954   -3.2812093    1.4642284   360375 
 5448000   0.80213577   -3.2827352   -1.8168867  0.049157798   -3.2827352    1.4658485   360391 
 5449000   0.80200724   -3.2833693   -1.8175889  0.046354272   -3.2833693    1.4657803   360350 
 5450000    0.8027905    -3.286552    -1.819222  0.045978237    -3.286552      1.46733   360321 
 5451000   0.80092649   -3.2827358   -1.8187316  0.047091052   -3.2827358    1.4640042   360301 
 5452000   0.80241209   -3.2851739   -1.8182873  0.045371234   -3.2851739    1.4668866   360260 
 5453000   0.80059473   -3.2836368   -1.8199383  0.047567302   -3.2836368    1.4636984   360227 
 5454000   0.80139395   -3.2858722   -1.8206761  0.043788807   -3.2858722    1.4651962   360218 
 5455000   0.80243153   -3.2873242     -1.82017  0.044158045   -3.2873242    1.4671543   360203 
 5456000   0.80164701   -3.2866921    -1.820956  0.048544744   -3.2866921    1.4657362   360199 
 5457000    0.8014223   -3.2856264   -1.8201953  0.051210438   -3.2856264    1.4654311   360173 
 5458000   0.80151961   -3.2852403   -1.8195133  0.042426958   -3.2852403     1.465727   360144 
 5459000   0.80214828   -3.2858002    -1.818785  0.051443087   -3.2858002    1.4670152   360110 
 5460000   0.80212228   -3.2855716   -1.8185225  0.050609273   -3.2855716    1.4670491   360090 
 5461000   0.80410832    -3.287099   -1.8164379  0.047685263    -3.287099    1.4706611   360095 
 5462000   0.80534998   -3.2893805   -1.8164567  0.045901508   -3.2893805    1.4729238   360097 
 5463000   0.80463397   -3.2872681   -1.8156824  0.043930531   -3.2872681    1.4715857   360104 
 5464000   0.80498795   -3.2879564   -1.8155516   0.04862385   -3.2879564    1.4724048   360062 
 5465000   0.80397091   -3.2870002   -1.8161371  0.049362725   -3.2870002    1.4708631   359984 
 5466000   0.80203948   -3.2830987   -1.8155775  0.048397347   -3.2830987    1.4675212   359937 
 5467000   0.80235151   -3.2835962    -1.815243  0.050985433   -3.2835962    1.4683532   359873 
 5468000   0.80136457   -3.2845183   -1.8177226   0.04633505   -3.2845183    1.4667957   359812 
 5469000   0.80074867   -3.2854546   -1.8197129  0.039011793   -3.2854546    1.4657417   359794 
 5470000   0.79972099    -3.282371   -1.8183354  0.048883808    -3.282371    1.4640355   359751 
 5471000   0.79950651   -3.2826998   -1.8190244  0.042376433   -3.2826998    1.4636754   359743 
 5472000   0.80083865    -3.282313   -1.8162559  0.046019885    -3.282313    1.4660572   359757 
 5473000   0.80072113   -3.2825251   -1.8166831   0.04355644   -3.2825251     1.465842   359757 
 5474000   0.80065189   -3.2822192   -1.8164306   0.04784545   -3.2822192    1.4657886   359739 
 5475000   0.80033202   -3.2817354   -1.8164346  0.040419407   -3.2817354    1.4653008   359715 
 5476000   0.79971751    -3.279553   -1.8152023    0.0463806    -3.279553    1.4643507   359672 
 5477000   0.80002467   -3.2802912   -1.8152558   0.04655999   -3.2802912    1.4650354   359642 
 5478000    0.7998567   -3.2806802   -1.8158139  0.047473626   -3.2806802    1.4648663   359608 
 5479000   0.80043516   -3.2817797   -1.8157766  0.045563824   -3.2817797    1.4660031   359589 
 5480000   0.80191839   -3.2827273   -1.8139464  0.049526989   -3.2827273    1.4687809   359574 
 5481000   0.80308943   -3.2849297   -1.8139303  0.044268388   -3.2849297    1.4709994   359556 
 5482000   0.80174036   -3.2836264   -1.8150531  0.047148305   -3.2836264    1.4685733   359545 
 5483000   0.80013417   -3.2795907    -1.813772  0.045000264   -3.2795907    1.4658187   359499 
 5484000   0.80007575   -3.2797318   -1.8140078  0.048009958   -3.2797318    1.4657239   359496 
 5485000   0.79991692   -3.2803607   -1.8146465  0.051413088   -3.2803607    1.4657143   359427 
 5486000   0.79973745   -3.2806226   -1.8151108  0.047562589   -3.2806226    1.4655118   359396 
 5487000   0.79879816   -3.2795399   -1.8157004  0.050058755   -3.2795399    1.4638395   359384 
 5488000   0.80033052   -3.2814064   -1.8147548  0.044577614   -3.2814064    1.4666517   359383 
 5489000   0.79978027   -3.2808393   -1.8151512  0.048782849   -3.2808393    1.4656882   359372 
 5490000   0.80000612   -3.2817951   -1.8156156  0.046738496   -3.2817951    1.4661796   359353 
 5491000   0.80120664   -3.2839384   -1.8153175  0.045587645   -3.2839384    1.4686209   359294 
 5492000   0.80015475   -3.2820917   -1.8153744  0.045220199   -3.2820917    1.4667173   359288 
 5493000   0.79813928   -3.2792282   -1.8162176  0.046442568   -3.2792282    1.4630106   359291 
 5494000   0.79857888   -3.2798921   -1.8159412  0.043145252   -3.2798921    1.4639509   359258 
 5495000   0.79980607   -3.2819437   -1.8157554  0.047492703   -3.2819437    1.4661883   359261 
 5496000   0.80032741   -3.2824889    -1.815255  0.042940202   -3.2824889    1.4672339   359239 
 5497000   0.79921116   -3.2802774   -1.8148574  0.047695197   -3.2802774      1.46542   359182 
 5498000   0.79946963   -3.2841438   -1.8180539  0.047797693   -3.2841438    1.4660898   359134 
 5499000   0.79969275   -3.2811547   -1.8146067  0.046872528   -3.2811547     1.466548   359122 
 5500000   0.79907489   -3.2791928   -1.8138187  0.045374984   -3.2791928    1.4653741   359132 
 5501000   0.79962302   -3.2809816    -1.814733  0.051354016   -3.2809816    1.4662486   359164 
 5502000   0.80135641   -3.2813146   -1.8119488  0.048466003   -3.2813146    1.4693657   359179 
 5503000   0.80013379   -3.2809273   -1.8137421  0.045545881   -3.2809273    1.4671852   359164 
 5504000   0.80015147   -3.2816773   -1.8143453  0.045435015   -3.2816773     1.467332   359136 
 5505000    0.7971429   -3.2761374   -1.8143306  0.048616805   -3.2761374    1.4618067   359138 
 5506000   0.79929149   -3.2796445   -1.8139548  0.042779187   -3.2796445    1.4656897   359152 
 5507000   0.79963922   -3.2792321   -1.8127659  0.050677907   -3.2792321    1.4664662   359118 
 5508000   0.79901089   -3.2774217    -1.812116  0.045978876   -3.2774217    1.4653057   359120 
 5509000   0.79870378   -3.2775855   -1.8128308  0.048607408   -3.2775855    1.4647547   359117 
 5510000    0.8007414   -3.2817333    -1.813025  0.046831941   -3.2817333    1.4687083   359064 
 5511000   0.80027999   -3.2810824   -1.8130978  0.046149698   -3.2810824    1.4679846   359034 
 5512000   0.80039006   -3.2794276   -1.8111961  0.052135335   -3.2794276    1.4682315   359023 
 5513000    0.7989156   -3.2785083   -1.8130387  0.050099072   -3.2785083    1.4654697   359037 
 5514000   0.79984596   -3.2820383   -1.8147763  0.040068439   -3.2820383    1.4672621   359016 
 5515000   0.79819195   -3.2811268   -1.8167153  0.038894704   -3.2811268    1.4644114   358971 
 5516000   0.79782783   -3.2806739   -1.8167919  0.051375881   -3.2806739    1.4638821   358937 
 5517000   0.79796239   -3.2810492   -1.8169162  0.046606421   -3.2810492     1.464133   358936 
 5518000   0.79868342   -3.2824221    -1.816913  0.046495213   -3.2824221    1.4655091   358923 
 5519000   0.79866757   -3.2810159   -1.8154053  0.043505485   -3.2810159    1.4656106   358891 
 5520000   0.79822996   -3.2826256   -1.8177119  0.046893497   -3.2826256    1.4649137   358865 
 5521000   0.79952286   -3.2837146   -1.8161501   0.04750348   -3.2837146    1.4675646   358797 
 5522000    0.7980294   -3.2805247   -1.8155626  0.049348858   -3.2805247    1.4649621   358763 
 5523000    0.7986924   -3.2820539   -1.8158012  0.048226045   -3.2820539    1.4662527   358745 
 5524000   0.80015701   -3.2845484   -1.8154963  0.051916933   -3.2845484     1.469052   358718 
 5525000   0.80044513    -3.283832   -1.8140708  0.052168209    -3.283832    1.4697613   358674 
 5526000   0.79915206   -3.2797178    -1.812384  0.046728915   -3.2797178    1.4673338   358687 
 5527000   0.79863279   -3.2802299   -1.8136411  0.047541167   -3.2802299    1.4665889   358636 
 5528000   0.79891088   -3.2807448   -1.8135634  0.047855162   -3.2807448    1.4671814   358616 
 5529000   0.79866947   -3.2802022   -1.8134273  0.044866843   -3.2802022    1.4667748   358607 
 5530000   0.79965578    -3.279826    -1.811076  0.046746899    -3.279826    1.4687501   358567 
 5531000   0.79778565   -3.2781326   -1.8124291  0.051954671   -3.2781326    1.4657035   358472 
 5532000    0.7978191   -3.2795999   -1.8137082  0.051588944   -3.2795999    1.4658917   358441 
 5533000   0.79892989    -3.279345   -1.8114533  0.044605294    -3.279345    1.4678917   358451 
 5534000   0.79710661   -3.2756403   -1.8110373  0.047903555   -3.2756403     1.464603   358436 
 5535000   0.79631281    -3.274544   -1.8112771  0.038830768    -3.274544    1.4632669   358406 
 5536000   0.79707052   -3.2746599   -1.8099761  0.039906141   -3.2746599    1.4646838   358400 
 5537000   0.79545682   -3.2726964     -1.81088  0.042334013   -3.2726964    1.4618164   358376 
 5538000   0.79664981   -3.2746876   -1.8104337  0.039890451   -3.2746876    1.4642539   358316 
 5539000   0.79567882   -3.2725754   -1.8101592   0.04584392   -3.2725754    1.4624162   358329 
 5540000   0.79676051    -3.272923   -1.8086086  0.041387555    -3.272923    1.4643143   358351 
 5541000   0.79786141   -3.2736258   -1.8070958  0.046312185   -3.2736258      1.46653   358304 
 5542000    0.7976464   -3.2742663   -1.8079433  0.047569263   -3.2742663     1.466323   358258 
 5543000   0.79679989   -3.2743159   -1.8093978  0.047391067   -3.2743159    1.4649181   358221 
 5544000   0.79815169   -3.2738367   -1.8064496  0.043674054   -3.2738367     1.467387   358225 
 5545000   0.79806312   -3.2733648   -1.8059727  0.046187339   -3.2733648    1.4673922   358184 
 5546000   0.79910561   -3.2748123   -1.8054951  0.042173406   -3.2748123    1.4693172   358182 
 5547000   0.79787256   -3.2729834   -1.8059211  0.049875394   -3.2729834    1.4670623   358179 
 5548000   0.79758443   -3.2716758   -1.8048649  0.046322899   -3.2716758    1.4668109   358111 
 5549000   0.79730705   -3.2730651   -1.8064284  0.049682936   -3.2730651    1.4666366   358029 
 5550000   0.79840324   -3.2736307   -1.8047602  0.051148515   -3.2736307    1.4688705   357976 
 5551000   0.79755032   -3.2737447   -1.8063245  0.047253204   -3.2737447    1.4674202   357947 
 5552000    0.7981175   -3.2750995   -1.8066522  0.047272397   -3.2750995    1.4684474   357951 
 5553000    0.7970804   -3.2724219    -1.805854  0.053050333   -3.2724219    1.4665679   357944 
 5554000   0.79708779   -3.2731624   -1.8064539  0.047582409   -3.2731624    1.4667085   357913 
 5555000   0.79745781   -3.2746641    -1.807246  0.051818806   -3.2746641    1.4674181   357906 
 5556000   0.79770522   -3.2745623   -1.8066274  0.043913827   -3.2745623    1.4679349   357891 
 5557000   0.79709584   -3.2727836   -1.8057733  0.046990859   -3.2727836    1.4670103   357843 
 5558000   0.79858854   -3.2744605    -1.804666  0.047903034   -3.2744605    1.4697945   357834 
 5559000   0.79647898   -3.2726846   -1.8067768  0.048381576   -3.2726846    1.4659077   357835 
 5560000   0.79611181   -3.2718299   -1.8065161  0.049437689   -3.2718299    1.4653139   357815 
 5561000   0.79684415   -3.2728671   -1.8061725  0.045099475   -3.2728671    1.4666946   357807 
 5562000   0.79666677   -3.2725417   -1.8060752  0.041279559   -3.2725417    1.4664665   357783 
 5563000   0.79579137   -3.2707993   -1.8058132  0.043030218   -3.2707993    1.4649861   357751 
 5564000   0.79465765   -3.2678152   -1.8048957  0.045930525   -3.2678152    1.4629194   357746 
 5565000   0.79623159   -3.2699262    -1.804101  0.045895184   -3.2699262    1.4658252   357744 
 5566000   0.79640372   -3.2720878   -1.8058966  0.045897321   -3.2720878    1.4661912   357732 
 5567000   0.79646731   -3.2725193   -1.8060347  0.046860132   -3.2725193    1.4664846   357689 
 5568000   0.79642226   -3.2699247   -1.8036173  0.045591718   -3.2699247    1.4663074   357712 
 5569000   0.79594345   -3.2674532   -1.8019577  0.047408836   -3.2674532    1.4654954   357695 
 5570000   0.79656957   -3.2681271   -1.8015855  0.046420357   -3.2681271    1.4665417   357721 
 5571000   0.79650905   -3.2703192   -1.8038766  0.044938921   -3.2703192    1.4664426   357718 
 5572000    0.7983287   -3.2714696   -1.8016153  0.045459625   -3.2714696    1.4698543   357703 
 5573000   0.79720528   -3.2694731   -1.8014533  0.045565802   -3.2694731    1.4680199   357646 
 5574000   0.79649089   -3.2695622   -1.8027923  0.044404104   -3.2695622    1.4667699   357630 
 5575000    0.7952678   -3.2679958   -1.8032202  0.046613495   -3.2679958    1.4647756   357567 
 5576000   0.79677545    -3.269356   -1.8017173  0.043664924    -3.269356    1.4676387   357546 
 5577000   0.79608306   -3.2693422   -1.8029584  0.043115468   -3.2693422    1.4663838   357541 
 5578000   0.79594263   -3.2706209   -1.8042619  0.047523657   -3.2706209    1.4663589   357484 
 5579000   0.79592546   -3.2703385   -1.8039169  0.047695675   -3.2703385    1.4664217   357461 
 5580000   0.79640013   -3.2707879   -1.8033932  0.044787401   -3.2707879    1.4673947   357437 
 5581000   0.79607253     -3.27243   -1.8054788   0.04818434     -3.27243    1.4669512   357398 
 5582000   0.79475043   -3.2715052   -1.8068715  0.044536906   -3.2715052    1.4646337   357369 
 5583000   0.79547155   -3.2720068   -1.8059949  0.048030378   -3.2720068    1.4660119   357357 
 5584000    0.7954542   -3.2722105   -1.8059762  0.047633458   -3.2722105    1.4662343   357295 
 5585000   0.79515992   -3.2716288   -1.8058755  0.043074568   -3.2716288    1.4657534   357280 
 5586000   0.79745345   -3.2745264   -1.8044136  0.042703144   -3.2745264    1.4701128   357248 
 5587000   0.79588337    -3.273067   -1.8058445  0.046257356    -3.273067    1.4672225   357247 
 5588000   0.79576693   -3.2715964   -1.8045024  0.046428898   -3.2715964    1.4670941   357226 
 5589000   0.79463589   -3.2714321   -1.8063699  0.050831597   -3.2714321    1.4650622   357213 
 5590000   0.79502192   -3.2729764   -1.8070261  0.049103859   -3.2729764    1.4659504   357170 
 5591000   0.79495314   -3.2716088   -1.8055924  0.048024831   -3.2716088    1.4660164   357123 
 5592000   0.79393175   -3.2703913   -1.8061355  0.048310365   -3.2703913    1.4642558   357093 
 5593000   0.79546419   -3.2715085   -1.8044674  0.047785191   -3.2715085    1.4670411   357103 
 5594000   0.79451789    -3.270997   -1.8056068  0.046540938    -3.270997    1.4653902   357080 
 5595000   0.79376538   -3.2722887   -1.8082249  0.047512187   -3.2722887    1.4640638   357065 
 5596000   0.79386356   -3.2716119   -1.8072891  0.048419317   -3.2716119    1.4643228   357046 
 5597000   0.79440334   -3.2730612   -1.8077263  0.049800967   -3.2730612    1.4653349   357042 
 5598000   0.79544855    -3.273791   -1.8063884  0.044696053    -3.273791    1.4674026   357008 
 5599000   0.79528052   -3.2744782   -1.8070403  0.043065899   -3.2744782    1.4674379   356924 
 5600000   0.79422672   -3.2729934   -1.8072413  0.047792532   -3.2729934    1.4657521   356861 
 5601000   0.79319144   -3.2722063   -1.8081392  0.045878627   -3.2722063    1.4640672   356806 
 5602000   0.79586176   -3.2752086   -1.8061714  0.047566116   -3.2752086    1.4690372   356796 
 5603000   0.79510889   -3.2737308   -1.8060421  0.046569572   -3.2737308    1.4676887   356786 
 5604000   0.79561676   -3.2745809   -1.8060823  0.042924138   -3.2745809    1.4684985   356817 
 5605000   0.79492759   -3.2737904   -1.8065721  0.045150817   -3.2737904    1.4672183   356819 
 5606000   0.79422966   -3.2740737   -1.8080614  0.046400119   -3.2740737    1.4660123   356799 
 5607000   0.79344138   -3.2726121   -1.8079851  0.048338772   -3.2726121     1.464627   356782 
 5608000   0.79346099   -3.2722952   -1.8074226   0.04797366   -3.2722952    1.4648726   356731 
 5609000    0.7935151   -3.2750121   -1.8099657  0.042915738   -3.2750121    1.4650464   356713 
 5610000   0.79423087   -3.2759407   -1.8093713  0.046360284   -3.2759407    1.4665694   356664 
 5611000   0.79276584   -3.2733129   -1.8095021  0.044692224   -3.2733129    1.4638108   356677 
 5612000   0.79432209   -3.2754594   -1.8089108  0.046932417   -3.2754594    1.4665487   356710 
 5613000   0.79324404   -3.2739336   -1.8092685  0.044051152   -3.2739336    1.4646651   356684 
 5614000   0.79286774   -3.2720696   -1.8080789  0.046339372   -3.2720696    1.4639908   356679 
 5615000   0.79279393   -3.2713972   -1.8074483  0.045413607   -3.2713972    1.4639489   356656 
 5616000   0.79441404   -3.2754929   -1.8082932  0.042727619   -3.2754929    1.4671997   356593 
 5617000   0.79463168   -3.2752038   -1.8076062  0.043164181   -3.2752038    1.4675975   356594 
 5618000   0.79314581   -3.2728357   -1.8078756  0.049373168   -3.2728357    1.4649601   356568 
 5619000   0.79312394   -3.2741855   -1.8091425  0.044094762   -3.2741855     1.465043   356538 
 5620000   0.79425553   -3.2751155   -1.8079575  0.043781442   -3.2751155    1.4671579   356532 
 5621000   0.79302312   -3.2736628   -1.8087526  0.043534464   -3.2736628    1.4649102   356525 
 5622000   0.79390827    -3.273399   -1.8067797  0.047791072    -3.273399    1.4666193   356507 
 5623000   0.79435485   -3.2738188   -1.8063992  0.044881865   -3.2738188    1.4674196   356513 
 5624000   0.79213377   -3.2710429   -1.8077181  0.045169536   -3.2710429    1.4633248   356511 
 5625000   0.79326407   -3.2731181   -1.8076272  0.044249615   -3.2731181    1.4654909   356492 
 5626000   0.79359561     -3.27293   -1.8065839  0.049211265     -3.27293    1.4663461   356433 
 5627000   0.79464749   -3.2753681   -1.8071361  0.044241509   -3.2753681     1.468232   356447 
 5628000   0.79357847   -3.2721449   -1.8058757  0.045266627   -3.2721449    1.4662692   356444 
 5629000   0.79239251   -3.2714327   -1.8072398  0.044969525   -3.2714327    1.4641929   356416 
 5630000   0.79294984   -3.2724407   -1.8071933  0.044020528   -3.2724407    1.4652474   356410 
 5631000   0.79349381   -3.2733351   -1.8069673  0.043498078   -3.2733351    1.4663678   356382 
 5632000    0.7914751   -3.2707733    -1.807939  0.048489591   -3.2707733    1.4628343   356334 
 5633000   0.79309447   -3.2727341   -1.8069068  0.040477587   -3.2727341    1.4658273   356334 
 5634000   0.79269518   -3.2717969   -1.8066089  0.044090374   -3.2717969     1.465188   356310 
 5635000   0.79312221   -3.2714436   -1.8053388  0.045243366   -3.2714436    1.4661048   356279 
 5636000   0.79092131    -3.270004   -1.8078979  0.042568572    -3.270004    1.4621062   356262 
 5637000    0.7920242    -3.271841   -1.8075275  0.043715006    -3.271841    1.4643135   356221 
 5638000   0.79152376   -3.2716195   -1.8082394  0.040942735   -3.2716195    1.4633801   356223 
 5639000   0.79136863   -3.2700576   -1.8067713  0.045316343   -3.2700576    1.4632863   356176 
 5640000   0.79147442     -3.27069   -1.8071259  0.047423709     -3.27069    1.4635641   356156 
 5641000   0.79130942   -3.2712242   -1.8078009  0.047591473   -3.2712242    1.4634234   356116 
 5642000   0.79018619   -3.2685253   -1.8069863  0.045850433   -3.2685253     1.461539   356069 
 5643000   0.79084011   -3.2705652    -1.807829  0.046481381   -3.2705652    1.4627361   356072 
 5644000   0.79341118   -3.2747683   -1.8070912  0.037812175   -3.2747683    1.4676771   356027 
 5645000   0.79184015   -3.2713784   -1.8064511  0.045519224   -3.2713784    1.4649273   355989 
 5646000    0.7922584   -3.2738759   -1.8080555  0.046071744   -3.2738759    1.4658205   355960 
 5647000   0.79323733   -3.2754468   -1.8077409  0.047625563   -3.2754468    1.4677059   355942 
 5648000   0.79237797   -3.2731621   -1.8070009  0.045227762   -3.2731621    1.4661612   355931 
 5649000   0.79196985   -3.2716147   -1.8062334  0.045983988   -3.2716147    1.4653813   355937 
 5650000   0.79286078   -3.2724369   -1.8053659  0.049396929   -3.2724369     1.467071   355927 
 5651000   0.79341897   -3.2739486   -1.8055312  0.048438937   -3.2739486    1.4684174   355851 
 5652000   0.79233627   -3.2741481   -1.8077757  0.046610107   -3.2741481    1.4663724   355861 
 5653000   0.79302368   -3.2770569   -1.8092556  0.049212789   -3.2770569    1.4678013   355823 
 5654000   0.79215312   -3.2756103   -1.8092143  0.045801681   -3.2756103    1.4663961   355773 
 5655000   0.79113998   -3.2730624   -1.8085912   0.04491763   -3.2730624    1.4644712   355785 
 5656000   0.79184843   -3.2733467    -1.807593  0.048154788   -3.2733467    1.4657538   355792 
 5657000   0.79136166   -3.2743437   -1.8094375  0.043709997   -3.2743437    1.4649062   355779 
 5658000   0.79090416   -3.2750179   -1.8109297  0.047137509   -3.2750179    1.4640882   355772 
 5659000   0.79066503   -3.2743781   -1.8105721  0.045946997   -3.2743781     1.463806   355733 
 5660000   0.78954271   -3.2725628   -1.8108881   0.04503447   -3.2725628    1.4616747   355746 
 5661000    0.7900682    -3.273151   -1.8104335  0.042414407    -3.273151    1.4627175   355729 
 5662000   0.79141451   -3.2758835   -1.8104675  0.041314217   -3.2758835     1.465416   355679 
 5663000   0.79157138   -3.2748296   -1.8091397   0.04526526   -3.2748296    1.4656899   355683 
 5664000   0.79143934   -3.2737547   -1.8084452   0.04559291   -3.2737547    1.4653095   355716 
 5665000   0.79111362   -3.2722977   -1.8074101  0.040564526   -3.2722977    1.4648877   355672 
 5666000   0.79124867   -3.2714828   -1.8062298  0.048627968   -3.2714828    1.4652531   355644 
 5667000   0.79215174   -3.2740285   -1.8071237  0.046249489   -3.2740285    1.4669048   355649 
 5668000   0.79156619   -3.2747757   -1.8087615  0.046721712   -3.2747757    1.4660142   355602 
 5669000   0.79080112    -3.273296    -1.808604  0.051049828    -3.273296     1.464692   355579 
 5670000   0.79086053   -3.2714701   -1.8064909  0.044926656   -3.2714701    1.4649792   355536 
 5671000   0.79078662    -3.271007   -1.8059628  0.051629857    -3.271007    1.4650442   355487 
 5672000   0.79040341   -3.2704657   -1.8062262  0.044864907   -3.2704657    1.4642395   355510 
 5673000   0.79071095   -3.2716774   -1.8066581  0.046155571   -3.2716774    1.4650194   355459 
 5674000    0.7901026   -3.2735185   -1.8095851  0.041653419   -3.2735185    1.4639334   355449 
 5675000   0.79061572   -3.2725818   -1.8076853  0.042170018   -3.2725818    1.4648965   355446 
 5676000   0.79106973   -3.2734486   -1.8076737  0.046941635   -3.2734486    1.4657748   355437 
 5677000   0.78905392   -3.2688195   -1.8066769  0.048174049   -3.2688195    1.4621426   355412 
 5678000   0.79154426   -3.2723565   -1.8056653  0.044658198   -3.2723565    1.4666912   355428 
 5679000   0.78979042   -3.2726679   -1.8090041  0.042896814   -3.2726679    1.4636638   355374 
 5680000   0.78930739   -3.2711124   -1.8082861  0.045743627   -3.2711124    1.4628263   355360 
 5681000   0.79016469   -3.2725441   -1.8080754  0.044509177   -3.2725441    1.4644687   355347 
 5682000   0.79042203    -3.272348   -1.8072292   0.04568297    -3.272348    1.4651188   355305 
 5683000   0.79080055   -3.2734767   -1.8076274  0.045727993   -3.2734767    1.4658493   355298 
 5684000   0.79057534   -3.2734976   -1.8078347  0.047842416   -3.2734976    1.4656629   355242 
 5685000   0.79090431   -3.2734035    -1.806978  0.044702375   -3.2734035    1.4664255   355205 
 5686000   0.79101271   -3.2724455   -1.8058479  0.048233337   -3.2724455    1.4665976   355212 
 5687000   0.79046856   -3.2715929   -1.8058433  0.049619933   -3.2715929    1.4657496   355173 
 5688000    0.7912556   -3.2727219   -1.8054137  0.044209541   -3.2727219    1.4673082   355149 
 5689000   0.79133803   -3.2728266    -1.805378  0.049734098   -3.2728266    1.4674486   355152 
 5690000   0.79097456   -3.2707871   -1.8040332  0.044086417   -3.2707871    1.4667539   355157 
 5691000   0.79086264   -3.2719494   -1.8051882  0.043582139   -3.2719494    1.4667612   355105 
 5692000   0.79049963   -3.2724847    -1.806211   0.04674779   -3.2724847    1.4662737   355060 
 5693000    0.7913489   -3.2723476   -1.8044862  0.048333567   -3.2723476    1.4678614   355057 
 5694000    0.7905403   -3.2711135   -1.8046198  0.051935986   -3.2711135    1.4664937   355025 
 5695000   0.78930767   -3.2693267   -1.8050948  0.045718639   -3.2693267    1.4642319   355019 
 5696000    0.7922558   -3.2736475   -1.8039549  0.046071112   -3.2736475    1.4696926   355021 
 5697000   0.79079911   -3.2705681    -1.803367  0.043675839   -3.2705681    1.4672011   354970 
 5698000   0.79046081   -3.2692357   -1.8025052  0.049021546   -3.2692357    1.4667305   354932 
 5699000   0.78969581   -3.2695437    -1.804179  0.045588831   -3.2695437    1.4653647   354919 
 5700000   0.78909425   -3.2686685   -1.8042757  0.044243922   -3.2686685    1.4643928   354884 
 5701000   0.78932929   -3.2681315   -1.8032488  0.046303214   -3.2681315    1.4648827   354871 
 5702000   0.78888886   -3.2685129   -1.8042165  0.045568444   -3.2685129    1.4642964   354815 
 5703000    0.7897548   -3.2698399   -1.8038081  0.047563053   -3.2698399    1.4660318   354784 
 5704000   0.79076279   -3.2690425   -1.8010444   0.04745495   -3.2690425    1.4679981   354761 
 5705000   0.79195571   -3.2708007   -1.8006254  0.046937905   -3.2708007    1.4701754   354770 
 5706000   0.79114214   -3.2687057   -1.7999123  0.051050992   -3.2687057    1.4687934   354739 
 5707000    0.7906212    -3.267834   -1.7999912  0.048515231    -3.267834    1.4678428   354735 
 5708000   0.79064771   -3.2670443   -1.7992185   0.04856153   -3.2670443    1.4678258   354751 
 5709000   0.79155705   -3.2697469   -1.8001873  0.042475982   -3.2697469    1.4695596   354740 
 5710000   0.78867864   -3.2653397   -1.8010167  0.047170984   -3.2653397     1.464323   354714 
 5711000   0.78922797   -3.2663561   -1.8010462  0.047809701   -3.2663561    1.4653099   354722 
 5712000   0.78946894   -3.2656674   -1.7996953  0.043751195   -3.2656674    1.4659722   354670 
 5713000    0.7904911   -3.2665944   -1.7987077  0.046952489   -3.2665944    1.4678868   354666 
 5714000   0.78985501   -3.2653236   -1.7986883  0.045622837   -3.2653236    1.4666353   354683 
 5715000     0.790248   -3.2654228   -1.7979006  0.044789026   -3.2654228    1.4675223   354645 
 5716000   0.79068699   -3.2666684    -1.798513  0.045113506   -3.2666684    1.4681553   354689 
 5717000   0.79064367   -3.2660806   -1.7979974  0.044488403   -3.2660806    1.4680832   354687 
 5718000   0.78989641   -3.2648406   -1.7980498  0.046656019   -3.2648406    1.4667908   354664 
 5719000   0.79054591   -3.2654595   -1.7973798  0.045368475   -3.2654595    1.4680796   354644 
 5720000   0.78854277   -3.2625654   -1.7978918  0.044226503   -3.2625654    1.4646736   354568 
 5721000   0.78881472   -3.2619713   -1.7965818  0.047157463   -3.2619713    1.4653895   354517 
 5722000   0.78860545   -3.2649063   -1.8000048  0.048688987   -3.2649063    1.4649016   354541 
 5723000    0.7902307   -3.2654224   -1.7975183  0.044528507   -3.2654224     1.467904   354545 
 5724000   0.78931873   -3.2643055   -1.7980748  0.043313799   -3.2643055    1.4662307   354540 
 5725000   0.79003617   -3.2657231   -1.7980852  0.045007223   -3.2657231    1.4676379   354522 
 5726000   0.78934179   -3.2652452   -1.7984711  0.052426078   -3.2652452    1.4667741   354419 
 5727000      0.79053   -3.2664269   -1.7973743  0.048123542   -3.2664269    1.4690525   354402 
 5728000   0.78838122   -3.2645252    -1.799441  0.047074912   -3.2645252    1.4650842   354396 
 5729000   0.78866016   -3.2650295   -1.7993484   0.04822967   -3.2650295    1.4656812   354377 
 5730000   0.79042136   -3.2681006   -1.7988602    0.0472225   -3.2681006    1.4692403   354308 
 5731000   0.79012509   -3.2700921   -1.8012615  0.042026835   -3.2700921    1.4688306   354274 
 5732000   0.79018301   -3.2698886   -1.8008467  0.047627229   -3.2698886    1.4690419   354249 
 5733000   0.79040812   -3.2695932   -1.8002697   0.05065371   -3.2695932    1.4693235   354282 
 5734000   0.79009063   -3.2685218   -1.7999087  0.049917327   -3.2685218    1.4686131   354311 
 5735000   0.79105901   -3.2687855   -1.7984387  0.048358056   -3.2687855    1.4703467   354327 
 5736000   0.78922259    -3.266746   -1.7996967  0.044305853    -3.266746    1.4670493   354299 
 5737000   0.79043314   -3.2701378   -1.8007138  0.044429794   -3.2701378     1.469424   354269 
 5738000   0.78872768   -3.2687234   -1.8023044  0.043694464   -3.2687234    1.4664191   354229 
 5739000   0.78812604   -3.2694446   -1.8039455  0.046107867   -3.2694446    1.4654991   354181 
 5740000   0.78865623   -3.2706974   -1.8041835  0.045585023   -3.2706974    1.4665139   354174 
 5741000   0.78916305   -3.2705588   -1.8027792  0.048048578   -3.2705588    1.4677796   354096 
 5742000   0.78910897    -3.267607   -1.7998989  0.054554589    -3.267607    1.4677081   354089 
 5743000   0.79002304    -3.269039   -1.7994981  0.047763327    -3.269039     1.469541   354057 
 5744000    0.7882214   -3.2656225   -1.7993168  0.052276768   -3.2656225    1.4663057   354029 
 5745000   0.78847404   -3.2678172    -1.800851   0.04361763   -3.2678172    1.4669663   353983 
 5746000    0.7888615   -3.2666963   -1.7990755  0.044067778   -3.2666963    1.4676208   353999 
 5747000   0.78698928   -3.2630122   -1.7988663  0.045923645   -3.2630122    1.4641459   353997 
 5748000    0.7871868   -3.2646901   -1.8001022  0.042541995   -3.2646901    1.4645879   353979 
 5749000   0.78852141   -3.2647708   -1.7977288  0.042621785   -3.2647708     1.467042   353986 
 5750000    0.7868263   -3.2636049   -1.7998779  0.047291662   -3.2636049     1.463727   354025 
 5751000   0.78688977   -3.2644631   -1.8005354  0.043919606   -3.2644631    1.4639277   354005 
 5752000   0.78578352   -3.2632603   -1.8012874  0.040640186   -3.2632603    1.4619729   353980 
 5753000   0.78472344   -3.2620098   -1.8018236  0.042891105   -3.2620098    1.4601862   353935 
 5754000   0.78482614    -3.263219    -1.802755  0.040935902    -3.263219     1.460464   353914 
 5755000   0.78576544   -3.2630064   -1.8008482  0.037706298   -3.2630064    1.4621582   353927 
 5756000   0.78556196   -3.2631173   -1.8011519  0.042178689   -3.2631173    1.4619654   353882 
 5757000   0.78724919   -3.2661418   -1.8008625   0.04757354   -3.2661418    1.4652793   353840 
 5758000     0.787721   -3.2679284   -1.8015845  0.046209846   -3.2679284     1.466344   353795 
 5759000   0.78568493   -3.2641717   -1.8013698  0.047894653   -3.2641717    1.4628019   353735 
 5760000   0.78792255   -3.2681661   -1.8011608  0.045317399   -3.2681661    1.4670053   353726 
 5761000   0.78820415   -3.2677371   -1.8000581   0.04832955   -3.2677371     1.467679   353690 
 5762000    0.7886589   -3.2687173   -1.8001334  0.042584314   -3.2687173    1.4685839   353676 
 5763000   0.78919429   -3.2694842   -1.7998785  0.045299452   -3.2694842    1.4696058   353670 
 5764000   0.78836677   -3.2693347   -1.8012658  0.052093664   -3.2693347    1.4680689   353669 
 5765000   0.78871365    -3.271252    -1.802508  0.047617777    -3.271252     1.468744   353662 
 5766000   0.78830147    -3.269731   -1.8018169   0.04553885    -3.269731    1.4679141   353677 
 5767000   0.78839769   -3.2693849   -1.8012294  0.052448355   -3.2693849    1.4681556   353662 
 5768000   0.78903178   -3.2731201    -1.803684  0.041416762   -3.2731201    1.4694361   353638 
 5769000   0.78759301   -3.2711162   -1.8040567  0.044114919   -3.2711162    1.4670595   353565 
 5770000   0.78697411   -3.2699179   -1.8040195  0.045818626   -3.2699179    1.4658983   353567 
 5771000   0.78827513   -3.2712589   -1.8029413  0.047254588   -3.2712589    1.4683176   353568 
 5772000    0.7873467   -3.2693357   -1.8026894  0.047736824   -3.2693357    1.4666463   353554 
 5773000   0.78727023   -3.2714721   -1.8047484  0.044708785   -3.2714721    1.4667237   353501 
 5774000    0.7860538   -3.2691726   -1.8045038  0.047193486   -3.2691726    1.4646688   353450 
 5775000    0.7891285   -3.2746773   -1.8041546  0.045812663   -3.2746773    1.4705227   353420 
 5776000   0.78666457   -3.2692167    -1.803302  0.051302252   -3.2692167    1.4659146   353424 
 5777000    0.7871938   -3.2712856   -1.8043391   0.04362169   -3.2712856    1.4669465   353413 
 5778000   0.78521434   -3.2678267   -1.8045069  0.051207327   -3.2678267    1.4633199   353398 
 5779000   0.78689385   -3.2699037   -1.8034083  0.044798014   -3.2699037    1.4664954   353387 
 5780000   0.78612549   -3.2688196    -1.803669  0.046610225   -3.2688196    1.4651506   353366 
 5781000    0.7858312   -3.2676115   -1.8029555  0.048230114   -3.2676115    1.4646559   353353 
 5782000   0.78548925   -3.2680388   -1.8037757  0.046506727   -3.2680388    1.4642631   353294 
 5783000   0.78493061   -3.2666832   -1.8034036  0.048480469   -3.2666832    1.4632797   353280 
 5784000   0.78555618   -3.2669328   -1.8025366  0.047458806   -3.2669328    1.4643961   353292 
 5785000   0.78599697   -3.2673577   -1.8017416   0.04326289   -3.2673577    1.4656161   353196 
 5786000   0.78451928    -3.264656   -1.8017083  0.047636693    -3.264656    1.4629477   353175 
 5787000   0.78574736   -3.2661271   -1.8008147  0.043652117   -3.2661271    1.4653125   353157 
 5788000   0.78497828   -3.2652829   -1.8013342  0.049141313   -3.2652829    1.4639487   353140 
 5789000   0.78474929   -3.2653026   -1.8016193  0.050003066   -3.2653026    1.4636833   353101 
 5790000   0.78458512   -3.2651943   -1.8016887  0.043512604   -3.2651943    1.4635056   353070 
 5791000    0.7865821    -3.266228   -1.7990099  0.049252376    -3.266228    1.4672181   353073 
 5792000   0.78643941   -3.2668669   -1.7998776  0.044842263   -3.2668669    1.4669894   353064 
 5793000   0.78598212    -3.266125   -1.8000219  0.043936154    -3.266125    1.4661031   353072 
 5794000   0.78613911   -3.2653508   -1.7987804  0.042535065   -3.2653508    1.4665704   353030 
 5795000   0.78613971   -3.2652933   -1.7987052  0.041223879   -3.2652933    1.4665882   353026 
 5796000   0.78488325    -3.265135      -1.8007  0.045036555    -3.265135     1.464435   352980 
 5797000   0.78567275   -3.2666575   -1.8005958  0.051644417   -3.2666575    1.4660617   352943 
 5798000   0.78562083   -3.2658088   -1.7996155  0.048545792   -3.2658088    1.4661933   352888 
 5799000   0.78420453   -3.2654662   -1.8019493  0.047252131   -3.2654662    1.4635169   352896 
 5800000   0.78476181    -3.266417   -1.8019347  0.049331299    -3.266417    1.4644822   352914 
 5801000   0.78410809   -3.2651713   -1.8016146  0.046655294   -3.2651713    1.4635567   352843 
 5802000   0.78417708   -3.2658398   -1.8019012  0.049329433   -3.2658398    1.4639386   352782 
 5803000   0.78236721   -3.2637168   -1.8031528  0.046923045   -3.2637168     1.460564   352781 
 5804000   0.78477461   -3.2685611   -1.8032661  0.044508343   -3.2685611     1.465295   352724 
 5805000   0.78321445   -3.2656594   -1.8032899   0.04384553   -3.2656594    1.4623695   352727 
 5806000   0.78383293   -3.2682708    -1.804705  0.042251335   -3.2682708    1.4635658   352717 
 5807000   0.78361076   -3.2676915   -1.8043622  0.047428243   -3.2676915    1.4633293   352674 
 5808000   0.78390229   -3.2678536   -1.8038553  0.047323762   -3.2678536    1.4639983   352644 
 5809000   0.78406718   -3.2683041   -1.8038733  0.046267602   -3.2683041    1.4644308   352614 
 5810000   0.78500575   -3.2680382   -1.8018045  0.047038624   -3.2680382    1.4662337   352602 
 5811000   0.78446352   -3.2670972   -1.8016726  0.045896446   -3.2670972    1.4654246   352553 
 5812000   0.78385089    -3.267608   -1.8030994  0.048668631    -3.267608    1.4645086   352498 
 5813000     0.784864   -3.2691732   -1.8026594   0.05013308   -3.2691732    1.4665138   352471 
 5814000   0.78424867   -3.2701309    -1.804534  0.046334588   -3.2701309    1.4655969   352415 
 5815000   0.78407443   -3.2697788   -1.8043827  0.045171369   -3.2697788     1.465396   352385 
 5816000   0.78568808   -3.2727038   -1.8040044  0.047161588   -3.2727038    1.4686994   352316 
 5817000   0.78476474   -3.2713877   -1.8044517  0.042338846   -3.2713877     1.466936   352325 
 5818000   0.78346059   -3.2685233   -1.8039795  0.048133129   -3.2685233    1.4645439   352314 
 5819000    0.7828493    -3.269331   -1.8057803  0.047155133    -3.269331    1.4635507   352278 
 5820000   0.78265329    -3.268497   -1.8053002  0.042703599    -3.268497    1.4631967   352275 
 5821000   0.78209704   -3.2678124   -1.8055601  0.045868108   -3.2678124    1.4622523   352252 
 5822000   0.78258024    -3.267512   -1.8044394  0.043321881    -3.267512    1.4630726   352272 
 5823000   0.78186545    -3.266484   -1.8046108  0.047706547    -3.266484    1.4618732   352239 
 5824000   0.78286248   -3.2681359   -1.8041865  0.044753407   -3.2681359    1.4639494   352188 
 5825000   0.78324171   -3.2672679   -1.8026801  0.046257057   -3.2672679    1.4645878   352205 
 5826000   0.78366433   -3.2675265   -1.8020485  0.046774493   -3.2675265     1.465478   352181 
 5827000   0.78524554   -3.2693459   -1.8007693   0.04723751   -3.2693459    1.4685766   352147 
 5828000   0.78396484   -3.2675846   -1.8013282  0.046334003   -3.2675846    1.4662564   352129 
 5829000   0.78332211   -3.2664944   -1.8012611   0.04861339   -3.2664944    1.4652332   352086 
 5830000   0.78430136   -3.2679802   -1.8009403  0.046912194   -3.2679802      1.46704   352092 
 5831000   0.78425373    -3.267189   -1.8002757  0.047851766    -3.267189    1.4669134   352101 
 5832000   0.78389668   -3.2655604   -1.7992191  0.050481172   -3.2655604    1.4663413   352078 
 5833000   0.78472372   -3.2663467   -1.7983791  0.042305953   -3.2663467    1.4679676   352059 
 5834000   0.78380081    -3.264374    -1.798008  0.047381187    -3.264374     1.466366   352029 
 5835000   0.78282736   -3.2613059    -1.796786  0.047614072   -3.2613059    1.4645199   352035 
 5836000   0.78389464    -3.264417   -1.7977505  0.047718427    -3.264417    1.4666666   351999 
 5837000   0.78260994   -3.2611261   -1.7965969  0.044889791   -3.2611261    1.4645292   351935 
 5838000   0.78345918   -3.2630534   -1.7967266  0.045570989   -3.2630534    1.4663267   351885 
 5839000   0.78253213   -3.2616902   -1.7967988  0.044698766   -3.2616902    1.4648914   351813 
 5840000   0.78358026   -3.2632515   -1.7964147  0.046345764   -3.2632515    1.4668368   351817 
 5841000    0.7841727   -3.2622441   -1.7942107  0.049722013   -3.2622441    1.4680335   351796 
 5842000   0.78265149   -3.2597878   -1.7944522  0.046946465   -3.2597878    1.4653356   351760 
 5843000   0.78170323   -3.2572261   -1.7936243  0.046261613   -3.2572261    1.4636018   351750 
 5844000   0.78048945   -3.2570746   -1.7955958  0.046675598   -3.2570746    1.4614788   351714 
 5845000   0.78034365   -3.2571783   -1.7959268  0.043780709   -3.2571783    1.4612515   351703 
 5846000    0.7807031    -3.255103   -1.7931327  0.042340835    -3.255103    1.4619703   351692 
 5847000   0.78086289   -3.2553971    -1.792982  0.046535939   -3.2553971    1.4624151   351657 
 5848000   0.78136837   -3.2565563   -1.7931155  0.043514067   -3.2565563    1.4634408   351638 
 5849000   0.78122549   -3.2569497   -1.7936142  0.039150443   -3.2569497    1.4633355   351599 
 5850000   0.78190567   -3.2561182    -1.791317  0.042997059   -3.2561182    1.4648012   351553 
 5851000   0.78125453   -3.2554168   -1.7916647  0.048158021   -3.2554168    1.4637521   351512 
 5852000    0.7822803   -3.2564033    -1.790721  0.044462564   -3.2564033    1.4656823   351510 
 5853000   0.78256284   -3.2554547   -1.7891596  0.050867293   -3.2554547    1.4662951   351490 
 5854000   0.78226676   -3.2521932   -1.7864905  0.052981913   -3.2521932    1.4657028   351499 
 5855000   0.78400641    -3.256747    -1.787839   0.04874425    -3.256747     1.468908   351512 
 5856000   0.78174231   -3.2551356   -1.7904154  0.044203862   -3.2551356    1.4647201   351499 
 5857000   0.78093238   -3.2549594   -1.7916153  0.048670697   -3.2549594    1.4633442   351465 
 5858000   0.78165986   -3.2548526   -1.7900036  0.044682858   -3.2548526    1.4648491   351431 
 5859000   0.78164824   -3.2562702   -1.7912637  0.041617383   -3.2562702    1.4650065   351388 
 5860000   0.78255647   -3.2565798   -1.7898376  0.048002371   -3.2565798    1.4667422   351380 
 5861000    0.7818549   -3.2555739   -1.7902009  0.047756337   -3.2555739     1.465373   351393 
 5862000   0.78154416   -3.2558281       -1.791  0.048101978   -3.2558281    1.4648281   351384 
 5863000   0.78271831    -3.257099   -1.7901787  0.046636972    -3.257099    1.4669203   351410 
 5864000   0.78275158   -3.2583812     -1.79129  0.046576391   -3.2583812    1.4670912   351384 
 5865000   0.78233931   -3.2569671   -1.7905652  0.046502159   -3.2569671    1.4664019   351364 
 5866000   0.78238278   -3.2578436   -1.7914729  0.046069793   -3.2578436    1.4663707   351391 
 5867000    0.7831612   -3.2591246   -1.7909565  0.046599142   -3.2591246    1.4681681   351310 
 5868000   0.78147063   -3.2591669   -1.7940471  0.050147274   -3.2591669    1.4651198   351281 
 5869000   0.78214297   -3.2608182   -1.7943711  0.045407261   -3.2608182    1.4664471   351265 
 5870000   0.78274693    -3.261642   -1.7938912  0.047611785    -3.261642    1.4677508   351224 
 5871000   0.78188005   -3.2617499    -1.795441  0.046840746   -3.2617499     1.466309   351180 
 5872000   0.78179548   -3.2612108   -1.7948976  0.046110497   -3.2612108    1.4663132   351141 
 5873000    0.7836791   -3.2648939   -1.7949264  0.048663832   -3.2648939    1.4699675   351112 
 5874000   0.78299365   -3.2635767   -1.7947903  0.053027019   -3.2635767    1.4687863   351087 
 5875000   0.78306884   -3.2641727   -1.7951449  0.051239953   -3.2641727    1.4690278   351063 
 5876000   0.78454472   -3.2656798   -1.7939126  0.048574562   -3.2656798    1.4717672   351070 
 5877000   0.78225791   -3.2650815   -1.7974371  0.047879234   -3.2650815    1.4676445   351030 
 5878000   0.78367829   -3.2674244   -1.7969601  0.048286375   -3.2674244    1.4704643   350993 
 5879000    0.7827427   -3.2669696   -1.7981896  0.045363025   -3.2669696      1.46878   350976 
 5880000   0.78141817   -3.2641591    -1.797806  0.046237531   -3.2641591     1.466353   350962 
 5881000   0.78097941    -3.264593   -1.7989005  0.042534516    -3.264593    1.4656926   350923 
 5882000   0.77892848   -3.2625046   -1.8004653  0.042372503   -3.2625046    1.4620393   350876 
 5883000   0.78014387   -3.2654203    -1.800962  0.042225924   -3.2654203    1.4644583   350843 
 5884000   0.77950676   -3.2632783   -1.7998866  0.042534434   -3.2632783    1.4633917   350812 
 5885000   0.78049776   -3.2638798   -1.7985943  0.044321635   -3.2638798    1.4652855   350804 
 5886000   0.78075301   -3.2640044   -1.7980642  0.044656525   -3.2640044    1.4659402   350762 
 5887000     0.781392   -3.2655575   -1.7981917  0.047965495   -3.2655575    1.4673659   350708 
 5888000   0.78081696   -3.2641267   -1.7976651  0.046288801   -3.2641267    1.4664617   350666 
 5889000    0.7807554   -3.2644712   -1.7979871  0.046737544   -3.2644712     1.466484   350633 
 5890000   0.78067933   -3.2653907   -1.7990286  0.043737004   -3.2653907    1.4663621   350628 
 5891000   0.78119518   -3.2662663    -1.798952  0.047928532   -3.2662663    1.4673143   350632 
 5892000   0.77915924   -3.2617673    -1.798081  0.042349972   -3.2617673    1.4636864   350585 
 5893000   0.78001904   -3.2634322   -1.7980972  0.043499461   -3.2634322     1.465335   350577 
 5894000   0.77984898   -3.2625003   -1.7972089  0.051525403   -3.2625003    1.4652914   350511 
 5895000   0.78110559   -3.2645482   -1.7966445  0.047813218   -3.2645482    1.4679037   350451 
 5896000   0.77992571   -3.2636238   -1.7977575    0.0476686   -3.2636238    1.4658663   350408 
 5897000   0.78090132   -3.2643684   -1.7967062   0.04540845   -3.2643684    1.4676622   350417 
 5898000   0.77933602   -3.2630671   -1.7981753  0.049491065   -3.2630671    1.4648917   350376 
 5899000   0.77956376   -3.2626392   -1.7973821  0.050462333   -3.2626392    1.4652571   350391 
 5900000   0.77960273   -3.2640168    -1.798561  0.046849046   -3.2640168    1.4654558   350361 
 5901000   0.78151798   -3.2659122   -1.7966969  0.043932327   -3.2659122    1.4692153   350323 
 5902000   0.78027816   -3.2633515   -1.7962952  0.045423401   -3.2633515    1.4670562   350282 
 5903000    0.7792656   -3.2625008   -1.7971601  0.048074689   -3.2625008    1.4653407   350237 
 5904000   0.77904945   -3.2625478   -1.7975801  0.042550771   -3.2625478    1.4649677   350229 
 5905000   0.77884313   -3.2624073   -1.7976519  0.046438655   -3.2624073    1.4647554   350187 
 5906000   0.77805826   -3.2596837   -1.7964002  0.043110345   -3.2596837    1.4632835   350186 
 5907000   0.77855229     -3.25882   -1.7944109  0.044952513     -3.25882    1.4644091   350139 
 5908000   0.77873876   -3.2603424   -1.7952394  0.045811806   -3.2603424     1.465103   350057 
 5909000     0.780409   -3.2624224   -1.7939631  0.042213771   -3.2624224    1.4684593   350006 
 5910000   0.77958786   -3.2609472   -1.7940959  0.049063862   -3.2609472    1.4668513   350021 
 5911000   0.77927532    -3.259544   -1.7933981  0.048777322    -3.259544     1.466146   350049 
 5912000    0.7791842   -3.2611788   -1.7949236  0.043798761   -3.2611788    1.4662552   349982 
 5913000   0.77754286   -3.2576851   -1.7943639  0.042862705   -3.2576851    1.4633212   349945 
 5914000   0.77794167   -3.2585922    -1.794466  0.041950092   -3.2585922    1.4641262   349932 
 5915000   0.77846619   -3.2606367   -1.7953224  0.045736677   -3.2606367    1.4653143   349884 
 5916000   0.77958149     -3.26184   -1.7944263  0.045020442     -3.26184    1.4674137   349884 
 5917000   0.77735822    -3.258231   -1.7950064  0.045801688    -3.258231    1.4632246   349885 
 5918000    0.7793565   -3.2614774   -1.7944495  0.046849151   -3.2614774    1.4670279   349875 
 5919000   0.77790584   -3.2585219   -1.7942665  0.045247663   -3.2585219    1.4642554   349885 
 5920000   0.77846087   -3.2601655   -1.7948193  0.046290664   -3.2601655    1.4653462   349874 
 5921000   0.78014937   -3.2625249   -1.7938786  0.045233265   -3.2625249    1.4686463   349845 
 5922000   0.77936007    -3.261022   -1.7936518  0.043813153    -3.261022    1.4673702   349795 
 5923000   0.77985473   -3.2619566   -1.7935753  0.043579196   -3.2619566    1.4683813   349776 
 5924000   0.77985138   -3.2613625   -1.7930589  0.047083963   -3.2613625    1.4683036   349793 
 5925000     0.779367   -3.2613844   -1.7940306  0.044340522   -3.2613844    1.4673539   349802 
 5926000    0.7802644   -3.2610114    -1.791884  0.047706443   -3.2610114    1.4691274   349782 
 5927000   0.77994367    -3.261004   -1.7926274  0.048830487    -3.261004    1.4683766   349817 
 5928000   0.78080974   -3.2618761   -1.7917891  0.050050569   -3.2618761     1.470087   349798 
 5929000   0.78061101   -3.2611757   -1.7914041  0.048549837   -3.2611757    1.4697716   349784 
 5930000   0.78048552   -3.2608297   -1.7911557   0.04795872   -3.2608297     1.469674   349751 
 5931000   0.77918821   -3.2598204   -1.7922368   0.05065603   -3.2598204    1.4675836   349667 
 5932000   0.77861745   -3.2583992   -1.7918235  0.045104839   -3.2583992    1.4665757   349651 
 5933000   0.77940809   -3.2605424   -1.7925279  0.047462347   -3.2605424    1.4680145   349663 
 5934000   0.77828444   -3.2604254    -1.794456  0.045542984   -3.2604254    1.4659694   349646 
 5935000   0.77673189   -3.2589206   -1.7958547  0.046225972   -3.2589206     1.463066   349641 
 5936000   0.77683599    -3.257294   -1.7940487  0.042733577    -3.257294    1.4632453   349645 
 5937000    0.7766225   -3.2577661     -1.79463  0.043595248   -3.2577661    1.4631361   349575 
 5938000   0.77731133   -3.2587592   -1.7943588  0.041370658   -3.2587592    1.4644004   349583 
 5939000   0.77645634   -3.2572326   -1.7942798  0.044713329   -3.2572326    1.4629528   349544 
 5940000   0.77779705   -3.2582922   -1.7927965  0.045874677   -3.2582922    1.4654957   349540 
 5941000   0.77855366   -3.2586587   -1.7916325  0.045598777   -3.2586587    1.4670262   349515 
 5942000   0.77881461   -3.2576197   -1.7902907  0.046547132   -3.2576197     1.467329   349560 
 5943000   0.77878661   -3.2586378   -1.7912735  0.044541901   -3.2586378    1.4673644   349539 
 5944000   0.77804131   -3.2569336   -1.7907973  0.047125733   -3.2569336    1.4661363   349497 
 5945000   0.77960969    -3.259123   -1.7898379  0.045265437    -3.259123    1.4692851   349451 
 5946000   0.77772429   -3.2561152   -1.7903415  0.044395582   -3.2561152    1.4657737   349441 
 5947000   0.77929147   -3.2586739   -1.7899801  0.045452051   -3.2586739    1.4686938   349449 
 5948000   0.77831201   -3.2576662   -1.7906001  0.049756651   -3.2576662    1.4670661   349397 
 5949000   0.77946651     -3.25898   -1.7896536   0.04410298     -3.25898    1.4693264   349377 
 5950000   0.77904767    -3.258157   -1.7897252  0.047951946    -3.258157    1.4684318   349402 
 5951000   0.77869009   -3.2592079   -1.7913577  0.049668491   -3.2592079    1.4678502   349380 
 5952000   0.77704736   -3.2564724   -1.7916811  0.041385876   -3.2564724    1.4647913   349371 
 5953000   0.77811616   -3.2577796   -1.7908266  0.044138939   -3.2577796    1.4669531   349336 
 5954000   0.77692462   -3.2555164   -1.7905497   0.05006691   -3.2555164    1.4649667   349274 
 5955000   0.77902595   -3.2592981   -1.7902471  0.044568992   -3.2592981     1.469051   349245 
 5956000   0.77787549   -3.2573977   -1.7903483  0.049597151   -3.2573977    1.4670495   349205 
 5957000   0.77848357   -3.2595308   -1.7913008   0.04233303   -3.2595308      1.46823   349197 
 5958000   0.77676969   -3.2568683   -1.7918918  0.046028887   -3.2568683    1.4649766   349202 
 5959000    0.7768061   -3.2564262   -1.7912131  0.045208231   -3.2564262    1.4652131   349162 
 5960000   0.77748328   -3.2572437   -1.7908709  0.044481663   -3.2572437    1.4663728   349190 
 5961000   0.77812752   -3.2547024   -1.7871146  0.045707761   -3.2547024    1.4675879   349190 
 5962000   0.77757389   -3.2540939   -1.7876174  0.048461746   -3.2540939    1.4664765   349206 
 5963000   0.77976483   -3.2586992   -1.7880275  0.046025668   -3.2586992    1.4706717   349191 
 5964000   0.77792287   -3.2557063   -1.7884162  0.048384458   -3.2557063    1.4672901   349169 
 5965000   0.77753106    -3.254923   -1.7881493  0.049134393    -3.254923    1.4667737   349116 
 5966000   0.77794098   -3.2550786   -1.7876031  0.048381982   -3.2550786    1.4674756   349133 
 5967000    0.7769597   -3.2535824   -1.7880796   0.04152335   -3.2535824    1.4655028   349162 
 5968000   0.77674828   -3.2528365    -1.787573  0.045641816   -3.2528365    1.4652635   349124 
 5969000   0.77688244   -3.2547385   -1.7889743  0.040790179   -3.2547385    1.4657643   349065 
 5970000   0.77722881   -3.2547464   -1.7881942  0.047109311   -3.2547464    1.4665522   349033 
 5971000   0.77812359   -3.2557818   -1.7874529  0.042857084   -3.2557818    1.4683289   349012 
 5972000   0.77723313   -3.2547254   -1.7882197  0.041108073   -3.2547254    1.4665058   349046 
 5973000    0.7759159   -3.2514785   -1.7874498  0.043769302   -3.2514785    1.4640288   349044 
 5974000   0.77704765   -3.2552084   -1.7888426  0.039106702   -3.2552084    1.4663658   348996 
 5975000   0.77803665   -3.2560401   -1.7877996  0.047629646   -3.2560401    1.4682406   348994 
 5976000   0.77563416   -3.2533173   -1.7896566  0.042525506   -3.2533173    1.4636607   349005 
 5977000   0.77599267   -3.2539465   -1.7895799   0.04629281   -3.2539465    1.4643666   348998 
 5978000   0.77621373   -3.2554906   -1.7906019  0.045566626   -3.2554906    1.4648887   348973 
 5979000   0.77659217   -3.2568019   -1.7912579  0.042855053   -3.2568019    1.4655441   348987 
 5980000   0.77685556   -3.2571546   -1.7909832   0.04405363   -3.2571546    1.4661714   348956 
 5981000   0.77673217    -3.258821    -1.792643  0.042993375    -3.258821     1.466178   348899 
 5982000   0.77598581   -3.2553309    -1.790482  0.045602522   -3.2553309    1.4648489   348880 
 5983000   0.77719737   -3.2569485   -1.7896947  0.045973572   -3.2569485    1.4672538   348852 
 5984000   0.77735479     -3.25777   -1.7901601  0.044388851     -3.25777    1.4676099   348838 
 5985000   0.77714365    -3.258253   -1.7907179  0.045047311    -3.258253    1.4675352   348761 
 5986000   0.77818957   -3.2606788   -1.7911095  0.049902986   -3.2606788    1.4695693   348747 
 5987000   0.77619557   -3.2592027   -1.7932687   0.05125406   -3.2592027     1.465934   348716 
 5988000   0.77674683   -3.2592714   -1.7922248  0.047325549   -3.2592714    1.4670466   348699 
 5989000   0.77727273   -3.2607206   -1.7923059  0.050622823   -3.2607206    1.4684147   348610 
 5990000    0.7768282   -3.2591694   -1.7915608  0.043299432   -3.2591694    1.4676086   348602 
 5991000   0.77815529   -3.2617336   -1.7916094  0.050283997   -3.2617336    1.4701242   348600 
 5992000   0.77752237   -3.2603253     -1.79146  0.045677034   -3.2603253    1.4688652   348615 
 5993000   0.77873714   -3.2610477   -1.7897019  0.053718882   -3.2610477    1.4713458   348571 
 5994000   0.77843867   -3.2606079   -1.7900201   0.04782737   -3.2606079    1.4705878   348617 
 5995000    0.7779912   -3.2582998   -1.7883634  0.048640607   -3.2582998    1.4699365   348571 
 5996000    0.7774056   -3.2567742    -1.787961  0.042274697   -3.2567742    1.4688132   348575 
 5997000   0.77542835   -3.2530244   -1.7880227  0.047286493   -3.2530244    1.4650018   348593 
 5998000    0.7756647   -3.2540892    -1.788561   0.04610639   -3.2540892    1.4655282   348574 
 5999000   0.77589779   -3.2539669   -1.7878764  0.043526627   -3.2539669    1.4660905   348545 
 6000000   0.77758653   -3.2556334   -1.7863477  0.045141562   -3.2556334    1.4692857   348544 
 6001000   0.77713338   -3.2537906   -1.7854159  0.048844483   -3.2537906    1.4683747   348557 
 6002000   0.77663298   -3.2523793   -1.7848322  0.049623428   -3.2523793    1.4675471   348529 
 6003000   0.77552416    -3.250687   -1.7850501  0.044024393    -3.250687    1.4656368   348485 
 6004000   0.77578626   -3.2506133   -1.7844054  0.043200195   -3.2506133    1.4662079   348467 
 6005000   0.77637336   -3.2515591   -1.7840141  0.045453938   -3.2515591    1.4675449   348413 
 6006000   0.77657414   -3.2522432   -1.7840491  0.048398858   -3.2522432    1.4681941   348349 
 6007000   0.77590568   -3.2506669   -1.7832943    0.0464564   -3.2506669    1.4673727   348244 
 6008000   0.77495786   -3.2501333   -1.7844101  0.042110796   -3.2501333    1.4657233   348210 
 6009000   0.77829881   -3.2528564   -1.7808269  0.049263664   -3.2528564    1.4720295   348213 
 6010000   0.77606335    -3.250581   -1.7825181  0.049919004    -3.250581    1.4680629   348151 
 6011000   0.77628477   -3.2506356   -1.7819809  0.047625702   -3.2506356    1.4686547   348110 
 6012000   0.77428948   -3.2477837    -1.782925  0.040491907   -3.2477837    1.4648588   348115 
 6013000   0.77505421    -3.249307   -1.7829214  0.043244299    -3.249307    1.4663856   348096 
 6014000   0.77453784   -3.2498719   -1.7843622  0.045028144   -3.2498719    1.4655097   348072 
 6015000   0.77481504     -3.24885   -1.7830012   0.04310895     -3.24885    1.4658489   348116 
 6016000   0.77223945   -3.2465044   -1.7855283    0.0430494   -3.2465044    1.4609762   348116 
 6017000   0.77334288    -3.248125   -1.7847838  0.044284958    -3.248125    1.4633411   348050 
 6018000   0.77472126   -3.2503402   -1.7842266  0.048053259   -3.2503402    1.4661136   348011 
 6019000   0.77446652   -3.2506282    -1.784727  0.041899162   -3.2506282    1.4659011   347947 
 6020000    0.7741314   -3.2492473   -1.7840352  0.039681564   -3.2492473    1.4652121   347960 
 6021000   0.77344775   -3.2505652   -1.7864998  0.040520941   -3.2505652    1.4640654   347925 
 6022000   0.77472648   -3.2512099    -1.784568  0.044566725   -3.2512099    1.4666419   347888 
 6023000   0.77600859   -3.2506637   -1.7815989   0.04995868   -3.2506637    1.4690648   347889 
 6024000   0.77685482   -3.2532458   -1.7826255  0.051838624   -3.2532458    1.4706203   347900 
 6025000   0.77678465   -3.2528804   -1.7825281  0.052342404   -3.2528804    1.4703523   347932 
 6026000   0.77768719   -3.2543531   -1.7822586  0.055532399   -3.2543531    1.4720945   347924 
 6027000   0.77844951   -3.2550492   -1.7816387  0.048930949   -3.2550492    1.4734105   347954 
 6028000   0.77622166    -3.254957   -1.7855775   0.04970844    -3.254957    1.4693795   347910 
 6029000    0.7788713     -3.25705   -1.7827649  0.047328713     -3.25705    1.4742851   347936 
 6030000   0.77730594   -3.2553362   -1.7840226  0.048280644   -3.2553362    1.4713136   347938 
 6031000    0.7768446   -3.2552201   -1.7847629  0.042409796   -3.2552201    1.4704573   347934 
 6032000   0.77545185   -3.2538149   -1.7858125  0.044840792   -3.2538149    1.4680024   347891 
 6033000   0.77597018   -3.2527926   -1.7836527  0.045023615   -3.2527926    1.4691399   347854 
 6034000   0.77592512   -3.2535513   -1.7842137  0.045699573   -3.2535513    1.4693376   347787 
 6035000   0.77691859   -3.2552413    -1.783959  0.052066346   -3.2552413    1.4712824   347772 
 6036000   0.77657436    -3.255538   -1.7847891  0.047768848    -3.255538    1.4707489   347744 
 6037000   0.77775953   -3.2563686   -1.7831803  0.052449324   -3.2563686    1.4731884   347698 
 6038000   0.77672541   -3.2540419   -1.7825922  0.050922862   -3.2540419    1.4714497   347646 
 6039000   0.77643119   -3.2534682   -1.7826267  0.052273541   -3.2534682    1.4708415   347658 
 6040000   0.77661445   -3.2530942   -1.7820579   0.04749763   -3.2530942    1.4710364   347694 
 6041000   0.77425574   -3.2496759    -1.782985  0.049548912   -3.2496759    1.4666909   347665 
 6042000   0.77511228   -3.2521157     -1.78376  0.045569273   -3.2521157    1.4683557   347655 
 6043000   0.77351377    -3.248831   -1.7836173  0.043390123    -3.248831    1.4652137   347682 
 6044000   0.77438547   -3.2513248   -1.7845527  0.044034161   -3.2513248    1.4667721   347704 
 6045000   0.77313215    -3.247433     -1.78282  0.047096005    -3.247433     1.464613   347653 
 6046000   0.77421429   -3.2497693   -1.7828616  0.046752373   -3.2497693    1.4669077   347595 
 6047000   0.77342628    -3.249227   -1.7837448  0.047308694    -3.249227    1.4654821   347579 
 6048000   0.77393263   -3.2504404   -1.7839144  0.046329249   -3.2504404    1.4665259   347559 
 6049000   0.77344835   -3.2498524   -1.7841977  0.044542929   -3.2498524    1.4656547   347548 
 6050000   0.77398843   -3.2499416   -1.7828625  0.050337625   -3.2499416    1.4670791   347453 
 6051000   0.77489141   -3.2518965   -1.7831016  0.047830158   -3.2518965    1.4687949   347452 
 6052000   0.77444557   -3.2498499   -1.7819381  0.049064437   -3.2498499    1.4679118   347461 
 6053000   0.77545121   -3.2496576   -1.7798862  0.047787633   -3.2496576    1.4697714   347472 
 6054000   0.77497269   -3.2513773   -1.7822423  0.046506626   -3.2513773     1.469135   347408 
 6055000   0.77465739   -3.2513051   -1.7827255  0.051791785   -3.2513051    1.4685796   347398 
 6056000    0.7751723   -3.2523663   -1.7825821   0.05136484   -3.2523663    1.4697842   347344 
 6057000   0.77464386   -3.2517681   -1.7828885  0.042449139   -3.2517681    1.4688795   347321 
 6058000   0.77219749   -3.2471289   -1.7827996  0.049327939   -3.2471289    1.4643292   347300 
 6059000   0.77356079   -3.2497594   -1.7828492  0.048123346   -3.2497594    1.4669103   347301 
 6060000   0.77390697   -3.2509676   -1.7832445   0.04725731   -3.2509676    1.4677231   347264 
 6061000   0.77430503    -3.250548   -1.7820023  0.044864311    -3.250548    1.4685457   347248 
 6062000   0.77501371    -3.250608    -1.780786  0.044785002    -3.250608     1.469822   347264 
 6063000   0.77390114   -3.2503796   -1.7824436  0.045656621   -3.2503796    1.4679361   347211 
 6064000   0.77324867   -3.2492572   -1.7823644  0.046351934   -3.2492572    1.4668928   347165 
 6065000   0.77434162   -3.2507649   -1.7816379  0.047058143   -3.2507649     1.469127   347127 
 6066000   0.77241972   -3.2487818   -1.7833434  0.046464647   -3.2487818    1.4654384   347137 
 6067000   0.77302049   -3.2506493   -1.7839443  0.046498673   -3.2506493     1.466705   347107 
 6068000   0.77142108   -3.2495221   -1.7856578  0.041596972   -3.2495221    1.4638643   347061 
 6069000   0.77111637   -3.2470198   -1.7835102  0.048151993   -3.2470198    1.4635096   347008 
 6070000   0.77255744   -3.2488309   -1.7826075  0.044967823   -3.2488309    1.4662235   347013 
 6071000   0.77438342   -3.2530297   -1.7833619  0.048544793   -3.2530297    1.4696678   347018 
 6072000   0.77501473    -3.251757   -1.7809038  0.050315385    -3.251757    1.4708532   347021 
 6073000   0.77514227    -3.252244   -1.7809113  0.048040997    -3.252244    1.4713327   346965 
 6074000   0.77387005   -3.2515191   -1.7824743  0.048878965   -3.2515191    1.4690449   346935 
 6075000   0.77226907   -3.2500319   -1.7838614  0.050457652   -3.2500319    1.4661705   346896 
 6076000   0.77299041   -3.2517351   -1.7840047  0.048205775   -3.2517351    1.4677304   346851 
 6077000   0.77304366   -3.2514024   -1.7834354  0.048166799   -3.2514024    1.4679669   346819 
 6078000   0.77402354   -3.2528684   -1.7829559  0.043235896   -3.2528684    1.4699124   346799 
 6079000   0.77391601   -3.2534769   -1.7837645  0.046584767   -3.2534769    1.4697125   346798 
 6080000   0.77235382   -3.2527241   -1.7858007  0.046956857   -3.2527241    1.4669234   346756 
 6081000   0.77260867   -3.2523961   -1.7849294  0.050523182   -3.2523961    1.4674667   346742 
 6082000   0.77202828   -3.2518462   -1.7852746   0.04513677   -3.2518462    1.4665716   346693 
 6083000    0.7723639   -3.2526236   -1.7853129  0.045342868   -3.2526236    1.4673107   346669 
 6084000   0.77281931   -3.2516794   -1.7836136  0.047513965   -3.2516794    1.4680658   346695 
 6085000   0.77394869   -3.2531693   -1.7830174  0.048446491   -3.2531693    1.4701518   346709 
 6086000    0.7732342   -3.2519904   -1.7830009  0.040452923   -3.2519904    1.4689895   346663 
 6087000    0.7730409   -3.2529975   -1.7841125  0.050184518   -3.2529975     1.468885   346601 
 6088000     0.772249   -3.2513725   -1.7838821  0.047867721   -3.2513725    1.4674904   346575 
 6089000   0.77290099   -3.2534762   -1.7845053  0.049220157   -3.2534762    1.4689709   346518 
 6090000   0.77306397   -3.2557158   -1.7862019  0.047298045   -3.2557158    1.4695139   346463 
 6091000   0.77317615   -3.2537945   -1.7839995  0.044254174   -3.2537945     1.469795   346447 
 6092000    0.7721095   -3.2499384   -1.7822219  0.048374892   -3.2499384    1.4677165   346459 
 6093000   0.77285913    -3.252858   -1.7837207  0.051567575    -3.252858    1.4691373   346460 
 6094000   0.77333146   -3.2541657   -1.7839694  0.051340333   -3.2541657    1.4701964   346422 
 6095000   0.77282466   -3.2535936   -1.7842377  0.045726049   -3.2535936    1.4693559   346393 
 6096000   0.77296069   -3.2519777   -1.7824183  0.045983045   -3.2519777    1.4695594   346406 
 6097000    0.7731365   -3.2532239   -1.7830671  0.047892751   -3.2532239    1.4701568   346344 
 6098000   0.77182662   -3.2510133   -1.7833685  0.049354767   -3.2510133    1.4676448   346349 
 6099000    0.7716068   -3.2503093   -1.7827266   0.05133194   -3.2503093    1.4675827   346265 
 6100000   0.77178561    -3.252092    -1.783936  0.050296675    -3.252092     1.468156   346210 
 6101000   0.77095438   -3.2518983   -1.7852812  0.049145269   -3.2518983    1.4666171   346200 
 6102000   0.77135555   -3.2510459   -1.7836359  0.047253488   -3.2510459    1.4674099   346193 
 6103000   0.77147361   -3.2521325    -1.784252  0.048593696   -3.2521325    1.4678805   346135 
 6104000   0.77147752   -3.2536044   -1.7855977  0.046506003   -3.2536044    1.4680067   346107 
 6105000   0.77154784   -3.2533649   -1.7850378  0.050025284   -3.2533649    1.4683271   346063 
 6106000   0.77157401   -3.2545262   -1.7860432  0.047083503   -3.2545262     1.468483   346038 
 6107000   0.77215678   -3.2551136   -1.7852878  0.046401326   -3.2551136    1.4698258   345983 
 6108000   0.77183529   -3.2536444   -1.7844008  0.048796474   -3.2536444    1.4692435   345976 
 6109000   0.77105149    -3.254884    -1.786984  0.042722626    -3.254884       1.4679   345941 
 6110000    0.7711673   -3.2533455   -1.7851232   0.04672291   -3.2533455    1.4682224   345917 
 6111000   0.77157704   -3.2539266   -1.7848094  0.046972102   -3.2539266    1.4691171   345890 
 6112000   0.77180069   -3.2541643   -1.7847998  0.049309103   -3.2541643    1.4693645   345932 
 6113000   0.77117489   -3.2543728   -1.7861615  0.047499591   -3.2543728    1.4682113   345923 
 6114000   0.77355851    -3.258107   -1.7852895  0.050383343    -3.258107    1.4728175   345907 
 6115000   0.77122216   -3.2545468   -1.7862582  0.048982516   -3.2545468    1.4682886   345926 
 6116000   0.77164433   -3.2526272   -1.7837089  0.048542618   -3.2526272    1.4689182   345967 
 6117000   0.77119314   -3.2521151    -1.783886  0.049914288   -3.2521151    1.4682291   345927 
 6118000   0.77223192   -3.2552729   -1.7848876   0.04737335   -3.2552729    1.4703853   345885 
 6119000   0.77290783   -3.2567654    -1.785025  0.042418935   -3.2567654    1.4717404   345869 
 6120000   0.77122567     -3.25592   -1.7873657  0.047313604     -3.25592    1.4685542   345865 
 6121000   0.77010872   -3.2556905   -1.7890808  0.042981681   -3.2556905    1.4666097   345822 
 6122000   0.77115371   -3.2571957   -1.7884218  0.043055244   -3.2571957    1.4687739   345781 
 6123000   0.77128504   -3.2558971   -1.7867286  0.048737825   -3.2558971    1.4691685   345747 
 6124000   0.77082234   -3.2566951   -1.7882253  0.051407922   -3.2566951    1.4684698   345704 
 6125000   0.77123704   -3.2568901   -1.7876175  0.049025484   -3.2568901    1.4692726   345701 
 6126000   0.77183506   -3.2580452   -1.7875057  0.051496256   -3.2580452    1.4705395   345671 
 6127000   0.77119736   -3.2576888   -1.7883515  0.047968659   -3.2576888    1.4693373   345668 
 6128000   0.77128296   -3.2571047   -1.7877106  0.052316545   -3.2571047    1.4693941   345693 
 6129000   0.77104401   -3.2567258   -1.7875192  0.047701884   -3.2567258    1.4692066   345630 
 6130000   0.77158186   -3.2569762   -1.7866597  0.046115048   -3.2569762    1.4703165   345610 
 6131000   0.77064548   -3.2572049   -1.7888087   0.05136266   -3.2572049    1.4683962   345642 
 6132000   0.76915457    -3.254289   -1.7887167  0.049507777    -3.254289    1.4655724   345638 
 6133000   0.76884731   -3.2552851    -1.790349   0.04486233   -3.2552851    1.4649361   345650 
 6134000   0.76984375   -3.2572157   -1.7903514  0.044630131   -3.2572157    1.4668644   345643 
 6135000   0.76888646   -3.2528043   -1.7878699  0.051372403   -3.2528043    1.4649344   345668 
 6136000   0.76871174   -3.2511619   -1.7863739  0.048023868   -3.2511619    1.4647879   345624 
 6137000   0.76987001   -3.2526736   -1.7855427  0.047531939   -3.2526736    1.4671309   345592 
 6138000   0.77050452   -3.2546986   -1.7862353  0.047737335   -3.2546986    1.4684633   345563 
 6139000   0.77121164   -3.2546242    -1.784707  0.048034349   -3.2546242    1.4699173   345538 
 6140000   0.77064676   -3.2550681   -1.7861297  0.045953732   -3.2550681    1.4689384   345515 
 6141000   0.77153667   -3.2553856   -1.7847169  0.050018643   -3.2553856    1.4706687   345507 
 6142000    0.7707263   -3.2542684   -1.7850508  0.047425475   -3.2542684    1.4692176   345485 
 6143000   0.77066704   -3.2563352   -1.7869839  0.045235389   -3.2563352    1.4693513   345427 
 6144000   0.77077134   -3.2551206   -1.7854811  0.047497124   -3.2551206    1.4696395   345406 
 6145000   0.77136719   -3.2559676   -1.7849918  0.045880349   -3.2559676    1.4709758   345359 
 6146000   0.76877935   -3.2511598   -1.7851699  0.044313048   -3.2511598    1.4659899   345371 
 6147000   0.76937933   -3.2519373   -1.7848416  0.044036421   -3.2519373    1.4670957   345380 
 6148000   0.77097657   -3.2541093   -1.7839806  0.042455301   -3.2541093    1.4701287   345383 
 6149000   0.76927144   -3.2505614   -1.7835737  0.047494818   -3.2505614    1.4669877   345357 
 6150000   0.77101362   -3.2525648   -1.7822803   0.04937457   -3.2525648    1.4702845   345363 
 6151000   0.77004497   -3.2497158   -1.7809935  0.049321755   -3.2497158    1.4687222   345296 
 6152000    0.7695765   -3.2494212    -1.781601  0.049911435   -3.2494212    1.4678202   345298 
 6153000    0.7707268   -3.2507848   -1.7808941  0.047352989   -3.2507848    1.4698908   345327 
 6154000   0.77221504   -3.2519931   -1.7792598  0.048571775   -3.2519931    1.4727333   345326 
 6155000   0.77079088   -3.2516499   -1.7814241  0.048400547   -3.2516499    1.4702258   345277 
 6156000   0.77071741   -3.2517064   -1.7814589  0.046373517   -3.2517064    1.4702475   345239 
 6157000   0.77000833   -3.2500567   -1.7811193  0.048008473   -3.2500567    1.4689374   345229 
 6158000   0.76873006   -3.2474986   -1.7808851   0.04610952   -3.2474986    1.4666136   345202 
 6159000   0.76782314   -3.2463005   -1.7813026  0.048933221   -3.2463005    1.4649979   345175 
 6160000   0.76900026   -3.2489671   -1.7815023   0.05060113   -3.2489671    1.4674649   345123 
 6161000   0.76819524    -3.247141    -1.781344  0.047084136    -3.247141     1.465797   345154 
 6162000    0.7690168   -3.2479947    -1.780528  0.045524868   -3.2479947    1.4674667   345130 
 6163000   0.76977601   -3.2498433   -1.7808044  0.054130382   -3.2498433    1.4690389   345101 
 6164000   0.76986412   -3.2499156   -1.7805511  0.045609865   -3.2499156    1.4693646   345064 
 6165000   0.77032442   -3.2493756   -1.7789748  0.048109532   -3.2493756    1.4704007   345027 
 6166000   0.77019351   -3.2480547   -1.7778868  0.047158935   -3.2480547    1.4701679   345023 
 6167000   0.77019146   -3.2495918   -1.7792744  0.047529546   -3.2495918    1.4703174   344987 
 6168000   0.76882899   -3.2477019   -1.7799089  0.047685689   -3.2477019     1.467793   344969 
 6169000   0.76963035   -3.2491967   -1.7798951  0.049921237   -3.2491967    1.4693016   344974 
 6170000   0.77008181   -3.2490484   -1.7787869  0.050308617   -3.2490484    1.4702615   344951 
 6171000   0.77044059    -3.250717   -1.7798174  0.049556123    -3.250717    1.4708996   344962 
 6172000   0.76787006   -3.2479433    -1.781777  0.050603942   -3.2479433    1.4661663   344921 
 6173000   0.76807757   -3.2476303   -1.7810083  0.046264081   -3.2476303     1.466622   344907 
 6174000   0.76755909    -3.248562   -1.7825559  0.042007531    -3.248562     1.466006   344819 
 6175000   0.76754308   -3.2489881   -1.7830722  0.043433688   -3.2489881     1.465916   344833 
 6176000   0.76811668   -3.2495998   -1.7826352   0.04425071   -3.2495998    1.4669647   344844 
 6177000   0.76736757   -3.2505163    -1.784689  0.043932408   -3.2505163    1.4658273   344775 
 6178000   0.76840163   -3.2509071   -1.7830918   0.04661096   -3.2509071    1.4678153   344772 
 6179000   0.76883158   -3.2506659   -1.7819697  0.049362982   -3.2506659    1.4686963   344758 
 6180000   0.76872482   -3.2519812   -1.7832205  0.047402827   -3.2519812    1.4687607   344695 
 6181000   0.76799825   -3.2494139   -1.7818626  0.046670435   -3.2494139    1.4675513   344653 
 6182000   0.76911481   -3.2521365   -1.7824772  0.053352156   -3.2521365    1.4696594   344659 
 6183000    0.7688601   -3.2524081   -1.7833079  0.048991815   -3.2524081    1.4691002   344676 
 6184000   0.76856267   -3.2530797    -1.784339  0.048152995   -3.2530797    1.4687407   344627 
 6185000   0.76683755   -3.2502576   -1.7846265  0.047249826   -3.2502576     1.465631   344583 
 6186000   0.76847288   -3.2559051   -1.7869865  0.045641848   -3.2559051    1.4689186   344545 
 6187000   0.76707086   -3.2544264   -1.7880388   0.04892791   -3.2544264    1.4663876   344510 
 6188000   0.76770872    -3.253902   -1.7862353   0.04537924    -3.253902    1.4676666   344496 
 6189000     0.767139   -3.2519255    -1.785182  0.047655821   -3.2519255    1.4667435   344457 
 6190000    0.7684216   -3.2551407   -1.7856761  0.045649571   -3.2551407    1.4694646   344394 
 6191000   0.76794779   -3.2562652   -1.7876641  0.047773957   -3.2562652    1.4686011   344384 
 6192000   0.76827145   -3.2563654   -1.7870301  0.046648017   -3.2563654    1.4693353   344357 
 6193000   0.76592751   -3.2530208   -1.7882236  0.043878505   -3.2530208    1.4647972   344370 
 6194000   0.76588176   -3.2519079   -1.7872578  0.043567857   -3.2519079    1.4646501   344384 
 6195000   0.76770993   -3.2542327   -1.7859031  0.043913063   -3.2542327    1.4683296   344341 
 6196000   0.76732546   -3.2543318   -1.7867461  0.044029282   -3.2543318    1.4675857   344343 
 6197000   0.76756305   -3.2529368   -1.7849947  0.051543808   -3.2529368    1.4679421   344366 
 6198000    0.7685351   -3.2537125   -1.7838047  0.051053971   -3.2537125    1.4699078   344341 
 6199000   0.76665592   -3.2510891   -1.7846903  0.051289635   -3.2510891    1.4663989   344321 
 6200000   0.76771208   -3.2521356   -1.7834351  0.045215827   -3.2521356    1.4687005   344255 
 6201000   0.76598083   -3.2498546   -1.7845087  0.048721418   -3.2498546    1.4653459   344265 
 6202000   0.76757601   -3.2535591   -1.7851018  0.046213394   -3.2535591    1.4684573   344251 
 6203000   0.76552973   -3.2504814    -1.785773  0.048159019   -3.2504814    1.4647084   344212 
 6204000   0.76646564   -3.2506074   -1.7840954   0.04527122   -3.2506074    1.4665119   344209 
 6205000   0.76658878   -3.2508548   -1.7839538  0.046533972   -3.2508548     1.466901   344173 
 6206000   0.76777137   -3.2505379   -1.7813143  0.043632431   -3.2505379    1.4692237   344159 
 6207000   0.76656593   -3.2491519   -1.7821113   0.04623059   -3.2491519    1.4670405   344130 
 6208000    0.7640834   -3.2444712   -1.7820712  0.052202449   -3.2444712       1.4624   344104 
 6209000   0.76529728    -3.248236   -1.7831295  0.049528922    -3.248236    1.4651065   344014 
 6210000   0.76654405   -3.2484383   -1.7807104  0.046927066   -3.2484383     1.467728   343959 
 6211000   0.76642204   -3.2479979   -1.7806145  0.046999876   -3.2479979    1.4673834   343985 
 6212000   0.76564542   -3.2448957   -1.7789992  0.047215437   -3.2448957    1.4658965   343985 
 6213000   0.76663187    -3.247654    -1.779728   0.04562892    -3.247654     1.467926   343952 
 6214000   0.76730962   -3.2487248   -1.7795053  0.045210829   -3.2487248    1.4692195   343953 
 6215000   0.76513739   -3.2447177    -1.779534  0.045668595   -3.2447177    1.4651837   343924 
 6216000   0.76444813   -3.2434856   -1.7794685  0.044559429   -3.2434856    1.4640171   343888 
 6217000   0.76417044   -3.2439432   -1.7803856  0.048415084   -3.2439432    1.4635576   343871 
 6218000   0.76666744   -3.2481417   -1.7797377  0.044500096   -3.2481417     1.468404   343856 
 6219000   0.76526345   -3.2452776   -1.7797716  0.044319304   -3.2452776    1.4655061   343905 
 6220000   0.76505788   -3.2438343   -1.7786921  0.047901653   -3.2438343    1.4651422   343898 
 6221000   0.76562001   -3.2434555   -1.7772794  0.047223336   -3.2434555    1.4661761   343908 
 6222000   0.76664422   -3.2427767   -1.7745026  0.049266413   -3.2427767    1.4682741   343876 
 6223000   0.76692845   -3.2421859   -1.7732479  0.053949823   -3.2421859     1.468938   343848 
 6224000   0.76660918   -3.2424583   -1.7738627  0.049424014   -3.2424583    1.4685956   343785 
 6225000   0.76713872   -3.2434228   -1.7739496  0.047504654   -3.2434228    1.4694733   343817 
 6226000   0.76711031   -3.2431566   -1.7737079  0.049547506   -3.2431566    1.4694488   343810 
 6227000   0.76553045    -3.241816   -1.7753552  0.048221023    -3.241816    1.4664608   343801 
 6228000   0.76642399   -3.2431145   -1.7750231  0.046136365   -3.2431145    1.4680914   343820 
 6229000   0.76530677   -3.2434247   -1.7773113  0.045126904   -3.2434247    1.4661134   343782 
 6230000   0.76387147   -3.2406217   -1.7771899  0.044984962   -3.2406217    1.4634318   343766 
 6231000   0.76478447   -3.2421023   -1.7767167  0.043005264   -3.2421023    1.4653856   343718 
 6232000   0.76593265   -3.2424683   -1.7749041  0.044710219   -3.2424683    1.4675642   343723 
 6233000   0.76671212   -3.2452011   -1.7760365  0.052875171   -3.2452011    1.4691646   343698 
 6234000   0.76668201    -3.245019   -1.7757839  0.048006614    -3.245019    1.4692352   343668 
 6235000   0.76451817   -3.2413872   -1.7760131  0.043588716   -3.2413872    1.4653741   343601 
 6236000   0.76503015   -3.2425671   -1.7761689  0.044749322   -3.2425671    1.4663982   343591 
 6237000   0.76690009   -3.2450053   -1.7750101  0.045114038   -3.2450053    1.4699952   343588 
 6238000   0.76537949   -3.2436431   -1.7765455   0.04458853   -3.2436431    1.4670976   343584 
 6239000   0.76504924   -3.2429374   -1.7764045  0.049577029   -3.2429374    1.4665329   343568 
 6240000   0.76426003   -3.2427621   -1.7776653  0.044916457   -3.2427621    1.4650968   343550 
 6241000   0.76498873   -3.2444533   -1.7778827  0.045217005   -3.2444533    1.4665706   343532 
 6242000   0.76416466   -3.2432614   -1.7781939  0.045491985   -3.2432614    1.4650675   343514 
 6243000    0.7657375   -3.2467999   -1.7786314  0.048802144   -3.2467999    1.4681685   343494 
 6244000   0.76481453   -3.2463738   -1.7797785  0.046865815   -3.2463738    1.4665952   343448 
 6245000   0.76529437    -3.246839   -1.7792125  0.047182524    -3.246839    1.4676265   343422 
 6246000    0.7654131   -3.2460347   -1.7780181  0.049835111   -3.2460347    1.4680166   343384 
 6247000   0.76541339   -3.2457862   -1.7776365  0.044670596   -3.2457862    1.4681497   343353 
 6248000   0.76529003     -3.24657   -1.7786398  0.049430335     -3.24657    1.4679302   343349 
 6249000   0.76630886   -3.2476954   -1.7776312   0.04874052   -3.2476954    1.4700643   343307 
 6250000   0.76500688   -3.2479374   -1.7802383  0.045669718   -3.2479374    1.4676991   343276 
 6251000   0.76645398   -3.2494649   -1.7790066  0.044337411   -3.2494649    1.4704583   343280 
 6252000   0.76511387   -3.2462083   -1.7780901   0.04863327   -3.2462083    1.4681182   343226 
 6253000   0.76427165   -3.2483976   -1.7816091  0.044518682   -3.2483976    1.4667885   343159 
 6254000   0.76398605   -3.2487532   -1.7824359  0.046644994   -3.2487532    1.4663173   343141 
 6255000   0.76389594   -3.2498636   -1.7837406  0.046229982   -3.2498636     1.466123   343146 
 6256000   0.76196726   -3.2462464   -1.7836589  0.045058954   -3.2462464    1.4625875   343107 
 6257000   0.76288472   -3.2471571   -1.7827787  0.047694096   -3.2471571    1.4643784   343100 
 6258000   0.76370402    -3.248217   -1.7819539  0.044987083    -3.248217    1.4662631   343027 
 6259000   0.76289125   -3.2463347   -1.7814955  0.050515127   -3.2463347    1.4648393   342995 
 6260000   0.76290898   -3.2470616   -1.7820986  0.044085423   -3.2470616     1.464963   342974 
 6261000   0.76437027   -3.2465762   -1.7787558  0.049956618   -3.2465762    1.4678204   342962 
 6262000   0.76364757   -3.2448299   -1.7784101  0.048728062   -3.2448299    1.4664198   342965 
 6263000   0.76464707   -3.2468358   -1.7784667  0.048050798   -3.2468358     1.468369   342958 
 6264000   0.76390799   -3.2454652    -1.778648  0.046788773   -3.2454652    1.4668172   342989 
 6265000   0.76402158   -3.2461511   -1.7790302  0.044526711   -3.2461511    1.4671209   342969 
 6266000    0.7636177   -3.2470812    -1.780458  0.045534407   -3.2470812    1.4666233   342904 
 6267000   0.76295101   -3.2463031   -1.7807209  0.045632256   -3.2463031    1.4655821   342848 
 6268000   0.76299084   -3.2461633   -1.7804234  0.048344116   -3.2461633    1.4657399   342829 
 6269000   0.76268177   -3.2465248   -1.7811307  0.044570675   -3.2465248    1.4653941   342771 
 6270000    0.7634307     -3.24683   -1.7798986  0.052073635     -3.24683    1.4669315   342748 
 6271000   0.76365599   -3.2479202   -1.7804488  0.047455889   -3.2479202    1.4674714   342723 
 6272000    0.7632765   -3.2478455   -1.7809664  0.049565124   -3.2478455    1.4668791   342691 
 6273000    0.7638572   -3.2492876   -1.7812668  0.042010318   -3.2492876    1.4680208   342685 
 6274000   0.76289158   -3.2459672   -1.7799176  0.042881133   -3.2459672    1.4660495   342712 
 6275000   0.76163454    -3.245168   -1.7811796  0.042637451    -3.245168    1.4639884   342629 
 6276000   0.76151015   -3.2454732   -1.7815957    0.0443783   -3.2454732    1.4638775   342599 
 6277000   0.76253132   -3.2458808   -1.7800275  0.044113377   -3.2458808    1.4658534   342596 
 6278000   0.76063621   -3.2451751   -1.7828538   0.04409461   -3.2451751    1.4623213   342570 
 6279000   0.76171849   -3.2458357   -1.7812712  0.042148958   -3.2458357    1.4645644   342532 
 6280000   0.76181292   -3.2458303   -1.7810586  0.044117608   -3.2458303    1.4647716   342526 
 6281000   0.76274825   -3.2451329   -1.7785457   0.04845836   -3.2451329    1.4665872   342522 
 6282000   0.76266106    -3.244243   -1.7776565  0.050716091    -3.244243    1.4665865   342483 
 6283000    0.7628039   -3.2444394   -1.7774326  0.051655214   -3.2444394    1.4670068   342449 
 6284000   0.76445618   -3.2470237    -1.776646  0.053420866   -3.2470237    1.4703777   342404 
 6285000   0.76147527   -3.2442106   -1.7794638  0.047473946   -3.2442106    1.4647468   342380 
 6286000   0.76124467   -3.2454604   -1.7811316  0.044907996   -3.2454604    1.4643289   342374 
 6287000   0.76138543   -3.2448731   -1.7803975  0.044493099   -3.2448731    1.4644756   342403 
 6288000   0.76117753   -3.2444563   -1.7804404  0.046006847   -3.2444563    1.4640158   342417 
 6289000   0.76069906   -3.2440872   -1.7807224  0.044272511   -3.2440872    1.4633648   342354 
 6290000   0.76165639   -3.2448936   -1.7795288  0.044728251   -3.2448936    1.4653648   342317 
 6291000   0.76041191   -3.2438027   -1.7806655  0.048833573   -3.2438027    1.4631372   342278 
 6292000   0.76175118   -3.2461137   -1.7803996  0.052722776   -3.2461137    1.4657141   342278 
 6293000   0.76196425   -3.2480724   -1.7817426  0.051326558   -3.2480724    1.4663298   342230 
 6294000   0.76193188   -3.2478308    -1.781542  0.048781087   -3.2478308    1.4662889   342225 
 6295000   0.76162349   -3.2460662   -1.7802808   0.04945749   -3.2460662    1.4657854   342204 
 6296000   0.76228215    -3.246315   -1.7791892  0.044468858    -3.246315    1.4671259   342187 
 6297000   0.76126194   -3.2463468   -1.7811631  0.046281418   -3.2463468    1.4651837   342182 
 6298000   0.76053827   -3.2443405    -1.780494  0.043093461   -3.2443405    1.4638465   342169 
 6299000   0.76131196   -3.2463072   -1.7808644  0.042541897   -3.2463072    1.4654428   342144 
 6300000   0.76187072   -3.2451566   -1.7786383  0.044743152   -3.2451566    1.4665183   342144 
 6301000   0.76190019   -3.2452935   -1.7788514   0.04463721   -3.2452935    1.4664422   342175 
 6302000    0.7610422   -3.2443866   -1.7795145  0.048945911   -3.2443866    1.4648721   342156 
 6303000   0.76339915   -3.2481792   -1.7785942  0.047772185   -3.2481792    1.4695849   342115 
 6304000   0.76269255   -3.2467529   -1.7785325  0.045516631   -3.2467529    1.4682204   342116 
 6305000    0.7611861   -3.2428718   -1.7775214  0.046668636   -3.2428718    1.4653504   342109 
 6306000   0.76280761   -3.2458102   -1.7769003  0.046111217   -3.2458102    1.4689099   342007 
 6307000   0.76195519   -3.2460568   -1.7787884  0.041804891   -3.2460568    1.4672684   342007 
 6308000   0.76129414   -3.2460662   -1.7798564  0.043699402   -3.2460662    1.4662098   341957 
 6309000   0.76129287   -3.2446585   -1.7784082  0.045673249   -3.2446585    1.4662502   341947 
 6310000   0.76206486   -3.2460594   -1.7782493  0.044181088   -3.2460594    1.4678101   341930 
 6311000    0.7612382   -3.2421879   -1.7759229  0.048009006   -3.2421879     1.466265   341919 
 6312000   0.75996389   -3.2426058   -1.7787311  0.044229643   -3.2426058    1.4638747   341904 
 6313000   0.75985707   -3.2423776   -1.7786745  0.046511984   -3.2423776    1.4637032   341896 
 6314000   0.75994558   -3.2405436   -1.7766742  0.046517956   -3.2405436    1.4638694   341897 
 6315000   0.75935673   -3.2402522   -1.7773245  0.041996186   -3.2402522    1.4629277   341852 
 6316000   0.75891615   -3.2404696   -1.7782795  0.047725586   -3.2404696    1.4621901   341826 
 6317000   0.76019785   -3.2431889    -1.778298  0.044694022   -3.2431889    1.4648909   341772 
 6318000   0.75861433   -3.2403629   -1.7786517  0.050464676   -3.2403629    1.4617112   341802 
 6319000    0.7625511   -3.2467856   -1.7772697  0.041541688   -3.2467856    1.4695159   341751 
 6320000   0.76151287   -3.2464567   -1.7784734  0.047567003   -3.2464567    1.4679833   341642 
 6321000   0.75981185   -3.2440627   -1.7792341   0.04403916   -3.2440627    1.4648286   341613 
 6322000   0.76233539   -3.2470738   -1.7774705  0.042381734   -3.2470738    1.4696033   341634 
 6323000   0.76158354   -3.2455866   -1.7772307  0.043564739   -3.2455866    1.4683559   341587 
 6324000   0.76082537   -3.2452757   -1.7782999  0.046359446   -3.2452757    1.4669758   341568 
 6325000   0.75996616   -3.2464439   -1.7808717  0.043671993   -3.2464439    1.4655722   341509 
 6326000   0.75917507   -3.2442572   -1.7801548   0.03989281   -3.2442572    1.4641024   341496 
 6327000   0.75881827   -3.2417505   -1.7782548  0.050984899   -3.2417505    1.4634957   341477 
 6328000   0.75950671   -3.2433074   -1.7782652  0.047656909   -3.2433074    1.4650423   341426 
 6329000   0.75972758   -3.2435053   -1.7778567  0.047658972   -3.2435053    1.4656486   341384 
 6330000   0.75985818   -3.2439686   -1.7779006  0.047254905   -3.2439686    1.4660681   341345 
 6331000   0.75893595   -3.2426699    -1.778098  0.045703379   -3.2426699    1.4645719   341279 
 6332000    0.7583651   -3.2410498   -1.7775023  0.045591646   -3.2410498    1.4635475   341261 
 6333000   0.75919237   -3.2420349   -1.7769038  0.048967729   -3.2420349    1.4651311   341264 
 6334000   0.75786882   -3.2407399   -1.7780774  0.052043375   -3.2407399    1.4626626   341244 
 6335000   0.75866156    -3.243232   -1.7786875  0.044550622    -3.243232    1.4645445   341162 
 6336000   0.75899464   -3.2433709   -1.7782736  0.049991621   -3.2433709    1.4650973   341183 
 6337000   0.75879629   -3.2413583   -1.7765194  0.047633067   -3.2413583    1.4648389   341154 
 6338000   0.75986669     -3.24249   -1.7755675  0.050175323     -3.24249    1.4669225   341150 
 6339000   0.75919652   -3.2432782   -1.7775421  0.043100206   -3.2432782    1.4657361   341125 
 6340000    0.7586712   -3.2432254   -1.7783102  0.046385045   -3.2432254    1.4649152   341080 
 6341000   0.75910656   -3.2433659   -1.7775155  0.045323134   -3.2433659    1.4658504   341058 
 6342000   0.75960066   -3.2426607   -1.7757057  0.044253015   -3.2426607     1.466955   341023 
 6343000    0.7573408   -3.2380306   -1.7752168  0.043749828   -3.2380306    1.4628138   340971 
 6344000   0.75906215   -3.2412442   -1.7748519  0.046801476   -3.2412442    1.4663923   340912 
 6345000   0.76074755   -3.2433771    -1.773565   0.04507571   -3.2433771    1.4698121   340874 
 6346000   0.76028884    -3.244385   -1.7753644  0.050920803    -3.244385    1.4690207   340852 
 6347000   0.76005963   -3.2431434   -1.7745656  0.044592115   -3.2431434    1.4685778   340852 
 6348000   0.76013268   -3.2431774   -1.7744369  0.044827461   -3.2431774    1.4687405   340847 
 6349000   0.75840332   -3.2399581   -1.7743571  0.048113816   -3.2399581    1.4656011   340800 
 6350000   0.75814717   -3.2404222   -1.7752602  0.047629675   -3.2404222     1.465162   340787 
 6351000   0.75752612   -3.2397395   -1.7756489  0.042758363   -3.2397395    1.4640906   340757 
 6352000   0.75612603   -3.2381716    -1.776684  0.044461012   -3.2381716    1.4614876   340733 
 6353000   0.75615114    -3.237473   -1.7757825  0.043207946    -3.237473    1.4616905   340697 
 6354000   0.75746548   -3.2409323   -1.7765334  0.042115335   -3.2409323    1.4643989   340658 
 6355000   0.75846593   -3.2433093   -1.7767653  0.044775187   -3.2433093     1.466544   340609 
 6356000   0.75682199   -3.2369529   -1.7735747   0.04551392   -3.2369529    1.4633782   340606 
 6357000   0.75703146   -3.2385388   -1.7745664  0.046699461   -3.2385388    1.4639723   340562 
 6358000   0.75794572   -3.2411534   -1.7753054  0.046118227   -3.2411534     1.465848   340537 
 6359000   0.75727456   -3.2388583   -1.7743126  0.044900942   -3.2388583    1.4645457   340538 
 6360000   0.75709461   -3.2389012   -1.7745401  0.048138122   -3.2389012     1.464361   340500 
 6361000   0.75741752   -3.2405019   -1.7752753  0.044032409   -3.2405019    1.4652266   340444 
 6362000    0.7564423   -3.2409458   -1.7775284  0.039550272   -3.2409458    1.4634174   340426 
 6363000   0.75594888   -3.2393414    -1.776913  0.041823034   -3.2393414    1.4624285   340434 
 6364000   0.75453603    -3.238401   -1.7785599  0.045903653    -3.238401     1.459841   340400 
 6365000   0.75639093   -3.2395559    -1.776212  0.042323307   -3.2395559    1.4633438   340420 
 6366000   0.75506972   -3.2381981   -1.7771142  0.043434364   -3.2381981    1.4610839   340351 
 6367000   0.75541063   -3.2388251   -1.7770343   0.04719071   -3.2388251    1.4617908   340340 
 6368000   0.75714831   -3.2420811   -1.7768761  0.043985655   -3.2420811    1.4652051   340328 
 6369000   0.75692349    -3.238679   -1.7739219  0.043487849    -3.238679    1.4647571   340331 
 6370000   0.75820802    -3.240606   -1.7732726  0.041911415    -3.240606    1.4673334   340310 
 6371000   0.75784619   -3.2390854    -1.772435  0.046946126   -3.2390854    1.4666504   340306 
 6372000   0.75885034   -3.2426776   -1.7738292  0.047840759   -3.2426776    1.4688484   340247 
 6373000   0.75920841   -3.2432627   -1.7734361  0.043898634   -3.2432627    1.4698265   340181 
 6374000   0.75870716   -3.2412876    -1.772276  0.047452276   -3.2412876    1.4690116   340145 
 6375000   0.75887847   -3.2421028   -1.7728762  0.047944293   -3.2421028    1.4692267   340172 
 6376000   0.75746413    -3.240517   -1.7737915  0.046235897    -3.240517    1.4667256   340117 
 6377000   0.75760089    -3.241553   -1.7745971   0.05039486    -3.241553    1.4669559   340125 
 6378000   0.75607976   -3.2401283   -1.7759155  0.041169392   -3.2401283    1.4642128   340078 
 6379000   0.75547712   -3.2405702   -1.7772749  0.044012456   -3.2405702    1.4632953   340020 
 6380000   0.75501806   -3.2388013   -1.7763005  0.044387241   -3.2388013    1.4625008   339998 
 6381000   0.75246414   -3.2354401    -1.777642  0.045513338   -3.2354401    1.4577981   339941 
 6382000   0.75452643    -3.239156   -1.7773453  0.046300657    -3.239156    1.4618108   339937 
 6383000   0.75580342   -3.2398255    -1.775433  0.045281091   -3.2398255    1.4643925   339912 
 6384000   0.75482992    -3.237256   -1.7746722  0.046867201    -3.237256    1.4625837   339894 
 6385000   0.75617582   -3.2380079   -1.7728293  0.045691271   -3.2380079    1.4651787   339897 
 6386000   0.75691764   -3.2405581   -1.7738557  0.043930477   -3.2405581    1.4667023   339877 
 6387000   0.75622952    -3.241373   -1.7757454  0.042258851    -3.241373    1.4656277   339817 
 6388000   0.75531444    -3.238755   -1.7747716  0.049438124    -3.238755    1.4639834   339787 
 6389000   0.75585864    -3.239581   -1.7743315  0.049409319    -3.239581    1.4652495   339738 
 6390000   0.75455303    -3.238941   -1.7760846  0.046257485    -3.238941    1.4628563   339706 
 6391000   0.75429831   -3.2415418   -1.7791362  0.041520628   -3.2415418    1.4624056   339696 
 6392000   0.75380325   -3.2404229   -1.7788996  0.045329184   -3.2404229    1.4615232   339678 
 6393000   0.75463841   -3.2414592   -1.7780755  0.042450552   -3.2414592    1.4633837   339622 
 6394000   0.75338106   -3.2396967   -1.7786178  0.045946974   -3.2396967    1.4610789   339591 
 6395000   0.75428143    -3.241227   -1.7782771  0.041995436    -3.241227    1.4629499   339562 
 6396000   0.75451995   -3.2420004   -1.7786439   0.04866342   -3.2420004    1.4633565   339575 
 6397000   0.75414348     -3.23861   -1.7759448  0.046213591     -3.23861    1.4626651   339566 
 6398000   0.75501828   -3.2393553   -1.7749116  0.048231932   -3.2393553    1.4644438   339547 
 6399000   0.75596294   -3.2417077   -1.7753108  0.046387139   -3.2417077     1.466397   339519 
 6400000   0.75558259    -3.240682   -1.7749581   0.04959963    -3.240682    1.4657239   339504 
 6401000    0.7554432    -3.244013    -1.778417  0.045861561    -3.244013     1.465596   339471 
 6402000   0.75561694   -3.2426631   -1.7766566  0.051765122   -3.2426631    1.4660065   339454 
 6403000   0.75346835   -3.2394817   -1.7773854  0.044862593   -3.2394817    1.4620963   339394 
 6404000   0.75461356   -3.2404102   -1.7761822   0.04579317   -3.2404102     1.464228   339415 
 6405000   0.75441827    -3.239587   -1.7759363  0.048560237    -3.239587    1.4636507   339461 
 6406000   0.75349182   -3.2388391   -1.7770633  0.049966077   -3.2388391    1.4617758   339479 
 6407000   0.75446431   -3.2430614   -1.7790151  0.045495205   -3.2430614    1.4640462   339390 
 6408000   0.75412946   -3.2422628   -1.7787973  0.043716377   -3.2422628    1.4634654   339374 
 6409000   0.75541257   -3.2448572   -1.7788456  0.046273098   -3.2448572    1.4660116   339361 
 6410000   0.75513277   -3.2423672    -1.776877  0.050276614   -3.2423672    1.4654902   339356 
 6411000   0.75430273   -3.2412984   -1.7774018  0.048157731   -3.2412984    1.4638966   339352 
 6412000   0.75583039   -3.2441902   -1.7769959  0.053478906   -3.2441902    1.4671943   339275 
 6413000   0.75446185   -3.2410174   -1.7761472  0.047668581   -3.2410174    1.4648702   339198 
 6414000   0.75497466   -3.2420911   -1.7762944  0.043942893   -3.2420911    1.4657967   339214 
 6415000   0.75378698   -3.2418825   -1.7783183  0.045307209   -3.2418825    1.4635641   339197 
 6416000   0.75345906   -3.2420903   -1.7789645  0.043059387   -3.2420903    1.4631259   339151 
 6417000   0.75316351   -3.2399481    -1.777366  0.046928179   -3.2399481    1.4625821   339144 
 6418000   0.75497662   -3.2441663   -1.7781367  0.041476856   -3.2441663    1.4660296   339161 
 6419000   0.75435042   -3.2414503    -1.776572  0.042495492   -3.2414503    1.4648784   339146 
 6420000   0.75459324   -3.2412464   -1.7756458    0.0469877   -3.2412464    1.4656005   339088 
 6421000   0.75507528   -3.2402202   -1.7734974  0.043823341   -3.2402202    1.4667228   339045 
 6422000   0.75529178   -3.2400033   -1.7727821  0.044789105   -3.2400033    1.4672212   339027 
 6423000   0.75446104   -3.2392826   -1.7735973  0.046121929   -3.2392826    1.4656853   339009 
 6424000   0.75436404   -3.2385895   -1.7729803  0.045550789   -3.2385895    1.4656092   338983 
 6425000   0.75395015    -3.234891   -1.7701896  0.050492586    -3.234891    1.4647014   339007 
 6426000   0.75468595    -3.235837    -1.769624  0.046608388    -3.235837     1.466213   338988 
 6427000    0.7540424   -3.2351582   -1.7702214  0.046567273   -3.2351582    1.4649368   338994 
 6428000   0.75455646   -3.2349183   -1.7688963  0.043388356   -3.2349183     1.466022   338974 
 6429000    0.7539707     -3.23512   -1.7703484  0.043162209     -3.23512    1.4647716   339000 
 6430000   0.75384967   -3.2327815   -1.7683617  0.046862236   -3.2327815    1.4644198   339027 
 6431000   0.75465814   -3.2342025   -1.7682338   0.04078442   -3.2342025    1.4659687   339032 
 6432000   0.75308788   -3.2292805   -1.7663233   0.04568262   -3.2292805    1.4629572   339023 
 6433000   0.75423005   -3.2322429   -1.7667686   0.04531229   -3.2322429    1.4654743   338954 
 6434000   0.75454033   -3.2321948   -1.7661306  0.043484655   -3.2321948    1.4660642   338957 
 6435000   0.75552557   -3.2347537   -1.7665803  0.045400624   -3.2347537    1.4681734   338912 
 6436000   0.75660933   -3.2362734   -1.7658464  0.046772053   -3.2362734    1.4704269   338878 
 6437000    0.7561909   -3.2328256     -1.76329  0.049170491   -3.2328256    1.4695357   338896 
 6438000    0.7561406   -3.2331239   -1.7634301  0.047351214   -3.2331239    1.4696938   338837 
 6439000    0.7552753   -3.2310718   -1.7630382  0.047269999   -3.2310718    1.4680336   338832 
 6440000   0.75418773   -3.2302214   -1.7643061  0.046319387   -3.2302214    1.4659154   338833 
 6441000   0.75457914   -3.2305007   -1.7639501  0.050580478   -3.2305007    1.4665506   338862 
 6442000   0.75380939   -3.2289518   -1.7639491  0.047949982   -3.2289518    1.4650027   338874 
 6443000   0.75375042    -3.229794   -1.7646811  0.047927833    -3.229794    1.4651129   338822 
 6444000   0.75499049   -3.2322003    -1.764651  0.044549118   -3.2322003    1.4675493   338816 
 6445000   0.75496162   -3.2323142   -1.7648167  0.041876928   -3.2323142    1.4674975   338815 
 6446000   0.75454028   -3.2323582   -1.7654978  0.052567347   -3.2323582    1.4668603   338773 
 6447000   0.75390121   -3.2318401   -1.7661485  0.048025988   -3.2318401    1.4656915   338756 
 6448000   0.75457036   -3.2326797   -1.7657695  0.044841941   -3.2326797    1.4669102   338775 
 6449000   0.75459816   -3.2335225   -1.7664976   0.04478036   -3.2335225    1.4670248   338761 
 6450000   0.75475141   -3.2343269   -1.7666705   0.04512188   -3.2343269    1.4676564   338684 
 6451000   0.75368449    -3.234365   -1.7687314  0.047481547    -3.234365    1.4656336   338672 
 6452000   0.75436453   -3.2352431   -1.7681484  0.047498443   -3.2352431    1.4670947   338640 
 6453000   0.75452697   -3.2339985   -1.7665402  0.051184055   -3.2339985    1.4674582   338629 
 6454000     0.754458   -3.2344886   -1.7670085   0.04546434   -3.2344886    1.4674801   338593 
 6455000   0.75502338   -3.2339117   -1.7652408  0.047480045   -3.2339117    1.4686709   338572 
 6456000   0.75344837   -3.2339514   -1.7680844  0.046396349   -3.2339514     1.465867   338512 
 6457000   0.75417593   -3.2350034   -1.7675345  0.048092581   -3.2350034    1.4674689   338469 
 6458000   0.75515874   -3.2365693   -1.7670144  0.050624125   -3.2365693    1.4695549   338429 
 6459000   0.75469753   -3.2352207    -1.766546  0.048667703   -3.2352207    1.4686747   338425 
 6460000    0.7556137   -3.2383516   -1.7678114  0.047531363   -3.2383516    1.4705402   338406 
 6461000    0.7540379   -3.2372849   -1.7697724  0.041674714   -3.2372849    1.4675125   338397 
 6462000   0.75401282   -3.2349315   -1.7673941   0.04835519   -3.2349315    1.4675374   338380 
 6463000   0.75284172   -3.2355928   -1.7703781  0.051145627   -3.2355928    1.4652148   338390 
 6464000   0.75273313   -3.2359403   -1.7706468  0.048974243   -3.2359403    1.4652935   338323 
 6465000   0.75262111   -3.2349807   -1.7697883  0.048310912   -3.2349807    1.4651924   338296 
 6466000   0.75244452   -3.2354654   -1.7706298   0.04800168   -3.2354654    1.4648357   338299 
 6467000   0.75383701   -3.2366984   -1.7689349   0.04267922   -3.2366984    1.4677634   338249 
 6468000   0.75226583   -3.2309205   -1.7661686  0.047624363   -3.2309205    1.4647519   338238 
 6469000   0.75348177   -3.2335128   -1.7660853  0.052014261   -3.2335128    1.4674275   338167 
 6470000   0.75311171   -3.2355077   -1.7685363  0.047823459   -3.2355077    1.4669714   338106 
 6471000   0.75241325   -3.2329166   -1.7672537  0.049363788   -3.2329166    1.4656629   338094 
 6472000   0.75212923   -3.2325963   -1.7674953  0.044962539   -3.2325963     1.465101   338096 
 6473000    0.7521765   -3.2321852   -1.7669921  0.045035129   -3.2321852    1.4651931   338096 
 6474000   0.75380843   -3.2343836   -1.7659638  0.042977056   -3.2343836    1.4684198   338085 
 6475000   0.75347299   -3.2324646   -1.7645898  0.047064348   -3.2324646    1.4678749   338060 
 6476000   0.75263296   -3.2321836   -1.7657544  0.050423481   -3.2321836    1.4664292   338016 
 6477000   0.75257958   -3.2324929   -1.7661633   0.04796182   -3.2324929    1.4663296   338015 
 6478000   0.75161951   -3.2318645   -1.7670719  0.045338566   -3.2318645    1.4647926   337938 
 6479000   0.75241401   -3.2313489     -1.76483  0.049483506   -3.2313489    1.4665189   337897 
 6480000   0.75231966   -3.2328084   -1.7664994  0.042207133   -3.2328084     1.466309   337903 
 6481000   0.75197835   -3.2308148   -1.7652274   0.04471562   -3.2308148    1.4655874   337916 
 6482000   0.75313091    -3.234229   -1.7660825     0.047816    -3.234229    1.4681465   337844 
 6483000   0.75232988   -3.2339794   -1.7672686  0.052406591   -3.2339794    1.4667109   337815 
 6484000   0.75164837   -3.2343811   -1.7689078  0.043990195   -3.2343811    1.4654733   337794 
 6485000   0.75315964   -3.2340024   -1.7655435  0.041789478   -3.2340024    1.4684589   337785 
 6486000   0.75129731   -3.2311729   -1.7662496  0.040393401   -3.2311729    1.4649233   337763 
 6487000    0.7507122   -3.2293356   -1.7654232  0.043620582   -3.2293356    1.4639125   337733 
 6488000   0.75345105   -3.2326257   -1.7635159  0.048588081   -3.2326257    1.4691098   337766 
 6489000   0.75255624   -3.2340691   -1.7666606   0.05047217   -3.2340691    1.4674085   337756 
 6490000   0.75364401   -3.2342527   -1.7646927  0.051534323   -3.2342527      1.46956   337749 
 6491000   0.75284057   -3.2319467   -1.7639664  0.049452516   -3.2319467    1.4679803   337752 
 6492000   0.75422986   -3.2327175   -1.7619585  0.049779217   -3.2327175     1.470759   337736 
 6493000   0.75432037   -3.2337863   -1.7627246  0.049738323   -3.2337863    1.4710618   337707 
 6494000   0.75325548   -3.2313559    -1.762323  0.044546269   -3.2313559    1.4690329   337696 
 6495000   0.75260655   -3.2308597   -1.7627446  0.048330353   -3.2308597    1.4681151   337616 
 6496000   0.75255623   -3.2313816   -1.7632733  0.047657946   -3.2313816    1.4681083   337595 
 6497000   0.75301443   -3.2315843   -1.7625909  0.045472494   -3.2315843    1.4689934   337597 
 6498000   0.75187959   -3.2292651   -1.7623074  0.049210533   -3.2292651    1.4669577   337556 
 6499000     0.752585   -3.2308058   -1.7622325  0.042533524   -3.2308058    1.4685733   337501 
 6500000   0.75297306   -3.2311746    -1.761744  0.051692909   -3.2311746    1.4694307   337478 
 6501000   0.75230812   -3.2309911   -1.7629103  0.048288645   -3.2309911    1.4680808   337490 
 6502000   0.75157084   -3.2296189   -1.7628681  0.050673717   -3.2296189    1.4667507   337465 
 6503000   0.75087913   -3.2297446   -1.7642917  0.044064272   -3.2297446    1.4654529   337453 
 6504000   0.74888168   -3.2263859   -1.7647274  0.041649781   -3.2263859    1.4616586   337429 
 6505000   0.75070557   -3.2279166   -1.7626808  0.044134389   -3.2279166    1.4652358   337425 
 6506000   0.75040455   -3.2272956   -1.7625518  0.043491904   -3.2272956    1.4647437   337403 
 6507000   0.75008005   -3.2249424   -1.7607279  0.042919237   -3.2249424    1.4642145   337379 
 6508000    0.7497973   -3.2246285   -1.7607533   0.04619108   -3.2246285    1.4638751   337330 
 6509000   0.75006469     -3.22471   -1.7603302   0.04720357     -3.22471    1.4643798   337334 
 6510000   0.75130001   -3.2272751   -1.7603487  0.049245455   -3.2272751    1.4669264   337303 
 6511000   0.75103081   -3.2275191    -1.761014  0.046550941   -3.2275191    1.4665051   337279 
 6512000   0.74983465   -3.2271115   -1.7627728  0.046076062   -3.2271115    1.4643387   337240 
 6513000   0.75107825   -3.2293642    -1.762636  0.046290897   -3.2293642    1.4667282   337249 
 6514000   0.75159518   -3.2297581    -1.761842   0.05072443   -3.2297581    1.4679162   337208 
 6515000    0.7503207   -3.2282782   -1.7626251  0.049319447   -3.2282782     1.465653   337156 
 6516000    0.7519877   -3.2297998   -1.7607904  0.047182159   -3.2297998    1.4690095   337133 
 6517000   0.75092354   -3.2291282   -1.7620191  0.049384934   -3.2291282    1.4671091   337092 
 6518000   0.75241936   -3.2311425   -1.7611154  0.046672661   -3.2311425    1.4700272   337093 
 6519000   0.75169659   -3.2302264   -1.7615504   0.04712538   -3.2302264    1.4686761   337079 
 6520000   0.75033451   -3.2299346   -1.7638154  0.047126283   -3.2299346    1.4661192   337055 
 6521000   0.75102611   -3.2305729   -1.7629674  0.049361849   -3.2305729    1.4676055   337024 
 6522000   0.75080198   -3.2298237   -1.7625386  0.047566998   -3.2298237    1.4672851   336997 
 6523000   0.75111659   -3.2285616   -1.7605702  0.048745761   -3.2285616    1.4679914   336976 
 6524000   0.75234764   -3.2329687   -1.7624055  0.045465697   -3.2329687    1.4705632   336938 
 6525000   0.75030702   -3.2309308    -1.764539  0.044615782   -3.2309308    1.4663918   336980 
 6526000   0.75015068   -3.2277999   -1.7616353  0.050210748   -3.2277999    1.4661645   336962 
 6527000   0.75063014   -3.2288066   -1.7615264  0.051035876   -3.2288066    1.4672802   336921 
 6528000   0.75171606   -3.2318506   -1.7623561  0.045326735   -3.2318506    1.4694945   336900 
 6529000   0.75231796    -3.230912   -1.7600707  0.047855156    -3.230912    1.4708413   336861 
 6530000   0.75131894   -3.2276613   -1.7589693  0.049035015   -3.2276613     1.468692   336906 
 6531000   0.75037784   -3.2276982   -1.7608677   0.04634858   -3.2276982    1.4668305   336911 
 6532000    0.7502635   -3.2276923   -1.7607979  0.049953541   -3.2276923    1.4668944   336845 
 6533000   0.75104239   -3.2286615   -1.7600219  0.048677609   -3.2286615    1.4686396   336794 
 6534000   0.75046773   -3.2283167   -1.7606832  0.046791829   -3.2283167    1.4676335   336767 
 6535000   0.74924221    -3.227166   -1.7618943  0.046119312    -3.227166    1.4652717   336759 
 6536000   0.74909645    -3.225932   -1.7608845  0.048858318    -3.225932    1.4650475   336745 
 6537000   0.75086418    -3.228949    -1.760309  0.042906043    -3.228949      1.46864   336714 
 6538000   0.74878638   -3.2272434   -1.7624456  0.042516692   -3.2272434    1.4647978   336663 
 6539000   0.74894873   -3.2272887   -1.7620122  0.046723838   -3.2272887    1.4652764   336626 
 6540000   0.74912856   -3.2270339    -1.761201  0.048854293   -3.2270339    1.4658329   336579 
 6541000     0.749214   -3.2268545   -1.7606148  0.049197526   -3.2268545    1.4662397   336524 
 6542000    0.7493702   -3.2271807   -1.7605002  0.048513799   -3.2271807    1.4666805   336493 
 6543000   0.75206636   -3.2318924   -1.7598037  0.046952605   -3.2318924    1.4720887   336463 
 6544000   0.75065449   -3.2290754   -1.7593484  0.054590826   -3.2290754     1.469727   336371 
 6545000   0.75102188   -3.2307681    -1.760195  0.050123902   -3.2307681    1.4705731   336342 
 6546000   0.75122462   -3.2310369   -1.7600493  0.046704289   -3.2310369    1.4709876   336338 
 6547000     0.750824   -3.2299326   -1.7597732  0.052102593   -3.2299326    1.4701594   336348 
 6548000   0.74997467   -3.2283497   -1.7597966  0.049247016   -3.2283497    1.4685531   336335 
 6549000   0.75048404   -3.2292442   -1.7595669  0.047019144   -3.2292442    1.4696773   336306 
 6550000   0.74920154   -3.2273187   -1.7600613  0.052364121   -3.2273187    1.4672574   336285 
 6551000   0.74920537   -3.2266614   -1.7591566  0.047131359   -3.2266614    1.4675049   336230 
 6552000   0.74854572   -3.2259744   -1.7596221  0.044627349   -3.2259744    1.4663523   336198 
 6553000   0.75024982   -3.2281141   -1.7583099  0.045157593   -3.2281141    1.4698042   336172 
 6554000   0.74857705   -3.2276797   -1.7610348  0.050721096   -3.2276797    1.4666449   336145 
 6555000   0.74956352   -3.2287463   -1.7600856  0.047181225   -3.2287463    1.4686607   336126 
 6556000   0.74913691   -3.2273053   -1.7593844  0.044065669   -3.2273053    1.4679209   336104 
 6557000   0.74919628   -3.2268227   -1.7587025  0.045694115   -3.2268227    1.4681202   336085 
 6558000   0.74912832   -3.2274926   -1.7593047  0.045149898   -3.2274926     1.468188   336039 
 6559000   0.74798966   -3.2263381   -1.7601898  0.044393493   -3.2263381    1.4661483   335995 
 6560000   0.74953801   -3.2306698   -1.7616133  0.040890935   -3.2306698    1.4690565   336024 
 6561000   0.74776036   -3.2254084   -1.7598404   0.04833771   -3.2254084     1.465568   336025 
 6562000   0.74907218   -3.2264074   -1.7582246  0.047567888   -3.2264074    1.4681828   336015 
 6563000   0.74913028    -3.227851   -1.7594887  0.046538881    -3.227851    1.4683622   336000 
 6564000   0.74941101   -3.2283278   -1.7593541   0.04787922   -3.2283278    1.4689737   335986 
 6565000   0.75053249   -3.2305294   -1.7592962  0.050446001   -3.2305294    1.4712333   335972 
 6566000   0.74884451   -3.2270661   -1.7591592  0.052267912   -3.2270661    1.4679069   335976 
 6567000   0.74950098   -3.2300966   -1.7607147  0.050134305   -3.2300966    1.4693818   335933 
 6568000   0.74935984    -3.231402   -1.7621788  0.048381626    -3.231402    1.4692232   335906 
 6569000   0.74820127   -3.2308523    -1.763774   0.04285976   -3.2308523    1.4670783   335877 
 6570000   0.74791349   -3.2290152   -1.7623177  0.045043077   -3.2290152    1.4666975   335835 
 6571000   0.74857981   -3.2285689   -1.7607047  0.047471587   -3.2285689    1.4678643   335867 
 6572000   0.74889966   -3.2296325   -1.7610186  0.048100763   -3.2296325    1.4686139   335839 
 6573000   0.75019045   -3.2312147   -1.7598285   0.04815696   -3.2312147    1.4713862   335784 
 6574000   0.75030494   -3.2311044   -1.7594192  0.052230614   -3.2311044    1.4716852   335767 
 6575000   0.74936546   -3.2303234   -1.7606122  0.052697931   -3.2303234    1.4697112   335797 
 6576000   0.75002994    -3.231414   -1.7602726   0.04844645    -3.231414    1.4711414   335768 
 6577000    0.7488073   -3.2301607   -1.7613343  0.043628655   -3.2301607    1.4688264   335749 
 6578000   0.74816788   -3.2297006   -1.7620104  0.047665512   -3.2297006    1.4676902   335722 
 6579000   0.74766169    -3.229785   -1.7628693  0.047300935    -3.229785    1.4669157   335672 
 6580000   0.74760266   -3.2296991   -1.7627157  0.043270023   -3.2296991    1.4669834   335630 
 6581000   0.74705065   -3.2293604   -1.7633292  0.051684366   -3.2293604    1.4660313   335600 
 6582000   0.74878644   -3.2319593   -1.7624823  0.048324384   -3.2319593     1.469477   335591 
 6583000   0.74816516    -3.231487   -1.7630673  0.047524206    -3.231487    1.4684197   335554 
 6584000   0.74818598   -3.2339751   -1.7652389  0.048134155   -3.2339751    1.4687363   335491 
 6585000   0.74653191   -3.2300303   -1.7646677  0.043075673   -3.2300303    1.4653626   335520 
 6586000   0.74683657   -3.2322003   -1.7660474  0.046615559   -3.2322003    1.4661529   335476 
 6587000   0.74666484   -3.2327166   -1.7667392  0.047853791   -3.2327166    1.4659774   335439 
 6588000   0.74753205   -3.2330075   -1.7651743   0.04905884   -3.2330075    1.4678332   335404 
 6589000    0.7475671   -3.2333266   -1.7653983  0.046896931   -3.2333266    1.4679283   335398 
 6590000   0.74614534   -3.2303505    -1.765179  0.049173439   -3.2303505    1.4651715   335390 
 6591000   0.74777644    -3.235269    -1.766737  0.047286545    -3.235269     1.468532   335354 
 6592000     0.746533    -3.232817   -1.7666875   0.04750762    -3.232817    1.4661294   335345 
 6593000   0.74756953   -3.2335527   -1.7654052  0.043303393   -3.2335527    1.4681476   335349 
 6594000   0.74731921   -3.2327002   -1.7649129  0.051873745   -3.2327002    1.4677873   335319 
 6595000    0.7465012   -3.2311735   -1.7649447  0.048867332   -3.2311735    1.4662287   335308 
 6596000   0.74672701   -3.2334054   -1.7665801   0.05155759   -3.2334054    1.4668254   335273 
 6597000   0.74763496   -3.2353044   -1.7664852  0.048499002   -3.2353044    1.4688192   335225 
 6598000   0.74681386   -3.2327369   -1.7655878  0.051269292   -3.2327369    1.4671491   335238 
 6599000   0.74607364   -3.2321252   -1.7663647   0.04370942   -3.2321252    1.4657605   335223 
 6600000   0.74649488   -3.2330534   -1.7661853  0.050160041   -3.2330534    1.4668682   335159 
 6601000   0.74607043   -3.2353973   -1.7692188  0.046016371   -3.2353973    1.4661785   335126 
 6602000   0.74694824   -3.2364325   -1.7684326   0.04303758   -3.2364325    1.4679999   335104 
 6603000   0.74587597   -3.2340065   -1.7679652  0.049964766   -3.2340065    1.4660413   335070 
 6604000   0.74516878   -3.2323619   -1.7677194  0.047237897   -3.2323619    1.4646426   335072 
 6605000   0.74593008   -3.2323631   -1.7661279   0.04655984   -3.2323631    1.4662352   335050 
 6606000   0.74629912   -3.2351928   -1.7682235  0.044920027   -3.2351928    1.4669693   335048 
 6607000   0.74443092   -3.2321122   -1.7684438   0.04757331   -3.2321122    1.4636684   334963 
 6608000   0.74536243   -3.2360691   -1.7701622  0.042611094   -3.2360691    1.4659069   334870 
 6609000    0.7450545   -3.2350436   -1.7696986  0.042780627   -3.2350436    1.4653451   334860 
 6610000    0.7456576   -3.2344747   -1.7680968  0.045434329   -3.2344747    1.4663779   334895 
 6611000   0.74475631   -3.2328355   -1.7680419   0.04909552   -3.2328355    1.4647936   334852 
 6612000   0.74555042   -3.2343063   -1.7680867  0.046998146   -3.2343063    1.4662197   334883 
 6613000   0.74676045   -3.2358478   -1.7669283  0.053914989   -3.2358478    1.4689196   334810 
 6614000   0.74734183   -3.2363744   -1.7662541  0.051468488   -3.2363744    1.4701203   334797 
 6615000   0.74751763   -3.2375086   -1.7668756  0.052111031   -3.2375086     1.470633   334759 
 6616000   0.74614407    -3.233377   -1.7651744  0.046204979    -3.233377    1.4682027   334697 
 6617000   0.74598246   -3.2341318   -1.7659883  0.044808166   -3.2341318    1.4681435   334638 
 6618000   0.74697259   -3.2366697   -1.7664809  0.046072054   -3.2366697    1.4701887   334616 
 6619000   0.74525919   -3.2350149   -1.7679661  0.049720797   -3.2350149    1.4670488   334563 
 6620000   0.74535114   -3.2372188   -1.7698487  0.045258546   -3.2372188    1.4673702   334531 
 6621000   0.74559628   -3.2367509    -1.768806  0.042434289   -3.2367509    1.4679449   334510 
 6622000   0.74321412   -3.2329644   -1.7696614  0.044057147   -3.2329644     1.463303   334499 
 6623000   0.74405342   -3.2358818   -1.7706022   0.04751883   -3.2358818    1.4652796   334425 
 6624000    0.7432605    -3.232102   -1.7684364  0.049290671    -3.232102    1.4636656   334437 
 6625000   0.74371268   -3.2325993   -1.7679688  0.047284659   -3.2325993    1.4646305   334420 
 6626000   0.74374466   -3.2315556   -1.7667877  0.047285886   -3.2315556    1.4647679   334403 
 6627000   0.74582214    -3.234603   -1.7655414  0.046330832    -3.234603    1.4690615   334357 
 6628000   0.74523015   -3.2344726    -1.766485   0.04610219   -3.2344726    1.4679877   334336 
 6629000   0.74385237   -3.2323351   -1.7669036  0.043028115   -3.2323351    1.4654315   334300 
 6630000   0.74476802   -3.2348012   -1.7673464  0.045679771   -3.2348012    1.4674548   334250 
 6631000   0.74368387   -3.2314315   -1.7660733   0.04823619   -3.2314315    1.4653581   334241 
 6632000   0.74316335   -3.2302792    -1.765881  0.046025278   -3.2302792    1.4643982   334226 
 6633000   0.74355933      -3.2304   -1.7652215  0.047059876      -3.2304    1.4651785   334226 
 6634000   0.74285047   -3.2284046   -1.7645003  0.047845855   -3.2284046    1.4639043   334198 
 6635000   0.74355493   -3.2307317   -1.7653515  0.045328443   -3.2307317    1.4653802   334178 
 6636000    0.7430758   -3.2302413   -1.7658272  0.047154411   -3.2302413    1.4644141   334183 
 6637000   0.74286286   -3.2287438   -1.7647669  0.045399023   -3.2287438    1.4639769   334187 
 6638000   0.74311516   -3.2274863   -1.7629816  0.048694606   -3.2274863    1.4645048   334180 
 6639000   0.74322722   -3.2281143   -1.7632659  0.049887731   -3.2281143    1.4648484   334152 
 6640000   0.74236832    -3.227194   -1.7641304  0.045533311    -3.227194    1.4630636   334173 
 6641000   0.74406319   -3.2280765    -1.761699  0.045911762   -3.2280765    1.4663775   334179 
 6642000   0.74445355   -3.2283295   -1.7610729  0.045026541   -3.2283295    1.4672566   334154 
 6643000   0.74202575    -3.227127   -1.7646204  0.045747753    -3.227127    1.4625066   334146 
 6644000   0.74345344    -3.226687   -1.7612524  0.049169209    -3.226687    1.4654346   334120 
 6645000    0.7420445   -3.2269831   -1.7642031  0.045122272   -3.2269831      1.46278   334092 
 6646000   0.74366775   -3.2295813   -1.7635356  0.046631595   -3.2295813    1.4660457   334077 
 6647000   0.74530477   -3.2301516   -1.7607952  0.049601105   -3.2301516    1.4693564   334058 
 6648000   0.74459134    -3.230085   -1.7619417  0.050939285    -3.230085    1.4681433   334014 
 6649000   0.74404963   -3.2296829   -1.7625902  0.047039575   -3.2296829    1.4670927   334010 
 6650000   0.74289726   -3.2297517   -1.7646811  0.044444516   -3.2297517    1.4650706   333953 
 6651000   0.74387266   -3.2311514   -1.7638936  0.048115911   -3.2311514    1.4672578   333893 
 6652000   0.74446265   -3.2335545   -1.7650319  0.048498701   -3.2335545    1.4685227   333870 
 6653000   0.74402142   -3.2308063   -1.7631452  0.045666748   -3.2308063    1.4676611   333868 
 6654000    0.7457713   -3.2331458   -1.7618962  0.049110779   -3.2331458    1.4712495   333837 
 6655000   0.74394805   -3.2309099   -1.7631914  0.052333358   -3.2309099    1.4677186   333822 
 6656000   0.74440777   -3.2322496   -1.7635097  0.052077233   -3.2322496    1.4687399   333796 
 6657000   0.74385452   -3.2315398   -1.7639222  0.052078748   -3.2315398    1.4676176   333803 
 6658000   0.74500264     -3.23516   -1.7649997  0.048275175     -3.23516    1.4701603   333740 
 6659000   0.74283232   -3.2310369   -1.7649881  0.049352041   -3.2310369    1.4660488   333701 
 6660000   0.74422215   -3.2319868   -1.7632171  0.049344319   -3.2319868    1.4687697   333706 
 6661000    0.7424148   -3.2323395   -1.7671499  0.051407976   -3.2323395    1.4651896   333709 
 6662000   0.74315358   -3.2319063    -1.765096  0.046817416   -3.2319063    1.4668103   333672 
 6663000   0.74289435   -3.2325142   -1.7662156  0.050444174   -3.2325142    1.4662986   333672 
 6664000   0.74300001   -3.2320631   -1.7654813  0.046360841   -3.2320631    1.4665819   333655 
 6665000   0.74319376   -3.2318558   -1.7647552   0.04377779   -3.2318558    1.4671006   333624 
 6666000   0.74182583   -3.2279052   -1.7633688  0.042240662   -3.2279052    1.4645364   333593 
 6667000   0.74268252   -3.2288029   -1.7625796  0.046374059   -3.2288029    1.4662233   333594 
 6668000   0.74320275   -3.2315457   -1.7639831  0.045956795   -3.2315457    1.4675626   333523 
 6669000   0.74213659   -3.2292009   -1.7637787  0.043290101   -3.2292009    1.4654222   333531 
 6670000   0.74188907   -3.2279884   -1.7630374  0.044498774   -3.2279884     1.464951   333527 
 6671000       0.7416   -3.2275123   -1.7631453  0.046471234   -3.2275123     1.464367   333530 
 6672000   0.74068068   -3.2243438   -1.7616561  0.047637194   -3.2243438    1.4626877   333499 
 6673000    0.7418695   -3.2269649   -1.7618592  0.042682327   -3.2269649    1.4651057   333483 
 6674000    0.7416166   -3.2270016    -1.762246  0.045219817   -3.2270016    1.4647556   333449 
 6675000   0.74039265   -3.2271369    -1.764575  0.040483665   -3.2271369    1.4625618   333398 
 6676000   0.74113411    -3.225944   -1.7617945   0.04920622    -3.225944    1.4641495   333370 
 6677000   0.74198281   -3.2283442   -1.7624521  0.044311913   -3.2283442    1.4658921   333355 
 6678000   0.74197987   -3.2279808   -1.7620593  0.045056512   -3.2279808    1.4659215   333347 
 6679000    0.7425633    -3.230441   -1.7630984  0.044553042    -3.230441    1.4673426   333286 
 6680000   0.74261865   -3.2309703   -1.7635667  0.044289708   -3.2309703    1.4674036   333297 
 6681000   0.74188386   -3.2296897   -1.7635621  0.045577385   -3.2296897    1.4661276   333257 
 6682000   0.74213614   -3.2283997   -1.7616943  0.043387427   -3.2283997    1.4667054   333239 
 6683000   0.74306451   -3.2302216   -1.7615801  0.048428618   -3.2302216    1.4686415   333216 
 6684000   0.74183956    -3.229178   -1.7629135  0.050798523    -3.229178    1.4662645   333206 
 6685000    0.7419639   -3.2279959   -1.7614372  0.047814755   -3.2279959    1.4665586   333195 
 6686000   0.74217148   -3.2291754   -1.7620876  0.051255671   -3.2291754    1.4670878   333168 
 6687000    0.7405924   -3.2281817   -1.7640264  0.045328784   -3.2281817    1.4641553   333125 
 6688000   0.74111998   -3.2290786   -1.7637615  0.047737194   -3.2290786    1.4653171   333098 
 6689000    0.7418568   -3.2302601   -1.7631646  0.048831064   -3.2302601    1.4670955   333025 
 6690000   0.74155474   -3.2308937   -1.7642415  0.043589315   -3.2308937    1.4666523   332990 
 6691000   0.74032998   -3.2283093   -1.7637363  0.050977635   -3.2283093     1.464573   332912 
 6692000    0.7410731    -3.231048   -1.7647627  0.045920205    -3.231048    1.4662853   332857 
 6693000   0.74046378   -3.2278075   -1.7627806  0.043615509   -3.2278075    1.4650269   332869 
 6694000   0.74004172   -3.2279123    -1.763606  0.044891525   -3.2279123    1.4643062   332843 
 6695000     0.740549   -3.2290166   -1.7634601  0.046004548   -3.2290166    1.4655565   332787 
 6696000   0.73927148   -3.2281207   -1.7650748  0.047139567   -3.2281207    1.4630459   332783 
 6697000   0.74033597   -3.2310109   -1.7657791  0.046711936   -3.2310109    1.4652318   332765 
 6698000   0.73987435   -3.2295182   -1.7649359  0.043137152   -3.2295182    1.4645823   332705 
 6699000   0.74033158   -3.2297902    -1.764272  0.040643781   -3.2297902    1.4655182   332698 
 6700000   0.74024061    -3.228586   -1.7631201   0.04705882    -3.228586    1.4654659   332669 
 6701000   0.73987409   -3.2268198   -1.7621676  0.047954486   -3.2268198    1.4646522   332689 
 6702000   0.74131221   -3.2300221   -1.7624083  0.046951641   -3.2300221    1.4676138   332663 
 6703000   0.74098009   -3.2304905   -1.7632651  0.049474995   -3.2304905    1.4672253   332602 
 6704000   0.74064741   -3.2287463   -1.7620122  0.048129659   -3.2287463    1.4667342   332564 
 6705000   0.74069961    -3.229983   -1.7629999  0.049242498    -3.229983    1.4669831   332531 
 6706000   0.74117998    -3.231363   -1.7633093  0.043084881    -3.231363    1.4680537   332504 
 6707000   0.73972087   -3.2312526   -1.7660626  0.044590106   -3.2312526    1.4651901   332498 
 6708000   0.73859512   -3.2250402   -1.7619083  0.042567123   -3.2250402    1.4631319   332459 
 6709000   0.73949822   -3.2271597   -1.7621816  0.047780093   -3.2271597    1.4649782   332446 
 6710000   0.74062583   -3.2297302   -1.7623638  0.049387742   -3.2297302    1.4673665   332411 
 6711000   0.74054072   -3.2291815   -1.7619395  0.051225544   -3.2291815     1.467242   332401 
 6712000    0.7383834   -3.2255167   -1.7624214  0.042239328   -3.2255167    1.4630953   332372 
 6713000   0.74078373   -3.2292621    -1.761543  0.044604304   -3.2292621    1.4677191   332402 
 6714000   0.74129431   -3.2300037    -1.761326  0.042664857   -3.2300037    1.4686777   332414 
 6715000     0.738532   -3.2263933   -1.7629815  0.043641712   -3.2263933    1.4634118   332367 
 6716000   0.73977466   -3.2274702   -1.7615255  0.045263707   -3.2274702    1.4659447   332351 
 6717000   0.73838196   -3.2247848   -1.7613973  0.048220968   -3.2247848    1.4633875   332305 
 6718000     0.739146   -3.2280724   -1.7630296  0.043870449   -3.2280724    1.4650428   332273 
 6719000   0.73904411   -3.2268541   -1.7620838  0.044625754   -3.2268541    1.4647703   332289 
 6720000   0.74008409   -3.2288346   -1.7618397  0.046481731   -3.2288346    1.4669949   332252 
 6721000    0.7389407   -3.2260149   -1.7611365  0.044586699   -3.2260149    1.4648784   332218 
 6722000   0.74056234   -3.2301812    -1.761876  0.045221748   -3.2301812    1.4683052   332170 
 6723000   0.74006907   -3.2296758   -1.7623795  0.042003072   -3.2296758    1.4672963   332177 
 6724000   0.73940836   -3.2300225   -1.7639522  0.043896429   -3.2300225    1.4660702   332158 
 6725000   0.73864277   -3.2271483   -1.7626093  0.044298154   -3.2271483     1.464539   332161 
 6726000   0.73935653   -3.2291347   -1.7631628  0.045055181   -3.2291347    1.4659719   332157 
 6727000    0.7383188   -3.2300888   -1.7661834  0.043794171   -3.2300888    1.4639055   332159 
 6728000   0.73845075   -3.2318047   -1.7675715  0.043208941   -3.2318047    1.4642332   332144 
 6729000   0.73788794   -3.2307822   -1.7674843  0.046100908   -3.2307822    1.4632979   332103 
 6730000   0.73873726   -3.2320731   -1.7669542  0.045556492   -3.2320731    1.4651189   332072 
 6731000   0.73808108   -3.2317608   -1.7677713  0.048639616   -3.2317608    1.4639895   332033 
 6732000   0.73887805   -3.2329046   -1.7670871  0.046880419   -3.2329046    1.4658175   331977 
 6733000   0.73782174     -3.23028   -1.7665361  0.046221262     -3.23028     1.463744   331972 
 6734000   0.73889786   -3.2316038   -1.7655395  0.046601999   -3.2316038    1.4660643   331930 
 6735000   0.73857483   -3.2308651    -1.765424   0.04581759   -3.2308651    1.4654411   331926 
 6736000   0.73906637   -3.2323384   -1.7660236  0.050464061   -3.2323384    1.4663148   331949 
 6737000    0.7376043   -3.2287244   -1.7653501  0.048998867   -3.2287244    1.4633743   331958 
 6738000   0.74018563   -3.2319543   -1.7633127  0.048942098   -3.2319543    1.4686416   331925 
 6739000   0.73881511   -3.2302379    -1.764108  0.053099096   -3.2302379    1.4661298   331878 
 6740000   0.73942735   -3.2326953   -1.7653018  0.044648499   -3.2326953    1.4673934   331867 
 6741000   0.73981325   -3.2333462   -1.7649436   0.04923185   -3.2333462    1.4684026   331812 
 6742000   0.73867134    -3.230935   -1.7645823  0.049728621    -3.230935    1.4663527   331763 
 6743000   0.74032159   -3.2332946    -1.763697  0.048207782   -3.2332946    1.4695976   331770 
 6744000   0.73909067   -3.2311888    -1.764132  0.048975154   -3.2311888    1.4670568   331792 
 6745000   0.73818557    -3.228835   -1.7635393  0.045945963    -3.228835    1.4652956   331784 
 6746000    0.7388651   -3.2296673   -1.7627089  0.048181219   -3.2296673    1.4669584   331713 
 6747000   0.73861251   -3.2289703   -1.7625797  0.046013206   -3.2289703    1.4663906   331728 
 6748000   0.73802473   -3.2262127   -1.7610067  0.041948845   -3.2262127     1.465206   331732 
 6749000   0.73841496   -3.2281764   -1.7619659  0.044692201   -3.2281764    1.4662105   331680 
 6750000   0.73661494   -3.2256015   -1.7628064  0.046719507   -3.2256015    1.4627951   331644 
 6751000   0.73789447   -3.2268087   -1.7614991  0.042692208   -3.2268087    1.4653096   331650 
 6752000   0.73570536   -3.2231973   -1.7621248  0.045490547   -3.2231973    1.4610726   331625 
 6753000   0.73655493   -3.2245528   -1.7614886  0.040178696   -3.2245528    1.4630642   331556 
 6754000    0.7360569   -3.2248179   -1.7627121  0.044174933   -3.2248179    1.4621058   331549 
 6755000    0.7359488   -3.2247265   -1.7629193  0.039739404   -3.2247265    1.4618073   331568 
 6756000    0.7360336   -3.2252872   -1.7630998  0.046024866   -3.2252872    1.4621874   331520 
 6757000   0.73739588   -3.2270008    -1.762169  0.044360548   -3.2270008    1.4648318   331534 
 6758000   0.73806834   -3.2280739   -1.7617072   0.04316111   -3.2280739    1.4663667   331489 
 6759000     0.737513   -3.2259408   -1.7603502  0.048138741   -3.2259408    1.4655905   331415 
 6760000   0.73943865   -3.2287234   -1.7592929  0.046175299   -3.2287234    1.4694305   331412 
 6761000   0.73853291   -3.2280016   -1.7601496  0.046216174   -3.2280016     1.467852   331362 
 6762000   0.73811294     -3.22925   -1.7621042  0.047729601     -3.22925    1.4671457   331333 
 6763000   0.73741751   -3.2279289   -1.7619354  0.048421158   -3.2279289    1.4659935   331281 
 6764000    0.7388131   -3.2294224   -1.7605924  0.045472754   -3.2294224      1.46883   331267 
 6765000   0.73761946   -3.2310312   -1.7643263  0.045744285   -3.2310312    1.4667049   331211 
 6766000   0.73870177    -3.233721   -1.7648552  0.050103002    -3.233721    1.4688659   331209 
 6767000   0.73818435   -3.2324372   -1.7646135   0.04693525   -3.2324372    1.4678237   331212 
 6768000   0.73889357   -3.2350996   -1.7657636   0.05014961   -3.2350996     1.469336   331189 
 6769000   0.73694105   -3.2325517   -1.7668904  0.045913348   -3.2325517    1.4656613   331142 
 6770000   0.73689385   -3.2301073   -1.7644027  0.053193881   -3.2301073    1.4657046   331111 
 6771000   0.73689289    -3.230097   -1.7644164  0.046630397    -3.230097    1.4656806   331116 
 6772000   0.73664697   -3.2288971   -1.7637057  0.046406749   -3.2288971    1.4651914   331116 
 6773000   0.73763437   -3.2302867    -1.763087  0.044847917   -3.2302867    1.4671997   331106 
 6774000   0.73930657   -3.2337783    -1.763399  0.047693067   -3.2337783    1.4703793   331139 
 6775000   0.73729237   -3.2292913   -1.7627895  0.044971345   -3.2292913    1.4665017   331110 
 6776000   0.73703887   -3.2294139   -1.7633588  0.049029318   -3.2294139     1.466055   331097 
 6777000   0.73791636   -3.2305021   -1.7625109  0.047990595   -3.2305021    1.4679911   331054 
 6778000   0.73754107   -3.2286097   -1.7614006  0.048267254   -3.2286097    1.4672091   331062 
 6779000   0.73817369   -3.2302523   -1.7616738  0.041880738   -3.2302523    1.4685785   331037 
 6780000   0.73583138   -3.2268391   -1.7625977  0.042662302   -3.2268391    1.4642414   330964 
 6781000   0.73603137   -3.2268923   -1.7621201  0.047571497   -3.2268923    1.4647721   330934 
 6782000   0.73687589   -3.2259512   -1.7595117  0.043830291   -3.2259512    1.4664395   330937 
 6783000   0.73569432   -3.2248968   -1.7606981  0.044590485   -3.2248968    1.4641987   330912 
 6784000   0.73757892   -3.2271992   -1.7593296  0.046213756   -3.2271992    1.4678696   330930 
 6785000   0.73535975   -3.2224712   -1.7587614  0.048048793   -3.2224712    1.4637098   330872 
 6786000   0.73616164   -3.2259314   -1.7605901  0.040755477   -3.2259314    1.4653413   330864 
 6787000    0.7354409   -3.2244088   -1.7605065  0.043167251   -3.2244088    1.4639023   330865 
 6788000   0.73686398   -3.2265815    -1.759687  0.042948814   -3.2265815    1.4668945   330829 
 6789000   0.73618678   -3.2247671   -1.7592739  0.043083026   -3.2247671    1.4654932   330841 
 6790000   0.73585604   -3.2235909   -1.7586188  0.045124843   -3.2235909    1.4649721   330810 
 6791000   0.73750685   -3.2255842   -1.7574853  0.044296546   -3.2255842    1.4680989   330846 
 6792000   0.73832734    -3.225779   -1.7557624  0.048147494    -3.225779    1.4700165   330782 
 6793000   0.73881391   -3.2263069   -1.7552949  0.052008063   -3.2263069     1.471012   330776 
 6794000   0.73794364   -3.2247036   -1.7554377  0.048691193   -3.2247036    1.4692659   330779 
 6795000   0.74006892   -3.2267295   -1.7531252  0.054241136   -3.2267295    1.4736043   330755 
 6796000   0.73838144    -3.225521   -1.7551123  0.048422933    -3.225521    1.4704087   330718 
 6797000   0.73703358   -3.2251645   -1.7574177  0.042696502   -3.2251645    1.4677468   330713 
 6798000   0.73651871    -3.223154    -1.756233   0.04842827    -3.223154    1.4669211   330668 
 6799000   0.73711184   -3.2247144   -1.7564077  0.043457504   -3.2247144    1.4683067   330622 
 6800000   0.73720408    -3.224409   -1.7557275  0.045784016    -3.224409    1.4686814   330579 
 6801000    0.7372943   -3.2241208   -1.7552463  0.045906373   -3.2241208    1.4688745   330576 
 6802000    0.7370755   -3.2235072   -1.7549398  0.045113768   -3.2235072    1.4685674   330547 
 6803000   0.73649562   -3.2233204   -1.7558773  0.048929264   -3.2233204    1.4674431   330540 
 6804000   0.73637227   -3.2237321   -1.7563749  0.050068662   -3.2237321    1.4673572   330504 
 6805000   0.73534643    -3.220939   -1.7554132  0.049526944    -3.220939    1.4655258   330456 
 6806000   0.73689972   -3.2222358    -1.753601  0.044648921   -3.2222358    1.4686348   330453 
 6807000   0.73835899    -3.222848    -1.751296  0.044600188    -3.222848    1.4715521   330451 
 6808000   0.73622632   -3.2198988   -1.7524329  0.041710104   -3.2198988    1.4674659   330414 
 6809000   0.73644599   -3.2185336   -1.7506698  0.050605564   -3.2185336    1.4678638   330423 
 6810000   0.73739205   -3.2205595   -1.7506632  0.046296232   -3.2205595    1.4698963   330390 
 6811000   0.73609748   -3.2208137   -1.7531693  0.045290821   -3.2208137    1.4676444   330316 
 6812000   0.73589576    -3.220415   -1.7531017  0.045993354    -3.220415    1.4673133   330300 
 6813000   0.73545728   -3.2189088   -1.7523144  0.044776485   -3.2189088    1.4665944   330265 
 6814000   0.73556503   -3.2188788   -1.7518963  0.043375158   -3.2188788    1.4669825   330226 
 6815000   0.73505583   -3.2163125   -1.7501546  0.041766393   -3.2163125    1.4661579   330183 
 6816000   0.73476817   -3.2157022   -1.7501358  0.046477111   -3.2157022    1.4655664   330187 
 6817000   0.73581697   -3.2182027   -1.7504821  0.042864402   -3.2182027    1.4677206   330173 
 6818000   0.73483504   -3.2164846   -1.7506383  0.049001877   -3.2164846    1.4658463   330154 
 6819000   0.73478695   -3.2173466   -1.7513432  0.041383431   -3.2173466    1.4660034   330097 
 6820000   0.73565594    -3.220027   -1.7523432   0.04498495    -3.220027    1.4676838   330109 
 6821000   0.73480756    -3.217487   -1.7514735  0.043303344    -3.217487    1.4660135   330104 
 6822000   0.73578201   -3.2189029   -1.7508742  0.045622623   -3.2189029    1.4680287   330088 
 6823000   0.73638285    -3.218221   -1.7490558  0.046584871    -3.218221    1.4691652   330102 
 6824000   0.73649368   -3.2197183   -1.7501895    0.0440315   -3.2197183    1.4695288   330070 
 6825000   0.73634769   -3.2222149   -1.7530664  0.044937264   -3.2222149    1.4691485   330090 
 6826000   0.73525599   -3.2217248   -1.7544078  0.043764318   -3.2217248    1.4673171   330012 
 6827000   0.73637757   -3.2243962    -1.754832  0.047046635   -3.2243962    1.4695643   330010 
 6828000   0.73659854   -3.2254383   -1.7552326  0.048608481   -3.2254383    1.4702057   329965 
 6829000   0.73700421     -3.22661   -1.7555054  0.040189067     -3.22661    1.4711046   329945 
 6830000   0.73688667   -3.2265168   -1.7556156  0.044887645   -3.2265168    1.4709012   329938 
 6831000   0.73738039   -3.2250979   -1.7531265   0.04699735   -3.2250979    1.4719715   329919 
 6832000   0.73701251   -3.2240479   -1.7527127  0.049628988   -3.2240479    1.4713352   329897 
 6833000   0.73694304   -3.2232919   -1.7517831  0.049664106   -3.2232919    1.4715088   329827 
 6834000   0.73695146   -3.2253111   -1.7536785  0.051518057   -3.2253111    1.4716326   329803 
 6835000   0.73641699   -3.2253379   -1.7547458   0.05085168   -3.2253379    1.4705921   329797 
 6836000   0.73651276   -3.2258234    -1.754933  0.042898876   -3.2258234    1.4708904   329773 
 6837000   0.73549945   -3.2232463   -1.7542192  0.048744918   -3.2232463    1.4690271   329737 
 6838000   0.73538772   -3.2242208   -1.7553144  0.045274149   -3.2242208    1.4689064   329714 
 6839000   0.73481844   -3.2221863   -1.7542568  0.046442621   -3.2221863    1.4679295   329678 
 6840000   0.73426672    -3.220559   -1.7535892  0.042129671    -3.220559    1.4669698   329646 
 6841000   0.73334213   -3.2207071   -1.7555134  0.046402812   -3.2207071    1.4651937   329630 
 6842000   0.73392074   -3.2220626   -1.7555349  0.048745494   -3.2220626    1.4665277   329590 
 6843000   0.73446843   -3.2207206   -1.7529382  0.041444261   -3.2207206    1.4677824   329554 
 6844000   0.73349264   -3.2170512   -1.7512767  0.046351927   -3.2170512    1.4657745   329567 
 6845000    0.7344309    -3.220694   -1.7527594  0.044666294    -3.220694    1.4679346   329503 
 6846000   0.73463557   -3.2196629   -1.7512747  0.046919458   -3.2196629    1.4683882   329493 
 6847000   0.73434684   -3.2188227    -1.751074  0.043511857   -3.2188227    1.4677487   329507 
 6848000   0.73274499   -3.2182636   -1.7535253  0.041074963   -3.2182636    1.4647382   329464 
 6849000   0.73310733    -3.219016   -1.7534022  0.045024908    -3.219016    1.4656138   329430 
 6850000   0.73152162   -3.2176589   -1.7550154  0.044007076   -3.2176589    1.4626435   329385 
 6851000   0.73415326    -3.222485    -1.754437  0.040565242    -3.222485    1.4680479   329353 
 6852000   0.73286536   -3.2219966   -1.7562882  0.041754126   -3.2219966    1.4657085   329300 
 6853000   0.73239507   -3.2213935   -1.7566923  0.043945614   -3.2213935    1.4647012   329315 
 6854000   0.73199796   -3.2202747   -1.7561542  0.047883313   -3.2202747    1.4641204   329267 
 6855000   0.73158029   -3.2210093   -1.7575643  0.044951903   -3.2210093     1.463445   329231 
 6856000   0.73210515   -3.2223244   -1.7576559  0.049481412   -3.2223244    1.4646684   329192 
 6857000   0.73256141   -3.2219341   -1.7562682  0.051093248   -3.2219341    1.4656658   329173 
 6858000   0.73484679   -3.2262662   -1.7558626  0.047739145   -3.2262662    1.4704036   329136 
 6859000   0.73412447   -3.2262573   -1.7572812  0.050529061   -3.2262573    1.4689761   329132 
 6860000   0.73448129   -3.2262924   -1.7566158  0.047441806   -3.2262924    1.4696767   329135 
 6861000   0.73442626   -3.2243821   -1.7548155  0.053010706   -3.2243821    1.4695666   329135 
 6862000   0.73506509   -3.2272433   -1.7564118  0.050577079   -3.2272433    1.4708314   329138 
 6863000   0.73554873   -3.2266578   -1.7547289  0.049842589   -3.2266578    1.4719289   329109 
 6864000   0.73339352   -3.2235969   -1.7558605  0.044534544   -3.2235969    1.4677364   329082 
 6865000   0.73333156    -3.224528   -1.7567951  0.044222392    -3.224528    1.4677328   329055 
 6866000   0.73231919   -3.2211412   -1.7553321  0.046427842   -3.2211412    1.4658091   329032 
 6867000   0.73200486   -3.2221447   -1.7570049  0.043443153   -3.2221447    1.4651398   329041 
 6868000    0.7318345   -3.2213106   -1.7563693  0.041070541   -3.2213106    1.4649413   329009 
 6869000   0.73304058   -3.2229951   -1.7554477  0.046045614   -3.2229951    1.4675474   328966 
 6870000   0.73359217   -3.2225809   -1.7538489   0.04781384   -3.2225809     1.468732   328948 
 6871000   0.73176324   -3.2193972   -1.7540908  0.048679684   -3.2193972    1.4653064   328895 
 6872000    0.7337491   -3.2195272   -1.7503827  0.044841903   -3.2195272    1.4691445   328926 
 6873000   0.73309101   -3.2195894   -1.7517224   0.04655101   -3.2195894     1.467867   328917 
 6874000   0.73365839   -3.2206404   -1.7515391  0.043674156   -3.2206404    1.4691013   328895 
 6875000   0.73140061   -3.2151277   -1.7505474  0.050756279   -3.2151277    1.4645803   328895 
 6876000   0.73290011   -3.2185132   -1.7508768   0.04553029   -3.2185132    1.4676365   328883 
 6877000   0.73229068   -3.2180359   -1.7517581  0.044546427   -3.2180359    1.4662779   328914 
 6878000   0.73139331   -3.2166897   -1.7521152  0.039701784   -3.2166897    1.4645746   328893 
 6879000    0.7319256   -3.2188979   -1.7532575  0.046242459   -3.2188979    1.4656404   328893 
 6880000   0.73210873   -3.2185488   -1.7524435  0.044838438   -3.2185488    1.4661052   328871 
 6881000    0.7315118    -3.216724   -1.7516271  0.045601778    -3.216724    1.4650969   328829 
 6882000   0.73227777   -3.2169871   -1.7501955    0.0471458   -3.2169871    1.4667916   328793 
 6883000   0.73381067   -3.2199391   -1.7501664  0.041732155   -3.2199391    1.4697727   328813 
 6884000   0.73356349   -3.2196116   -1.7503251  0.049592866   -3.2196116    1.4692865   328811 
 6885000   0.73313494   -3.2205637    -1.752006  0.048316734   -3.2205637    1.4685577   328782 
 6886000   0.73326325   -3.2208849   -1.7519808   0.04866661   -3.2208849    1.4689041   328762 
 6887000   0.73195409    -3.219209   -1.7528829  0.044695697    -3.219209    1.4663261   328752 
 6888000    0.7317407   -3.2192194   -1.7533386  0.049624826   -3.2192194    1.4658808   328756 
 6889000   0.73153839   -3.2188086   -1.7532841  0.042424852   -3.2188086    1.4655245   328745 
 6890000   0.73310233    -3.220962   -1.7521346   0.05100966    -3.220962    1.4688275   328707 
 6891000   0.73349709   -3.2215549   -1.7518157  0.050572898   -3.2215549    1.4697391   328680 
 6892000   0.73350773   -3.2219597   -1.7520025   0.04799797   -3.2219597    1.4699572   328636 
 6893000   0.73211232   -3.2197936   -1.7526239   0.04694378   -3.2197936    1.4671697   328634 
 6894000   0.73190361   -3.2181015   -1.7511134  0.046001636   -3.2181015     1.466988   328581 
 6895000    0.7323135   -3.2187489   -1.7506757  0.052990291   -3.2187489    1.4680732   328522 
 6896000   0.73138731   -3.2178119   -1.7514436  0.047938402   -3.2178119    1.4663682   328488 
 6897000   0.73140825   -3.2187513   -1.7524571  0.043540951   -3.2187513    1.4662942   328514 
 6898000   0.73046847   -3.2167835   -1.7521104  0.044879287   -3.2167835    1.4646732   328455 
 6899000   0.73129142   -3.2171695    -1.750748  0.044992311   -3.2171695    1.4664215   328433 
 6900000   0.73137066   -3.2170462   -1.7503184  0.047846096   -3.2170462    1.4667278   328400 
 6901000   0.73236906   -3.2174858   -1.7487111  0.043667828   -3.2174858    1.4687747   328390 
 6902000   0.73160879   -3.2158652   -1.7484901  0.049744083   -3.2158652    1.4673751   328362 
 6903000    0.7326397   -3.2189392   -1.7496441  0.047548911   -3.2189392    1.4692951   328395 
 6904000   0.73149985   -3.2170365   -1.7499737  0.045321066   -3.2170365    1.4670628   328383 
 6905000   0.73037822   -3.2146688   -1.7497841  0.046062011   -3.2146688    1.4648847   328367 
 6906000   0.73099541   -3.2149784   -1.7486326  0.043438798   -3.2149784    1.4663458   328317 
 6907000   0.73145716    -3.213827   -1.7466175  0.047676036    -3.213827    1.4672095   328331 
 6908000   0.73239727   -3.2150795   -1.7459529  0.048921633   -3.2150795    1.4691266   328324 
 6909000   0.73161588   -3.2147123   -1.7468625  0.045872532   -3.2147123    1.4678498   328259 
 6910000   0.73054828   -3.2135631   -1.7476231  0.046746128   -3.2135631    1.4659401   328207 
 6911000   0.73123824   -3.2147301   -1.7473384   0.04667695   -3.2147301    1.4673916   328192 
 6912000   0.73151891   -3.2142368   -1.7462954  0.046375917   -3.2142368    1.4679414   328195 
 6913000   0.73107187   -3.2152048   -1.7480353  0.044177609   -3.2152048    1.4671695   328167 
 6914000   0.72971686   -3.2121713   -1.7475694  0.046432222   -3.2121713    1.4646019   328133 
 6915000   0.73017122   -3.2106076   -1.7452009  0.046491697   -3.2106076    1.4654067   328157 
 6916000   0.73176755   -3.2140507   -1.7453821  0.042827645   -3.2140507    1.4686686   328144 
 6917000   0.73062582   -3.2110119   -1.7445678  0.045789678   -3.2110119    1.4664442   328129 
 6918000    0.7290835   -3.2104245   -1.7469287   0.04478232   -3.2104245    1.4634957   328096 
 6919000   0.72935981   -3.2112162   -1.7471167  0.047903454   -3.2112162    1.4640995   328085 
 6920000   0.72970991   -3.2113389   -1.7463759  0.041569951   -3.2113389     1.464963   328049 
 6921000   0.73125893   -3.2145996   -1.7464731  0.042595107   -3.2145996    1.4681265   328037 
 6922000   0.72860028   -3.2100447   -1.7472068  0.043285168   -3.2100447    1.4628379   328026 
 6923000   0.73002936   -3.2135641   -1.7477319  0.041844171   -3.2135641    1.4658322   327998 
 6924000   0.73081452   -3.2134535    -1.745915  0.049390207   -3.2134535    1.4675385   327969 
 6925000   0.73022154   -3.2132726   -1.7467325  0.051197495   -3.2132726      1.46654   327926 
 6926000   0.73087526   -3.2152372   -1.7472321    0.0502143   -3.2152372    1.4680051   327892 
 6927000   0.73031242    -3.214136    -1.747136  0.047243523    -3.214136    1.4669999   327864 
 6928000    0.7290068   -3.2126573    -1.748222  0.050970028   -3.2126573    1.4644353   327851 
 6929000   0.73052204   -3.2151717   -1.7476836  0.044793211   -3.2151717    1.4674881   327849 
 6930000   0.73055204   -3.2142994   -1.7467823  0.045798043   -3.2142994    1.4675171   327856 
 6931000   0.72951284   -3.2148828   -1.7493639  0.045094903   -3.2148828    1.4655189   327836 
 6932000   0.72895767   -3.2134763    -1.749095  0.046115796   -3.2134763    1.4643813   327841 
 6933000   0.72855533   -3.2137341   -1.7499914  0.043966886   -3.2137341    1.4637427   327803 
 6934000   0.72979256   -3.2154487   -1.7491979  0.048132748   -3.2154487    1.4662508   327798 
 6935000    0.7295862    -3.214904   -1.7488531  0.046632968    -3.214904    1.4660509   327750 
 6936000   0.73055187   -3.2167751   -1.7487658  0.045704926   -3.2167751    1.4680092   327746 
 6937000   0.73192494   -3.2192093   -1.7483647  0.051435366   -3.2192093    1.4708447   327729 
 6938000   0.73166589   -3.2190817   -1.7487082  0.051024373   -3.2190817    1.4703734   327718 
 6939000   0.73175627   -3.2204261   -1.7498935  0.049664241   -3.2204261    1.4705326   327723 
 6940000   0.73267696   -3.2224251   -1.7499794  0.047443294   -3.2224251    1.4724457   327709 
 6941000   0.72979124   -3.2179653   -1.7511354  0.047077014   -3.2179653    1.4668299   327668 
 6942000   0.73058667    -3.218645   -1.7501536  0.044554632    -3.218645    1.4684914   327654 
 6943000   0.72913209   -3.2178049   -1.7522864   0.04813011   -3.2178049    1.4655184   327665 
 6944000     0.729684   -3.2192912   -1.7524799  0.047701763   -3.2192912    1.4668113   327624 
 6945000   0.72981171   -3.2189468   -1.7517265   0.04714243   -3.2189468    1.4672203   327590 
 6946000   0.72927375   -3.2191942   -1.7529256  0.042796474   -3.2191942    1.4662686   327561 
 6947000   0.72957808   -3.2179474   -1.7509505  0.050788042   -3.2179474    1.4669969   327535 
 6948000   0.72921798   -3.2165401   -1.7502986  0.048485372   -3.2165401    1.4662415   327542 
 6949000   0.72916889   -3.2165129    -1.750209    0.0432749   -3.2165129    1.4663039   327506 
 6950000   0.72929618   -3.2164246    -1.749802  0.046850444   -3.2164246    1.4666226   327492 
 6951000   0.72779415   -3.2142455   -1.7505988    0.0453425   -3.2142455    1.4636467   327482 
 6952000   0.72914913   -3.2150869   -1.7484465   0.04366752   -3.2150869    1.4666404   327422 
 6953000   0.72952191   -3.2158301   -1.7483996  0.044642009   -3.2158301    1.4674305   327413 
 6954000   0.72799383   -3.2117408   -1.7472812  0.046662097   -3.2117408    1.4644597   327390 
 6955000   0.72851385   -3.2128258   -1.7473066  0.042636414   -3.2128258    1.4655192   327387 
 6956000   0.72796845   -3.2117736   -1.7471815  0.047979763   -3.2117736     1.464592   327349 
 6957000   0.72699022   -3.2098758   -1.7471044  0.047756405   -3.2098758    1.4627714   327316 
 6958000   0.72760959   -3.2116038   -1.7475057  0.045219708   -3.2116038    1.4640982   327298 
 6959000   0.72883909   -3.2127968   -1.7461037  0.045285629   -3.2127968    1.4666932   327271 
 6960000   0.72837076   -3.2104345   -1.7446076  0.050771575   -3.2104345    1.4658269   327254 
 6961000    0.7290732   -3.2115393   -1.7442495  0.051165182   -3.2115393    1.4672898   327243 
 6962000   0.72841438   -3.2094082   -1.7433592  0.045336951   -3.2094082     1.466049   327224 
 6963000   0.72859703   -3.2112055    -1.744233  0.043947555   -3.2112055    1.4669725   327100 
 6964000   0.72652932   -3.2094311    -1.746416  0.044554191   -3.2094311    1.4630151   327054 
 6965000   0.72836008   -3.2116094   -1.7447731  0.045176983   -3.2116094    1.4668363   327024 
 6966000     0.729532   -3.2140804   -1.7448705  0.040784414   -3.2140804    1.4692099   327021 
 6967000   0.72901673   -3.2142852   -1.7460322  0.044122962   -3.2142852     1.468253   327003 
 6968000   0.72855961   -3.2128464   -1.7455096  0.042442871   -3.2128464    1.4673368   327002 
 6969000   0.72957076   -3.2144604   -1.7450511   0.04521796   -3.2144604    1.4694092   326994 
 6970000    0.7283591   -3.2128242    -1.745788   0.04496987   -3.2128242    1.4670362   326979 
 6971000   0.72712011   -3.2116906   -1.7471679  0.042624111   -3.2116906    1.4645227   326983 
 6972000   0.72779518   -3.2130064   -1.7470657  0.044880654   -3.2130064    1.4659407   326970 
 6973000   0.72895839   -3.2134617   -1.7450209  0.045543586   -3.2134617    1.4684408   326935 
 6974000    0.7291944   -3.2165846    -1.747529  0.045093791   -3.2165846    1.4690556   326904 
 6975000   0.72789128   -3.2155218   -1.7489524  0.046586825   -3.2155218    1.4665693   326873 
 6976000   0.72821535   -3.2161928    -1.748984  0.044019073   -3.2161928    1.4672088   326876 
 6977000   0.72900579   -3.2159741   -1.7470334   0.04981983   -3.2159741    1.4689407   326845 
 6978000   0.72692238   -3.2149262   -1.7501298  0.046308961   -3.2149262    1.4647964   326833 
 6979000   0.72799636   -3.2150113   -1.7479654  0.049236454   -3.2150113    1.4670459   326814 
 6980000    0.7281091   -3.2149573   -1.7477964  0.051479122   -3.2149573    1.4671608   326839 
 6981000   0.72855641   -3.2155091   -1.7473706  0.048378565   -3.2155091    1.4681385   326822 
 6982000   0.72761123   -3.2144367    -1.748158  0.046560236   -3.2144367    1.4662787   326812 
 6983000   0.73083873   -3.2186882   -1.7458739  0.046501603   -3.2186882    1.4728143   326805 
 6984000   0.73089081   -3.2190569   -1.7460024  0.047134632   -3.2190569    1.4730545   326775 
 6985000   0.72861199   -3.2172072   -1.7484129   0.04886373   -3.2172072    1.4687943   326701 
 6986000   0.72946347   -3.2194495   -1.7487632  0.053643399   -3.2194495    1.4706864   326662 
 6987000   0.72873521   -3.2169515   -1.7476794  0.049212163   -3.2169515    1.4692721   326650 
 6988000   0.72712924   -3.2153957   -1.7492852   0.04603334   -3.2153957    1.4661104   326633 
 6989000   0.72663564   -3.2167181   -1.7514594   0.04381615   -3.2167181    1.4652587   326601 
 6990000   0.72617348   -3.2168722   -1.7525141  0.046823488   -3.2168722    1.4643582   326594 
 6991000   0.72750851   -3.2171714    -1.750148  0.047365643   -3.2171714    1.4670234   326600 
 6992000   0.72660507   -3.2177058   -1.7522125  0.046156749   -3.2177058    1.4654932   326535 
 6993000   0.72888668   -3.2195862   -1.7495588  0.048268984   -3.2195862    1.4700275   326550 
 6994000   0.72852612   -3.2193856   -1.7498828  0.046996549   -3.2193856    1.4695028   326505 
 6995000   0.72797315   -3.2172686   -1.7488362  0.047545938   -3.2172686    1.4684324   326495 
 6996000   0.72722598   -3.2148098   -1.7478127  0.052378499   -3.2148098    1.4669971   326479 
 6997000   0.72808976   -3.2162489   -1.7475723  0.051507115   -3.2162489    1.4686766   326493 
 6998000   0.72794663   -3.2176392   -1.7491209  0.045401808   -3.2176392    1.4685183   326464 
 6999000   0.72890899   -3.2186294   -1.7481381  0.047277127   -3.2186294    1.4704913   326457 
 7000000    0.7271099   -3.2153069    -1.748099   0.04944284   -3.2153069    1.4672079   326380 
 7001000   0.72688045   -3.2141054   -1.7473335  0.045537431   -3.2141054    1.4667718   326374 
 7002000   0.72759672   -3.2156112     -1.74743  0.048606285   -3.2156112    1.4681812   326382 
 7003000   0.72616508   -3.2154519   -1.7499484  0.044579234   -3.2154519    1.4655034   326335 
 7004000   0.72557137   -3.2132875   -1.7489643  0.046571145   -3.2132875    1.4643232   326331 
 7005000   0.72788642   -3.2167594   -1.7477235  0.047247133   -3.2167594    1.4690359   326322 
 7006000   0.72767888   -3.2154798   -1.7466872  0.043415507   -3.2154798    1.4687925   326283 
 7007000   0.72748821   -3.2153688   -1.7469071  0.047657632   -3.2153688    1.4684617   326271 
 7008000   0.72713228    -3.215707   -1.7477568  0.048348436    -3.215707    1.4679502   326225 
 7009000    0.7260799   -3.2128251   -1.7468602  0.051988846   -3.2128251    1.4659649   326194 
 7010000   0.72698371   -3.2137556   -1.7458309  0.048865457   -3.2137556    1.4679247   326164 
 7011000   0.72637235   -3.2128001   -1.7459749  0.047472038   -3.2128001    1.4668252   326134 
 7012000   0.72725463   -3.2156362   -1.7468717  0.047780962   -3.2156362    1.4687645   326099 
 7013000   0.72619908     -3.21435   -1.7475599  0.045674732     -3.21435    1.4667901   326064 
 7014000   0.72789248   -3.2175962   -1.7473046  0.044404954   -3.2175962    1.4702916   326046 
 7015000   0.72562375   -3.2140296   -1.7481498   0.04824996   -3.2140296    1.4658798   326008 
 7016000   0.72553394    -3.213733   -1.7481425  0.047100514    -3.213733    1.4655905   326032 
 7017000   0.72580818   -3.2135107   -1.7471773  0.048303081   -3.2135107    1.4663334   325990 
 7018000   0.72536758   -3.2129099   -1.7472014  0.044487846   -3.2129099    1.4657085   325931 
 7019000   0.72276458   -3.2097982   -1.7492329  0.049685828   -3.2097982    1.4605653   325905 
 7020000     0.726816   -3.2159948   -1.7470757  0.043431318   -3.2159948    1.4689192   325868 
 7021000   0.72566665   -3.2143721   -1.7475058  0.048340633   -3.2143721    1.4668664   325808 
 7022000   0.72573461   -3.2140673    -1.746942  0.047529679   -3.2140673    1.4671253   325781 
 7023000   0.72583713   -3.2128586   -1.7455125  0.051438296   -3.2128586    1.4673461   325778 
 7024000   0.72647868   -3.2144847   -1.7456974  0.047756549   -3.2144847    1.4687873   325746 
 7025000   0.72634266   -3.2144515   -1.7460789  0.048104313   -3.2144515    1.4683726   325777 
 7026000   0.72620152   -3.2136883   -1.7456326  0.051288684   -3.2136883    1.4680557   325784 
 7027000   0.72683942   -3.2130838   -1.7434904  0.046101727   -3.2130838    1.4695934   325729 
 7028000   0.72514088   -3.2111737    -1.744704  0.046908178   -3.2111737    1.4664697   325660 
 7029000   0.72498488   -3.2109628   -1.7447545  0.046833873   -3.2109628    1.4662083   325648 
 7030000   0.72355855   -3.2099096    -1.746523  0.043526319   -3.2099096    1.4633866   325634 
 7031000   0.72446864   -3.2114391   -1.7461623  0.050849038   -3.2114391    1.4652767   325623 
 7032000   0.72636122   -3.2126135   -1.7434187  0.043319793   -3.2126135    1.4691948   325603 
 7033000   0.72570149   -3.2117779     -1.74394  0.045819146   -3.2117779    1.4678378   325608 
 7034000   0.72595304   -3.2151191   -1.7464387  0.047858993   -3.2151191    1.4686804   325534 
 7035000   0.72553262   -3.2160397   -1.7479663  0.044369856   -3.2160397    1.4680734   325480 
 7036000   0.72380826   -3.2128341   -1.7481284   0.04843702   -3.2128341    1.4647058   325453 
 7037000   0.72363521    -3.213264   -1.7487014  0.045021436    -3.213264    1.4645626   325407 
 7038000   0.72478215   -3.2132459   -1.7463124  0.044851525   -3.2132459    1.4669334   325396 
 7039000   0.72386616   -3.2114759   -1.7464324  0.041419583   -3.2114759    1.4650435   325404 
 7040000   0.72585162   -3.2135352   -1.7445365  0.047615597   -3.2135352    1.4689987   325418 
 7041000   0.72506372    -3.212846   -1.7453201  0.047284943    -3.212846    1.4675259   325391 
 7042000   0.72357106   -3.2117264   -1.7469245  0.046598148   -3.2117264    1.4648019   325325 
 7043000   0.72311667    -3.209945    -1.745928  0.046976873    -3.209945     1.464017   325295 
 7044000   0.72341453   -3.2122474   -1.7474473  0.044371393   -3.2122474    1.4648002   325255 
 7045000   0.72328599   -3.2114049   -1.7466128   0.04498541   -3.2114049    1.4647921   325199 
 7046000   0.72503224   -3.2147476   -1.7463829   0.04344905   -3.2147476    1.4683647   325191 
 7047000    0.7244359   -3.2129099   -1.7457348  0.045090149   -3.2129099     1.467175   325187 
 7048000   0.72490223   -3.2136384   -1.7454377  0.050019286   -3.2136384    1.4682007   325169 
 7049000   0.72502771   -3.2110479   -1.7425885  0.049467323   -3.2110479    1.4684594   325168 
 7050000   0.72539609    -3.212196   -1.7429092  0.048556514    -3.212196    1.4692868   325150 
 7051000    0.7247538   -3.2120493   -1.7438603  0.052195516   -3.2120493    1.4681891   325105 
 7052000   0.72363801   -3.2096597   -1.7437445  0.047918765   -3.2096597    1.4659152   325108 
 7053000   0.72378717   -3.2106098   -1.7442256  0.049186556   -3.2106098    1.4663842   325071 
 7054000    0.7230884   -3.2098847   -1.7446097  0.049636136   -3.2098847    1.4652751   325003 
 7055000   0.72372128   -3.2111391   -1.7445725   0.04598022   -3.2111391    1.4665666   325001 
 7056000   0.72232924   -3.2100176   -1.7461143  0.045828395   -3.2100176    1.4639033   324966 
 7057000   0.72379726   -3.2114945   -1.7445076  0.045310233   -3.2114945    1.4669868   324942 
 7058000   0.72392489   -3.2129172   -1.7456039  0.044703319   -3.2129172    1.4673133   324927 
 7059000    0.7245768   -3.2111792   -1.7423954  0.052765109   -3.2111792    1.4687838   324894 
 7060000   0.72519617   -3.2117546   -1.7415841  0.045176687   -3.2117546    1.4701705   324865 
 7061000    0.7241486   -3.2106177   -1.7426974  0.046562777   -3.2106177    1.4679203   324893 
 7062000   0.72387833   -3.2104054   -1.7429562  0.047402481   -3.2104054    1.4674492   324876 
 7063000    0.7227317   -3.2099323   -1.7445775  0.045723085   -3.2099323    1.4653548   324825 
 7064000   0.72338381   -3.2114185   -1.7447912  0.045632079   -3.2114185    1.4666273   324836 
 7065000   0.72260562   -3.2103155   -1.7451712  0.042558135   -3.2103155    1.4651443   324815 
 7066000     0.723349     -3.21158   -1.7447524  0.042579654     -3.21158    1.4668276   324776 
 7067000    0.7236918   -3.2109428   -1.7433839  0.044175374   -3.2109428    1.4675589   324768 
 7068000   0.72220539   -3.2063801   -1.7417091  0.049602645   -3.2063801     1.464671   324740 
 7069000   0.72304167   -3.2083035    -1.741765  0.051299558   -3.2083035    1.4665386   324702 
 7070000   0.72195685    -3.207019   -1.7426176  0.045025341    -3.207019    1.4644014   324688 
 7071000    0.7229636   -3.2091042   -1.7423806  0.044686637   -3.2091042    1.4667235   324626 
 7072000   0.72225529   -3.2082965   -1.7429558  0.045672191   -3.2082965    1.4653407   324614 
 7073000   0.72375675    -3.210411   -1.7419019  0.046723747    -3.210411    1.4685091   324587 
 7074000   0.72372092   -3.2089246   -1.7403796  0.044317641   -3.2089246     1.468545   324563 
 7075000   0.72469663   -3.2100891   -1.7393422  0.042577107   -3.2100891    1.4707469   324514 
 7076000   0.72567953   -3.2117923   -1.7390371  0.046482741   -3.2117923    1.4727553   324511 
 7077000    0.7234899   -3.2082639    -1.739957   0.04594361   -3.2082639    1.4683069   324512 
 7078000   0.72425471   -3.2093964   -1.7394422  0.047374007   -3.2093964    1.4699542   324491 
 7079000   0.72255707   -3.2060136   -1.7394552  0.048979281   -3.2060136    1.4665584   324480 
 7080000   0.72388959   -3.2093401   -1.7398824  0.047976269   -3.2093401    1.4694577   324437 
 7081000   0.72236217   -3.2079525   -1.7414869  0.045919448   -3.2079525    1.4664656   324413 
 7082000   0.72231259   -3.2066501   -1.7402355  0.047206832   -3.2066501    1.4664147   324402 
 7083000    0.7226674   -3.2091614   -1.7420219  0.047541552   -3.2091614    1.4671395   324401 
 7084000   0.72236603   -3.2064578   -1.7398985    0.0480519   -3.2064578    1.4665593   324394 
 7085000   0.72298072    -3.206175   -1.7383451  0.045711376    -3.206175    1.4678299   324389 
 7086000   0.72357556   -3.2075986   -1.7385384   0.04340337   -3.2075986    1.4690602   324384 
 7087000   0.72322696   -3.2058874   -1.7374172  0.046589951   -3.2058874    1.4684702   324358 
 7088000   0.72292607    -3.206242   -1.7382606  0.044341797    -3.206242    1.4679814   324331 
 7089000   0.72279512   -3.2056769   -1.7380474  0.049655076   -3.2056769    1.4676295   324350 
 7090000   0.72242673   -3.2064831   -1.7395926  0.045316853   -3.2064831    1.4668906   324348 
 7091000   0.72215873   -3.2036125   -1.7373384  0.045864632   -3.2036125    1.4662741   324364 
 7092000    0.7228123   -3.2040683   -1.7365849  0.041930568   -3.2040683    1.4674834   324390 
 7093000   0.72324429   -3.2041351   -1.7356026  0.048435016   -3.2041351    1.4685325   324352 
 7094000    0.7233668   -3.2047259   -1.7357951  0.047354586   -3.2047259    1.4689307   324319 
 7095000    0.7235583   -3.2061003   -1.7367354  0.044420874   -3.2061003    1.4693649   324309 
 7096000    0.7219308   -3.2046572   -1.7387013  0.045093136   -3.2046572    1.4659559   324332 
 7097000   0.72326595   -3.2063675   -1.7374061  0.047341516   -3.2063675    1.4689614   324267 
 7098000   0.72430763   -3.2068381   -1.7356385  0.048216008   -3.2068381    1.4711996   324240 
 7099000   0.72357653   -3.2055615   -1.7358151  0.050645572   -3.2055615    1.4697463   324233 
 7100000   0.72318739   -3.2066571    -1.737597  0.052590613   -3.2066571    1.4690601   324210 
 7101000   0.72378176   -3.2098391   -1.7395353  0.048065923   -3.2098391    1.4703038   324202 
 7102000   0.72293022    -3.208345    -1.739463  0.047765719    -3.208345     1.468882   324134 
 7103000   0.72282307    -3.209509   -1.7408084  0.048680067    -3.209509    1.4687006   324126 
 7104000   0.72294133   -3.2118329   -1.7426699   0.04570004   -3.2118329     1.469163   324077 
 7105000    0.7228432    -3.210435   -1.7413808  0.045511708    -3.210435    1.4690542   324057 
 7106000   0.72254754   -3.2092654   -1.7406942  0.042142709   -3.2092654    1.4685712   324031 
 7107000   0.72279638   -3.2081705   -1.7389847  0.046004739   -3.2081705    1.4691857   324007 
 7108000   0.72233924   -3.2079862   -1.7395393  0.047696593   -3.2079862    1.4684469   323965 
 7109000   0.72299494   -3.2111538   -1.7411925  0.046912093   -3.2111538    1.4699614   323925 
 7110000   0.72320987   -3.2099227   -1.7395879  0.052319085   -3.2099227    1.4703348   323939 
 7111000   0.72299415   -3.2093672   -1.7394755  0.050440605   -3.2093672    1.4698917   323940 
 7112000   0.72309718   -3.2094379    -1.739373  0.046978656   -3.2094379    1.4700649   323948 
 7113000   0.72307789   -3.2094923   -1.7394122   0.04793572   -3.2094923    1.4700801   323936 
 7114000   0.72304971   -3.2070741   -1.7370831  0.047652204   -3.2070741     1.469991   323943 
 7115000   0.72243795   -3.2056945   -1.7369245  0.044377581   -3.2056945      1.46877   323938 
 7116000   0.72148079   -3.2038614    -1.736811  0.044022807   -3.2038614    1.4670505   323888 
 7117000   0.72246907   -3.2049257   -1.7359519  0.050767421   -3.2049257    1.4689738   323907 
 7118000   0.72170231   -3.2050504   -1.7376447  0.043186936   -3.2050504    1.4674057   323909 
 7119000   0.72236429   -3.2052999   -1.7364031  0.048747856   -3.2052999    1.4688968   323877 
 7120000   0.72236663   -3.2041192   -1.7351496  0.046554204   -3.2041192    1.4689696   323862 
 7121000   0.72123497    -3.199244     -1.73263  0.044995691    -3.199244     1.466614   323874 
 7122000   0.72256552   -3.2019709   -1.7325878  0.046742191   -3.2019709    1.4693831   323860 
 7123000   0.72139111   -3.1992574   -1.7322308  0.048543581   -3.1992574    1.4670266   323853 
 7124000   0.72133493    -3.199228   -1.7322704  0.041278374    -3.199228    1.4669577   323843 
 7125000   0.72271764   -3.2006522   -1.7308327  0.049601717   -3.2006522    1.4698196   323832 
 7126000    0.7212847   -3.1991479   -1.7320613  0.044642879   -3.1991479    1.4670866   323792 
 7127000   0.72316529   -3.2024753   -1.7314319   0.04224288   -3.2024753    1.4710434   323763 
 7128000   0.72314127   -3.2017643   -1.7307153  0.046048638   -3.2017643    1.4710491   323751 
 7129000   0.72201179   -3.2023308   -1.7336065  0.046275401   -3.2023308    1.4687242   323757 
 7130000   0.72066714   -3.1997722   -1.7336384  0.053194974   -3.1997722    1.4661338   323725 
 7131000    0.7220589    -3.202077   -1.7331299  0.047248416    -3.202077    1.4689471   323729 
 7132000   0.72274962   -3.2051995   -1.7346746  0.049626446   -3.2051995    1.4705249   323691 
 7133000   0.72144628   -3.2030001   -1.7348775  0.046846038   -3.2030001    1.4681225   323636 
 7134000   0.72275791   -3.2046366   -1.7337995  0.045630657   -3.2046366    1.4708371   323626 
 7135000   0.72231775   -3.2039508   -1.7339549  0.045050351   -3.2039508    1.4699959   323614 
 7136000   0.72101338    -3.202418   -1.7349769  0.048593249    -3.202418    1.4674411   323592 
 7137000   0.72268602   -3.2042671   -1.7334854  0.046400171   -3.2042671    1.4707817   323606 
 7138000   0.72139571   -3.2028873   -1.7345727  0.048504303   -3.2028873    1.4683145   323571 
 7139000   0.72139983   -3.2029277   -1.7345277   0.04898878   -3.2029277    1.4684001   323554 
 7140000   0.72228042   -3.2057099   -1.7353492  0.045622175   -3.2057099    1.4703606   323517 
 7141000     0.722554   -3.2050672   -1.7340496  0.045599485   -3.2050672    1.4710176   323495 
 7142000   0.72241037   -3.2049795   -1.7340906  0.047423006   -3.2049795    1.4708889   323459 
 7143000   0.72055158   -3.2033584   -1.7361453  0.050310181   -3.2033584    1.4672131   323435 
 7144000   0.72156242   -3.2051161   -1.7356357  0.044585877   -3.2051161    1.4694804   323389 
 7145000   0.72142112   -3.2031107   -1.7337454  0.045910088   -3.2031107    1.4693653   323351 
 7146000   0.72073457   -3.2014932   -1.7334899  0.046727428   -3.2014932    1.4680033   323343 
 7147000   0.71987222   -3.2008036   -1.7344524  0.051351317   -3.2008036    1.4663511   323320 
 7148000   0.72007787   -3.2020579   -1.7353649  0.046048561   -3.2020579    1.4666929   323337 
 7149000   0.72012893   -3.2021751   -1.7354462   0.04539975   -3.2021751    1.4667289   323352 
 7150000   0.72006143     -3.20303   -1.7362935  0.039733378     -3.20303    1.4667365   323320 
 7151000   0.71858986   -3.2005092   -1.7366751  0.042394974   -3.2005092    1.4638341   323299 
 7152000   0.71981856   -3.2042889   -1.7377931  0.041344328   -3.2042889    1.4664958   323264 
 7153000   0.71867441   -3.2034122   -1.7391341  0.046646522   -3.2034122    1.4642781   323239 
 7154000   0.72009124     -3.20408   -1.7367972  0.046385109     -3.20408    1.4672828   323213 
 7155000   0.71920505   -3.2046052   -1.7388787  0.046102412   -3.2046052    1.4657265   323158 
 7156000   0.72020282   -3.2071408   -1.7394717  0.048364944   -3.2071408    1.4676691   323178 
 7157000   0.72021728   -3.2056177   -1.7378737  0.049818597   -3.2056177     1.467744   323168 
 7158000    0.7202922   -3.2037435   -1.7358605  0.049292503   -3.2037435    1.4678831   323171 
 7159000   0.72081289    -3.205871   -1.7367086  0.050110738    -3.205871    1.4691624   323123 
 7160000   0.72093671   -3.2049553   -1.7355769  0.054560742   -3.2049553    1.4693784   323131 
 7161000   0.72043531   -3.2055951   -1.7370069  0.046988419   -3.2055951    1.4685882   323080 
 7162000   0.72123424    -3.207382   -1.7372197  0.048328917    -3.207382    1.4701622   323092 
 7163000   0.72103045   -3.2075436   -1.7376739  0.050563778   -3.2075436    1.4698697   323065 
 7164000    0.7210952    -3.207407   -1.7373644  0.051477639    -3.207407    1.4700426   323056 
 7165000   0.72076312    -3.205953   -1.7364828  0.052058593    -3.205953    1.4694702   323033 
 7166000   0.72053275   -3.2041516    -1.735242  0.051404704   -3.2041516    1.4689096   323053 
 7167000   0.72044058   -3.2040801   -1.7353857  0.049922772   -3.2040801    1.4686945   323059 
 7168000   0.72056693   -3.2031012   -1.7340764  0.049184246   -3.2031012    1.4690248   323043 
 7169000   0.72054862   -3.2031041   -1.7341712  0.047030739   -3.2031041    1.4689329   323055 
 7170000   0.71989807   -3.2023949   -1.7346383  0.049399226   -3.2023949    1.4677566   323022 
 7171000    0.7204637   -3.2035858   -1.7346123  0.046467914   -3.2035858    1.4689735   323008 
 7172000   0.71970702     -3.20116   -1.7336793  0.049592423     -3.20116    1.4674806   322997 
 7173000   0.71929811   -3.2001304   -1.7333064  0.049693726   -3.2001304     1.466824   322958 
 7174000   0.71962796    -3.200063   -1.7326299  0.049406475    -3.200063     1.467433   322972 
 7175000   0.71942949   -3.1993954   -1.7322217   0.05088508   -3.1993954    1.4671737   322940 
 7176000   0.71953847   -3.2012293   -1.7337879  0.049738526   -3.2012293    1.4674414   322930 
 7177000   0.72007817    -3.201586   -1.7329348  0.045319324    -3.201586    1.4686512   322906 
 7178000   0.71832265   -3.1986394   -1.7333872  0.042780068   -3.1986394    1.4652522   322866 
 7179000    0.7181711   -3.1995043   -1.7345431  0.043056012   -3.1995043    1.4649612   322862 
 7180000   0.71647711   -3.1974027   -1.7357974  0.044103035   -3.1974027    1.4616053   322840 
 7181000   0.71848842    -3.201667   -1.7357952  0.049802735    -3.201667    1.4658718   322804 
 7182000   0.71821144   -3.1999161   -1.7345368  0.046314216   -3.1999161    1.4653793   322788 
 7183000   0.71912109   -3.2023054   -1.7348655  0.050922482   -3.2023054    1.4674399   322743 
 7184000   0.71966265   -3.2047338   -1.7361706  0.046416682   -3.2047338    1.4685632   322739 
 7185000   0.71906053   -3.2026688   -1.7349386  0.047881778   -3.2026688    1.4677302   322652 
 7186000    0.7196131   -3.2024661   -1.7333531  0.050062875   -3.2024661    1.4691131   322596 
 7187000   0.71890088   -3.2003289   -1.7326198  0.049304038   -3.2003289    1.4677091   322585 
 7188000   0.72014489   -3.2046096   -1.7342559  0.050563581   -3.2046096    1.4703537   322562 
 7189000   0.72050839   -3.2047057   -1.7336372  0.048120273   -3.2047057    1.4710685   322568 
 7190000   0.71986628   -3.2031943   -1.7331816  0.050148651   -3.2031943    1.4700127   322512 
 7191000   0.71852171   -3.2022374   -1.7348748  0.049746672   -3.2022374    1.4673625   322491 
 7192000   0.71867396   -3.2023031   -1.7345113  0.049324981   -3.2023031    1.4677918   322465 
 7193000   0.71836475    -3.202031   -1.7348889  0.049829085    -3.202031    1.4671421   322469 
 7194000   0.71892905   -3.2010576    -1.732508  0.050612271   -3.2010576    1.4685496   322413 
 7195000   0.71851569   -3.2010799   -1.7332836  0.049959818   -3.2010799    1.4677963   322393 
 7196000   0.71878606   -3.2014797   -1.7331448  0.046691841   -3.2014797    1.4683349   322396 
 7197000   0.71997504   -3.2029973   -1.7320693  0.046613957   -3.2029973     1.470928   322360 
 7198000   0.71933312   -3.2004107    -1.730785  0.045092474   -3.2004107    1.4696257   322358 
 7199000   0.71889627   -3.1997697   -1.7311368  0.050997189   -3.1997697     1.468633   322380 
 7200000   0.71788516   -3.1972465    -1.730579  0.050510484   -3.1972465    1.4666675   322358 
 7201000   0.71815261   -3.1984738    -1.731269  0.047229286   -3.1984738    1.4672048   322360 
 7202000    0.7175069   -3.1974868   -1.7314193   0.04857307   -3.1974868    1.4660675   322320 
 7203000   0.71804133   -3.1974158   -1.7299649  0.044429138   -3.1974158    1.4674508   322256 
 7204000    0.7178269   -3.1976263   -1.7304634    0.0454694   -3.1976263    1.4671629   322223 
 7205000    0.7191259   -3.1967191   -1.7268875  0.051048602   -3.1967191    1.4698316   322220 
 7206000   0.71929543   -3.1976613   -1.7274285  0.041063644   -3.1976613    1.4702328   322208 
 7207000   0.71860293   -3.1963551   -1.7273736  0.053056952   -3.1963551    1.4689815   322172 
 7208000   0.71987267   -3.1983556   -1.7266506  0.052956046   -3.1983556     1.471705   322144 
 7209000   0.71741456   -3.1945805   -1.7277414  0.044737512   -3.1945805     1.466839   322109 
 7210000    0.7159522   -3.1930779   -1.7291152  0.048682097   -3.1930779    1.4639627   322084 
 7211000   0.71688123   -3.1956041   -1.7294413  0.043036894   -3.1956041    1.4661628   322018 
 7212000   0.71696704   -3.1937582    -1.727256  0.044252581   -3.1937582    1.4665022   321982 
 7213000    0.7163561   -3.1923449   -1.7272152   0.04693926   -3.1923449    1.4651297   322009 
 7214000   0.71569792   -3.1920422   -1.7281904  0.052598602   -3.1920422    1.4638518   321994 
 7215000   0.71706482   -3.1929456   -1.7262024  0.047122433   -3.1929456    1.4667432   321973 
 7216000   0.71822318   -3.1965081   -1.7273134  0.039925716   -3.1965081    1.4691948   321955 
 7217000   0.71657812   -3.1931791   -1.7271582  0.040746267   -3.1931791    1.4660209   321913 
 7218000   0.71519114   -3.1907291    -1.727514  0.044635964   -3.1907291    1.4632151   321906 
 7219000   0.71613285   -3.1937535   -1.7284752  0.046017019   -3.1937535    1.4652783   321876 
 7220000    0.7152498   -3.1928615   -1.7292536  0.045720799   -3.1928615     1.463608   321846 
 7221000   0.71681057   -3.1960421    -1.729172  0.043968569   -3.1960421    1.4668701   321831 
 7222000   0.71708301   -3.1950144   -1.7275229  0.044884663   -3.1950144    1.4674915   321817 
 7223000   0.71725897   -3.1961105   -1.7279943  0.048292843   -3.1961105    1.4681162   321759 
 7224000   0.71599198   -3.1951353   -1.7294348  0.052249685   -3.1951353    1.4657005   321720 
 7225000    0.7165165   -3.1961629   -1.7295619  0.047703765   -3.1961629     1.466601   321758 
 7226000    0.7173316   -3.1985606   -1.7301041   0.04634779   -3.1985606    1.4684565   321717 
 7227000   0.71688016    -3.198837   -1.7309487  0.046735826    -3.198837    1.4678882   321639 
 7228000   0.71786437   -3.2020584   -1.7319766   0.04647269   -3.2020584    1.4700818   321600 
 7229000   0.71644362   -3.2008018   -1.7333147  0.047394538   -3.2008018    1.4674871   321531 
 7230000   0.71616635   -3.2002514   -1.7333367  0.052687141   -3.2002514    1.4669146   321532 
 7231000   0.71649412   -3.2003187   -1.7325775  0.046759551   -3.2003187    1.4677412   321498 
 7232000   0.71606596    -3.202803   -1.7357792  0.046607562    -3.202803    1.4670238   321463 
 7233000   0.71548789   -3.2015979   -1.7356443  0.048467424   -3.2015979    1.4659535   321438 
 7234000   0.71680695   -3.2031522   -1.7344915  0.045291553   -3.2031522    1.4686607   321437 
 7235000   0.71590237   -3.2007909   -1.7337325  0.050106054   -3.2007909    1.4670583   321382 
 7236000   0.71504076   -3.1995264   -1.7342702  0.049349495   -3.1995264    1.4652562   321390 
 7237000    0.7163915   -3.2018917   -1.7337762  0.050157605   -3.2018917    1.4681155   321370 
 7238000    0.7153633   -3.1989917   -1.7328237  0.050702267   -3.1989917    1.4661681   321335 
 7239000   0.71603612    -3.200756   -1.7332638  0.043027664    -3.200756    1.4674922   321347 
 7240000   0.71451072   -3.1983541   -1.7334913  0.044775728   -3.1983541    1.4648629   321238 
 7241000   0.71441633    -3.198855   -1.7340078  0.048979031    -3.198855    1.4648472   321199 
 7242000    0.7151652   -3.1992274   -1.7329863  0.044750431   -3.1992274    1.4662412   321230 
 7243000   0.71616002   -3.1972907   -1.7288591  0.047521496   -3.1972907    1.4684316   321197 
 7244000   0.71576718   -3.1975364   -1.7298006  0.042554905   -3.1975364    1.4677358   321173 
 7245000   0.71595556   -3.1971193   -1.7287641  0.046287907   -3.1971193    1.4683552   321122 
 7246000   0.71551986    -3.195643   -1.7280625  0.051051881    -3.195643    1.4675805   321096 
 7247000   0.71717653   -3.1977148   -1.7267089  0.047871418   -3.1977148    1.4710059   321090 
 7248000   0.71408843   -3.1931897   -1.7284539  0.043377176   -3.1931897    1.4647358   321076 
 7249000   0.71470157   -3.1920746   -1.7260538  0.046922592   -3.1920746    1.4660208   321070 
 7250000   0.71491169   -3.1950311   -1.7282915  0.040103611   -3.1950311    1.4667396   321007 
 7251000   0.71461306   -3.1942967   -1.7281423  0.047634183   -3.1942967    1.4661544   321001 
 7252000   0.71437341   -3.1926577   -1.7267347   0.04552568   -3.1926577     1.465923   320944 
 7253000   0.71444811   -3.1926672   -1.7264447  0.043441649   -3.1926672    1.4662224   320912 
 7254000   0.71552408   -3.1946812   -1.7263559  0.048185469   -3.1946812    1.4683254   320935 
 7255000   0.71597092   -3.1948932   -1.7256417  0.043020393   -3.1948932    1.4692515   320933 
 7256000   0.71443704   -3.1915845   -1.7254213  0.047135185   -3.1915845    1.4661632   320920 
 7257000   0.71563227   -3.1933119    -1.724586  0.045378655   -3.1933119    1.4687259   320896 
 7258000   0.71531109   -3.1930085   -1.7250882  0.042893614   -3.1930085    1.4679203   320928 
 7259000   0.71669039   -3.1949466   -1.7242553  0.042625229   -3.1949466    1.4706913   320941 
 7260000   0.71597054   -3.1936147   -1.7244693  0.050038743   -3.1936147    1.4691454   320956 
 7261000   0.71535408   -3.1948311   -1.7269278  0.045896123   -3.1948311    1.4679033   320951 
 7262000    0.7162241   -3.1951373   -1.7252838  0.051562089   -3.1951373    1.4698535   320915 
 7263000   0.71647065   -3.1961121   -1.7257939  0.045190656   -3.1961121    1.4703182   320924 
 7264000   0.71466979   -3.1952039   -1.7283985  0.045370068   -3.1952039    1.4668054   320884 
 7265000   0.71481823    -3.193913    -1.726643  0.045821945    -3.193913    1.4672701   320849 
 7266000   0.71333871   -3.1916144   -1.7272489  0.049740043   -3.1916144    1.4643655   320820 
 7267000    0.7161376   -3.1968791   -1.7264471   0.05063749   -3.1968791     1.470432   320750 
 7268000   0.71546688   -3.1955156     -1.72636   0.04799759   -3.1955156    1.4691556   320728 
 7269000    0.7144534   -3.1947891   -1.7277284  0.049311513   -3.1947891    1.4670608   320731 
 7270000   0.71494259    -3.195507   -1.7273731  0.045401095    -3.195507    1.4681339   320716 
 7271000   0.71432035   -3.1958592   -1.7289985  0.042088611   -3.1958592    1.4668607   320715 
 7272000   0.71468177   -3.1947416   -1.7272256  0.050028384   -3.1947416     1.467516   320734 
 7273000    0.7140407   -3.1951458   -1.7288273  0.047199579   -3.1951458    1.4663185   320708 
 7274000   0.71434849   -3.1975965   -1.7303028  0.045875604   -3.1975965    1.4672937   320633 
 7275000   0.71330579   -3.1946211   -1.7293138  0.051021589   -3.1946211    1.4653073   320599 
 7276000   0.71468134   -3.1962177   -1.7279107  0.048012043   -3.1962177    1.4683071   320561 
 7277000   0.71316984   -3.1946454   -1.7293614  0.045609172   -3.1946454     1.465284   320543 
 7278000   0.71418871    -3.197022   -1.7295348  0.044903074    -3.197022    1.4674872   320519 
 7279000   0.71399648   -3.1985467   -1.7313767  0.051239639   -3.1985467    1.4671701   320502 
 7280000   0.71299689   -3.1938224   -1.7289806  0.048215895   -3.1938224    1.4648418   320562 
 7281000   0.71295368   -3.1940128   -1.7290999  0.047512739   -3.1940128     1.464913   320527 
 7282000   0.71462359   -3.1977603   -1.7292053  0.043232085   -3.1977603    1.4685549   320481 
 7283000   0.71345858   -3.1952804   -1.7287306  0.047165694   -3.1952804    1.4665498   320396 
 7284000   0.71408598   -3.1964097   -1.7283915   0.04693987   -3.1964097    1.4680181   320357 
 7285000   0.71374901   -3.1958945   -1.7283584  0.046037583   -3.1958945    1.4675361   320311 
 7286000   0.71428185   -3.1954058   -1.7266045  0.049137974   -3.1954058    1.4688014   320274 
 7287000   0.71385302   -3.1933092   -1.7253347   0.04728696   -3.1933092    1.4679745   320262 
 7288000   0.71498778   -3.1968341    -1.726347  0.050838324   -3.1968341    1.4704871   320223 
 7289000   0.71357616   -3.1952631   -1.7274775  0.042952951   -3.1952631    1.4677856   320179 
 7290000   0.71366466   -3.1963075   -1.7280785  0.050234043   -3.1963075     1.468229   320122 
 7291000   0.71400421   -3.1956557   -1.7267143    0.0478056   -3.1956557    1.4689413   320119 
 7292000   0.71397949   -3.1964798   -1.7273323  0.048420233   -3.1964798    1.4691475   320063 
 7293000   0.71475913   -3.1963305   -1.7255879  0.049203431   -3.1963305    1.4707425   320065 
 7294000   0.71518704   -3.1966733   -1.7248158  0.048030656   -3.1966733    1.4718576   320014 
 7295000   0.71457745   -3.1954526   -1.7246197  0.049083832   -3.1954526    1.4708329   319964 
 7296000   0.71380406   -3.1929633   -1.7236121    0.0488799   -3.1929633    1.4693512   319940 
 7297000   0.71421336   -3.1954005   -1.7250275  0.047421722   -3.1954005    1.4703729   319901 
 7298000   0.71295089   -3.1929868   -1.7249973  0.048710437   -3.1929868    1.4679895   319854 
 7299000   0.71389269   -3.1948462   -1.7249128   0.04329259   -3.1948462    1.4699333   319853 
 7300000   0.71276957   -3.1917221   -1.7242527  0.042916447   -3.1917221    1.4674694   319886 
 7301000   0.71180195   -3.1889172   -1.7234629  0.049160084   -3.1889172    1.4654543   319891 
 7302000   0.71336468   -3.1935774   -1.7248093  0.048177218   -3.1935774    1.4687681   319870 
 7303000   0.71183022   -3.1888387   -1.7232804  0.049963751   -3.1888387    1.4655583   319881 
 7304000   0.71180201   -3.1876362   -1.7220443  0.046902286   -3.1876362    1.4655919   319861 
 7305000   0.71280231    -3.188712   -1.7210192  0.047528766    -3.188712    1.4676928   319852 
 7306000   0.71452833   -3.1903193   -1.7190082  0.045949934   -3.1903193    1.4713111   319838 
 7307000   0.71286957    -3.187183   -1.7188605   0.04745896    -3.187183    1.4683225   319745 
 7308000   0.71254761   -3.1898416   -1.7217644  0.048357179   -3.1898416    1.4680771   319654 
 7309000   0.71046424   -3.1844496   -1.7204222  0.047404274   -3.1844496    1.4640275   319601 
 7310000   0.71042822   -3.1853969   -1.7213383  0.047927537   -3.1853969    1.4640586   319578 
 7311000   0.71060501   -3.1859235   -1.7213951  0.043012103   -3.1859235    1.4645283   319555 
 7312000   0.71079355   -3.1871924   -1.7221288  0.043623975   -3.1871924    1.4650636   319523 
 7313000    0.7119866   -3.1879298   -1.7201774  0.048922755   -3.1879298    1.4677524   319473 
 7314000   0.71053856    -3.185517   -1.7206902  0.047262893    -3.185517    1.4648269   319460 
 7315000    0.7122605    -3.190093   -1.7216381  0.050216118    -3.190093    1.4684549   319443 
 7316000   0.71249173    -3.188665   -1.7196459   0.04804633    -3.188665     1.469019   319424 
 7317000   0.71277029    -3.189914   -1.7202563  0.046367588    -3.189914    1.4696578   319410 
 7318000    0.7119032   -3.1894226   -1.7212401  0.047853016   -3.1894226    1.4681825   319342 
 7319000   0.71323727   -3.1913958   -1.7202685  0.049165773   -3.1913958    1.4711273   319300 
 7320000   0.71254485   -3.1927248   -1.7227449  0.048510417   -3.1927248    1.4699799   319239 
 7321000   0.71264513   -3.1938358    -1.723299  0.046244041   -3.1938358    1.4705369   319163 
 7322000   0.71179685   -3.1930857   -1.7244051   0.04708647   -3.1930857    1.4686806   319186 
 7323000   0.71159396   -3.1934312   -1.7251646  0.051061173   -3.1934312    1.4682666   319185 
 7324000   0.71101502   -3.1924851    -1.725151  0.047400072   -3.1924851    1.4673341   319128 
 7325000   0.71233157   -3.1941865   -1.7242506  0.045607191   -3.1941865    1.4699359   319153 
 7326000   0.71190967   -3.1949433   -1.7258734  0.046041033   -3.1949433    1.4690699   319152 
 7327000   0.71200221   -3.1960967   -1.7266748  0.045715999   -3.1960967     1.469422   319117 
 7328000   0.71162161   -3.1932337    -1.724519  0.045270091   -3.1932337    1.4687147   319100 
 7329000   0.71205991    -3.193692   -1.7240542  0.048418686    -3.193692    1.4696378   319096 
 7330000   0.71146363   -3.1932992   -1.7246942  0.050208847   -3.1932992     1.468605   319053 
 7331000   0.71167785   -3.1938654   -1.7246616   0.05273819   -3.1938654    1.4692038   319019 
 7332000   0.71149568   -3.1933671   -1.7244565  0.048768551   -3.1933671    1.4689106   319001 
 7333000   0.71096907   -3.1916377   -1.7236532  0.048304491   -3.1916377    1.4679844   318966 
 7334000    0.7109992   -3.1907166   -1.7225457  0.045708306   -3.1907166    1.4681709   318939 
 7335000   0.71139072   -3.1916419   -1.7225888  0.046226653   -3.1916419    1.4690531   318923 
 7336000   0.71227952   -3.1954719   -1.7245557   0.04694355   -3.1954719    1.4709162   318917 
 7337000   0.70930877   -3.1914341    -1.726593  0.049215519   -3.1914341     1.464841   318904 
 7338000   0.71033412   -3.1922223   -1.7251625  0.051992344   -3.1922223    1.4670597   318882 
 7339000   0.71109506   -3.1936619   -1.7248326  0.046543724   -3.1936619    1.4688294   318839 
 7340000   0.70980082   -3.1925238    -1.726101  0.047263072   -3.1925238    1.4664228   318781 
 7341000    0.7101107   -3.1917454   -1.7244569  0.045395652   -3.1917454    1.4672885   318732 
 7342000   0.71039379    -3.192346   -1.7243896  0.045785629    -3.192346    1.4679564   318714 
 7343000   0.70866241   -3.1900779   -1.7256119  0.047325708   -3.1900779     1.464466   318695 
 7344000   0.71009363    -3.190517   -1.7229092  0.056432845    -3.190517    1.4676078   318655 
 7345000   0.70972375   -3.1921896   -1.7251207  0.044019446   -3.1921896    1.4670689   318606 
 7346000   0.70855297   -3.1907206   -1.7260534  0.049474262   -3.1907206    1.4646672   318602 
 7347000   0.70944845   -3.1907877   -1.7240945   0.04890636   -3.1907877    1.4666932   318564 
 7348000   0.70948239   -3.1929569   -1.7257744  0.042021183   -3.1929569    1.4671825   318473 
 7349000   0.70838029   -3.1909067   -1.7257364  0.048290227   -3.1909067    1.4651702   318415 
 7350000   0.70938253   -3.1901017   -1.7228263  0.048986543   -3.1901017    1.4672754   318408 
 7351000    0.7096099   -3.1912564   -1.7235015  0.044637932   -3.1912564    1.4677549   318406 
 7352000   0.70870544   -3.1891609    -1.723111  0.048143072   -3.1891609    1.4660499   318370 
 7353000   0.70859808   -3.1902667   -1.7243329  0.050000463   -3.1902667    1.4659337   318347 
 7354000   0.70837061    -3.191399   -1.7258162  0.048640868    -3.191399    1.4655828   318321 
 7355000   0.70795854   -3.1899909   -1.7250673  0.044637083   -3.1899909    1.4649236   318279 
 7356000    0.7081904   -3.1917733   -1.7263561  0.046523792   -3.1917733    1.4654172   318276 
 7357000   0.70787974   -3.1907838   -1.7259312   0.04778241   -3.1907838    1.4648526   318259 
 7358000   0.70895691   -3.1933037   -1.7260792   0.04520933   -3.1933037    1.4672245   318228 
 7359000   0.71000698   -3.1949874   -1.7254788  0.049712936   -3.1949874    1.4695085   318204 
 7360000   0.70940136   -3.1942909   -1.7258051  0.047490815   -3.1942909    1.4684858   318154 
 7361000   0.70964501   -3.1955036    -1.726144  0.048369747   -3.1955036    1.4693597   318074 
 7362000   0.70877256   -3.1945573   -1.7268011   0.05158438   -3.1945573    1.4677563   318030 
 7363000   0.71003466   -3.1945197   -1.7239787  0.046358024   -3.1945197     1.470541   317993 
 7364000   0.70848728   -3.1933541   -1.7259718  0.049178328   -3.1933541    1.4673823   317983 
 7365000   0.70833703   -3.1941107   -1.7268503  0.047364924   -3.1941107    1.4672603   317942 
 7366000   0.70814067   -3.1929534   -1.7259937   0.04295677   -3.1929534    1.4669597   317919 
 7367000   0.70817275   -3.1936682   -1.7263097  0.045113326   -3.1936682    1.4673585   317847 
 7368000   0.70786124   -3.1946722    -1.727733  0.045262169   -3.1946722    1.4669392   317798 
 7369000   0.70666647   -3.1939948    -1.729398  0.048064297   -3.1939948    1.4645968   317769 
 7370000   0.70711806    -3.195148   -1.7294491  0.049498284    -3.195148    1.4656988   317733 
 7371000   0.70709197   -3.1947414   -1.7291197  0.044962137   -3.1947414    1.4656217   317738 
 7372000    0.7078024   -3.1943079   -1.7271767  0.045802149   -3.1943079    1.4671312   317730 
 7373000   0.70715653   -3.1921456   -1.7263624  0.046224136   -3.1921456    1.4657832   317732 
 7374000   0.70731519   -3.1932688   -1.7270829  0.048512541   -3.1932688    1.4661859   317716 
 7375000   0.70803492   -3.1939934   -1.7262971  0.046663782   -3.1939934    1.4676963   317712 
 7376000    0.7076989   -3.1924525   -1.7253281  0.043101164   -3.1924525    1.4671244   317685 
 7377000   0.70692802   -3.1909617   -1.7252877  0.046020765   -3.1909617    1.4656739   317653 
 7378000   0.70834109   -3.1927888   -1.7240048  0.040585278   -3.1927888     1.468784   317614 
 7379000   0.70874832   -3.1945956    -1.725069  0.046281354   -3.1945956    1.4695266   317636 
 7380000    0.7068437   -3.1899795   -1.7244111  0.045481755   -3.1899795    1.4655683   317638 
 7381000   0.70914864   -3.1929296   -1.7224341  0.042500197   -3.1929296    1.4704955   317606 
 7382000   0.70739266   -3.1914901   -1.7244094   0.04609352   -3.1914901    1.4670807   317557 
 7383000    0.7059455   -3.1926392   -1.7281401  0.048300949   -3.1926392     1.464499   317466 
 7384000   0.70697957   -3.1945004    -1.727616   0.04181986   -3.1945004    1.4668845   317414 
 7385000   0.70643721   -3.1919743    -1.726012  0.045976633   -3.1919743    1.4659624   317370 
 7386000    0.7078379   -3.1925534   -1.7237307  0.044612001   -3.1925534    1.4688227   317380 
 7387000   0.70739525   -3.1926847    -1.724762   0.04252293   -3.1926847    1.4679227   317376 
 7388000   0.70705373   -3.1927089   -1.7251434  0.044924928   -3.1927089    1.4675655   317300 
 7389000   0.70645163   -3.1900758   -1.7235567  0.050702356   -3.1900758    1.4665191   317256 
 7390000   0.70684517   -3.1915307   -1.7242363  0.045638434   -3.1915307    1.4672944   317265 
 7391000   0.70753767   -3.1926152    -1.723661  0.044868082   -3.1926152    1.4689542   317217 
 7392000    0.7075707   -3.1920103   -1.7229644  0.051973331   -3.1920103    1.4690459   317212 
 7393000   0.70742048   -3.1908925   -1.7221261  0.046487102   -3.1908925    1.4687664   317205 
 7394000   0.70852807   -3.1945359   -1.7232704  0.044417474   -3.1945359    1.4712655   317162 
 7395000   0.70658011   -3.1926152   -1.7252189  0.048349766   -3.1926152    1.4673963   317124 
 7396000   0.70582738   -3.1921541   -1.7263256  0.047127083   -3.1921541    1.4658285   317125 
 7397000   0.70623295   -3.1930023   -1.7260863  0.045420445   -3.1930023    1.4669159   317072 
 7398000   0.70611971   -3.1904757   -1.7237395  0.046691784   -3.1904757    1.4667362   317060 
 7399000    0.7062613   -3.1920885   -1.7250026  0.047485235   -3.1920885    1.4670858   317048 
 7400000   0.70558199   -3.1921404   -1.7262807  0.050291152   -3.1921404    1.4658597   317008 
 7401000   0.70661198   -3.1931615   -1.7250185  0.047098615   -3.1931615    1.4681431   316977 
 7402000   0.70702699   -3.1930671   -1.7238207  0.048474229   -3.1930671    1.4692464   316925 
 7403000   0.70583396   -3.1924086   -1.7255998  0.047371669   -3.1924086    1.4668088   316916 
 7404000   0.70540838   -3.1918651   -1.7258852  0.044414936   -3.1918651    1.4659799   316904 
 7405000   0.70531237   -3.1924559   -1.7266339  0.048311515   -3.1924559     1.465822   316895 
 7406000   0.70576449   -3.1917434   -1.7248984   0.04500609   -3.1917434     1.466845   316877 
 7407000   0.70630051   -3.1911011   -1.7232162  0.046908976   -3.1911011    1.4678849   316893 
 7408000   0.70598424   -3.1897162   -1.7224052  0.046939327   -3.1897162     1.467311   316875 
 7409000   0.70606515   -3.1922975   -1.7244802  0.046768085   -3.1922975    1.4678173   316802 
 7410000   0.70691438   -3.1926581   -1.7231449  0.046309308   -3.1926581    1.4695131   316817 
 7411000   0.70690662   -3.1915301   -1.7218104  0.050257476   -3.1915301    1.4697197   316769 
 7412000   0.70713551   -3.1898525   -1.7194759  0.047720166   -3.1898525    1.4703766   316730 
 7413000    0.7063226   -3.1892758     -1.72052  0.050769061   -3.1892758    1.4687558   316715 
 7414000   0.70625611   -3.1906772   -1.7217025  0.046868447   -3.1906772    1.4689747   316638 
 7415000     0.707971   -3.1943565   -1.7217638  0.047996096   -3.1943565    1.4725927   316627 
 7416000   0.70626289   -3.1894873   -1.7202526   0.04964725   -3.1894873    1.4692347   316585 
 7417000   0.70606492   -3.1893208   -1.7203308  0.047686045   -3.1893208    1.4689899   316549 
 7418000   0.70480858   -3.1879505   -1.7214169  0.047874557   -3.1879505    1.4665336   316515 
 7419000   0.70490854   -3.1889611   -1.7221314   0.04333453   -3.1889611    1.4668296   316496 
 7420000   0.70455419   -3.1885631   -1.7222299  0.043348088   -3.1885631    1.4663332   316444 
 7421000   0.70388665   -3.1868533   -1.7216316  0.048375836   -3.1868533    1.4652217   316384 
 7422000     0.704459   -3.1883696   -1.7219611  0.047972972   -3.1883696    1.4664085   316385 
 7423000   0.70429152   -3.1896919   -1.7235996  0.045675615   -3.1896919    1.4660923   316378 
 7424000   0.70523171   -3.1902105   -1.7219012  0.043465805   -3.1902105    1.4683094   316322 
 7425000   0.70514848   -3.1889365   -1.7207216  0.043662088   -3.1889365     1.468215   316305 
 7426000   0.70495051   -3.1895717   -1.7217039  0.045065768   -3.1895717    1.4678677   316291 
 7427000   0.70291615   -3.1865842   -1.7228876  0.042986381   -3.1865842    1.4636965   316277 
 7428000    0.7043673   -3.1873753   -1.7206849  0.043739023   -3.1873753    1.4666905   316283 
 7429000    0.7060123   -3.1906745   -1.7205633  0.048185948   -3.1906745    1.4701112   316284 
 7430000   0.70640859   -3.1918399   -1.7206663  0.046656757   -3.1918399    1.4711736   316233 
 7431000   0.70598181   -3.1908399   -1.7205784  0.045104299   -3.1908399    1.4702615   316238 
 7432000   0.70461526   -3.1872877   -1.7196957  0.050433197   -3.1872877    1.4675919   316200 
 7433000   0.70531698   -3.1889742   -1.7199068  0.042862486   -3.1889742    1.4690674   316197 
 7434000   0.70422533   -3.1869825   -1.7200822  0.048822159   -3.1869825    1.4669004   316174 
 7435000   0.70700991   -3.1922635    -1.719493  0.047357316   -3.1922635    1.4727705   316159 
 7436000   0.70543375   -3.1913187   -1.7214549  0.048828065   -3.1913187    1.4698638   316078 
 7437000   0.70410637   -3.1881596   -1.7209734  0.045370256   -3.1881596    1.4671862   316059 
 7438000   0.70495566   -3.1904682   -1.7213542  0.047831047   -3.1904682     1.469114   316025 
 7439000   0.70346647   -3.1878276   -1.7217568  0.039369186   -3.1878276    1.4660709   316012 
 7440000   0.70257602   -3.1856666   -1.7214052  0.044690958   -3.1856666    1.4642614   316002 
 7441000   0.70432605   -3.1887665   -1.7208345  0.038977612   -3.1887665    1.4679319   315997 
 7442000   0.70298138   -3.1864114   -1.7211892  0.046380572   -3.1864114    1.4652222   315977 
 7443000   0.70373103   -3.1896176   -1.7226751  0.039703766   -3.1896176    1.4669425   315943 
 7444000   0.70352413   -3.1885665   -1.7219485    0.0436047   -3.1885665     1.466618   315920 
 7445000   0.70401806   -3.1884588   -1.7207508  0.046847007   -3.1884588    1.4677081   315907 
 7446000   0.70437121   -3.1889695   -1.7205856  0.047360114   -3.1889695    1.4683839   315920 
 7447000   0.70441914   -3.1881265    -1.719796  0.045849685   -3.1881265    1.4683304   315953 
 7448000   0.70421622   -3.1909788   -1.7230063  0.046755195   -3.1909788    1.4679725   315939 
 7449000   0.70360003   -3.1898434   -1.7229464  0.044093502   -3.1898434    1.4668969   315894 
 7450000   0.70325102   -3.1882885   -1.7220635  0.044744592   -3.1882885     1.466225   315882 
 7451000   0.70263233   -3.1883968   -1.7231973  0.042749675   -3.1883968    1.4651995   315825 
 7452000   0.70310806    -3.189068   -1.7227511  0.050717896    -3.189068    1.4663169   315798 
 7453000   0.70275262   -3.1897315   -1.7241002   0.04574047   -3.1897315    1.4656313   315786 
 7454000   0.70282994   -3.1870578   -1.7210377  0.047167437   -3.1870578      1.46602   315737 
 7455000   0.70441004   -3.1912814   -1.7216862  0.045395267   -3.1912814    1.4695952   315677 
 7456000   0.70327737   -3.1896058    -1.722183  0.052446907   -3.1896058    1.4674227   315636 
 7457000     0.704692   -3.1911757   -1.7205264  0.046198458   -3.1911757    1.4706493   315577 
 7458000   0.70366908   -3.1919897   -1.7231027   0.05084795   -3.1919897    1.4688869   315497 
 7459000   0.70444089    -3.195773   -1.7251398  0.045929429    -3.195773    1.4706332   315468 
 7460000   0.70525774   -3.1960975   -1.7236982  0.044291169   -3.1960975    1.4723992   315455 
 7461000   0.70232321   -3.1906912   -1.7244232  0.047200489   -3.1906912     1.466268   315456 
 7462000   0.70262982   -3.1909453   -1.7238279  0.047906506   -3.1909453    1.4671174   315411 
 7463000   0.70154401   -3.1914158   -1.7264262  0.041377804   -3.1914158    1.4649896   315381 
 7464000   0.70230053   -3.1923186   -1.7257213  0.041531473   -3.1923186    1.4665972   315375 
 7465000   0.70132178   -3.1877594   -1.7230203  0.043503551   -3.1877594    1.4647391   315335 
 7466000    0.7014641   -3.1880956   -1.7230407  0.045593043   -3.1880956     1.465055   315331 
 7467000   0.70216081   -3.1912086    -1.724531  0.047514686   -3.1912086    1.4666775   315295 
 7468000   0.70253172   -3.1910138   -1.7235382  0.044838257   -3.1910138    1.4674755   315290 
 7469000   0.70251297   -3.1907078   -1.7232668  0.042313192   -3.1907078     1.467441   315289 
 7470000   0.70306387   -3.1906309   -1.7220344  0.046227516   -3.1906309    1.4685964   315288 
 7471000   0.70261388   -3.1882941   -1.7205911  0.046140953   -3.1882941     1.467703   315278 
 7472000   0.70341094   -3.1915071   -1.7219806  0.042412361   -3.1915071    1.4695265   315244 
 7473000   0.70218101   -3.1905952   -1.7234055   0.04495716   -3.1905952    1.4671897   315194 
 7474000   0.70219233   -3.1894196    -1.722048  0.046990195   -3.1894196    1.4673716   315160 
 7475000   0.70222699   -3.1892846   -1.7216776  0.044163042   -3.1892846    1.4676071   315125 
 7476000   0.70144546   -3.1881927   -1.7220981  0.044896417   -3.1881927    1.4660947   315099 
 7477000   0.70063127   -3.1857883   -1.7212141  0.045130354   -3.1857883    1.4645742   315060 
 7478000   0.70340083   -3.1896791   -1.7192735  0.048939771   -3.1896791    1.4704056   315051 
 7479000   0.70213794   -3.1880068   -1.7200082  0.050536407   -3.1880068    1.4679986   315001 
 7480000   0.70207179   -3.1860044   -1.7181954  0.046700147   -3.1860044     1.467809   315012 
 7481000   0.70381583   -3.1871332   -1.7154537  0.048955536   -3.1871332    1.4716795   314964 
 7482000   0.70429554   -3.1890763    -1.716188  0.046742369   -3.1890763    1.4728883   314920 
 7483000   0.70356346   -3.1858313   -1.7146188  0.046495463   -3.1858313    1.4712125   314951 
 7484000    0.7020538   -3.1844911   -1.7161976  0.046527304   -3.1844911    1.4682935   314900 
 7485000   0.70101663   -3.1822608   -1.7157313  0.045585823   -3.1822608    1.4665295   314813 
 7486000    0.7011756   -3.1828824   -1.7159924  0.043138521   -3.1828824      1.46689   314807 
 7487000   0.70010414   -3.1810635   -1.7163685   0.04679052   -3.1810635     1.464695   314797 
 7488000   0.70045767   -3.1803105   -1.7147688  0.044249379   -3.1803105    1.4655417   314774 
 7489000    0.7009535   -3.1808459   -1.7141457  0.041238102   -3.1808459    1.4667002   314748 
 7490000   0.69995451   -3.1786521   -1.7140422  0.043761132   -3.1786521    1.4646099   314748 
 7491000   0.70015979   -3.1795767   -1.7143278  0.046812242   -3.1795767    1.4652489   314703 
 7492000   0.70083982   -3.1822304   -1.7154139   0.04743328   -3.1822304    1.4668165   314672 
 7493000   0.69947722   -3.1795763   -1.7154441  0.051127617   -3.1795763    1.4641322   314636 
 7494000    0.7009771   -3.1816041   -1.7142671  0.043165852   -3.1816041     1.467337   314622 
 7495000   0.70154585   -3.1803817   -1.7117187  0.044557418   -3.1803817    1.4686629   314593 
 7496000    0.7005953   -3.1784769   -1.7117106  0.046678038   -3.1784769    1.4667662   314573 
 7497000   0.70009538   -3.1757507   -1.7099286  0.044322534   -3.1757507    1.4658221   314551 
 7498000   0.70162137   -3.1797606     -1.71065  0.048218428   -3.1797606    1.4691106   314531 
 7499000    0.7014195   -3.1812506   -1.7123853  0.045268048   -3.1812506    1.4688653   314493 
 7500000   0.70101878   -3.1813403   -1.7132627  0.047110339   -3.1813403    1.4680775   314482 
 7501000   0.70149344   -3.1851696   -1.7158364  0.044444903   -3.1851696    1.4693332   314426 
 7502000   0.70091142   -3.1847674    -1.716756  0.047805894   -3.1847674    1.4680114   314448 
 7503000   0.70071372   -3.1847321   -1.7170274  0.039786102   -3.1847321    1.4677047   314425 
 7504000    0.7001745   -3.1829587   -1.7161128  0.046376964   -3.1829587    1.4668458   314367 
 7505000   0.70104381   -3.1838346   -1.7150928  0.048792133   -3.1838346    1.4687418   314351 
 7506000   0.69939647   -3.1830305   -1.7176002  0.051028396   -3.1830305    1.4654303   314321 
 7507000   0.70054707   -3.1861568   -1.7182456  0.045506067   -3.1861568    1.4679112   314306 
 7508000   0.70138005   -3.1866439   -1.7169452  0.048125534   -3.1866439    1.4696987   314297 
 7509000    0.7015362   -3.1863578   -1.7162477  0.046428168   -3.1863578    1.4701101   314279 
 7510000   0.70093002    -3.186348   -1.7173679  0.044365261    -3.186348      1.46898   314249 
 7511000   0.70088052   -3.1866053    -1.717916  0.049075294   -3.1866053    1.4686893   314289 
 7512000   0.70063317    -3.186999   -1.7186178  0.043748354    -3.186999    1.4683813   314244 
 7513000   0.70010525   -3.1858725   -1.7184482  0.049619386   -3.1858725    1.4674243   314212 
 7514000   0.70103191   -3.1860413   -1.7167402  0.042132276   -3.1860413    1.4693011   314226 
 7515000   0.70153973   -3.1866817   -1.7160168  0.045014206   -3.1866817     1.470665   314162 
 7516000   0.70012272   -3.1832733   -1.7155462  0.050757911   -3.1832733    1.4677272   314155 
 7517000   0.70158082   -3.1850779   -1.7141488  0.045540054   -3.1850779     1.470929   314124 
 7518000    0.7008563   -3.1850194   -1.7156421  0.048981976   -3.1850194    1.4693773   314131 
 7519000   0.70045649    -3.183577   -1.7149491  0.042248402    -3.183577    1.4686279   314112 
 7520000   0.69892758   -3.1806007   -1.7150711  0.045819058   -3.1806007    1.4655296   314089 
 7521000   0.69864337   -3.1780656   -1.7129267  0.047468843   -3.1780656    1.4651389   314045 
 7522000   0.70120419   -3.1814312   -1.7109079  0.044307932   -3.1814312    1.4705233   314042 
 7523000   0.70082726   -3.1816766   -1.7118549  0.044657737   -3.1816766    1.4698217   314023 
 7524000   0.69950914   -3.1798611   -1.7127477  0.048060052   -3.1798611    1.4671133   314011 
 7525000   0.69880074   -3.1787362   -1.7130759  0.046414377   -3.1787362    1.4656602   314004 
 7526000    0.7011549   -3.1797026   -1.7091094  0.045761652   -3.1797026    1.4705932   314005 
 7527000    0.7004878   -3.1787962   -1.7094524  0.043062611   -3.1787962    1.4693437   313973 
 7528000   0.70060853   -3.1787592   -1.7091107  0.047763264   -3.1787592    1.4696485   313962 
 7529000   0.70103805    -3.179176   -1.7085048  0.045800451    -3.179176    1.4706712   313936 
 7530000    0.7009161   -3.1805765   -1.7100486  0.047508912   -3.1805765    1.4705278   313912 
 7531000    0.6996697    -3.178271   -1.7102599  0.047763266    -3.178271    1.4680111   313891 
 7532000     0.700215   -3.1792256   -1.7099674  0.047157019   -3.1792256    1.4692582   313869 
 7533000   0.69896484   -3.1781779    -1.711356  0.046477241   -3.1781779    1.4668219   313829 
 7534000   0.69951324   -3.1785239   -1.7103032  0.046776877   -3.1785239    1.4682207   313776 
 7535000   0.69926836    -3.178935   -1.7110318  0.044903393    -3.178935    1.4679032   313734 
 7536000   0.70102564   -3.1818202   -1.7101905  0.044420041   -3.1818202    1.4716296   313726 
 7537000   0.69980706   -3.1803149   -1.7112808  0.045371952   -3.1803149     1.469034   313734 
 7538000   0.69961427   -3.1807018   -1.7119039  0.047647276   -3.1807018    1.4687979   313698 
 7539000   0.69861096   -3.1768758   -1.7102451  0.048103079   -3.1768758    1.4666307   313711 
 7540000   0.69931678   -3.1807335   -1.7123636   0.04587223   -3.1807335    1.4683699   313656 
 7541000   0.69840942   -3.1781629   -1.7116421  0.046165736   -3.1781629    1.4665208   313644 
 7542000   0.69828035   -3.1771653   -1.7107004  0.047176372   -3.1771653    1.4664649   313598 
 7543000   0.69856945   -3.1799911    -1.712891  0.045392131   -3.1799911    1.4671001   313592 
 7544000   0.69974338   -3.1818774   -1.7122931   0.04572236   -3.1818774    1.4695843   313588 
 7545000   0.70032216   -3.1813556   -1.7106402  0.048380793   -3.1813556    1.4707154   313606 
 7546000   0.70126262   -3.1825372   -1.7097294  0.053365158   -3.1825372    1.4728078   313581 
 7547000   0.70135271   -3.1840996   -1.7109194  0.046753678   -3.1840996    1.4731802   313542 
 7548000   0.70086523   -3.1826035   -1.7103251  0.051033509   -3.1826035    1.4722784   313516 
 7549000   0.70065171   -3.1816938   -1.7097795  0.049063187   -3.1816938    1.4719144   313498 
 7550000   0.69974746   -3.1820745    -1.711783  0.052262555   -3.1820745    1.4702915   313439 
 7551000   0.69789125   -3.1796708    -1.713317  0.050314758   -3.1796708    1.4663538   313447 
 7552000   0.69695721   -3.1789398   -1.7144971  0.052038197   -3.1789398    1.4644427   313436 
 7553000   0.69753255   -3.1799979   -1.7142528  0.045083185   -3.1799979    1.4657451   313416 
 7554000   0.69764867   -3.1785981   -1.7126417  0.050749046   -3.1785981    1.4659563   313423 
 7555000   0.69914351   -3.1814694   -1.7122595  0.046378043   -3.1814694    1.4692099   313399 
 7556000    0.6996343   -3.1802542   -1.7101536  0.044619604   -3.1802542    1.4701006   313429 
 7557000   0.69864405   -3.1794396   -1.7110825  0.046956471   -3.1794396    1.4683571   313357 
 7558000   0.69805423   -3.1784629   -1.7110832  0.043898233   -3.1784629    1.4673797   313301 
 7559000   0.69913795   -3.1790187   -1.7093937  0.046075751   -3.1790187     1.469625   313308 
 7560000   0.69762127   -3.1767515   -1.7102632  0.045613845   -3.1767515    1.4664883   313297 
 7561000   0.69750289   -3.1779853   -1.7117552  0.047879972   -3.1779853    1.4662301   313299 
 7562000   0.69831015   -3.1793493   -1.7110145  0.047389832   -3.1793493    1.4683348   313212 
 7563000   0.69868562   -3.1798624   -1.7107334  0.047406886   -3.1798624     1.469129   313211 
 7564000   0.70016085   -3.1793214   -1.7071139  0.049532647   -3.1793214    1.4722075   313216 
 7565000   0.70030414   -3.1791707   -1.7067607  0.046174663   -3.1791707      1.47241   313237 
 7566000   0.69927781   -3.1783197   -1.7079596   0.04513932   -3.1783197    1.4703601   313214 
 7567000   0.69989407   -3.1802386   -1.7082914  0.047105455   -3.1802386    1.4719473   313152 
 7568000   0.69939816   -3.1799883   -1.7090136  0.045906771   -3.1799883    1.4709748   313137 
 7569000   0.69890531   -3.1781299   -1.7081541  0.046958703   -3.1781299    1.4699758   313129 
 7570000   0.69883245   -3.1781173   -1.7080037  0.044621681   -3.1781173    1.4701136   313067 
 7571000   0.69849819   -3.1788959   -1.7092601  0.048276339   -3.1788959    1.4696358   313019 
 7572000   0.69793433   -3.1790611   -1.7104756  0.047458851   -3.1790611    1.4685855   312990 
 7573000   0.69689292   -3.1770057   -1.7106678   0.04956695   -3.1770057     1.466338   313002 
 7574000   0.69811013   -3.1799957   -1.7109558  0.044631945   -3.1799957    1.4690399   312972 
 7575000   0.69672954   -3.1773666   -1.7113068  0.043028283   -3.1773666    1.4660597   312988 
 7576000   0.69608184   -3.1753311   -1.7104892  0.042124169   -3.1753311    1.4648419   312957 
 7577000   0.69719133    -3.178697   -1.7113421  0.044404062    -3.178697    1.4673549   312919 
 7578000   0.69543534   -3.1741012   -1.7104607  0.042790054   -3.1741012    1.4636404   312923 
 7579000   0.69742295   -3.1755425   -1.7078314  0.048017769   -3.1755425    1.4677111   312947 
 7580000   0.69820578   -3.1776097    -1.708331   0.04411867   -3.1776097    1.4692787   312964 
 7581000    0.6963265   -3.1773097   -1.7116625  0.046522953   -3.1773097    1.4656472   312895 
 7582000   0.69671518   -3.1764864   -1.7097774  0.047420919   -3.1764864     1.466709   312843 
 7583000   0.69668102   -3.1774104   -1.7106421  0.045647686   -3.1774104    1.4667684   312815 
 7584000    0.6968581   -3.1773675   -1.7102263  0.046771806   -3.1773675    1.4671412   312815 
 7585000   0.69859982   -3.1788182   -1.7078078  0.048656189   -3.1788182    1.4710104   312772 
 7586000   0.69797085   -3.1798627   -1.7100687  0.048895004   -3.1798627    1.4697941   312749 
 7587000   0.69698218   -3.1794094   -1.7116222   0.04862015   -3.1794094    1.4677872   312733 
 7588000   0.69664974   -3.1788914   -1.7115463  0.048886702   -3.1788914    1.4673452   312678 
 7589000   0.69594975   -3.1763837   -1.7104191  0.047446359   -3.1763837    1.4659645   312658 
 7590000   0.69669819    -3.179325   -1.7116619  0.047718807    -3.179325    1.4676631   312632 
 7591000   0.69666052    -3.177429   -1.7095776  0.043491696    -3.177429    1.4678514   312575 
 7592000   0.69526218   -3.1764614   -1.7114532  0.046198086   -3.1764614    1.4650082   312553 
 7593000   0.69450338    -3.177939   -1.7143986  0.046363361    -3.177939    1.4635405   312525 
 7594000   0.69575525   -3.1783109   -1.7121699   0.04505083   -3.1783109     1.466141   312533 
 7595000   0.69524645   -3.1774249   -1.7122857  0.041407315   -3.1774249    1.4651392   312518 
 7596000    0.6954781   -3.1799805   -1.7142125  0.041542414   -3.1799805     1.465768   312488 
 7597000    0.6948769   -3.1783185   -1.7134753  0.043735356   -3.1783185    1.4648432   312415 
 7598000    0.6960797   -3.1794382   -1.7120219  0.046451746   -3.1794382    1.4674163   312407 
 7599000   0.69395324   -3.1760483   -1.7127916   0.04845183   -3.1760483    1.4632567   312338 
 7600000   0.69605406   -3.1807773   -1.7130532  0.048647567   -3.1807773     1.467724   312330 
 7601000   0.69603366   -3.1814403   -1.7135337   0.04661522   -3.1814403    1.4679066   312282 
 7602000   0.69587932   -3.1798193   -1.7122899  0.046966045   -3.1798193    1.4675294   312293 
 7603000   0.69637325   -3.1819127   -1.7131488  0.046523397   -3.1819127    1.4687639   312252 
 7604000   0.69522685   -3.1802039   -1.7137734  0.046634603   -3.1802039    1.4664305   312234 
 7605000   0.69471866   -3.1791123   -1.7137397  0.047230639   -3.1791123    1.4653726   312231 
 7606000   0.69484865   -3.1786909   -1.7127859  0.047177734   -3.1786909     1.465905   312176 
 7607000   0.69340441   -3.1783265   -1.7153605  0.047478094   -3.1783265     1.462966   312153 
 7608000   0.69471993   -3.1789884   -1.7132375  0.042975145   -3.1789884    1.4657509   312151 
 7609000    0.6948503   -3.1787172   -1.7123531  0.047656134   -3.1787172    1.4663642   312079 
 7610000   0.69540885   -3.1798034   -1.7122229  0.044102843   -3.1798034    1.4675805   312071 
 7611000   0.69433239   -3.1799812   -1.7142827  0.047091156   -3.1799812    1.4656986   311988 
 7612000   0.69476844    -3.179546   -1.7128047  0.048039932    -3.179546    1.4667413   311962 
 7613000   0.69369304   -3.1778826   -1.7132191  0.045757979   -3.1778826    1.4646635   311921 
 7614000   0.69394512   -3.1790716   -1.7136691  0.041528556   -3.1790716    1.4654024   311877 
 7615000   0.69345741   -3.1779132   -1.7134937  0.046734615   -3.1779132    1.4644195   311867 
 7616000   0.69493261   -3.1817849   -1.7142407  0.046163178   -3.1817849    1.4675442   311865 
 7617000   0.69261364   -3.1782818   -1.7157004  0.048736394   -3.1782818    1.4625814   311879 
 7618000   0.69489703   -3.1828916   -1.7152485  0.045639017   -3.1828916    1.4676432   311828 
 7619000   0.69314021   -3.1783818   -1.7145242  0.048159261   -3.1783818    1.4638576   311844 
 7620000   0.69482829   -3.1817583    -1.714072  0.045390279   -3.1817583    1.4676863   311788 
 7621000    0.6949937   -3.1827447   -1.7145489   0.04841504   -3.1827447    1.4681958   311754 
 7622000   0.69356844   -3.1810142   -1.7155661   0.04279205   -3.1810142    1.4654481   311698 
 7623000   0.69433074   -3.1815608   -1.7145585   0.04614874   -3.1815608    1.4670023   311710 
 7624000   0.69405649   -3.1828301   -1.7163273  0.038926341   -3.1828301    1.4665028   311693 
 7625000   0.69242325   -3.1792887   -1.7161289  0.042725044   -3.1792887    1.4631598   311670 
 7626000   0.69253904   -3.1788155   -1.7155049  0.041549256   -3.1788155    1.4633106   311690 
 7627000   0.69289133   -3.1786301    -1.714669  0.046599329   -3.1786301    1.4639611   311710 
 7628000   0.69271522     -3.17839   -1.7145522  0.041622079     -3.17839    1.4638379   311657 
 7629000   0.69373669   -3.1784993   -1.7123994  0.047749898   -3.1784993    1.4660999   311635 
 7630000   0.69435909   -3.1782732    -1.710825  0.047517715   -3.1782732    1.4674482   311628 
 7631000   0.69610829   -3.1803432   -1.7091369   0.05431609   -3.1803432    1.4712063   311615 
 7632000   0.69599088   -3.1817622   -1.7106104  0.045978202   -3.1817622    1.4711517   311574 
 7633000   0.69260053   -3.1761846   -1.7120065  0.049310683   -3.1761846    1.4641781   311533 
 7634000   0.69439304   -3.1786298   -1.7105257  0.046327161   -3.1786298    1.4681041   311504 
 7635000    0.6919305   -3.1739206   -1.7109852  0.050819446   -3.1739206    1.4629353   311496 
 7636000   0.69213199   -3.1744494   -1.7110363  0.050154988   -3.1744494     1.463413   311485 
 7637000    0.6926737    -3.177259   -1.7125219  0.046985016    -3.177259    1.4647371   311447 
 7638000   0.69268373   -3.1741789   -1.7092607  0.051496776   -3.1741789    1.4649182   311413 
 7639000   0.69263706   -3.1745635    -1.709664  0.044786247   -3.1745635    1.4648995   311396 
 7640000   0.69083531   -3.1710057    -1.709823   0.04619315   -3.1710057    1.4611827   311376 
 7641000   0.69240515   -3.1748908   -1.7102042  0.040860495   -3.1748908    1.4646865   311337 
 7642000   0.68991071   -3.1706532   -1.7109948  0.048300441   -3.1706532    1.4596584   311284 
 7643000   0.69092727   -3.1735113   -1.7114814   0.04171355   -3.1735113    1.4620299   311237 
 7644000   0.69264652   -3.1748121   -1.7090265  0.046459968   -3.1748121    1.4657856   311212 
 7645000   0.69237115   -3.1706772   -1.7055449  0.038696769   -3.1706772    1.4651323   311227 
 7646000   0.69225086   -3.1724027    -1.707186  0.042051539   -3.1724027    1.4652167   311155 
 7647000    0.6928784   -3.1749608   -1.7081896   0.04408844   -3.1749608    1.4667712   311107 
 7648000   0.69271099   -3.1763379   -1.7096854  0.044997057   -3.1763379    1.4666525   311057 
 7649000   0.69209343   -3.1756921   -1.7100974  0.043977119   -3.1756921    1.4655947   311004 
 7650000   0.69264081   -3.1748387   -1.7080283  0.046342339   -3.1748387    1.4668104   310992 
 7651000   0.69189936   -3.1744575   -1.7091089   0.04561152   -3.1744575    1.4653486   310969 
 7652000   0.69376255   -3.1773215    -1.707904  0.048137516   -3.1773215    1.4694175   310943 
 7653000   0.69249566   -3.1758052   -1.7089908  0.046252062   -3.1758052    1.4668143   310926 
 7654000   0.69226615   -3.1761434   -1.7098105  0.048805416   -3.1761434    1.4663329   310925 
 7655000   0.69203627   -3.1747929   -1.7091261  0.046330268   -3.1747929    1.4656669   310963 
 7656000   0.69319497   -3.1756807   -1.7075268  0.046382206   -3.1756807    1.4681539   310956 
 7657000   0.69220566   -3.1752244   -1.7090101  0.046594597   -3.1752244    1.4662142   310923 
 7658000   0.69173513   -3.1725731      -1.7072  0.046976075   -3.1725731    1.4653731   310890 
 7659000   0.69141559   -3.1736734     -1.70885  0.047080136   -3.1736734    1.4648234   310863 
 7660000   0.69207045   -3.1746324   -1.7083226  0.048623615   -3.1746324    1.4663098   310842 
 7661000   0.69264588   -3.1760296   -1.7082834  0.050094821   -3.1760296    1.4677462   310796 
 7662000   0.69262392   -3.1767052   -1.7089583  0.044888389   -3.1767052    1.4677469   310786 
 7663000   0.69277826   -3.1758252    -1.707619  0.048396546   -3.1758252    1.4682062   310758 
 7664000    0.6926887   -3.1769677   -1.7089796    0.0449964   -3.1769677    1.4679881   310764 
 7665000   0.69189655   -3.1733557   -1.7070558  0.049327917   -3.1733557    1.4662999   310766 
 7666000   0.69143125   -3.1735326   -1.7082047  0.049779041   -3.1735326    1.4653279   310763 
 7667000   0.69103249   -3.1738995   -1.7092706   0.04592604   -3.1738995     1.464629   310732 
 7668000   0.69223441   -3.1736509   -1.7063565  0.050549044   -3.1736509    1.4672945   310707 
 7669000   0.69142322   -3.1737007   -1.7078945  0.049468592   -3.1737007    1.4658062   310658 
 7670000   0.69281352   -3.1758646   -1.7068935  0.046007764   -3.1758646    1.4689711   310612 
 7671000   0.69267063   -3.1763733   -1.7075066  0.047409232   -3.1763733    1.4688668   310570 
 7672000     0.691548   -3.1735271   -1.7068143  0.047564583   -3.1735271    1.4667128   310522 
 7673000   0.69163805   -3.1755116   -1.7083669  0.044203925   -3.1755116    1.4671448   310471 
 7674000   0.68969197   -3.1702914   -1.7072371  0.045562255   -3.1702914    1.4630543   310463 
 7675000   0.69049015   -3.1729048   -1.7080488  0.046961307   -3.1729048     1.464856   310440 
 7676000   0.69076761   -3.1726445   -1.7070157  0.043524056   -3.1726445    1.4656288   310401 
 7677000   0.69123222   -3.1737572   -1.7070009  0.047741138   -3.1737572    1.4667563   310371 
 7678000   0.69214641   -3.1730339   -1.7042336  0.048153554   -3.1730339    1.4688003   310349 
 7679000   0.69197617   -3.1724176   -1.7038745  0.051868637   -3.1724176    1.4685431   310327 
 7680000    0.6919933   -3.1744345   -1.7058408   0.04457503   -3.1744345    1.4685937   310324 
 7681000   0.69105063   -3.1742924   -1.7073117  0.051008752   -3.1742924    1.4669807   310242 
 7682000   0.69135287    -3.175834   -1.7079656  0.046628067    -3.175834    1.4678684   310190 
 7683000   0.69014326   -3.1729474   -1.7077512  0.041426211   -3.1729474    1.4651962   310212 
 7684000   0.69072416   -3.1745397   -1.7078881  0.041822761   -3.1745397    1.4666517   310165 
 7685000   0.68933914   -3.1732345   -1.7094387  0.042456594   -3.1732345    1.4637958   310147 
 7686000   0.68997158   -3.1756525   -1.7103909  0.044305595   -3.1756525    1.4652616   310121 
 7687000   0.69147896   -3.1777289   -1.7091904    0.0441763   -3.1777289    1.4685385   310105 
 7688000   0.69075846   -3.1764975   -1.7096925  0.046031763   -3.1764975    1.4668049   310148 
 7689000   0.68998877   -3.1743443   -1.7090037  0.052015637   -3.1743443    1.4653406   310112 
 7690000   0.69027951   -3.1760815   -1.7100525  0.046425628   -3.1760815     1.466029   310097 
 7691000   0.69020799   -3.1729169   -1.7070303  0.045626548   -3.1729169    1.4658865   310095 
 7692000   0.69201675   -3.1763169   -1.7065462  0.046404698   -3.1763169    1.4697707   310086 
 7693000   0.69092146   -3.1754246   -1.7079281  0.044407263   -3.1754246    1.4674965   310075 
 7694000   0.68907756   -3.1736477   -1.7098552  0.046464058   -3.1736477    1.4637925   310030 
 7695000   0.69029994   -3.1740542   -1.7075562  0.047517726   -3.1740542     1.466498   310007 
 7696000   0.69135625    -3.174134   -1.7052924  0.049347903    -3.174134    1.4688415   309986 
 7697000   0.69176707   -3.1723253   -1.7026821  0.050166945   -3.1723253    1.4696432   310001 
 7698000    0.6916454   -3.1741872   -1.7046033   0.04759919   -3.1741872    1.4695839   309959 
 7699000    0.6908215   -3.1731296   -1.7053579  0.049343984   -3.1731296    1.4677717   309972 
 7700000   0.69012374    -3.171677   -1.7052743  0.046268701    -3.171677    1.4664027   309948 
 7701000   0.69089158   -3.1718065   -1.7038006  0.044379879   -3.1718065    1.4680059   309954 
 7702000   0.69153194   -3.1708521   -1.7013908  0.046982303   -3.1708521    1.4694613   309934 
 7703000   0.69054038    -3.169116   -1.7016481  0.043842707    -3.169116    1.4674679   309910 
 7704000   0.68958421   -3.1666859   -1.7012594  0.046099412   -3.1666859    1.4654265   309912 
 7705000   0.69054642   -3.1679526   -1.7005192  0.044758121   -3.1679526    1.4674334   309920 
 7706000   0.69032045   -3.1694977   -1.7023977  0.043793358   -3.1694977       1.4671   309889 
 7707000   0.69031331   -3.1693477   -1.7020924  0.046736893   -3.1693477    1.4672553   309853 
 7708000   0.69035887   -3.1689893   -1.7014999  0.042749977   -3.1689893    1.4674894   309824 
 7709000   0.68945088   -3.1665052   -1.7007708  0.045834515   -3.1665052    1.4657344   309787 
 7710000   0.68922093   -3.1682872   -1.7030748  0.044835396   -3.1682872    1.4652124   309794 
 7711000   0.68943915   -3.1714984   -1.7056186  0.040229559   -3.1714984    1.4658798   309751 
 7712000   0.68878768   -3.1675282   -1.7027829  0.044010096   -3.1675282    1.4647453   309698 
 7713000   0.69041315   -3.1693256   -1.7009957  0.044490181   -3.1693256    1.4683299   309671 
 7714000   0.69038622   -3.1690836   -1.7006023  0.047028589   -3.1690836    1.4684813   309627 
 7715000   0.69031596   -3.1704487   -1.7020031  0.046249031   -3.1704487    1.4684457   309603 
 7716000   0.69209436   -3.1746114   -1.7021116  0.049532642   -3.1746114    1.4724998   309546 
 7717000   0.69177345   -3.1715451   -1.6996424  0.047409695   -3.1715451    1.4719026   309528 
 7718000   0.69109549   -3.1707454   -1.7001761  0.049672812   -3.1707454    1.4705694   309505 
 7719000    0.6906926   -3.1722311   -1.7021771  0.041039636   -3.1722311    1.4700541   309433 
 7720000    0.6902915   -3.1706205   -1.7013679  0.046616932   -3.1706205    1.4692526   309422 
 7721000   0.68888011   -3.1684927   -1.7021731  0.048793265   -3.1684927    1.4663196   309407 
 7722000   0.68900513   -3.1691914   -1.7024493  0.048335879   -3.1691914    1.4667422   309374 
 7723000   0.69023215   -3.1732541   -1.7038334  0.046481959   -3.1732541    1.4694207   309360 
 7724000   0.68999491   -3.1715467   -1.7023508  0.047850011   -3.1715467    1.4691959   309301 
 7725000   0.68979796   -3.1710737   -1.7021453   0.05234708   -3.1710737    1.4689285   309269 
 7726000   0.68969297   -3.1689352   -1.7000973  0.046453286   -3.1689352    1.4688379   309241 
 7727000   0.69015884   -3.1721331   -1.7020892  0.049434336   -3.1721331    1.4700439   309196 
 7728000   0.68911575   -3.1704991   -1.7024348  0.047371788   -3.1704991    1.4680643   309145 
 7729000   0.68833562   -3.1700315   -1.7035722  0.048969739   -3.1700315    1.4664593   309133 
 7730000    0.6887356   -3.1711875   -1.7037051  0.046137479   -3.1711875    1.4674823   309097 
 7731000    0.6883964   -3.1702404   -1.7034097   0.04397727   -3.1702404    1.4668308   309082 
 7732000   0.68768259   -3.1703591   -1.7048549  0.039292971   -3.1703591    1.4655042   309041 
 7733000   0.68883767   -3.1728443   -1.7047218  0.044133544   -3.1728443    1.4681225   309008 
 7734000   0.69032367   -3.1745134   -1.7031619  0.044773734   -3.1745134    1.4713515   308995 
 7735000   0.68805341   -3.1725723     -1.70558  0.047783241   -3.1725723    1.4669922   308894 
 7736000   0.68927753   -3.1768857    -1.707155   0.04167855   -3.1768857    1.4697306   308867 
 7737000   0.68813415   -3.1731658   -1.7056357  0.046612723   -3.1731658    1.4675302   308817 
 7738000   0.68814533   -3.1746199   -1.7070278  0.045202546   -3.1746199    1.4675921   308809 
 7739000   0.68748675   -3.1734243   -1.7070183  0.048373293   -3.1734243    1.4664059   308763 
 7740000   0.68922749   -3.1741486   -1.7038678  0.048238441   -3.1741486    1.4702808   308729 
 7741000   0.68723261   -3.1708335    -1.704718  0.047385775   -3.1708335    1.4661155   308710 
 7742000   0.68914867   -3.1736689   -1.7035229  0.045057266   -3.1736689     1.470146   308722 
 7743000   0.68853402   -3.1724195   -1.7035038  0.045799974   -3.1724195    1.4689157   308705 
 7744000   0.68823231   -3.1711695   -1.7028309  0.050210568   -3.1711695    1.4683386   308691 
 7745000   0.68802131   -3.1701692   -1.7020192  0.044945323   -3.1701692      1.46815   308636 
 7746000     0.687408   -3.1684924   -1.7014277   0.04689835   -3.1684924    1.4670647   308589 
 7747000   0.68809875    -3.170287   -1.7016719   0.04757591    -3.170287    1.4686151   308573 
 7748000   0.68862549   -3.1695165   -1.6995867  0.049368213   -3.1695165    1.4699298   308533 
 7749000   0.68919667   -3.1694771   -1.6981468  0.047857338   -3.1694771    1.4713303   308495 
 7750000   0.68723997   -3.1676061    -1.700358  0.048424181   -3.1676061    1.4672481   308475 
 7751000   0.68766968   -3.1676897   -1.6994289  0.043505631   -3.1676897    1.4682608   308455 
 7752000   0.68783855   -3.1661367   -1.6974059  0.048651399   -3.1661367    1.4687308   308432 
 7753000   0.68831143   -3.1669192   -1.6969737  0.043278015   -3.1669192    1.4699455   308389 
 7754000   0.68733157   -3.1645699   -1.6967884  0.048222291   -3.1645699    1.4677815   308404 
 7755000   0.68592204   -3.1628101   -1.6980195  0.046264572   -3.1628101    1.4647905   308400 
 7756000   0.68650388   -3.1637921    -1.697664  0.040038437   -3.1637921    1.4661281   308380 
 7757000   0.68698102   -3.1630239   -1.6957626  0.043866965   -3.1630239    1.4672613   308356 
 7758000   0.68608097   -3.1604382    -1.695066  0.043427226   -3.1604382    1.4653722   308349 
 7759000   0.68502405   -3.1598326   -1.6965991  0.042554276   -3.1598326    1.4632334   308324 
 7760000   0.68559539   -3.1623808   -1.6976704  0.043965912   -3.1623808    1.4647104   308270 
 7761000   0.68491071   -3.1599591   -1.6964884  0.045394851   -3.1599591    1.4634707   308223 
 7762000   0.68609814   -3.1608999   -1.6947921  0.045953604   -3.1608999    1.4661079   308202 
 7763000   0.68626605   -3.1620648   -1.6955553  0.044100471   -3.1620648    1.4665095   308193 
 7764000   0.68603265   -3.1628727   -1.6967573  0.045454676   -3.1628727    1.4661154   308171 
 7765000   0.68651465    -3.163211   -1.6960084  0.049080035    -3.163211    1.4672026   308159 
 7766000    0.6861163    -3.162126   -1.6959222  0.044173689    -3.162126    1.4662038   308190 
 7767000    0.6866174   -3.1622243   -1.6948926  0.048865065   -3.1622243    1.4673317   308178 
 7768000    0.6874837   -3.1656118   -1.6962333  0.044906834   -3.1656118    1.4693785   308137 
 7769000   0.68749856   -3.1662216   -1.6968161  0.047228321   -3.1662216    1.4694055   308138 
 7770000   0.68701565   -3.1668257   -1.6981854  0.046510031   -3.1668257    1.4686403   308082 
 7771000   0.68768502   -3.1688122   -1.6985262  0.045150088   -3.1688122     1.470286   308037 
 7772000   0.68604844    -3.164981   -1.6980655  0.049080901    -3.164981    1.4669155   308010 
 7773000   0.68766078   -3.1683927   -1.6979342  0.046440048   -3.1683927    1.4704585   307990 
 7774000   0.68601437   -3.1647407   -1.6975647  0.051093652   -3.1647407    1.4671761   307940 
 7775000   0.68725708   -3.1688821    -1.698948  0.047306393   -3.1688821    1.4699341   307919 
 7776000     0.686304   -3.1655941   -1.6976604   0.04928146   -3.1655941    1.4679338   307911 
 7777000   0.68723524   -3.1665879   -1.6967387  0.045676854   -3.1665879    1.4698492   307927 
 7778000   0.68642728   -3.1650085   -1.6967777  0.052106913   -3.1650085    1.4682308   307904 
 7779000   0.68705122   -3.1687297    -1.699212  0.047313172   -3.1687297    1.4695177   307914 
 7780000   0.68567093   -3.1646049   -1.6981443  0.052955853   -3.1646049    1.4664606   307936 
 7781000    0.6866793   -3.1688963   -1.7000072  0.041382216   -3.1688963    1.4688891   307879 
 7782000    0.6859897    -3.168965    -1.701713  0.044112424    -3.168965     1.467252   307913 
 7783000   0.68620555    -3.168526   -1.7007837  0.046222059    -3.168526    1.4677422   307907 
 7784000   0.68441875   -3.1647371   -1.7008025  0.043083971   -3.1647371    1.4639347   307904 
 7785000   0.68365307    -3.162293   -1.7000151  0.044595015    -3.162293    1.4622779   307908 
 7786000   0.68524311    -3.164302   -1.6985374  0.047118382    -3.164302    1.4657646   307890 
 7787000   0.68512538    -3.166731   -1.7010944  0.040558083    -3.166731    1.4656365   307864 
 7788000   0.68651404   -3.1691027    -1.700424  0.047937874   -3.1691027    1.4686787   307849 
 7789000   0.68581318   -3.1665975   -1.6991321  0.049946467   -3.1665975    1.4674654   307789 
 7790000   0.68700498   -3.1679456    -1.697782  0.045286446   -3.1679456    1.4701636   307758 
 7791000   0.68516506    -3.166628    -1.700397  0.047030966    -3.166628     1.466231   307757 
 7792000   0.68548673   -3.1659516     -1.69918  0.047932462   -3.1659516    1.4667716   307788 
 7793000    0.6850829   -3.1667222   -1.7006527  0.050054491   -3.1667222    1.4660695   307754 
 7794000   0.68679988   -3.1698956   -1.7001566   0.04799716   -3.1698956     1.469739   307755 
 7795000    0.6857762   -3.1695628   -1.7019715  0.046409363   -3.1695628    1.4675913   307746 
 7796000   0.68624196   -3.1706689   -1.7019758  0.049942273   -3.1706689     1.468693   307724 
 7797000   0.68553009   -3.1692833   -1.7018754  0.049276378   -3.1692833    1.4674079   307674 
 7798000   0.68688502   -3.1691725   -1.6987448  0.048300643   -3.1691725    1.4704277   307649 
 7799000   0.68870829   -3.1718418   -1.6974439  0.048458408   -3.1718418    1.4743979   307635 
 7800000   0.68800281   -3.1717265   -1.6986857  0.047406619   -3.1717265    1.4730408   307603 
 7801000    0.6864474   -3.1698436    -1.699937  0.051947167   -3.1698436    1.4699065   307562 
 7802000   0.68557473   -3.1675438   -1.6996014  0.047348831   -3.1675438    1.4679424   307582 
 7803000   0.68454068   -3.1675576   -1.7017006   0.04766169   -3.1675576     1.465857   307555 
 7804000     0.684022   -3.1669183   -1.7021482  0.046376711   -3.1669183    1.4647701   307550 
 7805000   0.68403479   -3.1672423   -1.7021828  0.045062829   -3.1672423    1.4650595   307495 
 7806000   0.68435249   -3.1666052   -1.7008557  0.046557359   -3.1666052    1.4657495   307493 
 7807000   0.68433355   -3.1661411   -1.7002462  0.044735697   -3.1661411    1.4658949   307454 
 7808000   0.68277437   -3.1646361   -1.7020336  0.043056461   -3.1646361    1.4626025   307444 
 7809000   0.68421343   -3.1649886    -1.699313  0.050350234   -3.1649886    1.4656757   307446 
 7810000   0.68445594   -3.1654002   -1.6992528  0.046109119   -3.1654002    1.4661475   307456 
 7811000   0.68571289   -3.1656124   -1.6969826  0.042594155   -3.1656124    1.4686298   307500 
 7812000   0.68511042   -3.1641031   -1.6967302  0.042473722   -3.1641031    1.4673728   307493 
 7813000   0.68511233   -3.1641574   -1.6968569  0.041183842   -3.1641574    1.4673006   307509 
 7814000   0.68425389   -3.1651853   -1.6993944   0.04374231   -3.1651853    1.4657909   307440 
 7815000   0.68691116   -3.1681075    -1.696696  0.045157718   -3.1681075    1.4714115   307455 
 7816000   0.68557245   -3.1645314   -1.6960066  0.048437034   -3.1645314    1.4685248   307459 
 7817000   0.68715856   -3.1687607   -1.6965559  0.049425179   -3.1687607    1.4722048   307400 
 7818000   0.68577988   -3.1667539   -1.6974407  0.050301609   -3.1667539    1.4693132   307387 
 7819000   0.68549084   -3.1660308   -1.6972414  0.044690276   -3.1660308    1.4687895   307367 
 7820000   0.68541976   -3.1668175    -1.698123  0.044711473   -3.1668175    1.4686945   307355 
 7821000   0.68595469   -3.1682333   -1.6982873  0.047235703   -3.1682333     1.469946   307333 
 7822000   0.68522406   -3.1666691   -1.6980403  0.044818896   -3.1666691    1.4686288   307281 
 7823000   0.68503702   -3.1672997   -1.6989715  0.047410675   -3.1672997    1.4683282   307260 
 7824000   0.68528064   -3.1691047     -1.70002  0.046237188   -3.1691047    1.4690847   307211 
 7825000   0.68302894   -3.1654853   -1.7010419   0.04657616   -3.1654853    1.4644435   307172 
 7826000   0.68297586    -3.164961   -1.7005503  0.045556418    -3.164961    1.4644107   307155 
 7827000   0.68430563   -3.1664671   -1.6990905  0.045170492   -3.1664671    1.4673766   307131 
 7828000   0.68359593   -3.1662353   -1.7001275  0.047305064   -3.1662353    1.4661078   307078 
 7829000   0.68312224    -3.163764   -1.6985004  0.046326729    -3.163764    1.4652636   307042 
 7830000   0.68431457    -3.166199   -1.6981914  0.047914181    -3.166199    1.4680076   307003 
 7831000   0.68522376   -3.1675029   -1.6973533  0.041719197   -3.1675029    1.4701496   306963 
 7832000   0.68317006   -3.1636658   -1.6978079  0.049331531   -3.1636658    1.4658579   306939 
 7833000   0.68447718   -3.1648085   -1.6960119  0.050367239   -3.1648085    1.4687966   306911 
 7834000   0.68347402   -3.1634099   -1.6965796  0.045949942   -3.1634099    1.4668303   306872 
 7835000    0.6826812   -3.1620504   -1.6968834  0.048165256   -3.1620504     1.465167   306864 
 7836000   0.68386956   -3.1640694   -1.6961605  0.041548954   -3.1640694    1.4679088   306824 
 7837000   0.68210088   -3.1620619   -1.6978827  0.044145583   -3.1620619    1.4641792   306810 
 7838000   0.68222988   -3.1645645   -1.6999652  0.045349904   -3.1645645    1.4645993   306780 
 7839000   0.68177074   -3.1630578   -1.6994728  0.044185855   -3.1630578     1.463585   306786 
 7840000    0.6826992   -3.1621538   -1.6965231  0.047850771   -3.1621538    1.4656307   306775 
 7841000   0.68252669   -3.1636909   -1.6980435  0.042725252   -3.1636909    1.4656474   306694 
 7842000   0.68228413   -3.1599672   -1.6948742  0.045675732   -3.1599672    1.4650931   306701 
 7843000   0.68311957   -3.1614361   -1.6944774  0.044217408   -3.1614361    1.4669588   306686 
 7844000   0.68411633   -3.1624715   -1.6934057  0.044676171   -3.1624715    1.4690657   306693 
 7845000   0.68349348   -3.1603993   -1.6924796  0.048121155   -3.1603993    1.4679197   306653 
 7846000   0.68327919   -3.1614233   -1.6939016  0.039299612   -3.1614233    1.4675217   306640 
 7847000   0.68272314    -3.157803   -1.6914182  0.047034825    -3.157803    1.4663848   306628 
 7848000   0.68352518   -3.1594336   -1.6911538  0.042977449   -3.1594336    1.4682798   306592 
 7849000   0.68035819   -3.1562422   -1.6946128  0.048284484   -3.1562422    1.4616294   306560 
 7850000   0.68303079   -3.1620155   -1.6945009  0.044155928   -3.1620155    1.4675146   306530 
 7851000   0.68235676   -3.1612497   -1.6951737  0.045905594   -3.1612497     1.466076   306528 
 7852000   0.68272216   -3.1606688   -1.6936594  0.046069285   -3.1606688    1.4670094   306497 
 7853000   0.68246125   -3.1598826   -1.6934051  0.047796138   -3.1598826    1.4664775   306491 
 7854000   0.68237061   -3.1588985   -1.6923717  0.047873044   -3.1588985    1.4665268   306440 
 7855000   0.68186821   -3.1583592   -1.6926444  0.046021782   -3.1583592    1.4657149   306384 
 7856000   0.68309525   -3.1634355   -1.6948961  0.040218932   -3.1634355    1.4685394   306345 
 7857000   0.68262946   -3.1636773   -1.6957895  0.044430741   -3.1636773    1.4678878   306272 
 7858000    0.6818042   -3.1595442   -1.6933113  0.048107634   -3.1595442    1.4662329   306247 
 7859000   0.68135975   -3.1604292   -1.6951042  0.044538873   -3.1604292    1.4653249   306237 
 7860000   0.68148337    -3.161291   -1.6956236  0.044164124    -3.161291    1.4656674   306221 
 7861000   0.68032486   -3.1598262   -1.6963971  0.047847529   -3.1598262    1.4634291   306168 
 7862000   0.68134526   -3.1634489   -1.6976143  0.046032477   -3.1634489    1.4658347   306124 
 7863000   0.68129103   -3.1618409   -1.6959314  0.044801143   -3.1618409    1.4659096   306084 
 7864000   0.68122037   -3.1636566   -1.6978895  0.044550982   -3.1636566    1.4657671   306082 
 7865000   0.68094833   -3.1619074   -1.6968166  0.047861406   -3.1619074    1.4650908   306101 
 7866000   0.68119739   -3.1619462   -1.6957879  0.043110456   -3.1619462    1.4661583   305990 
 7867000   0.68242337   -3.1623257   -1.6936679  0.044879714   -3.1623257    1.4686578   306019 
 7868000    0.6831192   -3.1623358   -1.6922285   0.04535035   -3.1623358    1.4701073   306029 
 7869000   0.68280147   -3.1621944    -1.692694  0.046210952   -3.1621944    1.4695004   306013 
 7870000   0.68227842   -3.1627586   -1.6941248  0.048606358   -3.1627586    1.4686339   305959 
 7871000   0.68102965   -3.1613737   -1.6951308  0.042642758   -3.1613737    1.4662429   305897 
 7872000   0.67997052   -3.1609128   -1.6969119  0.047259114   -3.1609128    1.4640009   305889 
 7873000   0.68115279   -3.1598933   -1.6934188  0.047520784   -3.1598933    1.4664745   305904 
 7874000     0.681742   -3.1593994   -1.6917715  0.045173192   -3.1593994    1.4676279   305928 
 7875000   0.68019866   -3.1586039   -1.6939873   0.05276235   -3.1586039    1.4646166   305863 
 7876000   0.68140828    -3.160699   -1.6934874  0.044976927    -3.160699    1.4672116   305865 
 7877000   0.68096139   -3.1603002   -1.6937727  0.043645048   -3.1603002    1.4665274   305807 
 7878000   0.68005115   -3.1582594   -1.6936109   0.04625389   -3.1582594    1.4646486   305790 
 7879000   0.67863408   -3.1566461     -1.69493  0.045304105   -3.1566461    1.4617161   305765 
 7880000   0.67880435   -3.1593991   -1.6971585  0.045834601   -3.1593991    1.4622407   305732 
 7881000   0.68035117   -3.1627082    -1.696819  0.047951153   -3.1627082    1.4658892   305666 
 7882000   0.67920937   -3.1616577   -1.6980419  0.041554931   -3.1616577    1.4636158   305627 
 7883000   0.67940146   -3.1601752   -1.6962461  0.047545518   -3.1601752    1.4639291   305648 
 7884000   0.68041521   -3.1618961   -1.6958114  0.042621082   -3.1618961    1.4660847   305654 
 7885000   0.68105328    -3.163539   -1.6958922  0.047065949    -3.163539    1.4676468   305615 
 7886000   0.68036495   -3.1632164   -1.6966786  0.046986359   -3.1632164    1.4665378   305537 
 7887000   0.68115283   -3.1661034   -1.6976991  0.046293098   -3.1661034    1.4684043   305502 
 7888000   0.68065873   -3.1652704   -1.6978448   0.04868275   -3.1652704    1.4674256   305484 
 7889000   0.67933332   -3.1648556   -1.7000909  0.043694572   -3.1648556    1.4647647   305443 
 7890000   0.67880041   -3.1642532   -1.7004171  0.049115627   -3.1642532    1.4638361   305397 
 7891000   0.68042458   -3.1671916    -1.699752  0.046205248   -3.1671916    1.4674396   305376 
 7892000   0.67921048   -3.1641924   -1.6994576   0.04696202   -3.1641924    1.4647348   305394 
 7893000   0.67907856    -3.163246   -1.6984791  0.044376197    -3.163246    1.4647669   305328 
 7894000   0.67949993   -3.1647004   -1.6988566  0.048119138   -3.1647004    1.4658438   305293 
 7895000   0.67871164   -3.1628564   -1.6984013  0.046662188   -3.1628564    1.4644551   305228 
 7896000   0.67851868     -3.16325    -1.699029  0.044529328     -3.16325     1.464221   305190 
 7897000   0.67893227   -3.1645554   -1.6994946  0.046643447   -3.1645554    1.4650608   305201 
 7898000   0.68026108   -3.1665645   -1.6985257  0.051122176   -3.1665645    1.4680388   305178 
 7899000    0.6800042   -3.1668195   -1.6991427  0.048605681   -3.1668195    1.4676768   305138 
 7900000   0.67859509   -3.1635142   -1.6989315  0.050803434   -3.1635142    1.4645827   305149 
 7901000   0.67851206   -3.1641606   -1.6994835  0.047500417   -3.1641606    1.4646771   305092 
 7902000    0.6787686   -3.1647997   -1.6994968  0.044738686   -3.1647997    1.4653029   305077 
 7903000    0.6779609   -3.1627106   -1.6988778  0.047331426   -3.1627106    1.4638328   305020 
 7904000   0.67894241   -3.1655374   -1.6993643  0.050526148   -3.1655374    1.4661731   304974 
 7905000   0.67923209    -3.166327    -1.699509  0.047030717    -3.166327    1.4668179   304970 
 7906000   0.67944129   -3.1619816   -1.6948466   0.05011008   -3.1619816     1.467135   304998 
 7907000   0.67776529   -3.1597135   -1.6961015  0.045312998   -3.1597135    1.4636119   304978 
 7908000   0.67797327   -3.1601083   -1.6957496  0.049367994   -3.1601083    1.4643588   304916 
 7909000    0.6780408    -3.163579   -1.6987573  0.042905017    -3.163579    1.4648217   304850 
 7910000   0.67860614   -3.1640599   -1.6978581  0.048207598   -3.1640599    1.4662017   304817 
 7911000    0.6782108   -3.1624114   -1.6971408  0.047597151   -3.1624114    1.4652707   304833 
 7912000   0.67918667   -3.1639797   -1.6966199  0.046922555   -3.1639797    1.4673598   304837 
 7913000   0.68003179    -3.163706     -1.69453  0.048939399    -3.163706     1.469176   304839 
 7914000   0.67976937   -3.1616247   -1.6929386    0.0502296   -3.1616247    1.4686861   304823 
 7915000    0.6780564   -3.1601562   -1.6950702   0.04658202   -3.1601562    1.4650861   304802 
 7916000   0.67850591   -3.1589903   -1.6929281  0.046473195   -3.1589903    1.4660621   304801 
 7917000   0.67796834   -3.1588637   -1.6937804  0.044475749   -3.1588637    1.4650833   304763 
 7918000   0.67651515   -3.1551663   -1.6931898  0.050183158   -3.1551663    1.4619765   304756 
 7919000   0.67962498   -3.1579261   -1.6894171   0.04389935   -3.1579261    1.4685091   304795 
 7920000   0.67780068   -3.1540104   -1.6893327  0.048223867   -3.1540104    1.4646777   304772 
 7921000   0.67881947   -3.1550077   -1.6881525  0.044042347   -3.1550077    1.4668552   304777 
 7922000   0.67873035   -3.1542772   -1.6874991  0.049427473   -3.1542772    1.4667781   304753 
 7923000   0.67864512   -3.1549057   -1.6880856  0.044565518   -3.1549057    1.4668201   304706 
 7924000   0.67742848   -3.1543804   -1.6899833  0.048663875   -3.1543804    1.4643971   304663 
 7925000   0.67746527   -3.1555003   -1.6909083  0.041917785   -3.1555003     1.464592   304639 
 7926000    0.6764432     -3.15448   -1.6919823  0.042485289     -3.15448    1.4624977   304615 
 7927000   0.67780262   -3.1576023   -1.6921462  0.044179143   -3.1576023     1.465456   304611 
 7928000   0.67776149   -3.1552971    -1.689752  0.043367501   -3.1552971    1.4655451   304574 
 7929000   0.67741463   -3.1543027   -1.6891516  0.042653077   -3.1543027    1.4651511   304500 
 7930000   0.67872449   -3.1565554   -1.6885857  0.042987208   -3.1565554    1.4679696   304503 
 7931000   0.67971885   -3.1596156   -1.6891524   0.04547826   -3.1596156    1.4704632   304432 
 7932000   0.67797412   -3.1555714   -1.6888248  0.048615637   -3.1555714    1.4667465   304420 
 7933000   0.67926288   -3.1573302   -1.6876749  0.048400935   -3.1573302    1.4696554   304395 
 7934000   0.67806197   -3.1566545   -1.6895734  0.047096154   -3.1566545    1.4670812   304390 
 7935000   0.67871034   -3.1575784   -1.6890944  0.046696367   -3.1575784     1.468484   304390 
 7936000   0.67588174   -3.1519938   -1.6895723  0.049409772   -3.1519938    1.4624216   304378 
 7937000   0.67758202    -3.156587   -1.6905635  0.048114954    -3.156587    1.4660235   304394 
 7938000   0.67819536   -3.1581369    -1.690772  0.047383469   -3.1581369     1.467365   304391 
 7939000   0.67771426   -3.1580907   -1.6916125  0.046430175   -3.1580907    1.4664782   304359 
 7940000   0.67651266   -3.1560562     -1.69213  0.047861145   -3.1560562    1.4639262   304349 
 7941000   0.67740997   -3.1574478   -1.6912812  0.045215907   -3.1574478    1.4661666   304287 
 7942000   0.67778929   -3.1586238   -1.6915735  0.046698702   -3.1586238    1.4670503   304274 
 7943000   0.67720972   -3.1584604   -1.6926695  0.044957932   -3.1584604     1.465791   304275 
 7944000   0.67731444   -3.1581514   -1.6920808  0.043010745   -3.1581514    1.4660706   304264 
 7945000   0.67836766   -3.1589879   -1.6906424  0.050454773   -3.1589879    1.4683456   304265 
 7946000   0.67771916   -3.1580432   -1.6909181  0.050843404   -3.1580432    1.4671251   304227 
 7947000    0.6776001   -3.1590888   -1.6920141  0.048387473   -3.1590888    1.4670747   304184 
 7948000    0.6770286   -3.1554219   -1.6895557   0.05026049   -3.1554219    1.4658663   304178 
 7949000   0.67725356   -3.1580981    -1.691552  0.043638208   -3.1580981    1.4665462   304138 
 7950000   0.67661553   -3.1566288   -1.6913823  0.050291856   -3.1566288    1.4652465   304121 
 7951000   0.67755308   -3.1580113   -1.6906525  0.047257581   -3.1580113    1.4673588   304104 
 7952000   0.67646805    -3.156935   -1.6919934   0.04582771    -3.156935    1.4649416   304118 
 7953000   0.67625912   -3.1553542   -1.6907495  0.047287395   -3.1553542    1.4646047   304094 
 7954000    0.6762416   -3.1553391   -1.6907146  0.048074949   -3.1553391    1.4646245   304082 
 7955000   0.67733342   -3.1555634   -1.6885212  0.048524501   -3.1555634    1.4670423   304071 
 7956000   0.67660878   -3.1542657   -1.6888556  0.046705178   -3.1542657    1.4654101   304084 
 7957000   0.67681331   -3.1541313   -1.6880612  0.050212128   -3.1541313    1.4660701   304039 
 7958000   0.67712935   -3.1534539   -1.6865255  0.048403377   -3.1534539    1.4669283   304003 
 7959000   0.67801541   -3.1555143   -1.6865505  0.043445241   -3.1555143    1.4689639   303979 
 7960000   0.67878192   -3.1572008   -1.6863149   0.04662079   -3.1572008    1.4708859   303925 
 7961000   0.67653289   -3.1541977   -1.6879056   0.04725968   -3.1541977    1.4662921   303867 
 7962000   0.67642828   -3.1528744   -1.6867221   0.04544518   -3.1528744    1.4661523   303849 
 7963000   0.67614913    -3.152925   -1.6871897  0.044990657    -3.152925    1.4657353   303810 
 7964000    0.6764461   -3.1531326   -1.6865942  0.048899149   -3.1531326    1.4665384   303777 
 7965000   0.67593388   -3.1511986   -1.6854764  0.049385959   -3.1511986    1.4657222   303716 
 7966000   0.67578802   -3.1511413   -1.6857595  0.050038576   -3.1511413    1.4653818   303721 
 7967000   0.67597867   -3.1514648   -1.6856406  0.047368679   -3.1514648    1.4658242   303715 
 7968000   0.67662646   -3.1519943   -1.6846736  0.047726708   -3.1519943    1.4673207   303696 
 7969000   0.67575057    -3.150793   -1.6852752  0.044853927    -3.150793    1.4655177   303676 
 7970000   0.67686641   -3.1520889   -1.6838224  0.043992306   -3.1520889    1.4682665   303608 
 7971000   0.67480514    -3.149842   -1.6856659   0.04552465    -3.149842    1.4641761   303529 
 7972000   0.67654878   -3.1537598   -1.6856408  0.044319292   -3.1537598     1.468119   303496 
 7973000   0.67633906   -3.1531306   -1.6853215  0.047930531   -3.1531306     1.467809   303466 
 7974000   0.67619628    -3.152657    -1.685066  0.050410798    -3.152657    1.4675911   303447 
 7975000    0.6768553   -3.1542396   -1.6850197  0.046570658   -3.1542396    1.4692199   303406 
 7976000   0.67602753     -3.15119    -1.683525  0.050399525     -3.15119    1.4676649   303356 
 7977000   0.67689975   -3.1556846   -1.6860049  0.045992194   -3.1556846    1.4696797   303331 
 7978000   0.67558833   -3.1539466   -1.6870417  0.051015396   -3.1539466    1.4669049   303316 
 7979000   0.67570021   -3.1538869   -1.6867826  0.049555401   -3.1538869    1.4671043   303325 
 7980000   0.67557966   -3.1541456   -1.6871144  0.045299015   -3.1541456    1.4670311   303286 
 7981000   0.67557668   -3.1515581   -1.6846399  0.046961223   -3.1515581    1.4669183   303308 
 7982000   0.67722214   -3.1551264   -1.6846983  0.045461065   -3.1551264    1.4704281   303321 
 7983000   0.67603214   -3.1491866   -1.6813471  0.051832718   -3.1491866    1.4678395   303322 
 7984000   0.67519449   -3.1508867   -1.6845663  0.043880966   -3.1508867    1.4663204   303260 
 7985000   0.67597555   -3.1532952   -1.6850074  0.044578558   -3.1532952    1.4682878   303204 
 7986000   0.67493475   -3.1493887   -1.6829747    0.0479203   -3.1493887     1.466414   303124 
 7987000   0.67444307   -3.1497696   -1.6843175  0.044758103   -3.1497696    1.4654521   303102 
 7988000   0.67483272   -3.1506391   -1.6842145  0.043804047   -3.1506391    1.4664245   303076 
 7989000   0.67440779   -3.1526194    -1.686891  0.044717905   -3.1526194    1.4657285   303029 
 7990000   0.67426518   -3.1520034   -1.6865075   0.04870532   -3.1520034    1.4654959   303013 
 7991000   0.67455183   -3.1535503   -1.6871942  0.045932389   -3.1535503     1.466356   302964 
 7992000   0.67550404    -3.156192   -1.6876885  0.044017562    -3.156192    1.4685035   302948 
 7993000   0.67384427   -3.1531308   -1.6881388  0.042859601   -3.1531308     1.464992   302928 
 7994000   0.67278455   -3.1518295   -1.6891269    0.0438107   -3.1518295    1.4627026   302925 
 7995000    0.6745777   -3.1571579   -1.6901839  0.051994469   -3.1571579     1.466974   302848 
 7996000    0.6739963   -3.1547575   -1.6890721  0.050029548   -3.1547575    1.4656854   302853 
 7997000    0.6742692   -3.1560422   -1.6893178   0.04733898   -3.1560422    1.4667244   302761 
 7998000   0.67406542   -3.1561934   -1.6898444  0.047056751   -3.1561934    1.4663489   302747 
 7999000   0.67328249   -3.1543337   -1.6894847  0.047146503   -3.1543337     1.464849   302705 
 8000000   0.67486749   -3.1579963   -1.6895728  0.045113431   -3.1579963    1.4684236   302679 
Loop time of 9527.26 on 192 procs for 5000000 steps with 302679 atoms

Performance: 226717.956 tau/day, 524.810 timesteps/s
99.1% CPU use with 192 MPI tasks x 1 OpenMP threads

MPI task timing breakdown:
Section |  min time  |  avg time  |  max time  |%varavg|  %CPU | %total
-----------------------------------------------------------------------
Pair    | 1044.3     | 2583.1     | 2952.8     |1114.2 |  99.0 | 27.11
Bond    | 3.1494     | 3.359      | 3.5731     |   4.4 | 100.0 |  0.04
Neigh   | 659.99     | 1256       | 1420.4     | 607.7 |  99.4 | 13.18
Comm    | 1315       | 1919.8     | 4132.5     |1844.6 |  98.8 | 20.15
Output  | 289.81     | 293.65     | 293.68     |   1.6 |  98.7 |  3.08
Modify  | 3300.8     | 3385       | 3717.5     | 242.0 |  99.2 | 35.53
Other   |            | 86.31      |            |       |       |  0.91

Nlocal:        1576.45 ave        1965 max        1386 min
Histogram: 6 12 51 94 21 2 4 0 0 2
Nghost:        2725.55 ave        3155 max        1572 min
Histogram: 3 7 7 25 8 11 5 2 41 83
Neighs:        41429.9 ave       55425 max        5096 min
Histogram: 21 2 1 0 0 0 7 46 105 10

Total # of neighbors = 7954532
Ave neighs/atom = 26.280422
Ave special neighs/atom = 0.0000000
Neighbor list builds = 505000
Dangerous builds = 450000

write_restart   restart_write.dat
System init for write_restart ...
write_data	data.write
System init for write_data ...
WARNING: Not all mixed pair coeffs generated from mixing. Use write_data with 'pair ij' option to store all pair coeffs. (src/write_data.cpp:312)

Total wall time: 2:38:50
