LAMMPS (29 Oct 2020)
  using 1 OpenMP thread(s) per MPI task
# Simple rigid body system
# needed variables:

#variable	startTemp equal 0.5
#variable 	temp 	  equal 0.8

units		lj
atom_style	full
dimension 	3
boundary	p p f
pair_style	lj/cut/opt 2.5

variable 	sigma		equal 1.0
variable 	epsilon 	equal 1.0

region		box block 0 80 0 80 0 160
create_box 	3 box
Created orthogonal box = (0.0000000 0.0000000 0.0000000) to (80.000000 80.000000 160.00000)
  2 by 4 by 8 MPI processor grid



lattice 	sc 0.66
Lattice spacing in x,y,z = 1.1485556 1.1485556 1.1485556
region		fluid block EDGE EDGE EDGE EDGE 2 100 units box
create_atoms 	1 region fluid
Created 421400 atoms
  create_atoms CPU = 0.007 seconds

lattice 	sc 0.045
Lattice spacing in x,y,z = 2.8114422 2.8114422 2.8114422
region		gas block EDGE EDGE EDGE EDGE 101 158 units box
create_atoms    1 region gas
Created 17661 atoms
  create_atoms CPU = 0.005 seconds

group		solvent type 1
439061 atoms in group solvent

mass		1 1.0
mass		2 1.0
mass		3 1.0



neighbor 	0.4 bin

pair_coeff	1 1 1.0 1.0
pair_coeff	2 2 0.0 0.0
pair_coeff	3 3 0.0 0.0
pair_coeff	2 3 0.0 0.0
pair_coeff	1 2*3 0.0 0.0

pair_modify 	shift yes

delete_atoms	overlap 0.5 solvent solvent
System init for delete_atoms ...
Neighbor list info ...
  update every 1 steps, delay 10 steps, check yes
  max neighbors/atom: 2000, page size: 100000
  master list distance cutoff = 2.9
  ghost atom cutoff = 2.9
  binsize = 1.45, bins = 56 56 111
  2 neighbor lists, perpetual/occasional/extra = 1 1 0
  (1) command delete_atoms, occasional
      attributes: full, newton on
      pair build: full/bin
      stencil: full/bin/3d
      bin: standard
  (2) pair lj/cut/opt, perpetual
      attributes: half, newton on
      pair build: half/bin/newton
      stencil: half/bin/3d/newton
      bin: standard
WARNING: Ignoring 'compress yes' for molecular system (src/delete_atoms.cpp:125)
Deleted 0 atoms, new total = 439061

velocity 	solvent create ${startTemp} 563435 loop geom
velocity 	solvent create .75 563435 loop geom

balance 	1.05 shift z 10 1.05
Balancing ...
Neighbor list info ...
  update every 1 steps, delay 10 steps, check yes
  max neighbors/atom: 2000, page size: 100000
  master list distance cutoff = 2.9
  ghost atom cutoff = 2.9
  binsize = 1.45, bins = 56 56 111
  1 neighbor lists, perpetual/occasional/extra = 1 0 0
  (1) pair lj/cut/opt, perpetual
      attributes: half, newton on
      pair build: half/bin/newton
      stencil: half/bin/3d/newton
      bin: standard
 rebalancing time: 0.046 seconds
  iteration count = 5
  initial/final maximal load/proc = 11340.000 8190.0000
  initial/final imbalance factor  = 1.6529822 1.1938204
  x cuts: 0.0000000 0.5 1.0000000
  y cuts: 0.0000000 0.25 0.5 0.75 1.0000000
  z cuts: 0.0000000 0.08984375 0.17578125 0.25390625 0.3359375 0.4140625 0.50390625 0.58203125 1.0000000


####################### WALLS ###########################


variable       epsilonWall equal 2*${epsilon}
variable       epsilonWall equal 2*1

variable       cutoffTop   equal   0.7147*${sigma}
variable       cutoffTop   equal   0.7147*1

variable       cutoffLow   equal   3*${sigma}
variable       cutoffLow   equal   3*1


fix            topWall all wall/lj93 zhi EDGE                ${epsilonWall} ${sigma} ${cutoffTop} units box
fix            topWall all wall/lj93 zhi EDGE                2 ${sigma} ${cutoffTop} units box
fix            topWall all wall/lj93 zhi EDGE                2 1 ${cutoffTop} units box
fix            topWall all wall/lj93 zhi EDGE                2 1 0.7147 units box

fix            lowWall all wall/lj93 zlo EDGE                ${epsilonWall} ${sigma} ${cutoffLow} units box
fix            lowWall all wall/lj93 zlo EDGE                2 ${sigma} ${cutoffLow} units box
fix            lowWall all wall/lj93 zlo EDGE                2 1 ${cutoffLow} units box
fix            lowWall all wall/lj93 zlo EDGE                2 1 3 units box


###################### COMPUTES ##########################

compute        bin1 solvent chunk/atom bin/1d z upper 1.0


######################	FIXES ############################


fix 		peclet solvent ave/chunk 1000 1 1000 bin1 density/number norm 		 none ave one file density.profile

fix 		 temp solvent ave/chunk 1000 1 1000 bin1 temp norm 		 none ave one file temp.profile

fix 		2 solvent nve


## Thermostat


region		regthermo block EDGE EDGE EDGE EDGE 0 20 units box

group 		thermo dynamic solvent region regthermo every 1000
dynamic group thermo defined

fix 		3 thermo langevin ${startTemp} ${temp} 10 156453
fix 		3 thermo langevin .75 ${temp} 10 156453
fix 		3 thermo langevin .75 .75 10 156453



#### Load balancing


fix 		bal all balance 1000 1.05 shift z 10 1.05


############### Diagnostics and computes ###################
#compute 	com cube	  rigid/local	1 mol x y z
#compute 	quat cube	  rigid/local	1 mol quatw quati quatj quatk

thermo 		1000
thermo_style 	custom step temp epair evdwl etotal press pe ke atoms

dump		1 all custom 100000 dump.lammpstrj id mol type x y z
dump 		2 all image 10000 image.*.png type type
dump 		3 all movie 1000 movie.avi type type

#dump 		com cube local 1000 dump.*.xyz c_com[*]
#dump		quat cube      local 1000 dump.*.quat c_quat[*]


restart 	1000000 restart.dat
timestep 	0.005
timer 		full
New timer settings: style=full  mode=nosync  timeout=off

run		5000000
Per MPI rank memory allocation (min/avg/max) = 11.32 | 15.17 | 18.40 Mbytes
Step Temp E_pair E_vdwl TotEng Press PotEng KinEng Atoms 
       0         0.75   -1.2273921   -1.2273921  -0.10239461     3.953431   -1.2273921    1.1249974   439061 
    1000    1.8246546    -3.332111    -3.332111  -0.59513537    1.8657648    -3.332111    2.7369756   439061 
    2000    1.6983223   -3.3303799   -3.3303799  -0.78290223    1.0227635   -3.3303799    2.5474777   439061 
    3000    1.5129015   -3.2213829   -3.2213829  -0.95203577   0.67307171   -3.2213829    2.2693471   439061 
    4000    1.4223863   -3.2112565   -3.2112565   -1.0776819   0.52664193   -3.2112565    2.1335746   439061 
    5000    1.3657718   -3.1955417   -3.1955417   -1.1468886    0.4157094   -3.1955417    2.0486531   439061 
    6000    1.3276229    -3.167472    -3.167472   -1.1760422   0.30588232    -3.167472    1.9914298   439061 
    7000    1.2991886   -3.1403952   -3.1403952   -1.1916167   0.27138821   -3.1403952    1.9487785   439061 
    8000    1.2880286   -3.1295921   -3.1295921   -1.1975536   0.27801766   -3.1295921    1.9320386   439061 
    9000    1.2906614   -3.1412737   -3.1412737    -1.205286   0.32517115   -3.1412737    1.9359877   439061 
   10000    1.3014091   -3.1668595   -3.1668595   -1.2147504   0.37168825   -3.1668595    1.9521091   439061 
   11000    1.3072283   -3.1872139   -3.1872139   -1.2263759   0.39444209   -3.1872139     1.960838   439061 
   12000    1.3056236   -3.1947228   -3.1947228   -1.2362918   0.40444504   -3.1947228    1.9584309   439061 
   13000    1.2979538   -3.1919103   -3.1919103   -1.2449841   0.39448315   -3.1919103    1.9469263   439061 
   14000    1.2855624   -3.1816682   -3.1816682   -1.2533289   0.37310782   -3.1816682    1.9283393   439061 
   15000    1.2655483   -3.1566007   -3.1566007   -1.2582826   0.33794986   -3.1566007    1.8983181   439061 
   16000    1.2433239   -3.1301727   -3.1301727   -1.2651911   0.31289815   -3.1301727    1.8649815   439061 
   17000    1.2258872   -3.1103401   -3.1103401   -1.2715135   0.28122603   -3.1103401    1.8388266   439061 
   18000    1.2093315   -3.0903665   -3.0903665   -1.2763734   0.26743488   -3.0903665    1.8139931   439061 
   19000    1.1936362   -3.0755049   -3.0755049   -1.2850547   0.27212507   -3.0755049    1.7904502   439061 
   20000     1.181689   -3.0734761   -3.0734761   -1.3009466   0.29178972   -3.0734761    1.7725295   439061 
   21000    1.1680281    -3.078873    -3.078873   -1.3268348   0.30151992    -3.078873    1.7520382   439061 
   22000    1.1533585   -3.0820813   -3.0820813   -1.3520475   0.28334807   -3.0820813    1.7300339   439061 
   23000    1.1380271   -3.0807589   -3.0807589   -1.3737221   0.26559863   -3.0807589    1.7070368   439061 
   24000    1.1281291   -3.0839619   -3.0839619   -1.3917722   0.25380134   -3.0839619    1.6921897   439061 
   25000    1.1244358   -3.0942849   -3.0942849   -1.4076349   0.25533173   -3.0942849    1.6866499   439061 
   26000    1.1215732   -3.1052227   -3.1052227   -1.4228668   0.26025788   -3.1052227     1.682356   439061 
   27000    1.1154712   -3.1118668   -3.1118668   -1.4386639   0.25534247   -3.1118668    1.6732029   439061 
   28000    1.1101072   -3.1194225   -3.1194225   -1.4542655   0.25711715   -3.1194225     1.665157   439061 
   29000    1.1045749    -3.123909    -3.123909   -1.4670505   0.24839625    -3.123909    1.6568586   439061 
   30000    1.0989973   -3.1300557   -3.1300557   -1.4815635   0.23679994   -3.1300557    1.6484922   439061 
   31000    1.0931342   -3.1328841   -3.1328841   -1.4931866   0.22889121   -3.1328841    1.6396975   439061 
   32000    1.0867829   -3.1354834   -3.1354834   -1.5053127   0.21374063   -3.1354834    1.6301707   439061 
   33000    1.0778982   -3.1325571   -3.1325571   -1.5157135   0.21354948   -3.1325571    1.6168436   439061 
   34000    1.0693797   -3.1299937   -3.1299937   -1.5259278    0.1985703   -3.1299937    1.6040659   439061 
   35000    1.0615766   -3.1273438   -3.1273438   -1.5349825   0.18605237   -3.1273438    1.5923613   439061 
   36000    1.0542365   -3.1241673   -3.1241673   -1.5428162   0.17062365   -3.1241673    1.5813511   439061 
   37000    1.0468604   -3.1200527   -3.1200527   -1.5497657   0.16192491   -3.1200527     1.570287   439061 
   38000    1.0373492   -3.1122596   -3.1122596   -1.5562394    0.1512898   -3.1122596    1.5560202   439061 
   39000    1.0318586   -3.1122094   -3.1122094    -1.564425   0.14615214   -3.1122094    1.5477844   439061 
   40000    1.0268972   -3.1098503   -3.1098503    -1.569508   0.13369185   -3.1098503    1.5403423   439061 
   41000    1.0223695   -3.1084435   -3.1084435   -1.5748927    0.1321067   -3.1084435    1.5335508   439061 
   42000    1.0197914   -3.1107496   -3.1107496    -1.581066   0.12442777   -3.1107496    1.5296836   439061 
   43000    1.0171348   -3.1113991   -3.1113991   -1.5857004   0.12226561   -3.1113991    1.5256987   439061 
   44000    1.0121909   -3.1094003   -3.1094003   -1.5911175   0.12559081   -3.1094003    1.5182828   439061 
   45000    1.0117867   -3.1153301   -3.1153301   -1.5976534   0.12127546   -3.1153301    1.5176766   439061 
   46000    1.0119046    -3.120896    -3.120896   -1.6030425   0.11638482    -3.120896    1.5178535   439061 
   47000    1.0088432   -3.1229241   -3.1229241   -1.6096627   0.11430019   -3.1229241    1.5132613   439061 
   48000    1.0085179   -3.1270425   -3.1270425    -1.614269   0.11318944   -3.1270425    1.5127735   439061 
   49000    1.0077619   -3.1310043   -3.1310043   -1.6193649   0.11524252   -3.1310043    1.5116394   439061 
   50000    1.0067813   -3.1350102   -3.1350102   -1.6248417   0.10631381   -3.1350102    1.5101685   439061 
   51000    1.0045384   -3.1371907   -3.1371907   -1.6303865   0.10896267   -3.1371907    1.5068042   439061 
   52000    1.0039429   -3.1409244   -3.1409244   -1.6350134   0.11001601   -3.1409244    1.5059109   439061 
   53000    1.0033301   -3.1445653   -3.1445653   -1.6395737   0.11009132   -3.1445653    1.5049917   439061 
   54000    1.0019888   -3.1479895   -3.1479895   -1.6450097   0.10819271   -3.1479895    1.5029798   439061 
   55000    1.0014442   -3.1512263   -3.1512263   -1.6490634   0.11024806   -3.1512263    1.5021629   439061 
   56000   0.99999826   -3.1532612   -3.1532612   -1.6532672   0.10271122   -3.1532612     1.499994   439061 
   57000   0.99637475   -3.1526569   -3.1526569   -1.6580981   0.10070601   -3.1526569    1.4945587   439061 
   58000   0.99496385   -3.1549737   -3.1549737   -1.6625313   0.10420123   -3.1549737    1.4924424   439061 
   59000   0.99323963   -3.1575999   -3.1575999   -1.6677438   0.10507085   -3.1575999     1.489856   439061 
   60000   0.99313385   -3.1611913   -3.1611913   -1.6714939   0.10686112   -3.1611913    1.4896974   439061 
   61000   0.99057205   -3.1637783   -3.1637783   -1.6779236   0.10467353   -3.1637783    1.4858547   439061 
   62000    0.9896008   -3.1688832   -3.1688832   -1.6844854   0.10242172   -3.1688832    1.4843978   439061 
   63000   0.98706875   -3.1718751   -3.1718751   -1.6912753   0.10671606   -3.1718751    1.4805998   439061 
   64000   0.98670339   -3.1765615   -3.1765615   -1.6965098   0.10604861   -3.1765615    1.4800517   439061 
   65000   0.98401001   -3.1789698   -3.1789698   -1.7029581   0.11448624   -3.1789698    1.4760116   439061 
   66000   0.98191523   -3.1814126   -3.1814126   -1.7085431   0.11063126   -3.1814126    1.4728695   439061 
   67000   0.98213424   -3.1874472   -3.1874472   -1.7142492   0.10817328   -3.1874472     1.473198   439061 
   68000   0.98227037   -3.1903571   -3.1903571   -1.7169549   0.10784797   -3.1903571    1.4734022   439061 
   69000   0.98100603    -3.193399    -3.193399   -1.7218933   0.10788428    -3.193399    1.4715057   439061 
   70000   0.97932793   -3.1960168   -3.1960168   -1.7270283   0.10176458   -3.1960168    1.4689886   439061 
   71000   0.97903049   -3.1999555   -3.1999555   -1.7314131   0.10600824   -3.1999555    1.4685424   439061 
   72000   0.97802287    -3.205101    -3.205101   -1.7380701   0.10789707    -3.205101     1.467031   439061 
   73000   0.97779491   -3.2102772   -3.2102772   -1.7435881   0.10494694   -3.2102772     1.466689   439061 
   74000   0.97631358   -3.2124675   -3.2124675   -1.7480004   0.10317527   -3.2124675     1.464467   439061 
   75000   0.97575728   -3.2165411   -3.2165411   -1.7529085   0.10335108   -3.2165411    1.4636326   439061 
   76000   0.97538223   -3.2206669   -3.2206669   -1.7575969  0.096088136   -3.2206669      1.46307   439061 
   77000   0.97466818   -3.2237916   -3.2237916   -1.7617927   0.10167113   -3.2237916    1.4619989   439061 
   78000   0.97419149    -3.228265    -3.228265   -1.7669811  0.099324686    -3.228265    1.4612839   439061 
   79000   0.97176914   -3.2295116   -3.2295116   -1.7718612  0.098189019   -3.2295116    1.4576504   439061 
   80000   0.97120366   -3.2307842   -3.2307842    -1.773982  0.098774851   -3.2307842    1.4568022   439061 
   81000   0.97031598   -3.2335306   -3.2335306     -1.77806  0.094329732   -3.2335306    1.4554707   439061 
   82000   0.97019059   -3.2362055   -3.2362055   -1.7809229  0.094388239   -3.2362055    1.4552826   439061 
   83000   0.96723863   -3.2366289   -3.2366289   -1.7857743  0.090313355   -3.2366289    1.4508546   439061 
   84000   0.96614572    -3.239543    -3.239543   -1.7903277  0.093908236    -3.239543    1.4492153   439061 
   85000   0.96630534   -3.2422656   -3.2422656   -1.7928109   0.09022401   -3.2422656    1.4494547   439061 
   86000    0.9632851   -3.2429556   -3.2429556   -1.7980312  0.093145826   -3.2429556    1.4449244   439061 
   87000   0.96338162   -3.2473981   -3.2473981   -1.8023289  0.082882929   -3.2473981    1.4450691   439061 
   88000   0.96172651   -3.2495022   -3.2495022   -1.8069157  0.087299629   -3.2495022    1.4425865   439061 
   89000   0.96146331   -3.2523835   -3.2523835   -1.8101918    0.0825756   -3.2523835    1.4421917   439061 
   90000   0.95987232   -3.2545966   -3.2545966   -1.8147914   0.08417432   -3.2545966    1.4398052   439061 
   91000   0.95778164   -3.2544461   -3.2544461    -1.817777  0.085189625   -3.2544461    1.4366692   439061 
   92000   0.95708746   -3.2566403   -3.2566403   -1.8210124  0.081844015   -3.2566403    1.4356279   439061 
   93000   0.95740952   -3.2597319   -3.2597319   -1.8236209   0.07663931   -3.2597319     1.436111   439061 
   94000   0.95544448   -3.2611619   -3.2611619   -1.8279984  0.076781226   -3.2611619    1.4331635   439061 
   95000   0.95353078     -3.26141     -3.26141   -1.8311171  0.075513758     -3.26141    1.4302929   439061 
   96000   0.95274557   -3.2635293   -3.2635293   -1.8344143  0.076666284   -3.2635293    1.4291151   439061 
   97000   0.95409028   -3.2678498   -3.2678498   -1.8367177  0.083230339   -3.2678498    1.4311322   439061 
   98000   0.95416532   -3.2721506   -3.2721506   -1.8409059  0.081760178   -3.2721506    1.4312447   439061 
   99000   0.95388013   -3.2742529   -3.2742529    -1.843436  0.080791621   -3.2742529    1.4308169   439061 
  100000   0.95179814   -3.2762546   -3.2762546   -1.8485606  0.070889968   -3.2762546     1.427694   439061 
  101000   0.95041956   -3.2770858   -3.2770858   -1.8514597  0.078170299   -3.2770858    1.4256261   439061 
  102000   0.95134757   -3.2819449   -3.2819449   -1.8549268  0.073858947   -3.2819449    1.4270181   439061 
  103000   0.95054248   -3.2834285   -3.2834285    -1.857618  0.077450221   -3.2834285    1.4258105   439061 
  104000    0.9494369   -3.2849622   -3.2849622   -1.8608101  0.077018015   -3.2849622    1.4241521   439061 
  105000   0.95076462   -3.2910822   -3.2910822   -1.8649386  0.075772421   -3.2910822    1.4261437   439061 
  106000    0.9485656   -3.2909694   -3.2909694   -1.8681243  0.075737076   -3.2909694    1.4228452   439061 
  107000   0.94884071   -3.2942554   -3.2942554   -1.8709975   0.07761936   -3.2942554    1.4232578   439061 
  108000   0.94866783   -3.2968572   -3.2968572   -1.8738587  0.075398437   -3.2968572    1.4229985   439061 
  109000   0.94776964   -3.2981295   -3.2981295   -1.8764782  0.080999825   -3.2981295    1.4216512   439061 
  110000   0.94745287   -3.3021653   -3.3021653   -1.8809892  0.077806624   -3.3021653    1.4211761   439061 
  111000   0.94865332   -3.3076996   -3.3076996   -1.8847229  0.073876657   -3.3076996    1.4229767   439061 
  112000   0.94844121   -3.3108118   -3.3108118   -1.8881533  0.077337941   -3.3108118    1.4226586   439061 
  113000   0.94836968   -3.3137979   -3.3137979   -1.8912466  0.075943636   -3.3137979    1.4225513   439061 
  114000   0.94890282   -3.3173249   -3.3173249   -1.8939739  0.077949633   -3.3173249     1.423351   439061 
  115000   0.94669292   -3.3166322   -3.3166322   -1.8965961  0.080043196   -3.3166322    1.4200361   439061 
  116000   0.94522588   -3.3181161   -3.3181161   -1.9002806  0.083324872   -3.3181161    1.4178356   439061 
  117000   0.94608363   -3.3234536   -3.3234536   -1.9043314   0.07632908   -3.3234536    1.4191222   439061 
  118000   0.94503879   -3.3238885   -3.3238885   -1.9063336  0.078590236   -3.3238885     1.417555   439061 
  119000   0.94438593     -3.32789     -3.32789   -1.9113144  0.082036517     -3.32789    1.4165757   439061 
  120000   0.94426603   -3.3311414   -3.3311414   -1.9147456  0.079136909   -3.3311414    1.4163958   439061 
  121000   0.94467988   -3.3357349   -3.3357349   -1.9187183  0.078514428   -3.3357349    1.4170166   439061 
  122000     0.943105   -3.3356752   -3.3356752   -1.9210209  0.081553278   -3.3356752    1.4146543   439061 
  123000   0.94240793   -3.3376785   -3.3376785   -1.9240699   0.08068524   -3.3376785    1.4136087   439061 
  124000   0.94449574   -3.3440516   -3.3440516   -1.9273112  0.078015583   -3.3440516    1.4167404   439061 
  125000    0.9423298   -3.3436732   -3.3436732   -1.9301817  0.082397223   -3.3436732    1.4134915   439061 
  126000   0.94415569   -3.3490129   -3.3490129   -1.9327825  0.080669506   -3.3490129    1.4162303   439061 
  127000   0.94459117   -3.3522414   -3.3522414   -1.9353579  0.080822032   -3.3522414    1.4168835   439061 
  128000   0.94332766   -3.3544645   -3.3544645   -1.9394763  0.078909167   -3.3544645    1.4149883   439061 
  129000   0.94114125   -3.3545088   -3.3545088   -1.9428001  0.081136547   -3.3545088    1.4117087   439061 
  130000   0.94273454   -3.3588177   -3.3588177   -1.9447192  0.078049997   -3.3588177    1.4140986   439061 
  131000    0.9421129   -3.3611658   -3.3611658   -1.9479997  0.081424127   -3.3611658    1.4131661   439061 
  132000   0.94178246   -3.3641203   -3.3641203   -1.9514498  0.081019181   -3.3641203    1.4126705   439061 
  133000   0.93986265   -3.3644059   -3.3644059   -1.9546151  0.079854539   -3.3644059    1.4097908   439061 
  134000   0.94065778   -3.3694145   -3.3694145    -1.958431  0.078457261   -3.3694145    1.4109835   439061 
  135000   0.94007084   -3.3707044   -3.3707044   -1.9606013  0.076628277   -3.3707044    1.4101031   439061 
  136000   0.93814955   -3.3721576   -3.3721576   -1.9649365  0.078154777   -3.3721576    1.4072211   439061 
  137000   0.93852399   -3.3753148   -3.3753148    -1.967532  0.077710869   -3.3753148    1.4077828   439061 
  138000   0.93755463   -3.3769249   -3.3769249   -1.9705962  0.079252132   -3.3769249    1.4063287   439061 
  139000    0.9362709    -3.377459    -3.377459   -1.9730559  0.080831627    -3.377459    1.4044032   439061 
  140000   0.93790543   -3.3840268   -3.3840268   -1.9771719  0.076670059   -3.3840268    1.4068549   439061 
  141000   0.93536767   -3.3828979   -3.3828979   -1.9798496  0.075935753   -3.3828979    1.4030483   439061 
  142000    0.9362055   -3.3879165   -3.3879165   -1.9836114  0.068519407   -3.3879165     1.404305   439061 
  143000   0.93442678    -3.386787    -3.386787     -1.98515  0.074795387    -3.386787     1.401637   439061 
  144000   0.93583788   -3.3919531   -3.3919531   -1.9881995  0.075733949   -3.3919531    1.4037536   439061 
  145000   0.93276459   -3.3908257   -3.3908257    -1.991682  0.078286874   -3.3908257    1.3991437   439061 
  146000   0.93447013   -3.3968799   -3.3968799   -1.9951779  0.073799523   -3.3968799     1.401702   439061 
  147000    0.9363949   -3.4025769   -3.4025769   -1.9979878  0.074288296   -3.4025769    1.4045892   439061 
  148000   0.93586494   -3.4048538   -3.4048538   -2.0010596  0.079391819   -3.4048538    1.4037942   439061 
  149000   0.93470677   -3.4052522   -3.4052522   -2.0031952  0.077130042   -3.4052522     1.402057   439061 
  150000   0.93401853    -3.406606    -3.406606   -2.0055814  0.078607858    -3.406606    1.4010246   439061 
  151000   0.93491008   -3.4102438   -3.4102438   -2.0078818  0.075580023   -3.4102438    1.4023619   439061 
  152000   0.93234259   -3.4096653   -3.4096653   -2.0111546  0.076231561   -3.4096653    1.3985107   439061 
  153000   0.93144766   -3.4112481   -3.4112481   -2.0140798  0.069271747   -3.4112481    1.3971683   439061 
  154000   0.93203015   -3.4147056   -3.4147056   -2.0166635  0.074105988   -3.4147056     1.398042   439061 
  155000   0.93080584   -3.4142579   -3.4142579   -2.0180524  0.072265299   -3.4142579    1.3962056   439061 
  156000   0.93112388   -3.4180834   -3.4180834   -2.0214007  0.069665457   -3.4180834    1.3966826   439061 
  157000   0.93258918   -3.4222203   -3.4222203   -2.0233397  0.074450996   -3.4222203    1.3988806   439061 
  158000   0.93108359   -3.4219952   -3.4219952    -2.025373  0.075615637   -3.4219952    1.3966222   439061 
  159000   0.93033048   -3.4239943   -3.4239943   -2.0285018  0.073866521   -3.4239943    1.3954925   439061 
  160000   0.93149116   -3.4304361   -3.4304361   -2.0332025  0.072610011   -3.4304361    1.3972336   439061 
  161000    0.9298078   -3.4292708   -3.4292708   -2.0345623  0.076429783   -3.4292708    1.3947085   439061 
  162000   0.92878726   -3.4306993   -3.4306993   -2.0375216  0.070721657   -3.4306993    1.3931777   439061 
  163000    0.9277745   -3.4328803   -3.4328803   -2.0412217  0.072842247   -3.4328803    1.3916586   439061 
  164000    0.9285519   -3.4350409   -3.4350409   -2.0422162  0.063251872   -3.4350409    1.3928247   439061 
  165000   0.93044733   -3.4385531   -3.4385531   -2.0428853  0.075293869   -3.4385531    1.3956678   439061 
  166000   0.92869416    -3.438707    -3.438707   -2.0456689  0.075098252    -3.438707    1.3930381   439061 
  167000   0.92711687   -3.4388726   -3.4388726   -2.0482005  0.078424451   -3.4388726    1.3906721   439061 
  168000   0.92606537   -3.4398673   -3.4398673   -2.0507724  0.074318554   -3.4398673    1.3890949   439061 
  169000   0.92705558   -3.4438128   -3.4438128   -2.0532326  0.075488098   -3.4438128    1.3905802   439061 
  170000   0.92805542    -3.446496    -3.446496    -2.054416  0.071801119    -3.446496      1.39208   439061 
  171000   0.92546829   -3.4463319   -3.4463319   -2.0581326  0.076287542   -3.4463319    1.3881993   439061 
  172000   0.92614338    -3.449555    -3.449555   -2.0603431  0.071101477    -3.449555    1.3892119   439061 
  173000   0.92506549   -3.4516699   -3.4516699   -2.0640749  0.073107621   -3.4516699    1.3875951   439061 
  174000    0.9261119   -3.4562141   -3.4562141   -2.0670494  0.066165053   -3.4562141    1.3891647   439061 
  175000   0.92579727   -3.4589861   -3.4589861   -2.0702933  0.068803989   -3.4589861    1.3886927   439061 
  176000   0.92378999   -3.4586968   -3.4586968   -2.0730149  0.073280442   -3.4586968    1.3856818   439061 
  177000   0.92340751   -3.4607533   -3.4607533   -2.0756452  0.068438847   -3.4607533    1.3851081   439061 
  178000   0.92430925   -3.4641729   -3.4641729   -2.0777121  0.076793244   -3.4641729    1.3864607   439061 
  179000   0.92452529   -3.4678774   -3.4678774   -2.0810926  0.074238971   -3.4678774    1.3867848   439061 
  180000   0.92503454   -3.4695985   -3.4695985   -2.0820498  0.075572789   -3.4695985    1.3875487   439061 
  181000   0.92444643   -3.4720828   -3.4720828   -2.0854163  0.070008572   -3.4720828    1.3866665   439061 
  182000   0.92316046   -3.4723478   -3.4723478   -2.0876103  0.068390631   -3.4723478    1.3847375   439061 
  183000   0.92128185   -3.4718949   -3.4718949   -2.0899753  0.068435493   -3.4718949    1.3819196   439061 
  184000   0.92172714    -3.475632    -3.475632   -2.0930445  0.071312537    -3.475632    1.3825876   439061 
  185000   0.92312753   -3.4799786   -3.4799786   -2.0952904  0.068486589   -3.4799786    1.3846881   439061 
  186000   0.92401265   -3.4826267   -3.4826267   -2.0966109  0.074173326   -3.4826267    1.3860158   439061 
  187000   0.92131248   -3.4812969   -3.4812969   -2.0993313  0.077496698   -3.4812969    1.3819656   439061 
  188000   0.92316096   -3.4870221   -3.4870221   -2.1022838  0.078455058   -3.4870221    1.3847383   439061 
  189000   0.92340249    -3.489872    -3.489872   -2.1047714  0.076097445    -3.489872    1.3851006   439061 
  190000   0.92148349   -3.4909909   -3.4909909   -2.1087688   0.06984298   -3.4909909    1.3822221   439061 
  191000   0.91974401   -3.4900223   -3.4900223   -2.1104094  0.071929545   -3.4900223    1.3796129   439061 
  192000   0.92031239   -3.4933753   -3.4933753   -2.1129098  0.069026648   -3.4933753    1.3804654   439061 
  193000   0.91985561   -3.4958226   -3.4958226   -2.1160423  0.074781815   -3.4958226    1.3797803   439061 
  194000   0.91954832   -3.4982819   -3.4982819   -2.1189626  0.071359084   -3.4982819    1.3793193   439061 
  195000   0.92127174    -3.501484    -3.501484   -2.1195796  0.069529399    -3.501484    1.3819045   439061 
  196000   0.92159782   -3.5038045   -3.5038045   -2.1214109  0.069229393   -3.5038045    1.3823936   439061 
  197000   0.92134756   -3.5055955   -3.5055955   -2.1235773  0.076430017   -3.5055955    1.3820182   439061 
  198000    0.9204075   -3.5069463   -3.5069463   -2.1263382  0.073913666   -3.5069463    1.3806081   439061 
  199000   0.92168157   -3.5107412   -3.5107412   -2.1282219   0.07525317   -3.5107412    1.3825192   439061 
  200000   0.91860244   -3.5097829   -3.5097829   -2.1318823  0.073117315   -3.5097829    1.3779005   439061 
  201000   0.91668106   -3.5093305   -3.5093305    -2.134312  0.072817824   -3.5093305    1.3750185   439061 
  202000    0.9151073   -3.5089868   -3.5089868    -2.136329  0.072065974   -3.5089868    1.3726578   439061 
  203000   0.91597964   -3.5122663   -3.5122663      -2.1383  0.067025807   -3.5122663    1.3739663   439061 
  204000   0.91738265   -3.5156486   -3.5156486   -2.1395778  0.069149438   -3.5156486    1.3760708   439061 
  205000    0.9187285   -3.5180855   -3.5180855   -2.1399959  0.068758521   -3.5180855    1.3780896   439061 
  206000   0.91752194   -3.5196267   -3.5196267   -2.1433469  0.065181185   -3.5196267    1.3762798   439061 
  207000   0.91709912   -3.5215586   -3.5215586   -2.1459131  0.075265677   -3.5215586    1.3756456   439061 
  208000   0.91604982   -3.5218578   -3.5218578   -2.1477862  0.070923389   -3.5218578    1.3740716   439061 
  209000   0.91672188   -3.5252916   -3.5252916   -2.1502119  0.074661317   -3.5252916    1.3750797   439061 
  210000   0.91600578   -3.5273174   -3.5273174   -2.1533119  0.073037409   -3.5273174    1.3740055   439061 
  211000   0.91534559   -3.5290683   -3.5290683   -2.1560531  0.070929325   -3.5290683    1.3730153   439061 
  212000   0.91570883   -3.5327377   -3.5327377   -2.1591776  0.073517923   -3.5327377    1.3735601   439061 
  213000    0.9150546   -3.5355385   -3.5355385   -2.1629597  0.069465185   -3.5355385    1.3725788   439061 
  214000   0.91370809    -3.534186    -3.534186    -2.163627  0.070169649    -3.534186     1.370559   439061 
  215000   0.91465492   -3.5379183   -3.5379183    -2.165939  0.069805774   -3.5379183    1.3719793   439061 
  216000   0.91527082   -3.5399693   -3.5399693   -2.1670662  0.069234031   -3.5399693    1.3729031   439061 
  217000   0.91378453   -3.5407158   -3.5407158   -2.1700422  0.074132317   -3.5407158    1.3706737   439061 
  218000   0.91384131   -3.5419466   -3.5419466   -2.1711877  0.075390504   -3.5419466    1.3707588   439061 
  219000   0.91470707   -3.5465922   -3.5465922   -2.1745347  0.074003995   -3.5465922    1.3720575   439061 
  220000   0.91443794   -3.5492543   -3.5492543   -2.1776005  0.070629602   -3.5492543    1.3716538   439061 
  221000   0.91289586   -3.5496299   -3.5496299   -2.1802893  0.074412342   -3.5496299    1.3693407   439061 
  222000   0.91290194   -3.5520681   -3.5520681   -2.1827183  0.071074624   -3.5520681    1.3693498   439061 
  223000   0.91368189   -3.5539769   -3.5539769   -2.1834572  0.071097506   -3.5539769    1.3705197   439061 
  224000   0.91330689   -3.5552307   -3.5552307   -2.1852735  0.071479349   -3.5552307    1.3699572   439061 
  225000   0.91173674   -3.5559213   -3.5559213   -2.1883193  0.076288689   -3.5559213     1.367602   439061 
  226000    0.9118546   -3.5572412   -3.5572412   -2.1894624   0.07487081   -3.5572412    1.3677788   439061 
  227000   0.91056643   -3.5592602   -3.5592602   -2.1934137   0.07135445   -3.5592602    1.3658465   439061 
  228000   0.90963583   -3.5598382   -3.5598382   -2.1953875   0.07115686   -3.5598382    1.3644506   439061 
  229000   0.91044392   -3.5629728   -3.5629728   -2.1973101  0.070439813   -3.5629728    1.3656628   439061 
  230000   0.91108887   -3.5648287   -3.5648287   -2.1981985  0.069631751   -3.5648287    1.3666302   439061 
  231000   0.91182431   -3.5682798   -3.5682798   -2.2005464  0.070524815   -3.5682798    1.3677334   439061 
  232000   0.91083193   -3.5697177   -3.5697177   -2.2034729  0.071399789   -3.5697177    1.3662448   439061 
  233000   0.90858497   -3.5691926   -3.5691926   -2.2063183   0.06676803   -3.5691926    1.3628743   439061 
  234000   0.90829278   -3.5705687   -3.5705687   -2.2081326   0.06891143   -3.5705687    1.3624361   439061 
  235000   0.90925872    -3.572675    -3.572675   -2.2087901  0.064000152    -3.572675     1.363885   439061 
  236000   0.90815983   -3.5731884   -3.5731884   -2.2109517  0.065172039   -3.5731884    1.3622366   439061 
  237000   0.90928578   -3.5767123   -3.5767123   -2.2127867  0.061484939   -3.5767123    1.3639256   439061 
  238000   0.90997617   -3.5799235   -3.5799235   -2.2149623  0.067770352   -3.5799235    1.3649611   439061 
  239000    0.9090367   -3.5803918   -3.5803918   -2.2168399  0.070154453   -3.5803918    1.3635519   439061 
  240000   0.90858289   -3.5811637   -3.5811637   -2.2182924  0.076363474   -3.5811637    1.3628712   439061 
  241000   0.90961416   -3.5854605   -3.5854605   -2.2210424  0.071217575   -3.5854605    1.3644181   439061 
  242000   0.90927619   -3.5870167   -3.5870167   -2.2231055  0.069570159   -3.5870167    1.3639112   439061 
  243000   0.90788264   -3.5871069   -3.5871069    -2.225286  0.074041426   -3.5871069    1.3618209   439061 
  244000    0.9082389   -3.5900665   -3.5900665   -2.2277113  0.065228438   -3.5900665    1.3623552   439061 
  245000   0.90714749   -3.5910354   -3.5910354   -2.2303173  0.065462452   -3.5910354    1.3607181   439061 
  246000   0.90774366   -3.5928139   -3.5928139   -2.2312015  0.062042391   -3.5928139    1.3616124   439061 
  247000   0.90670892   -3.5943168   -3.5943168   -2.2342565  0.066485123   -3.5943168    1.3600603   439061 
  248000   0.90577511   -3.5952111   -3.5952111   -2.2365516  0.067125544   -3.5952111    1.3586596   439061 
  249000   0.90527395    -3.596793    -3.596793   -2.2388852     0.064521    -3.596793    1.3579078   439061 
  250000   0.90741746   -3.6023561   -3.6023561    -2.241233  0.064777472   -3.6023561    1.3611231   439061 
  251000   0.90766326   -3.6046238   -3.6046238    -2.243132  0.067529859   -3.6046238    1.3614918   439061 
  252000   0.90670637   -3.6044489   -3.6044489   -2.2443924  0.068996632   -3.6044489    1.3600565   439061 
  253000   0.90539705   -3.6053879   -3.6053879   -2.2472954  0.067257469   -3.6053879    1.3580925   439061 
  254000   0.90551491   -3.6073185   -3.6073185   -2.2490492  0.070058476   -3.6073185    1.3582693   439061 
  255000   0.90620166   -3.6100365   -3.6100365   -2.2507371  0.073320643   -3.6100365    1.3592994   439061 
  256000   0.90604291   -3.6109237   -3.6109237   -2.2518625  0.074690899   -3.6109237    1.3590613   439061 
  257000   0.90534347    -3.612332    -3.612332   -2.2543199  0.069107668    -3.612332    1.3580121   439061 
  258000   0.90572301   -3.6144625   -3.6144625   -2.2558811  0.069151664   -3.6144625    1.3585814   439061 
  259000    0.9042451    -3.614073    -3.614073   -2.2577084  0.067493141    -3.614073    1.3563646   439061 
  260000   0.90523675   -3.6164339   -3.6164339   -2.2585819  0.065994711   -3.6164339     1.357852   439061 
  261000   0.90411752   -3.6168708   -3.6168708   -2.2606976  0.066836622   -3.6168708    1.3561732   439061 
  262000   0.90481995   -3.6191714   -3.6191714   -2.2619446   0.06692771   -3.6191714    1.3572268   439061 
  263000   0.90336758   -3.6200461   -3.6200461   -2.2649978  0.070140237   -3.6200461    1.3550483   439061 
  264000   0.90236262   -3.6196236   -3.6196236   -2.2660828  0.065922736   -3.6196236    1.3535408   439061 
  265000   0.90360108   -3.6234671   -3.6234671   -2.2680686  0.061278988   -3.6234671    1.3553985   439061 
  266000    0.9028888   -3.6246176   -3.6246176   -2.2702874  0.069052227   -3.6246176    1.3543301   439061 
  267000   0.90315224   -3.6257704   -3.6257704   -2.2710451  0.070766522   -3.6257704    1.3547253   439061 
  268000   0.90181194    -3.626624    -3.626624   -2.2739092   0.06815868    -3.626624    1.3527148   439061 
  269000   0.90131186   -3.6287185   -3.6287185   -2.2767538  0.067733008   -3.6287185    1.3519647   439061 
  270000   0.90142299   -3.6308716   -3.6308716   -2.2787402  0.068163732   -3.6308716    1.3521314   439061 
  271000   0.90186058   -3.6331855   -3.6331855   -2.2803977  0.067241013   -3.6331855    1.3527878   439061 
  272000   0.90082612    -3.634308    -3.634308   -2.2830719  0.070530979    -3.634308    1.3512361   439061 
  273000   0.90154797   -3.6363859   -3.6363859   -2.2840671   0.06850935   -3.6363859    1.3523189   439061 
  274000   0.89958787   -3.6364239   -3.6364239   -2.2870452  0.067480318   -3.6364239    1.3493787   439061 
  275000   0.90013942   -3.6382669   -3.6382669   -2.2880608   0.06530943   -3.6382669    1.3502061   439061 
  276000   0.89954109   -3.6394181   -3.6394181   -2.2901096  0.064033876   -3.6394181    1.3493086   439061 
  277000   0.90034802   -3.6440628   -3.6440628   -2.2935439  0.066666299   -3.6440628     1.350519   439061 
  278000   0.89917658   -3.6444757   -3.6444757   -2.2957139  0.059576968   -3.6444757    1.3487618   439061 
  279000   0.89885381    -3.646593    -3.646593   -2.2983154  0.062716856    -3.646593    1.3482776   439061 
  280000   0.89776748   -3.6455211   -3.6455211   -2.2988729  0.067518257   -3.6455211    1.3466481   439061 
  281000   0.89653687   -3.6453747   -3.6453747   -2.3005724   0.06677334   -3.6453747    1.3448022   439061 
  282000   0.89871463   -3.6507075   -3.6507075   -2.3026386  0.066716923   -3.6507075    1.3480689   439061 
  283000   0.89849134   -3.6523285   -3.6523285   -2.3045946  0.066757809   -3.6523285    1.3477339   439061 
  284000   0.89762294   -3.6533308   -3.6533308   -2.3068994  0.068489727   -3.6533308    1.3464313   439061 
  285000   0.89711111   -3.6550374   -3.6550374   -2.3093738  0.065002542   -3.6550374    1.3456636   439061 
  286000   0.89718433   -3.6577493   -3.6577493   -2.3119759  0.067885966   -3.6577493    1.3457734   439061 
  287000   0.89788893   -3.6601141   -3.6601141   -2.3132838  0.064094105   -3.6601141    1.3468303   439061 
  288000   0.89710654   -3.6599419   -3.6599419   -2.3142851  0.067928592   -3.6599419    1.3456567   439061 
  289000   0.89699662   -3.6616421   -3.6616421   -2.3161503  0.069975398   -3.6616421    1.3454919   439061 
  290000   0.89630286   -3.6623782   -3.6623782    -2.317927  0.069404199   -3.6623782    1.3444512   439061 
  291000   0.89656273   -3.6633935   -3.6633935   -2.3185525  0.067950281   -3.6633935     1.344841   439061 
  292000   0.89813737   -3.6679252   -3.6679252   -2.3207222  0.066387844   -3.6679252     1.347203   439061 
  293000   0.89650395    -3.668115    -3.668115   -2.3233621  0.068811715    -3.668115    1.3447529   439061 
  294000   0.89495915   -3.6672462   -3.6672462   -2.3248105   0.06917289   -3.6672462    1.3424357   439061 
  295000   0.89550561   -3.6704831   -3.6704831   -2.3272277  0.067440822   -3.6704831    1.3432554   439061 
  296000   0.89498709   -3.6716304   -3.6716304   -2.3291528   0.06814793   -3.6716304    1.3424776   439061 
  297000   0.89542272   -3.6729059   -3.6729059   -2.3297749   0.06786034   -3.6729059     1.343131   439061 
  298000   0.89494737   -3.6738793   -3.6738793   -2.3314613  0.068927429   -3.6738793     1.342418   439061 
  299000   0.89546119   -3.6755739   -3.6755739   -2.3323851  0.064803582   -3.6755739    1.3431887   439061 
  300000   0.89412753   -3.6748592   -3.6748592    -2.333671  0.070077097   -3.6748592    1.3411882   439061 
  301000   0.89507876   -3.6785657   -3.6785657   -2.3359506  0.068871298   -3.6785657    1.3426151   439061 
  302000   0.89381611   -3.6772806   -3.6772806   -2.3365595   0.06898786   -3.6772806    1.3407211   439061 
  303000   0.89438064   -3.6808943   -3.6808943   -2.3393264  0.066493279   -3.6808943    1.3415679   439061 
  304000   0.89239719   -3.6802851   -3.6802851   -2.3416923  0.065860036   -3.6802851    1.3385927   439061 
  305000   0.89190406   -3.6820247   -3.6820247   -2.3441717  0.062003797   -3.6820247     1.337853   439061 
  306000   0.89213899   -3.6848556   -3.6848556   -2.3466502  0.055791774   -3.6848556    1.3382054   439061 
  307000   0.89175671   -3.6843569   -3.6843569   -2.3467249  0.062408978   -3.6843569     1.337632   439061 
  308000   0.89240496    -3.687117    -3.687117   -2.3485126  0.071642459    -3.687117    1.3386044   439061 
  309000   0.89174888   -3.6886657   -3.6886657   -2.3510454  0.066002247   -3.6886657    1.3376203   439061 
  310000   0.89272065   -3.6917771   -3.6917771   -2.3526992  0.063702577   -3.6917771    1.3390779   439061 
  311000   0.89206921   -3.6933353   -3.6933353   -2.3552345  0.066570291   -3.6933353    1.3381008   439061 
  312000   0.89279226   -3.6949616   -3.6949616   -2.3557763  0.069428761   -3.6949616    1.3391853   439061 
  313000   0.89285723    -3.697924    -3.697924   -2.3586412  0.070709524    -3.697924    1.3392828   439061 
  314000   0.89251645   -3.6993855   -3.6993855   -2.3606138   0.06596893   -3.6993855    1.3387716   439061 
  315000   0.89150621   -3.7010412   -3.7010412    -2.363785  0.062659396   -3.7010412    1.3372563   439061 
  316000   0.89101319   -3.7004761   -3.7004761   -2.3639593  0.064380356   -3.7004761    1.3365167   439061 
  317000   0.89000435   -3.7008072   -3.7008072   -2.3658037  0.069222034   -3.7008072    1.3350035   439061 
  318000   0.88920644    -3.702347    -3.702347   -2.3685404  0.063950458    -3.702347    1.3338066   439061 
  319000   0.89131763   -3.7066263   -3.7066263   -2.3696529    0.0658689   -3.7066263    1.3369734   439061 
  320000   0.89195821   -3.7083957   -3.7083957   -2.3704614  0.062490393   -3.7083957    1.3379343   439061 
  321000   0.89013002   -3.7085016   -3.7085016   -2.3733096  0.067049527   -3.7085016     1.335192   439061 
  322000   0.89088522    -3.710567    -3.710567   -2.3742422  0.064313882    -3.710567    1.3363248   439061 
  323000   0.89006888   -3.7114469   -3.7114469   -2.3763466  0.069341824   -3.7114469    1.3351003   439061 
  324000   0.89031688   -3.7123808   -3.7123808   -2.3769085   0.07267116   -3.7123808    1.3354723   439061 
  325000   0.89008881    -3.714056    -3.714056   -2.3789258  0.069423004    -3.714056    1.3351302   439061 
  326000    0.8907957   -3.7170339   -3.7170339   -2.3808434  0.066905723   -3.7170339    1.3361905   439061 
  327000   0.88891558   -3.7154953   -3.7154953    -2.382125  0.065647998   -3.7154953    1.3333703   439061 
  328000   0.88831654   -3.7178742   -3.7178742   -2.3854024  0.061612313   -3.7178742    1.3324718   439061 
  329000   0.88799373    -3.718872    -3.718872   -2.3868845  0.060495388    -3.718872    1.3319876   439061 
  330000   0.88634613   -3.7197488   -3.7197488   -2.3902326   0.05878293   -3.7197488    1.3295162   439061 
  331000   0.88707984   -3.7204542   -3.7204542   -2.3898375  0.061634733   -3.7204542    1.3306167   439061 
  332000   0.88648874   -3.7200783   -3.7200783   -2.3903483  0.070261616   -3.7200783    1.3297301   439061 
  333000   0.88735478   -3.7226133   -3.7226133   -2.3915842  0.065138853   -3.7226133    1.3310291   439061 
  334000   0.88783002   -3.7252622   -3.7252622   -2.3935202  0.062289863   -3.7252622     1.331742   439061 
  335000    0.8871179   -3.7255326   -3.7255326   -2.3948587  0.064296184   -3.7255326    1.3306738   439061 
  336000   0.88723534   -3.7275096   -3.7275096   -2.3966596  0.062090759   -3.7275096      1.33085   439061 
  337000   0.88571531   -3.7277445   -3.7277445   -2.3991746  0.064949278   -3.7277445    1.3285699   439061 
  338000   0.88593912   -3.7304484   -3.7304484   -2.4015427  0.062368214   -3.7304484    1.3289057   439061 
  339000   0.88397141   -3.7297323   -3.7297323   -2.4037782  0.063181579   -3.7297323    1.3259541   439061 
  340000   0.88586094   -3.7337624   -3.7337624    -2.404974  0.070048761   -3.7337624    1.3287884   439061 
  341000   0.88661569   -3.7352563   -3.7352563   -2.4053358  0.064659873   -3.7352563    1.3299205   439061 
  342000   0.88707271   -3.7386507   -3.7386507   -2.4080447  0.061763504   -3.7386507     1.330606   439061 
  343000   0.88528715   -3.7380896   -3.7380896   -2.4101619  0.066201383   -3.7380896    1.3279277   439061 
  344000   0.88584405      -3.7407      -3.7407    -2.411937  0.066055096      -3.7407    1.3287631   439061 
  345000   0.88609206   -3.7423398   -3.7423398   -2.4132048  0.066151921   -3.7423398    1.3291351   439061 
  346000   0.88596775   -3.7439271   -3.7439271   -2.4149785  0.064364933   -3.7439271    1.3289486   439061 
  347000    0.8866763   -3.7467547   -3.7467547   -2.4167433  0.062671478   -3.7467547    1.3300114   439061 
  348000   0.88462663   -3.7461067   -3.7461067   -2.4191697  0.064312373   -3.7461067    1.3269369   439061 
  349000   0.88497604   -3.7471921   -3.7471921   -2.4197311  0.062705101   -3.7471921     1.327461   439061 
  350000   0.88559006   -3.7482465   -3.7482465   -2.4198644  0.063031557   -3.7482465    1.3283821   439061 
  351000    0.8852904   -3.7489554   -3.7489554   -2.4210228  0.061738892   -3.7489554    1.3279326   439061 
  352000   0.88480293   -3.7492899   -3.7492899   -2.4220885  0.061946492   -3.7492899    1.3272014   439061 
  353000   0.88398498   -3.7492977   -3.7492977   -2.4233233  0.066463629   -3.7492977    1.3259745   439061 
  354000   0.88486843   -3.7519531   -3.7519531   -2.4246535  0.066358024   -3.7519531    1.3272996   439061 
  355000   0.88434373   -3.7532954   -3.7532954   -2.4267828  0.064806694   -3.7532954    1.3265126   439061 
  356000   0.88205009   -3.7522603   -3.7522603   -2.4291882  0.062166335   -3.7522603    1.3230721   439061 
  357000   0.88298824   -3.7568174   -3.7568174    -2.432338  0.059339609   -3.7568174    1.3244793   439061 
  358000   0.88252491   -3.7579113   -3.7579113    -2.434127  0.061872167   -3.7579113    1.3237843   439061 
  359000   0.88257859   -3.7599694   -3.7599694   -2.4361045  0.063516593   -3.7599694    1.3238649   439061 
  360000   0.88124213   -3.7601915   -3.7601915   -2.4383313  0.067018692   -3.7601915    1.3218602   439061 
  361000    0.8826451   -3.7627783   -3.7627783   -2.4388137  0.068649568   -3.7627783    1.3239646   439061 
  362000   0.88322152   -3.7652036   -3.7652036   -2.4403743  0.063392874   -3.7652036    1.3248293   439061 
  363000   0.88321338   -3.7667846   -3.7667846   -2.4419675   0.06798892   -3.7667846    1.3248171   439061 
  364000   0.88105928   -3.7660439   -3.7660439    -2.444458  0.068139232   -3.7660439    1.3215859   439061 
  365000   0.88295416   -3.7701587   -3.7701587   -2.4457305  0.064592059   -3.7701587    1.3244282   439061 
  366000   0.88270545    -3.769939    -3.769939   -2.4458838  0.072074798    -3.769939    1.3240552   439061 
  367000   0.88241182    -3.773052    -3.773052   -2.4494373  0.062391826    -3.773052    1.3236147   439061 
  368000   0.88169519   -3.7734911   -3.7734911   -2.4509513  0.063225882   -3.7734911    1.3225398   439061 
  369000   0.87964223   -3.7722901   -3.7722901   -2.4528297   0.06501138   -3.7722901    1.3194603   439061 
  370000    0.8806868   -3.7745637   -3.7745637   -2.4535365  0.063721888   -3.7745637    1.3210272   439061 
  371000   0.88083438    -3.774315    -3.774315   -2.4530664  0.061395617    -3.774315    1.3212486   439061 
  372000   0.88029157   -3.7765176   -3.7765176   -2.4560833  0.064580614   -3.7765176    1.3204343   439061 
  373000   0.87952442   -3.7769873   -3.7769873   -2.4577036  0.062755156   -3.7769873    1.3192836   439061 
  374000   0.87794008   -3.7763032   -3.7763032   -2.4593961  0.062102847   -3.7763032    1.3169071   439061 
  375000   0.87882441   -3.7786955   -3.7786955   -2.4604619  0.064581688   -3.7786955    1.3182336   439061 
  376000   0.87868026   -3.7784625   -3.7784625   -2.4604452  0.060965063   -3.7784625    1.3180174   439061 
  377000   0.87921484   -3.7802518   -3.7802518   -2.4614325  0.062006675   -3.7802518    1.3188193   439061 
  378000   0.87898133   -3.7828037   -3.7828037   -2.4643347  0.059774574   -3.7828037     1.318469   439061 
  379000   0.87783214    -3.783661    -3.783661   -2.4669158  0.063626044    -3.783661    1.3167452   439061 
  380000   0.87735454    -3.783747    -3.783747   -2.4677181   0.05815201    -3.783747    1.3160288   439061 
  381000   0.87911807   -3.7861074   -3.7861074   -2.4674333  0.060930396   -3.7861074    1.3186741   439061 
  382000   0.87817163    -3.786477    -3.786477   -2.4692226  0.062781384    -3.786477    1.3172544   439061 
  383000   0.87768569   -3.7871065   -3.7871065    -2.470581  0.063254983   -3.7871065    1.3165255   439061 
  384000   0.87753433   -3.7898715   -3.7898715    -2.473573   0.05811255   -3.7898715    1.3162985   439061 
  385000   0.87762877   -3.7897451   -3.7897451    -2.473305  0.063957649   -3.7897451    1.3164402   439061 
  386000   0.87783083   -3.7920431   -3.7920431   -2.4752999  0.062054258   -3.7920431    1.3167432   439061 
  387000   0.87751981   -3.7927082   -3.7927082   -2.4764314  0.064425759   -3.7927082    1.3162767   439061 
  388000    0.8764948   -3.7929498   -3.7929498   -2.4782106  0.064810115   -3.7929498    1.3147392   439061 
  389000   0.87865099   -3.7972415   -3.7972415    -2.479268  0.055650969   -3.7972415    1.3179735   439061 
  390000   0.87646111   -3.7955953   -3.7955953   -2.4809066  0.061492782   -3.7955953    1.3146887   439061 
  391000    0.8764714   -3.7973115   -3.7973115   -2.4826074  0.060719219   -3.7973115    1.3147041   439061 
  392000   0.87480362   -3.7979152   -3.7979152   -2.4857127  0.062056068   -3.7979152    1.3122024   439061 
  393000   0.87519685   -3.8001685   -3.8001685   -2.4873762  0.058686238   -3.8001685    1.3127923   439061 
  394000   0.87506065   -3.8016933   -3.8016933   -2.4891053  0.058339095   -3.8016933     1.312588   439061 
  395000   0.87545224   -3.8031103   -3.8031103   -2.4899349  0.061761165   -3.8031103    1.3131754   439061 
  396000   0.87574631   -3.8041644   -3.8041644   -2.4905479  0.066192363   -3.8041644    1.3136165   439061 
  397000   0.87614249   -3.8057799   -3.8057799   -2.4915692  0.066440259   -3.8057799    1.3142107   439061 
  398000   0.87502152   -3.8062257   -3.8062257   -2.4936964  0.063751758   -3.8062257    1.3125293   439061 
  399000   0.87401133   -3.8068559   -3.8068559   -2.4958418  0.061709783   -3.8068559     1.311014   439061 
  400000   0.87348978    -3.808463    -3.808463   -2.4982314  0.061917526    -3.808463    1.3102317   439061 
  401000   0.87371135   -3.8096487   -3.8096487   -2.4990847  0.058747838   -3.8096487     1.310564   439061 
  402000   0.87189952   -3.8080547   -3.8080547   -2.5002084  0.059398915   -3.8080547    1.3078463   439061 
  403000   0.87256134   -3.8098374   -3.8098374   -2.5009983  0.061904091   -3.8098374     1.308839   439061 
  404000   0.87293312   -3.8116628   -3.8116628   -2.5022661  0.062807672   -3.8116628    1.3093967   439061 
  405000    0.8721137   -3.8118746   -3.8118746   -2.5037071  0.063993157   -3.8118746    1.3081676   439061 
  406000   0.87161082     -3.81256     -3.81256   -2.5051467  0.065849865     -3.81256    1.3074133   439061 
  407000   0.87141424   -3.8145782   -3.8145782   -2.5074598  0.060328495   -3.8145782    1.3071184   439061 
  408000   0.87178294   -3.8169906   -3.8169906   -2.5093192  0.064455774   -3.8169906    1.3076714   439061 
  409000   0.87143326   -3.8179968   -3.8179968   -2.5108499  0.063296483   -3.8179968    1.3071469   439061 
  410000   0.87131806   -3.8193889   -3.8193889   -2.5124148  0.063752427   -3.8193889    1.3069741   439061 
  411000   0.87073636   -3.8206582   -3.8206582   -2.5145566  0.060278639   -3.8206582    1.3061016   439061 
  412000   0.87078145   -3.8222236   -3.8222236   -2.5160544  0.063715475   -3.8222236    1.3061692   439061 
  413000   0.87061025   -3.8232358   -3.8232358   -2.5173234  0.065692093   -3.8232358    1.3059124   439061 
  414000   0.87143559   -3.8253424   -3.8253424    -2.518192  0.065251238   -3.8253424    1.3071504   439061 
  415000   0.86990305   -3.8247997   -3.8247997   -2.5199481   0.06345615   -3.8247997    1.3048516   439061 
  416000   0.87038014   -3.8276987   -3.8276987   -2.5221315  0.063883196   -3.8276987    1.3055672   439061 
  417000   0.87039703   -3.8291926   -3.8291926   -2.5236001  0.058219572   -3.8291926    1.3055926   439061 
  418000   0.86874103   -3.8290306   -3.8290306    -2.525922  0.061722154   -3.8290306    1.3031086   439061 
  419000   0.86942763    -3.829755    -3.829755   -2.5256165  0.060865342    -3.829755    1.3041385   439061 
  420000   0.86963971   -3.8326342   -3.8326342   -2.5281777  0.058663597   -3.8326342    1.3044566   439061 
  421000   0.86958673    -3.833916    -3.833916   -2.5295388  0.059156017    -3.833916    1.3043771   439061 
  422000   0.86941694   -3.8353214   -3.8353214    -2.531199  0.061784367   -3.8353214    1.3041224   439061 
  423000   0.86998786   -3.8377456   -3.8377456   -2.5327667  0.060203157   -3.8377456    1.3049788   439061 
  424000   0.86800486   -3.8360813   -3.8360813    -2.534077  0.062027486   -3.8360813    1.3020043   439061 
  425000   0.86779059   -3.8364668   -3.8364668   -2.5347839  0.061030203   -3.8364668    1.3016829   439061 
  426000   0.86793292   -3.8374642   -3.8374642   -2.5355678  0.065199305   -3.8374642    1.3018964   439061 
  427000   0.86843963   -3.8393989   -3.8393989   -2.5367424  0.062916328   -3.8393989    1.3026565   439061 
  428000   0.86824917   -3.8401699   -3.8401699   -2.5377991  0.064626788   -3.8401699    1.3023708   439061 
  429000   0.86906948   -3.8425823   -3.8425823    -2.538981  0.060941585   -3.8425823    1.3036013   439061 
  430000   0.86769472   -3.8422644   -3.8422644   -2.5407253  0.061269372   -3.8422644    1.3015391   439061 
  431000   0.86677927   -3.8424915   -3.8424915   -2.5423256  0.061149563   -3.8424915    1.3001659   439061 
  432000    0.8672307   -3.8432964   -3.8432964   -2.5424534  0.056846605   -3.8432964    1.3008431   439061 
  433000   0.86664251   -3.8441207   -3.8441207   -2.5441599  0.058209183   -3.8441207    1.2999608   439061 
  434000   0.86710166   -3.8460708   -3.8460708   -2.5454213  0.057741138   -3.8460708    1.3006495   439061 
  435000   0.86666433   -3.8482866   -3.8482866   -2.5482931    0.0606209   -3.8482866    1.2999935   439061 
  436000   0.86632967   -3.8481343   -3.8481343   -2.5486427  0.061180851   -3.8481343    1.2994915   439061 
  437000    0.8664979   -3.8492944   -3.8492944   -2.5495505  0.062030748   -3.8492944    1.2997439   439061 
  438000   0.86582704   -3.8509466   -3.8509466    -2.552209  0.056791816   -3.8509466    1.2987376   439061 
  439000   0.86535214   -3.8516326   -3.8516326   -2.5536074  0.056981765   -3.8516326    1.2980253   439061 
  440000   0.86563213   -3.8543367   -3.8543367   -2.5558914  0.060807276   -3.8543367    1.2984452   439061 
  441000   0.86465292   -3.8543787   -3.8543787   -2.5574023  0.066441016   -3.8543787    1.2969764   439061 
  442000   0.86572922   -3.8570883   -3.8570883   -2.5584974  0.058210037   -3.8570883    1.2985909   439061 
  443000   0.86605556   -3.8583983   -3.8583983   -2.5593179  0.057962674   -3.8583983    1.2990804   439061 
  444000   0.86580772   -3.8596508   -3.8596508   -2.5609422  0.058955704   -3.8596508    1.2987086   439061 
  445000    0.8649563   -3.8598638   -3.8598638   -2.5624323   0.06468006   -3.8598638    1.2974315   439061 
  446000   0.86500488   -3.8614052   -3.8614052   -2.5639008  0.057109195   -3.8614052    1.2975044   439061 
  447000   0.86401741   -3.8616177   -3.8616177   -2.5655945  0.060333477   -3.8616177    1.2960232   439061 
  448000    0.8630231    -3.860754    -3.860754   -2.5662223  0.058496717    -3.860754    1.2945317   439061 
  449000   0.86393361   -3.8626381   -3.8626381   -2.5667406  0.058279492   -3.8626381    1.2958975   439061 
  450000   0.86418604   -3.8624247   -3.8624247   -2.5661486  0.060235595   -3.8624247    1.2962761   439061 
  451000   0.86330156    -3.863002    -3.863002   -2.5680527  0.056189036    -3.863002    1.2949494   439061 
  452000   0.86368922   -3.8628069   -3.8628069    -2.567276   0.05930544   -3.8628069    1.2955309   439061 
  453000   0.86428901   -3.8650545   -3.8650545   -2.5686239  0.059156531   -3.8650545    1.2964306   439061 
  454000   0.86246151   -3.8647474   -3.8647474   -2.5710581  0.057971094   -3.8647474    1.2936893   439061 
  455000   0.86198662   -3.8649242   -3.8649242   -2.5719472  0.054967048   -3.8649242     1.292977   439061 
  456000   0.86357092   -3.8669772   -3.8669772   -2.5716237  0.053732686   -3.8669772    1.2953534   439061 
  457000    0.8624095   -3.8676985   -3.8676985   -2.5740872   0.05398148   -3.8676985    1.2936113   439061 
  458000   0.86256434   -3.8705168   -3.8705168   -2.5766732  0.052022452   -3.8705168    1.2938436   439061 
  459000   0.86341579   -3.8717166   -3.8717166   -2.5765959  0.054458059   -3.8717166    1.2951207   439061 
  460000   0.86179271   -3.8712259   -3.8712259   -2.5785397  0.059294932   -3.8712259    1.2926861   439061 
  461000   0.86257628    -3.873056    -3.873056   -2.5791946  0.056784342    -3.873056    1.2938615   439061 
  462000   0.86243415   -3.8761899   -3.8761899   -2.5825416  0.057425691   -3.8761899    1.2936483   439061 
  463000   0.86136322   -3.8766655   -3.8766655   -2.5846236  0.060340178   -3.8766655    1.2920419   439061 
  464000   0.86182998   -3.8775226   -3.8775226   -2.5847806  0.059960416   -3.8775226     1.292742   439061 
  465000   0.86235732   -3.8791068   -3.8791068   -2.5855737  0.057071395   -3.8791068     1.293533   439061 
  466000   0.86254669     -3.88159     -3.88159   -2.5877729  0.056550988     -3.88159    1.2938171   439061 
  467000   0.86133093   -3.8815454   -3.8815454    -2.589552  0.055068191   -3.8815454    1.2919934   439061 
  468000   0.85990593   -3.8818526   -3.8818526   -2.5919967  0.055693689   -3.8818526     1.289856   439061 
  469000   0.85958825   -3.8820839   -3.8820839   -2.5927045  0.058781621   -3.8820839    1.2893794   439061 
  470000   0.85938861    -3.882793    -3.882793    -2.593713  0.058491804    -3.882793      1.28908   439061 
  471000   0.86082837    -3.887111    -3.887111   -2.5958714   0.05279887    -3.887111    1.2912396   439061 
  472000   0.85892059   -3.8852306   -3.8852306   -2.5968526  0.056864853   -3.8852306    1.2883779   439061 
  473000   0.86072156   -3.8900457   -3.8900457   -2.5989663  0.055813915   -3.8900457    1.2910794   439061 
  474000   0.85863012    -3.887818    -3.887818   -2.5998757  0.054893417    -3.887818    1.2879422   439061 
  475000   0.85810799   -3.8885773   -3.8885773   -2.6014183  0.058002775   -3.8885773    1.2871591   439061 
  476000   0.85877352   -3.8905014   -3.8905014    -2.602344  0.053853441   -3.8905014    1.2881573   439061 
  477000   0.85951548   -3.8923232   -3.8923232   -2.6030529  0.051298226   -3.8923232    1.2892703   439061 
  478000   0.85841597   -3.8921282   -3.8921282   -2.6045071  0.060221543   -3.8921282     1.287621   439061 
  479000   0.85941652   -3.8933305   -3.8933305   -2.6042086  0.059923966   -3.8933305    1.2891218   439061 
  480000   0.85861163    -3.894252    -3.894252   -2.6063375  0.058535524    -3.894252    1.2879145   439061 
  481000   0.85806611   -3.8947512   -3.8947512   -2.6076549   0.05706529   -3.8947512    1.2870962   439061 
  482000   0.85812761   -3.8969752   -3.8969752   -2.6097867  0.057409885   -3.8969752    1.2871885   439061 
  483000   0.85732587   -3.8970606   -3.8970606   -2.6110747  0.053358904   -3.8970606    1.2859859   439061 
  484000   0.85611004   -3.8962246   -3.8962246   -2.6120624  0.052805423   -3.8962246    1.2841621   439061 
  485000   0.85626484    -3.899104    -3.899104   -2.6147097  0.051829414    -3.899104    1.2843943   439061 
  486000   0.85570673   -3.8990247   -3.8990247   -2.6154675  0.049367671   -3.8990247    1.2835572   439061 
  487000   0.85575913   -3.8998805   -3.8998805   -2.6162447  0.052792221   -3.8998805    1.2836358   439061 
  488000   0.85604897   -3.9006225   -3.9006225    -2.616552  0.058088002   -3.9006225    1.2840705   439061 
  489000   0.85589186   -3.9017297   -3.9017297   -2.6178949  0.053670663   -3.9017297    1.2838349   439061 
  490000    0.8566727   -3.9037117   -3.9037117   -2.6187056  0.058405306   -3.9037117    1.2850061   439061 
  491000   0.85707732   -3.9057629   -3.9057629   -2.6201498   0.05712028   -3.9057629    1.2856131   439061 
  492000   0.85740318   -3.9067171   -3.9067171   -2.6206153  0.055732715   -3.9067171    1.2861018   439061 
  493000   0.85577766   -3.9074746   -3.9074746    -2.623811   0.05805447   -3.9074746    1.2836636   439061 
  494000   0.85498558   -3.9070287   -3.9070287   -2.6245533  0.059236434   -3.9070287    1.2824754   439061 
  495000   0.85529367   -3.9097084   -3.9097084   -2.6267708  0.058758859   -3.9097084    1.2829376   439061 
  496000    0.8550709   -3.9091395   -3.9091395    -2.626536  0.059290606   -3.9091395    1.2826034   439061 
  497000   0.85610206   -3.9129389   -3.9129389   -2.6287887  0.055380024   -3.9129389    1.2841502   439061 
  498000   0.85433411   -3.9116101   -3.9116101   -2.6301118  0.052665203   -3.9116101    1.2814982   439061 
  499000    0.8542581   -3.9124352   -3.9124352    -2.631051  0.053747802   -3.9124352    1.2813842   439061 
  500000   0.85423267   -3.9143369   -3.9143369   -2.6329909   0.05078207   -3.9143369    1.2813461   439061 
  501000   0.85447915   -3.9151003   -3.9151003   -2.6333845  0.049563408   -3.9151003    1.2817158   439061 
  502000    0.8560025   -3.9173287   -3.9173287   -2.6333279  0.051973862   -3.9173287    1.2840008   439061 
  503000   0.85489295   -3.9161807   -3.9161807   -2.6338442  0.059805874   -3.9161807    1.2823365   439061 
  504000   0.85534571   -3.9179246   -3.9179246   -2.6349089  0.049664025   -3.9179246    1.2830156   439061 
  505000    0.8548633   -3.9180272   -3.9180272   -2.6357351  0.055025754   -3.9180272     1.282292   439061 
  506000   0.85443586    -3.918131    -3.918131   -2.6364801  0.049466014    -3.918131    1.2816509   439061 
  507000   0.85454371   -3.9182001   -3.9182001   -2.6363874  0.052034823   -3.9182001    1.2818126   439061 
  508000   0.85259207    -3.918802    -3.918802   -2.6399168  0.049380999    -3.918802    1.2788852   439061 
  509000    0.8521687   -3.9200838   -3.9200838   -2.6418336  0.052017348   -3.9200838    1.2782501   439061 
  510000    0.8518549   -3.9226755   -3.9226755   -2.6448961  0.049534505   -3.9226755    1.2777794   439061 
  511000   0.85421294   -3.9245513   -3.9245513   -2.6432348  0.054213728   -3.9245513    1.2813165   439061 
  512000   0.85284589   -3.9236301   -3.9236301   -2.6443641  0.056208271   -3.9236301    1.2792659   439061 
  513000   0.85278051   -3.9251894   -3.9251894   -2.6460215   0.05502937   -3.9251894    1.2791679   439061 
  514000   0.85299855   -3.9268345   -3.9268345   -2.6473396  0.052410558   -3.9268345    1.2794949   439061 
  515000   0.85296745   -3.9285166   -3.9285166   -2.6490683  0.053029826   -3.9285166    1.2794483   439061 
  516000    0.8524666   -3.9293647   -3.9293647   -2.6506678  0.054446428   -3.9293647     1.278697   439061 
  517000   0.85188992   -3.9300317   -3.9300317   -2.6521998  0.052609338   -3.9300317     1.277832   439061 
  518000    0.8523953   -3.9326274   -3.9326274   -2.6540373  0.052763336   -3.9326274      1.27859   439061 
  519000    0.8521855   -3.9334201   -3.9334201   -2.6551447  0.050013609   -3.9334201    1.2782753   439061 
  520000   0.85214216   -3.9342223   -3.9342223    -2.656012  0.049807181   -3.9342223    1.2782103   439061 
  521000   0.85145132   -3.9334244   -3.9334244   -2.6562503  0.057410236   -3.9334244    1.2771741   439061 
  522000   0.85111587   -3.9329936   -3.9329936   -2.6563228  0.058113831   -3.9329936    1.2766709   439061 
  523000   0.85228089   -3.9367307   -3.9367307   -2.6583123  0.051313601   -3.9367307    1.2784184   439061 
  524000   0.85086918   -3.9360352   -3.9360352   -2.6597343   0.05081991   -3.9360352    1.2763009   439061 
  525000   0.85092701   -3.9379143   -3.9379143   -2.6615267  0.049321997   -3.9379143    1.2763876   439061 
  526000    0.8499654   -3.9376136   -3.9376136   -2.6626684  0.051828827   -3.9376136    1.2749452   439061 
  527000    0.8511624   -3.9399886   -3.9399886   -2.6632479  0.049069451   -3.9399886    1.2767407   439061 
  528000    0.8500926   -3.9395893   -3.9395893   -2.6644533  0.053329746   -3.9395893     1.275136   439061 
  529000   0.85244556   -3.9421804   -3.9421804    -2.663515   0.04950742   -3.9421804    1.2786654   439061 
  530000   0.85135351   -3.9409662   -3.9409662   -2.6639389  0.050896896   -3.9409662    1.2770274   439061 
  531000   0.84983292   -3.9402104   -3.9402104   -2.6654639  0.062182695   -3.9402104    1.2747465   439061 
  532000   0.85049487   -3.9438105   -3.9438105   -2.6680711  0.049196878   -3.9438105    1.2757394   439061 
  533000   0.85022105   -3.9430883   -3.9430883   -2.6677596   0.05174317   -3.9430883    1.2753287   439061 
  534000   0.84985786   -3.9451422   -3.9451422   -2.6703583  0.049154167   -3.9451422    1.2747839   439061 
  535000   0.84741688   -3.9424812   -3.9424812   -2.6713588  0.057977191   -3.9424812    1.2711224   439061 
  536000   0.84868373   -3.9445411   -3.9445411   -2.6715184  0.052031938   -3.9445411    1.2730227   439061 
  537000   0.85010698   -3.9479898   -3.9479898   -2.6728322  0.050101988   -3.9479898    1.2751576   439061 
  538000   0.84836211   -3.9475349   -3.9475349   -2.6749946  0.046341459   -3.9475349    1.2725403   439061 
  539000   0.84771856   -3.9474985   -3.9474985   -2.6759236  0.051361512   -3.9474985    1.2715749   439061 
  540000   0.84808837   -3.9482537   -3.9482537   -2.6761241   0.05053374   -3.9482537    1.2721297   439061 
  541000   0.84888693   -3.9521406   -3.9521406   -2.6788131  0.051714437   -3.9521406    1.2733275   439061 
  542000   0.84710859   -3.9509312   -3.9509312   -2.6802712  0.049450638   -3.9509312      1.27066   439061 
  543000   0.84813174   -3.9530054   -3.9530054   -2.6808107  0.046295847   -3.9530054    1.2721947   439061 
  544000    0.8475327   -3.9533696   -3.9533696   -2.6820734  0.051094385   -3.9533696    1.2712962   439061 
  545000   0.84668981   -3.9547932   -3.9547932   -2.6847614  0.050506597   -3.9547932    1.2700318   439061 
  546000   0.84785623   -3.9569414   -3.9569414   -2.6851599  0.053032698   -3.9569414    1.2717814   439061 
  547000   0.84797433   -3.9586907   -3.9586907   -2.6867321  0.050860465   -3.9586907    1.2719586   439061 
  548000   0.84719468   -3.9598017   -3.9598017   -2.6890126  0.048899125   -3.9598017    1.2707891   439061 
  549000   0.84764214   -3.9599874   -3.9599874   -2.6885271   0.05304418   -3.9599874    1.2714603   439061 
  550000   0.84688901   -3.9599184   -3.9599184   -2.6895877  0.052956359   -3.9599184    1.2703306   439061 
  551000   0.84688354   -3.9618739   -3.9618739   -2.6915515  0.059188192   -3.9618739    1.2703224   439061 
  552000   0.84858911   -3.9661177   -3.9661177    -2.693237  0.049143993   -3.9661177    1.2728808   439061 
  553000   0.84514154   -3.9619019   -3.9619019   -2.6941925   0.05414689   -3.9619019    1.2677094   439061 
  554000   0.84593183   -3.9637485   -3.9637485   -2.6948536  0.055112293   -3.9637485    1.2688949   439061 
  555000   0.84480114   -3.9640084   -3.9640084   -2.6968096  0.047629176   -3.9640084    1.2671988   439061 
  556000   0.84576445   -3.9652937   -3.9652937   -2.6966499  0.050873003   -3.9652937    1.2686438   439061 
  557000   0.84457623    -3.965439    -3.965439   -2.6985775  0.045726712    -3.965439    1.2668615   439061 
  558000   0.84462028    -3.966406    -3.966406   -2.6994784  0.049335122    -3.966406    1.2669275   439061 
  559000   0.84572503   -3.9688474   -3.9688474   -2.7002627  0.044362002   -3.9688474    1.2685846   439061 
  560000   0.84465543   -3.9692682   -3.9692682    -2.702288  0.045593137   -3.9692682    1.2669803   439061 
  561000   0.84427107   -3.9698625   -3.9698625   -2.7034588    0.0472226   -3.9698625    1.2664037   439061 
  562000   0.84448667   -3.9706009   -3.9706009   -2.7038738  0.050217352   -3.9706009    1.2667271   439061 
  563000   0.84535789   -3.9729437   -3.9729437   -2.7049098  0.050987675   -3.9729437    1.2680339   439061 
  564000   0.84539818   -3.9741059   -3.9741059   -2.7060116  0.049294022   -3.9741059    1.2680944   439061 
  565000   0.84525782   -3.9752449   -3.9752449    -2.707361   0.05360509   -3.9752449    1.2678838   439061 
  566000   0.84524086   -3.9766851   -3.9766851   -2.7088267  0.051059318   -3.9766851    1.2678584   439061 
  567000   0.84587359   -3.9778797   -3.9778797   -2.7090722  0.049392237   -3.9778797    1.2688075   439061 
  568000   0.84599147   -3.9790888   -3.9790888   -2.7101045  0.047877496   -3.9790888    1.2689843   439061 
  569000   0.84351749   -3.9765842   -3.9765842   -2.7113109  0.051969755   -3.9765842    1.2652733   439061 
  570000   0.84375934   -3.9789948   -3.9789948   -2.7133586  0.044863618   -3.9789948    1.2656361   439061 
  571000   0.84441902   -3.9806787   -3.9806787    -2.714053  0.043679084   -3.9806787    1.2666257   439061 
  572000   0.84554153   -3.9824118   -3.9824118   -2.7141024  0.043757339   -3.9824118    1.2683094   439061 
  573000   0.84500263    -3.981306    -3.981306   -2.7138049  0.043682178    -3.981306    1.2675011   439061 
  574000   0.84350991   -3.9806152   -3.9806152   -2.7153532  0.046957084   -3.9806152     1.265262   439061 
  575000   0.84476377   -3.9827571   -3.9827571   -2.7156143  0.045521567   -3.9827571    1.2671428   439061 
  576000   0.84420982    -3.983786    -3.983786   -2.7174741  0.044591551    -3.983786    1.2663118   439061 
  577000   0.84230479   -3.9821377   -3.9821377   -2.7186834  0.047936454   -3.9821377    1.2634543   439061 
  578000   0.84337458   -3.9854509   -3.9854509   -2.7203919  0.043423497   -3.9854509     1.265059   439061 
  579000   0.84265724   -3.9854768   -3.9854768   -2.7214938  0.046637917   -3.9854768     1.263983   439061 
  580000   0.84395542   -3.9881845   -3.9881845   -2.7222542  0.050015635   -3.9881845    1.2659302   439061 
  581000   0.84414237   -3.9888938   -3.9888938   -2.7226831  0.048331683   -3.9888938    1.2662107   439061 
  582000   0.84366196    -3.988546    -3.988546   -2.7230559   0.05649692    -3.988546    1.2654901   439061 
  583000   0.84406669     -3.98937     -3.98937   -2.7232729  0.056904057     -3.98937    1.2660972   439061 
  584000   0.84396475   -3.9908957   -3.9908957   -2.7249514  0.049480829   -3.9908957    1.2659442   439061 
  585000   0.84255671   -3.9919298   -3.9919298   -2.7280976  0.048447369   -3.9919298    1.2638322   439061 
  586000    0.8415985   -3.9923428   -3.9923428    -2.729948  0.048077918   -3.9923428    1.2623949   439061 
  587000   0.84181573   -3.9925804   -3.9925804   -2.7298597  0.046379742   -3.9925804    1.2627207   439061 
  588000   0.84055994   -3.9915763   -3.9915763   -2.7307392  0.043611038   -3.9915763     1.260837   439061 
  589000   0.84022562   -3.9921105   -3.9921105   -2.7317749  0.045846837   -3.9921105    1.2603356   439061 
  590000   0.84184892   -3.9949743   -3.9949743   -2.7322038  0.041462891   -3.9949743    1.2627705   439061 
  591000   0.84129281   -3.9938673   -3.9938673    -2.731931  0.047350149   -3.9938673    1.2619363   439061 
  592000   0.84057942   -3.9950169   -3.9950169   -2.7341506  0.042764436   -3.9950169    1.2608663   439061 
  593000   0.84121089   -3.9959285   -3.9959285    -2.734115  0.045044696   -3.9959285    1.2618135   439061 
  594000   0.84223868   -3.9977039   -3.9977039   -2.7343488  0.045106751   -3.9977039    1.2633551   439061 
  595000    0.8413249   -3.9977077   -3.9977077   -2.7357232  0.048045881   -3.9977077    1.2619845   439061 
  596000   0.84193699   -4.0000277   -4.0000277   -2.7371251  0.049709448   -4.0000277    1.2629026   439061 
  597000   0.84232642   -4.0015025   -4.0015025   -2.7380158  0.048146791   -4.0015025    1.2634868   439061 
  598000    0.8421916   -4.0025149   -4.0025149   -2.7392304  0.044900444   -4.0025149    1.2632845   439061 
  599000   0.84262804   -4.0051968   -4.0051968   -2.7412576  0.043483351   -4.0051968    1.2639392   439061 
  600000   0.84081047   -4.0045511   -4.0045511   -2.7433383  0.049863849   -4.0045511    1.2612128   439061 
  601000   0.84068384   -4.0054165   -4.0054165   -2.7443936  0.046935183   -4.0054165    1.2610229   439061 
  602000   0.83980007   -4.0054926   -4.0054926   -2.7457954  0.045067302   -4.0054926    1.2596972   439061 
  603000   0.84000338   -4.0072226   -4.0072226   -2.7472204  0.044772013   -4.0072226    1.2600022   439061 
  604000    0.8403441   -4.0084892   -4.0084892   -2.7479759  0.043230412   -4.0084892    1.2605133   439061 
  605000   0.83970979   -4.0088934   -4.0088934   -2.7493316  0.043355291   -4.0088934    1.2595618   439061 
  606000   0.84012413   -4.0101755   -4.0101755   -2.7499921  0.043913195   -4.0101755    1.2601833   439061 
  607000   0.84036588   -4.0097343   -4.0097343   -2.7491884  0.047696493   -4.0097343     1.260546   439061 
  608000   0.84042885   -4.0099374   -4.0099374    -2.749297  0.047229104   -4.0099374    1.2606404   439061 
  609000   0.84025984   -4.0113794   -4.0113794   -2.7509926  0.047538583   -4.0113794    1.2603869   439061 
  610000   0.83861444   -4.0109492   -4.0109492   -2.7530304  0.048707952   -4.0109492    1.2579188   439061 
  611000   0.83895738   -4.0122126   -4.0122126   -2.7537794  0.044920875   -4.0122126    1.2584332   439061 
  612000   0.84032925   -4.0145674   -4.0145674   -2.7540764  0.040888451   -4.0145674     1.260491   439061 
  613000   0.83904928   -4.0149873   -4.0149873   -2.7564163  0.043086003   -4.0149873    1.2585711   439061 
  614000   0.83764248    -4.014904    -4.014904   -2.7584431  0.048302464    -4.014904    1.2564609   439061 
  615000   0.83909152   -4.0166398   -4.0166398   -2.7580054  0.044548419   -4.0166398    1.2586344   439061 
  616000   0.83939434   -4.0176022   -4.0176022   -2.7585135  0.042201552   -4.0176022    1.2590886   439061 
  617000   0.83947735   -4.0188294   -4.0188294   -2.7596162   0.04499881   -4.0188294    1.2592132   439061 
  618000   0.83847899   -4.0181328   -4.0181328   -2.7604172  0.050341241   -4.0181328    1.2577156   439061 
  619000   0.83994742   -4.0205377   -4.0205377   -2.7606195  0.044023031   -4.0205377    1.2599183   439061 
  620000   0.83906943   -4.0217347   -4.0217347   -2.7631334  0.043313817   -4.0217347    1.2586013   439061 
  621000   0.83861096   -4.0232142   -4.0232142   -2.7653006  0.039203434   -4.0232142    1.2579136   439061 
  622000   0.83671663   -4.0230326   -4.0230326   -2.7679605  0.041969015   -4.0230326    1.2550721   439061 
  623000   0.83776101    -4.026054    -4.026054   -2.7694153  0.037290028    -4.026054    1.2566387   439061 
  624000   0.83669205   -4.0231287   -4.0231287   -2.7680934  0.045193865   -4.0231287    1.2550352   439061 
  625000    0.8387984   -4.0264198   -4.0264198   -2.7682251  0.044412675   -4.0264198    1.2581947   439061 
  626000   0.83724505   -4.0255155   -4.0255155   -2.7696508   0.04742528   -4.0255155    1.2558647   439061 
  627000    0.8394818   -4.0295231   -4.0295231   -2.7703033  0.048633083   -4.0295231    1.2592198   439061 
  628000   0.83923953   -4.0293921   -4.0293921   -2.7705357  0.052973074   -4.0293921    1.2588564   439061 
  629000     0.838664   -4.0293903   -4.0293903   -2.7713972  0.046847685   -4.0293903    1.2579931   439061 
  630000   0.83811363   -4.0308355   -4.0308355   -2.7736679  0.043730393   -4.0308355    1.2571676   439061 
  631000   0.83660474   -4.0305202   -4.0305202   -2.7756159  0.043901735   -4.0305202    1.2549043   439061 
  632000     0.835844   -4.0311698   -4.0311698   -2.7774066  0.042677815   -4.0311698    1.2537631   439061 
  633000   0.83690763    -4.031932    -4.031932   -2.7765735  0.040865788    -4.031932    1.2553586   439061 
  634000   0.83522697   -4.0313396   -4.0313396    -2.778502   0.04603109   -4.0313396    1.2528376   439061 
  635000   0.83551381   -4.0345401   -4.0345401   -2.7812723  0.039810211   -4.0345401    1.2532679   439061 
  636000   0.83672652   -4.0349828   -4.0349828   -2.7798959  0.037333779   -4.0349828    1.2550869   439061 
  637000   0.83568718   -4.0335922   -4.0335922   -2.7800643  0.044684705   -4.0335922    1.2535279   439061 
  638000   0.83516583    -4.033284    -4.033284   -2.7805381  0.047681169    -4.033284    1.2527459   439061 
  639000   0.83685719   -4.0383231   -4.0383231   -2.7830402   0.04192841   -4.0383231    1.2552829   439061 
  640000   0.83842331   -4.0402363   -4.0402363   -2.7826042  0.040562299   -4.0402363    1.2576321   439061 
  641000   0.83621062    -4.038687    -4.038687   -2.7843739   0.04182079    -4.038687    1.2543131   439061 
  642000   0.83605976   -4.0396584   -4.0396584   -2.7855716  0.048680859   -4.0396584    1.2540868   439061 
  643000   0.83515312   -4.0402664   -4.0402664   -2.7875395  0.043826105   -4.0402664    1.2527268   439061 
  644000   0.83485851   -4.0409944   -4.0409944   -2.7887095  0.047713383   -4.0409944    1.2522849   439061 
  645000   0.83712953   -4.0451669   -4.0451669   -2.7894754  0.039064205   -4.0451669    1.2556914   439061 
  646000   0.83566594   -4.0434414   -4.0434414   -2.7899453  0.046808134   -4.0434414    1.2534961   439061 
  647000   0.83496357   -4.0444242   -4.0444242   -2.7919817  0.041113748   -4.0444242    1.2524425   439061 
  648000    0.8356526   -4.0461626   -4.0461626   -2.7926865  0.041999866   -4.0461626     1.253476   439061 
  649000   0.83583267   -4.0464869   -4.0464869   -2.7927407  0.040042263   -4.0464869    1.2537462   439061 
  650000   0.83393074   -4.0454267   -4.0454267   -2.7945335  0.041147948   -4.0454267    1.2508933   439061 
  651000   0.83374169   -4.0456822   -4.0456822   -2.7950726  0.038403729   -4.0456822    1.2506097   439061 
  652000   0.83304757   -4.0456143   -4.0456143   -2.7960458  0.043351558   -4.0456143    1.2495685   439061 
  653000   0.83463809   -4.0490341   -4.0490341   -2.7970798  0.044591297   -4.0490341    1.2519543   439061 
  654000   0.83506489   -4.0513136   -4.0513136   -2.7987191  0.037781973   -4.0513136    1.2525945   439061 
  655000    0.8327703   -4.0505686   -4.0505686    -2.801416  0.041932967   -4.0505686    1.2491526   439061 
  656000   0.83238695    -4.050885    -4.050885   -2.8023074  0.043847491    -4.050885    1.2485776   439061 
  657000   0.83280721   -4.0533919   -4.0533919    -2.804184  0.043153363   -4.0533919     1.249208   439061 
  658000   0.83329207   -4.0542821   -4.0542821   -2.8043469  0.045199999   -4.0542821    1.2499353   439061 
  659000   0.83454847   -4.0565904   -4.0565904   -2.8047705  0.044276188   -4.0565904    1.2518199   439061 
  660000   0.83453029   -4.0564268   -4.0564268   -2.8046342   0.04729239   -4.0564268    1.2517926   439061 
  661000   0.83390382   -4.0571835   -4.0571835   -2.8063306  0.049767351   -4.0571835    1.2508529   439061 
  662000   0.83264728   -4.0574881   -4.0574881   -2.8085201  0.042395695   -4.0574881    1.2489681   439061 
  663000   0.83192478   -4.0574749   -4.0574749   -2.8095905  0.041229838   -4.0574749    1.2478843   439061 
  664000   0.83308265   -4.0607468   -4.0607468   -2.8111257  0.036264849   -4.0607468    1.2496211   439061 
  665000   0.83228013   -4.0594766   -4.0594766   -2.8110592  0.041003757   -4.0594766    1.2484174   439061 
  666000   0.83298239   -4.0601419   -4.0601419   -2.8106711  0.040251989   -4.0601419    1.2494707   439061 
  667000   0.83179013   -4.0599151   -4.0599151   -2.8122327  0.039283216   -4.0599151    1.2476824   439061 
  668000   0.83198407   -4.0612072   -4.0612072    -2.813234  0.039884289   -4.0612072    1.2479733   439061 
  669000   0.83375618    -4.063928    -4.063928   -2.8132966  0.040009839    -4.063928    1.2506314   439061 
  670000    0.8317894   -4.0617881   -4.0617881   -2.8141069  0.041235716   -4.0617881    1.2476813   439061 
  671000   0.83278714   -4.0650098   -4.0650098   -2.8158319  0.041966026   -4.0650098    1.2491779   439061 
  672000   0.83248076   -4.0656343   -4.0656343    -2.816916  0.047893756   -4.0656343    1.2487183   439061 
  673000   0.83216118   -4.0664379   -4.0664379   -2.8181989  0.044323488   -4.0664379    1.2482389   439061 
  674000   0.83286175   -4.0670389   -4.0670389   -2.8177491  0.043389453   -4.0670389    1.2492898   439061 
  675000   0.83306267   -4.0679727   -4.0679727   -2.8183815  0.047698245   -4.0679727    1.2495912   439061 
  676000   0.83171913   -4.0673108   -4.0673108    -2.819735  0.044241304   -4.0673108    1.2475759   439061 
  677000   0.83185461   -4.0687118   -4.0687118   -2.8209328  0.041877426   -4.0687118    1.2477791   439061 
  678000   0.83117033   -4.0678925   -4.0678925   -2.8211399  0.046360504   -4.0678925    1.2467527   439061 
  679000   0.83001123   -4.0677309   -4.0677309   -2.8227169  0.043493651   -4.0677309     1.245014   439061 
  680000   0.83174416   -4.0700478   -4.0700478   -2.8224344  0.038298092   -4.0700478    1.2476134   439061 
  681000   0.83055142   -4.0680568   -4.0680568   -2.8222325  0.045698164   -4.0680568    1.2458243   439061 
  682000   0.83107092   -4.0704882   -4.0704882   -2.8238847   0.03718163   -4.0704882    1.2466035   439061 
  683000   0.83161662   -4.0714324   -4.0714324   -2.8240103  0.037970947   -4.0714324    1.2474221   439061 
  684000   0.83041914   -4.0700236   -4.0700236   -2.8243977  0.039280369   -4.0700236    1.2456259   439061 
  685000   0.83153539   -4.0732732   -4.0732732    -2.825973  0.034897808   -4.0732732    1.2473002   439061 
  686000   0.83019539    -4.072628    -4.072628   -2.8273378  0.039732943    -4.072628    1.2452903   439061 
  687000   0.83061941   -4.0741387   -4.0741387   -2.8282124   0.03802189   -4.0741387    1.2459263   439061 
  688000   0.83057126   -4.0746364   -4.0746364   -2.8287824  0.040670907   -4.0746364     1.245854   439061 
  689000   0.83083703   -4.0760528   -4.0760528   -2.8298001  0.041029673   -4.0760528    1.2462527   439061 
  690000   0.83094647   -4.0778714   -4.0778714   -2.8314545  0.038541038   -4.0778714    1.2464169   439061 
  691000    0.8307907   -4.0785267   -4.0785267   -2.8323435  0.038165788   -4.0785267    1.2461832   439061 
  692000   0.83194534   -4.0808819   -4.0808819   -2.8329667  0.038438257   -4.0808819    1.2479152   439061 
  693000   0.83191234   -4.0827932   -4.0827932   -2.8349275  0.044008332   -4.0827932    1.2478657   439061 
  694000    0.8303302   -4.0819787   -4.0819787   -2.8364862  0.045953643   -4.0819787    1.2454925   439061 
  695000   0.83175918    -4.084341    -4.084341    -2.836705  0.040749315    -4.084341    1.2476359   439061 
  696000   0.83193711   -4.0855244   -4.0855244   -2.8376216  0.041098713   -4.0855244    1.2479028   439061 
  697000   0.82929517   -4.0833434   -4.0833434   -2.8394035  0.038510659   -4.0833434    1.2439399   439061 
  698000   0.82883352   -4.0836231   -4.0836231   -2.8403757  0.038107336   -4.0836231    1.2432474   439061 
  699000   0.82774038    -4.083092    -4.083092   -2.8414842  0.038289768    -4.083092    1.2416077   439061 
  700000   0.82848376    -4.085108    -4.085108   -2.8423852  0.035986723    -4.085108    1.2427228   439061 
  701000   0.82920303   -4.0871279   -4.0871279   -2.8433262  0.037212343   -4.0871279    1.2438017   439061 
  702000   0.82967519   -4.0879311   -4.0879311   -2.8434212  0.038766786   -4.0879311      1.24451   439061 
  703000   0.82938694   -4.0873792   -4.0873792   -2.8433016  0.041837927   -4.0873792    1.2440776   439061 
  704000   0.83058208   -4.0907804   -4.0907804   -2.8449101  0.038952791   -4.0907804    1.2458703   439061 
  705000   0.82850166   -4.0888085   -4.0888085   -2.8460588  0.042605847   -4.0888085    1.2427497   439061 
  706000   0.82879601   -4.0903394   -4.0903394   -2.8471482  0.040065721   -4.0903394    1.2431912   439061 
  707000   0.82914799   -4.0915844   -4.0915844   -2.8478653  0.040874687   -4.0915844    1.2437191   439061 
  708000   0.82746963   -4.0891927   -4.0891927   -2.8479911  0.042006816   -4.0891927    1.2412016   439061 
  709000   0.82831279   -4.0916773   -4.0916773   -2.8492109  0.042651778   -4.0916773    1.2424664   439061 
  710000    0.8276055   -4.0913653   -4.0913653   -2.8499599  0.040400182   -4.0913653    1.2414054   439061 
  711000   0.82621428    -4.090471    -4.090471   -2.8511524  0.038478608    -4.090471    1.2393186   439061 
  712000   0.82688027   -4.0921398   -4.0921398   -2.8518222  0.033427944   -4.0921398    1.2403176   439061 
  713000   0.82614903   -4.0928438   -4.0928438   -2.8536231  0.034083855   -4.0928438    1.2392207   439061 
  714000   0.82809651    -4.096914    -4.096914    -2.854772  0.032613637    -4.096914    1.2421419   439061 
  715000    0.8275322   -4.0968771   -4.0968771   -2.8555816  0.038454552   -4.0968771    1.2412955   439061 
  716000   0.82728485   -4.0972525   -4.0972525   -2.8563281  0.037438606   -4.0972525    1.2409245   439061 
  717000   0.82770289   -4.0991182   -4.0991182   -2.8575667  0.036935636   -4.0991182    1.2415515   439061 
  718000   0.82771436   -4.1002981   -4.1002981   -2.8587294  0.037209346   -4.1002981    1.2415687   439061 
  719000   0.82710759   -4.0991473   -4.0991473   -2.8584887  0.043356168   -4.0991473    1.2406586   439061 
  720000   0.82791979   -4.1006654   -4.1006654   -2.8587885  0.047063304   -4.1006654    1.2418769   439061 
  721000   0.82752666   -4.1029641   -4.1029641   -2.8616769  0.040082653   -4.1029641    1.2412872   439061 
  722000    0.8274925   -4.1048694   -4.1048694   -2.8636334  0.041327373   -4.1048694    1.2412359   439061 
  723000   0.82711609   -4.1043429   -4.1043429   -2.8636715  0.037922477   -4.1043429    1.2406713   439061 
  724000   0.82670603   -4.1050307   -4.1050307   -2.8649744  0.039528423   -4.1050307    1.2400562   439061 
  725000   0.82673726   -4.1051727   -4.1051727   -2.8650696   0.03980387   -4.1051727    1.2401031   439061 
  726000   0.82649336     -4.10563     -4.10563   -2.8658928  0.038037828     -4.10563    1.2397372   439061 
  727000   0.82614286   -4.1059046   -4.1059046   -2.8666931  0.039114691   -4.1059046    1.2392115   439061 
  728000   0.82622231   -4.1072926   -4.1072926    -2.867962  0.039037605   -4.1072926    1.2393306   439061 
  729000   0.82673151   -4.1073945   -4.1073945      -2.8673  0.036552916   -4.1073945    1.2400944   439061 
  730000   0.82608273   -4.1073277   -4.1073277   -2.8682064  0.039901673   -4.1073277    1.2391213   439061 
  731000   0.82645224   -4.1087691   -4.1087691   -2.8690936  0.038708397   -4.1087691    1.2396755   439061 
  732000   0.82679371   -4.1102052   -4.1102052   -2.8700175  0.028896202   -4.1102052    1.2401877   439061 
  733000   0.82644305   -4.1091507   -4.1091507    -2.869489   0.03894394   -4.1091507    1.2396617   439061 
  734000   0.82616239   -4.1095808   -4.1095808     -2.87034  0.039608517   -4.1095808    1.2392408   439061 
  735000   0.82491142   -4.1093195   -4.1093195   -2.8719552  0.042206224   -4.1093195    1.2373643   439061 
  736000    0.8254795   -4.1117837   -4.1117837   -2.8735673  0.041161154   -4.1117837    1.2382164   439061 
  737000   0.82491351   -4.1122537   -4.1122537   -2.8748863  0.040258182   -4.1122537    1.2373674   439061 
  738000   0.82682074   -4.1155835   -4.1155835   -2.8753552  0.036180944   -4.1155835    1.2402283   439061 
  739000   0.82529808   -4.1148917   -4.1148917   -2.8769474  0.038286021   -4.1148917    1.2379443   439061 
  740000   0.82466542   -4.1138582   -4.1138582   -2.8768629  0.041481441   -4.1138582    1.2369953   439061 
  741000   0.82515672   -4.1159298   -4.1159298   -2.8781976  0.039608892   -4.1159298    1.2377323   439061 
  742000   0.82501965   -4.1166444   -4.1166444   -2.8791178  0.038464552   -4.1166444    1.2375267   439061 
  743000   0.82417275   -4.1179751   -4.1179751   -2.8817188  0.034946409   -4.1179751    1.2362563   439061 
  744000   0.82382279   -4.1170168   -4.1170168   -2.8812854  0.036277369   -4.1170168    1.2357314   439061 
  745000   0.82486536   -4.1202366   -4.1202366   -2.8829414  0.034051514   -4.1202366    1.2372952   439061 
  746000   0.82472553   -4.1194617   -4.1194617   -2.8823762  0.038837974   -4.1194617    1.2370855   439061 
  747000   0.82481824   -4.1209202   -4.1209202   -2.8836957  0.041655295   -4.1209202    1.2372245   439061 
  748000   0.82455808    -4.122664    -4.122664   -2.8858297  0.038904229    -4.122664    1.2368343   439061 
  749000   0.82472007   -4.1245486   -4.1245486   -2.8874713  0.033136183   -4.1245486    1.2370773   439061 
  750000   0.82352681    -4.123733    -4.123733   -2.8884455  0.040291797    -4.123733    1.2352874   439061 
  751000    0.8240647   -4.1250628   -4.1250628   -2.8889686  0.040331201   -4.1250628    1.2360942   439061 
  752000    0.8238099   -4.1263941   -4.1263941    -2.890682  0.038192641   -4.1263941     1.235712   439061 
  753000   0.82347168   -4.1269199   -4.1269199   -2.8917152  0.042226016   -4.1269199    1.2352047   439061 
  754000   0.82405141   -4.1280767   -4.1280767   -2.8920024  0.040143006   -4.1280767    1.2360743   439061 
  755000    0.8247354   -4.1303253   -4.1303253    -2.893225  0.037014212   -4.1303253    1.2371003   439061 
  756000   0.82556298   -4.1322961   -4.1322961   -2.8939545   0.03809154   -4.1322961    1.2383417   439061 
  757000   0.82360677   -4.1301666   -4.1301666   -2.8947592  0.038291015   -4.1301666    1.2354073   439061 
  758000   0.82176221   -4.1284315   -4.1284315    -2.895791  0.042168611   -4.1284315    1.2326405   439061 
  759000   0.82264954   -4.1313224   -4.1313224   -2.8973509  0.036562836   -4.1313224    1.2339715   439061 
  760000    0.8231196   -4.1329005   -4.1329005   -2.8982239  0.031435003   -4.1329005    1.2346766   439061 
  761000    0.8232617   -4.1332388   -4.1332388    -2.898349  0.038561434   -4.1332388    1.2348897   439061 
  762000   0.82243093   -4.1332121   -4.1332121   -2.8995685  0.035552675   -4.1332121    1.2336436   439061 
  763000   0.82249164   -4.1338431   -4.1338431   -2.9001085  0.040882261   -4.1338431    1.2337346   439061 
  764000   0.82282971   -4.1359636   -4.1359636   -2.9017218  0.031973884   -4.1359636    1.2342418   439061 
  765000   0.82293155   -4.1359111   -4.1359111   -2.9015166  0.036504711   -4.1359111    1.2343945   439061 
  766000   0.82182651   -4.1348142   -4.1348142   -2.9020773  0.041367535   -4.1348142     1.232737   439061 
  767000   0.82312739   -4.1382039   -4.1382039   -2.9035157  0.035524467   -4.1382039    1.2346883   439061 
  768000   0.82291598   -4.1374768   -4.1374768   -2.9031056  0.039061455   -4.1374768    1.2343712   439061 
  769000   0.82254175   -4.1376289   -4.1376289    -2.903819  0.029000141   -4.1376289    1.2338098   439061 
  770000   0.82194257   -4.1368813   -4.1368813   -2.9039702  0.040873837   -4.1368813    1.2329111   439061 
  771000   0.82372321   -4.1398684   -4.1398684   -2.9042864  0.034622775   -4.1398684     1.235582   439061 
  772000   0.82219821   -4.1393114   -4.1393114   -2.9060169  0.034213794   -4.1393114    1.2332945   439061 
  773000   0.82190666   -4.1394558   -4.1394558   -2.9065986  0.031280293   -4.1394558    1.2328572   439061 
  774000   0.82329961   -4.1409956   -4.1409956    -2.906049  0.032197842   -4.1409956    1.2349466   439061 
  775000   0.82280998   -4.1405171   -4.1405171    -2.906305  0.029832024   -4.1405171    1.2342122   439061 
  776000   0.82272801   -4.1412008   -4.1412008   -2.9071116  0.031106026   -4.1412008    1.2340892   439061 
  777000   0.82133052   -4.1411264   -4.1411264   -2.9091335  0.027618142   -4.1411264     1.231993   439061 
  778000   0.82161816   -4.1426962   -4.1426962   -2.9102718  0.031377816   -4.1426962    1.2324244   439061 
  779000   0.82035548   -4.1405154   -4.1405154   -2.9099849  0.036930446   -4.1405154    1.2305304   439061 
  780000   0.82101818   -4.1425299   -4.1425299   -2.9110055  0.033756418   -4.1425299    1.2315245   439061 
  781000   0.82181693   -4.1438755   -4.1438755   -2.9111529  0.037546764   -4.1438755    1.2327226   439061 
  782000   0.82157309   -4.1460086   -4.1460086   -2.9136518  0.037204358   -4.1460086    1.2323568   439061 
  783000   0.82208705   -4.1466267   -4.1466267   -2.9134989  0.040616311   -4.1466267    1.2331278   439061 
  784000   0.82123441   -4.1469742   -4.1469742   -2.9151254  0.037556165   -4.1469742    1.2318488   439061 
  785000   0.82240887   -4.1506966   -4.1506966   -2.9170861  0.032507466   -4.1506966    1.2336105   439061 
  786000    0.8221861   -4.1496194   -4.1496194   -2.9163431  0.039350882   -4.1496194    1.2332763   439061 
  787000   0.82132771   -4.1505176   -4.1505176   -2.9185289  0.035119566   -4.1505176    1.2319888   439061 
  788000   0.82135067   -4.1505977   -4.1505977   -2.9185745  0.037497669   -4.1505977    1.2320232   439061 
  789000   0.81952318    -4.149042    -4.149042     -2.91976  0.042439789    -4.149042     1.229282   439061 
  790000   0.82051574   -4.1516488   -4.1516488    -2.920878  0.036639749   -4.1516488    1.2307708   439061 
  791000   0.82134035   -4.1532968   -4.1532968    -2.921289  0.032895385   -4.1532968    1.2320077   439061 
  792000   0.81929722   -4.1516788   -4.1516788   -2.9227358   0.03390142   -4.1516788     1.228943   439061 
  793000    0.8196726   -4.1519761   -4.1519761     -2.92247  0.038007879   -4.1519761    1.2295061   439061 
  794000   0.81771156   -4.1513737   -4.1513737   -2.9248091  0.035567677   -4.1513737    1.2265646   439061 
  795000   0.81908661   -4.1538953   -4.1538953   -2.9252682  0.029265209   -4.1538953    1.2286271   439061 
  796000   0.81968561   -4.1546048   -4.1546048   -2.9250792  0.032411965   -4.1546048    1.2295256   439061 
  797000   0.81787427   -4.1535292   -4.1535292   -2.9267206  0.035841836   -4.1535292    1.2268086   439061 
  798000   0.81833121     -4.15572     -4.15572    -2.928226  0.031256801     -4.15572     1.227494   439061 
  799000   0.81929013   -4.1582636   -4.1582636   -2.9293312  0.031638579   -4.1582636    1.2289324   439061 
  800000   0.81873654   -4.1580754   -4.1580754   -2.9299734  0.038997672   -4.1580754     1.228102   439061 
  801000   0.82009162   -4.1594002   -4.1594002   -2.9292656  0.036646067   -4.1594002    1.2301346   439061 
  802000   0.82081201   -4.1602152   -4.1602152       -2.929  0.037964365   -4.1602152    1.2312152   439061 
  803000   0.81932615   -4.1605639   -4.1605639   -2.9315775  0.035233518   -4.1605639    1.2289864   439061 
  804000   0.81920599   -4.1621343   -4.1621343   -2.9333281  0.038160269   -4.1621343    1.2288062   439061 
  805000   0.81728277   -4.1612373   -4.1612373    -2.935316  0.033778797   -4.1612373    1.2259214   439061 
  806000   0.81676257   -4.1606492   -4.1606492   -2.9355081  0.032784213   -4.1606492    1.2251411   439061 
  807000   0.81762094   -4.1622441   -4.1622441   -2.9358155  0.032907721   -4.1622441    1.2264286   439061 
  808000   0.81776636    -4.163638    -4.163638   -2.9369913   0.02893239    -4.163638    1.2266467   439061 
  809000   0.81896583   -4.1654594   -4.1654594   -2.9370134  0.026710121   -4.1654594    1.2284459   439061 
  810000   0.81840751   -4.1648849   -4.1648849   -2.9372765  0.030380125   -4.1648849    1.2276085   439061 
  811000   0.81806615   -4.1662694   -4.1662694   -2.9391729  0.035531815   -4.1662694    1.2270964   439061 
  812000   0.81883666   -4.1679481   -4.1679481   -2.9396959  0.034832168   -4.1679481    1.2282522   439061 
  813000   0.81846888   -4.1679766   -4.1679766    -2.940276  0.036382692   -4.1679766    1.2277005   439061 
  814000   0.81815465   -4.1683497   -4.1683497   -2.9411205  0.033568707   -4.1683497    1.2272292   439061 
  815000    0.8173971   -4.1684746   -4.1684746   -2.9423817  0.034708795   -4.1684746    1.2260929   439061 
  816000   0.81831049   -4.1692915   -4.1692915   -2.9418285  0.035133002   -4.1692915    1.2274629   439061 
  817000   0.81890398   -4.1713888   -4.1713888   -2.9430357   0.03030409   -4.1713888    1.2283532   439061 
  818000   0.81938864   -4.1729052   -4.1729052   -2.9438251  0.031699853   -4.1729052    1.2290802   439061 
  819000   0.81727016    -4.170637    -4.170637   -2.9447346   0.03412047    -4.170637    1.2259024   439061 
  820000   0.81722765   -4.1714252   -4.1714252   -2.9455865  0.029699554   -4.1714252    1.2258387   439061 
  821000   0.81731846   -4.1715717   -4.1715717   -2.9455968  0.033667266   -4.1715717    1.2259749   439061 
  822000      0.81655   -4.1709929   -4.1709929   -2.9461707  0.031084469   -4.1709929    1.2248222   439061 
  823000   0.81598939    -4.171728    -4.171728   -2.9477467  0.032315336    -4.171728    1.2239813   439061 
  824000   0.81785148   -4.1752108   -4.1752108   -2.9484364  0.028548298   -4.1752108    1.2267744   439061 
  825000   0.81527425   -4.1726149   -4.1726149   -2.9497063  0.030139535   -4.1726149    1.2229086   439061 
  826000   0.81687658   -4.1744861   -4.1744861    -2.949174  0.028626753   -4.1744861    1.2253121   439061 
  827000   0.81641277   -4.1741003   -4.1741003    -2.949484  0.029816562   -4.1741003    1.2246164   439061 
  828000   0.81582678   -4.1754843   -4.1754843   -2.9517469   0.03452152   -4.1754843    1.2237374   439061 
  829000   0.81456741   -4.1753356   -4.1753356   -2.9534873  0.033697735   -4.1753356    1.2218483   439061 
  830000   0.81547933   -4.1764272   -4.1764272    -2.953211  0.029896692   -4.1764272    1.2232162   439061 
  831000   0.81527286   -4.1782917   -4.1782917   -2.9553852  0.033254002   -4.1782917    1.2229065   439061 
  832000   0.81573667   -4.1798661   -4.1798661   -2.9562638  0.031948331   -4.1798661    1.2236022   439061 
  833000   0.81592509   -4.1804781   -4.1804781   -2.9565933  0.033756293   -4.1804781    1.2238849   439061 
  834000    0.8159626   -4.1808049   -4.1808049   -2.9568638  0.031238131   -4.1808049    1.2239411   439061 
  835000   0.81625415    -4.182308    -4.182308   -2.9579296  0.033810626    -4.182308    1.2243784   439061 
  836000   0.81555002   -4.1819888   -4.1819888   -2.9586665  0.037812448   -4.1819888    1.2233222   439061 
  837000   0.81638129   -4.1840439   -4.1840439   -2.9594747  0.033466362   -4.1840439    1.2245691   439061 
  838000   0.81630341    -4.185288    -4.185288   -2.9608357  0.030776911    -4.185288    1.2244523   439061 
  839000   0.81431288   -4.1830749   -4.1830749   -2.9616084  0.031895605   -4.1830749    1.2214665   439061 
  840000   0.81644282   -4.1859931   -4.1859931   -2.9613317  0.029357063   -4.1859931    1.2246614   439061 
  841000   0.81481172   -4.1841083   -4.1841083   -2.9618935  0.039497122   -4.1841083    1.2222148   439061 
  842000   0.81568953   -4.1851045   -4.1851045    -2.961573  0.034209147   -4.1851045    1.2235315   439061 
  843000   0.81520795   -4.1854156   -4.1854156   -2.9626065  0.032750504   -4.1854156    1.2228091   439061 
  844000   0.81659676   -4.1880977   -4.1880977   -2.9632054  0.034089332   -4.1880977    1.2248924   439061 
  845000   0.81559845   -4.1875898   -4.1875898   -2.9641949    0.0365265   -4.1875898    1.2233949   439061 
  846000   0.81462325   -4.1868595   -4.1868595   -2.9649274  0.032600471   -4.1868595    1.2219321   439061 
  847000   0.81476588   -4.1868134   -4.1868134   -2.9646674  0.031144895   -4.1868134     1.222146   439061 
  848000   0.81489765   -4.1885836   -4.1885836   -2.9662399  0.033210926   -4.1885836    1.2223437   439061 
  849000   0.81411738     -4.18883     -4.18883   -2.9676567  0.029877141     -4.18883    1.2211733   439061 
  850000   0.81475359   -4.1906571   -4.1906571   -2.9685295  0.032304574   -4.1906571    1.2221276   439061 
  851000   0.81336311   -4.1902301   -4.1902301   -2.9701882  0.028563101   -4.1902301    1.2200419   439061 
  852000    0.8130504   -4.1903422   -4.1903422   -2.9707693  0.027651655   -4.1903422    1.2195728   439061 
  853000   0.81506862   -4.1943141   -4.1943141   -2.9717139  0.024899357   -4.1943141    1.2226001   439061 
  854000   0.81430691   -4.1930736   -4.1930736    -2.971616  0.031353514   -4.1930736    1.2214576   439061 
  855000   0.81570546   -4.1959771   -4.1959771   -2.9724217  0.033068171   -4.1959771    1.2235554   439061 
  856000      0.81566   -4.1960858   -4.1960858   -2.9725986  0.038067002   -4.1960858    1.2234872   439061 
  857000   0.81591085   -4.1980098   -4.1980098   -2.9741464  0.031458329   -4.1980098    1.2238635   439061 
  858000    0.8163361    -4.198855    -4.198855   -2.9743536  0.035708747    -4.198855    1.2245014   439061 
  859000   0.81490378   -4.1982559   -4.1982559    -2.975903  0.031018745   -4.1982559    1.2223529   439061 
  860000   0.81509084   -4.1998475   -4.1998475   -2.9772141  0.031549578   -4.1998475    1.2226335   439061 
  861000   0.81316349   -4.1976513   -4.1976513   -2.9779089  0.030702028   -4.1976513    1.2197425   439061 
  862000   0.81259469   -4.1981828   -4.1981828   -2.9792935  0.025151416   -4.1981828    1.2188893   439061 
  863000   0.81304691   -4.2003867   -4.2003867   -2.9808191  0.026367048   -4.2003867    1.2195676   439061 
  864000   0.81318213   -4.1998205   -4.1998205   -2.9800501  0.026137324   -4.1998205    1.2197704   439061 
  865000   0.81217051   -4.1989221   -4.1989221   -2.9806691  0.025831638   -4.1989221     1.218253   439061 
  866000   0.81274415   -4.2002112   -4.2002112   -2.9810977  0.025472306   -4.2002112    1.2191134   439061 
  867000   0.81320082   -4.2009501   -4.2009501   -2.9811516  0.025991463   -4.2009501    1.2197985   439061 
  868000   0.81347142    -4.202505    -4.202505   -2.9823007  0.032300095    -4.202505    1.2202043   439061 
  869000   0.81283737   -4.2011068   -4.2011068   -2.9818535  0.032043721   -4.2011068    1.2192533   439061 
  870000   0.81441909   -4.2038132   -4.2038132   -2.9821874  0.035680337   -4.2038132    1.2216259   439061 
  871000   0.81411196   -4.2032172   -4.2032172   -2.9820521  0.031004406   -4.2032172    1.2211652   439061 
  872000   0.81385914   -4.2056453   -4.2056453   -2.9848594  0.027087825   -4.2056453    1.2207859   439061 
  873000   0.81154086   -4.2036828   -4.2036828   -2.9863743  0.030611143   -4.2036828    1.2173085   439061 
  874000   0.81145418   -4.2037996   -4.2037996   -2.9866211  0.030013915   -4.2037996    1.2171785   439061 
  875000   0.81319813   -4.2069499   -4.2069499   -2.9871554   0.02742408   -4.2069499    1.2197944   439061 
  876000   0.81245401   -4.2064241   -4.2064241   -2.9877458  0.034261168   -4.2064241    1.2186782   439061 
  877000   0.81127163   -4.2053838   -4.2053838   -2.9884791  0.032404062   -4.2053838    1.2169047   439061 
  878000   0.81267798   -4.2090884   -4.2090884   -2.9900742  0.023321671   -4.2090884    1.2190142   439061 
  879000   0.81015252   -4.2058785   -4.2058785   -2.9906524  0.033046911   -4.2058785     1.215226   439061 
  880000   0.81070583   -4.2073414   -4.2073414   -2.9912854  0.028945864   -4.2073414     1.216056   439061 
  881000   0.81088181   -4.2082789   -4.2082789   -2.9919589   0.03217675   -4.2082789    1.2163199   439061 
  882000   0.81306476   -4.2102121   -4.2102121   -2.9906177  0.026761794   -4.2102121    1.2195944   439061 
  883000    0.8111264   -4.2076621   -4.2076621   -2.9909753   0.03218082   -4.2076621    1.2166868   439061 
  884000   0.81233722    -4.210833    -4.210833     -2.99233  0.032854166    -4.210833    1.2185031   439061 
  885000   0.81219157   -4.2128328   -4.2128328   -2.9945482  0.030398874   -4.2128328    1.2182846   439061 
  886000   0.81115619   -4.2105622   -4.2105622   -2.9938307  0.031170437   -4.2105622    1.2167315   439061 
  887000   0.81196224   -4.2131233   -4.2131233   -2.9951827  0.027626286   -4.2131233    1.2179406   439061 
  888000   0.81125182   -4.2142049   -4.2142049     -2.99733  0.036816708   -4.2142049     1.216875   439061 
  889000   0.81118405   -4.2141137   -4.2141137   -2.9973404  0.031255749   -4.2141137    1.2167733   439061 
  890000   0.81132006   -4.2153461   -4.2153461   -2.9983688  0.029755102   -4.2153461    1.2169773   439061 
  891000   0.81041835   -4.2154281   -4.2154281   -2.9998034  0.028752507   -4.2154281    1.2156248   439061 
  892000   0.81056494    -4.216186    -4.216186   -3.0003414    0.0283667    -4.216186    1.2158446   439061 
  893000   0.80964021   -4.2150928   -4.2150928   -3.0006352  0.031796705   -4.2150928    1.2144576   439061 
  894000   0.81111937   -4.2184116   -4.2184116   -3.0017353  0.027348121   -4.2184116    1.2166763   439061 
  895000   0.81201734   -4.2200391   -4.2200391   -3.0020159  0.025165144   -4.2200391    1.2180232   439061 
  896000   0.81236655   -4.2199052   -4.2199052   -3.0013582  0.025632564   -4.2199052     1.218547   439061 
  897000   0.81085263   -4.2192549   -4.2192549   -3.0029787  0.028967234   -4.2192549    1.2162762   439061 
  898000   0.81178944   -4.2214116   -4.2214116   -3.0037303  0.025859255   -4.2214116    1.2176814   439061 
  899000   0.80930252   -4.2200186   -4.2200186   -3.0060676  0.029004817   -4.2200186     1.213951   439061 
  900000   0.80958417   -4.2202539   -4.2202539   -3.0058804  0.025990931   -4.2202539    1.2143735   439061 
  901000   0.80954962   -4.2200645   -4.2200645   -3.0057429  0.025902497   -4.2200645    1.2143217   439061 
  902000    0.8095872   -4.2215647   -4.2215647   -3.0071867  0.025653619   -4.2215647     1.214378   439061 
  903000   0.80837612   -4.2206237   -4.2206237   -3.0080623  0.027197161   -4.2206237    1.2125614   439061 
  904000   0.81111343   -4.2252127   -4.2252127   -3.0085453  0.023026022   -4.2252127    1.2166674   439061 
  905000   0.80946397   -4.2234373   -4.2234373   -3.0092441  0.029972142   -4.2234373    1.2141932   439061 
  906000   0.80976806   -4.2244141   -4.2244141   -3.0097648  0.029610553   -4.2244141    1.2146493   439061 
  907000   0.80906876   -4.2238226   -4.2238226   -3.0102222   0.03080459   -4.2238226    1.2136004   439061 
  908000   0.81074029   -4.2287123   -4.2287123   -3.0126046  0.025643629   -4.2287123    1.2161077   439061 
  909000   0.80949554   -4.2268009   -4.2268009   -3.0125604  0.031507567   -4.2268009    1.2142405   439061 
  910000   0.80990594   -4.2295392   -4.2295392   -3.0146831   0.02754708   -4.2295392    1.2148561   439061 
  911000   0.80921825   -4.2302637   -4.2302637   -3.0164391  0.028842197   -4.2302637    1.2138246   439061 
  912000   0.80900273   -4.2304352   -4.2304352   -3.0169338  0.032337234   -4.2304352    1.2135013   439061 
  913000   0.80940702   -4.2321856   -4.2321856   -3.0180778  0.024831406   -4.2321856    1.2141078   439061 
  914000    0.8093788   -4.2328818   -4.2328818   -3.0188164   0.02776309   -4.2328818    1.2140654   439061 
  915000   0.80930395   -4.2343611   -4.2343611    -3.020408  0.028277646   -4.2343611    1.2139532   439061 
  916000    0.8090965    -4.234465    -4.234465   -3.0208231  0.030746886    -4.234465     1.213642   439061 
  917000   0.80879953   -4.2356172   -4.2356172   -3.0224207  0.021871661   -4.2356172    1.2131965   439061 
  918000   0.80818087   -4.2354814   -4.2354814   -3.0232129  0.030254436   -4.2354814    1.2122685   439061 
  919000   0.80744812   -4.2342151   -4.2342151   -3.0230457   0.03458696   -4.2342151    1.2111694   439061 
  920000   0.80944086   -4.2367348   -4.2367348   -3.0225763  0.031307411   -4.2367348    1.2141585   439061 
  921000    0.8077078   -4.2358194   -4.2358194   -3.0242604  0.029288202   -4.2358194    1.2115589   439061 
  922000   0.80828724   -4.2377334   -4.2377334   -3.0253053   0.02921744   -4.2377334    1.2124281   439061 
  923000   0.80843754   -4.2381723   -4.2381723   -3.0255187  0.029076158   -4.2381723    1.2126536   439061 
  924000    0.8072405   -4.2370307   -4.2370307   -3.0261727   0.02931601   -4.2370307     1.210858   439061 
  925000   0.80803126   -4.2384979   -4.2384979   -3.0264538  0.029757109   -4.2384979    1.2120441   439061 
  926000   0.80794329   -4.2383591   -4.2383591   -3.0264469  0.032322338   -4.2383591    1.2119122   439061 
  927000   0.80689246   -4.2367482   -4.2367482   -3.0264123  0.032578756   -4.2367482    1.2103359   439061 
  928000    0.8078854    -4.239349    -4.239349   -3.0275237  0.029899772    -4.239349    1.2118253   439061 
  929000   0.80731671   -4.2384634   -4.2384634   -3.0274911   0.02748071   -4.2384634    1.2109723   439061 
  930000   0.80771138   -4.2384286   -4.2384286   -3.0268643    0.0331645   -4.2384286    1.2115643   439061 
  931000   0.80648319   -4.2388336   -4.2388336   -3.0291116  0.029122076   -4.2388336     1.209722   439061 
  932000   0.80734502   -4.2403798   -4.2403798   -3.0293651   0.02694151   -4.2403798    1.2110148   439061 
  933000   0.80668859   -4.2401649   -4.2401649   -3.0301348  0.022506524   -4.2401649    1.2100301   439061 
  934000   0.80472767   -4.2384638   -4.2384638   -3.0313751  0.023484929   -4.2384638    1.2070888   439061 
  935000    0.8055104   -4.2413427   -4.2413427   -3.0330798  0.026676168   -4.2413427    1.2082628   439061 
  936000   0.80595133   -4.2406411   -4.2406411   -3.0317169  0.029157521   -4.2406411    1.2089242   439061 
  937000   0.80594384   -4.2414401   -4.2414401   -3.0325271  0.026730646   -4.2414401     1.208913   439061 
  938000   0.80762875   -4.2429737   -4.2429737   -3.0315333  0.029911748   -4.2429737    1.2114404   439061 
  939000   0.80787371   -4.2441883   -4.2441883   -3.0323805  0.027815108   -4.2441883    1.2118078   439061 
  940000   0.80700247   -4.2441933   -4.2441933   -3.0336923  0.027931837   -4.2441933    1.2105009   439061 
  941000   0.80654082   -4.2443567   -4.2443567   -3.0345482  0.028932634   -4.2443567    1.2098085   439061 
  942000   0.80768494   -4.2470499   -4.2470499   -3.0355252  0.026208549   -4.2470499    1.2115247   439061 
  943000   0.80688013   -4.2476082   -4.2476082   -3.0372908  0.025522975   -4.2476082    1.2103174   439061 
  944000   0.80617523   -4.2469896   -4.2469896   -3.0377295  0.021445296   -4.2469896    1.2092601   439061 
  945000   0.80591669   -4.2477652   -4.2477652   -3.0388929   0.02049651   -4.2477652    1.2088723   439061 
  946000   0.80429885   -4.2465087   -4.2465087   -3.0400632  0.025150995   -4.2465087    1.2064455   439061 
  947000   0.80365485   -4.2474106   -4.2474106   -3.0419311  0.028029461   -4.2474106    1.2054795   439061 
  948000   0.80574132   -4.2501318   -4.2501318   -3.0415226  0.023195012   -4.2501318    1.2086092   439061 
  949000   0.80401643   -4.2496835   -4.2496835   -3.0436616  0.025494216   -4.2496835    1.2060219   439061 
  950000   0.80367371   -4.2489691   -4.2489691   -3.0434613  0.029954669   -4.2489691    1.2055078   439061 
  951000   0.80480711   -4.2526223   -4.2526223   -3.0454144  0.029138408   -4.2526223    1.2072079   439061 
  952000   0.80603462   -4.2545199   -4.2545199   -3.0454707  0.028161677   -4.2545199    1.2090492   439061 
  953000   0.80640573   -4.2562161   -4.2562161   -3.0466102  0.031709458   -4.2562161    1.2096058   439061 
  954000    0.8045738   -4.2540353   -4.2540353   -3.0471773  0.033124881   -4.2540353     1.206858   439061 
  955000   0.80609792   -4.2577882   -4.2577882   -3.0486441  0.029224335   -4.2577882    1.2091441   439061 
  956000   0.80543501   -4.2570426   -4.2570426   -3.0488928  0.031310563   -4.2570426    1.2081498   439061 
  957000    0.8062264   -4.2587851   -4.2587851   -3.0494483  0.028134484   -4.2587851    1.2093368   439061 
  958000   0.80599083   -4.2582353   -4.2582353   -3.0492518  0.030397141   -4.2582353    1.2089835   439061 
  959000   0.80615691    -4.259119    -4.259119   -3.0498864  0.027854857    -4.259119    1.2092326   439061 
  960000    0.8033612   -4.2568723   -4.2568723   -3.0518332   0.02892493   -4.2568723    1.2050391   439061 
  961000   0.80442881   -4.2579052   -4.2579052   -3.0512647  0.026355155   -4.2579052    1.2066405   439061 
  962000   0.80376092   -4.2561894   -4.2561894   -3.0505508  0.024498737   -4.2561894    1.2056386   439061 
  963000   0.80509941   -4.2570145   -4.2570145   -3.0493681  0.026710963   -4.2570145    1.2076464   439061 
  964000   0.80555036   -4.2585665   -4.2585665   -3.0502437  0.021432293   -4.2585665    1.2083228   439061 
  965000   0.80469075   -4.2586966   -4.2586966   -3.0516632  0.023650824   -4.2586966    1.2070334   439061 
  966000   0.80444729   -4.2586676   -4.2586676   -3.0519994  0.021957785   -4.2586676    1.2066682   439061 
  967000   0.80514261   -4.2588791   -4.2588791   -3.0511679  0.019753862   -4.2588791    1.2077112   439061 
  968000   0.80319572   -4.2569244   -4.2569244   -3.0521336  0.020042231   -4.2569244    1.2047908   439061 
  969000   0.80290137    -4.258428    -4.258428   -3.0540787  0.021529121    -4.258428    1.2043493   439061 
  970000   0.80295896   -4.2586369   -4.2586369   -3.0542012   0.02696165   -4.2586369    1.2044357   439061 
  971000   0.80554464   -4.2636897   -4.2636897   -3.0553755  0.022548571   -4.2636897    1.2083142   439061 
  972000   0.80376752   -4.2619041   -4.2619041   -3.0562556  0.027593423   -4.2619041    1.2056485   439061 
  973000   0.80351031   -4.2617272   -4.2617272   -3.0564645  0.030441754   -4.2617272    1.2052627   439061 
  974000   0.80356288   -4.2625009   -4.2625009   -3.0571593  0.036867868   -4.2625009    1.2053416   439061 
  975000   0.80460044   -4.2665933   -4.2665933   -3.0596954  0.032695114   -4.2665933    1.2068979   439061 
  976000   0.80536768   -4.2697457   -4.2697457    -3.061697  0.028955488   -4.2697457    1.2080488   439061 
  977000   0.80355916   -4.2674185   -4.2674185   -3.0620825  0.029773658   -4.2674185     1.205336   439061 
  978000   0.80349282   -4.2689137   -4.2689137   -3.0636773  0.029372018   -4.2689137    1.2052365   439061 
  979000   0.80318992   -4.2702161   -4.2702161   -3.0654339  0.025946224   -4.2702161    1.2047821   439061 
  980000   0.80328383   -4.2688555   -4.2688555   -3.0639325  0.029148577   -4.2688555     1.204923   439061 
  981000   0.80497882   -4.2710671   -4.2710671   -3.0636016  0.030324754   -4.2710671    1.2074655   439061 
  982000   0.80275249   -4.2692483   -4.2692483   -3.0651223  0.027354167   -4.2692483     1.204126   439061 
  983000   0.80287222   -4.2693662   -4.2693662   -3.0650606  0.032627787   -4.2693662    1.2043056   439061 
  984000   0.80427453   -4.2719567   -4.2719567   -3.0655476  0.024144064   -4.2719567    1.2064091   439061 
  985000   0.80285005   -4.2694612   -4.2694612   -3.0651889  0.028205959   -4.2694612    1.2042723   439061 
  986000   0.80230097   -4.2696459   -4.2696459   -3.0661972  0.024959977   -4.2696459    1.2034487   439061 
  987000    0.8023194   -4.2705548   -4.2705548   -3.0670785   0.02049862   -4.2705548    1.2034764   439061 
  988000   0.80159579   -4.2705427   -4.2705427   -3.0681517  0.020876318   -4.2705427    1.2023909   439061 
  989000    0.8017349   -4.2713622   -4.2713622   -3.0687626   0.02344015   -4.2713622    1.2025996   439061 
  990000   0.80122816   -4.2726881   -4.2726881   -3.0708486   0.01626806   -4.2726881    1.2018395   439061 
  991000   0.80134789   -4.2732749   -4.2732749   -3.0712558  0.025319829   -4.2732749    1.2020191   439061 
  992000   0.80243189   -4.2763898   -4.2763898   -3.0727447  0.024433835   -4.2763898    1.2036451   439061 
  993000   0.80264892   -4.2763431   -4.2763431   -3.0723725  0.026123327   -4.2763431    1.2039706   439061 
  994000   0.80225833   -4.2765893   -4.2765893   -3.0732046  0.027821198   -4.2765893    1.2033848   439061 
  995000   0.80298445   -4.2782328   -4.2782328   -3.0737588  0.028953659   -4.2782328    1.2044739   439061 
  996000   0.80303902   -4.2791329   -4.2791329   -3.0745771  0.025758762   -4.2791329    1.2045558   439061 
  997000   0.80224794   -4.2789065   -4.2789065   -3.0755373  0.031518068   -4.2789065    1.2033692   439061 
  998000   0.80199842   -4.2789289   -4.2789289    -3.075934  0.027466792   -4.2789289    1.2029949   439061 
  999000   0.80276457   -4.2801315   -4.2801315   -3.0759874  0.024206128   -4.2801315    1.2041441   439061 
 1000000   0.80189349   -4.2788169   -4.2788169   -3.0759794  0.027692174   -4.2788169    1.2028375   439061 
 1001000   0.80095815   -4.2778673   -4.2778673   -3.0764328  0.027561141   -4.2778673    1.2014345   439061 
 1002000   0.80091834   -4.2793365   -4.2793365   -3.0779617  0.023744788   -4.2793365    1.2013748   439061 
 1003000   0.80054869   -4.2797289   -4.2797289   -3.0789086  0.024719658   -4.2797289    1.2008203   439061 
 1004000   0.80101615   -4.2794172   -4.2794172   -3.0778957  0.021373938   -4.2794172    1.2015215   439061 
 1005000   0.80095689   -4.2794281   -4.2794281   -3.0779955  0.019390875   -4.2794281    1.2014326   439061 
 1006000   0.79978453   -4.2785324   -4.2785324   -3.0788584  0.017875705   -4.2785324    1.1996741   439061 
 1007000   0.80191796    -4.283848    -4.283848   -3.0809738  0.016103465    -4.283848    1.2028742   439061 
 1008000   0.80015396    -4.281832    -4.281832   -3.0816038  0.022696754    -4.281832    1.2002282   439061 
 1009000   0.80101788   -4.2834925   -4.2834925   -3.0819684  0.021853552   -4.2834925    1.2015241   439061 
 1010000   0.80049496    -4.282518    -4.282518   -3.0817783  0.025251496    -4.282518    1.2007397   439061 
 1011000    0.8009651   -4.2842147   -4.2842147   -3.0827698  0.028316115   -4.2842147    1.2014449   439061 
 1012000   0.80176802   -4.2852914   -4.2852914   -3.0826421  0.028848769   -4.2852914    1.2026493   439061 
 1013000   0.80193707   -4.2866701   -4.2866701   -3.0837672  0.028254014   -4.2866701    1.2029029   439061 
 1014000   0.80271684   -4.2883006   -4.2883006   -3.0842281  0.026745623   -4.2883006    1.2040725   439061 
 1015000   0.80159498   -4.2878536   -4.2878536   -3.0854639  0.027390175   -4.2878536    1.2023897   439061 
 1016000   0.80000015   -4.2862126   -4.2862126   -3.0862151  0.023392964   -4.2862126    1.1999975   439061 
 1017000   0.79861495   -4.2854372   -4.2854372   -3.0875175  0.026385975   -4.2854372    1.1979197   439061 
 1018000   0.79945301   -4.2867164   -4.2867164   -3.0875396  0.024708431   -4.2867164    1.1991768   439061 
 1019000   0.79952075   -4.2879978   -4.2879978   -3.0887194  0.023326799   -4.2879978    1.1992784   439061 
 1020000   0.79896234   -4.2878177   -4.2878177   -3.0893769  0.023062888   -4.2878177    1.1984408   439061 
 1021000   0.79945623   -4.2888851   -4.2888851   -3.0897035  0.024499606   -4.2888851    1.1991816   439061 
 1022000   0.79909602   -4.2888063   -4.2888063    -3.090165  0.022440998   -4.2888063    1.1986413   439061 
 1023000   0.79990303   -4.2906817   -4.2906817   -3.0908299  0.021514874   -4.2906817    1.1998518   439061 
 1024000   0.79937857   -4.2907515   -4.2907515   -3.0916864  0.024264939   -4.2907515    1.1990651   439061 
 1025000    0.7990438   -4.2914175   -4.2914175   -3.0928546  0.022660492   -4.2914175     1.198563   439061 
 1026000   0.79967981   -4.2936817   -4.2936817   -3.0941647  0.025880569   -4.2936817     1.199517   439061 
 1027000    0.7992616   -4.2938069   -4.2938069   -3.0949172  0.028417036   -4.2938069    1.1988897   439061 
 1028000   0.80201589   -4.2965517   -4.2965517   -3.0935306  0.028339269   -4.2965517    1.2030211   439061 
 1029000   0.79905849   -4.2944346   -4.2944346   -3.0958496  0.025610385   -4.2944346     1.198585   439061 
 1030000   0.79932821   -4.2968864   -4.2968864   -3.0978968  0.023625777   -4.2968864    1.1989896   439061 
 1031000    0.7993246   -4.2969444   -4.2969444   -3.0979603  0.027974897   -4.2969444    1.1989842   439061 
 1032000   0.80016776   -4.2993734   -4.2993734   -3.0991245  0.022291734   -4.2993734    1.2002489   439061 
 1033000   0.79921715   -4.2982722   -4.2982722   -3.0994492  0.024965809   -4.2982722     1.198823   439061 
 1034000   0.79808397   -4.2971368   -4.2971368   -3.1000135  0.027652794   -4.2971368    1.1971232   439061 
 1035000   0.79936258   -4.2987032   -4.2987032   -3.0996621   0.02049922   -4.2987032    1.1990411   439061 
 1036000   0.79872559   -4.2984232   -4.2984232   -3.1003376  0.029397299   -4.2984232    1.1980857   439061 
 1037000   0.79811901   -4.2982144   -4.2982144   -3.1010387   0.02418199   -4.2982144    1.1971758   439061 
 1038000   0.79807566   -4.2979813   -4.2979813   -3.1008705  0.026220007   -4.2979813    1.1971108   439061 
 1039000   0.80036216   -4.2999547   -4.2999547   -3.0994142  0.023229612   -4.2999547    1.2005405   439061 
 1040000   0.79897465   -4.2997543   -4.2997543   -3.1012951  0.020924304   -4.2997543    1.1984592   439061 
 1041000   0.79806769   -4.2994789   -4.2994789   -3.1023801  0.015356006   -4.2994789    1.1970988   439061 
 1042000   0.79795412   -4.2979326   -4.2979326   -3.1010042  0.023282787   -4.2979326    1.1969285   439061 
 1043000   0.79813843   -4.2989283   -4.2989283   -3.1017233  0.024061812   -4.2989283    1.1972049   439061 
 1044000    0.7991409   -4.3006059   -4.3006059   -3.1018973  0.023427105   -4.3006059    1.1987086   439061 
 1045000   0.79718654   -4.3008111   -4.3008111    -3.105034  0.022673544   -4.3008111    1.1957771   439061 
 1046000   0.79864788   -4.3029362   -4.3029362   -3.1049671  0.020044778   -4.3029362    1.1979691   439061 
 1047000   0.79799076   -4.3021875   -4.3021875   -3.1052041  0.020582238   -4.3021875    1.1969834   439061 
 1048000   0.79717071   -4.3017421   -4.3017421   -3.1059887  0.025358696   -4.3017421    1.1957533   439061 
 1049000   0.79779873   -4.3029841   -4.3029841   -3.1062887  0.023501809   -4.3029841    1.1966954   439061 
 1050000   0.79921552   -4.3054286   -4.3054286   -3.1066081  0.026882844   -4.3054286    1.1988205   439061 
 1051000   0.79852748   -4.3058011   -4.3058011   -3.1080126  0.024510123   -4.3058011    1.1977885   439061 
 1052000   0.79761504    -4.304625    -4.304625   -3.1082051  0.025311108    -4.304625    1.1964198   439061 
 1053000   0.79741841   -4.3061636   -4.3061636   -3.1100387  0.023754236   -4.3061636    1.1961249   439061 
 1054000   0.79718428   -4.3064738   -4.3064738   -3.1107001  0.019496742   -4.3064738    1.1957737   439061 
 1055000   0.79742708   -4.3080079   -4.3080079     -3.11187  0.017995246   -4.3080079    1.1961379   439061 
 1056000   0.79693938   -4.3082204   -4.3082204   -3.1128141  0.018812296   -4.3082204    1.1954063   439061 
 1057000   0.79846928   -4.3097731   -4.3097731   -3.1120719  0.018300972   -4.3097731    1.1977012   439061 
 1058000   0.79694157   -4.3081252   -4.3081252   -3.1127156  0.024375106   -4.3081252    1.1954096   439061 
 1059000   0.79608091    -4.308794    -4.308794   -3.1146753  0.024315253    -4.308794    1.1941186   439061 
 1060000   0.79586767   -4.3092705   -4.3092705   -3.1154717  0.022946209   -4.3092705    1.1937988   439061 
 1061000    0.7970661    -4.311454    -4.311454   -3.1158576  0.022628249    -4.311454    1.1955964   439061 
 1062000   0.79623118   -4.3111543   -4.3111543   -3.1168103   0.02414697   -4.3111543     1.194344   439061 
 1063000   0.79818109     -4.31429     -4.31429   -3.1170211  0.020443185     -4.31429    1.1972689   439061 
 1064000   0.79604843   -4.3123209   -4.3123209    -3.118251  0.026072237   -4.3123209    1.1940699   439061 
 1065000   0.79743332   -4.3145951   -4.3145951   -3.1184478  0.020095454   -4.3145951    1.1961473   439061 
 1066000   0.79773838   -4.3145262   -4.3145262   -3.1179214  0.021034129   -4.3145262    1.1966048   439061 
 1067000   0.79576715   -4.3133476   -4.3133476   -3.1196996  0.026817541   -4.3133476     1.193648   439061 
 1068000   0.79611369   -4.3138863   -4.3138863   -3.1197185  0.024357941   -4.3138863    1.1941678   439061 
 1069000   0.79668885    -4.317138    -4.317138   -3.1221074  0.018584703    -4.317138    1.1950306   439061 
 1070000   0.79582461   -4.3147006   -4.3147006   -3.1209664  0.022245356   -4.3147006    1.1937342   439061 
 1071000   0.79636442   -4.3157772   -4.3157772   -3.1212332   0.02395176   -4.3157772    1.1945439   439061 
 1072000   0.79656101   -4.3167916   -4.3167916   -3.1219528  0.020057315   -4.3167916    1.1948388   439061 
 1073000   0.79482901    -4.313822    -4.313822   -3.1215812  0.029836861    -4.313822    1.1922408   439061 
 1074000   0.79648039   -4.3166387   -4.3166387   -3.1219209  0.021141146   -4.3166387    1.1947179   439061 
 1075000   0.79469031   -4.3152493   -4.3152493   -3.1232166  0.024162144   -4.3152493    1.1920327   439061 
 1076000   0.79548687   -4.3163722   -4.3163722   -3.1231447  0.022645312   -4.3163722    1.1932276   439061 
 1077000   0.79473299   -4.3165872   -4.3165872   -3.1244905  0.023308935   -4.3165872    1.1920968   439061 
 1078000   0.79677037   -4.3188532   -4.3188532   -3.1237004  0.013169215   -4.3188532    1.1951528   439061 
 1079000   0.79467424   -4.3168834   -4.3168834   -3.1248748   0.02336267   -4.3168834    1.1920087   439061 
 1080000   0.79601255    -4.318517    -4.318517   -3.1245009  0.018825364    -4.318517    1.1940161   439061 
 1081000   0.79611998   -4.3192818   -4.3192818   -3.1251045  0.024685337   -4.3192818    1.1941773   439061 
 1082000   0.79553806    -4.318525    -4.318525   -3.1252206  0.021618755    -4.318525    1.1933044   439061 
 1083000   0.79601346   -4.3188756   -4.3188756   -3.1248581    0.0187204   -4.3188756    1.1940175   439061 
 1084000    0.7955328   -4.3189279   -4.3189279   -3.1256314  0.020692077   -4.3189279    1.1932965   439061 
 1085000   0.79527684   -4.3193522   -4.3193522   -3.1264396  0.028291263   -4.3193522    1.1929125   439061 
 1086000   0.79680071   -4.3224508   -4.3224508   -3.1272524  0.021580666   -4.3224508    1.1951983   439061 
 1087000    0.7955232   -4.3208216   -4.3208216   -3.1275396  0.024423499   -4.3208216    1.1932821   439061 
 1088000   0.79542743   -4.3222263   -4.3222263   -3.1290879  0.021984276   -4.3222263    1.1931384   439061 
 1089000   0.79416111   -4.3215918   -4.3215918   -3.1303528  0.020061706   -4.3215918    1.1912389   439061 
 1090000   0.79382413   -4.3215616   -4.3215616   -3.1308281  0.020828155   -4.3215616    1.1907335   439061 
 1091000   0.79463592   -4.3234171   -4.3234171   -3.1314659  0.022462683   -4.3234171    1.1919512   439061 
 1092000   0.79413735   -4.3232327   -4.3232327   -3.1320293  0.021764944   -4.3232327    1.1912033   439061 
 1093000   0.79562009   -4.3256192   -4.3256192   -3.1321918  0.020876637   -4.3256192    1.1934274   439061 
 1094000   0.79498319   -4.3240255   -4.3240255   -3.1315535  0.025072614   -4.3240255    1.1924721   439061 
 1095000   0.79485484   -4.3250854   -4.3250854   -3.1328058  0.020865102   -4.3250854    1.1922795   439061 
 1096000   0.79470995   -4.3256538   -4.3256538   -3.1335916  0.020291469   -4.3256538    1.1920622   439061 
 1097000   0.79326235   -4.3239502   -4.3239502   -3.1340594  0.018990308   -4.3239502    1.1898908   439061 
 1098000   0.79346663   -4.3250763   -4.3250763   -3.1348791  0.026471675   -4.3250763    1.1901972   439061 
 1099000   0.79398661   -4.3269431   -4.3269431   -3.1359659  0.023912974   -4.3269431    1.1909772   439061 
 1100000   0.79435259   -4.3271717   -4.3271717   -3.1356455  0.023813721   -4.3271717    1.1915262   439061 
 1101000   0.79506172   -4.3277191   -4.3277191   -3.1351292  0.020142716   -4.3277191    1.1925899   439061 
 1102000   0.79430002   -4.3283985   -4.3283985   -3.1369512  0.019147017   -4.3283985    1.1914473   439061 
 1103000    0.7951709   -4.3304527   -4.3304527    -3.137699  0.020518201   -4.3304527    1.1927536   439061 
 1104000   0.79483365   -4.3289679   -4.3289679   -3.1367202   0.02397169   -4.3289679    1.1922478   439061 
 1105000   0.79500247   -4.3302647   -4.3302647   -3.1377637  0.018976281   -4.3302647     1.192501   439061 
 1106000   0.79368503    -4.328395    -4.328395   -3.1378701  0.023760407    -4.328395    1.1905248   439061 
 1107000   0.79388837   -4.3285922   -4.3285922   -3.1377624  0.023707211   -4.3285922    1.1908298   439061 
 1108000   0.79347348   -4.3285549   -4.3285549   -3.1383474  0.018894758   -4.3285549    1.1902075   439061 
 1109000   0.79398369   -4.3290826   -4.3290826   -3.1381098  0.017639397   -4.3290826    1.1909728   439061 
 1110000   0.79325683   -4.3285411   -4.3285411   -3.1386585  0.019167953   -4.3285411    1.1898825   439061 
 1111000   0.79244978   -4.3278717   -4.3278717   -3.1391998  0.017177078   -4.3278717     1.188672   439061 
 1112000   0.79315911   -4.3304557   -4.3304557   -3.1407198  0.017427497   -4.3304557    1.1897359   439061 
 1113000   0.79203548   -4.3288739   -4.3288739   -3.1408234   0.02404674   -4.3288739    1.1880505   439061 
 1114000   0.79465731   -4.3321508   -4.3321508   -3.1401675  0.018387228   -4.3321508    1.1919832   439061 
 1115000   0.79373713   -4.3324438   -4.3324438   -3.1418409  0.020185561   -4.3324438     1.190603   439061 
 1116000   0.79357608    -4.332186    -4.332186   -3.1418246  0.027032011    -4.332186    1.1903614   439061 
 1117000   0.79394519   -4.3340601   -4.3340601   -3.1431451  0.024058166   -4.3340601    1.1909151   439061 
 1118000   0.79391779   -4.3327126   -4.3327126   -3.1418386  0.022875108   -4.3327126     1.190874   439061 
 1119000   0.79433528   -4.3343483   -4.3343483   -3.1428481  0.023329354   -4.3343483    1.1915002   439061 
 1120000   0.79387472   -4.3337031   -4.3337031   -3.1428937  0.025498517   -4.3337031    1.1908094   439061 
 1121000   0.79298424   -4.3332714   -4.3332714   -3.1437977  0.023601917   -4.3332714    1.1894736   439061 
 1122000   0.79292771   -4.3346052   -4.3346052   -3.1452164  0.021284934   -4.3346052    1.1893888   439061 
 1123000   0.79251244   -4.3350801   -4.3350801   -3.1463142   0.01940147   -4.3350801     1.188766   439061 
 1124000   0.79031809   -4.3332048   -4.3332048   -3.1477303  0.020286307   -4.3332048    1.1854744   439061 
 1125000   0.79112741   -4.3349595   -4.3349595    -3.148271  0.016941895   -4.3349595    1.1866884   439061 
 1126000   0.79134364   -4.3354821   -4.3354821   -3.1484694  0.015736702   -4.3354821    1.1870128   439061 
 1127000   0.79079243   -4.3352717   -4.3352717   -3.1490857  0.016342426   -4.3352717    1.1861859   439061 
 1128000   0.79206918   -4.3365937   -4.3365937   -3.1484926  0.020839523   -4.3365937    1.1881011   439061 
 1129000   0.79421571   -4.3390657   -4.3390657   -3.1477449  0.020431847   -4.3390657    1.1913208   439061 
 1130000   0.79317009   -4.3383438   -4.3383438   -3.1485914  0.023667042   -4.3383438    1.1897524   439061 
 1131000   0.79311828   -4.3391279   -4.3391279   -3.1494532  0.022122553   -4.3391279    1.1896747   439061 
 1132000   0.79256336   -4.3397426   -4.3397426   -3.1509003  0.025796894   -4.3397426    1.1888423   439061 
 1133000   0.79211438   -4.3403811   -4.3403811   -3.1522123  0.026233334   -4.3403811    1.1881689   439061 
 1134000   0.79348956   -4.3436124   -4.3436124   -3.1533807  0.018768322   -4.3436124    1.1902316   439061 
 1135000   0.79319983   -4.3437096   -4.3437096   -3.1539126  0.019899961   -4.3437096     1.189797   439061 
 1136000   0.79218773   -4.3429824   -4.3429824   -3.1547035  0.021912118   -4.3429824    1.1882789   439061 
 1137000   0.79273418   -4.3454988   -4.3454988   -3.1564002  0.025726011   -4.3454988    1.1890986   439061 
 1138000   0.79226956   -4.3444138   -4.3444138   -3.1560121  0.019693029   -4.3444138    1.1884016   439061 
 1139000   0.79310674   -4.3455041   -4.3455041   -3.1558467  0.020950744   -4.3455041    1.1896574   439061 
 1140000   0.79305486   -4.3454663   -4.3454663   -3.1558868  0.021749419   -4.3454663    1.1895796   439061 
 1141000   0.79210956   -4.3452809   -4.3452809   -3.1571193  0.025536742   -4.3452809    1.1881616   439061 
 1142000   0.79255247   -4.3446204   -4.3446204   -3.1557944  0.027184568   -4.3446204     1.188826   439061 
 1143000   0.79257462   -4.3453776   -4.3453776   -3.1565184  0.022784006   -4.3453776    1.1888592   439061 
 1144000   0.79169818   -4.3444158   -4.3444158   -3.1568713   0.02348484   -4.3444158    1.1875446   439061 
 1145000   0.79165313   -4.3441389   -4.3441389    -3.156662  0.021355725   -4.3441389     1.187477   439061 
 1146000   0.79255398    -4.346673    -4.346673   -3.1578447  0.015978947    -4.346673    1.1888283   439061 
 1147000   0.79175689   -4.3452772   -4.3452772   -3.1576446  0.016493055   -4.3452772    1.1876326   439061 
 1148000   0.79079102   -4.3437447   -4.3437447   -3.1575609  0.021979084   -4.3437447    1.1861838   439061 
 1149000   0.79044565   -4.3448188   -4.3448188    -3.159153  0.015969855   -4.3448188    1.1856658   439061 
 1150000   0.79116193   -4.3453149   -4.3453149   -3.1585747  0.019528267   -4.3453149    1.1867402   439061 
 1151000   0.79130246   -4.3470811   -4.3470811   -3.1601301  0.019228727   -4.3470811     1.186951   439061 
 1152000   0.79229041   -4.3493302   -4.3493302   -3.1608973  0.018292211   -4.3493302    1.1884329   439061 
 1153000   0.79064524    -4.348025    -4.348025   -3.1620599  0.022939753    -4.348025    1.1859652   439061 
 1154000   0.79174502   -4.3496548   -4.3496548     -3.16204  0.023007389   -4.3496548    1.1876148   439061 
 1155000   0.79154308   -4.3498354   -4.3498354   -3.1625235  0.021677553   -4.3498354    1.1873119   439061 
 1156000   0.79072786   -4.3501631   -4.3501631    -3.164074  0.021534019   -4.3501631    1.1860891   439061 
 1157000   0.79121916   -4.3515352   -4.3515352   -3.1647092   0.01813504   -4.3515352     1.186826   439061 
 1158000   0.79263992   -4.3534704   -4.3534704   -3.1645132  0.023029379   -4.3534704    1.1889572   439061 
 1159000   0.79310383   -4.3548598   -4.3548598   -3.1652068  0.019379838   -4.3548598     1.189653   439061 
 1160000   0.79137097   -4.3527765   -4.3527765   -3.1657227  0.022762665   -4.3527765    1.1870537   439061 
 1161000   0.79171156   -4.3535802   -4.3535802   -3.1660156  0.022766106   -4.3535802    1.1875646   439061 
 1162000   0.79161017   -4.3535662   -4.3535662   -3.1661536  0.021986037   -4.3535662    1.1874125   439061 
 1163000    0.7906169   -4.3526934   -4.3526934   -3.1667708  0.025883127   -4.3526934    1.1859226   439061 
 1164000   0.78963143   -4.3506812   -4.3506812   -3.1662368  0.020875017   -4.3506812    1.1844444   439061 
 1165000   0.78937724   -4.3510378   -4.3510378   -3.1669746   0.02286202   -4.3510378    1.1840632   439061 
 1166000   0.78803974   -4.3505072   -4.3505072   -3.1684503  0.017969437   -4.3505072    1.1820569   439061 
 1167000   0.78945451   -4.3531842   -4.3531842   -3.1690051  0.018472471   -4.3531842    1.1841791   439061 
 1168000   0.78879258   -4.3526979   -4.3526979   -3.1695117  0.019593113   -4.3526979    1.1831862   439061 
 1169000   0.79015808   -4.3548169   -4.3548169   -3.1695824  0.014908834   -4.3548169    1.1852344   439061 
 1170000   0.78907926   -4.3537905   -4.3537905   -3.1701743   0.01822266   -4.3537905    1.1836162   439061 
 1171000   0.79011016   -4.3567022   -4.3567022   -3.1715397  0.018729389   -4.3567022    1.1851625   439061 
 1172000   0.78985171   -4.3562947   -4.3562947   -3.1715198  0.019931366   -4.3562947    1.1847749   439061 
 1173000   0.78983772   -4.3567304   -4.3567304   -3.1719765  0.022413796   -4.3567304    1.1847539   439061 
 1174000   0.79040719   -4.3574411   -4.3574411    -3.171833  0.023484853   -4.3574411    1.1856081   439061 
 1175000    0.7909859   -4.3586697   -4.3586697   -3.1721935  0.026001278   -4.3586697    1.1864761   439061 
 1176000   0.79004398   -4.3577986   -4.3577986   -3.1727353  0.024756379   -4.3577986    1.1850633   439061 
 1177000   0.79102593   -4.3584718   -4.3584718   -3.1719356   0.02782784   -4.3584718    1.1865362   439061 
 1178000   0.79030898   -4.3584377   -4.3584377   -3.1729769  0.021466644   -4.3584377    1.1854608   439061 
 1179000   0.78921627   -4.3599679   -4.3599679   -3.1761462  0.017358217   -4.3599679    1.1838217   439061 
 1180000   0.78723292   -4.3571169   -4.3571169   -3.1762702  0.016338879   -4.3571169    1.1808467   439061 
 1181000   0.78796638   -4.3586055   -4.3586055   -3.1766586    0.0160644   -4.3586055    1.1819469   439061 
 1182000   0.78760193   -4.3593759   -4.3593759   -3.1779757  0.012913823   -4.3593759    1.1814002   439061 
 1183000   0.78771306   -4.3596547   -4.3596547   -3.1780878  0.013629727   -4.3596547    1.1815669   439061 
 1184000   0.78779095   -4.3603927   -4.3603927    -3.178709  0.018481552   -4.3603927    1.1816837   439061 
 1185000   0.78842564   -4.3620817   -4.3620817    -3.179446  0.016084835   -4.3620817    1.1826358   439061 
 1186000   0.78976582   -4.3634351   -4.3634351    -3.178789  0.019573068   -4.3634351     1.184646   439061 
 1187000   0.78967373   -4.3639091   -4.3639091   -3.1794012  0.018937259   -4.3639091    1.1845079   439061 
 1188000   0.79031745   -4.3654706   -4.3654706   -3.1799971  0.022992052   -4.3654706    1.1854735   439061 
 1189000   0.78887305   -4.3642599   -4.3642599    -3.180953  0.025227403   -4.3642599    1.1833069   439061 
 1190000   0.79002222   -4.3673306   -4.3673306      -3.1823   0.02007372   -4.3673306    1.1850306   439061 
 1191000   0.78909898   -4.3659437   -4.3659437   -3.1822979  0.023960972   -4.3659437    1.1836458   439061 
 1192000   0.78877979   -4.3652281   -4.3652281   -3.1820611  0.023622059   -4.3652281     1.183167   439061 
 1193000   0.78775173   -4.3639063   -4.3639063   -3.1822814  0.023532994   -4.3639063    1.1816249   439061 
 1194000   0.78750876   -4.3644852   -4.3644852   -3.1832248  0.016336146   -4.3644852    1.1812605   439061 
 1195000   0.78752267   -4.3639803   -4.3639803    -3.182699  0.018205622   -4.3639803    1.1812813   439061 
 1196000   0.78859949   -4.3664465   -4.3664465     -3.18355  0.015931409   -4.3664465    1.1828965   439061 
 1197000   0.78731771   -4.3660099   -4.3660099    -3.185036   0.01377018   -4.3660099    1.1809739   439061 
 1198000   0.78739432   -4.3647253   -4.3647253   -3.1836365  0.012526942   -4.3647253    1.1810888   439061 
 1199000   0.78778724    -4.366005    -4.366005   -3.1843268  0.011143831    -4.366005    1.1816782   439061 
 1200000   0.78648175    -4.365033    -4.365033    -3.185313  0.017300995    -4.365033    1.1797199   439061 
 1201000   0.78747468   -4.3666402   -4.3666402   -3.1854308  0.018917777   -4.3666402    1.1812093   439061 
 1202000   0.78696562   -4.3659484   -4.3659484   -3.1855026  0.025987642   -4.3659484    1.1804457   439061 
 1203000    0.7880708   -4.3687003   -4.3687003   -3.1865968  0.021771521   -4.3687003    1.1821035   439061 
 1204000   0.78712836   -4.3683944   -4.3683944   -3.1877045  0.022956424   -4.3683944    1.1806899   439061 
 1205000   0.78703815   -4.3688365   -4.3688365    -3.188282  0.021034841   -4.3688365    1.1805545   439061 
 1206000   0.78712307    -4.369242    -4.369242   -3.1885601  0.024597785    -4.369242    1.1806819   439061 
 1207000   0.78756331   -4.3715027   -4.3715027   -3.1901605   0.02086944   -4.3715027    1.1813423   439061 
 1208000    0.7869744   -4.3698886   -4.3698886   -3.1894297  0.022161925   -4.3698886    1.1804589   439061 
 1209000   0.78806677   -4.3722802   -4.3722802   -3.1901827  0.026230841   -4.3722802    1.1820975   439061 
 1210000   0.78673806   -4.3701351   -4.3701351   -3.1900307  0.024482159   -4.3701351    1.1801044   439061 
 1211000   0.78650554   -4.3703123   -4.3703123   -3.1905567  0.021625076   -4.3703123    1.1797556   439061 
 1212000   0.78684016   -4.3707323   -4.3707323   -3.1904748  0.018088522   -4.3707323    1.1802576   439061 
 1213000   0.78611959   -4.3704852   -4.3704852   -3.1913084  0.018752771   -4.3704852    1.1791767   439061 
 1214000   0.78569174   -4.3710851   -4.3710851   -3.1925502  0.015720964   -4.3710851    1.1785349   439061 
 1215000   0.78578142   -4.3709771   -4.3709771   -3.1923076  0.016815968   -4.3709771    1.1786695   439061 
 1216000    0.7867551   -4.3721935   -4.3721935   -3.1920635  0.011866723   -4.3721935      1.18013   439061 
 1217000    0.7859305   -4.3717545   -4.3717545   -3.1928614  0.019179672   -4.3717545    1.1788931   439061 
 1218000   0.78688553   -4.3739507   -4.3739507   -3.1936251  0.016426244   -4.3739507    1.1803256   439061 
 1219000   0.78776969   -4.3755235   -4.3755235   -3.1938717  0.015591678   -4.3755235    1.1816518   439061 
 1220000   0.78702156   -4.3748182   -4.3748182   -3.1942886  0.018868084   -4.3748182    1.1805297   439061 
 1221000     0.786775   -4.3751914   -4.3751914   -3.1950316  0.022488504   -4.3751914    1.1801598   439061 
 1222000   0.78685068   -4.3769453   -4.3769453    -3.196672  0.019383718   -4.3769453    1.1802733   439061 
 1223000   0.78760828   -4.3782797   -4.3782797   -3.1968699  0.019356285   -4.3782797    1.1814097   439061 
 1224000   0.78790759   -4.3808904   -4.3808904   -3.1990317  0.020035401   -4.3808904    1.1818587   439061 
 1225000   0.78643499   -4.3788089   -4.3788089   -3.1991591  0.023841028   -4.3788089    1.1796498   439061 
 1226000   0.78718998   -4.3816414   -4.3816414   -3.2008591  0.020160891   -4.3816414    1.1807823   439061 
 1227000   0.78667817   -4.3796923   -4.3796923   -3.1996777  0.021406375   -4.3796923    1.1800146   439061 
 1228000   0.78716469   -4.3811168   -4.3811168   -3.2003724  0.021398011   -4.3811168    1.1807443   439061 
 1229000   0.78653467   -4.3813896   -4.3813896   -3.2015902  0.022441757   -4.3813896    1.1797993   439061 
 1230000   0.78710155    -4.382679    -4.382679   -3.2020293  0.022955831    -4.382679    1.1806496   439061 
 1231000   0.78669435   -4.3820975   -4.3820975   -3.2020587  0.016116204   -4.3820975    1.1800388   439061 
 1232000   0.78539228   -4.3801314   -4.3801314   -3.2020457  0.020819479   -4.3801314    1.1780857   439061 
 1233000   0.78620354   -4.3811445   -4.3811445   -3.2018419  0.019586841   -4.3811445    1.1793026   439061 
 1234000    0.7864472   -4.3831177   -4.3831177   -3.2034496  0.010730467   -4.3831177    1.1796681   439061 
 1235000   0.78686352   -4.3818802   -4.3818802   -3.2015876  0.016714192   -4.3818802    1.1802926   439061 
 1236000   0.78636491   -4.3814592   -4.3814592   -3.2019145   0.02306859   -4.3814592    1.1795447   439061 
 1237000   0.78597473    -4.381824    -4.381824   -3.2028646    0.0130152    -4.381824    1.1789594   439061 
 1238000    0.7853958   -4.3818683   -4.3818683   -3.2037772  0.017734153   -4.3818683     1.178091   439061 
 1239000   0.78623998   -4.3822321   -4.3822321   -3.2028748  0.013805693   -4.3822321    1.1793573   439061 
 1240000   0.78532056   -4.3813936   -4.3813936   -3.2034155  0.021953855   -4.3813936    1.1779782   439061 
 1241000   0.78614773   -4.3825496   -4.3825496   -3.2033307  0.025458195   -4.3825496    1.1792189   439061 
 1242000   0.78656193   -4.3846937   -4.3846937   -3.2048535  0.018795177   -4.3846937    1.1798402   439061 
 1243000   0.78555791   -4.3837694   -4.3837694   -3.2054352  0.022045068   -4.3837694    1.1783342   439061 
 1244000   0.78751631   -4.3860101   -4.3860101   -3.2047383  0.017647268   -4.3860101    1.1812718   439061 
 1245000   0.78658839   -4.3858169   -4.3858169    -3.205937  0.020047526   -4.3858169    1.1798799   439061 
 1246000   0.78607295   -4.3863218   -4.3863218   -3.2072151  0.016418151   -4.3863218    1.1791067   439061 
 1247000   0.78575848   -4.3865795   -4.3865795   -3.2079445  0.021418485   -4.3865795     1.178635   439061 
 1248000   0.78631801   -4.3869211   -4.3869211   -3.2074468  0.017956231   -4.3869211    1.1794743   439061 
 1249000   0.78590054   -4.3874436   -4.3874436   -3.2085954  0.018087189   -4.3874436    1.1788481   439061 
 1250000   0.78457385   -4.3870139   -4.3870139   -3.2101558  0.016221491   -4.3870139    1.1768581   439061 
 1251000   0.78461031   -4.3867646   -4.3867646   -3.2098518  0.020188802   -4.3867646    1.1769128   439061 
 1252000   0.78503954   -4.3876532   -4.3876532   -3.2100966  0.017129131   -4.3876532    1.1775566   439061 
 1253000   0.78580507    -4.389372    -4.389372   -3.2106671  0.016825462    -4.389372    1.1787049   439061 
 1254000   0.78470001    -4.389305    -4.389305   -3.2122576  0.016970285    -4.389305    1.1770473   439061 
 1255000   0.78485935   -4.3897514   -4.3897514   -3.2124651  0.023947553   -4.3897514    1.1772863   439061 
 1256000   0.78528933   -4.3901184   -4.3901184   -3.2121871  0.017362537   -4.3901184    1.1779313   439061 
 1257000   0.78522045   -4.3893208   -4.3893208   -3.2114928  0.020655199   -4.3893208     1.177828   439061 
 1258000   0.78598015   -4.3915396   -4.3915396   -3.2125721  0.018980889   -4.3915396    1.1789675   439061 
 1259000   0.78468913   -4.3893487   -4.3893487   -3.2123177  0.024132977   -4.3893487     1.177031   439061 
 1260000   0.78577695   -4.3913547   -4.3913547   -3.2126919  0.019840354   -4.3913547    1.1786627   439061 
 1261000   0.78330041   -4.3890531   -4.3890531   -3.2141051  0.016302129   -4.3890531    1.1749479   439061 
 1262000   0.78490197   -4.3931229   -4.3931229   -3.2157726  0.011958699   -4.3931229    1.1773503   439061 
 1263000   0.78382371   -4.3901672   -4.3901672   -3.2144344  0.017759944   -4.3901672    1.1757329   439061 
 1264000     0.783986   -4.3909402   -4.3909402   -3.2149638  0.015983359   -4.3909402    1.1759763   439061 
 1265000   0.78478523   -4.3913681   -4.3913681   -3.2141929  0.018182219   -4.3913681    1.1771752   439061 
 1266000    0.7836683   -4.3909686   -4.3909686   -3.2154689  0.018854069   -4.3909686    1.1754998   439061 
 1267000   0.78454988   -4.3922233   -4.3922233   -3.2154012  0.015813069   -4.3922233    1.1768221   439061 
 1268000   0.78507691   -4.3929765   -4.3929765   -3.2153638  0.018164619   -4.3929765    1.1776127   439061 
 1269000   0.78436017   -4.3935136   -4.3935136    -3.216976   0.01761653   -4.3935136    1.1765376   439061 
 1270000    0.7848536   -4.3935447   -4.3935447   -3.2162669  0.022429431   -4.3935447    1.1772777   439061 
 1271000   0.78546042    -4.394206    -4.394206   -3.2160181  0.020314431    -4.394206    1.1781879   439061 
 1272000    0.7837786   -4.3918319   -4.3918319   -3.2161667  0.022877447   -4.3918319    1.1756652   439061 
 1273000   0.78445863   -4.3948642   -4.3948642   -3.2181789  0.019318632   -4.3948642    1.1766853   439061 
 1274000   0.78383021   -4.3940251   -4.3940251   -3.2182825  0.016460655   -4.3940251    1.1757426   439061 
 1275000   0.78467827   -4.3938936   -4.3938936   -3.2168789  0.015876035   -4.3938936    1.1770147   439061 
 1276000   0.78352937   -4.3931625   -4.3931625   -3.2178712   0.02003499   -4.3931625    1.1752914   439061 
 1277000   0.78322998   -4.3934709   -4.3934709   -3.2186286   0.01878923   -4.3934709    1.1748423   439061 
 1278000   0.78390901   -4.3941827   -4.3941827   -3.2183219  0.017778235   -4.3941827    1.1758608   439061 
 1279000   0.78421175   -4.3958308   -4.3958308   -3.2195158  0.016418518   -4.3958308    1.1763149   439061 
 1280000   0.78421757   -4.3955181   -4.3955181   -3.2191944  0.020719535   -4.3955181    1.1763237   439061 
 1281000   0.78416061    -4.397813    -4.397813   -3.2215748  0.016954106    -4.397813    1.1762382   439061 
 1282000   0.78337424   -4.3973354   -4.3973354   -3.2222767   0.01557917   -4.3973354    1.1750587   439061 
 1283000   0.78339577   -4.3969657   -4.3969657   -3.2218748  0.021753141   -4.3969657     1.175091   439061 
 1284000   0.78379429   -4.3990891   -4.3990891   -3.2234003  0.017846185   -4.3990891    1.1756888   439061 
 1285000   0.78305853   -4.3989347   -4.3989347   -3.2243496  0.021727337   -4.3989347    1.1745851   439061 
 1286000   0.78376786   -4.3993457   -4.3993457   -3.2236965  0.020591576   -4.3993457    1.1756491   439061 
 1287000   0.78338067    -4.399975    -4.399975   -3.2249066  0.017441236    -4.399975    1.1750683   439061 
 1288000   0.78380258   -4.4017799   -4.4017799   -3.2260787  0.016839085   -4.4017799    1.1757012   439061 
 1289000   0.78337835   -4.3996867   -4.3996867   -3.2246218  0.020221782   -4.3996867    1.1750648   439061 
 1290000   0.78350558   -4.3998145   -4.3998145   -3.2245588   0.02019884   -4.3998145    1.1752557   439061 
 1291000   0.78438691   -4.4000703   -4.4000703   -3.2234926  0.020696566   -4.4000703    1.1765777   439061 
 1292000   0.78405911   -4.3998312   -4.3998312   -3.2237452  0.019507102   -4.3998312     1.176086   439061 
 1293000    0.7824784   -4.3987869   -4.3987869    -3.225072  0.019429885   -4.3987869    1.1737149   439061 
 1294000   0.78266278    -4.400112    -4.400112   -3.2261205  0.018800174    -4.400112    1.1739915   439061 
 1295000   0.78181535   -4.3997006   -4.3997006   -3.2269803  0.015534847   -4.3997006    1.1727204   439061 
 1296000   0.77995732   -4.3976151   -4.3976151   -3.2276818  0.014054393   -4.3976151    1.1699333   439061 
 1297000   0.78084573   -4.3994798   -4.3994798   -3.2282139  0.016469351   -4.3994798    1.1712659   439061 
 1298000   0.78139307   -4.3988966   -4.3988966   -3.2268097  0.016087002   -4.3988966    1.1720869   439061 
 1299000   0.78338467   -4.4007653   -4.4007653    -3.225691  0.018913651   -4.4007653    1.1750743   439061 
 1300000   0.78370884    -4.402822    -4.402822   -3.2272614  0.016903536    -4.402822    1.1755606   439061 
 1301000   0.78411668   -4.4041935   -4.4041935   -3.2280211  0.012048659   -4.4041935    1.1761723   439061 
 1302000   0.78404594   -4.4040365   -4.4040365   -3.2279703  0.019222653   -4.4040365    1.1760662   439061 
 1303000   0.78237266   -4.4017449   -4.4017449   -3.2281886  0.020361597   -4.4017449    1.1735563   439061 
 1304000   0.78401392   -4.4057996   -4.4057996   -3.2297814  0.018174473   -4.4057996    1.1760182   439061 
 1305000   0.78362455    -4.405079    -4.405079   -3.2296448  0.023845422    -4.405079    1.1754342   439061 
 1306000   0.78274054   -4.4039334   -4.4039334   -3.2298252  0.023680633   -4.4039334    1.1741081   439061 
 1307000   0.78374902   -4.4051358   -4.4051358    -3.229515  0.019200214   -4.4051358    1.1756209   439061 
 1308000   0.78255452   -4.4034072   -4.4034072   -3.2295781  0.020127835   -4.4034072    1.1738291   439061 
 1309000   0.78222899   -4.4048032   -4.4048032   -3.2314624  0.018314902   -4.4048032    1.1733408   439061 
 1310000   0.78045256   -4.4026748   -4.4026748   -3.2319986   0.01525661   -4.4026748    1.1706762   439061 
 1311000    0.7811398   -4.4030498   -4.4030498   -3.2313428  0.015779921   -4.4030498     1.171707   439061 
 1312000   0.78162766   -4.4051324   -4.4051324   -3.2326936 0.0084095464   -4.4051324    1.1724388   439061 
 1313000   0.78262659   -4.4051789   -4.4051789   -3.2312417   0.01314668   -4.4051789    1.1739372   439061 
 1314000   0.78236388   -4.4036638   -4.4036638   -3.2301207  0.014938924   -4.4036638    1.1735431   439061 
 1315000   0.78284862    -4.405728    -4.405728   -3.2314577  0.011360404    -4.405728    1.1742703   439061 
 1316000   0.78294318   -4.4061598   -4.4061598   -3.2317477  0.013952187   -4.4061598    1.1744121   439061 
 1317000   0.78112393   -4.4051667   -4.4051667   -3.2334834  0.013962613   -4.4051667    1.1716832   439061 
 1318000   0.78226579   -4.4074072   -4.4074072   -3.2340111  0.015817644   -4.4074072     1.173396   439061 
 1319000   0.78142734   -4.4074766   -4.4074766   -3.2353382  0.013554618   -4.4074766    1.1721383   439061 
 1320000    0.7819252   -4.4083143   -4.4083143   -3.2354292  0.016810398   -4.4083143    1.1728851   439061 
 1321000   0.78207476   -4.4088446   -4.4088446   -3.2357351  0.020085753   -4.4088446    1.1731095   439061 
 1322000   0.78207988   -4.4096276   -4.4096276   -3.2365104  0.020264716   -4.4096276    1.1731172   439061 
 1323000   0.78239057   -4.4103743   -4.4103743   -3.2367912  0.018162105   -4.4103743    1.1735832   439061 
 1324000   0.78184588   -4.4108788   -4.4108788   -3.2381127  0.017155657   -4.4108788    1.1727661   439061 
 1325000   0.78243773   -4.4121576   -4.4121576   -3.2385037  0.016642395   -4.4121576    1.1736539   439061 
 1326000   0.78303876   -4.4124619   -4.4124619   -3.2379064  0.018649618   -4.4124619    1.1745555   439061 
 1327000   0.78246629    -4.411265    -4.411265   -3.2375682   0.01928613    -4.411265    1.1736968   439061 
 1328000   0.78162194   -4.4105426   -4.4105426   -3.2381123  0.025560874   -4.4105426    1.1724302   439061 
 1329000   0.78101878   -4.4097826   -4.4097826   -3.2382571  0.019259435   -4.4097826    1.1715255   439061 
 1330000   0.78139993   -4.4119776   -4.4119776   -3.2398804 0.0095545252   -4.4119776    1.1720972   439061 
 1331000   0.78048114   -4.4103556   -4.4103556   -3.2396365  0.013932635   -4.4103556     1.170719   439061 
 1332000   0.78008088   -4.4103362   -4.4103362   -3.2402175  0.017173944   -4.4103362    1.1701187   439061 
 1333000   0.78071885   -4.4124901   -4.4124901   -3.2414145 0.0082920577   -4.4124901    1.1710756   439061 
 1334000   0.78067825   -4.4124161   -4.4124161   -3.2414014  0.010024216   -4.4124161    1.1710147   439061 
 1335000   0.78050527   -4.4128199   -4.4128199   -3.2420646  0.017576852   -4.4128199    1.1707552   439061 
 1336000    0.7806508   -4.4144419   -4.4144419   -3.2434684  0.016311754   -4.4144419    1.1709735   439061 
 1337000   0.78206921   -4.4154916   -4.4154916   -3.2423904   0.01967477   -4.4154916    1.1731011   439061 
 1338000   0.78101897   -4.4152036   -4.4152036   -3.2436778  0.021962156   -4.4152036    1.1715258   439061 
 1339000     0.781592    -4.417766    -4.417766   -3.2453807  0.020875629    -4.417766    1.1723853   439061 
 1340000   0.78103846   -4.4190486   -4.4190486   -3.2474936  0.019725055   -4.4190486     1.171555   439061 
 1341000   0.78012847   -4.4174259   -4.4174259   -3.2472359  0.023085489   -4.4174259      1.17019   439061 
 1342000   0.78102177   -4.4187894   -4.4187894   -3.2472594  0.016547035   -4.4187894      1.17153   439061 
 1343000   0.78032099   -4.4183295   -4.4183295   -3.2478507  0.018286301   -4.4183295    1.1704788   439061 
 1344000   0.78070722   -4.4182476   -4.4182476   -3.2471894  0.026819689   -4.4182476    1.1710582   439061 
 1345000   0.78243825   -4.4213442   -4.4213442   -3.2476895  0.020446205   -4.4213442    1.1736547   439061 
 1346000   0.78004975   -4.4186429   -4.4186429   -3.2485709  0.023111995   -4.4186429     1.170072   439061 
 1347000   0.77917472   -4.4180056   -4.4180056   -3.2492462  0.014471677   -4.4180056    1.1687594   439061 
 1348000   0.77926472   -4.4173673   -4.4173673   -3.2484729  0.013217649   -4.4173673    1.1688944   439061 
 1349000   0.77921356   -4.4174891   -4.4174891   -3.2486714  0.013550573   -4.4174891    1.1688177   439061 
 1350000   0.77925918   -4.4182639   -4.4182639   -3.2493778  0.016591878   -4.4182639    1.1688861   439061 
 1351000   0.78084962   -4.4196093   -4.4196093   -3.2483375  0.015626474   -4.4196093    1.1712718   439061 
 1352000    0.7799567   -4.4193673   -4.4193673   -3.2494349  0.011447338   -4.4193673    1.1699324   439061 
 1353000   0.78030769   -4.4192034   -4.4192034   -3.2487445   0.01024178   -4.4192034    1.1704589   439061 
 1354000   0.77969244   -4.4177048   -4.4177048   -3.2481688  0.016275106   -4.4177048     1.169536   439061 
 1355000   0.77968348   -4.4196977   -4.4196977   -3.2501752  0.015492057   -4.4196977    1.1695226   439061 
 1356000   0.78015742   -4.4200076   -4.4200076   -3.2497741  0.014227993   -4.4200076    1.1702335   439061 
 1357000   0.78021307   -4.4207699   -4.4207699   -3.2504529  0.021095791   -4.4207699    1.1703169   439061 
 1358000   0.77908505   -4.4206169   -4.4206169    -3.251992  0.016804811   -4.4206169    1.1686249   439061 
 1359000   0.77824951   -4.4202078   -4.4202078   -3.2528362  0.017912719   -4.4202078    1.1673716   439061 
 1360000   0.77844067   -4.4222782   -4.4222782   -3.2546199  0.016384959   -4.4222782    1.1676583   439061 
 1361000   0.77866123   -4.4228291   -4.4228291   -3.2548399  0.011021504   -4.4228291    1.1679892   439061 
 1362000   0.77822781   -4.4220857   -4.4220857   -3.2547466  0.018756217   -4.4220857    1.1673391   439061 
 1363000    0.7798603   -4.4226441   -4.4226441   -3.2528563  0.020784441   -4.4226441    1.1697878   439061 
 1364000    0.7812518   -4.4263103   -4.4263103   -3.2544352  0.018735981   -4.4263103     1.171875   439061 
 1365000    0.7798224   -4.4247664   -4.4247664   -3.2550355   0.02117838   -4.4247664    1.1697309   439061 
 1366000   0.77978513   -4.4241553   -4.4241553   -3.2544803  0.023060965   -4.4241553     1.169675   439061 
 1367000   0.77924063   -4.4243556   -4.4243556   -3.2554973  0.019763378   -4.4243556    1.1688583   439061 
 1368000    0.7796076   -4.4254386   -4.4254386   -3.2560299  0.022273527   -4.4254386    1.1694087   439061 
 1369000   0.77917641   -4.4247142   -4.4247142   -3.2559523  0.015714508   -4.4247142     1.168762   439061 
 1370000   0.77801162   -4.4238198   -4.4238198    -3.256805  0.014238168   -4.4238198    1.1670148   439061 
 1371000   0.77766981   -4.4243861   -4.4243861   -3.2578841 0.0085310358   -4.4243861    1.1665021   439061 
 1372000   0.77683669   -4.4239012   -4.4239012   -3.2586488  0.010060021   -4.4239012    1.1652524   439061 
 1373000   0.77618374    -4.423797    -4.423797   -3.2595241  0.016283146    -4.423797     1.164273   439061 
 1374000   0.77803754   -4.4263931   -4.4263931   -3.2593395  0.011050367   -4.4263931    1.1670536   439061 
 1375000   0.77717779   -4.4259085   -4.4259085   -3.2601444  0.014168822   -4.4259085     1.165764   439061 
 1376000   0.77716674   -4.4261334   -4.4261334    -3.260386  0.021901989   -4.4261334    1.1657475   439061 
 1377000   0.77908782   -4.4300098   -4.4300098   -3.2613807  0.016962925   -4.4300098    1.1686291   439061 
 1378000    0.7771544   -4.4288511   -4.4288511   -3.2631221  0.018320499   -4.4288511     1.165729   439061 
 1379000   0.77723325   -4.4305553   -4.4305553   -3.2647081  0.020964564   -4.4305553    1.1658472   439061 
 1380000   0.77715843   -4.4316385   -4.4316385   -3.2659035  0.021782091   -4.4316385     1.165735   439061 
 1381000   0.77968647    -4.433904    -4.433904    -3.264377  0.022886567    -4.433904     1.169527   439061 
 1382000   0.77912574    -4.433614    -4.433614    -3.264928  0.020216748    -4.433614    1.1686859   439061 
 1383000   0.78017266   -4.4346316   -4.4346316   -3.2643753  0.020041996   -4.4346316    1.1702563   439061 
 1384000    0.7790249   -4.4336975   -4.4336975   -3.2651628  0.019541325   -4.4336975    1.1685347   439061 
 1385000   0.77699911   -4.4307701   -4.4307701   -3.2652741  0.020053324   -4.4307701     1.165496   439061 
 1386000   0.77659511   -4.4315692   -4.4315692   -3.2666792  0.014536245   -4.4315692      1.16489   439061 
 1387000   0.77804589   -4.4335684   -4.4335684   -3.2665022 0.0083662565   -4.4335684    1.1670662   439061 
 1388000   0.77620204    -4.430947    -4.430947   -3.2666465  0.010732842    -4.430947    1.1643004   439061 
 1389000     0.776384   -4.4307244   -4.4307244    -3.266151  0.014132139   -4.4307244    1.1645734   439061 
 1390000   0.77823587   -4.4336742   -4.4336742   -3.2663231  0.011141624   -4.4336742    1.1673512   439061 
 1391000   0.77750113   -4.4312704   -4.4312704   -3.2650213  0.014861516   -4.4312704     1.166249   439061 
 1392000   0.77625965   -4.4307397   -4.4307397   -3.2663529  0.016476857   -4.4307397    1.1643868   439061 
 1393000   0.77721853   -4.4325708   -4.4325708   -3.2667457  0.014592981   -4.4325708    1.1658251   439061 
 1394000   0.77739737   -4.4329962   -4.4329962   -3.2669028  0.016468536   -4.4329962    1.1660934   439061 
 1395000   0.77788344   -4.4333189   -4.4333189   -3.2664964   0.01649386   -4.4333189    1.1668225   439061 
 1396000   0.77807538   -4.4346251   -4.4346251   -3.2675146  0.017702204   -4.4346251    1.1671104   439061 
 1397000   0.77891373   -4.4364208   -4.4364208   -3.2680529  0.017864813   -4.4364208    1.1683679   439061 
 1398000   0.77690061   -4.4351762   -4.4351762   -3.2698279     0.022626   -4.4351762    1.1653483   439061 
 1399000   0.77665566   -4.4354494   -4.4354494   -3.2704685  0.014711555   -4.4354494    1.1649808   439061 
 1400000   0.77703497   -4.4356279   -4.4356279   -3.2700781  0.017424451   -4.4356279    1.1655498   439061 
 1401000   0.77684736    -4.437571    -4.437571   -3.2723026  0.018159333    -4.437571    1.1652684   439061 
 1402000   0.77633595   -4.4373536   -4.4373536   -3.2728523  0.017353462   -4.4373536    1.1645013   439061 
 1403000   0.77561828   -4.4368977   -4.4368977   -3.2734729  0.015150756   -4.4368977    1.1634248   439061 
 1404000    0.7768425   -4.4383332   -4.4383332   -3.2730721  0.017180079   -4.4383332    1.1652611   439061 
 1405000   0.77777097   -4.4404638   -4.4404638     -3.27381  0.014747131   -4.4404638    1.1666538   439061 
 1406000   0.77641896   -4.4373613   -4.4373613   -3.2727355  0.020712067   -4.4373613    1.1646258   439061 
 1407000   0.77792571   -4.4402159   -4.4402159     -3.27333  0.015459635   -4.4402159    1.1668859   439061 
 1408000   0.77610313   -4.4379982   -4.4379982   -3.2738462  0.019002402   -4.4379982     1.164152   439061 
 1409000   0.77604225   -4.4386541   -4.4386541   -3.2745933  0.015095026   -4.4386541    1.1640607   439061 
 1410000   0.77552813   -4.4383497   -4.4383497   -3.2750601  0.016391565   -4.4383497    1.1632896   439061 
 1411000   0.77531408   -4.4389041   -4.4389041   -3.2759356  0.012529757   -4.4389041    1.1629685   439061 
 1412000   0.77643529   -4.4389426   -4.4389426   -3.2742923  0.010803824   -4.4389426    1.1646503   439061 
 1413000   0.77608124   -4.4391222   -4.4391222    -3.275003   0.01372714   -4.4391222    1.1641192   439061 
 1414000   0.77729701   -4.4388846   -4.4388846   -3.2729417  0.019732988   -4.4388846    1.1659429   439061 
 1415000   0.77563788   -4.4368673   -4.4368673   -3.2734132  0.017636903   -4.4368673    1.1634542   439061 
 1416000   0.77679403   -4.4381588   -4.4381588   -3.2729704  0.014661755   -4.4381588    1.1651884   439061 
 1417000   0.77623204   -4.4388129   -4.4388129   -3.2744675  0.013599314   -4.4388129    1.1643454   439061 
 1418000   0.77555336   -4.4384633   -4.4384633   -3.2751359  0.012472623   -4.4384633    1.1633274   439061 
 1419000   0.77540574   -4.4379071   -4.4379071   -3.2748011  0.011983428   -4.4379071     1.163106   439061 
 1420000   0.77624015   -4.4385446   -4.4385446    -3.274187  0.015082806   -4.4385446    1.1643576   439061 
 1421000   0.77681208   -4.4391752   -4.4391752   -3.2739598  0.017493405   -4.4391752    1.1652155   439061 
 1422000   0.77627653   -4.4390016   -4.4390016   -3.2745894  0.020465698   -4.4390016    1.1644121   439061 
 1423000   0.77588325   -4.4401574   -4.4401574   -3.2763352  0.018908158   -4.4401574    1.1638222   439061 
 1424000   0.77578853   -4.4408782   -4.4408782   -3.2771981   0.01349894   -4.4408782    1.1636801   439061 
 1425000   0.77438403   -4.4400049   -4.4400049   -3.2784315  0.016097395   -4.4400049    1.1615734   439061 
 1426000   0.77524248   -4.4419418   -4.4419418   -3.2790807  0.013857929   -4.4419418    1.1628611   439061 
 1427000   0.77487691   -4.4424618   -4.4424618   -3.2801491  0.013683646   -4.4424618    1.1623127   439061 
 1428000   0.77580721   -4.4438818   -4.4438818   -3.2801737  0.013570544   -4.4438818    1.1637082   439061 
 1429000   0.77535899   -4.4439161   -4.4439161   -3.2808803  0.020154826   -4.4439161    1.1630358   439061 
 1430000   0.77577926     -4.44496     -4.44496   -3.2812938  0.015981045     -4.44496    1.1636662   439061 
 1431000   0.77525326   -4.4450704   -4.4450704   -3.2821931  0.016117163   -4.4450704    1.1628772   439061 
 1432000   0.77557616   -4.4467641   -4.4467641   -3.2834025  0.017627525   -4.4467641    1.1633616   439061 
 1433000   0.77611878   -4.4464062   -4.4464062   -3.2822307  0.017105954   -4.4464062    1.1641755   439061 
 1434000   0.77482935   -4.4458565   -4.4458565   -3.2836151  0.021383102   -4.4458565    1.1622414   439061 
 1435000   0.77621832   -4.4463977   -4.4463977   -3.2820729  0.017890091   -4.4463977    1.1643248   439061 
 1436000   0.77522589   -4.4461098   -4.4461098   -3.2832736  0.019372601   -4.4461098    1.1628362   439061 
 1437000   0.77438356   -4.4455045   -4.4455045   -3.2839318  0.017101708   -4.4455045    1.1615727   439061 
 1438000   0.77423828   -4.4464776   -4.4464776   -3.2851228  0.016981267   -4.4464776    1.1613548   439061 
 1439000   0.77474818   -4.4465435   -4.4465435   -3.2844239  0.013632739   -4.4465435    1.1621196   439061 
 1440000   0.77493094   -4.4466921   -4.4466921   -3.2842983  0.012791882   -4.4466921    1.1623938   439061 
 1441000   0.77440307   -4.4459418   -4.4459418   -3.2843398  0.012114143   -4.4459418     1.161602   439061 
 1442000   0.77321734   -4.4447729   -4.4447729   -3.2849495  0.012346066   -4.4447729    1.1598234   439061 
 1443000   0.77414893    -4.445532    -4.445532   -3.2843112  0.012180839    -4.445532    1.1612207   439061 
 1444000   0.77417314   -4.4459391   -4.4459391    -3.284682  0.015089005   -4.4459391    1.1612571   439061 
 1445000   0.77439802   -4.4467849   -4.4467849   -3.2851906  0.014900166   -4.4467849    1.1615944   439061 
 1446000   0.77456236   -4.4475784   -4.4475784   -3.2857375  0.013081891   -4.4475784    1.1618409   439061 
 1447000   0.77402481   -4.4466462   -4.4466462   -3.2856116  0.017685918   -4.4466462    1.1610346   439061 
 1448000   0.77438323   -4.4487994   -4.4487994   -3.2872272  0.016435938   -4.4487994    1.1615722   439061 
 1449000   0.77365036    -4.447939    -4.447939   -3.2874661  0.014154795    -4.447939    1.1604729   439061 
 1450000   0.77381272   -4.4491581   -4.4491581   -3.2884417  0.015282479   -4.4491581    1.1607164   439061 
 1451000   0.77407047   -4.4496095   -4.4496095   -3.2885065  0.014569124   -4.4496095    1.1611031   439061 
 1452000   0.77287881   -4.4491395   -4.4491395   -3.2898239  0.019429451   -4.4491395    1.1593156   439061 
 1453000   0.77350785   -4.4499255   -4.4499255   -3.2896664  0.016094764   -4.4499255    1.1602591   439061 
 1454000   0.77338479   -4.4499424   -4.4499424   -3.2898678  0.021010163   -4.4499424    1.1600745   439061 
 1455000   0.77669515   -4.4536074   -4.4536074   -3.2885673  0.013575365   -4.4536074    1.1650401   439061 
 1456000   0.77602651   -4.4522515   -4.4522515   -3.2882143  0.016160464   -4.4522515    1.1640371   439061 
 1457000   0.77568139   -4.4537479   -4.4537479   -3.2902284  0.017903072   -4.4537479    1.1635194   439061 
 1458000   0.77402886   -4.4518625   -4.4518625   -3.2908219  0.016512861   -4.4518625    1.1610406   439061 
 1459000   0.77523628   -4.4527388   -4.4527388    -3.289887  0.015599663   -4.4527388    1.1628518   439061 
 1460000   0.77362895   -4.4510463   -4.4510463   -3.2906055  0.016215533   -4.4510463    1.1604408   439061 
 1461000    0.7733253     -4.45187     -4.45187   -3.2918847 0.0099772239     -4.45187    1.1599853   439061 
 1462000   0.77321449   -4.4503146   -4.4503146   -3.2904955    0.0145763   -4.4503146    1.1598191   439061 
 1463000   0.77345445   -4.4510804   -4.4510804   -3.2909014    0.0122473   -4.4510804     1.160179   439061 
 1464000   0.77344128    -4.449983    -4.449983   -3.2898237  0.015251624    -4.449983    1.1601593   439061 
 1465000   0.77420491   -4.4518601   -4.4518601   -3.2905554  0.012494281   -4.4518601    1.1613047   439061 
 1466000   0.77391698   -4.4518662   -4.4518662   -3.2909933  0.019059381   -4.4518662    1.1608728   439061 
 1467000   0.77475589   -4.4533858   -4.4533858   -3.2912546  0.015054777   -4.4533858    1.1621312   439061 
 1468000   0.77386903   -4.4531342   -4.4531342   -3.2923332  0.012429413   -4.4531342    1.1608009   439061 
 1469000    0.7740347    -4.452661    -4.452661   -3.2916116  0.014949936    -4.452661    1.1610494   439061 
 1470000   0.77425172   -4.4533051   -4.4533051   -3.2919302  0.015630274   -4.4533051    1.1613749   439061 
 1471000   0.77368542   -4.4531448   -4.4531448   -3.2926193  0.015996793   -4.4531448    1.1605255   439061 
 1472000   0.77460904   -4.4549863   -4.4549863   -3.2930754  0.014840431   -4.4549863    1.1619109   439061 
 1473000   0.77444109   -4.4545548   -4.4545548   -3.2928958  0.015986229   -4.4545548     1.161659   439061 
 1474000    0.7738771   -4.4553975   -4.4553975   -3.2945845  0.013618484   -4.4553975     1.160813   439061 
 1475000   0.77242185    -4.453596    -4.453596   -3.2949659   0.01857179    -4.453596    1.1586301   439061 
 1476000   0.77412375   -4.4562073   -4.4562073   -3.2950243  0.011392228   -4.4562073     1.161183   439061 
 1477000   0.77260523   -4.4545301   -4.4545301   -3.2956249  0.014282289   -4.4545301    1.1589052   439061 
 1478000   0.77237926   -4.4546234   -4.4546234   -3.2960571  0.014095286   -4.4546234    1.1585663   439061 
 1479000   0.77344422   -4.4555151   -4.4555151   -3.2953514   0.01282347   -4.4555151    1.1601637   439061 
 1480000   0.77311687   -4.4547464   -4.4547464   -3.2950737  0.019834567   -4.4547464    1.1596727   439061 
 1481000   0.77360929   -4.4559739   -4.4559739   -3.2955626  0.012058346   -4.4559739    1.1604113   439061 
 1482000   0.77255146   -4.4548021   -4.4548021   -3.2959775  0.016910404   -4.4548021    1.1588246   439061 
 1483000    0.7742974    -4.456603    -4.456603   -3.2951596  0.014677814    -4.456603    1.1614435   439061 
 1484000   0.77313146   -4.4551019   -4.4551019   -3.2954074  0.017103962   -4.4551019    1.1596945   439061 
 1485000   0.77366457   -4.4569824   -4.4569824   -3.2964882  0.011559821   -4.4569824    1.1604942   439061 
 1486000   0.77203993   -4.4563487   -4.4563487   -3.2982914  0.014246789   -4.4563487    1.1580573   439061 
 1487000   0.77301235   -4.4584785   -4.4584785   -3.2989627  0.005478128   -4.4584785    1.1595159   439061 
 1488000   0.77228314   -4.4570663   -4.4570663   -3.2986443 0.0094499585   -4.4570663    1.1584221   439061 
 1489000   0.77327502   -4.4573188   -4.4573188   -3.2974089   0.01207238   -4.4573188    1.1599099   439061 
 1490000   0.77303595   -4.4579123   -4.4579123    -3.298361  0.016119114   -4.4579123    1.1595513   439061 
 1491000   0.77282842   -4.4590703   -4.4590703   -3.2998303  0.014743924   -4.4590703      1.15924   439061 
 1492000   0.77256479   -4.4594783   -4.4594783   -3.3006337  0.016925765   -4.4594783    1.1588445   439061 
 1493000    0.7727748    -4.460428    -4.460428   -3.3012684  0.017350202    -4.460428    1.1591596   439061 
 1494000   0.77331035    -4.461466    -4.461466   -3.3015031  0.015497985    -4.461466    1.1599629   439061 
 1495000   0.77323426   -4.4603814   -4.4603814   -3.3005327     0.018367   -4.4603814    1.1598487   439061 
 1496000   0.77426787   -4.4626838   -4.4626838   -3.3012846  0.014830512   -4.4626838    1.1613992   439061 
 1497000   0.77302923   -4.4618424   -4.4618424   -3.3023012  0.017420046   -4.4618424    1.1595412   439061 
 1498000   0.77231041   -4.4596027   -4.4596027   -3.3011397  0.014754324   -4.4596027     1.158463   439061 
 1499000   0.77235767   -4.4599334   -4.4599334   -3.3013995  0.013406023   -4.4599334    1.1585339   439061 
 1500000   0.77084855   -4.4587338   -4.4587338   -3.3024636  0.019658867   -4.4587338    1.1562702   439061 
 1501000   0.77139883     -4.45994     -4.45994   -3.3028444 0.0096047399     -4.45994    1.1570956   439061 
 1502000   0.77152734   -4.4604872   -4.4604872   -3.3031988  0.014730169   -4.4604872    1.1572884   439061 
 1503000   0.77226926   -4.4609715   -4.4609715   -3.3025702  0.010410059   -4.4609715    1.1584013   439061 
 1504000   0.77178896    -4.461644    -4.461644   -3.3039632  0.013634678    -4.461644    1.1576808   439061 
 1505000   0.77198858   -4.4624856   -4.4624856   -3.3045053  0.013536218   -4.4624856    1.1579802   439061 
 1506000   0.77153711    -4.463209    -4.463209    -3.305906  0.010664432    -4.463209     1.157303   439061 
 1507000   0.77143463   -4.4616124   -4.4616124   -3.3044631  0.015157844   -4.4616124    1.1571493   439061 
 1508000   0.77184207    -4.463359    -4.463359   -3.3055985  0.010680243    -4.463359    1.1577605   439061 
 1509000     0.772147    -4.463811    -4.463811   -3.3055931  0.018891086    -4.463811    1.1582179   439061 
 1510000   0.77317785   -4.4653863   -4.4653863   -3.3056222  0.015712225   -4.4653863    1.1597641   439061 
 1511000   0.77278692     -4.46503     -4.46503   -3.3058523  0.012926667     -4.46503    1.1591777   439061 
 1512000   0.77247608   -4.4649482   -4.4649482   -3.3062367  0.020297387   -4.4649482    1.1587115   439061 
 1513000   0.77214841    -4.464916    -4.464916   -3.3066961  0.018313675    -4.464916      1.15822   439061 
 1514000   0.77366455   -4.4672662   -4.4672662    -3.306772   0.01522708   -4.4672662    1.1604942   439061 
 1515000   0.77273144   -4.4651607   -4.4651607   -3.3060662  0.015507332   -4.4651607    1.1590945   439061 
 1516000   0.77323993   -4.4655622   -4.4655622   -3.3057049  0.016904797   -4.4655622    1.1598572   439061 
 1517000   0.77162034   -4.4628377   -4.4628377   -3.3054098  0.019878234   -4.4628377    1.1574279   439061 
 1518000   0.77207504    -4.463538    -4.463538   -3.3054281  0.013451331    -4.463538    1.1581099   439061 
 1519000   0.77148737   -4.4620729   -4.4620729   -3.3048445  0.012443485   -4.4620729    1.1572284   439061 
 1520000   0.77232559   -4.4639236   -4.4639236   -3.3054378  0.012958647   -4.4639236    1.1584857   439061 
 1521000   0.77231847   -4.4625064   -4.4625064   -3.3040313  0.012129694   -4.4625064    1.1584751   439061 
 1522000   0.77236133   -4.4620087   -4.4620087   -3.3034693  0.011028257   -4.4620087    1.1585394   439061 
 1523000   0.77193287   -4.4621869   -4.4621869   -3.3042902  0.010403873   -4.4621869    1.1578967   439061 
 1524000   0.77249504    -4.463702    -4.463702   -3.3049621   0.01036892    -4.463702    1.1587399   439061 
 1525000   0.77304493   -4.4651493   -4.4651493   -3.3055846  0.011048272   -4.4651493    1.1595648   439061 
 1526000   0.77230858   -4.4626249   -4.4626249   -3.3041647  0.014235402   -4.4626249    1.1584602   439061 
 1527000   0.77211572   -4.4636478   -4.4636478   -3.3054768  0.016955653   -4.4636478    1.1581709   439061 
 1528000   0.77184327   -4.4655543   -4.4655543    -3.307792  0.011814341   -4.4655543    1.1577623   439061 
 1529000   0.77292287   -4.4669887   -4.4669887    -3.307607  0.015153497   -4.4669887    1.1593817   439061 
 1530000    0.7731204   -4.4671404   -4.4671404   -3.3074624  0.012210821   -4.4671404     1.159678   439061 
 1531000   0.77237161     -4.46629     -4.46629   -3.3077353  0.016293716     -4.46629    1.1585548   439061 
 1532000   0.77177403   -4.4673586   -4.4673586   -3.3097002   0.01839115   -4.4673586    1.1576584   439061 
 1533000   0.77151604   -4.4685267   -4.4685267   -3.3112553  0.017798292   -4.4685267    1.1572714   439061 
 1534000   0.77193601   -4.4692456   -4.4692456   -3.3113442  0.011778987   -4.4692456    1.1579014   439061 
 1535000   0.77139527   -4.4688836   -4.4688836   -3.3117933  0.012074413   -4.4688836    1.1570903   439061 
 1536000   0.77158251   -4.4696013   -4.4696013   -3.3122302  0.016175808   -4.4696013    1.1573711   439061 
 1537000   0.77231946   -4.4714843   -4.4714843   -3.3130078  0.011600487   -4.4714843    1.1584766   439061 
 1538000   0.77128858   -4.4695235   -4.4695235   -3.3125933   0.01395568   -4.4695235    1.1569302   439061 
 1539000   0.77094088    -4.468912    -4.468912   -3.3125033  0.019672185    -4.468912    1.1564087   439061 
 1540000   0.77216501   -4.4707227   -4.4707227   -3.3124778  0.017947117   -4.4707227    1.1582449   439061 
 1541000    0.7719977   -4.4706826   -4.4706826   -3.3126887  0.020611302   -4.4706826    1.1579939   439061 
 1542000   0.77203638    -4.471517    -4.471517   -3.3134651  0.016810174    -4.471517    1.1580519   439061 
 1543000   0.77123025    -4.471313    -4.471313   -3.3144703  0.011282068    -4.471313    1.1568427   439061 
 1544000   0.77029427   -4.4714668   -4.4714668   -3.3160281  0.011757002   -4.4714668    1.1554388   439061 
 1545000   0.77035638   -4.4710955   -4.4710955   -3.3155635  0.010063537   -4.4710955    1.1555319   439061 
 1546000   0.77028648   -4.4715736   -4.4715736   -3.3161465  0.011679168   -4.4715736    1.1554271   439061 
 1547000   0.77060495   -4.4722171   -4.4722171   -3.3163123 0.0083030262   -4.4722171    1.1559048   439061 
 1548000   0.77026954   -4.4725524   -4.4725524   -3.3171507  0.017366167   -4.4725524    1.1554017   439061 
 1549000    0.7711408   -4.4725188   -4.4725188   -3.3158102  0.015266475   -4.4725188    1.1567086   439061 
 1550000   0.77043976   -4.4714749   -4.4714749   -3.3158179  0.015834173   -4.4714749     1.155657   439061 
 1551000   0.76980282   -4.4721751   -4.4721751   -3.3174735  0.016943556   -4.4721751    1.1547016   439061 
 1552000    0.7701622    -4.472686    -4.472686   -3.3174454  0.016653246    -4.472686    1.1552407   439061 
 1553000   0.76970118   -4.4723081   -4.4723081    -3.317759  0.016664879   -4.4723081    1.1545491   439061 
 1554000   0.77036764   -4.4721853   -4.4721853   -3.3166365  0.020021076   -4.4721853    1.1555488   439061 
 1555000   0.77125058    -4.473951    -4.473951   -3.3170777  0.018778655    -4.473951    1.1568732   439061 
 1556000    0.7707457   -4.4724535   -4.4724535   -3.3163376  0.023785469   -4.4724535    1.1561159   439061 
 1557000   0.77042113   -4.4727935   -4.4727935   -3.3171644   0.02033992   -4.4727935    1.1556291   439061 
 1558000   0.77187264   -4.4748666   -4.4748666   -3.3170602  0.011459563   -4.4748666    1.1578063   439061 
 1559000   0.76970487   -4.4734838   -4.4734838   -3.3189291  0.011125152   -4.4734838    1.1545547   439061 
 1560000   0.77006636   -4.4744838   -4.4744838   -3.3193869   0.01033992   -4.4744838    1.1550969   439061 
 1561000   0.77043493   -4.4743481   -4.4743481   -3.3186983 0.0092624896   -4.4743481    1.1556498   439061 
 1562000   0.76984743   -4.4734585   -4.4734585     -3.31869 0.0079801253   -4.4734585    1.1547685   439061 
 1563000   0.77102649    -4.474693    -4.474693   -3.3181559  0.011105659    -4.474693    1.1565371   439061 
 1564000   0.77121252   -4.4748119   -4.4748119   -3.3179958  0.013984282   -4.4748119    1.1568161   439061 
 1565000   0.77052426   -4.4744188   -4.4744188    -3.318635  0.013622824   -4.4744188    1.1557838   439061 
 1566000   0.77002754   -4.4750393   -4.4750393   -3.3200006  0.019190597   -4.4750393    1.1550387   439061 
 1567000   0.77037084   -4.4756188   -4.4756188   -3.3200651  0.014229171   -4.4756188    1.1555536   439061 
 1568000   0.76988758   -4.4753957   -4.4753957    -3.320567  0.019181724   -4.4753957    1.1548287   439061 
 1569000   0.76997458   -4.4761735   -4.4761735   -3.3212142  0.016656108   -4.4761735    1.1549592   439061 
 1570000   0.77172234   -4.4790419   -4.4790419    -3.321461  0.012464041   -4.4790419    1.1575809   439061 
 1571000   0.77044023    -4.477136    -4.477136   -3.3214783  0.021112962    -4.477136    1.1556577   439061 
 1572000   0.77006553   -4.4763196   -4.4763196   -3.3212239  0.015789745   -4.4763196    1.1550957   439061 
 1573000   0.77084263   -4.4770087   -4.4770087   -3.3207474  0.013438653   -4.4770087    1.1562613   439061 
 1574000   0.76948058   -4.4758178   -4.4758178   -3.3215995  0.020220551   -4.4758178    1.1542182   439061 
 1575000   0.77041317   -4.4771474   -4.4771474   -3.3215303  0.015564663   -4.4771474    1.1556171   439061 
 1576000   0.77037063   -4.4778262   -4.4778262   -3.3222729  0.011548392   -4.4778262    1.1555533   439061 
 1577000   0.76914307   -4.4761785   -4.4761785   -3.3224665   0.01853775   -4.4761785     1.153712   439061 
 1578000   0.76817583   -4.4755449   -4.4755449   -3.3232838  0.015286003   -4.4755449    1.1522611   439061 
 1579000   0.76973994   -4.4785023   -4.4785023   -3.3238951  0.010653228   -4.4785023    1.1546073   439061 
 1580000   0.76934157   -4.4780063   -4.4780063   -3.3239966   0.01462078   -4.4780063    1.1540097   439061 
 1581000    0.7708486   -4.4807497   -4.4807497   -3.3244794  0.010063303   -4.4807497    1.1562703   439061 
 1582000   0.76946744   -4.4779169   -4.4779169   -3.3237183  0.017834895   -4.4779169    1.1541985   439061 
 1583000   0.77090714   -4.4790783   -4.4790783   -3.3227202  0.020595476   -4.4790783    1.1563581   439061 
 1584000   0.77137519   -4.4803273   -4.4803273   -3.3232671  0.011146428   -4.4803273    1.1570601   439061 
 1585000   0.76892918   -4.4777195   -4.4777195   -3.3243283  0.016352165   -4.4777195    1.1533911   439061 
 1586000    0.7696208   -4.4798741   -4.4798741   -3.3254455   0.01197155   -4.4798741    1.1544286   439061 
 1587000   0.76859302   -4.4785415   -4.4785415   -3.3256546  0.015751988   -4.4785415    1.1528869   439061 
 1588000   0.76966848   -4.4809433   -4.4809433   -3.3264432 0.0090705037   -4.4809433    1.1545001   439061 
 1589000   0.77003091   -4.4801386   -4.4801386   -3.3250948  0.011215186   -4.4801386    1.1550437   439061 
 1590000   0.76725204   -4.4768811   -4.4768811   -3.3260057  0.013977418   -4.4768811    1.1508754   439061 
 1591000   0.76776705   -4.4784135   -4.4784135   -3.3267656   0.01108278   -4.4784135     1.151648   439061 
 1592000    0.7698788   -4.4800007   -4.4800007   -3.3251852  0.015211096   -4.4800007    1.1548156   439061 
 1593000   0.76957225   -4.4784091   -4.4784091   -3.3240533   0.01517469   -4.4784091    1.1543557   439061 
 1594000   0.76999996   -4.4785835   -4.4785835   -3.3235862  0.019125162   -4.4785835    1.1549973   439061 
 1595000   0.76926603   -4.4787277   -4.4787277   -3.3248312  0.019560958   -4.4787277    1.1538964   439061 
 1596000   0.76894656   -4.4795339   -4.4795339   -3.3261166   0.01584198   -4.4795339    1.1534172   439061 
 1597000   0.76860475   -4.4799248   -4.4799248   -3.3270203   0.01499212   -4.4799248    1.1529045   439061 
 1598000   0.76880612   -4.4803354   -4.4803354   -3.3271288  0.012857813   -4.4803354    1.1532065   439061 
 1599000   0.76805162    -4.480382    -4.480382   -3.3283072  0.013258904    -4.480382    1.1520748   439061 
 1600000   0.76810112   -4.4792227   -4.4792227   -3.3270736   0.01532188   -4.4792227    1.1521491   439061 
 1601000   0.76762138   -4.4808099   -4.4808099   -3.3293805  0.015023713   -4.4808099    1.1514294   439061 
 1602000   0.76899409   -4.4829429   -4.4829429   -3.3294544  0.013977318   -4.4829429    1.1534885   439061 
 1603000   0.76867221   -4.4812832   -4.4812832   -3.3282775  0.013802959   -4.4812832    1.1530057   439061 
 1604000    0.7696016   -4.4840163   -4.4840163   -3.3296165  0.016717211   -4.4840163    1.1543998   439061 
 1605000   0.76908937   -4.4827304   -4.4827304    -3.329099  0.017004245   -4.4827304    1.1536314   439061 
 1606000   0.76811099   -4.4821826   -4.4821826   -3.3300187  0.018356651   -4.4821826    1.1521639   439061 
 1607000   0.76802341    -4.482634    -4.482634   -3.3306015  0.015827119    -4.482634    1.1520325   439061 
 1608000   0.76882691   -4.4840552   -4.4840552   -3.3308174 0.0078194569   -4.4840552    1.1532377   439061 
 1609000    0.7689327   -4.4849361   -4.4849361   -3.3315397  0.011061268   -4.4849361    1.1533964   439061 
 1610000   0.76857174   -4.4844784   -4.4844784   -3.3316234  0.011645565   -4.4844784     1.152855   439061 
 1611000   0.76799014   -4.4835248   -4.4835248   -3.3315422  0.017185673   -4.4835248    1.1519826   439061 
 1612000   0.76809374   -4.4837879   -4.4837879   -3.3316499  0.017101776   -4.4837879     1.152138   439061 
 1613000   0.76830975   -4.4842614   -4.4842614   -3.3317994  0.016201254   -4.4842614     1.152462   439061 
 1614000   0.76874408   -4.4857723   -4.4857723   -3.3326588 0.0097731632   -4.4857723    1.1531135   439061 
 1615000   0.76758674   -4.4855539   -4.4855539   -3.3341764  0.011648724   -4.4855539    1.1513775   439061 
 1616000   0.76922206   -4.4862817   -4.4862817   -3.3324512  0.017125661   -4.4862817    1.1538305   439061 
 1617000    0.7687247   -4.4855087   -4.4855087   -3.3324242  0.013510774   -4.4855087    1.1530844   439061 
 1618000   0.76934481   -4.4860916   -4.4860916    -3.332077  0.014902601   -4.4860916    1.1540146   439061 
 1619000   0.76873555   -4.4853639   -4.4853639   -3.3322632  0.015520331   -4.4853639    1.1531007   439061 
 1620000   0.76668479   -4.4827883   -4.4827883   -3.3327638  0.014626748   -4.4827883    1.1500246   439061 
 1621000   0.76901981   -4.4863212   -4.4863212   -3.3327942  0.013053767   -4.4863212    1.1535271   439061 
 1622000   0.76739476   -4.4844152   -4.4844152   -3.3333256  0.019696865   -4.4844152    1.1510895   439061 
 1623000   0.76794467   -4.4854091   -4.4854091   -3.3334948 0.0092381728   -4.4854091    1.1519144   439061 
 1624000   0.76770539   -4.4838818   -4.4838818   -3.3323263  0.015456525   -4.4838818    1.1515555   439061 
 1625000   0.76895268   -4.4853172   -4.4853172   -3.3318908  0.013143609   -4.4853172    1.1534264   439061 
 1626000   0.76783013   -4.4851093   -4.4851093   -3.3333667  0.010578149   -4.4851093    1.1517426   439061 
 1627000   0.76649117   -4.4829542   -4.4829542   -3.3332201  0.017616835   -4.4829542    1.1497341   439061 
 1628000   0.76679839   -4.4852981   -4.4852981   -3.3351031 0.0064266029   -4.4852981     1.150195   439061 
 1629000   0.76711033   -4.4856765   -4.4856765   -3.3350137 0.0094240777   -4.4856765    1.1506629   439061 
 1630000   0.76672884   -4.4844038   -4.4844038   -3.3343131  0.012203006   -4.4844038    1.1500906   439061 
 1631000   0.76818084   -4.4875319   -4.4875319   -3.3352633  0.011268519   -4.4875319    1.1522686   439061 
 1632000   0.76877156   -4.4882526   -4.4882526   -3.3350979  0.011163405   -4.4882526    1.1531547   439061 
 1633000   0.76722546   -4.4864884   -4.4864884   -3.3356528  0.019342582   -4.4864884    1.1508356   439061 
 1634000   0.76851558   -4.4879559   -4.4879559   -3.3351851  0.010936159   -4.4879559    1.1527708   439061 
 1635000    0.7679238   -4.4874978   -4.4874978   -3.3356147  0.020348181   -4.4874978    1.1518831   439061 
 1636000   0.76839812   -4.4884669   -4.4884669   -3.3358724  0.020440748   -4.4884669    1.1525946   439061 
 1637000   0.76832391   -4.4882959   -4.4882959   -3.3358126   0.02095253   -4.4882959    1.1524832   439061 
 1638000   0.76771478   -4.4875217   -4.4875217   -3.3359521  0.012394821   -4.4875217    1.1515695   439061 
 1639000   0.76703804   -4.4867466   -4.4867466   -3.3361921  0.019499119   -4.4867466    1.1505544   439061 
 1640000   0.76620755   -4.4881206   -4.4881206   -3.3388119  0.012764568   -4.4881206    1.1493087   439061 
 1641000   0.76656639   -4.4879996   -4.4879996   -3.3381526 0.0096344525   -4.4879996     1.149847   439061 
 1642000   0.76710604   -4.4883775   -4.4883775   -3.3377211   0.01248593   -4.4883775    1.1506564   439061 
 1643000   0.76774282   -4.4893413   -4.4893413   -3.3377297   0.01182561   -4.4893413    1.1516116   439061 
 1644000   0.76621759   -4.4879879   -4.4879879   -3.3386641  0.014055255   -4.4879879    1.1493238   439061 
 1645000   0.76798678   -4.4912139   -4.4912139   -3.3392363 0.0082927938   -4.4912139    1.1519775   439061 
 1646000   0.76676535   -4.4893904   -4.4893904    -3.339245  0.013681385   -4.4893904    1.1501454   439061 
 1647000   0.76659671    -4.488613    -4.488613   -3.3387205  0.017877297    -4.488613    1.1498924   439061 
 1648000   0.76777483   -4.4911638   -4.4911638   -3.3395041  0.015320012   -4.4911638    1.1516596   439061 
 1649000   0.76796006    -4.491524    -4.491524   -3.3395866  0.015994266    -4.491524    1.1519375   439061 
 1650000   0.76742998   -4.4919287   -4.4919287   -3.3407863  0.012783565   -4.4919287    1.1511424   439061 
 1651000   0.76869608    -4.493982    -4.493982   -3.3409405  0.015566344    -4.493982    1.1530415   439061 
 1652000   0.76859267   -4.4938028   -4.4938028   -3.3409164  0.014072046   -4.4938028    1.1528864   439061 
 1653000   0.76711843   -4.4914933   -4.4914933   -3.3408182  0.018387219   -4.4914933     1.150675   439061 
 1654000     0.766743   -4.4919192   -4.4919192   -3.3418073  0.020022285   -4.4919192    1.1501119   439061 
 1655000   0.76734118   -4.4922376   -4.4922376   -3.3412285  0.014881834   -4.4922376    1.1510092   439061 
 1656000   0.76679545   -4.4925333   -4.4925333   -3.3423427 0.0082113234   -4.4925333    1.1501905   439061 
 1657000   0.76578985   -4.4911674   -4.4911674   -3.3424852  0.011734212   -4.4911674    1.1486822   439061 
 1658000   0.76618016   -4.4929757   -4.4929757   -3.3437081  0.013094895   -4.4929757    1.1492676   439061 
 1659000   0.76620912   -4.4917258   -4.4917258   -3.3424148  0.010204329   -4.4917258    1.1493111   439061 
 1660000   0.76679717   -4.4930487   -4.4930487   -3.3428556  0.012769047   -4.4930487    1.1501931   439061 
 1661000    0.7680982   -4.4941903   -4.4941903   -3.3420456  0.012193596   -4.4941903    1.1521447   439061 
 1662000   0.76878471   -4.4946131   -4.4946131   -3.3414387  0.013302777   -4.4946131    1.1531744   439061 
 1663000   0.76750308    -4.492138    -4.492138    -3.340886  0.012931271    -4.492138     1.151252   439061 
 1664000   0.76764422   -4.4935828   -4.4935828   -3.3421191  0.015053416   -4.4935828    1.1514637   439061 
 1665000   0.76713338   -4.4938296   -4.4938296   -3.3431322  0.015921652   -4.4938296    1.1506974   439061 
 1666000   0.76616926    -4.491895    -4.491895   -3.3426438  0.020214945    -4.491895    1.1492513   439061 
 1667000   0.76695463   -4.4941532   -4.4941532   -3.3437239  0.014479849   -4.4941532    1.1504293   439061 
 1668000   0.76721828   -4.4952744   -4.4952744   -3.3444496 0.0089225139   -4.4952744    1.1508248   439061 
 1669000   0.76635294    -4.493593    -4.493593   -3.3440662  0.011485733    -4.493593    1.1495268   439061 
 1670000   0.76731752   -4.4948835   -4.4948835   -3.3439098  0.010887428   -4.4948835    1.1509737   439061 
 1671000   0.76629877   -4.4944991   -4.4944991   -3.3450536  0.012870524   -4.4944991    1.1494455   439061 
 1672000   0.76623267   -4.4946855   -4.4946855   -3.3453391    0.0147783   -4.4946855    1.1493464   439061 
 1673000   0.76640623    -4.494428    -4.494428   -3.3448213  0.010024446    -4.494428    1.1496067   439061 
 1674000   0.76643583   -4.4935925   -4.4935925   -3.3439413  0.016038144   -4.4935925    1.1496511   439061 
 1675000   0.76708843   -4.4958232   -4.4958232   -3.3451932 0.0099926155   -4.4958232      1.15063   439061 
 1676000   0.76747798   -4.4960933   -4.4960933    -3.344879  0.011373072   -4.4960933    1.1512144   439061 
 1677000   0.76646497   -4.4950224   -4.4950224   -3.3453275  0.012607414   -4.4950224    1.1496948   439061 
 1678000   0.76679285   -4.4964071   -4.4964071   -3.3462204  0.012565622   -4.4964071    1.1501867   439061 
 1679000   0.76630526   -4.4963206   -4.4963206   -3.3468653  0.015029838   -4.4963206    1.1494553   439061 
 1680000   0.76732506   -4.4973453   -4.4973453   -3.3463603  0.012675279   -4.4973453     1.150985   439061 
 1681000   0.76648886   -4.4947705   -4.4947705   -3.3450399  0.014012901   -4.4947705    1.1497307   439061 
 1682000   0.76713017   -4.4963495   -4.4963495   -3.3456569  0.017255983   -4.4963495    1.1506926   439061 
 1683000   0.76625928   -4.4952049   -4.4952049   -3.3458186  0.015817665   -4.4952049    1.1493863   439061 
 1684000   0.76604998   -4.4959158   -4.4959158   -3.3468435  0.016446643   -4.4959158    1.1490724   439061 
 1685000   0.76534276    -4.495741    -4.495741   -3.3477295  0.012270336    -4.495741    1.1480115   439061 
 1686000   0.76355612   -4.4938476   -4.4938476   -3.3485161  0.014414372   -4.4938476    1.1453316   439061 
 1687000   0.76538492   -4.4972984   -4.4972984   -3.3492236 0.0098033932   -4.4972984    1.1480748   439061 
 1688000   0.76617663   -4.4979775   -4.4979775   -3.3487152  0.008601453   -4.4979775    1.1492623   439061 
 1689000   0.76580996   -4.4971919   -4.4971919   -3.3484796  0.007754576   -4.4971919    1.1487123   439061 
 1690000   0.76431727   -4.4959597   -4.4959597   -3.3494864  0.016275216   -4.4959597    1.1464733   439061 
 1691000   0.76651317   -4.4982493   -4.4982493   -3.3484821  0.016573042   -4.4982493    1.1497671   439061 
 1692000   0.76632576   -4.4981524   -4.4981524   -3.3486664  0.014144081   -4.4981524     1.149486   439061 
 1693000   0.76590634   -4.4973803   -4.4973803   -3.3485235  0.020083521   -4.4973803    1.1488569   439061 
 1694000   0.76666728   -4.4994793   -4.4994793    -3.349481  0.017268442   -4.4994793    1.1499983   439061 
 1695000   0.76649593   -4.4996289   -4.4996289   -3.3498877  0.016386873   -4.4996289    1.1497413   439061 
 1696000   0.76680214   -4.5006128   -4.5006128   -3.3504122 0.0090391523   -4.5006128    1.1502006   439061 
 1697000   0.76614668   -4.5004683   -4.5004683   -3.3512509  0.010949663   -4.5004683    1.1492174   439061 
 1698000    0.7656945   -4.4998477   -4.4998477   -3.3513085 0.0098259925   -4.4998477    1.1485391   439061 
 1699000   0.76480337   -4.4985997   -4.4985997   -3.3513973  0.012026264   -4.4985997    1.1472024   439061 
 1700000   0.76437035   -4.4982811   -4.4982811   -3.3517282 0.0095327981   -4.4982811    1.1465529   439061 
 1701000   0.76474998   -4.4995853   -4.4995853   -3.3524629 0.0079614046   -4.4995853    1.1471224   439061 
 1702000   0.76390262   -4.4985277   -4.4985277   -3.3526763 0.0098807391   -4.4985277    1.1458513   439061 
 1703000   0.76557124   -4.5008626   -4.5008626   -3.3525084 0.0073667412   -4.5008626    1.1483542   439061 
 1704000   0.76577307   -4.5014828   -4.5014828   -3.3528258  0.010382566   -4.5014828     1.148657   439061 
 1705000   0.76433856   -4.4995906   -4.4995906   -3.3530854  0.014190136   -4.4995906    1.1465052   439061 
 1706000   0.76587573   -4.5015857   -4.5015857   -3.3527747  0.014196364   -4.5015857     1.148811   439061 
 1707000   0.76572956   -4.5023929   -4.5023929   -3.3538012  0.013243183   -4.5023929    1.1485917   439061 
 1708000   0.76490885   -4.5027343   -4.5027343   -3.3553737  0.010264387   -4.5027343    1.1473607   439061 
 1709000   0.76500525   -4.5020421   -4.5020421   -3.3545369  0.016312203   -4.5020421    1.1475053   439061 
 1710000    0.7660368   -4.5037718   -4.5037718   -3.3547192  0.017174621   -4.5037718    1.1490526   439061 
 1711000   0.76545699   -4.5020861   -4.5020861   -3.3539032  0.020299802   -4.5020861    1.1481829   439061 
 1712000   0.76602768   -4.5032417   -4.5032417   -3.3542028  0.014493093   -4.5032417    1.1490389   439061 
 1713000   0.76423699   -4.5012112   -4.5012112   -3.3548583  0.018564899   -4.5012112    1.1463529   439061 
 1714000   0.76458004   -4.5015211   -4.5015211   -3.3546536   0.01255554   -4.5015211    1.1468674   439061 
 1715000   0.76518628   -4.5026681   -4.5026681   -3.3548913  0.014572496   -4.5026681    1.1477768   439061 
 1716000   0.76593062    -4.503939    -4.503939   -3.3550456 0.0069544069    -4.503939    1.1488933   439061 
 1717000   0.76506966    -4.503149    -4.503149   -3.3555471  0.010474774    -4.503149    1.1476019   439061 
 1718000   0.76446889   -4.5026025   -4.5026025   -3.3559018 0.0071533851   -4.5026025    1.1467007   439061 
 1719000   0.76371745    -4.501061    -4.501061   -3.3554874 0.0074337449    -4.501061    1.1455736   439061 
 1720000   0.76471466   -4.5025832   -4.5025832   -3.3555139 0.0060560279   -4.5025832    1.1470694   439061 
 1721000   0.76457522   -4.5014416   -4.5014416   -3.3545814  0.011950255   -4.5014416    1.1468602   439061 
 1722000   0.76436782   -4.5018942   -4.5018942   -3.3553451  0.011248191   -4.5018942    1.1465491   439061 
 1723000    0.7650088   -4.5028232   -4.5028232   -3.3553126  0.012629953   -4.5028232    1.1475106   439061 
 1724000   0.76590992   -4.5046062   -4.5046062   -3.3557439 0.0080977237   -4.5046062    1.1488623   439061 
 1725000   0.76479195   -4.5036618   -4.5036618   -3.3564765  0.010916742   -4.5036618    1.1471853   439061 
 1726000   0.76483734   -4.5029921   -4.5029921   -3.3557388  0.014799562   -4.5029921    1.1472534   439061 
 1727000   0.76440344   -4.5036681   -4.5036681   -3.3570656  0.014748838   -4.5036681    1.1466025   439061 
 1728000   0.76513511   -4.5045873   -4.5045873   -3.3568873  0.012106558   -4.5045873       1.1477   439061 
 1729000   0.76520776   -4.5057428   -4.5057428   -3.3579338 0.0081203942   -4.5057428     1.147809   439061 
 1730000   0.76504238   -4.5045855   -4.5045855   -3.3570246  0.014761441   -4.5045855     1.147561   439061 
 1731000   0.76410136   -4.5046429   -4.5046429   -3.3584935  0.013437494   -4.5046429    1.1461494   439061 
 1732000   0.76428071    -4.505188    -4.505188   -3.3587695  0.012253105    -4.505188    1.1464185   439061 
 1733000   0.76352877   -4.5054622   -4.5054622   -3.3601716  0.010860052   -4.5054622    1.1452906   439061 
 1734000   0.76328064   -4.5062157   -4.5062157   -3.3612974  0.012650806   -4.5062157    1.1449184   439061 
 1735000   0.76379945   -4.5053945   -4.5053945   -3.3596979  0.015906096   -4.5053945    1.1456966   439061 
 1736000   0.76470411   -4.5064179   -4.5064179   -3.3593644  0.016575796   -4.5064179    1.1470536   439061 
 1737000   0.76402317   -4.5063015   -4.5063015   -3.3602693  0.017586443   -4.5063015    1.1460321   439061 
 1738000   0.76511309    -4.507277    -4.507277   -3.3596099  0.013036178    -4.507277     1.147667   439061 
 1739000   0.76433825   -4.5061348   -4.5061348   -3.3596301  0.011975883   -4.5061348    1.1465048   439061 
 1740000   0.76389528   -4.5065927   -4.5065927   -3.3607524  0.011812712   -4.5065927    1.1458403   439061 
 1741000   0.76346729   -4.5057887   -4.5057887   -3.3605904  0.012680472   -4.5057887    1.1451983   439061 
 1742000   0.76204186   -4.5051335   -4.5051335   -3.3620733  0.010832619   -4.5051335    1.1430602   439061 
 1743000   0.76431777   -4.5079267   -4.5079267   -3.3614527 0.0067785843   -4.5079267     1.146474   439061 
 1744000   0.76410768    -4.506406    -4.506406   -3.3602471  0.013249129    -4.506406    1.1461589   439061 
 1745000    0.7639593   -4.5061819   -4.5061819   -3.3602456  0.015516449   -4.5061819    1.1459363   439061 
 1746000   0.76445816   -4.5078167   -4.5078167   -3.3611321  0.011105714   -4.5078167    1.1466846   439061 
 1747000   0.76446617    -4.509126    -4.509126   -3.3624293  0.015003462    -4.509126    1.1466966   439061 
 1748000   0.76394992   -4.5085392   -4.5085392   -3.3626169  0.014856986   -4.5085392    1.1459223   439061 
 1749000   0.76334983   -4.5072841   -4.5072841   -3.3622619 0.0099614683   -4.5072841    1.1450221   439061 
 1750000   0.76266854   -4.5076257   -4.5076257   -3.3636255  0.011892993   -4.5076257    1.1440002   439061 
 1751000   0.76450723   -4.5104381   -4.5104381   -3.3636799 0.0073430088   -4.5104381    1.1467582   439061 
 1752000   0.76347848    -4.509292    -4.509292   -3.3640769  0.015120182    -4.509292    1.1452151   439061 
 1753000    0.7641384   -4.5114944   -4.5114944   -3.3652894  0.012785586   -4.5114944     1.146205   439061 
 1754000   0.76366084   -4.5108117   -4.5108117    -3.365323   0.01843439   -4.5108117    1.1454887   439061 
 1755000   0.76425771   -4.5124957   -4.5124957   -3.3661118  0.012967916   -4.5124957     1.146384   439061 
 1756000     0.765222   -4.5131463   -4.5131463   -3.3653159  0.012652593   -4.5131463    1.1478304   439061 
 1757000   0.76441358   -4.5121689   -4.5121689   -3.3655511  0.019546211   -4.5121689    1.1466178   439061 
 1758000    0.7645729   -4.5142009   -4.5142009   -3.3673442  0.012623275   -4.5142009    1.1468567   439061 
 1759000   0.76533645   -4.5140624   -4.5140624   -3.3660603  0.013542883   -4.5140624    1.1480021   439061 
 1760000   0.76382587   -4.5134084   -4.5134084   -3.3676721 0.0092767539   -4.5134084    1.1457362   439061 
 1761000   0.76343782   -4.5127878   -4.5127878   -3.3676337  0.013962675   -4.5127878    1.1451541   439061 
 1762000   0.76355911   -4.5113776   -4.5113776   -3.3660416  0.012039737   -4.5113776    1.1453361   439061 
 1763000   0.76340132   -4.5113034   -4.5113034   -3.3662041   0.01525391   -4.5113034    1.1450994   439061 
 1764000   0.76293548   -4.5110479   -4.5110479   -3.3666473   0.01260199   -4.5110479    1.1444006   439061 
 1765000   0.76372581   -4.5117552   -4.5117552   -3.3661691 0.0087150229   -4.5117552    1.1455861   439061 
 1766000   0.76348264   -4.5108807   -4.5108807   -3.3656594 0.0061384458   -4.5108807    1.1452214   439061 
 1767000   0.76284081   -4.5109666   -4.5109666    -3.366708 0.0092166437   -4.5109666    1.1442586   439061 
 1768000   0.76305259   -4.5108453   -4.5108453    -3.366269  0.010466379   -4.5108453    1.1445763   439061 
 1769000   0.76424151    -4.512269    -4.512269   -3.3659093  0.013669713    -4.512269    1.1463596   439061 
 1770000   0.76354744   -4.5111134   -4.5111134   -3.3657949  0.013952482   -4.5111134    1.1453185   439061 
 1771000   0.76385013   -4.5106123   -4.5106123   -3.3648397  0.014480499   -4.5106123    1.1457726   439061 
 1772000   0.76492348   -4.5117028   -4.5117028   -3.3643202  0.014937924   -4.5117028    1.1473826   439061 
 1773000   0.76343233   -4.5119117   -4.5119117   -3.3667658  0.017898007   -4.5119117    1.1451459   439061 
 1774000   0.76280687   -4.5116267   -4.5116267    -3.367419  0.012981489   -4.5116267    1.1442077   439061 
 1775000   0.76369031   -4.5125726   -4.5125726   -3.3670397  0.011748485   -4.5125726    1.1455329   439061 
 1776000   0.76257568   -4.5115774   -4.5115774   -3.3677164 0.0076871325   -4.5115774    1.1438609   439061 
 1777000   0.76371287   -4.5133377   -4.5133377    -3.367771 0.0085959301   -4.5133377    1.1455667   439061 
 1778000   0.76259201   -4.5111733   -4.5111733   -3.3672879  0.012526022   -4.5111733    1.1438854   439061 
 1779000   0.76340081   -4.5126842   -4.5126842   -3.3675856 0.0098048751   -4.5126842    1.1450986   439061 
 1780000   0.76296862   -4.5129562   -4.5129562   -3.3685058 0.0098214701   -4.5129562    1.1444503   439061 
 1781000   0.76219554   -4.5121935   -4.5121935   -3.3689028  0.012638403   -4.5121935    1.1432907   439061 
 1782000   0.76154643   -4.5115976   -4.5115976   -3.3692806  0.010003841   -4.5115976     1.142317   439061 
 1783000   0.76216558   -4.5134114   -4.5134114   -3.3701657  0.011558487   -4.5134114    1.1432458   439061 
 1784000    0.7622144    -4.512643    -4.512643    -3.369324  0.014130847    -4.512643     1.143319   439061 
 1785000   0.76393763   -4.5157956   -4.5157956   -3.3698918  0.011754505   -4.5157956    1.1459038   439061 
 1786000   0.76274443   -4.5141006   -4.5141006   -3.3699866  0.013286035   -4.5141006     1.144114   439061 
 1787000   0.76394044   -4.5163227   -4.5163227   -3.3704146  0.012812917   -4.5163227     1.145908   439061 
 1788000   0.76371516   -4.5172089   -4.5172089   -3.3716388  0.012022583   -4.5172089    1.1455701   439061 
 1789000   0.76294199   -4.5162926   -4.5162926   -3.3718822  0.016953535   -4.5162926    1.1444104   439061 
 1790000   0.76451468   -4.5184807   -4.5184807   -3.3717113  0.016829575   -4.5184807    1.1467694   439061 
 1791000     0.763564   -4.5168776   -4.5168776   -3.3715342   0.01770275   -4.5168776    1.1453434   439061 
 1792000   0.76502873   -4.5183922   -4.5183922   -3.3708517   0.01045852   -4.5183922    1.1475405   439061 
 1793000   0.76290914   -4.5167257   -4.5167257   -3.3723646  0.013793287   -4.5167257    1.1443611   439061 
 1794000   0.76292861   -4.5171609   -4.5171609   -3.3727706 0.0096874914   -4.5171609    1.1443903   439061 
 1795000   0.76102881    -4.514605    -4.514605   -3.3730644  0.019144594    -4.514605    1.1415406   439061 
 1796000   0.76149731   -4.5152763   -4.5152763    -3.373033 0.0099181844   -4.5152763    1.1422434   439061 
 1797000   0.76093365   -4.5152127   -4.5152127   -3.3738148  0.011166819   -4.5152127    1.1413979   439061 
 1798000   0.76265583   -4.5169347   -4.5169347   -3.3729536 0.0085138108   -4.5169347    1.1439811   439061 
 1799000   0.76115315   -4.5148793   -4.5148793   -3.3731522  0.013808422   -4.5148793    1.1417271   439061 
 1800000   0.76158751   -4.5150602   -4.5150602   -3.3726815  0.016307069   -4.5150602    1.1423787   439061 
 1801000   0.76230198   -4.5159079   -4.5159079   -3.3724576   0.01603107   -4.5159079    1.1434504   439061 
 1802000   0.76395543   -4.5187226   -4.5187226   -3.3727921 0.0074331337   -4.5187226    1.1459305   439061 
 1803000   0.76279239   -4.5172066   -4.5172066   -3.3730206  0.013736862   -4.5172066     1.144186   439061 
 1804000   0.76228314   -4.5177144   -4.5177144   -3.3742923  0.015027064   -4.5177144    1.1434221   439061 
 1805000   0.76344145   -4.5180618   -4.5180618   -3.3729022  0.016662306   -4.5180618    1.1451596   439061 
 1806000   0.76331906   -4.5172095   -4.5172095   -3.3722335  0.017998295   -4.5172095     1.144976   439061 
 1807000   0.76471147    -4.519131    -4.519131   -3.3720664  0.013305427    -4.519131    1.1470646   439061 
 1808000   0.76296169   -4.5173873   -4.5173873   -3.3729474  0.014703092   -4.5173873    1.1444399   439061 
 1809000   0.76306379    -4.517944    -4.517944   -3.3733509 0.0095320234    -4.517944    1.1445931   439061 
 1810000   0.76104268   -4.5157073   -4.5157073   -3.3741458  0.011639214   -4.5157073    1.1415614   439061 
 1811000   0.76101565   -4.5164704   -4.5164704   -3.3749496 0.0082274797   -4.5164704    1.1415209   439061 
 1812000   0.76129833   -4.5166607   -4.5166607   -3.3747158  0.012452331   -4.5166607    1.1419449   439061 
 1813000   0.76233238   -4.5177131   -4.5177131   -3.3742171  0.011299489   -4.5177131     1.143496   439061 
 1814000   0.76262506   -4.5182763   -4.5182763   -3.3743413  0.010112448   -4.5182763     1.143935   439061 
 1815000   0.76207204   -4.5175016   -4.5175016   -3.3743962  0.012220502   -4.5175016    1.1431055   439061 
 1816000   0.76352754   -4.5196929   -4.5196929   -3.3744042 0.0074204613   -4.5196929    1.1452887   439061 
 1817000   0.76262138   -4.5185017   -4.5185017   -3.3745722  0.017720763   -4.5185017    1.1439295   439061 
 1818000   0.76290431   -4.5183511   -4.5183511   -3.3739973  0.019371053   -4.5183511    1.1443539   439061 
 1819000   0.76285314   -4.5191906   -4.5191906   -3.3749135    0.0129299   -4.5191906    1.1442771   439061 
 1820000   0.76122111   -4.5178614   -4.5178614   -3.3760323  0.011591869   -4.5178614    1.1418291   439061 
 1821000   0.76187717   -4.5189334   -4.5189334   -3.3761203  0.011842135   -4.5189334    1.1428132   439061 
 1822000   0.76142144   -4.5187271   -4.5187271   -3.3765976 0.0086354522   -4.5187271    1.1421296   439061 
 1823000   0.76236912    -4.520065    -4.520065   -3.3765139  0.015272976    -4.520065    1.1435511   439061 
 1824000   0.76233413   -4.5203965   -4.5203965   -3.3768979  0.012442361   -4.5203965    1.1434986   439061 
 1825000   0.76132868   -4.5190997   -4.5190997   -3.3771093 0.0063817084   -4.5190997    1.1419904   439061 
 1826000   0.76023015   -4.5177487   -4.5177487    -3.377406  0.012506097   -4.5177487    1.1403426   439061 
 1827000   0.76097663    -4.519054    -4.519054   -3.3775917  0.012455092    -4.519054    1.1414623   439061 
 1828000   0.76108822   -4.5188911   -4.5188911   -3.3772613  0.013698502   -4.5188911    1.1416297   439061 
 1829000   0.76217823   -4.5200033   -4.5200033   -3.3767385  0.015442702   -4.5200033    1.1432647   439061 
 1830000   0.76421852   -4.5227265   -4.5227265   -3.3764013  0.013321941   -4.5227265    1.1463252   439061 
 1831000   0.76306678   -4.5216992   -4.5216992   -3.3771017  0.016085111   -4.5216992    1.1445976   439061 
 1832000   0.76227023   -4.5206525   -4.5206525   -3.3772497  0.018070164   -4.5206525    1.1434027   439061 
 1833000    0.7622438   -4.5206779   -4.5206779   -3.3773148  0.013466447   -4.5206779    1.1433631   439061 
 1834000   0.76232279   -4.5198457   -4.5198457   -3.3763641  0.016674138   -4.5198457    1.1434816   439061 
 1835000   0.76291811   -4.5204849   -4.5204849   -3.3761104  0.010800843   -4.5204849    1.1443746   439061 
 1836000   0.76170425   -4.5192124   -4.5192124   -3.3766586  0.015039383   -4.5192124    1.1425538   439061 
 1837000   0.76210112   -4.5188934   -4.5188934   -3.3757443  0.017730339   -4.5188934    1.1431491   439061 
 1838000   0.76184262   -4.5193692   -4.5193692   -3.3766079 0.0055002114   -4.5193692    1.1427613   439061 
 1839000   0.76235599   -4.5190657   -4.5190657   -3.3755343 0.0084329604   -4.5190657    1.1435314   439061 
 1840000    0.7601183   -4.5171434   -4.5171434   -3.3769686 0.0054874578   -4.5171434    1.1401749   439061 
 1841000   0.76191504   -4.5188999   -4.5188999     -3.37603 0.0080635178   -4.5188999      1.14287   439061 
 1842000   0.76114582   -4.5184521   -4.5184521    -3.376736  0.015021485   -4.5184521    1.1417161   439061 
 1843000    0.7623627   -4.5201259   -4.5201259   -3.3765845 0.0043051875   -4.5201259    1.1435414   439061 
 1844000   0.76138587   -4.5186878   -4.5186878   -3.3766116  0.011503455   -4.5186878    1.1420762   439061 
 1845000   0.76224544   -4.5216348   -4.5216348   -3.3782692 0.0098589691   -4.5216348    1.1433656   439061 
 1846000   0.76235421   -4.5218838   -4.5218838   -3.3783551  0.012276725   -4.5218838    1.1435287   439061 
 1847000   0.76128506   -4.5202693   -4.5202693   -3.3783443  0.015429225   -4.5202693     1.141925   439061 
 1848000   0.76159458   -4.5220445   -4.5220445   -3.3796552   0.01169036   -4.5220445    1.1423893   439061 
 1849000   0.76207395   -4.5217675   -4.5217675   -3.3786592  0.011863512   -4.5217675    1.1431083   439061 
 1850000   0.76241335   -4.5238232   -4.5238232   -3.3802058  0.014137713   -4.5238232    1.1436174   439061 
 1851000   0.76307429    -4.525202    -4.525202   -3.3805932  0.016209629    -4.525202    1.1446088   439061 
 1852000    0.7630069   -4.5247146   -4.5247146   -3.3802069  0.016827844   -4.5247146    1.1445077   439061 
 1853000    0.7617892     -4.52344     -4.52344   -3.3807588  0.017011764     -4.52344    1.1426812   439061 
 1854000   0.76194404   -4.5244169   -4.5244169   -3.3815034  0.010396372   -4.5244169    1.1429135   439061 
 1855000   0.76267747   -4.5242966   -4.5242966    -3.380283  0.012372733   -4.5242966    1.1440136   439061 
 1856000   0.76310843    -4.525018    -4.525018    -3.380358 0.0082806953    -4.525018      1.14466   439061 
 1857000    0.7636336   -4.5264466   -4.5264466   -3.3809988  0.011122571   -4.5264466    1.1454478   439061 
 1858000   0.76050445   -4.5226764   -4.5226764   -3.3819224   0.01537242   -4.5226764    1.1407541   439061 
 1859000   0.76031223   -4.5211877   -4.5211877   -3.3807219  0.011622252   -4.5211877    1.1404658   439061 
 1860000   0.76065245   -4.5233097   -4.5233097   -3.3823337 0.0026580626   -4.5233097    1.1409761   439061 
 1861000   0.76087012   -4.5223723   -4.5223723   -3.3810697 0.0084364013   -4.5223723    1.1413026   439061 
 1862000   0.76019701   -4.5220049   -4.5220049    -3.381712    0.0125127   -4.5220049    1.1402929   439061 
 1863000   0.76191326    -4.524191    -4.524191   -3.3813237 0.0039152977    -4.524191    1.1428673   439061 
 1864000   0.76052912   -4.5213811   -4.5213811     -3.38059  0.015181732   -4.5213811    1.1407911   439061 
 1865000   0.76171742   -4.5233241   -4.5233241   -3.3807505  0.010209207   -4.5233241    1.1425735   439061 
 1866000   0.76266495   -4.5246356   -4.5246356   -3.3806408  0.010902529   -4.5246356    1.1439948   439061 
 1867000   0.76197282   -4.5225992   -4.5225992   -3.3796426   0.01930283   -4.5225992    1.1429566   439061 
 1868000   0.76215252    -4.525273    -4.525273   -3.3820469  0.017830169    -4.525273    1.1432262   439061 
 1869000   0.76129334    -4.523723    -4.523723   -3.3817856  0.013503214    -4.523723    1.1419374   439061 
 1870000    0.7626557   -4.5251188   -4.5251188   -3.3811379 0.0090790423   -4.5251188    1.1439809   439061 
 1871000   0.76187458   -4.5243264   -4.5243264   -3.3815171  0.012846789   -4.5243264    1.1428093   439061 
 1872000   0.76179477    -4.522888    -4.522888   -3.3801985  0.012580462    -4.522888    1.1426896   439061 
 1873000   0.76136265    -4.522422    -4.522422   -3.3803806  0.012885258    -4.522422    1.1420414   439061 
 1874000   0.76122437   -4.5220755   -4.5220755   -3.3802415   0.01522569   -4.5220755     1.141834   439061 
 1875000   0.76151971    -4.522611    -4.522611   -3.3803341 0.0093853992    -4.522611     1.142277   439061 
 1876000   0.76020142   -4.5216912   -4.5216912   -3.3813917  0.013816616   -4.5216912    1.1402995   439061 
 1877000   0.76176614   -4.5243511   -4.5243511   -3.3817045 0.0083099779   -4.5243511    1.1426466   439061 
 1878000   0.76050965   -4.5221897   -4.5221897   -3.3814278 0.0094416893   -4.5221897    1.1407619   439061 
 1879000   0.76042033   -4.5215969   -4.5215969    -3.380969  0.010622026   -4.5215969    1.1406279   439061 
 1880000   0.76135289   -4.5234097   -4.5234097   -3.3813829 0.0080792065   -4.5234097    1.1420267   439061 
 1881000   0.76201417   -4.5235421   -4.5235421   -3.3805235 0.0097457341   -4.5235421    1.1430187   439061 
 1882000   0.76032877   -4.5216437   -4.5216437   -3.3811531  0.012561917   -4.5216437    1.1404906   439061 
 1883000   0.76236213   -4.5253322   -4.5253322   -3.3817916 0.0098989645   -4.5253322    1.1435406   439061 
 1884000   0.76145747   -4.5242501   -4.5242501   -3.3820665  0.010156434   -4.5242501    1.1421836   439061 
 1885000   0.76215461   -4.5242427   -4.5242427   -3.3810134  0.014966227   -4.5242427    1.1432293   439061 
 1886000    0.7614746   -4.5252548   -4.5252548   -3.3830455  0.014151817   -4.5252548    1.1422093   439061 
 1887000   0.76222634   -4.5269124   -4.5269124   -3.3835755  0.013437412   -4.5269124    1.1433369   439061 
 1888000   0.76117638   -4.5259863   -4.5259863   -3.3842243  0.011776871   -4.5259863     1.141762   439061 
 1889000   0.76043845   -4.5230386   -4.5230386   -3.3823835   0.01692405   -4.5230386    1.1406551   439061 
 1890000   0.76116038   -4.5250646   -4.5250646   -3.3833267  0.017245188   -4.5250646     1.141738   439061 
 1891000   0.76179479   -4.5267721   -4.5267721   -3.3840825  0.011176607   -4.5267721    1.1426896   439061 
 1892000   0.76132051    -4.525968    -4.525968   -3.3839899  0.015723381    -4.525968    1.1419782   439061 
 1893000   0.76107132   -4.5251021   -4.5251021   -3.3834977  0.012373082   -4.5251021    1.1416044   439061 
 1894000    0.7612133   -4.5252314   -4.5252314    -3.383414 0.0091774267   -4.5252314    1.1418174   439061 
 1895000   0.76061536   -4.5258045   -4.5258045   -3.3848841 0.0080999344   -4.5258045    1.1409204   439061 
 1896000   0.76136072   -4.5260337   -4.5260337   -3.3839952 0.0099572631   -4.5260337    1.1420385   439061 
 1897000   0.76066003   -4.5255502   -4.5255502   -3.3845628  0.011226942   -4.5255502    1.1409874   439061 
 1898000   0.76174912    -4.526359    -4.526359    -3.383738  0.014543362    -4.526359    1.1426211   439061 
 1899000   0.76071754   -4.5251745   -4.5251745   -3.3841007  0.014551922   -4.5251745    1.1410737   439061 
 1900000   0.76200733   -4.5270473   -4.5270473   -3.3840389  0.010855418   -4.5270473    1.1430084   439061 
 1901000    0.7614337   -4.5270714   -4.5270714   -3.3849235  0.013775552   -4.5270714    1.1421479   439061 
 1902000   0.76034164   -4.5257252   -4.5257252   -3.3852153 0.0079428526   -4.5257252    1.1405099   439061 
 1903000   0.76020715   -4.5259616   -4.5259616   -3.3856535  0.013611997   -4.5259616    1.1403081   439061 
 1904000   0.76069945     -4.52814     -4.52814   -3.3870935 0.0079157942     -4.52814    1.1410466   439061 
 1905000    0.7599453   -4.5266996   -4.5266996   -3.3867843  0.014457573   -4.5266996    1.1399154   439061 
 1906000   0.76126533   -4.5284365   -4.5284365   -3.3865411 0.0084262944   -4.5284365    1.1418954   439061 
 1907000    0.7612758     -4.52827     -4.52827   -3.3863589  0.011454318     -4.52827    1.1419111   439061 
 1908000   0.76110358   -4.5277128   -4.5277128   -3.3860601  0.013120658   -4.5277128    1.1416528   439061 
 1909000    0.7618339   -4.5289221   -4.5289221   -3.3861738   0.01479067   -4.5289221    1.1427483   439061 
 1910000   0.76249425   -4.5302247   -4.5302247   -3.3864859  0.012227573   -4.5302247    1.1437388   439061 
 1911000    0.7622888   -4.5300378   -4.5300378   -3.3866072  0.012830543   -4.5300378    1.1434306   439061 
 1912000    0.7614581   -4.5279679   -4.5279679   -3.3857833  0.019179644   -4.5279679    1.1421845   439061 
 1913000   0.76013634   -4.5261369   -4.5261369   -3.3859349  0.011810157   -4.5261369    1.1402019   439061 
 1914000   0.75937062   -4.5263696   -4.5263696   -3.3873163 0.0097853251   -4.5263696    1.1390533   439061 
 1915000   0.76078319   -4.5286274   -4.5286274   -3.3874552 0.0061715051   -4.5286274    1.1411722   439061 
 1916000   0.75989678   -4.5278047   -4.5278047   -3.3879621 0.0077133079   -4.5278047    1.1398426   439061 
 1917000   0.75830852   -4.5263998   -4.5263998   -3.3889396 0.0079518161   -4.5263998    1.1374602   439061 
 1918000   0.75924678   -4.5275158   -4.5275158   -3.3886482 0.0099365476   -4.5275158    1.1388676   439061 
 1919000    0.7597766   -4.5274609   -4.5274609   -3.3877986  0.011043774   -4.5274609    1.1396623   439061 
 1920000   0.76003316    -4.526668    -4.526668   -3.3866208  0.012142946    -4.526668    1.1400471   439061 
 1921000   0.76119458   -4.5285162   -4.5285162   -3.3867269  0.012635414   -4.5285162    1.1417893   439061 
 1922000    0.7609133   -4.5296025   -4.5296025   -3.3882351  0.011311253   -4.5296025    1.1413674   439061 
 1923000   0.76083952   -4.5302455   -4.5302455   -3.3889888  0.013512092   -4.5302455    1.1412567   439061 
 1924000   0.76033214    -4.530535    -4.530535   -3.3900393  0.010847027    -4.530535    1.1404956   439061 
 1925000    0.7594435   -4.5291745   -4.5291745   -3.3900118  0.013502126   -4.5291745    1.1391627   439061 
 1926000   0.75893638   -4.5288787   -4.5288787   -3.3904767  0.016714058   -4.5288787     1.138402   439061 
 1927000   0.76075239   -4.5322869   -4.5322869   -3.3911609  0.012305984   -4.5322869     1.141126   439061 
 1928000   0.76143861   -4.5328776   -4.5328776   -3.3907223  0.013989835   -4.5328776    1.1421553   439061 
 1929000   0.76205172   -4.5344887   -4.5344887   -3.3914137  0.012914442   -4.5344887     1.143075   439061 
 1930000   0.75936367   -4.5318834   -4.5318834   -3.3928405  0.012617233   -4.5318834    1.1390429   439061 
 1931000   0.76032142   -4.5323395   -4.5323395   -3.3918599  0.013777371   -4.5323395    1.1404795   439061 
 1932000   0.76040426   -4.5336588   -4.5336588    -3.393055 0.0071819783   -4.5336588    1.1406038   439061 
 1933000   0.75964215   -4.5332026   -4.5332026    -3.393742  0.016095474   -4.5332026    1.1394606   439061 
 1934000   0.76014704   -4.5331654   -4.5331654   -3.3929474  0.012438132   -4.5331654     1.140218   439061 
 1935000   0.76049978   -4.5333694   -4.5333694   -3.3926224  0.011407344   -4.5333694    1.1407471   439061 
 1936000   0.75878531   -4.5295418   -4.5295418   -3.3913664  0.016734058   -4.5295418    1.1381754   439061 
 1937000    0.7606763    -4.532718    -4.532718   -3.3917061 0.0077438157    -4.532718    1.1410119   439061 
 1938000   0.76010655   -4.5313012   -4.5313012    -3.391144  0.010900485   -4.5313012    1.1401572   439061 
 1939000   0.75970448   -4.5304378   -4.5304378   -3.3908837  0.013588229   -4.5304378    1.1395541   439061 
 1940000   0.75931373   -4.5304196   -4.5304196   -3.3914516  0.012156118   -4.5304196     1.138968   439061 
 1941000   0.76030841   -4.5313906   -4.5313906   -3.3909306   0.01154995   -4.5313906      1.14046   439061 
 1942000   0.75863701   -4.5296989   -4.5296989   -3.3917459  0.011903963   -4.5296989    1.1379529   439061 
 1943000   0.75907603   -4.5309811   -4.5309811   -3.3923697 0.0094302006   -4.5309811    1.1386114   439061 
 1944000   0.75989289   -4.5328194   -4.5328194   -3.3929826 0.0045417029   -4.5328194    1.1398367   439061 
 1945000   0.75959242   -4.5329751   -4.5329751   -3.3935891 0.0094572459   -4.5329751     1.139386   439061 
 1946000   0.75946462   -4.5321447   -4.5321447   -3.3929503  0.011896349   -4.5321447    1.1391943   439061 
 1947000   0.75956295   -4.5324409   -4.5324409   -3.3930991  0.017169446   -4.5324409    1.1393418   439061 
 1948000   0.76054769   -4.5332381   -4.5332381   -3.3924192  0.016131724   -4.5332381    1.1408189   439061 
 1949000    0.7617398   -4.5358328   -4.5358328   -3.3932257  0.016023986   -4.5358328    1.1426071   439061 
 1950000   0.76090904    -4.535137    -4.535137   -3.3937761  0.015949742    -4.535137     1.141361   439061 
 1951000   0.75977697   -4.5343457   -4.5343457   -3.3946829  0.015793641   -4.5343457    1.1396629   439061 
 1952000   0.76022819   -4.5349524   -4.5349524   -3.3946127  0.012826478   -4.5349524    1.1403397   439061 
 1953000   0.75969719   -4.5340748   -4.5340748   -3.3945316  0.015480513   -4.5340748    1.1395432   439061 
 1954000   0.75828255   -4.5325259   -4.5325259   -3.3951047  0.014379312   -4.5325259    1.1374212   439061 
 1955000   0.75901043   -4.5335003   -4.5335003   -3.3949873 0.0085633161   -4.5335003     1.138513   439061 
 1956000   0.75871582   -4.5337219   -4.5337219   -3.3956508  0.003891544   -4.5337219    1.1380711   439061 
 1957000   0.75778636   -4.5316371   -4.5316371   -3.3949602  0.012228884   -4.5316371     1.136677   439061 
 1958000   0.76033464   -4.5338228   -4.5338228   -3.3933234 0.0085423548   -4.5338228    1.1404994   439061 
 1959000   0.76035499   -4.5347586   -4.5347586   -3.3942288 0.0076871713   -4.5347586    1.1405299   439061 
 1960000   0.75947193   -4.5328587   -4.5328587   -3.3936534  0.014846471   -4.5328587    1.1392053   439061 
 1961000   0.75906814   -4.5324873   -4.5324873   -3.3938877  0.013077218   -4.5324873    1.1385996   439061 
 1962000   0.76042111   -4.5328536   -4.5328536   -3.3922245  0.014729425   -4.5328536    1.1406291   439061 
 1963000   0.75963008   -4.5319915   -4.5319915    -3.392549  0.013022727   -4.5319915    1.1394425   439061 
 1964000   0.76052091   -4.5332832   -4.5332832   -3.3925044  0.011837106   -4.5332832    1.1407788   439061 
 1965000   0.75994594   -4.5330747   -4.5330747   -3.3931584  0.013664813   -4.5330747    1.1399163   439061 
 1966000   0.75942262   -4.5331242   -4.5331242   -3.3939929   0.01027589   -4.5331242    1.1391313   439061 
 1967000   0.75891626   -4.5328448   -4.5328448    -3.394473 0.0097467226   -4.5328448    1.1383718   439061 
 1968000   0.75827112   -4.5313382   -4.5313382   -3.3939341 0.0093063333   -4.5313382    1.1374041   439061 
 1969000   0.75832853   -4.5326928   -4.5326928   -3.3952026 0.0071146928   -4.5326928    1.1374902   439061 
 1970000   0.75981152   -4.5349104   -4.5349104   -3.3951957 0.0085456985   -4.5349104    1.1397147   439061 
 1971000   0.75981176   -4.5329422   -4.5329422   -3.3932271 0.0099854341   -4.5329422     1.139715   439061 
 1972000   0.75969708   -4.5332374   -4.5332374   -3.3936944    0.0151553   -4.5332374     1.139543   439061 
 1973000   0.76023188   -4.5338099   -4.5338099   -3.3934646  0.013438593   -4.5338099    1.1403452   439061 
 1974000   0.76084106   -4.5336702   -4.5336702   -3.3924112  0.015447414   -4.5336702     1.141259   439061 
 1975000    0.7605591   -4.5337637   -4.5337637   -3.3929276  0.017376697   -4.5337637    1.1408361   439061 
 1976000   0.75988423   -4.5337368   -4.5337368   -3.3939131  0.014303189   -4.5337368    1.1398237   439061 
 1977000   0.75983253   -4.5321862   -4.5321862     -3.39244  0.012300366   -4.5321862    1.1397462   439061 
 1978000   0.76022891   -4.5327502   -4.5327502   -3.3924094  0.011354584   -4.5327502    1.1403408   439061 
 1979000   0.76022854   -4.5328415   -4.5328415   -3.3925013  0.015681281   -4.5328415    1.1403402   439061 
 1980000   0.75958974   -4.5321381   -4.5321381   -3.3927561  0.011526306   -4.5321381     1.139382   439061 
 1981000   0.75899224   -4.5322766   -4.5322766   -3.3937908  0.012103476   -4.5322766    1.1384858   439061 
 1982000   0.75940394   -4.5319874   -4.5319874   -3.3928841 0.0066617413   -4.5319874    1.1391033   439061 
 1983000   0.76025481   -4.5332556   -4.5332556    -3.392876 0.0040084622   -4.5332556    1.1403796   439061 
 1984000   0.75885795   -4.5319755   -4.5319755   -3.3936912 0.0065167442   -4.5319755    1.1382843   439061 
 1985000     0.759326   -4.5332174   -4.5332174    -3.394231  0.007309075   -4.5332174    1.1389864   439061 
 1986000    0.7589154   -4.5328126   -4.5328126   -3.3944421  0.011510734   -4.5328126    1.1383705   439061 
 1987000   0.75855546   -4.5318085   -4.5318085   -3.3939779  0.013056376   -4.5318085    1.1378306   439061 
 1988000   0.76085435   -4.5334739   -4.5334739    -3.392195  0.012868151   -4.5334739    1.1412789   439061 
 1989000   0.76234636   -4.5365063   -4.5365063   -3.3929893  0.013545062   -4.5365063    1.1435169   439061 
 1990000   0.76110698   -4.5334217   -4.5334217   -3.3917638  0.017484965   -4.5334217    1.1416579   439061 
 1991000   0.76062455   -4.5333979   -4.5333979   -3.3924637  0.016050397   -4.5333979    1.1409342   439061 
 1992000   0.75915763   -4.5323236   -4.5323236   -3.3935898  0.015790002   -4.5323236    1.1387339   439061 
 1993000    0.7596449   -4.5330339   -4.5330339   -3.3935692 0.0098913357   -4.5330339    1.1394648   439061 
 1994000   0.75936161   -4.5337449   -4.5337449   -3.3947051 0.0069269668   -4.5337449    1.1390398   439061 
 1995000   0.75891193   -4.5335979   -4.5335979   -3.3952326  0.012401885   -4.5335979    1.1383653   439061 
 1996000   0.76026354   -4.5340582   -4.5340582   -3.3936655  0.007894414   -4.5340582    1.1403927   439061 
 1997000   0.75996555   -4.5333244   -4.5333244   -3.3933787 0.0096422205   -4.5333244    1.1399457   439061 
 1998000   0.75895037   -4.5315947   -4.5315947   -3.3931717 0.0058784672   -4.5315947     1.138423   439061 
 1999000     0.759259   -4.5329831   -4.5329831   -3.3940972  0.012279693   -4.5329831    1.1388859   439061 
 2000000   0.75954399   -4.5332104   -4.5332104    -3.393897  0.012141883   -4.5332104    1.1393134   439061 
 2001000   0.75996447   -4.5353583   -4.5353583   -3.3954142  0.011322941   -4.5353583    1.1399441   439061 
 2002000   0.76015288   -4.5354767   -4.5354767     -3.39525  0.012279064   -4.5354767    1.1402267   439061 
 2003000    0.7599042   -4.5351029   -4.5351029   -3.3952492 0.0079915429   -4.5351029    1.1398537   439061 
 2004000   0.75989625   -4.5347511   -4.5347511   -3.3949094  0.013003056   -4.5347511    1.1398418   439061 
 2005000   0.76066459   -4.5363735   -4.5363735   -3.3953792  0.016681392   -4.5363735    1.1409943   439061 
 2006000   0.76212015   -4.5379782   -4.5379782   -3.3948006  0.014420197   -4.5379782    1.1431776   439061 
 2007000   0.76182641   -4.5379536   -4.5379536   -3.3952166  0.012269891   -4.5379536     1.142737   439061 
 2008000   0.75985675   -4.5362975   -4.5362975   -3.3965149  0.013934845   -4.5362975    1.1397825   439061 
 2009000   0.75894579   -4.5359637   -4.5359637   -3.3975476  0.012268869   -4.5359637    1.1384161   439061 
 2010000   0.75845884    -4.535644    -4.535644   -3.3979584 0.0073866267    -4.535644    1.1376857   439061 
 2011000   0.76018243   -4.5368788   -4.5368788   -3.3966078  0.013549276   -4.5368788    1.1402711   439061 
 2012000   0.75972678   -4.5366796   -4.5366796    -3.397092 0.0052731405   -4.5366796    1.1395876   439061 
 2013000   0.75951861   -4.5362278   -4.5362278   -3.3969524  0.005162861   -4.5362278    1.1392753   439061 
 2014000   0.75875803   -4.5344659   -4.5344659   -3.3963314   0.01371801   -4.5344659    1.1381345   439061 
 2015000   0.75970508   -4.5353868   -4.5353868   -3.3958318 0.0079353907   -4.5353868     1.139555   439061 
 2016000   0.76045303   -4.5363379   -4.5363379   -3.3956609 0.0075892954   -4.5363379    1.1406769   439061 
 2017000   0.75959767   -4.5343925   -4.5343925   -3.3949985  0.016691434   -4.5343925    1.1393939   439061 
 2018000   0.75999646   -4.5367123   -4.5367123   -3.3967202  0.012494765   -4.5367123    1.1399921   439061 
 2019000   0.76040466   -4.5361296   -4.5361296   -3.3955252  0.014574029   -4.5361296    1.1406044   439061 
 2020000   0.75868283     -4.53312     -4.53312   -3.3950984  0.014833882     -4.53312    1.1380217   439061 
 2021000   0.75985241   -4.5362173   -4.5362173   -3.3964412 0.0091902471   -4.5362173     1.139776   439061 
 2022000   0.76005834   -4.5356521   -4.5356521   -3.3955672  0.015904258   -4.5356521    1.1400849   439061 
 2023000   0.75985076   -4.5356401   -4.5356401   -3.3958665     0.011319   -4.5356401    1.1397735   439061 
 2024000   0.75915744    -4.535956    -4.535956   -3.3972224 0.0085484109    -4.535956    1.1387336   439061 
 2025000   0.75885922   -4.5358956   -4.5358956   -3.3976094 0.0074311031   -4.5358956    1.1382862   439061 
 2026000   0.75938137   -4.5377359   -4.5377359   -3.3986665 0.0054987476   -4.5377359    1.1390695   439061 
 2027000   0.75914745   -4.5369568   -4.5369568   -3.3982382 0.0090352117   -4.5369568    1.1387186   439061 
 2028000   0.75861189    -4.535933    -4.535933   -3.3980178  0.013174441    -4.535933    1.1379152   439061 
 2029000   0.75914126   -4.5367756   -4.5367756   -3.3980663  0.012869152   -4.5367756    1.1387093   439061 
 2030000   0.76046514   -4.5399316   -4.5399316   -3.3992365  0.014232229   -4.5399316    1.1406951   439061 
 2031000   0.76030581    -4.539443    -4.539443   -3.3989869  0.010976757    -4.539443    1.1404561   439061 
 2032000   0.75994218   -4.5391554   -4.5391554   -3.3992447   0.01273041   -4.5391554    1.1399107   439061 
 2033000   0.75901511   -4.5376695   -4.5376695   -3.3991494  0.015735042   -4.5376695    1.1385201   439061 
 2034000   0.75997292   -4.5393227   -4.5393227   -3.3993659  0.012299334   -4.5393227    1.1399568   439061 
 2035000   0.75959195   -4.5377003   -4.5377003   -3.3983149  0.020573583   -4.5377003    1.1393853   439061 
 2036000   0.75987103   -4.5389036   -4.5389036   -3.3990996  0.015581457   -4.5389036     1.139804   439061 
 2037000   0.75994893   -4.5395617   -4.5395617   -3.3996409  0.010267388   -4.5395617    1.1399208   439061 
 2038000   0.75928241     -4.53768     -4.53768    -3.398759  0.011295115     -4.53768     1.138921   439061 
 2039000    0.7579357    -4.535835    -4.535835    -3.398934  0.007794759    -4.535835     1.136901   439061 
 2040000   0.75845906   -4.5377372   -4.5377372   -3.4000512 0.0039675704   -4.5377372     1.137686   439061 
 2041000   0.75897331   -4.5379744   -4.5379744    -3.399517 0.0076449216   -4.5379744    1.1384574   439061 
 2042000   0.75805283   -4.5366267   -4.5366267     -3.39955  0.008300099   -4.5366267    1.1370767   439061 
 2043000   0.75862817    -4.537731    -4.537731   -3.3997914 0.0091203587    -4.537731    1.1379397   439061 
 2044000   0.75847811     -4.53799     -4.53799   -3.4002755  0.011572106     -4.53799    1.1377146   439061 
 2045000   0.75883359   -4.5382398   -4.5382398    -3.399992   0.01372501   -4.5382398    1.1382478   439061 
 2046000   0.75872835   -4.5383578   -4.5383578   -3.4002679  0.010611156   -4.5383578    1.1380899   439061 
 2047000   0.75914284   -4.5395775   -4.5395775   -3.4008658 0.0099265751   -4.5395775    1.1387117   439061 
 2048000   0.75822412   -4.5393239   -4.5393239   -3.4019903  0.014866846   -4.5393239    1.1373336   439061 
 2049000   0.75943728   -4.5400279   -4.5400279   -3.4008745  0.011104992   -4.5400279    1.1391533   439061 
 2050000   0.76040948   -4.5407674   -4.5407674   -3.4001558  0.016371083   -4.5407674    1.1406116   439061 
 2051000   0.75995481   -4.5397781   -4.5397781   -3.3998485  0.017050023   -4.5397781    1.1399296   439061 
 2052000   0.76046887   -4.5403206   -4.5403206   -3.3996198  0.014715998   -4.5403206    1.1407007   439061 
 2053000   0.75848314   -4.5386213   -4.5386213   -3.4008992  0.012403674   -4.5386213    1.1377221   439061 
 2054000   0.75883444   -4.5403605   -4.5403605   -3.4021114 0.0021264914   -4.5403605    1.1382491   439061 
 2055000   0.75822707    -4.538949    -4.538949    -3.401611 0.0099148004    -4.538949     1.137338   439061 
 2056000    0.7577378   -4.5383333   -4.5383333   -3.4017292 0.0089263134   -4.5383333    1.1366041   439061 
 2057000   0.75839588   -4.5386532   -4.5386532    -3.401062 0.0076966876   -4.5386532    1.1375912   439061 
 2058000   0.75758328   -4.5379991   -4.5379991   -3.4016268 0.0065569052   -4.5379991    1.1363723   439061 
 2059000   0.75840689   -4.5388632   -4.5388632   -3.4012555 0.0031912553   -4.5388632    1.1376077   439061 
 2060000   0.75765764   -4.5373837   -4.5373837   -3.4008998   0.01042962   -4.5373837    1.1364839   439061 
 2061000   0.75763198   -4.5374436   -4.5374436   -3.4009982 0.0084545314   -4.5374436    1.1364454   439061 
 2062000   0.75920988   -4.5399308   -4.5399308   -3.4011186  0.010734956   -4.5399308    1.1388122   439061 
 2063000   0.75905849   -4.5394485   -4.5394485   -3.4008634  0.014300712   -4.5394485    1.1385851   439061 
 2064000   0.75994925   -4.5404578   -4.5404578   -3.4005366  0.012925125   -4.5404578    1.1399213   439061 
 2065000   0.76010036   -4.5409662   -4.5409662   -3.4008182  0.013057802   -4.5409662    1.1401479   439061 
 2066000    0.7593658   -4.5401562   -4.5401562   -3.4011101  0.016467047   -4.5401562    1.1390461   439061 
 2067000   0.75952864   -4.5403076   -4.5403076   -3.4010172  0.016162196   -4.5403076    1.1392904   439061 
 2068000   0.76008459   -4.5411808   -4.5411808   -3.4010565 0.0088118299   -4.5411808    1.1401243   439061 
 2069000   0.75973443   -4.5398766   -4.5398766   -3.4002776  0.014303945   -4.5398766     1.139599   439061 
 2070000   0.75904324   -4.5386087   -4.5386087   -3.4000464  0.015294341   -4.5386087    1.1385623   439061 
 2071000    0.7587279   -4.5393654   -4.5393654   -3.4012762 0.0089282104   -4.5393654    1.1380893   439061 
 2072000   0.75744105   -4.5383316   -4.5383316   -3.4021727 0.0069854098   -4.5383316     1.136159   439061 
 2073000   0.75682813   -4.5375969   -4.5375969   -3.4023573  0.012346929   -4.5375969    1.1352396   439061 
 2074000   0.75742376   -4.5392314   -4.5392314   -3.4030983 0.0043675816   -4.5392314    1.1361331   439061 
 2075000   0.75777486   -4.5390224   -4.5390224   -3.4023627 0.0068759089   -4.5390224    1.1366597   439061 
 2076000   0.75771044   -4.5401956   -4.5401956   -3.4036325 0.0081838876   -4.5401956    1.1365631   439061 
 2077000   0.75892982   -4.5408459   -4.5408459   -3.4024537  0.010756693   -4.5408459    1.1383921   439061 
 2078000   0.75901499   -4.5405508   -4.5405508   -3.4020309  0.013320484   -4.5405508    1.1385199   439061 
 2079000   0.75742195    -4.538563    -4.538563   -3.4024326  0.019571204    -4.538563    1.1361303   439061 
 2080000   0.75897334   -4.5416216   -4.5416216   -3.4031642  0.015393804   -4.5416216    1.1384574   439061 
 2081000   0.75938892   -4.5433033   -4.5433033   -3.4042225 0.0082914612   -4.5433033    1.1390808   439061 
 2082000   0.76008475   -4.5447591   -4.5447591   -3.4046346  0.011963539   -4.5447591    1.1401245   439061 
 2083000   0.76053705    -4.544858    -4.544858    -3.404055  0.017929179    -4.544858     1.140803   439061 
 2084000   0.75938261   -4.5424758   -4.5424758   -3.4034045  0.019748785   -4.5424758    1.1390713   439061 
 2085000   0.76006438    -4.544253    -4.544253   -3.4041591  0.016383906    -4.544253     1.140094   439061 
 2086000   0.75849824   -4.5418201   -4.5418201   -3.4040753  0.017367176   -4.5418201    1.1377448   439061 
 2087000   0.75806944   -4.5419053   -4.5419053   -3.4048037 0.0098728291   -4.5419053    1.1371016   439061 
 2088000   0.75680675   -4.5386225   -4.5386225    -3.403415  0.014507983   -4.5386225    1.1352075   439061 
 2089000   0.75753835    -4.540168    -4.540168   -3.4038631 0.0055871192    -4.540168    1.1363049   439061 
 2090000    0.7569917    -4.539251    -4.539251   -3.4037661 0.0047484891    -4.539251     1.135485   439061 
 2091000   0.75662471   -4.5396096   -4.5396096   -3.4046751  0.012652172   -4.5396096    1.1349345   439061 
 2092000   0.75696033   -4.5398268   -4.5398268   -3.4043889 0.0098966132   -4.5398268    1.1354379   439061 
 2093000   0.75699064   -4.5390146   -4.5390146   -3.4035312  0.008482886   -4.5390146    1.1354834   439061 
 2094000   0.75687889   -4.5392708   -4.5392708   -3.4039551 0.0088867341   -4.5392708    1.1353157   439061 
 2095000   0.75832518   -4.5416452   -4.5416452   -3.4041601 0.0071255333   -4.5416452    1.1374852   439061 
 2096000   0.75855138   -4.5419452   -4.5419452   -3.4041207 0.0098272386   -4.5419452    1.1378245   439061 
 2097000   0.75761746   -4.5415773   -4.5415773   -3.4051537  0.013829601   -4.5415773    1.1364236   439061 
 2098000   0.75914043   -4.5437128   -4.5437128   -3.4050048  0.016347703   -4.5437128    1.1387081   439061 
 2099000   0.75950438   -4.5447937   -4.5447937   -3.4055397  0.015038399   -4.5447937     1.139254   439061 
 2100000   0.75927505   -4.5447472   -4.5447472   -3.4058372  0.010709814   -4.5447472      1.13891   439061 
 2101000   0.75833341   -4.5428587   -4.5428587   -3.4053612  0.019315912   -4.5428587    1.1374975   439061 
 2102000   0.75786751   -4.5426563   -4.5426563   -3.4058577  0.013287644   -4.5426563    1.1367987   439061 
 2103000   0.76002528    -4.545904    -4.545904   -3.4058686  0.011349453    -4.545904    1.1400353   439061 
 2104000   0.75846182   -4.5435402   -4.5435402     -3.40585   0.01141574   -4.5435402    1.1376901   439061 
 2105000   0.75802882   -4.5429498   -4.5429498   -3.4059092   0.01212356   -4.5429498    1.1370406   439061 
 2106000   0.75669514   -4.5407708   -4.5407708   -3.4057307  0.010233468   -4.5407708    1.1350401   439061 
 2107000   0.75757042   -4.5416882   -4.5416882   -3.4053352  0.009866291   -4.5416882     1.136353   439061 
 2108000   0.75844288   -4.5437673   -4.5437673   -3.4061056 0.0048794779   -4.5437673    1.1376617   439061 
 2109000   0.75803259   -4.5418685   -4.5418685   -3.4048222 0.0072581959   -4.5418685    1.1370463   439061 
 2110000   0.75752746   -4.5418962   -4.5418962   -3.4056076  0.011612776   -4.5418962    1.1362886   439061 
 2111000    0.7583427   -4.5431581   -4.5431581   -3.4056466 0.0063201049   -4.5431581    1.1375115   439061 
 2112000    0.7586877   -4.5441984   -4.5441984   -3.4061695  0.014839183   -4.5441984     1.138029   439061 
 2113000   0.75860519   -4.5436238   -4.5436238   -3.4057186  0.014019137   -4.5436238    1.1379052   439061 
 2114000   0.75834692   -4.5436586   -4.5436586   -3.4061408  0.014324953   -4.5436586    1.1375178   439061 
 2115000   0.75959848   -4.5456706   -4.5456706   -3.4062755 0.0081760661   -4.5456706    1.1393951   439061 
 2116000    0.7571554    -4.543969    -4.543969   -3.4082385  0.011128487    -4.543969    1.1357305   439061 
 2117000   0.75784676    -4.544806    -4.544806   -3.4080384  0.011277543    -4.544806    1.1367675   439061 
 2118000   0.75888988   -4.5460626   -4.5460626   -3.4077303 0.0085885621   -4.5460626    1.1383322   439061 
 2119000   0.75761657    -4.543804    -4.543804   -3.4073817  0.015350538    -4.543804    1.1364223   439061 
 2120000   0.75939552   -4.5470332   -4.5470332   -3.4079426   0.01067163   -4.5470332    1.1390907   439061 
 2121000   0.75778332   -4.5449083   -4.5449083   -3.4082359  0.013349392   -4.5449083    1.1366724   439061 
 2122000   0.75877906   -4.5464451   -4.5464451   -3.4082791 0.0096778266   -4.5464451     1.138166   439061 
 2123000   0.75741634   -4.5446184   -4.5446184   -3.4084965 0.0095041018   -4.5446184    1.1361219   439061 
 2124000   0.75713081   -4.5444493   -4.5444493   -3.4087557 0.0082451293   -4.5444493    1.1356936   439061 
 2125000   0.75661091   -4.5443113   -4.5443113   -3.4093975  0.012237568   -4.5443113    1.1349138   439061 
 2126000   0.75663687   -4.5446554   -4.5446554   -3.4097027  0.012215918   -4.5446554    1.1349527   439061 
 2127000   0.75690697   -4.5444659   -4.5444659    -3.409108  0.005850228   -4.5444659    1.1353579   439061 
 2128000   0.75761975   -4.5456873   -4.5456873   -3.4092603 0.0095383764   -4.5456873     1.136427   439061 
 2129000   0.75924397   -4.5471954   -4.5471954   -3.4083321 0.0070205572   -4.5471954    1.1388634   439061 
 2130000   0.75866456   -4.5468383   -4.5468383    -3.408844  0.011824388   -4.5468383    1.1379942   439061 
 2131000   0.75753246   -4.5460044   -4.5460044   -3.4097083  0.012058872   -4.5460044    1.1362961   439061 
 2132000   0.75794593   -4.5463393   -4.5463393    -3.409423  0.011614325   -4.5463393    1.1369163   439061 
 2133000   0.75698923   -4.5438252   -4.5438252   -3.4083439  0.018916819   -4.5438252    1.1354813   439061 
 2134000   0.75753336   -4.5467384   -4.5467384   -3.4104409  0.010130654   -4.5467384    1.1362974   439061 
 2135000   0.75732767   -4.5472302   -4.5472302   -3.4112413  0.010484827   -4.5472302    1.1359889   439061 
 2136000   0.75808593    -4.547434    -4.547434   -3.4103077  0.013644003    -4.547434    1.1371263   439061 
 2137000   0.75690422   -4.5458888   -4.5458888    -3.410535  0.014802614   -4.5458888    1.1353537   439061 
 2138000   0.75683926   -4.5472934   -4.5472934    -3.412037  0.012868623   -4.5472934    1.1352563   439061 
 2139000   0.75718174   -4.5476887   -4.5476887   -3.4119187  0.014499314   -4.5476887      1.13577   439061 
 2140000   0.75750674   -4.5479833   -4.5479833   -3.4117258  0.010233889   -4.5479833    1.1362575   439061 
 2141000   0.75894229   -4.5496755   -4.5496755   -3.4112646  0.010467217   -4.5496755    1.1384108   439061 
 2142000   0.75744772   -4.5482507   -4.5482507   -3.4120817 0.0038565361   -4.5482507     1.136169   439061 
 2143000   0.75751606   -4.5478416   -4.5478416   -3.4115701  0.011404983   -4.5478416    1.1362715   439061 
 2144000   0.75885367   -4.5498166   -4.5498166   -3.4115387 0.0073872191   -4.5498166    1.1382779   439061 
 2145000   0.75617958   -4.5468697   -4.5468697    -3.412603  0.011098555   -4.5468697    1.1342668   439061 
 2146000   0.75703113   -4.5481573   -4.5481573   -3.4126132 0.0070590921   -4.5481573    1.1355441   439061 
 2147000   0.75646781   -4.5474165   -4.5474165   -3.4127174  0.015005577   -4.5474165    1.1346991   439061 
 2148000   0.75758367    -4.547789    -4.547789   -3.4114161  0.013360239    -4.547789    1.1363729   439061 
 2149000   0.75897502   -4.5511514   -4.5511514   -3.4126915   0.01106761   -4.5511514    1.1384599   439061 
 2150000   0.75778034   -4.5484729   -4.5484729    -3.411805 0.0099293143   -4.5484729    1.1366679   439061 
 2151000   0.75723338   -4.5482463   -4.5482463   -3.4123989  0.012599284   -4.5482463    1.1358475   439061 
 2152000   0.75762154   -4.5493673   -4.5493673   -3.4129376  0.010494787   -4.5493673    1.1364297   439061 
 2153000   0.75631503   -4.5473788   -4.5473788   -3.4129088  0.011236269   -4.5473788      1.13447   439061 
 2154000   0.75837811   -4.5508383   -4.5508383   -3.4132737 0.0089054302   -4.5508383    1.1375646   439061 
 2155000   0.75730832   -4.5495681   -4.5495681   -3.4136083  0.013569562   -4.5495681    1.1359599   439061 
 2156000   0.75642108    -4.547715    -4.547715   -3.4130859  0.015731292    -4.547715     1.134629   439061 
 2157000   0.75976192   -4.5525813   -4.5525813    -3.412941 0.0071352256   -4.5525813    1.1396403   439061 
 2158000   0.75752463   -4.5496664   -4.5496664    -3.413382   0.01142742   -4.5496664    1.1362844   439061 
 2159000   0.75758854   -4.5505316   -4.5505316   -3.4141513 0.0068348648   -4.5505316    1.1363802   439061 
 2160000   0.75625935   -4.5490194   -4.5490194    -3.414633  0.010222328   -4.5490194    1.1343864   439061 
 2161000   0.75671535   -4.5497217   -4.5497217   -3.4146513  0.012678205   -4.5497217    1.1350704   439061 
 2162000   0.75646211    -4.549482    -4.549482   -3.4147914  0.012749005    -4.549482    1.1346906   439061 
 2163000   0.75765195   -4.5511618   -4.5511618   -3.4146865 0.0087365171   -4.5511618    1.1364753   439061 
 2164000    0.7570622   -4.5503663   -4.5503663   -3.4147755   0.01588143   -4.5503663    1.1355907   439061 
 2165000   0.75860795   -4.5506861   -4.5506861   -3.4127768  0.015603467   -4.5506861    1.1379093   439061 
 2166000   0.75849725   -4.5516433   -4.5516433      -3.4139 0.0087344994   -4.5516433    1.1377433   439061 
 2167000   0.75581604   -4.5472589   -4.5472589   -3.4135374  0.015449074   -4.5472589    1.1337215   439061 
 2168000   0.75646086   -4.5487524   -4.5487524   -3.4140637 0.0063340856   -4.5487524    1.1346887   439061 
 2169000   0.75532494     -4.54793     -4.54793   -3.4149452 0.0061349651     -4.54793    1.1329848   439061 
 2170000   0.75671012   -4.5487877   -4.5487877   -3.4137251 0.0061630527   -4.5487877    1.1350626   439061 
 2171000   0.75742233   -4.5486921   -4.5486921   -3.4125612 0.0068027296   -4.5486921    1.1361309   439061 
 2172000   0.75773828   -4.5483848   -4.5483848     -3.41178 0.0086669888   -4.5483848    1.1366048   439061 
 2173000   0.75771448   -4.5482452   -4.5482452   -3.4116761 0.0067249007   -4.5482452    1.1365691   439061 
 2174000   0.75813261   -4.5494879   -4.5494879   -3.4122916 0.0092874235   -4.5494879    1.1371963   439061 
 2175000   0.75710191   -4.5476694   -4.5476694   -3.4120191  0.011342946   -4.5476694    1.1356503   439061 
 2176000   0.75701069   -4.5495227   -4.5495227   -3.4140092  0.011301527   -4.5495227    1.1355134   439061 
 2177000   0.75721128   -4.5506829   -4.5506829   -3.4148686 0.0061899075   -4.5506829    1.1358143   439061 
 2178000   0.75568684   -4.5493318   -4.5493318   -3.4158041 0.0094558851   -4.5493318    1.1335277   439061 
 2179000   0.75626988    -4.550464    -4.550464   -3.4160618 0.0087933768    -4.550464    1.1344022   439061 
 2180000   0.75630796   -4.5505846   -4.5505846   -3.4161253  0.011962001   -4.5505846    1.1344594   439061 
 2181000   0.75791941   -4.5526219   -4.5526219   -3.4157453  0.014748159   -4.5526219    1.1368765   439061 
 2182000   0.75846329   -4.5531852   -4.5531852   -3.4154929  0.015096082   -4.5531852    1.1376923   439061 
 2183000   0.75752003   -4.5513598   -4.5513598   -3.4150824  0.017743127   -4.5513598    1.1362775   439061 
 2184000   0.75683648   -4.5517457   -4.5517457   -3.4164935   0.02143356   -4.5517457    1.1352521   439061 
 2185000   0.75604513   -4.5512072   -4.5512072   -3.4171421  0.015561234   -4.5512072    1.1340651   439061 
 2186000   0.75695155   -4.5523507   -4.5523507   -3.4169259 0.0073250468   -4.5523507    1.1354247   439061 
 2187000   0.75640066   -4.5517683   -4.5517683   -3.4171699  0.010313286   -4.5517683    1.1345984   439061 
 2188000   0.75661075   -4.5516957   -4.5516957   -3.4167822  0.010768908   -4.5516957    1.1349135   439061 
 2189000   0.75678781   -4.5517699   -4.5517699   -3.4165908 0.0087249216   -4.5517699    1.1351791   439061 
 2190000   0.75637905   -4.5510337   -4.5510337   -3.4164678  0.010945087   -4.5510337     1.134566   439061 
 2191000    0.7559412   -4.5506105   -4.5506105   -3.4167012  0.010737438   -4.5506105    1.1339092   439061 
 2192000    0.7575165   -4.5526079   -4.5526079   -3.4163357 0.0092637967   -4.5526079    1.1362722   439061 
 2193000   0.75673284   -4.5514913   -4.5514913   -3.4163947  0.010961192   -4.5514913    1.1350967   439061 
 2194000   0.75730581   -4.5517743   -4.5517743   -3.4158182  0.010080343   -4.5517743    1.1359561   439061 
 2195000   0.75612653   -4.5489507   -4.5489507   -3.4147634  0.017286759   -4.5489507    1.1341872   439061 
 2196000   0.75706553   -4.5508007   -4.5508007    -3.415205  0.010363723   -4.5508007    1.1355957   439061 
 2197000   0.75642921   -4.5499622   -4.5499622    -3.415321  0.011887184   -4.5499622    1.1346412   439061 
 2198000   0.75735539   -4.5501696   -4.5501696   -3.4141391  0.012972876   -4.5501696    1.1360305   439061 
 2199000   0.75691105   -4.5504519   -4.5504519   -3.4150879  0.011060693   -4.5504519     1.135364   439061 
 2200000    0.7567955   -4.5513432   -4.5513432   -3.4161526 0.0089582945   -4.5513432    1.1351907   439061 
 2201000   0.75576207   -4.5487293   -4.5487293   -3.4150888  0.012437862   -4.5487293    1.1336405   439061 
 2202000   0.75572727   -4.5491603   -4.5491603    -3.415572 0.0089543821   -4.5491603    1.1335883   439061 
 2203000   0.75582185   -4.5496698   -4.5496698   -3.4159396 0.0061325362   -4.5496698    1.1337302   439061 
 2204000   0.75597065   -4.5503024   -4.5503024    -3.416349 0.0086250871   -4.5503024    1.1339534   439061 
 2205000   0.75484418   -4.5494323   -4.5494323   -3.4171686 0.0090415812   -4.5494323    1.1322637   439061 
 2206000   0.75608057   -4.5496268   -4.5496268   -3.4155086 0.0099880801   -4.5496268    1.1341183   439061 
 2207000   0.75688912    -4.551509    -4.551509   -3.4161779  0.014205674    -4.551509    1.1353311   439061 
 2208000   0.75614939   -4.5516413   -4.5516413   -3.4174198  0.012299946   -4.5516413    1.1342215   439061 
 2209000   0.75621152   -4.5516454   -4.5516454   -3.4173307  0.015714025   -4.5516454    1.1343147   439061 
 2210000   0.75790026   -4.5535602   -4.5535602   -3.4167124  0.013290932   -4.5535602    1.1368478   439061 
 2211000   0.75845802   -4.5541619   -4.5541619   -3.4164774  0.012325615   -4.5541619    1.1376844   439061 
 2212000   0.75683259   -4.5538769   -4.5538769   -3.4186306  0.012120832   -4.5538769    1.1352463   439061 
 2213000   0.75686975   -4.5544538   -4.5544538   -3.4191518 0.0093426548   -4.5544538     1.135302   439061 
 2214000   0.75517365   -4.5521115   -4.5521115   -3.4193536  0.013254344   -4.5521115    1.1327579   439061 
 2215000   0.75572223   -4.5517662   -4.5517662   -3.4181854  0.013860173   -4.5517662    1.1335808   439061 
 2216000   0.75537398   -4.5526535   -4.5526535   -3.4195951  0.012045012   -4.5526535    1.1330584   439061 
 2217000   0.75581576   -4.5541075   -4.5541075   -3.4203864  0.011600524   -4.5541075    1.1337211   439061 
 2218000   0.75618002   -4.5544401   -4.5544401   -3.4201727 0.0082423892   -4.5544401    1.1342674   439061 
 2219000     0.755458   -4.5523539   -4.5523539   -3.4191695  0.011246939   -4.5523539    1.1331844   439061 
 2220000   0.75646492   -4.5535103   -4.5535103   -3.4188155  0.011299675   -4.5535103    1.1346948   439061 
 2221000   0.75690362   -4.5549325   -4.5549325   -3.4195796 0.0093350655   -4.5549325    1.1353528   439061 
 2222000   0.75716855   -4.5550961   -4.5550961   -3.4193458 0.0080218757   -4.5550961    1.1357502   439061 
 2223000   0.75687171   -4.5544307   -4.5544307   -3.4191257  0.008702971   -4.5544307     1.135305   439061 
 2224000    0.7565905   -4.5541205   -4.5541205   -3.4192373  0.015366866   -4.5541205    1.1348832   439061 
 2225000   0.75693285   -4.5549777   -4.5549777    -3.419581  0.013303434   -4.5549777    1.1353967   439061 
 2226000   0.75644647   -4.5557511   -4.5557511    -3.421084 0.0092540518   -4.5557511    1.1346671   439061 
 2227000   0.75766468   -4.5555944   -4.5555944      -3.4191  0.009334169   -4.5555944    1.1364944   439061 
 2228000   0.75701648   -4.5555916   -4.5555916   -3.4200695 0.0095830262   -4.5555916    1.1355221   439061 
 2229000   0.75634768   -4.5545211   -4.5545211   -3.4200021 0.0052604676   -4.5545211    1.1345189   439061 
 2230000   0.75641719   -4.5543937   -4.5543937   -3.4197705 0.0094818296   -4.5543937    1.1346232   439061 
 2231000   0.75600625   -4.5543279   -4.5543279   -3.4203211 0.0033973928   -4.5543279    1.1340068   439061 
 2232000   0.75535947   -4.5523056   -4.5523056    -3.419269 0.0091678024   -4.5523056    1.1330366   439061 
 2233000   0.75578962   -4.5534202   -4.5534202   -3.4197384 0.0077217654   -4.5534202    1.1336818   439061 
 2234000   0.75567105     -4.55354     -4.55354    -3.420036 0.0070130954     -4.55354     1.133504   439061 
 2235000   0.75549892   -4.5530368   -4.5530368    -3.419791 0.0070487984   -4.5530368    1.1332458   439061 
 2236000   0.75538673   -4.5535656   -4.5535656   -3.4204881  0.010610483   -4.5535656    1.1330775   439061 
 2237000   0.75629804   -4.5550921   -4.5550921   -3.4206476 0.0091397689   -4.5550921    1.1344445   439061 
 2238000   0.75565073   -4.5549166   -4.5549166   -3.4214431  0.012867742   -4.5549166    1.1334735   439061 
 2239000   0.75626593   -4.5557218   -4.5557218   -3.4213255  0.012957193   -4.5557218    1.1343963   439061 
 2240000   0.75615265   -4.5560608   -4.5560608   -3.4218344  0.016080696   -4.5560608    1.1342264   439061 
 2241000   0.75574599   -4.5558149   -4.5558149   -3.4221985  0.011576912   -4.5558149    1.1336164   439061 
 2242000   0.75540999   -4.5561559   -4.5561559   -3.4230435  0.012120303   -4.5561559    1.1331124   439061 
 2243000   0.75678596   -4.5572623   -4.5572623   -3.4220859 0.0096197872   -4.5572623    1.1351764   439061 
 2244000   0.75659036   -4.5572193   -4.5572193   -3.4223363  0.011626862   -4.5572193     1.134883   439061 
 2245000   0.75754919   -4.5584173   -4.5584173   -3.4220961  0.012721242   -4.5584173    1.1363212   439061 
 2246000   0.75515602   -4.5552999   -4.5552999   -3.4225684  0.016087925   -4.5552999    1.1327315   439061 
 2247000    0.7561174   -4.5564395   -4.5564395    -3.422266 0.0086496091   -4.5564395    1.1341735   439061 
 2248000   0.75579756   -4.5553992   -4.5553992   -3.4217055 0.0074938654   -4.5553992    1.1336938   439061 
 2249000   0.75545335   -4.5562436   -4.5562436   -3.4230661 0.0091971994   -4.5562436    1.1331774   439061 
 2250000   0.75525823   -4.5558909   -4.5558909   -3.4230061  0.010551815   -4.5558909    1.1328848   439061 
 2251000     0.754335   -4.5551497   -4.5551497   -3.4236497  0.011649366   -4.5551497    1.1314999   439061 
 2252000   0.75483316   -4.5555779   -4.5555779   -3.4233307 0.0036738916   -4.5555779    1.1322472   439061 
 2253000   0.75525944   -4.5561027   -4.5561027   -3.4232162 0.0073928224   -4.5561027    1.1328866   439061 
 2254000     0.755131   -4.5564193   -4.5564193   -3.4237253  0.011850356   -4.5564193    1.1326939   439061 
 2255000   0.75606066   -4.5575543   -4.5575543   -3.4234659 0.0096083991   -4.5575543    1.1340884   439061 
 2256000    0.7554604   -4.5570291   -4.5570291    -3.423841  0.011926209   -4.5570291     1.133188   439061 
 2257000   0.75498995   -4.5568788   -4.5568788   -3.4243965  0.011815412   -4.5568788    1.1324823   439061 
 2258000   0.75525726   -4.5578527   -4.5578527   -3.4249693 0.0090068918   -4.5578527    1.1328833   439061 
 2259000    0.7547799   -4.5569174   -4.5569174   -3.4247501  0.012977303   -4.5569174    1.1321673   439061 
 2260000    0.7566657   -4.5598123   -4.5598123   -3.4248163  0.010088133   -4.5598123     1.134996   439061 
 2261000   0.75595128   -4.5591044   -4.5591044     -3.42518  0.012017074   -4.5591044    1.1339243   439061 
 2262000   0.75586155   -4.5577441   -4.5577441   -3.4239544  0.011921114   -4.5577441    1.1337897   439061 
 2263000   0.75409622   -4.5563565   -4.5563565   -3.4252148  0.014582542   -4.5563565    1.1311418   439061 
 2264000   0.75603376   -4.5602359   -4.5602359   -3.4261879  0.010436966   -4.5602359    1.1340481   439061 
 2265000   0.75536427   -4.5584436   -4.5584436   -3.4253998  0.011553319   -4.5584436    1.1330438   439061 
 2266000   0.75573198   -4.5586953   -4.5586953   -3.4250999  0.011916138   -4.5586953    1.1335954   439061 
 2267000   0.75537579   -4.5569345   -4.5569345   -3.4238734 0.0095087516   -4.5569345    1.1330611   439061 
 2268000   0.75486435   -4.5569841   -4.5569841   -3.4246901 0.0091086579   -4.5569841    1.1322939   439061 
 2269000   0.75590613   -4.5592072   -4.5592072   -3.4253506  0.011317453   -4.5592072    1.1338566   439061 
 2270000   0.75656172   -4.5583287   -4.5583287   -3.4234887 0.0079283816   -4.5583287      1.13484   439061 
 2271000   0.75653838   -4.5579519   -4.5579519   -3.4231469 0.0078574496   -4.5579519     1.134805   439061 
 2272000    0.7551764   -4.5554241   -4.5554241    -3.422662  0.011781062   -4.5554241     1.132762   439061 
 2273000   0.75483803   -4.5552437   -4.5552437   -3.4229893  0.013777979   -4.5552437    1.1322545   439061 
 2274000   0.75511916   -4.5557012   -4.5557012    -3.423025  0.006248009   -4.5557012    1.1326762   439061 
 2275000   0.75496907   -4.5560426   -4.5560426   -3.4235916  0.010170387   -4.5560426     1.132451   439061 
 2276000   0.75612304   -4.5561617   -4.5561617   -3.4219797 0.0073598446   -4.5561617     1.134182   439061 
 2277000   0.75503337   -4.5544115   -4.5544115    -3.421864 0.0092643302   -4.5544115    1.1325475   439061 
 2278000   0.75544255   -4.5556713   -4.5556713   -3.4225101  0.011250624   -4.5556713    1.1331612   439061 
 2279000   0.75608268   -4.5564524   -4.5564524   -3.4223309  0.010755218   -4.5564524    1.1341214   439061 
 2280000    0.7563068   -4.5568949   -4.5568949   -3.4224373  0.012442628   -4.5568949    1.1344576   439061 
 2281000   0.75508527   -4.5564498   -4.5564498   -3.4238244  0.012772703   -4.5564498    1.1326253   439061 
 2282000   0.75498612   -4.5568221   -4.5568221   -3.4243455 0.0069859904   -4.5568221    1.1324766   439061 
 2283000   0.75433376   -4.5560643   -4.5560643   -3.4245662 0.0055196995   -4.5560643    1.1314981   439061 
 2284000   0.75486302   -4.5564144   -4.5564144   -3.4241224 0.0096063125   -4.5564144     1.132292   439061 
 2285000   0.75749112   -4.5599573   -4.5599573   -3.4237233  0.011446746   -4.5599573    1.1362341   439061 
 2286000   0.75499464   -4.5557076   -4.5557076   -3.4232182  0.020195911   -4.5557076    1.1324894   439061 
 2287000   0.75628664   -4.5575243   -4.5575243   -3.4230969  0.015470449   -4.5575243    1.1344274   439061 
 2288000   0.75656252    -4.558508    -4.558508   -3.4236668  0.010256705    -4.558508    1.1348412   439061 
 2289000   0.75610626   -4.5579402   -4.5579402   -3.4237834 0.0092985482   -4.5579402    1.1341568   439061 
 2290000   0.75415258   -4.5556184   -4.5556184   -3.4243921  0.012885599   -4.5556184    1.1312263   439061 
 2291000   0.75488102   -4.5579272   -4.5579272   -3.4256082   0.01186775   -4.5579272     1.132319   439061 
 2292000   0.75481627   -4.5583516   -4.5583516   -3.4261298 0.0059843705   -4.5583516    1.1322218   439061 
 2293000   0.75423459   -4.5571687   -4.5571687   -3.4258194 0.0073164623   -4.5571687    1.1313493   439061 
 2294000   0.75462188   -4.5577411   -4.5577411   -3.4258109   0.01194175   -4.5577411    1.1319302   439061 
 2295000   0.75607609   -4.5595903   -4.5595903   -3.4254788  0.010947787   -4.5595903    1.1341116   439061 
 2296000   0.75556792   -4.5593294   -4.5593294   -3.4259801  0.011059559   -4.5593294    1.1333493   439061 
 2297000    0.7549502     -4.55747     -4.55747   -3.4250473  0.013568027     -4.55747    1.1324227   439061 
 2298000   0.75500658   -4.5584646   -4.5584646   -3.4259573  0.013338872   -4.5584646    1.1325073   439061 
 2299000   0.75456677   -4.5578009   -4.5578009   -3.4259533  0.014126877   -4.5578009    1.1318476   439061 
 2300000   0.75485471   -4.5567926   -4.5567926   -3.4245131  0.014877082   -4.5567926    1.1322795   439061 
 2301000   0.75611302   -4.5584624   -4.5584624   -3.4242955  0.014611989   -4.5584624     1.134167   439061 
 2302000   0.75638382   -4.5595424   -4.5595424   -3.4249693  0.011091594   -4.5595424    1.1345731   439061 
 2303000   0.75575116   -4.5584041   -4.5584041   -3.4247799  0.010883759   -4.5584041    1.1336242   439061 
 2304000   0.75475858    -4.556514    -4.556514   -3.4243787  0.011092929    -4.556514    1.1321353   439061 
 2305000   0.75522071   -4.5567425   -4.5567425    -3.423914 0.0082285637   -4.5567425    1.1328285   439061 
 2306000   0.75635168   -4.5578249   -4.5578249      -3.4233  0.010290632   -4.5578249    1.1345249   439061 
 2307000   0.75720749   -4.5597119   -4.5597119   -3.4239032  0.005826553   -4.5597119    1.1358087   439061 
 2308000   0.75583571   -4.5573548   -4.5573548   -3.4236038  0.010563848   -4.5573548     1.133751   439061 
 2309000   0.75619759   -4.5569621   -4.5569621   -3.4226683 0.0075623709   -4.5569621    1.1342938   439061 
 2310000   0.75441423   -4.5545154   -4.5545154   -3.4228967  0.010294352   -4.5545154    1.1316188   439061 
 2311000   0.75611223    -4.556873    -4.556873   -3.4227073  0.007987021    -4.556873    1.1341658   439061 
 2312000   0.75519287   -4.5569299   -4.5569299   -3.4241431 0.0062072756   -4.5569299    1.1327867   439061 
 2313000   0.75531311   -4.5570465   -4.5570465   -3.4240795  0.010007376   -4.5570465    1.1329671   439061 
 2314000   0.75608773   -4.5579859   -4.5579859   -3.4238569 0.0097615684   -4.5579859     1.134129   439061 
 2315000   0.75663609    -4.557345    -4.557345   -3.4223935  0.014054055    -4.557345    1.1349516   439061 
 2316000   0.75611019   -4.5579663   -4.5579663   -3.4238036  0.015450635   -4.5579663    1.1341627   439061 
 2317000   0.75578229   -4.5584989   -4.5584989    -3.424828 0.0092664786   -4.5584989    1.1336708   439061 
 2318000   0.75602975   -4.5593224   -4.5593224   -3.4252803   0.01062169   -4.5593224     1.134042   439061 
 2319000   0.75606186   -4.5592804   -4.5592804   -3.4251902  0.012603385   -4.5592804    1.1340902   439061 
 2320000   0.75498133   -4.5573532   -4.5573532   -3.4248838  0.015370603   -4.5573532    1.1324694   439061 
 2321000   0.75547031   -4.5583709   -4.5583709    -3.425168   0.01486454   -4.5583709    1.1332029   439061 
 2322000    0.7536491   -4.5569026   -4.5569026   -3.4264316  0.011773012   -4.5569026    1.1304711   439061 
 2323000   0.75582756   -4.5597219   -4.5597219   -3.4259832 0.0074852759   -4.5597219    1.1337388   439061 
 2324000   0.75461118   -4.5578145   -4.5578145   -3.4259003 0.0090996622   -4.5578145    1.1319142   439061 
 2325000   0.75563243    -4.558299    -4.558299   -3.4248529 0.0066336734    -4.558299    1.1334461   439061 
 2326000    0.7560231    -4.559132    -4.559132   -3.4250999  0.011783595    -4.559132    1.1340321   439061 
 2327000   0.75522915   -4.5595025   -4.5595025   -3.4266613 0.0078284949   -4.5595025    1.1328412   439061 
 2328000   0.75503173   -4.5589619   -4.5589619   -3.4264169  0.007310448   -4.5589619     1.132545   439061 
 2329000    0.7550505   -4.5592361   -4.5592361   -3.4266629 0.0087813837   -4.5592361    1.1325732   439061 
 2330000   0.75596139   -4.5590939   -4.5590939   -3.4251544 0.0077745816   -4.5590939    1.1339395   439061 
 2331000   0.75556254   -4.5591092   -4.5591092    -3.425768  0.013239017   -4.5591092    1.1333412   439061 
 2332000   0.75533676   -4.5589151   -4.5589151   -3.4259125  0.013453357   -4.5589151    1.1330026   439061 
 2333000   0.75387712   -4.5574016   -4.5574016   -3.4265885    0.0192734   -4.5574016    1.1308131   439061 
 2334000   0.75429151   -4.5588494   -4.5588494   -3.4274147   0.01122494   -4.5588494    1.1314347   439061 
 2335000   0.75575405   -4.5601247   -4.5601247   -3.4264962  0.012086107   -4.5601247    1.1336285   439061 
 2336000     0.756386   -4.5613511   -4.5613511   -3.4267747 0.0094135618   -4.5613511    1.1345764   439061 
 2337000   0.75505458    -4.559562    -4.559562   -3.4269827  0.012435812    -4.559562    1.1325793   439061 
 2338000   0.75555734   -4.5604828   -4.5604828   -3.4271493 0.0068878524   -4.5604828    1.1333334   439061 
 2339000   0.75429488   -4.5586229   -4.5586229   -3.4271831  0.011435857   -4.5586229    1.1314397   439061 
 2340000   0.75477259    -4.558462    -4.558462   -3.4263057  0.003583607    -4.558462    1.1321563   439061 
 2341000   0.75521554   -4.5591113   -4.5591113   -3.4262906 0.0082960539   -4.5591113    1.1328207   439061 
 2342000   0.75643412   -4.5609096   -4.5609096   -3.4262609 0.0035712553   -4.5609096    1.1346486   439061 
 2343000    0.7552123    -4.559043    -4.559043   -3.4262272 0.0070329614    -4.559043    1.1328159   439061 
 2344000   0.75527342   -4.5591473   -4.5591473   -3.4262397 0.0062459653   -4.5591473    1.1329076   439061 
 2345000   0.75465437   -4.5572017   -4.5572017   -3.4252228  0.011089757   -4.5572017     1.131979   439061 
 2346000   0.75531013   -4.5590254   -4.5590254   -3.4260628  0.011225014   -4.5590254    1.1329626   439061 
 2347000   0.75598807    -4.561528    -4.561528   -3.4275484 0.0076205217    -4.561528    1.1339795   439061 
 2348000   0.75477828    -4.560203    -4.560203   -3.4280381  0.012070466    -4.560203    1.1321648   439061 
 2349000   0.75579618   -4.5615656   -4.5615656   -3.4278739 0.0086205256   -4.5615656    1.1336917   439061 
 2350000   0.75473432   -4.5596806   -4.5596806   -3.4275817   0.01368298   -4.5596806    1.1320989   439061 
 2351000   0.75583185    -4.562267    -4.562267   -3.4285218  0.011664472    -4.562267    1.1337452   439061 
 2352000   0.75549871    -4.562479    -4.562479   -3.4292335  0.011762081    -4.562479    1.1332455   439061 
 2353000   0.75406167    -4.560956    -4.560956    -3.429866  0.010378052    -4.560956    1.1310899   439061 
 2354000    0.7546395   -4.5627802   -4.5627802   -3.4308236 0.0099680195   -4.5627802    1.1319567   439061 
 2355000   0.75430724   -4.5620742   -4.5620742   -3.4306159  0.011232394   -4.5620742    1.1314583   439061 
 2356000   0.75444225   -4.5614396   -4.5614396   -3.4297788 0.0097182648   -4.5614396    1.1316608   439061 
 2357000   0.75410592   -4.5610752   -4.5610752   -3.4299189  0.013138596   -4.5610752    1.1311563   439061 
 2358000   0.75396677   -4.5600754   -4.5600754   -3.4291278  0.013870649   -4.5600754    1.1309476   439061 
 2359000   0.75411872   -4.5602358   -4.5602358   -3.4290603   0.01234145   -4.5602358    1.1311755   439061 
 2360000   0.75440618   -4.5616699   -4.5616699   -3.4300632 0.0071272375   -4.5616699    1.1316067   439061 
 2361000   0.75486277   -4.5621367   -4.5621367   -3.4298451 0.0075975472   -4.5621367    1.1322916   439061 
 2362000   0.75444744   -4.5624324   -4.5624324   -3.4307638  0.009671715   -4.5624324    1.1316686   439061 
 2363000   0.75399568   -4.5620597   -4.5620597   -3.4310687 0.0061420232   -4.5620597    1.1309909   439061 
 2364000   0.75414173   -4.5616221   -4.5616221   -3.4304121 0.0056276235   -4.5616221      1.13121   439061 
 2365000   0.75355315   -4.5617494   -4.5617494   -3.4314223 0.0079597267   -4.5617494    1.1303272   439061 
 2366000   0.75454972   -4.5613144   -4.5613144   -3.4294924 0.0097043943   -4.5613144     1.131822   439061 
 2367000   0.75369185   -4.5601158   -4.5601158   -3.4295806  0.013633297   -4.5601158    1.1305352   439061 
 2368000   0.75473358   -4.5628148   -4.5628148    -3.430717 0.0096448206   -4.5628148    1.1320978   439061 
 2369000   0.75313787   -4.5613973   -4.5613973   -3.4316931  0.015015765   -4.5613973    1.1297042   439061 
 2370000   0.75670771   -4.5659144   -4.5659144   -3.4308554  0.005641307   -4.5659144     1.135059   439061 
 2371000   0.75517646   -4.5633363   -4.5633363   -3.4305742  0.011385722   -4.5633363    1.1327621   439061 
 2372000   0.75481309   -4.5630354   -4.5630354   -3.4308183  0.012355484   -4.5630354    1.1322171   439061 
 2373000   0.75579758   -4.5639631   -4.5639631   -3.4302694  0.013565674   -4.5639631    1.1336938   439061 
 2374000   0.75434241   -4.5618651   -4.5618651    -3.430354  0.016511281   -4.5618651     1.131511   439061 
 2375000   0.75469227   -4.5625132   -4.5625132   -3.4304774  0.012415305   -4.5625132    1.1320358   439061 
 2376000    0.7541548   -4.5624928   -4.5624928   -3.4312632  0.011427994   -4.5624928    1.1312296   439061 
 2377000   0.75270054    -4.560253    -4.560253   -3.4312048 0.0099684281    -4.560253    1.1290482   439061 
 2378000   0.75462092   -4.5628672   -4.5628672   -3.4309384  0.012733567   -4.5628672    1.1319288   439061 
 2379000   0.75350353   -4.5605927   -4.5605927     -3.43034  0.012753637   -4.5605927    1.1302527   439061 
 2380000   0.75459349   -4.5628959   -4.5628959   -3.4310083  0.011116366   -4.5628959    1.1318877   439061 
 2381000   0.75553889   -4.5638825   -4.5638825   -3.4305767 0.0057222171   -4.5638825    1.1333058   439061 
 2382000   0.75410231   -4.5624761   -4.5624761   -3.4313252  0.007803571   -4.5624761    1.1311509   439061 
 2383000   0.75396009   -4.5618786   -4.5618786    -3.430941 0.0094577966   -4.5618786    1.1309376   439061 
 2384000   0.75383744   -4.5619096   -4.5619096   -3.4311561  0.010528144   -4.5619096    1.1307536   439061 
 2385000   0.75621761   -4.5650844   -4.5650844   -3.4307605 0.0083860241   -4.5650844    1.1343238   439061 
 2386000   0.75478885    -4.561767    -4.561767   -3.4295864  0.013502384    -4.561767    1.1321807   439061 
 2387000   0.75469512   -4.5614926   -4.5614926   -3.4294525  0.014687647   -4.5614926    1.1320401   439061 
 2388000   0.75586082   -4.5639368   -4.5639368   -3.4301481   0.01389713   -4.5639368    1.1337886   439061 
 2389000   0.75399424   -4.5616653   -4.5616653   -3.4306765   0.01277431   -4.5616653    1.1309888   439061 
 2390000   0.75377821   -4.5627777   -4.5627777   -3.4321129  0.012556505   -4.5627777    1.1306647   439061 
 2391000    0.7534422   -4.5620906   -4.5620906   -3.4319299 0.0098741287   -4.5620906    1.1301607   439061 
 2392000   0.75447641   -4.5621707   -4.5621707   -3.4304587  0.013119059   -4.5621707     1.131712   439061 
 2393000   0.75396255   -4.5621612   -4.5621612     -3.43122  0.012669528   -4.5621612    1.1309413   439061 
 2394000   0.75462487   -4.5629493   -4.5629493   -3.4310146  0.012969464   -4.5629493    1.1319347   439061 
 2395000    0.7551279   -4.5642712   -4.5642712   -3.4315819 0.0083338153   -4.5642712    1.1326893   439061 
 2396000   0.75418346   -4.5617104   -4.5617104   -3.4304378  0.012137184   -4.5617104    1.1312726   439061 
 2397000   0.75590535   -4.5640779   -4.5640779   -3.4302224  0.010308646   -4.5640779    1.1338554   439061 
 2398000   0.75509137   -4.5636559   -4.5636559   -3.4310215 0.0095834727   -4.5636559    1.1326345   439061 
 2399000   0.75565764   -4.5646927   -4.5646927   -3.4312089  0.010053807   -4.5646927    1.1334839   439061 
 2400000   0.75526714   -4.5644907   -4.5644907   -3.4315926 0.0072987691   -4.5644907    1.1328981   439061 
 2401000   0.75316671   -4.5613186   -4.5613186   -3.4315711 0.0094459422   -4.5613186    1.1297475   439061 
 2402000   0.75351619   -4.5625239   -4.5625239   -3.4322522 0.0050259215   -4.5625239    1.1302717   439061 
 2403000   0.75510286   -4.5638069   -4.5638069   -3.4311552 0.0042252503   -4.5638069    1.1326517   439061 
 2404000   0.75421249   -4.5625468   -4.5625468   -3.4312307  0.012596493   -4.5625468    1.1313162   439061 
 2405000   0.75483873   -4.5638615   -4.5638615    -3.431606 0.0070301547   -4.5638615    1.1322555   439061 
 2406000   0.75423546    -4.562331    -4.562331   -3.4309803  0.011155306    -4.562331    1.1313506   439061 
 2407000   0.75405336   -4.5621705   -4.5621705   -3.4310931  0.011879462   -4.5621705    1.1310775   439061 
 2408000    0.7540245   -4.5628577   -4.5628577   -3.4318235  0.014113336   -4.5628577    1.1310342   439061 
 2409000   0.75401288   -4.5633082   -4.5633082   -3.4322915 0.0078101857   -4.5633082    1.1310167   439061 
 2410000   0.75432757   -4.5630301   -4.5630301   -3.4315413  0.012690296   -4.5630301    1.1314888   439061 
 2411000   0.75511468   -4.5633024   -4.5633024    -3.430633  0.012225326   -4.5633024    1.1326694   439061 
 2412000   0.75520266   -4.5652544   -4.5652544    -3.432453 0.0091240699   -4.5652544    1.1328014   439061 
 2413000   0.75437256   -4.5645881   -4.5645881   -3.4330318  0.012407921   -4.5645881    1.1315563   439061 
 2414000    0.7551789   -4.5645896   -4.5645896   -3.4318239  0.010753628   -4.5645896    1.1327658   439061 
 2415000   0.75421134   -4.5633682   -4.5633682   -3.4320538  0.010988673   -4.5633682    1.1313144   439061 
 2416000   0.75284472   -4.5617662   -4.5617662   -3.4325017  0.013855588   -4.5617662    1.1292645   439061 
 2417000   0.75329816   -4.5619761   -4.5619761   -3.4320315  0.013097661   -4.5619761    1.1299447   439061 
 2418000   0.75438455   -4.5646505   -4.5646505   -3.4330763 0.0091434672   -4.5646505    1.1315742   439061 
 2419000   0.75462621   -4.5642353   -4.5642353   -3.4322986  0.009187454   -4.5642353    1.1319367   439061 
 2420000   0.75374139   -4.5629724   -4.5629724   -3.4323628  0.011668038   -4.5629724    1.1306095   439061 
 2421000   0.75378243    -4.562721    -4.562721   -3.4320499  0.012196349    -4.562721    1.1306711   439061 
 2422000   0.75390945    -4.562609    -4.562609   -3.4317474  0.014053768    -4.562609    1.1308616   439061 
 2423000   0.75375907   -4.5622872   -4.5622872   -3.4316512  0.015552431   -4.5622872     1.130636   439061 
 2424000   0.75469053   -4.5631503   -4.5631503   -3.4311171  0.014205474   -4.5631503    1.1320332   439061 
 2425000   0.75403219   -4.5631698   -4.5631698   -3.4321241  0.012652852   -4.5631698    1.1310457   439061 
 2426000   0.75470918   -4.5640933   -4.5640933   -3.4320321 0.0092172766   -4.5640933    1.1320612   439061 
 2427000   0.75548663   -4.5652834   -4.5652834   -3.4320561 0.0060515206   -4.5652834    1.1332274   439061 
 2428000   0.75264353   -4.5613467   -4.5613467    -3.432384  0.008551721   -4.5613467    1.1289627   439061 
 2429000   0.75401963   -4.5631042   -4.5631042   -3.4320773 0.0082628075   -4.5631042    1.1310269   439061 
 2430000    0.7535982   -4.5626002   -4.5626002   -3.4322055  0.011953981   -4.5626002    1.1303947   439061 
 2431000   0.75473288   -4.5635209   -4.5635209   -3.4314241 0.0094692757   -4.5635209    1.1320967   439061 
 2432000   0.75462478   -4.5642678   -4.5642678   -3.4323333 0.0068721511   -4.5642678    1.1319346   439061 
 2433000   0.75431761   -4.5637306   -4.5637306   -3.4322568 0.0069718635   -4.5637306    1.1314738   439061 
 2434000   0.75489622   -4.5648516   -4.5648516   -3.4325099 0.0043661552   -4.5648516    1.1323418   439061 
 2435000   0.75405171   -4.5634683   -4.5634683   -3.4323933  0.012091737   -4.5634683     1.131075   439061 
 2436000   0.75435424   -4.5644739   -4.5644739   -3.4329452  0.012974569   -4.5644739    1.1315288   439061 
 2437000   0.75456752   -4.5639999   -4.5639999   -3.4321512 0.0070474818   -4.5639999    1.1318487   439061 
 2438000   0.75439593   -4.5650273   -4.5650273   -3.4334359  0.011688126   -4.5650273    1.1315913   439061 
 2439000   0.75482009   -4.5654908   -4.5654908   -3.4332632 0.0079240522   -4.5654908    1.1322276   439061 
 2440000   0.75358404   -4.5644033   -4.5644033   -3.4340298  0.011028598   -4.5644033    1.1303735   439061 
 2441000   0.75320025   -4.5647025   -4.5647025   -3.4349047  0.014421561   -4.5647025    1.1297978   439061 
 2442000   0.75277221   -4.5649005   -4.5649005   -3.4357447  0.011217673   -4.5649005    1.1291557   439061 
 2443000   0.75390224    -4.566387    -4.566387   -3.4355362 0.0063274038    -4.566387    1.1308508   439061 
 2444000    0.7526005   -4.5651391   -4.5651391   -3.4362409   0.01431053   -4.5651391    1.1288982   439061 
 2445000    0.7542887   -4.5667043   -4.5667043   -3.4352738  0.014908713   -4.5667043    1.1314305   439061 
 2446000    0.7546069   -4.5669641   -4.5669641   -3.4350563  0.012748264   -4.5669641    1.1319078   439061 
 2447000   0.75412012   -4.5656497   -4.5656497   -3.4344721  0.012565571   -4.5656497    1.1311776   439061 
 2448000   0.75442433   -4.5651106   -4.5651106   -3.4334767 0.0066542658   -4.5651106    1.1316339   439061 
 2449000   0.75447157   -4.5653023   -4.5653023   -3.4335975  0.014153432   -4.5653023    1.1317048   439061 
 2450000   0.75301931   -4.5633847   -4.5633847   -3.4338583 0.0094703419   -4.5633847    1.1295264   439061 
 2451000   0.75446178   -4.5660786   -4.5660786   -3.4343886  0.010449573   -4.5660786    1.1316901   439061 
 2452000   0.75376868   -4.5655237   -4.5655237   -3.4348733  0.010800867   -4.5655237    1.1306504   439061 
 2453000   0.75236143   -4.5620959   -4.5620959   -3.4335563 0.0097539277   -4.5620959    1.1285396   439061 
 2454000   0.75245899   -4.5634711   -4.5634711   -3.4347852  0.010129142   -4.5634711    1.1286859   439061 
 2455000   0.75326295   -4.5653223   -4.5653223   -3.4354305 0.0074066202   -4.5653223    1.1298919   439061 
 2456000   0.75358276   -4.5658235   -4.5658235    -3.435452 0.0084203889   -4.5658235    1.1303716   439061 
 2457000   0.75351083   -4.5653086   -4.5653086   -3.4350449 0.0074549449   -4.5653086    1.1302637   439061 
 2458000   0.75316623   -4.5643601   -4.5643601   -3.4346133 0.0088307287   -4.5643601    1.1297468   439061 
 2459000   0.75357798   -4.5659539   -4.5659539   -3.4355895   0.01136825   -4.5659539    1.1303644   439061 
 2460000   0.75372426   -4.5664657   -4.5664657   -3.4358819  0.011041994   -4.5664657    1.1305838   439061 
 2461000   0.75252628   -4.5649524   -4.5649524   -3.4361655  0.011081947   -4.5649524    1.1287869   439061 
 2462000   0.75190515   -4.5647923   -4.5647923   -3.4369371  0.011453506   -4.5647923    1.1278552   439061 
 2463000   0.75319456   -4.5678709   -4.5678709   -3.4380817 0.0054619777   -4.5678709    1.1297893   439061 
 2464000   0.75298922   -4.5674311   -4.5674311   -3.4379499 0.0090044301   -4.5674311    1.1294813   439061 
 2465000   0.75457743   -4.5694998   -4.5694998   -3.4376362 0.0063102742   -4.5694998    1.1318636   439061 
 2466000   0.75365246   -4.5675055   -4.5675055   -3.4370294   0.01385313   -4.5675055    1.1304761   439061 
 2467000   0.75449444   -4.5694371   -4.5694371    -3.437698  0.011274573   -4.5694371    1.1317391   439061 
 2468000   0.75288652   -4.5666603   -4.5666603   -3.4373331  0.015380231   -4.5666603    1.1293272   439061 
 2469000   0.75525364   -4.5698407   -4.5698407   -3.4369628  0.012279252   -4.5698407    1.1328779   439061 
 2470000   0.75287088   -4.5658489   -4.5658489   -3.4365452  0.015183578   -4.5658489    1.1293037   439061 
 2471000   0.75418753   -4.5673616   -4.5673616   -3.4360829  0.012189838   -4.5673616    1.1312787   439061 
 2472000   0.75302251   -4.5657902   -4.5657902    -3.436259  0.011732531   -4.5657902    1.1295312   439061 
 2473000   0.75342045   -4.5669445   -4.5669445   -3.4368164 0.0091847337   -4.5669445    1.1301281   439061 
 2474000   0.75442463   -4.5678624   -4.5678624    -3.436228  0.006524869   -4.5678624    1.1316344   439061 
 2475000   0.75234079   -4.5656104   -4.5656104   -3.4371018 0.0077581034   -4.5656104    1.1285086   439061 
 2476000   0.75245062   -4.5666618   -4.5666618   -3.4379884 0.0060333266   -4.5666618    1.1286734   439061 
 2477000   0.75284449   -4.5661212   -4.5661212    -3.436857 0.0082425678   -4.5661212    1.1292642   439061 
 2478000   0.75347482   -4.5672541   -4.5672541   -3.4370445 0.0076489229   -4.5672541    1.1302097   439061 
 2479000    0.7533942   -4.5670114   -4.5670114   -3.4369227  0.010750452   -4.5670114    1.1300887   439061 
 2480000   0.75395197   -4.5684865   -4.5684865   -3.4375611  0.011858077   -4.5684865    1.1309254   439061 
 2481000    0.7535708   -4.5681331   -4.5681331   -3.4377795  0.011523159   -4.5681331    1.1303536   439061 
 2482000   0.75319003   -4.5674851   -4.5674851   -3.4377026  0.010650564   -4.5674851    1.1297825   439061 
 2483000   0.75321756   -4.5687859   -4.5687859   -3.4389622  0.012371388   -4.5687859    1.1298238   439061 
 2484000   0.75364141   -4.5689506   -4.5689506   -3.4384911  0.013037395   -4.5689506    1.1304595   439061 
 2485000   0.75302121   -4.5676156   -4.5676156   -3.4380863  0.011315201   -4.5676156    1.1295292   439061 
 2486000   0.75423279   -4.5691494   -4.5691494   -3.4378028  0.010499874   -4.5691494    1.1313466   439061 
 2487000   0.75456538   -4.5705027   -4.5705027   -3.4386573   0.01114733   -4.5705027    1.1318455   439061 
 2488000   0.75464004    -4.569435    -4.569435   -3.4374775 0.0090011428    -4.569435    1.1319575   439061 
 2489000   0.75421557   -4.5682901   -4.5682901   -3.4369693 0.0094904591   -4.5682901    1.1313208   439061 
 2490000   0.75366646    -4.568562    -4.568562   -3.4380649 0.0096278902    -4.568562    1.1304971   439061 
 2491000   0.75257893   -4.5676089   -4.5676089    -3.438743 0.0061936619   -4.5676089    1.1288658   439061 
 2492000   0.75185783   -4.5670171   -4.5670171   -3.4392329 0.0082591868   -4.5670171    1.1277842   439061 
 2493000   0.75181079   -4.5666369   -4.5666369   -3.4389232 0.0020817957   -4.5666369    1.1277136   439061 
 2494000   0.75229351   -4.5683089   -4.5683089   -3.4398712 0.0015699895   -4.5683089    1.1284377   439061 
 2495000   0.75096524   -4.5653723   -4.5653723    -3.438927 0.0081527286   -4.5653723    1.1264453   439061 
 2496000   0.75343217   -4.5689908   -4.5689908   -3.4388451 0.0037735846   -4.5689908    1.1301457   439061 
 2497000   0.75352928   -4.5683453   -4.5683453    -3.438054  0.014742479   -4.5683453    1.1302913   439061 
 2498000    0.7557984   -4.5719643   -4.5719643   -3.4382692 0.0092934533   -4.5719643     1.133695   439061 
 2499000   0.75426408   -4.5701926   -4.5701926   -3.4387991  0.018845542   -4.5701926    1.1313935   439061 
 2500000   0.75411968   -4.5696988   -4.5696988   -3.4385218  0.015820875   -4.5696988    1.1311769   439061 
 2501000   0.75460614   -4.5715299   -4.5715299   -3.4396233  0.011956206   -4.5715299    1.1319066   439061 
 2502000   0.75366621   -4.5705172   -4.5705172   -3.4400205  0.012503946   -4.5705172    1.1304967   439061 
 2503000   0.75343215   -4.5712968   -4.5712968   -3.4411512 0.0077699693   -4.5712968    1.1301457   439061 
 2504000   0.75145503   -4.5683814   -4.5683814   -3.4412014   0.01015099   -4.5683814      1.12718   439061 
 2505000   0.75191723   -4.5688764   -4.5688764   -3.4410031 0.0087684112   -4.5688764    1.1278733   439061 
 2506000   0.75255829   -4.5685226   -4.5685226   -3.4396877 0.0099171817   -4.5685226    1.1288349   439061 
 2507000   0.75362667   -4.5693935   -4.5693935   -3.4389561 0.0072002443   -4.5693935    1.1304374   439061 
 2508000   0.75214263   -4.5655886   -4.5655886   -3.4373772  0.010629943   -4.5655886    1.1282114   439061 
 2509000   0.75382105     -4.56905     -4.56905    -3.438321 0.0037446659     -4.56905     1.130729   439061 
 2510000   0.75178388   -4.5652018   -4.5652018   -3.4375285 0.0029339581   -4.5652018    1.1276733   439061 
 2511000   0.75270709   -4.5662087   -4.5662087   -3.4371506 0.0037716424   -4.5662087    1.1290581   439061 
 2512000   0.75284273   -4.5648741   -4.5648741   -3.4356126  0.011899941   -4.5648741    1.1292615   439061 
 2513000   0.75471376   -4.5669869   -4.5669869   -3.4349188  0.011469551   -4.5669869    1.1320681   439061 
 2514000   0.75359717   -4.5658181   -4.5658181   -3.4354249  0.017140025   -4.5658181    1.1303932   439061 
 2515000   0.75394976   -4.5668613   -4.5668613   -3.4359392 0.0044247001   -4.5668613    1.1309221   439061 
 2516000   0.75295194   -4.5666626   -4.5666626   -3.4372373 0.0066039081   -4.5666626    1.1294253   439061 
 2517000   0.75367561   -4.5689942   -4.5689942   -3.4384833 0.0066067512   -4.5689942    1.1305108   439061 
 2518000   0.75297019   -4.5677913   -4.5677913   -3.4383386 0.0064319869   -4.5677913    1.1294527   439061 
 2519000   0.75307607    -4.567695    -4.567695   -3.4380835 0.0092973236    -4.567695    1.1296115   439061 
 2520000    0.7546374    -4.570298    -4.570298   -3.4383445   0.01102397    -4.570298    1.1319535   439061 
 2521000   0.75254684   -4.5686536   -4.5686536   -3.4398359  0.014707798   -4.5686536    1.1288177   439061 
 2522000   0.75330411   -4.5704311   -4.5704311   -3.4404775 0.0087425269   -4.5704311    1.1299536   439061 
 2523000   0.75252255   -4.5698369   -4.5698369   -3.4410556  0.010759775   -4.5698369    1.1287813   439061 
 2524000   0.75234182   -4.5688975   -4.5688975   -3.4403873  0.011935666   -4.5688975    1.1285102   439061 
 2525000   0.75415965   -4.5713717   -4.5713717   -3.4401348 0.0050573992   -4.5713717    1.1312369   439061 
 2526000   0.75307026   -4.5698137   -4.5698137   -3.4402109  0.015300124   -4.5698137    1.1296028   439061 
 2527000   0.75403279   -4.5702943   -4.5702943   -3.4392477  0.011604177   -4.5702943    1.1310466   439061 
 2528000   0.75442862    -4.570922    -4.570922   -3.4392816  0.013469142    -4.570922    1.1316403   439061 
 2529000   0.75320743   -4.5688823   -4.5688823   -3.4390737    0.0159268   -4.5688823    1.1298086   439061 
 2530000    0.7532259   -4.5694142   -4.5694142    -3.439578  0.013599807   -4.5694142    1.1298363   439061 
 2531000   0.75243669   -4.5685749   -4.5685749   -3.4399224  0.011125968   -4.5685749    1.1286525   439061 
 2532000   0.75256061   -4.5684041   -4.5684041   -3.4395658  0.014391392   -4.5684041    1.1288383   439061 
 2533000   0.75221189   -4.5665704   -4.5665704   -3.4382552 0.0093795858   -4.5665704    1.1283153   439061 
 2534000   0.75204117    -4.567527    -4.567527   -3.4394678 0.0055900441    -4.567527    1.1280592   439061 
 2535000   0.75257157   -4.5694406   -4.5694406   -3.4405858 0.0044459905   -4.5694406    1.1288548   439061 
 2536000   0.75151976   -4.5675937   -4.5675937   -3.4403166 0.0038635258   -4.5675937    1.1272771   439061 
 2537000   0.75174569   -4.5668946   -4.5668946   -3.4392786 0.0035946455   -4.5668946     1.127616   439061 
 2538000   0.75193936   -4.5671181   -4.5671181   -3.4392117 0.0052225572   -4.5671181    1.1279065   439061 
 2539000   0.75277371   -4.5684828   -4.5684828   -3.4393248  0.011179795   -4.5684828     1.129158   439061 
 2540000   0.75388819   -4.5694219   -4.5694219   -3.4385922  0.014160403   -4.5694219    1.1308297   439061 
 2541000   0.75378678   -4.5697604   -4.5697604   -3.4390828  0.017322438   -4.5697604    1.1306776   439061 
 2542000   0.75404967   -4.5711994   -4.5711994   -3.4401275   0.01301595   -4.5711994    1.1310719   439061 
 2543000   0.75186813   -4.5696911   -4.5696911   -3.4418914   0.01439186   -4.5696911    1.1277996   439061 
 2544000   0.75241761   -4.5719503   -4.5719503   -3.4433265 0.0084519935   -4.5719503    1.1286238   439061 
 2545000   0.75268095   -4.5725449   -4.5725449    -3.443526  0.010010001   -4.5725449    1.1290189   439061 
 2546000   0.75290215   -4.5711792   -4.5711792   -3.4418285  0.014418944   -4.5711792    1.1293507   439061 
 2547000   0.75293069   -4.5705848   -4.5705848   -3.4411913  0.014299785   -4.5705848    1.1293935   439061 
 2548000   0.75388825   -4.5726199   -4.5726199   -3.4417901 0.0094103778   -4.5726199    1.1308298   439061 
 2549000   0.75252398   -4.5703302   -4.5703302   -3.4415468 0.0056938357   -4.5703302    1.1287834   439061 
 2550000   0.75142353   -4.5698333   -4.5698333   -3.4427006 0.0088307158   -4.5698333    1.1271327   439061 
 2551000   0.75131865   -4.5704805   -4.5704805   -3.4435051 0.0048750668   -4.5704805    1.1269754   439061 
 2552000   0.75118625   -4.5696425   -4.5696425   -3.4428656 0.0089804696   -4.5696425    1.1267768   439061 
 2553000   0.75141079   -4.5694142   -4.5694142   -3.4423006  0.006902499   -4.5694142    1.1271136   439061 
 2554000   0.75179056     -4.57053     -4.57053   -3.4428468  0.007552023     -4.57053    1.1276833   439061 
 2555000   0.75217178   -4.5710478   -4.5710478   -3.4427927  0.012420256   -4.5710478    1.1282551   439061 
 2556000    0.7521322   -4.5709021   -4.5709021   -3.4427064  0.012735707   -4.5709021    1.1281957   439061 
 2557000   0.75295529   -4.5720292   -4.5720292   -3.4425989 0.0070699757   -4.5720292    1.1294304   439061 
 2558000   0.75172414   -4.5723679   -4.5723679   -3.4447843   0.01154769   -4.5723679    1.1275836   439061 
 2559000   0.75321604   -4.5730423   -4.5730423   -3.4432208  0.012406707   -4.5730423    1.1298215   439061 
 2560000   0.75358101   -4.5741593   -4.5741593   -3.4437904   0.01396118   -4.5741593    1.1303689   439061 
 2561000    0.7529466   -4.5734933   -4.5734933    -3.444076  0.013633591   -4.5734933    1.1294173   439061 
 2562000   0.75322216   -4.5747526   -4.5747526   -3.4449219  0.016673691   -4.5747526    1.1298307   439061 
 2563000   0.75323235    -4.574165    -4.574165    -3.444319   0.01297179    -4.574165     1.129846   439061 
 2564000   0.75260813   -4.5737711   -4.5737711   -3.4448614 0.0051345534   -4.5737711    1.1289096   439061 
 2565000   0.75216893   -4.5719208   -4.5719208     -3.44367 0.0050727179   -4.5719208    1.1282508   439061 
 2566000     0.752508   -4.5716681   -4.5716681   -3.4429087  0.010791982   -4.5716681    1.1287594   439061 
 2567000   0.75310741   -4.5721778   -4.5721778   -3.4425193 0.0072769754   -4.5721778    1.1296585   439061 
 2568000   0.75344059   -4.5712763   -4.5712763    -3.441118  0.011806409   -4.5712763    1.1301583   439061 
 2569000   0.75207067     -4.56918     -4.56918   -3.4410766  0.010175973     -4.56918    1.1281034   439061 
 2570000   0.75170058   -4.5682526   -4.5682526   -3.4407043   0.01060401   -4.5682526    1.1275483   439061 
 2571000   0.75160777   -4.5688671   -4.5688671    -3.441458 0.0075914031   -4.5688671    1.1274091   439061 
 2572000   0.75130167   -4.5682068   -4.5682068   -3.4412569  0.002697552   -4.5682068    1.1269499   439061 
 2573000   0.75018317   -4.5658836   -4.5658836   -3.4406114  0.012444405   -4.5658836    1.1252722   439061 
 2574000    0.7525241   -4.5683328   -4.5683328   -3.4395492 0.0068907922   -4.5683328    1.1287836   439061 
 2575000    0.7523315   -4.5681373   -4.5681373   -3.4396426 0.0092354178   -4.5681373    1.1284947   439061 
 2576000    0.7523836   -4.5674646   -4.5674646   -3.4388918  0.010271153   -4.5674646    1.1285728   439061 
 2577000   0.75365315   -4.5692195   -4.5692195   -3.4387423  0.011458067   -4.5692195    1.1304772   439061 
 2578000   0.75376296   -4.5684432   -4.5684432   -3.4378013  0.011892584   -4.5684432    1.1306419   439061 
 2579000   0.75385289   -4.5691895   -4.5691895   -3.4384127  0.013282121   -4.5691895    1.1307768   439061 
 2580000   0.75440031    -4.571596    -4.571596   -3.4399981  0.010446895    -4.571596    1.1315979   439061 
 2581000   0.75378977   -4.5707688   -4.5707688   -3.4400867  0.011245019   -4.5707688    1.1306821   439061 
 2582000   0.75266328   -4.5692478   -4.5692478   -3.4402554  0.010633982   -4.5692478    1.1289924   439061 
 2583000   0.75184438   -4.5688257   -4.5688257   -3.4410617  0.010133681   -4.5688257     1.127764   439061 
 2584000   0.75297244   -4.5700605   -4.5700605   -3.4406044  0.014504873   -4.5700605    1.1294561   439061 
 2585000   0.75300221   -4.5698917   -4.5698917    -3.440391  0.011016069   -4.5698917    1.1295007   439061 
 2586000   0.75340049   -4.5698796   -4.5698796   -3.4397814  0.010382803   -4.5698796    1.1300982   439061 
 2587000   0.75214413   -4.5685149   -4.5685149   -3.4403012  0.013607108   -4.5685149    1.1282136   439061 
 2588000   0.75185741   -4.5689258   -4.5689258   -3.4411423    0.0098702   -4.5689258    1.1277835   439061 
 2589000   0.75312025   -4.5706354   -4.5706354   -3.4409576 0.0049250363   -4.5706354    1.1296778   439061 
 2590000   0.75442345   -4.5716974   -4.5716974   -3.4400648 0.0062788332   -4.5716974    1.1316326   439061 
 2591000   0.75238286   -4.5700089   -4.5700089   -3.4414372 0.0084840861   -4.5700089    1.1285717   439061 
 2592000   0.75257561   -4.5679288   -4.5679288    -3.439068  0.012431219   -4.5679288    1.1288608   439061 
 2593000   0.75332805   -4.5695217   -4.5695217   -3.4395322  0.012236676   -4.5695217    1.1299895   439061 
 2594000   0.75283839   -4.5707218   -4.5707218   -3.4414668  0.010970341   -4.5707218     1.129255   439061 
 2595000    0.7525396    -4.570322    -4.570322   -3.4415151  0.011602188    -4.570322    1.1288068   439061 
 2596000   0.75221091   -4.5689292   -4.5689292   -3.4406154  0.011922874   -4.5689292    1.1283138   439061 
 2597000   0.75210974   -4.5700702   -4.5700702   -3.4419082   0.01039224   -4.5700702     1.128162   439061 
 2598000   0.75218138   -4.5714129   -4.5714129   -3.4431434    0.0103201   -4.5714129    1.1282695   439061 
 2599000   0.75282617   -4.5717237   -4.5717237    -3.442487 0.0074824396   -4.5717237    1.1292367   439061 
 2600000   0.75261758   -4.5715658   -4.5715658    -3.442642 0.0089269408   -4.5715658    1.1289238   439061 
 2601000    0.7520589   -4.5715186   -4.5715186   -3.4434328 0.0032450868   -4.5715186    1.1280858   439061 
 2602000   0.75243882   -4.5719815   -4.5719815   -3.4433259 0.0082362897   -4.5719815    1.1286557   439061 
 2603000   0.75221181   -4.5712497   -4.5712497   -3.4429346  0.011920683   -4.5712497    1.1283151   439061 
 2604000   0.75293983   -4.5714116   -4.5714116   -3.4420045    0.0117895   -4.5714116    1.1294072   439061 
 2605000   0.75315936   -4.5720556   -4.5720556   -3.4423191   0.01404709   -4.5720556    1.1297365   439061 
 2606000   0.75342839    -4.572677    -4.572677    -3.442537 0.0075196751    -4.572677      1.13014   439061 
 2607000   0.75185321   -4.5696055   -4.5696055   -3.4418283  0.010956145   -4.5696055    1.1277773   439061 
 2608000   0.75269602   -4.5721682   -4.5721682   -3.4431268 0.0068077943   -4.5721682    1.1290415   439061 
 2609000   0.75240981   -4.5717028   -4.5717028   -3.4430906 0.0066221588   -4.5717028    1.1286121   439061 
 2610000   0.75371396   -4.5729664   -4.5729664    -3.442398  0.010154371   -4.5729664    1.1305684   439061 
 2611000   0.75290164   -4.5713328   -4.5713328   -3.4419829  0.010459648   -4.5713328    1.1293499   439061 
 2612000    0.7523438   -4.5704472   -4.5704472    -3.441934  0.015628737   -4.5704472    1.1285131   439061 
 2613000   0.75295499   -4.5718334   -4.5718334   -3.4424035  0.010390382   -4.5718334    1.1294299   439061 
 2614000   0.75311561   -4.5711594   -4.5711594   -3.4414886  0.014285519   -4.5711594    1.1296708   439061 
 2615000   0.75240897   -4.5715589   -4.5715589    -3.442948  0.012503421   -4.5715589    1.1286109   439061 
 2616000   0.75310164   -4.5716429   -4.5716429    -3.441993 0.0069121233   -4.5716429    1.1296499   439061 
 2617000   0.75189057   -4.5701134   -4.5701134   -3.4422801 0.0066319643   -4.5701134    1.1278333   439061 
 2618000   0.75151808   -4.5690371   -4.5690371   -3.4417626 0.0092511211   -4.5690371    1.1272746   439061 
 2619000   0.75177318   -4.5698772   -4.5698772     -3.44222 0.0066009542   -4.5698772    1.1276572   439061 
 2620000   0.75217089   -4.5703712   -4.5703712   -3.4421174 0.0094816866   -4.5703712    1.1282538   439061 
 2621000   0.75172405   -4.5701574   -4.5701574   -3.4425739 0.0071741276   -4.5701574    1.1275835   439061 
 2622000   0.75381748   -4.5719587   -4.5719587   -3.4412351 0.0072926533   -4.5719587    1.1307236   439061 
 2623000   0.75229695   -4.5702239   -4.5702239    -3.441781 0.0089275528   -4.5702239    1.1284429   439061 
 2624000   0.75317687   -4.5728225   -4.5728225   -3.4430597 0.0040856372   -4.5728225    1.1297627   439061 
 2625000   0.75236972    -4.571065    -4.571065    -3.442513  0.012539777    -4.571065     1.128552   439061 
 2626000   0.75297738   -4.5719452   -4.5719452   -3.4424817  0.014021045   -4.5719452    1.1294635   439061 
 2627000   0.75290122   -4.5716398   -4.5716398   -3.4422906  0.014091419   -4.5716398    1.1293493   439061 
 2628000   0.75293224   -4.5733557   -4.5733557     -3.44396 0.0087212822   -4.5733557    1.1293958   439061 
 2629000    0.7525165   -4.5727441   -4.5727441    -3.443972  0.013929396   -4.5727441    1.1287722   439061 
 2630000   0.75231286   -4.5732067   -4.5732067   -3.4447399 0.0093115643   -4.5732067    1.1284667   439061 
 2631000   0.75302699   -4.5726611   -4.5726611   -3.4431232 0.0088255211   -4.5726611    1.1295379   439061 
 2632000   0.75441557   -4.5736759   -4.5736759   -3.4420551  0.011250656   -4.5736759    1.1316208   439061 
 2633000   0.75480098   -4.5726542   -4.5726542   -3.4404553     0.014373   -4.5726542    1.1321989   439061 
 2634000   0.75311768    -4.571502    -4.571502    -3.441828  0.017785913    -4.571502    1.1296739   439061 
 2635000   0.75388337   -4.5725243   -4.5725243   -3.4417018 0.0091187805   -4.5725243    1.1308225   439061 
 2636000   0.75313682   -4.5715365   -4.5715365   -3.4418338 0.0038552224   -4.5715365    1.1297027   439061 
 2637000   0.75235843   -4.5714633   -4.5714633   -3.4429282 0.0048518858   -4.5714633    1.1285351   439061 
 2638000   0.75150558   -4.5696941   -4.5696941   -3.4424383 0.0084033585   -4.5696941    1.1272558   439061 
 2639000   0.75157832   -4.5701287   -4.5701287   -3.4427638 0.0036371687   -4.5701287    1.1273649   439061 
 2640000   0.75132008   -4.5682534   -4.5682534   -3.4412759 0.0084294008   -4.5682534    1.1269776   439061 
 2641000   0.75121272   -4.5683906   -4.5683906   -3.4415741 0.0032798756   -4.5683906    1.1268165   439061 
 2642000    0.7509399   -4.5692904   -4.5692904   -3.4428831 0.0034702599   -4.5692904    1.1264073   439061 
 2643000   0.75114181   -4.5689402   -4.5689402   -3.4422301  0.011164015   -4.5689402    1.1267101   439061 
 2644000   0.75304297    -4.572183    -4.572183   -3.4426211 0.0081490168    -4.572183    1.1295619   439061 
 2645000   0.75247511   -4.5706304   -4.5706304   -3.4419203  0.016959372   -4.5706304    1.1287101   439061 
 2646000   0.75231548   -4.5734442   -4.5734442   -3.4449736 0.0072545904   -4.5734442    1.1284707   439061 
 2647000   0.75222264   -4.5729011   -4.5729011   -3.4445697  0.012208321   -4.5729011    1.1283314   439061 
 2648000     0.753085   -4.5745917   -4.5745917   -3.4449668 0.0092126071   -4.5745917    1.1296249   439061 
 2649000   0.75176931   -4.5736488   -4.5736488   -3.4459974  0.011792121   -4.5736488    1.1276514   439061 
 2650000   0.75223555   -4.5739455   -4.5739455   -3.4455947  0.011851388   -4.5739455    1.1283508   439061 
 2651000   0.75198947   -4.5739308   -4.5739308   -3.4459491 0.0084293295   -4.5739308    1.1279816   439061 
 2652000    0.7517703    -4.573472    -4.573472   -3.4458191  0.016903607    -4.573472    1.1276529   439061 
 2653000   0.75344079   -4.5759348   -4.5759348   -3.4457762 0.0078415618   -4.5759348    1.1301586   439061 
 2654000   0.75112806   -4.5724141   -4.5724141   -3.4457246 0.0079358543   -4.5724141    1.1266895   439061 
 2655000   0.75127142   -4.5717383   -4.5717383   -3.4448337  0.010875522   -4.5717383    1.1269046   439061 
 2656000   0.75304349   -4.5749073   -4.5749073   -3.4453446  0.013527196   -4.5749073    1.1295627   439061 
 2657000   0.75199581   -4.5744012   -4.5744012   -3.4464101  0.008100985   -4.5744012    1.1279911   439061 
 2658000   0.75241721   -4.5743301   -4.5743301   -3.4457068 0.0078595519   -4.5743301    1.1286232   439061 
 2659000   0.75260212   -4.5749072   -4.5749072   -3.4460066 0.0073529763   -4.5749072    1.1289006   439061 
 2660000   0.75186795   -4.5741484   -4.5741484   -3.4463491 0.0074718675   -4.5741484    1.1277993   439061 
 2661000   0.75125021   -4.5727417   -4.5727417    -3.445869 0.0085816858   -4.5727417    1.1268727   439061 
 2662000   0.75242232    -4.574042    -4.574042   -3.4454111  0.014805001    -4.574042    1.1286309   439061 
 2663000   0.75229523   -4.5747269   -4.5747269   -3.4462866  0.012125598   -4.5747269    1.1284403   439061 
 2664000   0.75074571    -4.571753    -4.571753    -3.445637  0.016830541    -4.571753     1.126116   439061 
 2665000    0.7514414   -4.5725965   -4.5725965   -3.4454369  0.012779887   -4.5725965    1.1271595   439061 
 2666000   0.75178158   -4.5726178   -4.5726178    -3.444948  0.011132061   -4.5726178    1.1276698   439061 
 2667000   0.75300683   -4.5729105   -4.5729105   -3.4434028 0.0091373555   -4.5729105    1.1295077   439061 
 2668000   0.75278229   -4.5722458   -4.5722458   -3.4430749  0.011682891   -4.5722458    1.1291709   439061 
 2669000   0.75278207   -4.5711719   -4.5711719   -3.4420013  0.010571144   -4.5711719    1.1291705   439061 
 2670000   0.75276397    -4.571389    -4.571389   -3.4422456   0.01199166    -4.571389    1.1291434   439061 
 2671000   0.75098905   -4.5696783   -4.5696783   -3.4431973  0.010041487   -4.5696783     1.126481   439061 
 2672000   0.75100564   -4.5697946   -4.5697946   -3.4432887 0.0079391422   -4.5697946    1.1265059   439061 
 2673000   0.75126573   -4.5705725   -4.5705725   -3.4436765 0.00093418073   -4.5705725     1.126896   439061 
 2674000   0.75154785   -4.5701633   -4.5701633   -3.4428441 0.0061435288   -4.5701633    1.1273192   439061 
 2675000   0.75311956   -4.5729011   -4.5729011   -3.4432243 0.0052410364   -4.5729011    1.1296768   439061 
 2676000   0.75291281   -4.5724236   -4.5724236    -3.443057 0.0084531909   -4.5724236    1.1293666   439061 
 2677000   0.75216083   -4.5708606   -4.5708606    -3.442622  0.010366169   -4.5708606    1.1282387   439061 
 2678000   0.75205261   -4.5717763   -4.5717763   -3.4436999 0.0059867262   -4.5717763    1.1280764   439061 
 2679000   0.75272394   -4.5730165   -4.5730165   -3.4439332 0.0071089127   -4.5730165    1.1290833   439061 
 2680000   0.75227074   -4.5736626   -4.5736626   -3.4452591  0.010334981   -4.5736626    1.1284035   439061 
 2681000   0.75175436   -4.5719091   -4.5719091   -3.4442801  0.012365194   -4.5719091     1.127629   439061 
 2682000   0.75238191   -4.5730797   -4.5730797   -3.4445094  0.013538333   -4.5730797    1.1285703   439061 
 2683000    0.7520673    -4.572897    -4.572897   -3.4447986  0.012682659    -4.572897    1.1280984   439061 
 2684000   0.75225894   -4.5735351   -4.5735351   -3.4451492  0.013060991   -4.5735351    1.1283858   439061 
 2685000    0.7524349   -4.5733121   -4.5733121   -3.4446623    0.0120939   -4.5733121    1.1286498   439061 
 2686000   0.75255103   -4.5729605   -4.5729605   -3.4441366  0.012396768   -4.5729605     1.128824   439061 
 2687000   0.75244673   -4.5743727   -4.5743727   -3.4457052 0.0033986993   -4.5743727    1.1286675   439061 
 2688000   0.75219087   -4.5732052   -4.5732052   -3.4449215 0.0066859864   -4.5732052    1.1282837   439061 
 2689000   0.75134818   -4.5720238   -4.5720238   -3.4450041  0.011957541   -4.5720238    1.1270197   439061 
 2690000   0.75342669   -4.5740355   -4.5740355   -3.4438981  0.011696118   -4.5740355    1.1301375   439061 
 2691000   0.75248749   -4.5726937   -4.5726937    -3.443965 0.0098580317   -4.5726937    1.1287287   439061 
 2692000   0.75136635   -4.5715167   -4.5715167   -3.4444697  0.007015683   -4.5715167     1.127047   439061 
 2693000   0.75094736   -4.5711514   -4.5711514   -3.4447329  0.002851046   -4.5711514    1.1264185   439061 
 2694000   0.75051752   -4.5696031   -4.5696031   -3.4438293 0.0075410871   -4.5696031    1.1257737   439061 
 2695000    0.7520662   -4.5718219   -4.5718219   -3.4437252  0.010360801   -4.5718219    1.1280967   439061 
 2696000   0.75170313   -4.5719093   -4.5719093   -3.4443572  0.012948667   -4.5719093    1.1275521   439061 
 2697000   0.75192053    -4.572996    -4.572996   -3.4451178 0.0077747292    -4.572996    1.1278782   439061 
 2698000   0.75232013   -4.5735663   -4.5735663   -3.4450887 0.0070019811   -4.5735663    1.1284776   439061 
 2699000   0.75202763   -4.5730832   -4.5730832   -3.4450443 0.0095113821   -4.5730832    1.1280389   439061 
 2700000   0.75204454   -4.5739323   -4.5739323   -3.4458681  0.010259611   -4.5739323    1.1280642   439061 
 2701000   0.75233203   -4.5755987   -4.5755987   -3.4471032  0.010398788   -4.5755987    1.1284955   439061 
 2702000   0.75190012   -4.5740135   -4.5740135   -3.4461659  0.016672229   -4.5740135    1.1278476   439061 
 2703000   0.75101678   -4.5733748   -4.5733748   -3.4468522  0.012115561   -4.5733748    1.1265226   439061 
 2704000   0.75334685   -4.5761769   -4.5761769   -3.4461592 0.0096130226   -4.5761769    1.1300177   439061 
 2705000   0.75225951   -4.5754619   -4.5754619   -3.4470752 0.0078283166   -4.5754619    1.1283867   439061 
 2706000   0.75206644   -4.5742316   -4.5742316   -3.4461345  0.012361354   -4.5742316    1.1280971   439061 
 2707000   0.75168617   -4.5738495   -4.5738495   -3.4463228  0.012836729   -4.5738495    1.1275267   439061 
 2708000   0.75492317   -4.5770018   -4.5770018   -3.4446196 0.0097075761   -4.5770018    1.1323822   439061 
 2709000   0.75188643   -4.5719161   -4.5719161   -3.4440891  0.016840167   -4.5719161    1.1278271   439061 
 2710000   0.75207142   -4.5735774   -4.5735774   -3.4454728 0.0070273958   -4.5735774    1.1281046   439061 
 2711000   0.75210458   -4.5734887   -4.5734887   -3.4453344 0.0031019259   -4.5734887    1.1281543   439061 
 2712000   0.75064893    -4.572601    -4.572601   -3.4466301 0.0044339151    -4.572601    1.1259708   439061 
 2713000   0.75038576   -4.5716995   -4.5716995   -3.4461234 0.0018744411   -4.5716995    1.1255761   439061 
 2714000   0.75117833   -4.5720395   -4.5720395   -3.4452746 0.0070322077   -4.5720395    1.1267649   439061 
 2715000   0.75153639   -4.5732433   -4.5732433   -3.4459413 0.0045705801   -4.5732433     1.127302   439061 
 2716000   0.75113723   -4.5707879   -4.5707879   -3.4440846   0.01013342   -4.5707879    1.1267033   439061 
 2717000   0.75113339   -4.5714472   -4.5714472   -3.4447497  0.012293223   -4.5714472    1.1266975   439061 
 2718000   0.75214819   -4.5727886   -4.5727886   -3.4445689  0.015639873   -4.5727886    1.1282197   439061 
 2719000   0.75248124   -4.5733923   -4.5733923    -3.444673 0.0076804332   -4.5733923    1.1287193   439061 
 2720000   0.75261659   -4.5728415   -4.5728415   -3.4439192  0.012362312   -4.5728415    1.1289223   439061 
 2721000   0.75284174   -4.5728934   -4.5728934   -3.4436334   0.01859679   -4.5728934      1.12926   439061 
 2722000   0.75295431   -4.5742995   -4.5742995   -3.4448706  0.014483436   -4.5742995    1.1294289   439061 
 2723000   0.75327856   -4.5740609   -4.5740609   -3.4441456  0.010456643   -4.5740609    1.1299153   439061 
 2724000   0.75220337   -4.5738121   -4.5738121   -3.4455096 0.0099293444   -4.5738121    1.1283025   439061 
 2725000   0.75274882   -4.5742041   -4.5742041   -3.4450834 0.0082478212   -4.5742041    1.1291207   439061 
 2726000   0.75045087   -4.5724849   -4.5724849   -3.4468112 0.0084299949   -4.5724849    1.1256737   439061 
 2727000    0.7521117   -4.5729812   -4.5729812   -3.4448162   0.00655771   -4.5729812     1.128165   439061 
 2728000   0.75216013   -4.5742304   -4.5742304   -3.4459927 0.0075338976   -4.5742304    1.1282376   439061 
 2729000   0.75051591   -4.5722061   -4.5722061   -3.4464348  0.011366804   -4.5722061    1.1257713   439061 
 2730000   0.75086731    -4.572676    -4.572676   -3.4463776  0.012208988    -4.572676    1.1262984   439061 
 2731000   0.75148136   -4.5739551   -4.5739551   -3.4467356  0.007298386   -4.5739551    1.1272195   439061 
 2732000   0.75171073   -4.5736399   -4.5736399   -3.4460764  0.012629345   -4.5736399    1.1275635   439061 
 2733000   0.75270309   -4.5735443   -4.5735443   -3.4444922  0.015626604   -4.5735443    1.1290521   439061 
 2734000   0.75307248   -4.5752773   -4.5752773   -3.4456711  0.013162439   -4.5752773    1.1296061   439061 
 2735000   0.75266367   -4.5747833   -4.5747833   -3.4457903    0.0133442   -4.5747833    1.1289929   439061 
 2736000   0.75232006   -4.5730797   -4.5730797   -3.4446022  0.015710992   -4.5730797    1.1284775   439061 
 2737000   0.75224912   -4.5722541   -4.5722541    -3.443883  0.013456341   -4.5722541    1.1283711   439061 
 2738000   0.75235592   -4.5730943   -4.5730943    -3.444563  0.011582391   -4.5730943    1.1285313   439061 
 2739000    0.7519872   -4.5737228   -4.5737228   -3.4457446  0.011281374   -4.5737228    1.1279782   439061 
 2740000   0.75280633   -4.5746257   -4.5746257   -3.4454188 0.0058107764   -4.5746257    1.1292069   439061 
 2741000   0.75250042   -4.5729469   -4.5729469   -3.4441988 0.0063107147   -4.5729469    1.1287481   439061 
 2742000   0.75225999   -4.5726419   -4.5726419   -3.4442545 0.0046064195   -4.5726419    1.1283874   439061 
 2743000   0.75224652   -4.5721519   -4.5721519   -3.4437847 0.0099056013   -4.5721519    1.1283672   439061 
 2744000   0.75291588   -4.5727992   -4.5727992    -3.443428 0.0096488184   -4.5727992    1.1293713   439061 
 2745000   0.75251158   -4.5739595   -4.5739595   -3.4451947 0.0011751278   -4.5739595    1.1287648   439061 
 2746000   0.75169014   -4.5736444   -4.5736444   -3.4461118  0.005312599   -4.5736444    1.1275326   439061 
 2747000   0.75197588   -4.5728816   -4.5728816   -3.4449203  0.010419337   -4.5728816    1.1279612   439061 
 2748000   0.75156094   -4.5725915   -4.5725915   -3.4452527  0.011627659   -4.5725915    1.1273388   439061 
 2749000   0.75197016   -4.5723529   -4.5723529   -3.4444002  0.011307646   -4.5723529    1.1279527   439061 
 2750000   0.75295135    -4.573639    -4.573639   -3.4442145  0.014593109    -4.573639    1.1294245   439061 
 2751000   0.75184242   -4.5732013   -4.5732013   -3.4454403  0.015741331   -4.5732013    1.1277611   439061 
 2752000   0.75327033   -4.5746736   -4.5746736   -3.4447707  0.013531967   -4.5746736    1.1299029   439061 
 2753000   0.75283768   -4.5731588   -4.5731588   -3.4439049  0.016428697   -4.5731588    1.1292539   439061 
 2754000   0.75235072   -4.5729552   -4.5729552   -3.4444317  0.014894116   -4.5729552    1.1285235   439061 
 2755000   0.75211857    -4.572837    -4.572837   -3.4446617  0.012127212    -4.572837    1.1281753   439061 
 2756000    0.7532734   -4.5746481   -4.5746481   -3.4447406 0.0033082564   -4.5746481    1.1299075   439061 
 2757000   0.75151474   -4.5724011   -4.5724011   -3.4451316 0.0094677243   -4.5724011    1.1272695   439061 
 2758000   0.75207627   -4.5731692   -4.5731692   -3.4450574 0.0051887154   -4.5731692    1.1281118   439061 
 2759000   0.75167209   -4.5721986   -4.5721986    -3.444693 0.0099607118   -4.5721986    1.1275056   439061 
 2760000   0.75253495   -4.5720649   -4.5720649    -3.443265 0.0060305801   -4.5720649    1.1287999   439061 
 2761000   0.75269045   -4.5733124   -4.5733124   -3.4442793 0.0098805002   -4.5733124    1.1290331   439061 
 2762000   0.75151089   -4.5723663   -4.5723663   -3.4451026  0.011363134   -4.5723663    1.1272638   439061 
 2763000   0.75283461   -4.5729314   -4.5729314   -3.4436821 0.0077164804   -4.5729314    1.1292493   439061 
 2764000   0.75191814   -4.5719204   -4.5719204   -3.4440458 0.0093949603   -4.5719204    1.1278746   439061 
 2765000   0.75202968   -4.5734575   -4.5734575   -3.4454156 0.0088488894   -4.5734575    1.1280419   439061 
 2766000   0.75289047   -4.5744687   -4.5744687   -3.4451355  0.010753852   -4.5744687    1.1293331   439061 
 2767000   0.75371231   -4.5754204   -4.5754204   -3.4448545  0.012773447   -4.5754204    1.1305659   439061 
 2768000   0.75344353   -4.5738684   -4.5738684   -3.4437056  0.014046592   -4.5738684    1.1301627   439061 
 2769000   0.75295157   -4.5750355   -4.5750355   -3.4456108 0.0086603505   -4.5750355    1.1294248   439061 
 2770000   0.75173129   -4.5738014   -4.5738014    -3.446207   0.01171334   -4.5738014    1.1275944   439061 
 2771000   0.75230719   -4.5748449   -4.5748449   -3.4463867 0.0062339383   -4.5748449    1.1284582   439061 
 2772000   0.75081271   -4.5729604   -4.5729604   -3.4467439 0.0074925861   -4.5729604    1.1262165   439061 
 2773000   0.75059014    -4.572803    -4.572803   -3.4469203  0.010871997    -4.572803    1.1258826   439061 
 2774000   0.75261468   -4.5738043   -4.5738043   -3.4448849 0.0098892119   -4.5738043    1.1289195   439061 
 2775000   0.75341882    -4.574196    -4.574196   -3.4440704 0.0071127111    -4.574196    1.1301257   439061 
 2776000   0.75187822   -4.5717687   -4.5717687   -3.4439539  0.011286335   -4.5717687    1.1278148   439061 
 2777000   0.75270969   -4.5731107   -4.5731107   -3.4440488  0.012080384   -4.5731107     1.129062   439061 
 2778000   0.75164267   -4.5723882   -4.5723882   -3.4449268 0.0093731758   -4.5723882    1.1274614   439061 
 2779000   0.75087622    -4.572697    -4.572697   -3.4463852 0.0066094447    -4.572697    1.1263118   439061 
 2780000   0.75269318   -4.5740868   -4.5740868   -3.4450496 0.0078995209   -4.5740868    1.1290372   439061 
 2781000   0.75138174   -4.5725974   -4.5725974   -3.4455274 0.0083941665   -4.5725974      1.12707   439061 
 2782000   0.75272925   -4.5743146   -4.5743146   -3.4452233  0.011879588   -4.5743146    1.1290913   439061 
 2783000    0.7536981   -4.5745164   -4.5745164   -3.4439718  0.011308794   -4.5745164    1.1305446   439061 
 2784000   0.75203985   -4.5719461   -4.5719461   -3.4438889  0.013853818   -4.5719461    1.1280572   439061 
 2785000   0.75328637   -4.5735453   -4.5735453   -3.4436183  0.012256543   -4.5735453     1.129927   439061 
 2786000   0.75257435   -4.5724221   -4.5724221   -3.4435631  0.013573843   -4.5724221     1.128859   439061 
 2787000   0.75302545   -4.5743706   -4.5743706    -3.444835 0.0080666679   -4.5743706    1.1295356   439061 
 2788000   0.75116009   -4.5730563   -4.5730563   -3.4463187   0.01017885   -4.5730563    1.1267376   439061 
 2789000   0.75207584   -4.5730054   -4.5730054   -3.4448942 0.0062725398   -4.5730054    1.1281112   439061 
 2790000   0.75118895   -4.5725835   -4.5725835   -3.4458026 0.0054069397   -4.5725835    1.1267809   439061 
 2791000   0.75057061   -4.5717563   -4.5717563   -3.4459029 0.0088097705   -4.5717563    1.1258533   439061 
 2792000   0.75164032   -4.5743401   -4.5743401   -3.4468822 0.0056880897   -4.5743401    1.1274579   439061 
 2793000   0.75217713   -4.5742378   -4.5742378   -3.4459746  0.011828951   -4.5742378    1.1282631   439061 
 2794000   0.75158441   -4.5725272   -4.5725272   -3.4451531 0.0054564182   -4.5725272    1.1273741   439061 
 2795000   0.75154344   -4.5715721   -4.5715721   -3.4442595  0.012964386   -4.5715721    1.1273126   439061 
 2796000   0.75280688   -4.5740334   -4.5740334   -3.4448257  0.018474488   -4.5740334    1.1292078   439061 
 2797000   0.75205356   -4.5730879   -4.5730879   -3.4450101   0.01793521   -4.5730879    1.1280778   439061 
 2798000   0.75332533   -4.5745325   -4.5745325   -3.4445471  0.011479881   -4.5745325    1.1299854   439061 
 2799000   0.75403228   -4.5758176   -4.5758176   -3.4447718  0.013662475   -4.5758176    1.1310458   439061 
 2800000   0.75295525   -4.5753526   -4.5753526   -3.4459223  0.010039194   -4.5753526    1.1294303   439061 
 2801000   0.75217783     -4.57358     -4.57358   -3.4453158  0.010427817     -4.57358    1.1282642   439061 
 2802000   0.75228944   -4.5740944   -4.5740944   -3.4456628 0.0099263442   -4.5740944    1.1284316   439061 
 2803000    0.7526021   -4.5734342   -4.5734342   -3.4445336 0.0083774972   -4.5734342    1.1289006   439061 
 2804000   0.75255409   -4.5733563   -4.5733563   -3.4445278 0.0071153024   -4.5733563    1.1288286   439061 
 2805000   0.75180643    -4.572424    -4.572424    -3.444717  0.011316014    -4.572424    1.1277071   439061 
 2806000   0.75319115   -4.5749698   -4.5749698   -3.4451856 0.0058534607   -4.5749698    1.1297842   439061 
 2807000   0.75119735   -4.5722463   -4.5722463   -3.4454528 0.0096387983   -4.5722463    1.1267935   439061 
 2808000   0.75166268      -4.5722      -4.5722   -3.4447085 0.0095533587      -4.5722    1.1274915   439061 
 2809000   0.75295735   -4.5744205   -4.5744205   -3.4449871 0.0082511474   -4.5744205    1.1294334   439061 
 2810000   0.75291234   -4.5741675   -4.5741675   -3.4448015 0.0086883235   -4.5741675    1.1293659   439061 
 2811000   0.75257661   -4.5723146   -4.5723146   -3.4434522  0.007151943   -4.5723146    1.1288623   439061 
 2812000   0.75284112   -4.5740303   -4.5740303   -3.4447712  0.008119774   -4.5740303    1.1292591   439061 
 2813000   0.75265376   -4.5731901   -4.5731901    -3.444212  0.009278245   -4.5731901    1.1289781   439061 
 2814000    0.7522473   -4.5727151   -4.5727151   -3.4443467 0.0077664817   -4.5727151    1.1283684   439061 
 2815000   0.75140691    -4.572435    -4.572435   -3.4453272  0.010689373    -4.572435    1.1271078   439061 
 2816000   0.75313155   -4.5737742   -4.5737742   -3.4440795   0.01289616   -4.5737742    1.1296947   439061 
 2817000   0.75327544   -4.5732536   -4.5732536    -3.443343  0.010845378   -4.5732536    1.1299106   439061 
 2818000   0.75393501   -4.5749254   -4.5749254   -3.4440254  0.013096834   -4.5749254    1.1308999   439061 
 2819000     0.753912   -4.5755014   -4.5755014    -3.444636  0.011534701   -4.5755014    1.1308654   439061 
 2820000   0.75201656   -4.5738693   -4.5738693   -3.4458471 0.0057890047   -4.5738693    1.1280223   439061 
 2821000   0.75070202   -4.5728195   -4.5728195    -3.446769 0.0085366701   -4.5728195    1.1260505   439061 
 2822000     0.752228   -4.5737312   -4.5737312   -3.4453917 0.0087505633   -4.5737312    1.1283394   439061 
 2823000   0.75272457   -4.5751831   -4.5751831   -3.4460988  0.014224863   -4.5751831    1.1290843   439061 
 2824000   0.75350426   -4.5751898   -4.5751898    -3.444936  0.013662777   -4.5751898    1.1302538   439061 
 2825000   0.75264127   -4.5732878   -4.5732878   -3.4443285  0.012447639   -4.5732878    1.1289593   439061 
 2826000   0.75442381   -4.5751908   -4.5751908   -3.4435576 0.0097961925   -4.5751908    1.1316331   439061 
 2827000   0.75342287   -4.5744598   -4.5744598   -3.4443281 0.0052094209   -4.5744598    1.1301317   439061 
 2828000    0.7523478   -4.5722589   -4.5722589   -3.4437398   0.01368488   -4.5722589    1.1285191   439061 
 2829000   0.75317173   -4.5737233   -4.5737233   -3.4439683    0.0098219   -4.5737233     1.129755   439061 
 2830000   0.75165281   -4.5719204   -4.5719204   -3.4444437  0.006263742   -4.5719204    1.1274766   439061 
 2831000   0.75199845   -4.5719959   -4.5719959   -3.4440008 0.0012204855   -4.5719959    1.1279951   439061 
 2832000   0.75272802   -4.5733753   -4.5733753   -3.4442858 0.0038541027   -4.5733753    1.1290895   439061 
 2833000   0.75238117   -4.5728059   -4.5728059   -3.4442367 0.0078161009   -4.5728059    1.1285692   439061 
 2834000   0.75255879   -4.5734145   -4.5734145   -3.4445789 0.0077475564   -4.5734145    1.1288356   439061 
 2835000   0.75146245   -4.5724766   -4.5724766   -3.4452855 0.0096548233   -4.5724766    1.1271911   439061 
 2836000   0.75205748   -4.5732928   -4.5732928   -3.4452091 0.0026282298   -4.5732928    1.1280837   439061 
 2837000   0.75281824   -4.5744051   -4.5744051   -3.4451803  0.010904934   -4.5744051    1.1292248   439061 
 2838000    0.7528749   -4.5734944   -4.5734944   -3.4441846  0.014295762   -4.5734944    1.1293098   439061 
 2839000   0.75310406    -4.574449    -4.574449   -3.4447954  0.014575969    -4.574449    1.1296535   439061 
 2840000    0.7533887   -4.5753187   -4.5753187   -3.4452382  0.011074092   -4.5753187    1.1300805   439061 
 2841000   0.75225671   -4.5734538   -4.5734538   -3.4450713  0.013723233   -4.5734538    1.1283825   439061 
 2842000   0.75172723   -4.5740762   -4.5740762   -3.4464879  0.012110343   -4.5740762    1.1275883   439061 
 2843000   0.75264773   -4.5748776   -4.5748776   -3.4459086  0.012343085   -4.5748776     1.128969   439061 
 2844000   0.75237439    -4.574019    -4.574019     -3.44546  0.013839397    -4.574019     1.128559   439061 
 2845000   0.75285127   -4.5747981   -4.5747981   -3.4455238  0.013450375   -4.5747981    1.1292743   439061 
 2846000   0.75206946   -4.5732202   -4.5732202   -3.4451186   0.01068578   -4.5732202    1.1281016   439061 
 2847000   0.75285252   -4.5735241   -4.5735241   -3.4442479  0.010454752   -4.5735241    1.1292762   439061 
 2848000   0.75156877   -4.5723167   -4.5723167   -3.4449661 0.0091092407   -4.5723167    1.1273506   439061 
 2849000    0.7519842   -4.5714264   -4.5714264   -3.4434527   0.01205643   -4.5714264    1.1279737   439061 
 2850000   0.75198576   -4.5725179   -4.5725179   -3.4445418  0.009379156   -4.5725179    1.1279761   439061 
 2851000   0.75108845   -4.5724129   -4.5724129   -3.4457828 0.0088050801   -4.5724129    1.1266301   439061 
 2852000   0.75250431   -4.5730011   -4.5730011   -3.4442472 0.0099686443   -4.5730011    1.1287539   439061 
 2853000   0.75311744   -4.5742297   -4.5742297   -3.4445562 0.0057612998   -4.5742297    1.1296736   439061 
 2854000   0.75245861   -4.5736388   -4.5736388   -3.4449535 0.0067639221   -4.5736388    1.1286853   439061 
 2855000   0.75169228    -4.573544    -4.573544   -3.4460082   0.01304007    -4.573544    1.1275358   439061 
 2856000   0.75279561   -4.5750551   -4.5750551   -3.4458642 0.0061638071   -4.5750551    1.1291908   439061 
 2857000   0.75298302   -4.5759093   -4.5759093   -3.4464374 0.0067574845   -4.5759093     1.129472   439061 
 2858000   0.75195341   -4.5740657   -4.5740657   -3.4461382  0.011879056   -4.5740657    1.1279275   439061 
 2859000   0.75308828   -4.5774027   -4.5774027   -3.4477728  0.014239464   -4.5774027    1.1296298   439061 
 2860000   0.75283847   -4.5772476   -4.5772476   -3.4479924  0.011028878   -4.5772476    1.1292551   439061 
 2861000   0.75290146   -4.5765939   -4.5765939   -3.4472443  0.014964457   -4.5765939    1.1293496   439061 
 2862000   0.75276351    -4.577607    -4.577607   -3.4484643  0.010572377    -4.577607    1.1291427   439061 
 2863000   0.75288408   -4.5771413   -4.5771413   -3.4478177  0.010785326   -4.5771413    1.1293236   439061 
 2864000   0.75195749   -4.5761089   -4.5761089   -3.4481752  0.013842514   -4.5761089    1.1279337   439061 
 2865000   0.75215397   -4.5778791   -4.5778791   -3.4496507   0.01181844   -4.5778791    1.1282284   439061 
 2866000   0.75187671   -4.5780093   -4.5780093   -3.4501968  0.012026302   -4.5780093    1.1278125   439061 
 2867000   0.75130243   -4.5763047   -4.5763047   -3.4493536  0.015843387   -4.5763047    1.1269511   439061 
 2868000   0.75198413   -4.5763044   -4.5763044   -3.4483308  0.013436028   -4.5763044    1.1279736   439061 
 2869000   0.75157314   -4.5759104   -4.5759104   -3.4485533 0.0067226735   -4.5759104    1.1273571   439061 
 2870000   0.75154263   -4.5767751   -4.5767751   -3.4494638 0.0088102543   -4.5767751    1.1273114   439061 
 2871000   0.75213232    -4.576575    -4.576575   -3.4483791  0.011005825    -4.576575    1.1281959   439061 
 2872000   0.75155256   -4.5758622   -4.5758622    -3.448536 0.0053469631   -4.5758622    1.1273263   439061 
 2873000   0.75223693   -4.5773798   -4.5773798    -3.449027 0.0089472009   -4.5773798    1.1283528   439061 
 2874000   0.75135442   -4.5765289   -4.5765289   -3.4494998 0.0067464247   -4.5765289    1.1270291   439061 
 2875000   0.75121754   -4.5771053   -4.5771053   -3.4502815 0.0057598413   -4.5771053    1.1268237   439061 
 2876000   0.75264783   -4.5778319   -4.5778319   -3.4488627 0.0096816807   -4.5778319    1.1289692   439061 
 2877000   0.75275253   -4.5772105   -4.5772105   -3.4480842  0.012075171   -4.5772105    1.1291262   439061 
 2878000   0.75390159   -4.5798988   -4.5798988    -3.449049  0.011721195   -4.5798988    1.1308498   439061 
 2879000   0.75215088   -4.5782686   -4.5782686   -3.4500449  0.014825452   -4.5782686    1.1282238   439061 
 2880000   0.75176203   -4.5760834   -4.5760834   -3.4484429  0.013284745   -4.5760834    1.1276405   439061 
 2881000   0.75210872   -4.5771936   -4.5771936   -3.4490331  0.013410951   -4.5771936    1.1281605   439061 
 2882000   0.75131387   -4.5770262   -4.5770262   -3.4500579  0.011772836   -4.5770262    1.1269682   439061 
 2883000    0.7530599   -4.5784711   -4.5784711   -3.4488838 0.0084582664   -4.5784711    1.1295873   439061 
 2884000   0.75315306   -4.5778211   -4.5778211   -3.4480941 0.0083217486   -4.5778211     1.129727   439061 
 2885000   0.75196244   -4.5757859   -4.5757859   -3.4478448 0.0047759227   -4.5757859    1.1279411   439061 
 2886000   0.75319513   -4.5764264   -4.5764264   -3.4466363 0.0050242986   -4.5764264    1.1297901   439061 
 2887000   0.75042056   -4.5728233   -4.5728233   -3.4471951  0.005648171   -4.5728233    1.1256283   439061 
 2888000   0.75272873   -4.5760427   -4.5760427   -3.4469522 0.0058786065   -4.5760427    1.1290905   439061 
 2889000   0.75160186   -4.5744291   -4.5744291   -3.4470289  0.010559106   -4.5744291    1.1274002   439061 
 2890000   0.75205776   -4.5743089   -4.5743089   -3.4462248 0.0054774366   -4.5743089    1.1280841   439061 
 2891000   0.75232423   -4.5748969   -4.5748969   -3.4464132 0.0030652918   -4.5748969    1.1284838   439061 
 2892000   0.75204287   -4.5748566   -4.5748566   -3.4467949 0.0066346956   -4.5748566    1.1280617   439061 
 2893000   0.75202993   -4.5738323   -4.5738323     -3.44579  0.013508268   -4.5738323    1.1280423   439061 
 2894000   0.75206411   -4.5745075   -4.5745075   -3.4464139  0.013239204   -4.5745075    1.1280936   439061 
 2895000   0.75208493   -4.5747294   -4.5747294   -3.4466046 0.0091700346   -4.5747294    1.1281248   439061 
 2896000   0.75186847   -4.5756492   -4.5756492    -3.447849 0.0044654008   -4.5756492    1.1278001   439061 
 2897000   0.75347537   -4.5787966   -4.5787966   -3.4485861 0.0087209642   -4.5787966    1.1302105   439061 
 2898000   0.75260758    -4.577587    -4.577587   -3.4486782 0.0076378909    -4.577587    1.1289088   439061 
 2899000   0.75291334   -4.5765967   -4.5765967   -3.4472293  0.015673512   -4.5765967    1.1293674   439061 
 2900000   0.75307181   -4.5785268   -4.5785268   -3.4489217   0.01121283   -4.5785268    1.1296051   439061 
 2901000   0.75257682   -4.5774155   -4.5774155   -3.4485529  0.012627815   -4.5774155    1.1288627   439061 
 2902000    0.7530536   -4.5769209   -4.5769209    -3.447343  0.013996644   -4.5769209    1.1295778   439061 
 2903000   0.75257407   -4.5771817   -4.5771817   -3.4483232  0.013798189   -4.5771817    1.1288585   439061 
 2904000   0.75208029   -4.5760822   -4.5760822   -3.4479643  0.014637568   -4.5760822    1.1281179   439061 
 2905000   0.75203991   -4.5761079   -4.5761079   -3.4480506  0.012421747   -4.5761079    1.1280573   439061 
 2906000   0.75189982   -4.5757112   -4.5757112   -3.4478641 0.0036989736   -4.5757112    1.1278472   439061 
 2907000   0.75076656   -4.5740108   -4.5740108   -3.4478635 0.0058911391   -4.5740108    1.1261473   439061 
 2908000   0.75111686   -4.5747431   -4.5747431   -3.4480704  0.005566499   -4.5747431    1.1266727   439061 
 2909000   0.75091171    -4.575135    -4.575135     -3.44877 0.0059511217    -4.575135     1.126365   439061 
 2910000   0.75115095   -4.5750312   -4.5750312   -3.4483073 0.0048383382   -4.5750312    1.1267239   439061 
 2911000    0.7516737   -4.5756087   -4.5756087   -3.4481008 0.0049045348   -4.5756087     1.127508   439061 
 2912000   0.75219554     -4.57591     -4.57591   -3.4476192  0.010169279     -4.57591    1.1282907   439061 
 2913000   0.75312087   -4.5768886   -4.5768886   -3.4472098   0.01655749   -4.5768886    1.1296787   439061 
 2914000   0.75250501   -4.5761573   -4.5761573   -3.4474024  0.010311614   -4.5761573    1.1287549   439061 
 2915000   0.75145578    -4.574243    -4.574243   -3.4470619  0.013647993    -4.574243    1.1271811   439061 
 2916000   0.75122854   -4.5764147   -4.5764147   -3.4495744 0.0087060149   -4.5764147    1.1268402   439061 
 2917000   0.75151594   -4.5757374   -4.5757374   -3.4484661  0.011183181   -4.5757374    1.1272713   439061 
 2918000   0.75239898   -4.5772345   -4.5772345   -3.4486386 0.0093070243   -4.5772345    1.1285959   439061 
 2919000   0.75259923    -4.577156    -4.577156   -3.4482597 0.0073707719    -4.577156    1.1288963   439061 
 2920000   0.75096787   -4.5751189   -4.5751189   -3.4486696 0.0081744754   -4.5751189    1.1264492   439061 
 2921000   0.75137093   -4.5758532   -4.5758532   -3.4487994 0.0042492747   -4.5758532    1.1270538   439061 
 2922000   0.75170719   -4.5768389   -4.5768389   -3.4492807 0.0061596516   -4.5768389    1.1275582   439061 
 2923000   0.75149003   -4.5761819   -4.5761819   -3.4489495  0.012473922   -4.5761819    1.1272325   439061 
 2924000   0.75113555   -4.5769757   -4.5769757   -3.4502749   0.01393639   -4.5769757    1.1267008   439061 
 2925000   0.75267589   -4.5784684   -4.5784684   -3.4494571  0.012001554   -4.5784684    1.1290113   439061 
 2926000   0.75216186   -4.5773978   -4.5773978   -3.4491576  0.007339533   -4.5773978    1.1282402   439061 
 2927000   0.75163088   -4.5776411   -4.5776411   -3.4501973  0.012983091   -4.5776411    1.1274438   439061 
 2928000   0.75204764   -4.5784063   -4.5784063   -3.4503374   0.01391843   -4.5784063    1.1280689   439061 
 2929000    0.7504435   -4.5765019   -4.5765019   -3.4508392  0.013603425   -4.5765019    1.1256627   439061 
 2930000   0.75169898   -4.5784937   -4.5784937   -3.4509478 0.0070177897   -4.5784937    1.1275459   439061 
 2931000   0.75120949    -4.576258    -4.576258   -3.4494464  0.013809308    -4.576258    1.1268117   439061 
 2932000   0.75224296   -4.5780354   -4.5780354   -3.4496735   0.01096908   -4.5780354    1.1283619   439061 
 2933000   0.75226255   -4.5772272   -4.5772272    -3.448836  0.013368434   -4.5772272    1.1283913   439061 
 2934000   0.75190996    -4.577487    -4.577487   -3.4496246  0.014688584    -4.577487    1.1278624   439061 
 2935000   0.75143493   -4.5767912   -4.5767912   -3.4496414  0.011125401   -4.5767912    1.1271498   439061 
 2936000    0.7518345   -4.5773509   -4.5773509   -3.4496017 0.0003557359   -4.5773509    1.1277492   439061 
 2937000   0.75085617   -4.5763521   -4.5763521   -3.4500704 0.0047046171   -4.5763521    1.1262817   439061 
 2938000   0.75090682     -4.57635     -4.57635   -3.4499924 0.0092856616     -4.57635    1.1263577   439061 
 2939000   0.75103809   -4.5757634   -4.5757634   -3.4492089  0.011362024   -4.5757634    1.1265546   439061 
 2940000   0.75217528   -4.5785833   -4.5785833    -3.450323 0.0095372776   -4.5785833    1.1282604   439061 
 2941000   0.75137365   -4.5775445   -4.5775445   -3.4504866 0.0050430211   -4.5775445    1.1270579   439061 
 2942000   0.75132083   -4.5771573   -4.5771573   -3.4501786  0.012848777   -4.5771573    1.1269787   439061 
 2943000   0.75250163   -4.5784269   -4.5784269   -3.4496771  0.011181942   -4.5784269    1.1287499   439061 
 2944000   0.75255423   -4.5780077   -4.5780077    -3.449179  0.011676385   -4.5780077    1.1288288   439061 
 2945000   0.75132924   -4.5752157   -4.5752157   -3.4482244  0.020140147   -4.5752157    1.1269913   439061 
 2946000   0.75306172    -4.578319    -4.578319   -3.4487289  0.015369902    -4.578319      1.12959   439061 
 2947000   0.75294872   -4.5779073   -4.5779073   -3.4484867  0.013368428   -4.5779073    1.1294205   439061 
 2948000   0.75152502   -4.5772328   -4.5772328   -3.4499478  0.011693464   -4.5772328     1.127285   439061 
 2949000   0.75062084   -4.5755542   -4.5755542   -3.4496255  0.013371547   -4.5755542    1.1259287   439061 
 2950000   0.75151455   -4.5771321   -4.5771321   -3.4498628 0.0061566558   -4.5771321    1.1272693   439061 
 2951000   0.75196319   -4.5771052   -4.5771052    -3.449163 0.0060341179   -4.5771052    1.1279422   439061 
 2952000    0.7518601   -4.5759671   -4.5759671   -3.4481795 0.0070042763   -4.5759671    1.1277876   439061 
 2953000    0.7515496   -4.5749495   -4.5749495   -3.4476277  0.011548844   -4.5749495    1.1273218   439061 
 2954000   0.75123651   -4.5750385   -4.5750385   -3.4481863 0.0072125949   -4.5750385    1.1268522   439061 
 2955000   0.75044739   -4.5753623   -4.5753623   -3.4496938  0.011181162   -4.5753623    1.1256685   439061 
 2956000   0.75092743   -4.5760509   -4.5760509   -3.4496623 0.0071929426   -4.5760509    1.1263886   439061 
 2957000   0.75197579   -4.5762122   -4.5762122    -3.448251 0.0077440077   -4.5762122    1.1279611   439061 
 2958000   0.75247733   -4.5762255   -4.5762255   -3.4475121  0.011638038   -4.5762255    1.1287134   439061 
 2959000   0.75266424    -4.577046    -4.577046   -3.4480522 0.0094845112    -4.577046    1.1289938   439061 
 2960000   0.75116946   -4.5752147   -4.5752147   -3.4484631  0.011906228   -4.5752147    1.1267516   439061 
 2961000   0.75237351   -4.5769274   -4.5769274   -3.4483697 0.0083216447   -4.5769274    1.1285577   439061 
 2962000   0.75148736   -4.5763628   -4.5763628   -3.4491344 0.0089156226   -4.5763628    1.1272285   439061 
 2963000   0.75169639   -4.5758994   -4.5758994   -3.4483574  0.018441414   -4.5758994     1.127542   439061 
 2964000   0.75196929   -4.5764607   -4.5764607   -3.4485093   0.01423715   -4.5764607    1.1279514   439061 
 2965000    0.7505119   -4.5755739   -4.5755739   -3.4498087 0.0097856587   -4.5755739    1.1257653   439061 
 2966000   0.75237807    -4.577614    -4.577614   -3.4490495 0.0063536421    -4.577614    1.1285645   439061 
 2967000   0.75105273   -4.5762664   -4.5762664   -3.4496899 0.0099828378   -4.5762664    1.1265765   439061 
 2968000   0.75065853   -4.5757787   -4.5757787   -3.4497934 0.0022704712   -4.5757787    1.1259852   439061 
 2969000   0.75189275   -4.5767085   -4.5767085   -3.4488719 0.0090423913   -4.5767085    1.1278366   439061 
 2970000   0.75127997   -4.5765207   -4.5765207   -3.4496033 0.0081612904   -4.5765207    1.1269174   439061 
 2971000   0.75201843   -4.5774532   -4.5774532   -3.4494281 0.0064834135   -4.5774532    1.1280251   439061 
 2972000   0.75189832   -4.5774119   -4.5774119    -3.449567  0.013634507   -4.5774119    1.1278449   439061 
 2973000   0.75146227   -4.5772769   -4.5772769   -3.4500861 0.0046097496   -4.5772769    1.1271908   439061 
 2974000    0.7518103    -4.578221    -4.578221   -3.4505081 0.0077654623    -4.578221    1.1277129   439061 
 2975000     0.751698   -4.5775821   -4.5775821   -3.4500377    0.0108636   -4.5775821    1.1275444   439061 
 2976000   0.75175529   -4.5772279   -4.5772279   -3.4495975  0.012446362   -4.5772279    1.1276304   439061 
 2977000   0.75232252   -4.5771036   -4.5771036   -3.4486223  0.012159134   -4.5771036    1.1284812   439061 
 2978000   0.75168132   -4.5770091   -4.5770091   -3.4494897  0.010052588   -4.5770091    1.1275194   439061 
 2979000    0.7515657   -4.5767087   -4.5767087   -3.4493627  0.014338059   -4.5767087     1.127346   439061 
 2980000   0.75210635   -4.5767889   -4.5767889    -3.448632 0.0090814918   -4.5767889     1.128157   439061 
 2981000   0.75136144   -4.5756027   -4.5756027   -3.4485631 0.0094285761   -4.5756027    1.1270396   439061 
 2982000   0.75209398   -4.5771088   -4.5771088   -3.4489704 0.0069187092   -4.5771088    1.1281384   439061 
 2983000   0.75036898   -4.5752148   -4.5752148   -3.4496639 0.0068084785   -4.5752148    1.1255509   439061 
 2984000   0.75184192   -4.5765023   -4.5765023    -3.448742 0.0048375641   -4.5765023    1.1277603   439061 
 2985000   0.75256644   -4.5784351   -4.5784351    -3.449588 0.0060348216   -4.5784351    1.1288471   439061 
 2986000   0.75004014   -4.5750563   -4.5750563   -3.4499987 0.0080344626   -4.5750563    1.1250576   439061 
 2987000   0.75148783    -4.578173    -4.578173   -3.4509438  0.004765013    -4.578173    1.1272292   439061 
 2988000   0.75047044   -4.5755647   -4.5755647   -3.4498616  0.009678424   -4.5755647    1.1257031   439061 
 2989000   0.75004779   -4.5755892   -4.5755892   -3.4505201  0.011085572   -4.5755892    1.1250691   439061 
 2990000   0.75206133   -4.5782274   -4.5782274    -3.450138  0.012725192   -4.5782274    1.1280894   439061 
 2991000   0.75270276   -4.5811323   -4.5811323   -3.4520807 0.0056622343   -4.5811323    1.1290516   439061 
 2992000   0.75167041   -4.5797335   -4.5797335   -3.4522305 0.0074225514   -4.5797335     1.127503   439061 
 2993000   0.75105552   -4.5783901   -4.5783901   -3.4518094  0.009098503   -4.5783901    1.1265807   439061 
 2994000   0.75161304   -4.5796415   -4.5796415   -3.4522245  0.010931874   -4.5796415     1.127417   439061 
 2995000   0.75142914   -4.5790454   -4.5790454   -3.4519043  0.015891876   -4.5790454    1.1271411   439061 
 2996000    0.7520224   -4.5798768   -4.5798768   -3.4518458  0.010831504   -4.5798768     1.128031   439061 
 2997000   0.75195091   -4.5792105   -4.5792105   -3.4512867  0.011178339   -4.5792105    1.1279238   439061 
 2998000   0.75173649   -4.5785605   -4.5785605   -3.4509583  0.014310527   -4.5785605    1.1276022   439061 
 2999000   0.75121953   -4.5783251   -4.5783251   -3.4514984 0.0095776442   -4.5783251    1.1268267   439061 
 3000000   0.75277742     -4.57923     -4.57923   -3.4500664  0.010256356     -4.57923    1.1291636   439061 
 3001000   0.75061099   -4.5770791   -4.5770791   -3.4511652  0.012750581   -4.5770791    1.1259139   439061 
 3002000   0.75088015   -4.5765232   -4.5765232   -3.4502055  0.012949884   -4.5765232    1.1263177   439061 
 3003000   0.75263032   -4.5779889   -4.5779889    -3.449046 0.0097503456   -4.5779889    1.1289429   439061 
 3004000   0.75153767    -4.576111    -4.576111    -3.448807 0.0072379076    -4.576111    1.1273039   439061 
 3005000    0.7526953   -4.5788557   -4.5788557   -3.4498154  0.006187239   -4.5788557    1.1290404   439061 
 3006000    0.7512065   -4.5772693   -4.5772693   -3.4504621 0.0072202265   -4.5772693    1.1268072   439061 
 3007000   0.75182622   -4.5769688   -4.5769688    -3.449232 0.0061869736   -4.5769688    1.1277368   439061 
 3008000   0.75285213   -4.5784296   -4.5784296    -3.449154 0.0026327053   -4.5784296    1.1292756   439061 
 3009000   0.75011977   -4.5746943   -4.5746943   -3.4495172  0.010874199   -4.5746943    1.1251771   439061 
 3010000   0.75135333   -4.5759292   -4.5759292   -3.4489017  0.013786103   -4.5759292    1.1270274   439061 
 3011000   0.75086311   -4.5766849   -4.5766849   -3.4503928 0.0088725871   -4.5766849    1.1262921   439061 
 3012000   0.75100982    -4.577066    -4.577066   -3.4505539 0.0079824604    -4.577066    1.1265122   439061 
 3013000   0.75178625   -4.5787808   -4.5787808    -3.451104 0.0044826927   -4.5787808    1.1276768   439061 
 3014000    0.7513011   -4.5789833   -4.5789833   -3.4520342 0.0038259677   -4.5789833    1.1269491   439061 
 3015000   0.75126294    -4.578348    -4.578348   -3.4514561  0.011900081    -4.578348    1.1268918   439061 
 3016000   0.75058789   -4.5781599   -4.5781599   -3.4522806 0.0093070605   -4.5781599    1.1258793   439061 
 3017000   0.75087247   -4.5779507   -4.5779507   -3.4516445  0.011683338   -4.5779507    1.1263061   439061 
 3018000   0.74998808   -4.5779731   -4.5779731   -3.4529935  0.011174599   -4.5779731    1.1249796   439061 
 3019000   0.75188442   -4.5817276   -4.5817276   -3.4539035  0.013494713   -4.5817276    1.1278241   439061 
 3020000   0.75176993   -4.5805725   -4.5805725   -3.4529202 0.0097279609   -4.5805725    1.1276523   439061 
 3021000   0.75178699   -4.5803179   -4.5803179     -3.45264    0.0145122   -4.5803179    1.1276779   439061 
 3022000   0.75066744   -4.5798857   -4.5798857   -3.4538871  0.011961124   -4.5798857    1.1259986   439061 
 3023000   0.75117602   -4.5808684   -4.5808684   -3.4541069 0.0069825994   -4.5808684    1.1267615   439061 
 3024000   0.75132877   -4.5809025   -4.5809025   -3.4539119  0.015147353   -4.5809025    1.1269906   439061 
 3025000   0.75224925   -4.5829605   -4.5829605   -3.4545892 0.0096952267   -4.5829605    1.1283713   439061 
 3026000   0.75097712    -4.580906    -4.580906   -3.4544428  0.012257213    -4.580906    1.1264631   439061 
 3027000   0.75056503   -4.5798831   -4.5798831   -3.4540381  0.013893446   -4.5798831     1.125845   439061 
 3028000   0.75024567   -4.5796322   -4.5796322   -3.4542663 0.0058867592   -4.5796322    1.1253659   439061 
 3029000   0.75057801     -4.57939     -4.57939   -3.4535255  0.011327123     -4.57939    1.1258645   439061 
 3030000   0.75126563   -4.5795468   -4.5795468    -3.452651  0.010053135   -4.5795468    1.1268959   439061 
 3031000   0.75201296   -4.5804113   -4.5804113   -3.4523945  0.010370942   -4.5804113    1.1280169   439061 
 3032000   0.75137319   -4.5780101   -4.5780101   -3.4509528  0.011472475   -4.5780101    1.1270572   439061 
 3033000   0.74982675   -4.5765497   -4.5765497   -3.4518121  0.007884835   -4.5765497    1.1247376   439061 
 3034000   0.75014517   -4.5776971   -4.5776971   -3.4524819 0.0054929683   -4.5776971    1.1252152   439061 
 3035000   0.75148696    -4.578785    -4.578785   -3.4515571 0.0044289559    -4.578785    1.1272279   439061 
 3036000   0.75245536   -4.5785591   -4.5785591   -3.4498786 0.0044632517   -4.5785591    1.1286805   439061 
 3037000   0.75076622   -4.5778589   -4.5778589   -3.4517122 0.0087789429   -4.5778589    1.1261468   439061 
 3038000   0.75204792   -4.5801685   -4.5801685   -3.4520992 0.0048645965   -4.5801685    1.1280693   439061 
 3039000   0.75127841   -4.5796246   -4.5796246   -3.4527096 0.0054082573   -4.5796246     1.126915   439061 
 3040000   0.75069222   -4.5790463   -4.5790463   -3.4530105 0.0080654954   -4.5790463    1.1260358   439061 
 3041000   0.75197451    -4.580069    -4.580069   -3.4521098 0.0077104762    -4.580069    1.1279592   439061 
 3042000   0.75211297   -4.5790933   -4.5790933   -3.4509264  0.013015845   -4.5790933    1.1281669   439061 
 3043000   0.75197651    -4.580091    -4.580091   -3.4521288  0.015382759    -4.580091    1.1279622   439061 
 3044000   0.75219347   -4.5793636   -4.5793636   -3.4510759  0.014402264   -4.5793636    1.1282876   439061 
 3045000   0.75163561   -4.5796115   -4.5796115   -3.4521606  0.013790901   -4.5796115    1.1274508   439061 
 3046000   0.75124596   -4.5813555   -4.5813555   -3.4544891 0.0081252787   -4.5813555    1.1268664   439061 
 3047000   0.75080262   -4.5811112   -4.5811112   -3.4549099 0.0035200534   -4.5811112    1.1262014   439061 
 3048000   0.75125684   -4.5817106   -4.5817106   -3.4548279  0.011482973   -4.5817106    1.1268827   439061 
 3049000   0.75158557   -4.5809479   -4.5809479   -3.4535721 0.0097084906   -4.5809479    1.1273758   439061 
 3050000      0.75197   -4.5816225   -4.5816225     -3.45367 0.0075082293   -4.5816225    1.1279524   439061 
 3051000   0.75102387   -4.5810394   -4.5810394   -3.4545062  0.004372448   -4.5810394    1.1265332   439061 
 3052000   0.74974889   -4.5798654   -4.5798654   -3.4552446 0.0088345735   -4.5798654    1.1246208   439061 
 3053000   0.75184891   -4.5813354   -4.5813354   -3.4535646 0.0064331816   -4.5813354    1.1277708   439061 
 3054000   0.75221791   -4.5811354   -4.5811354   -3.4528111  0.012783675   -4.5811354    1.1283243   439061 
 3055000    0.7504401   -4.5790535   -4.5790535   -3.4533959  0.013708708   -4.5790535    1.1256576   439061 
 3056000   0.75176395   -4.5801827   -4.5801827   -3.4525394 0.0087648232   -4.5801827    1.1276434   439061 
 3057000   0.75062681   -4.5794898   -4.5794898   -3.4535522  0.010215219   -4.5794898    1.1259377   439061 
 3058000   0.75171959   -4.5808509   -4.5808509   -3.4532741  0.010934037   -4.5808509    1.1275768   439061 
 3059000   0.75089956   -4.5798683   -4.5798683   -3.4535215 0.0038832253   -4.5798683    1.1263468   439061 
 3060000   0.75093026   -4.5801897   -4.5801897   -3.4537969  0.013229645   -4.5801897    1.1263928   439061 
 3061000   0.74987322   -4.5792746   -4.5792746   -3.4544673 0.0071542917   -4.5792746    1.1248073   439061 
 3062000   0.74994561   -4.5798937   -4.5798937   -3.4549779 0.0054753136   -4.5798937    1.1249159   439061 
 3063000   0.75023184   -4.5790528   -4.5790528   -3.4537076  0.010864513   -4.5790528    1.1253452   439061 
 3064000   0.75097354   -4.5810559   -4.5810559   -3.4545982 0.0058535422   -4.5810559    1.1264577   439061 
 3065000   0.74985614   -4.5797685   -4.5797685   -3.4549869  0.013010424   -4.5797685    1.1247816   439061 
 3066000   0.75049966   -4.5799657   -4.5799657   -3.4542188 0.0065029365   -4.5799657    1.1257469   439061 
 3067000   0.75142339   -4.5812089   -4.5812089   -3.4540763 0.0098020861   -4.5812089    1.1271325   439061 
 3068000   0.75148286   -4.5803461   -4.5803461   -3.4531244  0.011403918   -4.5803461    1.1272217   439061 
 3069000   0.75199734   -4.5817455   -4.5817455    -3.453752  0.014171498   -4.5817455    1.1279934   439061 
 3070000   0.75057403   -4.5794255   -4.5794255   -3.4535671  0.012849227   -4.5794255    1.1258585   439061 
 3071000   0.75074673   -4.5801552   -4.5801552   -3.4540377  0.013027983   -4.5801552    1.1261175   439061 
 3072000   0.75013417   -4.5791773   -4.5791773   -3.4539786 0.0090936652   -4.5791773    1.1251987   439061 
 3073000   0.74830553   -4.5771695   -4.5771695   -3.4547137  0.010964695   -4.5771695    1.1224557   439061 
 3074000   0.75093296   -4.5816658   -4.5816658    -3.455269 0.0033997568   -4.5816658    1.1263969   439061 
 3075000   0.75029198   -4.5808751   -4.5808751   -3.4554397 0.0072071017   -4.5808751    1.1254354   439061 
 3076000   0.75091804   -4.5823778   -4.5823778   -3.4560033 0.0036169152   -4.5823778    1.1263745   439061 
 3077000   0.75009932   -4.5799665   -4.5799665   -3.4548201 0.0077951151   -4.5799665    1.1251464   439061 
 3078000   0.75026743   -4.5805027   -4.5805027   -3.4551042 0.0047714689   -4.5805027    1.1253986   439061 
 3079000   0.75068901   -4.5823167   -4.5823167   -3.4562857  0.008680731   -4.5823167     1.126031   439061 
 3080000   0.75100015   -4.5823718   -4.5823718   -3.4558741 0.0093485528   -4.5823718    1.1264977   439061 
 3081000   0.75092191   -4.5827565   -4.5827565   -3.4563762  0.013981557   -4.5827565    1.1263803   439061 
 3082000   0.75018722   -4.5817462   -4.5817462   -3.4564679  0.012977587   -4.5817462    1.1252783   439061 
 3083000   0.75040466    -4.581745    -4.581745   -3.4561405  0.010980165    -4.581745    1.1256044   439061 
 3084000   0.75100589   -4.5834781   -4.5834781   -3.4569719   0.01000014   -4.5834781    1.1265063   439061 
 3085000   0.75079189   -4.5811369   -4.5811369   -3.4549516  0.012213577   -4.5811369    1.1261853   439061 
 3086000   0.74993764   -4.5812398   -4.5812398   -3.4563359  0.013032593   -4.5812398    1.1249039   439061 
 3087000   0.75139865   -4.5828314   -4.5828314    -3.455736  0.011574637   -4.5828314    1.1270954   439061 
 3088000   0.75111889   -4.5809814   -4.5809814   -3.4543056 0.0092141818   -4.5809814    1.1266758   439061 
 3089000    0.7494105   -4.5794054   -4.5794054   -3.4552922 0.0064177217   -4.5794054    1.1241132   439061 
 3090000   0.75005157   -4.5803086   -4.5803086   -3.4552338 0.0094595662   -4.5803086    1.1250748   439061 
 3091000   0.75005595   -4.5799809   -4.5799809   -3.4548995  0.012562323   -4.5799809    1.1250814   439061 
 3092000   0.75025821   -4.5821087   -4.5821087    -3.456724 0.0043595277   -4.5821087    1.1253847   439061 
 3093000   0.74986507   -4.5802507   -4.5802507   -3.4554556 0.0060640913   -4.5802507     1.124795   439061 
 3094000   0.75054338    -4.581544    -4.581544   -3.4557315 0.0057703518    -4.581544    1.1258125   439061 
 3095000   0.75041031   -4.5801823   -4.5801823   -3.4545693  0.005024529   -4.5801823    1.1256129   439061 
 3096000   0.75142296   -4.5828375   -4.5828375   -3.4557056 0.0090858171   -4.5828375    1.1271319   439061 
 3097000   0.75109676   -4.5805699   -4.5805699   -3.4539273  0.013906426   -4.5805699    1.1266426   439061 
 3098000   0.75093451   -4.5804508   -4.5804508   -3.4540516  0.013636087   -4.5804508    1.1263992   439061 
 3099000      0.75121   -4.5811824   -4.5811824     -3.45437  0.010653631   -4.5811824    1.1268124   439061 
 3100000    0.7511917   -4.5798905   -4.5798905   -3.4531055  0.011990914   -4.5798905     1.126785   439061 
 3101000   0.75191748   -4.5806318   -4.5806318   -3.4527582  0.012457653   -4.5806318    1.1278737   439061 
 3102000   0.75068365   -4.5792792   -4.5792792   -3.4532563  0.010187208   -4.5792792    1.1260229   439061 
 3103000    0.7498611   -4.5797957   -4.5797957   -3.4550066 0.0076272477   -4.5797957    1.1247891   439061 
 3104000    0.7502599   -4.5810152   -4.5810152   -3.4556279 0.0014832862   -4.5810152    1.1253873   439061 
 3105000    0.7495627   -4.5799693   -4.5799693   -3.4556278  0.011357311   -4.5799693    1.1243415   439061 
 3106000   0.74915347   -4.5793003   -4.5793003   -3.4555726 0.0098833277   -4.5793003    1.1237277   439061 
 3107000   0.74983454   -4.5807038   -4.5807038   -3.4559546  0.011904456   -4.5807038    1.1247492   439061 
 3108000   0.74967124   -4.5805957   -4.5805957   -3.4560914 0.0058744813   -4.5805957    1.1245043   439061 
 3109000   0.75082956   -4.5813248   -4.5813248   -3.4550831 0.0087228153   -4.5813248    1.1262418   439061 
 3110000   0.75050729   -4.5813262   -4.5813262   -3.4555678   0.01491545   -4.5813262    1.1257584   439061 
 3111000   0.75196396   -4.5844509   -4.5844509   -3.4565076  0.011005985   -4.5844509    1.1279434   439061 
 3112000   0.75086114   -4.5828659   -4.5828659   -3.4565768  0.012660375   -4.5828659    1.1262892   439061 
 3113000   0.75211103   -4.5839315   -4.5839315   -3.4557675  0.012219303   -4.5839315     1.128164   439061 
 3114000   0.75167623   -4.5837547   -4.5837547   -3.4562429  0.013329041   -4.5837547    1.1275118   439061 
 3115000   0.75153332   -4.5827514   -4.5827514    -3.455454  0.017362753   -4.5827514    1.1272974   439061 
 3116000   0.75171179    -4.583644    -4.583644   -3.4560789  0.011997643    -4.583644    1.1275651   439061 
 3117000   0.75054762    -4.580107    -4.580107   -3.4542882 0.0080259047    -4.580107    1.1258189   439061 
 3118000   0.75118582   -4.5815279   -4.5815279   -3.4547517 0.0042021957   -4.5815279    1.1267762   439061 
 3119000   0.75057354   -4.5797602   -4.5797602   -3.4539025   0.01029148   -4.5797602    1.1258577   439061 
 3120000   0.75015776   -4.5793798   -4.5793798   -3.4541458 0.0056938293   -4.5793798    1.1252341   439061 
 3121000    0.7507074     -4.57943     -4.57943   -3.4533715  0.002325308     -4.57943    1.1260585   439061 
 3122000   0.75198755   -4.5794062   -4.5794062   -3.4514274  0.010106985   -4.5794062    1.1279788   439061 
 3123000   0.75095318   -4.5782573   -4.5782573     -3.45183 0.0032454834   -4.5782573    1.1264272   439061 
 3124000   0.75005423    -4.576489    -4.576489   -3.4514102  0.013037797    -4.576489    1.1250788   439061 
 3125000   0.75097553   -4.5763315   -4.5763315   -3.4498708 0.0056139109   -4.5763315    1.1264607   439061 
 3126000   0.75071277   -4.5774822   -4.5774822   -3.4514156 0.0040796744   -4.5774822    1.1260666   439061 
 3127000   0.75171856   -4.5791026   -4.5791026   -3.4515274 0.0021770788   -4.5791026    1.1275753   439061 
 3128000   0.75163291   -4.5790593   -4.5790593   -3.4516126 0.0078430344   -4.5790593    1.1274468   439061 
 3129000   0.75032595   -4.5771877   -4.5771877   -3.4517013  0.010378351   -4.5771877    1.1254864   439061 
 3130000   0.75063612   -4.5771261   -4.5771261   -3.4511745  0.013651875   -4.5771261    1.1259516   439061 
 3131000   0.75148077   -4.5803229   -4.5803229   -3.4531043  0.011076497   -4.5803229    1.1272186   439061 
 3132000   0.75190288   -4.5824838   -4.5824838   -3.4546321 0.0078584011   -4.5824838    1.1278518   439061 
 3133000   0.75093659   -4.5814389   -4.5814389   -3.4550366 0.0083247221   -4.5814389    1.1264023   439061 
 3134000   0.75074906   -4.5805643   -4.5805643   -3.4544433  0.012862254   -4.5805643     1.126121   439061 
 3135000   0.75017626   -4.5799758   -4.5799758    -3.454714  0.014966795   -4.5799758    1.1252618   439061 
 3136000   0.75139489   -4.5817786   -4.5817786   -3.4546888   0.01537943   -4.5817786    1.1270898   439061 
 3137000   0.75179116   -4.5817607   -4.5817607   -3.4540765  0.016445525   -4.5817607    1.1276842   439061 
 3138000   0.75298982   -4.5824175   -4.5824175   -3.4529353  0.014597005   -4.5824175    1.1294822   439061 
 3139000   0.75166074   -4.5811384   -4.5811384   -3.4536499  0.013108688   -4.5811384    1.1274885   439061 
 3140000   0.75102913   -4.5800558   -4.5800558   -3.4535147  0.012909079   -4.5800558    1.1265411   439061 
 3141000   0.75088176    -4.579817    -4.579817    -3.453497  0.011550918    -4.579817    1.1263201   439061 
 3142000   0.75061676    -4.579553    -4.579553   -3.4536304  0.014390246    -4.579553    1.1259226   439061 
 3143000   0.75068446   -4.5804382   -4.5804382    -3.454414 0.0083877959   -4.5804382    1.1260241   439061 
 3144000   0.75026994   -4.5785401   -4.5785401   -3.4531377 0.0061771675   -4.5785401    1.1254024   439061 
 3145000   0.75177583   -4.5791833   -4.5791833   -3.4515221  0.007516675   -4.5791833    1.1276612   439061 
 3146000   0.75065298   -4.5780629   -4.5780629    -3.452086 0.0073600584   -4.5780629    1.1259769   439061 
 3147000   0.75215373   -4.5785502   -4.5785502   -3.4503222  0.010713982   -4.5785502     1.128228   439061 
 3148000   0.75133355   -4.5789773   -4.5789773   -3.4519795 0.0078441538   -4.5789773    1.1269978   439061 
 3149000   0.75091171   -4.5789334   -4.5789334   -3.4525684 0.0059104428   -4.5789334     1.126365   439061 
 3150000   0.75112555   -4.5790219   -4.5790219   -3.4523361 0.0055287169   -4.5790219    1.1266858   439061 
 3151000   0.75089596   -4.5787472   -4.5787472   -3.4524059 0.0079397317   -4.5787472    1.1263414   439061 
 3152000    0.7511908    -4.580159    -4.580159   -3.4533753 0.0076885267    -4.580159    1.1267836   439061 
 3153000    0.7507424   -4.5787938   -4.5787938   -3.4526828  0.012737464   -4.5787938     1.126111   439061 
 3154000   0.75009027   -4.5796998   -4.5796998   -3.4545669  0.011320816   -4.5796998    1.1251328   439061 
 3155000   0.75028488   -4.5793782   -4.5793782   -3.4539535  0.010342269   -4.5793782    1.1254248   439061 
 3156000   0.75055485   -4.5800961   -4.5800961   -3.4542664  0.013388279   -4.5800961    1.1258297   439061 
 3157000   0.75064691   -4.5808535   -4.5808535   -3.4548857 0.0086647028   -4.5808535    1.1259678   439061 
 3158000   0.75168947   -4.5821105   -4.5821105   -3.4545789 0.0087781649   -4.5821105    1.1275316   439061 
 3159000   0.75125784   -4.5809588   -4.5809588   -3.4540746  0.012916177   -4.5809588    1.1268842   439061 
 3160000   0.75019629   -4.5801038   -4.5801038    -3.454812 0.0086624175   -4.5801038    1.1252919   439061 
 3161000   0.75086409   -4.5814403   -4.5814403   -3.4551468  0.012247594   -4.5814403    1.1262936   439061 
 3162000   0.75182429   -4.5818209   -4.5818209    -3.454087  0.011877927   -4.5818209    1.1277339   439061 
 3163000   0.75133552    -4.580154    -4.580154   -3.4531533  0.013240291    -4.580154    1.1270007   439061 
 3164000    0.7520651   -4.5820808   -4.5820808   -3.4539857 0.0087658333   -4.5820808    1.1280951   439061 
 3165000   0.75062932   -4.5794811   -4.5794811   -3.4535397  0.011441646   -4.5794811    1.1259414   439061 
 3166000   0.75105523   -4.5810439   -4.5810439   -3.4544637   0.01094872   -4.5810439    1.1265803   439061 
 3167000   0.75092751   -4.5808146   -4.5808146   -3.4544259 0.0095153717   -4.5808146    1.1263887   439061 
 3168000   0.75042402   -4.5797123   -4.5797123   -3.4540788  0.011009826   -4.5797123    1.1256335   439061 
 3169000   0.74955794    -4.578247    -4.578247   -3.4539127  0.014502017    -4.578247    1.1243343   439061 
 3170000   0.75015758   -4.5793343   -4.5793343   -3.4541005 0.0069172283   -4.5793343    1.1252338   439061 
 3171000   0.75142007   -4.5807049   -4.5807049   -3.4535773 0.0035916461   -4.5807049    1.1271275   439061 
 3172000   0.75030324   -4.5787012   -4.5787012   -3.4532489 0.0086871522   -4.5787012    1.1254523   439061 
 3173000   0.75168798   -4.5806638   -4.5806638   -3.4531344 0.0096851866   -4.5806638    1.1275294   439061 
 3174000   0.75111106   -4.5793565   -4.5793565   -3.4526925  0.011948471   -4.5793565     1.126664   439061 
 3175000     0.750547   -4.5793917   -4.5793917   -3.4535738 0.0077374262   -4.5793917    1.1258179   439061 
 3176000   0.75136173   -4.5809152   -4.5809152   -3.4538752  0.012831808   -4.5809152      1.12704   439061 
 3177000   0.75108093   -4.5817178   -4.5817178    -3.455099 0.0064005847   -4.5817178    1.1266188   439061 
 3178000   0.75030738   -4.5794185   -4.5794185     -3.45396 0.0085149552   -4.5794185    1.1254585   439061 
 3179000    0.7502707   -4.5807113   -4.5807113   -3.4553078 0.0083213066   -4.5807113    1.1254035   439061 
 3180000   0.74981251   -4.5805623   -4.5805623   -3.4558461 0.0092087237   -4.5805623    1.1247162   439061 
 3181000   0.74964781   -4.5803686   -4.5803686   -3.4558995  0.011613383   -4.5803686    1.1244692   439061 
 3182000   0.74999153   -4.5813881   -4.5813881   -3.4564034  0.011784423   -4.5813881    1.1249847   439061 
 3183000    0.7499747   -4.5813249   -4.5813249   -3.4563654  0.010344402   -4.5813249    1.1249595   439061 
 3184000   0.75071747   -4.5828248   -4.5828248   -3.4567512 0.0055893621   -4.5828248    1.1260736   439061 
 3185000   0.75110194   -4.5829932   -4.5829932   -3.4563429 0.0087203926   -4.5829932    1.1266503   439061 
 3186000    0.7511822    -4.583973    -4.583973   -3.4572023 0.0087964501    -4.583973    1.1267707   439061 
 3187000   0.74979784   -4.5814752   -4.5814752    -3.456781  0.017906303   -4.5814752    1.1246942   439061 
 3188000   0.75117022   -4.5826809   -4.5826809   -3.4559282   0.01130207   -4.5826809    1.1267528   439061 
 3189000   0.75021882   -4.5809472   -4.5809472   -3.4556215   0.01357678   -4.5809472    1.1253257   439061 
 3190000   0.75089701    -4.582405    -4.582405   -3.4560621 0.0084745149    -4.582405    1.1263429   439061 
 3191000    0.7509702   -4.5821989   -4.5821989   -3.4557462   0.00409484   -4.5821989    1.1264527   439061 
 3192000   0.74942344   -4.5791162   -4.5791162   -3.4549836  0.011295395   -4.5791162    1.1241326   439061 
 3193000   0.75056388   -4.5816431   -4.5816431   -3.4557999 -0.00051576211   -4.5816431    1.1258433   439061 
 3194000    0.7501744   -4.5799621   -4.5799621   -3.4547031 0.0069925687   -4.5799621     1.125259   439061 
 3195000   0.74981192   -4.5798955   -4.5798955   -3.4551802 0.0080260529   -4.5798955    1.1247153   439061 
 3196000   0.75128737   -4.5828235   -4.5828235    -3.455895 0.0072849804   -4.5828235    1.1269285   439061 
 3197000   0.75020971   -4.5802461   -4.5802461   -3.4549341 0.0085955425   -4.5802461     1.125312   439061 
 3198000   0.75101514   -4.5806571   -4.5806571    -3.454137 0.0078100269   -4.5806571    1.1265201   439061 
 3199000    0.7505719   -4.5802184   -4.5802184   -3.4543631 0.0079151697   -4.5802184    1.1258553   439061 
 3200000   0.75186301    -4.582698    -4.582698   -3.4549061 0.0088976537    -4.582698     1.127792   439061 
 3201000   0.75100006   -4.5810036   -4.5810036    -3.454506  0.012977395   -4.5810036    1.1264975   439061 
 3202000   0.75117165   -4.5805501   -4.5805501   -3.4537952  0.010006785   -4.5805501    1.1267549   439061 
 3203000   0.75252181   -4.5830719   -4.5830719   -3.4542917 0.0098767257   -4.5830719    1.1287801   439061 
 3204000   0.75085296    -4.580583    -4.580583   -3.4543061  0.010014843    -4.580583    1.1262769   439061 
 3205000   0.75111881   -4.5807354   -4.5807354   -3.4540598  0.007361338   -4.5807354    1.1266757   439061 
 3206000   0.75157745   -4.5817247   -4.5817247   -3.4543611 0.0087947303   -4.5817247    1.1273636   439061 
 3207000   0.75198082   -4.5817587   -4.5817587     -3.45379 0.0076035734   -4.5817587    1.1279687   439061 
 3208000   0.75110892   -4.5812425   -4.5812425   -3.4545817 0.0032285378   -4.5812425    1.1266608   439061 
 3209000   0.74961473   -4.5799519   -4.5799519   -3.4555323 0.0074212544   -4.5799519    1.1244195   439061 
 3210000   0.75012441   -4.5809549   -4.5809549   -3.4557708 0.0070844646   -4.5809549    1.1251841   439061 
 3211000   0.75008278   -4.5808812   -4.5808812   -3.4557596 0.0095106171   -4.5808812    1.1251216   439061 
 3212000   0.74973855   -4.5810653   -4.5810653     -3.45646  0.011826432   -4.5810653    1.1246053   439061 
 3213000   0.75077525    -4.581747    -4.581747   -3.4555866 0.0095669692    -4.581747    1.1261603   439061 
 3214000   0.75009221   -4.5807694   -4.5807694   -3.4556336  0.014004563   -4.5807694    1.1251358   439061 
 3215000   0.75149592   -4.5828706   -4.5828706   -3.4556293  0.011347655   -4.5828706    1.1272413   439061 
 3216000   0.75175144   -4.5834492   -4.5834492   -3.4558246  0.014898824   -4.5834492    1.1276246   439061 
 3217000   0.75160281   -4.5826202   -4.5826202   -3.4552186  0.014515872   -4.5826202    1.1274016   439061 
 3218000   0.75108985   -4.5824508   -4.5824508   -3.4558186  0.015272792   -4.5824508    1.1266322   439061 
 3219000   0.75096959   -4.5824956   -4.5824956   -3.4560438 0.0094951648   -4.5824956    1.1264518   439061 
 3220000   0.75061566   -4.5821817   -4.5821817   -3.4562608 0.0068554955   -4.5821817    1.1259209   439061 
 3221000   0.74915205   -4.5803038   -4.5803038   -3.4565783  0.004958521   -4.5803038    1.1237255   439061 
 3222000   0.74992448    -4.579718    -4.579718   -3.4548339 0.0088463307    -4.579718    1.1248842   439061 
 3223000     0.751132   -4.5810571   -4.5810571   -3.4543617 0.0058860106   -4.5810571    1.1266954   439061 
 3224000   0.74947704   -4.5783623   -4.5783623   -3.4541493 0.0073628661   -4.5783623     1.124213   439061 
 3225000   0.75057316   -4.5794673   -4.5794673   -3.4536101  0.005824504   -4.5794673    1.1258572   439061 
 3226000   0.74925032   -4.5780672   -4.5780672   -3.4541942 0.0091021463   -4.5780672    1.1238729   439061 
 3227000   0.74965775   -4.5788319   -4.5788319   -3.4543478 0.0092860897   -4.5788319    1.1244841   439061 
 3228000   0.74953837   -4.5792872   -4.5792872   -3.4549822 0.0074079199   -4.5792872     1.124305   439061 
 3229000   0.75087896   -4.5805051   -4.5805051   -3.4541892 0.0093006846   -4.5805051    1.1263159   439061 
 3230000   0.75092665   -4.5793697   -4.5793697   -3.4529823  0.013052422   -4.5793697    1.1263874   439061 
 3231000   0.75184519    -4.580835    -4.580835   -3.4530698  0.011033352    -4.580835    1.1277652   439061 
 3232000    0.7514818   -4.5829628   -4.5829628   -3.4557427  0.014234255   -4.5829628    1.1272201   439061 
 3233000   0.75094383   -4.5803998   -4.5803998   -3.4539867  0.012416251   -4.5803998    1.1264132   439061 
 3234000   0.75014172   -4.5797695   -4.5797695   -3.4545595 0.0091415165   -4.5797695      1.12521   439061 
 3235000   0.75058001   -4.5807844   -4.5807844   -3.4549169  0.010315492   -4.5807844    1.1258674   439061 
 3236000   0.75107272   -4.5821104   -4.5821104   -3.4555039 0.0081536982   -4.5821104    1.1266065   439061 
 3237000   0.75173097    -4.583366    -4.583366   -3.4557721 0.0061984017    -4.583366    1.1275939   439061 
 3238000   0.75084343   -4.5828727   -4.5828727   -3.4566102 0.0074412832   -4.5828727    1.1262626   439061 
 3239000   0.74942685   -4.5811506   -4.5811506   -3.4570129 0.0083111344   -4.5811506    1.1241377   439061 
 3240000   0.74996583   -4.5818807   -4.5818807   -3.4569345 0.0056427671   -4.5818807    1.1249462   439061 
 3241000   0.74933805   -4.5810069   -4.5810069   -3.4570024 0.0080801569   -4.5810069    1.1240045   439061 
 3242000   0.75152996   -4.5831175   -4.5831175   -3.4558251 0.0084558518   -4.5831175    1.1272924   439061 
 3243000   0.75063509   -4.5825054   -4.5825054   -3.4565554    0.0112164   -4.5825054    1.1259501   439061 
 3244000   0.75109537    -4.583464    -4.583464   -3.4568235  0.012581071    -4.583464    1.1266405   439061 
 3245000   0.75068946   -4.5832656   -4.5832656   -3.4572339   0.01119372   -4.5832656    1.1260316   439061 
 3246000   0.75134113   -4.5842297   -4.5842297   -3.4572206 0.0089645616   -4.5842297    1.1270091   439061 
 3247000   0.75055654    -4.582662    -4.582662   -3.4568297  0.012161846    -4.582662    1.1258322   439061 
 3248000   0.75118004   -4.5846607   -4.5846607   -3.4578932  0.013398604   -4.5846607    1.1267675   439061 
 3249000    0.7511967   -4.5846554   -4.5846554   -3.4578629  0.011029706   -4.5846554    1.1267925   439061 
 3250000   0.75059806   -4.5839865   -4.5839865    -3.458092  0.011872157   -4.5839865    1.1258945   439061 
 3251000   0.75041315   -4.5836813   -4.5836813   -3.4580641 0.0088744386   -4.5836813    1.1256172   439061 
 3252000   0.75023148   -4.5831312   -4.5831312   -3.4577866 0.0085029361   -4.5831312    1.1253447   439061 
 3253000   0.74997899   -4.5813706   -4.5813706   -3.4564047  0.013899856   -4.5813706    1.1249659   439061 
 3254000   0.74912566   -4.5808243   -4.5808243   -3.4571384 0.0095914185   -4.5808243    1.1236859   439061 
 3255000   0.75142659   -4.5836701   -4.5836701   -3.4565328 0.0073013629   -4.5836701    1.1271373   439061 
 3256000   0.74913804    -4.580329    -4.580329   -3.4566245 0.0093077946    -4.580329    1.1237045   439061 
 3257000   0.74958286   -4.5814553   -4.5814553   -3.4570836  0.005571371   -4.5814553    1.1243717   439061 
 3258000   0.74989888   -4.5814965   -4.5814965   -3.4566507 0.0070599148   -4.5814965    1.1248458   439061 
 3259000   0.74949806   -4.5810462   -4.5810462   -3.4568017 0.0079805177   -4.5810462    1.1242445   439061 
 3260000   0.75043177   -4.5827413   -4.5827413   -3.4570962 0.0073830701   -4.5827413    1.1256451   439061 
 3261000   0.75001952   -4.5822783   -4.5822783   -3.4572516 0.0021330703   -4.5822783    1.1250267   439061 
 3262000   0.74868185   -4.5800853   -4.5800853   -3.4570651  0.012381772   -4.5800853    1.1230202   439061 
 3263000   0.75099116   -4.5836696   -4.5836696   -3.4571854 0.0077809251   -4.5836696    1.1264842   439061 
 3264000   0.75128049   -4.5841204   -4.5841204   -3.4572023   0.01527808   -4.5841204    1.1269182   439061 
 3265000   0.75187635   -4.5841433   -4.5841433   -3.4563314    0.0142802   -4.5841433     1.127812   439061 
 3266000   0.75004083   -4.5831086   -4.5831086   -3.4580499  0.014047833   -4.5831086    1.1250587   439061 
 3267000   0.75164748    -4.584864    -4.584864   -3.4573953  0.011962078    -4.584864    1.1274687   439061 
 3268000   0.75023512   -4.5832994   -4.5832994   -3.4579493  0.014925496   -4.5832994    1.1253501   439061 
 3269000   0.75075033   -4.5834875   -4.5834875   -3.4573646  0.012487513   -4.5834875    1.1261229   439061 
 3270000   0.75017645   -4.5843362   -4.5843362   -3.4590741 0.0055376467   -4.5843362    1.1252621   439061 
 3271000   0.75080733   -4.5840842   -4.5840842   -3.4578758 0.0050416538   -4.5840842    1.1262084   439061 
 3272000   0.75030874   -4.5834292   -4.5834292   -3.4579687 0.0080621393   -4.5834292    1.1254605   439061 
 3273000   0.74919305   -4.5818828   -4.5818828   -3.4580958 0.0052491204   -4.5818828     1.123787   439061 
 3274000   0.74982624   -4.5821903   -4.5821903   -3.4574535 0.0082902566   -4.5821903    1.1247368   439061 
 3275000   0.74940926   -4.5818602   -4.5818602   -3.4577489 0.0090178153   -4.5818602    1.1241113   439061 
 3276000   0.75046705   -4.5830399   -4.5830399   -3.4573419  0.010329219   -4.5830399     1.125698   439061 
 3277000   0.74969229   -4.5813649   -4.5813649    -3.456829 0.0047829419   -4.5813649    1.1245359   439061 
 3278000   0.75070935   -4.5824689   -4.5824689   -3.4564074  0.010096972   -4.5824689    1.1260615   439061 
 3279000   0.75052985   -4.5819929   -4.5819929   -3.4562007  0.013028483   -4.5819929    1.1257922   439061 
 3280000   0.75086068   -4.5826288   -4.5826288   -3.4563404  0.011245033   -4.5826288    1.1262885   439061 
 3281000   0.75128997   -4.5830314   -4.5830314    -3.456099  0.014756044   -4.5830314    1.1269324   439061 
 3282000   0.75037085   -4.5827158   -4.5827158   -3.4571621  0.011575355   -4.5827158    1.1255537   439061 
 3283000   0.74960337   -4.5811583   -4.5811583   -3.4567558    0.0158653   -4.5811583    1.1244025   439061 
 3284000   0.75130849   -4.5839762   -4.5839762   -3.4570161  0.011276577   -4.5839762    1.1269602   439061 
 3285000   0.74963999   -4.5824319   -4.5824319   -3.4579744 0.0077775838   -4.5824319    1.1244574   439061 
 3286000   0.74959207   -4.5826939   -4.5826939   -3.4583083 0.0091902903   -4.5826939    1.1243855   439061 
 3287000    0.7492251   -4.5820433   -4.5820433   -3.4582082 0.0078994085   -4.5820433    1.1238351   439061 
 3288000   0.74945987   -4.5833499   -4.5833499   -3.4591627 0.0025617556   -4.5833499    1.1241872   439061 
 3289000   0.75060791   -4.5844919   -4.5844919   -3.4585826  0.005604671   -4.5844919    1.1259093   439061 
 3290000   0.75077916   -4.5842764   -4.5842764   -3.4581102 0.0096810835   -4.5842764    1.1261662   439061 
 3291000   0.75228123   -4.5851471   -4.5851471   -3.4567278  0.003688842   -4.5851471    1.1284193   439061 
 3292000   0.75054624   -4.5835392   -4.5835392   -3.4577224 0.0087958911   -4.5835392    1.1258168   439061 
 3293000   0.75134501   -4.5841582   -4.5841582   -3.4571432  0.011897196   -4.5841582     1.127015   439061 
 3294000   0.75167635   -4.5849058   -4.5849058   -3.4573938  0.010742101   -4.5849058     1.127512   439061 
 3295000   0.75160305   -4.5844702   -4.5844702   -3.4570682  0.013113287   -4.5844702     1.127402   439061 
 3296000   0.74973732   -4.5816656   -4.5816656   -3.4570622  0.014758374   -4.5816656    1.1246034   439061 
 3297000   0.75068033   -4.5839473   -4.5839473   -3.4579294  0.011199847   -4.5839473    1.1260179   439061 
 3298000   0.75030505   -4.5822007   -4.5822007   -3.4567457 0.0054657373   -4.5822007     1.125455   439061 
 3299000   0.75026781   -4.5806932   -4.5806932    -3.455294 0.0091546484   -4.5806932    1.1253991   439061 
 3300000   0.75083787   -4.5823565   -4.5823565   -3.4561023 0.0081082878   -4.5823565    1.1262542   439061 
 3301000   0.75147941   -4.5827778   -4.5827778   -3.4555612 0.0080735577   -4.5827778    1.1272165   439061 
 3302000   0.74962601   -4.5794925   -4.5794925    -3.455056  0.010779394   -4.5794925    1.1244365   439061 
 3303000   0.75075614    -4.579811    -4.579811   -3.4536794  0.011554803    -4.579811    1.1261316   439061 
 3304000   0.75024521   -4.5798326   -4.5798326   -3.4544674  0.012468904   -4.5798326    1.1253652   439061 
 3305000   0.75068571   -4.5811021   -4.5811021   -3.4550761  0.010710364   -4.5811021     1.126026   439061 
 3306000   0.75014139    -4.581011    -4.581011   -3.4558015 0.0077233204    -4.581011    1.1252095   439061 
 3307000   0.74979189   -4.5793784   -4.5793784   -3.4546931 0.0096941233   -4.5793784    1.1246853   439061 
 3308000   0.75003478   -4.5795829   -4.5795829   -3.4545333 0.0095485845   -4.5795829    1.1250496   439061 
 3309000   0.75244189   -4.5821366   -4.5821366   -3.4534763 0.0033351074   -4.5821366    1.1286603   439061 
 3310000   0.75214336    -4.582647    -4.582647   -3.4544345 0.0087455135    -4.582647    1.1282125   439061 
 3311000   0.75180365   -4.5809204   -4.5809204   -3.4532175  0.012690284   -4.5809204    1.1277029   439061 
 3312000   0.75198675   -4.5824849   -4.5824849   -3.4545074 0.0071962907   -4.5824849    1.1279776   439061 
 3313000   0.75027171   -4.5802313   -4.5802313   -3.4548263  0.008468703   -4.5802313     1.125405   439061 
 3314000   0.75043994   -4.5824283   -4.5824283    -3.456771 0.0024172468   -4.5824283    1.1256573   439061 
 3315000   0.75034247   -4.5826142   -4.5826142    -3.457103 0.0080303152   -4.5826142    1.1255111   439061 
 3316000   0.75309561   -4.5854476   -4.5854476   -3.4558068 0.0050000069   -4.5854476    1.1296408   439061 
 3317000   0.75103854   -4.5825773   -4.5825773    -3.456022 0.0095046011   -4.5825773    1.1265553   439061 
 3318000   0.75202049   -4.5828067   -4.5828067   -3.4547785 0.0054947547   -4.5828067    1.1280282   439061 
 3319000   0.75155392   -4.5837206   -4.5837206   -3.4563923  0.015693016   -4.5837206    1.1273283   439061 
 3320000   0.75115709   -4.5838164   -4.5838164   -3.4570833  0.011163145   -4.5838164    1.1267331   439061 
 3321000   0.75020965   -4.5826741   -4.5826741   -3.4573622  0.013882967   -4.5826741    1.1253119   439061 
 3322000   0.75040024   -4.5824472   -4.5824472   -3.4568494 0.0098039561   -4.5824472    1.1255978   439061 
 3323000   0.75079033    -4.581842    -4.581842    -3.455659  0.013089271    -4.581842    1.1261829   439061 
 3324000   0.75194167   -4.5834998   -4.5834998   -3.4555898  0.013309596   -4.5834998    1.1279099   439061 
 3325000   0.75075153   -4.5812973   -4.5812973   -3.4551726  0.015814459   -4.5812973    1.1261247   439061 
 3326000   0.75077716   -4.5803232   -4.5803232   -3.4541601  0.009767346   -4.5803232    1.1261632   439061 
 3327000   0.75103164   -4.5801745   -4.5801745   -3.4536296  0.010915904   -4.5801745    1.1265449   439061 
 3328000   0.75176793   -4.5813212   -4.5813212   -3.4536718 0.0024078108   -4.5813212    1.1276493   439061 
 3329000   0.75102304   -4.5807731   -4.5807731   -3.4542411 0.0074405157   -4.5807731     1.126532   439061 
 3330000   0.75036611   -4.5797511   -4.5797511   -3.4542045 0.0095009668   -4.5797511    1.1255466   439061 
 3331000   0.75013993   -4.5799401   -4.5799401   -3.4547328 0.0043779857   -4.5799401    1.1252073   439061 
 3332000   0.75054941   -4.5804382   -4.5804382   -3.4546167 0.0042438233   -4.5804382    1.1258215   439061 
 3333000   0.75018727    -4.580023    -4.580023   -3.4547446 0.0092365474    -4.580023    1.1252783   439061 
 3334000   0.75037155   -4.5802705   -4.5802705   -3.4547157  0.011817136   -4.5802705    1.1255548   439061 
 3335000   0.75177671   -4.5813793   -4.5813793   -3.4537168  0.011726486   -4.5813793    1.1276625   439061 
 3336000   0.75244894   -4.5833787   -4.5833787   -3.4547079 0.0092008899   -4.5833787    1.1286708   439061 
 3337000   0.75228614   -4.5836269   -4.5836269   -3.4552002 0.0064829075   -4.5836269    1.1284266   439061 
 3338000   0.75253356   -4.5844082   -4.5844082   -3.4556104  0.013751501   -4.5844082    1.1287978   439061 
 3339000   0.75091656   -4.5832363   -4.5832363    -3.456864  0.014143863   -4.5832363    1.1263723   439061 
 3340000   0.75136248   -4.5833024   -4.5833024   -3.4562613 0.0083209363   -4.5833024    1.1270411   439061 
 3341000   0.74992313   -4.5827537   -4.5827537   -3.4578716  0.009630624   -4.5827537    1.1248821   439061 
 3342000    0.7507538   -4.5847207   -4.5847207   -3.4585926 0.0060795334   -4.5847207    1.1261281   439061 
 3343000   0.75268522   -4.5858386   -4.5858386   -3.4568133 0.0033287714   -4.5858386    1.1290253   439061 
 3344000     0.750664   -4.5833915   -4.5833915   -3.4573981  0.014041041   -4.5833915    1.1259934   439061 
 3345000   0.75123075   -4.5837189   -4.5837189   -3.4568753 0.0071972089   -4.5837189    1.1268436   439061 
 3346000    0.7505707   -4.5829895   -4.5829895    -3.457136  0.009906528   -4.5829895    1.1258535   439061 
 3347000   0.75072113   -4.5828135   -4.5828135   -3.4567343  0.011132452   -4.5828135    1.1260791   439061 
 3348000   0.75146742   -4.5842505   -4.5842505   -3.4570519 0.0094088867   -4.5842505    1.1271986   439061 
 3349000   0.75191838   -4.5837502   -4.5837502   -3.4558752 0.0081707804   -4.5837502     1.127875   439061 
 3350000   0.75138001   -4.5836319   -4.5836319   -3.4565645 0.0086963697   -4.5836319    1.1270674   439061 
 3351000   0.75073891   -4.5831504   -4.5831504   -3.4570446  0.010139994   -4.5831504    1.1261058   439061 
 3352000   0.75099701   -4.5837513   -4.5837513   -3.4572584 0.0041240065   -4.5837513    1.1264929   439061 
 3353000   0.74972343   -4.5825803   -4.5825803   -3.4579977  0.004716128   -4.5825803    1.1245826   439061 
 3354000   0.74988286   -4.5820075   -4.5820075   -3.4571858 0.0061836543   -4.5820075    1.1248217   439061 
 3355000   0.74987986   -4.5812211   -4.5812211   -3.4564039  0.010841476   -4.5812211    1.1248172   439061 
 3356000   0.75042701   -4.5828352   -4.5828352   -3.4571972 0.0092524921   -4.5828352    1.1256379   439061 
 3357000   0.75031451   -4.5824707   -4.5824707   -3.4570015  0.011611356   -4.5824707    1.1254692   439061 
 3358000   0.75066154   -4.5837247   -4.5837247   -3.4577349  0.010727745   -4.5837247    1.1259897   439061 
 3359000   0.75049803   -4.5825641   -4.5825641   -3.4568197  0.019320214   -4.5825641    1.1257445   439061 
 3360000   0.75114078   -4.5834175   -4.5834175   -3.4567089  0.013822371   -4.5834175    1.1267086   439061 
 3361000   0.75047509   -4.5833994   -4.5833994   -3.4576893  0.013667771   -4.5833994    1.1257101   439061 
 3362000   0.75141568   -4.5846481   -4.5846481   -3.4575272 0.0087689406   -4.5846481    1.1271209   439061 
 3363000   0.75049037    -4.582681    -4.582681    -3.456948   0.01671855    -4.582681     1.125733   439061 
 3364000   0.75049113   -4.5839279   -4.5839279   -3.4581938  0.010319192   -4.5839279    1.1257341   439061 
 3365000   0.75153456    -4.585068    -4.585068   -3.4577687 0.0058904173    -4.585068    1.1272993   439061 
 3366000   0.74998084   -4.5821311   -4.5821311   -3.4571624  0.012018334   -4.5821311    1.1249687   439061 
 3367000   0.75010298   -4.5821649   -4.5821649    -3.457013 0.0090676449   -4.5821649    1.1251519   439061 
 3368000   0.74984832   -4.5817501   -4.5817501   -3.4569801 0.0062554296   -4.5817501    1.1247699   439061 
 3369000   0.74991156   -4.5818507   -4.5818507    -3.456986 0.0066654699   -4.5818507    1.1248648   439061 
 3370000   0.75042389   -4.5817431   -4.5817431   -3.4561098 0.0096363068   -4.5817431    1.1256333   439061 
 3371000   0.75117993   -4.5823224   -4.5823224   -3.4555551  0.010277422   -4.5823224    1.1267673   439061 
 3372000    0.7503038   -4.5814053   -4.5814053   -3.4559521  0.011145175   -4.5814053    1.1254531   439061 
 3373000   0.75051019   -4.5819361   -4.5819361   -3.4561734 0.0094303193   -4.5819361    1.1257627   439061 
 3374000   0.75145329   -4.5829529   -4.5829529   -3.4557755 0.0060294541   -4.5829529    1.1271774   439061 
 3375000   0.74964683   -4.5800437   -4.5800437    -3.455576  0.011602448   -4.5800437    1.1244677   439061 
 3376000   0.75010885   -4.5800541   -4.5800541   -3.4548934  0.015969038   -4.5800541    1.1251607   439061 
 3377000   0.75032526   -4.5804887   -4.5804887   -3.4550034  0.012857768   -4.5804887    1.1254853   439061 
 3378000   0.75084093     -4.58067     -4.58067   -3.4544112 0.0099062571     -4.58067    1.1262588   439061 
 3379000    0.7504444   -4.5799335   -4.5799335   -3.4542695   0.01033194   -4.5799335     1.125664   439061 
 3380000   0.75097599   -4.5811795   -4.5811795   -3.4547181 0.0082284495   -4.5811795    1.1264614   439061 
 3381000   0.75132442   -4.5823736   -4.5823736   -3.4553896  0.003527924   -4.5823736    1.1269841   439061 
 3382000    0.7505868   -4.5803375   -4.5803375   -3.4544598 0.0080486227   -4.5803375    1.1258776   439061 
 3383000   0.74963672   -4.5791431   -4.5791431   -3.4546906  0.010958519   -4.5791431    1.1244525   439061 
 3384000    0.7506042   -4.5805194   -4.5805194   -3.4546157 0.0089538873   -4.5805194    1.1259037   439061 
 3385000   0.75036934   -4.5792525   -4.5792525    -3.453701 0.0093802268   -4.5792525    1.1255514   439061 
 3386000   0.75098768   -4.5806051   -4.5806051   -3.4541261 0.0089748623   -4.5806051     1.126479   439061 
 3387000   0.75102016   -4.5807148   -4.5807148   -3.4541871 0.0083507726   -4.5807148    1.1265277   439061 
 3388000   0.75109915   -4.5808139   -4.5808139   -3.4541677 0.0070991017   -4.5808139    1.1266462   439061 
 3389000   0.75042115   -4.5797309   -4.5797309   -3.4541018  0.011990465   -4.5797309    1.1256292   439061 
 3390000   0.75022534    -4.579852    -4.579852   -3.4545166 0.0067175196    -4.579852    1.1253355   439061 
 3391000    0.7510563   -4.5804959   -4.5804959    -3.453914  0.010289254   -4.5804959    1.1265819   439061 
 3392000   0.75141735   -4.5822313   -4.5822313   -3.4551078  0.010798865   -4.5822313    1.1271235   439061 
 3393000   0.75115108   -4.5815413   -4.5815413   -3.4548173  0.011707338   -4.5815413    1.1267241   439061 
 3394000    0.7518099   -4.5827172   -4.5827172   -3.4550049  0.011082766   -4.5827172    1.1277123   439061 
 3395000   0.74996564   -4.5801558   -4.5801558   -3.4552099  0.012005162   -4.5801558    1.1249459   439061 
 3396000   0.75084479   -4.5814648   -4.5814648   -3.4552002  0.013545065   -4.5814648    1.1262646   439061 
 3397000   0.75241258   -4.5840987   -4.5840987   -3.4554824 0.0089855894   -4.5840987    1.1286163   439061 
 3398000    0.7526782   -4.5846693   -4.5846693   -3.4556546  0.010069557   -4.5846693    1.1290147   439061 
 3399000   0.75126066   -4.5820086   -4.5820086   -3.4551202 0.0075002856   -4.5820086    1.1268884   439061 
 3400000   0.75034745   -4.5812323   -4.5812323   -3.4557137 0.0063839787   -4.5812323    1.1255186   439061 
 3401000   0.75069845   -4.5818649   -4.5818649   -3.4558198 0.0099932723   -4.5818649    1.1260451   439061 
 3402000   0.75065367    -4.582459    -4.582459   -3.4564811 0.0064475877    -4.582459    1.1259779   439061 
 3403000   0.74984458   -4.5799302   -4.5799302   -3.4551659  0.010051491   -4.5799302    1.1247643   439061 
 3404000   0.75013811   -4.5807381   -4.5807381   -3.4555335 0.0086632392   -4.5807381    1.1252046   439061 
 3405000   0.75012229   -4.5803199   -4.5803199    -3.455139  0.011885457   -4.5803199    1.1251809   439061 
 3406000   0.75133144   -4.5823969   -4.5823969   -3.4554023 0.0082120239   -4.5823969    1.1269946   439061 
 3407000   0.75058525   -4.5805514   -4.5805514   -3.4546761  0.013557043   -4.5805514    1.1258753   439061 
 3408000   0.75126248   -4.5821758   -4.5821758   -3.4552846  0.012954836   -4.5821758    1.1268912   439061 
 3409000     0.750661     -4.58117     -4.58117   -3.4551811 0.0089225055     -4.58117    1.1259889   439061 
 3410000   0.75021247   -4.5811288   -4.5811288   -3.4558127 0.0082040352   -4.5811288    1.1253161   439061 
 3411000   0.75008452   -4.5808039   -4.5808039   -3.4556797  0.010222412   -4.5808039    1.1251242   439061 
 3412000    0.7505656   -4.5820539   -4.5820539   -3.4562081 0.0076229561   -4.5820539    1.1258458   439061 
 3413000   0.75057359   -4.5823774   -4.5823774   -3.4565196 0.0042843107   -4.5823774    1.1258578   439061 
 3414000   0.75021647   -4.5821126   -4.5821126   -3.4567904 0.0078255537   -4.5821126    1.1253221   439061 
 3415000   0.74951211   -4.5805565   -4.5805565   -3.4562909  0.012383216   -4.5805565    1.1242656   439061 
 3416000   0.75187438   -4.5833726   -4.5833726   -3.4555636 0.0091244355   -4.5833726     1.127809   439061 
 3417000   0.75148017   -4.5821482   -4.5821482   -3.4549305  0.012707321   -4.5821482    1.1272177   439061 
 3418000   0.75048082   -4.5820769   -4.5820769   -3.4563582   0.01390443   -4.5820769    1.1257187   439061 
 3419000   0.75104385   -4.5829403   -4.5829403    -3.456377  0.010795377   -4.5829403    1.1265632   439061 
 3420000   0.75041162   -4.5826068   -4.5826068   -3.4569919  0.011512903   -4.5826068    1.1256149   439061 
 3421000   0.75140219     -4.58324     -4.58324   -3.4561393 0.0080875079     -4.58324    1.1271007   439061 
 3422000   0.75108514   -4.5828516   -4.5828516   -3.4562265 0.0086488452   -4.5828516    1.1266251   439061 
 3423000    0.7513416   -4.5829693   -4.5829693   -3.4559595  0.014725236   -4.5829693    1.1270098   439061 
 3424000   0.75142566   -4.5829271   -4.5829271   -3.4557912 0.0077801315   -4.5829271    1.1271359   439061 
 3425000   0.75071275   -4.5820271   -4.5820271   -3.4559605 0.0087781814   -4.5820271    1.1260666   439061 
 3426000   0.75114785   -4.5817771   -4.5817771   -3.4550579 0.0054373435   -4.5817771    1.1267192   439061 
 3427000    0.7509022    -4.581335    -4.581335   -3.4549843 0.0077800814    -4.581335    1.1263507   439061 
 3428000   0.74972127    -4.580156    -4.580156   -3.4555766 0.0086695981    -4.580156    1.1245793   439061 
 3429000   0.75166399   -4.5820432   -4.5820432   -3.4545497  0.010215116   -4.5820432    1.1274934   439061 
 3430000   0.75142181   -4.5822171   -4.5822171    -3.455087 0.0081924293   -4.5822171    1.1271301   439061 
 3431000   0.75080699   -4.5824676   -4.5824676   -3.4562596 0.0079018865   -4.5824676    1.1262079   439061 
 3432000   0.75154774   -4.5819705   -4.5819705   -3.4546514  0.010592976   -4.5819705     1.127319   439061 
 3433000   0.75059713   -4.5806568   -4.5806568   -3.4547637  0.012862366   -4.5806568    1.1258931   439061 
 3434000   0.75097148   -4.5819335   -4.5819335   -3.4554788 0.0081049597   -4.5819335    1.1264546   439061 
 3435000   0.75154663    -4.581677    -4.581677   -3.4543596  0.014458186    -4.581677    1.1273174   439061 
 3436000   0.75074653   -4.5823331   -4.5823331   -3.4562159 0.0094036475   -4.5823331    1.1261172   439061 
 3437000    0.7508526   -4.5819977   -4.5819977   -3.4557213   0.01155797   -4.5819977    1.1262763   439061 
 3438000   0.74986418   -4.5815196   -4.5815196   -3.4567259  0.012489791   -4.5815196    1.1247937   439061 
 3439000   0.74864581    -4.580255    -4.580255   -3.4572888 0.0085170544    -4.580255    1.1229662   439061 
 3440000    0.7511525   -4.5825582   -4.5825582    -3.455832 0.0039968782   -4.5825582    1.1267262   439061 
 3441000   0.75077353    -4.581692    -4.581692   -3.4555343  0.012674881    -4.581692    1.1261577   439061 
 3442000   0.75104748   -4.5817041   -4.5817041   -3.4551355  0.014574741   -4.5817041    1.1265687   439061 
 3443000   0.75099604   -4.5813699   -4.5813699   -3.4548784  0.015306515   -4.5813699    1.1264915   439061 
 3444000   0.75052208   -4.5822666   -4.5822666    -3.456486  0.008978334   -4.5822666    1.1257806   439061 
 3445000   0.75050345   -4.5819321   -4.5819321   -3.4561794  0.010730558   -4.5819321    1.1257526   439061 
 3446000   0.75090714    -4.582515    -4.582515   -3.4561568 0.0090630672    -4.582515    1.1263581   439061 
 3447000   0.75117546   -4.5828614   -4.5828614   -3.4561008 0.0054439872   -4.5828614    1.1267606   439061 
 3448000   0.75099651    -4.581637    -4.581637   -3.4551448  0.010722564    -4.581637    1.1264922   439061 
 3449000   0.75125578   -4.5823108   -4.5823108   -3.4554297 0.0091571805   -4.5823108    1.1268811   439061 
 3450000   0.74891841   -4.5790732   -4.5790732   -3.4556981 0.0098057343   -4.5790732    1.1233751   439061 
 3451000   0.75012968   -4.5806329   -4.5806329    -3.455441  0.010391033   -4.5806329     1.125192   439061 
 3452000   0.75117336   -4.5825648   -4.5825648   -3.4558073  0.009006547   -4.5825648    1.1267575   439061 
 3453000   0.75041347   -4.5817308   -4.5817308   -3.4561131  0.009914494   -4.5817308    1.1256176   439061 
 3454000    0.7505931   -4.5806911   -4.5806911    -3.454804  0.013132362   -4.5806911    1.1258871   439061 
 3455000    0.7520482   -4.5830819   -4.5830819   -3.4550122    0.0101015   -4.5830819    1.1280697   439061 
 3456000   0.75174258   -4.5831788   -4.5831788   -3.4555675  0.013312044   -4.5831788    1.1276113   439061 
 3457000    0.7511109   -4.5825956   -4.5825956   -3.4559318  0.011572484   -4.5825956    1.1266638   439061 
 3458000   0.74964662   -4.5812543   -4.5812543    -3.456787  0.010606936   -4.5812543    1.1244674   439061 
 3459000   0.74995779   -4.5814323   -4.5814323   -3.4564982  0.010062419   -4.5814323    1.1249341   439061 
 3460000   0.75087906   -4.5820145   -4.5820145   -3.4556985 0.0054139683   -4.5820145     1.126316   439061 
 3461000   0.75084918   -4.5817139   -4.5817139   -3.4554427 0.0077751146   -4.5817139    1.1262712   439061 
 3462000   0.75027191   -4.5820636   -4.5820636   -3.4566583 0.0078599019   -4.5820636    1.1254053   439061 
 3463000   0.75039099   -4.5822702   -4.5822702   -3.4566863 0.0092412654   -4.5822702    1.1255839   439061 
 3464000   0.75037087   -4.5820898   -4.5820898   -3.4565361  0.010022978   -4.5820898    1.1255537   439061 
 3465000   0.75121349   -4.5824854   -4.5824854   -3.4556677 0.0080194124   -4.5824854    1.1268177   439061 
 3466000   0.75025952   -4.5817941   -4.5817941   -3.4564074 0.0090652767   -4.5817941    1.1253867   439061 
 3467000   0.75113789   -4.5834416   -4.5834416   -3.4567374 0.0090309558   -4.5834416    1.1267043   439061 
 3468000   0.75102766   -4.5824574   -4.5824574   -3.4559185  0.010972453   -4.5824574    1.1265389   439061 
 3469000   0.75265772   -4.5834111   -4.5834111   -3.4544271  0.012133718   -4.5834111     1.128984   439061 
 3470000   0.75048082     -4.58045     -4.58045   -3.4547314  0.014191239     -4.58045    1.1257187   439061 
 3471000   0.75136169   -4.5826007   -4.5826007   -3.4555608 0.0089125491   -4.5826007      1.12704   439061 
 3472000   0.75101367   -4.5830101   -4.5830101   -3.4564921 0.0059183231   -4.5830101    1.1265179   439061 
 3473000   0.75023242   -4.5813265   -4.5813265   -3.4559805 0.0091272381   -4.5813265    1.1253461   439061 
 3474000   0.74953954   -4.5814661   -4.5814661   -3.4571593  0.011744135   -4.5814661    1.1243067   439061 
 3475000   0.75146661   -4.5829811   -4.5829811   -3.4557838 0.0043731328   -4.5829811    1.1271973   439061 
 3476000   0.75104419   -4.5822515   -4.5822515   -3.4556878 0.0078614436   -4.5822515    1.1265637   439061 
 3477000   0.75100986   -4.5824397   -4.5824397   -3.4559275 0.0073612603   -4.5824397    1.1265122   439061 
 3478000   0.75219493   -4.5838632   -4.5838632   -3.4555734 0.0059441333   -4.5838632    1.1282898   439061 
 3479000   0.75038451   -4.5816271   -4.5816271   -3.4560529 0.0093323229   -4.5816271    1.1255742   439061 
 3480000   0.75019523   -4.5820183   -4.5820183    -3.456728  0.005621109   -4.5820183    1.1252903   439061 
 3481000   0.74916518   -4.5803266   -4.5803266   -3.4565814  0.011588291   -4.5803266    1.1237452   439061 
 3482000   0.75047299   -4.5830538   -4.5830538   -3.4573469  0.010410964   -4.5830538    1.1257069   439061 
 3483000   0.75064969   -4.5826453   -4.5826453   -3.4566733  0.014322539   -4.5826453     1.125972   439061 
 3484000   0.75148351    -4.582493    -4.582493   -3.4552703  0.011362757    -4.582493    1.1272227   439061 
 3485000   0.75046893   -4.5830636   -4.5830636   -3.4573628 0.0067604038   -4.5830636    1.1257008   439061 
 3486000   0.75105623   -4.5836735   -4.5836735   -3.4570918  0.015804325   -4.5836735    1.1265818   439061 
 3487000   0.75031964   -4.5825503   -4.5825503   -3.4570734 0.0092662447   -4.5825503    1.1254769   439061 
 3488000   0.75143128   -4.5837569   -4.5837569   -3.4566126  0.012794068   -4.5837569    1.1271444   439061 
 3489000   0.75260492    -4.585856    -4.585856   -3.4569512 0.0093601577    -4.585856    1.1289048   439061 
 3490000   0.74978706   -4.5832709   -4.5832709   -3.4585928 0.0098273294   -4.5832709     1.124678   439061 
 3491000   0.75061324   -4.5827194   -4.5827194   -3.4568021 0.0075287286   -4.5827194    1.1259173   439061 
 3492000   0.75136682   -4.5843828   -4.5843828   -3.4573352  0.010533138   -4.5843828    1.1270477   439061 
 3493000   0.75140519   -4.5834299   -4.5834299   -3.4563247  0.010937116   -4.5834299    1.1271052   439061 
 3494000    0.7497197   -4.5815014   -4.5815014   -3.4569245  0.010393509   -4.5815014     1.124577   439061 
 3495000   0.75072892   -4.5835284   -4.5835284   -3.4574376  0.011147468   -4.5835284    1.1260908   439061 
 3496000   0.75043924   -4.5829187   -4.5829187   -3.4572624 0.0078093658   -4.5829187    1.1256563   439061 
 3497000   0.74985758   -4.5828843   -4.5828843   -3.4581004 0.0040837908   -4.5828843    1.1247838   439061 
 3498000   0.74907387    -4.580886    -4.580886   -3.4572778  0.008321573    -4.580886    1.1236083   439061 
 3499000   0.75059208   -4.5837737   -4.5837737   -3.4578882 0.0071823925   -4.5837737    1.1258855   439061 
 3500000    0.7509127   -4.5842021   -4.5842021   -3.4578357 0.0039924256   -4.5842021    1.1263665   439061 
 3501000   0.75134073   -4.5838469   -4.5838469   -3.4568383 0.0024287883   -4.5838469    1.1270085   439061 
 3502000    0.7492123   -4.5804165   -4.5804165   -3.4566006   0.01126359   -4.5804165    1.1238159   439061 
 3503000   0.75025337   -4.5811935   -4.5811935    -3.455816  0.019009258   -4.5811935    1.1253775   439061 
 3504000   0.75118034   -4.5833685   -4.5833685   -3.4566005 0.0077491114   -4.5833685    1.1267679   439061 
 3505000   0.75123594   -4.5823013   -4.5823013     -3.45545  0.011537285   -4.5823013    1.1268513   439061 
 3506000   0.75188626   -4.5829801   -4.5829801   -3.4551533 0.0098972219   -4.5829801    1.1278268   439061 
 3507000   0.75121978   -4.5821371   -4.5821371     -3.45531  0.011835294   -4.5821371    1.1268271   439061 
 3508000    0.7507833   -4.5830856   -4.5830856   -3.4569132 0.0098059348   -4.5830856    1.1261724   439061 
 3509000   0.75023921   -4.5829893   -4.5829893   -3.4576331  0.011560141   -4.5829893    1.1253563   439061 
 3510000   0.75055448   -4.5837843   -4.5837843   -3.4579552 0.0074224388   -4.5837843    1.1258292   439061 
 3511000   0.74966094   -4.5824112   -4.5824112   -3.4579224 0.0039108193   -4.5824112    1.1244888   439061 
 3512000   0.74876574    -4.580839    -4.580839   -3.4576929 0.0060998397    -4.580839    1.1231461   439061 
 3513000   0.74954045    -4.581393    -4.581393   -3.4570849  0.010579004    -4.581393    1.1243081   439061 
 3514000    0.7500668   -4.5802491   -4.5802491   -3.4551515  0.015578844   -4.5802491    1.1250976   439061 
 3515000   0.75142298   -4.5831114   -4.5831114   -3.4559795  0.011799269   -4.5831114    1.1271319   439061 
 3516000   0.75166903   -4.5816556   -4.5816556   -3.4541546  0.016447993   -4.5816556     1.127501   439061 
 3517000    0.7518956   -4.5829462   -4.5829462   -3.4551054 0.0082285744   -4.5829462    1.1278408   439061 
 3518000   0.75210355   -4.5847259   -4.5847259   -3.4565731 0.0081402369   -4.5847259    1.1281528   439061 
 3519000   0.74942409   -4.5813935   -4.5813935   -3.4572599 0.0074719555   -4.5813935    1.1241336   439061 
 3520000    0.7490733    -4.581176    -4.581176   -3.4575686 0.0089306342    -4.581176    1.1236074   439061 
 3521000   0.74961597   -4.5820995   -4.5820995   -3.4576781  0.011603266   -4.5820995    1.1244214   439061 
 3522000   0.75028292   -4.5822786   -4.5822786   -3.4568568 0.0056926869   -4.5822786    1.1254218   439061 
 3523000   0.74934968   -4.5803744   -4.5803744   -3.4563525 0.0093234065   -4.5803744     1.124022   439061 
 3524000   0.75030248   -4.5824577   -4.5824577   -3.4570066 0.0088588315   -4.5824577    1.1254512   439061 
 3525000   0.75122468   -4.5822072   -4.5822072   -3.4553728   0.01124751   -4.5822072    1.1268345   439061 
 3526000   0.75152644   -4.5821784   -4.5821784   -3.4548913  0.011917815   -4.5821784    1.1272871   439061 
 3527000   0.75131529   -4.5821692   -4.5821692   -3.4551989 0.0073179556   -4.5821692    1.1269704   439061 
 3528000   0.75110703   -4.5828428   -4.5828428   -3.4561849 0.0092003636   -4.5828428     1.126658   439061 
 3529000   0.75021414     -4.58216     -4.58216   -3.4568413 0.0020629851     -4.58216    1.1253186   439061 
 3530000   0.75070841   -4.5840844   -4.5840844   -3.4580243 0.0043360535   -4.5840844    1.1260601   439061 
 3531000   0.74844374   -4.5822461   -4.5822461    -3.459583 0.0038386722   -4.5822461    1.1226631   439061 
 3532000   0.74915545   -4.5822558   -4.5822558   -3.4585252  0.011467439   -4.5822558    1.1237306   439061 
 3533000   0.74836876   -4.5831175   -4.5831175   -3.4605669 0.0077705262   -4.5831175    1.1225506   439061 
 3534000   0.75027062   -4.5865306   -4.5865306   -3.4611272 0.0026998936   -4.5865306    1.1254034   439061 
 3535000   0.74940646   -4.5865265   -4.5865265   -3.4624194 0.0089549115   -4.5865265    1.1241071   439061 
 3536000   0.75068471    -4.587856    -4.587856   -3.4618315 0.0047090414    -4.587856    1.1260245   439061 
 3537000   0.75178577   -4.5898083   -4.5898083   -3.4621322 0.0055823005   -4.5898083    1.1276761   439061 
 3538000   0.75125699   -4.5903747   -4.5903747   -3.4634918  0.011956704   -4.5903747    1.1268829   439061 
 3539000   0.75156759   -4.5892596   -4.5892596   -3.4619108  0.014941237   -4.5892596    1.1273488   439061 
 3540000   0.75095702   -4.5885034   -4.5885034   -3.4620704  0.014928336   -4.5885034     1.126433   439061 
 3541000   0.75083038   -4.5876137   -4.5876137   -3.4613707  0.016411575   -4.5876137     1.126243   439061 
 3542000    0.7515561   -4.5898003   -4.5898003   -3.4624688 0.0089459376   -4.5898003    1.1273316   439061 
 3543000   0.75073115   -4.5873938   -4.5873938   -3.4612997  0.011138086   -4.5873938    1.1260942   439061 
 3544000   0.74841796   -4.5839774   -4.5839774   -3.4613531  0.010355444   -4.5839774    1.1226244   439061 
 3545000   0.74881596   -4.5832547   -4.5832547   -3.4600333 0.0084063643   -4.5832547    1.1232214   439061 
 3546000   0.75025274   -4.5840759   -4.5840759   -3.4586993 0.0034995589   -4.5840759    1.1253766   439061 
 3547000   0.74971063    -4.582836    -4.582836   -3.4582727 0.0068620962    -4.582836    1.1245634   439061 
 3548000   0.74991535   -4.5829778   -4.5829778   -3.4581073 -0.00056701238   -4.5829778    1.1248705   439061 
 3549000   0.74858496   -4.5803825   -4.5803825   -3.4575076 0.0080173533   -4.5803825    1.1228749   439061 
 3550000   0.74949195   -4.5823653   -4.5823653   -3.4581299  0.002249406   -4.5823653    1.1242354   439061 
 3551000   0.74825769   -4.5810049   -4.5810049   -3.4586209 0.0084585626   -4.5810049     1.122384   439061 
 3552000   0.75049675   -4.5834303   -4.5834303   -3.4576878 0.0067061034   -4.5834303    1.1257426   439061 
 3553000   0.75023724   -4.5840003   -4.5840003   -3.4586469  0.013456284   -4.5840003    1.1253533   439061 
 3554000   0.75128893    -4.584439    -4.584439   -3.4575081  0.011016519    -4.584439    1.1269308   439061 
 3555000   0.75074282   -4.5840673   -4.5840673   -3.4579556 0.0093140862   -4.5840673    1.1261117   439061 
 3556000   0.74961007   -4.5825056   -4.5825056    -3.458093  0.019912783   -4.5825056    1.1244125   439061 
 3557000    0.7518491   -4.5855932   -4.5855932   -3.4578221  0.013951539   -4.5855932    1.1277711   439061 
 3558000   0.75157974   -4.5860428   -4.5860428   -3.4586758  0.012394312   -4.5860428     1.127367   439061 
 3559000   0.75072541   -4.5847126   -4.5847126    -3.458627  0.013858768   -4.5847126    1.1260856   439061 
 3560000   0.74982774   -4.5837415   -4.5837415   -3.4590025  0.007568746   -4.5837415     1.124739   439061 
 3561000   0.75032785   -4.5832783   -4.5832783   -3.4577891 0.0063683051   -4.5832783    1.1254892   439061 
 3562000   0.74990803   -4.5834545   -4.5834545    -3.458595 0.0054723039   -4.5834545    1.1248595   439061 
 3563000   0.75034214   -4.5830942   -4.5830942   -3.4575835  0.013613973   -4.5830942    1.1255106   439061 
 3564000   0.75118856   -4.5836919   -4.5836919   -3.4569116  0.005726359   -4.5836919    1.1267803   439061 
 3565000   0.74998791   -4.5821564   -4.5821564   -3.4571771 0.0085454558   -4.5821564    1.1249793   439061 
 3566000   0.74943871    -4.580575    -4.580575   -3.4564195 0.0077515751    -4.580575    1.1241555   439061 
 3567000   0.75090828   -4.5830759   -4.5830759    -3.456716 0.0049245169   -4.5830759    1.1263599   439061 
 3568000   0.74931999   -4.5811878   -4.5811878   -3.4572103   0.01098508   -4.5811878    1.1239774   439061 
 3569000   0.74984344   -4.5806668   -4.5806668   -3.4559042  0.016372006   -4.5806668    1.1247626   439061 
 3570000   0.75088291   -4.5830577   -4.5830577   -3.4567359  0.012111012   -4.5830577    1.1263218   439061 
 3571000    0.7498934   -4.5820808   -4.5820808   -3.4572432  0.010362295   -4.5820808    1.1248375   439061 
 3572000   0.75006071   -4.5836006   -4.5836006   -3.4585121  0.005611884   -4.5836006    1.1250885   439061 
 3573000   0.75127203   -4.5843017   -4.5843017   -3.4573962  0.010299709   -4.5843017    1.1269055   439061 
 3574000    0.7501591   -4.5820644   -4.5820644   -3.4568283  0.016420751   -4.5820644    1.1252361   439061 
 3575000   0.75166967   -4.5845172   -4.5845172   -3.4570153  0.014858367   -4.5845172    1.1275019   439061 
 3576000   0.75087482   -4.5846731   -4.5846731   -3.4583634   0.01143463   -4.5846731    1.1263097   439061 
 3577000   0.75110416   -4.5839264   -4.5839264   -3.4572727 0.0099721028   -4.5839264    1.1266537   439061 
 3578000   0.75012528   -4.5827628   -4.5827628   -3.4575775  0.009013546   -4.5827628    1.1251854   439061 
 3579000   0.75030957   -4.5829559   -4.5829559   -3.4574941  0.011616585   -4.5829559    1.1254618   439061 
 3580000   0.75077228   -4.5835522   -4.5835522   -3.4573964  0.013267398   -4.5835522    1.1261558   439061 
 3581000   0.75096108   -4.5837881   -4.5837881   -3.4573491 0.0086894682   -4.5837881    1.1264391   439061 
 3582000   0.75148229   -4.5846076   -4.5846076   -3.4573867 0.0067033451   -4.5846076    1.1272209   439061 
 3583000   0.75154872   -4.5839427   -4.5839427   -3.4566221 0.0089065541   -4.5839427    1.1273205   439061 
 3584000   0.75079125   -4.5827451   -4.5827451   -3.4565608 0.0085855076   -4.5827451    1.1261843   439061 
 3585000   0.75066726   -4.5834334   -4.5834334   -3.4574351 0.0094358547   -4.5834334    1.1259983   439061 
 3586000   0.74973127   -4.5820308   -4.5820308   -3.4574364  0.012010256   -4.5820308    1.1245943   439061 
 3587000   0.75136768    -4.585192    -4.585192   -3.4581431 0.0086531357    -4.585192     1.127049   439061 
 3588000   0.75040502   -4.5836144   -4.5836144   -3.4580094 0.0078901534   -4.5836144     1.125605   439061 
 3589000   0.75165896   -4.5847348   -4.5847348   -3.4572489   0.01018174   -4.5847348    1.1274859   439061 
 3590000   0.75125733   -4.5841011   -4.5841011   -3.4572177 0.0098031537   -4.5841011    1.1268834   439061 
 3591000   0.75119201   -4.5845946   -4.5845946   -3.4578092   0.01026513   -4.5845946    1.1267855   439061 
 3592000   0.75177211   -4.5849156   -4.5849156     -3.45726  0.010155413   -4.5849156    1.1276556   439061 
 3593000   0.75194072   -4.5850469   -4.5850469   -3.4571384 0.0092442608   -4.5850469    1.1279085   439061 
 3594000   0.75017975   -4.5815995   -4.5815995   -3.4563324  0.015261693   -4.5815995    1.1252671   439061 
 3595000   0.75069304   -4.5835763   -4.5835763   -3.4575393  0.009976029   -4.5835763     1.126037   439061 
 3596000   0.75011222   -4.5834675   -4.5834675   -3.4583018  0.011358171   -4.5834675    1.1251658   439061 
 3597000    0.7490163    -4.582368    -4.582368   -3.4588461  0.008245483    -4.582368    1.1235219   439061 
 3598000   0.75009622   -4.5834188   -4.5834188    -3.458277 0.0062417253   -4.5834188    1.1251418   439061 
 3599000   0.75031654   -4.5833992   -4.5833992    -3.457927 0.0071879962   -4.5833992    1.1254723   439061 
 3600000   0.74957707   -4.5837015   -4.5837015   -3.4593385  0.008313112   -4.5837015     1.124363   439061 
 3601000   0.75058485   -4.5840145   -4.5840145   -3.4581398 0.0093079504   -4.5840145    1.1258747   439061 
 3602000   0.74963535    -4.582981    -4.582981   -3.4585305   0.00828154    -4.582981    1.1244505   439061 
 3603000   0.74949392   -4.5836493   -4.5836493    -3.459411 0.0091974954   -4.5836493    1.1242383   439061 
 3604000   0.75021841   -4.5848495   -4.5848495   -3.4595245 0.0091182988   -4.5848495    1.1253251   439061 
 3605000   0.75048669   -4.5851934   -4.5851934    -3.459466  0.012035416   -4.5851934    1.1257275   439061 
 3606000   0.75004848   -4.5856639   -4.5856639   -3.4605937  0.011671303   -4.5856639    1.1250702   439061 
 3607000   0.74980399     -4.58432     -4.58432   -3.4596166  0.013175536     -4.58432    1.1247034   439061 
 3608000   0.75108381   -4.5859709   -4.5859709   -3.4593478  0.012117769   -4.5859709    1.1266232   439061 
 3609000   0.75172568   -4.5873843   -4.5873843   -3.4597984  0.010065481   -4.5873843     1.127586   439061 
 3610000   0.75075237   -4.5862585   -4.5862585   -3.4601325  0.011815714   -4.5862585     1.126126   439061 
 3611000   0.75043385   -4.5862655   -4.5862655   -3.4606173  0.011286202   -4.5862655    1.1256482   439061 
 3612000   0.75080419   -4.5861248   -4.5861248    -3.459921 0.0082483942   -4.5861248    1.1262037   439061 
 3613000   0.75012442   -4.5860665   -4.5860665   -3.4608824 0.0095436581   -4.5860665    1.1251841   439061 
 3614000    0.7498802   -4.5860188   -4.5860188    -3.461201 0.0074881255   -4.5860188    1.1248177   439061 
 3615000   0.74891502   -4.5844505   -4.5844505   -3.4610805  0.010329215   -4.5844505      1.12337   439061 
 3616000   0.74876677   -4.5846931   -4.5846931   -3.4615455 0.0073736437   -4.5846931    1.1231476   439061 
 3617000   0.74928449   -4.5842516   -4.5842516   -3.4603274 0.0098163937   -4.5842516    1.1239242   439061 
 3618000    0.7493883   -4.5842175   -4.5842175   -3.4601376  0.009285595   -4.5842175    1.1240799   439061 
 3619000   0.75063334   -4.5866439   -4.5866439   -3.4606965 0.0065868529   -4.5866439    1.1259474   439061 
 3620000   0.74991865   -4.5862703   -4.5862703   -3.4613949  0.005353604   -4.5862703    1.1248754   439061 
 3621000   0.74941308   -4.5854002   -4.5854002   -3.4612832  0.011872141   -4.5854002    1.1241171   439061 
 3622000    0.7505202   -4.5873216   -4.5873216   -3.4615439  0.010150522   -4.5873216    1.1257777   439061 
 3623000   0.75003253   -4.5877513   -4.5877513   -3.4627051  0.007891494   -4.5877513    1.1250462   439061 
 3624000   0.75045223   -4.5869478   -4.5869478    -3.461272  0.013145261   -4.5869478    1.1256758   439061 
 3625000   0.75077802   -4.5878123   -4.5878123   -3.4616478  0.008370161   -4.5878123    1.1261645   439061 
 3626000   0.75195948   -4.5884879   -4.5884879   -3.4605512 0.0064539302   -4.5884879    1.1279366   439061 
 3627000   0.75102516    -4.588157    -4.588157   -3.4616218  0.010748888    -4.588157    1.1265352   439061 
 3628000   0.75011301   -4.5868273   -4.5868273   -3.4616603  0.012601794   -4.5868273    1.1251669   439061 
 3629000    0.7512769   -4.5879732   -4.5879732   -3.4610605 0.0097444885   -4.5879732    1.1269128   439061 
 3630000   0.75072523   -4.5868269   -4.5868269   -3.4607416 0.0087656834   -4.5868269    1.1260853   439061 
 3631000    0.7510443   -4.5864755   -4.5864755   -3.4599116   0.01269007   -4.5864755    1.1265639   439061 
 3632000   0.74985674   -4.5835492   -4.5835492   -3.4587666  0.011332472   -4.5835492    1.1247825   439061 
 3633000   0.75047179   -4.5842654   -4.5842654   -3.4585603  0.010759994   -4.5842654    1.1257051   439061 
 3634000   0.74916295    -4.582412    -4.582412   -3.4586701 0.0096569775    -4.582412    1.1237419   439061 
 3635000   0.75006009   -4.5839202   -4.5839202   -3.4588326 0.0079568348   -4.5839202    1.1250876   439061 
 3636000   0.75054605   -4.5839702   -4.5839702   -3.4581537   0.00845152   -4.5839702    1.1258165   439061 
 3637000   0.75161582   -4.5845902   -4.5845902    -3.457169 0.0057595887   -4.5845902    1.1274212   439061 
 3638000   0.75144196   -4.5848044   -4.5848044    -3.457644  0.010676517   -4.5848044    1.1271604   439061 
 3639000   0.75185509   -4.5854929   -4.5854929   -3.4577129 0.0044009477   -4.5854929    1.1277801   439061 
 3640000   0.74965153   -4.5828933   -4.5828933   -3.4584186 0.0084200177   -4.5828933    1.1244747   439061 
 3641000   0.74973365   -4.5832321   -4.5832321   -3.4586342  0.008782968   -4.5832321    1.1245979   439061 
 3642000   0.75013948   -4.5834001   -4.5834001   -3.4581934   0.00995872   -4.5834001    1.1252067   439061 
 3643000   0.75152491    -4.585786    -4.585786   -3.4585012 0.0046624206    -4.585786    1.1272848   439061 
 3644000   0.75067776   -4.5843139   -4.5843139   -3.4582998  0.010040627   -4.5843139    1.1260141   439061 
 3645000   0.74928145   -4.5838289   -4.5838289   -3.4599093  0.010043395   -4.5838289    1.1239196   439061 
 3646000   0.74966776   -4.5855133   -4.5855133   -3.4610142 0.0078019274   -4.5855133    1.1244991   439061 
 3647000   0.74961752   -4.5855889   -4.5855889   -3.4611652 0.0085698657   -4.5855889    1.1244237   439061 
 3648000   0.74983357    -4.585906    -4.585906   -3.4611582  0.010530611    -4.585906    1.1247478   439061 
 3649000   0.75029654   -4.5852783   -4.5852783   -3.4598361  0.012717467   -4.5852783    1.1254422   439061 
 3650000   0.75104733   -4.5854256   -4.5854256   -3.4588571  0.010724841   -4.5854256    1.1265684   439061 
 3651000   0.74945025   -4.5847063   -4.5847063   -3.4605335  0.018883492   -4.5847063    1.1241728   439061 
 3652000   0.75098823   -4.5869052   -4.5869052   -3.4604254   0.01337754   -4.5869052    1.1264798   439061 
 3653000   0.75059223   -4.5867732   -4.5867732   -3.4608875 0.0083717195   -4.5867732    1.1258858   439061 
 3654000   0.75097013   -4.5867508   -4.5867508   -3.4602982  0.007946672   -4.5867508    1.1264526   439061 
 3655000   0.74964508   -4.5851675   -4.5851675   -3.4607025 0.0064994878   -4.5851675    1.1244651   439061 
 3656000   0.75004366   -4.5850075   -4.5850075   -3.4599446   0.01400337   -4.5850075    1.1250629   439061 
 3657000   0.75003252   -4.5846993   -4.5846993   -3.4596531  0.010928723   -4.5846993    1.1250462   439061 
 3658000   0.74953833   -4.5842715   -4.5842715   -3.4599666 0.0070980706   -4.5842715    1.1243049   439061 
 3659000   0.74956646   -4.5852083   -4.5852083   -3.4608612 0.00059457171   -4.5852083    1.1243471   439061 
 3660000   0.74900783   -4.5838177   -4.5838177   -3.4603085 0.0047388842   -4.5838177    1.1235092   439061 
 3661000    0.7488014   -4.5841286   -4.5841286   -3.4609291 0.0060058007   -4.5841286    1.1231995   439061 
 3662000   0.74987102   -4.5856498   -4.5856498   -3.4608458   0.00734666   -4.5856498     1.124804   439061 
 3663000   0.75017597   -4.5853829   -4.5853829   -3.4601215  0.010992922   -4.5853829    1.1252614   439061 
 3664000   0.75125953   -4.5870646   -4.5870646   -3.4601779  0.010168968   -4.5870646    1.1268867   439061 
 3665000   0.75069018   -4.5863275   -4.5863275   -3.4602948  0.018722322   -4.5863275    1.1260327   439061 
 3666000   0.75058881   -4.5858283   -4.5858283   -3.4599477  0.017731161   -4.5858283    1.1258807   439061 
 3667000   0.75241799   -4.5869268   -4.5869268   -3.4583024  0.017513473   -4.5869268    1.1286244   439061 
 3668000   0.75229167   -4.5875722   -4.5875722   -3.4591372  0.013309266   -4.5875722    1.1284349   439061 
 3669000   0.75115716   -4.5875765   -4.5875765   -3.4608434  0.012632937   -4.5875765    1.1267332   439061 
 3670000   0.75112677    -4.586248    -4.586248   -3.4595604 0.0096161229    -4.586248    1.1266876   439061 
 3671000   0.74977046   -4.5835518   -4.5835518   -3.4588987 0.0076298373   -4.5835518    1.1246531   439061 
 3672000   0.74899825   -4.5818505   -4.5818505   -3.4583557 0.0040168658   -4.5818505    1.1234948   439061 
 3673000   0.74987843   -4.5824932   -4.5824932   -3.4576781 0.0022235091   -4.5824932    1.1248151   439061 
 3674000   0.75009768   -4.5832776   -4.5832776   -3.4581336 0.0075810944   -4.5832776     1.125144   439061 
 3675000   0.75005432   -4.5817512   -4.5817512   -3.4566723  0.010523449   -4.5817512    1.1250789   439061 
 3676000   0.75081983   -4.5823165   -4.5823165   -3.4560893 0.0061838396   -4.5823165    1.1262272   439061 
 3677000   0.74960038   -4.5800887   -4.5800887   -3.4556907 0.0085550817   -4.5800887     1.124398   439061 
 3678000    0.7510474   -4.5825705   -4.5825705   -3.4560019 0.0058327474   -4.5825705    1.1265685   439061 
 3679000   0.75093585   -4.5828134   -4.5828134   -3.4564122 0.0085715163   -4.5828134    1.1264012   439061 
 3680000   0.75149054   -4.5838081   -4.5838081   -3.4565748 0.0086013311   -4.5838081    1.1272332   439061 
 3681000   0.75100246   -4.5826824   -4.5826824   -3.4561812  0.014061302   -4.5826824    1.1265011   439061 
 3682000   0.75006791   -4.5829486   -4.5829486   -3.4578493  0.010855752   -4.5829486    1.1250993   439061 
 3683000   0.74995323   -4.5821481   -4.5821481   -3.4572208  0.010424929   -4.5821481    1.1249273   439061 
 3684000   0.75044272   -4.5844163   -4.5844163   -3.4587547 0.0078851623   -4.5844163    1.1256615   439061 
 3685000    0.7516377    -4.585224    -4.585224     -3.45777  0.011483433    -4.585224     1.127454   439061 
 3686000   0.75144161   -4.5855736   -4.5855736   -3.4584138 0.0078436966   -4.5855736    1.1271598   439061 
 3687000   0.75063531   -4.5850296   -4.5850296   -3.4590792  0.010748435   -4.5850296    1.1259504   439061 
 3688000   0.75065678   -4.5853525   -4.5853525   -3.4593699 0.0072935266   -4.5853525    1.1259826   439061 
 3689000   0.75023506   -4.5845783   -4.5845783   -3.4592283 0.0092302379   -4.5845783      1.12535   439061 
 3690000   0.75006262   -4.5850833   -4.5850833    -3.459992  0.008900465   -4.5850833    1.1250914   439061 
 3691000   0.74977062   -4.5850805   -4.5850805   -3.4604271 0.0080953088   -4.5850805    1.1246534   439061 
 3692000   0.74932897   -4.5841467   -4.5841467   -3.4601558  0.012722036   -4.5841467    1.1239909   439061 
 3693000   0.75064637   -4.5858232   -4.5858232   -3.4598562 0.0069204434   -4.5858232     1.125967   439061 
 3694000   0.75069071   -4.5862201   -4.5862201   -3.4601866 0.0081077507   -4.5862201    1.1260335   439061 
 3695000   0.75044866   -4.5857113   -4.5857113   -3.4600409  0.010534603   -4.5857113    1.1256704   439061 
 3696000    0.7509334   -4.5862038   -4.5862038   -3.4598063   0.01030993   -4.5862038    1.1263975   439061 
 3697000   0.75028676   -4.5852742   -4.5852742   -3.4598466 0.0072005496   -4.5852742    1.1254276   439061 
 3698000   0.75029044   -4.5842196   -4.5842196   -3.4587865  0.012125162   -4.5842196    1.1254331   439061 
 3699000   0.75028393   -4.5852166   -4.5852166   -3.4597933   0.01069488   -4.5852166    1.1254233   439061 
 3700000   0.75149779   -4.5873643   -4.5873643   -3.4601202  0.010314052   -4.5873643    1.1272441   439061 
 3701000   0.75205303   -4.5875918   -4.5875918   -3.4595148 0.0092057429   -4.5875918     1.128077   439061 
 3702000   0.75117553   -4.5848372   -4.5848372   -3.4580765   0.01147226   -4.5848372    1.1267607   439061 
 3703000   0.75021612   -4.5843048   -4.5843048   -3.4589832  0.011743192   -4.5843048    1.1253216   439061 
 3704000   0.75005731   -4.5842215   -4.5842215   -3.4591381  0.011383317   -4.5842215    1.1250834   439061 
 3705000   0.75080218   -4.5849992   -4.5849992   -3.4587985 0.0099683655   -4.5849992    1.1262007   439061 
 3706000   0.75020267   -4.5844146   -4.5844146   -3.4591131 0.0088816502   -4.5844146    1.1253014   439061 
 3707000   0.75059198    -4.585482    -4.585482   -3.4595966 0.0086649414    -4.585482    1.1258854   439061 
 3708000   0.74981643   -4.5843999   -4.5843999   -3.4596778 0.0054859462   -4.5843999    1.1247221   439061 
 3709000   0.74939254   -4.5837794   -4.5837794   -3.4596932 0.0048269447   -4.5837794    1.1240862   439061 
 3710000   0.74971196   -4.5834797   -4.5834797   -3.4589143  0.010536213   -4.5834797    1.1245654   439061 
 3711000   0.74999933    -4.584526    -4.584526   -3.4595296 0.0041479711    -4.584526    1.1249964   439061 
 3712000   0.75108818   -4.5855312   -4.5855312   -3.4589015 0.0054775786   -4.5855312    1.1266297   439061 
 3713000   0.75076767   -4.5848631   -4.5848631   -3.4587141 0.0088561255   -4.5848631    1.1261489   439061 
 3714000   0.75201398   -4.5869724   -4.5869724    -3.458954 0.0025461123   -4.5869724    1.1280184   439061 
 3715000   0.74976705   -4.5833888   -4.5833888   -3.4587408  0.010959391   -4.5833888     1.124648   439061 
 3716000   0.74959506    -4.583654    -4.583654   -3.4592639  0.012621432    -4.583654      1.12439   439061 
 3717000   0.75026038   -4.5851738   -4.5851738   -3.4597858  0.011920546   -4.5851738     1.125388   439061 
 3718000   0.75127178   -4.5867049   -4.5867049   -3.4597998  0.010611128   -4.5867049    1.1269051   439061 
 3719000   0.75230399   -4.5870878   -4.5870878   -3.4586344   0.01380568   -4.5870878    1.1284534   439061 
 3720000    0.7514866   -4.5863827   -4.5863827   -3.4591554  0.010890251   -4.5863827    1.1272273   439061 
 3721000   0.75147758   -4.5857394   -4.5857394   -3.4585256  0.013068396   -4.5857394    1.1272138   439061 
 3722000   0.75291776   -4.5872681   -4.5872681    -3.457894 0.0072452526   -4.5872681    1.1293741   439061 
 3723000   0.75178637   -4.5850724   -4.5850724   -3.4573954  0.010057503   -4.5850724     1.127677   439061 
 3724000   0.75010664   -4.5819207   -4.5819207   -3.4567633  0.010818706   -4.5819207    1.1251574   439061 
 3725000   0.74924985   -4.5823689   -4.5823689   -3.4584967 0.0086915652   -4.5823689    1.1238722   439061 
 3726000   0.74939579   -4.5834839   -4.5834839   -3.4593928 0.0023411977   -4.5834839    1.1240911   439061 
 3727000   0.74777568   -4.5799178   -4.5799178   -3.4582568 0.0083909718   -4.5799178     1.121661   439061 
 3728000   0.74933814     -4.58124     -4.58124   -3.4572354 0.0061408777     -4.58124    1.1240046   439061 
 3729000   0.74975471   -4.5829402   -4.5829402   -3.4583107 0.0031915128   -4.5829402    1.1246295   439061 
 3730000   0.75131226   -4.5836282   -4.5836282   -3.4566624 0.0051747843   -4.5836282    1.1269658   439061 
 3731000   0.75084939   -4.5827226   -4.5827226   -3.4564511  0.010422075   -4.5827226    1.1262715   439061 
 3732000   0.75162803   -4.5849062   -4.5849062   -3.4574668 0.0084532407   -4.5849062    1.1274395   439061 
 3733000   0.75169491   -4.5847981   -4.5847981   -3.4572583  0.011023915   -4.5847981    1.1275398   439061 
 3734000   0.75044036   -4.5833949   -4.5833949   -3.4577369    0.0135938   -4.5833949     1.125658   439061 
 3735000   0.75052592   -4.5852329   -4.5852329   -3.4594465  0.011946386   -4.5852329    1.1257863   439061 
 3736000   0.75076076   -4.5856776   -4.5856776    -3.459539  0.016498746   -4.5856776    1.1261386   439061 
 3737000   0.75150561   -4.5865909   -4.5865909   -3.4593351  0.013079112   -4.5865909    1.1272558   439061 
 3738000   0.75005754   -4.5857056   -4.5857056   -3.4606219  0.011877445   -4.5857056    1.1250838   439061 
 3739000   0.74921929   -4.5840318   -4.5840318   -3.4602054  0.011057669   -4.5840318    1.1238264   439061 
 3740000   0.75094295   -4.5867787   -4.5867787   -3.4603669 0.0036473416   -4.5867787    1.1264119   439061 
 3741000   0.74980463   -4.5852439   -4.5852439   -3.4605395  0.012944915   -4.5852439    1.1247044   439061 
 3742000   0.74948731   -4.5849066   -4.5849066   -3.4606782 0.0045722177   -4.5849066    1.1242284   439061 
 3743000    0.7494528   -4.5845222   -4.5845222   -3.4603455 0.0088836793   -4.5845222    1.1241766   439061 
 3744000   0.74875864   -4.5852825   -4.5852825    -3.462147 0.0038429555   -4.5852825    1.1231354   439061 
 3745000   0.74890116   -4.5848717   -4.5848717   -3.4615225 0.0062580531   -4.5848717    1.1233492   439061 
 3746000   0.74972913   -4.5870133   -4.5870133   -3.4624222   0.00632642   -4.5870133    1.1245911   439061 
 3747000   0.74900329   -4.5864135   -4.5864135   -3.4629111 0.0072342724   -4.5864135    1.1235024   439061 
 3748000   0.74891674   -4.5864438   -4.5864438   -3.4630712 0.0052816881   -4.5864438    1.1233725   439061 
 3749000   0.74996924   -4.5867866   -4.5867866   -3.4618353 0.0089754375   -4.5867866    1.1249513   439061 
 3750000   0.75027485    -4.587658    -4.587658   -3.4622483 0.0057304501    -4.587658    1.1254097   439061 
 3751000   0.75125961   -4.5888039   -4.5888039   -3.4619171  0.013211175   -4.5888039    1.1268868   439061 
 3752000   0.75106353   -4.5884519   -4.5884519   -3.4618592  0.018015407   -4.5884519    1.1265927   439061 
 3753000   0.75068728   -4.5884835   -4.5884835   -3.4624552  0.012560518   -4.5884835    1.1260284   439061 
 3754000   0.75044772   -4.5869951   -4.5869951   -3.4613261  0.015722732   -4.5869951     1.125669   439061 
 3755000   0.75016617   -4.5864972   -4.5864972   -3.4612505  0.013817485   -4.5864972    1.1252467   439061 
 3756000   0.75088776    -4.587808    -4.587808    -3.461479  0.014937039    -4.587808    1.1263291   439061 
 3757000   0.75034029   -4.5857063   -4.5857063   -3.4601985  0.010836253   -4.5857063    1.1255079   439061 
 3758000   0.75119425   -4.5863813   -4.5863813   -3.4595925  0.010643192   -4.5863813    1.1267888   439061 
 3759000   0.74862413   -4.5841148   -4.5841148   -3.4611812 0.0091145745   -4.5841148    1.1229336   439061 
 3760000   0.74917788   -4.5851746   -4.5851746   -3.4614104 0.0039681977   -4.5851746    1.1237643   439061 
 3761000   0.74755295   -4.5829188   -4.5829188   -3.4615919 0.0067788757   -4.5829188    1.1213269   439061 
 3762000   0.74748565    -4.583534    -4.583534   -3.4623081 -0.0031800974    -4.583534    1.1212259   439061 
 3763000   0.74887082   -4.5855347   -4.5855347   -3.4622311 0.00087270383   -4.5855347    1.1233037   439061 
 3764000   0.74848972   -4.5843808   -4.5843808   -3.4616487 0.0021887401   -4.5843808     1.122732   439061 
 3765000   0.74984412   -4.5856689   -4.5856689   -3.4609053 0.0062248538   -4.5856689    1.1247636   439061 
 3766000   0.75057398    -4.586942    -4.586942   -3.4610836  0.011085913    -4.586942    1.1258584   439061 
 3767000   0.75039642   -4.5876639   -4.5876639   -3.4620718  0.011940007   -4.5876639    1.1255921   439061 
 3768000   0.75097616   -4.5891607   -4.5891607    -3.462699 0.0076229352   -4.5891607    1.1264617   439061 
 3769000   0.75093878   -4.5890265   -4.5890265   -3.4626209  0.014205435   -4.5890265    1.1264056   439061 
 3770000    0.7505487   -4.5883619   -4.5883619   -3.4625414  0.016651364   -4.5883619    1.1258205   439061 
 3771000   0.75183762   -4.5910076   -4.5910076   -3.4632537  0.016212058   -4.5910076    1.1277539   439061 
 3772000   0.75053463   -4.5891231   -4.5891231   -3.4633237  0.017720704   -4.5891231    1.1257994   439061 
 3773000   0.75104388   -4.5895758   -4.5895758   -3.4630126 0.0097471359   -4.5895758    1.1265633   439061 
 3774000   0.75136431   -4.5888576   -4.5888576   -3.4618137  0.011219193   -4.5888576    1.1270439   439061 
 3775000   0.74969983   -4.5865241   -4.5865241   -3.4619769  0.011100242   -4.5865241    1.1245472   439061 
 3776000   0.75036664   -4.5867207   -4.5867207   -3.4611733 0.0058349012   -4.5867207    1.1255474   439061 
 3777000   0.74983721   -4.5851108   -4.5851108   -3.4603576 0.0056977943   -4.5851108    1.1247533   439061 
 3778000   0.74879294   -4.5831684   -4.5831684   -3.4599816  0.012750501   -4.5831684    1.1231869   439061 
 3779000   0.74830193   -4.5829688   -4.5829688   -3.4605185 0.0049417091   -4.5829688    1.1224503   439061 
 3780000    0.7475473   -4.5815459   -4.5815459   -3.4602275 0.0052077388   -4.5815459    1.1213184   439061 
 3781000   0.74895771    -4.585886    -4.585886    -3.462452 -0.002282962    -4.585886     1.123434   439061 
 3782000   0.74848978   -4.5835146   -4.5835146   -3.4607825 0.0071522696   -4.5835146    1.1227321   439061 
 3783000   0.75061744   -4.5865362   -4.5865362   -3.4606126 0.0048982689   -4.5865362    1.1259236   439061 
 3784000   0.75126733   -4.5871929   -4.5871929   -3.4602945  0.015146733   -4.5871929    1.1268984   439061 
 3785000   0.75043493   -4.5873469   -4.5873469    -3.461697  0.013769502   -4.5873469    1.1256498   439061 
 3786000   0.75263999   -4.5908809   -4.5908809   -3.4619235  0.015283907   -4.5908809    1.1289574   439061 
 3787000   0.75146571   -4.5891279   -4.5891279   -3.4619319  0.011329732   -4.5891279     1.127196   439061 
 3788000   0.75146092   -4.5898669   -4.5898669   -3.4626781  0.011535702   -4.5898669    1.1271888   439061 
 3789000   0.75165801   -4.5902018   -4.5902018   -3.4627173  0.013335122   -4.5902018    1.1274845   439061 
 3790000   0.75111717   -4.5897507   -4.5897507   -3.4630776  0.013259118   -4.5897507    1.1266732   439061 
 3791000    0.7489034   -4.5873524   -4.5873524   -3.4639999  0.017468589   -4.5873524    1.1233525   439061 
 3792000   0.74948498   -4.5882505   -4.5882505   -3.4640256 0.0083048329   -4.5882505    1.1242249   439061 
 3793000   0.74811373   -4.5863781   -4.5863781     -3.46421  0.009445614   -4.5863781     1.122168   439061 
 3794000   0.74782616    -4.585324    -4.585324   -3.4635873 0.0038991972    -4.585324    1.1217367   439061 
 3795000   0.74933315   -4.5872111   -4.5872111   -3.4632139 0.0062212155   -4.5872111    1.1239972   439061 
 3796000   0.74858593   -4.5860226   -4.5860226   -3.4631463  0.011510422   -4.5860226    1.1228763   439061 
 3797000   0.75048969   -4.5870219   -4.5870219     -3.46129 0.0049423098   -4.5870219     1.125732   439061 
 3798000   0.75011035   -4.5855533   -4.5855533   -3.4603904  0.013204616   -4.5855533     1.125163   439061 
 3799000   0.74982096    -4.584497    -4.584497   -3.4597681  0.013081327    -4.584497    1.1247289   439061 
 3800000   0.75164904   -4.5856186   -4.5856186   -3.4581476   0.01483464   -4.5856186     1.127471   439061 
 3801000   0.75113614   -4.5838437   -4.5838437   -3.4571421  0.014736035   -4.5838437    1.1267016   439061 
 3802000   0.75136382   -4.5851747   -4.5851747   -3.4581315  0.011583479   -4.5851747    1.1270432   439061 
 3803000   0.75048444   -4.5846643   -4.5846643   -3.4589402  0.015254258   -4.5846643    1.1257241   439061 
 3804000   0.75089809    -4.584449    -4.584449   -3.4581045 0.0079418657    -4.584449    1.1263446   439061 
 3805000   0.75095275   -4.5844284   -4.5844284   -3.4580019  0.007509756   -4.5844284    1.1264266   439061 
 3806000   0.75002864   -4.5827747   -4.5827747   -3.4577343 0.0094381761   -4.5827747    1.1250404   439061 
 3807000   0.74913239   -4.5819498   -4.5819498   -3.4582537 0.0069262316   -4.5819498     1.123696   439061 
 3808000   0.74956088   -4.5825664   -4.5825664   -3.4582276 0.0062755096   -4.5825664    1.1243388   439061 
 3809000   0.74889519   -4.5822802   -4.5822802     -3.45894 0.0085057052   -4.5822802    1.1233402   439061 
 3810000   0.74966614   -4.5836189   -4.5836189   -3.4591223 0.0020855385   -4.5836189    1.1244967   439061 
 3811000   0.74948936   -4.5840003   -4.5840003   -3.4597688 0.0055600866   -4.5840003    1.1242315   439061 
 3812000   0.75015921   -4.5827487   -4.5827487   -3.4575125  0.012789733   -4.5827487    1.1252363   439061 
 3813000   0.75170833   -4.5855249   -4.5855249    -3.457965  0.012138319   -4.5855249    1.1275599   439061 
 3814000   0.75171265   -4.5867458   -4.5867458   -3.4591794  0.013369848   -4.5867458    1.1275664   439061 
 3815000   0.75117006   -4.5852641   -4.5852641   -3.4585116  0.015685976   -4.5852641    1.1267525   439061 
 3816000   0.75054179   -4.5844673   -4.5844673   -3.4586572  0.013725275   -4.5844673    1.1258101   439061 
 3817000   0.75084895   -4.5858122   -4.5858122   -3.4595414   0.00867291   -4.5858122    1.1262709   439061 
 3818000   0.75166401   -4.5866407   -4.5866407   -3.4591473   0.01136044   -4.5866407    1.1274934   439061 
 3819000    0.7505755   -4.5871876   -4.5871876   -3.4613269    0.0070638   -4.5871876    1.1258607   439061 
 3820000   0.74986972   -4.5855507   -4.5855507   -3.4607486 0.0087044069   -4.5855507     1.124802   439061 
 3821000   0.74912536   -4.5842322   -4.5842322   -3.4605467  0.012345096   -4.5842322    1.1236855   439061 
 3822000   0.74972175   -4.5850601   -4.5850601   -3.4604801 0.0054480776   -4.5850601    1.1245801   439061 
 3823000   0.74935405   -4.5840307   -4.5840307   -3.4600022 0.0094843495   -4.5840307    1.1240285   439061 
 3824000   0.74968108   -4.5849957   -4.5849957   -3.4604766 0.0093377295   -4.5849957    1.1245191   439061 
 3825000   0.75029708   -4.5854419   -4.5854419   -3.4599989  0.013384797   -4.5854419    1.1254431   439061 
 3826000   0.74964712   -4.5859926   -4.5859926   -3.4615245  0.010595869   -4.5859926    1.1244681   439061 
 3827000    0.7495647   -4.5852071   -4.5852071   -3.4608627 0.0091194456   -4.5852071    1.1243445   439061 
 3828000   0.74942222   -4.5851118   -4.5851118    -3.460981  0.012086087   -4.5851118    1.1241308   439061 
 3829000   0.74995818   -4.5857365   -4.5857365   -3.4608018  0.012574981   -4.5857365    1.1249347   439061 
 3830000   0.75008681   -4.5853581   -4.5853581   -3.4602304  0.014897526   -4.5853581    1.1251276   439061 
 3831000   0.74975196   -4.5847515   -4.5847515   -3.4601261  0.010798333   -4.5847515    1.1246254   439061 
 3832000   0.74988093   -4.5843489   -4.5843489   -3.4595301  0.011762274   -4.5843489    1.1248188   439061 
 3833000   0.74986214   -4.5840261   -4.5840261   -3.4592354 0.0084232472   -4.5840261    1.1247907   439061 
 3834000   0.75004554   -4.5835664   -4.5835664   -3.4585006  0.012571705   -4.5835664    1.1250657   439061 
 3835000   0.75138646   -4.5865703   -4.5865703   -3.4594932 0.0094407175   -4.5865703    1.1270771   439061 
 3836000   0.75024014   -4.5854696   -4.5854696   -3.4601119  0.011915086   -4.5854696    1.1253576   439061 
 3837000   0.75057782   -4.5862175   -4.5862175   -3.4603534 0.0043175957   -4.5862175    1.1258642   439061 
 3838000   0.74936214    -4.583719    -4.583719   -3.4596783 0.0082898283    -4.583719    1.1240406   439061 
 3839000   0.74947175   -4.5828739   -4.5828739   -3.4586688  0.010042872   -4.5828739    1.1242051   439061 
 3840000   0.74948366   -4.5834268   -4.5834268   -3.4592039  0.011502579   -4.5834268    1.1242229   439061 
 3841000   0.75113015    -4.585496    -4.585496   -3.4588034 0.0052373875    -4.585496    1.1266927   439061 
 3842000   0.75080745   -4.5843378   -4.5843378   -3.4581292 0.0097287629   -4.5843378    1.1262086   439061 
 3843000    0.7511323   -4.5845685   -4.5845685   -3.4578727   0.01466933   -4.5845685    1.1266959   439061 
 3844000   0.74973753   -4.5827083   -4.5827083   -3.4581045  0.010615103   -4.5827083    1.1246037   439061 
 3845000   0.75044315   -4.5835331   -4.5835331    -3.457871  0.012942599   -4.5835331    1.1256622   439061 
 3846000   0.75065895   -4.5843164   -4.5843164   -3.4583305 0.0092731745   -4.5843164    1.1259859   439061 
 3847000   0.75000633   -4.5825309   -4.5825309   -3.4575239  0.014279904   -4.5825309    1.1250069   439061 
 3848000    0.7510703   -4.5838177   -4.5838177   -3.4572148 0.0090972342   -4.5838177    1.1266029   439061 
 3849000   0.75084714   -4.5835844   -4.5835844   -3.4573162  0.011198874   -4.5835844    1.1262681   439061 
 3850000   0.75095745    -4.583361    -4.583361   -3.4569274 0.0093531941    -4.583361    1.1264336   439061 
 3851000   0.75015506   -4.5824014   -4.5824014   -3.4571714 0.0075084347   -4.5824014      1.12523   439061 
 3852000   0.75111821   -4.5847666   -4.5847666   -3.4580919 0.0052870134   -4.5847666    1.1266747   439061 
 3853000   0.75032774    -4.582968    -4.582968    -3.457479 0.0077633619    -4.582968     1.125489   439061 
 3854000   0.74862279   -4.5800179   -4.5800179   -3.4570863 0.0086388174   -4.5800179    1.1229316   439061 
 3855000   0.75078554   -4.5830923   -4.5830923   -3.4569166 0.0072661852   -4.5830923    1.1261757   439061 
 3856000   0.75045638   -4.5830141   -4.5830141   -3.4573321  0.013327299   -4.5830141     1.125682   439061 
 3857000   0.75233227   -4.5849502   -4.5849502   -3.4564544  0.010798617   -4.5849502    1.1284958   439061 
 3858000   0.75051103   -4.5832341   -4.5832341   -3.4574701   0.00946579   -4.5832341     1.125764   439061 
 3859000   0.75016356   -4.5841041   -4.5841041   -3.4588614   0.01153056   -4.5841041    1.1252428   439061 
 3860000   0.75076796   -4.5850931   -4.5850931   -3.4589437 0.0097346236   -4.5850931    1.1261494   439061 
 3861000   0.75038064   -4.5847766   -4.5847766   -3.4592082  0.018820892   -4.5847766    1.1255684   439061 
 3862000   0.75058762   -4.5850685   -4.5850685   -3.4591897 0.0098530119   -4.5850685    1.1258789   439061 
 3863000   0.75090568   -4.5862323   -4.5862323   -3.4598763 0.0067311061   -4.5862323     1.126356   439061 
 3864000   0.74982027    -4.584257    -4.584257   -3.4595292  0.010858024    -4.584257    1.1247278   439061 
 3865000   0.75019188   -4.5847409   -4.5847409   -3.4594556 0.0077125046   -4.5847409    1.1252853   439061 
 3866000    0.7507205   -4.5866116   -4.5866116   -3.4605334  0.009387342   -4.5866116    1.1260782   439061 
 3867000   0.75024081   -4.5846673   -4.5846673   -3.4593087  0.010711514   -4.5846673    1.1253587   439061 
 3868000     0.749738    -4.582678    -4.582678   -3.4580736  0.017789917    -4.582678    1.1246044   439061 
 3869000   0.75079577   -4.5841116   -4.5841116   -3.4579205  0.010528164   -4.5841116    1.1261911   439061 
 3870000   0.75007233   -4.5837824   -4.5837824   -3.4586764 0.0080886778   -4.5837824    1.1251059   439061 
 3871000   0.75015495   -4.5845817   -4.5845817   -3.4593518 0.0045029164   -4.5845817    1.1252299   439061 
 3872000    0.7492499   -4.5840615   -4.5840615   -3.4601892 0.0097918608   -4.5840615    1.1238723   439061 
 3873000   0.74929457   -4.5842908   -4.5842908   -3.4603515 0.0061639341   -4.5842908    1.1239393   439061 
 3874000   0.74982454   -4.5858149   -4.5858149   -3.4610807 0.0039365925   -4.5858149    1.1247343   439061 
 3875000    0.7491917   -4.5840214   -4.5840214   -3.4602364 0.0061417405   -4.5840214     1.123785   439061 
 3876000   0.74872044   -4.5840296   -4.5840296   -3.4609515 0.0090218454   -4.5840296    1.1230781   439061 
 3877000    0.7502221   -4.5849019   -4.5849019   -3.4595713 0.0083577412   -4.5849019    1.1253306   439061 
 3878000   0.75021549   -4.5842447   -4.5842447    -3.458924  0.018140297   -4.5842447    1.1253207   439061 
 3879000   0.75242995   -4.5869049   -4.5869049   -3.4582625 0.0097521863   -4.5869049    1.1286424   439061 
 3880000   0.74984704   -4.5843809   -4.5843809   -3.4596128  0.015260286   -4.5843809     1.124768   439061 
 3881000   0.75025021   -4.5858002   -4.5858002   -3.4604275  0.014285433   -4.5858002    1.1253728   439061 
 3882000   0.75053183   -4.5858396   -4.5858396   -3.4600444  0.011078491   -4.5858396    1.1257952   439061 
 3883000   0.75082492   -4.5866276   -4.5866276   -3.4603928 0.0099420743   -4.5866276    1.1262348   439061 
 3884000   0.74805436    -4.582882    -4.582882    -3.460803  0.010070767    -4.582882     1.122079   439061 
 3885000   0.74948442   -4.5846931   -4.5846931   -3.4604691 0.0084123974   -4.5846931    1.1242241   439061 
 3886000   0.75098995   -4.5864781   -4.5864781   -3.4599957 0.0041722098   -4.5864781    1.1264824   439061 
 3887000   0.74895511   -4.5833382   -4.5833382   -3.4599081  0.010351445   -4.5833382    1.1234301   439061 
 3888000   0.74968701   -4.5840288   -4.5840288   -3.4595009  0.012767448   -4.5840288     1.124528   439061 
 3889000   0.75121716   -4.5869945   -4.5869945   -3.4601713 0.0094704532   -4.5869945    1.1268232   439061 
 3890000   0.75056468   -4.5861713   -4.5861713   -3.4603269  0.010898182   -4.5861713    1.1258445   439061 
 3891000   0.74930944   -4.5844573   -4.5844573   -3.4604956 0.0067072934   -4.5844573    1.1239616   439061 
 3892000    0.7495446   -4.5847427   -4.5847427   -3.4604283 0.0055220292   -4.5847427    1.1243143   439061 
 3893000   0.75051582   -4.5865072   -4.5865072    -3.460736 0.0011870811   -4.5865072    1.1257712   439061 
 3894000   0.75060389   -4.5873858   -4.5873858   -3.4614825  0.010037588   -4.5873858    1.1259033   439061 
 3895000   0.75155168   -4.5891796   -4.5891796   -3.4618547 0.0059540868   -4.5891796    1.1273249   439061 
 3896000   0.74964534   -4.5846994   -4.5846994    -3.460234  0.013148294   -4.5846994    1.1244655   439061 
 3897000   0.74937883   -4.5852993   -4.5852993   -3.4612336  0.013401316   -4.5852993    1.1240657   439061 
 3898000   0.75015295   -4.5869731   -4.5869731   -3.4617463 0.0063557369   -4.5869731    1.1252269   439061 
 3899000   0.75004082   -4.5862992   -4.5862992   -3.4612405  0.013174651   -4.5862992    1.1250587   439061 
 3900000   0.75011092   -4.5877938   -4.5877938     -3.46263  0.014328253   -4.5877938    1.1251638   439061 
 3901000   0.75019043    -4.586792    -4.586792   -3.4615089  0.010524744    -4.586792    1.1252831   439061 
 3902000   0.75037402   -4.5870969   -4.5870969   -3.4615384 0.0058179945   -4.5870969    1.1255585   439061 
 3903000   0.75131345   -4.5882982   -4.5882982   -3.4613306 0.0078251315   -4.5882982    1.1269676   439061 
 3904000   0.74976695   -4.5868072   -4.5868072   -3.4621593 0.0069713491   -4.5868072    1.1246479   439061 
 3905000   0.75067562   -4.5879246   -4.5879246   -3.4619137  0.010964068   -4.5879246    1.1260109   439061 
 3906000   0.75042553   -4.5863594   -4.5863594   -3.4607237  0.010544035   -4.5863594    1.1256357   439061 
 3907000   0.75105783   -4.5882622   -4.5882622   -3.4616781 0.0081586372   -4.5882622    1.1265842   439061 
 3908000    0.7506456    -4.587221    -4.587221   -3.4612552  0.006515794    -4.587221    1.1259658   439061 
 3909000   0.74989949   -4.5866726   -4.5866726   -3.4618259 0.0034351298   -4.5866726    1.1248467   439061 
 3910000   0.74906394   -4.5846259   -4.5846259   -3.4610326  0.010267777   -4.5846259    1.1235934   439061 
 3911000   0.75056267   -4.5854658   -4.5854658   -3.4596244   0.01069691   -4.5854658    1.1258414   439061 
 3912000   0.75229652   -4.5886383   -4.5886383   -3.4601961  0.008836783   -4.5886383    1.1284422   439061 
 3913000   0.75082562   -4.5852971   -4.5852971   -3.4590613   0.01238053   -4.5852971    1.1262359   439061 
 3914000     0.750661    -4.586385    -4.586385    -3.460396  0.010095212    -4.586385    1.1259889   439061 
 3915000   0.75020056   -4.5859812   -4.5859812   -3.4606829 0.0067772775   -4.5859812    1.1252983   439061 
 3916000   0.74875796   -4.5840807   -4.5840807   -3.4609463 0.0059832706   -4.5840807    1.1231344   439061 
 3917000   0.74984372   -4.5850335   -4.5850335   -3.4602704 0.0072761368   -4.5850335     1.124763   439061 
 3918000    0.7510028   -4.5860795   -4.5860795   -3.4595779 0.0099439673   -4.5860795    1.1265016   439061 
 3919000   0.74972502   -4.5845202   -4.5845202   -3.4599352  0.012698343   -4.5845202     1.124585   439061 
 3920000   0.74928424   -4.5845832   -4.5845832   -3.4606594 0.0097069852   -4.5845832    1.1239238   439061 
 3921000   0.74976357   -4.5850235   -4.5850235   -3.4603807  0.007406906   -4.5850235    1.1246428   439061 
 3922000   0.75007208   -4.5860411   -4.5860411   -3.4609356 0.0084527919   -4.5860411    1.1251056   439061 
 3923000   0.75108469   -4.5874317   -4.5874317   -3.4608072 0.0066556799   -4.5874317    1.1266245   439061 
 3924000   0.75156399   -4.5896586   -4.5896586   -3.4623152  0.012100619   -4.5896586    1.1273434   439061 
 3925000    0.7510725   -4.5877173   -4.5877173   -3.4611111  0.015998731   -4.5877173    1.1266062   439061 
 3926000   0.75138771   -4.5879771   -4.5879771   -3.4608981  0.010474263   -4.5879771     1.127079   439061 
 3927000   0.75052369   -4.5879754   -4.5879754   -3.4621924  0.009135527   -4.5879754     1.125783   439061 
 3928000   0.75091966   -4.5873274   -4.5873274   -3.4609505  0.011153794   -4.5873274    1.1263769   439061 
 3929000   0.75017833   -4.5862059   -4.5862059    -3.460941  0.013216365   -4.5862059    1.1252649   439061 
 3930000   0.74838037   -4.5833715   -4.5833715   -3.4608035  0.016895094   -4.5833715     1.122568   439061 
 3931000   0.75067437   -4.5859043   -4.5859043   -3.4598953 0.0078034656   -4.5859043     1.126009   439061 
 3932000   0.75077999   -4.5863272   -4.5863272   -3.4601598 0.0065777976   -4.5863272    1.1261674   439061 
 3933000   0.74843147   -4.5825044   -4.5825044   -3.4598598  0.012575287   -4.5825044    1.1226446   439061 
 3934000   0.74965981   -4.5837301   -4.5837301    -3.459243  0.011574511   -4.5837301    1.1244872   439061 
 3935000   0.75020535   -4.5854145   -4.5854145   -3.4601091   0.00612822   -4.5854145    1.1253055   439061 
 3936000   0.74876932     -4.58343     -4.58343   -3.4602786 0.0065968679     -4.58343    1.1231514   439061 
 3937000   0.75026178   -4.5861219   -4.5861219   -3.4607318 0.0052326774   -4.5861219    1.1253901   439061 
 3938000   0.74967965   -4.5854427   -4.5854427   -3.4609257 0.0066206668   -4.5854427    1.1245169   439061 
 3939000   0.75047135   -4.5855516   -4.5855516   -3.4598472   0.01225368   -4.5855516    1.1257045   439061 
 3940000   0.75232059   -4.5882366   -4.5882366   -3.4597583 0.0083487489   -4.5882366    1.1284783   439061 
 3941000   0.75050826   -4.5850321   -4.5850321   -3.4592723  0.015383097   -4.5850321    1.1257598   439061 
 3942000    0.7509412   -4.5861878   -4.5861878   -3.4597786  0.017132018   -4.5861878    1.1264092   439061 
 3943000   0.75052216   -4.5863452   -4.5863452   -3.4605645  0.013946145   -4.5863452    1.1257807   439061 
 3944000   0.75042613   -4.5854046   -4.5854046   -3.4597679  0.017118852   -4.5854046    1.1256366   439061 
 3945000   0.75020927   -4.5851104   -4.5851104    -3.459799 0.0085040577   -4.5851104    1.1253113   439061 
 3946000    0.7508184   -4.5857714   -4.5857714   -3.4595463  0.009563197   -4.5857714     1.126225   439061 
 3947000   0.75022809   -4.5862745   -4.5862745    -3.460935 0.0082583276   -4.5862745    1.1253396   439061 
 3948000   0.74963953   -4.5853768   -4.5853768   -3.4609201  0.013512763   -4.5853768    1.1244567   439061 
 3949000   0.75029902   -4.5847374   -4.5847374   -3.4592914 0.0063309327   -4.5847374     1.125446   439061 
 3950000   0.75209326   -4.5871819   -4.5871819   -3.4590446 0.0040216616   -4.5871819    1.1281373   439061 
 3951000    0.7502818    -4.585001    -4.585001   -3.4595809  0.004164742    -4.585001    1.1254201   439061 
 3952000   0.75122561     -4.58688     -4.58688   -3.4600441  0.008293467     -4.58688    1.1268359   439061 
 3953000   0.74811728   -4.5820524   -4.5820524    -3.459879 0.0099008673   -4.5820524    1.1221734   439061 
 3954000   0.74999921   -4.5849074   -4.5849074   -3.4599112 0.0076018404   -4.5849074    1.1249963   439061 
 3955000   0.74938174   -4.5840084   -4.5840084   -3.4599384 0.0061536634   -4.5840084      1.12407   439061 
 3956000   0.74969741   -4.5832533   -4.5832533   -3.4587098  0.014117832   -4.5832533    1.1245436   439061 
 3957000   0.75096461   -4.5844633   -4.5844633    -3.458019 0.0092260292   -4.5844633    1.1264443   439061 
 3958000   0.75070885   -4.5837963   -4.5837963   -3.4577355  0.016487053   -4.5837963    1.1260607   439061 
 3959000   0.75183314   -4.5862361   -4.5862361   -3.4584889  0.013254915   -4.5862361    1.1277471   439061 
 3960000   0.75074602    -4.585163    -4.585163   -3.4590466  0.007699927    -4.585163    1.1261165   439061 
 3961000   0.74964279   -4.5846399   -4.5846399   -3.4601783 0.0084064598   -4.5846399    1.1244616   439061 
 3962000   0.74909158   -4.5851392   -4.5851392   -3.4615044 0.0051492595   -4.5851392    1.1236348   439061 
 3963000   0.74815781   -4.5826941   -4.5826941     -3.46046  0.015649602   -4.5826941    1.1222342   439061 
 3964000    0.7497697   -4.5834056   -4.5834056   -3.4587537  0.011565603   -4.5834056     1.124652   439061 
 3965000   0.75183315   -4.5858026   -4.5858026   -3.4580555   0.01301452   -4.5858026    1.1277471   439061 
 3966000   0.75160532   -4.5841784   -4.5841784    -3.456773  0.020650346   -4.5841784    1.1274054   439061 
 3967000   0.75132578    -4.585448    -4.585448   -3.4584619  0.012743944    -4.585448    1.1269861   439061 
 3968000   0.75083468   -4.5854258   -4.5854258   -3.4591764 0.0052108606   -4.5854258    1.1262494   439061 
 3969000   0.75042867    -4.584029    -4.584029   -3.4583885 0.0084607051    -4.584029    1.1256404   439061 
 3970000   0.74963552   -4.5836923   -4.5836923   -3.4592416 0.0020161343   -4.5836923    1.1244507   439061 
 3971000   0.75069038   -4.5856712   -4.5856712   -3.4596382  0.002721496   -4.5856712     1.126033   439061 
 3972000    0.7500657   -4.5839048   -4.5839048   -3.4588088  0.010558554   -4.5839048     1.125096   439061 
 3973000   0.74956228   -4.5831422   -4.5831422   -3.4588013 0.0085632269   -4.5831422    1.1243409   439061 
 3974000   0.74907149   -4.5833747   -4.5833747     -3.45977  0.006703715   -4.5833747    1.1236047   439061 
 3975000   0.74872739   -4.5833239   -4.5833239   -3.4602354 0.0064640049   -4.5833239    1.1230885   439061 
 3976000   0.74879975   -4.5842099   -4.5842099   -3.4610128  0.010807441   -4.5842099    1.1231971   439061 
 3977000   0.75064213   -4.5861175   -4.5861175   -3.4601569  0.011707562   -4.5861175    1.1259606   439061 
 3978000   0.75015286   -4.5858981   -4.5858981   -3.4606713  0.017703343   -4.5858981    1.1252267   439061 
 3979000   0.75128126   -4.5883946   -4.5883946   -3.4614753  0.015938516   -4.5883946    1.1269193   439061 
 3980000   0.75130883    -4.587859    -4.587859   -3.4608983  0.014686643    -4.587859    1.1269607   439061 
 3981000   0.74869087    -4.585106    -4.585106   -3.4620723  0.011771248    -4.585106    1.1230338   439061 
 3982000   0.75109225   -4.5889392   -4.5889392   -3.4623034 0.0073149711   -4.5889392    1.1266358   439061 
 3983000   0.74985086   -4.5862052   -4.5862052   -3.4614314  0.015977284   -4.5862052    1.1247737   439061 
 3984000   0.75083347   -4.5874138   -4.5874138   -3.4611661   0.01415936   -4.5874138    1.1262476   439061 
 3985000   0.75116882   -4.5876012   -4.5876012   -3.4608505  0.012186932   -4.5876012    1.1267507   439061 
 3986000   0.75074447    -4.585699    -4.585699   -3.4595848  0.011967357    -4.585699    1.1261141   439061 
 3987000   0.74958892   -4.5849318   -4.5849318    -3.460551  0.007521872   -4.5849318    1.1243808   439061 
 3988000   0.74987649   -4.5845512   -4.5845512    -3.459739  0.010474994   -4.5845512    1.1248122   439061 
 3989000   0.74919503   -4.5842934   -4.5842934   -3.4605034  0.010312831   -4.5842934      1.12379   439061 
 3990000   0.74936052   -4.5846754   -4.5846754   -3.4606372 0.0047456873   -4.5846754    1.1240382   439061 
 3991000   0.74907997   -4.5836569   -4.5836569   -3.4600396 0.0061626049   -4.5836569    1.1236174   439061 
 3992000   0.74950938   -4.5848082   -4.5848082   -3.4605467   0.00708407   -4.5848082    1.1242615   439061 
 3993000   0.74910872   -4.5842759   -4.5842759   -3.4606154 0.0088298087   -4.5842759    1.1236605   439061 
 3994000   0.75067556   -4.5855687   -4.5855687    -3.459558 0.0045731625   -4.5855687    1.1260108   439061 
 3995000   0.74962778   -4.5838811   -4.5838811    -3.459442  0.013014284   -4.5838811    1.1244391   439061 
 3996000   0.75155017   -4.5854797   -4.5854797    -3.458157  0.010014037   -4.5854797    1.1273227   439061 
 3997000   0.75044651   -4.5842304   -4.5842304   -3.4585632  0.014077646   -4.5842304    1.1256672   439061 
 3998000    0.7495903   -4.5842755   -4.5842755   -3.4598926  0.015932527   -4.5842755    1.1243829   439061 
 3999000   0.74991215   -4.5850586   -4.5850586   -3.4601929 0.0077068884   -4.5850586    1.1248657   439061 
 4000000   0.75015504   -4.5856064   -4.5856064   -3.4603764 0.0081678456   -4.5856064      1.12523   439061 
 4001000   0.75004673   -4.5850458   -4.5850458   -3.4599783 0.0094905233   -4.5850458    1.1250675   439061 
 4002000   0.75095301   -4.5864695   -4.5864695   -3.4600426 0.0065871438   -4.5864695     1.126427   439061 
 4003000   0.75146536   -4.5856921   -4.5856921   -3.4584966  0.012136635   -4.5856921    1.1271955   439061 
 4004000   0.75193214   -4.5863915   -4.5863915   -3.4584958  0.011848624   -4.5863915    1.1278956   439061 
 4005000   0.75062826   -4.5853029   -4.5853029    -3.459363  0.011449324   -4.5853029    1.1259398   439061 
 4006000   0.74997612   -4.5828132   -4.5828132   -3.4578516  0.014670571   -4.5828132    1.1249616   439061 
 4007000   0.74838667   -4.5819145   -4.5819145   -3.4593371  0.010629704   -4.5819145    1.1225775   439061 
 4008000   0.74981579     -4.58425     -4.58425   -3.4595289 0.0099723279     -4.58425    1.1247211   439061 
 4009000   0.74985671   -4.5847491   -4.5847491   -3.4599666  0.012225122   -4.5847491    1.1247825   439061 
 4010000   0.74963781   -4.5844732   -4.5844732    -3.460019 0.0071756982   -4.5844732    1.1244542   439061 
 4011000   0.74938979   -4.5850669   -4.5850669   -3.4609847 0.0031784949   -4.5850669    1.1240821   439061 
 4012000   0.74734839    -4.583474    -4.583474    -3.462454  0.010958379    -4.583474      1.12102   439061 
 4013000   0.74996005   -4.5868007   -4.5868007   -3.4618632 0.0065760112   -4.5868007    1.1249375   439061 
 4014000   0.74929485   -4.5838391   -4.5838391   -3.4598994  0.011875761   -4.5838391    1.1239397   439061 
 4015000   0.75112016   -4.5865289   -4.5865289   -3.4598512  0.012016643   -4.5865289    1.1266777   439061 
 4016000   0.75108756   -4.5867432   -4.5867432   -3.4601144  0.013389678   -4.5867432    1.1266288   439061 
 4017000   0.75012475   -4.5856311   -4.5856311   -3.4604465  0.013445766   -4.5856311    1.1251846   439061 
 4018000   0.74993718   -4.5858346   -4.5858346   -3.4609313  0.012682454   -4.5858346    1.1249032   439061 
 4019000   0.75004389   -4.5851683   -4.5851683    -3.460105  0.014145954   -4.5851683    1.1250633   439061 
 4020000   0.75038701   -4.5851072   -4.5851072   -3.4595293  0.015247602   -4.5851072     1.125578   439061 
 4021000    0.7507918   -4.5856223   -4.5856223   -3.4594372   0.01028536   -4.5856223    1.1261851   439061 
 4022000   0.74951055   -4.5842486   -4.5842486   -3.4599854 0.0050541751   -4.5842486    1.1242633   439061 
 4023000   0.74990073   -4.5839898   -4.5839898   -3.4591412  0.004286346   -4.5839898    1.1248485   439061 
 4024000   0.74956349   -4.5828446   -4.5828446   -3.4585019 0.0081019385   -4.5828446    1.1243427   439061 
 4025000   0.75073296   -4.5841263   -4.5841263   -3.4580295   0.01019443   -4.5841263    1.1260969   439061 
 4026000   0.74965652   -4.5838812   -4.5838812    -3.459399  0.014333818   -4.5838812    1.1244822   439061 
 4027000   0.75001959    -4.584927    -4.584927   -3.4599002 0.0077801875    -4.584927    1.1250268   439061 
 4028000   0.74886332    -4.583708    -4.583708   -3.4604156 0.0052838837    -4.583708    1.1232924   439061 
 4029000   0.74898533   -4.5832305   -4.5832305   -3.4597551 0.0099476395   -4.5832305    1.1234754   439061 
 4030000   0.75053714   -4.5840009   -4.5840009   -3.4581978  0.011183658   -4.5840009    1.1258031   439061 
 4031000   0.75012539   -4.5834953   -4.5834953   -3.4583098  0.015512349   -4.5834953    1.1251855   439061 
 4032000   0.75098885   -4.5842809   -4.5842809   -3.4578002  0.018210595   -4.5842809    1.1264807   439061 
 4033000    0.7518256   -4.5860514   -4.5860514   -3.4583155   0.01245264   -4.5860514    1.1277358   439061 
 4034000   0.75049371   -4.5849192   -4.5849192   -3.4591812  0.011288197   -4.5849192     1.125738   439061 
 4035000   0.74940836   -4.5830289   -4.5830289   -3.4589189  0.010643705   -4.5830289      1.12411   439061 
 4036000   0.75019374     -4.58361     -4.58361   -3.4583219  0.012201807     -4.58361     1.125288   439061 
 4037000   0.74981843   -4.5825741   -4.5825741    -3.457849  0.013850852   -4.5825741    1.1247251   439061 
 4038000   0.75135617   -4.5863736   -4.5863736   -3.4593419  0.008210043   -4.5863736    1.1270317   439061 
 4039000    0.7501628   -4.5851373   -4.5851373   -3.4598957 0.0065601857   -4.5851373    1.1252416   439061 
 4040000   0.74909092   -4.5848619   -4.5848619   -3.4612281  0.011000913   -4.5848619    1.1236338   439061 
 4041000   0.74963502   -4.5841521   -4.5841521   -3.4597022 0.0079451667   -4.5841521      1.12445   439061 
 4042000   0.75075042    -4.584011    -4.584011   -3.4578879  0.010227471    -4.584011    1.1261231   439061 
 4043000    0.7516965   -4.5860079   -4.5860079   -3.4584657 0.0059933343   -4.5860079    1.1275422   439061 
 4044000   0.75288337   -4.5873613   -4.5873613   -3.4580388 0.0071770005   -4.5873613    1.1293225   439061 
 4045000   0.75040137   -4.5832954   -4.5832954   -3.4576959  0.011353463   -4.5832954    1.1255995   439061 
 4046000   0.75072713   -4.5839211   -4.5839211    -3.457833  0.014303804   -4.5839211    1.1260881   439061 
 4047000   0.75129004   -4.5839412   -4.5839412   -3.4570087 0.0081586789   -4.5839412    1.1269325   439061 
 4048000   0.75058593   -4.5815513   -4.5815513    -3.455675  0.015339787   -4.5815513    1.1258763   439061 
 4049000   0.75069543   -4.5831933   -4.5831933   -3.4571527  0.013314404   -4.5831933    1.1260406   439061 
 4050000   0.74991199   -4.5825613   -4.5825613   -3.4576959 0.0068407065   -4.5825613    1.1248654   439061 
 4051000   0.74957563   -4.5823139   -4.5823139    -3.457953 0.0031080595   -4.5823139    1.1243609   439061 
 4052000     0.750169   -4.5827896   -4.5827896   -3.4575387 0.0037156047   -4.5827896    1.1252509   439061 
 4053000   0.75036551    -4.582532    -4.582532   -3.4569863 0.0041492563    -4.582532    1.1255457   439061 
 4054000   0.75098403   -4.5830906   -4.5830906   -3.4566171  0.011704083   -4.5830906    1.1264735   439061 
 4055000   0.75093832   -4.5842634   -4.5842634   -3.4578585 0.0039176197   -4.5842634    1.1264049   439061 
 4056000   0.75162535   -4.5843759   -4.5843759   -3.4569405  0.010140564   -4.5843759    1.1274355   439061 
 4057000    0.7506741   -4.5836289   -4.5836289   -3.4576203  0.010903137   -4.5836289    1.1260086   439061 
 4058000   0.75197161   -4.5856538   -4.5856538    -3.457699 0.0079612595   -4.5856538    1.1279548   439061 
 4059000   0.75131682    -4.585053    -4.585053   -3.4580803  0.011676274    -4.585053    1.1269727   439061 
 4060000   0.75170198    -4.586637    -4.586637   -3.4590866 0.0094174033    -4.586637    1.1275504   439061 
 4061000   0.75159914   -4.5856613   -4.5856613   -3.4582652    0.0115331   -4.5856613    1.1273961   439061 
 4062000     0.750218    -4.585003    -4.585003   -3.4596786 0.0092716547    -4.585003    1.1253244   439061 
 4063000   0.75069322   -4.5857722   -4.5857722   -3.4597349 0.0090040591   -4.5857722    1.1260373   439061 
 4064000   0.75085722   -4.5853939   -4.5853939   -3.4591107  0.012599922   -4.5853939    1.1262833   439061 
 4065000   0.75022597   -4.5841057   -4.5841057   -3.4587693  0.014672761   -4.5841057    1.1253364   439061 
 4066000   0.75055249    -4.583674    -4.583674   -3.4578479  0.010695628    -4.583674    1.1258262   439061 
 4067000   0.75087921   -4.5837604   -4.5837604   -3.4574441  0.010621634   -4.5837604    1.1263162   439061 
 4068000   0.75095903   -4.5848666   -4.5848666   -3.4584306 0.0037127428   -4.5848666     1.126436   439061 
 4069000   0.75062549   -4.5847449   -4.5847449   -3.4588092  0.002044701   -4.5847449    1.1259357   439061 
 4070000   0.75053711   -4.5840152   -4.5840152   -3.4582121 0.0071036701   -4.5840152    1.1258031   439061 
 4071000   0.74936385   -4.5834321   -4.5834321   -3.4593889 0.0065189752   -4.5834321    1.1240432   439061 
 4072000   0.75029366   -4.5836551   -4.5836551   -3.4582171  0.009414475   -4.5836551    1.1254379   439061 
 4073000   0.74936137   -4.5816993   -4.5816993   -3.4576598 0.0086142957   -4.5816993    1.1240395   439061 
 4074000   0.75069652    -4.584158    -4.584158   -3.4581158 0.0093280188    -4.584158    1.1260422   439061 
 4075000   0.75060214   -4.5837862   -4.5837862   -3.4578856  0.011163117   -4.5837862    1.1259007   439061 
 4076000    0.7508546    -4.584395    -4.584395   -3.4581157 0.0094068196    -4.584395    1.1262793   439061 
 4077000   0.75144433   -4.5852058   -4.5852058   -3.4580419 0.0065348318   -4.5852058    1.1271639   439061 
 4078000   0.74936124   -4.5829806   -4.5829806   -3.4589413 0.0055282894   -4.5829806    1.1240393   439061 
 4079000   0.74859806    -4.582191    -4.582191   -3.4592965 0.0092353071    -4.582191    1.1228945   439061 
 4080000   0.75058461   -4.5849196   -4.5849196   -3.4590453  0.008788814   -4.5849196    1.1258743   439061 
 4081000   0.75093243   -4.5852931   -4.5852931    -3.458897  0.013292601   -4.5852931    1.1263961   439061 
 4082000    0.7504538   -4.5837004   -4.5837004   -3.4580223  0.013584324   -4.5837004    1.1256781   439061 
 4083000   0.74998804   -4.5843447   -4.5843447   -3.4593652 0.0079735591   -4.5843447    1.1249795   439061 
 4084000   0.75000571   -4.5843256   -4.5843256   -3.4593196 0.0093678165   -4.5843256     1.125006   439061 
 4085000   0.75092074   -4.5848336   -4.5848336   -3.4584551  0.012259207   -4.5848336    1.1263785   439061 
 4086000   0.75046237   -4.5836741   -4.5836741   -3.4579831  0.012338445   -4.5836741     1.125691   439061 
 4087000   0.75019676   -4.5822635   -4.5822635   -3.4569709  0.014165421   -4.5822635    1.1252926   439061 
 4088000   0.75031827   -4.5828727   -4.5828727   -3.4573979 0.0095677896   -4.5828727    1.1254748   439061 
 4089000     0.749679   -4.5824101   -4.5824101   -3.4578941 0.0077377221   -4.5824101    1.1245159   439061 
 4090000   0.74833279   -4.5806354   -4.5806354   -3.4581388  0.014786511   -4.5806354    1.1224966   439061 
 4091000   0.74905119   -4.5820408   -4.5820408   -3.4584666  0.014768721   -4.5820408    1.1235742   439061 
 4092000   0.74993886   -4.5817799   -4.5817799   -3.4568742  0.008399335   -4.5817799    1.1249057   439061 
 4093000   0.75003838   -4.5832368   -4.5832368   -3.4581818 0.0045245387   -4.5832368     1.125055   439061 
 4094000    0.7507482   -4.5838272   -4.5838272   -3.4577075 0.0079455869   -4.5838272    1.1261197   439061 
 4095000   0.75169169   -4.5852872   -4.5852872   -3.4577522 0.0061735662   -4.5852872     1.127535   439061 
 4096000   0.75087267   -4.5843368   -4.5843368   -3.4580304 0.0091107514   -4.5843368    1.1263064   439061 
 4097000   0.74970723   -4.5832051   -4.5832051   -3.4586469  0.013843078   -4.5832051    1.1245583   439061 
 4098000   0.74941838   -4.5821268   -4.5821268   -3.4580018  0.012508328   -4.5821268     1.124125   439061 
 4099000   0.75089012   -4.5856293   -4.5856293   -3.4592967  0.006434454   -4.5856293    1.1263326   439061 
 4100000   0.75087998   -4.5865187   -4.5865187   -3.4602012 0.0045049797   -4.5865187    1.1263174   439061 
 4101000   0.74990813   -4.5858643   -4.5858643   -3.4610047  0.013805641   -4.5858643    1.1248596   439061 
 4102000   0.75068812   -4.5859082   -4.5859082   -3.4598786  0.012923146   -4.5859082    1.1260296   439061 
 4103000    0.7501883    -4.585258    -4.585258   -3.4599781  0.015417412    -4.585258    1.1252799   439061 
 4104000   0.75081833    -4.585909    -4.585909   -3.4596841  0.011637362    -4.585909    1.1262249   439061 
 4105000   0.75134206   -4.5868241   -4.5868241   -3.4598136 0.0098861068   -4.5868241    1.1270105   439061 
 4106000   0.75019068   -4.5839156   -4.5839156   -3.4586321  0.015435971   -4.5839156    1.1252835   439061 
 4107000   0.75051048   -4.5849665   -4.5849665   -3.4592033  0.010800077   -4.5849665    1.1257632   439061 
 4108000   0.74904459   -4.5826158   -4.5826158   -3.4590515  0.013946242   -4.5826158    1.1235643   439061 
 4109000   0.74975398   -4.5834949   -4.5834949   -3.4588665 0.0083348064   -4.5834949    1.1246284   439061 
 4110000   0.75010921   -4.5832337   -4.5832337   -3.4580725 0.0092255723   -4.5832337    1.1251613   439061 
 4111000   0.74939798   -4.5814937   -4.5814937   -3.4573993 0.0061108098   -4.5814937    1.1240944   439061 
 4112000   0.74924562   -4.5810149   -4.5810149    -3.457149  0.011379938   -4.5810149    1.1238659   439061 
 4113000   0.74966411   -4.5812226   -4.5812226    -3.456729 0.0072092497   -4.5812226    1.1244936   439061 
 4114000   0.74967922   -4.5817514   -4.5817514   -3.4572352  0.011656382   -4.5817514    1.1245163   439061 
 4115000   0.75076163   -4.5819858   -4.5819858   -3.4558459  0.011568721   -4.5819858    1.1261399   439061 
 4116000   0.75189032   -4.5833964   -4.5833964   -3.4555635 0.0081022558   -4.5833964    1.1278329   439061 
 4117000   0.75054904   -4.5813252   -4.5813252   -3.4555042  0.011872843   -4.5813252     1.125821   439061 
 4118000   0.75057956   -4.5822981   -4.5822981   -3.4564313  0.010032617   -4.5822981    1.1258668   439061 
 4119000   0.74959815   -4.5815185   -4.5815185   -3.4571238  0.013656248   -4.5815185    1.1243947   439061 
 4120000   0.74910854   -4.5812588   -4.5812588   -3.4575985  0.009141692   -4.5812588    1.1236602   439061 
 4121000   0.74975481   -4.5820588   -4.5820588   -3.4574291 0.0080139918   -4.5820588    1.1246297   439061 
 4122000   0.75094236   -4.5826299   -4.5826299   -3.4562189  0.012890118   -4.5826299     1.126411   439061 
 4123000   0.75080926   -4.5839484   -4.5839484   -3.4577371  0.010440418   -4.5839484    1.1262113   439061 
 4124000   0.75079915   -4.5840088   -4.5840088   -3.4578126 0.0076652471   -4.5840088    1.1261962   439061 
 4125000   0.75170291   -4.5849951   -4.5849951   -3.4574433 0.0078307504   -4.5849951    1.1275518   439061 
 4126000   0.74958612   -4.5832903   -4.5832903   -3.4589137  0.010489908   -4.5832903    1.1243766   439061 
 4127000   0.75081199   -4.5859712   -4.5859712   -3.4597558 0.0046179314   -4.5859712    1.1262154   439061 
 4128000    0.7488627   -4.5832295   -4.5832295    -3.459938  0.010496783   -4.5832295    1.1232915   439061 
 4129000   0.74926713   -4.5835961   -4.5835961    -3.459698  0.014098834   -4.5835961    1.1238981   439061 
 4130000   0.75030934   -4.5853591   -4.5853591   -3.4598976  0.010616838   -4.5853591    1.1254615   439061 
 4131000   0.74958337   -4.5841079   -4.5841079   -3.4597354   0.01183144   -4.5841079    1.1243725   439061 
 4132000   0.75079834   -4.5857661   -4.5857661   -3.4595712 0.0087031023   -4.5857661     1.126195   439061 
 4133000   0.74973254   -4.5837448   -4.5837448   -3.4591485  0.016001873   -4.5837448    1.1245962   439061 
 4134000   0.75101839   -4.5855111   -4.5855111   -3.4589861 0.0098230758   -4.5855111     1.126525   439061 
 4135000   0.75056102   -4.5853978   -4.5853978   -3.4595588 0.0088532077   -4.5853978     1.125839   439061 
 4136000   0.74948825    -4.584007    -4.584007   -3.4597772  0.010021005    -4.584007    1.1242298   439061 
 4137000   0.75047639    -4.583422    -4.583422     -3.45771  0.011330611    -4.583422     1.125712   439061 
 4138000   0.75093336   -4.5852802   -4.5852802   -3.4588828  0.010953269   -4.5852802    1.1263975   439061 
 4139000   0.75036091   -4.5837317   -4.5837317   -3.4581929 0.0098593434   -4.5837317    1.1255388   439061 
 4140000   0.75036937   -4.5834039   -4.5834039   -3.4578524  0.013043269   -4.5834039    1.1255515   439061 
 4141000   0.74925556   -4.5825274   -4.5825274   -3.4586467  0.010231336   -4.5825274    1.1238808   439061 
 4142000   0.74947777   -4.5835122   -4.5835122   -3.4592981 0.0077204144   -4.5835122    1.1242141   439061 
 4143000   0.74988729   -4.5833685   -4.5833685   -3.4585402 0.0051462543   -4.5833685    1.1248284   439061 
 4144000   0.74980487   -4.5839689   -4.5839689   -3.4592641  0.009885779   -4.5839689    1.1247047   439061 
 4145000   0.74968201   -4.5838369   -4.5838369   -3.4593165  0.011999859   -4.5838369    1.1245205   439061 
 4146000   0.75044443   -4.5840613   -4.5840613   -3.4583972 0.0057621886   -4.5840613    1.1256641   439061 
 4147000   0.75027842   -4.5843641   -4.5843641    -3.458949 0.0070357307   -4.5843641    1.1254151   439061 
 4148000   0.75008129   -4.5842877   -4.5842877   -3.4591683  0.012793313   -4.5842877    1.1251194   439061 
 4149000   0.75038853   -4.5848319   -4.5848319   -3.4592517  0.012650787   -4.5848319    1.1255802   439061 
 4150000   0.75038572   -4.5841438   -4.5841438   -3.4585678  0.010844143   -4.5841438     1.125576   439061 
 4151000   0.75122903   -4.5865268   -4.5865268   -3.4596858 0.0060528285   -4.5865268     1.126841   439061 
 4152000    0.7506219   -4.5858721   -4.5858721   -3.4599418 0.0084002612   -4.5858721    1.1259303   439061 
 4153000    0.7498984   -4.5854384   -4.5854384   -3.4605933 0.0061947417   -4.5854384     1.124845   439061 
 4154000   0.74900744   -4.5844756   -4.5844756    -3.460967  0.012285217   -4.5844756    1.1235086   439061 
 4155000   0.74983905   -4.5844948   -4.5844948   -3.4597388 0.0098963025   -4.5844948     1.124756   439061 
 4156000   0.75035627   -4.5850104   -4.5850104   -3.4594785  0.013280618   -4.5850104    1.1255318   439061 
 4157000   0.75156977   -4.5856452   -4.5856452   -3.4582931  0.010306741   -4.5856452    1.1273521   439061 
 4158000   0.75073093   -4.5848018   -4.5848018    -3.458708  0.015903775   -4.5848018    1.1260938   439061 
 4159000   0.75038809   -4.5840676   -4.5840676   -3.4584881  0.013851972   -4.5840676    1.1255796   439061 
 4160000   0.75142816   -4.5859365   -4.5859365   -3.4587968 0.0021920889   -4.5859365    1.1271397   439061 
 4161000   0.75070161   -4.5847056   -4.5847056   -3.4586557 0.0094891856   -4.5847056    1.1260498   439061 
 4162000   0.74982675   -4.5834059   -4.5834059   -3.4586684  0.011666597   -4.5834059    1.1247376   439061 
 4163000   0.74974579   -4.5814396   -4.5814396   -3.4568235  0.011992403   -4.5814396    1.1246161   439061 
 4164000    0.7489385   -4.5806564   -4.5806564   -3.4572513 0.0095450263   -4.5806564    1.1234052   439061 
 4165000   0.74984494   -4.5822098   -4.5822098   -3.4574449  0.009728771   -4.5822098    1.1247648   439061 
 4166000   0.75029125   -4.5826701   -4.5826701   -3.4572358 0.0052638546   -4.5826701    1.1254343   439061 
 4167000   0.74967839   -4.5809419   -4.5809419   -3.4564268 0.0068045318   -4.5809419     1.124515   439061 
 4168000   0.75062362   -4.5822493   -4.5822493   -3.4563164 0.0088305045   -4.5822493    1.1259329   439061 
 4169000   0.75036221   -4.5816872   -4.5816872   -3.4561464 0.0036757388   -4.5816872    1.1255407   439061 
 4170000   0.75075359   -4.5842089   -4.5842089   -3.4580811 0.0049553168   -4.5842089    1.1261278   439061 
 4171000   0.75130859   -4.5838228   -4.5838228   -3.4568625 0.0077938154   -4.5838228    1.1269603   439061 
 4172000   0.75102568     -4.58322     -4.58322   -3.4566841  0.013743961     -4.58322     1.126536   439061 
 4173000   0.75071369   -4.5836449   -4.5836449    -3.457577  0.013008685   -4.5836449     1.126068   439061 
 4174000   0.75035902   -4.5848437   -4.5848437   -3.4593078  0.010082501   -4.5848437     1.125536   439061 
 4175000    0.7513715   -4.5860217   -4.5860217    -3.458967 0.0071580045   -4.5860217    1.1270547   439061 
 4176000   0.75035321   -4.5849145   -4.5849145   -3.4593873 0.0084254465   -4.5849145    1.1255273   439061 
 4177000   0.75005702   -4.5846541   -4.5846541   -3.4595711  0.013731408   -4.5846541     1.125083   439061 
 4178000   0.75104727   -4.5852338   -4.5852338   -3.4586655 0.0094511018   -4.5852338    1.1265683   439061 
 4179000   0.74911832   -4.5825957   -4.5825957   -3.4589207  0.012021467   -4.5825957    1.1236749   439061 
 4180000   0.74996317   -4.5839177   -4.5839177   -3.4589755 0.0072200002   -4.5839177    1.1249422   439061 
 4181000   0.75052419   -4.5844172   -4.5844172   -3.4586335  0.010036451   -4.5844172    1.1257837   439061 
 4182000   0.75107538   -4.5847984   -4.5847984   -3.4581879  0.012728371   -4.5847984    1.1266105   439061 
 4183000   0.75058475   -4.5836078   -4.5836078   -3.4577332  0.013093551   -4.5836078    1.1258746   439061 
 4184000   0.75236773   -4.5860728   -4.5860728   -3.4575238  0.005102331   -4.5860728     1.128549   439061 
 4185000   0.74970213   -4.5825744   -4.5825744   -3.4580237 0.0047342572   -4.5825744    1.1245506   439061 
 4186000    0.7503958    -4.584201    -4.584201   -3.4586098 0.0098238202    -4.584201    1.1255911   439061 
 4187000   0.74920504   -4.5823773   -4.5823773   -3.4585723 0.0070084354   -4.5823773     1.123805   439061 
 4188000    0.7504819   -4.5850719   -4.5850719   -3.4593516 0.0053571201   -4.5850719    1.1257203   439061 
 4189000   0.75031848   -4.5837616   -4.5837616   -3.4582865  0.011019921   -4.5837616    1.1254752   439061 
 4190000   0.75103782   -4.5850011   -4.5850011   -3.4584469 0.0077066812   -4.5850011    1.1265542   439061 
 4191000   0.75067826   -4.5849822   -4.5849822   -3.4589674 0.0065794582   -4.5849822    1.1260148   439061 
 4192000   0.75141937   -4.5844569   -4.5844569   -3.4573305  0.011252923   -4.5844569    1.1271265   439061 
 4193000   0.75097412   -4.5853471   -4.5853471   -3.4588885  0.012565327   -4.5853471    1.1264586   439061 
 4194000   0.75210976   -4.5852271   -4.5852271    -3.457065  0.018611726   -4.5852271    1.1281621   439061 
 4195000   0.75204698   -4.5852307   -4.5852307   -3.4571628  0.015202645   -4.5852307    1.1280679   439061 
 4196000   0.75124762    -4.584634    -4.584634   -3.4577651  0.009042945    -4.584634    1.1268689   439061 
 4197000    0.7501338    -4.583496    -4.583496   -3.4582978 0.0068353006    -4.583496    1.1251981   439061 
 4198000   0.75028292   -4.5833254   -4.5833254   -3.4579036 0.0047473955   -4.5833254    1.1254218   439061 
 4199000   0.74996535   -4.5832791   -4.5832791   -3.4583336  0.011868941   -4.5832791    1.1249455   439061 
 4200000   0.75004407   -4.5832023   -4.5832023   -3.4581388  0.011695813   -4.5832023    1.1250635   439061 
 4201000   0.75051154   -4.5833209   -4.5833209   -3.4575561 0.0062683354   -4.5833209    1.1257647   439061 
 4202000   0.74932323   -4.5826465   -4.5826465   -3.4586642 0.0070038344   -4.5826465    1.1239823   439061 
 4203000   0.74984801   -4.5822329   -4.5822329   -3.4574635 0.0049421447   -4.5822329    1.1247694   439061 
 4204000   0.75033332   -4.5827904   -4.5827904    -3.457293  0.012436367   -4.5827904    1.1254974   439061 
 4205000   0.75114643   -4.5836498   -4.5836498   -3.4569328  0.014486969   -4.5836498    1.1267171   439061 
 4206000   0.75144279   -4.5839794   -4.5839794   -3.4568178  0.012260505   -4.5839794    1.1271616   439061 
 4207000    0.7514089   -4.5845661   -4.5845661   -3.4574553  0.008099638   -4.5845661    1.1271108   439061 
 4208000     0.749677   -4.5829674   -4.5829674   -3.4584544  0.010963226   -4.5829674    1.1245129   439061 
 4209000   0.75086524   -4.5838621   -4.5838621   -3.4575668  0.008875644   -4.5838621    1.1262953   439061 
 4210000   0.75024379   -4.5835444   -4.5835444   -3.4581812 0.0088792617   -4.5835444    1.1253631   439061 
 4211000   0.75051982   -4.5833647   -4.5833647   -3.4575876  0.012831428   -4.5833647    1.1257772   439061 
 4212000   0.75013511   -4.5833677   -4.5833677   -3.4581676  0.011540277   -4.5833677    1.1252001   439061 
 4213000   0.75034076   -4.5838889   -4.5838889   -3.4583803 0.0085328712   -4.5838889    1.1255086   439061 
 4214000   0.75100866   -4.5847727   -4.5847727   -3.4582623  0.006262077   -4.5847727    1.1265104   439061 
 4215000   0.75045073   -4.5840319   -4.5840319   -3.4583583 0.0084767318   -4.5840319    1.1256735   439061 
 4216000    0.7516809   -4.5850679   -4.5850679   -3.4575491 0.0082702706   -4.5850679    1.1275188   439061 
 4217000   0.75088287   -4.5847335   -4.5847335   -3.4584118 0.0088355936   -4.5847335    1.1263217   439061 
 4218000   0.75150814   -4.5837707   -4.5837707    -3.456511 0.0097701748   -4.5837707    1.1272596   439061 
 4219000   0.74950125   -4.5815872   -4.5815872   -3.4573378  0.014625394   -4.5815872    1.1242493   439061 
 4220000   0.75062074    -4.583192    -4.583192   -3.4572634  0.012487203    -4.583192    1.1259286   439061 
 4221000   0.75087921   -4.5834038   -4.5834038   -3.4570875  0.010603965   -4.5834038    1.1263163   439061 
 4222000    0.7511494   -4.5836275   -4.5836275    -3.456906 0.0085334011   -4.5836275    1.1267215   439061 
 4223000   0.75078964   -4.5831913   -4.5831913   -3.4570094 0.0058519578   -4.5831913    1.1261819   439061 
 4224000   0.75155116   -4.5832935   -4.5832935   -3.4559693  0.011114676   -4.5832935    1.1273242   439061 
 4225000   0.74904457   -4.5804294   -4.5804294   -3.4568651  0.014069099   -4.5804294    1.1235643   439061 
 4226000   0.74963332   -4.5829063   -4.5829063   -3.4584589  0.010222565   -4.5829063    1.1244474   439061 
 4227000   0.74965657   -4.5824884   -4.5824884   -3.4580061  0.010467472   -4.5824884    1.1244823   439061 
 4228000    0.7493824    -4.580333    -4.580333    -3.456262  0.010785709    -4.580333     1.124071   439061 
 4229000   0.75058831     -4.58286     -4.58286   -3.4569801  0.005567592     -4.58286    1.1258799   439061 
 4230000      0.75087   -4.5837953   -4.5837953   -3.4574929 0.0065132795   -4.5837953    1.1263024   439061 
 4231000   0.75006457   -4.5819418   -4.5819418   -3.4568475 0.0097116264   -4.5819418    1.1250943   439061 
 4232000   0.74975146   -4.5823721   -4.5823721   -3.4577475   0.00998079   -4.5823721    1.1246246   439061 
 4233000   0.75024818   -4.5822429   -4.5822429   -3.4568732  0.011434424   -4.5822429    1.1253697   439061 
 4234000   0.75155362   -4.5848038   -4.5848038   -3.4574759  0.006222055   -4.5848038    1.1273279   439061 
 4235000   0.75166137   -4.5847907   -4.5847907   -3.4573012 0.0079379746   -4.5847907    1.1274895   439061 
 4236000   0.75049623   -4.5825548   -4.5825548   -3.4568131  0.010825525   -4.5825548    1.1257418   439061 
 4237000   0.75056327    -4.583455    -4.583455   -3.4576126 0.0091228932    -4.583455    1.1258423   439061 
 4238000   0.75038428   -4.5820733   -4.5820733   -3.4564995  0.010416356   -4.5820733    1.1255739   439061 
 4239000   0.75009633   -4.5820598   -4.5820598   -3.4569179  0.011178221   -4.5820598    1.1251419   439061 
 4240000   0.75090307   -4.5835412   -4.5835412   -3.4571892 0.0063889962   -4.5835412     1.126352   439061 
 4241000   0.75143764   -4.5836045   -4.5836045   -3.4564506 0.0089853638   -4.5836045    1.1271539   439061 
 4242000    0.7501665   -4.5823024   -4.5823024   -3.4570553 0.0092648924   -4.5823024    1.1252472   439061 
 4243000   0.75020931   -4.5826818   -4.5826818   -3.4573704 0.0084363116   -4.5826818    1.1253114   439061 
 4244000   0.75074801   -4.5826572   -4.5826572   -3.4565377 0.0090479761   -4.5826572    1.1261194   439061 
 4245000   0.75086069   -4.5837826   -4.5837826   -3.4574941 0.0082818094   -4.5837826    1.1262885   439061 
 4246000    0.7500759   -4.5838832   -4.5838832   -3.4587719  0.010616439   -4.5838832    1.1251113   439061 
 4247000    0.7505202   -4.5849796   -4.5849796   -3.4592019  0.012388833   -4.5849796    1.1257777   439061 
 4248000   0.75070108   -4.5839726   -4.5839726   -3.4579235 0.00063227125   -4.5839726    1.1260491   439061 
 4249000    0.7508132    -4.584248    -4.584248   -3.4580308 0.0097060462    -4.584248    1.1262172   439061 
 4250000   0.75155064    -4.586072    -4.586072   -3.4587486   0.01047674    -4.586072    1.1273234   439061 
 4251000   0.75125454   -4.5849622   -4.5849622    -3.458083  0.014564261   -4.5849622    1.1268792   439061 
 4252000   0.75105295   -4.5858732   -4.5858732   -3.4592963  0.011433215   -4.5858732    1.1265769   439061 
 4253000    0.7522143   -4.5872829   -4.5872829    -3.458964  0.010579817   -4.5872829    1.1283189   439061 
 4254000   0.75103854   -4.5847203   -4.5847203   -3.4581651  0.010658654   -4.5847203    1.1265552   439061 
 4255000   0.75099962   -4.5837493   -4.5837493   -3.4572524 0.0098046576   -4.5837493    1.1264969   439061 
 4256000   0.75194542   -4.5841851   -4.5841851   -3.4562695  0.011107734   -4.5841851    1.1279156   439061 
 4257000   0.75283115   -4.5853368   -4.5853368   -3.4560927 0.0057135036   -4.5853368    1.1292442   439061 
 4258000    0.7508406   -4.5820349   -4.5820349   -3.4557766 0.0078867502   -4.5820349    1.1262583   439061 
 4259000   0.75110434   -4.5813999   -4.5813999    -3.454746 0.0054385711   -4.5813999    1.1266539   439061 
 4260000   0.75002864   -4.5795285   -4.5795285   -3.4544881 0.0079204982   -4.5795285    1.1250404   439061 
 4261000   0.75078492   -4.5805369   -4.5805369    -3.454362 0.0073734476   -4.5805369    1.1261748   439061 
 4262000   0.74937048   -4.5799137   -4.5799137   -3.4558606  0.011232007   -4.5799137    1.1240532   439061 
 4263000   0.74984822   -4.5792072   -4.5792072   -3.4544375 0.0039615238   -4.5792072    1.1247698   439061 
 4264000   0.74979414   -4.5794352   -4.5794352   -3.4547465 0.0022898911   -4.5794352    1.1246887   439061 
 4265000    0.7492353    -4.579392    -4.579392   -3.4555416 0.0092034743    -4.579392    1.1238504   439061 
 4266000   0.75110879    -4.582509    -4.582509   -3.4558484 0.0099239106    -4.582509    1.1266606   439061 
 4267000   0.75166568   -4.5833016   -4.5833016   -3.4558056  0.010961303   -4.5833016    1.1274959   439061 
 4268000   0.75244772   -4.5843873   -4.5843873   -3.4557183  0.014047831   -4.5843873     1.128669   439061 
 4269000   0.75269969   -4.5840116   -4.5840116   -3.4549647  0.012382772   -4.5840116     1.129047   439061 
 4270000   0.75269475   -4.5847467   -4.5847467   -3.4557072    0.0144503   -4.5847467    1.1290396   439061 
 4271000    0.7522395   -4.5856355   -4.5856355   -3.4572788   0.01130982   -4.5856355    1.1283567   439061 
 4272000   0.75164345   -4.5838714   -4.5838714   -3.4564088   0.01605944   -4.5838714    1.1274626   439061 
 4273000   0.74959923   -4.5808645   -4.5808645   -3.4564682 0.0057344696   -4.5808645    1.1243963   439061 
 4274000   0.74947985   -4.5811069   -4.5811069   -3.4568897 0.0090548834   -4.5811069    1.1242172   439061 
 4275000   0.74940624   -4.5813473   -4.5813473   -3.4572405 0.0061356674   -4.5813473    1.1241068   439061 
 4276000   0.74960868   -4.5809696   -4.5809696   -3.4565591 0.0062784281   -4.5809696    1.1244105   439061 
 4277000   0.74984106   -4.5798575   -4.5798575   -3.4550984 0.0070698824   -4.5798575     1.124759   439061 
 4278000   0.74960049   -4.5806133   -4.5806133   -3.4562152 0.0044722219   -4.5806133    1.1243982   439061 
 4279000   0.74981011   -4.5803571   -4.5803571   -3.4556445 0.0088013092   -4.5803571    1.1247126   439061 
 4280000   0.75077219   -4.5819787   -4.5819787    -3.455823    0.0124393   -4.5819787    1.1261557   439061 
 4281000   0.75086937   -4.5812626   -4.5812626   -3.4549611 0.0096986092   -4.5812626    1.1263015   439061 
 4282000   0.75202991   -4.5841933   -4.5841933    -3.456151 0.0085548171   -4.5841933    1.1280423   439061 
 4283000   0.74979826   -4.5812864   -4.5812864   -3.4565915  0.014644062   -4.5812864    1.1246948   439061 
 4284000   0.75067708   -4.5830594   -4.5830594   -3.4570464 0.0095316296   -4.5830594     1.126013   439061 
 4285000   0.75182743   -4.5848624   -4.5848624   -3.4571239 0.0093162052   -4.5848624    1.1277386   439061 
 4286000   0.75110459   -4.5834921   -4.5834921   -3.4568378  0.011009461   -4.5834921    1.1266543   439061 
 4287000   0.75014076   -4.5824379   -4.5824379   -3.4572293  0.010388746   -4.5824379    1.1252086   439061 
 4288000   0.75034654   -4.5824587   -4.5824587   -3.4569415  0.011919984   -4.5824587    1.1255172   439061 
 4289000   0.75168741   -4.5841483   -4.5841483   -3.4566198  0.010689581   -4.5841483    1.1275285   439061 
 4290000   0.75177939   -4.5847332   -4.5847332   -3.4570667  0.010090741   -4.5847332    1.1276665   439061 
 4291000   0.75196982   -4.5842709   -4.5842709   -3.4563187  0.012346849   -4.5842709    1.1279522   439061 
 4292000   0.75095739   -4.5831277   -4.5831277   -3.4566942 0.0098771921   -4.5831277    1.1264335   439061 
 4293000   0.75093088   -4.5823541   -4.5823541   -3.4559604  0.011217826   -4.5823541    1.1263938   439061 
 4294000   0.75078728   -4.5819792   -4.5819792   -3.4558008 0.0094940665   -4.5819792    1.1261784   439061 
 4295000   0.75023186   -4.5812666   -4.5812666   -3.4559214  0.008951776   -4.5812666    1.1253452   439061 
 4296000   0.75183167   -4.5824292   -4.5824292   -3.4546843 0.0096914212   -4.5824292    1.1277449   439061 
 4297000   0.75217331   -4.5818048   -4.5818048   -3.4535474  0.009199581   -4.5818048    1.1282574   439061 
 4298000   0.75049097   -4.5797576   -4.5797576   -3.4540237 0.0098544204   -4.5797576    1.1257339   439061 
 4299000   0.74994384   -4.5807679   -4.5807679   -3.4558547 0.0059770241   -4.5807679    1.1249132   439061 
 4300000   0.74857851   -4.5782572   -4.5782572    -3.455392 0.0090993373   -4.5782572    1.1228652   439061 
 4301000   0.74978272   -4.5808872   -4.5808872   -3.4562157 0.0069906548   -4.5808872    1.1246715   439061 
 4302000    0.7496824   -4.5827036   -4.5827036   -3.4581826 0.0023193391   -4.5827036     1.124521   439061 
 4303000   0.74939291   -4.5809928   -4.5809928    -3.456906 0.0081294756   -4.5809928    1.1240868   439061 
 4304000   0.75061646    -4.582573    -4.582573   -3.4566509  0.010217317    -4.582573    1.1259221   439061 
 4305000   0.75159656   -4.5837292   -4.5837292   -3.4563369 0.0086406672   -4.5837292    1.1273923   439061 
 4306000   0.75142726   -4.5839494   -4.5839494   -3.4568111  0.015710482   -4.5839494    1.1271383   439061 
 4307000   0.75106531   -4.5835879   -4.5835879   -3.4569925  0.014493761   -4.5835879    1.1265954   439061 
 4308000   0.74996178   -4.5836037   -4.5836037   -3.4586636  0.012543185   -4.5836037    1.1249401   439061 
 4309000   0.75006905   -4.5838902   -4.5838902   -3.4587892  0.011853699   -4.5838902     1.125101   439061 
 4310000   0.75135703   -4.5845382   -4.5845382   -3.4575052  0.012870192   -4.5845382     1.127033   439061 
 4311000    0.7511668   -4.5855466   -4.5855466   -3.4587989 0.0099876691   -4.5855466    1.1267476   439061 
 4312000   0.75096651   -4.5846299   -4.5846299   -3.4581827  0.013862343   -4.5846299    1.1264472   439061 
 4313000   0.75099758   -4.5840628   -4.5840628    -3.457569   0.01179506   -4.5840628    1.1264938   439061 
 4314000   0.75087981   -4.5824915   -4.5824915   -3.4561744   0.01149685   -4.5824915    1.1263172   439061 
 4315000   0.75126746   -4.5826869   -4.5826869   -3.4557882 0.0087188757   -4.5826869    1.1268986   439061 
 4316000   0.75148235    -4.582649    -4.582649   -3.4554281  0.013580053    -4.582649     1.127221   439061 
 4317000   0.75193092   -4.5833279   -4.5833279   -3.4554341 0.0091486684   -4.5833279    1.1278938   439061 
 4318000   0.75102682   -4.5814926   -4.5814926    -3.454955 0.0081295054   -4.5814926    1.1265377   439061 
 4319000   0.75014563    -4.579955    -4.579955   -3.4547392  0.010984761    -4.579955    1.1252159   439061 
 4320000   0.74962636   -4.5803799   -4.5803799   -3.4559429 0.0052666222   -4.5803799     1.124437   439061 
 4321000   0.74882238   -4.5795781   -4.5795781   -3.4563471 0.0063126535   -4.5795781     1.123231   439061 
 4322000   0.74865752   -4.5803553   -4.5803553   -3.4573716 0.0054187656   -4.5803553    1.1229837   439061 
 4323000   0.74949949   -4.5811206   -4.5811206   -3.4568739 0.0079584102   -4.5811206    1.1242467   439061 
 4324000   0.74934434   -4.5800042   -4.5800042   -3.4559903  0.014357096   -4.5800042    1.1240139   439061 
 4325000   0.74967204   -4.5807371   -4.5807371   -3.4562316  0.010991558   -4.5807371    1.1245055   439061 
 4326000   0.75081064   -4.5823451   -4.5823451   -3.4561317  0.013570702   -4.5823451    1.1262134   439061 
 4327000   0.75219753   -4.5855303   -4.5855303   -3.4572366 0.0093034257   -4.5855303    1.1282937   439061 
 4328000   0.75153791   -4.5846756   -4.5846756   -3.4573713   0.01059726   -4.5846756    1.1273043   439061 
 4329000   0.75024072   -4.5834267   -4.5834267   -3.4580682  0.014334809   -4.5834267    1.1253585   439061 
 4330000   0.75104808     -4.58408     -4.58408   -3.4575105  0.013514166     -4.58408    1.1265696   439061 
 4331000   0.75134173   -4.5825044   -4.5825044   -3.4554944  0.015351167   -4.5825044      1.12701   439061 
 4332000   0.75088609   -4.5825522   -4.5825522   -3.4562257 0.0096691969   -4.5825522    1.1263266   439061 
 4333000   0.75154227   -4.5825541   -4.5825541   -3.4552432  0.010160258   -4.5825541    1.1273108   439061 
 4334000   0.75044307   -4.5819619   -4.5819619   -3.4562999 0.0065485397   -4.5819619     1.125662   439061 
 4335000   0.74929123   -4.5805919   -4.5805919   -3.4566576 0.0060406805   -4.5805919    1.1239343   439061 
 4336000   0.75008694   -4.5795947   -4.5795947   -3.4544668 0.0062216815   -4.5795947    1.1251278   439061 
 4337000    0.7505533   -4.5814803   -4.5814803   -3.4556529 0.0032570895   -4.5814803    1.1258274   439061 
 4338000   0.75035551   -4.5801164   -4.5801164   -3.4545857 0.0043951825   -4.5801164    1.1255307   439061 
 4339000    0.7514614   -4.5814055   -4.5814055    -3.454216 0.0062719999   -4.5814055    1.1271895   439061 
 4340000   0.74963716   -4.5790496   -4.5790496   -3.4545964 0.0094529322   -4.5790496    1.1244532   439061 
 4341000   0.75079852   -4.5805291   -4.5805291   -3.4543338  0.010530771   -4.5805291    1.1261952   439061 
 4342000   0.74967225   -4.5793988   -4.5793988    -3.454893  0.014010651   -4.5793988    1.1245058   439061 
 4343000   0.75139305   -4.5825164   -4.5825164   -3.4554294 0.0059603398   -4.5825164     1.127087   439061 
 4344000   0.75062675   -4.5826774   -4.5826774   -3.4567398  0.009985884   -4.5826774    1.1259376   439061 
 4345000   0.75207915   -4.5844986   -4.5844986   -3.4563824 0.0091306684   -4.5844986    1.1281162   439061 
 4346000   0.75011014   -4.5820379   -4.5820379   -3.4568753  0.011388128   -4.5820379    1.1251626   439061 
 4347000   0.75153105   -4.5842094   -4.5842094   -3.4569154  0.014083268   -4.5842094     1.127294   439061 
 4348000   0.75198374   -4.5839988   -4.5839988   -3.4560257  0.017819237   -4.5839988     1.127973   439061 
 4349000   0.75160806   -4.5834146   -4.5834146    -3.456005  0.013321233   -4.5834146    1.1274095   439061 
 4350000   0.75217374   -4.5830112   -4.5830112   -3.4547532  0.014817351   -4.5830112     1.128258   439061 
 4351000   0.75284009   -4.5849074   -4.5849074   -3.4556498 0.0097898637   -4.5849074    1.1292576   439061 
 4352000   0.75199261    -4.582678    -4.582678   -3.4546917 0.0092460117    -4.582678    1.1279863   439061 
 4353000   0.75196106   -4.5827015   -4.5827015   -3.4547624 0.0074543873   -4.5827015     1.127939   439061 
 4354000   0.75132517   -4.5807899   -4.5807899   -3.4538047  0.012357814   -4.5807899    1.1269852   439061 
 4355000   0.75068768   -4.5791409   -4.5791409   -3.4531119 0.0058371715   -4.5791409     1.126029   439061 
 4356000   0.75046147   -4.5775691   -4.5775691   -3.4518794 0.0079466662   -4.5775691    1.1256896   439061 
 4357000   0.75144008   -4.5798911   -4.5798911   -3.4527335 0.0034701692   -4.5798911    1.1271576   439061 
 4358000   0.74953392   -4.5772743   -4.5772743   -3.4529759  0.010693838   -4.5772743    1.1242983   439061 
 4359000   0.74992899   -4.5767522   -4.5767522   -3.4518612 0.0063845323   -4.5767522    1.1248909   439061 
 4360000   0.75095751   -4.5787977   -4.5787977    -3.452364 0.0052451961   -4.5787977    1.1264337   439061 
 4361000   0.75167791   -4.5790009   -4.5790009   -3.4514866  0.010951732   -4.5790009    1.1275143   439061 
 4362000   0.75170744   -4.5795647   -4.5795647   -3.4520061  0.012113909   -4.5795647    1.1275586   439061 
 4363000   0.75142493   -4.5790234   -4.5790234   -3.4518885  0.013869082   -4.5790234    1.1271348   439061 
 4364000   0.75196976   -4.5807313   -4.5807313   -3.4527793 0.0073140194   -4.5807313    1.1279521   439061 
 4365000   0.75105963   -4.5816608   -4.5816608    -3.455074 0.0090759806   -4.5816608    1.1265869   439061 
 4366000   0.75036694   -4.5802272   -4.5802272   -3.4546794 0.0094033566   -4.5802272    1.1255479   439061 
 4367000   0.75130927   -4.5819208   -4.5819208   -3.4549594 0.0096748713   -4.5819208    1.1269613   439061 
 4368000   0.75075915   -4.5816761   -4.5816761     -3.45554  0.010465437   -4.5816761    1.1261362   439061 
 4369000   0.74987444    -4.580486    -4.580486   -3.4556769 0.0099386223    -4.580486    1.1248091   439061 
 4370000   0.75095933   -4.5828988   -4.5828988   -3.4564624 0.0067104316   -4.5828988    1.1264364   439061 
 4371000   0.75099357   -4.5828391   -4.5828391   -3.4563513 0.0055628187   -4.5828391    1.1264878   439061 
 4372000   0.75046392   -4.5814103   -4.5814103    -3.455717  0.011166296   -4.5814103    1.1256933   439061 
 4373000    0.7513746   -4.5819645   -4.5819645   -3.4549051  0.013120985   -4.5819645    1.1270593   439061 
 4374000    0.7527365   -4.5831436   -4.5831436   -3.4540414  0.013824075   -4.5831436    1.1291022   439061 
 4375000    0.7512538   -4.5813034   -4.5813034   -3.4544253  0.011608134   -4.5813034    1.1268781   439061 
 4376000   0.75133505   -4.5823318   -4.5823318   -3.4553318 0.0081509036   -4.5823318        1.127   439061 
 4377000   0.75130055   -4.5825927   -4.5825927   -3.4556445 0.0071859867   -4.5825927    1.1269483   439061 
 4378000     0.750824    -4.582012    -4.582012   -3.4557786 0.0078314205    -4.582012    1.1262334   439061 
 4379000   0.75088818    -4.580921    -4.580921   -3.4545913  0.011552806    -4.580921    1.1263297   439061 
 4380000   0.75110705   -4.5818046   -4.5818046   -3.4551466 0.0087944693   -4.5818046     1.126658   439061 
 4381000    0.7509512   -4.5813602   -4.5813602    -3.454936 0.0076192852   -4.5813602    1.1264242   439061 
 4382000    0.7507769     -4.58244     -4.58244   -3.4562772 0.0052089055     -4.58244    1.1261628   439061 
 4383000   0.74983242   -4.5806122   -4.5806122   -3.4558661 0.0062000267   -4.5806122    1.1247461   439061 
 4384000   0.75114985   -4.5823032   -4.5823032    -3.455581 0.0058190498   -4.5823032    1.1267222   439061 
 4385000   0.75109945   -4.5814054   -4.5814054   -3.4547588  0.007768083   -4.5814054    1.1266466   439061 
 4386000   0.75233847   -4.5847356   -4.5847356   -3.4562304 0.0094130976   -4.5847356    1.1285051   439061 
 4387000   0.75193132   -4.5836786   -4.5836786   -3.4557841 0.0095282864   -4.5836786    1.1278944   439061 
 4388000   0.75171983   -4.5829153   -4.5829153   -3.4553381  0.011285565   -4.5829153    1.1275772   439061 
 4389000   0.75188847    -4.583156    -4.583156   -3.4553259  0.013717543    -4.583156    1.1278301   439061 
 4390000   0.75145468   -4.5828452   -4.5828452   -3.4556657   0.01587712   -4.5828452    1.1271795   439061 
 4391000   0.75181082   -4.5848074   -4.5848074   -3.4570937  0.013872958   -4.5848074    1.1277137   439061 
 4392000   0.75088702   -4.5830273   -4.5830273   -3.4566993  0.014733415   -4.5830273     1.126328   439061 
 4393000    0.7509869   -4.5830887   -4.5830887    -3.456611 0.0066109939   -4.5830887    1.1264778   439061 
 4394000   0.75109795   -4.5831638   -4.5831638   -3.4565194  0.013607416   -4.5831638    1.1266444   439061 
 4395000   0.75028187    -4.582161    -4.582161   -3.4567407 0.0071460366    -4.582161    1.1254202   439061 
 4396000   0.75193017   -4.5825801   -4.5825801   -3.4546874  0.011819909   -4.5825801    1.1278927   439061 
 4397000   0.75216667   -4.5835219   -4.5835219   -3.4552744  0.005482681   -4.5835219    1.1282474   439061 
 4398000   0.75099622   -4.5813001   -4.5813001   -3.4548083   0.01041719   -4.5813001    1.1264918   439061 
 4399000   0.75080127   -4.5812193   -4.5812193     -3.45502 0.0074306816   -4.5812193    1.1261993   439061 
 4400000   0.75203872   -4.5825363   -4.5825363   -3.4544808 0.0061622248   -4.5825363    1.1280555   439061 
 4401000   0.74957814   -4.5794412   -4.5794412   -3.4550765  0.013792113   -4.5794412    1.1243647   439061 
 4402000   0.75033603   -4.5815966   -4.5815966   -3.4560951 0.0017546658   -4.5815966    1.1255015   439061 
 4403000   0.75005831   -4.5791667   -4.5791667   -3.4540818 0.0083144067   -4.5791667    1.1250849   439061 
 4404000   0.74952612   -4.5792543   -4.5792543   -3.4549677  0.011875795   -4.5792543    1.1242866   439061 
 4405000   0.75104791   -4.5825098   -4.5825098   -3.4559405 0.0094687092   -4.5825098    1.1265693   439061 
 4406000   0.75112707   -4.5826211   -4.5826211    -3.455933  0.010742702   -4.5826211     1.126688   439061 
 4407000   0.75158075   -4.5825745   -4.5825745   -3.4552059   0.01286307   -4.5825745    1.1273686   439061 
 4408000   0.75154168   -4.5827357   -4.5827357   -3.4554258  0.012636922   -4.5827357      1.12731   439061 
 4409000   0.75089168   -4.5826012   -4.5826012   -3.4562662 0.0075498965   -4.5826012     1.126335   439061 
 4410000   0.75057178   -4.5823602   -4.5823602   -3.4565051  0.012921139   -4.5823602    1.1258551   439061 
 4411000   0.75090146   -4.5832558   -4.5832558   -3.4569062  0.012632895   -4.5832558    1.1263496   439061 
 4412000   0.75059233   -4.5820485   -4.5820485   -3.4561626  0.011297845   -4.5820485    1.1258859   439061 
 4413000   0.75146147   -4.5836371   -4.5836371   -3.4564474  0.013539312   -4.5836371    1.1271896   439061 
 4414000   0.75014381   -4.5812625   -4.5812625   -3.4560493  0.016444345   -4.5812625    1.1252132   439061 
 4415000   0.75126487   -4.5832518   -4.5832518   -3.4563571  0.008949588   -4.5832518    1.1268947   439061 
 4416000   0.75132415   -4.5829418   -4.5829418   -3.4559582 0.0086517055   -4.5829418    1.1269837   439061 
 4417000   0.75050692   -4.5816651   -4.5816651   -3.4559073  0.013213424   -4.5816651    1.1257578   439061 
 4418000   0.75092875   -4.5833395   -4.5833395   -3.4569489 0.0077042364   -4.5833395    1.1263906   439061 
 4419000   0.75073782   -4.5828503   -4.5828503   -3.4567461 0.0062650139   -4.5828503    1.1261042   439061 
 4420000   0.74861524   -4.5806169   -4.5806169   -3.4576966 0.0075175902   -4.5806169    1.1229203   439061 
 4421000   0.75052794   -4.5835056   -4.5835056   -3.4577163 0.0035387349   -4.5835056    1.1257893   439061 
 4422000   0.74827596   -4.5803907   -4.5803907   -3.4579793  0.010295365   -4.5803907    1.1224114   439061 
 4423000   0.74996461   -4.5811774   -4.5811774   -3.4562331  0.012788392   -4.5811774    1.1249443   439061 
 4424000   0.75072053   -4.5829226   -4.5829226   -3.4568444  0.010445022   -4.5829226    1.1260782   439061 
 4425000   0.75026752   -4.5832958   -4.5832958    -3.457897  0.015373602   -4.5832958    1.1253987   439061 
 4426000   0.75037529   -4.5827548   -4.5827548   -3.4571944  0.017023345   -4.5827548    1.1255604   439061 
 4427000   0.75137866   -4.5838918   -4.5838918   -3.4568264  0.012203929   -4.5838918    1.1270654   439061 
 4428000   0.75092605   -4.5841073   -4.5841073   -3.4577208   0.01264069   -4.5841073    1.1263865   439061 
 4429000   0.75092623   -4.5828647   -4.5828647   -3.4564779  0.015988104   -4.5828647    1.1263868   439061 
 4430000   0.75091791   -4.5820245   -4.5820245   -3.4556502  0.011458868   -4.5820245    1.1263743   439061 
 4431000   0.75131999   -4.5826707   -4.5826707   -3.4556933  0.011096672   -4.5826707    1.1269774   439061 
 4432000   0.75075569   -4.5816913   -4.5816913   -3.4555603  0.011347036   -4.5816913     1.126131   439061 
 4433000   0.75163218   -4.5825591   -4.5825591   -3.4551134  0.011064989   -4.5825591    1.1274457   439061 
 4434000   0.75110689   -4.5815582   -4.5815582   -3.4549004 0.0065423801   -4.5815582    1.1266578   439061 
 4435000   0.75043734   -4.5790482   -4.5790482   -3.4533948  0.011131031   -4.5790482    1.1256534   439061 
 4436000   0.75088654   -4.5809618   -4.5809618   -3.4546346  0.003681762   -4.5809618    1.1263272   439061 
 4437000   0.75103615    -4.580359    -4.580359   -3.4538073 0.0066003841    -4.580359    1.1265517   439061 
 4438000    0.7519919   -4.5810078   -4.5810078   -3.4530225 0.0073786086   -4.5810078    1.1279853   439061 
 4439000   0.75075757   -4.5796225   -4.5796225   -3.4534887 0.0093452017   -4.5796225    1.1261338   439061 
 4440000   0.75061914   -4.5796274   -4.5796274   -3.4537012  0.010810285   -4.5796274    1.1259261   439061 
 4441000   0.75076434   -4.5795133   -4.5795133   -3.4533694  0.012003905   -4.5795133    1.1261439   439061 
 4442000   0.75050249   -4.5800852   -4.5800852   -3.4543341  0.010999818   -4.5800852    1.1257512   439061 
 4443000   0.75084033   -4.5814954   -4.5814954   -3.4552374  0.011063846   -4.5814954    1.1262579   439061 
 4444000   0.75160087   -4.5807498   -4.5807498   -3.4533511  0.012602279   -4.5807498    1.1273987   439061 
 4445000   0.75065635   -4.5799522   -4.5799522   -3.4539702  0.014430409   -4.5799522     1.125982   439061 
 4446000   0.75035207   -4.5801935   -4.5801935    -3.454668 0.0087303307   -4.5801935    1.1255255   439061 
 4447000   0.75072039   -4.5798425   -4.5798425   -3.4537645  0.011855899   -4.5798425     1.126078   439061 
 4448000   0.75070587   -4.5805037   -4.5805037   -3.4544475  0.007110196   -4.5805037    1.1260562   439061 
 4449000   0.74995606   -4.5807696   -4.5807696   -3.4558381  0.010748433   -4.5807696    1.1249315   439061 
 4450000   0.75073042   -4.5814735   -4.5814735   -3.4553804 0.0093471517   -4.5814735    1.1260931   439061 
 4451000   0.75089766   -4.5814035   -4.5814035   -3.4550596  0.008632403   -4.5814035    1.1263439   439061 
 4452000   0.75034741   -4.5802966   -4.5802966    -3.454778  0.012821382   -4.5802966    1.1255186   439061 
 4453000   0.75082949    -4.580459    -4.580459   -3.4542174  0.013108379    -4.580459    1.1262417   439061 
 4454000   0.75172335   -4.5824585   -4.5824585   -3.4548761  0.015492184   -4.5824585    1.1275825   439061 
 4455000   0.75090241   -4.5819705   -4.5819705   -3.4556195  0.012666167   -4.5819705     1.126351   439061 
 4456000   0.75076812   -4.5810567   -4.5810567   -3.4549071  0.013379303   -4.5810567    1.1261496   439061 
 4457000   0.75092228   -4.5814519   -4.5814519    -3.455071 0.0076313363   -4.5814519    1.1263809   439061 
 4458000   0.75176454   -4.5823461   -4.5823461   -3.4547019   0.01111149   -4.5823461    1.1276442   439061 
 4459000   0.75202869   -4.5828355   -4.5828355    -3.454795 0.0064990467   -4.5828355    1.1280405   439061 
 4460000   0.75196558   -4.5827751   -4.5827751   -3.4548293 0.0073150733   -4.5827751    1.1279458   439061 
 4461000   0.75144976   -4.5818565   -4.5818565   -3.4546844 0.0043073223   -4.5818565    1.1271721   439061 
 4462000   0.75116625   -4.5815548   -4.5815548    -3.454808 0.0058680406   -4.5815548    1.1267468   439061 
 4463000   0.75024018   -4.5794156   -4.5794156   -3.4540579 0.0061470796   -4.5794156    1.1253577   439061 
 4464000   0.75046423   -4.5802335   -4.5802335   -3.4545397 0.0062148733   -4.5802335    1.1256938   439061 
 4465000   0.75010956   -4.5811533   -4.5811533   -3.4559916 0.0046040369   -4.5811533    1.1251618   439061 
 4466000   0.75080254   -4.5821084   -4.5821084   -3.4559072 0.0062026325   -4.5821084    1.1262012   439061 
 4467000    0.7503335   -4.5823057   -4.5823057    -3.456808 0.0049341548   -4.5823057    1.1254977   439061 
 4468000   0.74991607   -4.5820554   -4.5820554   -3.4571839  0.013275937   -4.5820554    1.1248715   439061 
 4469000    0.7514339   -4.5841837   -4.5841837   -3.4570354  0.011495675   -4.5841837    1.1271483   439061 
 4470000   0.75134671   -4.5846664   -4.5846664   -3.4576489  0.010245781   -4.5846664    1.1270175   439061 
 4471000   0.75141997   -4.5844194   -4.5844194   -3.4572921  0.013180825   -4.5844194    1.1271274   439061 
 4472000   0.75199684   -4.5860283   -4.5860283   -3.4580357  0.011024009   -4.5860283    1.1279927   439061 
 4473000   0.75214768   -4.5854032   -4.5854032   -3.4571842  0.014846606   -4.5854032    1.1282189   439061 
 4474000   0.75117551   -4.5847533   -4.5847533   -3.4579926 0.0093261752   -4.5847533    1.1267607   439061 
 4475000   0.74985867   -4.5832212   -4.5832212   -3.4584357 0.0091863159   -4.5832212    1.1247854   439061 
 4476000   0.75139297   -4.5851264   -4.5851264   -3.4580396 0.0072808381   -4.5851264    1.1270869   439061 
 4477000   0.74998501   -4.5828107   -4.5828107   -3.4578358 0.0088049146   -4.5828107    1.1249749   439061 
 4478000   0.74986134   -4.5825141   -4.5825141   -3.4577247   0.01143661   -4.5825141    1.1247894   439061 
 4479000   0.75039177   -4.5831243   -4.5831243   -3.4575392 0.0054257072   -4.5831243    1.1255851   439061 
 4480000   0.75033467   -4.5822284   -4.5822284   -3.4567289 0.0072076302   -4.5822284    1.1254994   439061 
 4481000   0.75034554   -4.5829704   -4.5829704   -3.4574547 0.0092020926   -4.5829704    1.1255157   439061 
 4482000   0.75116962   -4.5824018   -4.5824018   -3.4556499 0.0096837766   -4.5824018    1.1267519   439061 
 4483000   0.75166956   -4.5836939   -4.5836939   -3.4561921 0.0064602381   -4.5836939    1.1275018   439061 
 4484000   0.75079656   -4.5817201   -4.5817201   -3.4555278  0.011201881   -4.5817201    1.1261923   439061 
 4485000   0.74982159    -4.581369    -4.581369   -3.4566392  0.011696063    -4.581369    1.1247298   439061 
 4486000    0.7507356   -4.5833161   -4.5833161   -3.4572152 0.0079620016   -4.5833161    1.1261008   439061 
 4487000   0.75023104   -4.5831483   -4.5831483   -3.4578043 0.0093441783   -4.5831483     1.125344   439061 
 4488000   0.75085813    -4.584065    -4.584065   -3.4577804 0.0086985167    -4.584065    1.1262846   439061 
 4489000   0.75080939   -4.5831596   -4.5831596    -3.456948  0.011725536   -4.5831596    1.1262115   439061 
 4490000   0.75262677   -4.5853774   -4.5853774   -3.4564399  0.007035141   -4.5853774    1.1289376   439061 
 4491000    0.7515125   -4.5850405   -4.5850405   -3.4577743 0.0093075975   -4.5850405    1.1272662   439061 
 4492000   0.75084659    -4.582745    -4.582745   -3.4564777  0.011227246    -4.582745    1.1262673   439061 
 4493000   0.75107567   -4.5837031   -4.5837031   -3.4570922 0.0085714501   -4.5837031    1.1266109   439061 
 4494000   0.75039202   -4.5834373   -4.5834373   -3.4578518  0.011068726   -4.5834373    1.1255855   439061 
 4495000   0.74897005   -4.5817349   -4.5817349   -3.4582823  0.011480781   -4.5817349    1.1234525   439061 
 4496000   0.74945761   -4.5816063   -4.5816063   -3.4574225  0.011994674   -4.5816063    1.1241839   439061 
 4497000   0.75027324     -4.58306     -4.58306   -3.4576527 0.0073936392     -4.58306    1.1254073   439061 
 4498000   0.74982582     -4.58338     -4.58338   -3.4586438 0.0035944333     -4.58338    1.1247362   439061 
 4499000   0.75143328   -4.5838447   -4.5838447   -3.4566973 0.0063090726   -4.5838447    1.1271473   439061 
 4500000    0.7505719   -4.5834989   -4.5834989   -3.4576436  0.014067383   -4.5834989    1.1258553   439061 
 4501000   0.75053698   -4.5828127   -4.5828127   -3.4570098  0.012504618   -4.5828127    1.1258029   439061 
 4502000   0.75133899    -4.583675    -4.583675   -3.4566691 0.0067052846    -4.583675    1.1270059   439061 
 4503000    0.7508815   -4.5842088   -4.5842088   -3.4578891   0.01021946   -4.5842088    1.1263197   439061 
 4504000   0.75025424   -4.5843157   -4.5843157   -3.4589369 0.0092183008   -4.5843157    1.1253788   439061 
 4505000   0.74998937   -4.5834405   -4.5834405    -3.458459  0.010855804   -4.5834405    1.1249815   439061 
 4506000    0.7504231   -4.5842674   -4.5842674   -3.4586353 0.0096211142   -4.5842674    1.1256321   439061 
 4507000   0.74967822   -4.5832905   -4.5832905   -3.4587757 0.0060766514   -4.5832905    1.1245148   439061 
 4508000   0.74998998   -4.5833568   -4.5833568   -3.4583744 0.0074361246   -4.5833568    1.1249824   439061 
 4509000   0.74989071   -4.5825445   -4.5825445    -3.457711 0.0070155305   -4.5825445    1.1248335   439061 
 4510000   0.75091551   -4.5821051   -4.5821051   -3.4557344  0.014305222   -4.5821051    1.1263707   439061 
 4511000   0.75099355   -4.5816435   -4.5816435   -3.4551557  0.016295401   -4.5816435    1.1264878   439061 
 4512000   0.75055362   -4.5820977   -4.5820977   -3.4562698  0.013517681   -4.5820977    1.1258279   439061 
 4513000    0.7509705   -4.5822462   -4.5822462    -3.455793  0.010642444   -4.5822462    1.1264532   439061 
 4514000   0.75080984   -4.5825624   -4.5825624   -3.4563502 0.0071757712   -4.5825624    1.1262122   439061 
 4515000   0.74984432   -4.5810495   -4.5810495   -3.4562856 0.0092738302   -4.5810495    1.1247639   439061 
 4516000   0.75047634   -4.5826112   -4.5826112   -3.4568992 0.0082280784   -4.5826112    1.1257119   439061 
 4517000   0.75052287   -4.5822568   -4.5822568   -3.4564751 0.0067081863   -4.5822568    1.1257817   439061 
 4518000   0.75026715   -4.5811516   -4.5811516   -3.4557534 0.0071988405   -4.5811516    1.1253982   439061 
 4519000   0.75107353   -4.5827025   -4.5827025   -3.4560948 0.0052771202   -4.5827025    1.1266077   439061 
 4520000   0.75036856   -4.5809447   -4.5809447   -3.4553944  0.010477588   -4.5809447    1.1255503   439061 
 4521000   0.75131958   -4.5812247   -4.5812247   -3.4542478   0.01428785   -4.5812247    1.1269768   439061 
 4522000   0.75257855   -4.5822937   -4.5822937   -3.4534284 0.0092658251   -4.5822937    1.1288653   439061 
 4523000   0.75162383   -4.5814351   -4.5814351    -3.454002  0.015181256   -4.5814351    1.1274332   439061 
 4524000   0.75110089   -4.5814953   -4.5814953   -3.4548465 0.0064210322   -4.5814953    1.1266488   439061 
 4525000   0.75107069   -4.5816354   -4.5816354   -3.4550319  0.011545596   -4.5816354    1.1266035   439061 
 4526000   0.75077007   -4.5818579   -4.5818579   -3.4557054  0.008592693   -4.5818579    1.1261525   439061 
 4527000   0.75042249   -4.5814314   -4.5814314   -3.4558002 0.0094685604   -4.5814314    1.1256312   439061 
 4528000   0.75091882   -4.5814528   -4.5814528   -3.4550771  0.011719324   -4.5814528    1.1263757   439061 
 4529000   0.75181079   -4.5815865   -4.5815865   -3.4538729 0.0095419738   -4.5815865    1.1277136   439061 
 4530000   0.75070519   -4.5805484   -4.5805484   -3.4544932  0.011765373   -4.5805484    1.1260552   439061 
 4531000   0.74998176   -4.5799401   -4.5799401     -3.45497 0.0082921244   -4.5799401    1.1249701   439061 
 4532000   0.75005863   -4.5798587   -4.5798587   -3.4547733 0.0087837144   -4.5798587    1.1250854   439061 
 4533000   0.75084454   -4.5818662   -4.5818662   -3.4556019 0.0065333994   -4.5818662    1.1262642   439061 
 4534000   0.75047301   -4.5822357   -4.5822357   -3.4565287  0.005689085   -4.5822357    1.1257069   439061 
 4535000    0.7505135   -4.5823134   -4.5823134   -3.4565457 0.0050514886   -4.5823134    1.1257677   439061 
 4536000   0.75099453   -4.5829732   -4.5829732    -3.456484   0.01005296   -4.5829732    1.1264892   439061 
 4537000    0.7501984   -4.5829016   -4.5829016   -3.4576065  0.013413103   -4.5829016     1.125295   439061 
 4538000   0.75024616   -4.5819795   -4.5819795   -3.4566128  0.011362106   -4.5819795    1.1253667   439061 
 4539000   0.75058766   -4.5829484   -4.5829484   -3.4570695  0.011841887   -4.5829484    1.1258789   439061 
 4540000    0.7512722   -4.5842382   -4.5842382   -3.4573324  0.008876322   -4.5842382    1.1269057   439061 
 4541000   0.75194744   -4.5846145   -4.5846145    -3.456696  0.013864525   -4.5846145    1.1279186   439061 
 4542000   0.75052915   -4.5837198   -4.5837198   -3.4579287  0.012384562   -4.5837198    1.1257912   439061 
 4543000   0.75102643   -4.5853234   -4.5853234   -3.4587863   0.01104652   -4.5853234    1.1265371   439061 
 4544000   0.75067506   -4.5841673   -4.5841673   -3.4581573 0.0072639774   -4.5841673      1.12601   439061 
 4545000   0.75051843   -4.5833946   -4.5833946   -3.4576195 0.0087523594   -4.5833946    1.1257751   439061 
 4546000   0.75047404   -4.5842166   -4.5842166   -3.4585081 0.0058374053   -4.5842166    1.1257085   439061 
 4547000   0.74882936   -4.5817666   -4.5817666   -3.4585251  0.010619957   -4.5817666    1.1232415   439061 
 4548000   0.74987653   -4.5832632   -4.5832632    -3.458451  0.011228168   -4.5832632    1.1248122   439061 
 4549000   0.74941254   -4.5819069   -4.5819069   -3.4577906  0.013129544   -4.5819069    1.1241163   439061 
 4550000   0.75086996   -4.5836629   -4.5836629   -3.4573606 0.0069072788   -4.5836629    1.1263024   439061 
 4551000    0.7506397   -4.5839042   -4.5839042   -3.4579472   0.01316996   -4.5839042     1.125957   439061 
 4552000   0.75051949    -4.584177    -4.584177   -3.4584003 0.0069635937    -4.584177    1.1257767   439061 
 4553000   0.75000666   -4.5829344   -4.5829344   -3.4579269 0.0092732799   -4.5829344    1.1250074   439061 
 4554000    0.7501986   -4.5834295   -4.5834295   -3.4581342  0.013596524   -4.5834295    1.1252953   439061 
 4555000   0.74989907    -4.582874    -4.582874   -3.4580279  0.015689261    -4.582874     1.124846   439061 
 4556000   0.75065652   -4.5841784   -4.5841784   -3.4581962 0.0080803324   -4.5841784    1.1259822   439061 
 4557000   0.75016613   -4.5836053   -4.5836053   -3.4583587 0.0090391004   -4.5836053    1.1252466   439061 
 4558000   0.75147445   -4.5849639   -4.5849639   -3.4577548  0.011740526   -4.5849639    1.1272091   439061 
 4559000   0.75070297    -4.582909    -4.582909   -3.4568571  0.012355333    -4.582909    1.1260519   439061 
 4560000   0.75086638   -4.5836497   -4.5836497   -3.4573527  0.010987553   -4.5836497     1.126297   439061 
 4561000   0.75134503   -4.5837609   -4.5837609   -3.4567459 0.0094158012   -4.5837609     1.127015   439061 
 4562000   0.75016504   -4.5823993   -4.5823993   -3.4571543  0.010079252   -4.5823993     1.125245   439061 
 4563000   0.75011228   -4.5817538   -4.5817538   -3.4565879  0.010768589   -4.5817538    1.1251659   439061 
 4564000   0.75041853   -4.5835629   -4.5835629   -3.4579377 0.0043023382   -4.5835629    1.1256252   439061 
 4565000   0.74897483   -4.5822462   -4.5822462   -3.4587865 0.0063608021   -4.5822462    1.1234597   439061 
 4566000    0.7502697   -4.5830877   -4.5830877   -3.4576857 0.0048614078   -4.5830877     1.125402   439061 
 4567000    0.7507823   -4.5834117   -4.5834117   -3.4572408 0.0096470917   -4.5834117    1.1261709   439061 
 4568000   0.75043076   -4.5832236   -4.5832236     -3.45758 0.0067181367   -4.5832236    1.1256436   439061 
 4569000   0.75013758   -4.5834032   -4.5834032   -3.4581993  0.013551619   -4.5834032    1.1252038   439061 
 4570000   0.75149838   -4.5849307   -4.5849307   -3.4576857  0.012402999   -4.5849307     1.127245   439061 
 4571000    0.7512662   -4.5848966   -4.5848966   -3.4579999  0.010495744   -4.5848966    1.1268967   439061 
 4572000   0.75003971   -4.5833309   -4.5833309   -3.4582739  0.013534305   -4.5833309     1.125057   439061 
 4573000    0.7514259   -4.5861282   -4.5861282   -3.4589919 0.0094091852   -4.5861282    1.1271363   439061 
 4574000   0.74953714   -4.5838474   -4.5838474   -3.4595443  0.016048265   -4.5838474    1.1243031   439061 
 4575000    0.7505496   -4.5842406   -4.5842406   -3.4584188  0.012255481   -4.5842406    1.1258218   439061 
 4576000   0.75090376    -4.584504    -4.584504   -3.4581509  0.011074787    -4.584504    1.1263531   439061 
 4577000   0.74962866   -4.5830708   -4.5830708   -3.4586304  0.012509326   -4.5830708    1.1244404   439061 
 4578000   0.75007437   -4.5834455   -4.5834455   -3.4583365 0.0065420827   -4.5834455     1.125109   439061 
 4579000   0.75115231   -4.5841083   -4.5841083   -3.4573824  0.010336991   -4.5841083    1.1267259   439061 
 4580000   0.75102698   -4.5831829   -4.5831829    -3.456645  0.005828337   -4.5831829    1.1265379   439061 
 4581000   0.74926777   -4.5811752   -4.5811752   -3.4572761 0.0070959462   -4.5811752    1.1238991   439061 
 4582000   0.74912373   -4.5813609   -4.5813609   -3.4576779 0.0073131727   -4.5813609     1.123683   439061 
 4583000   0.75078595   -4.5832522   -4.5832522   -3.4570758  0.004683939   -4.5832522    1.1261764   439061 
 4584000   0.74951705   -4.5816986   -4.5816986   -3.4574256 0.0062699049   -4.5816986     1.124273   439061 
 4585000   0.74910882   -4.5819923   -4.5819923   -3.4583317 0.0076764439   -4.5819923    1.1236607   439061 
 4586000   0.74938828   -4.5818234   -4.5818234   -3.4577436 0.0093249413   -4.5818234    1.1240799   439061 
 4587000   0.75218733   -4.5851999   -4.5851999   -3.4569215 0.0091704517   -4.5851999    1.1282784   439061 
 4588000   0.75195734   -4.5843185   -4.5843185   -3.4563851 0.0093475089   -4.5843185    1.1279334   439061 
 4589000   0.75114247     -4.58188     -4.58188   -3.4551688  0.015903682     -4.58188    1.1267111   439061 
 4590000   0.75181147   -4.5827911   -4.5827911   -3.4550764  0.016994217   -4.5827911    1.1277146   439061 
 4591000   0.75110993   -4.5829085   -4.5829085   -3.4562462  0.013642279   -4.5829085    1.1266623   439061 
 4592000   0.75098711   -4.5822621   -4.5822621    -3.455784  0.014404885   -4.5822621    1.1264781   439061 
 4593000   0.75087176   -4.5836856   -4.5836856   -3.4573805 0.0049003001   -4.5836856    1.1263051   439061 
 4594000   0.75047865   -4.5822219   -4.5822219   -3.4565065  0.012379575   -4.5822219    1.1257154   439061 
 4595000   0.74984269   -4.5803203   -4.5803203   -3.4555589 0.0078148889   -4.5803203    1.1247615   439061 
 4596000   0.74849026   -4.5801511   -4.5801511   -3.4574182 0.0032141631   -4.5801511    1.1227328   439061 
 4597000   0.75040199   -4.5830623   -4.5830623   -3.4574619 0.0020244033   -4.5830623    1.1256004   439061 
 4598000   0.75080342   -4.5827048   -4.5827048   -3.4565023 0.0029517524   -4.5827048    1.1262026   439061 
 4599000   0.74979075   -4.5817573   -4.5817573   -3.4570738 0.0025731665   -4.5817573    1.1246836   439061 
 4600000    0.7506779   -4.5821331   -4.5821331   -3.4561189 0.0044567866   -4.5821331    1.1260143   439061 
 4601000   0.75005351    -4.580963    -4.580963   -3.4558853  0.011427639    -4.580963    1.1250777   439061 
 4602000   0.75178158    -4.584373    -4.584373   -3.4567032  0.010143845    -4.584373    1.1276698   439061 
 4603000   0.75192833   -4.5848847   -4.5848847   -3.4569948 0.0084509555   -4.5848847    1.1278899   439061 
 4604000   0.75236209   -4.5853493   -4.5853493   -3.4568087  0.011910353   -4.5853493    1.1285406   439061 
 4605000   0.75108834   -4.5851631   -4.5851631   -3.4585332  0.011278598   -4.5851631    1.1266299   439061 
 4606000   0.75012123   -4.5845708   -4.5845708   -3.4593915  0.013330336   -4.5845708    1.1251793   439061 
 4607000   0.75021604   -4.5854775   -4.5854775    -3.460156 0.0049146295   -4.5854775    1.1253215   439061 
 4608000    0.7513832   -4.5862926   -4.5862926   -3.4592204 0.0051336202   -4.5862926    1.1270722   439061 
 4609000    0.7506527   -4.5831951   -4.5831951   -3.4572186  0.015814325   -4.5831951    1.1259765   439061 
 4610000   0.75213762   -4.5860831   -4.5860831   -3.4578792 0.0092917763   -4.5860831    1.1282039   439061 
 4611000   0.75152261   -4.5845445   -4.5845445   -3.4572631  0.011631238   -4.5845445    1.1272813   439061 
 4612000    0.7516044   -4.5850742   -4.5850742   -3.4576702  0.011742139   -4.5850742     1.127404   439061 
 4613000   0.75076746   -4.5826785   -4.5826785   -3.4565299 0.0083163644   -4.5826785    1.1261486   439061 
 4614000   0.75106175   -4.5836969   -4.5836969   -3.4571068 0.0079842417   -4.5836969    1.1265901   439061 
 4615000   0.75013322   -4.5822984   -4.5822984   -3.4571011 0.0026581377   -4.5822984    1.1251973   439061 
 4616000    0.7500095   -4.5819958   -4.5819958   -3.4569841 0.0054198976   -4.5819958    1.1250117   439061 
 4617000   0.75044527   -4.5819633   -4.5819633    -3.456298 0.0058834915   -4.5819633    1.1256653   439061 
 4618000    0.7495303   -4.5796167   -4.5796167   -3.4553238  0.011413479   -4.5796167    1.1242929   439061 
 4619000   0.75004307   -4.5793275   -4.5793275   -3.4542654  0.010988262   -4.5793275     1.125062   439061 
 4620000   0.75197858   -4.5824637   -4.5824637   -3.4544984 0.0053959967   -4.5824637    1.1279653   439061 
 4621000   0.75120823   -4.5809909   -4.5809909   -3.4541811   0.01147559   -4.5809909    1.1268098   439061 
 4622000   0.75165601   -4.5812131   -4.5812131   -3.4537317 0.0090066217   -4.5812131    1.1274814   439061 
 4623000   0.75189938   -4.5820424   -4.5820424   -3.4541959  0.005353721   -4.5820424    1.1278465   439061 
 4624000   0.75031955   -4.5811532   -4.5811532   -3.4556764 0.0095023695   -4.5811532    1.1254768   439061 
 4625000   0.75069829   -4.5813912   -4.5813912   -3.4553464 0.0073541729   -4.5813912    1.1260449   439061 
 4626000    0.7505963   -4.5808496   -4.5808496   -3.4549577 0.0079963957   -4.5808496    1.1258919   439061 
 4627000   0.75089329   -4.5819228   -4.5819228   -3.4555854 0.0094375073   -4.5819228    1.1263374   439061 
 4628000   0.75174267    -4.582855    -4.582855   -3.4552435  0.010341656    -4.582855    1.1276114   439061 
 4629000   0.75168453    -4.582959    -4.582959   -3.4554348 0.0078682271    -4.582959    1.1275242   439061 
 4630000   0.75170025   -4.5825118   -4.5825118    -3.454964  0.010911199   -4.5825118    1.1275478   439061 
 4631000   0.75088766   -4.5817686   -4.5817686   -3.4554396  0.006780817   -4.5817686    1.1263289   439061 
 4632000   0.75010007   -4.5825393   -4.5825393   -3.4573917 0.0089660858   -4.5825393    1.1251475   439061 
 4633000   0.75077411   -4.5837394   -4.5837394   -3.4575808 0.0064706986   -4.5837394    1.1261586   439061 
 4634000   0.75249501   -4.5866372   -4.5866372   -3.4578972 0.0048412296   -4.5866372    1.1287399   439061 
 4635000   0.75184113   -4.5847126   -4.5847126   -3.4569534 0.0080735087   -4.5847126    1.1277591   439061 
 4636000   0.75092642   -4.5834804   -4.5834804   -3.4570934 0.0071711952   -4.5834804    1.1263871   439061 
 4637000   0.75174006   -4.5857487   -4.5857487   -3.4581411  0.010450591   -4.5857487    1.1276075   439061 
 4638000   0.75123406   -4.5846361   -4.5846361   -3.4577876 0.0099620395   -4.5846361    1.1268485   439061 
 4639000   0.75125182   -4.5839882   -4.5839882   -3.4571131  0.013566603   -4.5839882    1.1268752   439061 
 4640000   0.75115421   -4.5840381   -4.5840381   -3.4573093  0.012378122   -4.5840381    1.1267288   439061 
 4641000   0.75120938   -4.5827637   -4.5827637   -3.4559522  0.011417785   -4.5827637    1.1268115   439061 
 4642000   0.75118141    -4.583772    -4.583772   -3.4570025 0.0063595219    -4.583772    1.1267696   439061 
 4643000   0.75011517   -4.5817859   -4.5817859   -3.4566157  0.004508044   -4.5817859    1.1251702   439061 
 4644000   0.75070181   -4.5821326   -4.5821326   -3.4560825 0.0061829848   -4.5821326    1.1260501   439061 
 4645000   0.74986762   -4.5810906   -4.5810906   -3.4562918 0.0041570615   -4.5810906    1.1247989   439061 
 4646000   0.75075438   -4.5822195   -4.5822195   -3.4560905 0.0031286804   -4.5822195     1.126129   439061 
 4647000   0.75063262   -4.5806192   -4.5806192   -3.4546729 0.0086894213   -4.5806192    1.1259464   439061 
 4648000   0.75151595   -4.5820963   -4.5820963   -3.4548249  0.008483179   -4.5820963    1.1272714   439061 
 4649000   0.75117778    -4.581318    -4.581318   -3.4545539 0.0078787918    -4.581318    1.1267641   439061 
 4650000   0.75139841   -4.5820318   -4.5820318   -3.4549367  0.010220214   -4.5820318     1.127095   439061 
 4651000   0.75024487   -4.5807888   -4.5807888   -3.4554241  0.010992566   -4.5807888    1.1253647   439061 
 4652000   0.75061742   -4.5816288   -4.5816288   -3.4557052  0.012304831   -4.5816288    1.1259236   439061 
 4653000   0.75149408   -4.5832357   -4.5832357   -3.4559971  0.012099173   -4.5832357    1.1272386   439061 
 4654000   0.75133293   -4.5820401   -4.5820401   -3.4550433  0.011370625   -4.5820401    1.1269968   439061 
 4655000   0.75199768   -4.5824399   -4.5824399   -3.4544459  0.016309957   -4.5824399     1.127994   439061 
 4656000   0.75067745   -4.5815539   -4.5815539   -3.4555403  0.013076197   -4.5815539    1.1260136   439061 
 4657000   0.75055997   -4.5826128   -4.5826128   -3.4567754 0.0082164232   -4.5826128    1.1258374   439061 
 4658000   0.74947192   -4.5818915   -4.5818915   -3.4576862 0.0090203773   -4.5818915    1.1242053   439061 
 4659000   0.74970337   -4.5812818   -4.5812818   -3.4567294   0.01148747   -4.5812818    1.1245525   439061 
 4660000    0.7499697   -4.5816848   -4.5816848   -3.4567328 0.0087986415   -4.5816848     1.124952   439061 
 4661000   0.75005931   -4.5815305   -4.5815305   -3.4564441  0.010312696   -4.5815305    1.1250864   439061 
 4662000   0.75052246   -4.5825716   -4.5825716   -3.4567905  0.011281257   -4.5825716    1.1257811   439061 
 4663000   0.75021234   -4.5828832   -4.5828832   -3.4575673 0.0057617607   -4.5828832    1.1253159   439061 
 4664000    0.7497477   -4.5812545   -4.5812545   -3.4566355 0.0088730957   -4.5812545     1.124619   439061 
 4665000   0.75073097   -4.5825279   -4.5825279    -3.456434 0.0054332893   -4.5825279    1.1260939   439061 
 4666000   0.74940982   -4.5809273   -4.5809273   -3.4568152 0.0078853352   -4.5809273    1.1241122   439061 
 4667000   0.75047498   -4.5823595   -4.5823595   -3.4566495 0.0088548092   -4.5823595    1.1257099   439061 
 4668000   0.75143042   -4.5838569   -4.5838569   -3.4567139  0.010578839   -4.5838569    1.1271431   439061 
 4669000   0.74991678   -4.5813589   -4.5813589   -3.4564863  0.012841413   -4.5813589    1.1248726   439061 
 4670000    0.7510411   -4.5835378   -4.5835378   -3.4569787  0.011115284   -4.5835378    1.1265591   439061 
 4671000   0.75017917    -4.582568    -4.582568   -3.4573019  0.013413752    -4.582568    1.1252662   439061 
 4672000   0.75111077   -4.5832746   -4.5832746    -3.456611  0.014140932   -4.5832746    1.1266636   439061 
 4673000   0.75100974   -4.5840682   -4.5840682   -3.4575561  0.012960472   -4.5840682     1.126512   439061 
 4674000    0.7505474   -4.5843173   -4.5843173   -3.4584988 0.0088858217   -4.5843173    1.1258185   439061 
 4675000   0.75030728    -4.584621    -4.584621   -3.4591627 0.0045525544    -4.584621    1.1254584   439061 
 4676000   0.75062533    -4.584064    -4.584064   -3.4581286 0.0097297413    -4.584064    1.1259354   439061 
 4677000     0.749909   -4.5826321   -4.5826321   -3.4577712 0.0064561335   -4.5826321    1.1248609   439061 
 4678000   0.75073802   -4.5840128   -4.5840128   -3.4579083 0.0069833536   -4.5840128    1.1261045   439061 
 4679000   0.75091308    -4.586105    -4.586105    -3.459738 0.0063805176    -4.586105    1.1263671   439061 
 4680000   0.74971365    -4.584616    -4.584616   -3.4600481  0.008792975    -4.584616    1.1245679   439061 
 4681000   0.74995919   -4.5841205   -4.5841205   -3.4591843 0.0081763369   -4.5841205    1.1249362   439061 
 4682000   0.75097397    -4.584795    -4.584795   -3.4583366 0.0088192765    -4.584795    1.1264584   439061 
 4683000   0.74965189   -4.5837235   -4.5837235   -3.4592482  0.010172332   -4.5837235    1.1244753   439061 
 4684000   0.75060933   -4.5845962   -4.5845962   -3.4586847  0.011379224   -4.5845962    1.1259114   439061 
 4685000   0.75150551    -4.586001    -4.586001   -3.4587453   0.01221665    -4.586001    1.1272557   439061 
 4686000   0.75144239   -4.5853185   -4.5853185   -3.4581575  0.010661907   -4.5853185     1.127161   439061 
 4687000   0.75043223   -4.5853538   -4.5853538    -3.459708 0.0096261106   -4.5853538    1.1256458   439061 
 4688000   0.75003971   -4.5848072   -4.5848072   -3.4597502  0.013896434   -4.5848072     1.125057   439061 
 4689000   0.75043032   -4.5861286   -4.5861286   -3.4604857  0.011256811   -4.5861286    1.1256429   439061 
 4690000   0.75083951   -4.5859299   -4.5859299   -3.4596732 0.0073179848   -4.5859299    1.1262567   439061 
 4691000   0.75058064   -4.5840185   -4.5840185   -3.4581501  0.016571242   -4.5840185    1.1258684   439061 
 4692000   0.75083965   -4.5857773   -4.5857773   -3.4595204 0.0081828097   -4.5857773    1.1262569   439061 
 4693000   0.74989136    -4.583921    -4.583921   -3.4590865 0.0092031202    -4.583921    1.1248345   439061 
 4694000   0.74954141   -4.5825015   -4.5825015    -3.458192  0.010310293   -4.5825015    1.1243096   439061 
 4695000   0.74997479   -4.5837225   -4.5837225   -3.4587629 0.0068031835   -4.5837225    1.1249596   439061 
 4696000   0.75019356   -4.5836523   -4.5836523   -3.4583645  0.004685609   -4.5836523    1.1252878   439061 
 4697000   0.74908355   -4.5826401   -4.5826401   -3.4590174 0.0069854992   -4.5826401    1.1236228   439061 
 4698000    0.7502152   -4.5834192   -4.5834192   -3.4580989  0.007669528   -4.5834192    1.1253202   439061 
 4699000   0.74971547   -4.5823791   -4.5823791   -3.4578085  0.010531128   -4.5823791    1.1245706   439061 
 4700000   0.74964781    -4.583309    -4.583309   -3.4588398 0.0083562476    -4.583309    1.1244692   439061 
 4701000    0.7493464   -4.5830845   -4.5830845   -3.4590674  0.010433162   -4.5830845     1.124017   439061 
 4702000   0.74937579   -4.5835461   -4.5835461    -3.459485   0.01568133   -4.5835461    1.1240611   439061 
 4703000   0.74995747   -4.5850826   -4.5850826   -3.4601489 0.0099435328   -4.5850826    1.1249336   439061 
 4704000   0.75024065    -4.585524    -4.585524   -3.4601656  0.010351252    -4.585524    1.1253584   439061 
 4705000   0.75203827   -4.5862286   -4.5862286   -3.4581738  0.013386503   -4.5862286    1.1280548   439061 
 4706000   0.75058026    -4.584596    -4.584596   -3.4587282  0.014677988    -4.584596    1.1258678   439061 
 4707000   0.75224857   -4.5871687   -4.5871687   -3.4587984  0.013701395   -4.5871687    1.1283703   439061 
 4708000   0.75066425   -4.5854386   -4.5854386   -3.4594448  0.012235967   -4.5854386    1.1259938   439061 
 4709000   0.75041995   -4.5852573   -4.5852573     -3.45963 0.0065891687   -4.5852573    1.1256274   439061 
 4710000   0.75002378   -4.5856036   -4.5856036   -3.4605705 0.0052498423   -4.5856036    1.1250331   439061 
 4711000   0.75003227   -4.5849744   -4.5849744   -3.4599286 0.0093620005   -4.5849744    1.1250458   439061 
 4712000   0.75040149   -4.5851548   -4.5851548   -3.4595551 0.0061555993   -4.5851548    1.1255997   439061 
 4713000   0.75001233    -4.583854    -4.583854    -3.458838  0.010821384    -4.583854    1.1250159   439061 
 4714000    0.7510842   -4.5851694   -4.5851694   -3.4585457 0.0050445862   -4.5851694    1.1266237   439061 
 4715000   0.74958173   -4.5832944   -4.5832944   -3.4589243 0.0069288896   -4.5832944      1.12437   439061 
 4716000   0.74884576    -4.582965    -4.582965   -3.4596989 0.0025730615    -4.582965    1.1232661   439061 
 4717000   0.75002361   -4.5839597   -4.5839597   -3.4589269  0.010885367   -4.5839597    1.1250329   439061 
 4718000   0.74993951   -4.5835339   -4.5835339   -3.4586272  0.007029848   -4.5835339    1.1249067   439061 
 4719000   0.74969535   -4.5846628   -4.5846628   -3.4601224 0.0045104101   -4.5846628    1.1245405   439061 
 4720000   0.74967023   -4.5834963   -4.5834963   -3.4589935  0.010104807   -4.5834963    1.1245028   439061 
 4721000   0.74966489   -4.5836867   -4.5836867   -3.4591919 0.0068241459   -4.5836867    1.1244948   439061 
 4722000   0.75064812    -4.582996    -4.582996   -3.4570264  0.012180179    -4.582996    1.1259696   439061 
 4723000   0.75148312   -4.5839519   -4.5839519   -3.4567298  0.016598181   -4.5839519    1.1272221   439061 
 4724000   0.75102849   -4.5836783   -4.5836783   -3.4571381  0.015274281   -4.5836783    1.1265402   439061 
 4725000   0.75059485   -4.5836145   -4.5836145   -3.4577247 0.0093573531   -4.5836145    1.1258897   439061 
 4726000    0.7505832   -4.5827659   -4.5827659   -3.4568937  0.012009558   -4.5827659    1.1258722   439061 
 4727000   0.75058182    -4.582174    -4.582174   -3.4563039  0.012168437    -4.582174    1.1258702   439061 
 4728000   0.75008192   -4.5819193   -4.5819193    -3.456799  0.014731092   -4.5819193    1.1251203   439061 
 4729000   0.74934736   -4.5809742   -4.5809742   -3.4569557  0.011948435   -4.5809742    1.1240185   439061 
 4730000     0.749046   -4.5797666   -4.5797666   -3.4562001 0.0087224597   -4.5797666    1.1235664   439061 
 4731000   0.74909607   -4.5804078   -4.5804078   -3.4567662 0.0081278084   -4.5804078    1.1236415   439061 
 4732000   0.74947851   -4.5814552   -4.5814552     -3.45724 0.0034781505   -4.5814552    1.1242152   439061 
 4733000   0.74993662   -4.5816471   -4.5816471   -3.4567448 0.0033560178   -4.5816471    1.1249024   439061 
 4734000   0.75066098   -4.5813855   -4.5813855   -3.4553965  0.011269119   -4.5813855    1.1259889   439061 
 4735000   0.75001507   -4.5813689   -4.5813689   -3.4563489  0.008043614   -4.5813689      1.12502   439061 
 4736000   0.75135542   -4.5834625   -4.5834625   -3.4564319 0.0067594836   -4.5834625    1.1270306   439061 
 4737000   0.75073671   -4.5824981   -4.5824981   -3.4563956 0.0098157646   -4.5824981    1.1261025   439061 
 4738000   0.75126517   -4.5830155   -4.5830155   -3.4561203  0.010352682   -4.5830155    1.1268952   439061 
 4739000   0.75211514    -4.583835    -4.583835   -3.4556648  0.016477651    -4.583835    1.1281701   439061 
 4740000   0.75077871    -4.583348    -4.583348   -3.4571825  0.016798559    -4.583348    1.1261655   439061 
 4741000   0.75153697   -4.5841537   -4.5841537   -3.4568508  0.012372822   -4.5841537    1.1273029   439061 
 4742000   0.75144696   -4.5836015   -4.5836015   -3.4564336  0.014799942   -4.5836015    1.1271679   439061 
 4743000   0.74941848   -4.5819142   -4.5819142    -3.457789 0.0098134634   -4.5819142    1.1241252   439061 
 4744000   0.75062996    -4.583253    -4.583253   -3.4573106 0.0091735412    -4.583253    1.1259424   439061 
 4745000   0.74945957   -4.5819852   -4.5819852   -3.4577984 0.0099111191   -4.5819852    1.1241868   439061 
 4746000   0.74896945   -4.5812246   -4.5812246    -3.457773  0.010269709   -4.5812246    1.1234516   439061 
 4747000   0.74936309     -4.58137     -4.58137   -3.4573279 0.0062469992     -4.58137    1.1240421   439061 
 4748000   0.74950686   -4.5811698   -4.5811698   -3.4569121 0.0075401206   -4.5811698    1.1242577   439061 
 4749000   0.74870423   -4.5797216   -4.5797216   -3.4566678 0.0078918321   -4.5797216    1.1230538   439061 
 4750000   0.75037921   -4.5821625   -4.5821625   -3.4565962 0.0053172917   -4.5821625    1.1255663   439061 
 4751000   0.74889269   -4.5806185   -4.5806185   -3.4572821 0.0080740154   -4.5806185    1.1233365   439061 
 4752000   0.74910742    -4.580539    -4.580539   -3.4568804  0.011581151    -4.580539    1.1236586   439061 
 4753000   0.75018509   -4.5813207   -4.5813207   -3.4560456   0.01265478   -4.5813207    1.1252751   439061 
 4754000   0.75054234   -4.5824305   -4.5824305   -3.4566196 0.0073019463   -4.5824305    1.1258109   439061 
 4755000   0.75083971    -4.583154    -4.583154    -3.456897  0.014515941    -4.583154     1.126257   439061 
 4756000   0.75143359   -4.5839865   -4.5839865   -3.4568386  0.010651064   -4.5839865    1.1271478   439061 
 4757000   0.75146506   -4.5847121   -4.5847121   -3.4575171 0.0084888463   -4.5847121     1.127195   439061 
 4758000   0.75080503   -4.5847205   -4.5847205   -3.4585155 0.0088187021   -4.5847205     1.126205   439061 
 4759000   0.75040858   -4.5847087   -4.5847087   -3.4590983  0.012585558   -4.5847087    1.1256103   439061 
 4760000   0.75150285   -4.5854353   -4.5854353   -3.4581835 0.0084271092   -4.5854353    1.1272517   439061 
 4761000   0.75168944   -4.5854521   -4.5854521   -3.4579206  0.012344283   -4.5854521    1.1275316   439061 
 4762000    0.7506153   -4.5847606   -4.5847606   -3.4588402 0.0098625879   -4.5847606    1.1259204   439061 
 4763000   0.74964286   -4.5837348   -4.5837348   -3.4592731  0.010056024   -4.5837348    1.1244617   439061 
 4764000   0.74980835   -4.5832171   -4.5832171   -3.4585072  0.010700469   -4.5832171      1.12471   439061 
 4765000   0.75117794   -4.5844588   -4.5844588   -3.4576944 0.0082572016   -4.5844588    1.1267643   439061 
 4766000   0.75072787   -4.5843442   -4.5843442   -3.4582549  0.012564887   -4.5843442    1.1260892   439061 
 4767000   0.75027774   -4.5845373   -4.5845373   -3.4591232  0.007440301   -4.5845373     1.125414   439061 
 4768000   0.74907174   -4.5813514   -4.5813514   -3.4577464  0.011479624   -4.5813514    1.1236051   439061 
 4769000   0.75032755   -4.5824239   -4.5824239   -3.4569351  0.009088153   -4.5824239    1.1254888   439061 
 4770000   0.74993774   -4.5817706   -4.5817706   -3.4568665  0.011351729   -4.5817706    1.1249041   439061 
 4771000   0.75048986   -4.5829638   -4.5829638   -3.4572316  0.010364923   -4.5829638    1.1257322   439061 
 4772000   0.75188845    -4.585612    -4.585612   -3.4577819 0.0037868198    -4.585612    1.1278301   439061 
 4773000   0.74908743    -4.582405    -4.582405   -3.4587764 0.0057226702    -4.582405    1.1236286   439061 
 4774000   0.74961027   -4.5819151   -4.5819151   -3.4575023 0.0099472916   -4.5819151    1.1244128   439061 
 4775000   0.74999044   -4.5830045   -4.5830045   -3.4580214  0.010407076   -4.5830045    1.1249831   439061 
 4776000   0.75098376   -4.5840422   -4.5840422   -3.4575691 0.0069326403   -4.5840422    1.1264731   439061 
 4777000   0.75094409   -4.5843924   -4.5843924   -3.4579789 0.0073300554   -4.5843924    1.1264136   439061 
 4778000   0.75041595   -4.5839381   -4.5839381   -3.4583167  0.011518811   -4.5839381    1.1256214   439061 
 4779000   0.75001868   -4.5837414   -4.5837414   -3.4587159  0.013672536   -4.5837414    1.1250255   439061 
 4780000   0.75026456   -4.5845017   -4.5845017   -3.4591074 0.0066197253   -4.5845017    1.1253943   439061 
 4781000   0.75085149   -4.5845258   -4.5845258   -3.4582512 0.0096198019   -4.5845258    1.1262747   439061 
 4782000   0.75059243   -4.5855005   -4.5855005   -3.4596144  0.011051531   -4.5855005    1.1258861   439061 
 4783000   0.75105933   -4.5857748   -4.5857748   -3.4591884 0.0089464615   -4.5857748    1.1265864   439061 
 4784000   0.74990717   -4.5834862   -4.5834862    -3.458628  0.012195945   -4.5834862    1.1248582   439061 
 4785000   0.75064039   -4.5844308   -4.5844308   -3.4584728 0.0059713414   -4.5844308     1.125958   439061 
 4786000   0.75017022   -4.5843624   -4.5843624   -3.4591096 0.0094369503   -4.5843624    1.1252528   439061 
 4787000   0.74974772   -4.5840108   -4.5840108   -3.4593918 0.0072769944   -4.5840108     1.124619   439061 
 4788000   0.74997347   -4.5835805   -4.5835805   -3.4586228 0.0054658491   -4.5835805    1.1249576   439061 
 4789000    0.7489736   -4.5831215   -4.5831215   -3.4596636 0.0040308145   -4.5831215    1.1234578   439061 
 4790000   0.74864885   -4.5829656   -4.5829656   -3.4599949 0.0065423948   -4.5829656    1.1229707   439061 
 4791000   0.75035094   -4.5844724   -4.5844724   -3.4589485 0.0064227365   -4.5844724    1.1255238   439061 
 4792000   0.75060062   -4.5847207   -4.5847207   -3.4588223 0.0084328722   -4.5847207    1.1258984   439061 
 4793000   0.75097566   -4.5861783   -4.5861783   -3.4597174 0.0094471645   -4.5861783    1.1264609   439061 
 4794000    0.7500237   -4.5839963   -4.5839963   -3.4589634  0.013321341   -4.5839963     1.125033   439061 
 4795000   0.75022178   -4.5831172   -4.5831172   -3.4577871   0.01209323   -4.5831172    1.1253301   439061 
 4796000   0.75082083   -4.5849445   -4.5849445   -3.4587158 0.0088970059   -4.5849445    1.1262287   439061 
 4797000   0.74922853   -4.5832288   -4.5832288   -3.4593886 0.0095543627   -4.5832288    1.1238402   439061 
 4798000    0.7498507   -4.5825285   -4.5825285    -3.457755  0.014789363   -4.5825285    1.1247735   439061 
 4799000   0.74993778   -4.5822086   -4.5822086   -3.4573045  0.011415649   -4.5822086    1.1249041   439061 
 4800000   0.75090096   -4.5836503   -4.5836503   -3.4573015  0.013090498   -4.5836503    1.1263489   439061 
 4801000     0.750939   -4.5828846   -4.5828846   -3.4564787  0.011448788   -4.5828846    1.1264059   439061 
 4802000    0.7503582   -4.5824782   -4.5824782   -3.4569435 0.0076406015   -4.5824782    1.1255347   439061 
 4803000   0.74889735   -4.5818768   -4.5818768   -3.4585333 0.0063501663   -4.5818768    1.1233435   439061 
 4804000   0.74997894   -4.5824631   -4.5824631   -3.4574973 0.0082259834   -4.5824631    1.1249658   439061 
 4805000   0.74910136   -4.5839141   -4.5839141   -3.4602646 0.0030728101   -4.5839141    1.1236495   439061 
 4806000   0.74923091   -4.5828111   -4.5828111   -3.4589673  0.010357274   -4.5828111    1.1238438   439061 
 4807000   0.75129761   -4.5861321   -4.5861321   -3.4591883 -0.0011668806   -4.5861321    1.1269438   439061 
 4808000   0.74914099   -4.5830149   -4.5830149    -3.459306 0.0051914804   -4.5830149    1.1237089   439061 
 4809000   0.75070667   -4.5845477   -4.5845477   -3.4584903  0.012851643   -4.5845477    1.1260574   439061 
 4810000   0.75005801     -4.58417     -4.58417   -3.4590856  0.015781617     -4.58417    1.1250845   439061 
 4811000   0.75146475   -4.5859738   -4.5859738   -3.4587792  0.010471609   -4.5859738    1.1271946   439061 
 4812000   0.75098642   -4.5849296   -4.5849296   -3.4584526  0.013501547   -4.5849296    1.1264771   439061 
 4813000   0.74982801   -4.5833954   -4.5833954   -3.4586559  0.015017876   -4.5833954    1.1247395   439061 
 4814000    0.7516454   -4.5852343   -4.5852343   -3.4577688  0.012021541   -4.5852343    1.1274655   439061 
 4815000   0.75031651   -4.5841251   -4.5841251   -3.4586529  0.011128691   -4.5841251    1.1254722   439061 
 4816000   0.75153577   -4.5854539   -4.5854539   -3.4581528 0.0083967117   -4.5854539    1.1273011   439061 
 4817000   0.75017679   -4.5830395   -4.5830395   -3.4577769  0.010540547   -4.5830395    1.1252626   439061 
 4818000   0.74862103   -4.5816249   -4.5816249   -3.4586959  0.011566395   -4.5816249     1.122929   439061 
 4819000   0.75040828   -4.5830761   -4.5830761   -3.4574662 0.0075449985   -4.5830761    1.1256099   439061 
 4820000    0.7491192   -4.5817294   -4.5817294   -3.4580532 0.0051062676   -4.5817294    1.1236762   439061 
 4821000   0.74941282   -4.5834004   -4.5834004   -3.4592838  0.005026248   -4.5834004    1.1241167   439061 
 4822000   0.74941297    -4.582047    -4.582047   -3.4579301  0.011657433    -4.582047    1.1241169   439061 
 4823000   0.74966716   -4.5830432   -4.5830432    -3.458545 0.0078841798   -4.5830432    1.1244982   439061 
 4824000    0.7513841   -4.5846699   -4.5846699   -3.4575964  0.006933243   -4.5846699    1.1270736   439061 
 4825000   0.74984668    -4.583265    -4.583265   -3.4584975  0.012731405    -4.583265    1.1247675   439061 
 4826000   0.75034304   -4.5844558   -4.5844558   -3.4589438   0.01319447   -4.5844558     1.125512   439061 
 4827000   0.75043058   -4.5840791   -4.5840791   -3.4584358   0.01746247   -4.5840791    1.1256433   439061 
 4828000   0.75084584   -4.5862034   -4.5862034   -3.4599372 0.0085034615   -4.5862034    1.1262662   439061 
 4829000    0.7503994   -4.5864167   -4.5864167   -3.4608202 0.0058614778   -4.5864167    1.1255965   439061 
 4830000   0.74971101   -4.5856584   -4.5856584   -3.4610944  0.015323921   -4.5856584     1.124564   439061 
 4831000    0.7511205    -4.585551    -4.585551   -3.4588728  0.011810292    -4.585551    1.1266782   439061 
 4832000   0.74986904   -4.5844397   -4.5844397   -3.4596387  0.013724736   -4.5844397     1.124801   439061 
 4833000   0.74980528   -4.5842802   -4.5842802   -3.4595748  0.011424905   -4.5842802    1.1247054   439061 
 4834000   0.74907513   -4.5840863   -4.5840863   -3.4604761  0.010168258   -4.5840863    1.1236101   439061 
 4835000   0.75082507   -4.5853791   -4.5853791    -3.459144  0.001889371   -4.5853791     1.126235   439061 
 4836000   0.75005257   -4.5847755   -4.5847755   -3.4596992 0.0057607344   -4.5847755    1.1250763   439061 
 4837000   0.75017777   -4.5840991   -4.5840991    -3.458835  0.009515962   -4.5840991    1.1252641   439061 
 4838000   0.75076861   -4.5844118   -4.5844118   -3.4582614 0.0082778738   -4.5844118    1.1261503   439061 
 4839000   0.75074681   -4.5835663   -4.5835663   -3.4574486 0.0074806326   -4.5835663    1.1261177   439061 
 4840000   0.75005586   -4.5838453   -4.5838453    -3.458764  0.011238869   -4.5838453    1.1250812   439061 
 4841000   0.75083174   -4.5847759   -4.5847759   -3.4585308 0.0067011226   -4.5847759     1.126245   439061 
 4842000   0.75083869   -4.5836078   -4.5836078   -3.4573523 0.0079176614   -4.5836078    1.1262555   439061 
 4843000   0.74939549   -4.5821067   -4.5821067    -3.458016 0.0078242899   -4.5821067    1.1240907   439061 
 4844000   0.74952669   -4.5840651   -4.5840651   -3.4597776 0.0070690505   -4.5840651    1.1242875   439061 
 4845000   0.75049807   -4.5866118   -4.5866118   -3.4608673 0.0053983642   -4.5866118    1.1257445   439061 
 4846000   0.74982527   -4.5850987   -4.5850987   -3.4603633  0.010730261   -4.5850987    1.1247353   439061 
 4847000   0.75098525   -4.5865498   -4.5865498   -3.4600744  0.012112714   -4.5865498    1.1264753   439061 
 4848000   0.74947301   -4.5840364   -4.5840364   -3.4598295  0.017540151   -4.5840364     1.124207   439061 
 4849000   0.75058298   -4.5847416   -4.5847416   -3.4588697 0.0095031169   -4.5847416    1.1258719   439061 
 4850000   0.75120452   -4.5854303   -4.5854303   -3.4586261  0.015205353   -4.5854303    1.1268042   439061 
 4851000   0.75127486    -4.584614    -4.584614   -3.4577043  0.014906119    -4.584614    1.1269097   439061 
 4852000   0.75266107   -4.5857368   -4.5857368   -3.4567478  0.013083127   -4.5857368     1.128989   439061 
 4853000   0.75184119   -4.5845456   -4.5845456   -3.4567864  0.010010018   -4.5845456    1.1277592   439061 
 4854000   0.75046544   -4.5825993   -4.5825993   -3.4569037  0.010987022   -4.5825993    1.1256956   439061 
 4855000   0.74960163    -4.581486    -4.581486   -3.4570862 0.0059615895    -4.581486    1.1243999   439061 
 4856000   0.74993512   -4.5817914   -4.5817914   -3.4568913 0.0089919483   -4.5817914    1.1249001   439061 
 4857000    0.7487263    -4.581338    -4.581338   -3.4582511 0.0032953347    -4.581338    1.1230869   439061 
 4858000   0.74938518    -4.580981    -4.580981   -3.4569058 0.0035865603    -4.580981    1.1240752   439061 
 4859000   0.74905461   -4.5811109   -4.5811109   -3.4575316 0.00097517251   -4.5811109    1.1235793   439061 
 4860000   0.74870167   -4.5809507   -4.5809507   -3.4579008  0.007785355   -4.5809507    1.1230499   439061 
 4861000   0.75029496   -4.5834127   -4.5834127   -3.4579728 0.0069855651   -4.5834127    1.1254399   439061 
 4862000   0.75092306   -4.5837679   -4.5837679   -3.4573859  0.005784273   -4.5837679     1.126382   439061 
 4863000   0.75007915   -4.5828249   -4.5828249   -3.4577087  0.010633437   -4.5828249    1.1251162   439061 
 4864000   0.75155858   -4.5847865   -4.5847865   -3.4574512  0.010483732   -4.5847865    1.1273353   439061 
 4865000    0.7514378   -4.5857123   -4.5857123   -3.4585582   0.01355307   -4.5857123    1.1271541   439061 
 4866000   0.75194831   -4.5864446   -4.5864446   -3.4585247  0.012014412   -4.5864446    1.1279199   439061 
 4867000    0.7501155   -4.5845026   -4.5845026   -3.4593319  0.012242731   -4.5845026    1.1251707   439061 
 4868000   0.75113894   -4.5862798   -4.5862798    -3.459574 0.0086535454   -4.5862798    1.1267058   439061 
 4869000   0.75053593   -4.5855698   -4.5855698   -3.4597685  0.010714148   -4.5855698    1.1258013   439061 
 4870000   0.74936398   -4.5833513   -4.5833513   -3.4593079  0.012698863   -4.5833513    1.1240434   439061 
 4871000   0.75071678   -4.5847335   -4.5847335   -3.4586609  0.012244194   -4.5847335    1.1260726   439061 
 4872000   0.75034312   -4.5838656   -4.5838656   -3.4583535 0.0079818873   -4.5838656    1.1255121   439061 
 4873000   0.75069923    -4.584975    -4.584975   -3.4589287  0.012973445    -4.584975    1.1260463   439061 
 4874000   0.75005582   -4.5839481   -4.5839481    -3.458867 0.0073135695   -4.5839481    1.1250812   439061 
 4875000   0.75073677   -4.5846458   -4.5846458   -3.4585432 0.0073705623   -4.5846458    1.1261026   439061 
 4876000   0.75053109   -4.5841074   -4.5841074   -3.4583134 0.0068706106   -4.5841074    1.1257941   439061 
 4877000   0.74875208   -4.5812927   -4.5812927   -3.4581672  0.016681765   -4.5812927    1.1231256   439061 
 4878000   0.75083008   -4.5841922   -4.5841922   -3.4579496 0.0080119558   -4.5841922    1.1262426   439061 
 4879000   0.75093168    -4.583235    -4.583235     -3.45684 0.0070809832    -4.583235     1.126395   439061 
 4880000   0.74942214   -4.5835515   -4.5835515   -3.4594208 0.0068331075   -4.5835515    1.1241306   439061 
 4881000   0.74894705   -4.5836354   -4.5836354   -3.4602174 0.0065362695   -4.5836354     1.123418   439061 
 4882000   0.74973776   -4.5844572   -4.5844572   -3.4598531 0.0047136268   -4.5844572    1.1246041   439061 
 4883000   0.75123059   -4.5855465   -4.5855465   -3.4587032 0.0057272953   -4.5855465    1.1268433   439061 
 4884000   0.75025988   -4.5842395   -4.5842395   -3.4588523 0.0085045413   -4.5842395    1.1253873   439061 
 4885000   0.75091468   -4.5846737   -4.5846737   -3.4583043  0.011340759   -4.5846737    1.1263694   439061 
 4886000   0.75060941   -4.5844027   -4.5844027   -3.4584911  0.015579283   -4.5844027    1.1259115   439061 
 4887000   0.75127659   -4.5858879   -4.5858879   -3.4589756  0.012571897   -4.5858879    1.1269123   439061 
 4888000   0.75042108   -4.5853141   -4.5853141    -3.459685  0.014073423   -4.5853141    1.1256291   439061 
 4889000   0.75010177   -4.5861173   -4.5861173   -3.4609672 0.0093979604   -4.5861173    1.1251501   439061 
 4890000   0.74975609   -4.5848105   -4.5848105   -3.4601789  0.010892391   -4.5848105    1.1246316   439061 
 4891000   0.74968218   -4.5849473   -4.5849473   -3.4604266  0.011316148   -4.5849473    1.1245207   439061 
 4892000   0.74857973   -4.5830874   -4.5830874   -3.4602204 0.0096874505   -4.5830874     1.122867   439061 
 4893000   0.74973612    -4.586082    -4.586082   -3.4614803 0.0045285347    -4.586082    1.1246016   439061 
 4894000   0.74941581   -4.5853294   -4.5853294   -3.4612082 0.0063017741   -4.5853294    1.1241212   439061 
 4895000   0.74926648   -4.5852335   -4.5852335   -3.4613363 0.0036203395   -4.5852335    1.1238972   439061 
 4896000   0.75017212    -4.584449    -4.584449   -3.4591934    0.0115637    -4.584449    1.1252556   439061 
 4897000   0.75245362   -4.5878468   -4.5878468   -3.4591689 0.0046707275   -4.5878468    1.1286779   439061 
 4898000   0.75066054   -4.5851092   -4.5851092   -3.4591209  0.010958719   -4.5851092    1.1259882   439061 
 4899000   0.75153576   -4.5861692   -4.5861692   -3.4588681  0.010632804   -4.5861692    1.1273011   439061 
 4900000   0.74994984   -4.5846085   -4.5846085   -3.4596863  0.011397646   -4.5846085    1.1249222   439061 
 4901000   0.75022525   -4.5850896   -4.5850896   -3.4597543 0.0073118391   -4.5850896    1.1253353   439061 
 4902000   0.74915828   -4.5847526   -4.5847526   -3.4610177  0.010782948   -4.5847526    1.1237349   439061 
 4903000    0.7487318   -4.5851782   -4.5851782   -3.4620831 0.0077132153   -4.5851782    1.1230951   439061 
 4904000    0.7500181   -4.5862816   -4.5862816    -3.461257 0.0063374992   -4.5862816    1.1250246   439061 
 4905000   0.75035777   -4.5849407   -4.5849407   -3.4594066  0.013404744   -4.5849407    1.1255341   439061 
 4906000   0.75073323   -4.5858028   -4.5858028   -3.4597055 0.0074900888   -4.5858028    1.1260973   439061 
 4907000   0.75112012   -4.5862957   -4.5862957   -3.4596181  0.010056859   -4.5862957    1.1266776   439061 
 4908000   0.75003989    -4.585994    -4.585994   -3.4609367  0.007461317    -4.585994    1.1250573   439061 
 4909000   0.75142993   -4.5872656   -4.5872656   -3.4601233  0.012163105   -4.5872656    1.1271423   439061 
 4910000   0.75193681   -4.5870545   -4.5870545   -3.4591519  0.012613162   -4.5870545    1.1279027   439061 
 4911000   0.75011496   -4.5838723   -4.5838723   -3.4587024  0.010162603   -4.5838723    1.1251699   439061 
 4912000   0.75036772   -4.5845087   -4.5845087   -3.4589596  0.010185571   -4.5845087     1.125549   439061 
 4913000   0.75099576   -4.5849113   -4.5849113   -3.4584202 0.0069294644   -4.5849113    1.1264911   439061 
 4914000   0.75073597   -4.5844236   -4.5844236   -3.4583222 0.0099583705   -4.5844236    1.1261014   439061 
 4915000   0.74964511   -4.5820996   -4.5820996   -3.4576345  0.014642715   -4.5820996    1.1244651   439061 
 4916000   0.75078219   -4.5838708   -4.5838708   -3.4577001 0.0049463158   -4.5838708    1.1261707   439061 
 4917000   0.75107419   -4.5845647   -4.5845647    -3.457956 0.0021443448   -4.5845647    1.1266087   439061 
 4918000   0.74967742   -4.5813792   -4.5813792   -3.4568656   0.01086473   -4.5813792    1.1245136   439061 
 4919000   0.75109921   -4.5833687   -4.5833687   -3.4567225 0.0070673814   -4.5833687    1.1266462   439061 
 4920000   0.75083414   -4.5825172   -4.5825172   -3.4562685  0.012272723   -4.5825172    1.1262486   439061 
 4921000    0.7511488   -4.5818666   -4.5818666    -3.455146 0.0099197685   -4.5818666    1.1267206   439061 
 4922000    0.7491634   -4.5803372   -4.5803372   -3.4565947 0.0085345982   -4.5803372    1.1237425   439061 
 4923000   0.74931025   -4.5823373   -4.5823373   -3.4583744 0.0044355277   -4.5823373    1.1239628   439061 
 4924000   0.75099237   -4.5842158   -4.5842158   -3.4577298 0.0034352645   -4.5842158     1.126486   439061 
 4925000   0.75037015   -4.5824137   -4.5824137    -3.456861  0.014985522   -4.5824137    1.1255527   439061 
 4926000   0.74999737   -4.5822787   -4.5822787   -3.4572852  0.011824402   -4.5822787    1.1249935   439061 
 4927000   0.74982616   -4.5823673   -4.5823673   -3.4576306  0.014259424   -4.5823673    1.1247367   439061 
 4928000   0.75063799   -4.5842801   -4.5842801   -3.4583257  0.011554069   -4.5842801    1.1259544   439061 
 4929000   0.75027619   -4.5835357   -4.5835357   -3.4581239 0.0040649662   -4.5835357    1.1254117   439061 
 4930000   0.75130184   -4.5857739   -4.5857739   -3.4588237 0.0093991691   -4.5857739    1.1269502   439061 
 4931000    0.7504975   -4.5839896   -4.5839896   -3.4582459  0.009407283   -4.5839896    1.1257437   439061 
 4932000   0.74924712   -4.5829228   -4.5829228   -3.4590546  0.014682165   -4.5829228    1.1238681   439061 
 4933000   0.75111382   -4.5856058   -4.5856058   -3.4589377 0.0090707541   -4.5856058    1.1266682   439061 
 4934000   0.74903494   -4.5829634   -4.5829634   -3.4594135  0.013455499   -4.5829634    1.1235499   439061 
 4935000   0.75120033   -4.5853918   -4.5853918   -3.4585939 0.0091048414   -4.5853918    1.1267979   439061 
 4936000   0.75051358   -4.5847995   -4.5847995   -3.4590317  0.011053218   -4.5847995    1.1257678   439061 
 4937000   0.75006173   -4.5840691   -4.5840691   -3.4589791  0.012442393   -4.5840691      1.12509   439061 
 4938000   0.75021717   -4.5838622   -4.5838622    -3.458539 0.0097418049   -4.5838622    1.1253232   439061 
 4939000   0.75057113   -4.5848412   -4.5848412   -3.4589871 0.0064360874   -4.5848412    1.1258541   439061 
 4940000   0.75063527   -4.5841523   -4.5841523    -3.458202   0.01040273   -4.5841523    1.1259503   439061 
 4941000   0.75076206   -4.5848393   -4.5848393   -3.4586988  0.011198615   -4.5848393    1.1261405   439061 
 4942000   0.74961302   -4.5841517   -4.5841517   -3.4597347  0.010192132   -4.5841517     1.124417   439061 
 4943000   0.75176473   -4.5864986   -4.5864986    -3.458854 0.0056499959   -4.5864986    1.1276445   439061 
 4944000   0.75025366   -4.5848146   -4.5848146   -3.4594367 0.0066469291   -4.5848146    1.1253779   439061 
 4945000   0.75045735   -4.5837191   -4.5837191   -3.4580357 0.0052052418   -4.5837191    1.1256835   439061 
 4946000   0.75051386   -4.5853068   -4.5853068   -3.4595386  0.010002544   -4.5853068    1.1257682   439061 
 4947000   0.75101848   -4.5849678   -4.5849678   -3.4584426  0.011955328   -4.5849678    1.1265251   439061 
 4948000   0.74965032   -4.5831792   -4.5831792   -3.4587062  0.013705839   -4.5831792    1.1244729   439061 
 4949000    0.7509093   -4.5835695   -4.5835695   -3.4572081  0.013133922   -4.5835695    1.1263614   439061 
 4950000   0.75139664   -4.5841263   -4.5841263   -3.4570339 0.0068083357   -4.5841263    1.1270924   439061 
 4951000   0.75162531   -4.5846877   -4.5846877   -3.4572523 0.0050300378   -4.5846877    1.1274354   439061 
 4952000   0.75141711   -4.5850406   -4.5850406   -3.4579175 0.0055381601   -4.5850406    1.1271231   439061 
 4953000   0.74951336   -4.5823542   -4.5823542   -3.4580867 0.0086645447   -4.5823542    1.1242675   439061 
 4954000   0.75086552   -4.5841589   -4.5841589   -3.4578632   0.00931868   -4.5841589    1.1262957   439061 
 4955000   0.75036373   -4.5836853   -4.5836853   -3.4581423 0.0063066614   -4.5836853     1.125543   439061 
 4956000    0.7501126   -4.5839587   -4.5839587   -3.4587924 0.0091933367   -4.5839587    1.1251663   439061 
 4957000   0.75013328   -4.5839033   -4.5839033   -3.4587059 0.0085550799   -4.5839033    1.1251974   439061 
 4958000   0.75133207   -4.5850335   -4.5850335   -3.4580379 0.0077355042   -4.5850335    1.1269955   439061 
 4959000   0.75168099   -4.5852134   -4.5852134   -3.4576945  0.011742347   -4.5852134    1.1275189   439061 
 4960000   0.75118192   -4.5855178   -4.5855178   -3.4587475  0.012211181   -4.5855178    1.1267703   439061 
 4961000   0.75009629   -4.5852211   -4.5852211   -3.4600792 0.0095826104   -4.5852211    1.1251419   439061 
 4962000   0.75132571   -4.5854017   -4.5854017   -3.4584157  0.010794539   -4.5854017     1.126986   439061 
 4963000   0.75114416   -4.5845423   -4.5845423   -3.4578286  0.014099044   -4.5845423    1.1267137   439061 
 4964000   0.75033273   -4.5844715   -4.5844715    -3.458975  0.013809436   -4.5844715    1.1254965   439061 
 4965000    0.7514674   -4.5849466   -4.5849466   -3.4577481 0.0094613835   -4.5849466    1.1271985   439061 
 4966000    0.7503589   -4.5837162   -4.5837162   -3.4581804   0.01038804   -4.5837162    1.1255358   439061 
 4967000    0.7485443   -4.5815925   -4.5815925   -3.4587786  0.014517552   -4.5815925    1.1228139   439061 
 4968000    0.7498234   -4.5837372   -4.5837372   -3.4590047 0.0053925111   -4.5837372    1.1247325   439061 
 4969000   0.75014518   -4.5838924   -4.5838924   -3.4586772 0.0075836131   -4.5838924    1.1252152   439061 
 4970000   0.74952033   -4.5824841   -4.5824841   -3.4582062 0.0088708907   -4.5824841    1.1242779   439061 
 4971000   0.75008641   -4.5829719   -4.5829719   -3.4578449 0.0051161439   -4.5829719    1.1251271   439061 
 4972000   0.74984386   -4.5828875   -4.5828875   -3.4581243 0.0039906522   -4.5828875    1.1247632   439061 
 4973000   0.75003029   -4.5826118   -4.5826118   -3.4575689 0.0045454875   -4.5826118    1.1250429   439061 
 4974000   0.75094154   -4.5850651   -4.5850651   -3.4586554 0.0068473985   -4.5850651    1.1264097   439061 
 4975000    0.7499148   -4.5831529   -4.5831529   -3.4582832  0.011302276   -4.5831529    1.1248696   439061 
 4976000   0.75073603   -4.5850297   -4.5850297   -3.4589282  0.011340131   -4.5850297    1.1261015   439061 
 4977000   0.75261643    -4.585746    -4.585746    -3.456824 0.0080956212    -4.585746    1.1289221   439061 
 4978000   0.75123788   -4.5841579   -4.5841579   -3.4573037  0.014343885   -4.5841579    1.1268543   439061 
 4979000   0.75208412   -4.5863006   -4.5863006    -3.458177  0.013037975   -4.5863006    1.1281236   439061 
 4980000   0.75145026   -4.5851748   -4.5851748    -3.458002  0.014364104   -4.5851748    1.1271728   439061 
 4981000   0.75044578   -4.5832051   -4.5832051    -3.457539  0.010874455   -4.5832051    1.1256661   439061 
 4982000   0.75072417   -4.5836254   -4.5836254   -3.4575417 0.0063698038   -4.5836254    1.1260837   439061 
 4983000    0.7509094   -4.5832272   -4.5832272   -3.4568657  0.011298075   -4.5832272    1.1263615   439061 
 4984000   0.74976489    -4.581521    -4.581521   -3.4568762   0.00690256    -4.581521    1.1246448   439061 
 4985000   0.74948959   -4.5821474   -4.5821474   -3.4579156 0.0069565726   -4.5821474    1.1242318   439061 
 4986000   0.74870967   -4.5809567   -4.5809567   -3.4578947 0.0057046951   -4.5809567    1.1230619   439061 
 4987000    0.7485073    -4.581075    -4.581075   -3.4583166 0.0032126947    -4.581075    1.1227584   439061 
 4988000   0.74909924   -4.5816285   -4.5816285   -3.4579821 0.0043835436   -4.5816285    1.1236463   439061 
 4989000   0.74950483   -4.5819833   -4.5819833   -3.4577287 0.0087359969   -4.5819833    1.1242547   439061 
 4990000   0.75040147   -4.5831914   -4.5831914   -3.4575918  0.011477669   -4.5831914    1.1255996   439061 
 4991000    0.7516711   -4.5830134   -4.5830134   -3.4555093  0.012125952   -4.5830134    1.1275041   439061 
 4992000   0.75171462   -4.5836248   -4.5836248   -3.4560555   0.01296463   -4.5836248    1.1275694   439061 
 4993000   0.75122878   -4.5833568   -4.5833568   -3.4565162  0.015111735   -4.5833568    1.1268406   439061 
 4994000   0.75074605    -4.582947    -4.582947   -3.4568305  0.011646973    -4.582947    1.1261165   439061 
 4995000   0.75070985   -4.5827829   -4.5827829   -3.4567207   0.01036426   -4.5827829    1.1260622   439061 
 4996000   0.75148927   -4.5845427   -4.5845427   -3.4573114 0.0097846336   -4.5845427    1.1272313   439061 
 4997000   0.75207047   -4.5857924   -4.5857924   -3.4576893 0.0081207833   -4.5857924    1.1281031   439061 
 4998000   0.74979398   -4.5832217   -4.5832217   -3.4585332  0.013154361   -4.5832217    1.1246884   439061 
 4999000   0.74926031   -4.5825762   -4.5825762   -3.4586883 0.0035272639   -4.5825762    1.1238879   439061 
 5000000   0.74884665    -4.582941    -4.582941   -3.4596736 0.00050469214    -4.582941    1.1232674   439061 
Loop time of 28652.8 on 64 procs for 5000000 steps with 439061 atoms

Performance: 75385.233 tau/day, 174.503 timesteps/s
98.7% CPU use with 64 MPI tasks x 1 OpenMP threads

MPI task timing breakdown:
Section |  min time  |  avg time  |  max time  |%varavg|  %CPU | %total
-----------------------------------------------------------------------
Pair    | 11017      | 15555      | 16638      |1301.9 |  98.5 | 54.29
Bond    | 2.0272     | 5.0706     | 6.9405     |  76.8 | 100.0 |  0.02
Neigh   | 3859.5     | 5257.5     | 5543.6     | 682.1 |  99.6 | 18.35
Comm    | 4050.3     | 6317.6     | 12469      |2892.2 |  98.1 | 22.05
Output  | 217.54     | 217.9      | 217.93     |   0.3 |  99.1 |  0.76
Modify  | 513.15     | 897.64     | 2354.1     |2159.3 |  99.4 |  3.13
Other   |            | 402.2      |            |       |       |  1.40

Nlocal:        6860.33 ave        7126 max        6118 min
Histogram: 1 0 0 1 0 2 1 49 7 3
Nghost:        7823.64 ave        8581 max        5628 min
Histogram: 13 3 0 0 0 0 0 0 0 48
Neighs:       252784.0 ave      266848 max      176578 min
Histogram: 1 1 2 2 2 0 0 0 6 50

Total # of neighbors = 16178204
Ave neighs/atom = 36.847281
Ave special neighs/atom = 0.0000000
Neighbor list builds = 500000
Dangerous builds = 495000
write_data	data.lj
System init for write_data ...
WARNING: Not all mixed pair coeffs generated from mixing. Use write_data with 'pair ij' option to store all pair coeffs. (src/write_data.cpp:312)


## Evaporation
#region          regevap block EDGE EDGE EDGE EDGE 140 EDGE units box
#fix             4 solvent evaporate ${evap} 1 regevap 156415

#run 		20000000
Total wall time: 7:57:36
