LAMMPS (29 Oct 2020)
  using 1 OpenMP thread(s) per MPI task
# Simple rigid body system
# needed variables:

#variable	startTemp equal 0.5
#variable 	temp 	  equal 0.8

units		lj
atom_style	full
dimension 	3
boundary	p p f
pair_style	lj/cut/opt 2.5


variable 	sigma		equal 1.0
variable 	epsilon 	equal 1.0

region		box block 0 100 0 100 0 200
create_box 	3 box
Created orthogonal box = (0.0000000 0.0000000 0.0000000) to (100.00000 100.00000 200.00000)
  4 by 5 by 12 MPI processor grid
lattice 	sc 1.0
Lattice spacing in x,y,z = 1.0000000 1.0000000 1.0000000

region		create block EDGE EDGE EDGE EDGE 2 102
create_atoms 	1 region create
Created 1010000 atoms
  create_atoms CPU = 0.141 seconds

mass		1 1.0
mass		2 1.0
mass		3 1.0

group		solvent type 1
1010000 atoms in group solvent

velocity 	solvent create ${startTemp} 563435 loop geom
velocity 	solvent create 0.8 563435 loop geom


neighbor 	0.4 bin

pair_coeff	1 1 1.0 1.0
pair_coeff	2 2 0.0 0.0
pair_coeff	3 3 0.0 0.0
pair_coeff	2 3 0.0 0.0
pair_coeff	1 2*3 0.0 0.0

pair_modify 	shift yes


balance 	1.05 shift z 10 1.05
Balancing ...
Neighbor list info ...
  update every 1 steps, delay 10 steps, check yes
  max neighbors/atom: 2000, page size: 100000
  master list distance cutoff = 2.9
  ghost atom cutoff = 2.9
  binsize = 1.45, bins = 69 69 138
  1 neighbor lists, perpetual/occasional/extra = 1 0 0
  (1) pair lj/cut/opt, perpetual
      attributes: half, newton on
      pair build: half/bin/newton
      stencil: half/bin/3d/newton
      bin: standard
 rebalancing time: 0.483 seconds
  iteration count = 5
  initial/final maximal load/proc = 8925.0000 5775.0000
  initial/final imbalance factor  = 2.1207921 1.3722772
  x cuts: 0.0000000 0.25 0.5 0.75 1.0000000
  y cuts: 0.0000000 0.2 0.4 0.6 0.8 1.0000000
  z cuts: 0.0000000 0.049479167 0.091145833 0.13020833 0.171875 0.22135417 0.2578125 0.30208333 0.34375 0.37239583 0.4296875 0.46354167 1.0000000


####################### WALLS ###########################


variable       epsilonWall equal 2*${epsilon}
variable       epsilonWall equal 2*1

variable       cutoffTop   equal   0.7147*${sigma}
variable       cutoffTop   equal   0.7147*1

variable       cutoffLow   equal   3*${sigma}
variable       cutoffLow   equal   3*1


fix            topWall all wall/lj93 zhi EDGE                ${epsilonWall} ${sigma} ${cutoffTop} units box
fix            topWall all wall/lj93 zhi EDGE                2 ${sigma} ${cutoffTop} units box
fix            topWall all wall/lj93 zhi EDGE                2 1 ${cutoffTop} units box
fix            topWall all wall/lj93 zhi EDGE                2 1 0.7147 units box

fix            lowWall all wall/lj93 zlo EDGE                ${epsilonWall} ${sigma} ${cutoffLow} units box
fix            lowWall all wall/lj93 zlo EDGE                2 ${sigma} ${cutoffLow} units box
fix            lowWall all wall/lj93 zlo EDGE                2 1 ${cutoffLow} units box
fix            lowWall all wall/lj93 zlo EDGE                2 1 3 units box


###################### COMPUTES ##########################

compute        bin1 solvent chunk/atom bin/1d z upper 1.0


######################	FIXES ############################


fix 		peclet solvent ave/chunk 1000 1 1000 bin1 density/number norm 		 none ave one file density.profile

fix 		 temp solvent ave/chunk 1000 1 1000 bin1 temp norm 		 none ave one file temp.profile

fix 		2 solvent nve


## Thermostat


region		regthermo block EDGE EDGE EDGE EDGE 0 20

group 		thermo dynamic solvent region regthermo every 1000
dynamic group thermo defined

fix 		3 thermo langevin ${startTemp} ${temp} 10 156453
fix 		3 thermo langevin 0.8 ${temp} 10 156453
fix 		3 thermo langevin 0.8 .7 10 156453



#### Load balancing


fix 		bal all balance 1000 1.05 shift z 10 1.05


############### Diagnostics and computes ###################
#compute 	com cube	  rigid/local	1 mol x y z
#compute 	quat cube	  rigid/local	1 mol quatw quati quatj quatk

thermo 		1000
thermo_style 	custom step temp epair evdwl etotal press pe ke atoms

dump		1 all custom 100000 dump.lammpstrj id mol type x y z
dump 		2 all image 10000 image.*.png type type
dump 		3 all movie 1000 movie.avi type type

#dump 		com cube local 1000 dump.*.xyz c_com[*]
#dump		quat cube      local 1000 dump.*.quat c_quat[*]


restart 	2000000 restart.dat
timestep 	0.0025
timer 		full
New timer settings: style=full  mode=nosync  timeout=off

run		6000000
Per MPI rank memory allocation (min/avg/max) = 9.581 | 9.852 | 10.35 Mbytes
Step Temp E_pair E_vdwl TotEng Press PotEng KinEng Atoms 
       0          0.8   -3.3050748   -3.3050748    -2.105076    8.8982699   -3.3050748    1.1999988  1010000 
    1000    1.5940756   -4.5812745   -4.5812745   -2.1901635    5.1681536   -4.5812745     2.391111  1010000 
    2000    1.5959405   -4.6793728   -4.6793728   -2.2854644    3.9571006   -4.6793728    2.3939085  1010000 
    3000    1.5558121    -4.704689    -4.704689   -2.3709731    3.0051892    -4.704689    2.3337159  1010000 
    4000    1.5371085   -4.7450233   -4.7450233   -2.4393628    2.0460522   -4.7450233    2.3056605  1010000 
    5000    1.5211041   -4.7594624   -4.7594624   -2.4778086    1.1551669   -4.7594624    2.2816538  1010000 
    6000    1.4747134   -4.6994248   -4.6994248   -2.4873568   0.51347778   -4.6994248    2.2120679  1010000 
    7000    1.4127932   -4.5980551   -4.5980551   -2.4788674   0.12253339   -4.5980551    2.1191877  1010000 
    8000    1.3534856   -4.4936997   -4.4936997   -2.4634733 -0.082580505   -4.4936997    2.0302264  1010000 
    9000    1.3121242   -4.4129811   -4.4129811   -2.4447968  -0.12790551   -4.4129811    1.9681843  1010000 
   10000    1.3044353   -4.3836797   -4.3836797   -2.4270286 -0.041926559   -4.3836797    1.9566511  1010000 
   11000    1.3113677   -4.3799751   -4.3799751   -2.4129255  0.054517821   -4.3799751    1.9670496  1010000 
   12000    1.3167804   -4.3771647   -4.3771647   -2.4019961   0.09851429   -4.3771647    1.9751686  1010000 
   13000    1.3199867   -4.3743887   -4.3743887   -2.3944107   0.13168871   -4.3743887    1.9799781  1010000 
   14000    1.3224887   -4.3732446   -4.3732446   -2.3895136   0.15605791   -4.3732446     1.983731  1010000 
   15000    1.3247188   -4.3722361   -4.3722361   -2.3851598   0.18341076   -4.3722361    1.9870763  1010000 
   16000    1.3280844   -4.3738079   -4.3738079   -2.3816833   0.20115855   -4.3738079    1.9921247  1010000 
   17000    1.3300134    -4.374214    -4.374214   -2.3791958   0.22803708    -4.374214    1.9950182  1010000 
   18000    1.3339522   -4.3784197   -4.3784197   -2.3774934   0.25749838   -4.3784197    2.0009263  1010000 
   19000      1.33535   -4.3787932   -4.3787932   -2.3757701   0.27798055   -4.3787932    2.0030231  1010000 
   20000    1.3362526   -4.3789616   -4.3789616   -2.3745846   0.28351668   -4.3789616    2.0043769  1010000 
   21000    1.3350342   -4.3760441   -4.3760441   -2.3734947   0.29608265   -4.3760441    2.0025493  1010000 
   22000    1.3323892    -4.371193    -4.371193   -2.3726112   0.29400351    -4.371193    1.9985818  1010000 
   23000    1.3311881   -4.3707593   -4.3707593   -2.3739791   0.44605724   -4.3707593    1.9967802  1010000 
   24000    1.3232795   -4.3590703   -4.3590703    -2.374153    1.0527681   -4.3590703    1.9849173  1010000 
   25000    1.3174748   -4.3499646   -4.3499646   -2.3737543    1.6864742   -4.3499646    1.9762103  1010000 
   26000    1.3174754   -4.3496634   -4.3496634   -2.3734522    2.2949763   -4.3496634    1.9762112  1010000 
   27000    1.3232177   -4.3585018   -4.3585018   -2.3736772    2.5597523   -4.3585018    1.9848247  1010000 
   28000    1.3302686   -4.3690063   -4.3690063   -2.3736053    2.1967743   -4.3690063     1.995401  1010000 
   29000    1.3313682   -4.3705714   -4.3705714    -2.373521    1.8632386   -4.3705714    1.9970504  1010000 
   30000    1.3181871   -4.3506802   -4.3506802   -2.3734016     1.477373   -4.3506802    1.9772786  1010000 
   31000    1.2904281   -4.3088263   -4.3088263    -2.373186    1.1616929   -4.3088263    1.9356403  1010000 
   32000    1.2557197    -4.257043    -4.257043   -2.3734653   0.85186916    -4.257043    1.8835777  1010000 
   33000    1.2086538   -4.1865413   -4.1865413   -2.3735623   0.58364072   -4.1865413    1.8129789  1010000 
   34000    1.1573985   -4.1103168   -4.1103168   -2.3742208   0.34317342   -4.1103168    1.7360961  1010000 
   35000    1.1051128    -4.032015    -4.032015   -2.3743475   0.17215938    -4.032015    1.6576675  1010000 
   36000     1.059325   -3.9638374   -3.9638374   -2.3748514  0.065300893   -3.9638374     1.588986  1010000 
   37000    1.0280094   -3.9171679   -3.9171679   -2.3751554  0.012153921   -3.9171679    1.5420125  1010000 
   38000    1.0076604   -3.8866652   -3.8866652    -2.375176 0.00041121307   -3.8866652    1.5114892  1010000 
   39000   0.99902568   -3.8742977   -3.8742977   -2.3757607 0.0081982708   -3.8742977     1.498537  1010000 
   40000   0.99832038   -3.8738007   -3.8738007   -2.3763216  0.033305157   -3.8738007    1.4974791  1010000 
   41000     1.001839   -3.8794569   -3.8794569   -2.3766999  0.047858889   -3.8794569     1.502757  1010000 
   42000    1.0044274    -3.883816    -3.883816   -2.3771764  0.076669815    -3.883816    1.5066396  1010000 
   43000    1.0072884   -3.8891212   -3.8891212   -2.3781901  0.094952837   -3.8891212    1.5109311  1010000 
   44000    1.0082735   -3.8909798   -3.8909798   -2.3785711   0.12012267   -3.8909798    1.5124087  1010000 
   45000    1.0073765   -3.8904082   -3.8904082    -2.379345   0.13046466   -3.8904082    1.5110632  1010000 
   46000    1.0044479   -3.8875963   -3.8875963   -2.3809259   0.13233308   -3.8875963    1.5066704  1010000 
   47000   0.99853731   -3.8800249   -3.8800249   -2.3822204   0.12871301   -3.8800249    1.4978045  1010000 
   48000   0.99351939   -3.8744278   -3.8744278   -2.3841502    0.1206538   -3.8744278    1.4902776  1010000 
   49000   0.98929382   -3.8700212   -3.8700212    -2.386082   0.11670514   -3.8700212    1.4839393  1010000 
   50000   0.98794766    -3.869923    -3.869923    -2.388003   0.11509462    -3.869923      1.48192  1010000 
   51000    0.9876082   -3.8729675   -3.8729675   -2.3915567   0.11911227   -3.8729675    1.4814108  1010000 
   52000   0.98982164   -3.8805648   -3.8805648   -2.3958338   0.13816286   -3.8805648     1.484731  1010000 
   53000   0.99247925   -3.8895653   -3.8895653   -2.4008479   0.16047535   -3.8895653    1.4887174  1010000 
   54000   0.99660471   -3.9035988   -3.9035988   -2.4086932   0.17991645   -3.9035988    1.4949056  1010000 
   55000   0.99820843   -3.9169506   -3.9169506   -2.4196394   0.19501104   -3.9169506    1.4973112  1010000 
   56000   0.99609344   -3.9264049   -3.9264049   -2.4322663   0.19691543   -3.9264049    1.4941387  1010000 
   57000   0.99089621    -3.932596    -3.932596   -2.4462532   0.18620832    -3.932596    1.4863428  1010000 
   58000   0.98337956   -3.9356012   -3.9356012   -2.4605333   0.16196199   -3.9356012    1.4750679  1010000 
   59000   0.97591186   -3.9364048   -3.9364048   -2.4725385   0.14494098   -3.9364048    1.4638663  1010000 
   60000   0.96822454   -3.9363097   -3.9363097   -2.4839743   0.13076679   -3.9363097    1.4523354  1010000 
   61000   0.95994242   -3.9354708   -3.9354708   -2.4955586   0.11083319   -3.9354708    1.4399122  1010000 
   62000   0.95264723   -3.9335193   -3.9335193   -2.5045499  0.085833241   -3.9335193    1.4289694  1010000 
   63000   0.94711082   -3.9322093   -3.9322093   -2.5115444  0.068096499   -3.9322093    1.4206648  1010000 
   64000   0.94251259   -3.9315896   -3.9315896   -2.5178221  0.064828352   -3.9315896    1.4137675  1010000 
   65000   0.94178132    -3.935075    -3.935075   -2.5224044  0.062504713    -3.935075    1.4126706  1010000 
   66000   0.94284321   -3.9398149   -3.9398149   -2.5255515  0.066398486   -3.9398149    1.4142634  1010000 
   67000   0.94695074   -3.9493298   -3.9493298   -2.5289051  0.072870205   -3.9493298    1.4204247  1010000 
   68000   0.95075881   -3.9579548   -3.9579548    -2.531818  0.093256944   -3.9579548    1.4261368  1010000 
   69000   0.95551602   -3.9683027   -3.9683027   -2.5350301   0.11499035   -3.9683027    1.4332726  1010000 
   70000   0.96182816   -3.9812582   -3.9812582   -2.5385174   0.13887516   -3.9812582    1.4427408  1010000 
   71000   0.96784848   -3.9937129   -3.9937129   -2.5419416   0.16017326   -3.9937129    1.4517713  1010000 
   72000   0.97461301   -4.0074579   -4.0074579   -2.5455399   0.18916013   -4.0074579    1.4619181  1010000 
   73000   0.98143562   -4.0213308   -4.0213308   -2.5491789   0.21714117   -4.0213308     1.472152  1010000 
   74000   0.98979075   -4.0375631   -4.0375631   -2.5528785   0.24672754   -4.0375631    1.4846847  1010000 
   75000   0.99700829   -4.0526003   -4.0526003   -2.5570893   0.27688789   -4.0526003     1.495511  1010000 
   76000    1.0029639   -4.0651292   -4.0651292   -2.5606849   0.30691934   -4.0651292    1.5044443  1010000 
   77000    1.0086467   -4.0777062   -4.0777062   -2.5647376   0.33370366   -4.0777062    1.5129686  1010000 
   78000    1.0135886   -4.0896232   -4.0896232   -2.5692419   0.35646186   -4.0896232    1.5203813  1010000 
   79000    1.0163704   -4.0992114   -4.0992114   -2.5746574   0.38288213   -4.0992114     1.524554  1010000 
   80000     1.018868   -4.1098253   -4.1098253   -2.5815248   0.40342971   -4.1098253    1.5283005  1010000 
   81000    1.0186761   -4.1183519   -4.1183519   -2.5903393   0.42335086   -4.1183519    1.5280126  1010000 
   82000    1.0162263    -4.125349    -4.125349   -2.6010111   0.43480965    -4.125349     1.524338  1010000 
   83000    1.0133597   -4.1325262   -4.1325262   -2.6124881   0.44390553   -4.1325262    1.5200381  1010000 
   84000    1.0097422    -4.137566    -4.137566   -2.6229542   0.44563417    -4.137566    1.5146118  1010000 
   85000    1.0079934   -4.1452196   -4.1452196    -2.633231   0.44167079   -4.1452196    1.5119886  1010000 
   86000    1.0057746   -4.1506648   -4.1506648   -2.6420044   0.44506622   -4.1506648    1.5086604  1010000 
   87000     1.003572   -4.1555018   -4.1555018   -2.6501453   0.44287995   -4.1555018    1.5053566  1010000 
   88000    1.0026214   -4.1607064   -4.1607064   -2.6567758   0.43767324   -4.1607064    1.5039306  1010000 
   89000   0.99964114    -4.162202    -4.162202   -2.6627418   0.43553197    -4.162202    1.4994602  1010000 
   90000   0.99729387   -4.1636273   -4.1636273    -2.667688   0.42891348   -4.1636273    1.4959393  1010000 
   91000   0.99344259    -4.162474    -4.162474   -2.6723116   0.41857428    -4.162474    1.4901624  1010000 
   92000   0.98887696   -4.1578239   -4.1578239     -2.67451   0.39922205   -4.1578239     1.483314  1010000 
   93000   0.98416157   -4.1529325   -4.1529325   -2.6766916   0.36825346   -4.1529325    1.4762409  1010000 
   94000   0.97727571   -4.1437895   -4.1437895   -2.6778773   0.33837715   -4.1437895    1.4659121  1010000 
   95000   0.96858573   -4.1318384   -4.1318384   -2.6789612   0.29737849   -4.1318384    1.4528772  1010000 
   96000   0.95880276   -4.1177321   -4.1177321   -2.6795294   0.26138012   -4.1177321    1.4382027  1010000 
   97000   0.94892598   -4.1038771   -4.1038771   -2.6804896   0.21575012   -4.1038771    1.4233876  1010000 
   98000   0.93923867   -4.0890713   -4.0890713   -2.6802147   0.18134316   -4.0890713    1.4088566  1010000 
   99000   0.93013803   -4.0757755   -4.0757755   -2.6805698   0.14131156   -4.0757755    1.3952057  1010000 
  100000   0.92072055   -4.0611315   -4.0611315    -2.680052   0.11752283   -4.0611315    1.3810795  1010000 
  101000   0.91244338   -4.0479615   -4.0479615   -2.6792978  0.087753305   -4.0479615    1.3686637  1010000 
  102000   0.90436647   -4.0361657   -4.0361657   -2.6796173  0.062021879   -4.0361657    1.3565484  1010000 
  103000   0.89718355   -4.0240976   -4.0240976   -2.6783236  0.042622089   -4.0240976     1.345774  1010000 
  104000   0.89108751   -4.0142192   -4.0142192   -2.6775892  0.023447686   -4.0142192    1.3366299  1010000 
  105000   0.88514613   -4.0038774   -4.0038774   -2.6761595 0.0059591139   -4.0038774    1.3277179  1010000 
  106000    0.8799613   -3.9943936   -3.9943936   -2.6744529 -0.0052238158   -3.9943936    1.3199406  1010000 
  107000   0.87639631    -3.986271    -3.986271   -2.6716778 -0.013863651    -3.986271    1.3145932  1010000 
  108000    0.8715238   -3.9767088   -3.9767088   -2.6694244 -0.021382728   -3.9767088    1.3072844  1010000 
  109000    0.8697668   -3.9714027   -3.9714027   -2.6667538 -0.029565651   -3.9714027    1.3046489  1010000 
  110000    0.8683436   -3.9661397   -3.9661397   -2.6636256 -0.040175315   -3.9661397    1.3025141  1010000 
  111000   0.86800937   -3.9627591   -3.9627591   -2.6607463 -0.036120892   -3.9627591    1.3020128  1010000 
  112000   0.86790056   -3.9599001   -3.9599001   -2.6580506 -0.036485872   -3.9599001    1.3018495  1010000 
  113000   0.86747344   -3.9573018   -3.9573018    -2.656093 -0.032401671   -3.9573018    1.3012089  1010000 
  114000   0.86890459   -3.9571571   -3.9571571   -2.6538015  -0.02568815   -3.9571571    1.3033556  1010000 
  115000   0.87163374   -3.9593579   -3.9593579   -2.6519086 -0.026048038   -3.9593579    1.3074493  1010000 
  116000   0.87351952   -3.9608252   -3.9608252   -2.6505472 -0.015017953   -3.9608252     1.310278  1010000 
  117000   0.87603958   -3.9638809   -3.9638809   -2.6498228 -0.0064530761   -3.9638809    1.3140581  1010000 
  118000   0.87817232   -3.9666069   -3.9666069   -2.6493497 0.0018564396   -3.9666069    1.3172572  1010000 
  119000   0.88030512   -3.9698276   -3.9698276   -2.6493712  0.003662495   -3.9698276    1.3204564  1010000 
  120000   0.88175751   -3.9724206   -3.9724206   -2.6497856  0.013990148   -3.9724206     1.322635  1010000 
  121000   0.88367018   -3.9765083   -3.9765083   -2.6510043  0.019940035   -3.9765083     1.325504  1010000 
  122000   0.88456247    -3.979063    -3.979063   -2.6522206  0.017974862    -3.979063    1.3268424  1010000 
  123000   0.88453797   -3.9809617   -3.9809617    -2.654156  0.030042432   -3.9809617    1.3268056  1010000 
  124000    0.8845615   -3.9830881   -3.9830881   -2.6562472  0.029693129   -3.9830881    1.3268409  1010000 
  125000   0.88514122    -3.985292    -3.985292   -2.6575815   0.02840214    -3.985292    1.3277105  1010000 
  126000    0.8838758   -3.9844377   -3.9844377   -2.6586254  0.026783928   -3.9844377    1.3258124  1010000 
  127000   0.88250412   -3.9844334   -3.9844334   -2.6606785  0.025576236   -3.9844334    1.3237549  1010000 
  128000   0.88193514   -3.9853074   -3.9853074    -2.662406  0.018868206   -3.9853074    1.3229014  1010000 
  129000   0.88138789   -3.9851066   -3.9851066   -2.6630261  0.020387568   -3.9851066    1.3220805  1010000 
  130000   0.88095693   -3.9849087   -3.9849087   -2.6634746  0.018468414   -3.9849087    1.3214341  1010000 
  131000   0.88032488   -3.9845886   -3.9845886   -2.6641026  0.021452743   -3.9845886     1.320486  1010000 
  132000   0.87956291   -3.9841748   -3.9841748   -2.6648317  0.019622178   -3.9841748    1.3193431  1010000 
  133000   0.88041124   -3.9860189   -3.9860189   -2.6654033  0.020164444   -3.9860189    1.3206156  1010000 
  134000   0.87956024   -3.9851441   -3.9851441    -2.665805  0.024352731   -3.9851441    1.3193391  1010000 
  135000   0.88140427   -3.9880002   -3.9880002   -2.6658951  0.019974217   -3.9880002    1.3221051  1010000 
  136000   0.88104402    -3.988269    -3.988269   -2.6667042  0.020578649    -3.988269    1.3215647  1010000 
  137000   0.88113683   -3.9887539   -3.9887539     -2.66705  0.024284637   -3.9887539    1.3217039  1010000 
  138000   0.88133556    -3.990009    -3.990009   -2.6680069  0.022871457    -3.990009     1.322002  1010000 
  139000   0.88240068   -3.9915648   -3.9915648   -2.6679651  0.028611832   -3.9915648    1.3235997  1010000 
  140000   0.88215437   -3.9917389   -3.9917389   -2.6685087  0.029064566   -3.9917389    1.3232302  1010000 
  141000   0.88215427   -3.9928531   -3.9928531   -2.6696231  0.026638886   -3.9928531    1.3232301  1010000 
  142000   0.88200372   -3.9937338   -3.9937338   -2.6707295  0.028306039   -3.9937338    1.3230043  1010000 
  143000   0.88191368    -3.994964    -3.994964   -2.6720948  0.029025091    -3.994964    1.3228692  1010000 
  144000   0.88133228   -3.9945849   -3.9945849   -2.6725878  0.024775809   -3.9945849    1.3219971  1010000 
  145000   0.88097381    -3.994736    -3.994736   -2.6732766  0.029375445    -3.994736    1.3214594  1010000 
  146000   0.88064674    -3.995097    -3.995097   -2.6741282  0.027155364    -3.995097    1.3209688  1010000 
  147000   0.88053227   -3.9954234   -3.9954234   -2.6746263  0.029263387   -3.9954234    1.3207971  1010000 
  148000   0.88029799   -3.9957763   -3.9957763   -2.6753306  0.031407715   -3.9957763    1.3204457  1010000 
  149000   0.88050487   -3.9970671   -3.9970671   -2.6763111  0.027538457   -3.9970671     1.320756  1010000 
  150000   0.87973778   -3.9965307   -3.9965307   -2.6769253  0.032142407   -3.9965307    1.3196054  1010000 
  151000   0.88019827   -3.9981847   -3.9981847   -2.6778886  0.029288635   -3.9981847    1.3202961  1010000 
  152000   0.87913453   -3.9972284   -3.9972284   -2.6785279  0.032710179   -3.9972284    1.3187005  1010000 
  153000   0.87880248   -3.9976846   -3.9976846   -2.6794822  0.028453216   -3.9976846    1.3182024  1010000 
  154000   0.87793929   -3.9970618   -3.9970618   -2.6801542  0.026980684   -3.9970618    1.3169076  1010000 
  155000   0.87726704   -3.9970319   -3.9970319   -2.6811326  0.028398612   -3.9970319    1.3158993  1010000 
  156000    0.8776031    -3.999017    -3.999017   -2.6826137  0.023889781    -3.999017    1.3164033  1010000 
  157000   0.87696069   -3.9985678   -3.9985678   -2.6831281  0.027221807   -3.9985678    1.3154397  1010000 
  158000   0.87793951   -4.0009232   -4.0009232   -2.6840153  0.026095199   -4.0009232     1.316908  1010000 
  159000   0.87786158   -4.0006437   -4.0006437   -2.6838526  0.027236269   -4.0006437    1.3167911  1010000 
  160000   0.87853449   -4.0028208   -4.0028208   -2.6850203  0.027052218   -4.0028208    1.3178004  1010000 
  161000   0.87795485   -4.0024092   -4.0024092   -2.6854782  0.030666815   -4.0024092     1.316931  1010000 
  162000   0.87841114   -4.0043766   -4.0043766   -2.6867612  0.034704555   -4.0043766    1.3176154  1010000 
  163000   0.87956118   -4.0062884   -4.0062884   -2.6869479  0.036162783   -4.0062884    1.3193405  1010000 
  164000   0.87876361   -4.0061712   -4.0061712   -2.6880271  0.033754116   -4.0061712    1.3181441  1010000 
  165000   0.87808365    -4.005902    -4.005902   -2.6887778  0.036781358    -4.005902    1.3171242  1010000 
  166000   0.87844483   -4.0071899   -4.0071899    -2.689524  0.033546461   -4.0071899    1.3176659  1010000 
  167000   0.87886367   -4.0083811   -4.0083811   -2.6900869  0.037028039   -4.0083811    1.3182942  1010000 
  168000   0.87881981   -4.0090387   -4.0090387   -2.6908102  0.040692025   -4.0090387    1.3182284  1010000 
  169000   0.87901433   -4.0097744   -4.0097744   -2.6912543  0.035037516   -4.0097744    1.3185202  1010000 
  170000   0.87797238   -4.0092555   -4.0092555   -2.6922983  0.035847357   -4.0092555    1.3169573  1010000 
  171000   0.87702046   -4.0083329   -4.0083329   -2.6928036  0.031426068   -4.0083329    1.3155294  1010000 
  172000   0.87754953   -4.0097424   -4.0097424   -2.6934194  0.035449272   -4.0097424     1.316323  1010000 
  173000   0.87778402   -4.0102785   -4.0102785   -2.6936038  0.033056501   -4.0102785    1.3166747  1010000 
  174000   0.87738418   -4.0099393   -4.0099393   -2.6938644  0.031370659   -4.0099393     1.316075  1010000 
  175000   0.87741083   -4.0105494   -4.0105494   -2.6944345  0.037508087   -4.0105494    1.3161149  1010000 
  176000   0.87839081   -4.0127942   -4.0127942   -2.6952093   0.04034805   -4.0127942    1.3175849  1010000 
  177000   0.88002018   -4.0155895   -4.0155895   -2.6955605  0.048273886   -4.0155895     1.320029  1010000 
  178000   0.88322353   -4.0204508   -4.0204508   -2.6956168  0.054504004   -4.0204508     1.324834  1010000 
  179000   0.88670915    -4.025982    -4.025982   -2.6959196  0.075790383    -4.025982    1.3300624  1010000 
  180000   0.89019614   -4.0322463   -4.0322463   -2.6969534  0.095127894   -4.0322463    1.3352929  1010000 
  181000    0.8953783   -4.0400189   -4.0400189   -2.6969528   0.12533521   -4.0400189    1.3430661  1010000 
  182000    0.9014309   -4.0494761   -4.0494761   -2.6973311   0.14995617   -4.0494761     1.352145  1010000 
  183000   0.90733571   -4.0579519   -4.0579519   -2.6969497   0.17235404   -4.0579519    1.3610022  1010000 
  184000   0.91158744   -4.0650843   -4.0650843   -2.6977045   0.19576127   -4.0650843    1.3673798  1010000 
  185000   0.91586645   -4.0719964   -4.0719964    -2.698198   0.21246343   -4.0719964    1.3737983  1010000 
  186000   0.91850174    -4.076033    -4.076033   -2.6982817   0.22106511    -4.076033    1.3777513  1010000 
  187000   0.91931653   -4.0777339   -4.0777339   -2.6987604   0.21793648   -4.0777339    1.3789734  1010000 
  188000   0.91788369   -4.0766639   -4.0766639   -2.6998397   0.20846178   -4.0766639    1.3768242  1010000 
  189000   0.91356604   -4.0708333   -4.0708333   -2.7004856   0.19699147   -4.0708333    1.3703477  1010000 
  190000    0.9091273   -4.0646403   -4.0646403   -2.7009507   0.16954011   -4.0646403    1.3636896  1010000 
  191000   0.90265068   -4.0554745   -4.0554745   -2.7014998   0.14714951   -4.0554745    1.3539747  1010000 
  192000   0.89705047      -4.0475      -4.0475   -2.7019256    0.1257071      -4.0475    1.3455744  1010000 
  193000   0.89100481   -4.0386023   -4.0386023   -2.7020964  0.099387866   -4.0386023    1.3365059  1010000 
  194000   0.88519807   -4.0311997   -4.0311997   -2.7034039  0.075545656   -4.0311997    1.3277958  1010000 
  195000   0.88021706    -4.024321    -4.024321   -2.7039967  0.054557299    -4.024321    1.3203243  1010000 
  196000   0.87506349   -4.0176159   -4.0176159    -2.705022  0.039325166   -4.0176159    1.3125939  1010000 
  197000   0.87236657   -4.0136845   -4.0136845    -2.705136   0.02434532   -4.0136845    1.3085486  1010000 
  198000   0.86937587   -4.0094106   -4.0094106   -2.7053481  0.017821556   -4.0094106    1.3040625  1010000 
  199000   0.86722354   -4.0061537   -4.0061537   -2.7053197  0.014649613   -4.0061537     1.300834  1010000 
  200000   0.86678804   -4.0057178   -4.0057178    -2.705537 0.0082195569   -4.0057178    1.3001808  1010000 
  201000   0.86713548   -4.0066262   -4.0066262   -2.7059242 0.0093486744   -4.0066262    1.3007019  1010000 
  202000   0.86731943   -4.0069572   -4.0069572   -2.7059794 0.0097028424   -4.0069572    1.3009779  1010000 
  203000    0.8683041   -4.0096569   -4.0096569    -2.707202  0.014114681   -4.0096569    1.3024549  1010000 
  204000   0.86956129   -4.0119079   -4.0119079   -2.7075672  0.020826102   -4.0119079    1.3043406  1010000 
  205000   0.87011985    -4.014129    -4.014129   -2.7089505  0.025222417    -4.014129    1.3051785  1010000 
  206000   0.87183358   -4.0169506   -4.0169506   -2.7092016  0.028821066   -4.0169506    1.3077491  1010000 
  207000   0.87341177   -4.0198339   -4.0198339   -2.7097175  0.039620436   -4.0198339    1.3101164  1010000 
  208000    0.8741569   -4.0208492   -4.0208492   -2.7096151  0.043766161   -4.0208492     1.311234  1010000 
  209000   0.87644828   -4.0249137   -4.0249137   -2.7102426  0.042337979   -4.0249137    1.3146711  1010000 
  210000   0.87738113   -4.0269534   -4.0269534    -2.710883  0.048053065   -4.0269534    1.3160704  1010000 
  211000   0.87755325   -4.0273218   -4.0273218   -2.7109933  0.052869455   -4.0273218    1.3163286  1010000 
  212000   0.87674778   -4.0269634   -4.0269634   -2.7118431  0.049862493   -4.0269634    1.3151204  1010000 
  213000   0.87689395   -4.0274383   -4.0274383   -2.7120987  0.048527443   -4.0274383    1.3153396  1010000 
  214000   0.87601097   -4.0270211   -4.0270211    -2.713006  0.041542315   -4.0270211    1.3140152  1010000 
  215000   0.87386007   -4.0241212   -4.0241212   -2.7133324   0.04101891   -4.0241212    1.3107888  1010000 
  216000   0.87276062   -4.0231323   -4.0231323   -2.7139926  0.037187017   -4.0231323    1.3091396  1010000 
  217000   0.87076325   -4.0210137   -4.0210137   -2.7148702  0.029144065   -4.0210137    1.3061436  1010000 
  218000   0.86878481   -4.0184577   -4.0184577   -2.7152818  0.024216465   -4.0184577    1.3031759  1010000 
  219000   0.86815519   -4.0176871   -4.0176871   -2.7154556    0.0195341   -4.0176871    1.3022315  1010000 
  220000   0.86649611    -4.015753    -4.015753   -2.7160101  0.014462173    -4.015753    1.2997429  1010000 
  221000   0.86485681   -4.0135663   -4.0135663   -2.7162824  0.014216114   -4.0135663    1.2972839  1010000 
  222000   0.86584216   -4.0154415   -4.0154415   -2.7166796 0.0095386644   -4.0154415     1.298762  1010000 
  223000   0.86626071   -4.0164754   -4.0164754   -2.7170856  0.013775423   -4.0164754    1.2993898  1010000 
  224000    0.8660311   -4.0165228   -4.0165228   -2.7174774  0.017152854   -4.0165228    1.2990454  1010000 
  225000   0.86717531   -4.0181104   -4.0181104   -2.7173487  0.016670284   -4.0181104    1.3007617  1010000 
  226000   0.86796234   -4.0193709   -4.0193709   -2.7174287  0.021578366   -4.0193709    1.3019422  1010000 
  227000   0.87034182   -4.0224945   -4.0224945   -2.7169831   0.03127723   -4.0224945    1.3055114  1010000 
  228000   0.87091472   -4.0237313   -4.0237313   -2.7173605  0.028648936   -4.0237313    1.3063708  1010000 
  229000   0.87174339   -4.0261844   -4.0261844   -2.7185706  0.040000809   -4.0261844    1.3076138  1010000 
  230000   0.87210948   -4.0276366   -4.0276366   -2.7194736  0.037574659   -4.0276366    1.3081629  1010000 
  231000   0.87306314   -4.0296178   -4.0296178   -2.7200243   0.04297449   -4.0296178    1.3095934  1010000 
  232000   0.87354769   -4.0308894   -4.0308894   -2.7205692  0.046404107   -4.0308894    1.3103202  1010000 
  233000   0.87393465   -4.0321269   -4.0321269   -2.7212262  0.043641593   -4.0321269    1.3109007  1010000 
  234000   0.87378808   -4.0323298   -4.0323298    -2.721649  0.046200628   -4.0323298    1.3106808  1010000 
  235000   0.87388118   -4.0325875   -4.0325875    -2.721767  0.044585415   -4.0325875    1.3108205  1010000 
  236000   0.87287589    -4.031942    -4.031942   -2.7226294  0.046445197    -4.031942    1.3093125  1010000 
  237000   0.87184497   -4.0307492   -4.0307492   -2.7229831  0.037428445   -4.0307492    1.3077662  1010000 
  238000   0.87007413   -4.0288461   -4.0288461   -2.7237362  0.034691099   -4.0288461    1.3051099  1010000 
  239000   0.86882253   -4.0277269   -4.0277269   -2.7244944  0.027992694   -4.0277269    1.3032325  1010000 
  240000   0.86924252   -4.0282201   -4.0282201   -2.7243576  0.024547218   -4.0282201    1.3038625  1010000 
  241000   0.86733812    -4.025554    -4.025554   -2.7245481  0.024116141    -4.025554    1.3010059  1010000 
  242000    0.8659835   -4.0239731   -4.0239731   -2.7249991  0.024571292   -4.0239731     1.298974  1010000 
  243000   0.86521027   -4.0236189   -4.0236189   -2.7258048  0.019664745   -4.0236189    1.2978141  1010000 
  244000   0.86543252    -4.024317    -4.024317   -2.7261695  0.015416471    -4.024317    1.2981475  1010000 
  245000   0.86605419   -4.0251841   -4.0251841   -2.7261041  0.018307377   -4.0251841      1.29908  1010000 
  246000   0.86557818   -4.0253342   -4.0253342   -2.7269682  0.016032904   -4.0253342     1.298366  1010000 
  247000   0.86615039   -4.0265747   -4.0265747   -2.7273504  0.021567591   -4.0265747    1.2992243  1010000 
  248000   0.86641825    -4.027321    -4.027321   -2.7276949  0.023257499    -4.027321    1.2996261  1010000 
  249000   0.86818649   -4.0305403   -4.0305403   -2.7282619   0.03076784   -4.0305403    1.3022785  1010000 
  250000    0.8689081   -4.0321882   -4.0321882   -2.7288274  0.032967413   -4.0321882    1.3033609  1010000 
  251000   0.87053411   -4.0355376   -4.0355376   -2.7297377  0.035647342   -4.0355376    1.3057999  1010000 
  252000   0.87037671   -4.0357608   -4.0357608    -2.730197  0.038349394   -4.0357608    1.3055638  1010000 
  253000    0.8707342     -4.03683     -4.03683     -2.73073  0.038659134     -4.03683       1.3061  1010000 
  254000   0.87148876   -4.0378611   -4.0378611   -2.7306293  0.040109462   -4.0378611    1.3072319  1010000 
  255000   0.87095053   -4.0381886   -4.0381886   -2.7317641  0.040641989   -4.0381886    1.3064245  1010000 
  256000    0.8707072   -4.0394651   -4.0394651   -2.7334056  0.041249114   -4.0394651    1.3060595  1010000 
  257000   0.87084231   -4.0394395   -4.0394395   -2.7331773  0.038349494   -4.0394395    1.3062622  1010000 
  258000   0.87064406   -4.0396575   -4.0396575   -2.7336927  0.036150442   -4.0396575    1.3059648  1010000 
  259000   0.86967889   -4.0384075   -4.0384075   -2.7338905  0.036153217   -4.0384075     1.304517  1010000 
  260000   0.86935459   -4.0388807   -4.0388807   -2.7348501  0.029907866   -4.0388807    1.3040306  1010000 
  261000   0.86859849   -4.0377473   -4.0377473   -2.7348509   0.02820432   -4.0377473    1.3028964  1010000 
  262000   0.86726155   -4.0363226   -4.0363226   -2.7354315  0.026371516   -4.0363226     1.300891  1010000 
  263000   0.86740248   -4.0364988   -4.0364988   -2.7353963  0.022411073   -4.0364988    1.3011024  1010000 
  264000   0.86662791   -4.0356797   -4.0356797   -2.7357391  0.023215537   -4.0356797    1.2999406  1010000 
  265000   0.86609367   -4.0353299   -4.0353299   -2.7361906  0.023927308   -4.0353299    1.2991392  1010000 
  266000   0.86613106   -4.0356029   -4.0356029   -2.7364076  0.024634766   -4.0356029    1.2991953  1010000 
  267000   0.86521976   -4.0346279   -4.0346279   -2.7367996  0.023077167   -4.0346279    1.2978283  1010000 
  268000   0.86609674   -4.0371412   -4.0371412   -2.7379974  0.020128922   -4.0371412    1.2991438  1010000 
  269000   0.86468798   -4.0352918   -4.0352918   -2.7382612    0.0237803   -4.0352918    1.2970307  1010000 
  270000   0.86521024   -4.0362145   -4.0362145   -2.7384004  0.034226749   -4.0362145    1.2978141  1010000 
  271000   0.86698696   -4.0392763   -4.0392763   -2.7387972  0.032014713   -4.0392763    1.3004792  1010000 
  272000   0.86869122   -4.0422055   -4.0422055   -2.7391699  0.033595037   -4.0422055    1.3030355  1010000 
  273000   0.86862495   -4.0429116   -4.0429116   -2.7399754  0.028080642   -4.0429116    1.3029361  1010000 
  274000   0.86827261   -4.0429638   -4.0429638   -2.7405562  0.033902234   -4.0429638    1.3024076  1010000 
  275000   0.86922805   -4.0449373   -4.0449373   -2.7410965  0.031568539   -4.0449373    1.3038408  1010000 
  276000   0.86930174   -4.0459229   -4.0459229   -2.7419716  0.034446539   -4.0459229    1.3039513  1010000 
  277000   0.86859074   -4.0444495   -4.0444495   -2.7415646  0.036942858   -4.0444495    1.3028848  1010000 
  278000   0.87002351    -4.047006    -4.047006   -2.7419721  0.032963805    -4.047006     1.305034  1010000 
  279000   0.86933834   -4.0466051   -4.0466051   -2.7425988  0.035581641   -4.0466051    1.3040062  1010000 
  280000   0.87019194    -4.047931    -4.047931   -2.7426444  0.031878662    -4.047931    1.3052866  1010000 
  281000   0.86875369   -4.0467702   -4.0467702    -2.743641  0.034133688   -4.0467702    1.3031292  1010000 
  282000   0.86800451   -4.0459484   -4.0459484   -2.7439429  0.032959259   -4.0459484    1.3020055  1010000 
  283000   0.86639387   -4.0445187   -4.0445187   -2.7449292  0.029522887   -4.0445187    1.2995895  1010000 
  284000   0.86572785   -4.0442672   -4.0442672   -2.7456767  0.027224406   -4.0442672    1.2985905  1010000 
  285000   0.86638754    -4.045853    -4.045853    -2.746273  0.026306659    -4.045853      1.29958  1010000 
  286000   0.86502783   -4.0446525   -4.0446525    -2.747112  0.024992707   -4.0446525    1.2975405  1010000 
  287000   0.86511062   -4.0451406   -4.0451406    -2.747476  0.020278472   -4.0451406    1.2976646  1010000 
  288000    0.8644245   -4.0445266   -4.0445266   -2.7478912  0.020449252   -4.0445266    1.2966355  1010000 
  289000   0.86405258   -4.0449915   -4.0449915    -2.748914  0.024587362   -4.0449915    1.2960776  1010000 
  290000   0.86492197   -4.0473185   -4.0473185   -2.7499368  0.021208068   -4.0473185    1.2973817  1010000 
  291000   0.86479315   -4.0473492   -4.0473492   -2.7501607  0.024141727   -4.0473492    1.2971884  1010000 
  292000   0.86503993   -4.0481948   -4.0481948   -2.7506362  0.024242798   -4.0481948    1.2975586  1010000 
  293000   0.86463991   -4.0481323   -4.0481323   -2.7511737  0.029865168   -4.0481323    1.2969586  1010000 
  294000   0.86627473   -4.0512257   -4.0512257   -2.7518149  0.027594219   -4.0512257    1.2994108  1010000 
  295000   0.86597344   -4.0514073   -4.0514073   -2.7524485  0.031378341   -4.0514073    1.2989589  1010000 
  296000   0.86594834   -4.0518969   -4.0518969   -2.7529757   0.03309704   -4.0518969    1.2989212  1010000 
  297000   0.86621793   -4.0528339   -4.0528339   -2.7535083  0.032708678   -4.0528339    1.2993256  1010000 
  298000   0.86662871   -4.0538444   -4.0538444   -2.7539026  0.035024783   -4.0538444    1.2999418  1010000 
  299000   0.86778199   -4.0555479   -4.0555479   -2.7538762  0.034024965   -4.0555479    1.3016717  1010000 
  300000   0.86758671   -4.0559571   -4.0559571   -2.7545783  0.033314608   -4.0559571    1.3013788  1010000 
  301000   0.86751364   -4.0557611   -4.0557611   -2.7544919  0.034583572   -4.0557611    1.3012692  1010000 
  302000   0.86695471   -4.0552853   -4.0552853   -2.7548545  0.032139206   -4.0552853    1.3004308  1010000 
  303000   0.86675143   -4.0555287   -4.0555287   -2.7554028  0.029555777   -4.0555287    1.3001259  1010000 
  304000   0.86560558   -4.0542311   -4.0542311    -2.755824  0.031690425   -4.0542311    1.2984071  1010000 
  305000   0.86594205   -4.0546378   -4.0546378    -2.755726  0.026395914   -4.0546378    1.2989118  1010000 
  306000   0.86493989   -4.0538852   -4.0538852   -2.7564767  0.028640857   -4.0538852    1.2974086  1010000 
  307000   0.86512142   -4.0547756   -4.0547756   -2.7570948  0.027103416   -4.0547756    1.2976808  1010000 
  308000   0.86524869   -4.0555938   -4.0555938   -2.7577221   0.02287698   -4.0555938    1.2978717  1010000 
  309000   0.86418404   -4.0542641   -4.0542641   -2.7579893  0.022280717   -4.0542641    1.2962748  1010000 
  310000   0.86363771    -4.054181    -4.054181   -2.7587257  0.020754615    -4.054181    1.2954553  1010000 
  311000   0.86186711   -4.0517605   -4.0517605   -2.7589611  0.023864606   -4.0517605    1.2927994  1010000 
  312000    0.8631435   -4.0544904   -4.0544904   -2.7597764   0.01920028   -4.0544904     1.294714  1010000 
  313000   0.86304969   -4.0550455   -4.0550455   -2.7604723  0.018776348   -4.0550455    1.2945733  1010000 
  314000   0.86370107   -4.0563694   -4.0563694    -2.760819  0.023046789   -4.0563694    1.2955503  1010000 
  315000   0.86402489   -4.0568028   -4.0568028   -2.7607668    0.0230825   -4.0568028    1.2960361  1010000 
  316000   0.86529766   -4.0587168   -4.0587168   -2.7607716  0.023710787   -4.0587168    1.2979452  1010000 
  317000   0.86544181   -4.0594104   -4.0594104    -2.761249  0.028376126   -4.0594104    1.2981614  1010000 
  318000   0.86442664   -4.0584843   -4.0584843   -2.7618456  0.029542919   -4.0584843    1.2966387  1010000 
  319000   0.86434046   -4.0594303   -4.0594303   -2.7629209  0.033379665   -4.0594303    1.2965094  1010000 
  320000   0.86575818   -4.0617499   -4.0617499    -2.763114  0.030881981   -4.0617499     1.298636  1010000 
  321000   0.86605954   -4.0627482   -4.0627482   -2.7636602  0.029285519   -4.0627482     1.299088  1010000 
  322000   0.86545146   -4.0621899   -4.0621899    -2.764014  0.032729957   -4.0621899    1.2981759  1010000 
  323000   0.86511479   -4.0615902   -4.0615902   -2.7639193  0.035955525   -4.0615902    1.2976709  1010000 
  324000   0.86627579   -4.0636684   -4.0636684    -2.764256   0.02824678   -4.0636684    1.2994124  1010000 
  325000   0.86526432   -4.0634981   -4.0634981   -2.7656029  0.025575433   -4.0634981    1.2978952  1010000 
  326000   0.86407236   -4.0622234   -4.0622234   -2.7661161   0.02262716   -4.0622234    1.2961073  1010000 
  327000   0.86337472    -4.061453    -4.061453   -2.7663922  0.029043907    -4.061453    1.2950608  1010000 
  328000   0.86442668   -4.0629507   -4.0629507    -2.766312  0.024921221   -4.0629507    1.2966387  1010000 
  329000   0.86309428   -4.0614799   -4.0614799   -2.7668398  0.024072302   -4.0614799    1.2946401  1010000 
  330000   0.86379826   -4.0629201   -4.0629201    -2.767224  0.023903948   -4.0629201    1.2956961  1010000 
  331000   0.86364704   -4.0633266   -4.0633266   -2.7678573   0.02299174   -4.0633266    1.2954693  1010000 
  332000   0.86362271    -4.063628    -4.063628   -2.7681953  0.022260643    -4.063628    1.2954328  1010000 
  333000   0.86154727   -4.0610002   -4.0610002   -2.7686806  0.023634041   -4.0610002    1.2923196  1010000 
  334000   0.86188811   -4.0621364   -4.0621364   -2.7693055  0.018594789   -4.0621364    1.2928309  1010000 
  335000   0.86244504     -4.06406     -4.06406   -2.7703937  0.014295429     -4.06406    1.2936663  1010000 
  336000   0.86219712   -4.0639183   -4.0639183   -2.7706239  0.020815938   -4.0639183    1.2932944  1010000 
  337000   0.86212797   -4.0640626   -4.0640626   -2.7708719  0.019157591   -4.0640626    1.2931907  1010000 
  338000   0.86123617   -4.0632044   -4.0632044   -2.7713515  0.027307111   -4.0632044     1.291853  1010000 
  339000   0.86216946   -4.0652821   -4.0652821   -2.7720292  0.020794183   -4.0652821    1.2932529  1010000 
  340000   0.86266068   -4.0665828   -4.0665828   -2.7725931   0.02521044   -4.0665828    1.2939897  1010000 
  341000   0.86284833   -4.0675028   -4.0675028   -2.7732316  0.024915379   -4.0675028    1.2942712  1010000 
  342000   0.86352601   -4.0688442   -4.0688442   -2.7735565  0.023831345   -4.0688442    1.2952877  1010000 
  343000   0.86356159   -4.0690821   -4.0690821    -2.773741  0.028502167   -4.0690821    1.2953411  1010000 
  344000   0.86462949   -4.0707122   -4.0707122   -2.7737693  0.025877623   -4.0707122    1.2969429  1010000 
  345000   0.86478264   -4.0715188   -4.0715188   -2.7743461  0.030488608   -4.0715188    1.2971727  1010000 
  346000    0.8649319   -4.0717827   -4.0717827   -2.7743862   0.03244091   -4.0717827    1.2973966  1010000 
  347000   0.86512235    -4.072571    -4.072571   -2.7748888  0.031567716    -4.072571    1.2976822  1010000 
  348000   0.86418496   -4.0716395   -4.0716395   -2.7753634  0.029848559   -4.0716395    1.2962762  1010000 
  349000   0.86264546   -4.0701365   -4.0701365   -2.7761696  0.030885764   -4.0701365    1.2939669  1010000 
  350000   0.86324448   -4.0719708   -4.0719708   -2.7771054  0.024051868   -4.0719708    1.2948654  1010000 
  351000   0.86246587   -4.0723533   -4.0723533   -2.7786558  0.022427935   -4.0723533    1.2936975  1010000 
  352000   0.86230588   -4.0717394   -4.0717394   -2.7782819   0.02155465   -4.0717394    1.2934575  1010000 
  353000   0.86158632   -4.0708009   -4.0708009   -2.7784227  0.020329804   -4.0708009    1.2923782  1010000 
  354000   0.86087522   -4.0707815   -4.0707815   -2.7794699  0.021650493   -4.0707815    1.2913116  1010000 
  355000   0.86119553   -4.0715203   -4.0715203   -2.7797283  0.016331892   -4.0715203     1.291792  1010000 
  356000   0.86122328   -4.0718713   -4.0718713   -2.7800377  0.016999994   -4.0718713    1.2918336  1010000 
  357000   0.85997646   -4.0705779   -4.0705779   -2.7806145   0.01936602   -4.0705779    1.2899634  1010000 
  358000   0.86005585    -4.071334    -4.071334   -2.7812516  0.020143957    -4.071334    1.2900825  1010000 
  359000   0.85935676    -4.070863    -4.070863   -2.7818291  0.020433601    -4.070863    1.2890339  1010000 
  360000   0.85963356   -4.0713169   -4.0713169   -2.7818679  0.023194669   -4.0713169    1.2894491  1010000 
  361000   0.86084624   -4.0733383   -4.0733383   -2.7820702  0.024639089   -4.0733383    1.2912681  1010000 
  362000   0.86203896   -4.0756283   -4.0756283   -2.7825712  0.024258738   -4.0756283    1.2930572  1010000 
  363000    0.8624327   -4.0767082   -4.0767082   -2.7830604  0.023875385   -4.0767082    1.2936478  1010000 
  364000    0.8621263    -4.076311    -4.076311   -2.7831228  0.022091013    -4.076311    1.2931882  1010000 
  365000   0.86224191   -4.0768557   -4.0768557   -2.7834942  0.024724805   -4.0768557    1.2933616  1010000 
  366000   0.86236877   -4.0774591   -4.0774591   -2.7839072  0.026807467   -4.0774591    1.2935519  1010000 
  367000   0.86195285   -4.0775176   -4.0775176   -2.7845896  0.027834055   -4.0775176     1.292928  1010000 
  368000   0.86224513   -4.0779664   -4.0779664      -2.7846  0.027480939   -4.0779664    1.2933664  1010000 
  369000    0.8622219   -4.0783116   -4.0783116   -2.7849801  0.026121172   -4.0783116    1.2933316  1010000 
  370000    0.8617208   -4.0778502   -4.0778502   -2.7852703  0.023995693   -4.0778502    1.2925799  1010000 
  371000   0.86185408   -4.0781375   -4.0781375   -2.7853577   0.02410838   -4.0781375    1.2927798  1010000 
  372000   0.86128134   -4.0775255   -4.0775255   -2.7856048  0.026061184   -4.0775255    1.2919207  1010000 
  373000     0.860811   -4.0775302   -4.0775302    -2.786315  0.023745905   -4.0775302    1.2912152  1010000 
  374000   0.86044888   -4.0777036   -4.0777036   -2.7870315  0.019412411   -4.0777036     1.290672  1010000 
  375000   0.85984143   -4.0769791   -4.0769791   -2.7872182  0.015955828   -4.0769791    1.2897609  1010000 
  376000    0.8602274   -4.0780543   -4.0780543   -2.7877145   0.01621558   -4.0780543    1.2903398  1010000 
  377000   0.85872049   -4.0758642   -4.0758642   -2.7877847   0.02288877   -4.0758642    1.2880795  1010000 
  378000   0.86040825   -4.0783603   -4.0783603   -2.7877492  0.018908214   -4.0783603    1.2906111  1010000 
  379000   0.86010963   -4.0796346   -4.0796346   -2.7894715  0.015635511   -4.0796346    1.2901632  1010000 
  380000   0.85891138   -4.0784685   -4.0784685   -2.7901027  0.020246297   -4.0784685    1.2883658  1010000 
  381000   0.85840628   -4.0784377   -4.0784377   -2.7908296  0.020056002   -4.0784377    1.2876081  1010000 
  382000   0.85859435   -4.0793717   -4.0793717   -2.7914815   0.01647914   -4.0793717    1.2878902  1010000 
  383000   0.85915698   -4.0804154   -4.0804154   -2.7916812  0.014314295   -4.0804154    1.2887342  1010000 
  384000   0.85961648   -4.0815588   -4.0815588   -2.7921353  0.019554736   -4.0815588    1.2894234  1010000 
  385000   0.85917494   -4.0813922   -4.0813922    -2.792631  0.025930297   -4.0813922    1.2887611  1010000 
  386000   0.86029756   -4.0832481   -4.0832481   -2.7928031  0.020157989   -4.0832481    1.2904451  1010000 
  387000   0.86069325   -4.0847098   -4.0847098   -2.7936712  0.022083346   -4.0847098    1.2910386  1010000 
  388000   0.86072984   -4.0854388   -4.0854388   -2.7943453  0.022672974   -4.0854388    1.2910935  1010000 
  389000   0.85985581   -4.0846465   -4.0846465   -2.7948641  0.029763307   -4.0846465    1.2897824  1010000 
  390000   0.86022306   -4.0859687   -4.0859687   -2.7956354  0.024784952   -4.0859687    1.2903333  1010000 
  391000   0.86042096   -4.0859393   -4.0859393   -2.7953091  0.027494545   -4.0859393    1.2906302  1010000 
  392000   0.86038094   -4.0865228   -4.0865228   -2.7959527  0.020383977   -4.0865228    1.2905701  1010000 
  393000   0.86034372    -4.086672    -4.086672   -2.7961577  0.022560658    -4.086672    1.2905143  1010000 
  394000   0.85962996   -4.0859784   -4.0859784   -2.7965348  0.019761365   -4.0859784    1.2894437  1010000 
  395000   0.85945775   -4.0862846   -4.0862846   -2.7970992  0.018779375   -4.0862846    1.2891854  1010000 
  396000   0.85905089   -4.0861315   -4.0861315   -2.7975565  0.017726626   -4.0861315    1.2885751  1010000 
  397000   0.85932898   -4.0866277   -4.0866277   -2.7976355  0.020650572   -4.0866277    1.2889922  1010000 
  398000   0.85856029   -4.0855595   -4.0855595   -2.7977203  0.022352319   -4.0855595    1.2878392  1010000 
  399000   0.85946579   -4.0877783   -4.0877783   -2.7985808  0.018736736   -4.0877783    1.2891974  1010000 
  400000   0.85794319   -4.0857067   -4.0857067   -2.7987932  0.019399846   -4.0857067    1.2869135  1010000 
  401000   0.85857017   -4.0873914   -4.0873914   -2.7995374   0.01563163   -4.0873914     1.287854  1010000 
  402000   0.85847594   -4.0875813   -4.0875813   -2.7998686  0.018031394   -4.0875813    1.2877126  1010000 
  403000   0.85774905   -4.0873987   -4.0873987   -2.8007764  0.015633771   -4.0873987    1.2866223  1010000 
  404000   0.85793767   -4.0878383   -4.0878383    -2.800933  0.015938414   -4.0878383    1.2869052  1010000 
  405000   0.85833508   -4.0897129   -4.0897129   -2.8022116  0.016097995   -4.0897129    1.2875013  1010000 
  406000   0.85848625   -4.0895792   -4.0895792   -2.8018511  0.018240925   -4.0895792    1.2877281  1010000 
  407000   0.85841728   -4.0901842   -4.0901842   -2.8025595  0.016023668   -4.0901842    1.2876247  1010000 
  408000   0.85828956    -4.090356    -4.090356   -2.8029229  0.021413443    -4.090356    1.2874331  1010000 
  409000   0.85840043   -4.0913618   -4.0913618   -2.8037625  0.014981818   -4.0913618    1.2875994  1010000 
  410000   0.85907375   -4.0917537   -4.0917537   -2.8031444  0.020618951   -4.0917537    1.2886093  1010000 
  411000   0.85873248    -4.091958    -4.091958   -2.8038606  0.022238105    -4.091958    1.2880974  1010000 
  412000   0.85920782   -4.0931029   -4.0931029   -2.8042924  0.023185517   -4.0931029    1.2888104  1010000 
  413000   0.85984139   -4.0938854   -4.0938854   -2.8041246  0.020382291   -4.0938854    1.2897608  1010000 
  414000   0.85982201   -4.0942041   -4.0942041   -2.8044723  0.018129398   -4.0942041    1.2897317  1010000 
  415000   0.85878134   -4.0930459   -4.0930459   -2.8048752  0.023724594   -4.0930459    1.2881707  1010000 
  416000   0.85843235   -4.0927661   -4.0927661   -2.8051189  0.022951937   -4.0927661    1.2876473  1010000 
  417000   0.85902652   -4.0941825   -4.0941825    -2.805644  0.020518572   -4.0941825    1.2885385  1010000 
  418000   0.85739429   -4.0917249   -4.0917249   -2.8056348   0.02343577   -4.0917249    1.2860902  1010000 
  419000   0.85788113   -4.0924807   -4.0924807   -2.8056603   0.01648964   -4.0924807    1.2868204  1010000 
  420000   0.85845899    -4.093694    -4.093694   -2.8060068   0.01389705    -4.093694    1.2876872  1010000 
  421000   0.85783237   -4.0927418   -4.0927418   -2.8059945   0.01746007   -4.0927418    1.2867473  1010000 
  422000    0.8576028   -4.0930063   -4.0930063   -2.8066033  0.013578786   -4.0930063    1.2864029  1010000 
  423000   0.85692935   -4.0922194   -4.0922194   -2.8068267  0.017978006   -4.0922194    1.2853928  1010000 
  424000   0.85739606   -4.0938092   -4.0938092   -2.8077164  0.015518479   -4.0938092    1.2860928  1010000 
  425000   0.85786445   -4.0946958   -4.0946958   -2.8079005   0.01858551   -4.0946958    1.2867954  1010000 
  426000   0.85743347   -4.0946898   -4.0946898   -2.8085408  0.017412862   -4.0946898    1.2861489  1010000 
  427000   0.85729806   -4.0950264   -4.0950264   -2.8090806  0.018930691   -4.0950264    1.2859458  1010000 
  428000   0.85744346   -4.0956638   -4.0956638   -2.8094999  0.018257096   -4.0956638    1.2861639  1010000 
  429000   0.85690733   -4.0953317   -4.0953317    -2.809972  0.023336235   -4.0953317    1.2853597  1010000 
  430000   0.85744337   -4.0961946   -4.0961946   -2.8100309  0.020471516   -4.0961946    1.2861638  1010000 
  431000   0.85747058   -4.0963781   -4.0963781   -2.8101735  0.019079591   -4.0963781    1.2862046  1010000 
  432000   0.85720945   -4.0970465   -4.0970465   -2.8112336  0.018632219   -4.0970465    1.2858129  1010000 
  433000   0.85703074   -4.0965962   -4.0965962   -2.8110513  0.022958281   -4.0965962    1.2855448  1010000 
  434000    0.8574479    -4.097514    -4.097514   -2.8113434   0.02286085    -4.097514    1.2861706  1010000 
  435000   0.85783912   -4.0988033   -4.0988033   -2.8120459   0.02178072   -4.0988033    1.2867574  1010000 
  436000   0.85782751    -4.098662    -4.098662    -2.811922  0.019320565    -4.098662      1.28674  1010000 
  437000   0.85701824    -4.098411    -4.098411   -2.8128849  0.017498831    -4.098411    1.2855261  1010000 
  438000   0.85653642   -4.0979713   -4.0979713   -2.8131679  0.018027312   -4.0979713    1.2848034  1010000 
  439000   0.85627143   -4.0981132   -4.0981132   -2.8137073  0.015675246   -4.0981132    1.2844059  1010000 
  440000   0.85593784   -4.0978244   -4.0978244   -2.8139189  0.016254884   -4.0978244    1.2839055  1010000 
  441000   0.85636631   -4.0984962   -4.0984962    -2.813948  0.016118921   -4.0984962    1.2845482  1010000 
  442000   0.85634714   -4.0992608   -4.0992608   -2.8147414  0.016592448   -4.0992608    1.2845194  1010000 
  443000   0.85514962   -4.0977055   -4.0977055   -2.8149824  0.017544496   -4.0977055    1.2827232  1010000 
  444000   0.85636739   -4.0999647   -4.0999647   -2.8154149  0.013800425   -4.0999647    1.2845498  1010000 
  445000    0.8566203   -4.1010659   -4.1010659   -2.8161367  0.013299609   -4.1010659    1.2849292  1010000 
  446000   0.85562649   -4.0999952   -4.0999952   -2.8165567  0.017737189   -4.0999952    1.2834385  1010000 
  447000   0.85591949   -4.1005394   -4.1005394   -2.8166614  0.018115892   -4.1005394     1.283878  1010000 
  448000   0.85625051   -4.1022853   -4.1022853   -2.8179108  0.017777271   -4.1022853    1.2843745  1010000 
  449000   0.85610397   -4.1028216   -4.1028216   -2.8186669  0.013765904   -4.1028216    1.2841547  1010000 
  450000   0.85617918   -4.1033609   -4.1033609   -2.8190934  0.018914385   -4.1033609    1.2842675  1010000 
  451000   0.85658621   -4.1043235   -4.1043235   -2.8194455  0.019898239   -4.1043235     1.284878  1010000 
  452000   0.85622309   -4.1037199   -4.1037199   -2.8193865   0.01818412   -4.1037199    1.2843334  1010000 
  453000   0.85770063   -4.1056966   -4.1056966   -2.8191469  0.023243114   -4.1056966    1.2865497  1010000 
  454000   0.85720494   -4.1051296   -4.1051296   -2.8193235  0.021141986   -4.1051296    1.2858061  1010000 
  455000   0.85715062   -4.1060523   -4.1060523   -2.8203276   0.02131006   -4.1060523    1.2857247  1010000 
  456000   0.85700689   -4.1066755   -4.1066755   -2.8211664  0.015968556   -4.1066755    1.2855091  1010000 
  457000   0.85585412   -4.1053276   -4.1053276   -2.8215477  0.017705177   -4.1053276    1.2837799  1010000 
  458000   0.85533666   -4.1046539   -4.1046539   -2.8216502   0.01737658   -4.1046539    1.2830037  1010000 
  459000   0.85519483   -4.1043875   -4.1043875   -2.8215965  0.017285337   -4.1043875     1.282791  1010000 
  460000   0.85441992   -4.1032586   -4.1032586     -2.82163  0.019914101   -4.1032586    1.2816286  1010000 
  461000    0.8552178    -4.104679    -4.104679   -2.8218535  0.017240287    -4.104679    1.2828254  1010000 
  462000   0.85509391   -4.1046952   -4.1046952   -2.8220556 0.0098720503   -4.1046952    1.2826396  1010000 
  463000   0.85400321   -4.1037134   -4.1037134   -2.8227099  0.012636214   -4.1037134    1.2810035  1010000 
  464000   0.85415017   -4.1044724   -4.1044724   -2.8232484  0.013542521   -4.1044724     1.281224  1010000 
  465000   0.85433569   -4.1048335   -4.1048335   -2.8233312   0.01296687   -4.1048335    1.2815023  1010000 
  466000   0.85409531   -4.1047636   -4.1047636   -2.8236219  0.014931172   -4.1047636    1.2811417  1010000 
  467000   0.85431141   -4.1057644   -4.1057644   -2.8242985  0.011423512   -4.1057644    1.2814658  1010000 
  468000   0.85386368   -4.1058366   -4.1058366   -2.8250424  0.014808525   -4.1058366    1.2807943  1010000 
  469000    0.8549502   -4.1076818   -4.1076818   -2.8252578  0.015982863   -4.1076818     1.282424  1010000 
  470000   0.85540814   -4.1083261   -4.1083261   -2.8252151  0.015608211   -4.1083261    1.2831109  1010000 
  471000   0.85534669   -4.1083282   -4.1083282   -2.8253095  0.021576069   -4.1083282    1.2830188  1010000 
  472000   0.85684036   -4.1109806   -4.1109806   -2.8257213  0.015512366   -4.1109806    1.2852593  1010000 
  473000   0.85566962   -4.1099405   -4.1099405   -2.8264374  0.018764492   -4.1099405    1.2835032  1010000 
  474000   0.85530206   -4.1099938   -4.1099938    -2.827042  0.022800889   -4.1099938    1.2829518  1010000 
  475000    0.8552409   -4.1104874   -4.1104874   -2.8276273  0.021863948   -4.1104874    1.2828601  1010000 
  476000   0.85591656   -4.1120123   -4.1120123   -2.8281387  0.019340446   -4.1120123    1.2838736  1010000 
  477000   0.85608921   -4.1120978   -4.1120978   -2.8279652  0.018116782   -4.1120978    1.2841325  1010000 
  478000   0.85515827   -4.1110944   -4.1110944   -2.8283582   0.02284902   -4.1110944    1.2827361  1010000 
  479000   0.85579753   -4.1124807   -4.1124807   -2.8287857  0.018905392   -4.1124807     1.283695  1010000 
  480000   0.85509426   -4.1118575   -4.1118575   -2.8292174  0.019240866   -4.1118575    1.2826401  1010000 
  481000   0.85538121   -4.1129175   -4.1129175   -2.8298469  0.015409733   -4.1129175    1.2830705  1010000 
  482000   0.85529119   -4.1128458   -4.1128458   -2.8299102  0.013410379   -4.1128458    1.2829355  1010000 
  483000   0.85371806   -4.1111538   -4.1111538    -2.830578  0.014279494   -4.1111538    1.2805758  1010000 
  484000   0.85368473   -4.1117804   -4.1117804   -2.8312546  0.011632886   -4.1117804    1.2805258  1010000 
  485000   0.85385327   -4.1120664   -4.1120664   -2.8312877  0.013648218   -4.1120664    1.2807786  1010000 
  486000   0.85385448   -4.1126357   -4.1126357   -2.8318552  0.010657476   -4.1126357    1.2807805  1010000 
  487000   0.85262186   -4.1108339   -4.1108339   -2.8319024  0.016034341   -4.1108339    1.2789315  1010000 
  488000   0.85300422   -4.1113441   -4.1113441    -2.831839  0.011900128   -4.1113441    1.2795051  1010000 
  489000   0.85357936   -4.1124256   -4.1124256   -2.8320578  0.010048888   -4.1124256    1.2803678  1010000 
  490000   0.85351279   -4.1126366   -4.1126366   -2.8323686  0.013800762   -4.1126366    1.2802679  1010000 
  491000   0.85300896   -4.1124687   -4.1124687   -2.8329566  0.014405544   -4.1124687    1.2795122  1010000 
  492000   0.85369923   -4.1133367   -4.1133367   -2.8327891   0.01192912   -4.1133367    1.2805476  1010000 
  493000   0.85320879   -4.1127671   -4.1127671   -2.8329552  0.018529722   -4.1127671    1.2798119  1010000 
  494000   0.85413771   -4.1143143   -4.1143143    -2.833109  0.018084137   -4.1143143    1.2812053  1010000 
  495000   0.85458114   -4.1149703   -4.1149703   -2.8330999  0.015268171   -4.1149703    1.2818704  1010000 
  496000   0.85511056   -4.1158013   -4.1158013   -2.8331368  0.017218871   -4.1158013    1.2826646  1010000 
  497000   0.85431917   -4.1149095   -4.1149095    -2.833432  0.020387351   -4.1149095    1.2814775  1010000 
  498000   0.85472188   -4.1167043   -4.1167043   -2.8346227  0.017428258   -4.1167043    1.2820816  1010000 
  499000   0.85504288   -4.1176257   -4.1176257   -2.8350626  0.014821157   -4.1176257    1.2825631  1010000 
  500000    0.8540261   -4.1163511   -4.1163511   -2.8353132  0.017873515   -4.1163511    1.2810379  1010000 
  501000   0.85368852   -4.1164235   -4.1164235    -2.835892  0.017486723   -4.1164235    1.2805315  1010000 
  502000   0.85314958   -4.1152089   -4.1152089   -2.8354858  0.015957329   -4.1152089    1.2797231  1010000 
  503000   0.85440612   -4.1172708   -4.1172708   -2.8356629  0.016369926   -4.1172708    1.2816079  1010000 
  504000   0.85346772   -4.1175182   -4.1175182   -2.8373179  0.017500825   -4.1175182    1.2802003  1010000 
  505000   0.85307711   -4.1170432   -4.1170432   -2.8374288  0.017053209   -4.1170432    1.2796144  1010000 
  506000   0.85372329   -4.1181104   -4.1181104   -2.8375267  0.012377112   -4.1181104    1.2805837  1010000 
  507000   0.85345983   -4.1179454   -4.1179454   -2.8377569  0.013831261   -4.1179454    1.2801885  1010000 
  508000   0.85384744   -4.1190481   -4.1190481   -2.8382782  0.012810021   -4.1190481    1.2807699  1010000 
  509000   0.85291457   -4.1185045   -4.1185045   -2.8391339  0.013044025   -4.1185045    1.2793706  1010000 
  510000   0.85205751   -4.1177566   -4.1177566   -2.8396716   0.01053789   -4.1177566     1.278085  1010000 
  511000   0.85144843    -4.116972    -4.116972   -2.8398007  0.012421994    -4.116972    1.2771714  1010000 
  512000   0.85248177    -4.118837    -4.118837   -2.8401157  0.012334229    -4.118837    1.2787214  1010000 
  513000   0.85302523   -4.1200952   -4.1200952   -2.8405587   0.01086068   -4.1200952    1.2795366  1010000 
  514000   0.85296241   -4.1203865   -4.1203865   -2.8409441  0.010337612   -4.1203865    1.2794424  1010000 
  515000   0.85132374   -4.1187687   -4.1187687   -2.8417843  0.015363466   -4.1187687    1.2769843  1010000 
  516000   0.85233772   -4.1213866   -4.1213866   -2.8428813  0.012988904   -4.1213866    1.2785053  1010000 
  517000    0.8513195   -4.1206309   -4.1206309   -2.8436529  0.017715453   -4.1206309     1.276978  1010000 
  518000   0.85260516   -4.1226184   -4.1226184    -2.843712  0.018564273   -4.1226184    1.2789065  1010000 
  519000   0.85320887   -4.1244058   -4.1244058   -2.8445938  0.016935282   -4.1244058     1.279812  1010000 
  520000   0.85355239   -4.1250097   -4.1250097   -2.8446824  0.015393373   -4.1250097    1.2803273  1010000 
  521000   0.85336698   -4.1248736   -4.1248736   -2.8448244  0.017845516   -4.1248736    1.2800492  1010000 
  522000   0.85308369   -4.1253079   -4.1253079   -2.8456836  0.019006814   -4.1253079    1.2796243  1010000 
  523000   0.85271566   -4.1257179   -4.1257179   -2.8466457  0.019005087   -4.1257179    1.2790722  1010000 
  524000   0.85315321   -4.1261259   -4.1261259   -2.8463974  0.020512454   -4.1261259    1.2797285  1010000 
  525000   0.85353076   -4.1274552   -4.1274552   -2.8471603  0.017100263   -4.1274552    1.2802949  1010000 
  526000   0.85369431   -4.1275933   -4.1275933   -2.8470531  0.018968052   -4.1275933    1.2805402  1010000 
  527000   0.85276535   -4.1271384   -4.1271384   -2.8479917  0.017969584   -4.1271384    1.2791468  1010000 
  528000   0.85282889   -4.1274788   -4.1274788   -2.8482368  0.015710214   -4.1274788    1.2792421  1010000 
  529000   0.85208421   -4.1260799   -4.1260799   -2.8479548  0.014030436   -4.1260799     1.278125  1010000 
  530000   0.85220349   -4.1265217   -4.1265217   -2.8482178  0.014533094   -4.1265217     1.278304  1010000 
  531000   0.85137168    -4.125916    -4.125916   -2.8488598  0.015822591    -4.125916    1.2770562  1010000 
  532000    0.8514789   -4.1263203   -4.1263203   -2.8491033   0.01210963   -4.1263203    1.2772171  1010000 
  533000   0.85194722    -4.126666    -4.126666   -2.8487465  0.011439041    -4.126666    1.2779196  1010000 
  534000   0.85135087   -4.1259903   -4.1259903   -2.8489653  0.017863156   -4.1259903     1.277025  1010000 
  535000   0.85027934   -4.1246415   -4.1246415   -2.8492237  0.017208546   -4.1246415    1.2754177  1010000 
  536000   0.85052905   -4.1254041   -4.1254041   -2.8496118  0.012529697   -4.1254041    1.2757923  1010000 
  537000   0.85115557   -4.1265387   -4.1265387   -2.8498066  0.014657536   -4.1265387    1.2767321  1010000 
  538000   0.85135549   -4.1267381   -4.1267381   -2.8497061  0.011933742   -4.1267381     1.277032  1010000 
  539000   0.85142149   -4.1272622   -4.1272622   -2.8501312  0.014094712   -4.1272622     1.277131  1010000 
  540000   0.85152325   -4.1280024   -4.1280024   -2.8507188  0.014562404   -4.1280024    1.2772836  1010000 
  541000   0.85198977   -4.1287579   -4.1287579   -2.8507745  0.013357682   -4.1287579    1.2779834  1010000 
  542000   0.85118408     -4.12795     -4.12795   -2.8511751  0.017576121     -4.12795    1.2767749  1010000 
  543000   0.85026573   -4.1275072   -4.1275072   -2.8521099  0.017824167   -4.1275072    1.2753973  1010000 
  544000   0.85182169   -4.1299044   -4.1299044   -2.8521731  0.015503444   -4.1299044    1.2777313  1010000 
  545000   0.85207225   -4.1301518   -4.1301518   -2.8520447  0.017258989   -4.1301518    1.2781071  1010000 
  546000   0.85181292   -4.1298872   -4.1298872   -2.8521691   0.01472522   -4.1298872    1.2777181  1010000 
  547000   0.85191814    -4.130398    -4.130398    -2.852522  0.013348501    -4.130398    1.2778759  1010000 
  548000    0.8514147   -4.1300372   -4.1300372   -2.8529164   0.01890835   -4.1300372    1.2771208  1010000 
  549000   0.85201065   -4.1318934   -4.1318934   -2.8538786  0.015030004   -4.1318934    1.2780147  1010000 
  550000   0.85207958   -4.1317362   -4.1317362   -2.8536181  0.018951413   -4.1317362    1.2781181  1010000 
  551000   0.85141405    -4.130642    -4.130642   -2.8535222  0.020842834    -4.130642    1.2771198  1010000 
  552000   0.85204646   -4.1317414   -4.1317414   -2.8536729   0.01923758   -4.1317414    1.2780684  1010000 
  553000   0.85140023   -4.1315858   -4.1315858   -2.8544867  0.017031534   -4.1315858    1.2770991  1010000 
  554000   0.85140617   -4.1314555   -4.1314555   -2.8543475  0.019260632   -4.1314555     1.277108  1010000 
  555000    0.8517174   -4.1324563   -4.1324563   -2.8548815  0.015759748   -4.1324563    1.2775748  1010000 
  556000   0.85167844   -4.1329318   -4.1329318   -2.8554154  0.016552981   -4.1329318    1.2775164  1010000 
  557000   0.85146837   -4.1331201   -4.1331201   -2.8559189  0.013201275   -4.1331201    1.2772013  1010000 
  558000   0.85170756   -4.1339017   -4.1339017   -2.8563417  0.016002062   -4.1339017    1.2775601  1010000 
  559000   0.85050507   -4.1327825   -4.1327825   -2.8570261  0.018938993   -4.1327825    1.2757563  1010000 
  560000   0.85155254   -4.1342642   -4.1342642   -2.8569366   0.01594862   -4.1342642    1.2773275  1010000 
  561000   0.85164483     -4.13527     -4.13527    -2.857804  0.014726003     -4.13527     1.277466  1010000 
  562000    0.8519704    -4.135926    -4.135926   -2.8579717  0.015149389    -4.135926    1.2779543  1010000 
  563000   0.85134619    -4.135214    -4.135214    -2.858196  0.016306521    -4.135214     1.277018  1010000 
  564000   0.85187152    -4.135964    -4.135964    -2.858158  0.012881488    -4.135964     1.277806  1010000 
  565000   0.85118854   -4.1351202   -4.1351202   -2.8583387  0.018231118   -4.1351202    1.2767815  1010000 
  566000   0.85114593   -4.1349461   -4.1349461   -2.8582285   0.02099674   -4.1349461    1.2767176  1010000 
  567000     0.851923   -4.1367634   -4.1367634   -2.8588801  0.016391259   -4.1367634    1.2778832  1010000 
  568000   0.85307807    -4.138311    -4.138311   -2.8586951  0.019293443    -4.138311    1.2796158  1010000 
  569000    0.8525855   -4.1383022   -4.1383022   -2.8594252  0.019927937   -4.1383022     1.278877  1010000 
  570000   0.85132846   -4.1375815   -4.1375815     -2.86059  0.022452117   -4.1375815    1.2769914  1010000 
  571000   0.85182812   -4.1383325   -4.1383325   -2.8605915   0.02099177   -4.1383325    1.2777409  1010000 
  572000   0.85204049   -4.1389596   -4.1389596   -2.8609001  0.024280823   -4.1389596    1.2780595  1010000 
  573000    0.8514977   -4.1388012   -4.1388012   -2.8615559   0.02088872   -4.1388012    1.2772453  1010000 
  574000   0.85152311   -4.1396682   -4.1396682   -2.8623848  0.019445862   -4.1396682    1.2772834  1010000 
  575000   0.85207748   -4.1406191   -4.1406191   -2.8625042  0.018760588   -4.1406191     1.278115  1010000 
  576000   0.85124106   -4.1397756   -4.1397756   -2.8629153   0.01756291   -4.1397756    1.2768603  1010000 
  577000   0.85085219   -4.1400431   -4.1400431   -2.8637661  0.017650328   -4.1400431     1.276277  1010000 
  578000   0.85103624   -4.1406675   -4.1406675   -2.8641144  0.019574453   -4.1406675    1.2765531  1010000 
  579000   0.85235714   -4.1431364   -4.1431364    -2.864602  0.019898627   -4.1431364    1.2785344  1010000 
  580000   0.85157841   -4.1424567   -4.1424567   -2.8650904  0.023030582   -4.1424567    1.2773664  1010000 
  581000   0.85089686   -4.1423081   -4.1423081   -2.8659641  0.023030986   -4.1423081     1.276344  1010000 
  582000   0.85256528   -4.1450961   -4.1450961   -2.8662494  0.015860887   -4.1450961    1.2788467  1010000 
  583000   0.85219163   -4.1444794   -4.1444794   -2.8661932  0.020251422   -4.1444794    1.2782862  1010000 
  584000   0.85171249   -4.1442077   -4.1442077   -2.8666402  0.022093071   -4.1442077    1.2775675  1010000 
  585000   0.85158359   -4.1446213   -4.1446213   -2.8672472  0.023914138   -4.1446213    1.2773741  1010000 
  586000   0.85279633    -4.146732    -4.146732   -2.8675388    0.0209276    -4.146732    1.2791932  1010000 
  587000   0.85280198   -4.1466763   -4.1466763   -2.8674746  0.020192485   -4.1466763    1.2792017  1010000 
  588000   0.85193066   -4.1457441   -4.1457441   -2.8678493  0.024866426   -4.1457441    1.2778947  1010000 
  589000   0.85284091   -4.1473304   -4.1473304   -2.8680703  0.020876749   -4.1473304    1.2792601  1010000 
  590000   0.85186221    -4.146363    -4.146363   -2.8685709   0.02526409    -4.146363     1.277792  1010000 
  591000   0.85229806   -4.1474676   -4.1474676   -2.8690217  0.022684092   -4.1474676    1.2784458  1010000 
  592000   0.85183383   -4.1468628   -4.1468628   -2.8691133  0.026618705   -4.1468628    1.2777495  1010000 
  593000   0.85260773   -4.1478685   -4.1478685   -2.8689582  0.025012403   -4.1478685    1.2789103  1010000 
  594000   0.85291712   -4.1481528   -4.1481528   -2.8687784  0.027727928   -4.1481528    1.2793744  1010000 
  595000   0.85461765   -4.1509469   -4.1509469   -2.8690217  0.019636515   -4.1509469    1.2819252  1010000 
  596000   0.85300698   -4.1492237   -4.1492237   -2.8697145  0.024649442   -4.1492237    1.2795092  1010000 
  597000   0.85289939   -4.1495097   -4.1495097   -2.8701619  0.025526093   -4.1495097    1.2793478  1010000 
  598000   0.85286129   -4.1499967   -4.1499967    -2.870706  0.023579745   -4.1499967    1.2792907  1010000 
  599000   0.85283311   -4.1506028   -4.1506028   -2.8713544  0.025208748   -4.1506028    1.2792484  1010000 
  600000   0.85303381    -4.151549    -4.151549   -2.8719995  0.025047739    -4.151549    1.2795495  1010000 
  601000   0.85295143   -4.1509227   -4.1509227   -2.8714969  0.029262328   -4.1509227    1.2794259  1010000 
  602000   0.85354042   -4.1520936   -4.1520936   -2.8717842  0.027612431   -4.1520936    1.2803094  1010000 
  603000    0.8541349   -4.1534584   -4.1534584   -2.8722573   0.02890901   -4.1534584    1.2812011  1010000 
  604000   0.85341528   -4.1527778   -4.1527778   -2.8726561  0.029232826   -4.1527778    1.2801217  1010000 
  605000   0.85396093   -4.1540603   -4.1540603   -2.8731202  0.026597895   -4.1540603    1.2809401  1010000 
  606000   0.85415743     -4.15399     -4.15399   -2.8727551  0.029733397     -4.15399    1.2812349  1010000 
  607000   0.85333773   -4.1530143   -4.1530143   -2.8730089  0.031709396   -4.1530143    1.2800053  1010000 
  608000   0.85328655   -4.1537641   -4.1537641   -2.8738356  0.030857454   -4.1537641    1.2799286  1010000 
  609000   0.85321477   -4.1540864   -4.1540864   -2.8742655  0.030019256   -4.1540864    1.2798209  1010000 
  610000   0.85334684   -4.1555697   -4.1555697   -2.8755507   0.03021812   -4.1555697     1.280019  1010000 
  611000   0.85392071   -4.1569157   -4.1569157   -2.8760359  0.026174264   -4.1569157    1.2808798  1010000 
  612000   0.85356422   -4.1567164   -4.1567164   -2.8763713  0.032086963   -4.1567164    1.2803451  1010000 
  613000   0.85296395     -4.15625     -4.15625   -2.8768053  0.030333633     -4.15625    1.2794447  1010000 
  614000   0.85333762   -4.1576213   -4.1576213   -2.8776161  0.029022456   -4.1576213    1.2800052  1010000 
  615000   0.85359991   -4.1584022   -4.1584022   -2.8780036  0.032502782   -4.1584022    1.2803986  1010000 
  616000   0.85412455   -4.1591616   -4.1591616    -2.877976  0.031395725   -4.1591616    1.2811856  1010000 
  617000   0.85444689   -4.1599473   -4.1599473   -2.8782782  0.034530824   -4.1599473    1.2816691  1010000 
  618000   0.85366697    -4.159496    -4.159496   -2.8789968  0.034314969    -4.159496    1.2804992  1010000 
  619000   0.85344653   -4.1600611   -4.1600611   -2.8798926  0.033626869   -4.1600611    1.2801685  1010000 
  620000    0.8525808   -4.1595499   -4.1595499     -2.88068  0.038738813   -4.1595499    1.2788699  1010000 
  621000    0.8544685   -4.1628543   -4.1628543   -2.8811529  0.026906533   -4.1628543    1.2817015  1010000 
  622000   0.85353536   -4.1624753   -4.1624753   -2.8821735  0.029407027   -4.1624753    1.2803018  1010000 
  623000   0.85333565    -4.162668    -4.162668   -2.8826658  0.033807947    -4.162668    1.2800022  1010000 
  624000   0.85306749   -4.1622737   -4.1622737   -2.8826737  0.035234271   -4.1622737       1.2796  1010000 
  625000    0.8525577    -4.161443    -4.161443   -2.8826077  0.033168845    -4.161443    1.2788353  1010000 
  626000   0.85280201   -4.1619336   -4.1619336   -2.8827319  0.032846833   -4.1619336    1.2792017  1010000 
  627000   0.85194627   -4.1608918   -4.1608918   -2.8829737  0.032109656   -4.1608918    1.2779181  1010000 
  628000   0.85232215   -4.1620056   -4.1620056   -2.8835237   0.03092637   -4.1620056     1.278482  1010000 
  629000   0.85247681   -4.1621061   -4.1621061   -2.8833922  0.029063692   -4.1621061     1.278714  1010000 
  630000   0.85136474   -4.1603379   -4.1603379    -2.883292   0.03231742   -4.1603379    1.2770458  1010000 
  631000   0.85241861   -4.1622765   -4.1622765   -2.8836498  0.025434375   -4.1622765    1.2786266  1010000 
  632000    0.8512425    -4.161099    -4.161099   -2.8842365  0.029585509    -4.161099    1.2768625  1010000 
  633000   0.85017104   -4.1599466   -4.1599466   -2.8846912   0.02856019   -4.1599466    1.2752553  1010000 
  634000   0.85063357    -4.161131    -4.161131   -2.8851819  0.024707718    -4.161131    1.2759491  1010000 
  635000   0.85004841   -4.1600364   -4.1600364    -2.884965   0.02373602   -4.1600364    1.2750713  1010000 
  636000   0.84989309   -4.1602523   -4.1602523   -2.8854139   0.02041759   -4.1602523    1.2748384  1010000 
  637000   0.84949506   -4.1597892   -4.1597892   -2.8855478   0.02016821   -4.1597892    1.2742413  1010000 
  638000   0.84883172   -4.1593272   -4.1593272   -2.8860809  0.019021668   -4.1593272    1.2732463  1010000 
  639000   0.84855435   -4.1588997   -4.1588997   -2.8860694  0.016719159   -4.1588997    1.2728303  1010000 
  640000   0.84774482   -4.1580629   -4.1580629   -2.8864469  0.021229411   -4.1580629     1.271616  1010000 
  641000   0.84826954   -4.1585708   -4.1585708   -2.8861678  0.015054433   -4.1585708    1.2724031  1010000 
  642000   0.84743675   -4.1577347   -4.1577347   -2.8865809  0.011466105   -4.1577347    1.2711539  1010000 
  643000   0.84783327   -4.1581915   -4.1581915   -2.8864428  0.013509377   -4.1581915    1.2717486  1010000 
  644000   0.84671667   -4.1566147   -4.1566147    -2.886541   0.01239934   -4.1566147    1.2700738  1010000 
  645000   0.84645849   -4.1568537   -4.1568537   -2.8871672  0.010528284   -4.1568537    1.2696865  1010000 
  646000   0.84651432   -4.1571467   -4.1571467   -2.8873765  0.011738417   -4.1571467    1.2697702  1010000 
  647000   0.84672882   -4.1574385   -4.1574385   -2.8873465 0.0092345433   -4.1574385     1.270092  1010000 
  648000    0.8461822    -4.157186    -4.157186   -2.8879139  0.010812208    -4.157186     1.269272  1010000 
  649000   0.84622765   -4.1572253   -4.1572253   -2.8878851  0.014017178   -4.1572253    1.2693402  1010000 
  650000   0.84546882   -4.1565502   -4.1565502   -2.8883483  0.011340197   -4.1565502     1.268202  1010000 
  651000   0.84534998    -4.156924    -4.156924   -2.8889003  0.007329363    -4.156924    1.2680237  1010000 
  652000   0.84560167   -4.1574507   -4.1574507   -2.8890494  0.007200308   -4.1574507    1.2684013  1010000 
  653000   0.84636626   -4.1582203   -4.1582203   -2.8886722 0.0066058326   -4.1582203    1.2695481  1010000 
  654000   0.84527927   -4.1564292   -4.1564292   -2.8885116 0.0091991642   -4.1564292    1.2679177  1010000 
  655000   0.84486412   -4.1560536   -4.1560536   -2.8887587  0.011372574   -4.1560536    1.2672949  1010000 
  656000   0.84552888   -4.1570814   -4.1570814   -2.8887894   0.01040077   -4.1570814    1.2682921  1010000 
  657000   0.84610998   -4.1579813   -4.1579813   -2.8888176 0.0068164917   -4.1579813    1.2691637  1010000 
  658000   0.84581718   -4.1581033   -4.1581033   -2.8893788 0.0098366417   -4.1581033    1.2687245  1010000 
  659000   0.84621344   -4.1588393   -4.1588393   -2.8895204  0.009749066   -4.1588393    1.2693189  1010000 
  660000   0.84584877   -4.1585636   -4.1585636   -2.8897917  0.010962308   -4.1585636    1.2687719  1010000 
  661000   0.84669503   -4.1601193   -4.1601193    -2.890078 0.0095754645   -4.1601193    1.2700413  1010000 
  662000   0.84631078    -4.160049    -4.160049    -2.890584  0.011606181    -4.160049    1.2694649  1010000 
  663000   0.84656227   -4.1610058   -4.1610058   -2.8911636  0.014676685   -4.1610058    1.2698422  1010000 
  664000   0.84710648   -4.1625136   -4.1625136   -2.8918551  0.015037082   -4.1625136    1.2706585  1010000 
  665000   0.84698805   -4.1626843   -4.1626843   -2.8922034  0.018318271   -4.1626843    1.2704808  1010000 
  666000   0.84701206   -4.1631643   -4.1631643   -2.8926474  0.017377919   -4.1631643    1.2705168  1010000 
  667000   0.84760734   -4.1642499   -4.1642499   -2.8928402  0.016315872   -4.1642499    1.2714097  1010000 
  668000   0.84834952   -4.1653314   -4.1653314   -2.8928084  0.017920065   -4.1653314     1.272523  1010000 
  669000   0.84813755   -4.1649266   -4.1649266   -2.8927215  0.021576726   -4.1649266    1.2722051  1010000 
  670000   0.84836941   -4.1662514   -4.1662514   -2.8936986  0.021213904   -4.1662514    1.2725529  1010000 
  671000   0.84859066   -4.1665992   -4.1665992   -2.8937144   0.02539354   -4.1665992    1.2728847  1010000 
  672000   0.84837306   -4.1668705   -4.1668705   -2.8943122  0.024349863   -4.1668705    1.2725583  1010000 
  673000   0.84931251   -4.1687621   -4.1687621   -2.8947946  0.024736523   -4.1687621    1.2739675  1010000 
  674000   0.84894329   -4.1690121   -4.1690121   -2.8955984  0.025824574   -4.1690121    1.2734137  1010000 
  675000   0.84848881    -4.168895    -4.168895   -2.8961631  0.026123708    -4.168895     1.272732  1010000 
  676000   0.84874265   -4.1701872   -4.1701872   -2.8970745  0.027078826   -4.1701872    1.2731127  1010000 
  677000   0.84927488   -4.1715836   -4.1715836   -2.8976726  0.027718127   -4.1715836    1.2739111  1010000 
  678000   0.85015031   -4.1728054   -4.1728054   -2.8975812  0.026987903   -4.1728054    1.2752242  1010000 
  679000   0.84993119    -4.173144    -4.173144   -2.8982485   0.02926281    -4.173144    1.2748955  1010000 
  680000   0.84987482   -4.1734084   -4.1734084   -2.8985974    0.0286958   -4.1734084     1.274811  1010000 
  681000   0.84870858    -4.172644    -4.172644   -2.8995824   0.03066705    -4.172644    1.2730616  1010000 
  682000   0.84886181   -4.1735649   -4.1735649   -2.9002735  0.029946253   -4.1735649    1.2732915  1010000 
  683000   0.84953422   -4.1750235   -4.1750235   -2.9007235  0.025584342   -4.1750235    1.2743001  1010000 
  684000   0.84826109    -4.173567    -4.173567   -2.9011767  0.030186384    -4.173567    1.2723904  1010000 
  685000   0.84931762   -4.1754199   -4.1754199   -2.9014448  0.024772875   -4.1754199    1.2739752  1010000 
  686000   0.84729255   -4.1730024   -4.1730024   -2.9020648   0.03480086   -4.1730024    1.2709376  1010000 
  687000   0.84751425   -4.1739852   -4.1739852   -2.9027151  0.027765509   -4.1739852    1.2712701  1010000 
  688000   0.84800502   -4.1753869   -4.1753869   -2.9033806  0.027488333   -4.1753869    1.2720063  1010000 
  689000   0.84766318   -4.1754872   -4.1754872   -2.9039937   0.02420102   -4.1754872    1.2714935  1010000 
  690000   0.84813866   -4.1760898   -4.1760898   -2.9038831  0.023996732   -4.1760898    1.2722067  1010000 
  691000   0.84785445    -4.175883    -4.175883   -2.9041026  0.025092883    -4.175883    1.2717804  1010000 
  692000   0.84754763   -4.1757938   -4.1757938   -2.9044736  0.027898134   -4.1757938    1.2713202  1010000 
  693000   0.84863735   -4.1774477   -4.1774477    -2.904493  0.024193641   -4.1774477    1.2729548  1010000 
  694000   0.84749498   -4.1760535   -4.1760535   -2.9048123  0.028339243   -4.1760535    1.2712412  1010000 
  695000   0.84749017   -4.1759607   -4.1759607   -2.9047267  0.028001704   -4.1759607     1.271234  1010000 
  696000   0.84779623   -4.1768591   -4.1768591    -2.905166   0.02124607   -4.1768591    1.2716931  1010000 
  697000   0.84644264   -4.1756315   -4.1756315   -2.9059688  0.023201649   -4.1756315    1.2696627  1010000 
  698000   0.84686691   -4.1756664   -4.1756664   -2.9053673  0.020011458   -4.1756664    1.2702991  1010000 
  699000   0.84625626   -4.1752448   -4.1752448   -2.9058617   0.02172264   -4.1752448    1.2693831  1010000 
  700000   0.84653167   -4.1758218   -4.1758218   -2.9060255  0.017840758   -4.1758218    1.2697962  1010000 
  701000   0.84626464   -4.1755296   -4.1755296   -2.9061339  0.020741838   -4.1755296    1.2693957  1010000 
  702000   0.84668476   -4.1761073   -4.1761073   -2.9060815  0.022673832   -4.1761073    1.2700259  1010000 
  703000   0.84589123   -4.1756135   -4.1756135   -2.9067779  0.021728874   -4.1756135    1.2688356  1010000 
  704000   0.84505694   -4.1741862   -4.1741862    -2.906602  0.022380578   -4.1741862    1.2675842  1010000 
  705000   0.84546147    -4.175331    -4.175331   -2.9071401  0.020112328    -4.175331    1.2681909  1010000 
  706000   0.84495133    -4.174376    -4.174376   -2.9069503  0.018741137    -4.174376    1.2674257  1010000 
  707000   0.84529828   -4.1751736   -4.1751736   -2.9072275  0.017609805   -4.1751736    1.2679462  1010000 
  708000   0.84491619   -4.1745012   -4.1745012   -2.9071282  0.017262294   -4.1745012     1.267373  1010000 
  709000   0.84457089    -4.174242    -4.174242   -2.9073869   0.01647685    -4.174242    1.2668551  1010000 
  710000   0.84534283   -4.1756428   -4.1756428   -2.9076298  0.015636197   -4.1756428     1.268013  1010000 
  711000   0.84468739   -4.1742877   -4.1742877   -2.9072579  0.016791357   -4.1742877    1.2670298  1010000 
  712000   0.84421084   -4.1738668   -4.1738668   -2.9075518  0.018419693   -4.1738668     1.266315  1010000 
  713000   0.84411823   -4.1746097   -4.1746097   -2.9084336   0.01499678   -4.1746097    1.2661761  1010000 
  714000   0.84325792   -4.1735243   -4.1735243   -2.9086387  0.014724904   -4.1735243    1.2648856  1010000 
  715000   0.84334363   -4.1741133   -4.1741133   -2.9090991   0.01300837   -4.1741133    1.2650142  1010000 
  716000   0.84301978    -4.174115    -4.174115   -2.9095865  0.014421736    -4.174115    1.2645284  1010000 
  717000   0.84374419   -4.1745115   -4.1745115   -2.9088965  0.020106141   -4.1745115     1.265615  1010000 
  718000   0.84317273   -4.1736526   -4.1736526   -2.9088948  0.018596967   -4.1736526    1.2647578  1010000 
  719000   0.84473134   -4.1761884   -4.1761884   -2.9090927  0.013477894   -4.1761884    1.2670958  1010000 
  720000   0.84390598   -4.1753921   -4.1753921   -2.9095344  0.015673553   -4.1753921    1.2658577  1010000 
  721000   0.84424249    -4.175971    -4.175971   -2.9096085  0.015906744    -4.175971    1.2663625  1010000 
  722000   0.84413996   -4.1766239   -4.1766239   -2.9104152  0.016417377   -4.1766239    1.2662087  1010000 
  723000    0.8439289   -4.1765455   -4.1765455   -2.9106534  0.017900734   -4.1765455    1.2658921  1010000 
  724000   0.84446694   -4.1768493   -4.1768493   -2.9101502  0.017917746   -4.1768493    1.2666991  1010000 
  725000   0.84422429   -4.1769728   -4.1769728   -2.9106376  0.016392445   -4.1769728    1.2663352  1010000 
  726000   0.84438679   -4.1772689   -4.1772689   -2.9106899  0.018952516   -4.1772689    1.2665789  1010000 
  727000   0.84446825   -4.1775268   -4.1775268   -2.9108257  0.018615784   -4.1775268    1.2667011  1010000 
  728000   0.84440757   -4.1778953   -4.1778953   -2.9112852  0.016814853   -4.1778953    1.2666101  1010000 
  729000   0.84372027   -4.1773309   -4.1773309   -2.9117518  0.020013944   -4.1773309    1.2655792  1010000 
  730000   0.84422661   -4.1777812   -4.1777812   -2.9114425  0.022232409   -4.1777812    1.2663387  1010000 
  731000   0.84426688    -4.178757    -4.178757   -2.9123579  0.017943739    -4.178757    1.2663991  1010000 
  732000   0.84393105   -4.1789675   -4.1789675   -2.9130722  0.016573284   -4.1789675    1.2658953  1010000 
  733000   0.84425198   -4.1795992   -4.1795992   -2.9132225  0.020342343   -4.1795992    1.2663767  1010000 
  734000   0.84426606   -4.1800824   -4.1800824   -2.9136846   0.01928423   -4.1800824    1.2663978  1010000 
  735000   0.84499598   -4.1811011   -4.1811011   -2.9136083   0.01896434   -4.1811011    1.2674927  1010000 
  736000   0.84476495   -4.1816973   -4.1816973   -2.9145511  0.017431832   -4.1816973    1.2671462  1010000 
  737000   0.84444609   -4.1813038   -4.1813038   -2.9146359  0.024307159   -4.1813038    1.2666679  1010000 
  738000   0.84483629    -4.182809    -4.182809   -2.9155558  0.021744325    -4.182809    1.2672532  1010000 
  739000   0.84471582   -4.1827768   -4.1827768   -2.9157043   0.02534657   -4.1827768    1.2670725  1010000 
  740000   0.84543171   -4.1836002   -4.1836002   -2.9154539  0.024859358   -4.1836002    1.2681463  1010000 
  741000   0.84570161   -4.1843936   -4.1843936   -2.9158424  0.021987553   -4.1843936    1.2685512  1010000 
  742000   0.84513122   -4.1833602   -4.1833602   -2.9156646  0.026024067   -4.1833602    1.2676956  1010000 
  743000   0.84550455   -4.1842561   -4.1842561   -2.9160005  0.023591354   -4.1842561    1.2682556  1010000 
  744000   0.84535324   -4.1841404   -4.1841404   -2.9161118  0.025161619   -4.1841404    1.2680286  1010000 
  745000   0.84548113   -4.1846069   -4.1846069   -2.9163864  0.026812305   -4.1846069    1.2682204  1010000 
  746000   0.84535009   -4.1851579   -4.1851579    -2.917134  0.025957051   -4.1851579    1.2680239  1010000 
  747000   0.84574589    -4.185597    -4.185597   -2.9169794  0.026963205    -4.185597    1.2686176  1010000 
  748000   0.84593927   -4.1860423   -4.1860423   -2.9171347  0.024707994   -4.1860423    1.2689076  1010000 
  749000   0.84562244   -4.1859327   -4.1859327   -2.9175003  0.027822905   -4.1859327    1.2684324  1010000 
  750000   0.84512881   -4.1856516   -4.1856516   -2.9179597  0.029746802   -4.1856516     1.267692  1010000 
  751000   0.84500986   -4.1863554   -4.1863554   -2.9188418  0.025020969   -4.1863554    1.2675135  1010000 
  752000   0.84548604   -4.1873546   -4.1873546   -2.9191268  0.025152649   -4.1873546    1.2682278  1010000 
  753000   0.84439548   -4.1864956   -4.1864956   -2.9199036   0.02817651   -4.1864956     1.266592  1010000 
  754000   0.84417563     -4.18661     -4.18661   -2.9203478   0.02425691     -4.18661    1.2662622  1010000 
  755000   0.84522132   -4.1881248   -4.1881248   -2.9202941  0.020666589   -4.1881248    1.2678307  1010000 
  756000   0.84417226   -4.1873833   -4.1873833   -2.9211261  0.023081402   -4.1873833    1.2662571  1010000 
  757000    0.8437019   -4.1873846   -4.1873846    -2.921833  0.022330584   -4.1873846    1.2655516  1010000 
  758000   0.84459447   -4.1883533   -4.1883533   -2.9214629  0.022803842   -4.1883533    1.2668905  1010000 
  759000   0.84350487   -4.1869299   -4.1869299   -2.9216738  0.023591669   -4.1869299    1.2652561  1010000 
  760000   0.84450298   -4.1883352   -4.1883352    -2.921582  0.021891293   -4.1883352    1.2667532  1010000 
  761000   0.84442444   -4.1883567   -4.1883567   -2.9217213  0.021663451   -4.1883567    1.2666354  1010000 
  762000   0.84310598   -4.1871746   -4.1871746   -2.9225169  0.024514328   -4.1871746    1.2646577  1010000 
  763000   0.84340197   -4.1880406   -4.1880406   -2.9229389  0.020113084   -4.1880406    1.2651017  1010000 
  764000   0.84363298   -4.1883866   -4.1883866   -2.9229384  0.019689443   -4.1883866    1.2654482  1010000 
  765000   0.84252973   -4.1872468   -4.1872468   -2.9234535  0.021961473   -4.1872468    1.2637933  1010000 
  766000   0.84328997   -4.1887013   -4.1887013   -2.9237676  0.016477754   -4.1887013    1.2649337  1010000 
  767000   0.84294884   -4.1884087   -4.1884087   -2.9239867  0.019079381   -4.1884087     1.264422  1010000 
  768000   0.84295232   -4.1889988   -4.1889988   -2.9245716   0.01838878   -4.1889988    1.2644272  1010000 
  769000   0.84243066    -4.187793    -4.187793   -2.9241483  0.021604452    -4.187793    1.2636447  1010000 
  770000   0.84319546   -4.1891837   -4.1891837   -2.9243917  0.020350669   -4.1891837    1.2647919  1010000 
  771000   0.84225141   -4.1882445   -4.1882445   -2.9248686  0.020429395   -4.1882445    1.2633759  1010000 
  772000   0.84253827   -4.1889987   -4.1889987   -2.9251925  0.022100061   -4.1889987    1.2638062  1010000 
  773000   0.84171926   -4.1876803   -4.1876803   -2.9251026  0.020091146   -4.1876803    1.2625776  1010000 
  774000   0.84249656   -4.1888484   -4.1888484   -2.9251048  0.019011914   -4.1888484    1.2637436  1010000 
  775000   0.84169887   -4.1880719   -4.1880719   -2.9255249  0.020744082   -4.1880719     1.262547  1010000 
  776000   0.84189698   -4.1882286   -4.1882286   -2.9253843  0.021969249   -4.1882286    1.2628442  1010000 
  777000   0.84228345   -4.1889805   -4.1889805   -2.9255565  0.022407831   -4.1889805    1.2634239  1010000 
  778000   0.84191621   -4.1891229   -4.1891229   -2.9262498  0.019237943   -4.1891229    1.2628731  1010000 
  779000   0.84094815   -4.1887323   -4.1887323   -2.9273114  0.017521458   -4.1887323     1.261421  1010000 
  780000   0.84181666   -4.1902252   -4.1902252   -2.9275014   0.01737691   -4.1902252    1.2627237  1010000 
  781000   0.84228421   -4.1904785   -4.1904785   -2.9270535  0.017030205   -4.1904785    1.2634251  1010000 
  782000   0.84229212   -4.1899112   -4.1899112   -2.9264743  0.018680067   -4.1899112    1.2634369  1010000 
  783000   0.84180713   -4.1893932   -4.1893932   -2.9266837  0.021582636   -4.1893932    1.2627094  1010000 
  784000    0.8408706   -4.1881646   -4.1881646     -2.92686  0.023374935   -4.1881646    1.2613047  1010000 
  785000   0.84207466    -4.190056    -4.190056   -2.9269453   0.02024306    -4.190056    1.2631107  1010000 
  786000   0.84214521   -4.1904062   -4.1904062   -2.9271897  0.020289045   -4.1904062    1.2632166  1010000 
  787000   0.84215187   -4.1902487   -4.1902487   -2.9270221  0.019079464   -4.1902487    1.2632266  1010000 
  788000   0.84196584   -4.1901497   -4.1901497   -2.9272022  0.020579555   -4.1901497    1.2629475  1010000 
  789000   0.84129012   -4.1901245   -4.1901245   -2.9281906  0.019635178   -4.1901245    1.2619339  1010000 
  790000   0.84185745   -4.1912354   -4.1912354   -2.9284505  0.016963643   -4.1912354    1.2627849  1010000 
  791000   0.84105607   -4.1905608   -4.1905608    -2.928978  0.020011519   -4.1905608    1.2615828  1010000 
  792000   0.84188733   -4.1920072   -4.1920072   -2.9291774  0.017402701   -4.1920072    1.2628297  1010000 
  793000   0.84116142   -4.1915683   -4.1915683   -2.9298274   0.01930361   -4.1915683    1.2617409  1010000 
  794000   0.84260019    -4.193776    -4.193776   -2.9298769  0.012527285    -4.193776     1.263899  1010000 
  795000   0.84195323   -4.1926398   -4.1926398   -2.9297112  0.022672945   -4.1926398    1.2629286  1010000 
  796000   0.84143286   -4.1920033   -4.1920033   -2.9298552  0.026590175   -4.1920033     1.262148  1010000 
  797000   0.84115354   -4.1923367   -4.1923367   -2.9306076   0.02350171   -4.1923367    1.2617291  1010000 
  798000   0.84156437   -4.1927051   -4.1927051   -2.9303598  0.018098554   -4.1927051    1.2623453  1010000 
  799000   0.84193398    -4.193893    -4.193893   -2.9309933  0.018589591    -4.193893    1.2628997  1010000 
  800000   0.84112257   -4.1934692   -4.1934692   -2.9317866   0.02381258   -4.1934692    1.2616826  1010000 
  801000   0.84107975   -4.1936355   -4.1936355   -2.9320172  0.019410361   -4.1936355    1.2616184  1010000 
  802000   0.84160161   -4.1950627   -4.1950627   -2.9326615  0.016660386   -4.1950627    1.2624012  1010000 
  803000   0.84105929   -4.1942787   -4.1942787    -2.932691  0.019837604   -4.1942787    1.2615877  1010000 
  804000   0.84229312   -4.1966779   -4.1966779   -2.9332395  0.018822877   -4.1966779    1.2634384  1010000 
  805000   0.84169545   -4.1960178   -4.1960178   -2.9334759  0.021625017   -4.1960178    1.2625419  1010000 
  806000   0.84043005   -4.1946474   -4.1946474   -2.9340036  0.021833454   -4.1946474    1.2606438  1010000 
  807000    0.8413233   -4.1959914   -4.1959914   -2.9340077  0.017980119   -4.1959914    1.2619837  1010000 
  808000   0.84140042   -4.1970846   -4.1970846   -2.9349852  0.023271032   -4.1970846    1.2620994  1010000 
  809000    0.8417865   -4.1976327   -4.1976327   -2.9349543  0.019370908   -4.1976327    1.2626785  1010000 
  810000    0.8416843   -4.1973819   -4.1973819   -2.9348567   0.02268921   -4.1973819    1.2625252  1010000 
  811000    0.8414346   -4.1977808   -4.1977808   -2.9356301  0.023628938   -4.1977808    1.2621507  1010000 
  812000   0.84119318   -4.1977177   -4.1977177   -2.9359292  0.024033399   -4.1977177    1.2617885  1010000 
  813000   0.84146868   -4.1977819   -4.1977819   -2.9355801  0.022986456   -4.1977819    1.2622018  1010000 
  814000   0.84178956   -4.1986575   -4.1986575   -2.9359744  0.020028833   -4.1986575    1.2626831  1010000 
  815000   0.84049255   -4.1970869   -4.1970869   -2.9363493   0.02474254   -4.1970869    1.2607376  1010000 
  816000   0.84171042    -4.199234    -4.199234   -2.9366696  0.019609556    -4.199234    1.2625644  1010000 
  817000   0.84104044    -4.198499    -4.198499   -2.9369396   0.02305412    -4.198499    1.2615594  1010000 
  818000   0.84125337   -4.1995048   -4.1995048    -2.937626  0.022085129   -4.1995048    1.2618788  1010000 
  819000   0.84084759   -4.1993579   -4.1993579   -2.9380877  0.023106207   -4.1993579    1.2612701  1010000 
  820000   0.84132901   -4.2006736   -4.2006736   -2.9386813  0.021259817   -4.2006736    1.2619923  1010000 
  821000   0.84115758   -4.2005319   -4.2005319   -2.9387968  0.024657393   -4.2005319    1.2617351  1010000 
  822000    0.8417246   -4.2016595   -4.2016595   -2.9390739  0.020315711   -4.2016595    1.2625857  1010000 
  823000   0.84032655   -4.1997191   -4.1997191   -2.9392306  0.027944456   -4.1997191    1.2604886  1010000 
  824000   0.84078163   -4.2005362   -4.2005362    -2.939365  0.024022383   -4.2005362    1.2611712  1010000 
  825000   0.84087859   -4.2014521   -4.2014521   -2.9401354  0.020303941   -4.2014521    1.2613166  1010000 
  826000   0.83956702   -4.2005953   -4.2005953   -2.9412461  0.021470445   -4.2005953    1.2593493  1010000 
  827000    0.8398203   -4.2012532   -4.2012532    -2.941524  0.020054917   -4.2012532    1.2597292  1010000 
  828000   0.83991119   -4.2009427   -4.2009427   -2.9410771  0.022410393   -4.2009427    1.2598655  1010000 
  829000   0.84069168   -4.2017256   -4.2017256   -2.9406893  0.020231704   -4.2017256    1.2610363  1010000 
  830000   0.83992536   -4.2004069   -4.2004069   -2.9405201  0.026128013   -4.2004069    1.2598868  1010000 
  831000   0.84030942   -4.2007779   -4.2007779    -2.940315  0.024623866   -4.2007779    1.2604629  1010000 
  832000   0.84091595   -4.2015396   -4.2015396   -2.9401669  0.024223162   -4.2015396    1.2613727  1010000 
  833000   0.84054369    -4.201255    -4.201255   -2.9404407   0.02603595    -4.201255    1.2608143  1010000 
  834000   0.84044935   -4.2014663   -4.2014663   -2.9407936  0.025366763   -4.2014663    1.2606728  1010000 
  835000   0.84051443   -4.2024525   -4.2024525   -2.9416821  0.023560153   -4.2024525    1.2607704  1010000 
  836000   0.83982164   -4.2018003   -4.2018003   -2.9420691  0.023638764   -4.2018003    1.2597312  1010000 
  837000   0.83919122   -4.2014637   -4.2014637   -2.9426781  0.022473628   -4.2014637    1.2587856  1010000 
  838000   0.83987861   -4.2026358   -4.2026358   -2.9428191  0.020476814   -4.2026358    1.2598167  1010000 
  839000   0.83985527   -4.2023769   -4.2023769   -2.9425953  0.022674391   -4.2023769    1.2597817  1010000 
  840000   0.83979599   -4.2021255   -4.2021255   -2.9424328  0.022527502   -4.2021255    1.2596927  1010000 
  841000   0.83945111   -4.2010191   -4.2010191   -2.9418437  0.025026489   -4.2010191    1.2591754  1010000 
  842000   0.84011786   -4.2019118   -4.2019118   -2.9417362  0.021103108   -4.2019118    1.2601755  1010000 
  843000   0.84008133   -4.2024366   -4.2024366   -2.9423159  0.020523038   -4.2024366    1.2601207  1010000 
  844000   0.83905253   -4.2018396   -4.2018396   -2.9432621  0.018550849   -4.2018396    1.2585776  1010000 
  845000   0.83935245   -4.2020177   -4.2020177   -2.9429903  0.019869499   -4.2020177    1.2590274  1010000 
  846000   0.83931778   -4.2023249   -4.2023249   -2.9433494  0.022224892   -4.2023249    1.2589754  1010000 
  847000   0.83890438   -4.2021931   -4.2021931   -2.9438378  0.023500894   -4.2021931    1.2583553  1010000 
  848000   0.83898127   -4.2024309   -4.2024309   -2.9439602  0.018792826   -4.2024309    1.2584707  1010000 
  849000   0.83931017   -4.2036713   -4.2036713   -2.9447073  0.016127452   -4.2036713     1.258964  1010000 
  850000   0.83822309   -4.2023031   -4.2023031   -2.9449697  0.020258507   -4.2023031    1.2573334  1010000 
  851000   0.83828495    -4.202548    -4.202548   -2.9451218  0.019370329    -4.202548    1.2574262  1010000 
  852000   0.83713507   -4.2008453   -4.2008453   -2.9451439  0.021304216   -4.2008453    1.2557014  1010000 
  853000   0.83860814   -4.2032098   -4.2032098   -2.9452988  0.018801654   -4.2032098     1.257911  1010000 
  854000   0.83881456   -4.2037156   -4.2037156   -2.9454951  0.021221164   -4.2037156    1.2582206  1010000 
  855000   0.83904508   -4.2045921   -4.2045921   -2.9460258  0.015791297   -4.2045921    1.2585664  1010000 
  856000   0.83831803   -4.2037288   -4.2037288    -2.946253  0.019235362   -4.2037288    1.2574758  1010000 
  857000   0.83913698   -4.2053743   -4.2053743   -2.9466701  0.011871976   -4.2053743    1.2587042  1010000 
  858000   0.83835132   -4.2045081   -4.2045081   -2.9469824  0.021113195   -4.2045081    1.2575257  1010000 
  859000    0.8390977   -4.2056591   -4.2056591   -2.9470138  0.018866482   -4.2056591    1.2586453  1010000 
  860000   0.83833566   -4.2044103   -4.2044103   -2.9469081  0.020427892   -4.2044103    1.2575022  1010000 
  861000   0.83790757    -4.204156    -4.204156   -2.9472959  0.019872944    -4.204156    1.2568601  1010000 
  862000   0.83844914    -4.204919    -4.204919   -2.9472465  0.018559156    -4.204919    1.2576725  1010000 
  863000   0.83872202   -4.2055055   -4.2055055   -2.9474237  0.020015284   -4.2055055    1.2580818  1010000 
  864000   0.83867641   -4.2061573   -4.2061573    -2.948144  0.017649067   -4.2061573    1.2580134  1010000 
  865000    0.8386888   -4.2062715   -4.2062715   -2.9482395  0.019678688   -4.2062715     1.258032  1010000 
  866000   0.83923775   -4.2069844   -4.2069844    -2.948129  0.021268363   -4.2069844    1.2588554  1010000 
  867000   0.83846369   -4.2059347   -4.2059347   -2.9482405  0.023106653   -4.2059347    1.2576943  1010000 
  868000   0.83897734    -4.206593    -4.206593   -2.9481282   0.02107404    -4.206593    1.2584648  1010000 
  869000   0.83826865   -4.2061832   -4.2061832   -2.9487815  0.023581123   -4.2061832    1.2574017  1010000 
  870000    0.8396325   -4.2084527   -4.2084527   -2.9490052  0.021544425   -4.2084527    1.2594475  1010000 
  871000   0.83901944   -4.2078822   -4.2078822   -2.9493543  0.026805015   -4.2078822    1.2585279  1010000 
  872000   0.83930167   -4.2086047   -4.2086047   -2.9496534  0.022451261   -4.2086047    1.2589513  1010000 
  873000   0.83974587   -4.2094467   -4.2094467   -2.9498292  0.023318463   -4.2094467    1.2596176  1010000 
  874000   0.83853409   -4.2084392   -4.2084392   -2.9506394   0.02283108   -4.2084392    1.2577999  1010000 
  875000   0.83911428   -4.2094985   -4.2094985   -2.9508283  0.022037014   -4.2094985    1.2586702  1010000 
  876000   0.83806018   -4.2082184   -4.2082184   -2.9511294   0.02185445   -4.2082184     1.257089  1010000 
  877000   0.83859939   -4.2097623   -4.2097623   -2.9518644   0.02256271   -4.2097623    1.2578978  1010000 
  878000   0.83821493   -4.2102963   -4.2102963   -2.9529751  0.021557492   -4.2102963    1.2573211  1010000 
  879000   0.83851079   -4.2106685   -4.2106685   -2.9529036    0.0190624   -4.2106685    1.2577649  1010000 
  880000    0.8385284   -4.2107291   -4.2107291   -2.9529377  0.020423545   -4.2107291    1.2577914  1010000 
  881000   0.83816496   -4.2103012   -4.2103012    -2.953055  0.023418687   -4.2103012    1.2572462  1010000 
  882000   0.83808996   -4.2111165   -4.2111165   -2.9539828  0.022290651   -4.2111165    1.2571337  1010000 
  883000   0.83846666   -4.2122078   -4.2122078   -2.9545091  0.020511408   -4.2122078    1.2576987  1010000 
  884000   0.83727453   -4.2106567   -4.2106567   -2.9547462  0.024743228   -4.2106567    1.2559106  1010000 
  885000   0.83783494   -4.2121396   -4.2121396   -2.9553884  0.021448636   -4.2121396    1.2567512  1010000 
  886000   0.83747613   -4.2114547   -4.2114547   -2.9552418  0.021961639   -4.2114547    1.2562129  1010000 
  887000    0.8364967   -4.2104374   -4.2104374   -2.9556936  0.025599518   -4.2104374    1.2547438  1010000 
  888000   0.83731943   -4.2117705   -4.2117705   -2.9557926  0.021854557   -4.2117705    1.2559779  1010000 
  889000   0.83702532   -4.2120494   -4.2120494   -2.9565127  0.019718664   -4.2120494    1.2555367  1010000 
  890000   0.83658023   -4.2117923   -4.2117923   -2.9569232  0.023448248   -4.2117923    1.2548691  1010000 
  891000   0.83715584    -4.213316    -4.213316   -2.9575835  0.021700066    -4.213316    1.2557325  1010000 
  892000   0.83721897   -4.2136456   -4.2136456   -2.9578184  0.022813379   -4.2136456    1.2558272  1010000 
  893000   0.83697058   -4.2134411   -4.2134411   -2.9579865  0.021894789   -4.2134411    1.2554546  1010000 
  894000   0.83760284   -4.2145714   -4.2145714   -2.9581684   0.01964263   -4.2145714     1.256403  1010000 
  895000   0.83748296   -4.2142899   -4.2142899   -2.9580667  0.021600099   -4.2142899    1.2562232  1010000 
  896000   0.83693462   -4.2139442   -4.2139442   -2.9585436  0.019404472   -4.2139442    1.2554007  1010000 
  897000   0.83742871   -4.2146417   -4.2146417   -2.9584998  0.020688995   -4.2146417    1.2561418  1010000 
  898000   0.83717004   -4.2139572   -4.2139572   -2.9582034  0.020558136   -4.2139572    1.2557538  1010000 
  899000   0.83676389   -4.2135223   -4.2135223   -2.9583777  0.022560093   -4.2135223    1.2551446  1010000 
  900000   0.83713822   -4.2142171   -4.2142171    -2.958511  0.025375385   -4.2142171    1.2557061  1010000 
  901000   0.83709438    -4.214398    -4.214398   -2.9587576  0.023548806    -4.214398    1.2556403  1010000 
  902000   0.83723899   -4.2147041   -4.2147041   -2.9588469   0.02641002   -4.2147041    1.2558572  1010000 
  903000   0.83757683   -4.2153866   -4.2153866   -2.9590226  0.022117722   -4.2153866     1.256364  1010000 
  904000   0.83775145   -4.2163459   -4.2163459     -2.95972  0.022627914   -4.2163459    1.2566259  1010000 
  905000   0.83713382   -4.2155629   -4.2155629   -2.9598634  0.024660751   -4.2155629    1.2556995  1010000 
  906000   0.83721173   -4.2160385   -4.2160385   -2.9602221  0.022832525   -4.2160385    1.2558164  1010000 
  907000   0.83832223     -4.21715     -4.21715   -2.9596679   0.02103376     -4.21715    1.2574821  1010000 
  908000   0.83760321   -4.2166062   -4.2166062   -2.9602026  0.020435848   -4.2166062    1.2564036  1010000 
  909000   0.83726735   -4.2161818   -4.2161818    -2.960282  0.023399593   -4.2161818    1.2558998  1010000 
  910000   0.83684564   -4.2154032   -4.2154032   -2.9601359  0.027508104   -4.2154032    1.2552672  1010000 
  911000   0.83727358   -4.2168108   -4.2168108   -2.9609017  0.021247787   -4.2168108    1.2559091  1010000 
  912000   0.83650309   -4.2158437   -4.2158437   -2.9610903  0.027478977   -4.2158437    1.2547534  1010000 
  913000   0.83752045    -4.218357    -4.218357   -2.9620776  0.019354359    -4.218357    1.2562794  1010000 
  914000   0.83767259    -4.218061    -4.218061   -2.9615533  0.019704021    -4.218061    1.2565076  1010000 
  915000   0.83692727   -4.2178621   -4.2178621   -2.9624724   0.01755155   -4.2178621    1.2553897  1010000 
  916000   0.83649657   -4.2169822   -4.2169822   -2.9622386  0.025707368   -4.2169822    1.2547436  1010000 
  917000   0.83657861   -4.2175307   -4.2175307    -2.962664  0.024276982   -4.2175307    1.2548667  1010000 
  918000   0.83651673   -4.2175377   -4.2175377   -2.9627638   0.02246837   -4.2175377    1.2547739  1010000 
  919000    0.8359469    -4.217467    -4.217467   -2.9635479   0.02410593    -4.217467    1.2539191  1010000 
  920000   0.83610153    -4.217735    -4.217735   -2.9635839  0.021308213    -4.217735    1.2541511  1010000 
  921000   0.83612599   -4.2177089   -4.2177089   -2.9635212  0.021356741   -4.2177089    1.2541877  1010000 
  922000    0.8356789   -4.2174988   -4.2174988   -2.9639817  0.020816539   -4.2174988    1.2535171  1010000 
  923000   0.83553386   -4.2172131   -4.2172131   -2.9639136  0.023794176   -4.2172131    1.2532996  1010000 
  924000   0.83566165    -4.217771    -4.217771   -2.9642798  0.027650131    -4.217771    1.2534912  1010000 
  925000   0.83589045   -4.2184704   -4.2184704    -2.964636  0.025358427   -4.2184704    1.2538344  1010000 
  926000   0.83647285   -4.2192369   -4.2192369   -2.9645289  0.022241665   -4.2192369     1.254708  1010000 
  927000   0.83560018   -4.2180969   -4.2180969   -2.9646979  0.025934187   -4.2180969     1.253399  1010000 
  928000   0.83493108    -4.217448    -4.217448   -2.9650526  0.024417936    -4.217448    1.2523954  1010000 
  929000   0.83615777     -4.21948     -4.21948   -2.9652446   0.02277025     -4.21948    1.2542354  1010000 
  930000   0.83523018   -4.2183175   -4.2183175   -2.9654735  0.020874883   -4.2183175     1.252844  1010000 
  931000   0.83625119   -4.2197887   -4.2197887   -2.9654132  0.022400369   -4.2197887    1.2543755  1010000 
  932000    0.8365183   -4.2198755   -4.2198755   -2.9650993  0.024222766   -4.2198755    1.2547762  1010000 
  933000   0.83608658   -4.2198277   -4.2198277   -2.9656991  0.022975815   -4.2198277    1.2541286  1010000 
  934000   0.83540835   -4.2191484   -4.2191484   -2.9660371  0.025318254   -4.2191484    1.2531113  1010000 
  935000   0.83599667   -4.2199419   -4.2199419   -2.9659481  0.023061462   -4.2199419    1.2539938  1010000 
  936000   0.83466415   -4.2187555   -4.2187555   -2.9667605   0.02388612   -4.2187555     1.251995  1010000 
  937000   0.83479387   -4.2187741   -4.2187741   -2.9665845  0.024005193   -4.2187741    1.2521896  1010000 
  938000    0.8351894   -4.2197832   -4.2197832   -2.9670003  0.025340136   -4.2197832    1.2527829  1010000 
  939000   0.83562495   -4.2207813   -4.2207813   -2.9673451  0.022375196   -4.2207813    1.2534362  1010000 
  940000   0.83606574   -4.2213266   -4.2213266   -2.9672293  0.018501773   -4.2213266    1.2540974  1010000 
  941000   0.83539214   -4.2205199   -4.2205199    -2.967433  0.021225924   -4.2205199     1.253087  1010000 
  942000   0.83623383   -4.2224971   -4.2224971   -2.9681476  0.018680546   -4.2224971    1.2543495  1010000 
  943000   0.83566468   -4.2215307   -4.2215307   -2.9680349  0.021241551   -4.2215307    1.2534958  1010000 
  944000   0.83537097   -4.2210356   -4.2210356   -2.9679803  0.020067439   -4.2210356    1.2530552  1010000 
  945000   0.83483993   -4.2206856   -4.2206856    -2.968427  0.022451092   -4.2206856    1.2522587  1010000 
  946000   0.83534219    -4.221111    -4.221111    -2.968099  0.020252371    -4.221111     1.253012  1010000 
  947000   0.83510682   -4.2210158   -4.2210158   -2.9683568  0.022348127   -4.2210158     1.252659  1010000 
  948000   0.83464793    -4.220621    -4.220621   -2.9686503  0.025853203    -4.220621    1.2519707  1010000 
  949000   0.83596161   -4.2222813   -4.2222813   -2.9683402  0.021391732   -4.2222813    1.2539412  1010000 
  950000   0.83668824   -4.2231955   -4.2231955   -2.9681643  0.022797349   -4.2231955    1.2550311  1010000 
  951000    0.8361118   -4.2229223   -4.2229223   -2.9687559  0.023846352   -4.2229223    1.2541665  1010000 
  952000   0.83541185   -4.2225509   -4.2225509   -2.9694344  0.022701784   -4.2225509    1.2531165  1010000 
  953000   0.83526648   -4.2223349   -4.2223349   -2.9694364  0.024328013   -4.2223349    1.2528985  1010000 
  954000   0.83527311   -4.2225906   -4.2225906   -2.9696822  0.024348663   -4.2225906    1.2529084  1010000 
  955000   0.83524177   -4.2227843   -4.2227843   -2.9699229  0.026576613   -4.2227843    1.2528614  1010000 
  956000   0.83551432   -4.2229181   -4.2229181   -2.9696479  0.024018051   -4.2229181    1.2532702  1010000 
  957000    0.8349573   -4.2220996   -4.2220996   -2.9696649  0.026688729   -4.2220996    1.2524347  1010000 
  958000   0.83481642   -4.2219944   -4.2219944    -2.969771  0.021988104   -4.2219944    1.2522234  1010000 
  959000   0.83619093   -4.2245666   -4.2245666   -2.9702814  0.015794262   -4.2245666    1.2542852  1010000 
  960000   0.83413411   -4.2222587   -4.2222587   -2.9710587  0.022241681   -4.2222587    1.2511999  1010000 
  961000   0.83513283   -4.2240357   -4.2240357   -2.9713377  0.021155091   -4.2240357     1.252698  1010000 
  962000   0.83437796   -4.2234861   -4.2234861   -2.9719204  0.024100806   -4.2234861    1.2515657  1010000 
  963000   0.83543962   -4.2253071   -4.2253071   -2.9721489  0.018524521   -4.2253071    1.2531582  1010000 
  964000   0.83416412   -4.2240446   -4.2240446   -2.9727997  0.021170315   -4.2240446    1.2512449  1010000 
  965000   0.83388189   -4.2241786   -4.2241786    -2.973357  0.022209624   -4.2241786    1.2508216  1010000 
  966000   0.83390603    -4.224318    -4.224318   -2.9734602   0.01662454    -4.224318    1.2508578  1010000 
  967000   0.83407689   -4.2247092   -4.2247092   -2.9735951  0.021850484   -4.2247092    1.2511141  1010000 
  968000   0.83377382   -4.2241365   -4.2241365    -2.973477  0.022527033   -4.2241365    1.2506595  1010000 
  969000   0.83389757   -4.2244804   -4.2244804   -2.9736353  0.020509438   -4.2244804    1.2508451  1010000 
  970000   0.83386599   -4.2248871   -4.2248871   -2.9740894  0.019762444   -4.2248871    1.2507977  1010000 
  971000    0.8335782   -4.2245861   -4.2245861   -2.9742201  0.021258158   -4.2245861    1.2503661  1010000 
  972000   0.83382137   -4.2248679   -4.2248679    -2.974137  0.018962472   -4.2248679    1.2507308  1010000 
  973000   0.83371006   -4.2252305   -4.2252305   -2.9746666  0.019556474   -4.2252305    1.2505639  1010000 
  974000   0.83442355   -4.2262302   -4.2262302   -2.9745961  0.018246199   -4.2262302    1.2516341  1010000 
  975000   0.83319892   -4.2250745   -4.2250745   -2.9752774  0.025430239   -4.2250745    1.2497971  1010000 
  976000   0.83359985   -4.2263164   -4.2263164   -2.9759179  0.017794373   -4.2263164    1.2503985  1010000 
  977000   0.83313395   -4.2261588   -4.2261588   -2.9764592  0.020245465   -4.2261588    1.2496997  1010000 
  978000   0.83372109   -4.2275092   -4.2275092   -2.9769288  0.022200241   -4.2275092    1.2505804  1010000 
  979000   0.83387037   -4.2276869   -4.2276869   -2.9768826  0.019967862   -4.2276869    1.2508043  1010000 
  980000   0.83351648    -4.227248    -4.227248   -2.9769745  0.020549513    -4.227248    1.2502735  1010000 
  981000   0.83335711   -4.2278048   -4.2278048   -2.9777704  0.018983919   -4.2278048    1.2500344  1010000 
  982000   0.83356259   -4.2280898   -4.2280898   -2.9777471  0.021179536   -4.2280898    1.2503426  1010000 
  983000   0.83392758   -4.2286337   -4.2286337   -2.9777436  0.019617814   -4.2286337    1.2508901  1010000 
  984000   0.83320626   -4.2279235   -4.2279235   -2.9781153  0.022868892   -4.2279235    1.2498082  1010000 
  985000   0.83340108    -4.228761    -4.228761   -2.9786606  0.020370607    -4.228761    1.2501004  1010000 
  986000     0.833508   -4.2291298   -4.2291298    -2.978869  0.022671084   -4.2291298    1.2502608  1010000 
  987000   0.83430672   -4.2297035   -4.2297035   -2.9782446  0.023990419   -4.2297035    1.2514588  1010000 
  988000   0.83393136    -4.228826    -4.228826   -2.9779302  0.023210244    -4.228826    1.2508958  1010000 
  989000   0.83416168   -4.2300685   -4.2300685   -2.9788272  0.025738616   -4.2300685    1.2512413  1010000 
  990000   0.83344549    -4.229412    -4.229412    -2.979245  0.025591781    -4.229412     1.250167  1010000 
  991000   0.83423646   -4.2308382   -4.2308382   -2.9794848   0.02349767   -4.2308382    1.2513534  1010000 
  992000   0.83353344   -4.2301092   -4.2301092   -2.9798103  0.027472758   -4.2301092    1.2502989  1010000 
  993000   0.83429297   -4.2310429   -4.2310429   -2.9796047  0.027809895   -4.2310429    1.2514382  1010000 
  994000   0.83438861   -4.2316583   -4.2316583   -2.9800766  0.026259837   -4.2316583    1.2515817  1010000 
  995000   0.83485707   -4.2329196   -4.2329196   -2.9806353  0.023571346   -4.2329196    1.2522844  1010000 
  996000   0.83346526   -4.2316154   -4.2316154   -2.9814187  0.024645744   -4.2316154    1.2501967  1010000 
  997000   0.83347018   -4.2316576   -4.2316576   -2.9814536  0.025448775   -4.2316576     1.250204  1010000 
  998000   0.83465568   -4.2343445   -4.2343445   -2.9823622  0.022447985   -4.2343445    1.2519823  1010000 
  999000    0.8331937   -4.2321507   -4.2321507   -2.9823614  0.026010577   -4.2321507    1.2497893  1010000 
 1000000   0.83430717    -4.234085    -4.234085   -2.9826254  0.022927288    -4.234085    1.2514595  1010000 
 1001000   0.83354348   -4.2330891   -4.2330891   -2.9827751  0.023352047   -4.2330891     1.250314  1010000 
 1002000    0.8335929   -4.2336105   -4.2336105   -2.9832224  0.023320944   -4.2336105    1.2503881  1010000 
 1003000   0.83320177   -4.2332239   -4.2332239   -2.9834225  0.026327535   -4.2332239    1.2498014  1010000 
 1004000   0.83340728   -4.2333447   -4.2333447    -2.983235  0.025093982   -4.2333447    1.2501097  1010000 
 1005000   0.83370481    -4.233699    -4.233699    -2.983143  0.021522112    -4.233699     1.250556  1010000 
 1006000   0.83299269   -4.2330204   -4.2330204   -2.9835326  0.024201521   -4.2330204    1.2494878  1010000 
 1007000   0.83310797   -4.2330403   -4.2330403   -2.9833796  0.024389742   -4.2330403    1.2496607  1010000 
 1008000   0.83351136   -4.2338854   -4.2338854   -2.9836196  0.025068787   -4.2338854    1.2502658  1010000 
 1009000   0.83322231   -4.2335248   -4.2335248   -2.9836926  0.024878468   -4.2335248    1.2498322  1010000 
 1010000   0.83374752   -4.2344787   -4.2344787   -2.9838586  0.021114215   -4.2344787      1.25062  1010000 
 1011000    0.8327811   -4.2334447   -4.2334447   -2.9842743  0.025017673   -4.2334447    1.2491704  1010000 
 1012000   0.83269637   -4.2340306   -4.2340306   -2.9849873  0.023160604   -4.2340306    1.2490433  1010000 
 1013000   0.83360153   -4.2355652   -4.2355652   -2.9851641  0.022906017   -4.2355652    1.2504011  1010000 
 1014000   0.83306365   -4.2348684   -4.2348684   -2.9852741  0.022462233   -4.2348684    1.2495942  1010000 
 1015000   0.83251106   -4.2343745   -4.2343745   -2.9856091  0.022177974   -4.2343745    1.2487654  1010000 
 1016000   0.83264999   -4.2348536   -4.2348536   -2.9858798  0.022640118   -4.2348536    1.2489738  1010000 
 1017000   0.83275037   -4.2349948   -4.2349948   -2.9858704  0.022880148   -4.2349948    1.2491243  1010000 
 1018000   0.83207714   -4.2340145   -4.2340145      -2.9859  0.023956732   -4.2340145    1.2481145  1010000 
 1019000   0.83244986   -4.2351182   -4.2351182   -2.9864446  0.019428332   -4.2351182    1.2486736  1010000 
 1020000    0.8317045   -4.2336379   -4.2336379   -2.9860824  0.020166012   -4.2336379    1.2475555  1010000 
 1021000   0.83143132   -4.2337972   -4.2337972   -2.9866515  0.020045621   -4.2337972    1.2471457  1010000 
 1022000   0.83122223   -4.2339473   -4.2339473   -2.9871152  0.018802534   -4.2339473    1.2468321  1010000 
 1023000   0.83194763   -4.2347083   -4.2347083   -2.9867881  0.018480157   -4.2347083    1.2479202  1010000 
 1024000   0.83176961   -4.2343093   -4.2343093   -2.9866561  0.019518014   -4.2343093    1.2476532  1010000 
 1025000   0.83135361   -4.2337552   -4.2337552    -2.986726  0.021878974   -4.2337552    1.2470292  1010000 
 1026000   0.83268737   -4.2358121   -4.2358121   -2.9867823  0.018371039   -4.2358121    1.2490298  1010000 
 1027000   0.83268607   -4.2358654   -4.2358654   -2.9868376  0.018760508   -4.2358654    1.2490279  1010000 
 1028000   0.83154301   -4.2336945   -4.2336945   -2.9863812  0.022939033   -4.2336945    1.2473133  1010000 
 1029000   0.83192443    -4.235137    -4.235137   -2.9872516  0.020704034    -4.235137    1.2478854  1010000 
 1030000   0.83145197   -4.2345087   -4.2345087   -2.9873319  0.022100078   -4.2345087    1.2471767  1010000 
 1031000   0.83183687   -4.2357921   -4.2357921    -2.988038   0.01993831   -4.2357921    1.2477541  1010000 
 1032000   0.83230488   -4.2363456   -4.2363456   -2.9878895  0.018108693   -4.2363456    1.2484561  1010000 
 1033000   0.83199398   -4.2361981   -4.2361981   -2.9882084  0.020970784   -4.2361981    1.2479897  1010000 
 1034000   0.83164731    -4.236069    -4.236069   -2.9885993  0.018297569    -4.236069    1.2474697  1010000 
 1035000   0.83140562   -4.2359041   -4.2359041   -2.9887969   0.01944335   -4.2359041    1.2471072  1010000 
 1036000   0.83228859   -4.2367595   -4.2367595   -2.9883279   0.01839646   -4.2367595    1.2484316  1010000 
 1037000   0.83073943    -4.234634    -4.234634   -2.9885261  0.024450233    -4.234634    1.2461079  1010000 
 1038000   0.83164114   -4.2354033   -4.2354033   -2.9879429  0.022363355   -4.2354033    1.2474605  1010000 
 1039000   0.83154491   -4.2362681   -4.2362681    -2.988952  0.019192707   -4.2362681    1.2473161  1010000 
 1040000   0.83150256   -4.2367065   -4.2367065   -2.9894539  0.019933036   -4.2367065    1.2472526  1010000 
 1041000   0.83068355   -4.2358489   -4.2358489   -2.9898248  0.020633858   -4.2358489    1.2460241  1010000 
 1042000   0.83150135   -4.2375317   -4.2375317   -2.9902809  0.016562833   -4.2375317    1.2472508  1010000 
 1043000   0.83119652   -4.2376291   -4.2376291   -2.9908356    0.0170246   -4.2376291    1.2467935  1010000 
 1044000   0.83185988   -4.2389024   -4.2389024   -2.9911138  0.015292549   -4.2389024    1.2477886  1010000 
 1045000   0.83114036   -4.2384049   -4.2384049   -2.9916956  0.023047187   -4.2384049    1.2467093  1010000 
 1046000   0.83159921   -4.2390605   -4.2390605   -2.9916629  0.019415141   -4.2390605    1.2473976  1010000 
 1047000    0.8311068   -4.2389035   -4.2389035   -2.9922446  0.024699661   -4.2389035     1.246659  1010000 
 1048000   0.83153296   -4.2392545   -4.2392545   -2.9919563  0.024179575   -4.2392545    1.2472982  1010000 
 1049000   0.83069571   -4.2384304   -4.2384304   -2.9923881  0.026613562   -4.2384304    1.2460423  1010000 
 1050000   0.83186209   -4.2398272   -4.2398272   -2.9920353  0.020867879   -4.2398272    1.2477919  1010000 
 1051000   0.83109819   -4.2390463   -4.2390463   -2.9924002  0.026163863   -4.2390463    1.2466461  1010000 
 1052000    0.8320385   -4.2401008   -4.2401008   -2.9920443  0.023629326   -4.2401008    1.2480565  1010000 
 1053000   0.83146485   -4.2395909   -4.2395909   -2.9923948  0.024054056   -4.2395909     1.247196  1010000 
 1054000   0.83123032   -4.2395693   -4.2395693   -2.9927251  0.024537638   -4.2395693    1.2468443  1010000 
 1055000   0.83152901    -4.239911    -4.239911   -2.9926187  0.023820432    -4.239911    1.2472923  1010000 
 1056000   0.83183832   -4.2408619   -4.2408619   -2.9931056  0.018886387   -4.2408619    1.2477562  1010000 
 1057000   0.83174991      -4.2412      -4.2412   -2.9935764  0.023819492      -4.2412    1.2476236  1010000 
 1058000   0.83164257   -4.2413179   -4.2413179   -2.9938553  0.025033688   -4.2413179    1.2474626  1010000 
 1059000   0.83177548   -4.2418314   -4.2418314   -2.9941694  0.020936675   -4.2418314     1.247662  1010000 
 1060000   0.83118259   -4.2411233   -4.2411233   -2.9943507  0.024866165   -4.2411233    1.2467726  1010000 
 1061000   0.83137339   -4.2421417   -4.2421417   -2.9950828  0.026424854   -4.2421417    1.2470589  1010000 
 1062000   0.83154415   -4.2426575   -4.2426575   -2.9953425  0.021477241   -4.2426575     1.247315  1010000 
 1063000   0.83147427   -4.2430379   -4.2430379   -2.9958277  0.022729716   -4.2430379    1.2472102  1010000 
 1064000   0.83185577   -4.2433401   -4.2433401   -2.9955577  0.023006465   -4.2433401    1.2477824  1010000 
 1065000    0.8309149   -4.2424231   -4.2424231    -2.996052  0.026628901   -4.2424231    1.2463711  1010000 
 1066000   0.83105952   -4.2429574   -4.2429574   -2.9963693  0.025554372   -4.2429574    1.2465881  1010000 
 1067000   0.83150356   -4.2437823   -4.2437823   -2.9965282  0.025392437   -4.2437823    1.2472541  1010000 
 1068000   0.83083551   -4.2431817   -4.2431817   -2.9969296  0.022426712   -4.2431817     1.246252  1010000 
 1069000   0.83172271   -4.2442984   -4.2442984   -2.9967156  0.021298285   -4.2442984    1.2475828  1010000 
 1070000   0.83090519      -4.2434      -4.2434   -2.9970435  0.025067803      -4.2434    1.2463565  1010000 
 1071000   0.83066002   -4.2440433   -4.2440433   -2.9980545  0.021614994   -4.2440433    1.2459888  1010000 
 1072000   0.82999359   -4.2429763   -4.2429763   -2.9979871  0.022258156   -4.2429763    1.2449892  1010000 
 1073000   0.82975381   -4.2431708   -4.2431708   -2.9985413  0.016628014   -4.2431708    1.2446295  1010000 
 1074000   0.82997913   -4.2437377   -4.2437377   -2.9987703  0.020729185   -4.2437377    1.2449675  1010000 
 1075000   0.82959643   -4.2428812   -4.2428812   -2.9984878  0.021612597   -4.2428812    1.2443934  1010000 
 1076000   0.82966357   -4.2434474   -4.2434474   -2.9989532  0.024549468   -4.2434474    1.2444941  1010000 
 1077000   0.83007358   -4.2437362   -4.2437362   -2.9986271  0.025603667   -4.2437362    1.2451091  1010000 
 1078000   0.83054909   -4.2447876   -4.2447876   -2.9989652   0.02156196   -4.2447876    1.2458224  1010000 
 1079000   0.83078929    -4.245306    -4.245306   -2.9991233  0.020154838    -4.245306    1.2461827  1010000 
 1080000   0.83016046   -4.2447208   -4.2447208   -2.9994813  0.021741061   -4.2447208    1.2452395  1010000 
 1081000   0.82998658   -4.2446654   -4.2446654   -2.9996868  0.023429829   -4.2446654    1.2449786  1010000 
 1082000   0.83078228   -4.2456866   -4.2456866   -2.9995144  0.020386879   -4.2456866    1.2461722  1010000 
 1083000   0.83043896   -4.2455678   -4.2455678   -2.9999106  0.022528646   -4.2455678    1.2456572  1010000 
 1084000   0.83061405   -4.2458483   -4.2458483   -2.9999284   0.02060256   -4.2458483    1.2459198  1010000 
 1085000   0.83043438   -4.2462646   -4.2462646   -3.0006142  0.022909423   -4.2462646    1.2456503  1010000 
 1086000   0.83054935   -4.2464903   -4.2464903   -3.0006676  0.021197045   -4.2464903    1.2458228  1010000 
 1087000   0.83045399   -4.2466146   -4.2466146   -3.0009348  0.023113131   -4.2466146    1.2456797  1010000 
 1088000   0.83046304   -4.2464183   -4.2464183    -3.000725  0.021819937   -4.2464183    1.2456933  1010000 
 1089000   0.82966873   -4.2453834   -4.2453834   -3.0008816  0.028264978   -4.2453834    1.2445019  1010000 
 1090000   0.82951264   -4.2463049   -4.2463049   -3.0020372  0.023835586   -4.2463049    1.2442677  1010000 
 1091000   0.82936079    -4.245887    -4.245887   -3.0018471  0.024700115    -4.245887      1.24404  1010000 
 1092000   0.82921521   -4.2457771   -4.2457771   -3.0019555  0.024324282   -4.2457771    1.2438216  1010000 
 1093000   0.82985737    -4.246806    -4.246806   -3.0020212  0.022404452    -4.246806    1.2447848  1010000 
 1094000   0.82910324   -4.2459457   -4.2459457   -3.0022921  0.022666872   -4.2459457    1.2436536  1010000 
 1095000   0.83025378   -4.2473235   -4.2473235   -3.0019441  0.022228496   -4.2473235    1.2453794  1010000 
 1096000   0.83006805   -4.2471618   -4.2471618   -3.0020609   0.02522031   -4.2471618    1.2451008  1010000 
 1097000   0.82894425   -4.2460316   -4.2460316   -3.0026165  0.024899354   -4.2460316    1.2434151  1010000 
 1098000   0.83049871   -4.2485809   -4.2485809    -3.002834  0.020595478   -4.2485809    1.2457468  1010000 
 1099000   0.82995606    -4.247956    -4.247956   -3.0030231   0.02311317    -4.247956    1.2449329  1010000 
 1100000   0.83040629   -4.2483657   -4.2483657   -3.0027575  0.020513508   -4.2483657    1.2456082  1010000 
 1101000   0.82986302    -4.247693    -4.247693   -3.0028997  0.024703575    -4.247693    1.2447933  1010000 
 1102000   0.83034449   -4.2479101   -4.2479101   -3.0023946  0.023354755   -4.2479101    1.2455155  1010000 
 1103000   0.82984374   -4.2478137   -4.2478137   -3.0030493  0.027631998   -4.2478137    1.2447644  1010000 
 1104000   0.83003098   -4.2481674   -4.2481674   -3.0031221  0.026593178   -4.2481674    1.2450452  1010000 
 1105000    0.8311951   -4.2496104   -4.2496104    -3.002819  0.022044963   -4.2496104    1.2467914  1010000 
 1106000   0.83008776   -4.2485485   -4.2485485   -3.0034181  0.024776183   -4.2485485    1.2451304  1010000 
 1107000   0.83005627    -4.248955    -4.248955   -3.0038718  0.024132269    -4.248955    1.2450832  1010000 
 1108000   0.82944115   -4.2485193   -4.2485193   -3.0043588  0.026521994   -4.2485193    1.2441605  1010000 
 1109000   0.83056594   -4.2499939   -4.2499939   -3.0041463  0.022783595   -4.2499939    1.2458477  1010000 
 1110000   0.82930421   -4.2481606   -4.2481606   -3.0042055  0.027655436   -4.2481606    1.2439551  1010000 
 1111000   0.83019645    -4.249865    -4.249865   -3.0045716  0.023758898    -4.249865    1.2452934  1010000 
 1112000   0.83055675   -4.2498314   -4.2498314   -3.0039975  0.021929333   -4.2498314    1.2458339  1010000 
 1113000   0.82950716   -4.2483596   -4.2483596   -3.0041001  0.024239437   -4.2483596    1.2442595  1010000 
 1114000   0.82942774   -4.2480251   -4.2480251   -3.0038847  0.022990151   -4.2480251    1.2441404  1010000 
 1115000   0.82922691   -4.2480608   -4.2480608   -3.0042217  0.024812142   -4.2480608    1.2438391  1010000 
 1116000   0.82849645   -4.2478627   -4.2478627   -3.0051193  0.019606328   -4.2478627    1.2427434  1010000 
 1117000   0.82831897   -4.2486038   -4.2486038   -3.0061266  0.018886322   -4.2486038    1.2424772  1010000 
 1118000   0.82839078   -4.2483935   -4.2483935   -3.0058085  0.019178752   -4.2483935    1.2425849  1010000 
 1119000   0.82856094   -4.2485714   -4.2485714   -3.0057312  0.020789829   -4.2485714    1.2428402  1010000 
 1120000    0.8290681   -4.2491185   -4.2491185   -3.0055176  0.021482248   -4.2491185    1.2436009  1010000 
 1121000   0.82830415   -4.2480502   -4.2480502   -3.0055952  0.021923237   -4.2480502     1.242455  1010000 
 1122000   0.82819704   -4.2487273   -4.2487273    -3.006433  0.019243653   -4.2487273    1.2422943  1010000 
 1123000   0.82878372   -4.2498836   -4.2498836   -3.0067093  0.018449262   -4.2498836    1.2431744  1010000 
 1124000   0.82878297   -4.2502478   -4.2502478   -3.0070746  0.018647886   -4.2502478    1.2431732  1010000 
 1125000   0.82894487   -4.2503733   -4.2503733   -3.0069573  0.019886311   -4.2503733    1.2434161  1010000 
 1126000   0.82851563   -4.2502412   -4.2502412    -3.007469  0.020650135   -4.2502412    1.2427722  1010000 
 1127000   0.82822684   -4.2502336   -4.2502336   -3.0078946  0.017913139   -4.2502336     1.242339  1010000 
 1128000   0.82846813   -4.2502959   -4.2502959    -3.007595  0.018064062   -4.2502959     1.242701  1010000 
 1129000   0.82773349   -4.2499776   -4.2499776   -3.0083786  0.020306425   -4.2499776     1.241599  1010000 
 1130000   0.82761811   -4.2500313   -4.2500313   -3.0086053  0.019584209   -4.2500313    1.2414259  1010000 
 1131000   0.82716568   -4.2497531   -4.2497531   -3.0090058  0.021804179   -4.2497531    1.2407473  1010000 
 1132000   0.82750321   -4.2503325   -4.2503325   -3.0090789  0.018935876   -4.2503325    1.2412536  1010000 
 1133000   0.82847713   -4.2515229   -4.2515229   -3.0088084  0.016654623   -4.2515229    1.2427145  1010000 
 1134000   0.82821425   -4.2515228   -4.2515228   -3.0092026  0.018048433   -4.2515228    1.2423201  1010000 
 1135000    0.8281656   -4.2513977   -4.2513977   -3.0091506  0.019299796   -4.2513977    1.2422472  1010000 
 1136000    0.8276053   -4.2508994   -4.2508994   -3.0094927  0.019360441   -4.2508994    1.2414067  1010000 
 1137000   0.82806588   -4.2517631   -4.2517631   -3.0096655  0.019850656   -4.2517631    1.2420976  1010000 
 1138000   0.82840998   -4.2522861   -4.2522861   -3.0096724  0.018727937   -4.2522861    1.2426137  1010000 
 1139000   0.82801546   -4.2516573   -4.2516573   -3.0096353  0.019667186   -4.2516573     1.242022  1010000 
 1140000   0.82812029   -4.2521451   -4.2521451   -3.0099659    0.0228808   -4.2521451    1.2421792  1010000 
 1141000    0.8283771   -4.2529054   -4.2529054    -3.010341  0.021232704   -4.2529054    1.2425644  1010000 
 1142000   0.82889155   -4.2535425   -4.2535425   -3.0102064  0.022794679   -4.2535425    1.2433361  1010000 
 1143000   0.82896098    -4.254244    -4.254244   -3.0108038  0.022694667    -4.254244    1.2434402  1010000 
 1144000   0.82861489   -4.2544392   -4.2544392   -3.0115181  0.024417233   -4.2544392    1.2429211  1010000 
 1145000   0.82896881    -4.254806    -4.254806    -3.011354  0.023169162    -4.254806     1.243452  1010000 
 1146000   0.82830717   -4.2542322   -4.2542322   -3.0117727  0.023003836   -4.2542322    1.2424595  1010000 
 1147000   0.82864296   -4.2548024   -4.2548024   -3.0118392  0.024013544   -4.2548024    1.2429632  1010000 
 1148000   0.83005733   -4.2567097   -4.2567097   -3.0116249  0.024774366   -4.2567097    1.2450848  1010000 
 1149000    0.8287754   -4.2550821   -4.2550821   -3.0119202  0.027495307   -4.2550821    1.2431619  1010000 
 1150000   0.82958217   -4.2562243   -4.2562243   -3.0118523  0.024746895   -4.2562243     1.244372  1010000 
 1151000   0.82814522   -4.2539893   -4.2539893   -3.0117727  0.029664395   -4.2539893    1.2422166  1010000 
 1152000   0.82793666   -4.2540124   -4.2540124   -3.0121086  0.027532309   -4.2540124    1.2419038  1010000 
 1153000   0.82887444   -4.2554479   -4.2554479   -3.0121374  0.025270916   -4.2554479    1.2433104  1010000 
 1154000   0.82928171    -4.256037    -4.256037   -3.0121156  0.023012156    -4.256037    1.2439213  1010000 
 1155000   0.82764415   -4.2543306   -4.2543306   -3.0128656  0.025725805   -4.2543306     1.241465  1010000 
 1156000   0.82800831   -4.2554606   -4.2554606   -3.0134493  0.022508374   -4.2554606    1.2420112  1010000 
 1157000   0.82835545   -4.2559536   -4.2559536   -3.0134217  0.022158513   -4.2559536     1.242532  1010000 
 1158000   0.82821055   -4.2557155   -4.2557155   -3.0134009  0.025325212   -4.2557155    1.2423146  1010000 
 1159000   0.82874128   -4.2569274   -4.2569274   -3.0138167  0.025769759   -4.2569274    1.2431107  1010000 
 1160000   0.82771603   -4.2563648   -4.2563648    -3.014792  0.026667261   -4.2563648    1.2415728  1010000 
 1161000   0.82857336   -4.2577595   -4.2577595   -3.0149007  0.022666444   -4.2577595    1.2428588  1010000 
 1162000     0.827646    -4.256446    -4.256446   -3.0149783  0.026978678    -4.256446    1.2414678  1010000 
 1163000   0.82841887   -4.2578489   -4.2578489   -3.0152218  0.023114524   -4.2578489    1.2426271  1010000 
 1164000   0.82804219   -4.2574266   -4.2574266   -3.0153645  0.022277907   -4.2574266     1.242062  1010000 
 1165000   0.82768267   -4.2568976   -4.2568976   -3.0153749  0.023307382   -4.2568976    1.2415228  1010000 
 1166000   0.82809663   -4.2574079   -4.2574079   -3.0152642  0.022012509   -4.2574079    1.2421437  1010000 
 1167000   0.82752169   -4.2565987   -4.2565987   -3.0153174   0.02607809   -4.2565987    1.2412813  1010000 
 1168000   0.82786627    -4.257155    -4.257155   -3.0153568  0.024773047    -4.257155    1.2417982  1010000 
 1169000   0.82895865   -4.2588848   -4.2588848    -3.015448  0.020987338   -4.2588848    1.2434367  1010000 
 1170000   0.82721256   -4.2561951   -4.2561951   -3.0153775  0.024732115   -4.2561951    1.2408176  1010000 
 1171000   0.82776147   -4.2570799   -4.2570799   -3.0154389  0.021606869   -4.2570799     1.241641  1010000 
 1172000   0.82756415   -4.2564717   -4.2564717   -3.0151267  0.022253551   -4.2564717     1.241345  1010000 
 1173000   0.82735857   -4.2568468   -4.2568468   -3.0158102  0.020123528   -4.2568468    1.2410366  1010000 
 1174000   0.82691941    -4.256283    -4.256283   -3.0159051  0.021274266    -4.256283    1.2403779  1010000 
 1175000   0.82729123    -4.257049    -4.257049   -3.0161134  0.017809237    -4.257049    1.2409356  1010000 
 1176000   0.82717385   -4.2569603   -4.2569603   -3.0162008  0.023914892   -4.2569603    1.2407596  1010000 
 1177000   0.82727314   -4.2575625   -4.2575625    -3.016654  0.021501252   -4.2575625    1.2409085  1010000 
 1178000   0.82751337   -4.2581606   -4.2581606   -3.0168918  0.022248294   -4.2581606    1.2412688  1010000 
 1179000   0.82743523   -4.2591635   -4.2591635   -3.0180119  0.019065683   -4.2591635    1.2411516  1010000 
 1180000   0.82616866    -4.257209    -4.257209   -3.0179573  0.021767697    -4.257209    1.2392518  1010000 
 1181000   0.82652249   -4.2579874   -4.2579874   -3.0182049  0.019746287   -4.2579874    1.2397825  1010000 
 1182000    0.8273637   -4.2585221   -4.2585221   -3.0174778  0.021038024   -4.2585221    1.2410443  1010000 
 1183000   0.82623607   -4.2573683   -4.2573683   -3.0180155  0.020313226   -4.2573683    1.2393529  1010000 
 1184000   0.82615037   -4.2579123   -4.2579123    -3.018688  0.017736634   -4.2579123    1.2392243  1010000 
 1185000   0.82602578   -4.2578715   -4.2578715    -3.018834  0.016943148   -4.2578715    1.2390374  1010000 
 1186000   0.82649188   -4.2586337   -4.2586337   -3.0188971  0.015662836   -4.2586337    1.2397366  1010000 
 1187000   0.82544761   -4.2574053   -4.2574053   -3.0192351  0.020852131   -4.2574053    1.2381702  1010000 
 1188000   0.82554249   -4.2577592   -4.2577592   -3.0194467  0.019824005   -4.2577592    1.2383125  1010000 
 1189000   0.82617897   -4.2589121   -4.2589121   -3.0196449  0.019853531   -4.2589121    1.2392672  1010000 
 1190000   0.82624354   -4.2589675   -4.2589675   -3.0196034  0.020877055   -4.2589675    1.2393641  1010000 
 1191000   0.82635324   -4.2593254   -4.2593254   -3.0197968  0.019305785   -4.2593254    1.2395286  1010000 
 1192000   0.82566116   -4.2582778   -4.2582778   -3.0197873  0.022852103   -4.2582778    1.2384905  1010000 
 1193000   0.82620214   -4.2598319   -4.2598319   -3.0205299  0.022124279   -4.2598319     1.239302  1010000 
 1194000   0.82605802   -4.2599495   -4.2599495   -3.0208637   0.02127802   -4.2599495    1.2390858  1010000 
 1195000   0.82639938   -4.2599674   -4.2599674   -3.0203695  0.022983374   -4.2599674    1.2395978  1010000 
 1196000   0.82696181   -4.2604157   -4.2604157   -3.0199742  0.020255658   -4.2604157    1.2404415  1010000 
 1197000   0.82651946   -4.2597688   -4.2597688   -3.0199909  0.024270707   -4.2597688     1.239778  1010000 
 1198000   0.82798919   -4.2622143   -4.2622143   -3.0202317  0.021516441   -4.2622143    1.2419825  1010000 
 1199000   0.82771409   -4.2625004   -4.2625004   -3.0209305  0.023375401   -4.2625004    1.2415699  1010000 
 1200000   0.82702338   -4.2616383   -4.2616383   -3.0211044  0.026892848   -4.2616383    1.2405338  1010000 
 1201000   0.82798549    -4.262795    -4.262795    -3.020818  0.022487806    -4.262795     1.241977  1010000 
 1202000   0.82736665   -4.2619506   -4.2619506   -3.0209019  0.025957737   -4.2619506    1.2410487  1010000 
 1203000   0.82798175   -4.2631759   -4.2631759   -3.0212045   0.02221148   -4.2631759    1.2419714  1010000 
 1204000   0.82792242   -4.2632603   -4.2632603   -3.0213779  0.026722719   -4.2632603    1.2418824  1010000 
 1205000    0.8283093    -4.264417    -4.264417   -3.0219543   0.02233662    -4.264417    1.2424627  1010000 
 1206000   0.82722043   -4.2633886   -4.2633886   -3.0225591  0.026542779   -4.2633886    1.2408294  1010000 
 1207000   0.82826402   -4.2647238   -4.2647238    -3.022329  0.020831706   -4.2647238    1.2423948  1010000 
 1208000   0.82716139    -4.263331    -4.263331   -3.0225902  0.027560463    -4.263331    1.2407409  1010000 
 1209000   0.82718923   -4.2637131   -4.2637131   -3.0229305  0.021248674   -4.2637131    1.2407826  1010000 
 1210000   0.82609389   -4.2624639   -4.2624639   -3.0233243  0.021961442   -4.2624639    1.2391396  1010000 
 1211000   0.82628802   -4.2630234   -4.2630234   -3.0235926  0.023096486   -4.2630234    1.2394308  1010000 
 1212000   0.82634147   -4.2629034   -4.2629034   -3.0233924  0.026148035   -4.2629034     1.239511  1010000 
 1213000   0.82663621   -4.2635537   -4.2635537   -3.0236006  0.025022055   -4.2635537    1.2399531  1010000 
 1214000   0.82653292   -4.2639735   -4.2639735   -3.0241753  0.023440101   -4.2639735    1.2397982  1010000 
 1215000   0.82619148   -4.2633472   -4.2633472   -3.0240612  0.023200491   -4.2633472     1.239286  1010000 
 1216000   0.82717223    -4.265072    -4.265072   -3.0243149  0.022622377    -4.265072    1.2407571  1010000 
 1217000   0.82514759   -4.2623079   -4.2623079   -3.0245877  0.026275433   -4.2623079    1.2377202  1010000 
 1218000   0.82565033   -4.2629223   -4.2629223   -3.0244481  0.025905446   -4.2629223    1.2384743  1010000 
 1219000   0.82554344   -4.2630346   -4.2630346   -3.0247207   0.02267394   -4.2630346    1.2383139  1010000 
 1220000   0.82511872    -4.262448    -4.262448   -3.0247711  0.025678519    -4.262448    1.2376768  1010000 
 1221000   0.82593991   -4.2639819   -4.2639819   -3.0250733  0.025846386   -4.2639819    1.2389086  1010000 
 1222000   0.82627696   -4.2637732   -4.2637732   -3.0243589  0.024659699   -4.2637732    1.2394142  1010000 
 1223000   0.82520743   -4.2622855   -4.2622855   -3.0244755  0.027056111   -4.2622855    1.2378099  1010000 
 1224000   0.82646097   -4.2641957   -4.2641957   -3.0245055  0.022061759   -4.2641957    1.2396902  1010000 
 1225000   0.82601853    -4.263656    -4.263656   -3.0246294  0.023523855    -4.263656    1.2390266  1010000 
 1226000   0.82576204   -4.2637463   -4.2637463   -3.0251045  0.024634081   -4.2637463    1.2386418  1010000 
 1227000   0.82516153   -4.2628852   -4.2628852   -3.0251441  0.023878842   -4.2628852    1.2377411  1010000 
 1228000   0.82532866   -4.2628812   -4.2628812   -3.0248895  0.019950339   -4.2628812    1.2379918  1010000 
 1229000   0.82537706   -4.2626951   -4.2626951   -3.0246308  0.021073932   -4.2626951    1.2380644  1010000 
 1230000   0.82565502   -4.2638636   -4.2638636   -3.0253823  0.019083293   -4.2638636    1.2384813  1010000 
 1231000   0.82606049   -4.2644456   -4.2644456   -3.0253561   0.01675074   -4.2644456    1.2390895  1010000 
 1232000   0.82476814   -4.2627142   -4.2627142   -3.0255632  0.022579381   -4.2627142     1.237151  1010000 
 1233000   0.82536329   -4.2636793   -4.2636793   -3.0256356  0.020072066   -4.2636793    1.2380437  1010000 
 1234000   0.82488562   -4.2631808   -4.2631808   -3.0258536  0.018874237   -4.2631808    1.2373272  1010000 
 1235000   0.82536227   -4.2639108   -4.2639108   -3.0258686  0.019209564   -4.2639108    1.2380422  1010000 
 1236000   0.82457907   -4.2630595   -4.2630595   -3.0261922  0.019764978   -4.2630595    1.2368674  1010000 
 1237000   0.82521364   -4.2641552   -4.2641552   -3.0263359  0.021472489   -4.2641552    1.2378192  1010000 
 1238000   0.82457721   -4.2638506   -4.2638506    -3.026986  0.019973472   -4.2638506    1.2368646  1010000 
 1239000   0.82476649   -4.2642072   -4.2642072   -3.0270587  0.017912249   -4.2642072    1.2371485  1010000 
 1240000   0.82473808   -4.2649202   -4.2649202   -3.0278143  0.017322146   -4.2649202    1.2371059  1010000 
 1241000   0.82458067   -4.2646517   -4.2646517   -3.0277819  0.017917723   -4.2646517    1.2368698  1010000 
 1242000   0.82447483    -4.264392    -4.264392    -3.027681  0.019082324    -4.264392     1.236711  1010000 
 1243000   0.82520963    -4.264948    -4.264948   -3.0271347  0.018321902    -4.264948    1.2378132  1010000 
 1244000   0.82498063   -4.2649631   -4.2649631   -3.0274933       0.0196   -4.2649631    1.2374697  1010000 
 1245000   0.82565056   -4.2655633   -4.2655633   -3.0270887  0.017773815   -4.2655633    1.2384746  1010000 
 1246000   0.82505587   -4.2647031   -4.2647031   -3.0271205  0.023252023   -4.2647031    1.2375826  1010000 
 1247000   0.82553322   -4.2659692   -4.2659692   -3.0276706  0.018486397   -4.2659692    1.2382986  1010000 
 1248000   0.82511271   -4.2654361   -4.2654361   -3.0277682  0.022404999   -4.2654361    1.2376678  1010000 
 1249000   0.82506837   -4.2656652   -4.2656652   -3.0280639  0.021381873   -4.2656652    1.2376013  1010000 
 1250000   0.82500857   -4.2663337   -4.2663337    -3.028822  0.021266641   -4.2663337    1.2375116  1010000 
 1251000    0.8255384   -4.2668323   -4.2668323   -3.0285259  0.022590085   -4.2668323    1.2383064  1010000 
 1252000   0.82514225    -4.266896    -4.266896   -3.0291838  0.019404513    -4.266896    1.2377121  1010000 
 1253000   0.82486728   -4.2668438   -4.2668438   -3.0295441  0.021677403   -4.2668438    1.2372997  1010000 
 1254000    0.8245652   -4.2666408   -4.2666408   -3.0297942  0.021944867   -4.2666408    1.2368466  1010000 
 1255000   0.82567262   -4.2684545   -4.2684545   -3.0299468  0.022622797   -4.2684545    1.2385077  1010000 
 1256000   0.82526821   -4.2677517   -4.2677517   -3.0298506  0.022363983   -4.2677517    1.2379011  1010000 
 1257000   0.82589827   -4.2689893   -4.2689893   -3.0301431  0.022045905   -4.2689893    1.2388462  1010000 
 1258000     0.825932   -4.2688694   -4.2688694   -3.0299726  0.021978223   -4.2688694    1.2388968  1010000 
 1259000   0.82522502   -4.2678749   -4.2678749   -3.0300386  0.027108298   -4.2678749    1.2378363  1010000 
 1260000   0.82569822   -4.2690107   -4.2690107   -3.0304646  0.020577495   -4.2690107    1.2385461  1010000 
 1261000   0.82518304   -4.2681391   -4.2681391   -3.0303657  0.023321734   -4.2681391    1.2377733  1010000 
 1262000   0.82523539    -4.268721    -4.268721   -3.0308692  0.025030184    -4.268721    1.2378519  1010000 
 1263000    0.8254533   -4.2694622   -4.2694622   -3.0312835  0.025633546   -4.2694622    1.2381787  1010000 
 1264000   0.82535829   -4.2694227   -4.2694227   -3.0313865    0.0244624   -4.2694227    1.2380362  1010000 
 1265000   0.82503373   -4.2691666   -4.2691666   -3.0316173  0.026546862   -4.2691666    1.2375494  1010000 
 1266000   0.82585671   -4.2704501   -4.2704501   -3.0316663  0.023660093   -4.2704501    1.2387838  1010000 
 1267000   0.82540525   -4.2703142   -4.2703142   -3.0322075  0.026294258   -4.2703142    1.2381067  1010000 
 1268000   0.82527498   -4.2702223   -4.2702223   -3.0323111  0.024116127   -4.2702223    1.2379112  1010000 
 1269000    0.8246361   -4.2692072   -4.2692072   -3.0322543  0.024189902   -4.2692072    1.2369529  1010000 
 1270000   0.82486207   -4.2695431   -4.2695431   -3.0322512  0.023094903   -4.2695431    1.2372919  1010000 
 1271000   0.82457464   -4.2693476   -4.2693476   -3.0324869  0.027434082   -4.2693476    1.2368607  1010000 
 1272000   0.82460089   -4.2696196   -4.2696196   -3.0327195   0.02331282   -4.2696196    1.2369001  1010000 
 1273000   0.82454403   -4.2693943   -4.2693943   -3.0325795   0.02677467   -4.2693943    1.2368148  1010000 
 1274000   0.82474151   -4.2698486   -4.2698486   -3.0327376  0.025087526   -4.2698486     1.237111  1010000 
 1275000   0.82495185   -4.2705897   -4.2705897   -3.0331631  0.024028786   -4.2705897    1.2374266  1010000 
 1276000   0.82556437   -4.2714269   -4.2714269   -3.0330816  0.022243232   -4.2714269    1.2383453  1010000 
 1277000   0.82447157   -4.2702607   -4.2702607   -3.0335546  0.021982404   -4.2702607    1.2367061  1010000 
 1278000   0.82432292   -4.2704401   -4.2704401   -3.0339569  0.025123317   -4.2704401    1.2364832  1010000 
 1279000   0.82479707   -4.2715227   -4.2715227   -3.0343283  0.021896998   -4.2715227    1.2371944  1010000 
 1280000   0.82393754    -4.270208    -4.270208   -3.0343029  0.024074458    -4.270208    1.2359051  1010000 
 1281000   0.82430571   -4.2703273   -4.2703273   -3.0338699  0.022133417   -4.2703273    1.2364573  1010000 
 1282000   0.82497805   -4.2706869   -4.2706869    -3.033221  0.021178754   -4.2706869    1.2374658  1010000 
 1283000   0.82446092   -4.2700649   -4.2700649   -3.0333748  0.025188104   -4.2700649    1.2366902  1010000 
 1284000   0.82425896   -4.2698671   -4.2698671   -3.0334799  0.021512296   -4.2698671    1.2363872  1010000 
 1285000   0.82456131   -4.2708449   -4.2708449   -3.0340042  0.021255754   -4.2708449    1.2368407  1010000 
 1286000   0.82479731   -4.2715443   -4.2715443   -3.0343496  0.019448341   -4.2715443    1.2371947  1010000 
 1287000   0.82418477   -4.2708744   -4.2708744   -3.0345985  0.021100002   -4.2708744    1.2362759  1010000 
 1288000   0.82341343   -4.2703895   -4.2703895   -3.0352706  0.021575228   -4.2703895    1.2351189  1010000 
 1289000   0.82323249   -4.2702673   -4.2702673   -3.0354198   0.01901863   -4.2702673    1.2348475  1010000 
 1290000   0.82412696   -4.2713872   -4.2713872    -3.035198  0.017409158   -4.2713872    1.2361892  1010000 
 1291000   0.82300419   -4.2701846   -4.2701846   -3.0356795   0.01923989   -4.2701846    1.2345051  1010000 
 1292000   0.82395168    -4.271832    -4.271832   -3.0359057  0.016392719    -4.271832    1.2359263  1010000 
 1293000   0.82352174   -4.2712204   -4.2712204    -3.035939  0.018187672   -4.2712204    1.2352814  1010000 
 1294000   0.82372199   -4.2716738   -4.2716738    -3.036092  0.018529576   -4.2716738    1.2355818  1010000 
 1295000   0.82377432   -4.2721759   -4.2721759   -3.0365157  0.016322168   -4.2721759    1.2356603  1010000 
 1296000   0.82340628    -4.271219    -4.271219   -3.0361108  0.018470497    -4.271219    1.2351082  1010000 
 1297000   0.82344179   -4.2713182   -4.2713182   -3.0361567  0.023609138   -4.2713182    1.2351615  1010000 
 1298000   0.82420821   -4.2725055   -4.2725055   -3.0361944  0.017846063   -4.2725055    1.2363111  1010000 
 1299000   0.82340624   -4.2716344   -4.2716344   -3.0365263   0.02459453   -4.2716344    1.2351081  1010000 
 1300000   0.82388303   -4.2721098   -4.2721098   -3.0362864  0.022030521   -4.2721098    1.2358233  1010000 
 1301000   0.82462638   -4.2735532   -4.2735532   -3.0366149  0.016630577   -4.2735532    1.2369384  1010000 
 1302000   0.82380374   -4.2722312   -4.2722312   -3.0365268  0.023450973   -4.2722312    1.2357044  1010000 
 1303000   0.82377434   -4.2722451   -4.2722451   -3.0365848  0.020693644   -4.2722451    1.2356603  1010000 
 1304000   0.82351981   -4.2719825   -4.2719825    -3.036704  0.023335386   -4.2719825    1.2352785  1010000 
 1305000   0.82400445   -4.2729259   -4.2729259   -3.0369204  0.022879142   -4.2729259    1.2360054  1010000 
 1306000    0.8232649   -4.2720665   -4.2720665   -3.0371704    0.0246158   -4.2720665    1.2348961  1010000 
 1307000   0.82300277   -4.2721648   -4.2721648   -3.0376619  0.025376367   -4.2721648    1.2345029  1010000 
 1308000    0.8237337   -4.2736417   -4.2736417   -3.0380424  0.025665565   -4.2736417    1.2355993  1010000 
 1309000   0.82349702   -4.2731594   -4.2731594   -3.0379151  0.025191942   -4.2731594    1.2352443  1010000 
 1310000   0.82293085   -4.2725641   -4.2725641    -3.038169  0.023839297   -4.2725641     1.234395  1010000 
 1311000    0.8233101    -4.273632    -4.273632    -3.038668  0.022288224    -4.273632    1.2349639  1010000 
 1312000   0.82321873   -4.2735837   -4.2735837   -3.0387568  0.019486411   -4.2735837    1.2348269  1010000 
 1313000   0.82318283   -4.2733582   -4.2733582   -3.0385852  0.019692822   -4.2733582     1.234773  1010000 
 1314000    0.8233058   -4.2738237   -4.2738237   -3.0388663  0.022628472   -4.2738237    1.2349575  1010000 
 1315000    0.8235269   -4.2745443   -4.2745443   -3.0392552  0.024023281   -4.2745443    1.2352891  1010000 
 1316000   0.82363475   -4.2747527   -4.2747527   -3.0393018  0.022470201   -4.2747527    1.2354509  1010000 
 1317000   0.82304395   -4.2743043   -4.2743043   -3.0397396  0.024273984   -4.2743043    1.2345647  1010000 
 1318000    0.8242323    -4.276416    -4.276416   -3.0400688   0.01894859    -4.276416    1.2363472  1010000 
 1319000    0.8234533   -4.2754238   -4.2754238   -3.0402451  0.024081446   -4.2754238    1.2351787  1010000 
 1320000   0.82394347   -4.2760776   -4.2760776   -3.0401636  0.021623411   -4.2760776     1.235914  1010000 
 1321000   0.82456146   -4.2770208   -4.2770208   -3.0401799  0.023294454   -4.2770208     1.236841  1010000 
 1322000   0.82427925   -4.2771271   -4.2771271   -3.0407095   0.02174454   -4.2771271    1.2364176  1010000 
 1323000   0.82331566   -4.2756527   -4.2756527   -3.0406805  0.025921578   -4.2756527    1.2349723  1010000 
 1324000   0.82294123   -4.2749964   -4.2749964   -3.0405858  0.029267925   -4.2749964    1.2344106  1010000 
 1325000   0.82412491   -4.2762255   -4.2762255   -3.0400394   0.02252328   -4.2762255    1.2361861  1010000 
 1326000   0.82406733   -4.2764659   -4.2764659   -3.0403662  0.022303811   -4.2764659    1.2360998  1010000 
 1327000    0.8237748    -4.276233    -4.276233    -3.040572  0.021278293    -4.276233     1.235661  1010000 
 1328000   0.82292673   -4.2754768   -4.2754768   -3.0410879  0.021767753   -4.2754768    1.2343889  1010000 
 1329000   0.82334242   -4.2764006   -4.2764006   -3.0413882  0.024006141   -4.2764006    1.2350124  1010000 
 1330000   0.82319276   -4.2765805   -4.2765805   -3.0417926  0.023215551   -4.2765805    1.2347879  1010000 
 1331000   0.82254357   -4.2760952   -4.2760952    -3.042281  0.027369854   -4.2760952    1.2338141  1010000 
 1332000   0.82212141   -4.2755186   -4.2755186   -3.0423377   0.02317834   -4.2755186    1.2331809  1010000 
 1333000   0.82276319    -4.276686    -4.276686   -3.0425425  0.024416635    -4.276686    1.2341436  1010000 
 1334000   0.82332719   -4.2779184   -4.2779184   -3.0429289  0.020002838   -4.2779184    1.2349896  1010000 
 1335000   0.82221967   -4.2765171   -4.2765171   -3.0431888  0.023239015   -4.2765171    1.2333283  1010000 
 1336000   0.82231952   -4.2769028   -4.2769028   -3.0434247  0.018726838   -4.2769028    1.2334781  1010000 
 1337000   0.82216904   -4.2771544   -4.2771544   -3.0439021  0.018861453   -4.2771544    1.2332523  1010000 
 1338000   0.82134861    -4.276141    -4.276141   -3.0441193   0.02453445    -4.276141    1.2320217  1010000 
 1339000   0.82211817   -4.2774018   -4.2774018   -3.0442257  0.020747313   -4.2774018     1.233176  1010000 
 1340000   0.82225791   -4.2774823   -4.2774823   -3.0440967  0.021790069   -4.2774823    1.2333856  1010000 
 1341000   0.82231117   -4.2769827   -4.2769827   -3.0435171  0.023078138   -4.2769827    1.2334655  1010000 
 1342000   0.82306605   -4.2786235   -4.2786235   -3.0440256  0.019546743   -4.2786235    1.2345979  1010000 
 1343000   0.82161295   -4.2765744   -4.2765744   -3.0441562  0.025567638   -4.2765744    1.2324182  1010000 
 1344000   0.82227055   -4.2782043   -4.2782043   -3.0447997  0.022062852   -4.2782043    1.2334046  1010000 
 1345000   0.82298623   -4.2795721   -4.2795721   -3.0450939   0.02018649   -4.2795721    1.2344781  1010000 
 1346000   0.82195953   -4.2785913   -4.2785913   -3.0456532  0.021080705   -4.2785913    1.2329381  1010000 
 1347000   0.82270045   -4.2794994   -4.2794994     -3.04545  0.019772349   -4.2794994    1.2340495  1010000 
 1348000   0.82276076   -4.2800728   -4.2800728   -3.0459329  0.018350702   -4.2800728    1.2341399  1010000 
 1349000   0.82289818   -4.2805273   -4.2805273   -3.0461812  0.019678305   -4.2805273    1.2343461  1010000 
 1350000   0.82230235   -4.2796041   -4.2796041   -3.0461518  0.021147625   -4.2796041    1.2334523  1010000 
 1351000   0.82246059   -4.2798896   -4.2798896   -3.0461999  0.021602636   -4.2798896    1.2336897  1010000 
 1352000   0.82219187   -4.2799012   -4.2799012   -3.0466146  0.022278159   -4.2799012    1.2332866  1010000 
 1353000    0.8221124   -4.2799453   -4.2799453   -3.0467779  0.025056277   -4.2799453    1.2331674  1010000 
 1354000   0.82167301   -4.2798542   -4.2798542   -3.0473459  0.022447098   -4.2798542    1.2325083  1010000 
 1355000   0.82154762   -4.2798833   -4.2798833    -3.047563  0.022310289   -4.2798833    1.2323202  1010000 
 1356000   0.82192708   -4.2804698   -4.2804698   -3.0475804  0.022788756   -4.2804698    1.2328894  1010000 
 1357000   0.82237385   -4.2809177   -4.2809177   -3.0473581  0.021713414   -4.2809177    1.2335596  1010000 
 1358000   0.82172183    -4.280455    -4.280455   -3.0478735  0.024629949    -4.280455    1.2325815  1010000 
 1359000   0.82243343   -4.2818484   -4.2818484   -3.0481995  0.020497205   -4.2818484    1.2336489  1010000 
 1360000   0.82227758   -4.2818047   -4.2818047   -3.0483896  0.021803271   -4.2818047    1.2334151  1010000 
 1361000   0.82211224   -4.2817494   -4.2817494   -3.0485823   0.02202248   -4.2817494    1.2331671  1010000 
 1362000   0.82185277   -4.2813589   -4.2813589   -3.0485809  0.023627277   -4.2813589    1.2327779  1010000 
 1363000   0.82193903   -4.2818006   -4.2818006   -3.0488933  0.021729545   -4.2818006    1.2329073  1010000 
 1364000   0.82244525   -4.2823806   -4.2823806    -3.048714  0.024584296   -4.2823806    1.2336667  1010000 
 1365000    0.8217054   -4.2815753   -4.2815753   -3.0490185  0.024337702   -4.2815753    1.2325569  1010000 
 1366000   0.82195772   -4.2826827   -4.2826827   -3.0497473  0.023474448   -4.2826827    1.2329354  1010000 
 1367000   0.82186348   -4.2827062   -4.2827062   -3.0499122  0.025186472   -4.2827062     1.232794  1010000 
 1368000   0.82199389   -4.2830704   -4.2830704   -3.0500808  0.021856104   -4.2830704    1.2329896  1010000 
 1369000    0.8225049   -4.2835859   -4.2835859   -3.0498298  0.020180332   -4.2835859    1.2337561  1010000 
 1370000   0.82205587   -4.2832515   -4.2832515   -3.0501689   0.02186728   -4.2832515    1.2330826  1010000 
 1371000   0.82207336   -4.2833788   -4.2833788     -3.05027  0.024474243   -4.2833788    1.2331088  1010000 
 1372000   0.82213983   -4.2833803   -4.2833803   -3.0501718  0.025187924   -4.2833803    1.2332085  1010000 
 1373000   0.82174823   -4.2825768   -4.2825768   -3.0499556  0.027459413   -4.2825768    1.2326211  1010000 
 1374000   0.82200105   -4.2834533   -4.2834533   -3.0504529  0.023403965   -4.2834533    1.2330003  1010000 
 1375000   0.82157688   -4.2830934   -4.2830934   -3.0507293  0.024168356   -4.2830934    1.2323641  1010000 
 1376000    0.8215976   -4.2834857   -4.2834857   -3.0510905  0.024624454   -4.2834857    1.2323952  1010000 
 1377000   0.82251952   -4.2847842   -4.2847842   -3.0510061   0.02016796   -4.2847842    1.2337781  1010000 
 1378000   0.82142611   -4.2831954   -4.2831954   -3.0510575  0.026816507   -4.2831954     1.232138  1010000 
 1379000   0.82145979   -4.2834199   -4.2834199   -3.0512314   0.02556827   -4.2834199    1.2321885  1010000 
 1380000   0.82168899   -4.2836622   -4.2836622     -3.05113  0.024254212   -4.2836622    1.2325323  1010000 
 1381000   0.82142673   -4.2840366   -4.2840366   -3.0518977  0.023312412   -4.2840366    1.2321389  1010000 
 1382000   0.82147855   -4.2841784   -4.2841784   -3.0519618  0.024997865   -4.2841784    1.2322166  1010000 
 1383000    0.8220939   -4.2846639   -4.2846639   -3.0515242  0.022405105   -4.2846639    1.2331396  1010000 
 1384000   0.82204886   -4.2845873   -4.2845873   -3.0515152  0.020227176   -4.2845873    1.2330721  1010000 
 1385000   0.82101354   -4.2837237   -4.2837237   -3.0522046  0.023152333   -4.2837237    1.2315191  1010000 
 1386000   0.82158273   -4.2850717   -4.2850717   -3.0526988  0.021035015   -4.2850717    1.2323729  1010000 
 1387000   0.82180849   -4.2857477   -4.2857477   -3.0530362  0.021642903   -4.2857477    1.2327115  1010000 
 1388000   0.82136502   -4.2850264   -4.2850264     -3.05298   0.02315993   -4.2850264    1.2320463  1010000 
 1389000   0.82176872   -4.2858006   -4.2858006   -3.0531487  0.021435431   -4.2858006    1.2326519  1010000 
 1390000   0.82192536    -4.286062    -4.286062   -3.0531752    0.0236731    -4.286062    1.2328868  1010000 
 1391000   0.82123536   -4.2856455   -4.2856455   -3.0537937   0.02277733   -4.2856455    1.2318518  1010000 
 1392000   0.82046997   -4.2842741   -4.2842741   -3.0535704  0.021803526   -4.2842741    1.2307037  1010000 
 1393000   0.82114775   -4.2853935   -4.2853935   -3.0536731  0.020742833   -4.2853935    1.2317204  1010000 
 1394000   0.82146941   -4.2857067   -4.2857067   -3.0535038  0.020289122   -4.2857067    1.2322029  1010000 
 1395000   0.82102865   -4.2853573   -4.2853573   -3.0538155  0.022175896   -4.2853573    1.2315418  1010000 
 1396000   0.82129632   -4.2862097   -4.2862097   -3.0542664  0.019457358   -4.2862097    1.2319433  1010000 
 1397000    0.8209149   -4.2853067   -4.2853067   -3.0539356  0.020763225   -4.2853067    1.2313711  1010000 
 1398000   0.82073307   -4.2850166   -4.2850166   -3.0539182  0.023837919   -4.2850166    1.2310984  1010000 
 1399000     0.820785   -4.2851638   -4.2851638   -3.0539876  0.020144393   -4.2851638    1.2311763  1010000 
 1400000   0.82086406   -4.2858464   -4.2858464   -3.0545515  0.016713492   -4.2858464    1.2312949  1010000 
 1401000   0.82077042   -4.2854426   -4.2854426   -3.0542881  0.022197967   -4.2854426    1.2311544  1010000 
 1402000   0.82078679   -4.2856493   -4.2856493   -3.0544703  0.021642344   -4.2856493     1.231179  1010000 
 1403000   0.82084154   -4.2867289   -4.2867289   -3.0554678  0.020072742   -4.2867289    1.2312611  1010000 
 1404000   0.82006285   -4.2850743   -4.2850743   -3.0549812  0.021297421   -4.2850743    1.2300931  1010000 
 1405000   0.82049005   -4.2856648   -4.2856648    -3.054931  0.024868733   -4.2856648    1.2307338  1010000 
 1406000   0.82142425   -4.2868475   -4.2868475   -3.0547123  0.021321685   -4.2868475    1.2321352  1010000 
 1407000   0.82049971   -4.2858372   -4.2858372   -3.0550888  0.024743342   -4.2858372    1.2307484  1010000 
 1408000   0.82133373   -4.2872058   -4.2872058   -3.0552064  0.021525597   -4.2872058    1.2319994  1010000 
 1409000   0.82024402   -4.2857036   -4.2857036   -3.0553388  0.024228623   -4.2857036    1.2303648  1010000 
 1410000   0.82028253   -4.2858388   -4.2858388   -3.0554162  0.024373196   -4.2858388    1.2304226  1010000 
 1411000   0.82102007   -4.2866003   -4.2866003   -3.0550714  0.020203631   -4.2866003    1.2315289  1010000 
 1412000   0.82085145   -4.2869138   -4.2869138   -3.0556378  0.019563688   -4.2869138     1.231276  1010000 
 1413000   0.82007123   -4.2861794   -4.2861794   -3.0560737   0.02245903   -4.2861794    1.2301056  1010000 
 1414000   0.82071485   -4.2869461   -4.2869461   -3.0558751  0.022925783   -4.2869461    1.2310711  1010000 
 1415000   0.82044797   -4.2868154   -4.2868154   -3.0561447  0.023168805   -4.2868154    1.2306707  1010000 
 1416000   0.82131636   -4.2881197   -4.2881197   -3.0561464  0.021881185   -4.2881197    1.2319733  1010000 
 1417000   0.82083022   -4.2872451   -4.2872451    -3.056001  0.021953064   -4.2872451    1.2312441  1010000 
 1418000   0.82083454   -4.2877085   -4.2877085   -3.0564579  0.022261596   -4.2877085    1.2312506  1010000 
 1419000   0.82101257   -4.2880424   -4.2880424   -3.0565247  0.020780708   -4.2880424    1.2315176  1010000 
 1420000   0.82016577   -4.2872432   -4.2872432   -3.0569957  0.025442324   -4.2872432    1.2302474  1010000 
 1421000   0.82035305    -4.287693    -4.287693   -3.0571647  0.026284455    -4.287693    1.2305284  1010000 
 1422000   0.82098199   -4.2890066   -4.2890066   -3.0575348  0.021312362   -4.2890066    1.2314718  1010000 
 1423000   0.82022135   -4.2877288   -4.2877288    -3.057398   0.02329254   -4.2877288    1.2303308  1010000 
 1424000   0.82040117   -4.2879536   -4.2879536   -3.0573531  0.021684456   -4.2879536    1.2306005  1010000 
 1425000   0.82061071   -4.2883615   -4.2883615   -3.0574467  0.023561937   -4.2883615    1.2309148  1010000 
 1426000    0.8207701   -4.2893289   -4.2893289    -3.058175  0.022313444   -4.2893289    1.2311539  1010000 
 1427000   0.82019648   -4.2889467   -4.2889467   -3.0586532  0.023540837   -4.2889467    1.2302935  1010000 
 1428000   0.81926725   -4.2874035   -4.2874035   -3.0585038  0.026005446   -4.2874035    1.2288997  1010000 
 1429000   0.81961907    -4.288359    -4.288359   -3.0589316  0.023910397    -4.288359    1.2294274  1010000 
 1430000   0.82044856   -4.2896425   -4.2896425   -3.0589709  0.016520932   -4.2896425    1.2306716  1010000 
 1431000   0.81992867   -4.2895311   -4.2895311   -3.0596393  0.016863458   -4.2895311    1.2298918  1010000 
 1432000   0.81931327    -4.288416    -4.288416   -3.0594474  0.020026387    -4.288416    1.2289687  1010000 
 1433000   0.82053999   -4.2898205   -4.2898205   -3.0590118  0.020623755   -4.2898205    1.2308088  1010000 
 1434000   0.82012994   -4.2889188   -4.2889188   -3.0587252  0.021092542   -4.2889188    1.2301937  1010000 
 1435000   0.82069429   -4.2894942   -4.2894942    -3.058454  0.023647643   -4.2894942    1.2310402  1010000 
 1436000   0.82138624   -4.2908172   -4.2908172   -3.0587391  0.022260541   -4.2908172    1.2320781  1010000 
 1437000   0.82035268   -4.2897727   -4.2897727   -3.0592449  0.021563098   -4.2897727    1.2305278  1010000 
 1438000   0.81968487   -4.2888662   -4.2888662   -3.0593402  0.023206095   -4.2888662    1.2295261  1010000 
 1439000   0.82058164   -4.2903757   -4.2903757   -3.0595044  0.022567323   -4.2903757    1.2308712  1010000 
 1440000   0.81974096   -4.2897251   -4.2897251   -3.0601149  0.019807402   -4.2897251    1.2296102  1010000 
 1441000   0.81939121   -4.2891041   -4.2891041   -3.0600185  0.024089469   -4.2891041    1.2290856  1010000 
 1442000   0.81960021   -4.2899847   -4.2899847   -3.0605856   0.02595793   -4.2899847    1.2293991  1010000 
 1443000   0.81981216   -4.2902374   -4.2902374   -3.0605204  0.026125184   -4.2902374     1.229717  1010000 
 1444000   0.81997524   -4.2908874   -4.2908874   -3.0609257  0.024096236   -4.2908874    1.2299616  1010000 
 1445000   0.81996194   -4.2908916   -4.2908916   -3.0609499  0.025610411   -4.2908916    1.2299417  1010000 
 1446000   0.81990914   -4.2905988   -4.2905988   -3.0607363  0.023110276   -4.2905988    1.2298625  1010000 
 1447000   0.81964816   -4.2902738   -4.2902738   -3.0608028  0.023766986   -4.2902738     1.229471  1010000 
 1448000   0.81941896   -4.2902474   -4.2902474   -3.0611202  0.022514507   -4.2902474    1.2291272  1010000 
 1449000   0.81953511   -4.2904826   -4.2904826   -3.0611812  0.021348799   -4.2904826    1.2293014  1010000 
 1450000   0.81899538   -4.2899096   -4.2899096   -3.0614177  0.022592067   -4.2899096    1.2284919  1010000 
 1451000   0.81983558   -4.2914591   -4.2914591    -3.061707  0.019637496   -4.2914591    1.2297522  1010000 
 1452000   0.81968111   -4.2917676   -4.2917676   -3.0622471   0.01870866   -4.2917676    1.2295204  1010000 
 1453000   0.81960551   -4.2912754   -4.2912754   -3.0618684  0.023872607   -4.2912754    1.2294071  1010000 
 1454000   0.81983988   -4.2919923   -4.2919923   -3.0622337  0.024554898   -4.2919923    1.2297586  1010000 
 1455000   0.81948257   -4.2918874   -4.2918874   -3.0626647  0.023105742   -4.2918874    1.2292226  1010000 
 1456000   0.81883817   -4.2915484   -4.2915484   -3.0632923  0.022768976   -4.2915484     1.228256  1010000 
 1457000   0.81920359   -4.2923681   -4.2923681   -3.0635639  0.018536971   -4.2923681    1.2288042  1010000 
 1458000   0.81811222   -4.2909599   -4.2909599   -3.0637927  0.025180687   -4.2909599    1.2271671  1010000 
 1459000   0.81895472   -4.2924239   -4.2924239   -3.0639931  0.022233833   -4.2924239    1.2284309  1010000 
 1460000   0.81991114   -4.2938971   -4.2938971   -3.0640316  0.017621753   -4.2938971    1.2298655  1010000 
 1461000   0.81936745   -4.2928888   -4.2928888   -3.0638388  0.017748594   -4.2928888      1.22905  1010000 
 1462000   0.81913399   -4.2926437   -4.2926437   -3.0639439  0.025027753   -4.2926437    1.2286998  1010000 
 1463000   0.82029838   -4.2944481   -4.2944481   -3.0640017  0.020973182   -4.2944481    1.2304464  1010000 
 1464000   0.81929691   -4.2927596   -4.2927596   -3.0638155  0.024031444   -4.2927596    1.2289442  1010000 
 1465000   0.81967157   -4.2934664   -4.2934664   -3.0639602  0.023581395   -4.2934664    1.2295061  1010000 
 1466000    0.8196167   -4.2935996   -4.2935996   -3.0641758  0.019063668   -4.2935996    1.2294238  1010000 
 1467000   0.81961145   -4.2931413   -4.2931413   -3.0637254  0.021368611   -4.2931413     1.229416  1010000 
 1468000   0.81861721   -4.2922473   -4.2922473   -3.0643228  0.021875319   -4.2922473    1.2279246  1010000 
 1469000   0.81831994    -4.292178    -4.292178   -3.0646993  0.025216412    -4.292178    1.2274787  1010000 
 1470000   0.81943667   -4.2940889   -4.2940889   -3.0649351  0.016075119   -4.2940889    1.2291538  1010000 
 1471000   0.81922028   -4.2937769   -4.2937769   -3.0649477  0.020323038   -4.2937769    1.2288292  1010000 
 1472000   0.81901011   -4.2939092   -4.2939092   -3.0653953  0.024588147   -4.2939092     1.228514  1010000 
 1473000   0.81956338   -4.2946193   -4.2946193   -3.0652755  0.021379255   -4.2946193    1.2293439  1010000 
 1474000    0.8195943    -4.295065    -4.295065   -3.0656748  0.021484962    -4.295065    1.2293902  1010000 
 1475000   0.81868056   -4.2932442   -4.2932442   -3.0652246  0.026443872   -4.2932442    1.2280196  1010000 
 1476000   0.81971807   -4.2952081   -4.2952081   -3.0656322  0.023749363   -4.2952081    1.2295759  1010000 
 1477000   0.82001902   -4.2954262   -4.2954262   -3.0653989  0.021686968   -4.2954262    1.2300273  1010000 
 1478000   0.81892718   -4.2939045   -4.2939045    -3.065515   0.02729505   -4.2939045    1.2283896  1010000 
 1479000   0.81943623   -4.2949332   -4.2949332   -3.0657801   0.02150465   -4.2949332    1.2291531  1010000 
 1480000   0.81976172   -4.2955199   -4.2955199   -3.0658786  0.023520167   -4.2955199    1.2296414  1010000 
 1481000   0.81929266    -4.295163    -4.295163   -3.0662252  0.026258229    -4.295163    1.2289378  1010000 
 1482000   0.81966403   -4.2955928   -4.2955928    -3.066098  0.023777032   -4.2955928    1.2294948  1010000 
 1483000   0.81952507   -4.2949769   -4.2949769   -3.0656905   0.02535761   -4.2949769    1.2292864  1010000 
 1484000     0.819563   -4.2952494   -4.2952494   -3.0659061  0.023460005   -4.2952494    1.2293433  1010000 
 1485000   0.82032834   -4.2960631   -4.2960631   -3.0655718  0.021811342   -4.2960631    1.2304913  1010000 
 1486000   0.81857839   -4.2939442   -4.2939442   -3.0660778  0.024422748   -4.2939442    1.2278664  1010000 
 1487000   0.81873566   -4.2945049   -4.2945049   -3.0664026  0.023933117   -4.2945049    1.2281023  1010000 
 1488000   0.81863272   -4.2945246   -4.2945246   -3.0665767  0.024031278   -4.2945246    1.2279479  1010000 
 1489000   0.81892482   -4.2955179   -4.2955179   -3.0671319  0.022714252   -4.2955179     1.228386  1010000 
 1490000   0.81842515   -4.2947105   -4.2947105    -3.067074  0.023675065   -4.2947105    1.2276365  1010000 
 1491000   0.81849086   -4.2947642   -4.2947642   -3.0670291  0.022515906   -4.2947642    1.2277351  1010000 
 1492000   0.81897284   -4.2954823   -4.2954823   -3.0670243  0.021005576   -4.2954823     1.228458  1010000 
 1493000   0.81894878   -4.2956376   -4.2956376   -3.0672156  0.019652658   -4.2956376     1.228422  1010000 
 1494000   0.81871225   -4.2952199   -4.2952199   -3.0671528  0.020613791   -4.2952199    1.2280672  1010000 
 1495000   0.81853148   -4.2947227   -4.2947227   -3.0669267  0.020811175   -4.2947227     1.227796  1010000 
 1496000   0.81924814   -4.2962861   -4.2962861   -3.0674151  0.019612741   -4.2962861     1.228871  1010000 
 1497000   0.81890653   -4.2963194   -4.2963194   -3.0679608  0.021107649   -4.2963194    1.2283586  1010000 
 1498000   0.81806471   -4.2950644   -4.2950644   -3.0679686   0.02018146   -4.2950644    1.2270958  1010000 
 1499000   0.81821724   -4.2955106   -4.2955106   -3.0681859  0.023702918   -4.2955106    1.2273246  1010000 
 1500000   0.81781603   -4.2953218   -4.2953218    -3.068599  0.020276912   -4.2953218    1.2267228  1010000 
 1501000   0.81762208   -4.2945772   -4.2945772   -3.0681453  0.024246643   -4.2945772    1.2264319  1010000 
 1502000   0.81876179   -4.2968082   -4.2968082   -3.0686667  0.018710951   -4.2968082    1.2281415  1010000 
 1503000   0.81795421   -4.2955775   -4.2955775   -3.0686474  0.022648367   -4.2955775    1.2269301  1010000 
 1504000   0.81770913   -4.2954599   -4.2954599   -3.0688975  0.018414587   -4.2954599    1.2265625  1010000 
 1505000   0.81784331   -4.2958906   -4.2958906   -3.0691269  0.017234675   -4.2958906    1.2267637  1010000 
 1506000   0.81784381   -4.2956357   -4.2956357   -3.0688712  0.022705347   -4.2956357    1.2267645  1010000 
 1507000    0.8182947   -4.2961095   -4.2961095   -3.0686686  0.017523203   -4.2961095    1.2274408  1010000 
 1508000   0.81765595   -4.2957083   -4.2957083   -3.0692256  0.017211581   -4.2957083    1.2264827  1010000 
 1509000   0.81781245   -4.2957997   -4.2957997   -3.0690822  0.016693279   -4.2957997    1.2267175  1010000 
 1510000   0.81750622   -4.2957315   -4.2957315   -3.0694734  0.019263012   -4.2957315    1.2262581  1010000 
 1511000   0.81679907   -4.2947674   -4.2947674     -3.06957  0.026514108   -4.2947674    1.2251974  1010000 
 1512000   0.81859236   -4.2969213   -4.2969213   -3.0690339  0.020230327   -4.2969213    1.2278873  1010000 
 1513000   0.81886513   -4.2975621   -4.2975621   -3.0692656  0.017007066   -4.2975621    1.2282965  1010000 
 1514000   0.81901949   -4.2985204   -4.2985204   -3.0699924  0.020069154   -4.2985204     1.228528  1010000 
 1515000   0.81897599   -4.2980279   -4.2980279   -3.0695651  0.023072335   -4.2980279    1.2284628  1010000 
 1516000   0.81929281    -4.298542    -4.298542    -3.069604  0.023428688    -4.298542     1.228938  1010000 
 1517000   0.81842565   -4.2977756   -4.2977756   -3.0701384   0.02685597   -4.2977756    1.2276373  1010000 
 1518000   0.81824943   -4.2973799   -4.2973799    -3.070007   0.02594479   -4.2973799    1.2273729  1010000 
 1519000   0.81932691   -4.2996292   -4.2996292   -3.0706401  0.021179471   -4.2996292    1.2289891  1010000 
 1520000   0.81871249   -4.2986085   -4.2986085   -3.0705409  0.022283622   -4.2986085    1.2280675  1010000 
 1521000   0.81861926   -4.2987536   -4.2987536   -3.0708259   0.02332686   -4.2987536    1.2279277  1010000 
 1522000   0.81890732   -4.2992031   -4.2992031   -3.0708433  0.021266771   -4.2992031    1.2283598  1010000 
 1523000    0.8182712   -4.2986886   -4.2986886    -3.071283  0.024505722   -4.2986886    1.2274056  1010000 
 1524000   0.81838427   -4.2991441   -4.2991441    -3.071569  0.020840652   -4.2991441    1.2275752  1010000 
 1525000   0.81781343   -4.2983437   -4.2983437   -3.0716248  0.024123192   -4.2983437    1.2267189  1010000 
 1526000   0.81773024   -4.2978348   -4.2978348   -3.0712406  0.026110247   -4.2978348    1.2265941  1010000 
 1527000   0.81791315   -4.2989515   -4.2989515   -3.0720829  0.023160759   -4.2989515    1.2268685  1010000 
 1528000   0.81849211   -4.2998742   -4.2998742   -3.0721372  0.019998146   -4.2998742     1.227737  1010000 
 1529000   0.81799678   -4.2998092   -4.2998092   -3.0728152  0.023996832   -4.2998092     1.226994  1010000 
 1530000   0.81829429   -4.3009725   -4.3009725   -3.0735323  0.019375415   -4.3009725    1.2274402  1010000 
 1531000    0.8185271   -4.3015433   -4.3015433   -3.0737539  0.016483887   -4.3015433    1.2277894  1010000 
 1532000    0.8178666   -4.3002113   -4.3002113   -3.0734126  0.021822328   -4.3002113    1.2267987  1010000 
 1533000   0.81861884   -4.3011761   -4.3011761   -3.0732491  0.021662379   -4.3011761     1.227927  1010000 
 1534000   0.81809536   -4.3007484   -4.3007484   -3.0736066  0.022539557   -4.3007484    1.2271418  1010000 
 1535000   0.81801923   -4.3011495   -4.3011495   -3.0741218  0.018662309   -4.3011495    1.2270276  1010000 
 1536000   0.81717145   -4.2998422   -4.2998422   -3.0740863  0.022436225   -4.2998422     1.225756  1010000 
 1537000    0.8176804   -4.3006755   -4.3006755   -3.0741561  0.021845622   -4.3006755    1.2265194  1010000 
 1538000   0.81748149   -4.3004338   -4.3004338   -3.0742128  0.022264998   -4.3004338     1.226221  1010000 
 1539000    0.8174939    -4.300776    -4.300776   -3.0745364  0.022823359    -4.300776    1.2262396  1010000 
 1540000   0.81765721   -4.3021731   -4.3021731   -3.0756885  0.022668504   -4.3021731    1.2264846  1010000 
 1541000   0.81700706    -4.300821    -4.300821   -3.0753116  0.022532129    -4.300821    1.2255094  1010000 
 1542000   0.81710601   -4.3014449   -4.3014449   -3.0757871  0.022737342   -4.3014449    1.2256578  1010000 
 1543000   0.81720163   -4.3017511   -4.3017511   -3.0759499  0.023055092   -4.3017511    1.2258012  1010000 
 1544000   0.81741826   -4.3021635   -4.3021635   -3.0760374  0.020983095   -4.3021635    1.2261262  1010000 
 1545000   0.81695829   -4.3021887   -4.3021887   -3.0767524  0.024186779   -4.3021887    1.2254362  1010000 
 1546000   0.81660428   -4.3018808   -4.3018808   -3.0769756  0.021457088   -4.3018808    1.2249052  1010000 
 1547000   0.81705314   -4.3023367   -4.3023367   -3.0767582  0.022226968   -4.3023367    1.2255785  1010000 
 1548000   0.81742086   -4.3031881   -4.3031881    -3.077058  0.021362777   -4.3031881    1.2261301  1010000 
 1549000   0.81724134   -4.3032454   -4.3032454   -3.0773846  0.022173116   -4.3032454    1.2258608  1010000 
 1550000   0.81680808   -4.3029212   -4.3029212   -3.0777103  0.024226502   -4.3029212    1.2252109  1010000 
 1551000   0.81693108   -4.3033726   -4.3033726   -3.0779772  0.019488495   -4.3033726    1.2253954  1010000 
 1552000     0.816775   -4.3032937   -4.3032937   -3.0781325  0.020855366   -4.3032937    1.2251613  1010000 
 1553000   0.81666784   -4.3033503   -4.3033503   -3.0783498  0.021197697   -4.3033503    1.2250006  1010000 
 1554000   0.81696285   -4.3034882   -4.3034882   -3.0780452   0.02370879   -4.3034882    1.2254431  1010000 
 1555000   0.81772441    -4.304537    -4.304537   -3.0779516  0.020188721    -4.304537    1.2265854  1010000 
 1556000    0.8167745   -4.3028617   -4.3028617   -3.0777011  0.024236438   -4.3028617    1.2251605  1010000 
 1557000   0.81741337   -4.3046863   -4.3046863   -3.0785675  0.024736084   -4.3046863    1.2261188  1010000 
 1558000   0.81755079   -4.3045279   -4.3045279   -3.0782029  0.023618723   -4.3045279     1.226325  1010000 
 1559000    0.8172131   -4.3041941   -4.3041941   -3.0783757  0.026514271   -4.3041941    1.2258184  1010000 
 1560000   0.81701179   -4.3036236   -4.3036236   -3.0781071  0.024974813   -4.3036236    1.2255165  1010000 
 1561000   0.81777512   -4.3050178   -4.3050178   -3.0783564  0.023366781   -4.3050178    1.2266615  1010000 
 1562000   0.81755617   -4.3050378   -4.3050378   -3.0787047  0.022580963   -4.3050378     1.226333  1010000 
 1563000   0.81716405   -4.3044769   -4.3044769    -3.078732  0.022520664   -4.3044769    1.2257449  1010000 
 1564000   0.81671531   -4.3033782   -4.3033782   -3.0783064  0.025227581   -4.3033782    1.2250718  1010000 
 1565000   0.81731749   -4.3039536   -4.3039536   -3.0779786  0.023503875   -4.3039536     1.225975  1010000 
 1566000   0.81678983   -4.3032523   -4.3032523   -3.0780687  0.023641297   -4.3032523    1.2251835  1010000 
 1567000   0.81716793   -4.3047256   -4.3047256   -3.0789749  0.021180984   -4.3047256    1.2257507  1010000 
 1568000   0.81682197   -4.3048223   -4.3048223   -3.0795906  0.021256742   -4.3048223    1.2252317  1010000 
 1569000   0.81737735   -4.3057111   -4.3057111   -3.0796463   0.01746474   -4.3057111    1.2260648  1010000 
 1570000   0.81535074   -4.3035504   -4.3035504   -3.0805255  0.021663303   -4.3035504    1.2230249  1010000 
 1571000    0.8174171   -4.3064174   -4.3064174    -3.080293  0.020387097   -4.3064174    1.2261244  1010000 
 1572000   0.81720999   -4.3061837   -4.3061837     -3.08037  0.022175194   -4.3061837    1.2258138  1010000 
 1573000   0.81670269   -4.3053042   -4.3053042   -3.0802513  0.022989913   -4.3053042    1.2250528  1010000 
 1574000   0.81668541   -4.3046249   -4.3046249    -3.079598  0.019596702   -4.3046249    1.2250269  1010000 
 1575000    0.8163764   -4.3036656   -4.3036656   -3.0791022  0.022485961   -4.3036656    1.2245634  1010000 
 1576000   0.81649386   -4.3040815   -4.3040815    -3.079342  0.023013335   -4.3040815    1.2247396  1010000 
 1577000   0.81638783   -4.3040594   -4.3040594   -3.0794789  0.024322644   -4.3040594    1.2245805  1010000 
 1578000   0.81685343   -4.3047851   -4.3047851   -3.0795062   0.02201638   -4.3047851    1.2252789  1010000 
 1579000   0.81716891   -4.3046598   -4.3046598   -3.0789076  0.023611162   -4.3046598    1.2257522  1010000 
 1580000   0.81637518   -4.3038306   -4.3038306    -3.079269  0.023066595   -4.3038306    1.2245616  1010000 
 1581000   0.81648433   -4.3044905   -4.3044905   -3.0797652  0.023779829   -4.3044905    1.2247253  1010000 
 1582000   0.81641406   -4.3041597   -4.3041597   -3.0795398  0.021797956   -4.3041597    1.2246199  1010000 
 1583000    0.8174739   -4.3055803   -4.3055803   -3.0793707  0.021221137   -4.3055803    1.2262096  1010000 
 1584000   0.81649501   -4.3044795   -4.3044795   -3.0797382  0.022992573   -4.3044795    1.2247413  1010000 
 1585000   0.81614524   -4.3046836   -4.3046836    -3.080467  0.018597608   -4.3046836    1.2242166  1010000 
 1586000    0.8155928   -4.3039281   -4.3039281   -3.0805401   0.02197257   -4.3039281     1.223388  1010000 
 1587000   0.81577369   -4.3045399   -4.3045399   -3.0808805  0.021457663   -4.3045399    1.2236593  1010000 
 1588000   0.81497801   -4.3035456   -4.3035456   -3.0810798  0.025590659   -4.3035456    1.2224658  1010000 
 1589000   0.81632494   -4.3053664   -4.3053664   -3.0808802  0.021831604   -4.3053664    1.2244862  1010000 
 1590000   0.81556084   -4.3049258   -4.3049258   -3.0815858  0.019173615   -4.3049258      1.22334  1010000 
 1591000   0.81594326   -4.3055228   -4.3055228   -3.0816091  0.018463012   -4.3055228    1.2239137  1010000 
 1592000   0.81544784   -4.3050876   -4.3050876    -3.081917  0.020142168   -4.3050876    1.2231706  1010000 
 1593000   0.81513251   -4.3049174   -4.3049174   -3.0822199  0.019164475   -4.3049174    1.2226976  1010000 
 1594000   0.81508434   -4.3051833   -4.3051833    -3.082558  0.019365469   -4.3051833    1.2226253  1010000 
 1595000   0.81487133   -4.3048218   -4.3048218    -3.082516  0.023024488   -4.3048218    1.2223058  1010000 
 1596000   0.81548913   -4.3052536   -4.3052536   -3.0820211  0.018717391   -4.3052536    1.2232325  1010000 
 1597000   0.81501662   -4.3044269   -4.3044269   -3.0819032  0.020138828   -4.3044269    1.2225237  1010000 
 1598000   0.81485799   -4.3052745   -4.3052745   -3.0829887  0.017822103   -4.3052745    1.2222858  1010000 
 1599000   0.81533191   -4.3057517   -4.3057517    -3.082755  0.020471325   -4.3057517    1.2229967  1010000 
 1600000   0.81550542   -4.3062635   -4.3062635   -3.0830066  0.020097483   -4.3062635    1.2232569  1010000 
 1601000   0.81520489   -4.3059315   -4.3059315   -3.0831254  0.020743083   -4.3059315    1.2228061  1010000 
 1602000   0.81569125   -4.3076028   -4.3076028   -3.0840671  0.018683304   -4.3076028    1.2235357  1010000 
 1603000   0.81554413   -4.3075929   -4.3075929   -3.0842779  0.022579819   -4.3075929     1.223315  1010000 
 1604000   0.81591299   -4.3078218   -4.3078218   -3.0839535  0.022156985   -4.3078218    1.2238683  1010000 
 1605000   0.81473061   -4.3071989   -4.3071989   -3.0851042  0.022629349   -4.3071989    1.2220947  1010000 
 1606000   0.81481967    -4.307697    -4.307697   -3.0854687  0.020144236    -4.307697    1.2222283  1010000 
 1607000   0.81497978   -4.3078842   -4.3078842   -3.0854157  0.023255773   -4.3078842    1.2224685  1010000 
 1608000   0.81664756   -4.3094303   -4.3094303   -3.0844602   0.02023074   -4.3094303    1.2249701  1010000 
 1609000   0.81624659   -4.3088349   -4.3088349   -3.0844663  0.023536093   -4.3088349    1.2243687  1010000 
 1610000   0.81601151   -4.3085346   -4.3085346   -3.0845186  0.022420898   -4.3085346    1.2240161  1010000 
 1611000   0.81544351   -4.3074937   -4.3074937   -3.0843297  0.025943539   -4.3074937    1.2231641  1010000 
 1612000   0.81635976    -4.309051    -4.309051   -3.0845126  0.023074629    -4.309051    1.2245384  1010000 
 1613000   0.81599299   -4.3089631   -4.3089631   -3.0849748  0.023032102   -4.3089631    1.2239883  1010000 
 1614000   0.81604013   -4.3085105   -4.3085105   -3.0844515  0.024667624   -4.3085105     1.224059  1010000 
 1615000   0.81597806   -4.3090121   -4.3090121   -3.0850462  0.025922295   -4.3090121    1.2239659  1010000 
 1616000   0.81592221   -4.3089987   -4.3089987   -3.0851166  0.029650797   -4.3089987    1.2238821  1010000 
 1617000   0.81643046   -4.3099135   -4.3099135    -3.085269  0.029879408   -4.3099135    1.2246445  1010000 
 1618000   0.81694867   -4.3107285   -4.3107285   -3.0853067  0.026552176   -4.3107285    1.2254218  1010000 
 1619000   0.81585895   -4.3099223   -4.3099223   -3.0861351  0.027874641   -4.3099223    1.2237872  1010000 
 1620000   0.81634167   -4.3109659   -4.3109659   -3.0864546   0.02567128   -4.3109659    1.2245113  1010000 
 1621000   0.81638843   -4.3111596   -4.3111596   -3.0865782  0.028845018   -4.3111596    1.2245814  1010000 
 1622000   0.81654017   -4.3119497   -4.3119497   -3.0871406  0.024690622   -4.3119497     1.224809  1010000 
 1623000   0.81633531   -4.3109562   -4.3109562   -3.0864545  0.025303261   -4.3109562    1.2245018  1010000 
 1624000   0.81679351   -4.3116123   -4.3116123   -3.0864233  0.026471729   -4.3116123    1.2251891  1010000 
 1625000   0.81565614   -4.3105053   -4.3105053   -3.0870223  0.024721261   -4.3105053     1.223483  1010000 
 1626000   0.81646039   -4.3121357   -4.3121357   -3.0874463  0.021822358   -4.3121357    1.2246894  1010000 
 1627000   0.81559399   -4.3107843   -4.3107843   -3.0873945   0.02276652   -4.3107843    1.2233898  1010000 
 1628000    0.8156964   -4.3112226   -4.3112226   -3.0876793  0.022347469   -4.3112226    1.2235434  1010000 
 1629000   0.81522875   -4.3105157   -4.3105157   -3.0876738  0.022964544   -4.3105157    1.2228419  1010000 
 1630000   0.81566841   -4.3109551   -4.3109551   -3.0874537  0.020544375   -4.3109551    1.2235014  1010000 
 1631000   0.81495641   -4.3099999   -4.3099999   -3.0875666  0.021571481   -4.3099999    1.2224334  1010000 
 1632000   0.81531973     -4.31069     -4.31069   -3.0877116   0.02075591     -4.31069    1.2229784  1010000 
 1633000   0.81468744   -4.3097631   -4.3097631   -3.0877331  0.021548299   -4.3097631      1.22203  1010000 
 1634000   0.81430733   -4.3094542   -4.3094542   -3.0879944  0.025151371   -4.3094542    1.2214598  1010000 
 1635000   0.81512892   -4.3109908   -4.3109908   -3.0882986  0.019457139   -4.3109908    1.2226922  1010000 
 1636000   0.81544886   -4.3110368   -4.3110368   -3.0878648  0.020348762   -4.3110368    1.2231721  1010000 
 1637000   0.81632698   -4.3121599   -4.3121599   -3.0876706  0.021148086   -4.3121599    1.2244893  1010000 
 1638000   0.81575722   -4.3110142   -4.3110142   -3.0873796   0.02466786   -4.3110142    1.2236346  1010000 
 1639000   0.81582284   -4.3111548   -4.3111548   -3.0874218   0.02550605   -4.3111548     1.223733  1010000 
 1640000   0.81610561   -4.3116261   -4.3116261   -3.0874689  0.022114157   -4.3116261    1.2241572  1010000 
 1641000   0.81569029   -4.3110837   -4.3110837   -3.0875495  0.022715597   -4.3110837    1.2235342  1010000 
 1642000   0.81543739   -4.3111931   -4.3111931   -3.0880382  0.016304379   -4.3111931    1.2231549  1010000 
 1643000   0.81458478   -4.3095501   -4.3095501   -3.0876742  0.021368415   -4.3095501     1.221876  1010000 
 1644000   0.81388579   -4.3088796   -4.3088796   -3.0880521  0.021278588   -4.3088796    1.2208275  1010000 
 1645000   0.81410811   -4.3090715   -4.3090715   -3.0879106  0.020208583   -4.3090715     1.221161  1010000 
 1646000   0.81469682   -4.3099619   -4.3099619   -3.0879178  0.015945953   -4.3099619     1.222044  1010000 
 1647000   0.81401968   -4.3092273   -4.3092273    -3.088199  0.019473181   -4.3092273    1.2210283  1010000 
 1648000   0.81422565   -4.3100013   -4.3100013   -3.0886641  0.019769784   -4.3100013    1.2213373  1010000 
 1649000   0.81451373   -4.3104095   -4.3104095   -3.0886402  0.016548599   -4.3104095    1.2217694  1010000 
 1650000   0.81399607   -4.3102609   -4.3102609    -3.089268  0.019711281   -4.3102609    1.2209929  1010000 
 1651000   0.81368533   -4.3099937   -4.3099937   -3.0894669  0.016310669   -4.3099937    1.2205268  1010000 
 1652000   0.81445421   -4.3114691   -4.3114691    -3.089789  0.013185842   -4.3114691    1.2216801  1010000 
 1653000   0.81428497   -4.3108783   -4.3108783    -3.089452  0.016858145   -4.3108783    1.2214263  1010000 
 1654000   0.81409205   -4.3105798   -4.3105798   -3.0894429  0.019152426   -4.3105798    1.2211369  1010000 
 1655000   0.81441746    -4.310571    -4.310571    -3.088946  0.020905699    -4.310571     1.221625  1010000 
 1656000   0.81498936   -4.3117909   -4.3117909   -3.0893081  0.016940446   -4.3117909    1.2224828  1010000 
 1657000   0.81364979   -4.3102301   -4.3102301   -3.0897566   0.02058372   -4.3102301    1.2204735  1010000 
 1658000   0.81442065   -4.3113781   -4.3113781   -3.0897484  0.020066833   -4.3113781    1.2216298  1010000 
 1659000   0.81467545   -4.3113154   -4.3113154   -3.0893035  0.017664528   -4.3113154     1.222012  1010000 
 1660000   0.81465083   -4.3113468   -4.3113468   -3.0893718  0.020267696   -4.3113468     1.221975  1010000 
 1661000   0.81443296   -4.3119255   -4.3119255   -3.0902772  0.019049125   -4.3119255    1.2216482  1010000 
 1662000   0.81372006   -4.3111569   -4.3111569    -3.090578  0.021457851   -4.3111569    1.2205789  1010000 
 1663000   0.81513403   -4.3131064   -4.3131064   -3.0904066  0.016992546   -4.3131064    1.2226998  1010000 
 1664000    0.8151469    -4.313532    -4.313532   -3.0908129  0.019059623    -4.313532    1.2227191  1010000 
 1665000   0.81477478   -4.3133356   -4.3133356   -3.0911747   0.01893682   -4.3133356     1.222161  1010000 
 1666000   0.81462748   -4.3128374   -4.3128374   -3.0908973  0.022269581   -4.3128374      1.22194  1010000 
 1667000   0.81501342   -4.3135141   -4.3135141   -3.0909952  0.022094645   -4.3135141    1.2225189  1010000 
 1668000   0.81551356   -4.3140882   -4.3140882   -3.0908191  0.021841029   -4.3140882    1.2232691  1010000 
 1669000   0.81508896   -4.3139388   -4.3139388   -3.0913066  0.021179999   -4.3139388    1.2226322  1010000 
 1670000   0.81524946   -4.3149338   -4.3149338   -3.0920608   0.02075032   -4.3149338     1.222873  1010000 
 1671000   0.81571834   -4.3157272   -4.3157272   -3.0921509  0.020641735   -4.3157272    1.2235763  1010000 
 1672000   0.81443762   -4.3142677   -4.3142677   -3.0926125  0.021678799   -4.3142677    1.2216552  1010000 
 1673000   0.81513753    -4.315695    -4.315695   -3.0929899   0.02299444    -4.315695    1.2227051  1010000 
 1674000   0.81518309   -4.3155476   -4.3155476   -3.0927741  0.026059852   -4.3155476    1.2227734  1010000 
 1675000   0.81613515   -4.3168834   -4.3168834   -3.0926819  0.027189015   -4.3168834    1.2242015  1010000 
 1676000   0.81514217   -4.3160376   -4.3160376   -3.0933256  0.024746614   -4.3160376     1.222712  1010000 
 1677000   0.81484081   -4.3160528   -4.3160528   -3.0937928  0.027164971   -4.3160528      1.22226  1010000 
 1678000   0.81518976   -4.3168025   -4.3168025   -3.0940191  0.024467794   -4.3168025    1.2227834  1010000 
 1679000   0.81482209    -4.316762    -4.316762   -3.0945301  0.023194142    -4.316762    1.2222319  1010000 
 1680000    0.8135881   -4.3151888   -4.3151888   -3.0948078  0.024775308   -4.3151888    1.2203809  1010000 
 1681000   0.81459692   -4.3163362   -4.3163362    -3.094442  0.025177091   -4.3163362    1.2218942  1010000 
 1682000    0.8145241   -4.3174929   -4.3174929    -3.095708  0.022669415   -4.3174929    1.2217849  1010000 
 1683000   0.81352652   -4.3161719   -4.3161719   -3.0958833   0.02415075   -4.3161719    1.2202886  1010000 
 1684000   0.81428954   -4.3172509   -4.3172509   -3.0958178  0.025837154   -4.3172509    1.2214331  1010000 
 1685000   0.81422593   -4.3174954   -4.3174954   -3.0961577   0.02492534   -4.3174954    1.2213377  1010000 
 1686000   0.81358958   -4.3169043   -4.3169043   -3.0965212  0.021781075   -4.3169043    1.2203832  1010000 
 1687000   0.81430736   -4.3183468   -4.3183468   -3.0968869  0.019584713   -4.3183468    1.2214598  1010000 
 1688000    0.8141672   -4.3184927   -4.3184927   -3.0972431  0.021663191   -4.3184927    1.2212496  1010000 
 1689000   0.81356861   -4.3179844   -4.3179844   -3.0976326  0.022909088   -4.3179844    1.2203517  1010000 
 1690000   0.81408056   -4.3180851   -4.3180851   -3.0969655  0.020706887   -4.3180851    1.2211196  1010000 
 1691000   0.81348231   -4.3176091   -4.3176091   -3.0973869  0.023033676   -4.3176091    1.2202223  1010000 
 1692000   0.81407952   -4.3184172   -4.3184172   -3.0972991  0.019766091   -4.3184172    1.2211181  1010000 
 1693000    0.8141959   -4.3186455   -4.3186455   -3.0973529   0.02192747   -4.3186455    1.2212926  1010000 
 1694000   0.81442183   -4.3188366   -4.3188366   -3.0972051  0.021331727   -4.3188366    1.2216315  1010000 
 1695000   0.81426188   -4.3183014   -4.3183014   -3.0969098  0.026241931   -4.3183014    1.2213916  1010000 
 1696000   0.81408864   -4.3177441   -4.3177441   -3.0966123  0.026484738   -4.3177441    1.2211317  1010000 
 1697000   0.81423341   -4.3185512   -4.3185512   -3.0972023  0.024646341   -4.3185512    1.2213489  1010000 
 1698000   0.81371857   -4.3177905   -4.3177905   -3.0972138  0.023434465   -4.3177905    1.2205766  1010000 
 1699000   0.81317047   -4.3171905   -4.3171905    -3.097436  0.022343178   -4.3171905    1.2197545  1010000 
 1700000   0.81319854   -4.3176581   -4.3176581   -3.0978615  0.022741949   -4.3176581    1.2197966  1010000 
 1701000   0.81401122   -4.3191149   -4.3191149   -3.0980993  0.019456723   -4.3191149    1.2210156  1010000 
 1702000   0.81407325     -4.31941     -4.31941   -3.0983014  0.020191499     -4.31941    1.2211087  1010000 
 1703000   0.81299292   -4.3181614   -4.3181614   -3.0986732  0.020719115   -4.3181614    1.2194882  1010000 
 1704000   0.81298462   -4.3183234   -4.3183234   -3.0988477   0.01797179   -4.3183234    1.2194757  1010000 
 1705000   0.81366524   -4.3193703   -4.3193703   -3.0988737   0.01929725   -4.3193703    1.2204967  1010000 
 1706000   0.81280296   -4.3183033   -4.3183033   -3.0991001  0.020628033   -4.3183033    1.2192032  1010000 
 1707000   0.81272907   -4.3184848   -4.3184848   -3.0993924  0.017815723   -4.3184848    1.2190924  1010000 
 1708000   0.81326866   -4.3195729   -4.3195729   -3.0996711  0.018858425   -4.3195729    1.2199018  1010000 
 1709000   0.81295586   -4.3189886   -4.3189886    -3.099556   0.02069042   -4.3189886    1.2194326  1010000 
 1710000   0.81274912   -4.3181193   -4.3181193   -3.0989969  0.018644556   -4.3181193    1.2191225  1010000 
 1711000   0.81283122   -4.3186871   -4.3186871   -3.0994415  0.019916063   -4.3186871    1.2192456  1010000 
 1712000   0.81305538   -4.3187541   -4.3187541   -3.0991722  0.018586351   -4.3187541    1.2195819  1010000 
 1713000   0.81299104   -4.3191712   -4.3191712   -3.0996858  0.017406834   -4.3191712    1.2194853  1010000 
 1714000   0.81230557   -4.3183273   -4.3183273   -3.0998701  0.020408887   -4.3183273    1.2184571  1010000 
 1715000   0.81257089   -4.3184276   -4.3184276   -3.0995725   0.01719486   -4.3184276    1.2188551  1010000 
 1716000    0.8125892   -4.3186024   -4.3186024   -3.0997198  0.021273547   -4.3186024    1.2188826  1010000 
 1717000   0.81257294   -4.3188597   -4.3188597   -3.1000015  0.018245455   -4.3188597    1.2188582  1010000 
 1718000    0.8125733   -4.3190246   -4.3190246   -3.1001659  0.021253311   -4.3190246    1.2188587  1010000 
 1719000   0.81358738   -4.3198513   -4.3198513   -3.0994714  0.018880105   -4.3198513    1.2203799  1010000 
 1720000   0.81314967   -4.3189444   -4.3189444   -3.0992211  0.023385222   -4.3189444    1.2197233  1010000 
 1721000   0.81340093   -4.3189562   -4.3189562    -3.098856  0.022841287   -4.3189562    1.2201002  1010000 
 1722000   0.81319606   -4.3186222   -4.3186222   -3.0988293  0.023201449   -4.3186222    1.2197929  1010000 
 1723000    0.8129275   -4.3189809   -4.3189809   -3.0995909  0.024297128   -4.3189809      1.21939  1010000 
 1724000   0.81370645   -4.3201686   -4.3201686   -3.0996101   0.01875257   -4.3201686    1.2205585  1010000 
 1725000   0.81281165   -4.3187751   -4.3187751   -3.0995588  0.025204896   -4.3187751    1.2192163  1010000 
 1726000   0.81387345   -4.3199188   -4.3199188   -3.0991098  0.023777868   -4.3199188     1.220809  1010000 
 1727000   0.81442799   -4.3214568   -4.3214568    -3.099816  0.020234695   -4.3214568    1.2216408  1010000 
 1728000    0.8128355   -4.3194393   -4.3194393   -3.1001872  0.025747267   -4.3194393     1.219252  1010000 
 1729000   0.81368312   -4.3211219   -4.3211219   -3.1005984  0.023739149   -4.3211219    1.2205235  1010000 
 1730000   0.81439005   -4.3218963   -4.3218963   -3.1003124   0.02079847   -4.3218963    1.2215839  1010000 
 1731000   0.81431669   -4.3216494   -4.3216494   -3.1001756  0.018897238   -4.3216494    1.2214738  1010000 
 1732000   0.81288272   -4.3198087   -4.3198087   -3.1004858  0.027541843   -4.3198087    1.2193229  1010000 
 1733000   0.81337288   -4.3206547   -4.3206547   -3.1005966  0.022746144   -4.3206547    1.2200581  1010000 
 1734000   0.81312869   -4.3203069   -4.3203069   -3.1006151  0.023572349   -4.3203069    1.2196918  1010000 
 1735000   0.81275381   -4.3200778   -4.3200778   -3.1009483  0.019356571   -4.3200778    1.2191295  1010000 
 1736000   0.81311229   -4.3210333   -4.3210333   -3.1013661  0.020069998   -4.3210333    1.2196672  1010000 
 1737000   0.81268457   -4.3203143   -4.3203143   -3.1012887  0.022009415   -4.3203143    1.2190256  1010000 
 1738000   0.81177644   -4.3188492   -4.3188492   -3.1011858  0.023887167   -4.3188492    1.2176635  1010000 
 1739000    0.8128723   -4.3212468   -4.3212468   -3.1019396  0.022262828   -4.3212468    1.2193072  1010000 
 1740000   0.81312502    -4.321235    -4.321235   -3.1015486  0.020512666    -4.321235    1.2196863  1010000 
 1741000   0.81285276   -4.3208759   -4.3208759    -3.101598  0.023111095   -4.3208759    1.2192779  1010000 
 1742000   0.81294996   -4.3212671   -4.3212671   -3.1018434  0.021009003   -4.3212671    1.2194237  1010000 
 1743000   0.81283583   -4.3213542   -4.3213542   -3.1021016  0.017818978   -4.3213542    1.2192525  1010000 
 1744000   0.81301583   -4.3217105   -4.3217105    -3.102188  0.020568585   -4.3217105    1.2195225  1010000 
 1745000   0.81302293   -4.3217806   -4.3217806   -3.1022474   0.02015935   -4.3217806    1.2195332  1010000 
 1746000   0.81266131   -4.3221224   -4.3221224   -3.1031317  0.020807808   -4.3221224    1.2189908  1010000 
 1747000   0.81291149    -4.322146    -4.322146     -3.10278  0.019994394    -4.322146     1.219366  1010000 
 1748000   0.81276664   -4.3218734   -4.3218734   -3.1027247   0.01938601   -4.3218734    1.2191487  1010000 
 1749000   0.81249916   -4.3218431   -4.3218431   -3.1030956  0.019993593   -4.3218431    1.2187475  1010000 
 1750000   0.81271488   -4.3224717   -4.3224717   -3.1034006  0.019507802   -4.3224717    1.2190711  1010000 
 1751000   0.81275804   -4.3228112   -4.3228112   -3.1036753  0.018795208   -4.3228112    1.2191359  1010000 
 1752000   0.81228229   -4.3227733   -4.3227733   -3.1043511  0.015621548   -4.3227733    1.2184222  1010000 
 1753000   0.81185315   -4.3225745   -4.3225745    -3.104796  0.021205293   -4.3225745    1.2177785  1010000 
 1754000   0.81192968   -4.3226129   -4.3226129   -3.1047196   0.01660938   -4.3226129    1.2178933  1010000 
 1755000   0.81230221   -4.3226434   -4.3226434   -3.1041913  0.018572833   -4.3226434    1.2184521  1010000 
 1756000   0.81221511   -4.3225813   -4.3225813   -3.1042598  0.022571119   -4.3225813    1.2183215  1010000 
 1757000   0.81238862   -4.3231554   -4.3231554   -3.1045737  0.018303605   -4.3231554    1.2185817  1010000 
 1758000   0.81092416   -4.3214182   -4.3214182   -3.1050331  0.020815491   -4.3214182     1.216385  1010000 
 1759000   0.81182139     -4.32319     -4.32319   -3.1054591  0.019707963     -4.32319    1.2177309  1010000 
 1760000   0.81176466    -4.322232    -4.322232   -3.1045862  0.021459824    -4.322232    1.2176458  1010000 
 1761000   0.81181956   -4.3228211   -4.3228211   -3.1050929  0.022144478   -4.3228211    1.2177281  1010000 
 1762000   0.81214046   -4.3237011   -4.3237011   -3.1054916  0.019833272   -4.3237011    1.2182095  1010000 
 1763000   0.81221573   -4.3240635   -4.3240635   -3.1057411  0.022841681   -4.3240635    1.2183224  1010000 
 1764000   0.81178631   -4.3234847   -4.3234847   -3.1058064  0.025477338   -4.3234847    1.2176783  1010000 
 1765000   0.81241095   -4.3245766   -4.3245766   -3.1059614  0.022307731   -4.3245766    1.2186152  1010000 
 1766000   0.81223691   -4.3243866   -4.3243866   -3.1060324  0.026829383   -4.3243866    1.2183542  1010000 
 1767000     0.813305   -4.3260275   -4.3260275   -3.1060713   0.01970122   -4.3260275    1.2199563  1010000 
 1768000   0.81226658   -4.3243263   -4.3243263   -3.1059276   0.02582246   -4.3243263    1.2183987  1010000 
 1769000   0.81276697   -4.3251716   -4.3251716   -3.1060224  0.023014382   -4.3251716    1.2191493  1010000 
 1770000   0.81252096    -4.325074    -4.325074   -3.1062938    0.0267486    -4.325074    1.2187802  1010000 
 1771000   0.81223581    -4.324692    -4.324692   -3.1063395  0.021020617    -4.324692    1.2183525  1010000 
 1772000   0.81232361   -4.3255413   -4.3255413   -3.1070571  0.020127524   -4.3255413    1.2184842  1010000 
 1773000   0.81188739   -4.3254298   -4.3254298   -3.1075999  0.026364772   -4.3254298    1.2178299  1010000 
 1774000   0.81208951   -4.3260177   -4.3260177   -3.1078847   0.02039218   -4.3260177    1.2181331  1010000 
 1775000   0.81175337   -4.3255145   -4.3255145   -3.1078856  0.025646062   -4.3255145    1.2176289  1010000 
 1776000   0.81175322   -4.3258103   -4.3258103   -3.1081817  0.021264085   -4.3258103    1.2176286  1010000 
 1777000   0.81242568   -4.3265664   -4.3265664   -3.1079291  0.020938262   -4.3265664    1.2186373  1010000 
 1778000   0.81286182   -4.3274945   -4.3274945    -3.108203  0.023958962   -4.3274945    1.2192915  1010000 
 1779000   0.81253142   -4.3268012   -4.3268012   -3.1080053  0.024035233   -4.3268012    1.2187959  1010000 
 1780000    0.8117856   -4.3259617   -4.3259617   -3.1082845  0.024877873   -4.3259617    1.2176772  1010000 
 1781000   0.81200174   -4.3266138   -4.3266138   -3.1086124   0.02159213   -4.3266138    1.2180014  1010000 
 1782000    0.8120125   -4.3270907   -4.3270907   -3.1090731   0.02284595   -4.3270907    1.2180175  1010000 
 1783000   0.81236186   -4.3280254   -4.3280254   -3.1094838  0.019250427   -4.3280254    1.2185416  1010000 
 1784000   0.81102399   -4.3261842   -4.3261842   -3.1096494  0.025568855   -4.3261842    1.2165348  1010000 
 1785000   0.81191333   -4.3276965   -4.3276965   -3.1098278  0.020149209   -4.3276965    1.2178688  1010000 
 1786000   0.81129607   -4.3267562   -4.3267562   -3.1098133  0.023385674   -4.3267562    1.2169429  1010000 
 1787000   0.81228657   -4.3280899   -4.3280899   -3.1096612   0.02526963   -4.3280899    1.2184286  1010000 
 1788000   0.81155917   -4.3266326   -4.3266326   -3.1092951  0.026951174   -4.3266326    1.2173375  1010000 
 1789000   0.81231393   -4.3276621   -4.3276621   -3.1091924   0.02123248   -4.3276621    1.2184697  1010000 
 1790000   0.81117978   -4.3266242   -4.3266242   -3.1098557  0.021397233   -4.3266242    1.2167685  1010000 
 1791000   0.81197156   -4.3281624   -4.3281624   -3.1102063  0.019079731   -4.3281624    1.2179561  1010000 
 1792000   0.81085395   -4.3265881   -4.3265881   -3.1103083   0.02023367   -4.3265881    1.2162797  1010000 
 1793000   0.81090352   -4.3271918   -4.3271918   -3.1108378  0.022475589   -4.3271918    1.2163541  1010000 
 1794000   0.81152054   -4.3277134   -4.3277134   -3.1104338  0.019152757   -4.3277134    1.2172796  1010000 
 1795000   0.81119693   -4.3274173   -4.3274173   -3.1106231  0.021236418   -4.3274173    1.2167942  1010000 
 1796000   0.81093107   -4.3271322   -4.3271322   -3.1107368  0.020668281   -4.3271322    1.2163954  1010000 
 1797000    0.8116666   -4.3277987   -4.3277987      -3.1103  0.021425156   -4.3277987    1.2174987  1010000 
 1798000   0.81135261   -4.3274504   -4.3274504   -3.1104227  0.021413956   -4.3274504    1.2170277  1010000 
 1799000   0.81159302   -4.3274211   -4.3274211   -3.1100328  0.021306218   -4.3274211    1.2173883  1010000 
 1800000   0.81103364   -4.3267199   -4.3267199   -3.1101706  0.021239922   -4.3267199    1.2165492  1010000 
 1801000   0.81188618   -4.3280961   -4.3280961   -3.1102681  0.020111706   -4.3280961    1.2178281  1010000 
 1802000   0.81160258    -4.327305    -4.327305   -3.1099023  0.023319056    -4.327305    1.2174027  1010000 
 1803000   0.81099322   -4.3271896   -4.3271896    -3.110701  0.018717006   -4.3271896    1.2164886  1010000 
 1804000    0.8116346   -4.3283613   -4.3283613   -3.1109106  0.019390263   -4.3283613    1.2174507  1010000 
 1805000   0.81230505   -4.3291957   -4.3291957   -3.1107393  0.019539166   -4.3291957    1.2184564  1010000 
 1806000   0.81166955    -4.328778    -4.328778   -3.1112749  0.023882288    -4.328778    1.2175031  1010000 
 1807000   0.81142373   -4.3283191   -4.3283191   -3.1111847  0.026153011   -4.3283191    1.2171344  1010000 
 1808000   0.81136461   -4.3289006   -4.3289006   -3.1118549  0.021084637   -4.3289006    1.2170457  1010000 
 1809000   0.81200015    -4.329676    -4.329676    -3.111677  0.021177305    -4.329676     1.217999  1010000 
 1810000   0.81139643   -4.3291813   -4.3291813   -3.1120878  0.023005059   -4.3291813    1.2170934  1010000 
 1811000   0.81109561   -4.3287121   -4.3287121   -3.1120699  0.020398586   -4.3287121    1.2166422  1010000 
 1812000    0.8117151   -4.3300682   -4.3300682   -3.1124968  0.014378992   -4.3300682    1.2175714  1010000 
 1813000    0.8114632   -4.3295884   -4.3295884   -3.1123948  0.019495357   -4.3295884    1.2171936  1010000 
 1814000   0.81112437   -4.3296871   -4.3296871   -3.1130017  0.020351636   -4.3296871    1.2166853  1010000 
 1815000   0.81057699   -4.3291376   -4.3291376   -3.1132734  0.020178325   -4.3291376    1.2158643  1010000 
 1816000   0.81104545   -4.3293201   -4.3293201   -3.1127532  0.020355856   -4.3293201     1.216567  1010000 
 1817000   0.81152245   -4.3307174   -4.3307174    -3.113435  0.019618765   -4.3307174    1.2172825  1010000 
 1818000   0.81148036   -4.3312485   -4.3312485   -3.1140292  0.019681706   -4.3312485    1.2172193  1010000 
 1819000   0.81095714   -4.3310073   -4.3310073   -3.1145728  0.019969307   -4.3310073    1.2164345  1010000 
 1820000   0.81157361   -4.3320466   -4.3320466   -3.1146874  0.020366329   -4.3320466    1.2173592  1010000 
 1821000   0.81052703   -4.3306787   -4.3306787   -3.1148894  0.018914621   -4.3306787    1.2157893  1010000 
 1822000   0.80990637   -4.3307778   -4.3307778   -3.1159195  0.018687485   -4.3307778    1.2148583  1010000 
 1823000   0.80992081   -4.3304233   -4.3304233   -3.1155433  0.017890099   -4.3304233      1.21488  1010000 
 1824000   0.81095694   -4.3316396   -4.3316396   -3.1152054  0.018681835   -4.3316396    1.2164342  1010000 
 1825000   0.80995328   -4.3301751   -4.3301751   -3.1152464  0.021756904   -4.3301751    1.2149287  1010000 
 1826000   0.81086837   -4.3315872   -4.3315872   -3.1152858  0.021063205   -4.3315872    1.2163014  1010000 
 1827000   0.81111192   -4.3321021   -4.3321021   -3.1154354  0.019431401   -4.3321021    1.2166667  1010000 
 1828000   0.81036463   -4.3313495   -4.3313495   -3.1158038  0.023021931   -4.3313495    1.2155457  1010000 
 1829000   0.81067995   -4.3326338   -4.3326338   -3.1166151  0.020709182   -4.3326338    1.2160187  1010000 
 1830000   0.81055523      -4.3324      -4.3324   -3.1165683  0.019911841      -4.3324    1.2158316  1010000 
 1831000    0.8105469   -4.3321781   -4.3321781   -3.1163589  0.023495404   -4.3321781    1.2158191  1010000 
 1832000   0.81091949   -4.3327211   -4.3327211   -3.1163431  0.023538568   -4.3327211     1.216378  1010000 
 1833000   0.81029778   -4.3316978   -4.3316978   -3.1162523  0.023314922   -4.3316978    1.2154455  1010000 
 1834000   0.81033478   -4.3319764   -4.3319764   -3.1164754  0.023207562   -4.3319764     1.215501  1010000 
 1835000   0.81043988   -4.3325842   -4.3325842   -3.1169256  0.022126496   -4.3325842    1.2156586  1010000 
 1836000   0.81064916    -4.332746    -4.332746   -3.1167735  0.026010575    -4.332746    1.2159725  1010000 
 1837000   0.81100775    -4.334327    -4.334327   -3.1178166  0.019890751    -4.334327    1.2165104  1010000 
 1838000   0.81035027   -4.3339578   -4.3339578   -3.1184336  0.019477576   -4.3339578    1.2155242  1010000 
 1839000   0.80946471   -4.3328108   -4.3328108    -3.118615  0.023113223   -4.3328108    1.2141959  1010000 
 1840000    0.8098947   -4.3335261   -4.3335261   -3.1186853  0.021751031   -4.3335261    1.2148408  1010000 
 1841000   0.81046862   -4.3339485   -4.3339485   -3.1182468  0.021253707   -4.3339485    1.2157017  1010000 
 1842000   0.80945862   -4.3327493   -4.3327493   -3.1185626  0.023693712   -4.3327493    1.2141867  1010000 
 1843000   0.81005993   -4.3338078   -4.3338078   -3.1187191  0.021513003   -4.3338078    1.2150887  1010000 
 1844000   0.81113214   -4.3353968   -4.3353968   -3.1186998  0.018949972   -4.3353968     1.216697  1010000 
 1845000   0.81114212   -4.3351772   -4.3351772   -3.1184652  0.020349906   -4.3351772     1.216712  1010000 
 1846000    0.8109622   -4.3350936   -4.3350936   -3.1186516  0.020271501   -4.3350936    1.2164421  1010000 
 1847000   0.80994189   -4.3335421   -4.3335421   -3.1186305  0.023748609   -4.3335421    1.2149116  1010000 
 1848000   0.81095827   -4.3351666   -4.3351666   -3.1187304  0.020458139   -4.3351666    1.2164362  1010000 
 1849000   0.81093219   -4.3351365   -4.3351365   -3.1187394  0.024179752   -4.3351365    1.2163971  1010000 
 1850000   0.81060193   -4.3349156   -4.3349156   -3.1190139  0.023576037   -4.3349156    1.2159017  1010000 
 1851000   0.81126327   -4.3358521   -4.3358521   -3.1189584  0.023141756   -4.3358521    1.2168937  1010000 
 1852000   0.81041783   -4.3353286   -4.3353286   -3.1197031  0.023544197   -4.3353286    1.2156255  1010000 
 1853000   0.80994633   -4.3347111   -4.3347111   -3.1197929  0.024127866   -4.3347111    1.2149183  1010000 
 1854000   0.81021294   -4.3354804   -4.3354804   -3.1201622  0.021309027   -4.3354804    1.2153182  1010000 
 1855000   0.81085794   -4.3361085   -4.3361085   -3.1198228  0.019184582   -4.3361085    1.2162857  1010000 
 1856000   0.80987839   -4.3349328   -4.3349328   -3.1201164  0.026269858   -4.3349328    1.2148164  1010000 
 1857000   0.81067432    -4.336257    -4.336257   -3.1202467  0.023322391    -4.336257    1.2160103  1010000 
 1858000   0.80933466   -4.3345838   -4.3345838    -3.120583  0.024893421   -4.3345838    1.2140008  1010000 
 1859000   0.80996669   -4.3354642   -4.3354642   -3.1205154  0.021023726   -4.3354642    1.2149488  1010000 
 1860000   0.80964772   -4.3349835   -4.3349835   -3.1205132  0.021444916   -4.3349835    1.2144704  1010000 
 1861000    0.8099448   -4.3358389   -4.3358389   -3.1209229  0.019294422   -4.3358389     1.214916  1010000 
 1862000     0.809024   -4.3346474   -4.3346474   -3.1211126   0.02380659   -4.3346474    1.2135348  1010000 
 1863000   0.80994123   -4.3357881   -4.3357881   -3.1208775  0.020396021   -4.3357881    1.2149106  1010000 
 1864000   0.81011862   -4.3357396   -4.3357396   -3.1205629   0.01897249   -4.3357396    1.2151767  1010000 
 1865000   0.81020837   -4.3359213   -4.3359213     -3.12061   0.01868963   -4.3359213    1.2153114  1010000 
 1866000   0.81033089   -4.3359018   -4.3359018   -3.1204067   0.01935795   -4.3359018    1.2154951  1010000 
 1867000   0.80981949   -4.3355612   -4.3355612   -3.1208332  0.022463365   -4.3355612     1.214728  1010000 
 1868000     0.809063   -4.3351694   -4.3351694   -3.1215761  0.019657378   -4.3351694    1.2135933  1010000 
 1869000    0.8088171   -4.3354158   -4.3354158   -3.1221914  0.021427371   -4.3354158    1.2132245  1010000 
 1870000   0.80891636   -4.3357521   -4.3357521   -3.1223788  0.023172433   -4.3357521    1.2133733  1010000 
 1871000   0.80969533   -4.3369394   -4.3369394   -3.1223977  0.014295755   -4.3369394    1.2145418  1010000 
 1872000   0.80920478   -4.3363233   -4.3363233   -3.1225173  0.019489354   -4.3363233     1.213806  1010000 
 1873000   0.80849899   -4.3348013   -4.3348013    -3.122054  0.021554505   -4.3348013    1.2127473  1010000 
 1874000   0.80931018   -4.3353038   -4.3353038   -3.1213398  0.024236151   -4.3353038    1.2139641  1010000 
 1875000   0.80972995   -4.3360507   -4.3360507   -3.1214569   0.02155585   -4.3360507    1.2145937  1010000 
 1876000   0.80997049   -4.3364092   -4.3364092   -3.1214547  0.020750549   -4.3364092    1.2149545  1010000 
 1877000   0.80945157   -4.3363335   -4.3363335   -3.1221574  0.019366934   -4.3363335    1.2141762  1010000 
 1878000   0.80920461   -4.3357729   -4.3357729   -3.1219672  0.021635722   -4.3357729    1.2138057  1010000 
 1879000   0.80875317   -4.3355382   -4.3355382   -3.1224097  0.018681877   -4.3355382    1.2131286  1010000 
 1880000   0.80920565   -4.3364168   -4.3364168   -3.1226095  0.019306883   -4.3364168    1.2138073  1010000 
 1881000    0.8093679   -4.3370388   -4.3370388   -3.1229882   0.02081758   -4.3370388    1.2140506  1010000 
 1882000   0.80955745   -4.3372502   -4.3372502   -3.1229153   0.02291124   -4.3372502     1.214335  1010000 
 1883000   0.81040829   -4.3389491   -4.3389491   -3.1233379  0.017911291   -4.3389491    1.2156112  1010000 
 1884000   0.80937311   -4.3381873   -4.3381873   -3.1241289  0.019694719   -4.3381873    1.2140585  1010000 
 1885000   0.80989568   -4.3382907   -4.3382907   -3.1234483  0.021310732   -4.3382907    1.2148423  1010000 
 1886000   0.81072863   -4.3387501   -4.3387501   -3.1226584  0.021102299   -4.3387501    1.2160917  1010000 
 1887000   0.80957167   -4.3375125   -4.3375125   -3.1231562  0.023545003   -4.3375125    1.2143563  1010000 
 1888000   0.80891754   -4.3371366   -4.3371366   -3.1237615  0.021251718   -4.3371366    1.2133751  1010000 
 1889000   0.80935478    -4.337805    -4.337805    -3.123774  0.021885496    -4.337805     1.214031  1010000 
 1890000    0.8096863   -4.3385147   -4.3385147   -3.1239864  0.019522643   -4.3385147    1.2145283  1010000 
 1891000   0.80949839    -4.338631    -4.338631   -3.1243846    0.0200785    -4.338631    1.2142464  1010000 
 1892000   0.80975428    -4.338857    -4.338857   -3.1242268  0.020194632    -4.338857    1.2146302  1010000 
 1893000   0.80863138   -4.3376409   -4.3376409    -3.124695   0.02382142   -4.3376409    1.2129459  1010000 
 1894000   0.80970517   -4.3390689   -4.3390689   -3.1245124  0.019971193   -4.3390689    1.2145565  1010000 
 1895000   0.80921232   -4.3384418   -4.3384418   -3.1246246  0.023189283   -4.3384418    1.2138173  1010000 
 1896000   0.80959687   -4.3392611   -4.3392611    -3.124867  0.020874616   -4.3392611    1.2143941  1010000 
 1897000   0.80910632   -4.3389659   -4.3389659   -3.1253076  0.022060156   -4.3389659    1.2136583  1010000 
 1898000   0.80922754   -4.3392877   -4.3392877   -3.1254476  0.020468922   -4.3392877    1.2138401  1010000 
 1899000   0.80876688   -4.3390781   -4.3390781    -3.125929  0.022809365   -4.3390781    1.2131491  1010000 
 1900000   0.80980306   -4.3404031   -4.3404031   -3.1256998  0.020923831   -4.3404031    1.2147034  1010000 
 1901000   0.80859412   -4.3383901   -4.3383901   -3.1255001  0.026136821   -4.3383901      1.21289  1010000 
 1902000    0.8095691   -4.3396642   -4.3396642   -3.1253118  0.020043725   -4.3396642    1.2143524  1010000 
 1903000   0.80957017   -4.3397215   -4.3397215   -3.1253675  0.022527258   -4.3397215    1.2143541  1010000 
 1904000    0.8095737   -4.3396942   -4.3396942   -3.1253348  0.021343108   -4.3396942    1.2143593  1010000 
 1905000   0.80971217   -4.3395551   -4.3395551    -3.124988  0.024855411   -4.3395551     1.214567  1010000 
 1906000   0.80929182   -4.3386016   -4.3386016   -3.1246651  0.024968592   -4.3386016    1.2139365  1010000 
 1907000   0.81018638    -4.340016    -4.340016   -3.1247377  0.024704324    -4.340016    1.2152784  1010000 
 1908000   0.80975845   -4.3402137   -4.3402137   -3.1255773  0.023150961   -4.3402137    1.2146365  1010000 
 1909000   0.80990859   -4.3407679   -4.3407679   -3.1259062  0.022758539   -4.3407679    1.2148617  1010000 
 1910000   0.80906469    -4.339724    -4.339724   -3.1261281  0.023345022    -4.339724    1.2135958  1010000 
 1911000   0.80898149   -4.3397263   -4.3397263   -3.1262552  0.021333889   -4.3397263     1.213471  1010000 
 1912000   0.80898994   -4.3395875   -4.3395875   -3.1261038  0.022258168   -4.3395875    1.2134837  1010000 
 1913000   0.80968465   -4.3408455   -4.3408455   -3.1263198  0.018879295   -4.3408455    1.2145258  1010000 
 1914000   0.80940682   -4.3411533   -4.3411533   -3.1270443   0.01843881   -4.3411533     1.214109  1010000 
 1915000   0.80807435   -4.3396291   -4.3396291   -3.1275188  0.021692656   -4.3396291    1.2121103  1010000 
 1916000   0.80855998   -4.3406152   -4.3406152   -3.1277764  0.018989149   -4.3406152    1.2128388  1010000 
 1917000   0.80811398   -4.3402771   -4.3402771   -3.1281073  0.020242934   -4.3402771    1.2121698  1010000 
 1918000   0.80894096   -4.3411828   -4.3411828   -3.1277725  0.017486429   -4.3411828    1.2134102  1010000 
 1919000   0.80755662   -4.3397794   -4.3397794   -3.1284457  0.018457332   -4.3397794    1.2113337  1010000 
 1920000    0.8075142   -4.3400525   -4.3400525   -3.1287824  0.019264993   -4.3400525    1.2112701  1010000 
 1921000    0.8079814   -4.3409512   -4.3409512   -3.1289803  0.019914852   -4.3409512    1.2119709  1010000 
 1922000   0.80823142   -4.3419364   -4.3419364   -3.1295905  0.018410311   -4.3419364    1.2123459  1010000 
 1923000   0.80874343   -4.3424872   -4.3424872   -3.1293733  0.018934001   -4.3424872    1.2131139  1010000 
 1924000   0.80775968   -4.3404986   -4.3404986   -3.1288603  0.020601513   -4.3404986    1.2116383  1010000 
 1925000   0.80797494   -4.3415701   -4.3415701   -3.1296089   0.01942637   -4.3415701    1.2119612  1010000 
 1926000   0.80821348   -4.3419108   -4.3419108   -3.1295917  0.022485525   -4.3419108     1.212319  1010000 
 1927000   0.80880635   -4.3424946   -4.3424946   -3.1292863  0.019553264   -4.3424946    1.2132083  1010000 
 1928000   0.80829097   -4.3412938   -4.3412938   -3.1288585  0.023493258   -4.3412938    1.2124353  1010000 
 1929000   0.80921369    -4.342492    -4.342492   -3.1286727  0.021104266    -4.342492    1.2138193  1010000 
 1930000   0.80896228   -4.3424271   -4.3424271   -3.1289849  0.022472726   -4.3424271    1.2134422  1010000 
 1931000    0.8094148   -4.3427954   -4.3427954   -3.1286744  0.023489421   -4.3427954     1.214121  1010000 
 1932000   0.80936305   -4.3432771   -4.3432771   -3.1292337  0.021940893   -4.3432771    1.2140434  1010000 
 1933000   0.80893524   -4.3427897   -4.3427897   -3.1293881   0.02351234   -4.3427897    1.2134017  1010000 
 1934000   0.80804129   -4.3419077   -4.3419077    -3.129847  0.025090319   -4.3419077    1.2120607  1010000 
 1935000   0.80897113    -4.343498    -4.343498   -3.1300425  0.022698997    -4.343498    1.2134555  1010000 
 1936000   0.80924082   -4.3441449   -4.3441449   -3.1302849  0.023742656   -4.3441449      1.21386  1010000 
 1937000   0.80901178   -4.3442334   -4.3442334   -3.1307169  0.020748536   -4.3442334    1.2135165  1010000 
 1938000   0.80848963   -4.3439925   -4.3439925   -3.1312593  0.021188837   -4.3439925    1.2127333  1010000 
 1939000   0.80839164   -4.3435983   -4.3435983   -3.1310121  0.020545944   -4.3435983    1.2125863  1010000 
 1940000    0.8079915   -4.3436053   -4.3436053   -3.1316193   0.02475122   -4.3436053     1.211986  1010000 
 1941000   0.80860644   -4.3446054   -4.3446054   -3.1316969  0.021338636   -4.3446054    1.2129085  1010000 
 1942000   0.80933523   -4.3456855   -4.3456855   -3.1316839  0.019823631   -4.3456855    1.2140016  1010000 
 1943000   0.80821426   -4.3438249   -4.3438249   -3.1315047  0.023664049   -4.3438249    1.2123202  1010000 
 1944000   0.80893266   -4.3448765   -4.3448765   -3.1314787  0.017540992   -4.3448765    1.2133978  1010000 
 1945000   0.80790288   -4.3442556   -4.3442556   -3.1324024  0.020225263   -4.3442556    1.2118531  1010000 
 1946000   0.80762259   -4.3440303   -4.3440303   -3.1325976   0.02003223   -4.3440303    1.2114327  1010000 
 1947000   0.80753176   -4.3440745   -4.3440745   -3.1327781  0.021317404   -4.3440745    1.2112964  1010000 
 1948000   0.80725621   -4.3440267   -4.3440267   -3.1331435  0.021027182   -4.3440267    1.2108831  1010000 
 1949000   0.80747811   -4.3447232   -4.3447232   -3.1335072  0.023112158   -4.3447232     1.211216  1010000 
 1950000   0.80778841   -4.3452414   -4.3452414     -3.13356  0.019047052   -4.3452414    1.2116814  1010000 
 1951000   0.80760739   -4.3451905   -4.3451905   -3.1337806  0.021348704   -4.3451905    1.2114099  1010000 
 1952000   0.80747641   -4.3445336   -4.3445336   -3.1333202  0.021751535   -4.3445336    1.2112134  1010000 
 1953000   0.80839269   -4.3460692   -4.3460692   -3.1334814    0.0198711   -4.3460692    1.2125878  1010000 
 1954000   0.80795309    -4.345138    -4.345138   -3.1332096  0.020658319    -4.345138    1.2119284  1010000 
 1955000   0.80773061   -4.3453031   -4.3453031   -3.1337084  0.021086808   -4.3453031    1.2115947  1010000 
 1956000    0.8080139   -4.3457173   -4.3457173   -3.1336977   0.02218685   -4.3457173    1.2120196  1010000 
 1957000   0.80779948   -4.3458964   -4.3458964   -3.1341983  0.019464474   -4.3458964     1.211698  1010000 
 1958000   0.80745166    -4.345821    -4.345821   -3.1346448  0.017818315    -4.345821    1.2111763  1010000 
 1959000   0.80770797   -4.3465894   -4.3465894   -3.1350286   0.01484732   -4.3465894    1.2115607  1010000 
 1960000   0.80683103   -4.3455718   -4.3455718   -3.1353264  0.020156315   -4.3455718    1.2102453  1010000 
 1961000   0.80685152   -4.3453779   -4.3453779   -3.1351018  0.019544753   -4.3453779    1.2102761  1010000 
 1962000   0.80713263   -4.3458281   -4.3458281   -3.1351303  0.020184407   -4.3458281    1.2106977  1010000 
 1963000   0.80757992   -4.3466204   -4.3466204   -3.1352517  0.017895136   -4.3466204    1.2113687  1010000 
 1964000   0.80699592   -4.3459759   -4.3459759   -3.1354832  0.020781266   -4.3459759    1.2104927  1010000 
 1965000   0.80755162   -4.3468992   -4.3468992    -3.135573  0.018542001   -4.3468992    1.2113262  1010000 
 1966000     0.807395   -4.3473178   -4.3473178   -3.1362265  0.016502696   -4.3473178    1.2110913  1010000 
 1967000   0.80682142   -4.3468258   -4.3468258   -3.1365949  0.019861503   -4.3468258    1.2102309  1010000 
 1968000   0.80644479   -4.3462097   -4.3462097   -3.1365438  0.019811488   -4.3462097     1.209666  1010000 
 1969000   0.80715829   -4.3477857   -4.3477857   -3.1370495   0.01699286   -4.3477857    1.2107362  1010000 
 1970000   0.80708302   -4.3472675   -4.3472675   -3.1366442  0.021422405   -4.3472675    1.2106233  1010000 
 1971000   0.80737791   -4.3472455   -4.3472455   -3.1361798  0.025520613   -4.3472455    1.2110657  1010000 
 1972000   0.80793988   -4.3482662   -4.3482662   -3.1363576  0.022967686   -4.3482662    1.2119086  1010000 
 1973000    0.8077359   -4.3485664   -4.3485664   -3.1369637  0.021751274   -4.3485664    1.2116027  1010000 
 1974000   0.80736566   -4.3484211   -4.3484211   -3.1373738  0.019914003   -4.3484211    1.2110473  1010000 
 1975000   0.80643582    -4.347371    -4.347371   -3.1377185  0.024193235    -4.347371    1.2096525  1010000 
 1976000   0.80778194   -4.3496454   -4.3496454   -3.1379737  0.019991143   -4.3496454    1.2116717  1010000 
 1977000   0.80764178   -4.3491786   -4.3491786   -3.1377172   0.02166032   -4.3491786    1.2114615  1010000 
 1978000   0.80746715   -4.3484192   -4.3484192   -3.1372197  0.023904164   -4.3484192    1.2111995  1010000 
 1979000   0.80709132   -4.3481511   -4.3481511   -3.1375153  0.025370462   -4.3481511    1.2106358  1010000 
 1980000    0.8076439   -4.3485874   -4.3485874   -3.1371228  0.022423716   -4.3485874    1.2114646  1010000 
 1981000   0.80816275   -4.3493548   -4.3493548   -3.1371119  0.021031583   -4.3493548    1.2122429  1010000 
 1982000   0.80735181   -4.3486629   -4.3486629   -3.1376364  0.022650207   -4.3486629    1.2110265  1010000 
 1983000   0.80806369   -4.3497445   -4.3497445   -3.1376502  0.023654667   -4.3497445    1.2120943  1010000 
 1984000   0.80735413   -4.3492898   -4.3492898   -3.1382598  0.023910298   -4.3492898      1.21103  1010000 
 1985000   0.80727266   -4.3494641   -4.3494641   -3.1385563   0.02021247   -4.3494641    1.2109078  1010000 
 1986000   0.80681053   -4.3491173   -4.3491173   -3.1389027  0.025300631   -4.3491173    1.2102146  1010000 
 1987000    0.8079235   -4.3507664   -4.3507664   -3.1388824  0.025736093   -4.3507664     1.211884  1010000 
 1988000   0.80814536   -4.3517843   -4.3517843   -3.1395675  0.021055745   -4.3517843    1.2122168  1010000 
 1989000   0.80703904   -4.3499557   -4.3499557   -3.1393983  0.024537697   -4.3499557    1.2105574  1010000 
 1990000    0.8067561   -4.3496877   -4.3496877   -3.1395548  0.024005819   -4.3496877    1.2101329  1010000 
 1991000   0.80667572   -4.3496743   -4.3496743   -3.1396619  0.024380486   -4.3496743    1.2100124  1010000 
 1992000   0.80756428   -4.3510978   -4.3510978   -3.1397526  0.022108657   -4.3510978    1.2113452  1010000 
 1993000   0.80726741   -4.3507171   -4.3507171   -3.1398172  0.019425591   -4.3507171    1.2108999  1010000 
 1994000    0.8069838   -4.3507327   -4.3507327   -3.1402582  0.022247659   -4.3507327    1.2104745  1010000 
 1995000   0.80717886   -4.3510238   -4.3510238   -3.1402567  0.019451834   -4.3510238    1.2107671  1010000 
 1996000   0.80649612   -4.3496705   -4.3496705   -3.1399275  0.022334135   -4.3496705     1.209743  1010000 
 1997000   0.80679772   -4.3502198   -4.3502198   -3.1400244  0.019197221   -4.3502198    1.2101954  1010000 
 1998000   0.80659085    -4.350284    -4.350284   -3.1403989  0.019302564    -4.350284    1.2098851  1010000 
 1999000   0.80635912   -4.3501484   -4.3501484   -3.1406109  0.019231078   -4.3501484    1.2095375  1010000 
 2000000   0.80646551   -4.3502161   -4.3502161    -3.140519  0.021368502   -4.3502161    1.2096971  1010000 
 2001000   0.80688043   -4.3505491   -4.3505491   -3.1402297  0.019058638   -4.3505491    1.2103194  1010000 
 2002000   0.80643017   -4.3498171   -4.3498171   -3.1401731  0.022468856   -4.3498171    1.2096441  1010000 
 2003000   0.80651384   -4.3503736   -4.3503736    -3.140604  0.023735347   -4.3503736    1.2097696  1010000 
 2004000   0.80748907   -4.3514431   -4.3514431   -3.1402107  0.019896007   -4.3514431    1.2112324  1010000 
 2005000   0.80644513   -4.3500711   -4.3500711   -3.1404046  0.022500322   -4.3500711    1.2096665  1010000 
 2006000   0.80671772   -4.3508477   -4.3508477   -3.1407723    0.0201559   -4.3508477    1.2100754  1010000 
 2007000   0.80600009   -4.3496828   -4.3496828   -3.1406838  0.022977058   -4.3496828    1.2089989  1010000 
 2008000   0.80653297   -4.3503273   -4.3503273    -3.140529  0.021636638   -4.3503273    1.2097983  1010000 
 2009000   0.80639968   -4.3502695   -4.3502695   -3.1406711  0.019945663   -4.3502695    1.2095983  1010000 
 2010000   0.80696585   -4.3514636   -4.3514636    -3.141016  0.020904195   -4.3514636    1.2104476  1010000 
 2011000   0.80634209   -4.3506692   -4.3506692   -3.1411572   0.02005918   -4.3506692    1.2095119  1010000 
 2012000   0.80638749    -4.350524    -4.350524    -3.140944  0.021155648    -4.350524      1.20958  1010000 
 2013000   0.80640869   -4.3506776   -4.3506776   -3.1410658  0.020469558   -4.3506776    1.2096118  1010000 
 2014000    0.8068163   -4.3507742   -4.3507742   -3.1405509  0.019297921   -4.3507742    1.2102233  1010000 
 2015000    0.8059839   -4.3496951   -4.3496951   -3.1407205  0.018656863   -4.3496951    1.2089747  1010000 
 2016000   0.80604783    -4.349889    -4.349889   -3.1408184  0.021242891    -4.349889    1.2090706  1010000 
 2017000   0.80630808   -4.3502605   -4.3502605   -3.1407996  0.021968605   -4.3502605    1.2094609  1010000 
 2018000   0.80639496   -4.3499606   -4.3499606   -3.1403694  0.019492226   -4.3499606    1.2095912  1010000 
 2019000   0.80720011    -4.351609    -4.351609     -3.14081  0.017179321    -4.351609     1.210799  1010000 
 2020000   0.80675079   -4.3506893   -4.3506893   -3.1405643  0.020996401   -4.3506893     1.210125  1010000 
 2021000   0.80696292   -4.3513344   -4.3513344   -3.1408912    0.0236202   -4.3513344    1.2104432  1010000 
 2022000   0.80737023   -4.3520828   -4.3520828   -3.1410287  0.021520919   -4.3520828    1.2110542  1010000 
 2023000   0.80757686    -4.352539    -4.352539   -3.1411749  0.021039224    -4.352539    1.2113641  1010000 
 2024000   0.80698862   -4.3518894   -4.3518894   -3.1414077  0.022172285   -4.3518894    1.2104817  1010000 
 2025000   0.80757982   -4.3533003   -4.3533003   -3.1419317  0.020905031   -4.3533003    1.2113685  1010000 
 2026000   0.80640323   -4.3522483   -4.3522483   -3.1426446  0.019720178   -4.3522483    1.2096036  1010000 
 2027000     0.807036   -4.3531846   -4.3531846   -3.1426318  0.017596212   -4.3531846    1.2105528  1010000 
 2028000    0.8059992    -4.351871    -4.351871   -3.1428734  0.020169281    -4.351871    1.2089976  1010000 
 2029000   0.80617174     -4.35225     -4.35225   -3.1429935  0.018475834     -4.35225    1.2092564  1010000 
 2030000   0.80614179   -4.3520042   -4.3520042   -3.1427927  0.020732603   -4.3520042    1.2092115  1010000 
 2031000   0.80645136   -4.3521798   -4.3521798    -3.142504  0.021185933   -4.3521798    1.2096758  1010000 
 2032000   0.80543203    -4.350824    -4.350824   -3.1426771  0.021818041    -4.350824    1.2081468  1010000 
 2033000   0.80581963   -4.3511167   -4.3511167   -3.1423885  0.017648921   -4.3511167    1.2087282  1010000 
 2034000   0.80679363   -4.3526801   -4.3526801   -3.1424909    0.0157023   -4.3526801    1.2101892  1010000 
 2035000    0.8067327   -4.3524382   -4.3524382   -3.1423403  0.018515842   -4.3524382    1.2100979  1010000 
 2036000    0.8067087   -4.3527248   -4.3527248   -3.1426629  0.023422321   -4.3527248    1.2100619  1010000 
 2037000   0.80639178   -4.3525321   -4.3525321   -3.1429457  0.023065009   -4.3525321    1.2095865  1010000 
 2038000   0.80701325   -4.3534689   -4.3534689   -3.1429502  0.021466156   -4.3534689    1.2105187  1010000 
 2039000    0.8068013   -4.3537889   -4.3537889   -3.1435881  0.022142404   -4.3537889    1.2102007  1010000 
 2040000   0.80641654   -4.3535597   -4.3535597   -3.1439361  0.022603519   -4.3535597    1.2096236  1010000 
 2041000   0.80712889   -4.3542951   -4.3542951   -3.1436029  0.021262517   -4.3542951    1.2106921  1010000 
 2042000   0.80681566   -4.3545729   -4.3545729   -3.1443506  0.020811631   -4.3545729    1.2102223  1010000 
 2043000   0.80648335    -4.353734    -4.353734   -3.1440102  0.024287944    -4.353734    1.2097238  1010000 
 2044000   0.80675699   -4.3539213   -4.3539213    -3.143787  0.024385082   -4.3539213    1.2101343  1010000 
 2045000   0.80651671   -4.3537205   -4.3537205   -3.1439467  0.021425996   -4.3537205    1.2097739  1010000 
 2046000   0.80704527   -4.3548169   -4.3548169   -3.1442502  0.017901081   -4.3548169    1.2105667  1010000 
 2047000   0.80576873     -4.35347     -4.35347   -3.1448181  0.020925021     -4.35347    1.2086519  1010000 
 2048000    0.8058903   -4.3538483   -4.3538483   -3.1450141  0.019510198   -4.3538483    1.2088343  1010000 
 2049000   0.80602999   -4.3542829   -4.3542829   -3.1452391  0.018039635   -4.3542829    1.2090438  1010000 
 2050000   0.80550638   -4.3534742   -4.3534742   -3.1452159  0.021430599   -4.3534742    1.2082584  1010000 
 2051000   0.80471595   -4.3529221   -4.3529221   -3.1458494  0.019358518   -4.3529221    1.2070727  1010000 
 2052000   0.80560251   -4.3542051   -4.3542051   -3.1458025  0.015516705   -4.3542051    1.2084026  1010000 
 2053000   0.80567565   -4.3545181   -4.3545181   -3.1460058  0.017477519   -4.3545181    1.2085123  1010000 
 2054000   0.80522845   -4.3538007   -4.3538007   -3.1459592  0.019151861   -4.3538007    1.2078415  1010000 
 2055000    0.8058701   -4.3550844   -4.3550844   -3.1462805  0.020086011   -4.3550844    1.2088039  1010000 
 2056000   0.80615758   -4.3552417   -4.3552417   -3.1460066  0.017860644   -4.3552417    1.2092352  1010000 
 2057000   0.80556892   -4.3547094   -4.3547094   -3.1463572  0.018587999   -4.3547094    1.2083522  1010000 
 2058000   0.80574076   -4.3550096   -4.3550096   -3.1463997  0.019673601   -4.3550096    1.2086099  1010000 
 2059000   0.80557251   -4.3547714   -4.3547714   -3.1464139  0.021211738   -4.3547714    1.2083576  1010000 
 2060000   0.80611566   -4.3555428   -4.3555428   -3.1463705  0.019704967   -4.3555428    1.2091723  1010000 
 2061000   0.80657315   -4.3564973   -4.3564973   -3.1466388  0.020952571   -4.3564973    1.2098585  1010000 
 2062000   0.80536163   -4.3547131   -4.3547131   -3.1466718  0.024866612   -4.3547131    1.2080413  1010000 
 2063000   0.80590455   -4.3553878   -4.3553878   -3.1465322  0.020094731   -4.3553878    1.2088556  1010000 
 2064000   0.80598811   -4.3559303   -4.3559303   -3.1469493  0.018650381   -4.3559303     1.208981  1010000 
 2065000   0.80638769   -4.3567944   -4.3567944   -3.1472141  0.021186185   -4.3567944    1.2095803  1010000 
 2066000   0.80647985   -4.3571019   -4.3571019   -3.1473833  0.016976443   -4.3571019    1.2097186  1010000 
 2067000   0.80454869    -4.354673    -4.354673   -3.1478512  0.022826177    -4.354673    1.2068218  1010000 
 2068000   0.80526406   -4.3560149   -4.3560149     -3.14812  0.020234539   -4.3560149    1.2078949  1010000 
 2069000    0.8056378   -4.3568036   -4.3568036   -3.1483481  0.018409292   -4.3568036    1.2084555  1010000 
 2070000   0.80479843   -4.3559878   -4.3559878   -3.1487913  0.017889447   -4.3559878    1.2071964  1010000 
 2071000   0.80489831   -4.3567112   -4.3567112   -3.1493649  0.018625786   -4.3567112    1.2073463  1010000 
 2072000   0.80507932   -4.3568357   -4.3568357   -3.1492179   0.01831244   -4.3568357    1.2076178  1010000 
 2073000   0.80518887   -4.3573924   -4.3573924   -3.1496103  0.014832519   -4.3573924    1.2077821  1010000 
 2074000   0.80476569   -4.3565764   -4.3565764    -3.149429  0.019091134   -4.3565764    1.2071473  1010000 
 2075000   0.80497542   -4.3566554   -4.3566554   -3.1491935  0.021297231   -4.3566554    1.2074619  1010000 
 2076000   0.80596027   -4.3574737   -4.3574737   -3.1485345  0.020024203   -4.3574737    1.2089392  1010000 
 2077000   0.80546936   -4.3565752   -4.3565752   -3.1483724  0.025170592   -4.3565752    1.2082028  1010000 
 2078000   0.80683954   -4.3587083   -4.3587083   -3.1484502  0.017875371   -4.3587083    1.2102581  1010000 
 2079000   0.80609172   -4.3578143   -4.3578143   -3.1486779  0.024187917   -4.3578143    1.2091364  1010000 
 2080000    0.8063329   -4.3579246   -4.3579246   -3.1484264  0.021845755   -4.3579246    1.2094982  1010000 
 2081000   0.80590998   -4.3569577   -4.3569577    -3.148094  0.024181397   -4.3569577    1.2088638  1010000 
 2082000   0.80611051   -4.3575011   -4.3575011   -3.1483365   0.02288423   -4.3575011    1.2091646  1010000 
 2083000   0.80648253   -4.3582211   -4.3582211   -3.1484985  0.020939703   -4.3582211    1.2097226  1010000 
 2084000   0.80532249   -4.3568862   -4.3568862   -3.1489036  0.027284465   -4.3568862    1.2079825  1010000 
 2085000   0.80660261   -4.3583698   -4.3583698   -3.1484671  0.022097169   -4.3583698    1.2099027  1010000 
 2086000   0.80579647   -4.3582085   -4.3582085    -3.149515  0.021219124   -4.3582085    1.2086935  1010000 
 2087000   0.80559783   -4.3582411   -4.3582411   -3.1498456   0.01871457   -4.3582411    1.2083956  1010000 
 2088000   0.80513841   -4.3574347   -4.3574347   -3.1497283  0.016580961   -4.3574347    1.2077064  1010000 
 2089000   0.80484221   -4.3573074   -4.3573074   -3.1500452  0.021660421   -4.3573074    1.2072621  1010000 
 2090000   0.80444061   -4.3571365   -4.3571365   -3.1504767  0.020138142   -4.3571365    1.2066597  1010000 
 2091000   0.80452979   -4.3573137   -4.3573137   -3.1505202  0.017908687   -4.3573137    1.2067935  1010000 
 2092000   0.80483465   -4.3579945   -4.3579945   -3.1507437  0.017778842   -4.3579945    1.2072508  1010000 
 2093000   0.80424741   -4.3567637   -4.3567637   -3.1503938  0.023966755   -4.3567637    1.2063699  1010000 
 2094000   0.80433732   -4.3569239   -4.3569239   -3.1504191  0.020052984   -4.3569239    1.2065048  1010000 
 2095000   0.80499981   -4.3586799   -4.3586799   -3.1511814   0.01757127   -4.3586799    1.2074985  1010000 
 2096000   0.80505937   -4.3583207   -4.3583207   -3.1507328  0.019141433   -4.3583207    1.2075879  1010000 
 2097000   0.80505842   -4.3585716   -4.3585716   -3.1509851  0.022183697   -4.3585716    1.2075864  1010000 
 2098000   0.80560297   -4.3593934   -4.3593934   -3.1509902  0.020139437   -4.3593934    1.2084033  1010000 
 2099000   0.80591044   -4.3602451   -4.3602451   -3.1513807  0.022641107   -4.3602451    1.2088645  1010000 
 2100000   0.80529154   -4.3589854   -4.3589854   -3.1510493  0.019692609   -4.3589854    1.2079361  1010000 
 2101000   0.80541046   -4.3595628   -4.3595628   -3.1514483  0.018643042   -4.3595628    1.2081145  1010000 
 2102000   0.80488432   -4.3588188   -4.3588188   -3.1514935  0.022069993   -4.3588188    1.2073253  1010000 
 2103000   0.80389003   -4.3576765   -4.3576765   -3.1518427  0.021744498   -4.3576765    1.2058338  1010000 
 2104000   0.80488453   -4.3587505   -4.3587505    -3.151425   0.01855211   -4.3587505    1.2073256  1010000 
 2105000   0.80502865    -4.359509    -4.359509   -3.1519672   0.01631569    -4.359509    1.2075418  1010000 
 2106000   0.80464564   -4.3589024   -4.3589024   -3.1519351  0.019308024   -4.3589024    1.2069673  1010000 
 2107000   0.80472518   -4.3590719   -4.3590719   -3.1519853  0.019249384   -4.3590719    1.2070866  1010000 
 2108000   0.80491579   -4.3593368   -4.3593368   -3.1519643   0.02121717   -4.3593368    1.2073725  1010000 
 2109000   0.80394186   -4.3586298   -4.3586298   -3.1527182  0.019544213   -4.3586298    1.2059116  1010000 
 2110000   0.80400501   -4.3589348   -4.3589348   -3.1529285  0.017413144   -4.3589348    1.2060063  1010000 
 2111000    0.8047937   -4.3601283   -4.3601283   -3.1529389  0.015129499   -4.3601283    1.2071894  1010000 
 2112000   0.80437772   -4.3594239   -4.3594239   -3.1528585  0.019701474   -4.3594239    1.2065654  1010000 
 2113000   0.80471872   -4.3599285   -4.3599285   -3.1528516  0.017792956   -4.3599285    1.2070769  1010000 
 2114000   0.80413998   -4.3593247   -4.3593247   -3.1531159  0.022642284   -4.3593247    1.2062088  1010000 
 2115000   0.80501535   -4.3605544   -4.3605544   -3.1530325  0.019982906   -4.3605544    1.2075218  1010000 
 2116000   0.80454713   -4.3599566   -4.3599566   -3.1531371  0.022262024   -4.3599566    1.2068195  1010000 
 2117000   0.80446146   -4.3594219   -4.3594219   -3.1527309  0.024906798   -4.3594219     1.206691  1010000 
 2118000   0.80612949   -4.3619019   -4.3619019   -3.1527089   0.01773978   -4.3619019     1.209193  1010000 
 2119000   0.80521077   -4.3616148   -4.3616148   -3.1537998  0.021562243   -4.3616148     1.207815  1010000 
 2120000   0.80500715   -4.3612464   -4.3612464   -3.1537369  0.021176724   -4.3612464    1.2075095  1010000 
 2121000   0.80522233    -4.362061    -4.362061   -3.1542287   0.02218472    -4.362061    1.2078323  1010000 
 2122000   0.80418833   -4.3605282   -4.3605282   -3.1542469  0.023756402   -4.3605282    1.2062813  1010000 
 2123000   0.80529386   -4.3619705   -4.3619705   -3.1540309   0.01846539   -4.3619705    1.2079396  1010000 
 2124000   0.80416321   -4.3603814   -4.3603814   -3.1541378  0.021898918   -4.3603814    1.2062436  1010000 
 2125000   0.80477631   -4.3620895   -4.3620895   -3.1549263  0.020335882   -4.3620895    1.2071633  1010000 
 2126000   0.80426651   -4.3613459   -4.3613459   -3.1549473  0.019340156   -4.3613459    1.2063986  1010000 
 2127000   0.80457387   -4.3618015   -4.3618015   -3.1549419  0.018322535   -4.3618015    1.2068596  1010000 
 2128000   0.80434821   -4.3621036   -4.3621036   -3.1555825  0.020231703   -4.3621036    1.2065211  1010000 
 2129000      0.80413   -4.3618619   -4.3618619   -3.1556681  0.021691661   -4.3618619    1.2061938  1010000 
 2130000   0.80389646    -4.361232    -4.361232   -3.1553885  0.021883562    -4.361232    1.2058435  1010000 
 2131000   0.80433027   -4.3625939   -4.3625939   -3.1560997  0.017319282   -4.3625939    1.2064942  1010000 
 2132000   0.80444081   -4.3627525   -4.3627525   -3.1560925  0.016141898   -4.3627525      1.20666  1010000 
 2133000   0.80483319   -4.3633059   -4.3633059   -3.1560573  0.019349042   -4.3633059    1.2072486  1010000 
 2134000   0.80387413   -4.3621391   -4.3621391   -3.1563291  0.021097504   -4.3621391      1.20581  1010000 
 2135000   0.80461415   -4.3631926   -4.3631926   -3.1562726   0.02104805   -4.3631926      1.20692  1010000 
 2136000   0.80412058   -4.3622314   -4.3622314   -3.1560517  0.019454357   -4.3622314    1.2061797  1010000 
 2137000   0.80349934   -4.3619944   -4.3619944   -3.1567466  0.020090684   -4.3619944    1.2052478  1010000 
 2138000   0.80400462   -4.3628803   -4.3628803   -3.1568746  0.022293905   -4.3628803    1.2060057  1010000 
 2139000   0.80398166   -4.3629871   -4.3629871   -3.1570158  0.021153588   -4.3629871    1.2059713  1010000 
 2140000   0.80466225   -4.3642051   -4.3642051   -3.1572129  0.016088143   -4.3642051    1.2069922  1010000 
 2141000   0.80397559   -4.3632586   -4.3632586   -3.1572964  0.022834404   -4.3632586    1.2059622  1010000 
 2142000   0.80402942   -4.3639906   -4.3639906   -3.1579477  0.019779743   -4.3639906    1.2060429  1010000 
 2143000     0.803742   -4.3635977   -4.3635977   -3.1579859  0.022637426   -4.3635977    1.2056118  1010000 
 2144000   0.80346184   -4.3629796   -4.3629796   -3.1577881   0.02240499   -4.3629796    1.2051916  1010000 
 2145000   0.80385861   -4.3639202   -4.3639202   -3.1581335  0.021740417   -4.3639202    1.2057867  1010000 
 2146000   0.80406386   -4.3646074   -4.3646074   -3.1585128  0.018898128   -4.3646074    1.2060946  1010000 
 2147000   0.80385755   -4.3647788   -4.3647788   -3.1589936  0.019551115   -4.3647788    1.2057851  1010000 
 2148000   0.80303349   -4.3641537   -4.3641537   -3.1596047  0.018445852   -4.3641537     1.204549  1010000 
 2149000   0.80349387     -4.36498     -4.36498   -3.1597404  0.016169292     -4.36498    1.2052396  1010000 
 2150000   0.80239691   -4.3640469   -4.3640469   -3.1604527  0.017520746   -4.3640469    1.2035942  1010000 
 2151000   0.80341246    -4.365317    -4.365317   -3.1601995  0.015473406    -4.365317    1.2051175  1010000 
 2152000    0.8035553   -4.3648708   -4.3648708    -3.159539  0.016994214   -4.3648708    1.2053318  1010000 
 2153000   0.80400147   -4.3657288   -4.3657288   -3.1597278  0.016460464   -4.3657288     1.206001  1010000 
 2154000   0.80336527   -4.3654203   -4.3654203   -3.1603736  0.018751211   -4.3654203    1.2050467  1010000 
 2155000   0.80351143   -4.3648581   -4.3648581   -3.1595921  0.021087891   -4.3648581     1.205266  1010000 
 2156000   0.80360936   -4.3646808   -4.3646808    -3.159268  0.023985841   -4.3646808    1.2054129  1010000 
 2157000   0.80419321   -4.3658821   -4.3658821   -3.1595935  0.021362097   -4.3658821    1.2062886  1010000 
 2158000   0.80372723   -4.3655711   -4.3655711   -3.1599815  0.024195911   -4.3655711    1.2055896  1010000 
 2159000   0.80442689   -4.3664166   -4.3664166   -3.1597775  0.020197186   -4.3664166    1.2066391  1010000 
 2160000   0.80411113   -4.3659481   -4.3659481   -3.1597826  0.023464752   -4.3659481    1.2061655  1010000 
 2161000    0.8046816   -4.3672937   -4.3672937   -3.1602725  0.020778453   -4.3672937    1.2070212  1010000 
 2162000   0.80411279   -4.3669035   -4.3669035   -3.1607355  0.023534053   -4.3669035     1.206168  1010000 
 2163000   0.80362623    -4.366595    -4.366595   -3.1611568  0.021175986    -4.366595    1.2054382  1010000 
 2164000   0.80308925   -4.3654216   -4.3654216   -3.1607889  0.024740042   -4.3654216    1.2046327  1010000 
 2165000   0.80424805   -4.3669091   -4.3669091   -3.1605382  0.021248843   -4.3669091    1.2063709  1010000 
 2166000   0.80345736   -4.3662865   -4.3662865   -3.1611017  0.022555321   -4.3662865    1.2051848  1010000 
 2167000    0.8036659   -4.3667406   -4.3667406    -3.161243  0.018857006   -4.3667406    1.2054977  1010000 
 2168000   0.80317959   -4.3661086   -4.3661086   -3.1613404   0.02122011   -4.3661086    1.2047682  1010000 
 2169000   0.80323335   -4.3665105   -4.3665105   -3.1616617  0.021703832   -4.3665105    1.2048488  1010000 
 2170000   0.80338266   -4.3669289   -4.3669289   -3.1618561  0.019034716   -4.3669289    1.2050728  1010000 
 2171000    0.8032678   -4.3672519   -4.3672519   -3.1623514  0.020453981   -4.3672519    1.2049005  1010000 
 2172000    0.8030899    -4.367467    -4.367467   -3.1628333   0.01762354    -4.367467    1.2046337  1010000 
 2173000   0.80331058   -4.3679498   -4.3679498   -3.1629851  0.014992215   -4.3679498    1.2049647  1010000 
 2174000    0.8035714   -4.3683391   -4.3683391   -3.1629832  0.016271567   -4.3683391    1.2053559  1010000 
 2175000   0.80284935    -4.367288    -4.367288   -3.1630152   0.02048914    -4.367288    1.2042728  1010000 
 2176000   0.80292292   -4.3675588   -4.3675588   -3.1631756  0.020921109   -4.3675588    1.2043832  1010000 
 2177000   0.80353566   -4.3678743   -4.3678743    -3.162572  0.021740737   -4.3678743    1.2053023  1010000 
 2178000   0.80390277   -4.3681675   -4.3681675   -3.1623145  0.022674762   -4.3681675     1.205853  1010000 
 2179000   0.80308382   -4.3669697   -4.3669697   -3.1623452  0.026089164   -4.3669697    1.2046245  1010000 
 2180000   0.80372553   -4.3679238   -4.3679238   -3.1623367  0.023561155   -4.3679238    1.2055871  1010000 
 2181000   0.80349373   -4.3671099   -4.3671099   -3.1618705   0.02278661   -4.3671099    1.2052394  1010000 
 2182000   0.80379238   -4.3683116   -4.3683116   -3.1626242  0.018487107   -4.3683116    1.2056874  1010000 
 2183000   0.80382606   -4.3688918   -4.3688918   -3.1631539  0.017362117   -4.3688918    1.2057379  1010000 
 2184000   0.80256429   -4.3675622   -4.3675622    -3.163717  0.023746489   -4.3675622    1.2038452  1010000 
 2185000   0.80417766    -4.369569    -4.369569   -3.1633037  0.018502929    -4.369569    1.2062653  1010000 
 2186000   0.80318408   -4.3689155   -4.3689155   -3.1641406  0.021685399   -4.3689155    1.2047749  1010000 
 2187000   0.80336573   -4.3691535   -4.3691535   -3.1641061  0.018302317   -4.3691535    1.2050474  1010000 
 2188000   0.80314502   -4.3689363   -4.3689363   -3.1642199  0.016824875   -4.3689363    1.2047163  1010000 
 2189000   0.80345148   -4.3694413   -4.3694413   -3.1642653  0.015951681   -4.3694413     1.205176  1010000 
 2190000   0.80210818   -4.3672748   -4.3672748   -3.1641137  0.022023181   -4.3672748    1.2031611  1010000 
 2191000   0.80330102    -4.368846    -4.368846   -3.1638957  0.017588842    -4.368846    1.2049503  1010000 
 2192000   0.80272532   -4.3682066   -4.3682066   -3.1641198   0.01983897   -4.3682066    1.2040868  1010000 
 2193000   0.80296313   -4.3689292   -4.3689292   -3.1644857    0.0172059   -4.3689292    1.2044435  1010000 
 2194000   0.80349923   -4.3699277   -4.3699277   -3.1646801  0.018394924   -4.3699277    1.2052476  1010000 
 2195000   0.80290203   -4.3681463   -4.3681463   -3.1637945  0.020959406   -4.3681463    1.2043518  1010000 
 2196000   0.80351578   -4.3696654   -4.3696654   -3.1643929  0.019536386   -4.3696654    1.2052725  1010000 
 2197000   0.80300467   -4.3687922   -4.3687922   -3.1642864  0.021955042   -4.3687922    1.2045058  1010000 
 2198000   0.80306612    -4.369328    -4.369328     -3.16473  0.021987584    -4.369328     1.204598  1010000 
 2199000   0.80273124   -4.3693138   -4.3693138   -3.1652182  0.020675332   -4.3693138    1.2040957  1010000 
 2200000   0.80324083   -4.3696077   -4.3696077   -3.1647477  0.026165288   -4.3696077    1.2048601  1010000 
 2201000   0.80388776   -4.3698988   -4.3698988   -3.1640684  0.025012938   -4.3698988    1.2058304  1010000 
 2202000   0.80262311   -4.3684957   -4.3684957   -3.1645622  0.026125885   -4.3684957    1.2039335  1010000 
 2203000   0.80282878   -4.3692147   -4.3692147   -3.1649727  0.022470524   -4.3692147     1.204242  1010000 
 2204000   0.80270143   -4.3697853   -4.3697853   -3.1657343  0.017390344   -4.3697853    1.2040509  1010000 
 2205000    0.8028917   -4.3705546   -4.3705546   -3.1662182  0.015335361   -4.3705546    1.2043364  1010000 
 2206000   0.80238096   -4.3689938   -4.3689938   -3.1654236  0.019642127   -4.3689938    1.2035702  1010000 
 2207000   0.80248203   -4.3694989   -4.3694989   -3.1657771  0.018298073   -4.3694989    1.2037219  1010000 
 2208000   0.80208454   -4.3699214   -4.3699214   -3.1667958  0.020676576   -4.3699214    1.2031256  1010000 
 2209000   0.80120255   -4.3687779   -4.3687779   -3.1669752   0.02141126   -4.3687779    1.2018026  1010000 
 2210000   0.80203199    -4.370079    -4.370079   -3.1670322  0.017822717    -4.370079    1.2030468  1010000 
 2211000   0.80221133   -4.3702498   -4.3702498    -3.166934  0.019046132   -4.3702498    1.2033158  1010000 
 2212000   0.80313978     -4.37194     -4.37194   -3.1672315  0.014608616     -4.37194    1.2047085  1010000 
 2213000   0.80193166   -4.3703637   -4.3703637   -3.1674674   0.01881414   -4.3703637    1.2028963  1010000 
 2214000   0.80215471   -4.3710417   -4.3710417   -3.1678108  0.017695407   -4.3710417    1.2032309  1010000 
 2215000   0.80207786   -4.3710626   -4.3710626    -3.167947  0.019037326   -4.3710626    1.2031156  1010000 
 2216000   0.80268696   -4.3715742   -4.3715742    -3.167545    0.0173342   -4.3715742    1.2040293  1010000 
 2217000   0.80134838   -4.3696647   -4.3696647   -3.1676433  0.023469874   -4.3696647    1.2020214  1010000 
 2218000   0.80240161   -4.3706987   -4.3706987   -3.1670974  0.018947967   -4.3706987    1.2036012  1010000 
 2219000   0.80258098   -4.3714518   -4.3714518   -3.1675816  0.020109952   -4.3714518    1.2038703  1010000 
 2220000   0.80200282   -4.3706527   -4.3706527   -3.1676497  0.020316006   -4.3706527     1.203003  1010000 
 2221000   0.80172235   -4.3703311   -4.3703311   -3.1677488  0.023547721   -4.3703311    1.2025823  1010000 
 2222000   0.80251426    -4.371457    -4.371457   -3.1676868  0.020403245    -4.371457    1.2037702  1010000 
 2223000   0.80220632   -4.3713407   -4.3713407   -3.1680324  0.019269284   -4.3713407    1.2033083  1010000 
 2224000   0.80198815   -4.3715519   -4.3715519   -3.1685709  0.017875876   -4.3715519     1.202981  1010000 
 2225000   0.80229395   -4.3723685   -4.3723685   -3.1689288  0.019672585   -4.3723685    1.2034397  1010000 
 2226000    0.8011603   -4.3707094   -4.3707094   -3.1689702  0.021790776   -4.3707094    1.2017393  1010000 
 2227000   0.80270679   -4.3730589   -4.3730589   -3.1689999  0.019397423   -4.3730589     1.204059  1010000 
 2228000    0.8018615   -4.3719736   -4.3719736   -3.1691826  0.022570532   -4.3719736    1.2027911  1010000 
 2229000   0.80287947   -4.3735167   -4.3735167   -3.1691987  0.018933602   -4.3735167     1.204318  1010000 
 2230000   0.80241313    -4.373321    -4.373321   -3.1697025  0.022983031    -4.373321    1.2036185  1010000 
 2231000   0.80282824   -4.3741895   -4.3741895   -3.1699484   0.01916021   -4.3741895    1.2042412  1010000 
 2232000   0.80224636   -4.3736006   -4.3736006   -3.1702322  0.020488526   -4.3736006    1.2033684  1010000 
 2233000   0.80199455   -4.3737184   -4.3737184   -3.1707278  0.019200618   -4.3737184    1.2029906  1010000 
 2234000   0.80241401   -4.3739211   -4.3739211   -3.1703013  0.020946102   -4.3739211    1.2036198  1010000 
 2235000   0.80205393   -4.3730088   -4.3730088   -3.1699291  0.023251744   -4.3730088    1.2030797  1010000 
 2236000   0.80222874   -4.3731643   -4.3731643   -3.1698224  0.022495183   -4.3731643    1.2033419  1010000 
 2237000   0.80259933   -4.3732226   -4.3732226   -3.1693248  0.023347689   -4.3732226    1.2038978  1010000 
 2238000   0.80173401   -4.3728638   -4.3728638    -3.170264  0.022511797   -4.3728638    1.2025998  1010000 
 2239000   0.80287833   -4.3743401   -4.3743401   -3.1700238  0.020827607   -4.3743401    1.2043163  1010000 
 2240000   0.80215934   -4.3740055   -4.3740055   -3.1707677  0.021577998   -4.3740055    1.2032378  1010000 
 2241000   0.80155791   -4.3731378   -4.3731378   -3.1708021  0.023308508   -4.3731378    1.2023357  1010000 
 2242000   0.80249832   -4.3746516   -4.3746516   -3.1709053  0.022180353   -4.3746516    1.2037463  1010000 
 2243000   0.80195063    -4.374235    -4.374235   -3.1713103   0.02417122    -4.374235    1.2029248  1010000 
 2244000   0.80261511    -4.375525    -4.375525   -3.1716035  0.020402043    -4.375525    1.2039215  1010000 
 2245000    0.8015819   -4.3744758   -4.3744758   -3.1721041  0.021214785   -4.3744758    1.2023717  1010000 
 2246000   0.80232814   -4.3756395   -4.3756395   -3.1721484  0.022327393   -4.3756395     1.203491  1010000 
 2247000   0.80205271   -4.3747691   -4.3747691   -3.1716912  0.021132753   -4.3747691    1.2030779  1010000 
 2248000   0.80228757   -4.3754355   -4.3754355   -3.1720053  0.018427555   -4.3754355    1.2034302  1010000 
 2249000   0.80197159   -4.3751041   -4.3751041   -3.1721479  0.018914094   -4.3751041    1.2029562  1010000 
 2250000   0.80217405   -4.3747624   -4.3747624   -3.1715025   0.02281169   -4.3747624    1.2032599  1010000 
 2251000   0.80177256   -4.3738522   -4.3738522   -3.1711946   0.02322597   -4.3738522    1.2026577  1010000 
 2252000   0.80185796   -4.3742423   -4.3742423   -3.1714566  0.019156935   -4.3742423    1.2027857  1010000 
 2253000   0.80199714    -4.374615    -4.374615   -3.1716205  0.019712418    -4.374615    1.2029945  1010000 
 2254000   0.80163009    -4.373989    -4.373989    -3.171545  0.018035036    -4.373989    1.2024439  1010000 
 2255000   0.80161103   -4.3740893   -4.3740893    -3.171674  0.022434816   -4.3740893    1.2024154  1010000 
 2256000   0.80197867   -4.3748112   -4.3748112   -3.1718444  0.019043722   -4.3748112    1.2029668  1010000 
 2257000   0.80172739   -4.3740732   -4.3740732   -3.1714833   0.02097172   -4.3740732    1.2025899  1010000 
 2258000   0.80128364   -4.3737065   -4.3737065   -3.1717823  0.021737887   -4.3737065    1.2019243  1010000 
 2259000    0.8018512   -4.3747026   -4.3747026    -3.171927  0.019957645   -4.3747026    1.2027756  1010000 
 2260000   0.80164856   -4.3743972   -4.3743972   -3.1719256   0.01989326   -4.3743972    1.2024716  1010000 
 2261000   0.80236674   -4.3755292   -4.3755292   -3.1719803  0.016801018   -4.3755292    1.2035489  1010000 
 2262000   0.80227353   -4.3756735   -4.3756735   -3.1722644  0.018453943   -4.3756735    1.2034091  1010000 
 2263000   0.80171411   -4.3750028   -4.3750028   -3.1724328  0.016244062   -4.3750028      1.20257  1010000 
 2264000   0.80158584   -4.3745463   -4.3745463   -3.1721688  0.017492398   -4.3745463    1.2023776  1010000 
 2265000   0.80195763   -4.3750991   -4.3750991   -3.1721639  0.015519127   -4.3750991    1.2029353  1010000 
 2266000   0.80143552   -4.3746947   -4.3746947   -3.1725426  0.018655796   -4.3746947    1.2021521  1010000 
 2267000   0.80141247   -4.3751813   -4.3751813   -3.1730638  0.017302871   -4.3751813    1.2021175  1010000 
 2268000   0.80138843   -4.3751478   -4.3751478   -3.1730663  0.018763311   -4.3751478    1.2020815  1010000 
 2269000   0.80129372   -4.3752142   -4.3752142   -3.1732748  0.018796582   -4.3752142    1.2019394  1010000 
 2270000   0.80155237   -4.3755073   -4.3755073     -3.17318  0.018737789   -4.3755073    1.2023274  1010000 
 2271000   0.80042045   -4.3740996   -4.3740996   -3.1734702  0.018178404   -4.3740996    1.2006295  1010000 
 2272000   0.80116971   -4.3754347   -4.3754347   -3.1736814  0.014177139   -4.3754347    1.2017534  1010000 
 2273000   0.80143025   -4.3759481   -4.3759481   -3.1738039  0.016899605   -4.3759481    1.2021442  1010000 
 2274000   0.80059021   -4.3752444   -4.3752444   -3.1743602  0.019935801   -4.3752444    1.2008841  1010000 
 2275000   0.80112026   -4.3764825   -4.3764825   -3.1748033  0.015830325   -4.3764825    1.2016792  1010000 
 2276000   0.80092214   -4.3759254   -4.3759254   -3.1745434  0.018987364   -4.3759254     1.201382  1010000 
 2277000   0.80168353   -4.3768222   -4.3768222   -3.1742981  0.017802671   -4.3768222    1.2025241  1010000 
 2278000   0.80145909    -4.376918    -4.376918   -3.1747306  0.016925956    -4.376918    1.2021874  1010000 
 2279000   0.80121311   -4.3771266   -4.3771266   -3.1753081  0.018074331   -4.3771266    1.2018185  1010000 
 2280000   0.80060471   -4.3758641   -4.3758641   -3.1749582  0.020034557   -4.3758641    1.2009059  1010000 
 2281000    0.8015132   -4.3774267   -4.3774267   -3.1751581  0.015736931   -4.3774267    1.2022686  1010000 
 2282000   0.80072519   -4.3767644   -4.3767644   -3.1756778  0.020075657   -4.3767644    1.2010866  1010000 
 2283000   0.80138754   -4.3776196   -4.3776196   -3.1755394  0.019455402   -4.3776196    1.2020801  1010000 
 2284000   0.80129444   -4.3772211   -4.3772211   -3.1752806  0.020567153   -4.3772211    1.2019405  1010000 
 2285000   0.80163073   -4.3778592   -4.3778592   -3.1754143  0.020049036   -4.3778592    1.2024449  1010000 
 2286000   0.80106466   -4.3770477   -4.3770477   -3.1754519  0.022205434   -4.3770477    1.2015958  1010000 
 2287000   0.80152459   -4.3779577   -4.3779577    -3.175672   0.02109727   -4.3779577    1.2022857  1010000 
 2288000   0.80117077   -4.3777751   -4.3777751   -3.1760201  0.018558818   -4.3777751     1.201755  1010000 
 2289000   0.80101953   -4.3780747   -4.3780747   -3.1765466    0.0184621   -4.3780747    1.2015281  1010000 
 2290000   0.80084693   -4.3779151   -4.3779151   -3.1766459   0.02043846   -4.3779151    1.2012692  1010000 
 2291000   0.80073451   -4.3781806   -4.3781806     -3.17708  0.022467317   -4.3781806    1.2011006  1010000 
 2292000   0.80093181   -4.3791919   -4.3791919   -3.1777953  0.019397619   -4.3791919    1.2013965  1010000 
 2293000   0.80146734   -4.3801236   -4.3801236   -3.1779237  0.018517006   -4.3801236    1.2021998  1010000 
 2294000   0.80180972   -4.3804923   -4.3804923   -3.1777789   0.01624136   -4.3804923    1.2027134  1010000 
 2295000   0.80051934   -4.3790718   -4.3790718   -3.1782939  0.021635444   -4.3790718    1.2007778  1010000 
 2296000   0.80070363        -4.38        -4.38   -3.1789458  0.020575709        -4.38    1.2010543  1010000 
 2297000   0.80045806   -4.3795865   -4.3795865   -3.1789006  0.021197859   -4.3795865    1.2006859  1010000 
 2298000   0.80120844   -4.3807366   -4.3807366   -3.1789251  0.019212723   -4.3807366    1.2018115  1010000 
 2299000   0.80058128   -4.3803117   -4.3803117    -3.179441  0.018673036   -4.3803117    1.2008707  1010000 
 2300000   0.80065815   -4.3794742   -4.3794742   -3.1784881  0.018473288   -4.3794742     1.200986  1010000 
 2301000   0.80092979   -4.3801465   -4.3801465    -3.178753  0.018711454   -4.3801465    1.2013935  1010000 
 2302000   0.80179545   -4.3814763   -4.3814763   -3.1787844  0.017766433   -4.3814763     1.202692  1010000 
 2303000   0.80061276   -4.3798366   -4.3798366   -3.1789186  0.023160635   -4.3798366     1.200918  1010000 
 2304000   0.80183936   -4.3817882   -4.3817882   -3.1790304  0.017412291   -4.3817882    1.2027579  1010000 
 2305000   0.80147162   -4.3814584   -4.3814584   -3.1792522  0.021821329   -4.3814584    1.2022062  1010000 
 2306000   0.80104967   -4.3807428   -4.3807428   -3.1791695  0.023462183   -4.3807428    1.2015733  1010000 
 2307000   0.80082949   -4.3812019   -4.3812019   -3.1799588   0.02264469   -4.3812019     1.201243  1010000 
 2308000   0.80061773   -4.3803531   -4.3803531   -3.1794277  0.025088284   -4.3803531    1.2009254  1010000 
 2309000   0.80124969   -4.3810008   -4.3810008   -3.1791274  0.025233557   -4.3810008    1.2018733  1010000 
 2310000   0.80156537   -4.3812016   -4.3812016   -3.1788548   0.02124456   -4.3812016    1.2023469  1010000 
 2311000   0.80092265   -4.3806023   -4.3806023   -3.1792195  0.021863984   -4.3806023    1.2013828  1010000 
 2312000   0.80083003    -4.381085    -4.381085   -3.1798411  0.021360536    -4.381085    1.2012439  1010000 
 2313000   0.80100769   -4.3817794   -4.3817794   -3.1802691  0.022127132   -4.3817794    1.2015103  1010000 
 2314000   0.80072196   -4.3819002   -4.3819002   -3.1808184  0.017170096   -4.3819002    1.2010818  1010000 
 2315000   0.79989355   -4.3805433   -4.3805433   -3.1807042  0.021409233   -4.3805433    1.1998391  1010000 
 2316000   0.80081003   -4.3824003   -4.3824003   -3.1811864  0.018129725   -4.3824003    1.2012139  1010000 
 2317000   0.80028359   -4.3818658   -4.3818658   -3.1814416   0.01979595   -4.3818658    1.2004242  1010000 
 2318000   0.80052347   -4.3823713   -4.3823713   -3.1815873  0.017793862   -4.3823713     1.200784  1010000 
 2319000    0.7997468   -4.3811601   -4.3811601   -3.1815411  0.021133239   -4.3811601     1.199619  1010000 
 2320000   0.80018359   -4.3818793   -4.3818793   -3.1816051  0.017558883   -4.3818793    1.2002742  1010000 
 2321000   0.79960712   -4.3811658   -4.3811658   -3.1817563  0.019559365   -4.3811658    1.1994095  1010000 
 2322000   0.79994143   -4.3813647   -4.3813647   -3.1814537  0.020607163   -4.3813647     1.199911  1010000 
 2323000   0.80017697   -4.3820129   -4.3820129   -3.1817487  0.016920874   -4.3820129    1.2002643  1010000 
 2324000   0.80017985   -4.3824196   -4.3824196    -3.182151   0.01735689   -4.3824196    1.2002686  1010000 
 2325000   0.79982467   -4.3821041   -4.3821041   -3.1823683   0.02046103   -4.3821041    1.1997358  1010000 
 2326000   0.79959236   -4.3818043   -4.3818043   -3.1824169  0.017675437   -4.3818043    1.1993874  1010000 
 2327000    0.8003555   -4.3826187   -4.3826187   -3.1820866  0.019312826   -4.3826187    1.2005321  1010000 
 2328000   0.80043031   -4.3831081   -4.3831081   -3.1824638  0.016121119   -4.3831081    1.2006443  1010000 
 2329000   0.80010194   -4.3822907   -4.3822907    -3.182139  0.018645589   -4.3822907    1.2001517  1010000 
 2330000   0.79987626    -4.382001    -4.382001   -3.1821878  0.022148908    -4.382001    1.1998132  1010000 
 2331000   0.80095581   -4.3835935   -4.3835935    -3.182161  0.020251915   -4.3835935    1.2014325  1010000 
 2332000   0.79999683   -4.3819116   -4.3819116   -3.1819176   0.01800496   -4.3819116    1.1999941  1010000 
 2333000   0.80036853   -4.3822875   -4.3822875   -3.1817358  0.016846151   -4.3822875    1.2005516  1010000 
 2334000   0.80060122   -4.3832154   -4.3832154   -3.1823147  0.018908598   -4.3832154    1.2009006  1010000 
 2335000   0.80027475    -4.382804    -4.382804    -3.182393  0.018497882    -4.382804    1.2004109  1010000 
 2336000    0.8004197   -4.3824717   -4.3824717   -3.1818433  0.019876197   -4.3824717    1.2006284  1010000 
 2337000   0.80046054   -4.3831915   -4.3831915   -3.1825019  0.020886459   -4.3831915    1.2006896  1010000 
 2338000   0.80019059   -4.3832079   -4.3832079   -3.1829232  0.019685058   -4.3832079    1.2002847  1010000 
 2339000    0.7994648   -4.3818904   -4.3818904   -3.1826944   0.02647075   -4.3818904     1.199196  1010000 
 2340000   0.80134091   -4.3850705   -4.3850705   -3.1830604  0.014590135   -4.3850705    1.2020102  1010000 
 2341000   0.79974189   -4.3825575   -4.3825575   -3.1829459  0.021427898   -4.3825575    1.1996116  1010000 
 2342000   0.79934612   -4.3823418   -4.3823418   -3.1833238  0.018476158   -4.3823418     1.199018  1010000 
 2343000   0.79943435   -4.3829633   -4.3829633    -3.183813  0.017712639   -4.3829633    1.1991503  1010000 
 2344000   0.79956311    -4.383184    -4.383184   -3.1838405  0.016949777    -4.383184    1.1993435  1010000 
 2345000   0.80013343    -4.384769    -4.384769   -3.1845701  0.017877182    -4.384769     1.200199  1010000 
 2346000   0.80004439   -4.3843355   -4.3843355   -3.1842701  0.020077029   -4.3843355    1.2000654  1010000 
 2347000   0.79862749   -4.3820804   -4.3820804   -3.1841403  0.027686404   -4.3820804      1.19794  1010000 
 2348000   0.79991591   -4.3846724   -4.3846724   -3.1847998  0.017667007   -4.3846724    1.1998727  1010000 
 2349000   0.80000862   -4.3848118   -4.3848118      -3.1848  0.018190991   -4.3848118    1.2000117  1010000 
 2350000   0.79938716   -4.3842766   -4.3842766    -3.185197  0.017264787   -4.3842766    1.1990796  1010000 
 2351000   0.79934565   -4.3844384   -4.3844384   -3.1854211  0.019571479   -4.3844384    1.1990173  1010000 
 2352000    0.7995006   -4.3846592   -4.3846592   -3.1854095  0.019215987   -4.3846592    1.1992497  1010000 
 2353000   0.79894142   -4.3837844   -4.3837844   -3.1853735  0.021991425   -4.3837844    1.1984109  1010000 
 2354000   0.79981734   -4.3846788   -4.3846788    -3.184954  0.018011879   -4.3846788    1.1997248  1010000 
 2355000   0.79963723   -4.3845694   -4.3845694   -3.1851147  0.020419771   -4.3845694    1.1994547  1010000 
 2356000   0.79920005   -4.3835483   -4.3835483   -3.1847494  0.024133442   -4.3835483    1.1987989  1010000 
 2357000   0.80025553   -4.3853233   -4.3853233   -3.1849412  0.016331287   -4.3853233    1.2003821  1010000 
 2358000   0.79893341   -4.3835239   -4.3835239    -3.185125  0.024192533   -4.3835239    1.1983989  1010000 
 2359000   0.79963962   -4.3846948   -4.3846948   -3.1852366  0.020245941   -4.3846948    1.1994582  1010000 
 2360000   0.79946977   -4.3844915   -4.3844915    -3.185288  0.021821888   -4.3844915    1.1992035  1010000 
 2361000   0.80057056   -4.3862897   -4.3862897    -3.185435  0.017760512   -4.3862897    1.2008546  1010000 
 2362000    0.7994261   -4.3852659   -4.3852659   -3.1861279  0.018558331   -4.3852659     1.199138  1010000 
 2363000   0.79905337   -4.3852419   -4.3852419    -3.186663  0.018229391   -4.3852419    1.1985789  1010000 
 2364000   0.80001065   -4.3869883   -4.3869883   -3.1869736  0.018734322   -4.3869883    1.2000148  1010000 
 2365000   0.79889108   -4.3862119   -4.3862119   -3.1878765  0.017693356   -4.3862119    1.1983354  1010000 
 2366000   0.79858349   -4.3857867   -4.3857867   -3.1879126  0.020562103   -4.3857867     1.197874  1010000 
 2367000   0.79896604   -4.3870285   -4.3870285   -3.1885807  0.016405554   -4.3870285    1.1984479  1010000 
 2368000   0.79861761   -4.3863195   -4.3863195   -3.1883942  0.016156567   -4.3863195    1.1979252  1010000 
 2369000   0.79925135   -4.3870056   -4.3870056   -3.1881297   0.01602519   -4.3870056    1.1988758  1010000 
 2370000   0.79921419   -4.3866673   -4.3866673   -3.1878472  0.017165967   -4.3866673    1.1988201  1010000 
 2371000   0.79932557   -4.3873419   -4.3873419   -3.1883548  0.016285198   -4.3873419    1.1989872  1010000 
 2372000   0.79892011   -4.3871769   -4.3871769   -3.1887979  0.019572452   -4.3871769     1.198379  1010000 
 2373000   0.79797867   -4.3864473   -4.3864473   -3.1894805  0.018417639   -4.3864473    1.1969668  1010000 
 2374000   0.79848302   -4.3869672   -4.3869672   -3.1892439  0.019004257   -4.3869672    1.1977233  1010000 
 2375000   0.79842852   -4.3871306   -4.3871306    -3.189489  0.018175917   -4.3871306    1.1976416  1010000 
 2376000   0.79832465   -4.3869767   -4.3869767   -3.1894909  0.019676722   -4.3869767    1.1974858  1010000 
 2377000   0.79789052   -4.3868134   -4.3868134   -3.1899788  0.023240256   -4.3868134    1.1968346  1010000 
 2378000   0.79973876   -4.3891295   -4.3891295   -3.1895226  0.017174293   -4.3891295     1.199607  1010000 
 2379000   0.79960548   -4.3890599   -4.3890599   -3.1896529  0.019807822   -4.3890599     1.199407  1010000 
 2380000   0.80021544   -4.3897545   -4.3897545   -3.1894325  0.017873449   -4.3897545     1.200322  1010000 
 2381000    0.8002175   -4.3898799   -4.3898799   -3.1895549  0.020131755   -4.3898799    1.2003251  1010000 
 2382000   0.80030546   -4.3901877   -4.3901877   -3.1897307  0.022567458   -4.3901877     1.200457  1010000 
 2383000   0.79977118   -4.3896042   -4.3896042   -3.1899486  0.021205904   -4.3896042    1.1996556  1010000 
 2384000   0.80025823   -4.3904197   -4.3904197   -3.1900335  0.019766267   -4.3904197    1.2003862  1010000 
 2385000   0.79987943   -4.3906072   -4.3906072   -3.1907892   0.01910215   -4.3906072     1.199818  1010000 
 2386000   0.79934066   -4.3898255   -4.3898255   -3.1908156  0.021835339   -4.3898255    1.1990098  1010000 
 2387000   0.79844165    -4.388984    -4.388984   -3.1913227  0.021346007    -4.388984    1.1976613  1010000 
 2388000   0.79954858   -4.3909578   -4.3909578   -3.1916361  0.019031504   -4.3909578    1.1993217  1010000 
 2389000   0.79875301   -4.3903346   -4.3903346   -3.1922063   0.02125938   -4.3903346    1.1981283  1010000 
 2390000   0.79893993   -4.3905354   -4.3905354   -3.1921267  0.020132107   -4.3905354    1.1984087  1010000 
 2391000   0.79901235   -4.3904772   -4.3904772   -3.1919599  0.020982293   -4.3904772    1.1985173  1010000 
 2392000   0.79924813   -4.3906788   -4.3906788   -3.1918078  0.021006164   -4.3906788     1.198871  1010000 
 2393000   0.79780959   -4.3890024   -4.3890024   -3.1922892    0.0221389   -4.3890024    1.1967132  1010000 
 2394000    0.7985647   -4.3898236   -4.3898236   -3.1919778  0.021775436   -4.3898236    1.1978459  1010000 
 2395000   0.79884782   -4.3902652   -4.3902652   -3.1919947  0.022672909   -4.3902652    1.1982705  1010000 
 2396000   0.79812706   -4.3896692   -4.3896692   -3.1924798  0.022804505   -4.3896692    1.1971894  1010000 
 2397000   0.79984675   -4.3919161   -4.3919161   -3.1921471   0.02040293   -4.3919161    1.1997689  1010000 
 2398000   0.79872326   -4.3904064   -4.3904064   -3.1923227  0.021567791   -4.3904064    1.1980837  1010000 
 2399000   0.79892131   -4.3911079   -4.3911079   -3.1927272  0.021495759   -4.3911079    1.1983808  1010000 
 2400000   0.79900262   -4.3909704   -4.3909704   -3.1924676  0.021256146   -4.3909704    1.1985027  1010000 
 2401000   0.79894044   -4.3908865   -4.3908865    -3.192477  0.021399904   -4.3908865    1.1984095  1010000 
 2402000   0.79817853   -4.3906277   -4.3906277   -3.1933611  0.022748026   -4.3906277    1.1972666  1010000 
 2403000   0.79890406   -4.3915841   -4.3915841   -3.1932292  0.021100819   -4.3915841    1.1983549  1010000 
 2404000   0.79813016    -4.391196    -4.391196   -3.1940019    0.0179915    -4.391196    1.1971941  1010000 
 2405000    0.7985846   -4.3918785   -4.3918785   -3.1940028  0.018251582   -4.3918785    1.1978757  1010000 
 2406000   0.79888493   -4.3921373   -4.3921373   -3.1938111  0.013737762   -4.3921373    1.1983262  1010000 
 2407000   0.79747214   -4.3905412   -4.3905412   -3.1943342  0.018487773   -4.3905412     1.196207  1010000 
 2408000   0.79765864   -4.3911409   -4.3911409   -3.1946541  0.014774968   -4.3911409    1.1964868  1010000 
 2409000   0.79713588   -4.3899856   -4.3899856   -3.1942829  0.019562841   -4.3899856    1.1957026  1010000 
 2410000    0.7973404   -4.3904031   -4.3904031   -3.1943937  0.018244315   -4.3904031    1.1960094  1010000 
 2411000   0.79754996   -4.3902397   -4.3902397   -3.1939159  0.017407235   -4.3902397    1.1963238  1010000 
 2412000   0.79793932   -4.3913051   -4.3913051   -3.1943973  0.013858118   -4.3913051    1.1969078  1010000 
 2413000   0.79752904   -4.3909291   -4.3909291   -3.1946367  0.020736162   -4.3909291    1.1962924  1010000 
 2414000   0.79810802   -4.3914917   -4.3914917   -3.1943309  0.014435461   -4.3914917    1.1971608  1010000 
 2415000   0.79797424   -4.3918443   -4.3918443   -3.1948842  0.017480798   -4.3918443    1.1969602  1010000 
 2416000   0.79833356   -4.3921723   -4.3921723   -3.1946732  0.018834447   -4.3921723    1.1974992  1010000 
 2417000   0.79793207   -4.3918051   -4.3918051   -3.1949082  0.018852855   -4.3918051    1.1968969  1010000 
 2418000   0.79850598   -4.3927362   -4.3927362   -3.1949784  0.017320341   -4.3927362    1.1977578  1010000 
 2419000   0.79775579   -4.3918375   -4.3918375    -3.195205  0.019538668   -4.3918375    1.1966325  1010000 
 2420000   0.79840731   -4.3926277   -4.3926277   -3.1950179  0.018153445   -4.3926277    1.1976098  1010000 
 2421000   0.79841336   -4.3922549   -4.3922549   -3.1946361    0.0197096   -4.3922549    1.1976188  1010000 
 2422000   0.79894805   -4.3931088   -4.3931088   -3.1946879  0.017536581   -4.3931088    1.1984209  1010000 
 2423000   0.79761875    -4.391045    -4.391045    -3.194618  0.020163059    -4.391045    1.1964269  1010000 
 2424000   0.79731873   -4.3903616   -4.3903616   -3.1943847  0.020518982   -4.3903616    1.1959769  1010000 
 2425000   0.79802469   -4.3916244   -4.3916244   -3.1945885  0.021204025   -4.3916244    1.1970358  1010000 
 2426000   0.79837407   -4.3927182   -4.3927182   -3.1951583  0.020327437   -4.3927182    1.1975599  1010000 
 2427000    0.7972323   -4.3912489   -4.3912489   -3.1954016  0.018796771   -4.3912489    1.1958473  1010000 
 2428000   0.79744162   -4.3918209   -4.3918209   -3.1956596   0.02058311   -4.3918209    1.1961612  1010000 
 2429000   0.79816694   -4.3928989   -4.3928989   -3.1956496  0.018171596   -4.3928989    1.1972492  1010000 
 2430000    0.7977333   -4.3917467   -4.3917467   -3.1951479  0.023573227   -4.3917467    1.1965988  1010000 
 2431000   0.79789002   -4.3921637   -4.3921637   -3.1953298  0.021354771   -4.3921637    1.1968338  1010000 
 2432000    0.7981615   -4.3933798   -4.3933798   -3.1961387  0.018804953   -4.3933798    1.1972411  1010000 
 2433000   0.79851852   -4.3933896   -4.3933896    -3.195613  0.020103123   -4.3933896    1.1977766  1010000 
 2434000   0.79778232   -4.3925085   -4.3925085   -3.1958362  0.022890661   -4.3925085    1.1966723  1010000 
 2435000   0.79734453   -4.3921752   -4.3921752   -3.1961595  0.021685773   -4.3921752    1.1960156  1010000 
 2436000   0.79741551   -4.3919801   -4.3919801   -3.1958581  0.021750836   -4.3919801    1.1961221  1010000 
 2437000   0.79778156   -4.3927454   -4.3927454   -3.1960743  0.017488594   -4.3927454    1.1966712  1010000 
 2438000   0.79784173   -4.3928646   -4.3928646   -3.1961032  0.019832513   -4.3928646    1.1967614  1010000 
 2439000   0.79814967   -4.3936581   -4.3936581   -3.1964348   0.01967428   -4.3936581    1.1972233  1010000 
 2440000   0.79793987   -4.3933909   -4.3933909   -3.1964823  0.021181908   -4.3933909    1.1969086  1010000 
 2441000    0.7981346   -4.3942635   -4.3942635   -3.1970628  0.019098874   -4.3942635    1.1972007  1010000 
 2442000   0.79714175   -4.3931397   -4.3931397   -3.1974282  0.020118841   -4.3931397    1.1957114  1010000 
 2443000   0.79735731   -4.3937531   -4.3937531   -3.1977184  0.019592015   -4.3937531    1.1960348  1010000 
 2444000   0.79630513   -4.3920906   -4.3920906   -3.1976341   0.02096634   -4.3920906    1.1944565  1010000 
 2445000   0.79704096   -4.3927818   -4.3927818   -3.1972215   0.01766756   -4.3927818    1.1955603  1010000 
 2446000    0.7965992   -4.3928608   -4.3928608   -3.1979632  0.017103168   -4.3928608    1.1948976  1010000 
 2447000   0.79705979    -4.393617    -4.393617   -3.1980285  0.018493228    -4.393617    1.1955885  1010000 
 2448000    0.7965045   -4.3926116   -4.3926116   -3.1978561  0.022589712   -4.3926116    1.1947556  1010000 
 2449000    0.7965106   -4.3932293   -4.3932293   -3.1984646  0.017783646   -4.3932293    1.1947647  1010000 
 2450000   0.79677946   -4.3944838   -4.3944838   -3.1993158  0.018704882   -4.3944838     1.195168  1010000 
 2451000   0.79700746     -4.39508     -4.39508     -3.19957  0.017678185     -4.39508      1.19551  1010000 
 2452000   0.79686998   -4.3949485   -4.3949485   -3.1996447  0.016606409   -4.3949485    1.1953038  1010000 
 2453000   0.79726252   -4.3955129   -4.3955129   -3.1996203  0.017209575   -4.3955129    1.1958926  1010000 
 2454000   0.79667643   -4.3948033   -4.3948033   -3.1997898  0.015874473   -4.3948033    1.1950135  1010000 
 2455000   0.79661218   -4.3944899   -4.3944899   -3.1995728    0.0180336   -4.3944899    1.1949171  1010000 
 2456000    0.7975392   -4.3954326   -4.3954326    -3.199125  0.018837943   -4.3954326    1.1963076  1010000 
 2457000   0.79741662   -4.3959722   -4.3959722   -3.1998485  0.016530059   -4.3959722    1.1961238  1010000 
 2458000   0.79714759   -4.3956391   -4.3956391   -3.1999189  0.018110278   -4.3956391    1.1957202  1010000 
 2459000   0.79738191    -4.396062    -4.396062   -3.1999904  0.017733701    -4.396062    1.1960717  1010000 
 2460000   0.79675971   -4.3955682   -4.3955682   -3.2004298  0.017522683   -4.3955682    1.1951384  1010000 
 2461000    0.7971994   -4.3964073   -4.3964073   -3.2006094  0.014134375   -4.3964073    1.1957979  1010000 
 2462000   0.79679408   -4.3960341   -4.3960341   -3.2008441  0.017474969   -4.3960341    1.1951899  1010000 
 2463000   0.79684142   -4.3964636   -4.3964636   -3.2012026  0.018041846   -4.3964636     1.195261  1010000 
 2464000   0.79727355    -4.396975    -4.396975   -3.2010658  0.016652173    -4.396975    1.1959091  1010000 
 2465000   0.79736941    -4.397133    -4.397133   -3.2010801  0.016176986    -4.397133    1.1960529  1010000 
 2466000   0.79690801     -4.39704     -4.39704   -3.2016792  0.019281786     -4.39704    1.1953608  1010000 
 2467000   0.79664773   -4.3966454   -4.3966454    -3.201675  0.018660519   -4.3966454    1.1949704  1010000 
 2468000   0.79670247   -4.3974067   -4.3974067   -3.2023542  0.016496814   -4.3974067    1.1950525  1010000 
 2469000   0.79701138   -4.3980825   -4.3980825   -3.2025666  0.018098202   -4.3980825    1.1955159  1010000 
 2470000   0.79695765   -4.3980466   -4.3980466   -3.2026113  0.019739051   -4.3980466    1.1954353  1010000 
 2471000   0.79720047   -4.3985308   -4.3985308   -3.2027312   0.01984509   -4.3985308    1.1957995  1010000 
 2472000   0.79629539   -4.3975347   -4.3975347   -3.2030928   0.02351643   -4.3975347    1.1944419  1010000 
 2473000   0.79657833   -4.3981023   -4.3981023   -3.2032359  0.020444968   -4.3981023    1.1948663  1010000 
 2474000    0.7974617   -4.3999324   -4.3999324    -3.203741  0.018064464   -4.3999324    1.1961914  1010000 
 2475000   0.79641003   -4.3980679   -4.3980679   -3.2034541  0.026029152   -4.3980679    1.1946139  1010000 
 2476000   0.79718763   -4.3992176   -4.3992176   -3.2034374  0.020668255   -4.3992176    1.1957803  1010000 
 2477000   0.79725275    -4.399368    -4.399368   -3.2034901  0.022322233    -4.399368    1.1958779  1010000 
 2478000   0.79715026   -4.3997136   -4.3997136   -3.2039894  0.024277041   -4.3997136    1.1957242  1010000 
 2479000   0.79726726   -4.3997788   -4.3997788   -3.2038791  0.022345177   -4.3997788    1.1958997  1010000 
 2480000   0.79781599   -4.4001345   -4.4001345   -3.2034117  0.019816194   -4.4001345    1.1967228  1010000 
 2481000    0.7965762    -4.398421    -4.398421   -3.2035579  0.023930043    -4.398421    1.1948631  1010000 
 2482000   0.79796515   -4.4002362   -4.4002362   -3.2032896  0.022537781   -4.4002362    1.1969465  1010000 
 2483000   0.79692215   -4.3991175   -4.3991175   -3.2037355  0.022774293   -4.3991175     1.195382  1010000 
 2484000   0.79637077   -4.3984589   -4.3984589   -3.2039039  0.025339175   -4.3984589     1.194555  1010000 
 2485000   0.79673425   -4.3992382   -4.3992382    -3.204138  0.022889152   -4.3992382    1.1951002  1010000 
 2486000   0.79653442   -4.3992242   -4.3992242   -3.2044238  0.023843892   -4.3992242    1.1948005  1010000 
 2487000    0.7971803   -4.3998463   -4.3998463    -3.204077  0.022377871   -4.3998463    1.1957693  1010000 
 2488000   0.79733183   -4.4003496   -4.4003496   -3.2043531  0.021294878   -4.4003496    1.1959966  1010000 
 2489000   0.79718722   -4.3999986   -4.3999986   -3.2042189  0.020910531   -4.3999986    1.1957796  1010000 
 2490000   0.79692875    -4.399494    -4.399494    -3.204102  0.017493087    -4.399494    1.1953919  1010000 
 2491000   0.79711203   -4.4000947   -4.4000947   -3.2044278  0.017539425   -4.4000947    1.1956669  1010000 
 2492000    0.7963491   -4.3991435   -4.3991435    -3.204621  0.020750699   -4.3991435    1.1945225  1010000 
 2493000   0.79648094   -4.3996042   -4.3996042    -3.204884  0.018653332   -4.3996042    1.1947202  1010000 
 2494000   0.79669939   -4.3992113   -4.3992113   -3.2041634  0.021519243   -4.3992113    1.1950479  1010000 
 2495000   0.79685854   -4.4001977   -4.4001977   -3.2049111  0.016194587   -4.4001977    1.1952866  1010000 
 2496000   0.79561786   -4.3984974   -4.3984974   -3.2050718  0.019193881   -4.3984974    1.1934256  1010000 
 2497000   0.79632399   -4.3998396   -4.3998396   -3.2053548  0.017407744   -4.3998396    1.1944848  1010000 
 2498000   0.79546489   -4.3984977   -4.3984977   -3.2053015  0.015498956   -4.3984977    1.1931962  1010000 
 2499000   0.79573615   -4.3999025   -4.3999025   -3.2062994  0.014184492   -4.3999025     1.193603  1010000 
 2500000   0.79527142   -4.3989342   -4.3989342   -3.2060282  0.017506719   -4.3989342    1.1929059  1010000 
 2501000   0.79550923   -4.3994267   -4.3994267    -3.206164  0.016202325   -4.3994267    1.1932627  1010000 
 2502000   0.79516266   -4.3989379   -4.3989379   -3.2061951  0.014968149   -4.3989379    1.1927428  1010000 
 2503000   0.79546234   -4.3986894   -4.3986894    -3.205497  0.015642347   -4.3986894    1.1931923  1010000 
 2504000   0.79557553   -4.3993616   -4.3993616   -3.2059995  0.017874855   -4.3993616    1.1933621  1010000 
 2505000   0.79577567   -4.3996221   -4.3996221   -3.2059597  0.016496702   -4.3996221    1.1936623  1010000 
 2506000   0.79626741   -4.4007256   -4.4007256   -3.2063257  0.013411859   -4.4007256    1.1943999  1010000 
 2507000   0.79591589   -4.4002792   -4.4002792   -3.2064065  0.013903079   -4.4002792    1.1938727  1010000 
 2508000   0.79557148   -4.4004711   -4.4004711   -3.2071151  0.016764383   -4.4004711     1.193356  1010000 
 2509000   0.79433563   -4.3991625   -4.3991625   -3.2076603  0.018067632   -4.3991625    1.1915023  1010000 
 2510000    0.7952164   -4.4010403   -4.4010403   -3.2082169  0.014354174   -4.4010403    1.1928234  1010000 
 2511000   0.79498027   -4.4005554   -4.4005554   -3.2080862  0.017166739   -4.4005554    1.1924692  1010000 
 2512000   0.79547947   -4.4014072   -4.4014072   -3.2081891  0.017000012   -4.4014072     1.193218  1010000 
 2513000   0.79501469   -4.4004813   -4.4004813   -3.2079604  0.017819707   -4.4004813    1.1925209  1010000 
 2514000   0.79606858   -4.4019298   -4.4019298   -3.2078281  0.016669106   -4.4019298    1.1941017  1010000 
 2515000    0.7959611   -4.4014482   -4.4014482   -3.2075077  0.018761773   -4.4014482    1.1939405  1010000 
 2516000   0.79573776   -4.4015154   -4.4015154   -3.2079099  0.017132553   -4.4015154    1.1936055  1010000 
 2517000    0.7960795   -4.4022426   -4.4022426   -3.2081246  0.016746224   -4.4022426    1.1941181  1010000 
 2518000   0.79592337    -4.402515    -4.402515   -3.2086311     0.017944    -4.402515    1.1938839  1010000 
 2519000   0.79578008   -4.4025788   -4.4025788   -3.2089099  0.019394344   -4.4025788    1.1936689  1010000 
 2520000   0.79570138   -4.4029697   -4.4029697   -3.2094188  0.016812583   -4.4029697    1.1935509  1010000 
 2521000   0.79496857   -4.4022509   -4.4022509   -3.2097992   0.02085446   -4.4022509    1.1924517  1010000 
 2522000   0.79598812   -4.4032705   -4.4032705   -3.2092895  0.020974097   -4.4032705     1.193981  1010000 
 2523000   0.79600849     -4.40387     -4.40387   -3.2098585  0.022151907     -4.40387    1.1940115  1010000 
 2524000   0.79608328   -4.4044668   -4.4044668    -3.210343  0.019942978   -4.4044668    1.1941237  1010000 
 2525000   0.79644373     -4.40466     -4.40466   -3.2099956   0.01740681     -4.40466    1.1946644  1010000 
 2526000    0.7965173   -4.4043652   -4.4043652   -3.2095905  0.018108782   -4.4043652    1.1947748  1010000 
 2527000   0.79663396   -4.4045371   -4.4045371   -3.2095873  0.020626767   -4.4045371    1.1949498  1010000 
 2528000   0.79603726   -4.4034528   -4.4034528    -3.209398  0.021972008   -4.4034528    1.1940547  1010000 
 2529000   0.79605507   -4.4045008   -4.4045008   -3.2104194  0.019815496   -4.4045008    1.1940814  1010000 
 2530000   0.79621083   -4.4049767   -4.4049767   -3.2106617  0.019499879   -4.4049767    1.1943151  1010000 
 2531000   0.79556873   -4.4043154   -4.4043154   -3.2109634  0.020991193   -4.4043154    1.1933519  1010000 
 2532000   0.79549056   -4.4045812   -4.4045812   -3.2113465    0.0197525   -4.4045812    1.1932347  1010000 
 2533000   0.79513965   -4.4042795   -4.4042795   -3.2115712  0.018284341   -4.4042795    1.1927083  1010000 
 2534000   0.79583342   -4.4053917   -4.4053917   -3.2116427  0.020007975   -4.4053917     1.193749  1010000 
 2535000   0.79549522   -4.4049557   -4.4049557   -3.2117141  0.021773267   -4.4049557    1.1932417  1010000 
 2536000   0.79482995   -4.4048124   -4.4048124   -3.2125687  0.020348306   -4.4048124    1.1922437  1010000 
 2537000   0.79514018   -4.4050849   -4.4050849   -3.2123759  0.020407904   -4.4050849    1.1927091  1010000 
 2538000   0.79518992   -4.4056477   -4.4056477    -3.212864  0.020084327   -4.4056477    1.1927837  1010000 
 2539000   0.79515745   -4.4056954   -4.4056954   -3.2129604  0.019011895   -4.4056954     1.192735  1010000 
 2540000   0.79502557     -4.40537     -4.40537   -3.2128328  0.017776358     -4.40537    1.1925372  1010000 
 2541000   0.79477324   -4.4045439   -4.4045439   -3.2123852  0.022083448   -4.4045439    1.1921587  1010000 
 2542000   0.79466722   -4.4044148   -4.4044148   -3.2124152  0.021356882   -4.4044148    1.1919997  1010000 
 2543000   0.79482047   -4.4052278   -4.4052278   -3.2129983  0.019209694   -4.4052278    1.1922295  1010000 
 2544000   0.79552045     -4.40562     -4.40562   -3.2123405    0.0189106     -4.40562    1.1932795  1010000 
 2545000   0.79499795   -4.4054078   -4.4054078    -3.212912  0.019677642   -4.4054078    1.1924957  1010000 
 2546000   0.79548921   -4.4057756   -4.4057756   -3.2125429  0.021128437   -4.4057756    1.1932326  1010000 
 2547000   0.79560614   -4.4056995   -4.4056995   -3.2122915  0.020382634   -4.4056995     1.193408  1010000 
 2548000   0.79506012   -4.4054489   -4.4054489   -3.2128599  0.024181181   -4.4054489     1.192589  1010000 
 2549000   0.79597716   -4.4070585   -4.4070585    -3.213094  0.017134426   -4.4070585    1.1939646  1010000 
 2550000   0.79602119   -4.4069162   -4.4069162   -3.2128856  0.021941324   -4.4069162    1.1940306  1010000 
 2551000   0.79531815   -4.4060656   -4.4060656   -3.2130896  0.022482824   -4.4060656     1.192976  1010000 
 2552000   0.79486095   -4.4045903   -4.4045903      -3.2123  0.022716801   -4.4045903    1.1922902  1010000 
 2553000   0.79552712   -4.4058357   -4.4058357   -3.2125462  0.018792768   -4.4058357    1.1932895  1010000 
 2554000   0.79506776   -4.4054511   -4.4054511   -3.2128507  0.019252068   -4.4054511    1.1926005  1010000 
 2555000   0.79501301   -4.4049038   -4.4049038   -3.2123855  0.022057853   -4.4049038    1.1925183  1010000 
 2556000   0.79449112   -4.4041163   -4.4041163   -3.2123808  0.022815838   -4.4041163    1.1917355  1010000 
 2557000   0.79506099   -4.4056153   -4.4056153    -3.213025  0.018080769   -4.4056153    1.1925903  1010000 
 2558000    0.7946006   -4.4055679   -4.4055679   -3.2136682  0.018458069   -4.4055679    1.1918997  1010000 
 2559000   0.79432613    -4.405365    -4.405365    -3.213877  0.016876963    -4.405365     1.191488  1010000 
 2560000    0.7945414   -4.4056989   -4.4056989    -3.213888  0.016987409   -4.4056989    1.1918109  1010000 
 2561000   0.79472567   -4.4056327   -4.4056327   -3.2135454   0.01702917   -4.4056327    1.1920873  1010000 
 2562000   0.79429833   -4.4058424   -4.4058424   -3.2143961  0.017131229   -4.4058424    1.1914463  1010000 
 2563000   0.79479093   -4.4061683   -4.4061683   -3.2139831  0.014732883   -4.4061683    1.1921852  1010000 
 2564000   0.79425448   -4.4054806   -4.4054806   -3.2141001  0.019048098   -4.4054806    1.1913805  1010000 
 2565000   0.79436757   -4.4053631   -4.4053631    -3.213813  0.014807281   -4.4053631    1.1915502  1010000 
 2566000   0.79447637   -4.4054913   -4.4054913   -3.2137779  0.016839307   -4.4054913    1.1917134  1010000 
 2567000   0.79418763   -4.4055406   -4.4055406   -3.2142603  0.016095245   -4.4055406    1.1912803  1010000 
 2568000   0.79426695   -4.4057746   -4.4057746   -3.2143754   0.01807968   -4.4057746    1.1913992  1010000 
 2569000   0.79440187   -4.4059846   -4.4059846    -3.214383   0.01401271   -4.4059846    1.1916016  1010000 
 2570000   0.79399402   -4.4051676   -4.4051676   -3.2141777   0.01868695   -4.4051676    1.1909899  1010000 
 2571000   0.79408676    -4.405531    -4.405531   -3.2144021   0.01844503    -4.405531     1.191129  1010000 
 2572000   0.79456916   -4.4065026   -4.4065026   -3.2146501  0.014964495   -4.4065026    1.1918526  1010000 
 2573000   0.79451554   -4.4069822   -4.4069822   -3.2152101  0.016419511   -4.4069822    1.1917721  1010000 
 2574000   0.79467588   -4.4071559   -4.4071559   -3.2151432  0.016678174   -4.4071559    1.1920126  1010000 
 2575000   0.79389302   -4.4067465   -4.4067465   -3.2159082  0.015083919   -4.4067465    1.1908384  1010000 
 2576000   0.79457189   -4.4083619   -4.4083619   -3.2165053  0.014556672   -4.4083619    1.1918567  1010000 
 2577000   0.79337994   -4.4065649   -4.4065649   -3.2164962  0.016604489   -4.4065649    1.1900687  1010000 
 2578000   0.79421692   -4.4080515   -4.4080515   -3.2167274  0.013665304   -4.4080515    1.1913242  1010000 
 2579000   0.79355031   -4.4068997   -4.4068997   -3.2165754  0.016866684   -4.4068997    1.1903243  1010000 
 2580000   0.79299007   -4.4061728   -4.4061728   -3.2166889  0.019561662   -4.4061728    1.1894839  1010000 
 2581000   0.79476187   -4.4083952   -4.4083952   -3.2162535  0.017708445   -4.4083952    1.1921416  1010000 
 2582000   0.79474216    -4.408461    -4.408461    -3.216349  0.016113612    -4.408461    1.1921121  1010000 
 2583000   0.79411495   -4.4078541   -4.4078541   -3.2166828  0.014120362   -4.4078541    1.1911712  1010000 
 2584000   0.79327069    -4.407129    -4.407129   -3.2172241  0.017990021    -4.407129    1.1899049  1010000 
 2585000   0.79379948     -4.40829     -4.40829    -3.217592  0.017531105     -4.40829     1.190698  1010000 
 2586000   0.79366236   -4.4084617   -4.4084617   -3.2179694  0.019556294   -4.4084617    1.1904924  1010000 
 2587000   0.79360501    -4.408655    -4.408655   -3.2182486   0.01775043    -4.408655    1.1904063  1010000 
 2588000   0.79376587   -4.4090097   -4.4090097   -3.2183621  0.019148088   -4.4090097    1.1906476  1010000 
 2589000    0.7937276   -4.4092794   -4.4092794   -3.2186891  0.019559331   -4.4092794    1.1905902  1010000 
 2590000   0.79465503   -4.4106927   -4.4106927   -3.2187114  0.018991721   -4.4106927    1.1919814  1010000 
 2591000   0.79408488    -4.409882    -4.409882   -3.2187558  0.020479331    -4.409882    1.1911261  1010000 
 2592000   0.79423421   -4.4099619   -4.4099619   -3.2186117  0.018948845   -4.4099619    1.1913501  1010000 
 2593000   0.79419251   -4.4103611   -4.4103611   -3.2190735  0.017305597   -4.4103611    1.1912876  1010000 
 2594000   0.79445517   -4.4105286   -4.4105286    -3.218847  0.019903879   -4.4105286    1.1916816  1010000 
 2595000   0.79486233   -4.4109736   -4.4109736   -3.2186813  0.021386997   -4.4109736    1.1922923  1010000 
 2596000   0.79486176   -4.4105084   -4.4105084   -3.2182169  0.022040809   -4.4105084    1.1922915  1010000 
 2597000   0.79534654   -4.4116393   -4.4116393   -3.2186207  0.021503929   -4.4116393    1.1930186  1010000 
 2598000   0.79496999   -4.4110465   -4.4110465   -3.2185927  0.024434072   -4.4110465    1.1924538  1010000 
 2599000   0.79539759   -4.4116536   -4.4116536   -3.2185584   0.02449877   -4.4116536    1.1930952  1010000 
 2600000   0.79588605   -4.4126539   -4.4126539    -3.218826  0.020519203   -4.4126539    1.1938279  1010000 
 2601000   0.79443056   -4.4114682   -4.4114682   -3.2198235  0.024581903   -4.4114682    1.1916447  1010000 
 2602000   0.79521921   -4.4126212   -4.4126212   -3.2197936  0.020837471   -4.4126212    1.1928276  1010000 
 2603000    0.7949729   -4.4122781   -4.4122781   -3.2198199  0.025766994   -4.4122781    1.1924582  1010000 
 2604000   0.79506805   -4.4121613   -4.4121613   -3.2195604  0.022616882   -4.4121613    1.1926009  1010000 
 2605000   0.79401931   -4.4107072   -4.4107072   -3.2196795   0.02471441   -4.4107072    1.1910278  1010000 
 2606000   0.79490218   -4.4118475   -4.4118475   -3.2194954  0.020979022   -4.4118475    1.1923521  1010000 
 2607000   0.79465871   -4.4117028   -4.4117028   -3.2197159  0.019688149   -4.4117028    1.1919869  1010000 
 2608000   0.79438497   -4.4111936   -4.4111936   -3.2196173  0.024945322   -4.4111936    1.1915763  1010000 
 2609000   0.79490489   -4.4128708   -4.4128708   -3.2205146   0.01793476   -4.4128708    1.1923562  1010000 
 2610000     0.794151   -4.4116675   -4.4116675   -3.2204422  0.020273148   -4.4116675    1.1912253  1010000 
 2611000   0.79357594    -4.411148    -4.411148   -3.2207853  0.018499627    -4.411148    1.1903627  1010000 
 2612000   0.79362283   -4.4114885   -4.4114885   -3.2210554  0.020252804   -4.4114885    1.1904331  1010000 
 2613000   0.79443254   -4.4120957   -4.4120957   -3.2204481  0.015573762   -4.4120957    1.1916476  1010000 
 2614000   0.79371572   -4.4119053   -4.4119053   -3.2213329  0.017175084   -4.4119053    1.1905724  1010000 
 2615000   0.79337772   -4.4116342   -4.4116342   -3.2215688  0.019258875   -4.4116342    1.1900654  1010000 
 2616000    0.7932845   -4.4114376   -4.4114376    -3.221512  0.015514801   -4.4114376    1.1899256  1010000 
 2617000   0.79352994   -4.4120055   -4.4120055   -3.2217117  0.016879739   -4.4120055    1.1902937  1010000 
 2618000    0.7933995   -4.4116421   -4.4116421    -3.221544  0.016071273   -4.4116421    1.1900981  1010000 
 2619000   0.79353333   -4.4119779   -4.4119779   -3.2216791  0.014644506   -4.4119779    1.1902988  1010000 
 2620000   0.79403966   -4.4126978   -4.4126978   -3.2216395  0.013783883   -4.4126978    1.1910583  1010000 
 2621000   0.79344638   -4.4113841   -4.4113841   -3.2212157  0.016606377   -4.4113841    1.1901684  1010000 
 2622000   0.79370919   -4.4117139   -4.4117139   -3.2211513  0.016292885   -4.4117139    1.1905626  1010000 
 2623000   0.79366712   -4.4117815   -4.4117815    -3.221282  0.014862096   -4.4117815    1.1904995  1010000 
 2624000   0.79309878   -4.4104622   -4.4104622   -3.2208152  0.016531118   -4.4104622     1.189647  1010000 
 2625000   0.79385547   -4.4119544   -4.4119544   -3.2211724   0.01435158   -4.4119544     1.190782  1010000 
 2626000   0.79323358   -4.4113401   -4.4113401   -3.2214909  0.015386396   -4.4113401    1.1898492  1010000 
 2627000   0.79346458   -4.4118092   -4.4118092   -3.2216135  0.016873511   -4.4118092    1.1901957  1010000 
 2628000   0.79343015   -4.4119893   -4.4119893   -3.2218452  0.015059966   -4.4119893    1.1901441  1010000 
 2629000   0.79288237   -4.4110239   -4.4110239   -3.2217015  0.015777789   -4.4110239    1.1893224  1010000 
 2630000   0.79340697   -4.4118312   -4.4118312   -3.2217219  0.013887027   -4.4118312    1.1901093  1010000 
 2631000   0.79314002   -4.4113603   -4.4113603   -3.2216514  0.018750384   -4.4113603    1.1897089  1010000 
 2632000   0.79327596   -4.4120639   -4.4120639   -3.2221511  0.012059765   -4.4120639    1.1899128  1010000 
 2633000   0.79351499   -4.4123115   -4.4123115   -3.2220402  0.016499948   -4.4123115    1.1902713  1010000 
 2634000   0.79365313   -4.4123804   -4.4123804   -3.2219019  0.013085085   -4.4123804    1.1904785  1010000 
 2635000   0.79342486   -4.4121526   -4.4121526   -3.2220165  0.016482976   -4.4121526    1.1901361  1010000 
 2636000   0.79308151   -4.4118433   -4.4118433   -3.2222222  0.020949405   -4.4118433    1.1896211  1010000 
 2637000   0.79323425   -4.4120785   -4.4120785   -3.2222283  0.019394818   -4.4120785    1.1898502  1010000 
 2638000   0.79314393   -4.4119659   -4.4119659   -3.2222512  0.020443734   -4.4119659    1.1897147  1010000 
 2639000   0.79338242   -4.4124031   -4.4124031   -3.2223306  0.019959525   -4.4124031    1.1900724  1010000 
 2640000   0.79330851   -4.4128323   -4.4128323   -3.2228707  0.019691608   -4.4128323    1.1899616  1010000 
 2641000   0.79330354   -4.4126042   -4.4126042   -3.2226501  0.018819941   -4.4126042    1.1899541  1010000 
 2642000   0.79357732   -4.4129403   -4.4129403   -3.2225755  0.020066063   -4.4129403    1.1903648  1010000 
 2643000   0.79329674   -4.4134985   -4.4134985   -3.2235546  0.016576662   -4.4134985    1.1899439  1010000 
 2644000    0.7935976   -4.4139109   -4.4139109   -3.2235156  0.014144334   -4.4139109    1.1903952  1010000 
 2645000   0.79330147   -4.4132011   -4.4132011   -3.2232501  0.021034844   -4.4132011     1.189951  1010000 
 2646000   0.79316194    -4.413365    -4.413365   -3.2236233  0.019458198    -4.413365    1.1897417  1010000 
 2647000   0.79372944   -4.4147213   -4.4147213   -3.2241284  0.018934319   -4.4147213     1.190593  1010000 
 2648000   0.79315865   -4.4137405   -4.4137405   -3.2240037  0.020827108   -4.4137405    1.1897368  1010000 
 2649000   0.79376955   -4.4152781   -4.4152781   -3.2246249  0.018535789   -4.4152781    1.1906532  1010000 
 2650000   0.79338148   -4.4148089   -4.4148089   -3.2247379  0.020172281   -4.4148089     1.190071  1010000 
 2651000   0.79317943   -4.4149123   -4.4149123   -3.2251443  0.021478239   -4.4149123     1.189768  1010000 
 2652000   0.79261415   -4.4145957   -4.4145957   -3.2256757   0.01837981   -4.4145957      1.18892  1010000 
 2653000   0.79331214   -4.4159306   -4.4159306   -3.2259636  0.017436962   -4.4159306     1.189967  1010000 
 2654000   0.79332505   -4.4161573   -4.4161573   -3.2261709  0.014549993   -4.4161573    1.1899864  1010000 
 2655000   0.79227036   -4.4149531   -4.4149531   -3.2265487   0.01901896   -4.4149531    1.1884044  1010000 
 2656000   0.79304481     -4.41598     -4.41598   -3.2264139  0.017270873     -4.41598     1.189566  1010000 
 2657000   0.79274244   -4.4161851   -4.4161851   -3.2270726  0.018717072   -4.4161851    1.1891125  1010000 
 2658000   0.79295993   -4.4171881   -4.4171881   -3.2277494  0.014031743   -4.4171881    1.1894387  1010000 
 2659000   0.79175399   -4.4159814   -4.4159814   -3.2283516  0.017493005   -4.4159814    1.1876298  1010000 
 2660000   0.79214616   -4.4162236   -4.4162236   -3.2280056  0.016367014   -4.4162236    1.1882181  1010000 
 2661000    0.7913687   -4.4149941   -4.4149941   -3.2279422  0.020106388   -4.4149941    1.1870519  1010000 
 2662000   0.79230681   -4.4166968   -4.4166968   -3.2282377  0.014636712   -4.4166968     1.188459  1010000 
 2663000   0.79267439     -4.41688     -4.41688   -3.2278696  0.017306359     -4.41688    1.1890104  1010000 
 2664000   0.79236265   -4.4165416   -4.4165416   -3.2279988  0.019511881   -4.4165416    1.1885428  1010000 
 2665000   0.79357749    -4.418204    -4.418204   -3.2278389  0.017377678    -4.418204    1.1903651  1010000 
 2666000   0.79285822   -4.4172454   -4.4172454   -3.2279592  0.019230929   -4.4172454    1.1892862  1010000 
 2667000   0.79334724   -4.4178161   -4.4178161   -3.2277964  0.020804601   -4.4178161    1.1900197  1010000 
 2668000   0.79310862   -4.4174703   -4.4174703   -3.2278086  0.022643266   -4.4174703    1.1896617  1010000 
 2669000   0.79331031   -4.4181099   -4.4181099   -3.2281456  0.018581514   -4.4181099    1.1899643  1010000 
 2670000   0.79333472   -4.4182281   -4.4182281   -3.2282272  0.017707692   -4.4182281    1.1900009  1010000 
 2671000   0.79209477   -4.4168394   -4.4168394   -3.2286985  0.025153383   -4.4168394     1.188141  1010000 
 2672000   0.79228948   -4.4169182   -4.4169182   -3.2284852  0.024103717   -4.4169182     1.188433  1010000 
 2673000   0.79298772   -4.4180324   -4.4180324    -3.228552  0.024302013   -4.4180324    1.1894804  1010000 
 2674000   0.79290923   -4.4182688   -4.4182688   -3.2289062  0.019513136   -4.4182688    1.1893627  1010000 
 2675000   0.79281225    -4.418182    -4.418182   -3.2289648  0.018060098    -4.418182    1.1892172  1010000 
 2676000    0.7925806   -4.4172234   -4.4172234   -3.2283537  0.020935438   -4.4172234    1.1888697  1010000 
 2677000   0.79243131   -4.4174354   -4.4174354   -3.2287896  0.020950147   -4.4174354    1.1886458  1010000 
 2678000   0.79286359   -4.4178214   -4.4178214   -3.2285272  0.021189217   -4.4178214    1.1892942  1010000 
 2679000   0.79209548    -4.417089    -4.417089    -3.228947  0.022075202    -4.417089     1.188142  1010000 
 2680000   0.79280296   -4.4181265   -4.4181265   -3.2289233  0.021476575   -4.4181265    1.1892033  1010000 
 2681000   0.79238146   -4.4180867   -4.4180867   -3.2295157  0.020423018   -4.4180867     1.188571  1010000 
 2682000   0.79296178   -4.4193866   -4.4193866   -3.2299451  0.016683864   -4.4193866    1.1894415  1010000 
 2683000   0.79228749    -4.418767    -4.418767   -3.2303369  0.017970834    -4.418767    1.1884301  1010000 
 2684000   0.79189417   -4.4187196   -4.4187196   -3.2308795  0.018899798   -4.4187196    1.1878401  1010000 
 2685000   0.79201361   -4.4189704   -4.4189704   -3.2309512  0.021372986   -4.4189704    1.1880192  1010000 
 2686000   0.79272302   -4.4197961   -4.4197961   -3.2307128  0.015687622   -4.4197961    1.1890833  1010000 
 2687000   0.79140303   -4.4173351   -4.4173351   -3.2302318  0.022963264   -4.4173351    1.1871034  1010000 
 2688000    0.7924081   -4.4187414   -4.4187414   -3.2301304  0.021048068   -4.4187414     1.188611  1010000 
 2689000   0.79250531   -4.4186284   -4.4186284   -3.2298716  0.021665224   -4.4186284    1.1887568  1010000 
 2690000   0.79202326   -4.4180369   -4.4180369   -3.2300032  0.016893734   -4.4180369    1.1880337  1010000 
 2691000   0.79264353   -4.4184906   -4.4184906   -3.2295265  0.018048982   -4.4184906    1.1889641  1010000 
 2692000    0.7920138   -4.4177105   -4.4177105    -3.229691   0.01994543   -4.4177105    1.1880195  1010000 
 2693000   0.79223504   -4.4182482   -4.4182482   -3.2298968   0.01488314   -4.4182482    1.1883514  1010000 
 2694000   0.79161672   -4.4174946   -4.4174946   -3.2300707  0.018704999   -4.4174946    1.1874239  1010000 
 2695000   0.79229368   -4.4186678   -4.4186678   -3.2302285  0.017086961   -4.4186678    1.1884393  1010000 
 2696000   0.79160189   -4.4191292   -4.4191292   -3.2317276  0.014171089   -4.4191292    1.1874017  1010000 
 2697000   0.79107567   -4.4180481   -4.4180481   -3.2314357  0.014858775   -4.4180481    1.1866123  1010000 
 2698000   0.79156962   -4.4189049   -4.4189049   -3.2315516  0.017292204   -4.4189049    1.1873532  1010000 
 2699000   0.79148047   -4.4186734   -4.4186734   -3.2314539  0.015675765   -4.4186734    1.1872195  1010000 
 2700000   0.79145254   -4.4187666   -4.4187666    -3.231589   0.01804749   -4.4187666    1.1871776  1010000 
 2701000   0.79179882   -4.4191489   -4.4191489   -3.2314519  0.014706173   -4.4191489    1.1876971  1010000 
 2702000   0.79178593   -4.4185772   -4.4185772   -3.2308995   0.01551615   -4.4185772    1.1876777  1010000 
 2703000   0.79148283   -4.4185003   -4.4185003   -3.2312773  0.016523032   -4.4185003    1.1872231  1010000 
 2704000   0.79240822   -4.4189241   -4.4189241    -3.230313  0.017946895   -4.4189241    1.1886111  1010000 
 2705000    0.7923223    -4.418475    -4.418475   -3.2299928  0.019076308    -4.418475    1.1884823  1010000 
 2706000   0.79188942   -4.4185844   -4.4185844   -3.2307514  0.019575969   -4.4185844     1.187833  1010000 
 2707000   0.79153311   -4.4186178   -4.4186178   -3.2313193  0.020476946   -4.4186178    1.1872985  1010000 
 2708000   0.79148287   -4.4183859   -4.4183859   -3.2311628  0.017828677   -4.4183859    1.1872231  1010000 
 2709000   0.79138996    -4.418818    -4.418818   -3.2317342  0.019193724    -4.418818    1.1870838  1010000 
 2710000   0.79138186   -4.4184945   -4.4184945   -3.2314228  0.020154187   -4.4184945    1.1870716  1010000 
 2711000   0.79121846   -4.4186804   -4.4186804   -3.2318539  0.013329985   -4.4186804    1.1868265  1010000 
 2712000   0.79163365   -4.4197108   -4.4197108   -3.2322615  0.013265022   -4.4197108    1.1874493  1010000 
 2713000    0.7917819    -4.419909    -4.419909   -3.2322373   0.01491135    -4.419909    1.1876717  1010000 
 2714000   0.79069342   -4.4182118   -4.4182118   -3.2321729  0.019184075   -4.4182118     1.186039  1010000 
 2715000   0.79219528   -4.4206066   -4.4206066   -3.2323149    0.0161675   -4.4206066    1.1882917  1010000 
 2716000   0.79142366   -4.4193906   -4.4193906   -3.2322563  0.019824778   -4.4193906    1.1871343  1010000 
 2717000   0.79128404   -4.4194587   -4.4194587   -3.2325338  0.016665696   -4.4194587    1.1869249  1010000 
 2718000   0.79256854   -4.4213804   -4.4213804   -3.2325288   0.01602403   -4.4213804    1.1888516  1010000 
 2719000   0.79114522    -4.419413    -4.419413   -3.2326963  0.019341017    -4.419413    1.1867167  1010000 
 2720000   0.79097329   -4.4195305   -4.4195305   -3.2330717  0.021115398   -4.4195305    1.1864588  1010000 
 2721000   0.79155871   -4.4204308   -4.4204308   -3.2330939   0.01830364   -4.4204308    1.1873369  1010000 
 2722000    0.7924305   -4.4221449   -4.4221449   -3.2335003  0.019194138   -4.4221449    1.1886446  1010000 
 2723000   0.79235377   -4.4220231   -4.4220231   -3.2334937  0.016992976   -4.4220231    1.1885295  1010000 
 2724000   0.79132862   -4.4203885   -4.4203885   -3.2333967  0.024017826   -4.4203885    1.1869917  1010000 
 2725000   0.79230515   -4.4213425   -4.4213425   -3.2328859  0.017405149   -4.4213425    1.1884565  1010000 
 2726000    0.7911697   -4.4202653   -4.4202653    -3.233512  0.021687228   -4.4202653    1.1867534  1010000 
 2727000   0.79156102   -4.4205822   -4.4205822   -3.2332419  0.022167146   -4.4205822    1.1873404  1010000 
 2728000   0.79207178   -4.4217969   -4.4217969   -3.2336905  0.019744068   -4.4217969    1.1881065  1010000 
 2729000   0.79285796   -4.4231336   -4.4231336   -3.2338478  0.016351564   -4.4231336    1.1892858  1010000 
 2730000   0.79176375   -4.4218077   -4.4218077   -3.2341632  0.018730413   -4.4218077    1.1876445  1010000 
 2731000   0.79164445   -4.4217034   -4.4217034   -3.2342379  0.020495021   -4.4217034    1.1874655  1010000 
 2732000   0.79155054   -4.4217228   -4.4217228   -3.2343982  0.016325061   -4.4217228    1.1873246  1010000 
 2733000   0.79192421    -4.422484    -4.422484   -3.2345989  0.018887736    -4.422484    1.1878851  1010000 
 2734000   0.79135249   -4.4222242   -4.4222242   -3.2351966  0.016590804   -4.4222242    1.1870276  1010000 
 2735000    0.7905084   -4.4215311   -4.4215311   -3.2357697    0.0177783   -4.4215311    1.1857614  1010000 
 2736000   0.79027444   -4.4210123   -4.4210123   -3.2356018   0.02106134   -4.4210123    1.1854105  1010000 
 2737000   0.79094275   -4.4221789   -4.4221789   -3.2357659  0.016033266   -4.4221789    1.1864129  1010000 
 2738000   0.79167418   -4.4233455   -4.4233455   -3.2358354  0.016054954   -4.4233455    1.1875101  1010000 
 2739000   0.79157499    -4.423137    -4.423137   -3.2357757   0.01252602    -4.423137    1.1873613  1010000 
 2740000   0.79095607   -4.4226226   -4.4226226   -3.2361897  0.015614146   -4.4226226    1.1864329  1010000 
 2741000   0.79165315   -4.4239327   -4.4239327   -3.2364542  0.011014819   -4.4239327    1.1874785  1010000 
 2742000   0.79089197   -4.4226831   -4.4226831   -3.2363464  0.017487962   -4.4226831    1.1863368  1010000 
 2743000   0.79051619   -4.4222911   -4.4222911    -3.236518  0.018267863   -4.4222911    1.1857731  1010000 
 2744000   0.79094382   -4.4223734   -4.4223734   -3.2359589  0.018619297   -4.4223734    1.1864146  1010000 
 2745000   0.79103683   -4.4227679   -4.4227679   -3.2362139  0.019561096   -4.4227679    1.1865541  1010000 
 2746000   0.79053709   -4.4222712   -4.4222712   -3.2364667   0.01971584   -4.4222712    1.1858045  1010000 
 2747000   0.79064246   -4.4226806   -4.4226806   -3.2367181  0.018875481   -4.4226806    1.1859625  1010000 
 2748000   0.79141722   -4.4241126   -4.4241126    -3.236988  0.016911341   -4.4241126    1.1871246  1010000 
 2749000   0.79170986   -4.4242257   -4.4242257   -3.2366621  0.019030454   -4.4242257    1.1875636  1010000 
 2750000   0.79142965   -4.4241855   -4.4241855   -3.2370422  0.020707887   -4.4241855    1.1871433  1010000 
 2751000   0.79029736   -4.4222822   -4.4222822   -3.2368373   0.02245575   -4.4222822    1.1854449  1010000 
 2752000   0.79138136   -4.4242222   -4.4242222   -3.2371513  0.017286608   -4.4242222    1.1870709  1010000 
 2753000   0.79060354    -4.422684    -4.422684   -3.2367798  0.021330834    -4.422684    1.1859041  1010000 
 2754000   0.79044733   -4.4225968   -4.4225968    -3.236927  0.019174157   -4.4225968    1.1856698  1010000 
 2755000   0.79125857   -4.4233936   -4.4233936   -3.2365069  0.019865268   -4.4233936    1.1868867  1010000 
 2756000   0.79151384   -4.4244714   -4.4244714   -3.2372018  0.019181857   -4.4244714    1.1872696  1010000 
 2757000   0.79142867   -4.4246133   -4.4246133   -3.2374715  0.018303047   -4.4246133    1.1871418  1010000 
 2758000   0.79072151   -4.4238416   -4.4238416   -3.2377605  0.019895132   -4.4238416    1.1860811  1010000 
 2759000   0.79088489   -4.4244023   -4.4244023   -3.2380761  0.019047287   -4.4244023    1.1863262  1010000 
 2760000   0.79038586    -4.423822    -4.423822   -3.2382444  0.022522318    -4.423822    1.1855776  1010000 
 2761000   0.79152825   -4.4253011   -4.4253011   -3.2380099  0.019323815   -4.4253011    1.1872912  1010000 
 2762000   0.79141666   -4.4252968   -4.4252968    -3.238173  0.017839736   -4.4252968    1.1871238  1010000 
 2763000   0.79096841   -4.4249478   -4.4249478   -3.2384963  0.018777209   -4.4249478    1.1864514  1010000 
 2764000   0.79088632   -4.4247066   -4.4247066   -3.2383783   0.02009296   -4.4247066    1.1863283  1010000 
 2765000   0.79125392   -4.4251245   -4.4251245   -3.2382448  0.018333754   -4.4251245    1.1868797  1010000 
 2766000   0.79148235   -4.4257715   -4.4257715   -3.2385492  0.015941727   -4.4257715    1.1872223  1010000 
 2767000   0.79049932   -4.4246852   -4.4246852   -3.2389374  0.015685454   -4.4246852    1.1857478  1010000 
 2768000    0.7900251   -4.4238092   -4.4238092   -3.2387728  0.016222473   -4.4238092    1.1850365  1010000 
 2769000    0.7901025    -4.424465    -4.424465   -3.2393124  0.017130572    -4.424465    1.1851526  1010000 
 2770000   0.78959027   -4.4238421   -4.4238421   -3.2394579  0.018484718   -4.4238421    1.1843842  1010000 
 2771000    0.7896822   -4.4237044   -4.4237044   -3.2391823  0.016880225   -4.4237044    1.1845221  1010000 
 2772000   0.79039275   -4.4248496   -4.4248496   -3.2392616  0.016165183   -4.4248496    1.1855879  1010000 
 2773000    0.7901187   -4.4243571   -4.4243571   -3.2391803  0.016212857   -4.4243571    1.1851769  1010000 
 2774000    0.7906406   -4.4253019   -4.4253019   -3.2393421  0.018206182   -4.4253019    1.1859597  1010000 
 2775000    0.7904875   -4.4252653   -4.4252653   -3.2395352   0.01715817   -4.4252653    1.1857301  1010000 
 2776000   0.79065795   -4.4257568   -4.4257568   -3.2397711  0.014602952   -4.4257568    1.1859858  1010000 
 2777000   0.79058013   -4.4251223   -4.4251223   -3.2392533  0.016697083   -4.4251223     1.185869  1010000 
 2778000   0.78980563   -4.4242584   -4.4242584   -3.2395511  0.018088836   -4.4242584    1.1847073  1010000 
 2779000   0.79103434   -4.4262681   -4.4262681   -3.2397178  0.018821994   -4.4262681    1.1865503  1010000 
 2780000   0.79082614   -4.4262023   -4.4262023   -3.2399642  0.015511703   -4.4262023     1.186238  1010000 
 2781000   0.79110535   -4.4267926   -4.4267926   -3.2401358  0.020023114   -4.4267926    1.1866569  1010000 
 2782000    0.7915129    -4.426681    -4.426681   -3.2394129  0.019885676    -4.426681    1.1872682  1010000 
 2783000   0.79108945   -4.4262927   -4.4262927   -3.2396597  0.019425721   -4.4262927     1.186633  1010000 
 2784000   0.79016529   -4.4253285   -4.4253285   -3.2400817  0.019379729   -4.4253285    1.1852468  1010000 
 2785000   0.78985549   -4.4254989   -4.4254989   -3.2407168  0.015561638   -4.4254989    1.1847821  1010000 
 2786000   0.78978299   -4.4254311   -4.4254311   -3.2407578  0.016734683   -4.4254311    1.1846733  1010000 
 2787000   0.79082829   -4.4273396   -4.4273396   -3.2410983  0.016109612   -4.4273396    1.1862413  1010000 
 2788000   0.79003285   -4.4264485   -4.4264485   -3.2414004  0.014369277   -4.4264485    1.1850481  1010000 
 2789000   0.78994215    -4.426116    -4.426116    -3.241204  0.018401953    -4.426116     1.184912  1010000 
 2790000   0.78965521   -4.4260584   -4.4260584   -3.2415767   0.02115337   -4.4260584    1.1844816  1010000 
 2791000     0.790404   -4.4273725   -4.4273725   -3.2417677  0.016829457   -4.4273725    1.1856048  1010000 
 2792000   0.78945934   -4.4265369   -4.4265369   -3.2423491   0.01753001   -4.4265369    1.1841878  1010000 
 2793000   0.78972961   -4.4267569   -4.4267569   -3.2421637  0.013306855   -4.4267569    1.1845932  1010000 
 2794000   0.79010099   -4.4277073   -4.4277073   -3.2425569   0.01953709   -4.4277073    1.1851503  1010000 
 2795000   0.79027593   -4.4279329   -4.4279329   -3.2425202  0.018790585   -4.4279329    1.1854127  1010000 
 2796000   0.78983435   -4.4270341   -4.4270341   -3.2422837  0.017676827   -4.4270341    1.1847504  1010000 
 2797000   0.79021385   -4.4274012   -4.4274012   -3.2420816  0.017971578   -4.4274012    1.1853196  1010000 
 2798000   0.79005165    -4.427333    -4.427333   -3.2422567  0.020339168    -4.427333    1.1850763  1010000 
 2799000   0.79037751   -4.4275555   -4.4275555   -3.2419904  0.018372924   -4.4275555    1.1855651  1010000 
 2800000   0.79030742   -4.4276499   -4.4276499   -3.2421899    0.0175205   -4.4276499      1.18546  1010000 
 2801000    0.7898173   -4.4271528   -4.4271528   -3.2424281  0.022082168   -4.4271528    1.1847248  1010000 
 2802000   0.79059548    -4.427836    -4.427836   -3.2419439  0.024154845    -4.427836     1.185892  1010000 
 2803000   0.79091489   -4.4286766   -4.4286766   -3.2423054  0.020797293   -4.4286766    1.1863712  1010000 
 2804000   0.79073633   -4.4293093   -4.4293093    -3.243206  0.017828843   -4.4293093    1.1861033  1010000 
 2805000   0.78999396   -4.4284354   -4.4284354   -3.2434456  0.019654184   -4.4284354    1.1849898  1010000 
 2806000   0.79023561    -4.429358    -4.429358   -3.2440057  0.015787014    -4.429358    1.1853522  1010000 
 2807000    0.7900475   -4.4290548   -4.4290548   -3.2439847  0.018489696   -4.4290548    1.1850701  1010000 
 2808000   0.79023767   -4.4302087   -4.4302087   -3.2448534  0.015546843   -4.4302087    1.1853553  1010000 
 2809000   0.78964297   -4.4294032   -4.4294032   -3.2449399  0.019667094   -4.4294032    1.1844633  1010000 
 2810000    0.7894733   -4.4290451   -4.4290451   -3.2448363  0.018224994   -4.4290451    1.1842088  1010000 
 2811000   0.78913109    -4.428471    -4.428471   -3.2447756  0.022726571    -4.428471    1.1836955  1010000 
 2812000   0.78959855   -4.4291309   -4.4291309   -3.2447342   0.02048648   -4.4291309    1.1843966  1010000 
 2813000   0.79053714   -4.4304989   -4.4304989   -3.2446944  0.017092422   -4.4304989    1.1858045  1010000 
 2814000   0.78978927   -4.4293546   -4.4293546   -3.2446719  0.021161523   -4.4293546    1.1846827  1010000 
 2815000   0.78950483   -4.4295215   -4.4295215   -3.2452654  0.017342118   -4.4295215    1.1842561  1010000 
 2816000   0.78938173   -4.4297131   -4.4297131   -3.2456417  0.014755344   -4.4297131    1.1840714  1010000 
 2817000   0.78893716   -4.4292044   -4.4292044   -3.2457999  0.017658599   -4.4292044    1.1834046  1010000 
 2818000   0.78978469    -4.430496    -4.430496   -3.2458202  0.017940361    -4.430496    1.1846759  1010000 
 2819000   0.78943386   -4.4300223   -4.4300223   -3.2458727  0.016598802   -4.4300223    1.1841496  1010000 
 2820000   0.78932199   -4.4295351   -4.4295351   -3.2455532  0.018422763   -4.4295351    1.1839818  1010000 
 2821000   0.78980861   -4.4304254   -4.4304254   -3.2457136   0.01867539   -4.4304254    1.1847117  1010000 
 2822000   0.78952332   -4.4307512   -4.4307512   -3.2464674  0.018760208   -4.4307512    1.1842838  1010000 
 2823000   0.79009139   -4.4314107   -4.4314107   -3.2462748  0.019109086   -4.4314107    1.1851359  1010000 
 2824000   0.78954452   -4.4310844   -4.4310844   -3.2467688    0.0214162   -4.4310844    1.1843156  1010000 
 2825000   0.79050003   -4.4322427   -4.4322427   -3.2464939  0.015297395   -4.4322427    1.1857489  1010000 
 2826000   0.79059602   -4.4323055   -4.4323055   -3.2464126  0.016582078   -4.4323055    1.1858929  1010000 
 2827000   0.78953932   -4.4309161   -4.4309161   -3.2466083  0.016622489   -4.4309161    1.1843078  1010000 
 2828000   0.78960444   -4.4308216   -4.4308216   -3.2464161  0.020420971   -4.4308216    1.1844055  1010000 
 2829000    0.7897698   -4.4311983   -4.4311983   -3.2465448   0.02191492   -4.4311983    1.1846535  1010000 
 2830000   0.79025998   -4.4316779   -4.4316779   -3.2462891  0.022082784   -4.4316779    1.1853888  1010000 
 2831000   0.79018002    -4.432054    -4.432054   -3.2467851  0.019568382    -4.432054    1.1852688  1010000 
 2832000   0.79043466   -4.4327012   -4.4327012   -3.2470504  0.017624475   -4.4327012    1.1856508  1010000 
 2833000   0.79048315   -4.4323709   -4.4323709   -3.2466473  0.017644331   -4.4323709    1.1857235  1010000 
 2834000   0.78958735    -4.431338    -4.431338   -3.2469582   0.01973456    -4.431338    1.1843799  1010000 
 2835000   0.78928376   -4.4309156   -4.4309156   -3.2469911  0.018657593   -4.4309156    1.1839245  1010000 
 2836000   0.78963928   -4.4318806   -4.4318806   -3.2474229  0.015580888   -4.4318806    1.1844577  1010000 
 2837000   0.78902848     -4.43121     -4.43121   -3.2476685  0.016569679     -4.43121    1.1835415  1010000 
 2838000   0.78880212   -4.4309328   -4.4309328   -3.2477308  0.018954093   -4.4309328     1.183202  1010000 
 2839000   0.78936236   -4.4315471   -4.4315471   -3.2475047   0.01910945   -4.4315471    1.1840424  1010000 
 2840000   0.78966391   -4.4321679   -4.4321679   -3.2476732  0.014904575   -4.4321679    1.1844947  1010000 
 2841000   0.78896286   -4.4307353   -4.4307353   -3.2472922  0.022020537   -4.4307353    1.1834431  1010000 
 2842000   0.78919458   -4.4312983   -4.4312983   -3.2475075   0.01539304   -4.4312983    1.1837907  1010000 
 2843000    0.7885297   -4.4309248   -4.4309248   -3.2481314  0.015372127   -4.4309248    1.1827934  1010000 
 2844000   0.78976769   -4.4323028   -4.4323028   -3.2476524  0.013511828   -4.4323028    1.1846504  1010000 
 2845000   0.78906115   -4.4314017   -4.4314017   -3.2478112   0.01749493   -4.4314017    1.1835905  1010000 
 2846000   0.78991076   -4.4321849   -4.4321849     -3.24732  0.012576529   -4.4321849     1.184865  1010000 
 2847000   0.78938748    -4.431678    -4.431678   -3.2475979  0.016060464    -4.431678      1.18408  1010000 
 2848000   0.78841722   -4.4303016   -4.4303016   -3.2476769  0.016432113   -4.4303016    1.1826247  1010000 
 2849000   0.78936129   -4.4317545   -4.4317545   -3.2477137  0.015290083   -4.4317545    1.1840408  1010000 
 2850000   0.78924723   -4.4317437   -4.4317437    -3.247874  0.015756029   -4.4317437    1.1838697  1010000 
 2851000   0.78884707   -4.4306684   -4.4306684    -3.247399    0.0191608   -4.4306684    1.1832694  1010000 
 2852000    0.7886326   -4.4307503   -4.4307503   -3.2478026  0.019158358   -4.4307503    1.1829477  1010000 
 2853000   0.78874338   -4.4312098   -4.4312098   -3.2480959  0.017768934   -4.4312098    1.1831139  1010000 
 2854000    0.7890688   -4.4319824   -4.4319824   -3.2483803  0.016215212   -4.4319824     1.183602  1010000 
 2855000   0.78960753   -4.4330964   -4.4330964   -3.2486863  0.013341614   -4.4330964    1.1844101  1010000 
 2856000   0.78916756   -4.4322866   -4.4322866   -3.2485364  0.013117871   -4.4322866    1.1837502  1010000 
 2857000   0.78884924   -4.4318411   -4.4318411   -3.2485684   0.01413656   -4.4318411    1.1832727  1010000 
 2858000    0.7887277   -4.4321205   -4.4321205   -3.2490302  0.015282612   -4.4321205    1.1830904  1010000 
 2859000   0.78838239   -4.4312381   -4.4312381   -3.2486657  0.019177798   -4.4312381    1.1825724  1010000 
 2860000   0.78936425   -4.4330729   -4.4330729   -3.2490277  0.014264393   -4.4330729    1.1840452  1010000 
 2861000   0.78876145    -4.432115    -4.432115    -3.248974  0.014778584    -4.432115     1.183141  1010000 
 2862000   0.78798478   -4.4316006   -4.4316006   -3.2496246  0.017688229   -4.4316006     1.181976  1010000 
 2863000   0.78824393    -4.432499    -4.432499   -3.2501343  0.016995314    -4.432499    1.1823647  1010000 
 2864000   0.78900787   -4.4340618   -4.4340618   -3.2505512  0.014696595   -4.4340618    1.1835106  1010000 
 2865000   0.78891691   -4.4341378   -4.4341378   -3.2507637  0.014802181   -4.4341378    1.1833742  1010000 
 2866000   0.78864297   -4.4344759   -4.4344759   -3.2515127  0.014602963   -4.4344759    1.1829633  1010000 
 2867000   0.78847008    -4.434199    -4.434199    -3.251495  0.014481263    -4.434199     1.182704  1010000 
 2868000   0.78765124   -4.4330254   -4.4330254   -3.2515497   0.01806753   -4.4330254    1.1814757  1010000 
 2869000   0.78807126   -4.4341129   -4.4341129   -3.2520072  0.015947111   -4.4341129    1.1821057  1010000 
 2870000   0.78824633   -4.4344432   -4.4344432   -3.2520749   0.01791907   -4.4344432    1.1823683  1010000 
 2871000   0.78804467   -4.4347194   -4.4347194   -3.2526536  0.016392226   -4.4347194    1.1820658  1010000 
 2872000    0.7877979   -4.4342938   -4.4342938   -3.2525982  0.018274873   -4.4342938    1.1816957  1010000 
 2873000   0.78785652   -4.4350764   -4.4350764   -3.2532928  0.016410292   -4.4350764    1.1817836  1010000 
 2874000   0.78793443   -4.4356621   -4.4356621   -3.2537616  0.014674705   -4.4356621    1.1819005  1010000 
 2875000   0.78744161   -4.4353526   -4.4353526   -3.2541913  0.019222828   -4.4353526    1.1811612  1010000 
 2876000   0.78776522   -4.4356767   -4.4356767   -3.2540301  0.015530381   -4.4356767    1.1816467  1010000 
 2877000   0.78868437   -4.4372058   -4.4372058   -3.2541804  0.014178488   -4.4372058    1.1830254  1010000 
 2878000   0.78747788   -4.4358693   -4.4358693   -3.2546536  0.021797266   -4.4358693    1.1812157  1010000 
 2879000   0.78823213   -4.4369776   -4.4369776   -3.2546305  0.020498194   -4.4369776     1.182347  1010000 
 2880000   0.78838563   -4.4370699   -4.4370699   -3.2544926   0.02037649   -4.4370699    1.1825773  1010000 
 2881000   0.78879313   -4.4376141   -4.4376141   -3.2544256  0.019272497   -4.4376141    1.1831885  1010000 
 2882000   0.78806955   -4.4369523   -4.4369523   -3.2548492  0.020501295   -4.4369523    1.1821032  1010000 
 2883000   0.78922473   -4.4391263   -4.4391263   -3.2552904  0.017120216   -4.4391263    1.1838359  1010000 
 2884000   0.78928528   -4.4385262   -4.4385262   -3.2545994  0.018906676   -4.4385262    1.1839267  1010000 
 2885000   0.78905287   -4.4382333   -4.4382333   -3.2546552  0.019855129   -4.4382333    1.1835781  1010000 
 2886000   0.78887947   -4.4382097   -4.4382097   -3.2548917   0.02020256   -4.4382097     1.183318  1010000 
 2887000   0.78861012   -4.4376873   -4.4376873   -3.2547733  0.024462441   -4.4376873     1.182914  1010000 
 2888000   0.78910041   -4.4387553   -4.4387553   -3.2551059  0.023998216   -4.4387553    1.1836494  1010000 
 2889000   0.78853409   -4.4383085   -4.4383085   -3.2555085  0.023456127   -4.4383085       1.1828  1010000 
 2890000   0.78892083   -4.4391095   -4.4391095   -3.2557294  0.021798056   -4.4391095    1.1833801  1010000 
 2891000   0.78792329   -4.4381562   -4.4381562   -3.2562724   0.02251711   -4.4381562    1.1818838  1010000 
 2892000   0.78858961    -4.439064    -4.439064   -3.2561808  0.020918032    -4.439064    1.1828832  1010000 
 2893000   0.78713517   -4.4374894   -4.4374894   -3.2567879  0.022991224   -4.4374894    1.1807016  1010000 
 2894000   0.78850671   -4.4393903   -4.4393903   -3.2566314  0.020519227   -4.4393903    1.1827589  1010000 
 2895000   0.78776535   -4.4383779   -4.4383779   -3.2567311  0.021802882   -4.4383779    1.1816469  1010000 
 2896000   0.78843606   -4.4393899   -4.4393899   -3.2567369  0.016251804   -4.4393899    1.1826529  1010000 
 2897000   0.78798109   -4.4390645   -4.4390645   -3.2570941  0.020236467   -4.4390645    1.1819705  1010000 
 2898000   0.78772575   -4.4385291   -4.4385291   -3.2569416  0.019010177   -4.4385291    1.1815875  1010000 
 2899000   0.78737389   -4.4379967   -4.4379967    -3.256937  0.021335081   -4.4379967    1.1810597  1010000 
 2900000   0.78814596   -4.4390782   -4.4390782   -3.2568605  0.014519041   -4.4390782    1.1822178  1010000 
 2901000   0.78809395   -4.4386486   -4.4386486   -3.2565089    0.0161767   -4.4386486    1.1821398  1010000 
 2902000   0.78799736   -4.4386739   -4.4386739    -3.256679  0.018105787   -4.4386739    1.1819949  1010000 
 2903000   0.78703158   -4.4369993   -4.4369993   -3.2564531  0.020680005   -4.4369993    1.1805462  1010000 
 2904000   0.78816597   -4.4389008   -4.4389008    -3.256653  0.015814705   -4.4389008    1.1822478  1010000 
 2905000   0.78757633   -4.4381341   -4.4381341   -3.2567707   0.01970535   -4.4381341    1.1813633  1010000 
 2906000   0.78813551   -4.4391933   -4.4391933   -3.2569912  0.013909725   -4.4391933    1.1822021  1010000 
 2907000    0.7877349   -4.4384692   -4.4384692    -3.256868  0.017127244   -4.4384692    1.1816012  1010000 
 2908000   0.78767059   -4.4377999   -4.4377999   -3.2562951   0.01550247   -4.4377999    1.1815047  1010000 
 2909000   0.78829975   -4.4389942   -4.4389942   -3.2565458  0.014553964   -4.4389942    1.1824485  1010000 
 2910000    0.7874853   -4.4374158   -4.4374158    -3.256189  0.015408747   -4.4374158    1.1812268  1010000 
 2911000   0.78777036   -4.4379451   -4.4379451   -3.2562907  0.013772563   -4.4379451    1.1816544  1010000 
 2912000    0.7873642   -4.4374821   -4.4374821   -3.2564369  0.016646343   -4.4374821    1.1810451  1010000 
 2913000   0.78792014    -4.438439    -4.438439     -3.25656  0.013833613    -4.438439     1.181879  1010000 
 2914000   0.78661962   -4.4368133   -4.4368133   -3.2568851  0.016638971   -4.4368133    1.1799283  1010000 
 2915000   0.78727269    -4.438279    -4.438279   -3.2573711  0.012142797    -4.438279    1.1809079  1010000 
 2916000   0.78728357   -4.4384049   -4.4384049   -3.2574808  0.012441961   -4.4384049    1.1809242  1010000 
 2917000   0.78715788   -4.4388078   -4.4388078   -3.2580721  0.014055383   -4.4388078    1.1807356  1010000 
 2918000   0.78603097   -4.4377883   -4.4377883    -3.258743  0.017406372   -4.4377883    1.1790453  1010000 
 2919000   0.78654135   -4.4383567   -4.4383567   -3.2585459  0.015436186   -4.4383567    1.1798109  1010000 
 2920000   0.78679189   -4.4388079   -4.4388079   -3.2586213  0.016067588   -4.4388079    1.1801867  1010000 
 2921000   0.78687608    -4.438814    -4.438814    -3.258501  0.013399783    -4.438814     1.180313  1010000 
 2922000    0.7873076   -4.4392016   -4.4392016   -3.2582414   0.01031578   -4.4392016    1.1809602  1010000 
 2923000   0.78631416   -4.4380408   -4.4380408   -3.2585708  0.013268671   -4.4380408    1.1794701  1010000 
 2924000   0.78727506   -4.4394985   -4.4394985   -3.2585871  0.011572049   -4.4394985    1.1809114  1010000 
 2925000   0.78780288   -4.4403028   -4.4403028   -3.2585996  0.012731346   -4.4403028    1.1817031  1010000 
 2926000   0.78743917   -4.4394298   -4.4394298   -3.2582722  0.015498221   -4.4394298    1.1811576  1010000 
 2927000   0.78658022   -4.4379718   -4.4379718   -3.2581027  0.023228775   -4.4379718    1.1798692  1010000 
 2928000   0.78809783    -4.440959    -4.440959   -3.2588134   0.01626944    -4.440959    1.1821456  1010000 
 2929000    0.7876693   -4.4403906   -4.4403906   -3.2588878  0.019648131   -4.4403906    1.1815028  1010000 
 2930000    0.7872434   -4.4394475   -4.4394475   -3.2585836  0.022848021   -4.4394475    1.1808639  1010000 
 2931000   0.78817231   -4.4411202   -4.4411202   -3.2588629  0.014665721   -4.4411202    1.1822573  1010000 
 2932000   0.78839044   -4.4422246   -4.4422246   -3.2596401  0.015592661   -4.4422246    1.1825845  1010000 
 2933000   0.78861208   -4.4424232   -4.4424232   -3.2595063  0.019630449   -4.4424232    1.1829169  1010000 
 2934000   0.78699878   -4.4394754   -4.4394754   -3.2589784   0.02761029   -4.4394754     1.180497  1010000 
 2935000   0.78863349   -4.4421724   -4.4421724   -3.2592233  0.021394256   -4.4421724    1.1829491  1010000 
 2936000   0.78899772    -4.443428    -4.443428   -3.2599325  0.018650756    -4.443428    1.1834954  1010000 
 2937000   0.78850023   -4.4426125   -4.4426125   -3.2598633  0.023153956   -4.4426125    1.1827492  1010000 
 2938000   0.78802048   -4.4422578   -4.4422578   -3.2602282  0.022410708   -4.4422578    1.1820295  1010000 
 2939000   0.78835827   -4.4429593   -4.4429593   -3.2604231   0.01935051   -4.4429593    1.1825362  1010000 
 2940000   0.78842268   -4.4432493   -4.4432493   -3.2606165    0.0154676   -4.4432493    1.1826329  1010000 
 2941000   0.78696215   -4.4412666   -4.4412666   -3.2608245  0.020430503   -4.4412666    1.1804421  1010000 
 2942000   0.78749236   -4.4424256   -4.4424256   -3.2611882  0.016968359   -4.4424256    1.1812374  1010000 
 2943000   0.78797739   -4.4432672   -4.4432672   -3.2613023  0.020733854   -4.4432672    1.1819649  1010000 
 2944000   0.78751479   -4.4428262   -4.4428262   -3.2615552  0.023300364   -4.4428262     1.181271  1010000 
 2945000   0.78817116   -4.4440515   -4.4440515   -3.2617959  0.018794821   -4.4440515    1.1822556  1010000 
 2946000   0.78721412   -4.4428963   -4.4428963   -3.2620763  0.021526046   -4.4428963      1.18082  1010000 
 2947000   0.78754445   -4.4440129   -4.4440129   -3.2626974   0.01526223   -4.4440129    1.1813155  1010000 
 2948000     0.787808   -4.4442774   -4.4442774   -3.2625666  0.014146423   -4.4442774    1.1817108  1010000 
 2949000   0.78618594   -4.4424741   -4.4424741   -3.2631964  0.018998043   -4.4424741    1.1792777  1010000 
 2950000   0.78635777   -4.4432546   -4.4432546   -3.2637191  0.015751266   -4.4432546    1.1795355  1010000 
 2951000   0.78605682   -4.4421554   -4.4421554   -3.2630713  0.017915808   -4.4421554    1.1790841  1010000 
 2952000   0.78696215   -4.4435699   -4.4435699   -3.2631278  0.015316936   -4.4435699    1.1804421  1010000 
 2953000   0.78690777   -4.4432427   -4.4432427   -3.2628823  0.017212369   -4.4432427    1.1803605  1010000 
 2954000   0.78713397   -4.4437433   -4.4437433   -3.2630436  0.013504164   -4.4437433    1.1806998  1010000 
 2955000   0.78668278   -4.4431716   -4.4431716   -3.2631486  0.017838665   -4.4431716     1.180023  1010000 
 2956000   0.78639171   -4.4433443   -4.4433443   -3.2637579  0.018264336   -4.4433443    1.1795864  1010000 
 2957000    0.7862921   -4.4439016   -4.4439016   -3.2644646  0.015724536   -4.4439016     1.179437  1010000 
 2958000    0.7866355    -4.444421    -4.444421   -3.2644689  0.013915784    -4.444421    1.1799521  1010000 
 2959000   0.78624036   -4.4427967   -4.4427967   -3.2634373    0.0185125   -4.4427967    1.1793594  1010000 
 2960000   0.78679857   -4.4439895   -4.4439895   -3.2637928  0.014665721   -4.4439895    1.1801967  1010000 
 2961000    0.7863917   -4.4436139   -4.4436139   -3.2640275  0.017435053   -4.4436139    1.1795864  1010000 
 2962000   0.78632955   -4.4438132   -4.4438132   -3.2643201   0.01805717   -4.4438132    1.1794932  1010000 
 2963000   0.78658687   -4.4441756   -4.4441756   -3.2642965  0.018485343   -4.4441756    1.1798791  1010000 
 2964000   0.78624957   -4.4442615   -4.4442615   -3.2648884  0.016662901   -4.4442615    1.1793732  1010000 
 2965000   0.78620834   -4.4441431   -4.4441431   -3.2648317  0.017182287   -4.4441431    1.1793113  1010000 
 2966000    0.7868241   -4.4449248   -4.4449248   -3.2646898  0.014228756   -4.4449248     1.180235  1010000 
 2967000   0.78649603   -4.4444237   -4.4444237   -3.2646808  0.021316671   -4.4444237    1.1797429  1010000 
 2968000    0.7861973   -4.4446657   -4.4446657   -3.2653709  0.016039653   -4.4446657    1.1792948  1010000 
 2969000   0.78575623   -4.4443034   -4.4443034   -3.2656702   0.01731738   -4.4443034    1.1786332  1010000 
 2970000   0.78643609   -4.4454346   -4.4454346   -3.2657816  0.017385687   -4.4454346     1.179653  1010000 
 2971000   0.78562441   -4.4440416   -4.4440416   -3.2656061  0.017837292   -4.4440416    1.1784355  1010000 
 2972000   0.78658335   -4.4460895   -4.4460895   -3.2662156  0.011376258   -4.4460895    1.1798739  1010000 
 2973000   0.78546146   -4.4446458   -4.4446458   -3.2664548  0.016239525   -4.4446458     1.178191  1010000 
 2974000   0.78585815   -4.4451562   -4.4451562   -3.2663701  0.017383609   -4.4451562    1.1787861  1010000 
 2975000   0.78526518   -4.4446937   -4.4446937   -3.2667971  0.016872461   -4.4446937    1.1778966  1010000 
 2976000   0.78658924   -4.4465388   -4.4465388   -3.2666561  0.015196641   -4.4465388    1.1798827  1010000 
 2977000   0.78630806   -4.4463881   -4.4463881   -3.2669272  0.016515993   -4.4463881    1.1794609  1010000 
 2978000   0.78630324   -4.4463119   -4.4463119   -3.2668582  0.017674687   -4.4463119    1.1794537  1010000 
 2979000   0.78617042   -4.4462661   -4.4462661   -3.2670116  0.018052547   -4.4462661    1.1792545  1010000 
 2980000   0.78656197   -4.4464897   -4.4464897   -3.2666479  0.017821068   -4.4464897    1.1798418  1010000 
 2981000   0.78702424   -4.4472526   -4.4472526   -3.2667174  0.016334874   -4.4472526    1.1805352  1010000 
 2982000   0.78662641   -4.4468581   -4.4468581   -3.2669197  0.019017405   -4.4468581    1.1799384  1010000 
 2983000   0.78634269   -4.4461892   -4.4461892   -3.2666764  0.017972829   -4.4461892    1.1795129  1010000 
 2984000   0.78611506   -4.4460889   -4.4460889   -3.2669175  0.020142643   -4.4460889    1.1791714  1010000 
 2985000   0.78689359   -4.4473564   -4.4473564   -3.2670172  0.019655983   -4.4473564    1.1803392  1010000 
 2986000   0.78684798   -4.4475265   -4.4475265   -3.2672557   0.01912158   -4.4475265    1.1802708  1010000 
 2987000   0.78641869   -4.4474716   -4.4474716   -3.2678447  0.019210201   -4.4474716    1.1796269  1010000 
 2988000   0.78641102   -4.4479481   -4.4479481   -3.2683327  0.018338919   -4.4479481    1.1796154  1010000 
 2989000   0.78615837   -4.4474408   -4.4474408   -3.2682044  0.016814659   -4.4474408    1.1792364  1010000 
 2990000   0.78524228   -4.4459957   -4.4459957   -3.2681335  0.019989741   -4.4459957    1.1778623  1010000 
 2991000   0.78536021   -4.4466536   -4.4466536   -3.2686145   0.02014406   -4.4466536    1.1780392  1010000 
 2992000   0.78643413   -4.4479232   -4.4479232   -3.2682732  0.016368701   -4.4479232      1.17965  1010000 
 2993000   0.78611474   -4.4481665   -4.4481665   -3.2689956  0.014982013   -4.4481665    1.1791709  1010000 
 2994000   0.78589762   -4.4479805   -4.4479805   -3.2691352  0.016329537   -4.4479805    1.1788453  1010000 
 2995000   0.78609371   -4.4478156   -4.4478156   -3.2686762  0.020147325   -4.4478156    1.1791394  1010000 
 2996000   0.78662253   -4.4483774   -4.4483774   -3.2684448  0.015450772   -4.4483774    1.1799326  1010000 
 2997000   0.78629015   -4.4481017   -4.4481017   -3.2686676  0.017765822   -4.4481017    1.1794341  1010000 
 2998000    0.7856076   -4.4470693   -4.4470693   -3.2686591  0.020019986   -4.4470693    1.1784102  1010000 
 2999000   0.78630464   -4.4482529   -4.4482529   -3.2687971  0.019781473   -4.4482529    1.1794558  1010000 
 3000000   0.78632505   -4.4484519   -4.4484519   -3.2689655  0.016726151   -4.4484519    1.1794864  1010000 
 3001000    0.7866499   -4.4494717   -4.4494717    -3.269498  0.015591296   -4.4494717    1.1799737  1010000 
 3002000   0.78532023   -4.4475399   -4.4475399   -3.2695607  0.019181327   -4.4475399    1.1779792  1010000 
 3003000   0.78639284   -4.4488264   -4.4488264   -3.2692383  0.018279237   -4.4488264    1.1795881  1010000 
 3004000   0.78534634   -4.4479958   -4.4479958   -3.2699774  0.017676195   -4.4479958    1.1780183  1010000 
 3005000   0.78559332   -4.4488691   -4.4488691   -3.2704803  0.014305654   -4.4488691    1.1783888  1010000 
 3006000   0.78593276    -4.449771    -4.449771    -3.270873  0.013706769    -4.449771     1.178898  1010000 
 3007000   0.78529128   -4.4489311   -4.4489311   -3.2709954  0.016797369   -4.4489311    1.1779358  1010000 
 3008000   0.78511415    -4.449061    -4.449061    -3.271391  0.013959356    -4.449061    1.1776701  1010000 
 3009000   0.78506041   -4.4484814   -4.4484814    -3.270892  0.017003743   -4.4484814    1.1775895  1010000 
 3010000   0.78509732   -4.4483384   -4.4483384   -3.2706936  0.016839157   -4.4483384    1.1776448  1010000 
 3011000   0.78497686   -4.4479565   -4.4479565   -3.2704924  0.019986392   -4.4479565    1.1774641  1010000 
 3012000   0.78473991   -4.4480093   -4.4480093   -3.2709006  0.019089388   -4.4480093    1.1771087  1010000 
 3013000   0.78507365   -4.4485814   -4.4485814   -3.2709721  0.016624848   -4.4485814    1.1776093  1010000 
 3014000   0.78538235   -4.4490252   -4.4490252   -3.2709528  0.016877134   -4.4490252    1.1780724  1010000 
 3015000   0.78517821   -4.4486686   -4.4486686   -3.2709025  0.017930038   -4.4486686    1.1777662  1010000 
 3016000   0.78596978   -4.4498567   -4.4498567   -3.2709032  0.015022346   -4.4498567    1.1789535  1010000 
 3017000   0.78542155   -4.4490305   -4.4490305   -3.2708994  0.020780051   -4.4490305    1.1781312  1010000 
 3018000   0.78514476    -4.448836    -4.448836     -3.27112  0.024093907    -4.448836     1.177716  1010000 
 3019000   0.78574585   -4.4504512   -4.4504512   -3.2718336  0.017368293   -4.4504512    1.1786176  1010000 
 3020000   0.78516477   -4.4496036   -4.4496036   -3.2718577  0.021578442   -4.4496036     1.177746  1010000 
 3021000   0.78602774   -4.4508943   -4.4508943   -3.2718538  0.015819599   -4.4508943    1.1790404  1010000 
 3022000   0.78599224   -4.4508415   -4.4508415   -3.2718543  0.019959276   -4.4508415    1.1789872  1010000 
 3023000   0.78567427   -4.4507854   -4.4507854   -3.2722751  0.016289087   -4.4507854    1.1785102  1010000 
 3024000   0.78507991    -4.450752    -4.450752   -3.2731333  0.016860585    -4.450752    1.1776187  1010000 
 3025000   0.78597568   -4.4512147   -4.4512147   -3.2722524  0.020705423   -4.4512147    1.1789624  1010000 
 3026000   0.78619537   -4.4516376   -4.4516376   -3.2723457  0.016312281   -4.4516376    1.1792919  1010000 
 3027000   0.78615809   -4.4513392   -4.4513392   -3.2721033   0.01979934   -4.4513392     1.179236  1010000 
 3028000   0.78521654   -4.4506671   -4.4506671   -3.2728434  0.019676446   -4.4506671    1.1778236  1010000 
 3029000   0.78547535   -4.4507682   -4.4507682   -3.2725564  0.018531371   -4.4507682    1.1782119  1010000 
 3030000   0.78447891   -4.4493624   -4.4493624   -3.2726452  0.020508913   -4.4493624    1.1767172  1010000 
 3031000   0.78629721   -4.4523652   -4.4523652   -3.2729206  0.017010229   -4.4523652    1.1794446  1010000 
 3032000    0.7853776   -4.4507447   -4.4507447   -3.2726795  0.021396802   -4.4507447    1.1780652  1010000 
 3033000   0.78576146   -4.4519828   -4.4519828   -3.2733418  0.015311209   -4.4519828     1.178641  1010000 
 3034000   0.78534868   -4.4514445   -4.4514445   -3.2734227  0.021175646   -4.4514445    1.1780219  1010000 
 3035000   0.78578049   -4.4528294   -4.4528294   -3.2741598  0.016129913   -4.4528294    1.1786696  1010000 
 3036000   0.78521805   -4.4519083   -4.4519083   -3.2740824  0.018306751   -4.4519083    1.1778259  1010000 
 3037000   0.78505452   -4.4518036   -4.4518036    -3.274223  0.019584158   -4.4518036    1.1775806  1010000 
 3038000   0.78578804   -4.4524627   -4.4524627   -3.2737818  0.017631488   -4.4524627    1.1786809  1010000 
 3039000   0.78564142   -4.4522821   -4.4522821   -3.2738211  0.018599568   -4.4522821     1.178461  1010000 
 3040000    0.7863141   -4.4530785   -4.4530785   -3.2736085  0.016628229   -4.4530785      1.17947  1010000 
 3041000   0.78626236   -4.4525209   -4.4525209   -3.2731285  0.020075633   -4.4525209    1.1793924  1010000 
 3042000   0.78573644   -4.4515994   -4.4515994   -3.2729959  0.017770442   -4.4515994    1.1786035  1010000 
 3043000   0.78626233   -4.4524027   -4.4524027   -3.2730104  0.015337466   -4.4524027    1.1793923  1010000 
 3044000   0.78544081   -4.4510819   -4.4510819   -3.2729219  0.015779156   -4.4510819    1.1781601  1010000 
 3045000   0.78510263   -4.4509557   -4.4509557   -3.2733029  0.017060306   -4.4509557    1.1776528  1010000 
 3046000   0.78556073   -4.4520496   -4.4520496   -3.2737097  0.017792129   -4.4520496    1.1783399  1010000 
 3047000    0.7851077   -4.4514687   -4.4514687   -3.2738083  0.016877881   -4.4514687    1.1776604  1010000 
 3048000   0.78483892   -4.4511032   -4.4511032    -3.273846  0.018017654   -4.4511032    1.1772572  1010000 
 3049000   0.78512364   -4.4513905   -4.4513905   -3.2737062  0.016627854   -4.4513905    1.1776843  1010000 
 3050000   0.78456711   -4.4512443   -4.4512443   -3.2743948  0.017136926   -4.4512443    1.1768495  1010000 
 3051000   0.78483321   -4.4519719   -4.4519719   -3.2747232  0.014944865   -4.4519719    1.1772486  1010000 
 3052000   0.78438273   -4.4522174   -4.4522174   -3.2756445   0.01409536   -4.4522174    1.1765729  1010000 
 3053000    0.7840396   -4.4514694   -4.4514694   -3.2754111  0.015147494   -4.4514694    1.1760582  1010000 
 3054000   0.78405837    -4.451502    -4.451502   -3.2754156  0.014178022    -4.451502    1.1760864  1010000 
 3055000   0.78327709    -4.450025    -4.450025   -3.2751105  0.015255042    -4.450025    1.1749145  1010000 
 3056000   0.78431199   -4.4515332   -4.4515332   -3.2750664  0.014371139   -4.4515332    1.1764668  1010000 
 3057000   0.78450953   -4.4516694   -4.4516694   -3.2749063  0.014509726   -4.4516694    1.1767631  1010000 
 3058000   0.78415313    -4.451668    -4.451668   -3.2754395  0.015119396    -4.451668    1.1762285  1010000 
 3059000   0.78422665   -4.4517973   -4.4517973   -3.2754585  0.012500495   -4.4517973    1.1763388  1010000 
 3060000   0.78389385    -4.451821    -4.451821   -3.2759814  0.012595813    -4.451821    1.1758396  1010000 
 3061000   0.78425879   -4.4522526   -4.4522526   -3.2758656   0.01279738   -4.4522526     1.176387  1010000 
 3062000   0.78416055   -4.4522268   -4.4522268   -3.2759871  0.013255945   -4.4522268    1.1762397  1010000 
 3063000   0.78430683   -4.4520468   -4.4520468   -3.2755878  0.017092957   -4.4520468    1.1764591  1010000 
 3064000   0.78485216   -4.4525303   -4.4525303   -3.2752532  0.014608055   -4.4525303    1.1772771  1010000 
 3065000   0.78534557   -4.4532632   -4.4532632   -3.2752461  0.013989724   -4.4532632    1.1780172  1010000 
 3066000   0.78488543   -4.4530766   -4.4530766   -3.2757496  0.018111439   -4.4530766     1.177327  1010000 
 3067000   0.78446904   -4.4523917   -4.4523917   -3.2756893  0.022235848   -4.4523917    1.1767024  1010000 
 3068000   0.78454038   -4.4527725   -4.4527725   -3.2759631  0.021423566   -4.4527725    1.1768094  1010000 
 3069000    0.7853902   -4.4542393   -4.4542393   -3.2761551  0.015435554   -4.4542393    1.1780841  1010000 
 3070000   0.78519501   -4.4543531   -4.4543531   -3.2765618  0.014132244   -4.4543531    1.1777913  1010000 
 3071000    0.7846317   -4.4529611   -4.4529611   -3.2760148  0.020437244   -4.4529611    1.1769464  1010000 
 3072000   0.78455616   -4.4534232   -4.4534232   -3.2765902  0.020190248   -4.4534232    1.1768331  1010000 
 3073000    0.7847009   -4.4540276   -4.4540276   -3.2769774  0.018432503   -4.4540276    1.1770502  1010000 
 3074000   0.78467723   -4.4545836   -4.4545836    -3.277569  0.019277858   -4.4545836    1.1770147  1010000 
 3075000   0.78500106   -4.4546069   -4.4546069   -3.2771065  0.019504224   -4.4546069    1.1775004  1010000 
 3076000   0.78473951   -4.4542563   -4.4542563   -3.2771482  0.020314979   -4.4542563    1.1771081  1010000 
 3077000   0.78497766   -4.4546372   -4.4546372   -3.2771719  0.016955218   -4.4546372    1.1774653  1010000 
 3078000   0.78530987   -4.4553843   -4.4553843   -3.2774206  0.018285348   -4.4553843    1.1779636  1010000 
 3079000   0.78495429   -4.4555067   -4.4555067   -3.2780764  0.017606079   -4.4555067    1.1774303  1010000 
 3080000   0.78496165    -4.455382    -4.455382   -3.2779407  0.018459996    -4.455382    1.1774413  1010000 
 3081000   0.78485276   -4.4554756   -4.4554756   -3.2781976  0.016162601   -4.4554756     1.177278  1010000 
 3082000   0.78455748   -4.4553218   -4.4553218   -3.2784867  0.019133995   -4.4553218     1.176835  1010000 
 3083000   0.78478026   -4.4555065   -4.4555065   -3.2783372  0.019135056   -4.4555065    1.1771692  1010000 
 3084000    0.7849579   -4.4556573   -4.4556573   -3.2782216  0.018603443   -4.4556573    1.1774357  1010000 
 3085000   0.78414204   -4.4546504   -4.4546504   -3.2784385  0.020803546   -4.4546504    1.1762119  1010000 
 3086000   0.78486596   -4.4561547   -4.4561547   -3.2788569  0.017292664   -4.4561547    1.1772978  1010000 
 3087000   0.78435307    -4.456265    -4.456265   -3.2797365  0.017301385    -4.456265    1.1765284  1010000 
 3088000   0.78508309   -4.4572942   -4.4572942   -3.2796707  0.014530709   -4.4572942    1.1776235  1010000 
 3089000    0.7848572   -4.4566141   -4.4566141   -3.2793294  0.015592948   -4.4566141    1.1772846  1010000 
 3090000   0.78459827   -4.4563776   -4.4563776   -3.2794813  0.016830472   -4.4563776    1.1768962  1010000 
 3091000   0.78402383   -4.4556553   -4.4556553   -3.2796207  0.014467764   -4.4556553    1.1760346  1010000 
 3092000   0.78338495   -4.4550796   -4.4550796   -3.2800034  0.016444833   -4.4550796    1.1750763  1010000 
 3093000   0.78358404   -4.4554317   -4.4554317   -3.2800568  0.015843474   -4.4554317    1.1753749  1010000 
 3094000   0.78406312   -4.4562236   -4.4562236     -3.28013  0.015855316   -4.4562236    1.1760935  1010000 
 3095000    0.7834412   -4.4550912   -4.4550912   -3.2799306  0.016708836   -4.4550912    1.1751606  1010000 
 3096000   0.78397824   -4.4563646   -4.4563646   -3.2803984  0.015654731   -4.4563646    1.1759662  1010000 
 3097000   0.78326753   -4.4552268   -4.4552268   -3.2803266  0.019452023   -4.4552268    1.1749001  1010000 
 3098000    0.7838242   -4.4564136   -4.4564136   -3.2806784  0.012947208   -4.4564136    1.1757351  1010000 
 3099000   0.78288413   -4.4553775   -4.4553775   -3.2810525  0.017171008   -4.4553775     1.174325  1010000 
 3100000   0.78337797   -4.4559025   -4.4559025   -3.2808367   0.01719213   -4.4559025    1.1750658  1010000 
 3101000   0.78363839   -4.4562899   -4.4562899   -3.2808334  0.015645565   -4.4562899    1.1754564  1010000 
 3102000   0.78408718   -4.4573912   -4.4573912   -3.2812616  0.013722398   -4.4573912    1.1761296  1010000 
 3103000   0.78373567   -4.4570328   -4.4570328   -3.2814305  0.015382968   -4.4570328    1.1756023  1010000 
 3104000   0.78371822   -4.4570461   -4.4570461   -3.2814699  0.013024488   -4.4570461    1.1755762  1010000 
 3105000   0.78331711   -4.4560389   -4.4560389   -3.2810644  0.016902275   -4.4560389    1.1749745  1010000 
 3106000   0.78389685   -4.4575509   -4.4575509   -3.2817067  0.011833961   -4.4575509    1.1758441  1010000 
 3107000   0.78275856   -4.4562983   -4.4562983   -3.2821616  0.015768728   -4.4562983    1.1741367  1010000 
 3108000   0.78404374   -4.4578342   -4.4578342   -3.2817697  0.014484528   -4.4578342    1.1760644  1010000 
 3109000   0.78306297   -4.4573077   -4.4573077   -3.2827144  0.017588283   -4.4573077    1.1745933  1010000 
 3110000   0.78342605   -4.4582633   -4.4582633   -3.2831254  0.018696722   -4.4582633    1.1751379  1010000 
 3111000   0.78334678   -4.4580797   -4.4580797   -3.2830607  0.016265729   -4.4580797     1.175019  1010000 
 3112000   0.78333103   -4.4583161   -4.4583161   -3.2833207  0.016063725   -4.4583161    1.1749954  1010000 
 3113000    0.7839362    -4.459046    -4.459046   -3.2831428  0.016749075    -4.459046    1.1759031  1010000 
 3114000   0.78294459   -4.4582805   -4.4582805   -3.2838648  0.019272746   -4.4582805    1.1744157  1010000 
 3115000   0.78298157   -4.4582401   -4.4582401   -3.2837689  0.015349099   -4.4582401    1.1744712  1010000 
 3116000   0.78433272   -4.4599539   -4.4599539    -3.283456  0.013505236   -4.4599539    1.1764979  1010000 
 3117000   0.78404085   -4.4589652   -4.4589652   -3.2829051  0.019346494   -4.4589652    1.1760601  1010000 
 3118000   0.78344199   -4.4590869   -4.4590869    -3.283925   0.01965007   -4.4590869    1.1751618  1010000 
 3119000   0.78365554   -4.4600088   -4.4600088   -3.2845266   0.01765151   -4.4600088    1.1754821  1010000 
 3120000   0.78341793   -4.4601702   -4.4601702   -3.2850444  0.015168043   -4.4601702    1.1751257  1010000 
 3121000   0.78347255   -4.4604423   -4.4604423   -3.2852346  0.014416729   -4.4604423    1.1752077  1010000 
 3122000   0.78298313   -4.4597266   -4.4597266   -3.2852531  0.016958272   -4.4597266    1.1744735  1010000 
 3123000   0.78352345   -4.4607674   -4.4607674   -3.2854834  0.017251197   -4.4607674     1.175284  1010000 
 3124000   0.78288349   -4.4599307   -4.4599307   -3.2856067  0.018382794   -4.4599307    1.1743241  1010000 
 3125000   0.78361608   -4.4608164   -4.4608164   -3.2853935  0.015582636   -4.4608164     1.175423  1010000 
 3126000   0.78261097   -4.4599443   -4.4599443    -3.286029  0.017956867   -4.4599443    1.1739153  1010000 
 3127000   0.78365164   -4.4611966   -4.4611966   -3.2857203  0.015693495   -4.4611966    1.1754763  1010000 
 3128000   0.78229944    -4.459487    -4.459487    -3.286039  0.018006698    -4.459487     1.173448  1010000 
 3129000   0.78229867   -4.4599788   -4.4599788    -3.286532  0.021884391   -4.4599788    1.1734469  1010000 
 3130000   0.78318742   -4.4614689   -4.4614689   -3.2866889  0.020179534   -4.4614689      1.17478  1010000 
 3131000   0.78323428   -4.4611474   -4.4611474   -3.2862972  0.020986704   -4.4611474    1.1748503  1010000 
 3132000   0.78325072   -4.4615773   -4.4615773   -3.2867024  0.018167786   -4.4615773    1.1748749  1010000 
 3133000   0.78390369   -4.4625385   -4.4625385   -3.2866841  0.018758365   -4.4625385    1.1758544  1010000 
 3134000   0.78370429   -4.4618757   -4.4618757   -3.2863204  0.022064566   -4.4618757    1.1755553  1010000 
 3135000   0.78386953   -4.4626749   -4.4626749   -3.2868718  0.019611995   -4.4626749    1.1758031  1010000 
 3136000   0.78360963   -4.4620854   -4.4620854   -3.2866721   0.02343422   -4.4620854    1.1754133  1010000 
 3137000   0.78420848   -4.4625684   -4.4625684   -3.2862568  0.018656758   -4.4625684    1.1763116  1010000 
 3138000   0.78335197   -4.4610554   -4.4610554   -3.2860286  0.023734978   -4.4610554    1.1750268  1010000 
 3139000   0.78349373   -4.4608969   -4.4608969   -3.2856575  0.020882524   -4.4608969    1.1752394  1010000 
 3140000   0.78374464   -4.4618941   -4.4618941   -3.2862783  0.018076951   -4.4618941    1.1756158  1010000 
 3141000   0.78379218   -4.4620316   -4.4620316   -3.2863445  0.020277872   -4.4620316    1.1756871  1010000 
 3142000   0.78428199   -4.4627399   -4.4627399   -3.2863181  0.018641592   -4.4627399    1.1764218  1010000 
 3143000   0.78361031   -4.4621496   -4.4621496   -3.2867353     0.018929   -4.4621496    1.1754143  1010000 
 3144000   0.78354567   -4.4621036   -4.4621036   -3.2867862  0.019581855   -4.4621036    1.1753173  1010000 
 3145000   0.78324376   -4.4615131   -4.4615131   -3.2866486  0.019612247   -4.4615131    1.1748645  1010000 
 3146000   0.78339064   -4.4613302   -4.4613302   -3.2862454  0.017964979   -4.4613302    1.1750848  1010000 
 3147000   0.78267298   -4.4606502   -4.4606502   -3.2866419  0.019130112   -4.4606502    1.1740083  1010000 
 3148000   0.78323816   -4.4618941   -4.4618941    -3.287038  0.013958798   -4.4618941    1.1748561  1010000 
 3149000   0.78279872    -4.461238    -4.461238   -3.2870411  0.012388893    -4.461238    1.1741969  1010000 
 3150000    0.7820673   -4.4601729   -4.4601729   -3.2870731  0.022362063   -4.4601729    1.1730998  1010000 
 3151000   0.78207655   -4.4603271   -4.4603271   -3.2872135  0.017019139   -4.4603271    1.1731137  1010000 
 3152000   0.78197212   -4.4601788   -4.4601788   -3.2872218  0.018099563   -4.4601788     1.172957  1010000 
 3153000   0.78264703   -4.4614788   -4.4614788   -3.2875094  0.013630919   -4.4614788    1.1739694  1010000 
 3154000   0.78260102   -4.4615644   -4.4615644   -3.2876641  0.012709031   -4.4615644    1.1739004  1010000 
 3155000    0.7827335   -4.4616578   -4.4616578   -3.2875587  0.014089591   -4.4616578    1.1740991  1010000 
 3156000   0.78202409   -4.4607604   -4.4607604   -3.2877254   0.01643716   -4.4607604     1.173035  1010000 
 3157000   0.78219104   -4.4609768   -4.4609768   -3.2876914  0.011201022   -4.4609768    1.1732854  1010000 
 3158000   0.78160105   -4.4608105   -4.4608105   -3.2884101  0.014377941   -4.4608105    1.1724004  1010000 
 3159000   0.78088293   -4.4600082   -4.4600082    -3.288685  0.015362914   -4.4600082    1.1713232  1010000 
 3160000   0.78131573   -4.4608436   -4.4608436   -3.2888712 0.0093949388   -4.4608436    1.1719724  1010000 
 3161000   0.78167062   -4.4614092   -4.4614092   -3.2889044  0.012328474   -4.4614092    1.1725048  1010000 
 3162000   0.78171281   -4.4619599   -4.4619599   -3.2893919 0.0096353086   -4.4619599    1.1725681  1010000 
 3163000   0.78176994    -4.462467    -4.462467   -3.2898133  0.012687959    -4.462467    1.1726538  1010000 
 3164000   0.78159858   -4.4623728   -4.4623728   -3.2899761  0.011845106   -4.4623728    1.1723967  1010000 
 3165000    0.7815569   -4.4622494   -4.4622494   -3.2899152  0.011058471   -4.4622494    1.1723342  1010000 
 3166000   0.78127048   -4.4618912   -4.4618912   -3.2899866   0.01494518   -4.4618912    1.1719046  1010000 
 3167000     0.781936   -4.4627551   -4.4627551   -3.2898522  0.013910542   -4.4627551    1.1729028  1010000 
 3168000   0.78181686   -4.4626218   -4.4626218   -3.2898976  0.012361857   -4.4626218    1.1727241  1010000 
 3169000    0.7826868   -4.4640304   -4.4640304   -3.2900014  0.011441322   -4.4640304     1.174029  1010000 
 3170000   0.78149784   -4.4623597   -4.4623597   -3.2901141  0.016837405   -4.4623597    1.1722456  1010000 
 3171000   0.78230224   -4.4635404   -4.4635404   -3.2900882   0.01663033   -4.4635404    1.1734522  1010000 
 3172000   0.78265463   -4.4645707   -4.4645707   -3.2905899  0.016183354   -4.4645707    1.1739808  1010000 
 3173000   0.78279658   -4.4651061   -4.4651061   -3.2909123  0.015122165   -4.4651061    1.1741937  1010000 
 3174000   0.78113691   -4.4629582   -4.4629582    -3.291254  0.018440569   -4.4629582    1.1717042  1010000 
 3175000   0.78229434   -4.4647251   -4.4647251   -3.2912848  0.018205997   -4.4647251    1.1734403  1010000 
 3176000   0.78295062   -4.4658879   -4.4658879   -3.2914631  0.020753926   -4.4658879    1.1744248  1010000 
 3177000   0.78171869   -4.4645695   -4.4645695   -3.2919926    0.0236783   -4.4645695    1.1725769  1010000 
 3178000   0.78256979   -4.4660163   -4.4660163   -3.2921628  0.018083954   -4.4660163    1.1738535  1010000 
 3179000   0.78300943   -4.4668327   -4.4668327   -3.2923197  0.017278399   -4.4668327     1.174513  1010000 
 3180000   0.78212314   -4.4658561   -4.4658561   -3.2926725  0.018553759   -4.4658561    1.1731836  1010000 
 3181000   0.78317592   -4.4670668   -4.4670668   -3.2923041  0.016222827   -4.4670668    1.1747627  1010000 
 3182000   0.78337866   -4.4673949   -4.4673949   -3.2923281  0.017497743   -4.4673949    1.1750668  1010000 
 3183000    0.7830722   -4.4668852   -4.4668852    -3.292278  0.021652272   -4.4668852    1.1746071  1010000 
 3184000   0.78305024   -4.4673152   -4.4673152    -3.292741  0.020422321   -4.4673152    1.1745742  1010000 
 3185000   0.78294647   -4.4668068   -4.4668068   -3.2923883  0.020980727   -4.4668068    1.1744185  1010000 
 3186000   0.78324504   -4.4673503   -4.4673503   -3.2924839  0.018739338   -4.4673503    1.1748664  1010000 
 3187000   0.78297265   -4.4671257   -4.4671257   -3.2926679  0.022604046   -4.4671257    1.1744578  1010000 
 3188000   0.78248579   -4.4672052   -4.4672052   -3.2934777  0.021090233   -4.4672052    1.1737275  1010000 
 3189000   0.78272041    -4.467596    -4.467596   -3.2935166  0.021847295    -4.467596    1.1740794  1010000 
 3190000   0.78256299   -4.4678284   -4.4678284    -3.293985  0.022730964   -4.4678284    1.1738433  1010000 
 3191000   0.78190152   -4.4668884   -4.4668884   -3.2940372  0.023614997   -4.4668884    1.1728511  1010000 
 3192000   0.78270158    -4.468043    -4.468043   -3.2939918    0.0187138    -4.468043    1.1740512  1010000 
 3193000   0.78308516   -4.4680937   -4.4680937   -3.2934672   0.02175262   -4.4680937    1.1746266  1010000 
 3194000   0.78216896   -4.4669911   -4.4669911   -3.2937388   0.02247766   -4.4669911    1.1732523  1010000 
 3195000   0.78206197   -4.4671361   -4.4671361   -3.2940443  0.019075456   -4.4671361    1.1730918  1010000 
 3196000   0.78203615   -4.4674081   -4.4674081    -3.294355  0.018461158   -4.4674081    1.1730531  1010000 
 3197000   0.78203749   -4.4672499   -4.4672499   -3.2941948  0.015246912   -4.4672499    1.1730551  1010000 
 3198000   0.78082233   -4.4655691   -4.4655691   -3.2943368  0.020934893   -4.4655691    1.1712323  1010000 
 3199000   0.78199456    -4.467537    -4.467537   -3.2945464  0.016981679    -4.467537    1.1729907  1010000 
 3200000   0.78128058   -4.4665493   -4.4665493   -3.2946296  0.016584002   -4.4665493    1.1719197  1010000 
 3201000     0.781537   -4.4669564   -4.4669564    -3.294652  0.015744174   -4.4669564    1.1723043  1010000 
 3202000   0.78194477    -4.466868    -4.466868    -3.293952  0.016306394    -4.466868     1.172916  1010000 
 3203000   0.78144695   -4.4661871   -4.4661871   -3.2940178  0.020140116   -4.4661871    1.1721693  1010000 
 3204000   0.78097393   -4.4659852   -4.4659852   -3.2945255  0.013973811   -4.4659852    1.1714597  1010000 
 3205000    0.7807643    -4.465848    -4.465848   -3.2947027  0.014824158    -4.465848    1.1711453  1010000 
 3206000   0.78177261   -4.4673337   -4.4673337    -3.294676 0.0095689146   -4.4673337    1.1726578  1010000 
 3207000   0.78152682   -4.4668483   -4.4668483   -3.2945592  0.012624405   -4.4668483    1.1722891  1010000 
 3208000   0.78121567   -4.4661088   -4.4661088   -3.2942864  0.012145779   -4.4661088    1.1718224  1010000 
 3209000   0.78037149   -4.4649832   -4.4649832   -3.2944271  0.016986956   -4.4649832    1.1705561  1010000 
 3210000   0.78155155   -4.4665956   -4.4665956   -3.2942695 0.0093303038   -4.4665956    1.1723262  1010000 
 3211000   0.77993674   -4.4643281   -4.4643281   -3.2944241  0.015898719   -4.4643281    1.1699039  1010000 
 3212000   0.78083866   -4.4661727   -4.4661727   -3.2949159 0.0092536184   -4.4661727    1.1712568  1010000 
 3213000    0.7808317   -4.4663525   -4.4663525   -3.2951061  0.012803614   -4.4663525    1.1712464  1010000 
 3214000   0.78055316   -4.4659207   -4.4659207   -3.2950921  0.009445906   -4.4659207    1.1708286  1010000 
 3215000   0.78038994   -4.4651685   -4.4651685   -3.2945848  0.011718375   -4.4651685    1.1705838  1010000 
 3216000   0.78116961   -4.4663705   -4.4663705   -3.2946172 0.0090312491   -4.4663705    1.1717533  1010000 
 3217000   0.78017059   -4.4655464   -4.4655464   -3.2952917  0.010902322   -4.4655464    1.1702547  1010000 
 3218000   0.78049066   -4.4657914   -4.4657914   -3.2950566   0.01106182   -4.4657914    1.1707348  1010000 
 3219000   0.78038343   -4.4659151   -4.4659151   -3.2953411  0.012532333   -4.4659151     1.170574  1010000 
 3220000    0.7810074   -4.4667399   -4.4667399     -3.29523  0.015167592   -4.4667399    1.1715099  1010000 
 3221000   0.78060901   -4.4661013   -4.4661013   -3.2951889  0.014023778   -4.4661013    1.1709124  1010000 
 3222000    0.7804722   -4.4657147   -4.4657147   -3.2950076  0.014110789   -4.4657147    1.1707071  1010000 
 3223000   0.78106614   -4.4664671   -4.4664671    -3.294869  0.018981212   -4.4664671    1.1715981  1010000 
 3224000   0.78177125   -4.4679547   -4.4679547    -3.295299  0.013015293   -4.4679547    1.1726557  1010000 
 3225000   0.78187797   -4.4680177   -4.4680177   -3.2952019  0.016377514   -4.4680177    1.1728158  1010000 
 3226000   0.78178508   -4.4680526   -4.4680526   -3.2953761  0.013617871   -4.4680526    1.1726765  1010000 
 3227000   0.78135365   -4.4672441   -4.4672441   -3.2952148  0.020179782   -4.4672441    1.1720293  1010000 
 3228000   0.78120278   -4.4673071   -4.4673071   -3.2955041  0.018976798   -4.4673071     1.171803  1010000 
 3229000   0.78160852   -4.4686257   -4.4686257   -3.2962141  0.014465169   -4.4686257    1.1724116  1010000 
 3230000    0.7817965   -4.4686754   -4.4686754   -3.2959818  0.017432377   -4.4686754    1.1726936  1010000 
 3231000    0.7808764   -4.4673578   -4.4673578   -3.2960443  0.022075209   -4.4673578    1.1713134  1010000 
 3232000   0.78222826    -4.469817    -4.469817   -3.2964758  0.015359869    -4.469817    1.1733412  1010000 
 3233000   0.78160455    -4.469163    -4.469163   -3.2967574  0.020141663    -4.469163    1.1724057  1010000 
 3234000   0.78197745   -4.4696389   -4.4696389   -3.2966739  0.018267167   -4.4696389     1.172965  1010000 
 3235000   0.78173037   -4.4696373   -4.4696373   -3.2970429   0.01897205   -4.4696373    1.1725944  1010000 
 3236000   0.78215652   -4.4703913   -4.4703913   -3.2971577  0.018128168   -4.4703913    1.1732336  1010000 
 3237000   0.78249483   -4.4709858   -4.4709858   -3.2972448   0.01763798   -4.4709858    1.1737411  1010000 
 3238000    0.7826153   -4.4711841   -4.4711841   -3.2972623  0.017559511   -4.4711841    1.1739218  1010000 
 3239000   0.78247811    -4.470918    -4.470918    -3.297202   0.01995942    -4.470918     1.173716  1010000 
 3240000   0.78154556   -4.4694862   -4.4694862    -3.297169  0.018614442   -4.4694862    1.1723172  1010000 
 3241000   0.78176605   -4.4703128   -4.4703128   -3.2976649  0.019221015   -4.4703128    1.1726479  1010000 
 3242000    0.7817408   -4.4703183   -4.4703183   -3.2977082  0.017831505   -4.4703183      1.17261  1010000 
 3243000   0.78217014   -4.4707558   -4.4707558   -3.2975017  0.019480909   -4.4707558     1.173254  1010000 
 3244000   0.78184167   -4.4707209   -4.4707209   -3.2979595  0.018024469   -4.4707209    1.1727613  1010000 
 3245000   0.78161236   -4.4705518   -4.4705518   -3.2981344  0.019166228   -4.4705518    1.1724174  1010000 
 3246000   0.78147187   -4.4709951   -4.4709951   -3.2987884  0.016233766   -4.4709951    1.1722066  1010000 
 3247000    0.7820261   -4.4718453   -4.4718453   -3.2988073  0.014396846   -4.4718453     1.173038  1010000 
 3248000   0.78092775   -4.4706658   -4.4706658   -3.2992753  0.017304767   -4.4706658    1.1713905  1010000 
 3249000    0.7807629   -4.4705219   -4.4705219   -3.2993787  0.016375884   -4.4705219    1.1711432  1010000 
 3250000   0.78030537   -4.4699583   -4.4699583   -3.2995014  0.015952804   -4.4699583    1.1704569  1010000 
 3251000   0.78060156    -4.471077    -4.471077   -3.3001759  0.014556394    -4.471077    1.1709012  1010000 
 3252000   0.78052657   -4.4712871   -4.4712871   -3.3004984  0.014103772   -4.4712871    1.1707887  1010000 
 3253000    0.7806165   -4.4712947   -4.4712947   -3.3003711  0.014725067   -4.4712947    1.1709236  1010000 
 3254000   0.78115743   -4.4722036   -4.4722036   -3.3004686  0.014034142   -4.4722036     1.171735  1010000 
 3255000   0.78121692   -4.4725291   -4.4725291   -3.3007049  0.015150725   -4.4725291    1.1718242  1010000 
 3256000   0.78025871   -4.4715603   -4.4715603   -3.3011734    0.0149745   -4.4715603    1.1703869  1010000 
 3257000   0.78017465   -4.4712278   -4.4712278    -3.300967  0.017901241   -4.4712278    1.1702608  1010000 
 3258000   0.78034206   -4.4713407   -4.4713407   -3.3008288  0.013879811   -4.4713407    1.1705119  1010000 
 3259000   0.78068789   -4.4709566   -4.4709566   -3.2999259  0.015666399   -4.4709566    1.1710307  1010000 
 3260000   0.77970308   -4.4697902   -4.4697902   -3.3002367  0.017901539   -4.4697902    1.1695535  1010000 
 3261000   0.78011472    -4.470452    -4.470452   -3.3002811  0.015507716    -4.470452    1.1701709  1010000 
 3262000   0.78084612   -4.4717008   -4.4717008   -3.3004328  0.014067727   -4.4717008     1.171268  1010000 
 3263000   0.78013497   -4.4706811   -4.4706811   -3.3004799  0.018027867   -4.4706811    1.1702013  1010000 
 3264000   0.78068427    -4.472111    -4.472111   -3.3010858  0.015079044    -4.472111    1.1710253  1010000 
 3265000   0.78014123   -4.4712113   -4.4712113   -3.3010007  0.015608721   -4.4712113    1.1702107  1010000 
 3266000   0.78072814   -4.4723034   -4.4723034   -3.3012123  0.017281644   -4.4723034    1.1710911  1010000 
 3267000   0.78021081   -4.4719057   -4.4719057   -3.3015907  0.018867197   -4.4719057    1.1703151  1010000 
 3268000   0.78067148   -4.4723139   -4.4723139   -3.3013079  0.015141095   -4.4723139    1.1710061  1010000 
 3269000   0.78044144   -4.4719536   -4.4719536   -3.3012926  0.016844085   -4.4719536     1.170661  1010000 
 3270000   0.77985401   -4.4721057   -4.4721057   -3.3023259  0.015304645   -4.4721057    1.1697799  1010000 
 3271000   0.78013507   -4.4726078   -4.4726078   -3.3024064  0.014946634   -4.4726078    1.1702014  1010000 
 3272000   0.78003942   -4.4722367   -4.4722367   -3.3021787   0.01737673   -4.4722367     1.170058  1010000 
 3273000   0.78119386   -4.4734304   -4.4734304   -3.3016408  0.015272793   -4.4734304    1.1717896  1010000 
 3274000   0.78005497    -4.472051    -4.472051   -3.3019697  0.020219391    -4.472051    1.1700813  1010000 
 3275000   0.78055242   -4.4732106   -4.4732106   -3.3023832  0.014385336   -4.4732106    1.1708275  1010000 
 3276000   0.77976979   -4.4723286   -4.4723286   -3.3026751  0.013752815   -4.4723286    1.1696535  1010000 
 3277000   0.77971913   -4.4725832   -4.4725832   -3.3030056  0.016564515   -4.4725832    1.1695775  1010000 
 3278000   0.78006389   -4.4738902   -4.4738902   -3.3037955  0.011518602   -4.4738902    1.1700947  1010000 
 3279000   0.78018103   -4.4737938   -4.4737938   -3.3035234  0.014496621   -4.4737938    1.1702704  1010000 
 3280000   0.78027889   -4.4741536   -4.4741536   -3.3037364  0.010752391   -4.4741536    1.1704172  1010000 
 3281000   0.77951842   -4.4729633   -4.4729633   -3.3036868  0.015114175   -4.4729633    1.1692765  1010000 
 3282000   0.77970786    -4.473297    -4.473297   -3.3037364  0.015919735    -4.473297    1.1695606  1010000 
 3283000   0.77976117   -4.4734742   -4.4734742   -3.3038335  0.014564469   -4.4734742    1.1696406  1010000 
 3284000   0.78062563   -4.4749438   -4.4749438   -3.3040065  0.014862547   -4.4749438    1.1709373  1010000 
 3285000   0.78066598    -4.474987    -4.474987   -3.3039892  0.015419717    -4.474987    1.1709978  1010000 
 3286000   0.77992928   -4.4740792   -4.4740792   -3.3041865  0.019468646   -4.4740792    1.1698928  1010000 
 3287000   0.77997408   -4.4746258   -4.4746258   -3.3046658  0.016349504   -4.4746258      1.16996  1010000 
 3288000   0.78040569   -4.4750015   -4.4750015   -3.3043941  0.013584913   -4.4750015    1.1706074  1010000 
 3289000   0.78006124   -4.4749378   -4.4749378   -3.3048471  0.016270446   -4.4749378    1.1700907  1010000 
 3290000   0.78002245   -4.4751222   -4.4751222   -3.3050896  0.017087033   -4.4751222    1.1700325  1010000 
 3291000   0.77984929   -4.4750992   -4.4750992   -3.3053265  0.015768674   -4.4750992    1.1697728  1010000 
 3292000   0.78019174   -4.4753243   -4.4753243   -3.3050378  0.016432379   -4.4753243    1.1702865  1010000 
 3293000   0.77907411   -4.4741513   -4.4741513   -3.3055413  0.017326618   -4.4741513      1.16861  1010000 
 3294000   0.78000607   -4.4753212   -4.4753212   -3.3053132  0.013606584   -4.4753212     1.170008  1010000 
 3295000   0.78043868   -4.4760332   -4.4760332   -3.3053764  0.017157318   -4.4760332    1.1706569  1010000 
 3296000   0.77986343   -4.4754324   -4.4754324   -3.3056384  0.015715018   -4.4754324     1.169794  1010000 
 3297000   0.78003946   -4.4760281   -4.4760281     -3.30597   0.01313179   -4.4760281     1.170058  1010000 
 3298000   0.78019726   -4.4764403   -4.4764403   -3.3061456  0.015741609   -4.4764403    1.1702947  1010000 
 3299000    0.7801469   -4.4766741   -4.4766741   -3.3064549  0.016795843   -4.4766741    1.1702192  1010000 
 3300000   0.78017044   -4.4767633   -4.4767633   -3.3065088  0.016569176   -4.4767633    1.1702545  1010000 
 3301000   0.78066517   -4.4772499   -4.4772499   -3.3062533  0.015648581   -4.4772499    1.1709966  1010000 
 3302000   0.78091483   -4.4779758   -4.4779758   -3.3066047  0.018061617   -4.4779758    1.1713711  1010000 
 3303000   0.78076524   -4.4778428   -4.4778428   -3.3066961  0.017155418   -4.4778428    1.1711467  1010000 
 3304000    0.7804182   -4.4779232   -4.4779232    -3.307297  0.017567823   -4.4779232    1.1706261  1010000 
 3305000   0.78055261   -4.4783554   -4.4783554   -3.3075276  0.015501695   -4.4783554    1.1708278  1010000 
 3306000   0.78008019   -4.4771764   -4.4771764   -3.3070573  0.018011665   -4.4771764    1.1701191  1010000 
 3307000   0.78028251   -4.4776887   -4.4776887   -3.3072661  0.018802537   -4.4776887    1.1704226  1010000 
 3308000    0.7796589   -4.4766124   -4.4766124   -3.3071252  0.018807608   -4.4766124    1.1694872  1010000 
 3309000    0.7795845   -4.4768622   -4.4768622   -3.3074866  0.016641222   -4.4768622    1.1693756  1010000 
 3310000   0.77959974     -4.47718     -4.47718   -3.3077815  0.015999427     -4.47718    1.1693985  1010000 
 3311000   0.77899164   -4.4769392   -4.4769392   -3.3084529   0.01322668   -4.4769392    1.1684863  1010000 
 3312000   0.77917678   -4.4776479   -4.4776479   -3.3088839  0.014715811   -4.4776479     1.168764  1010000 
 3313000   0.77897778   -4.4771323   -4.4771323   -3.3086667  0.015992121   -4.4771323    1.1684655  1010000 
 3314000   0.77909448   -4.4777945   -4.4777945   -3.3091539  0.013783625   -4.4777945    1.1686406  1010000 
 3315000   0.77941198   -4.4781266   -4.4781266   -3.3090098  0.015524055   -4.4781266    1.1691168  1010000 
 3316000   0.77868483    -4.477056    -4.477056   -3.3090299  0.017972477    -4.477056    1.1680261  1010000 
 3317000   0.77920883   -4.4781657   -4.4781657   -3.3093537  0.014341661   -4.4781657    1.1688121  1010000 
 3318000   0.77963545   -4.4782461   -4.4782461   -3.3087941  0.014340234   -4.4782461     1.169452  1010000 
 3319000   0.78024173   -4.4789745   -4.4789745    -3.308613  0.016020747   -4.4789745    1.1703614  1010000 
 3320000   0.77930878   -4.4781974   -4.4781974   -3.3092354  0.016967756   -4.4781974     1.168962  1010000 
 3321000   0.77927387   -4.4781432   -4.4781432   -3.3092335  0.015576642   -4.4781432    1.1689096  1010000 
 3322000   0.77915401   -4.4779208   -4.4779208    -3.309191  0.019255096   -4.4779208    1.1687299  1010000 
 3323000   0.77947288   -4.4784351   -4.4784351   -3.3092269  0.018607105   -4.4784351    1.1692082  1010000 
 3324000   0.77938155   -4.4780982   -4.4780982    -3.309027  0.017311895   -4.4780982    1.1690712  1010000 
 3325000   0.77999952    -4.479184    -4.479184   -3.3091859   0.01345297    -4.479184    1.1699981  1010000 
 3326000   0.77900984   -4.4781648   -4.4781648   -3.3096512  0.016079706   -4.4781648    1.1685136  1010000 
 3327000   0.77950706   -4.4784048   -4.4784048   -3.3091453  0.013679604   -4.4784048    1.1692594  1010000 
 3328000   0.77965902   -4.4785974   -4.4785974   -3.3091101  0.014509399   -4.4785974    1.1694874  1010000 
 3329000   0.77954657   -4.4781649   -4.4781649   -3.3088462  0.013535381   -4.4781649    1.1693187  1010000 
 3330000   0.77921933   -4.4782547   -4.4782547   -3.3094269  0.014714583   -4.4782547    1.1688278  1010000 
 3331000   0.77872088   -4.4775713   -4.4775713   -3.3094911  0.015929374   -4.4775713    1.1680802  1010000 
 3332000   0.77897623     -4.47807     -4.47807   -3.3096068  0.018999334     -4.47807    1.1684632  1010000 
 3333000   0.77924174   -4.4791839   -4.4791839   -3.3103225   0.01754973   -4.4791839    1.1688614  1010000 
 3334000   0.77980196   -4.4799637   -4.4799637    -3.310262  0.014823257   -4.4799637    1.1697018  1010000 
 3335000   0.77902528   -4.4789237   -4.4789237    -3.310387  0.017345307   -4.4789237    1.1685368  1010000 
 3336000   0.77950108   -4.4794664   -4.4794664   -3.3102159  0.016814479   -4.4794664    1.1692505  1010000 
 3337000    0.7795203   -4.4794675   -4.4794675   -3.3101882  0.015870822   -4.4794675    1.1692793  1010000 
 3338000   0.77889141   -4.4780658   -4.4780658   -3.3097298  0.016279788   -4.4780658     1.168336  1010000 
 3339000   0.77955293   -4.4789187   -4.4789187   -3.3095905  0.014922919   -4.4789187    1.1693282  1010000 
 3340000   0.77982007   -4.4786605   -4.4786605   -3.3089316   0.01329438   -4.4786605     1.169729  1010000 
 3341000   0.77901257   -4.4775377   -4.4775377     -3.30902  0.019599941   -4.4775377    1.1685177  1010000 
 3342000   0.78011055   -4.4792893   -4.4792893   -3.3091246  0.013760086   -4.4792893    1.1701647  1010000 
 3343000   0.77905349   -4.4782906   -4.4782906   -3.3097115  0.016341099   -4.4782906    1.1685791  1010000 
 3344000   0.77900198   -4.4779248   -4.4779248   -3.3094229  0.017501201   -4.4779248    1.1685018  1010000 
 3345000   0.77977566   -4.4794171   -4.4794171   -3.3097547  0.014799785   -4.4794171    1.1696623  1010000 
 3346000   0.77943551    -4.478857    -4.478857   -3.3097049  0.014907617    -4.478857    1.1691521  1010000 
 3347000   0.77964106   -4.4801469   -4.4801469   -3.3106865  0.015036947   -4.4801469    1.1694604  1010000 
 3348000   0.77909805   -4.4792388   -4.4792388   -3.3105929  0.019997628   -4.4792388    1.1686459  1010000 
 3349000   0.77979464   -4.4806862   -4.4806862   -3.3109954  0.013189972   -4.4806862    1.1696908  1010000 
 3350000   0.77977556   -4.4806012   -4.4806012    -3.310939  0.014358878   -4.4806012    1.1696622  1010000 
 3351000   0.77965332   -4.4803388   -4.4803388   -3.3108599  0.013356112   -4.4803388    1.1694788  1010000 
 3352000   0.77925215   -4.4799434   -4.4799434   -3.3110663  0.012381004   -4.4799434    1.1688771  1010000 
 3353000   0.77829808   -4.4786783   -4.4786783   -3.3112324  0.018174324   -4.4786783     1.167446  1010000 
 3354000   0.77918253   -4.4802014   -4.4802014   -3.3114288  0.011897913   -4.4802014    1.1687726  1010000 
 3355000   0.77875688   -4.4790642   -4.4790642     -3.31093  0.015000845   -4.4790642    1.1681342  1010000 
 3356000   0.77892121   -4.4791957   -4.4791957   -3.3108151  0.015291398   -4.4791957    1.1683807  1010000 
 3357000    0.7788385    -4.479611    -4.479611   -3.3113544  0.015292514    -4.479611    1.1682566  1010000 
 3358000   0.77970935    -4.481291    -4.481291   -3.3117282  0.012973747    -4.481291    1.1695629  1010000 
 3359000   0.77833986   -4.4797933   -4.4797933   -3.3122847  0.013196702   -4.4797933    1.1675086  1010000 
 3360000   0.77882187    -4.480656    -4.480656   -3.3124243  0.014061664    -4.480656    1.1682316  1010000 
 3361000   0.77786752   -4.4794246   -4.4794246   -3.3126245   0.01665054   -4.4794246    1.1668001  1010000 
 3362000   0.77832054   -4.4803868   -4.4803868   -3.3129071  0.015375134   -4.4803868    1.1674797  1010000 
 3363000    0.7789413   -4.4817556   -4.4817556   -3.3133448 0.0098325721   -4.4817556    1.1684108  1010000 
 3364000   0.77767867   -4.4803641   -4.4803641   -3.3138473  0.013933193   -4.4803641    1.1665169  1010000 
 3365000   0.77806474   -4.4811803   -4.4811803   -3.3140843  0.013808943   -4.4811803     1.167096  1010000 
 3366000    0.7775974   -4.4803515   -4.4803515   -3.3139565  0.014051981   -4.4803515     1.166395  1010000 
 3367000   0.77813211   -4.4816658   -4.4816658   -3.3144688  0.014270564   -4.4816658     1.167197  1010000 
 3368000   0.77821676   -4.4817721   -4.4817721   -3.3144481    0.0162094   -4.4817721     1.167324  1010000 
 3369000   0.77837439   -4.4821948   -4.4821948   -3.3146343  0.012000649   -4.4821948    1.1675604  1010000 
 3370000     0.777925   -4.4817861   -4.4817861   -3.3148997   0.01610664   -4.4817861    1.1668863  1010000 
 3371000   0.77835527   -4.4823555   -4.4823555   -3.3148238  0.013552216   -4.4823555    1.1675318  1010000 
 3372000   0.77794371   -4.4812011   -4.4812011   -3.3142867   0.01786848   -4.4812011    1.1669144  1010000 
 3373000   0.77834335   -4.4826086   -4.4826086   -3.3150948  0.015427979   -4.4826086    1.1675139  1010000 
 3374000   0.77851511   -4.4829715   -4.4829715      -3.3152  0.016383801   -4.4829715    1.1677715  1010000 
 3375000   0.77790486   -4.4822726   -4.4822726   -3.3154165  0.017061047   -4.4822726    1.1668561  1010000 
 3376000   0.77771553   -4.4822391   -4.4822391    -3.315667  0.015982666   -4.4822391    1.1665721  1010000 
 3377000   0.77866682   -4.4838502   -4.4838502   -3.3158511  0.014803873   -4.4838502    1.1679991  1010000 
 3378000   0.77891989   -4.4842474   -4.4842474   -3.3158687  0.017167864   -4.4842474    1.1683787  1010000 
 3379000   0.77832302   -4.4835576   -4.4835576   -3.3160742  0.018857074   -4.4835576    1.1674834  1010000 
 3380000   0.77826006   -4.4838979   -4.4838979    -3.316509  0.017467514   -4.4838979    1.1673889  1010000 
 3381000   0.77797123   -4.4832332   -4.4832332   -3.3162775   0.01800053   -4.4832332    1.1669557  1010000 
 3382000   0.77866384   -4.4839749   -4.4839749   -3.3159803  0.015985485   -4.4839749    1.1679946  1010000 
 3383000   0.77847439   -4.4837448   -4.4837448   -3.3160344  0.014935927   -4.4837448    1.1677104  1010000 
 3384000   0.77834896   -4.4836666   -4.4836666   -3.3161444  0.017708998   -4.4836666    1.1675223  1010000 
 3385000   0.77867069   -4.4844096   -4.4844096   -3.3164047  0.013746141   -4.4844096    1.1680049  1010000 
 3386000   0.77877118   -4.4843769   -4.4843769   -3.3162213  0.018642493   -4.4843769    1.1681556  1010000 
 3387000   0.77865906   -4.4844611   -4.4844611   -3.3164736   0.02141655   -4.4844611    1.1679874  1010000 
 3388000   0.77875637   -4.4846724   -4.4846724    -3.316539  0.017748538   -4.4846724    1.1681334  1010000 
 3389000   0.77857815   -4.4849164   -4.4849164   -3.3170503  0.018680019   -4.4849164    1.1678661  1010000 
 3390000   0.77840116    -4.484907    -4.484907   -3.3173064  0.015799275    -4.484907    1.1676006  1010000 
 3391000   0.77749149   -4.4834735   -4.4834735   -3.3172375  0.017652937   -4.4834735    1.1662361  1010000 
 3392000   0.77853142   -4.4852415   -4.4852415   -3.3174456  0.016570717   -4.4852415     1.167796  1010000 
 3393000    0.7782409   -4.4850085   -4.4850085   -3.3176483  0.019122513   -4.4850085    1.1673602  1010000 
 3394000   0.77824967   -4.4847818   -4.4847818   -3.3174084  0.017351149   -4.4847818    1.1673733  1010000 
 3395000    0.7788175   -4.4855426   -4.4855426   -3.3173176  0.016676472   -4.4855426    1.1682251  1010000 
 3396000   0.77853291    -4.485277    -4.485277   -3.3174788  0.014275604    -4.485277    1.1677982  1010000 
 3397000   0.77726594   -4.4833378   -4.4833378     -3.31744  0.016486472   -4.4833378    1.1658978  1010000 
 3398000   0.77744768    -4.483994    -4.483994   -3.3178236   0.01766034    -4.483994    1.1661704  1010000 
 3399000   0.77732716   -4.4833051   -4.4833051   -3.3173155  0.017245481   -4.4833051    1.1659896  1010000 
 3400000    0.7781451   -4.4845395   -4.4845395    -3.317323  0.015187163   -4.4845395    1.1672165  1010000 
 3401000   0.77817101   -4.4839888   -4.4839888   -3.3167335  0.017170825   -4.4839888    1.1672554  1010000 
 3402000   0.77777213   -4.4839621   -4.4839621   -3.3173051  0.015041841   -4.4839621     1.166657  1010000 
 3403000   0.77784364   -4.4845045   -4.4845045   -3.3177402  0.015549851   -4.4845045    1.1667643  1010000 
 3404000   0.77795227   -4.4850332   -4.4850332    -3.318106  0.011051475   -4.4850332    1.1669272  1010000 
 3405000   0.77769487   -4.4849926   -4.4849926   -3.3184514   0.01315401   -4.4849926    1.1665412  1010000 
 3406000   0.77721981   -4.4845717   -4.4845717   -3.3187431  0.015797392   -4.4845717    1.1658286  1010000 
 3407000   0.77783836   -4.4855476   -4.4855476   -3.3187912  0.014406192   -4.4855476    1.1667564  1010000 
 3408000   0.77770801   -4.4856044   -4.4856044   -3.3190436  0.011493635   -4.4856044    1.1665609  1010000 
 3409000   0.77693617   -4.4852657   -4.4852657   -3.3198626  0.013260407   -4.4852657    1.1654031  1010000 
 3410000   0.77690972   -4.4849744   -4.4849744    -3.319611  0.013329575   -4.4849744    1.1653634  1010000 
 3411000   0.77686199   -4.4850622   -4.4850622   -3.3197703  0.013604058   -4.4850622    1.1652918  1010000 
 3412000   0.77649074   -4.4848679   -4.4848679    -3.320133   0.01285993   -4.4848679     1.164735  1010000 
 3413000   0.77697429   -4.4856624   -4.4856624   -3.3202021  0.010089728   -4.4856624    1.1654603  1010000 
 3414000   0.77654307   -4.4850373   -4.4850373   -3.3202238  0.010583092   -4.4850373    1.1648135  1010000 
 3415000   0.77621896   -4.4844614   -4.4844614   -3.3201341  0.014354995   -4.4844614    1.1643273  1010000 
 3416000   0.77707991   -4.4851194   -4.4851194   -3.3195007  0.011327288   -4.4851194    1.1656187  1010000 
 3417000   0.77738968   -4.4859231   -4.4859231   -3.3198397  0.013202967   -4.4859231    1.1660834  1010000 
 3418000   0.77731376    -4.485699    -4.485699   -3.3197296  0.016994089    -4.485699    1.1659695  1010000 
 3419000   0.77713286   -4.4865113   -4.4865113   -3.3208132  0.016433798   -4.4865113    1.1656981  1010000 
 3420000   0.77701808   -4.4859815   -4.4859815   -3.3204555  0.016252576   -4.4859815     1.165526  1010000 
 3421000   0.77858063   -4.4885032   -4.4885032   -3.3206334  0.017041777   -4.4885032    1.1678698  1010000 
 3422000   0.77872103   -4.4883095   -4.4883095   -3.3202291  0.014238775   -4.4883095    1.1680804  1010000 
 3423000   0.77773588   -4.4869153   -4.4869153   -3.3203126   0.01815706   -4.4869153    1.1666027  1010000 
 3424000   0.77780064   -4.4871397   -4.4871397   -3.3204399  0.018839954   -4.4871397    1.1666998  1010000 
 3425000   0.77826317   -4.4877073   -4.4877073   -3.3203137  0.018042123   -4.4877073    1.1673936  1010000 
 3426000    0.7780566   -4.4877225   -4.4877225   -3.3206387  0.019246501   -4.4877225    1.1670837  1010000 
 3427000    0.7777466   -4.4872442   -4.4872442   -3.3206255  0.019100911   -4.4872442    1.1666187  1010000 
 3428000   0.77779166   -4.4871524   -4.4871524   -3.3204661  0.019265752   -4.4871524    1.1666863  1010000 
 3429000   0.77787449   -4.4872969   -4.4872969   -3.3204863  0.019108768   -4.4872969    1.1668106  1010000 
 3430000   0.77811619   -4.4880446   -4.4880446   -3.3208715  0.019314268   -4.4880446    1.1671731  1010000 
 3431000   0.77788423   -4.4882126   -4.4882126   -3.3213874  0.017090829   -4.4882126    1.1668252  1010000 
 3432000   0.77706446   -4.4873596   -4.4873596   -3.3217641  0.017689946   -4.4873596    1.1655955  1010000 
 3433000   0.77770715   -4.4885735   -4.4885735   -3.3220139  0.017146827   -4.4885735    1.1665596  1010000 
 3434000   0.77763381   -4.4887875   -4.4887875    -3.322338  0.015586704   -4.4887875    1.1664496  1010000 
 3435000   0.77701656   -4.4882802   -4.4882802   -3.3227565  0.016002756   -4.4882802    1.1655237  1010000 
 3436000    0.7775493   -4.4891957   -4.4891957   -3.3228729  0.014820507   -4.4891957    1.1663228  1010000 
 3437000   0.77761655   -4.4887743   -4.4887743   -3.3223506  0.014455647   -4.4887743    1.1664237  1010000 
 3438000   0.77757823   -4.4886163   -4.4886163   -3.3222502  0.015165393   -4.4886163    1.1663662  1010000 
 3439000   0.77782807   -4.4891191   -4.4891191   -3.3223782  0.014062743   -4.4891191    1.1667409  1010000 
 3440000   0.77724613   -4.4884981   -4.4884981     -3.32263  0.017344854   -4.4884981     1.165868  1010000 
 3441000   0.77813707   -4.4898507   -4.4898507   -3.3226462  0.016468122   -4.4898507    1.1672044  1010000 
 3442000   0.77767339   -4.4895508   -4.4895508   -3.3230419   0.01684529   -4.4895508    1.1665089  1010000 
 3443000   0.77830436    -4.490128    -4.490128   -3.3226726  0.016146165    -4.490128    1.1674554  1010000 
 3444000   0.77721668    -4.488504    -4.488504   -3.3226801  0.016549221    -4.488504    1.1658239  1010000 
 3445000   0.77732848   -4.4894018   -4.4894018   -3.3234103  0.014073772   -4.4894018    1.1659916  1010000 
 3446000   0.77790881   -4.4904433   -4.4904433   -3.3235812  0.013445815   -4.4904433    1.1668621  1010000 
 3447000   0.77676828   -4.4890003   -4.4890003    -3.323849  0.014575067   -4.4890003    1.1651513  1010000 
 3448000   0.77646801   -4.4885517   -4.4885517   -3.3238509  0.014732251   -4.4885517    1.1647009  1010000 
 3449000   0.77688545   -4.4893246   -4.4893246   -3.3239976  0.014243078   -4.4893246     1.165327  1010000 
 3450000   0.77651943   -4.4891005   -4.4891005   -3.3243225  0.012458514   -4.4891005     1.164778  1010000 
 3451000    0.7766201   -4.4896264   -4.4896264   -3.3246974  0.013770478   -4.4896264     1.164929  1010000 
 3452000   0.77647341   -4.4893991   -4.4893991   -3.3246901  0.014827798   -4.4893991     1.164709  1010000 
 3453000   0.77720295   -4.4900146   -4.4900146   -3.3242114  0.011769819   -4.4900146    1.1658033  1010000 
 3454000    0.7764482   -4.4891787   -4.4891787   -3.3245076  0.015738961   -4.4891787    1.1646712  1010000 
 3455000   0.77661792   -4.4896499   -4.4896499   -3.3247242  0.016769726   -4.4896499    1.1649257  1010000 
 3456000   0.77642287   -4.4892119   -4.4892119   -3.3245787  0.015902473   -4.4892119    1.1646331  1010000 
 3457000   0.77692444   -4.4897926   -4.4897926   -3.3244071  0.010610363   -4.4897926    1.1653855  1010000 
 3458000   0.77710766   -4.4905177   -4.4905177   -3.3248573  0.012559107   -4.4905177    1.1656603  1010000 
 3459000   0.77649349   -4.4895221   -4.4895221    -3.324783  0.012631788   -4.4895221    1.1647391  1010000 
 3460000   0.77622262   -4.4889718   -4.4889718    -3.324639  0.016503254   -4.4889718    1.1643328  1010000 
 3461000   0.77676965   -4.4898852   -4.4898852   -3.3247319  0.016371245   -4.4898852    1.1651533  1010000 
 3462000    0.7765687   -4.4905212   -4.4905212   -3.3256693   0.01763316   -4.4905212    1.1648519  1010000 
 3463000   0.77660043   -4.4905028   -4.4905028   -3.3256033  0.016938128   -4.4905028    1.1648995  1010000 
 3464000   0.77593991   -4.4903807   -4.4903807    -3.326472  0.016093481   -4.4903807    1.1639087  1010000 
 3465000   0.77632926   -4.4909898   -4.4909898   -3.3264971  0.014142196   -4.4909898    1.1644927  1010000 
 3466000   0.77603925   -4.4909098   -4.4909098    -3.326852  0.014499595   -4.4909098    1.1640577  1010000 
 3467000   0.77636325   -4.4912984   -4.4912984   -3.3267547   0.01097653   -4.4912984    1.1645437  1010000 
 3468000   0.77683814   -4.4918905   -4.4918905   -3.3266345  0.013229584   -4.4918905    1.1652561  1010000 
 3469000   0.77692738   -4.4924213   -4.4924213   -3.3270314  0.011712964   -4.4924213    1.1653899  1010000 
 3470000   0.77556869   -4.4905378   -4.4905378   -3.3271859  0.016114733   -4.4905378    1.1633519  1010000 
 3471000    0.7761919   -4.4913825   -4.4913825   -3.3270958  0.017973144   -4.4913825    1.1642867  1010000 
 3472000   0.77681472   -4.4927916   -4.4927916   -3.3275707  0.016248613   -4.4927916    1.1652209  1010000 
 3473000   0.77628901   -4.4919809   -4.4919809   -3.3275485  0.017820944   -4.4919809    1.1644324  1010000 
 3474000   0.77573013   -4.4920126   -4.4920126   -3.3284186  0.014922342   -4.4920126     1.163594  1010000 
 3475000   0.77573654    -4.491894    -4.491894   -3.3282903  0.015660234    -4.491894    1.1636037  1010000 
 3476000   0.77660188   -4.4933527   -4.4933527    -3.328451  0.013298703   -4.4933527    1.1649017  1010000 
 3477000   0.77612352   -4.4921855   -4.4921855   -3.3280014  0.018015198   -4.4921855    1.1641841  1010000 
 3478000    0.7772001    -4.494095    -4.494095    -3.328296  0.015562721    -4.494095     1.165799  1010000 
 3479000     0.776537   -4.4937752   -4.4937752   -3.3289708  0.014905088   -4.4937752    1.1648043  1010000 
 3480000   0.77681555   -4.4940188   -4.4940188   -3.3287967   0.01508869   -4.4940188    1.1652222  1010000 
 3481000   0.77693736   -4.4937865   -4.4937865   -3.3283816  0.018615977   -4.4937865    1.1654049  1010000 
 3482000   0.77714357   -4.4942802   -4.4942802    -3.328566  0.017276698   -4.4942802    1.1657142  1010000 
 3483000   0.77724367   -4.4946738   -4.4946738   -3.3288094  0.018782376   -4.4946738    1.1658644  1010000 
 3484000   0.77634817   -4.4942532   -4.4942532   -3.3297321  0.019703545   -4.4942532    1.1645211  1010000 
 3485000   0.77665061   -4.4947935   -4.4947935   -3.3298187   0.01981451   -4.4947935    1.1649748  1010000 
 3486000   0.77614616   -4.4942067   -4.4942067   -3.3299886  0.017968227   -4.4942067    1.1642181  1010000 
 3487000   0.77666303   -4.4950043   -4.4950043   -3.3300109  0.016357518   -4.4950043    1.1649934  1010000 
 3488000    0.7772038   -4.4954198   -4.4954198   -3.3296152   0.01823985   -4.4954198    1.1658045  1010000 
 3489000   0.77660357   -4.4946271   -4.4946271   -3.3297229  0.016118016   -4.4946271    1.1649042  1010000 
 3490000   0.77756668   -4.4961487   -4.4961487   -3.3297998  0.012790807   -4.4961487    1.1663489  1010000 
 3491000   0.77627578   -4.4944161   -4.4944161   -3.3300036  0.019311739   -4.4944161    1.1644125  1010000 
 3492000   0.77602329   -4.4945629   -4.4945629   -3.3305292  0.018441389   -4.4945629    1.1640338  1010000 
 3493000   0.77598404   -4.4950062   -4.4950062   -3.3310313   0.01638133   -4.4950062    1.1639749  1010000 
 3494000   0.77594447   -4.4956961   -4.4956961   -3.3317806  0.014159011   -4.4956961    1.1639155  1010000 
 3495000   0.77513496   -4.4950008   -4.4950008   -3.3322995  0.017664734   -4.4950008    1.1627013  1010000 
 3496000   0.77508024   -4.4950757   -4.4950757   -3.3324565   0.01415732   -4.4950757    1.1626192  1010000 
 3497000   0.77483895   -4.4947509   -4.4947509   -3.3324936  0.015376908   -4.4947509    1.1622573  1010000 
 3498000   0.77564013   -4.4953704   -4.4953704   -3.3319113   0.01230387   -4.4953704     1.163459  1010000 
 3499000   0.77547795   -4.4950741   -4.4950741   -3.3318583  0.014399926   -4.4950741    1.1632158  1010000 
 3500000   0.77473486    -4.494433    -4.494433   -3.3323319  0.014450242    -4.494433    1.1621011  1010000 
 3501000   0.77521787   -4.4948025   -4.4948025   -3.3319769  0.014604375   -4.4948025    1.1628257  1010000 
 3502000   0.77588451   -4.4959346   -4.4959346   -3.3321089  0.011180114   -4.4959346    1.1638256  1010000 
 3503000   0.77504744    -4.494837    -4.494837    -3.332267  0.011814512    -4.494837      1.16257  1010000 
 3504000   0.77514085   -4.4951556   -4.4951556   -3.3324455  0.013330967   -4.4951556    1.1627101  1010000 
 3505000   0.77561696   -4.4956632   -4.4956632   -3.3322389  0.012826776   -4.4956632    1.1634243  1010000 
 3506000   0.77551479   -4.4960923   -4.4960923   -3.3328213  0.012481577   -4.4960923     1.163271  1010000 
 3507000   0.77485793    -4.495057    -4.495057   -3.3327713  0.011944511    -4.495057    1.1622857  1010000 
 3508000    0.7741281   -4.4934853   -4.4934853   -3.3322943  0.017432362   -4.4934853     1.161191  1010000 
 3509000    0.7745801   -4.4945737   -4.4945737   -3.3327047  0.014877592   -4.4945737     1.161869  1010000 
 3510000   0.77550384   -4.4962788   -4.4962788   -3.3330242  0.010292291   -4.4962788    1.1632546  1010000 
 3511000   0.77480892   -4.4951567   -4.4951567   -3.3329444  0.014134829   -4.4951567    1.1622122  1010000 
 3512000   0.77470772   -4.4949404   -4.4949404   -3.3328799  0.014367049   -4.4949404    1.1620604  1010000 
 3513000    0.7753029   -4.4960454   -4.4960454   -3.3330922  0.013215212   -4.4960454    1.1629532  1010000 
 3514000   0.77498019   -4.4957359   -4.4957359   -3.3332667  0.011597572   -4.4957359    1.1624691  1010000 
 3515000   0.77526564   -4.4964853   -4.4964853    -3.333588  0.013890116   -4.4964853    1.1628973  1010000 
 3516000   0.77568285   -4.4974318   -4.4974318   -3.3339087  0.013600753   -4.4974318    1.1635231  1010000 
 3517000   0.77539766     -4.49717     -4.49717   -3.3340747  0.011653261     -4.49717    1.1630953  1010000 
 3518000   0.77581004   -4.4974826   -4.4974826   -3.3337687  0.015328721   -4.4974826    1.1637139  1010000 
 3519000   0.77524302   -4.4968618   -4.4968618   -3.3339984  0.014182036   -4.4968618    1.1628634  1010000 
 3520000   0.77522583   -4.4970905   -4.4970905   -3.3342529  0.014951397   -4.4970905    1.1628376  1010000 
 3521000    0.7744037   -4.4962159   -4.4962159   -3.3346115  0.015347336   -4.4962159    1.1616044  1010000 
 3522000   0.77424454   -4.4962779   -4.4962779   -3.3349122  0.016940388   -4.4962779    1.1613657  1010000 
 3523000   0.77505406   -4.4976778   -4.4976778   -3.3350979  0.015391713   -4.4976778    1.1625799  1010000 
 3524000   0.77460299   -4.4972275   -4.4972275   -3.3353242  0.014411168   -4.4972275    1.1619033  1010000 
 3525000   0.77541262   -4.4984021   -4.4984021   -3.3352843  0.017979928   -4.4984021    1.1631178  1010000 
 3526000   0.77535208   -4.4984652   -4.4984652   -3.3354383  0.018145808   -4.4984652     1.163027  1010000 
 3527000    0.7763628   -4.4995785   -4.4995785   -3.3350355  0.014307727   -4.4995785    1.1645431  1010000 
 3528000   0.77563153   -4.4989584   -4.4989584   -3.3355123  0.019503298   -4.4989584    1.1634461  1010000 
 3529000   0.77501315   -4.4980887   -4.4980887   -3.3355701  0.018058884   -4.4980887    1.1625186  1010000 
 3530000   0.77568852   -4.4993517   -4.4993517   -3.3358201  0.017877884   -4.4993517    1.1635316  1010000 
 3531000   0.77530267   -4.4988101   -4.4988101   -3.3358572  0.019250612   -4.4988101    1.1629529  1010000 
 3532000   0.77582445    -4.499722    -4.499722   -3.3359865  0.017604407    -4.499722    1.1637355  1010000 
 3533000   0.77565029   -4.4992135   -4.4992135   -3.3357392  0.020593714   -4.4992135    1.1634743  1010000 
 3534000    0.7758132   -4.4996876   -4.4996876   -3.3359689  0.016305562   -4.4996876    1.1637187  1010000 
 3535000   0.77557875   -4.4993365   -4.4993365   -3.3359695  0.017138734   -4.4993365     1.163367  1010000 
 3536000   0.77485033   -4.4986554   -4.4986554    -3.336381  0.014509165   -4.4986554    1.1622743  1010000 
 3537000   0.77566869    -4.500026    -4.500026   -3.3365241  0.017170021    -4.500026    1.1635019  1010000 
 3538000   0.77527253   -4.4996551   -4.4996551   -3.3367474  0.015981089   -4.4996551    1.1629076  1010000 
 3539000   0.77459277    -4.498911    -4.498911    -3.337023  0.017002167    -4.498911     1.161888  1010000 
 3540000   0.77436193   -4.4984402   -4.4984402   -3.3368985  0.017853203   -4.4984402    1.1615417  1010000 
 3541000   0.77445465   -4.4988415   -4.4988415   -3.3371607  0.016695642   -4.4988415    1.1616808  1010000 
 3542000   0.77464502   -4.4991122   -4.4991122   -3.3371458  0.012837432   -4.4991122    1.1619664  1010000 
 3543000   0.77483665   -4.4993961   -4.4993961   -3.3371423  0.015721247   -4.4993961    1.1622538  1010000 
 3544000   0.77430273   -4.4989278   -4.4989278   -3.3374749  0.014546366   -4.4989278     1.161453  1010000 
 3545000   0.77491019   -4.4992791   -4.4992791   -3.3369149  0.015019961   -4.4992791    1.1623641  1010000 
 3546000   0.77406109   -4.4984291   -4.4984291   -3.3373387   0.01752771   -4.4984291    1.1610905  1010000 
 3547000   0.77394272   -4.4986863   -4.4986863   -3.3377734  0.015830233   -4.4986863    1.1609129  1010000 
 3548000   0.77433994   -4.4993839   -4.4993839   -3.3378751  0.016595643   -4.4993839    1.1615088  1010000 
 3549000   0.77475228   -4.5000309   -4.5000309   -3.3379037  0.014097485   -4.5000309    1.1621273  1010000 
 3550000   0.77452968   -4.5004674   -4.5004674   -3.3386741  0.011902243   -4.5004674    1.1617934  1010000 
 3551000   0.77419052   -4.4997421   -4.4997421   -3.3384575  0.014734677   -4.4997421    1.1612846  1010000 
 3552000   0.77434658   -4.4994691   -4.4994691   -3.3379504  0.018146016   -4.4994691    1.1615187  1010000 
 3553000   0.77461639   -4.5000612   -4.5000612   -3.3381377    0.0144999   -4.5000612    1.1619234  1010000 
 3554000    0.7746578    -4.499714    -4.499714   -3.3377284  0.013868427    -4.499714    1.1619855  1010000 
 3555000   0.77398327   -4.4992496   -4.4992496   -3.3382759  0.014438633   -4.4992496    1.1609738  1010000 
 3556000   0.77429557   -4.4997737   -4.4997737   -3.3383315   0.01260202   -4.4997737    1.1614422  1010000 
 3557000   0.77353798   -4.4989826   -4.4989826   -3.3386768  0.011986843   -4.4989826    1.1603058  1010000 
 3558000   0.77375275   -4.4991238   -4.4991238   -3.3384958  0.012447866   -4.4991238     1.160628  1010000 
 3559000   0.77411698    -4.499523    -4.499523   -3.3383486  0.016190584    -4.499523    1.1611743  1010000 
 3560000   0.77442097   -4.5000046   -4.5000046   -3.3383743  0.012318329   -4.5000046    1.1616303  1010000 
 3561000   0.77430407   -4.5002596   -4.5002596   -3.3388046  0.014727858   -4.5002596     1.161455  1010000 
 3562000   0.77478246   -4.5004958   -4.5004958   -3.3383233  0.016057794   -4.5004958    1.1621725  1010000 
 3563000   0.77486997   -4.5006723   -4.5006723   -3.3383685  0.016437216   -4.5006723    1.1623038  1010000 
 3564000   0.77431718   -4.4997327   -4.4997327   -3.3382581  0.017244155   -4.4997327    1.1614746  1010000 
 3565000   0.77390491   -4.4997007   -4.4997007   -3.3388445  0.019013695   -4.4997007    1.1608562  1010000 
 3566000   0.77470918   -4.5008894   -4.5008894   -3.3388268  0.013442658   -4.5008894    1.1620626  1010000 
 3567000     0.774006   -4.5000741   -4.5000741   -3.3390663  0.016768437   -4.5000741    1.1610078  1010000 
 3568000   0.77445624   -4.5008958   -4.5008958   -3.3392126   0.01506902   -4.5008958    1.1616832  1010000 
 3569000   0.77422633   -4.5009589   -4.5009589   -3.3396206  0.015534632   -4.5009589    1.1613383  1010000 
 3570000   0.77388831   -4.5006774   -4.5006774    -3.339846  0.013576298   -4.5006774    1.1608313  1010000 
 3571000   0.77346243   -4.5004662   -4.5004662   -3.3402737  0.015401449   -4.5004662    1.1601925  1010000 
 3572000   0.77379482   -4.5012125   -4.5012125   -3.3405214   0.01216931   -4.5012125    1.1606911  1010000 
 3573000    0.7736222   -4.5010102   -4.5010102   -3.3405781  0.013769742   -4.5010102    1.1604321  1010000 
 3574000   0.77386384   -4.5015638   -4.5015638   -3.3407692  0.013481535   -4.5015638    1.1607946  1010000 
 3575000   0.77354235   -4.5011033   -4.5011033   -3.3407909  0.015747273   -4.5011033    1.1603124  1010000 
 3576000   0.77280732   -4.5010137   -4.5010137   -3.3418038  0.013454198   -4.5010137    1.1592098  1010000 
 3577000   0.77241489   -4.5007385   -4.5007385   -3.3421173  0.017283976   -4.5007385    1.1586212  1010000 
 3578000   0.77369845     -4.50218     -4.50218   -3.3416334  0.015343545     -4.50218    1.1605465  1010000 
 3579000   0.77434938   -4.5030266   -4.5030266   -3.3415037  0.013261026   -4.5030266    1.1615229  1010000 
 3580000   0.77466111   -4.5033127   -4.5033127   -3.3413222   0.01738304   -4.5033127    1.1619905  1010000 
 3581000   0.77503375   -4.5033304   -4.5033304   -3.3407809  0.016888185   -4.5033304    1.1625495  1010000 
 3582000   0.77520263   -4.5037931   -4.5037931   -3.3409903   0.01816723   -4.5037931    1.1628028  1010000 
 3583000   0.77437609   -4.5025406   -4.5025406   -3.3409777  0.021762147   -4.5025406     1.161563  1010000 
 3584000   0.77389175   -4.5023001   -4.5023001   -3.3414636  0.018621531   -4.5023001    1.1608365  1010000 
 3585000    0.7747474   -4.5039721   -4.5039721   -3.3418522  0.016621308   -4.5039721    1.1621199  1010000 
 3586000   0.77443641    -4.503367    -4.503367   -3.3417136  0.021119268    -4.503367    1.1616535  1010000 
 3587000   0.77431299   -4.5034268   -4.5034268   -3.3419584   0.01901662   -4.5034268    1.1614683  1010000 
 3588000   0.77472099   -4.5031578   -4.5031578   -3.3410775  0.018069975   -4.5031578    1.1620803  1010000 
 3589000   0.77495469   -4.5039416   -4.5039416   -3.3415107  0.017759031   -4.5039416    1.1624309  1010000 
 3590000    0.7750611   -4.5040186   -4.5040186   -3.3414281  0.015977613   -4.5040186    1.1625905  1010000 
 3591000   0.77372269   -4.5023109   -4.5023109    -3.341728  0.019141605   -4.5023109    1.1605829  1010000 
 3592000   0.77499914   -4.5040953   -4.5040953   -3.3415978   0.01208113   -4.5040953    1.1624976  1010000 
 3593000   0.77413257   -4.5031781   -4.5031781   -3.3419804  0.017849381   -4.5031781    1.1611977  1010000 
 3594000    0.7742793   -4.5033517   -4.5033517   -3.3419339  0.015736455   -4.5033517    1.1614178  1010000 
 3595000    0.7742238   -4.5032728   -4.5032728   -3.3419382  0.017185277   -4.5032728    1.1613345  1010000 
 3596000   0.77381512   -4.5026079   -4.5026079   -3.3418864  0.017909712   -4.5026079    1.1607215  1010000 
 3597000   0.77453973    -4.503887    -4.503887   -3.3420786  0.015827673    -4.503887    1.1618084  1010000 
 3598000   0.77444763   -4.5037293   -4.5037293    -3.342059  0.017336895   -4.5037293    1.1616703  1010000 
 3599000   0.77407723   -4.5034905   -4.5034905   -3.3423758  0.016897956   -4.5034905    1.1611147  1010000 
 3600000   0.77416584   -4.5039019   -4.5039019   -3.3426543  0.014743281   -4.5039019    1.1612476  1010000 
 3601000   0.77398571   -4.5034528   -4.5034528   -3.3424754  0.017693243   -4.5034528    1.1609774  1010000 
 3602000   0.77406919   -4.5029117   -4.5029117   -3.3418091  0.019232576   -4.5029117    1.1611026  1010000 
 3603000   0.77407107   -4.5034066   -4.5034066   -3.3423011  0.013756215   -4.5034066    1.1611055  1010000 
 3604000   0.77256662   -4.5010244   -4.5010244   -3.3421756  0.016547326   -4.5010244    1.1588488  1010000 
 3605000   0.77368106   -4.5029575   -4.5029575   -3.3424371 0.0097053627   -4.5029575    1.1605204  1010000 
 3606000   0.77294166   -4.5023871   -4.5023871   -3.3429758  0.013705635   -4.5023871    1.1594113  1010000 
 3607000   0.77360564   -4.5035524   -4.5035524   -3.3431451   0.01006063   -4.5035524    1.1604073  1010000 
 3608000   0.77299883   -4.5030491   -4.5030491    -3.343552  0.012431963   -4.5030491    1.1594971  1010000 
 3609000   0.77295343   -4.5033095   -4.5033095   -3.3438805  0.011435614   -4.5033095     1.159429  1010000 
 3610000   0.77315271   -4.5039793   -4.5039793   -3.3442514 0.0074492795   -4.5039793    1.1597279  1010000 
 3611000   0.77317531   -4.5041239   -4.5041239   -3.3443621 0.0088877654   -4.5041239    1.1597618  1010000 
 3612000   0.77199538   -4.5021378   -4.5021378   -3.3441459  0.015721468   -4.5021378    1.1579919  1010000 
 3613000   0.77190526   -4.5028248   -4.5028248    -3.344968  0.011032862   -4.5028248    1.1578567  1010000 
 3614000   0.77226548   -4.5036692   -4.5036692   -3.3452722  0.010344109   -4.5036692    1.1583971  1010000 
 3615000   0.77169627   -4.5026019   -4.5026019   -3.3450586  0.011886213   -4.5026019    1.1575433  1010000 
 3616000   0.77264543   -4.5039832   -4.5039832   -3.3450162  0.010559336   -4.5039832     1.158967  1010000 
 3617000   0.77278993    -4.504622    -4.504622   -3.3454382  0.010869592    -4.504622    1.1591838  1010000 
 3618000   0.77340778    -4.505618    -4.505618   -3.3455075  0.012244669    -4.505618    1.1601105  1010000 
 3619000   0.77306157   -4.5049903   -4.5049903   -3.3453991  0.011344336   -4.5049903    1.1595912  1010000 
 3620000   0.77286557   -4.5052902   -4.5052902    -3.345993  0.011968646   -4.5052902    1.1592972  1010000 
 3621000   0.77319946   -4.5060108   -4.5060108   -3.3462128  0.013723082   -4.5060108     1.159798  1010000 
 3622000    0.7737558   -4.5068295   -4.5068295    -3.346197  0.013740817   -4.5068295    1.1606326  1010000 
 3623000   0.77211762   -4.5045199   -4.5045199   -3.3463446  0.017698634   -4.5045199    1.1581753  1010000 
 3624000   0.77256594   -4.5054327   -4.5054327   -3.3465849  0.018228166   -4.5054327    1.1588478  1010000 
 3625000   0.77348421   -4.5065649   -4.5065649   -3.3463398  0.015055832   -4.5065649    1.1602252  1010000 
 3626000   0.77313404   -4.5056252   -4.5056252   -3.3459253  0.015847442   -4.5056252    1.1596999  1010000 
 3627000   0.77381281    -4.506865    -4.506865   -3.3461469  0.016937922    -4.506865    1.1607181  1010000 
 3628000   0.77313809    -4.505847    -4.505847    -3.346141  0.022603783    -4.505847     1.159706  1010000 
 3629000   0.77357861   -4.5068343   -4.5068343   -3.3464675  0.017976026   -4.5068343    1.1603668  1010000 
 3630000   0.77362648   -4.5069608   -4.5069608   -3.3465222  0.020875218   -4.5069608    1.1604386  1010000 
 3631000   0.77394704   -4.5077097   -4.5077097   -3.3467902  0.017644338   -4.5077097    1.1609194  1010000 
 3632000   0.77367841   -4.5078887   -4.5078887   -3.3473722  0.018403579   -4.5078887    1.1605165  1010000 
 3633000   0.77301292   -4.5076574   -4.5076574   -3.3481392  0.022252847   -4.5076574    1.1595182  1010000 
 3634000   0.77374162   -4.5090065   -4.5090065   -3.3483952  0.017782123   -4.5090065    1.1606113  1010000 
 3635000   0.77312323   -4.5087007   -4.5087007    -3.349017  0.021759774   -4.5087007    1.1596837  1010000 
 3636000   0.77441547   -4.5107457   -4.5107457   -3.3491236  0.015188102   -4.5107457    1.1616221  1010000 
 3637000    0.7736889   -4.5091792   -4.5091792    -3.348647  0.020173297   -4.5091792    1.1605322  1010000 
 3638000   0.77372735   -4.5095538   -4.5095538   -3.3489639  0.019273043   -4.5095538    1.1605899  1010000 
 3639000   0.77335947   -4.5093517   -4.5093517   -3.3493137  0.018039482   -4.5093517    1.1600381  1010000 
 3640000   0.77302969   -4.5095953   -4.5095953    -3.350052  0.014750079   -4.5095953    1.1595434  1010000 
 3641000   0.77302506   -4.5096222   -4.5096222   -3.3500858  0.016175156   -4.5096222    1.1595364  1010000 
 3642000   0.77221479   -4.5084641   -4.5084641    -3.350143  0.015984073   -4.5084641     1.158321  1010000 
 3643000   0.77290296    -4.509677    -4.509677   -3.3503237  0.014223677    -4.509677    1.1593533  1010000 
 3644000   0.77280499   -4.5094975   -4.5094975   -3.3502912  0.016475789   -4.5094975    1.1592063  1010000 
 3645000   0.77300079   -4.5102516   -4.5102516   -3.3507516  0.016387069   -4.5102516       1.1595  1010000 
 3646000     0.772156   -4.5087589   -4.5087589   -3.3505261   0.01773563   -4.5087589    1.1582328  1010000 
 3647000    0.7729866    -4.509817    -4.509817   -3.3503382  0.016753035    -4.509817    1.1594787  1010000 
 3648000   0.77295533   -4.5098175   -4.5098175   -3.3503856  0.016093948   -4.5098175    1.1594318  1010000 
 3649000   0.77202199   -4.5086762   -4.5086762   -3.3506444  0.014353686   -4.5086762    1.1580318  1010000 
 3650000   0.77322218   -4.5106627   -4.5106627   -3.3508306  0.012949126   -4.5106627    1.1598321  1010000 
 3651000   0.77286885   -4.5100732   -4.5100732    -3.350771  0.013073809   -4.5100732    1.1593021  1010000 
 3652000    0.7721926    -4.509223    -4.509223   -3.3509353  0.015543297    -4.509223    1.1582878  1010000 
 3653000   0.77292933   -4.5097552   -4.5097552   -3.3503623  0.016169781   -4.5097552    1.1593928  1010000 
 3654000   0.77270221   -4.5092874   -4.5092874   -3.3502353  0.020258126   -4.5092874    1.1590522  1010000 
 3655000   0.77322861   -4.5103533   -4.5103533   -3.3505115  0.013386389   -4.5103533    1.1598418  1010000 
 3656000   0.77288171   -4.5099456   -4.5099456   -3.3506242  0.018688725   -4.5099456    1.1593214  1010000 
 3657000   0.77333073   -4.5104717   -4.5104717   -3.3504768  0.015977826   -4.5104717    1.1599949  1010000 
 3658000   0.77250559    -4.509588    -4.509588   -3.3508308  0.017440721    -4.509588    1.1587572  1010000 
 3659000   0.77237313   -4.5095736   -4.5095736   -3.3510151  0.012074251   -4.5095736    1.1585585  1010000 
 3660000   0.77180778   -4.5086741   -4.5086741   -3.3509636   0.01399326   -4.5086741    1.1577105  1010000 
 3661000   0.77123001   -4.5078099   -4.5078099    -3.350966  0.017564963   -4.5078099    1.1568439  1010000 
 3662000   0.77288897   -4.5101169   -4.5101169   -3.3507846  0.011390012   -4.5101169    1.1593323  1010000 
 3663000    0.7721028   -4.5091068   -4.5091068   -3.3509538  0.013691242   -4.5091068     1.158153  1010000 
 3664000   0.77222252   -4.5098048   -4.5098048   -3.3514721   0.01205045   -4.5098048    1.1583326  1010000 
 3665000   0.77226131   -4.5098304   -4.5098304   -3.3514396  0.012816402   -4.5098304    1.1583908  1010000 
 3666000     0.771428   -4.5090761   -4.5090761   -3.3519353  0.013800569   -4.5090761    1.1571409  1010000 
 3667000    0.7713618   -4.5095523   -4.5095523   -3.3525108 0.0082814239   -4.5095523    1.1570416  1010000 
 3668000   0.77150073   -4.5094895   -4.5094895   -3.3522395  0.011490803   -4.5094895    1.1572499  1010000 
 3669000   0.77144766   -4.5098236   -4.5098236   -3.3526533  0.010976059   -4.5098236    1.1571703  1010000 
 3670000   0.77155472   -4.5100948   -4.5100948   -3.3527639  0.011116115   -4.5100948    1.1573309  1010000 
 3671000   0.77154952   -4.5100979   -4.5100979   -3.3527748  0.010352827   -4.5100979    1.1573231  1010000 
 3672000   0.77202914   -4.5103972   -4.5103972   -3.3523546  0.010922712   -4.5103972    1.1580426  1010000 
 3673000   0.77193338    -4.510809    -4.510809   -3.3529101  0.010976546    -4.510809    1.1578989  1010000 
 3674000   0.77137881   -4.5094826   -4.5094826   -3.3524156  0.015483788   -4.5094826    1.1570671  1010000 
 3675000   0.77201293   -4.5105685   -4.5105685   -3.3525502  0.014615005   -4.5105685    1.1580182  1010000 
 3676000   0.77111623   -4.5090742   -4.5090742    -3.352401  0.018201319   -4.5090742    1.1566732  1010000 
 3677000   0.77232831   -4.5115494   -4.5115494   -3.3530581  0.012940918   -4.5115494    1.1584913  1010000 
 3678000   0.77169281   -4.5110637   -4.5110637   -3.3535256  0.016127242   -4.5110637    1.1575381  1010000 
 3679000   0.77220494   -4.5123873   -4.5123873   -3.3540811  0.013173175   -4.5123873    1.1583063  1010000 
 3680000    0.7721332   -4.5118167   -4.5118167    -3.353618    0.0146196   -4.5118167    1.1581986  1010000 
 3681000   0.77255137   -4.5119378   -4.5119378   -3.3531119  0.016405346   -4.5119378    1.1588259  1010000 
 3682000   0.77302573   -4.5132583   -4.5132583   -3.3537208  0.014809381   -4.5132583    1.1595374  1010000 
 3683000   0.77251737    -4.512553    -4.512553    -3.353778  0.017231065    -4.512553    1.1587749  1010000 
 3684000   0.77185972   -4.5120864   -4.5120864    -3.354298  0.014164422   -4.5120864    1.1577884  1010000 
 3685000   0.77175217   -4.5127267   -4.5127267   -3.3550996  0.012546075   -4.5127267    1.1576271  1010000 
 3686000   0.77157082   -4.5122029   -4.5122029   -3.3548478  0.015057908   -4.5122029    1.1573551  1010000 
 3687000    0.7720651   -4.5132042   -4.5132042   -3.3551077  0.012912489   -4.5132042    1.1580965  1010000 
 3688000   0.77177666   -4.5131627   -4.5131627   -3.3554988  0.013186286   -4.5131627    1.1576638  1010000 
 3689000   0.77156384   -4.5130567   -4.5130567   -3.3557121  0.015652705   -4.5130567    1.1573446  1010000 
 3690000   0.77152885   -4.5131801   -4.5131801    -3.355888  0.017452627   -4.5131801    1.1572921  1010000 
 3691000   0.77246111   -4.5148551   -4.5148551   -3.3561646  0.013048807   -4.5148551    1.1586905  1010000 
 3692000   0.77114486   -4.5133543   -4.5133543   -3.3566382  0.019460582   -4.5133543    1.1567161  1010000 
 3693000   0.77152803   -4.5136908   -4.5136908   -3.3563999  0.017274283   -4.5136908    1.1572909  1010000 
 3694000   0.77130205   -4.5130942   -4.5130942   -3.3561423  0.017080326   -4.5130942    1.1569519  1010000 
 3695000   0.77089134   -4.5125439   -4.5125439    -3.356208  0.019972965   -4.5125439    1.1563359  1010000 
 3696000    0.7712529   -4.5131018   -4.5131018   -3.3562236  0.018605038   -4.5131018    1.1568782  1010000 
 3697000   0.77192907   -4.5146061   -4.5146061   -3.3567137  0.014953642   -4.5146061    1.1578925  1010000 
 3698000   0.77215002   -4.5149675   -4.5149675   -3.3567436  0.013336809   -4.5149675    1.1582239  1010000 
 3699000   0.77219919   -4.5143462   -4.5143462   -3.3560486  0.018595536   -4.5143462    1.1582976  1010000 
 3700000   0.77214269   -4.5148391   -4.5148391   -3.3566262  0.014150294   -4.5148391    1.1582129  1010000 
 3701000   0.77149204   -4.5143503   -4.5143503   -3.3571134   0.01817319   -4.5143503    1.1572369  1010000 
 3702000   0.77206495   -4.5153807   -4.5153807   -3.3572845  0.016445606   -4.5153807    1.1580963  1010000 
 3703000   0.77254824   -4.5159231   -4.5159231   -3.3571019  0.014710883   -4.5159231    1.1588212  1010000 
 3704000    0.7723167   -4.5156811   -4.5156811   -3.3572072  0.018659268   -4.5156811    1.1584739  1010000 
 3705000   0.77259283   -4.5158248   -4.5158248   -3.3569367  0.016203489   -4.5158248    1.1588881  1010000 
 3706000   0.77132467   -4.5141007   -4.5141007   -3.3571149  0.018651288   -4.5141007    1.1569859  1010000 
 3707000   0.77221375   -4.5155101   -4.5155101   -3.3571906  0.014487266   -4.5155101    1.1583195  1010000 
 3708000   0.77186787   -4.5150332   -4.5150332   -3.3572325  0.013325283   -4.5150332    1.1578007  1010000 
 3709000   0.77107388   -4.5140728   -4.5140728   -3.3574631  0.015669908   -4.5140728    1.1566097  1010000 
 3710000   0.77158648   -4.5149357   -4.5149357   -3.3575571  0.014501709   -4.5149357    1.1573786  1010000 
 3711000   0.77125779   -4.5145661   -4.5145661   -3.3576805  0.016250609   -4.5145661    1.1568855  1010000 
 3712000   0.77119783   -4.5144871   -4.5144871   -3.3576915  0.015003914   -4.5144871    1.1567956  1010000 
 3713000   0.77070774   -4.5140753   -4.5140753   -3.3580148  0.014904054   -4.5140753    1.1560605  1010000 
 3714000     0.770986   -4.5140852   -4.5140852   -3.3576073  0.014568563   -4.5140852    1.1564779  1010000 
 3715000   0.77131124   -4.5150824   -4.5150824   -3.3581166  0.013178101   -4.5150824    1.1569657  1010000 
 3716000   0.77119825   -4.5148064   -4.5148064   -3.3580102  0.013359871   -4.5148064    1.1567962  1010000 
 3717000   0.77145675    -4.515504    -4.515504     -3.35832  0.014163633    -4.515504     1.157184  1010000 
 3718000   0.77137211   -4.5154074   -4.5154074   -3.3583504  0.015694892   -4.5154074     1.157057  1010000 
 3719000   0.77143138   -4.5157614   -4.5157614   -3.3586155  0.011606809   -4.5157614    1.1571459  1010000 
 3720000   0.77105589   -4.5150321   -4.5150321   -3.3584494  0.013365084   -4.5150321    1.1565827  1010000 
 3721000   0.77162658   -4.5162819   -4.5162819   -3.3588432  0.012617124   -4.5162819    1.1574387  1010000 
 3722000   0.77055782   -4.5145778   -4.5145778   -3.3587422  0.015601613   -4.5145778    1.1558356  1010000 
 3723000   0.77056221   -4.5150064   -4.5150064   -3.3591642  0.015458892   -4.5150064    1.1558422  1010000 
 3724000   0.77128555   -4.5157702   -4.5157702    -3.358843   0.01154453   -4.5157702    1.1569272  1010000 
 3725000   0.77081982   -4.5155513   -4.5155513   -3.3593227  0.010058519   -4.5155513    1.1562286  1010000 
 3726000   0.77105234   -4.5159415   -4.5159415   -3.3593641   0.01007434   -4.5159415    1.1565774  1010000 
 3727000   0.77094369   -4.5150343   -4.5150343   -3.3586199  0.015210799   -4.5150343    1.1564144  1010000 
 3728000   0.77130038   -4.5157233   -4.5157233   -3.3587739  0.011366846   -4.5157233    1.1569494  1010000 
 3729000   0.77127777   -4.5160106   -4.5160106    -3.359095  0.016125524   -4.5160106    1.1569155  1010000 
 3730000   0.77136591    -4.516565    -4.516565   -3.3595172   0.01352686    -4.516565    1.1570477  1010000 
 3731000   0.77148165   -4.5168426   -4.5168426   -3.3596213  0.014008324   -4.5168426    1.1572213  1010000 
 3732000   0.77040575   -4.5156365   -4.5156365    -3.360029   0.01645599   -4.5156365    1.1556075  1010000 
 3733000    0.7715639    -4.517018    -4.517018   -3.3596733  0.012054883    -4.517018    1.1573447  1010000 
 3734000   0.77112268   -4.5165869   -4.5165869    -3.359904  0.013463777   -4.5165869    1.1566829  1010000 
 3735000   0.77106475    -4.516685    -4.516685    -3.360089  0.013556965    -4.516685     1.156596  1010000 
 3736000   0.77108315   -4.5171012   -4.5171012   -3.3604776  0.015478357   -4.5171012    1.1566236  1010000 
 3737000   0.77127715   -4.5175412   -4.5175412   -3.3606266  0.015005869   -4.5175412    1.1569146  1010000 
 3738000   0.77055846     -4.51652     -4.51652   -3.3606835  0.014081574     -4.51652    1.1558366  1010000 
 3739000   0.77076208   -4.5168567   -4.5168567   -3.3607147  0.016511301   -4.5168567     1.156142  1010000 
 3740000   0.77092295   -4.5171832   -4.5171832      -3.3608  0.014867167   -4.5171832    1.1563833  1010000 
 3741000    0.7699507    -4.515802    -4.515802   -3.3608771  0.017533928    -4.515802    1.1549249  1010000 
 3742000   0.77121544   -4.5176057   -4.5176057   -3.3607837  0.012722109   -4.5176057     1.156822  1010000 
 3743000   0.77098343   -4.5172689   -4.5172689   -3.3607949  0.014140456   -4.5172689     1.156474  1010000 
 3744000   0.77139184   -4.5174963   -4.5174963   -3.3604096  0.014841008   -4.5174963    1.1570866  1010000 
 3745000   0.77061669   -4.5170583   -4.5170583   -3.3611344  0.015904159   -4.5170583    1.1559239  1010000 
 3746000   0.77119786   -4.5180139   -4.5180139   -3.3612183  0.016345648   -4.5180139    1.1567956  1010000 
 3747000   0.77160496   -4.5189631   -4.5189631   -3.3615568  0.016144421   -4.5189631    1.1574063  1010000 
 3748000   0.77104142   -4.5181432   -4.5181432   -3.3615822  0.016120585   -4.5181432     1.156561  1010000 
 3749000   0.77119563   -4.5181622   -4.5181622   -3.3613699  0.014847446   -4.5181622    1.1567923  1010000 
 3750000   0.77094534   -4.5180611   -4.5180611   -3.3616443  0.015001513   -4.5180611    1.1564169  1010000 
 3751000   0.77081045   -4.5180722   -4.5180722   -3.3618577  0.019135663   -4.5180722    1.1562145  1010000 
 3752000   0.77132461   -4.5187094   -4.5187094   -3.3617236   0.01705488   -4.5187094    1.1569858  1010000 
 3753000   0.77185156   -4.5190776   -4.5190776   -3.3613014  0.015863717   -4.5190776    1.1577762  1010000 
 3754000   0.77169578   -4.5194275   -4.5194275    -3.361885  0.013426197   -4.5194275    1.1575425  1010000 
 3755000   0.77115897   -4.5186358   -4.5186358   -3.3618985  0.015373499   -4.5186358    1.1567373  1010000 
 3756000   0.77088691   -4.5179918   -4.5179918   -3.3616626   0.01494904   -4.5179918    1.1563292  1010000 
 3757000   0.77072607   -4.5179101   -4.5179101   -3.3618221  0.013232326   -4.5179101     1.156088  1010000 
 3758000    0.7699462   -4.5171531   -4.5171531    -3.362235  0.018183871   -4.5171531    1.1549182  1010000 
 3759000   0.76994412   -4.5174771   -4.5174771   -3.3625621  0.016263316   -4.5174771     1.154915  1010000 
 3760000   0.77082826      -4.5189      -4.5189   -3.3626588  0.012838294      -4.5189    1.1562412  1010000 
 3761000    0.7704759   -4.5188133   -4.5188133   -3.3631006  0.015291849   -4.5188133    1.1557127  1010000 
 3762000    0.7714138    -4.519981    -4.519981   -3.3628614  0.013119086    -4.519981    1.1571196  1010000 
 3763000    0.7710737   -4.5192965   -4.5192965   -3.3626871  0.012940925   -4.5192965    1.1566094  1010000 
 3764000   0.77057166   -4.5190085   -4.5190085   -3.3631522   0.01272266   -4.5190085    1.1558563  1010000 
 3765000   0.76982088   -4.5183451   -4.5183451   -3.3636149  0.013351346   -4.5183451    1.1547302  1010000 
 3766000    0.7703889   -4.5193261   -4.5193261   -3.3637439  0.014075712   -4.5193261    1.1555822  1010000 
 3767000   0.77082018   -4.5199694   -4.5199694   -3.3637403  0.011894149   -4.5199694    1.1562291  1010000 
 3768000   0.77053643   -4.5193678   -4.5193678   -3.3635643  0.012256482   -4.5193678    1.1558035  1010000 
 3769000   0.76953368   -4.5183421   -4.5183421   -3.3640427  0.016685598   -4.5183421    1.1542994  1010000 
 3770000    0.7705283   -4.5199989   -4.5199989   -3.3642076  0.010690154   -4.5199989    1.1557913  1010000 
 3771000   0.77003294   -4.5198022   -4.5198022   -3.3647539  0.010937693   -4.5198022    1.1550483  1010000 
 3772000   0.77046021   -4.5200863   -4.5200863   -3.3643972  0.011278704   -4.5200863    1.1556892  1010000 
 3773000   0.77038893   -4.5199254   -4.5199254   -3.3643431  0.015359701   -4.5199254    1.1555823  1010000 
 3774000   0.76977461   -4.5194093   -4.5194093   -3.3647486  0.014288993   -4.5194093    1.1546608  1010000 
 3775000   0.77026803   -4.5203769   -4.5203769    -3.364976  0.011647271   -4.5203769    1.1554009  1010000 
 3776000    0.7699379   -4.5201715   -4.5201715   -3.3652658  0.010432755   -4.5201715    1.1549057  1010000 
 3777000   0.76887689   -4.5193537   -4.5193537   -3.3660395  0.013403959   -4.5193537    1.1533142  1010000 
 3778000   0.76998392   -4.5210704   -4.5210704   -3.3660957    0.0112403   -4.5210704    1.1549747  1010000 
 3779000   0.76962393   -4.5202027   -4.5202027   -3.3657679  0.013678911   -4.5202027    1.1544348  1010000 
 3780000   0.77002014   -4.5206978   -4.5206978   -3.3656688  0.016346176   -4.5206978    1.1550291  1010000 
 3781000   0.77086655   -4.5219161   -4.5219161   -3.3656174  0.011260837   -4.5219161    1.1562987  1010000 
 3782000   0.77083406   -4.5217367   -4.5217367   -3.3654867  0.012119746   -4.5217367    1.1562499  1010000 
 3783000   0.77093327   -4.5214633   -4.5214633   -3.3650645  0.015440429   -4.5214633    1.1563988  1010000 
 3784000   0.77052512   -4.5214686   -4.5214686    -3.365682  0.022357602   -4.5214686    1.1557865  1010000 
 3785000   0.77109772   -4.5225506   -4.5225506   -3.3659052  0.016711364   -4.5225506    1.1566454  1010000 
 3786000    0.7713065    -4.522549    -4.522549   -3.3655904  0.017002116    -4.522549    1.1569586  1010000 
 3787000    0.7703687   -4.5211317   -4.5211317   -3.3655798  0.018650977   -4.5211317    1.1555519  1010000 
 3788000   0.77009255   -4.5213166   -4.5213166   -3.3661789  0.018727081   -4.5213166    1.1551377  1010000 
 3789000   0.77078267   -4.5226352   -4.5226352   -3.3664623  0.016929045   -4.5226352    1.1561729  1010000 
 3790000   0.77045206   -4.5223703   -4.5223703   -3.3666933  0.017306058   -4.5223703    1.1556769  1010000 
 3791000   0.77064225   -4.5230008   -4.5230008   -3.3670385  0.017235791   -4.5230008    1.1559622  1010000 
 3792000   0.76992885   -4.5218965   -4.5218965   -3.3670044  0.019885561   -4.5218965    1.1548921  1010000 
 3793000   0.77051722   -4.5233095   -4.5233095   -3.3675348  0.015611574   -4.5233095    1.1557747  1010000 
 3794000   0.77042379   -4.5233807   -4.5233807   -3.3677461  0.017137294   -4.5233807    1.1556345  1010000 
 3795000    0.7709636   -4.5245325   -4.5245325   -3.3680883  0.010690464   -4.5245325    1.1564442  1010000 
 3796000   0.76980315   -4.5230284   -4.5230284   -3.3683248  0.016200759   -4.5230284    1.1547036  1010000 
 3797000   0.77034739     -4.52368     -4.52368   -3.3681601  0.016148032     -4.52368    1.1555199  1010000 
 3798000   0.76978159   -4.5227138   -4.5227138   -3.3680426  0.017077354   -4.5227138    1.1546712  1010000 
 3799000   0.76995318   -4.5224154   -4.5224154   -3.3674868  0.018351076   -4.5224154    1.1549286  1010000 
 3800000   0.77113457   -4.5236399   -4.5236399   -3.3669392  0.014010271   -4.5236399    1.1567007  1010000 
 3801000   0.76983988   -4.5224097   -4.5224097    -3.367651   0.01867054   -4.5224097    1.1547587  1010000 
 3802000   0.77037756   -4.5234416   -4.5234416   -3.3678764  0.010891023   -4.5234416    1.1555652  1010000 
 3803000   0.76976371    -4.522446    -4.522446   -3.3678015  0.014736135    -4.522446    1.1546444  1010000 
 3804000   0.77061254    -4.524067    -4.524067   -3.3681493  0.010280377    -4.524067    1.1559177  1010000 
 3805000   0.76976414   -4.5229809   -4.5229809   -3.3683359  0.015698976   -4.5229809    1.1546451  1010000 
 3806000   0.76947596   -4.5224063   -4.5224063   -3.3681935  0.013917641   -4.5224063    1.1542128  1010000 
 3807000   0.76855857   -4.5214545   -4.5214545   -3.3686178  0.013798678   -4.5214545    1.1528367  1010000 
 3808000   0.76935138   -4.5225519   -4.5225519    -3.368526  0.012292557   -4.5225519    1.1540259  1010000 
 3809000   0.76986927   -4.5234073   -4.5234073   -3.3686045  0.012391115   -4.5234073    1.1548028  1010000 
 3810000   0.77078786   -4.5242406   -4.5242406     -3.36806 0.0093007024   -4.5242406    1.1561806  1010000 
 3811000   0.76915375   -4.5221734   -4.5221734   -3.3684439  0.012265605   -4.5221734    1.1537295  1010000 
 3812000   0.76931572   -4.5224011   -4.5224011   -3.3684287 0.0090951018   -4.5224011    1.1539724  1010000 
 3813000   0.76935738   -4.5227028   -4.5227028   -3.3686679   0.01166332   -4.5227028    1.1540349  1010000 
 3814000   0.76879569   -4.5220137   -4.5220137   -3.3688214  0.012354723   -4.5220137    1.1531924  1010000 
 3815000   0.76895019   -4.5222382   -4.5222382   -3.3688141  0.013851885   -4.5222382    1.1534241  1010000 
 3816000   0.76954145   -4.5237162   -4.5237162   -3.3694051  0.011284388   -4.5237162     1.154311  1010000 
 3817000   0.76899253   -4.5229485   -4.5229485   -3.3694609   0.01305226   -4.5229485    1.1534877  1010000 
 3818000   0.76882901   -4.5227365   -4.5227365   -3.3694942  0.013396049   -4.5227365    1.1532424  1010000 
 3819000   0.76883645   -4.5233775   -4.5233775    -3.370124   0.01263494   -4.5233775    1.1532535  1010000 
 3820000   0.76907636   -4.5236671   -4.5236671   -3.3700537  0.015062873   -4.5236671    1.1536134  1010000 
 3821000   0.76870675   -4.5241198   -4.5241198   -3.3710608  0.010478363   -4.5241198     1.153059  1010000 
 3822000   0.76871859   -4.5240512   -4.5240512   -3.3709744 0.0089750074   -4.5240512    1.1530767  1010000 
 3823000   0.76874342   -4.5240323   -4.5240323   -3.3709183  0.012744034   -4.5240323     1.153114  1010000 
 3824000   0.76847247   -4.5236045   -4.5236045    -3.370897  0.013830767   -4.5236045    1.1527076  1010000 
 3825000   0.76905484   -4.5245164   -4.5245164   -3.3709353  0.013228326   -4.5245164    1.1535811  1010000 
 3826000   0.76917657   -4.5250245   -4.5250245   -3.3712608  0.013783843   -4.5250245    1.1537637  1010000 
 3827000   0.76914449   -4.5251964   -4.5251964   -3.3714808  0.010699487   -4.5251964    1.1537156  1010000 
 3828000   0.76963693   -4.5253451   -4.5253451   -3.3708909  0.012009979   -4.5253451    1.1544543  1010000 
 3829000   0.76956264   -4.5255611   -4.5255611   -3.3712182  0.013669024   -4.5255611    1.1543428  1010000 
 3830000   0.76883771   -4.5246213   -4.5246213   -3.3713659  0.016917032   -4.5246213    1.1532554  1010000 
 3831000   0.76951387   -4.5254807   -4.5254807   -3.3712111  0.013475501   -4.5254807    1.1542697  1010000 
 3832000   0.76961758   -4.5257594   -4.5257594   -3.3713342   0.01604418   -4.5257594    1.1544252  1010000 
 3833000   0.76990169   -4.5264609   -4.5264609   -3.3716095   0.01571829   -4.5264609    1.1548514  1010000 
 3834000   0.77055097   -4.5275764   -4.5275764   -3.3717511  0.012626772   -4.5275764    1.1558253  1010000 
 3835000   0.77003041   -4.5272585   -4.5272585   -3.3722141  0.021057389   -4.5272585    1.1550445  1010000 
 3836000   0.76984477   -4.5268046   -4.5268046   -3.3720386  0.019195045   -4.5268046     1.154766  1010000 
 3837000   0.77062285   -4.5281103   -4.5281103   -3.3721772  0.015587461   -4.5281103    1.1559331  1010000 
 3838000   0.76986314   -4.5273936   -4.5273936      -3.3726  0.017062241   -4.5273936    1.1547936  1010000 
 3839000   0.76988853    -4.527775    -4.527775   -3.3729434  0.018218914    -4.527775    1.1548317  1010000 
 3840000   0.76891306   -4.5268229   -4.5268229   -3.3734545  0.022095572   -4.5268229    1.1533685  1010000 
 3841000    0.7688855   -4.5270099   -4.5270099   -3.3736827  0.016239488   -4.5270099    1.1533271  1010000 
 3842000   0.76957868   -4.5281548   -4.5281548    -3.373788  0.012222921   -4.5281548    1.1543669  1010000 
 3843000   0.76796024    -4.525785    -4.525785   -3.3738458  0.019141294    -4.525785    1.1519392  1010000 
 3844000   0.76981834   -4.5294446   -4.5294446   -3.3747183  0.013240217   -4.5294446    1.1547264  1010000 
 3845000   0.76857673   -4.5275334   -4.5275334   -3.3746694  0.016153256   -4.5275334     1.152864  1010000 
 3846000   0.76871524   -4.5280026   -4.5280026   -3.3749309  0.014482979   -4.5280026    1.1530717  1010000 
 3847000   0.76959133   -4.5294777   -4.5294777   -3.3750919  0.010079493   -4.5294777    1.1543858  1010000 
 3848000   0.76939008   -4.5294298   -4.5294298   -3.3753458 0.0097408643   -4.5294298     1.154084  1010000 
 3849000   0.76901453   -4.5285014   -4.5285014   -3.3749807  0.012337116   -4.5285014    1.1535207  1010000 
 3850000   0.76897591   -4.5290309   -4.5290309   -3.3755681   0.01381254   -4.5290309    1.1534627  1010000 
 3851000   0.76903849   -4.5292252   -4.5292252   -3.3756686  0.011821939   -4.5292252    1.1535566  1010000 
 3852000   0.76836355    -4.528548    -4.528548   -3.3760038  0.017718512    -4.528548    1.1525442  1010000 
 3853000   0.76832516     -4.52841     -4.52841   -3.3759234  0.015327104     -4.52841    1.1524866  1010000 
 3854000   0.76831189    -4.528596    -4.528596   -3.3761293  0.015226914    -4.528596    1.1524667  1010000 
 3855000   0.76875126   -4.5286625   -4.5286625   -3.3755368  0.013954799   -4.5286625    1.1531257  1010000 
 3856000   0.76900275   -4.5287962   -4.5287962   -3.3752932     0.015126   -4.5287962     1.153503  1010000 
 3857000    0.7685865   -4.5283456   -4.5283456    -3.375467  0.016603105   -4.5283456    1.1528786  1010000 
 3858000   0.76930561   -4.5295232   -4.5295232   -3.3755659   0.01503677   -4.5295232    1.1539573  1010000 
 3859000   0.76898607    -4.529684    -4.529684    -3.376206  0.010875874    -4.529684     1.153478  1010000 
 3860000   0.76878776   -4.5289497   -4.5289497   -3.3757692  0.014634016   -4.5289497    1.1531805  1010000 
 3861000   0.76848155   -4.5284746   -4.5284746   -3.3757535  0.014518336   -4.5284746    1.1527212  1010000 
 3862000   0.76837127   -4.5280724   -4.5280724   -3.3755167  0.017873757   -4.5280724    1.1525558  1010000 
 3863000   0.76875287   -4.5285026   -4.5285026   -3.3753745  0.015245837   -4.5285026    1.1531282  1010000 
 3864000   0.76808979   -4.5282628   -4.5282628   -3.3761292  0.017895724   -4.5282628    1.1521335  1010000 
 3865000   0.76911885   -4.5292415   -4.5292415   -3.3755644  0.013934684   -4.5292415    1.1536771  1010000 
 3866000   0.76848969   -4.5287988   -4.5287988   -3.3760654  0.017009429   -4.5287988    1.1527334  1010000 
 3867000   0.76890432   -4.5291428   -4.5291428   -3.3757875    0.0163849   -4.5291428    1.1533553  1010000 
 3868000     0.769658   -4.5303685   -4.5303685   -3.3758827  0.012139914   -4.5303685    1.1544859  1010000 
 3869000   0.76889471   -4.5291359   -4.5291359    -3.375795  0.015165517   -4.5291359    1.1533409  1010000 
 3870000   0.76876949   -4.5296141   -4.5296141    -3.376461  0.015693725   -4.5296141    1.1531531  1010000 
 3871000   0.76900093   -4.5295394   -4.5295394   -3.3760391  0.012452299   -4.5295394    1.1535003  1010000 
 3872000   0.76922101    -4.529899    -4.529899   -3.3760686  0.013430137    -4.529899    1.1538304  1010000 
 3873000   0.76823423   -4.5288178   -4.5288178   -3.3764676  0.012599018   -4.5288178    1.1523502  1010000 
 3874000   0.76786634   -4.5285783   -4.5285783   -3.3767799  0.014038368   -4.5285783    1.1517984  1010000 
 3875000   0.76787355   -4.5289079   -4.5289079   -3.3770987  0.012113624   -4.5289079    1.1518092  1010000 
 3876000   0.76763967   -4.5289349   -4.5289349   -3.3774765  0.010133004   -4.5289349    1.1514584  1010000 
 3877000   0.76799409   -4.5296165   -4.5296165   -3.3776265  0.010730222   -4.5296165      1.15199  1010000 
 3878000   0.76785105   -4.5295711   -4.5295711   -3.3777956  0.010929114   -4.5295711    1.1517754  1010000 
 3879000   0.76712067   -4.5291896   -4.5291896   -3.3785097   0.01371165   -4.5291896    1.1506799  1010000 
 3880000   0.76690885   -4.5288422   -4.5288422     -3.37848  0.015670977   -4.5288422    1.1503621  1010000 
 3881000   0.76720981   -4.5292194   -4.5292194   -3.3784058  0.014999789   -4.5292194    1.1508136  1010000 
 3882000    0.7682207   -4.5305771   -4.5305771   -3.3782472  0.010329561   -4.5305771    1.1523299  1010000 
 3883000   0.76763339   -4.5297566   -4.5297566   -3.3783076  0.012244696   -4.5297566    1.1514489  1010000 
 3884000    0.7682844   -4.5305411   -4.5305411   -3.3781157  0.012037394   -4.5305411    1.1524255  1010000 
 3885000   0.76754916   -4.5292734   -4.5292734   -3.3779508  0.017771484   -4.5292734    1.1513226  1010000 
 3886000   0.76820375   -4.5304967   -4.5304967   -3.3781923  0.012294438   -4.5304967    1.1523045  1010000 
 3887000   0.76822105   -4.5302825   -4.5302825   -3.3779521   0.01400484   -4.5302825    1.1523304  1010000 
 3888000   0.76796839   -4.5306204   -4.5306204    -3.378669  0.015145005   -4.5306204    1.1519514  1010000 
 3889000   0.76720255   -4.5301439   -4.5301439   -3.3793412  0.017355402   -4.5301439    1.1508027  1010000 
 3890000   0.76831482   -4.5319895   -4.5319895   -3.3795184  0.012369252   -4.5319895    1.1524711  1010000 
 3891000   0.76779206   -4.5315027   -4.5315027   -3.3798158  0.014942565   -4.5315027     1.151687  1010000 
 3892000   0.76705882   -4.5303525   -4.5303525   -3.3797654  0.016266833   -4.5303525    1.1505871  1010000 
 3893000   0.76779403   -4.5315574   -4.5315574   -3.3798675  0.014687795   -4.5315574    1.1516899  1010000 
 3894000   0.76810903   -4.5320122   -4.5320122   -3.3798498  0.010804968   -4.5320122    1.1521624  1010000 
 3895000    0.7679057   -4.5318342   -4.5318342   -3.3799768  0.013506869   -4.5318342    1.1518574  1010000 
 3896000   0.76775607   -4.5318538   -4.5318538   -3.3802208  0.016573164   -4.5318538     1.151633  1010000 
 3897000   0.76805167   -4.5326729   -4.5326729   -3.3805966  0.015241334   -4.5326729    1.1520764  1010000 
 3898000   0.76790109   -4.5328733   -4.5328733   -3.3810228  0.010352292   -4.5328733    1.1518505  1010000 
 3899000   0.76701451   -4.5321047   -4.5321047    -3.381584    0.0146992   -4.5321047    1.1505206  1010000 
 3900000   0.76772333   -4.5332738   -4.5332738     -3.38169  0.012171874   -4.5332738    1.1515838  1010000 
 3901000   0.76729628   -4.5328136   -4.5328136   -3.3818703  0.016144543   -4.5328136    1.1509433  1010000 
 3902000   0.76847347   -4.5341274   -4.5341274   -3.3814184  0.012742459   -4.5341274    1.1527091  1010000 
 3903000   0.76816611   -4.5335064   -4.5335064   -3.3812584  0.013725432   -4.5335064     1.152248  1010000 
 3904000   0.76808836   -4.5335321   -4.5335321   -3.3814007  0.016975919   -4.5335321    1.1521314  1010000 
 3905000   0.76792199   -4.5339334   -4.5339334   -3.3820515  0.016359071   -4.5339334    1.1518819  1010000 
 3906000   0.76836553   -4.5346745   -4.5346745   -3.3821273  0.014951713   -4.5346745    1.1525472  1010000 
 3907000   0.76803359   -4.5345062   -4.5345062   -3.3824569  0.014950087   -4.5345062    1.1520492  1010000 
 3908000    0.7677735   -4.5336276   -4.5336276   -3.3819685  0.016689827   -4.5336276    1.1516591  1010000 
 3909000   0.76790111    -4.533392    -4.533392   -3.3815414  0.018434402    -4.533392    1.1518505  1010000 
 3910000   0.76796251   -4.5332183   -4.5332183   -3.3812757   0.01715589   -4.5332183    1.1519426  1010000 
 3911000   0.76836354   -4.5344264   -4.5344264   -3.3818823  0.017288921   -4.5344264    1.1525442  1010000 
 3912000   0.76874059    -4.535216    -4.535216   -3.3821062  0.014060912    -4.535216    1.1531097  1010000 
 3913000   0.76744807    -4.533606    -4.533606    -3.382435  0.014366499    -4.533606     1.151171  1010000 
 3914000   0.76710223   -4.5331138   -4.5331138   -3.3824616  0.019296494   -4.5331138    1.1506522  1010000 
 3915000   0.76704649   -4.5335146   -4.5335146    -3.382946   0.01881838   -4.5335146    1.1505686  1010000 
 3916000   0.76757763   -4.5345105   -4.5345105   -3.3831452  0.016337167   -4.5345105    1.1513653  1010000 
 3917000   0.76820454   -4.5349544   -4.5349544   -3.3826488   0.01323663   -4.5349544    1.1523057  1010000 
 3918000   0.76809304   -4.5340348   -4.5340348   -3.3818963  0.021588733   -4.5340348    1.1521384  1010000 
 3919000   0.76817584   -4.5344458   -4.5344458   -3.3821831  0.018372049   -4.5344458    1.1522626  1010000 
 3920000   0.76832324   -4.5347142   -4.5347142   -3.3822305  0.014974577   -4.5347142    1.1524837  1010000 
 3921000   0.76795266   -4.5347679   -4.5347679     -3.38284   0.01732762   -4.5347679    1.1519279  1010000 
 3922000   0.76711252   -4.5338098   -4.5338098   -3.3831421  0.017415626   -4.5338098    1.1506676  1010000 
 3923000     0.766981   -4.5335342   -4.5335342   -3.3830638  0.015263089   -4.5335342    1.1504704  1010000 
 3924000   0.76772306   -4.5343966   -4.5343966   -3.3828131  0.013693935   -4.5343966    1.1515834  1010000 
 3925000   0.76727423   -4.5343391   -4.5343391   -3.3834289  0.011669454   -4.5343391    1.1509102  1010000 
 3926000   0.76734042   -4.5340938   -4.5340938   -3.3830843  0.011848155   -4.5340938    1.1510095  1010000 
 3927000   0.76763351   -4.5340276   -4.5340276   -3.3825785  0.011269345   -4.5340276    1.1514491  1010000 
 3928000   0.76727733   -4.5341195   -4.5341195   -3.3832046  0.011299283   -4.5341195    1.1509149  1010000 
 3929000   0.76686989   -4.5334379   -4.5334379   -3.3831342  0.013225625   -4.5334379    1.1503037  1010000 
 3930000   0.76600204   -4.5321808   -4.5321808   -3.3831788  0.015159298   -4.5321808    1.1490019  1010000 
 3931000   0.76717683   -4.5341023   -4.5341023   -3.3833382 0.0095861399   -4.5341023    1.1507641  1010000 
 3932000   0.76656323   -4.5335756   -4.5335756   -3.3837319 0.0098768529   -4.5335756    1.1498437  1010000 
 3933000    0.7664527   -4.5329542   -4.5329542   -3.3832763  0.011847145   -4.5329542    1.1496779  1010000 
 3934000   0.76625403   -4.5328342   -4.5328342   -3.3834543  0.013742384   -4.5328342    1.1493799  1010000 
 3935000   0.76660223   -4.5333776   -4.5333776   -3.3834754  0.011847135   -4.5333776    1.1499022  1010000 
 3936000   0.76721471   -4.5351672   -4.5351672   -3.3843463 0.0099951949   -4.5351672    1.1508209  1010000 
 3937000   0.76671198   -4.5342303   -4.5342303   -3.3841634  0.013421433   -4.5342303    1.1500668  1010000 
 3938000   0.76678407   -4.5341548   -4.5341548   -3.3839799  0.012481131   -4.5341548     1.150175  1010000 
 3939000   0.76609678   -4.5335013   -4.5335013   -3.3843572  0.012133256   -4.5335013     1.149144  1010000 
 3940000   0.76618028   -4.5338761   -4.5338761   -3.3846068  0.010766257   -4.5338761    1.1492693  1010000 
 3941000   0.76598581   -4.5338335   -4.5338335   -3.3848559  0.011963625   -4.5338335    1.1489776  1010000 
 3942000   0.76668346   -4.5353627   -4.5353627   -3.3853387 0.0081620671   -4.5353627     1.150024  1010000 
 3943000   0.76635184   -4.5356189   -4.5356189   -3.3860923 0.0053027189   -4.5356189    1.1495266  1010000 
 3944000   0.76639104   -4.5351409   -4.5351409   -3.3855554  0.014837385   -4.5351409    1.1495854  1010000 
 3945000   0.76688894   -4.5359725   -4.5359725   -3.3856403  0.010815994   -4.5359725    1.1503323  1010000 
 3946000   0.76641766   -4.5352666   -4.5352666   -3.3856413  0.014235482   -4.5352666    1.1496254  1010000 
 3947000   0.76722649   -4.5364493   -4.5364493   -3.3856107  0.012791505   -4.5364493    1.1508386  1010000 
 3948000   0.76757783   -4.5369019   -4.5369019   -3.3855363   0.01349913   -4.5369019    1.1513656  1010000 
 3949000   0.76696414     -4.53574     -4.53574    -3.385295  0.015741095     -4.53574    1.1504451  1010000 
 3950000     0.767539   -4.5368968   -4.5368968   -3.3855894  0.014764892   -4.5368968    1.1513074  1010000 
 3951000   0.76689009   -4.5368433   -4.5368433   -3.3865093  0.017868894   -4.5368433     1.150334  1010000 
 3952000   0.76662729   -4.5367367   -4.5367367   -3.3867969  0.015918402   -4.5367367    1.1499398  1010000 
 3953000    0.7676918   -4.5378097   -4.5378097   -3.3862731  0.013724388   -4.5378097    1.1515366  1010000 
 3954000   0.76665746   -4.5366232   -4.5366232   -3.3866381  0.017084873   -4.5366232    1.1499851  1010000 
 3955000   0.76790459   -4.5382395   -4.5382395   -3.3863838  0.014542768   -4.5382395    1.1518557  1010000 
 3956000   0.76771035   -4.5383279   -4.5383279   -3.3867635  0.015189147   -4.5383279    1.1515644  1010000 
 3957000   0.76698831   -4.5379207   -4.5379207   -3.3874394  0.015757903   -4.5379207    1.1504813  1010000 
 3958000   0.76676922   -4.5383754   -4.5383754   -3.3882227  0.021170199   -4.5383754    1.1501527  1010000 
 3959000   0.76708682   -4.5391867   -4.5391867   -3.3885576  0.015640755   -4.5391867    1.1506291  1010000 
 3960000   0.76690546   -4.5390024   -4.5390024   -3.3886453  0.014302526   -4.5390024    1.1503571  1010000 
 3961000   0.76702051   -4.5392934   -4.5392934   -3.3887638  0.015161821   -4.5392934    1.1505296  1010000 
 3962000   0.76687771   -4.5391915   -4.5391915   -3.3888761  0.018071842   -4.5391915    1.1503154  1010000 
 3963000   0.76723343   -4.5399093   -4.5399093   -3.3890603  0.014355543   -4.5399093     1.150849  1010000 
 3964000   0.76789065   -4.5401696   -4.5401696   -3.3883348  0.016777072   -4.5401696    1.1518348  1010000 
 3965000    0.7665595   -4.5386273   -4.5386273   -3.3887892  0.018921248   -4.5386273    1.1498381  1010000 
 3966000   0.76707311   -4.5391648   -4.5391648   -3.3885563  0.016206782   -4.5391648    1.1506085  1010000 
 3967000   0.76772819    -4.540351    -4.540351   -3.3887599  0.013807835    -4.540351    1.1515911  1010000 
 3968000      0.76746   -4.5404073   -4.5404073   -3.3892185  0.016549806   -4.5404073    1.1511889  1010000 
 3969000   0.76613546    -4.538767    -4.538767    -3.389565  0.018455702    -4.538767    1.1492021  1010000 
 3970000   0.76665844   -4.5399221   -4.5399221   -3.3899356  0.015602102   -4.5399221    1.1499865  1010000 
 3971000   0.76590549   -4.5384576   -4.5384576   -3.3896005  0.017347902   -4.5384576    1.1488571  1010000 
 3972000   0.76693214   -4.5398844   -4.5398844   -3.3894873  0.014414043   -4.5398844    1.1503971  1010000 
 3973000    0.7676094   -4.5412125   -4.5412125   -3.3897996  0.010641435   -4.5412125     1.151413  1010000 
 3974000   0.76689693   -4.5402952   -4.5402952   -3.3899509  0.017528006   -4.5402952    1.1503443  1010000 
 3975000   0.76653988   -4.5396342   -4.5396342   -3.3898255  0.012954861   -4.5396342    1.1498087  1010000 
 3976000   0.76658825   -4.5393301   -4.5393301   -3.3894489  0.013930086   -4.5393301    1.1498812  1010000 
 3977000   0.76666428   -4.5395761   -4.5395761   -3.3895808   0.01842781   -4.5395761    1.1499953  1010000 
 3978000   0.76657787    -4.539453    -4.539453   -3.3895874  0.017951372    -4.539453    1.1498657  1010000 
 3979000   0.76646609    -4.539163    -4.539163    -3.389465  0.016118703    -4.539163     1.149698  1010000 
 3980000   0.76704732   -4.5402095   -4.5402095   -3.3896396  0.012529864   -4.5402095    1.1505698  1010000 
 3981000   0.76601115    -4.539596    -4.539596   -3.3905804  0.012947994    -4.539596    1.1490156  1010000 
 3982000   0.76576326   -4.5394233   -4.5394233   -3.3907795  0.013855608   -4.5394233    1.1486437  1010000 
 3983000   0.76624773   -4.5405612   -4.5405612   -3.3911907 0.0082378418   -4.5405612    1.1493705  1010000 
 3984000    0.7660694    -4.540174    -4.540174    -3.391071  0.010126997    -4.540174     1.149103  1010000 
 3985000    0.7660894   -4.5403581   -4.5403581   -3.3912252  0.011729504   -4.5403581     1.149133  1010000 
 3986000   0.76575725   -4.5397832   -4.5397832   -3.3911485  0.014162527   -4.5397832    1.1486347  1010000 
 3987000   0.76515306   -4.5386133   -4.5386133   -3.3908849  0.012858003   -4.5386133    1.1477284  1010000 
 3988000    0.7657699   -4.5399291   -4.5399291   -3.3912754 0.0094892176   -4.5399291    1.1486537  1010000 
 3989000   0.76543905   -4.5399073   -4.5399073   -3.3917498 0.0090720644   -4.5399073    1.1481574  1010000 
 3990000   0.76513494   -4.5394644   -4.5394644   -3.3917632  0.009326826   -4.5394644    1.1477013  1010000 
 3991000   0.76600144   -4.5408899   -4.5408899   -3.3918889 0.0071135472   -4.5408899     1.149001  1010000 
 3992000   0.76525929   -4.5393826   -4.5393826   -3.3914948  0.011354212   -4.5393826    1.1478878  1010000 
 3993000   0.76571854   -4.5399476   -4.5399476   -3.3913709  0.013764694   -4.5399476    1.1485767  1010000 
 3994000   0.76655516   -4.5411537   -4.5411537   -3.3913221  0.011488132   -4.5411537    1.1498316  1010000 
 3995000   0.76556213   -4.5399296   -4.5399296   -3.3915876  0.012364756   -4.5399296    1.1483421  1010000 
 3996000   0.76614871   -4.5407135   -4.5407135   -3.3914915  0.011890598   -4.5407135    1.1492219  1010000 
 3997000   0.76531473   -4.5400811   -4.5400811   -3.3921101  0.013160195   -4.5400811     1.147971  1010000 
 3998000   0.76562503   -4.5401944   -4.5401944    -3.391758  0.013021305   -4.5401944    1.1484364  1010000 
 3999000    0.7656009    -4.540867    -4.540867   -3.3924668  0.012648706    -4.540867    1.1484002  1010000 
 4000000   0.76539917   -4.5405898   -4.5405898   -3.3924922  0.015172432   -4.5405898    1.1480976  1010000 
 4001000   0.76643835   -4.5420978   -4.5420978   -3.3924414   0.01597754   -4.5420978    1.1496564  1010000 
 4002000   0.76627531   -4.5418607   -4.5418607   -3.3924489  0.018198905   -4.5418607    1.1494118  1010000 
 4003000   0.76595561   -4.5410153   -4.5410153    -3.392083  0.018997857   -4.5410153    1.1489323  1010000 
 4004000   0.76658251   -4.5420008   -4.5420008   -3.3921281  0.017050216   -4.5420008    1.1498726  1010000 
 4005000     0.766615   -4.5421727   -4.5421727   -3.3922513  0.014469408   -4.5421727    1.1499214  1010000 
 4006000   0.76536334   -4.5404802   -4.5404802   -3.3924363  0.018743695   -4.5404802    1.1480439  1010000 
 4007000   0.76655957   -4.5420878   -4.5420878   -3.3922496  0.019177918   -4.5420878    1.1498382  1010000 
 4008000   0.76653104   -4.5425693   -4.5425693   -3.3927739  0.017369499   -4.5425693    1.1497954  1010000 
 4009000    0.7654185   -4.5417143   -4.5417143   -3.3935877  0.017502758   -4.5417143    1.1481266  1010000 
 4010000   0.76690098   -4.5438925   -4.5438925   -3.3935422  0.012545344   -4.5438925    1.1503503  1010000 
 4011000   0.76594331   -4.5421871   -4.5421871   -3.3932733  0.020033607   -4.5421871    1.1489138  1010000 
 4012000   0.76561694   -4.5422776   -4.5422776   -3.3938533  0.017868777   -4.5422776    1.1484243  1010000 
 4013000   0.76574316   -4.5426913   -4.5426913   -3.3940777  0.014316705   -4.5426913    1.1486136  1010000 
 4014000   0.76588424   -4.5432828   -4.5432828   -3.3944575  0.013875528   -4.5432828    1.1488252  1010000 
 4015000   0.76579371   -4.5435224   -4.5435224    -3.394833  0.014587043   -4.5435224    1.1486894  1010000 
 4016000    0.7657928   -4.5434245   -4.5434245   -3.3947365  0.016787531   -4.5434245    1.1486881  1010000 
 4017000   0.76599852   -4.5442663   -4.5442663   -3.3952696  0.011890002   -4.5442663    1.1489966  1010000 
 4018000   0.76573907   -4.5436475   -4.5436475     -3.39504  0.013970169   -4.5436475    1.1486075  1010000 
 4019000   0.76589381   -4.5437878   -4.5437878   -3.3949483  0.015514198   -4.5437878    1.1488396  1010000 
 4020000   0.76541167    -4.543824    -4.543824   -3.3957076  0.014387569    -4.543824    1.1481164  1010000 
 4021000   0.76551841   -4.5442866   -4.5442866   -3.3960101  0.013081857   -4.5442866    1.1482765  1010000 
 4022000   0.76529453   -4.5441853   -4.5441853   -3.3962447  0.011837547   -4.5441853    1.1479407  1010000 
 4023000   0.76462791   -4.5435931   -4.5435931   -3.3966524  0.014298688   -4.5435931    1.1469407  1010000 
 4024000   0.76556497   -4.5450368   -4.5450368   -3.3966905  0.010645956   -4.5450368    1.1483463  1010000 
 4025000   0.76467986   -4.5438765   -4.5438765   -3.3968578  0.011591865   -4.5438765    1.1470186  1010000 
 4026000   0.76494985   -4.5439292   -4.5439292   -3.3965055  0.012236108   -4.5439292    1.1474236  1010000 
 4027000   0.76489728    -4.543771    -4.543771   -3.3964262  0.010852656    -4.543771    1.1473448  1010000 
 4028000   0.76465195   -4.5440499   -4.5440499   -3.3970731  0.012922684   -4.5440499    1.1469768  1010000 
 4029000   0.76451578   -4.5436627   -4.5436627   -3.3968902  0.013411127   -4.5436627    1.1467725  1010000 
 4030000   0.76530536   -4.5445853   -4.5445853   -3.3966284  0.012380016   -4.5445853    1.1479569  1010000 
 4031000   0.76411611   -4.5432681   -4.5432681   -3.3970951  0.015771192   -4.5432681     1.146173  1010000 
 4032000   0.76484822   -4.5440567   -4.5440567   -3.3967855  0.013569154   -4.5440567    1.1472712  1010000 
 4033000   0.76541947   -4.5450915   -4.5450915   -3.3969634  0.013550322   -4.5450915    1.1481281  1010000 
 4034000   0.76456613   -4.5441105   -4.5441105   -3.3972625  0.013557919   -4.5441105    1.1468481  1010000 
 4035000    0.7650279   -4.5453468   -4.5453468    -3.397806  0.011837436   -4.5453468    1.1475407  1010000 
 4036000   0.76438556   -4.5442481   -4.5442481   -3.3976709   0.01446662   -4.5442481    1.1465772  1010000 
 4037000   0.76545271   -4.5460951   -4.5460951   -3.3979172 0.0095689232   -4.5460951    1.1481779  1010000 
 4038000   0.76537331   -4.5461792   -4.5461792   -3.3981204  0.011405785   -4.5461792    1.1480588  1010000 
 4039000   0.76611402   -4.5468585   -4.5468585   -3.3976886  0.013241744   -4.5468585    1.1491699  1010000 
 4040000   0.76523183   -4.5457768   -4.5457768   -3.3979302  0.013981587   -4.5457768    1.1478466  1010000 
 4041000   0.76495388   -4.5453032   -4.5453032   -3.3978735  0.016902436   -4.5453032    1.1474297  1010000 
 4042000    0.7647435   -4.5447987   -4.5447987   -3.3976845  0.015023951   -4.5447987    1.1471141  1010000 
 4043000    0.7648473   -4.5447185   -4.5447185   -3.3974487  0.016224056   -4.5447185    1.1472698  1010000 
 4044000   0.76521544   -4.5452529   -4.5452529   -3.3974308  0.011358818   -4.5452529     1.147822  1010000 
 4045000   0.76496392   -4.5450119   -4.5450119   -3.3975671  0.014795273   -4.5450119    1.1474447  1010000 
 4046000   0.76484593   -4.5455812   -4.5455812   -3.3983134  0.014543516   -4.5455812    1.1472678  1010000 
 4047000   0.76453653   -4.5458075   -4.5458075   -3.3990038   0.01296365   -4.5458075    1.1468037  1010000 
 4048000   0.76466186   -4.5457998   -4.5457998   -3.3988081  0.018300231   -4.5457998    1.1469917  1010000 
 4049000   0.76564682   -4.5477312   -4.5477312   -3.3992621  0.014432625   -4.5477312    1.1484691  1010000 
 4050000   0.76458463   -4.5472424   -4.5472424   -3.4003666  0.015160281   -4.5472424    1.1468758  1010000 
 4051000   0.76393761    -4.546343    -4.546343   -3.4004377  0.014627705    -4.546343    1.1459053  1010000 
 4052000   0.76519409   -4.5480696   -4.5480696   -3.4002796  0.011679027   -4.5480696      1.14779  1010000 
 4053000   0.76469008   -4.5474018   -4.5474018   -3.4003678  0.013043581   -4.5474018     1.147034  1010000 
 4054000   0.76449638   -4.5470458   -4.5470458   -3.4003024  0.017187093   -4.5470458    1.1467434  1010000 
 4055000   0.76384634   -4.5465551   -4.5465551   -3.4007867  0.018036147   -4.5465551    1.1457684  1010000 
 4056000   0.76446415   -4.5471447   -4.5471447   -3.4004496 0.0096501685   -4.5471447    1.1466951  1010000 
 4057000   0.76384532    -4.546655    -4.546655   -3.4008882  0.015730605    -4.546655    1.1457668  1010000 
 4058000   0.76486041   -4.5478147   -4.5478147   -3.4005252  0.010733894   -4.5478147    1.1472895  1010000 
 4059000   0.76459741   -4.5479408   -4.5479408   -3.4010458  0.010456888   -4.5479408     1.146895  1010000 
 4060000   0.76350336   -4.5466434   -4.5466434   -3.4013895   0.01548822   -4.5466434    1.1452539  1010000 
 4061000   0.76417042   -4.5478003   -4.5478003   -3.4015458  0.014667595   -4.5478003    1.1462545  1010000 
 4062000   0.76403236   -4.5478752   -4.5478752   -3.4018278  0.016973393   -4.5478752    1.1460474  1010000 
 4063000   0.76478137   -4.5490487   -4.5490487   -3.4018778  0.017973698   -4.5490487    1.1471709  1010000 
 4064000   0.76535412   -4.5500304   -4.5500304   -3.4020004  0.012042446   -4.5500304      1.14803  1010000 
 4065000   0.76538178   -4.5498973   -4.5498973   -3.4018258  0.012319064   -4.5498973    1.1480715  1010000 
 4066000      0.76464    -4.548792    -4.548792   -3.4018332  0.016474681    -4.548792    1.1469589  1010000 
 4067000   0.76516225   -4.5500364   -4.5500364   -3.4022941  0.014798978   -4.5500364    1.1477422  1010000 
 4068000   0.76507215   -4.5495113   -4.5495113   -3.4019042  0.013706851   -4.5495113    1.1476071  1010000 
 4069000   0.76380252   -4.5481208   -4.5481208   -3.4024181  0.017199464   -4.5481208    1.1457026  1010000 
 4070000   0.76446046   -4.5491533   -4.5491533   -3.4024637  0.015795147   -4.5491533    1.1466896  1010000 
 4071000   0.76445127   -4.5495287   -4.5495287   -3.4028529  0.013334948   -4.5495287    1.1466758  1010000 
 4072000   0.76368317   -4.5484152   -4.5484152   -3.4028916  0.011968931   -4.5484152    1.1455236  1010000 
 4073000   0.76384198   -4.5485716   -4.5485716   -3.4028098  0.012773098   -4.5485716    1.1457618  1010000 
 4074000   0.76407311   -4.5489338   -4.5489338   -3.4028253  0.015454053   -4.5489338    1.1461085  1010000 
 4075000   0.76481388   -4.5503974   -4.5503974   -3.4031777 0.0086530204   -4.5503974    1.1472197  1010000 
 4076000   0.76375872    -4.548663    -4.548663   -3.4030261  0.012057302    -4.548663    1.1456369  1010000 
 4077000   0.76395338   -4.5489817   -4.5489817   -3.4030528  0.012506276   -4.5489817    1.1459289  1010000 
 4078000   0.76403572   -4.5497692   -4.5497692   -3.4037167 0.0099825382   -4.5497692    1.1460524  1010000 
 4079000   0.76438382    -4.550353    -4.550353   -3.4037784  0.010088843    -4.550353    1.1465746  1010000 
 4080000   0.76443208    -4.550052    -4.550052    -3.403405  0.013028081    -4.550052     1.146647  1010000 
 4081000   0.76337311   -4.5489108   -4.5489108   -3.4038522  0.016862569   -4.5489108    1.1450585  1010000 
 4082000   0.76372958   -4.5495403   -4.5495403   -3.4039471  0.016097923   -4.5495403    1.1455932  1010000 
 4083000   0.76449197   -4.5508715   -4.5508715   -3.4041346  0.013906444   -4.5508715    1.1467368  1010000 
 4084000   0.76458059   -4.5508935   -4.5508935   -3.4040237  0.013898545   -4.5508935    1.1468698  1010000 
 4085000   0.76451156   -4.5504431   -4.5504431   -3.4036769  0.014902309   -4.5504431    1.1467662  1010000 
 4086000   0.76362677   -4.5491488   -4.5491488   -3.4037098  0.016470542   -4.5491488     1.145439  1010000 
 4087000   0.76477051    -4.550746    -4.550746   -3.4035913  0.013038308    -4.550746    1.1471546  1010000 
 4088000   0.76463015   -4.5507286   -4.5507286   -3.4037845  0.011853702   -4.5507286    1.1469441  1010000 
 4089000   0.76449401   -4.5508717   -4.5508717   -3.4041318  0.010827895   -4.5508717    1.1467399  1010000 
 4090000   0.76377088   -4.5496281   -4.5496281   -3.4039729  0.011786987   -4.5496281    1.1456552  1010000 
 4091000   0.76383942   -4.5504745   -4.5504745   -3.4047165 0.0095161989   -4.5504745     1.145758  1010000 
 4092000    0.7637351    -4.550374    -4.550374   -3.4047725  0.017081444    -4.550374    1.1456015  1010000 
 4093000   0.76407139   -4.5508858   -4.5508858   -3.4047799  0.013721111   -4.5508858     1.146106  1010000 
 4094000   0.76351934   -4.5503912   -4.5503912   -3.4051133   0.01645829   -4.5503912    1.1452779  1010000 
 4095000   0.76401952   -4.5511578   -4.5511578   -3.4051296   0.01518357   -4.5511578    1.1460281  1010000 
 4096000   0.76423561   -4.5513077   -4.5513077   -3.4049554  0.013454144   -4.5513077    1.1463523  1010000 
 4097000   0.76368787    -4.550416    -4.550416   -3.4048853  0.015687838    -4.550416    1.1455307  1010000 
 4098000   0.76377443   -4.5511581   -4.5511581   -3.4054975  0.016023917   -4.5511581    1.1456605  1010000 
 4099000   0.76335673   -4.5501425   -4.5501425   -3.4051086  0.015470919   -4.5501425     1.145034  1010000 
 4100000   0.76339756   -4.5497423   -4.5497423   -3.4046471  0.017695008   -4.5497423    1.1450952  1010000 
 4101000   0.76396016   -4.5505628   -4.5505628   -3.4046237  0.014104951   -4.5505628    1.1459391  1010000 
 4102000   0.76404665   -4.5503038   -4.5503038    -3.404235   0.01398339   -4.5503038    1.1460688  1010000 
 4103000   0.76417761   -4.5506164   -4.5506164   -3.4043511   0.01568675   -4.5506164    1.1462653  1010000 
 4104000    0.7638563   -4.5510423   -4.5510423    -3.405259  0.015164624   -4.5510423    1.1457833  1010000 
 4105000   0.76352725   -4.5507376   -4.5507376   -3.4054479  0.014113705   -4.5507376    1.1452897  1010000 
 4106000   0.76468705   -4.5526665   -4.5526665    -3.405637 0.0097943209   -4.5526665    1.1470294  1010000 
 4107000   0.76334475    -4.550877    -4.550877    -3.405861  0.014557937    -4.550877     1.145016  1010000 
 4108000   0.76373431   -4.5515136   -4.5515136   -3.4059133  0.015067185   -4.5515136    1.1456003  1010000 
 4109000   0.76367218   -4.5520852   -4.5520852    -3.406578  0.014391412   -4.5520852    1.1455071  1010000 
 4110000    0.7629486   -4.5510853   -4.5510853   -3.4066636  0.017968432   -4.5510853    1.1444218  1010000 
 4111000   0.76282545   -4.5512556   -4.5512556   -3.4070186  0.014098434   -4.5512556     1.144237  1010000 
 4112000   0.76277007   -4.5511031   -4.5511031   -3.4069491  0.011960315   -4.5511031     1.144154  1010000 
 4113000   0.76302257   -4.5515497   -4.5515497    -3.407017  0.010642984   -4.5515497    1.1445327  1010000 
 4114000   0.76261772   -4.5506908   -4.5506908   -3.4067654  0.010892706   -4.5506908    1.1439254  1010000 
 4115000   0.76265701   -4.5513381   -4.5513381   -3.4073537   0.01137782   -4.5513381    1.1439844  1010000 
 4116000   0.76267847   -4.5514094   -4.5514094   -3.4073928  0.013098527   -4.5514094    1.1440166  1010000 
 4117000   0.76364623   -4.5529726   -4.5529726   -3.4075044  0.010177668   -4.5529726    1.1454682  1010000 
 4118000   0.76330275   -4.5526727   -4.5526727   -3.4077197 0.0087525148   -4.5526727     1.144953  1010000 
 4119000   0.76251691   -4.5516763   -4.5516763    -3.407902   0.01137871   -4.5516763    1.1437742  1010000 
 4120000    0.7629297   -4.5519589   -4.5519589   -3.4075655  0.010345759   -4.5519589    1.1443934  1010000 
 4121000   0.76299958    -4.551738    -4.551738   -3.4072398  0.012288075    -4.551738    1.1444982  1010000 
 4122000   0.76356228   -4.5528077   -4.5528077   -3.4074654  0.011934101   -4.5528077    1.1453423  1010000 
 4123000   0.76326753   -4.5525171   -4.5525171   -3.4076169  0.015981789   -4.5525171    1.1449002  1010000 
 4124000   0.76312486   -4.5526147   -4.5526147   -3.4079286  0.014407122   -4.5526147    1.1446862  1010000 
 4125000   0.76321101   -4.5531062   -4.5531062   -3.4082908  0.016150286   -4.5531062    1.1448154  1010000 
 4126000   0.76378319   -4.5543426   -4.5543426   -3.4086689  0.014164626   -4.5543426    1.1456736  1010000 
 4127000   0.76429691    -4.554832    -4.554832   -3.4083878  0.012932389    -4.554832    1.1464442  1010000 
 4128000   0.76265713   -4.5528665   -4.5528665   -3.4088819  0.018177373   -4.5528665    1.1439846  1010000 
 4129000   0.76254731   -4.5532516   -4.5532516   -3.4094317  0.015522078   -4.5532516    1.1438198  1010000 
 4130000   0.76334792   -4.5538535   -4.5538535   -3.4088327  0.011910036   -4.5538535    1.1450207  1010000 
 4131000   0.76236646   -4.5525585   -4.5525585   -3.4090099  0.015943799   -4.5525585    1.1435486  1010000 
 4132000   0.76255437   -4.5528462   -4.5528462   -3.4090158  0.013200698   -4.5528462    1.1438304  1010000 
 4133000   0.76326258   -4.5541545   -4.5541545   -3.4092617  0.010479251   -4.5541545    1.1448927  1010000 
 4134000   0.76214749   -4.5528862   -4.5528862   -3.4096661  0.014091903   -4.5528862    1.1432201  1010000 
 4135000   0.76337905   -4.5543355   -4.5543355   -3.4092681  0.012787774   -4.5543355    1.1450674  1010000 
 4136000   0.76332518   -4.5545582   -4.5545582   -3.4095715  0.012911145   -4.5545582    1.1449866  1010000 
 4137000   0.76337279    -4.555017    -4.555017   -3.4099589  0.013753493    -4.555017     1.145058  1010000 
 4138000   0.76261956   -4.5540653   -4.5540653   -3.4101371  0.013472186   -4.5540653    1.1439282  1010000 
 4139000   0.76348952   -4.5552884   -4.5552884   -3.4100553  0.013155094   -4.5552884    1.1452331  1010000 
 4140000   0.76323623   -4.5550913   -4.5550913   -3.4102381  0.015511727   -4.5550913    1.1448532  1010000 
 4141000   0.76274124   -4.5538058   -4.5538058   -3.4096951  0.018916875   -4.5538058    1.1441107  1010000 
 4142000   0.76299701   -4.5540698   -4.5540698   -3.4095754  0.016941628   -4.5540698    1.1444944  1010000 
 4143000   0.76295789   -4.5541311   -4.5541311   -3.4096954  0.017668816   -4.5541311    1.1444357  1010000 
 4144000    0.7636581   -4.5557597   -4.5557597   -3.4102737  0.016492777   -4.5557597     1.145486  1010000 
 4145000   0.76415147   -4.5558039   -4.5558039   -3.4095778  0.014499606   -4.5558039    1.1462261  1010000 
 4146000   0.76385682   -4.5557407   -4.5557407   -3.4099566  0.016136724   -4.5557407    1.1457841  1010000 
 4147000   0.76379177   -4.5554898   -4.5554898   -3.4098033  0.014098619   -4.5554898    1.1456865  1010000 
 4148000   0.76318863   -4.5546876   -4.5546876   -3.4099058  0.012942998   -4.5546876    1.1447818  1010000 
 4149000   0.76248373   -4.5536516   -4.5536516   -3.4099272  0.016141824   -4.5536516    1.1437245  1010000 
 4150000   0.76186158   -4.5533591   -4.5533591   -3.4105679   0.01404626   -4.5533591    1.1427912  1010000 
 4151000   0.76284664   -4.5552564   -4.5552564   -3.4109875  0.010686856   -4.5552564    1.1442688  1010000 
 4152000   0.76281775   -4.5551446   -4.5551446   -3.4109191  0.011493533   -4.5551446    1.1442255  1010000 
 4153000   0.76290862    -4.555593    -4.555593   -3.4112312  0.011133313    -4.555593    1.1443618  1010000 
 4154000   0.76210203   -4.5550275   -4.5550275   -3.4118755    0.0112258   -4.5550275    1.1431519  1010000 
 4155000   0.76182678   -4.5545448   -4.5545448   -3.4118058  0.011300386   -4.5545448     1.142739  1010000 
 4156000   0.76219675   -4.5544676   -4.5544676   -3.4111736  0.013467243   -4.5544676     1.143294  1010000 
 4157000   0.76289844   -4.5556927   -4.5556927   -3.4113462  0.011055157   -4.5556927    1.1443465  1010000 
 4158000   0.76220283   -4.5549146   -4.5549146   -3.4116115  0.013180715   -4.5549146    1.1433031  1010000 
 4159000   0.76262091   -4.5561035   -4.5561035   -3.4121733  0.010920212   -4.5561035    1.1439302  1010000 
 4160000   0.76247973   -4.5561123   -4.5561123   -3.4123938 0.0087552779   -4.5561123    1.1437185  1010000 
 4161000   0.76169167   -4.5545031   -4.5545031   -3.4119667  0.013405971   -4.5545031    1.1425364  1010000 
 4162000    0.7618275   -4.5556448   -4.5556448   -3.4129047  0.010539561   -4.5556448    1.1427401  1010000 
 4163000   0.76205579   -4.5555643   -4.5555643   -3.4124818  0.010661635   -4.5555643    1.1430825  1010000 
 4164000   0.76187697   -4.5557332   -4.5557332   -3.4129189  0.010623823   -4.5557332    1.1428143  1010000 
 4165000   0.76152897   -4.5553119   -4.5553119   -3.4130196  0.012299219   -4.5553119    1.1422923  1010000 
 4166000   0.76176719     -4.55541     -4.55541   -3.4127604  0.011741003     -4.55541    1.1426497  1010000 
 4167000   0.76198274   -4.5555568   -4.5555568   -3.4125839  0.010264094   -4.5555568     1.142973  1010000 
 4168000    0.7616259   -4.5558426   -4.5558426   -3.4134049  0.010263354   -4.5558426    1.1424377  1010000 
 4169000   0.76221732   -4.5567113   -4.5567113   -3.4133864 0.0096142234   -4.5567113    1.1433248  1010000 
 4170000   0.76139407   -4.5553113   -4.5553113   -3.4132214  0.014159773   -4.5553113      1.14209  1010000 
 4171000   0.76175123   -4.5563817   -4.5563817    -3.413756  0.012348762   -4.5563817    1.1426257  1010000 
 4172000    0.7629581   -4.5582542   -4.5582542   -3.4138182 0.0085389049   -4.5582542     1.144436  1010000 
 4173000   0.76221947   -4.5570396   -4.5570396   -3.4137116  0.014295435   -4.5570396    1.1433281  1010000 
 4174000   0.76212606   -4.5566888   -4.5566888   -3.4135008  0.017346824   -4.5566888     1.143188  1010000 
 4175000   0.76296881   -4.5582089   -4.5582089   -3.4137568  0.013734032   -4.5582089    1.1444521  1010000 
 4176000    0.7618792   -4.5565292   -4.5565292   -3.4137115  0.018062032   -4.5565292    1.1428177  1010000 
 4177000   0.76286658   -4.5584722   -4.5584722   -3.4141735  0.013387464   -4.5584722    1.1442987  1010000 
 4178000   0.76328737   -4.5588273   -4.5588273   -3.4138973  0.011646977   -4.5588273    1.1449299  1010000 
 4179000   0.76246419   -4.5578595   -4.5578595   -3.4141643   0.01579671   -4.5578595    1.1436951  1010000 
 4180000   0.76326314   -4.5589482   -4.5589482   -3.4140546   0.01601739   -4.5589482    1.1448936  1010000 
 4181000   0.76250465   -4.5582997   -4.5582997   -3.4145439  0.016941169   -4.5582997    1.1437558  1010000 
 4182000   0.76230432   -4.5581871   -4.5581871   -3.4147317  0.012233098   -4.5581871    1.1434553  1010000 
 4183000   0.76261659   -4.5588108   -4.5588108   -3.4148871  0.012863332   -4.5588108    1.1439238  1010000 
 4184000   0.76239701   -4.5587121   -4.5587121   -3.4151177  0.016274388   -4.5587121    1.1435944  1010000 
 4185000   0.76217587   -4.5584232   -4.5584232   -3.4151605  0.020056758   -4.5584232    1.1432627  1010000 
 4186000   0.76278268   -4.5595665   -4.5595665   -3.4153937  0.014137129   -4.5595665    1.1441729  1010000 
 4187000   0.76148007   -4.5586227   -4.5586227   -3.4164038  0.016242603   -4.5586227     1.142219  1010000 
 4188000   0.76134964   -4.5586852   -4.5586852   -3.4166618  0.015330373   -4.5586852    1.1420233  1010000 
 4189000   0.76216775   -4.5601255   -4.5601255    -3.416875  0.010981525   -4.5601255    1.1432505  1010000 
 4190000   0.76211187   -4.5593897   -4.5593897    -3.416223  0.013669917   -4.5593897    1.1431667  1010000 
 4191000   0.76148089   -4.5595198   -4.5595198   -3.4172996  0.016631301   -4.5595198    1.1422202  1010000 
 4192000   0.76202211   -4.5601871   -4.5601871   -3.4171551  0.014797188   -4.5601871     1.143032  1010000 
 4193000   0.76291724   -4.5621697   -4.5621697    -3.417795 0.0087536386   -4.5621697    1.1443747  1010000 
 4194000   0.76134346   -4.5595043   -4.5595043   -3.4174902  0.016876383   -4.5595043    1.1420141  1010000 
 4195000   0.76187843   -4.5602451   -4.5602451   -3.4174286  0.014716824   -4.5602451    1.1428165  1010000 
 4196000   0.76222412   -4.5607977   -4.5607977   -3.4174627   0.01221804   -4.5607977    1.1433351  1010000 
 4197000    0.7617871   -4.5602712   -4.5602712   -3.4175917 0.0097365825   -4.5602712    1.1426795  1010000 
 4198000   0.76151975   -4.5594106   -4.5594106   -3.4171321  0.012674349   -4.5594106    1.1422785  1010000 
 4199000   0.76103972   -4.5597125   -4.5597125    -3.418154   0.01674296   -4.5597125    1.1415584  1010000 
 4200000   0.76167019   -4.5612363   -4.5612363   -3.4187322  0.012364488   -4.5612363    1.1425042  1010000 
 4201000   0.76182246   -4.5615849   -4.5615849   -3.4188523  0.012206231   -4.5615849    1.1427326  1010000 
 4202000   0.76174149    -4.561117    -4.561117   -3.4185059  0.013432811    -4.561117    1.1426111  1010000 
 4203000   0.76150845    -4.561332    -4.561332   -3.4190705  0.012136658    -4.561332    1.1422615  1010000 
 4204000    0.7614543   -4.5612789   -4.5612789   -3.4190986  0.012323142   -4.5612789    1.1421803  1010000 
 4205000    0.7617224   -4.5614074   -4.5614074   -3.4188249 0.0087526537   -4.5614074    1.1425825  1010000 
 4206000   0.76118412   -4.5607328   -4.5607328   -3.4189578  0.011653022   -4.5607328    1.1417751  1010000 
 4207000   0.76186584   -4.5610236   -4.5610236    -3.418226  0.011833308   -4.5610236    1.1427976  1010000 
 4208000   0.76155309   -4.5608603   -4.5608603   -3.4185318  0.017461991   -4.5608603    1.1423285  1010000 
 4209000   0.76165069     -4.56144     -4.56144   -3.4189651  0.014879889     -4.56144    1.1424749  1010000 
 4210000   0.76186997   -4.5615362   -4.5615362   -3.4187323  0.014472576   -4.5615362    1.1428038  1010000 
 4211000   0.76162722   -4.5614138   -4.5614138   -3.4189741  0.013014272   -4.5614138    1.1424397  1010000 
 4212000   0.76103556   -4.5603762   -4.5603762    -3.418824  0.016690754   -4.5603762    1.1415522  1010000 
 4213000   0.76140214   -4.5610523   -4.5610523   -3.4189502  0.018151546   -4.5610523    1.1421021  1010000 
 4214000   0.76112089   -4.5612309   -4.5612309   -3.4195507  0.014274438   -4.5612309    1.1416802  1010000 
 4215000   0.76079423   -4.5614212   -4.5614212    -3.420231  0.014596884   -4.5614212    1.1411902  1010000 
 4216000    0.7609089   -4.5618553   -4.5618553   -3.4204931  0.013586493   -4.5618553    1.1413622  1010000 
 4217000    0.7605042   -4.5613506   -4.5613506   -3.4205954  0.013142411   -4.5613506    1.1407552  1010000 
 4218000   0.76179299   -4.5632838   -4.5632838   -3.4205955 0.0099560502   -4.5632838    1.1426884  1010000 
 4219000   0.76052222   -4.5613234   -4.5613234   -3.4205412  0.011834513   -4.5613234    1.1407822  1010000 
 4220000   0.76066121   -4.5619308   -4.5619308   -3.4209402   0.01216752   -4.5619308    1.1409907  1010000 
 4221000    0.7608665   -4.5621549   -4.5621549   -3.4208562 0.0090945401   -4.5621549    1.1412986  1010000 
 4222000   0.76029221   -4.5612974   -4.5612974   -3.4208602  0.013950932   -4.5612974    1.1404372  1010000 
 4223000   0.76048798   -4.5616116   -4.5616116   -3.4208808  0.014322676   -4.5616116    1.1407308  1010000 
 4224000   0.76172582   -4.5642966   -4.5642966    -3.421709 0.0088922799   -4.5642966    1.1425876  1010000 
 4225000   0.76054534   -4.5629028   -4.5629028    -3.422086  0.014433409   -4.5629028    1.1408169  1010000 
 4226000   0.76136275   -4.5638238   -4.5638238   -3.4217808  0.012717839   -4.5638238     1.142043  1010000 
 4227000    0.7613885   -4.5640522   -4.5640522   -3.4219706   0.01150188   -4.5640522    1.1420816  1010000 
 4228000    0.7608812   -4.5632221   -4.5632221   -3.4219015  0.014218894   -4.5632221    1.1413207  1010000 
 4229000    0.7611998   -4.5634544   -4.5634544   -3.4216559  0.013098388   -4.5634544    1.1417986  1010000 
 4230000   0.76112312   -4.5630545   -4.5630545   -3.4213709  0.016802768   -4.5630545    1.1416836  1010000 
 4231000   0.76167443   -4.5636656   -4.5636656   -3.4211551  0.018316062   -4.5636656    1.1425105  1010000 
 4232000   0.76141888   -4.5636791   -4.5636791   -3.4215519  0.015675824   -4.5636791    1.1421272  1010000 
 4233000   0.76116438   -4.5637244   -4.5637244   -3.4219789  0.016002121   -4.5637244    1.1417454  1010000 
 4234000   0.76106039   -4.5638214   -4.5638214    -3.422232  0.017213317   -4.5638214    1.1415895  1010000 
 4235000   0.76145965   -4.5644314   -4.5644314   -3.4222431  0.013630266   -4.5644314    1.1421883  1010000 
 4236000   0.76093481   -4.5635153   -4.5635153   -3.4221142  0.014741358   -4.5635153    1.1414011  1010000 
 4237000   0.76111247   -4.5635572   -4.5635572   -3.4218896  0.014105139   -4.5635572    1.1416676  1010000 
 4238000   0.76128593    -4.564264    -4.564264   -3.4223362  0.012817817    -4.564264    1.1419278  1010000 
 4239000   0.76085924   -4.5637741   -4.5637741   -3.4224864  0.014323475   -4.5637741    1.1412877  1010000 
 4240000   0.76119828   -4.5647405   -4.5647405   -3.4229442  0.014613326   -4.5647405    1.1417963  1010000 
 4241000   0.76084892   -4.5638056   -4.5638056   -3.4225334  0.016591519   -4.5638056    1.1412722  1010000 
 4242000   0.76031467   -4.5635649   -4.5635649   -3.4230941  0.015441207   -4.5635649    1.1404709  1010000 
 4243000   0.76101004    -4.564685    -4.564685    -3.423171  0.012013562    -4.564685    1.1415139  1010000 
 4244000   0.76161951   -4.5656028   -4.5656028   -3.4231747  0.013101905   -4.5656028    1.1424281  1010000 
 4245000   0.76188271   -4.5660113   -4.5660113   -3.4231883  0.010698829   -4.5660113    1.1428229  1010000 
 4246000   0.76125561   -4.5651284   -4.5651284   -3.4232462  0.013618153   -4.5651284    1.1418823  1010000 
 4247000   0.76083107   -4.5647875   -4.5647875    -3.423542  0.013823466   -4.5647875    1.1412455  1010000 
 4248000   0.76147491   -4.5658193   -4.5658193   -3.4236081  0.009786073   -4.5658193    1.1422112  1010000 
 4249000   0.76093788   -4.5654938   -4.5654938   -3.4240881  0.012961814   -4.5654938    1.1414057  1010000 
 4250000   0.76025372    -4.564911    -4.564911   -3.4245316  0.013145026    -4.564911    1.1403794  1010000 
 4251000   0.75950416   -4.5637585   -4.5637585   -3.4245034  0.014416662   -4.5637585    1.1392551  1010000 
 4252000   0.76101122   -4.5658734   -4.5658734   -3.4243577 0.0092066476   -4.5658734    1.1415157  1010000 
 4253000   0.76048567   -4.5654044   -4.5654044   -3.4246771 0.0078644059   -4.5654044    1.1407274  1010000 
 4254000   0.76047123   -4.5650688   -4.5650688   -3.4243631   0.01138483   -4.5650688    1.1407057  1010000 
 4255000   0.76082152   -4.5658655   -4.5658655   -3.4246344 0.0072090435   -4.5658655    1.1412312  1010000 
 4256000   0.75978315   -4.5644887   -4.5644887   -3.4248151  0.012906797   -4.5644887    1.1396736  1010000 
 4257000    0.7605371   -4.5657462   -4.5657462   -3.4249417  0.012472174   -4.5657462    1.1408045  1010000 
 4258000   0.76074785   -4.5663931   -4.5663931   -3.4252725  0.009070773   -4.5663931    1.1411206  1010000 
 4259000   0.76049505   -4.5663905   -4.5663905   -3.4256491  0.012025234   -4.5663905    1.1407414  1010000 
 4260000   0.76068606   -4.5666287   -4.5666287   -3.4256007  0.010268669   -4.5666287     1.141028  1010000 
 4261000   0.76103469   -4.5666599   -4.5666599    -3.425109  0.011829394   -4.5666599    1.1415509  1010000 
 4262000    0.7600851   -4.5654622   -4.5654622   -3.4253357  0.017231371   -4.5654622    1.1401265  1010000 
 4263000   0.76029531   -4.5661019   -4.5661019   -3.4256601  0.015172129   -4.5661019    1.1404418  1010000 
 4264000   0.76029863   -4.5658177   -4.5658177   -3.4253709  0.013504992   -4.5658177    1.1404468  1010000 
 4265000   0.76073361   -4.5669375   -4.5669375   -3.4258382  0.013088602   -4.5669375    1.1410993  1010000 
 4266000   0.75984325   -4.5662022   -4.5662022   -3.4264385  0.013872252   -4.5662022    1.1397637  1010000 
 4267000   0.76015313    -4.566577    -4.566577   -3.4263484  0.013420218    -4.566577    1.1402286  1010000 
 4268000   0.76027854   -4.5672397   -4.5672397    -3.426823  0.011460174   -4.5672397    1.1404167  1010000 
 4269000   0.75970207   -4.5663713   -4.5663713   -3.4268193 0.0093130706   -4.5663713     1.139552  1010000 
 4270000   0.75997959   -4.5671362   -4.5671362   -3.4271679  0.015444828   -4.5671362    1.1399683  1010000 
 4271000   0.75991921    -4.566945    -4.566945   -3.4270673  0.015756252    -4.566945    1.1398777  1010000 
 4272000    0.7598754   -4.5672104   -4.5672104   -3.4273984  0.013132107   -4.5672104     1.139812  1010000 
 4273000   0.76004087   -4.5673999   -4.5673999   -3.4273397  0.012645528   -4.5673999    1.1400602  1010000 
 4274000   0.76032675   -4.5676649   -4.5676649   -3.4271759  0.013551802   -4.5676649     1.140489  1010000 
 4275000   0.75979947   -4.5673685   -4.5673685   -3.4276704  0.015159656   -4.5673685    1.1396981  1010000 
 4276000   0.75970924   -4.5674666   -4.5674666   -3.4279038  0.017952526   -4.5674666    1.1395627  1010000 
 4277000   0.76058157   -4.5685081   -4.5685081   -3.4276369  0.017669972   -4.5685081    1.1408712  1010000 
 4278000   0.76127164   -4.5695485   -4.5695485   -3.4276421  0.011625346   -4.5695485    1.1419063  1010000 
 4279000   0.76104858   -4.5696625   -4.5696625   -3.4280907  0.013978241   -4.5696625    1.1415717  1010000 
 4280000   0.76031686   -4.5693268   -4.5693268   -3.4288527  0.016291814   -4.5693268    1.1404742  1010000 
 4281000   0.75980685   -4.5690519   -4.5690519   -3.4293428  0.018051348   -4.5690519    1.1397092  1010000 
 4282000   0.76040978   -4.5700853   -4.5700853   -3.4294718  0.015334241   -4.5700853    1.1406135  1010000 
 4283000   0.76035467   -4.5697676   -4.5697676   -3.4292367  0.014419089   -4.5697676    1.1405309  1010000 
 4284000    0.7597985   -4.5693194   -4.5693194   -3.4296228  0.016496503   -4.5693194    1.1396966  1010000 
 4285000   0.76049597    -4.569719    -4.569719   -3.4289762  0.014681372    -4.569719    1.1407428  1010000 
 4286000    0.7601986   -4.5689014   -4.5689014   -3.4286047  0.011206663   -4.5689014    1.1402968  1010000 
 4287000   0.76001344   -4.5689469   -4.5689469   -3.4289279  0.014161374   -4.5689469     1.140019  1010000 
 4288000   0.75951532    -4.568248    -4.568248   -3.4289761  0.016246348    -4.568248    1.1392718  1010000 
 4289000    0.7593384   -4.5687528   -4.5687528   -3.4297463  0.017910579   -4.5687528    1.1390065  1010000 
 4290000   0.76064952   -4.5706871   -4.5706871   -3.4297139  0.012387078   -4.5706871    1.1409731  1010000 
 4291000   0.75951368    -4.569072    -4.569072   -3.4298026  0.016022914    -4.569072    1.1392694  1010000 
 4292000   0.75990741   -4.5698445   -4.5698445   -3.4299845  0.015367337   -4.5698445      1.13986  1010000 
 4293000   0.75933016   -4.5690785   -4.5690785   -3.4300844  0.015440518   -4.5690785    1.1389941  1010000 
 4294000   0.75973903   -4.5698599   -4.5698599   -3.4302525  0.012462899   -4.5698599    1.1396074  1010000 
 4295000   0.75910889   -4.5693393   -4.5693393   -3.4306771  0.016360397   -4.5693393    1.1386622  1010000 
 4296000   0.75969033   -4.5703345   -4.5703345   -3.4308001  0.010797695   -4.5703345    1.1395344  1010000 
 4297000   0.76005622   -4.5709269   -4.5709269   -3.4308436  0.010896204   -4.5709269    1.1400832  1010000 
 4298000   0.75934678   -4.5701041   -4.5701041   -3.4310851 0.0086313339   -4.5701041     1.139019  1010000 
 4299000   0.75881226   -4.5694899   -4.5694899   -3.4312727  0.012240801   -4.5694899    1.1382173  1010000 
 4300000   0.75899142   -4.5695964   -4.5695964   -3.4311104  0.010509443   -4.5695964     1.138486  1010000 
 4301000   0.75911429    -4.570226    -4.570226   -3.4315557 0.0093148714    -4.570226    1.1386703  1010000 
 4302000   0.75898885   -4.5702446   -4.5702446   -3.4317624 0.0078481249   -4.5702446    1.1384821  1010000 
 4303000   0.75853031   -4.5695448   -4.5695448   -3.4317505  0.011328828   -4.5695448    1.1377943  1010000 
 4304000   0.75898676   -4.5708815   -4.5708815   -3.4324025 0.0053849863   -4.5708815     1.138479  1010000 
 4305000   0.75919388   -4.5713048   -4.5713048   -3.4325151 0.0093770425   -4.5713048    1.1387897  1010000 
 4306000   0.75907145   -4.5711142   -4.5711142   -3.4325082 0.0079660106   -4.5711142    1.1386061  1010000 
 4307000   0.75929889   -4.5706545   -4.5706545   -3.4317073  0.010197276   -4.5706545    1.1389472  1010000 
 4308000   0.75863893   -4.5696772   -4.5696772   -3.4317199 0.0093300666   -4.5696772    1.1379573  1010000 
 4309000   0.75911408   -4.5702879   -4.5702879   -3.4316179  0.010278603   -4.5702879      1.13867  1010000 
 4310000   0.75949326   -4.5713865   -4.5713865   -3.4321478  0.010990908   -4.5713865    1.1392388  1010000 
 4311000   0.75880935   -4.5699557   -4.5699557   -3.4317428  0.014762331   -4.5699557    1.1382129  1010000 
 4312000   0.75946768   -4.5702536   -4.5702536   -3.4310533  0.013070747   -4.5702536    1.1392004  1010000 
 4313000    0.7590531    -4.570496    -4.570496   -3.4319175  0.012485497    -4.570496    1.1385785  1010000 
 4314000   0.75979765    -4.571488    -4.571488   -3.4317926  0.011488518    -4.571488    1.1396953  1010000 
 4315000   0.75926166   -4.5710611   -4.5710611   -3.4321698  0.012383824   -4.5710611    1.1388914  1010000 
 4316000   0.75953831   -4.5712581   -4.5712581   -3.4319517  0.014174916   -4.5712581    1.1393063  1010000 
 4317000   0.75992967   -4.5723302   -4.5723302   -3.4324369  0.011538404   -4.5723302    1.1398934  1010000 
 4318000    0.7594858   -4.5718057   -4.5718057   -3.4325782  0.014189069   -4.5718057    1.1392276  1010000 
 4319000   0.75944149   -4.5717446   -4.5717446   -3.4325835  0.013495038   -4.5717446    1.1391611  1010000 
 4320000   0.75924676   -4.5722763   -4.5722763   -3.4334073  0.012269048   -4.5722763     1.138869  1010000 
 4321000   0.75951114   -4.5730324   -4.5730324   -3.4337668  0.011614933   -4.5730324    1.1392656  1010000 
 4322000   0.75918023   -4.5724928   -4.5724928   -3.4337235  0.017378705   -4.5724928    1.1387692  1010000 
 4323000   0.75933297   -4.5730957   -4.5730957   -3.4340974  0.010732723   -4.5730957    1.1389983  1010000 
 4324000   0.75914237   -4.5731896   -4.5731896   -3.4344771  0.012232685   -4.5731896    1.1387124  1010000 
 4325000   0.75921724   -4.5735517   -4.5735517    -3.434727  0.011474329   -4.5735517    1.1388247  1010000 
 4326000    0.7590643   -4.5735988   -4.5735988   -3.4350035  0.012834152   -4.5735988    1.1385953  1010000 
 4327000   0.75895865   -4.5737133   -4.5737133   -3.4352765 0.0088847647   -4.5737133    1.1384369  1010000 
 4328000   0.75846977   -4.5729104   -4.5729104   -3.4352069  0.012597604   -4.5729104    1.1377035  1010000 
 4329000   0.75849742   -4.5729352   -4.5729352   -3.4351902  0.014068704   -4.5729352     1.137745  1010000 
 4330000   0.75910042   -4.5743776   -4.5743776   -3.4357281  0.010469455   -4.5743776    1.1386495  1010000 
 4331000   0.75777341   -4.5720233   -4.5720233   -3.4353643  0.014604991   -4.5720233     1.136659  1010000 
 4332000   0.75850973   -4.5730499   -4.5730499   -3.4352864  0.014303872   -4.5730499    1.1377635  1010000 
 4333000   0.75881202   -4.5735486   -4.5735486   -3.4353317   0.01382264   -4.5735486    1.1382169  1010000 
 4334000    0.7588285   -4.5739521   -4.5739521   -3.4357104   0.01489708   -4.5739521    1.1382416  1010000 
 4335000   0.75902768   -4.5743979   -4.5743979   -3.4358575  0.013714008   -4.5743979    1.1385404  1010000 
 4336000   0.75891372   -4.5739189   -4.5739189   -3.4355495  0.015541059   -4.5739189    1.1383695  1010000 
 4337000   0.75878381   -4.5737677   -4.5737677   -3.4355931  0.015534923   -4.5737677    1.1381746  1010000 
 4338000   0.75897348   -4.5739127   -4.5739127   -3.4354536   0.01440793   -4.5739127    1.1384591  1010000 
 4339000   0.75916734   -4.5742738   -4.5742738    -3.435524  0.015811268   -4.5742738    1.1387499  1010000 
 4340000   0.75963706   -4.5748786   -4.5748786   -3.4354242  0.014759113   -4.5748786    1.1394545  1010000 
 4341000   0.75833511   -4.5732469   -4.5732469   -3.4357454  0.018494636   -4.5732469    1.1375015  1010000 
 4342000   0.75910958   -4.5744785   -4.5744785   -3.4358153  0.014249503   -4.5744785    1.1386632  1010000 
 4343000   0.75927089   -4.5744259   -4.5744259   -3.4355207   0.01349631   -4.5744259    1.1389052  1010000 
 4344000   0.75954373   -4.5748763   -4.5748763   -3.4355618  0.013185882   -4.5748763    1.1393145  1010000 
 4345000   0.75938256   -4.5747129   -4.5747129   -3.4356402  0.012647626   -4.5747129    1.1390727  1010000 
 4346000   0.75896568   -4.5741118   -4.5741118   -3.4356644  0.015384609   -4.5741118    1.1384474  1010000 
 4347000   0.75929816   -4.5747953   -4.5747953   -3.4358492  0.012098179   -4.5747953    1.1389461  1010000 
 4348000   0.75814756   -4.5736037   -4.5736037   -3.4363834  0.016144195   -4.5736037    1.1372202  1010000 
 4349000   0.75845628   -4.5740736   -4.5740736   -3.4363903  0.012302031   -4.5740736    1.1376833  1010000 
 4350000   0.75881767   -4.5745869   -4.5745869   -3.4363615  0.012646295   -4.5745869    1.1382254  1010000 
 4351000    0.7591742   -4.5750439   -4.5750439   -3.4362837  0.011838275   -4.5750439    1.1387602  1010000 
 4352000    0.7593877   -4.5755035   -4.5755035   -3.4364231  0.014711612   -4.5755035    1.1390804  1010000 
 4353000   0.75939485   -4.5752887   -4.5752887   -3.4361976  0.014325776   -4.5752887    1.1390911  1010000 
 4354000   0.75924057    -4.575849    -4.575849   -3.4369893 0.0094617022    -4.575849    1.1388597  1010000 
 4355000    0.7591574   -4.5756127   -4.5756127   -3.4368777 0.0094936803   -4.5756127     1.138735  1010000 
 4356000   0.75728199   -4.5731472   -4.5731472   -3.4372253  0.009706083   -4.5731472    1.1359219  1010000 
 4357000   0.75751309   -4.5731745   -4.5731745    -3.436906   0.01076786   -4.5731745    1.1362685  1010000 
 4358000   0.75839679    -4.574404    -4.574404   -3.4368099  0.012335308    -4.574404    1.1375941  1010000 
 4359000   0.75849829   -4.5750268   -4.5750268   -3.4372805 0.0094765552   -4.5750268    1.1377463  1010000 
 4360000   0.75826134   -4.5745344   -4.5745344   -3.4371435  0.007828792   -4.5745344    1.1373909  1010000 
 4361000   0.75829828   -4.5741079   -4.5741079   -3.4366616  0.010395841   -4.5741079    1.1374463  1010000 
 4362000   0.75795577   -4.5739842   -4.5739842   -3.4370517 0.0095280957   -4.5739842    1.1369325  1010000 
 4363000   0.75800692   -4.5743213   -4.5743213    -3.437312 0.0086325554   -4.5743213    1.1370093  1010000 
 4364000   0.75755591   -4.5733721   -4.5733721   -3.4370394  0.010815866   -4.5733721    1.1363327  1010000 
 4365000   0.75798961   -4.5738955   -4.5738955   -3.4369122  0.012690553   -4.5738955    1.1369833  1010000 
 4366000    0.7582579   -4.5744294   -4.5744294   -3.4370437  0.010870845   -4.5744294    1.1373857  1010000 
 4367000   0.75847569   -4.5742002   -4.5742002   -3.4364878  0.013626446   -4.5742002    1.1377124  1010000 
 4368000   0.75886024   -4.5748769   -4.5748769   -3.4365877  0.012617295   -4.5748769    1.1382892  1010000 
 4369000   0.75932223   -4.5756697   -4.5756697   -3.4366875  0.011505379   -4.5756697    1.1389822  1010000 
 4370000   0.75940728   -4.5756303   -4.5756303   -3.4365206  0.010803024   -4.5756303    1.1391098  1010000 
 4371000   0.75874213   -4.5751339   -4.5751339   -3.4370219  0.013066622   -4.5751339    1.1381121  1010000 
 4372000   0.75914928   -4.5756486   -4.5756486   -3.4369258  0.012836897   -4.5756486    1.1387228  1010000 
 4373000   0.75848643   -4.5749568   -4.5749568   -3.4372282  0.015831458   -4.5749568    1.1377285  1010000 
 4374000   0.75852485    -4.574702    -4.574702   -3.4369159  0.017932699    -4.574702    1.1377861  1010000 
 4375000   0.75848414   -4.5754755   -4.5754755   -3.4377504  0.013699551   -4.5754755    1.1377251  1010000 
 4376000   0.75786773   -4.5746789   -4.5746789   -3.4378785  0.016743165   -4.5746789    1.1368005  1010000 
 4377000   0.75819945   -4.5756207   -4.5756207   -3.4383227   0.01206826   -4.5756207     1.137298  1010000 
 4378000   0.75861381   -4.5764074   -4.5764074   -3.4384878 0.0069938176   -4.5764074    1.1379196  1010000 
 4379000   0.75775111   -4.5750512   -4.5750512   -3.4384257 0.0096509195   -4.5750512    1.1366255  1010000 
 4380000   0.75814282   -4.5756032   -4.5756032   -3.4383901  0.011117084   -4.5756032    1.1372131  1010000 
 4381000   0.75822686   -4.5762898   -4.5762898   -3.4389507  0.010899606   -4.5762898    1.1373392  1010000 
 4382000   0.75788098   -4.5755549   -4.5755549   -3.4387346  0.010646884   -4.5755549    1.1368203  1010000 
 4383000   0.75855126   -4.5770829   -4.5770829   -3.4392572 0.0099424427   -4.5770829    1.1378258  1010000 
 4384000   0.75811107   -4.5764208   -4.5764208   -3.4392553  0.010522267   -4.5764208    1.1371655  1010000 
 4385000   0.75819041   -4.5769324   -4.5769324   -3.4396479  0.013190515   -4.5769324    1.1372845  1010000 
 4386000   0.75791804   -4.5768931   -4.5768931   -3.4400171   0.01210035   -4.5768931    1.1368759  1010000 
 4387000   0.75728342   -4.5760081   -4.5760081   -3.4400841  0.013851233   -4.5760081     1.135924  1010000 
 4388000   0.75832529   -4.5774462   -4.5774462   -3.4399594  0.011959636   -4.5774462    1.1374868  1010000 
 4389000   0.75842477   -4.5774971   -4.5774971    -3.439861  0.011679835   -4.5774971     1.137636  1010000 
 4390000   0.75842929   -4.5774456   -4.5774456   -3.4398028  0.013685733   -4.5774456    1.1376428  1010000 
 4391000   0.75795162   -4.5766505   -4.5766505   -3.4397242  0.016062677   -4.5766505    1.1369263  1010000 
 4392000   0.75785639   -4.5765421   -4.5765421   -3.4397587  0.015714976   -4.5765421    1.1367835  1010000 
 4393000   0.75855547   -4.5780243   -4.5780243   -3.4401923  0.013914895   -4.5780243    1.1378321  1010000 
 4394000   0.75857856    -4.578403    -4.578403   -3.4405363  0.011612255    -4.578403    1.1378667  1010000 
 4395000   0.75863476    -4.578963    -4.578963    -3.441012 0.0099470123    -4.578963     1.137951  1010000 
 4396000   0.75867571   -4.5791527   -4.5791527   -3.4411403  0.012278734   -4.5791527    1.1380124  1010000 
 4397000   0.75750279   -4.5779641   -4.5779641   -3.4417111  0.014603847   -4.5779641    1.1362531  1010000 
 4398000   0.75773729   -4.5783528   -4.5783528    -3.441748  0.014398391   -4.5783528    1.1366048  1010000 
 4399000   0.75794127   -4.5787407   -4.5787407   -3.4418299  0.014251479   -4.5787407    1.1369108  1010000 
 4400000   0.75778197   -4.5785493   -4.5785493   -3.4418775  0.014127202   -4.5785493    1.1366718  1010000 
 4401000   0.75756947     -4.57805     -4.57805    -3.441697  0.015920466     -4.57805    1.1363531  1010000 
 4402000   0.75796907   -4.5790802   -4.5790802   -3.4421277  0.012264261   -4.5790802    1.1369525  1010000 
 4403000   0.75724749    -4.577997    -4.577997   -3.4421269  0.014995067    -4.577997    1.1358701  1010000 
 4404000   0.75714983   -4.5777165   -4.5777165   -3.4419928   0.01485608   -4.5777165    1.1357236  1010000 
 4405000   0.75769286   -4.5790665   -4.5790665   -3.4425283  0.011547426   -4.5790665    1.1365382  1010000 
 4406000   0.75756339   -4.5790114   -4.5790114   -3.4426675  0.015073578   -4.5790114     1.136344  1010000 
 4407000   0.75802786   -4.5795471   -4.5795471   -3.4425065  0.012897568   -4.5795471    1.1370407  1010000 
 4408000   0.75804939   -4.5795976   -4.5795976   -3.4425247  0.016460378   -4.5795976     1.137073  1010000 
 4409000   0.75790585   -4.5798395   -4.5798395   -3.4429819  0.015333883   -4.5798395    1.1368576  1010000 
 4410000   0.75814848    -4.579755    -4.579755   -3.4425334  0.014343776    -4.579755    1.1372216  1010000 
 4411000   0.75790704   -4.5797338   -4.5797338   -3.4428744  0.013317191   -4.5797338    1.1368594  1010000 
 4412000   0.75786293   -4.5799368   -4.5799368   -3.4431435  0.015751034   -4.5799368    1.1367933  1010000 
 4413000   0.75819076   -4.5805628   -4.5805628   -3.4432778  0.012364308   -4.5805628     1.137285  1010000 
 4414000   0.75789077   -4.5803327   -4.5803327   -3.4434977  0.013608562   -4.5803327     1.136835  1010000 
 4415000   0.75840261   -4.5811131   -4.5811131   -3.4435103  0.012216975   -4.5811131    1.1376028  1010000 
 4416000    0.7577944   -4.5803891   -4.5803891   -3.4436987  0.014115933   -4.5803891    1.1366905  1010000 
 4417000   0.75729114   -4.5799735   -4.5799735   -3.4440379  0.013299214   -4.5799735    1.1359356  1010000 
 4418000   0.75774153   -4.5805596   -4.5805596   -3.4439484  0.010750522   -4.5805596    1.1366112  1010000 
 4419000    0.7574186    -4.580322    -4.580322   -3.4441952  0.013999698    -4.580322    1.1361268  1010000 
 4420000    0.7571979   -4.5803165   -4.5803165   -3.4445208    0.0112424   -4.5803165    1.1357957  1010000 
 4421000    0.7575335   -4.5804876   -4.5804876   -3.4441885   0.01110628   -4.5804876    1.1362991  1010000 
 4422000   0.75739891   -4.5807466   -4.5807466   -3.4446494 0.0098716524   -4.5807466    1.1360972  1010000 
 4423000   0.75684469   -4.5803804   -4.5803804   -3.4451145  0.013115597   -4.5803804    1.1352659  1010000 
 4424000   0.75712652   -4.5806188   -4.5806188   -3.4449301  0.013335104   -4.5806188    1.1356887  1010000 
 4425000    0.7570297   -4.5810472   -4.5810472   -3.4455037  0.014908579   -4.5810472    1.1355434  1010000 
 4426000   0.75699485   -4.5805646   -4.5805646   -3.4450734  0.011427354   -4.5805646    1.1354912  1010000 
 4427000   0.75741226   -4.5805033   -4.5805033    -3.444386  0.013878378   -4.5805033    1.1361173  1010000 
 4428000     0.757686   -4.5813139   -4.5813139    -3.444786 0.0097691936   -4.5813139    1.1365279  1010000 
 4429000   0.75758598    -4.581734    -4.581734   -3.4453562  0.014509455    -4.581734    1.1363778  1010000 
 4430000    0.7573185   -4.5812264   -4.5812264   -3.4452497  0.010959028   -4.5812264    1.1359766  1010000 
 4431000   0.75713584   -4.5808042   -4.5808042   -3.4451015  0.011451692   -4.5808042    1.1357026  1010000 
 4432000   0.75647451   -4.5801726   -4.5801726   -3.4454619  0.015569806   -4.5801726    1.1347106  1010000 
 4433000   0.75762196   -4.5824913   -4.5824913   -3.4460595  0.012080255   -4.5824913    1.1364318  1010000 
 4434000   0.75723518    -4.581406    -4.581406   -3.4455544  0.012489899    -4.581406    1.1358516  1010000 
 4435000   0.75708097   -4.5812474   -4.5812474    -3.445627  0.010979542   -4.5812474    1.1356203  1010000 
 4436000   0.75710706    -4.581849    -4.581849   -3.4461895   0.01320451    -4.581849    1.1356595  1010000 
 4437000   0.75621803   -4.5806778   -4.5806778   -3.4463519  0.016090821   -4.5806778    1.1343259  1010000 
 4438000   0.75653741   -4.5813177   -4.5813177   -3.4465127  0.014848279   -4.5813177     1.134805  1010000 
 4439000   0.75642384   -4.5809582   -4.5809582   -3.4463236  0.014026665   -4.5809582    1.1346346  1010000 
 4440000   0.75715082   -4.5815433   -4.5815433   -3.4458182  0.012169929   -4.5815433    1.1357251  1010000 
 4441000   0.75627877   -4.5809968   -4.5809968   -3.4465797  0.014663833   -4.5809968     1.134417  1010000 
 4442000   0.75685228   -4.5818723   -4.5818723    -3.446595  0.012137725   -4.5818723    1.1352773  1010000 
 4443000   0.75698859   -4.5822147   -4.5822147   -3.4467329  0.013143471   -4.5822147    1.1354818  1010000 
 4444000   0.75764064   -4.5832343   -4.5832343   -3.4467744  0.012395805   -4.5832343    1.1364598  1010000 
 4445000    0.7574607   -4.5828816   -4.5828816   -3.4466917  0.011964374   -4.5828816    1.1361899  1010000 
 4446000   0.75800122   -4.5832674   -4.5832674   -3.4462667  0.014169538   -4.5832674    1.1370007  1010000 
 4447000   0.75789468   -4.5831425   -4.5831425   -3.4463016  0.012468287   -4.5831425    1.1368409  1010000 
 4448000   0.75791842   -4.5832038   -4.5832038   -3.4463273   0.01068702   -4.5832038    1.1368765  1010000 
 4449000    0.7579933   -4.5833029   -4.5833029    -3.446314  0.014028219   -4.5833029    1.1369888  1010000 
 4450000   0.75724587   -4.5823753   -4.5823753   -3.4465077  0.014315111   -4.5823753    1.1358677  1010000 
 4451000    0.7573877   -4.5828645   -4.5828645   -3.4467841   0.01441099   -4.5828645    1.1360804  1010000 
 4452000   0.75708334   -4.5823452   -4.5823452   -3.4467213  0.014694431   -4.5823452    1.1356239  1010000 
 4453000   0.75725749   -4.5826663   -4.5826663   -3.4467811   0.01309996   -4.5826663    1.1358851  1010000 
 4454000    0.7575221   -4.5838849   -4.5838849   -3.4476028  0.012691159   -4.5838849     1.136282  1010000 
 4455000   0.75715202    -4.583329    -4.583329   -3.4476021  0.013413258    -4.583329    1.1357269  1010000 
 4456000    0.7570397   -4.5832738   -4.5832738   -3.4477154  0.012482023   -4.5832738    1.1355584  1010000 
 4457000   0.75745568   -4.5840875   -4.5840875   -3.4479051 0.0094831886   -4.5840875    1.1361824  1010000 
 4458000   0.75763665   -4.5845534   -4.5845534   -3.4480996 0.0090570102   -4.5845534    1.1364538  1010000 
 4459000   0.75706727   -4.5836965   -4.5836965   -3.4480967  0.012782912   -4.5836965    1.1355998  1010000 
 4460000   0.75658577   -4.5830587   -4.5830587   -3.4481812  0.011801101   -4.5830587    1.1348775  1010000 
 4461000   0.75694329   -4.5833106   -4.5833106   -3.4478968  0.012320456   -4.5833106    1.1354138  1010000 
 4462000   0.75701659   -4.5835971   -4.5835971   -3.4480733 0.0089798164   -4.5835971    1.1355238  1010000 
 4463000   0.75687422   -4.5832605   -4.5832605   -3.4479503  0.011399999   -4.5832605    1.1353102  1010000 
 4464000   0.75646608   -4.5831196   -4.5831196   -3.4484216  0.012483003   -4.5831196     1.134698  1010000 
 4465000   0.75636434   -4.5830445   -4.5830445   -3.4484991   0.01163557   -4.5830445    1.1345454  1010000 
 4466000   0.75744401   -4.5844897   -4.5844897   -3.4483248 0.0095485235   -4.5844897    1.1361649  1010000 
 4467000   0.75649635   -4.5836376   -4.5836376   -3.4488942  0.011516167   -4.5836376    1.1347434  1010000 
 4468000   0.75654172   -4.5835291   -4.5835291   -3.4487177  0.010736482   -4.5835291    1.1348115  1010000 
 4469000    0.7566846   -4.5840285   -4.5840285   -3.4490027  0.012747721   -4.5840285    1.1350258  1010000 
 4470000   0.75682554   -4.5842985   -4.5842985   -3.4490613  0.012171593   -4.5842985    1.1352372  1010000 
 4471000   0.75643913   -4.5839497   -4.5839497   -3.4492921  0.011122737   -4.5839497    1.1346576  1010000 
 4472000   0.75590822   -4.5834804   -4.5834804   -3.4496192  0.015975382   -4.5834804    1.1338612  1010000 
 4473000   0.75693202   -4.5842961   -4.5842961   -3.4488992  0.011318339   -4.5842961    1.1353969  1010000 
 4474000   0.75730823   -4.5849914   -4.5849914   -3.4490302  0.013035824   -4.5849914    1.1359612  1010000 
 4475000   0.75714736   -4.5845668   -4.5845668   -3.4488469  0.013377157   -4.5845668    1.1357199  1010000 
 4476000   0.75767616   -4.5856645   -4.5856645   -3.4491514  0.010697166   -4.5856645    1.1365131  1010000 
 4477000   0.75650545     -4.58392     -4.58392    -3.449163  0.015312996     -4.58392    1.1347571  1010000 
 4478000   0.75655443   -4.5844623   -4.5844623   -3.4496317  0.012628197   -4.5844623    1.1348305  1010000 
 4479000   0.75634314    -4.583998    -4.583998   -3.4494844  0.012758636    -4.583998    1.1345136  1010000 
 4480000   0.75620029   -4.5839874   -4.5839874   -3.4496881  0.013236637   -4.5839874    1.1342993  1010000 
 4481000   0.75685016   -4.5850198   -4.5850198   -3.4497457  0.010921107   -4.5850198    1.1352741  1010000 
 4482000   0.75683782   -4.5849346   -4.5849346    -3.449679  0.010619557   -4.5849346    1.1352556  1010000 
 4483000   0.75628487    -4.584816    -4.584816   -3.4503899   0.01359714    -4.584816    1.1344262  1010000 
 4484000   0.75582367   -4.5841699   -4.5841699   -3.4504355  0.016161076   -4.5841699    1.1337344  1010000 
 4485000   0.75670464   -4.5858294   -4.5858294   -3.4507736  0.010848004   -4.5858294    1.1350558  1010000 
 4486000   0.75633993   -4.5851322   -4.5851322   -3.4506234  0.016518394   -4.5851322    1.1345088  1010000 
 4487000   0.75646192   -4.5849835   -4.5849835   -3.4502917  0.014038924   -4.5849835    1.1346918  1010000 
 4488000   0.75643494   -4.5850896   -4.5850896   -3.4504383  0.013286509   -4.5850896    1.1346513  1010000 
 4489000   0.75709322   -4.5860127   -4.5860127    -3.450374   0.01385667   -4.5860127    1.1356387  1010000 
 4490000   0.75718838   -4.5862007   -4.5862007   -3.4504193  0.011779767   -4.5862007    1.1357815  1010000 
 4491000    0.7568003   -4.5856311   -4.5856311   -3.4504318   0.01412968   -4.5856311    1.1351993  1010000 
 4492000   0.75604222   -4.5854169   -4.5854169   -3.4513546  0.013186999   -4.5854169    1.1340622  1010000 
 4493000   0.75649519   -4.5858598   -4.5858598   -3.4511181  0.012291266   -4.5858598    1.1347417  1010000 
 4494000   0.75576592   -4.5852326   -4.5852326   -3.4515848  0.014029214   -4.5852326    1.1336478  1010000 
 4495000    0.7556911   -4.5850489   -4.5850489   -3.4515134  0.013429418   -4.5850489    1.1335355  1010000 
 4496000   0.75566776   -4.5850903   -4.5850903   -3.4515898  0.014240888   -4.5850903    1.1335005  1010000 
 4497000   0.75590532   -4.5856555   -4.5856555   -3.4517986  0.015857788   -4.5856555    1.1338569  1010000 
 4498000   0.75551061   -4.5857246   -4.5857246   -3.4524598  0.013850822   -4.5857246    1.1332648  1010000 
 4499000   0.75599128   -4.5864809   -4.5864809   -3.4524951  0.012303525   -4.5864809    1.1339858  1010000 
 4500000   0.75624299   -4.5865782   -4.5865782   -3.4522148  0.012825544   -4.5865782    1.1343634  1010000 
 4501000   0.75626078    -4.587282    -4.587282    -3.452892  0.012260508    -4.587282    1.1343901  1010000 
 4502000   0.75639736   -4.5870315   -4.5870315   -3.4524366  0.014568795   -4.5870315    1.1345949  1010000 
 4503000   0.75631581   -4.5869718   -4.5869718   -3.4524992  0.010533693   -4.5869718    1.1344726  1010000 
 4504000   0.75653764   -4.5875761   -4.5875761   -3.4527708  0.011131663   -4.5875761    1.1348053  1010000 
 4505000   0.75671315   -4.5869255   -4.5869255   -3.4518569  0.011499956   -4.5869255    1.1350686  1010000 
 4506000   0.75618013   -4.5868488   -4.5868488   -3.4525798  0.011403659   -4.5868488    1.1342691  1010000 
 4507000   0.75576272   -4.5862148   -4.5862148   -3.4525719  0.014672855   -4.5862148     1.133643  1010000 
 4508000   0.75646858   -4.5870176   -4.5870176   -3.4523159  0.013231103   -4.5870176    1.1347017  1010000 
 4509000   0.75651895   -4.5875191   -4.5875191   -3.4527418  0.012471395   -4.5875191    1.1347773  1010000 
 4510000   0.75631359   -4.5872778   -4.5872778   -3.4528086  0.013731178   -4.5872778    1.1344693  1010000 
 4511000   0.75652073   -4.5884319   -4.5884319    -3.453652  0.011622209   -4.5884319      1.13478  1010000 
 4512000   0.75628832   -4.5886152   -4.5886152   -3.4541838  0.010264415   -4.5886152    1.1344314  1010000 
 4513000   0.75560107   -4.5867829   -4.5867829   -3.4533824  0.015483205   -4.5867829    1.1334005  1010000 
 4514000   0.75537404   -4.5867109   -4.5867109   -3.4536509  0.015717417   -4.5867109    1.1330599  1010000 
 4515000   0.75580547   -4.5876497   -4.5876497   -3.4539427  0.012490641   -4.5876497    1.1337071  1010000 
 4516000   0.75517327   -4.5867481   -4.5867481   -3.4539893  0.014390307   -4.5867481    1.1327588  1010000 
 4517000   0.75549469   -4.5875875   -4.5875875   -3.4543466   0.01162855   -4.5875875    1.1332409  1010000 
 4518000   0.75530591   -4.5870639   -4.5870639   -3.4541062  0.014705899   -4.5870639    1.1329577  1010000 
 4519000   0.75569687   -4.5878995   -4.5878995   -3.4543553  0.010816889   -4.5878995    1.1335442  1010000 
 4520000   0.75517799   -4.5872023   -4.5872023   -3.4544364  0.014862665   -4.5872023    1.1327659  1010000 
 4521000   0.75598487   -4.5884793   -4.5884793   -3.4545031  0.012211234   -4.5884793    1.1339762  1010000 
 4522000   0.75568242   -4.5879599   -4.5879599   -3.4544374  0.011949666   -4.5879599    1.1335225  1010000 
 4523000   0.75519556   -4.5879653   -4.5879653   -3.4551731  0.013205563   -4.5879653    1.1327922  1010000 
 4524000   0.75528116   -4.5878341   -4.5878341   -3.4549134  0.012406779   -4.5878341    1.1329206  1010000 
 4525000   0.75527861   -4.5875141   -4.5875141   -3.4545973  0.014568952   -4.5875141    1.1329168  1010000 
 4526000   0.75570012   -4.5892782   -4.5892782   -3.4557292  0.010217822   -4.5892782    1.1335491  1010000 
 4527000   0.75516992   -4.5879099   -4.5879099   -3.4551562  0.011944671   -4.5879099    1.1327538  1010000 
 4528000   0.75501978   -4.5884335   -4.5884335   -3.4559049 0.0094404987   -4.5884335    1.1325286  1010000 
 4529000   0.75456148   -4.5879239   -4.5879239   -3.4560828  0.012251275   -4.5879239    1.1318411  1010000 
 4530000   0.75509415   -4.5890805   -4.5890805   -3.4564404  0.011298222   -4.5890805    1.1326401  1010000 
 4531000   0.75488367   -4.5883728   -4.5883728   -3.4560484  0.010670065   -4.5883728    1.1323244  1010000 
 4532000   0.75511581   -4.5889759   -4.5889759   -3.4563033  0.011226362   -4.5889759    1.1326726  1010000 
 4533000   0.75471121    -4.588697    -4.588697   -3.4566313 0.0098627009    -4.588697    1.1320657  1010000 
 4534000   0.75494313   -4.5891102   -4.5891102   -3.4566966 0.0097870696   -4.5891102    1.1324136  1010000 
 4535000   0.75563598   -4.5901678   -4.5901678    -3.456715 0.0092032041   -4.5901678    1.1334528  1010000 
 4536000   0.75585189   -4.5906205   -4.5906205   -3.4568438  0.010382423   -4.5906205    1.1337767  1010000 
 4537000    0.7559825   -4.5906627   -4.5906627   -3.4566901 0.0085857199   -4.5906627    1.1339726  1010000 
 4538000   0.75583023   -4.5909808   -4.5909808   -3.4572366  0.010606214   -4.5909808    1.1337442  1010000 
 4539000   0.75576645   -4.5910289   -4.5910289   -3.4573803     0.012918   -4.5910289    1.1336485  1010000 
 4540000   0.75541571    -4.590262    -4.590262   -3.4571396  0.013947108    -4.590262    1.1331224  1010000 
 4541000   0.75511757   -4.5900392   -4.5900392   -3.4573639  0.014989264   -4.5900392    1.1326752  1010000 
 4542000   0.75523104   -4.5898931   -4.5898931   -3.4570477  0.014009495   -4.5898931    1.1328454  1010000 
 4543000   0.75510891   -4.5897182   -4.5897182    -3.457056  0.014012344   -4.5897182    1.1326622  1010000 
 4544000   0.75543758   -4.5905029   -4.5905029   -3.4573476  0.016456608   -4.5905029    1.1331552  1010000 
 4545000   0.75512425   -4.5906675   -4.5906675   -3.4579823   0.01502013   -4.5906675    1.1326852  1010000 
 4546000   0.75565254    -4.591155    -4.591155   -3.4576773  0.013455163    -4.591155    1.1334777  1010000 
 4547000   0.75540429   -4.5906578   -4.5906578   -3.4575524   0.01259025   -4.5906578    1.1331053  1010000 
 4548000   0.75519987   -4.5905876   -4.5905876   -3.4577889   0.01337749   -4.5905876    1.1327987  1010000 
 4549000   0.75531738   -4.5913595   -4.5913595   -3.4583845  0.012100973   -4.5913595    1.1329749  1010000 
 4550000   0.75578939   -4.5928808   -4.5928808   -3.4591979  0.011921771   -4.5928808     1.133683  1010000 
 4551000   0.75431997   -4.5909925   -4.5909925   -3.4595137  0.017305351   -4.5909925    1.1314788  1010000 
 4552000   0.75583016   -4.5931116   -4.5931116   -3.4593675  0.011317986   -4.5931116    1.1337441  1010000 
 4553000   0.75558926   -4.5930382   -4.5930382   -3.4596555  0.011361115   -4.5930382    1.1333828  1010000 
 4554000   0.75485119   -4.5918848   -4.5918848   -3.4596091  0.011315087   -4.5918848    1.1322757  1010000 
 4555000   0.75450481   -4.5913859   -4.5913859   -3.4596298  0.014488866   -4.5913859    1.1317561  1010000 
 4556000   0.75595501   -4.5931284   -4.5931284   -3.4591971   0.01119573   -4.5931284    1.1339314  1010000 
 4557000   0.75490101    -4.592157    -4.592157   -3.4598066  0.013551329    -4.592157    1.1323504  1010000 
 4558000   0.75442607   -4.5915768   -4.5915768   -3.4599388  0.013257348   -4.5915768     1.131638  1010000 
 4559000   0.75505521   -4.5927753   -4.5927753   -3.4601936  0.012548446   -4.5927753    1.1325817  1010000 
 4560000   0.75458499    -4.592612    -4.592612   -3.4607356  0.011378877    -4.592612    1.1318764  1010000 
 4561000   0.75543154   -4.5940898   -4.5940898   -3.4609436 0.0096268153   -4.5940898    1.1331462  1010000 
 4562000   0.75571403   -4.5947459   -4.5947459    -3.461176 0.0094660245   -4.5947459    1.1335699  1010000 
 4563000   0.75406798   -4.5922693   -4.5922693   -3.4611685  0.015235897   -4.5922693    1.1311009  1010000 
 4564000   0.75445489   -4.5929094   -4.5929094   -3.4612282  0.010361158   -4.5929094    1.1316812  1010000 
 4565000   0.75478169   -4.5937762   -4.5937762   -3.4616048 0.0077956082   -4.5937762    1.1321714  1010000 
 4566000   0.75441874   -4.5933988   -4.5933988   -3.4617718  0.012746379   -4.5933988     1.131627  1010000 
 4567000   0.75435131   -4.5936678   -4.5936678    -3.462142  0.013087205   -4.5936678    1.1315259  1010000 
 4568000   0.75371232   -4.5927354   -4.5927354    -3.462168  0.012667567   -4.5927354    1.1305674  1010000 
 4569000   0.75461872   -4.5933323   -4.5933323   -3.4614053   0.01023384   -4.5933323     1.131927  1010000 
 4570000   0.75393843   -4.5920439   -4.5920439   -3.4611374  0.012304914   -4.5920439    1.1309065  1010000 
 4571000   0.75451138   -4.5926534   -4.5926534   -3.4608874  0.014423922   -4.5926534    1.1317659  1010000 
 4572000   0.75456762   -4.5928041   -4.5928041   -3.4609538  0.016204273   -4.5928041    1.1318503  1010000 
 4573000    0.7549985    -4.593373    -4.593373   -3.4608764  0.017502787    -4.593373    1.1324966  1010000 
 4574000   0.75520201   -4.5936922   -4.5936922   -3.4608903  0.014053859   -4.5936922    1.1328019  1010000 
 4575000   0.75511066   -4.5938002   -4.5938002   -3.4611353   0.01348851   -4.5938002    1.1326649  1010000 
 4576000    0.7548501   -4.5938873   -4.5938873   -3.4616132  0.014103257   -4.5938873     1.132274  1010000 
 4577000   0.75532157   -4.5942849   -4.5942849   -3.4613036  0.012425578   -4.5942849    1.1329812  1010000 
 4578000   0.75547457   -4.5940307   -4.5940307     -3.46082  0.015437327   -4.5940307    1.1332107  1010000 
 4579000     0.755201   -4.5933644   -4.5933644    -3.460564  0.015779455   -4.5933644    1.1328004  1010000 
 4580000   0.75566616   -4.5940224   -4.5940224   -3.4605243  0.015762642   -4.5940224    1.1334981  1010000 
 4581000   0.75486754   -4.5928543   -4.5928543   -3.4605541  0.017827097   -4.5928543    1.1323002  1010000 
 4582000   0.75521157   -4.5937466   -4.5937466   -3.4609303  0.014894363   -4.5937466    1.1328162  1010000 
 4583000   0.75480048   -4.5935377   -4.5935377   -3.4613381  0.013568722   -4.5935377    1.1321996  1010000 
 4584000   0.75460119   -4.5937574   -4.5937574   -3.4618568  0.012687598   -4.5937574    1.1319007  1010000 
 4585000   0.75362012   -4.5928651   -4.5928651    -3.462436  0.012774872   -4.5928651    1.1304291  1010000 
 4586000   0.75435068   -4.5939909   -4.5939909    -3.462466 0.0086835453   -4.5939909    1.1315249  1010000 
 4587000   0.75358798    -4.592463    -4.592463   -3.4620821  0.014215572    -4.592463    1.1303809  1010000 
 4588000   0.75405711   -4.5935389   -4.5935389   -3.4624543 0.0091939102   -4.5935389    1.1310845  1010000 
 4589000    0.7533755   -4.5929907   -4.5929907   -3.4629285  0.011187735   -4.5929907    1.1300621  1010000 
 4590000   0.75295434   -4.5923778   -4.5923778   -3.4629474   0.01130459   -4.5923778    1.1294304  1010000 
 4591000   0.75367547    -4.593784    -4.593784   -3.4632719 0.0068159323    -4.593784    1.1305121  1010000 
 4592000   0.75349567    -4.593864    -4.593864   -3.4636216 0.0077310783    -4.593864    1.1302424  1010000 
 4593000   0.75314044   -4.5938249   -4.5938249   -3.4641154 0.0089156113   -4.5938249    1.1297095  1010000 
 4594000   0.75383744   -4.5942859   -4.5942859   -3.4635308 0.0041907973   -4.5942859     1.130755  1010000 
 4595000   0.75377925   -4.5941622   -4.5941622   -3.4634945 0.0071406908   -4.5941622    1.1306678  1010000 
 4596000   0.75339967   -4.5939793   -4.5939793   -3.4638809  0.006812566   -4.5939793    1.1300984  1010000 
 4597000   0.75352434   -4.5933618   -4.5933618   -3.4630764   0.00956401   -4.5933618    1.1302854  1010000 
 4598000   0.75371615   -4.5938734   -4.5938734   -3.4633003 0.0096143971   -4.5938734    1.1305731  1010000 
 4599000      0.75383   -4.5941209   -4.5941209    -3.463377  0.012836715   -4.5941209    1.1307439  1010000 
 4600000   0.75262562   -4.5929298   -4.5929298   -3.4639925  0.012125406   -4.5929298    1.1289373  1010000 
 4601000   0.75345915   -4.5941984   -4.5941984   -3.4640108 0.0091754682   -4.5941984    1.1301876  1010000 
 4602000   0.75381672   -4.5948969   -4.5948969   -3.4641729  0.008268098   -4.5948969     1.130724  1010000 
 4603000    0.7536863   -4.5948881   -4.5948881   -3.4643598  0.011009547   -4.5948881    1.1305283  1010000 
 4604000   0.75293897   -4.5941835   -4.5941835   -3.4647762  0.012824688   -4.5941835    1.1294073  1010000 
 4605000   0.75334715   -4.5948005   -4.5948005   -3.4647809  0.010659073   -4.5948005    1.1300196  1010000 
 4606000   0.75400216   -4.5956663   -4.5956663   -3.4646641 0.0099815639   -4.5956663    1.1310021  1010000 
 4607000   0.75433064   -4.5960126   -4.5960126   -3.4645178  0.011986007   -4.5960126    1.1314948  1010000 
 4608000   0.75363128   -4.5952365   -4.5952365   -3.4647907  0.013752729   -4.5952365    1.1304458  1010000 
 4609000   0.75359866   -4.5956261   -4.5956261   -3.4652292  0.015030439   -4.5956261    1.1303969  1010000 
 4610000   0.75430591   -4.5966509   -4.5966509   -3.4651932  0.011967758   -4.5966509    1.1314578  1010000 
 4611000   0.75433253   -4.5967152   -4.5967152   -3.4652175  0.012459472   -4.5967152    1.1314977  1010000 
 4612000   0.75422709   -4.5966916   -4.5966916   -3.4653521  0.015801355   -4.5966916    1.1313395  1010000 
 4613000    0.7542148    -4.597014    -4.597014    -3.465693  0.014913997    -4.597014    1.1313211  1010000 
 4614000   0.75526332   -4.5988223   -4.5988223   -3.4659285  0.015134074   -4.5988223    1.1328939  1010000 
 4615000   0.75465137   -4.5978514   -4.5978514   -3.4658755   0.01770479   -4.5978514    1.1319759  1010000 
 4616000   0.75436905    -4.597569    -4.597569   -3.4660166  0.017423449    -4.597569    1.1315524  1010000 
 4617000    0.7549074   -4.5986189   -4.5986189   -3.4662589  0.015002595   -4.5986189      1.13236  1010000 
 4618000   0.75422722   -4.5974711   -4.5974711   -3.4661314  0.013823593   -4.5974711    1.1313397  1010000 
 4619000   0.75386719   -4.5971639   -4.5971639   -3.4663642  0.015375801   -4.5971639    1.1307997  1010000 
 4620000   0.75421238   -4.5977861   -4.5977861   -3.4664687  0.015014018   -4.5977861    1.1313175  1010000 
 4621000   0.75398516   -4.5978949   -4.5978949   -3.4669183  0.013841053   -4.5978949    1.1309766  1010000 
 4622000   0.75403894    -4.597894    -4.597894   -3.4668367  0.011192724    -4.597894    1.1310573  1010000 
 4623000   0.75377373   -4.5978227   -4.5978227   -3.4671632  0.016147077   -4.5978227    1.1306595  1010000 
 4624000   0.75381458   -4.5982658   -4.5982658   -3.4675451  0.013286643   -4.5982658    1.1307208  1010000 
 4625000   0.75366472   -4.5981385   -4.5981385   -3.4676425  0.015016323   -4.5981385     1.130496  1010000 
 4626000    0.7535331   -4.5978639   -4.5978639   -3.4675654  0.014094455   -4.5978639    1.1302985  1010000 
 4627000   0.75393198   -4.5986408   -4.5986408    -3.467744   0.01110739   -4.5986408    1.1308969  1010000 
 4628000   0.75377757   -4.5990452   -4.5990452     -3.46838  0.011035699   -4.5990452    1.1306652  1010000 
 4629000   0.75265127   -4.5974746   -4.5974746   -3.4684988  0.013043033   -4.5974746    1.1289758  1010000 
 4630000   0.75316497   -4.5985808   -4.5985808   -3.4688345 0.0079270071   -4.5985808    1.1297463  1010000 
 4631000   0.75277468   -4.5980096   -4.5980096   -3.4688487  0.012933797   -4.5980096    1.1291609  1010000 
 4632000   0.75270835   -4.5987757   -4.5987757   -3.4697143  0.010666636   -4.5987757    1.1290614  1010000 
 4633000   0.75349918   -4.6000039   -4.6000039   -3.4697562 0.0097986651   -4.6000039    1.1302477  1010000 
 4634000    0.7528596   -4.5987263   -4.5987263    -3.469438  0.010030468   -4.5987263    1.1292883  1010000 
 4635000   0.75256998   -4.5987022   -4.5987022   -3.4698484  0.010757027   -4.5987022    1.1288538  1010000 
 4636000   0.75235331    -4.598566    -4.598566   -3.4700372  0.007137523    -4.598566    1.1285288  1010000 
 4637000   0.75232978   -4.5981424   -4.5981424   -3.4696488 0.0076303673   -4.5981424    1.1284936  1010000 
 4638000    0.7523934   -4.5981131   -4.5981131   -3.4695241  0.010720263   -4.5981131     1.128589  1010000 
 4639000   0.75290228    -4.598982    -4.598982   -3.4696297  0.008668918    -4.598982    1.1293523  1010000 
 4640000   0.75295004   -4.5986402   -4.5986402   -3.4692163    0.0110827   -4.5986402    1.1294239  1010000 
 4641000   0.75314649   -4.5996864   -4.5996864   -3.4699678 0.0070959229   -4.5996864    1.1297186  1010000 
 4642000   0.75258688   -4.5990339   -4.5990339   -3.4701547 0.0098193442   -4.5990339    1.1288792  1010000 
 4643000   0.75277576   -4.5986173   -4.5986173   -3.4694548  0.012994032   -4.5986173    1.1291625  1010000 
 4644000   0.75366339   -4.5999956   -4.5999956   -3.4695017 0.0099137114   -4.5999956     1.130494  1010000 
 4645000   0.75357477   -4.6000922   -4.6000922   -3.4697312  0.011857698   -4.6000922     1.130361  1010000 
 4646000   0.75407402   -4.6011339   -4.6011339    -3.470024 0.0094874421   -4.6011339    1.1311099  1010000 
 4647000   0.75309213   -4.5996209   -4.5996209   -3.4699838  0.013698372   -4.5996209    1.1296371  1010000 
 4648000   0.75314743   -4.5993099   -4.5993099   -3.4695899  0.011912632   -4.5993099      1.12972  1010000 
 4649000   0.75400084   -4.6002369   -4.6002369   -3.4692368  0.011562467   -4.6002369    1.1310001  1010000 
 4650000    0.7536215   -4.5998259   -4.5998259   -3.4693947  0.013454645   -4.5998259    1.1304311  1010000 
 4651000    0.7541305   -4.6006729   -4.6006729   -3.4694783  0.010354394   -4.6006729    1.1311946  1010000 
 4652000   0.75311874   -4.5992126   -4.5992126   -3.4695356  0.013554244   -4.5992126     1.129677  1010000 
 4653000   0.75305387   -4.5992607   -4.5992607    -3.469681  0.013370029   -4.5992607    1.1295797  1010000 
 4654000   0.75363035   -4.6004661   -4.6004661   -3.4700217 0.0095145762   -4.6004661    1.1304444  1010000 
 4655000   0.75175122   -4.5977913   -4.5977913   -3.4701656  0.017159674   -4.5977913    1.1276257  1010000 
 4656000   0.75365092   -4.6005354   -4.6005354   -3.4700601  0.010410053   -4.6005354    1.1304753  1010000 
 4657000   0.75266896   -4.5991068   -4.5991068   -3.4701045  0.015936517   -4.5991068    1.1290023  1010000 
 4658000   0.75369217   -4.6008831   -4.6008831    -3.470346  0.011125348   -4.6008831    1.1305371  1010000 
 4659000   0.75380891   -4.6008515   -4.6008515   -3.4701393   0.01315044   -4.6008515    1.1307122  1010000 
 4660000   0.75317357   -4.6005649   -4.6005649   -3.4708057  0.014207846   -4.6005649    1.1297592  1010000 
 4661000   0.75371036   -4.6017487   -4.6017487   -3.4711842  0.010279445   -4.6017487    1.1305644  1010000 
 4662000   0.75272931   -4.6007857   -4.6007857   -3.4716929  0.011860253   -4.6007857    1.1290929  1010000 
 4663000   0.75275576   -4.6002812   -4.6002812   -3.4711487  0.012658039   -4.6002812    1.1291325  1010000 
 4664000    0.7529917   -4.6009003   -4.6009003   -3.4714138 0.0090351218   -4.6009003    1.1294864  1010000 
 4665000    0.7529381   -4.6011923   -4.6011923   -3.4717863 0.0089528573   -4.6011923     1.129406  1010000 
 4666000   0.75259781   -4.6002013   -4.6002013   -3.4713057  0.014839826   -4.6002013    1.1288956  1010000 
 4667000   0.75316171   -4.6008556   -4.6008556   -3.4711142  0.015035746   -4.6008556    1.1297414  1010000 
 4668000   0.75326079   -4.6007082   -4.6007082   -3.4708182  0.014668676   -4.6007082    1.1298901  1010000 
 4669000   0.75281372   -4.6005906   -4.6005906   -3.4713712  0.016291174   -4.6005906    1.1292195  1010000 
 4670000   0.75326409   -4.6009422   -4.6009422   -3.4710472   0.01194447   -4.6009422     1.129895  1010000 
 4671000   0.75282673   -4.6005004   -4.6005004   -3.4712614  0.012901292   -4.6005004     1.129239  1010000 
 4672000   0.75283793   -4.6007084   -4.6007084   -3.4714527   0.01105155   -4.6007084    1.1292558  1010000 
 4673000   0.75270824   -4.6005338   -4.6005338   -3.4714725  0.012340281   -4.6005338    1.1290612  1010000 
 4674000   0.75278122    -4.601043    -4.601043   -3.4718723  0.011210274    -4.601043    1.1291707  1010000 
 4675000   0.75311499   -4.6014991   -4.6014991   -3.4718278  0.012551886   -4.6014991    1.1296714  1010000 
 4676000    0.7530876   -4.6013575   -4.6013575   -3.4717272  0.013852588   -4.6013575    1.1296303  1010000 
 4677000   0.75305554   -4.6016803   -4.6016803   -3.4720981  0.013608705   -4.6016803    1.1295822  1010000 
 4678000   0.75330209   -4.6022871   -4.6022871   -3.4723351 0.0098829414   -4.6022871     1.129952  1010000 
 4679000   0.75300953   -4.6015872   -4.6015872   -3.4720741   0.01293396   -4.6015872    1.1295132  1010000 
 4680000   0.75236293   -4.6006519   -4.6006519   -3.4721087  0.013020941   -4.6006519    1.1285433  1010000 
 4681000   0.75316863   -4.6019269   -4.6019269    -3.472175  0.011461794   -4.6019269    1.1297518  1010000 
 4682000    0.7524861   -4.6016502   -4.6016502   -3.4729221  0.012801555   -4.6016502     1.128728  1010000 
 4683000   0.75162743   -4.6010911   -4.6010911    -3.473651  0.011918903   -4.6010911      1.12744  1010000 
 4684000   0.75243536   -4.6024564   -4.6024564   -3.4738045  0.010430742   -4.6024564    1.1286519  1010000 
 4685000   0.75244124   -4.6025612   -4.6025612   -3.4739005  0.010293206   -4.6025612    1.1286607  1010000 
 4686000   0.75232916   -4.6026307   -4.6026307    -3.474138 0.0090730508   -4.6026307    1.1284926  1010000 
 4687000   0.75210644   -4.6018297   -4.6018297   -3.4736711  0.010906209   -4.6018297    1.1281585  1010000 
 4688000   0.75278966   -4.6028716   -4.6028716   -3.4736882  0.011835208   -4.6028716    1.1291834  1010000 
 4689000   0.75257354   -4.6030086   -4.6030086   -3.4741494 0.0097331816   -4.6030086    1.1288592  1010000 
 4690000   0.75167723   -4.6023107   -4.6023107    -3.474796  0.012446305   -4.6023107    1.1275147  1010000 
 4691000   0.75186918   -4.6027264   -4.6027264   -3.4749238 0.0096503553   -4.6027264    1.1278027  1010000 
 4692000   0.75187154   -4.6024395   -4.6024395   -3.4746333 0.0096963529   -4.6024395    1.1278062  1010000 
 4693000   0.75175862   -4.6026456   -4.6026456   -3.4750088 0.0093480755   -4.6026456    1.1276368  1010000 
 4694000   0.75218279   -4.6028681   -4.6028681    -3.474595  0.010185752   -4.6028681    1.1282731  1010000 
 4695000   0.75282772   -4.6036653   -4.6036653   -3.4744249 0.0088305237   -4.6036653    1.1292405  1010000 
 4696000   0.75203996   -4.6031118   -4.6031118    -3.475053  0.013216181   -4.6031118    1.1280588  1010000 
 4697000   0.75256611   -4.6039449   -4.6039449   -3.4750969  0.010801885   -4.6039449     1.128848  1010000 
 4698000   0.75240523    -4.603712    -4.603712   -3.4751053 0.0098321817    -4.603712    1.1286067  1010000 
 4699000   0.75242682   -4.6043782   -4.6043782   -3.4757391  0.011126311   -4.6043782    1.1286391  1010000 
 4700000   0.75140823   -4.6029943   -4.6029943   -3.4758831  0.011582713   -4.6029943    1.1271112  1010000 
 4701000   0.75174054   -4.6031149   -4.6031149   -3.4755052   0.01412892   -4.6031149    1.1276097  1010000 
 4702000   0.75329085   -4.6050736   -4.6050736   -3.4751384 0.0082184887   -4.6050736    1.1299352  1010000 
 4703000   0.75319974     -4.60557     -4.60557   -3.4757715  0.011909179     -4.60557    1.1297985  1010000 
 4704000    0.7530438   -4.6053765   -4.6053765    -3.475812  0.012348195   -4.6053765    1.1295646  1010000 
 4705000   0.75262436   -4.6050058   -4.6050058   -3.4760704  0.014717057   -4.6050058    1.1289354  1010000 
 4706000    0.7533463   -4.6058898   -4.6058898   -3.4758715  0.013649227   -4.6058898    1.1300183  1010000 
 4707000   0.75260958   -4.6055782   -4.6055782   -3.4766649  0.016741555   -4.6055782    1.1289132  1010000 
 4708000   0.75260784   -4.6055398   -4.6055398   -3.4766291  0.015989742   -4.6055398    1.1289106  1010000 
 4709000   0.75222886   -4.6046453   -4.6046453   -3.4763031  0.020113683   -4.6046453    1.1283422  1010000 
 4710000   0.75278872   -4.6058126   -4.6058126   -3.4766306  0.015886072   -4.6058126     1.129182  1010000 
 4711000    0.7523151   -4.6055191   -4.6055191   -3.4770476  0.015467121   -4.6055191    1.1284715  1010000 
 4712000   0.75269607   -4.6059642   -4.6059642   -3.4769212  0.012431419   -4.6059642     1.129043  1010000 
 4713000   0.75184281   -4.6048683   -4.6048683   -3.4771052   0.01556806   -4.6048683    1.1277631  1010000 
 4714000   0.75257115   -4.6063611   -4.6063611   -3.4775055  0.012700966   -4.6063611    1.1288556  1010000 
 4715000   0.75214193   -4.6058669   -4.6058669   -3.4776551  0.011052643   -4.6058669    1.1282118  1010000 
 4716000   0.75182958   -4.6054415   -4.6054415   -3.4776983  0.015042903   -4.6054415    1.1277433  1010000 
 4717000   0.75302051   -4.6075862   -4.6075862   -3.4780566  0.011912342   -4.6075862    1.1295296  1010000 
 4718000   0.75178159   -4.6064301   -4.6064301   -3.4787588  0.014268751   -4.6064301    1.1276713  1010000 
 4719000   0.75130025   -4.6060285   -4.6060285   -3.4790792   0.01255972   -4.6060285    1.1269493  1010000 
 4720000    0.7518558   -4.6065952   -4.6065952   -3.4788126  0.011689729   -4.6065952    1.1277826  1010000 
 4721000   0.75162602   -4.6057934   -4.6057934   -3.4783555  0.013193397   -4.6057934    1.1274379  1010000 
 4722000   0.75167049   -4.6060821   -4.6060821   -3.4785775 0.0096775427   -4.6060821    1.1275046  1010000 
 4723000   0.75231085   -4.6072345   -4.6072345   -3.4787694  0.010228434   -4.6072345    1.1284652  1010000 
 4724000   0.75188981    -4.606222    -4.606222   -3.4783884  0.014613263    -4.606222    1.1278336  1010000 
 4725000   0.75218032   -4.6068722   -4.6068722   -3.4786028  0.010772934   -4.6068722    1.1282694  1010000 
 4726000   0.75234397   -4.6072216   -4.6072216   -3.4787067 0.0099942627   -4.6072216    1.1285148  1010000 
 4727000   0.75200412   -4.6069646   -4.6069646   -3.4789596 0.0090969211   -4.6069646    1.1280051  1010000 
 4728000    0.7511252   -4.6059696   -4.6059696   -3.4792829   0.01034862   -4.6059696    1.1266867  1010000 
 4729000   0.75090166   -4.6060549   -4.6060549   -3.4797036  0.010530218   -4.6060549    1.1263514  1010000 
 4730000   0.75064068   -4.6059911   -4.6059911   -3.4800312  0.011414362   -4.6059911    1.1259599  1010000 
 4731000   0.75058516   -4.6059602   -4.6059602   -3.4800836 0.0099849351   -4.6059602    1.1258766  1010000 
 4732000   0.75105883   -4.6072556   -4.6072556   -3.4806685 0.0053596061   -4.6072556    1.1265871  1010000 
 4733000   0.75119143   -4.6076447   -4.6076447   -3.4808587 0.0050579261   -4.6076447     1.126786  1010000 
 4734000   0.75044868   -4.6066715   -4.6066715   -3.4809996 0.0098517586   -4.6066715    1.1256719  1010000 
 4735000    0.7508764   -4.6066398   -4.6066398   -3.4803263 0.0080838125   -4.6066398    1.1263135  1010000 
 4736000    0.7512048   -4.6069124   -4.6069124   -3.4801063 0.0098919832   -4.6069124    1.1268061  1010000 
 4737000   0.75080492   -4.6070914   -4.6070914   -3.4808851  0.011208843   -4.6070914    1.1262063  1010000 
 4738000   0.75116353   -4.6075922   -4.6075922   -3.4808481  0.010239506   -4.6075922    1.1267442  1010000 
 4739000   0.75173402   -4.6081713   -4.6081713   -3.4805714  0.010786977   -4.6081713    1.1275999  1010000 
 4740000   0.75125538    -4.607856    -4.607856   -3.4809741 0.0098089745    -4.607856     1.126882  1010000 
 4741000   0.75053936    -4.607265    -4.607265    -3.481457  0.014636547    -4.607265    1.1258079  1010000 
 4742000   0.75176272   -4.6086786   -4.6086786   -3.4810357  0.011452812   -4.6086786     1.127643  1010000 
 4743000   0.75104829   -4.6078129   -4.6078129   -3.4812416  0.014207371   -4.6078129    1.1265713  1010000 
 4744000   0.75164003   -4.6091249   -4.6091249    -3.481666   0.01019263   -4.6091249    1.1274589  1010000 
 4745000   0.75100742   -4.6080552   -4.6080552   -3.4815452  0.014008145   -4.6080552      1.12651  1010000 
 4746000   0.75156807   -4.6086225   -4.6086225   -3.4812715  0.011525752   -4.6086225     1.127351  1010000 
 4747000   0.75113519   -4.6084545   -4.6084545   -3.4817529  0.012357536   -4.6084545    1.1267017  1010000 
 4748000   0.75189265   -4.6098671   -4.6098671   -3.4820292 0.0093402513   -4.6098671    1.1278379  1010000 
 4749000   0.75067623   -4.6084559   -4.6084559   -3.4824426  0.013554241   -4.6084559    1.1260132  1010000 
 4750000   0.75160179    -4.609238    -4.609238   -3.4818365  0.013121466    -4.609238    1.1274016  1010000 
 4751000   0.75168967   -4.6096495   -4.6096495   -3.4821161  0.012557345   -4.6096495    1.1275334  1010000 
 4752000   0.75170116   -4.6094651   -4.6094651   -3.4819145  0.011404154   -4.6094651    1.1275506  1010000 
 4753000   0.75119899    -4.608871    -4.608871   -3.4820737  0.014512528    -4.608871    1.1267974  1010000 
 4754000   0.75096945   -4.6092457   -4.6092457   -3.4827926  0.017448318   -4.6092457    1.1264531  1010000 
 4755000   0.75206694   -4.6104821   -4.6104821   -3.4823828  0.014865556   -4.6104821    1.1280993  1010000 
 4756000   0.75131716   -4.6098156   -4.6098156    -3.482841   0.01402939   -4.6098156    1.1269746  1010000 
 4757000   0.75183753   -4.6112294   -4.6112294   -3.4834742  0.010829601   -4.6112294    1.1277552  1010000 
 4758000   0.75182763   -4.6111767   -4.6111767   -3.4834364  0.013415292   -4.6111767    1.1277403  1010000 
 4759000    0.7514178   -4.6105635   -4.6105635   -3.4834379  0.012323109   -4.6105635    1.1271256  1010000 
 4760000   0.75103583     -4.61012     -4.61012   -3.4835674  0.011797243     -4.61012    1.1265526  1010000 
 4761000   0.75131335   -4.6099067   -4.6099067   -3.4829378  0.011742132   -4.6099067    1.1269689  1010000 
 4762000   0.75063626   -4.6092924   -4.6092924   -3.4833392  0.012106711   -4.6092924    1.1259533  1010000 
 4763000   0.75087866    -4.610004    -4.610004   -3.4836871  0.011791292    -4.610004    1.1263169  1010000 
 4764000   0.75115289   -4.6107351   -4.6107351   -3.4840068 0.0091657631   -4.6107351    1.1267282  1010000 
 4765000   0.75068513   -4.6096265   -4.6096265   -3.4835999  0.013581407   -4.6096265    1.1260266  1010000 
 4766000   0.75131173   -4.6111298   -4.6111298   -3.4841633  0.010543242   -4.6111298    1.1269665  1010000 
 4767000   0.75076133   -4.6105366   -4.6105366   -3.4843957  0.014201958   -4.6105366    1.1261409  1010000 
 4768000   0.75099574   -4.6108197   -4.6108197   -3.4843272  0.014657047   -4.6108197    1.1264925  1010000 
 4769000   0.75136784   -4.6113648   -4.6113648   -3.4843142  0.013089293   -4.6113648    1.1270506  1010000 
 4770000   0.75115792   -4.6116931   -4.6116931   -3.4849574 0.0073404795   -4.6116931    1.1267358  1010000 
 4771000   0.75135653   -4.6119631   -4.6119631   -3.4849295 0.0087638791   -4.6119631    1.1270337  1010000 
 4772000   0.75019944   -4.6100545   -4.6100545   -3.4847565   0.01258008   -4.6100545     1.125298  1010000 
 4773000   0.75001963   -4.6101592   -4.6101592   -3.4851309  0.014418121   -4.6101592    1.1250283  1010000 
 4774000   0.75023581   -4.6109116   -4.6109116    -3.485559 0.0089376289   -4.6109116    1.1253526  1010000 
 4775000   0.75030926   -4.6107032   -4.6107032   -3.4852404  0.008984385   -4.6107032    1.1254628  1010000 
 4776000   0.74996944   -4.6102752   -4.6102752   -3.4853221  0.011275673   -4.6102752     1.124953  1010000 
 4777000   0.75010864   -4.6106804   -4.6106804   -3.4855185 0.0093735566   -4.6106804    1.1251618  1010000 
 4778000   0.74977955   -4.6100671   -4.6100671   -3.4853989 0.0068742722   -4.6100671    1.1246682  1010000 
 4779000   0.74992268   -4.6105304   -4.6105304   -3.4856475 0.0066072346   -4.6105304    1.1248829  1010000 
 4780000   0.75066335   -4.6114042   -4.6114042   -3.4854103 0.0080079287   -4.6114042    1.1259939  1010000 
 4781000   0.75077807   -4.6113731   -4.6113731   -3.4852071 0.0090983594   -4.6113731     1.126166  1010000 
 4782000   0.75036902   -4.6111542   -4.6111542   -3.4856018 0.0093841022   -4.6111542    1.1255524  1010000 
 4783000   0.75045259   -4.6118806   -4.6118806   -3.4862028 0.0075187133   -4.6118806    1.1256778  1010000 
 4784000   0.75080451   -4.6125206   -4.6125206    -3.486315 0.0076148604   -4.6125206    1.1262057  1010000 
 4785000   0.75055031   -4.6119737   -4.6119737   -3.4861494  0.013405724   -4.6119737    1.1258244  1010000 
 4786000   0.75047404   -4.6120923   -4.6120923   -3.4863824 0.0095102116   -4.6120923    1.1257099  1010000 
 4787000   0.75105088   -4.6132427   -4.6132427   -3.4866675  0.004930775   -4.6132427    1.1265752  1010000 
 4788000   0.74989501   -4.6113121   -4.6113121   -3.4864707  0.010471688   -4.6113121    1.1248414  1010000 
 4789000   0.74991477   -4.6110592   -4.6110592   -3.4861882  0.011589158   -4.6110592     1.124871  1010000 
 4790000   0.75057926   -4.6119261   -4.6119261   -3.4860583 0.0099864029   -4.6119261    1.1258678  1010000 
 4791000   0.75004015   -4.6114486   -4.6114486   -3.4863895  0.015860272   -4.6114486    1.1250591  1010000 
 4792000    0.7504124   -4.6118698   -4.6118698   -3.4862523  0.011234369   -4.6118698    1.1256175  1010000 
 4793000   0.75066013   -4.6126525   -4.6126525   -3.4866634  0.011901518   -4.6126525    1.1259891  1010000 
 4794000   0.75105619   -4.6138044   -4.6138044   -3.4872212 0.0086182694   -4.6138044    1.1265832  1010000 
 4795000   0.75065483   -4.6132248   -4.6132248   -3.4872437  0.012328399   -4.6132248    1.1259811  1010000 
 4796000   0.75087039   -4.6134506   -4.6134506   -3.4871462  0.011896601   -4.6134506    1.1263045  1010000 
 4797000   0.75021873   -4.6124537   -4.6124537   -3.4871267   0.01774635   -4.6124537     1.125327  1010000 
 4798000   0.75075355   -4.6128987   -4.6128987   -3.4867695  0.016690398   -4.6128987    1.1261292  1010000 
 4799000   0.75042276   -4.6127297   -4.6127297   -3.4870967  0.019101485   -4.6127297     1.125633  1010000 
 4800000   0.75084662    -4.613335    -4.613335   -3.4870662  0.015466552    -4.613335    1.1262688  1010000 
 4801000   0.75085922   -4.6138427   -4.6138427    -3.487555  0.012864672   -4.6138427    1.1262877  1010000 
 4802000    0.7508079    -4.614144    -4.614144   -3.4879332  0.015237089    -4.614144    1.1262107  1010000 
 4803000   0.74989105   -4.6128784   -4.6128784   -3.4880429  0.010651552   -4.6128784    1.1248355  1010000 
 4804000   0.75005424   -4.6130613   -4.6130613    -3.487981   0.01180217   -4.6130613    1.1250802  1010000 
 4805000    0.7508218    -4.614296    -4.614296   -3.4880644  0.011774377    -4.614296    1.1262316  1010000 
 4806000   0.75031007    -4.613325    -4.613325    -3.487861  0.012706511    -4.613325     1.125464  1010000 
 4807000   0.75049726   -4.6128772   -4.6128772   -3.4871325  0.011767412   -4.6128772    1.1257448  1010000 
 4808000   0.75057877   -4.6135415   -4.6135415   -3.4876745  0.010641251   -4.6135415     1.125867  1010000 
 4809000   0.75021308   -4.6130974   -4.6130974   -3.4877789  0.010636623   -4.6130974    1.1253185  1010000 
 4810000   0.74978623   -4.6128696   -4.6128696   -3.4881914  0.011448299   -4.6128696    1.1246782  1010000 
 4811000   0.74955289   -4.6132034   -4.6132034   -3.4888752  0.013303838   -4.6132034    1.1243282  1010000 
 4812000   0.74974496   -4.6138766   -4.6138766   -3.4892603 0.0094334986   -4.6138766    1.1246163  1010000 
 4813000   0.74965381   -4.6137782   -4.6137782   -3.4892986  0.010163026   -4.6137782    1.1244796  1010000 
 4814000   0.74942554   -4.6136264   -4.6136264   -3.4894893  0.012640319   -4.6136264    1.1241372  1010000 
 4815000   0.74973832   -4.6141267   -4.6141267   -3.4895203 0.0093903212   -4.6141267    1.1246064  1010000 
 4816000   0.75025743   -4.6149642   -4.6149642   -3.4895792 0.0077081061   -4.6149642     1.125385  1010000 
 4817000   0.74910065   -4.6135534   -4.6135534   -3.4899036 0.0087271231   -4.6135534    1.1236499  1010000 
 4818000    0.7490415    -4.613361    -4.613361   -3.4897999 0.0074301971    -4.613361    1.1235611  1010000 
 4819000   0.74964532   -4.6143968   -4.6143968     -3.48993 0.0086135321   -4.6143968    1.1244669  1010000 
 4820000   0.74887634   -4.6133879   -4.6133879   -3.4900745 0.0085503709   -4.6133879    1.1233134  1010000 
 4821000    0.7491144   -4.6135362   -4.6135362   -3.4898658  0.012231982   -4.6135362    1.1236705  1010000 
 4822000   0.74912554   -4.6137826   -4.6137826   -3.4900954   0.01098055   -4.6137826    1.1236872  1010000 
 4823000   0.74927667   -4.6141735   -4.6141735   -3.4902596  0.011853387   -4.6141735    1.1239139  1010000 
 4824000   0.74885753   -4.6141971   -4.6141971   -3.4909119  0.013999594   -4.6141971    1.1232852  1010000 
 4825000   0.74916042   -4.6146948   -4.6146948   -3.4909553  0.012824395   -4.6146948    1.1237395  1010000 
 4826000   0.74982156   -4.6160067   -4.6160067   -3.4912755   0.01019519   -4.6160067    1.1247312  1010000 
 4827000   0.74945729   -4.6152604   -4.6152604   -3.4910756  0.014999133   -4.6152604    1.1241848  1010000 
 4828000   0.74974662   -4.6155244   -4.6155244   -3.4909056  0.011724746   -4.6155244    1.1246188  1010000 
 4829000   0.75025091   -4.6163397   -4.6163397   -3.4909644  0.014882372   -4.6163397    1.1253752  1010000 
 4830000   0.75105181   -4.6175956   -4.6175956    -3.491019  0.011044923   -4.6175956    1.1265766  1010000 
 4831000    0.7500965   -4.6162442   -4.6162442   -3.4911006  0.014544982   -4.6162442    1.1251436  1010000 
 4832000   0.75035126   -4.6164505   -4.6164505   -3.4909247  0.015513415   -4.6164505    1.1255258  1010000 
 4833000   0.75076285   -4.6167947   -4.6167947   -3.4906516  0.012376932   -4.6167947    1.1261432  1010000 
 4834000   0.74979381   -4.6157173   -4.6157173   -3.4910277  0.012503417   -4.6157173    1.1246896  1010000 
 4835000   0.74949368   -4.6158237   -4.6158237   -3.4915842  0.015164242   -4.6158237    1.1242394  1010000 
 4836000   0.74994525   -4.6164617   -4.6164617   -3.4915449  0.011777353   -4.6164617    1.1249168  1010000 
 4837000   0.75032933   -4.6176015   -4.6176015   -3.4921086 0.0098928905   -4.6176015    1.1254929  1010000 
 4838000   0.74916554   -4.6159082   -4.6159082    -3.492161  0.012114268   -4.6159082    1.1237472  1010000 
 4839000   0.74991102    -4.617348    -4.617348   -3.4924826  0.010801061    -4.617348    1.1248654  1010000 
 4840000   0.74990015   -4.6173008   -4.6173008   -3.4924517 0.0096003439   -4.6173008    1.1248491  1010000 
 4841000   0.75019866    -4.617599    -4.617599   -3.4923022  0.013174617    -4.617599    1.1252969  1010000 
 4842000   0.74983586   -4.6178683   -4.6178683   -3.4931156  0.008629685   -4.6178683    1.1247527  1010000 
 4843000   0.74899057   -4.6164746   -4.6164746   -3.4929898  0.011887551   -4.6164746    1.1234847  1010000 
 4844000   0.74953759   -4.6171622   -4.6171622   -3.4928569  0.012523267   -4.6171622    1.1243053  1010000 
 4845000   0.74940437   -4.6167329   -4.6167329   -3.4926274  0.013646069   -4.6167329    1.1241054  1010000 
 4846000   0.74963155   -4.6175115   -4.6175115   -3.4930653 0.0091520126   -4.6175115    1.1244462  1010000 
 4847000   0.75024934   -4.6183324   -4.6183324   -3.4929595 0.0092080084   -4.6183324    1.1253729  1010000 
 4848000   0.74959658   -4.6173946   -4.6173946   -3.4930008  0.011241986   -4.6173946    1.1243938  1010000 
 4849000   0.74875339   -4.6170513   -4.6170513   -3.4939224  0.015977709   -4.6170513     1.123129  1010000 
 4850000   0.74934653   -4.6172273   -4.6172273   -3.4932086  0.010913827   -4.6172273    1.1240187  1010000 
 4851000   0.74899996   -4.6164916   -4.6164916   -3.4929927  0.014762578   -4.6164916    1.1234988  1010000 
 4852000   0.75009928   -4.6174441   -4.6174441   -3.4922963 0.0093639855   -4.6174441    1.1251478  1010000 
 4853000   0.74912455   -4.6158727   -4.6158727    -3.492187  0.012266462   -4.6158727    1.1236857  1010000 
 4854000   0.74956993   -4.6169368   -4.6169368    -3.492583  0.012198953   -4.6169368    1.1243538  1010000 
 4855000   0.74949026   -4.6165957   -4.6165957   -3.4923614  0.012549668   -4.6165957    1.1242343  1010000 
 4856000   0.75026809   -4.6178822   -4.6178822   -3.4924812  0.007374104   -4.6178822     1.125401  1010000 
 4857000   0.74874356   -4.6159268   -4.6159268   -3.4928125  0.016658399   -4.6159268    1.1231142  1010000 
 4858000   0.74965841    -4.617048    -4.617048   -3.4925615  0.014858307    -4.617048    1.1244865  1010000 
 4859000   0.74980851   -4.6182374   -4.6182374   -3.4935258  0.014894128   -4.6182374    1.1247117  1010000 
 4860000   0.74911978   -4.6172368   -4.6172368   -3.4935582   0.01269413   -4.6172368    1.1236786  1010000 
 4861000   0.74829308    -4.615894    -4.615894   -3.4934555  0.015278468    -4.615894    1.1224385  1010000 
 4862000    0.7494959   -4.6179542   -4.6179542   -3.4937114 0.0093106876   -4.6179542    1.1242427  1010000 
 4863000   0.74865831    -4.616517    -4.616517   -3.4935306  0.012140919    -4.616517    1.1229864  1010000 
 4864000    0.7487114   -4.6166909   -4.6166909   -3.4936249  0.010911842   -4.6166909     1.123066  1010000 
 4865000   0.74817985   -4.6158976   -4.6158976   -3.4936289  0.012496618   -4.6158976    1.1222687  1010000 
 4866000   0.74857482   -4.6166266   -4.6166266   -3.4937654 0.0094487219   -4.6166266    1.1228611  1010000 
 4867000   0.74930528   -4.6180235   -4.6180235   -3.4940666 0.0089548538   -4.6180235    1.1239568  1010000 
 4868000   0.74825011   -4.6169036   -4.6169036   -3.4945296  0.012783346   -4.6169036     1.122374  1010000 
 4869000    0.7488746   -4.6178979   -4.6178979   -3.4945871  0.007159593   -4.6178979    1.1233108  1010000 
 4870000    0.7489581   -4.6175731   -4.6175731   -3.4941371  0.010052057   -4.6175731     1.123436  1010000 
 4871000   0.74888694   -4.6174588   -4.6174588   -3.4941295  0.010158582   -4.6174588    1.1233293  1010000 
 4872000   0.74895239   -4.6177156   -4.6177156   -3.4942881  0.008650917   -4.6177156    1.1234275  1010000 
 4873000   0.74882581   -4.6167988   -4.6167988   -3.4935612   0.01013478   -4.6167988    1.1232376  1010000 
 4874000   0.74900125   -4.6168184   -4.6168184   -3.4933176  0.011235437   -4.6168184    1.1235008  1010000 
 4875000   0.74911358   -4.6176793   -4.6176793     -3.49401  0.011114639   -4.6176793    1.1236693  1010000 
 4876000   0.74899331   -4.6180687   -4.6180687   -3.4945799  0.011759456   -4.6180687    1.1234888  1010000 
 4877000   0.74924285   -4.6178789   -4.6178789   -3.4940157  0.013506279   -4.6178789    1.1238632  1010000 
 4878000   0.74919335   -4.6182049   -4.6182049    -3.494416  0.010902993   -4.6182049    1.1237889  1010000 
 4879000    0.7491884   -4.6179934   -4.6179934   -3.4942119  0.012670467   -4.6179934    1.1237815  1010000 
 4880000    0.7487654   -4.6177209   -4.6177209   -3.4945739  0.012133566   -4.6177209     1.123147  1010000 
 4881000   0.74979629    -4.619119    -4.619119   -3.4944257 0.0088884303    -4.619119    1.1246933  1010000 
 4882000   0.74811486   -4.6173431   -4.6173431    -3.495172   0.01284339   -4.6173431    1.1221712  1010000 
 4883000   0.74890348   -4.6187352   -4.6187352   -3.4953811  0.010592877   -4.6187352    1.1233541  1010000 
 4884000   0.74877959   -4.6186325   -4.6186325   -3.4954642 0.0089461923   -4.6186325    1.1231683  1010000 
 4885000    0.7489787   -4.6187685   -4.6187685   -3.4953015  0.011490465   -4.6187685    1.1234669  1010000 
 4886000   0.74894427   -4.6189815   -4.6189815   -3.4955662  0.011379787   -4.6189815    1.1234153  1010000 
 4887000   0.74974777   -4.6209496   -4.6209496   -3.4963291 0.0067525264   -4.6209496    1.1246205  1010000 
 4888000    0.7473426   -4.6179928   -4.6179928     -3.49698   0.01510823   -4.6179928    1.1210128  1010000 
 4889000   0.74845968   -4.6193704   -4.6193704    -3.496682  0.014839697   -4.6193704    1.1226884  1010000 
 4890000   0.74853143   -4.6192996   -4.6192996   -3.4965036  0.012931702   -4.6192996     1.122796  1010000 
 4891000   0.74945798   -4.6204114   -4.6204114   -3.4962256  0.011531187   -4.6204114    1.1241859  1010000 
 4892000   0.74908161   -4.6199939   -4.6199939   -3.4963726  0.010340625   -4.6199939    1.1236213  1010000 
 4893000   0.74920937   -4.6207782   -4.6207782   -3.4969652  0.010881601   -4.6207782    1.1238129  1010000 
 4894000   0.74918184   -4.6205449   -4.6205449   -3.4967733  0.010431644   -4.6205449    1.1237717  1010000 
 4895000   0.74845917   -4.6189556   -4.6189556   -3.4962679  0.014769915   -4.6189556    1.1226876  1010000 
 4896000   0.74937947   -4.6209704   -4.6209704   -3.4969023  0.012112382   -4.6209704    1.1240681  1010000 
 4897000   0.74935931   -4.6212569   -4.6212569   -3.4972191   0.01074268   -4.6212569    1.1240378  1010000 
 4898000   0.74969024   -4.6212795   -4.6212795   -3.4967453  0.011386601   -4.6212795    1.1245343  1010000 
 4899000   0.74889678   -4.6202128   -4.6202128   -3.4968688  0.014304369   -4.6202128    1.1233441  1010000 
 4900000   0.74910364   -4.6210844   -4.6210844     -3.49743  0.017687688   -4.6210844    1.1236543  1010000 
 4901000   0.74981707   -4.6219437   -4.6219437   -3.4972192  0.013277658   -4.6219437    1.1247245  1010000 
 4902000   0.74937144   -4.6210844   -4.6210844   -3.4970284  0.014155816   -4.6210844     1.124056  1010000 
 4903000   0.74924628   -4.6212682   -4.6212682   -3.4973999  0.011744195   -4.6212682    1.1238683  1010000 
 4904000    0.7492672   -4.6212828   -4.6212828   -3.4973831  0.010807071   -4.6212828    1.1238997  1010000 
 4905000   0.74864634    -4.620796    -4.620796   -3.4978276  0.016566329    -4.620796    1.1229684  1010000 
 4906000   0.74859009   -4.6208035   -4.6208035   -3.4979195  0.014937771   -4.6208035     1.122884  1010000 
 4907000   0.74785803   -4.6204863   -4.6204863   -3.4987004  0.014520367   -4.6204863    1.1217859  1010000 
 4908000   0.74827388   -4.6211044   -4.6211044   -3.4986947  0.010852032   -4.6211044    1.1224097  1010000 
 4909000   0.74835179   -4.6216209   -4.6216209   -3.4990943  0.011272315   -4.6216209    1.1225266  1010000 
 4910000   0.74833733   -4.6220767   -4.6220767   -3.4995718  0.010382118   -4.6220767    1.1225049  1010000 
 4911000   0.74815943   -4.6218763   -4.6218763   -3.4996383 0.0098427233   -4.6218763     1.122238  1010000 
 4912000   0.74770406   -4.6209469   -4.6209469   -3.4993919 0.0084289273   -4.6209469     1.121555  1010000 
 4913000   0.74801036   -4.6216506   -4.6216506   -3.4996361 0.0092101821   -4.6216506    1.1220144  1010000 
 4914000   0.74723357   -4.6207594   -4.6207594   -3.4999102  0.012140582   -4.6207594    1.1208492  1010000 
 4915000   0.74754661   -4.6213445   -4.6213445   -3.5000257  0.012573143   -4.6213445    1.1213188  1010000 
 4916000   0.74846431    -4.622576    -4.622576   -3.4998807 0.0070991908    -4.622576    1.1226953  1010000 
 4917000   0.74828135   -4.6228085   -4.6228085   -3.5003876  0.010390758   -4.6228085    1.1224209  1010000 
 4918000   0.74793274   -4.6217297   -4.6217297   -3.4998317  0.014121932   -4.6217297     1.121898  1010000 
 4919000   0.74848066   -4.6226479   -4.6226479    -3.499928  0.012920863   -4.6226479    1.1227199  1010000 
 4920000   0.74889383   -4.6228979   -4.6228979   -3.4995583  0.012786134   -4.6228979    1.1233396  1010000 
 4921000   0.74789227   -4.6218286   -4.6218286   -3.4999913  0.015758137   -4.6218286    1.1218373  1010000 
 4922000   0.74884764   -4.6232827   -4.6232827   -3.5000124  0.011714836   -4.6232827    1.1232704  1010000 
 4923000   0.74917504   -4.6236937   -4.6236937   -3.4999323 0.0075298245   -4.6236937    1.1237614  1010000 
 4924000   0.74842145   -4.6223474   -4.6223474   -3.4997163  0.012498015   -4.6223474    1.1226311  1010000 
 4925000   0.74850311   -4.6224026   -4.6224026    -3.499649  0.013422925   -4.6224026    1.1227536  1010000 
 4926000   0.74852383   -4.6230973   -4.6230973   -3.5003127  0.011936845   -4.6230973    1.1227846  1010000 
 4927000   0.74848793   -4.6230065   -4.6230065   -3.5002757  0.014813755   -4.6230065    1.1227308  1010000 
 4928000    0.7481125   -4.6228776   -4.6228776     -3.50071  0.014575132   -4.6228776    1.1221676  1010000 
 4929000   0.74862851   -4.6237515   -4.6237515   -3.5008098  0.013130199   -4.6237515    1.1229417  1010000 
 4930000   0.74845403   -4.6237819   -4.6237819   -3.5011019  0.011322286   -4.6237819    1.1226799  1010000 
 4931000   0.74838944    -4.623814    -4.623814   -3.5012309 0.0089872935    -4.623814    1.1225831  1010000 
 4932000   0.74827784   -4.6232528   -4.6232528   -3.5008372  0.012251209   -4.6232528    1.1224156  1010000 
 4933000   0.74844316    -4.624087    -4.624087   -3.5014233  0.011622958    -4.624087    1.1226636  1010000 
 4934000   0.74847988    -4.624159    -4.624159   -3.5014403 0.0094493867    -4.624159    1.1227187  1010000 
 4935000   0.74863188   -4.6243968   -4.6243968   -3.5014501 0.0082891068   -4.6243968    1.1229467  1010000 
 4936000    0.7482755    -4.623707    -4.623707   -3.5012948  0.010139034    -4.623707    1.1224121  1010000 
 4937000   0.74780632    -4.623446    -4.623446   -3.5017376  0.012818816    -4.623446    1.1217084  1010000 
 4938000   0.74770952   -4.6238526   -4.6238526   -3.5022895  0.014934985   -4.6238526    1.1215632  1010000 
 4939000   0.74789917   -4.6239063   -4.6239063   -3.5020587 0.0087444364   -4.6239063    1.1218476  1010000 
 4940000   0.74841128   -4.6250706   -4.6250706   -3.5024548 0.0085565893   -4.6250706    1.1226158  1010000 
 4941000   0.74748488   -4.6240761   -4.6240761   -3.5028499  0.011659779   -4.6240761    1.1212262  1010000 
 4942000   0.74818517   -4.6250511   -4.6250511   -3.5027745 0.0074040273   -4.6250511    1.1222766  1010000 
 4943000   0.74743435   -4.6241447   -4.6241447   -3.5029943  0.011616425   -4.6241447    1.1211504  1010000 
 4944000    0.7479567   -4.6253794   -4.6253794   -3.5034454 0.0084345862   -4.6253794    1.1219339  1010000 
 4945000   0.74701167   -4.6242862   -4.6242862   -3.5037698  0.010533307   -4.6242862    1.1205164  1010000 
 4946000   0.74698668   -4.6247093   -4.6247093   -3.5042304  0.010408442   -4.6247093    1.1204789  1010000 
 4947000   0.74731762   -4.6251523   -4.6251523    -3.504177 0.0097712461   -4.6251523    1.1209753  1010000 
 4948000   0.74726874   -4.6252835   -4.6252835   -3.5043815 0.0060032409   -4.6252835     1.120902  1010000 
 4949000   0.74648915   -4.6246221   -4.6246221   -3.5048895 0.0095992988   -4.6246221    1.1197326  1010000 
 4950000   0.74758993   -4.6264799   -4.6264799   -3.5050961 0.0068834161   -4.6264799    1.1213838  1010000 
 4951000   0.74717093   -4.6261979   -4.6261979   -3.5054426 0.0077194496   -4.6261979    1.1207553  1010000 
 4952000   0.74736521   -4.6263782   -4.6263782   -3.5053315 0.0075864089   -4.6263782    1.1210467  1010000 
 4953000   0.74697204   -4.6261102   -4.6261102   -3.5056532 0.0080932234   -4.6261102     1.120457  1010000 
 4954000   0.74757101   -4.6272247   -4.6272247   -3.5058693 0.0058382116   -4.6272247    1.1213554  1010000 
 4955000   0.74753211   -4.6266437   -4.6266437   -3.5053467 0.0096362622   -4.6266437    1.1212971  1010000 
 4956000   0.74689058   -4.6264405   -4.6264405   -3.5061057  0.012433676   -4.6264405    1.1203348  1010000 
 4957000   0.74606564   -4.6254061   -4.6254061   -3.5063088  0.017663717   -4.6254061    1.1190973  1010000 
 4958000   0.74790483   -4.6271755   -4.6271755   -3.5053193  0.012437419   -4.6271755    1.1218561  1010000 
 4959000   0.74792093   -4.6277397   -4.6277397   -3.5058594  0.013097873   -4.6277397    1.1218803  1010000 
 4960000   0.74709855   -4.6268642   -4.6268642   -3.5062175  0.015960903   -4.6268642    1.1206467  1010000 
 4961000   0.74784343   -4.6269327   -4.6269327   -3.5051686  0.017275321   -4.6269327     1.121764  1010000 
 4962000    0.7476753   -4.6269356   -4.6269356   -3.5054237  0.011290486   -4.6269356    1.1215118  1010000 
 4963000   0.74773094   -4.6271783   -4.6271783    -3.505583  0.014723983   -4.6271783    1.1215953  1010000 
 4964000   0.74829302    -4.628238    -4.628238   -3.5057996  0.014199656    -4.628238    1.1224384  1010000 
 4965000   0.74844183   -4.6288596   -4.6288596    -3.506198  0.012303021   -4.6288596    1.1226616  1010000 
 4966000   0.74711932   -4.6277006   -4.6277006   -3.5070227  0.017231429   -4.6277006    1.1206779  1010000 
 4967000   0.74798141   -4.6290533   -4.6290533   -3.5070823   0.01246841   -4.6290533     1.121971  1010000 
 4968000   0.74758839   -4.6290786   -4.6290786   -3.5076971  0.013918345   -4.6290786    1.1213815  1010000 
 4969000   0.74767176   -4.6284237   -4.6284237   -3.5069171  0.016982998   -4.6284237    1.1215065  1010000 
 4970000    0.7484955   -4.6301181   -4.6301181   -3.5073759  0.013810924   -4.6301181    1.1227421  1010000 
 4971000   0.74726576   -4.6283295   -4.6283295    -3.507432  0.013861405   -4.6283295    1.1208975  1010000 
 4972000   0.74817623   -4.6298448   -4.6298448   -3.5075815 0.0098735872   -4.6298448    1.1222632  1010000 
 4973000   0.74770268   -4.6290404   -4.6290404   -3.5074875   0.01173668   -4.6290404    1.1215529  1010000 
 4974000   0.74724645   -4.6289046   -4.6289046   -3.5080361  0.011942907   -4.6289046    1.1208686  1010000 
 4975000   0.74728677   -4.6291008   -4.6291008   -3.5081718  0.012946477   -4.6291008     1.120929  1010000 
 4976000   0.74738995   -4.6292782   -4.6292782   -3.5081944 0.0063815384   -4.6292782    1.1210838  1010000 
 4977000   0.74662651   -4.6285747   -4.6285747    -3.508636 0.0087384862   -4.6285747    1.1199387  1010000 
 4978000   0.74699184   -4.6285836   -4.6285836    -3.508097   0.01248141   -4.6285836    1.1204866  1010000 
 4979000   0.74697338    -4.628993    -4.628993    -3.508534  0.011133768    -4.628993     1.120459  1010000 
 4980000   0.74692218   -4.6293818   -4.6293818   -3.5089997  0.010627063   -4.6293818    1.1203822  1010000 
 4981000   0.74680377   -4.6290696   -4.6290696    -3.508865 0.0098681749   -4.6290696    1.1202045  1010000 
 4982000   0.74662411   -4.6288321   -4.6288321    -3.508897  0.007899095   -4.6288321    1.1199351  1010000 
 4983000   0.74715599   -4.6295709   -4.6295709    -3.508838  0.008790703   -4.6295709    1.1207329  1010000 
 4984000   0.74706459   -4.6296399   -4.6296399   -3.5090441 0.0084571774   -4.6296399    1.1205958  1010000 
 4985000   0.74699644   -4.6294684   -4.6294684   -3.5089749 0.0081890653   -4.6294684    1.1204936  1010000 
 4986000   0.74648318   -4.6285249   -4.6285249   -3.5088012 0.0091505304   -4.6285249    1.1197237  1010000 
 4987000   0.74630749   -4.6288426   -4.6288426   -3.5093825 0.0093359828   -4.6288426    1.1194601  1010000 
 4988000    0.7469384   -4.6299667   -4.6299667   -3.5095602 0.0092502978   -4.6299667    1.1204065  1010000 
 4989000   0.74653677    -4.629562    -4.629562   -3.5097579 0.0093119502    -4.629562    1.1198041  1010000 
 4990000   0.74636994    -4.628872    -4.628872   -3.5093182  0.011057191    -4.628872    1.1195538  1010000 
 4991000   0.74655454   -4.6294532   -4.6294532   -3.5096225 0.0086857713   -4.6294532    1.1198307  1010000 
 4992000   0.74553978   -4.6281362   -4.6281362   -3.5098276  0.013724387   -4.6281362    1.1183086  1010000 
 4993000   0.74678471   -4.6299543   -4.6299543   -3.5097783  0.008663881   -4.6299543     1.120176  1010000 
 4994000   0.74634672   -4.6295319   -4.6295319   -3.5100129 0.0077948449   -4.6295319     1.119519  1010000 
 4995000     0.746471   -4.6297293   -4.6297293   -3.5100239 0.0091143018   -4.6297293    1.1197054  1010000 
 4996000    0.7455575   -4.6290841   -4.6290841    -3.510749  0.011268649   -4.6290841    1.1183351  1010000 
 4997000   0.74627118   -4.6299082   -4.6299082   -3.5105025 0.0091868658   -4.6299082    1.1194057  1010000 
 4998000   0.74607821   -4.6301391   -4.6301391   -3.5110229  0.010744129   -4.6301391    1.1191162  1010000 
 4999000    0.7461799   -4.6304263   -4.6304263   -3.5111576  0.015947964   -4.6304263    1.1192687  1010000 
 5000000   0.74627301   -4.6306563   -4.6306563   -3.5112479  0.011464087   -4.6306563    1.1194084  1010000 
 5001000   0.74744846   -4.6321472   -4.6321472   -3.5109756  0.012899214   -4.6321472    1.1211716  1010000 
 5002000   0.74724403   -4.6322284   -4.6322284   -3.5113635  0.010266513   -4.6322284    1.1208649  1010000 
 5003000   0.74735666   -4.6327814   -4.6327814   -3.5117475 0.0091387913   -4.6327814    1.1210339  1010000 
 5004000   0.74557823   -4.6304038   -4.6304038   -3.5120376  0.013881965   -4.6304038    1.1183662  1010000 
 5005000   0.74709544   -4.6324489   -4.6324489   -3.5118069 0.0093387757   -4.6324489    1.1206421  1010000 
 5006000   0.74646935    -4.631475    -4.631475   -3.5117721  0.012753544    -4.631475    1.1197029  1010000 
 5007000   0.74714298   -4.6324262   -4.6324262   -3.5117128  0.013102876   -4.6324262    1.1207134  1010000 
 5008000    0.7470435    -4.631832    -4.631832   -3.5112679  0.013451866    -4.631832    1.1205641  1010000 
 5009000   0.74683296   -4.6321539   -4.6321539   -3.5119056 0.0096567103   -4.6321539    1.1202483  1010000 
 5010000   0.74675131   -4.6319659   -4.6319659     -3.51184  0.013184913   -4.6319659    1.1201259  1010000 
 5011000    0.7465029   -4.6323211   -4.6323211   -3.5125679  0.011766388   -4.6323211    1.1197532  1010000 
 5012000   0.74647893   -4.6325641   -4.6325641   -3.5128468  0.014290781   -4.6325641    1.1197173  1010000 
 5013000   0.74711409   -4.6334704   -4.6334704   -3.5128004  0.010979262   -4.6334704      1.12067  1010000 
 5014000   0.74615539   -4.6319104   -4.6319104   -3.5126785  0.015684951   -4.6319104     1.119232  1010000 
 5015000   0.74652436     -4.63229     -4.63229   -3.5125046  0.015149384     -4.63229    1.1197854  1010000 
 5016000   0.74652929   -4.6327978   -4.6327978    -3.513005   0.01309629   -4.6327978    1.1197928  1010000 
 5017000   0.74704727   -4.6338352   -4.6338352   -3.5132654  0.010379365   -4.6338352    1.1205698  1010000 
 5018000   0.74667664    -4.633478    -4.633478   -3.5134642  0.012636228    -4.633478    1.1200139  1010000 
 5019000   0.74653545   -4.6334458   -4.6334458   -3.5136437  0.011533814   -4.6334458    1.1198021  1010000 
 5020000   0.74588748   -4.6324281   -4.6324281    -3.513598  0.011051894   -4.6324281    1.1188301  1010000 
 5021000   0.74626294   -4.6329728   -4.6329728   -3.5135795 0.0095352579   -4.6329728    1.1193933  1010000 
 5022000   0.74667011   -4.6339218   -4.6339218   -3.5139177  0.010830056   -4.6339218    1.1200041  1010000 
 5023000   0.74688484   -4.6338873   -4.6338873   -3.5135611 0.0091354069   -4.6338873    1.1203262  1010000 
 5024000   0.74576633    -4.632536    -4.632536   -3.5138876  0.011361571    -4.632536    1.1186484  1010000 
 5025000   0.74546605   -4.6324889   -4.6324889   -3.5142909   0.01087129   -4.6324889     1.118198  1010000 
 5026000   0.74594624   -4.6330011   -4.6330011   -3.5140828  0.010898215   -4.6330011    1.1189183  1010000 
 5027000   0.74562463   -4.6326515   -4.6326515   -3.5142157  0.013009358   -4.6326515    1.1184358  1010000 
 5028000   0.74589528    -4.633606    -4.633606   -3.5147642  0.011811086    -4.633606    1.1188418  1010000 
 5029000   0.74489843   -4.6324739   -4.6324739   -3.5151273   0.01446349   -4.6324739    1.1173465  1010000 
 5030000   0.74625301   -4.6338907   -4.6338907   -3.5145123  0.011890369   -4.6338907    1.1193784  1010000 
 5031000   0.74638479   -4.6345527   -4.6345527   -3.5149766 0.0077010111   -4.6345527    1.1195761  1010000 
 5032000   0.74497935   -4.6328692   -4.6328692   -3.5154013  0.014007033   -4.6328692    1.1174679  1010000 
 5033000   0.74510942    -4.633248    -4.633248    -3.515585 0.0092792682    -4.633248     1.117663  1010000 
 5034000   0.74460315   -4.6326974   -4.6326974   -3.5157937 0.0098805086   -4.6326974    1.1169036  1010000 
 5035000   0.74496433   -4.6327646   -4.6327646   -3.5153193 0.0092312271   -4.6327646    1.1174454  1010000 
 5036000   0.74550252   -4.6334149   -4.6334149   -3.5151623   0.01026092   -4.6334149    1.1182527  1010000 
 5037000   0.74536377   -4.6330076   -4.6330076    -3.514963  0.011649861   -4.6330076    1.1180445  1010000 
 5038000   0.74539028   -4.6335259   -4.6335259   -3.5154416  0.010758273   -4.6335259    1.1180843  1010000 
 5039000   0.74582521   -4.6334186   -4.6334186   -3.5146819  0.010398337   -4.6334186    1.1187367  1010000 
 5040000   0.74525925   -4.6326165   -4.6326165   -3.5147287  0.012817554   -4.6326165    1.1178878  1010000 
 5041000   0.74558655   -4.6331071   -4.6331071   -3.5147284  0.010417785   -4.6331071    1.1183787  1010000 
 5042000   0.74592069   -4.6340467   -4.6340467   -3.5151668  0.013761532   -4.6340467    1.1188799  1010000 
 5043000   0.74653236   -4.6347666   -4.6347666   -3.5149692 0.0097079978   -4.6347666    1.1197974  1010000 
 5044000   0.74660975   -4.6349012   -4.6349012   -3.5149877  0.012601907   -4.6349012    1.1199135  1010000 
 5045000   0.74626186   -4.6345849   -4.6345849   -3.5151932  0.013924311   -4.6345849    1.1193917  1010000 
 5046000   0.74590333   -4.6341058   -4.6341058   -3.5152519  0.013435238   -4.6341058    1.1188539  1010000 
 5047000   0.74633102   -4.6350651   -4.6350651   -3.5155696 0.0099962789   -4.6350651    1.1194954  1010000 
 5048000   0.74520492   -4.6331877   -4.6331877   -3.5153814  0.014905394   -4.6331877    1.1178063  1010000 
 5049000    0.7461908   -4.6349639   -4.6349639   -3.5156788  0.010618186   -4.6349639    1.1192851  1010000 
 5050000   0.74571845   -4.6343834   -4.6343834   -3.5158069 0.0074568457   -4.6343834    1.1185766  1010000 
 5051000   0.74540939   -4.6346195   -4.6346195   -3.5165066  0.011636147   -4.6346195     1.118113  1010000 
 5052000   0.74514677   -4.6343883   -4.6343883   -3.5166693 0.0096811123   -4.6343883    1.1177191  1010000 
 5053000   0.74470723   -4.6342438   -4.6342438   -3.5171841   0.01046024   -4.6342438    1.1170597  1010000 
 5054000   0.74464336   -4.6344736   -4.6344736   -3.5175097 0.0086462794   -4.6344736    1.1169639  1010000 
 5055000   0.74452355   -4.6342256   -4.6342256   -3.5174414  0.011575145   -4.6342256    1.1167842  1010000 
 5056000   0.74478459   -4.6348959   -4.6348959   -3.5177201 0.0094345324   -4.6348959    1.1171758  1010000 
 5057000   0.74531302   -4.6354736   -4.6354736   -3.5175051 0.0092222626   -4.6354736    1.1179684  1010000 
 5058000   0.74539111   -4.6362979   -4.6362979   -3.5182124  0.007684027   -4.6362979    1.1180856  1010000 
 5059000   0.74474415   -4.6350003   -4.6350003   -3.5178852  0.011940611   -4.6350003    1.1171151  1010000 
 5060000   0.74558867   -4.6363605   -4.6363605   -3.5179786  0.010123893   -4.6363605    1.1183819  1010000 
 5061000    0.7458287   -4.6365449   -4.6365449   -3.5178029  0.010101241   -4.6365449    1.1187419  1010000 
 5062000   0.74546332   -4.6361072   -4.6361072   -3.5179133 0.0094285927   -4.6361072    1.1181939  1010000 
 5063000   0.74497225   -4.6361111   -4.6361111   -3.5186538  0.010522401   -4.6361111    1.1174573  1010000 
 5064000   0.74481149    -4.635831    -4.635831   -3.5186149  0.012046418    -4.635831    1.1172161  1010000 
 5065000   0.74540728   -4.6371099   -4.6371099   -3.5190001 0.0097922374   -4.6371099    1.1181098  1010000 
 5066000   0.74517058   -4.6368542   -4.6368542   -3.5190994  0.013463855   -4.6368542    1.1177548  1010000 
 5067000   0.74522894   -4.6367325   -4.6367325   -3.5188902  0.011126969   -4.6367325    1.1178423  1010000 
 5068000    0.7454518   -4.6372321   -4.6372321   -3.5190555 0.0071157142   -4.6372321    1.1181766  1010000 
 5069000   0.74494696    -4.636785    -4.636785   -3.5193657  0.010876143    -4.636785    1.1174193  1010000 
 5070000   0.74534519   -4.6377222   -4.6377222   -3.5197055 0.0094582644   -4.6377222    1.1180167  1010000 
 5071000   0.74505905   -4.6370997   -4.6370997   -3.5195122   0.01368918   -4.6370997    1.1175875  1010000 
 5072000   0.74481033   -4.6366147   -4.6366147   -3.5194003   0.01368052   -4.6366147    1.1172144  1010000 
 5073000   0.74513251   -4.6371183   -4.6371183   -3.5194207   0.01009864   -4.6371183    1.1176977  1010000 
 5074000   0.74492704   -4.6370179   -4.6370179   -3.5196284  0.012338642   -4.6370179    1.1173894  1010000 
 5075000   0.74604182   -4.6386525   -4.6386525   -3.5195909  0.011159858   -4.6386525    1.1190616  1010000 
 5076000    0.7452308   -4.6378896   -4.6378896   -3.5200445  0.014642842   -4.6378896    1.1178451  1010000 
 5077000   0.74572711   -4.6390362   -4.6390362   -3.5204466 0.0088950737   -4.6390362    1.1185896  1010000 
 5078000    0.7450276   -4.6376579   -4.6376579   -3.5201176  0.012906948   -4.6376579    1.1175403  1010000 
 5079000   0.74514381   -4.6379374   -4.6379374   -3.5202228  0.013582032   -4.6379374    1.1177146  1010000 
 5080000   0.74507353   -4.6381025   -4.6381025   -3.5204933  0.013684555   -4.6381025    1.1176092  1010000 
 5081000   0.74540612   -4.6383375   -4.6383375   -3.5202294    0.0135764   -4.6383375    1.1181081  1010000 
 5082000   0.74532813   -4.6386475   -4.6386475   -3.5206564  0.012799854   -4.6386475    1.1179911  1010000 
 5083000   0.74538283    -4.638451    -4.638451   -3.5203779   0.01414149    -4.638451    1.1180731  1010000 
 5084000   0.74492654   -4.6384004   -4.6384004   -3.5210117  0.012914496   -4.6384004    1.1173887  1010000 
 5085000   0.74516868   -4.6387441   -4.6387441   -3.5209922  0.010972696   -4.6387441    1.1177519  1010000 
 5086000   0.74490183    -4.638116    -4.638116   -3.5207644  0.012344714    -4.638116    1.1173516  1010000 
 5087000    0.7451984   -4.6388623   -4.6388623   -3.5210658 0.0072299656   -4.6388623    1.1177965  1010000 
 5088000   0.74452415   -4.6387829   -4.6387829   -3.5219978 0.0069081725   -4.6387829    1.1167851  1010000 
 5089000   0.74415706   -4.6381683   -4.6381683   -3.5219338  0.011905874   -4.6381683    1.1162345  1010000 
 5090000   0.74516563   -4.6390198   -4.6390198   -3.5212725  0.012613932   -4.6390198    1.1177473  1010000 
 5091000   0.74456704   -4.6384445   -4.6384445    -3.521595  0.013557248   -4.6384445    1.1168495  1010000 
 5092000   0.74508399   -4.6395678   -4.6395678   -3.5219429 0.0078090932   -4.6395678    1.1176249  1010000 
 5093000   0.74480033   -4.6392837   -4.6392837   -3.5220843 0.0080291188   -4.6392837    1.1171994  1010000 
 5094000   0.74435504   -4.6387811   -4.6387811   -3.5222497  0.010575572   -4.6387811    1.1165315  1010000 
 5095000   0.74495512   -4.6394247   -4.6394247   -3.5219931   0.01006216   -4.6394247    1.1174316  1010000 
 5096000   0.74435633   -4.6388715   -4.6388715   -3.5223381 0.0075593906   -4.6388715    1.1165334  1010000 
 5097000   0.74315567   -4.6372772   -4.6372772   -3.5225448  0.013043577   -4.6372772    1.1147324  1010000 
 5098000   0.74460953   -4.6393709   -4.6393709   -3.5224577  0.010470061   -4.6393709    1.1169132  1010000 
 5099000   0.74414189   -4.6390745   -4.6390745   -3.5228628 0.0098200289   -4.6390745    1.1162117  1010000 
 5100000   0.74392895   -4.6390911   -4.6390911   -3.5231988 0.0088219264   -4.6390911    1.1158923  1010000 
 5101000   0.74408011   -4.6393204   -4.6393204   -3.5232013 0.0072099311   -4.6393204    1.1161191  1010000 
 5102000   0.74418001   -4.6393853   -4.6393853   -3.5231164 0.0098656402   -4.6393853    1.1162689  1010000 
 5103000   0.74441689   -4.6395698   -4.6395698   -3.5229456 0.0083024543   -4.6395698    1.1166242  1010000 
 5104000   0.74480334   -4.6401271   -4.6401271   -3.5229232 0.0065044255   -4.6401271    1.1172039  1010000 
 5105000   0.74405032   -4.6389865   -4.6389865   -3.5229121   0.01021936   -4.6389865    1.1160744  1010000 
 5106000   0.74383689   -4.6390164   -4.6390164   -3.5232621  0.010248618   -4.6390164    1.1157542  1010000 
 5107000   0.74448045   -4.6398547   -4.6398547   -3.5231351   0.00779398   -4.6398547    1.1167196  1010000 
 5108000   0.74403653   -4.6396373   -4.6396373   -3.5235836   0.01154054   -4.6396373    1.1160537  1010000 
 5109000   0.74460976   -4.6405525   -4.6405525   -3.5236389  0.009553815   -4.6405525    1.1169135  1010000 
 5110000   0.74424393   -4.6400726   -4.6400726   -3.5237078  0.010616218   -4.6400726    1.1163648  1010000 
 5111000   0.74443647   -4.6402362   -4.6402362   -3.5235826  0.010345329   -4.6402362    1.1166536  1010000 
 5112000   0.74411879   -4.6403228   -4.6403228   -3.5241457  0.012044427   -4.6403228    1.1161771  1010000 
 5113000   0.74415277   -4.6404288   -4.6404288   -3.5242007  0.010060659   -4.6404288    1.1162281  1010000 
 5114000   0.74440972   -4.6414369   -4.6414369   -3.5248235 0.0088371671   -4.6414369    1.1166135  1010000 
 5115000   0.74343262   -4.6404862   -4.6404862   -3.5253384  0.011536669   -4.6404862    1.1151478  1010000 
 5116000   0.74420515   -4.6413748   -4.6413748   -3.5250681 0.0097611633   -4.6413748    1.1163066  1010000 
 5117000    0.7440559   -4.6411343   -4.6411343   -3.5250516   0.01090129   -4.6411343    1.1160827  1010000 
 5118000   0.74393437   -4.6409757   -4.6409757   -3.5250752  0.013278083   -4.6409757    1.1159004  1010000 
 5119000   0.74337821   -4.6401272   -4.6401272    -3.525061  0.013870306   -4.6401272    1.1150662  1010000 
 5120000   0.74369855   -4.6408791   -4.6408791   -3.5253323   0.01294397   -4.6408791    1.1155467  1010000 
 5121000   0.74460991   -4.6428399   -4.6428399   -3.5259262 0.0057496576   -4.6428399    1.1169138  1010000 
 5122000   0.74343878   -4.6416029   -4.6416029   -3.5264459  0.010729045   -4.6416029    1.1151571  1010000 
 5123000   0.74388855   -4.6420667   -4.6420667   -3.5262349  0.011186962   -4.6420667    1.1158317  1010000 
 5124000   0.74459371   -4.6434308   -4.6434308   -3.5265414 0.0087620289   -4.6434308    1.1168895  1010000 
 5125000   0.74430288    -4.643121    -4.643121   -3.5266678  0.012606123    -4.643121    1.1164532  1010000 
 5126000    0.7438048   -4.6421336   -4.6421336   -3.5264275  0.015843303   -4.6421336    1.1157061  1010000 
 5127000   0.74415443   -4.6430586   -4.6430586    -3.526828  0.011211995   -4.6430586    1.1162305  1010000 
 5128000    0.7435526   -4.6426718   -4.6426718    -3.527344  0.013421012   -4.6426718    1.1153278  1010000 
 5129000   0.74405735   -4.6428764   -4.6428764   -3.5267915  0.012716211   -4.6428764    1.1160849  1010000 
 5130000   0.74415969   -4.6428412   -4.6428412   -3.5266028  0.012046329   -4.6428412    1.1162384  1010000 
 5131000   0.74438665   -4.6435664   -4.6435664   -3.5269875 0.0064854518   -4.6435664    1.1165789  1010000 
 5132000   0.74395666   -4.6430568   -4.6430568   -3.5271229 0.0088892246   -4.6430568    1.1159339  1010000 
 5133000   0.74404233   -4.6432182   -4.6432182   -3.5271558  0.013282538   -4.6432182    1.1160624  1010000 
 5134000     0.744519   -4.6441101   -4.6441101   -3.5273327  0.012465295   -4.6441101    1.1167774  1010000 
 5135000   0.74357439   -4.6432215   -4.6432215    -3.527861  0.014136817   -4.6432215    1.1153605  1010000 
 5136000   0.74391668   -4.6431324   -4.6431324   -3.5272585  0.014083583   -4.6431324    1.1158739  1010000 
 5137000   0.74448555   -4.6439906   -4.6439906   -3.5272634  0.011669222   -4.6439906    1.1167272  1010000 
 5138000    0.7442978   -4.6439413   -4.6439413   -3.5274957  0.014721484   -4.6439413    1.1164456  1010000 
 5139000   0.74421288   -4.6437061   -4.6437061   -3.5273879   0.01397574   -4.6437061    1.1163182  1010000 
 5140000    0.7439032   -4.6436302   -4.6436302   -3.5277765  0.012078944   -4.6436302    1.1158537  1010000 
 5141000   0.74449387   -4.6444183   -4.6444183   -3.5276786  0.010903598   -4.6444183    1.1167397  1010000 
 5142000   0.74392547   -4.6437269   -4.6437269   -3.5278398  0.012648663   -4.6437269    1.1158871  1010000 
 5143000   0.74334726   -4.6431211   -4.6431211   -3.5281014  0.014131212   -4.6431211    1.1150198  1010000 
 5144000   0.74396369   -4.6439593   -4.6439593   -3.5280149 0.0063109488   -4.6439593    1.1159444  1010000 
 5145000   0.74379591   -4.6437122   -4.6437122   -3.5280194 0.0097391256   -4.6437122    1.1156928  1010000 
 5146000   0.74312142   -4.6427143   -4.6427143   -3.5280332   0.01017564   -4.6427143     1.114681  1010000 
 5147000   0.74374905   -4.6442036   -4.6442036   -3.5285812  0.005629759   -4.6442036    1.1156225  1010000 
 5148000   0.74313076    -4.643292    -4.643292    -3.528597 0.0074782335    -4.643292     1.114695  1010000 
 5149000   0.74238554   -4.6420629   -4.6420629   -3.5284857  0.011338365   -4.6420629    1.1135772  1010000 
 5150000   0.74353193   -4.6435696   -4.6435696   -3.5282728 0.0058680995   -4.6435696    1.1152968  1010000 
 5151000   0.74263752   -4.6426642   -4.6426642    -3.528709 0.0068595828   -4.6426642    1.1139552  1010000 
 5152000   0.74273867    -4.642911    -4.642911   -3.5288041 0.0081516206    -4.642911    1.1141069  1010000 
 5153000   0.74321102   -4.6434246   -4.6434246   -3.5286091 0.0074598053   -4.6434246    1.1148154  1010000 
 5154000   0.74311827   -4.6434837   -4.6434837   -3.5288074 0.0092715083   -4.6434837    1.1146763  1010000 
 5155000   0.74270981   -4.6426277   -4.6426277   -3.5285641 0.0098916663   -4.6426277    1.1140636  1010000 
 5156000    0.7430075   -4.6432256   -4.6432256   -3.5287155  0.010466325   -4.6432256    1.1145101  1010000 
 5157000   0.74318867   -4.6437393   -4.6437393   -3.5289574 0.0092263824   -4.6437393    1.1147819  1010000 
 5158000   0.74295537   -4.6437182   -4.6437182   -3.5292862 0.0090930581   -4.6437182    1.1144319  1010000 
 5159000   0.74365883    -4.644585    -4.644585   -3.5290979 0.0088228298    -4.644585    1.1154871  1010000 
 5160000   0.74338595   -4.6445277   -4.6445277   -3.5294499  0.010004352   -4.6445277    1.1150778  1010000 
 5161000    0.7430422   -4.6439077   -4.6439077   -3.5293455  0.010672719   -4.6439077    1.1145622  1010000 
 5162000   0.74325337    -4.643949    -4.643949   -3.5290701   0.01012167    -4.643949    1.1148789  1010000 
 5163000   0.74255887   -4.6433855   -4.6433855   -3.5295483  0.007945537   -4.6433855    1.1138372  1010000 
 5164000   0.74348839   -4.6449726   -4.6449726   -3.5297411 0.0040679766   -4.6449726    1.1152315  1010000 
 5165000   0.74297036   -4.6443181   -4.6443181   -3.5298637 0.0066264459   -4.6443181    1.1144544  1010000 
 5166000   0.74283358   -4.6440439   -4.6440439   -3.5297946 0.0073830429   -4.6440439    1.1142493  1010000 
 5167000   0.74271713   -4.6441741   -4.6441741   -3.5300995 0.0063468228   -4.6441741    1.1140746  1010000 
 5168000   0.74282574   -4.6447296   -4.6447296   -3.5304921 0.0071593513   -4.6447296    1.1142375  1010000 
 5169000   0.74261294   -4.6450067   -4.6450067   -3.5310884 0.0092036269   -4.6450067    1.1139183  1010000 
 5170000   0.74259923   -4.6454612   -4.6454612   -3.5315634 0.0098473973   -4.6454612    1.1138977  1010000 
 5171000    0.7431724   -4.6460675   -4.6460675     -3.53131   0.01199246   -4.6460675    1.1147575  1010000 
 5172000   0.74278827   -4.6458339   -4.6458339   -3.5316526  0.010834869   -4.6458339    1.1141813  1010000 
 5173000   0.74321857   -4.6458903   -4.6458903   -3.5310636  0.011788141   -4.6458903    1.1148268  1010000 
 5174000   0.74318195   -4.6458464   -4.6458464   -3.5310745  0.013383555   -4.6458464    1.1147718  1010000 
 5175000   0.74378687   -4.6469263   -4.6469263   -3.5312471  0.012590997   -4.6469263    1.1156792  1010000 
 5176000   0.74344111    -4.646422    -4.646422   -3.5312615  0.016576583    -4.646422    1.1151606  1010000 
 5177000   0.74287408   -4.6463157   -4.6463157   -3.5320057   0.01509736   -4.6463157      1.11431  1010000 
 5178000   0.74329413   -4.6468832   -4.6468832   -3.5319431  0.015101435   -4.6468832    1.1149401  1010000 
 5179000   0.74360184   -4.6474509   -4.6474509   -3.5320493  0.012275522   -4.6474509    1.1154017  1010000 
 5180000   0.74361664   -4.6481173   -4.6481173   -3.5326935  0.011895622   -4.6481173    1.1154239  1010000 
 5181000   0.74327409    -4.648158    -4.648158    -3.533248 0.0099685342    -4.648158      1.11491  1010000 
 5182000   0.74240181   -4.6473084   -4.6473084   -3.5337068 0.0099068353   -4.6473084    1.1136016  1010000 
 5183000   0.74214415    -4.647319    -4.647319   -3.5341039  0.010105711    -4.647319    1.1132151  1010000 
 5184000    0.7424924   -4.6473915   -4.6473915    -3.533654  0.010407666   -4.6473915    1.1137375  1010000 
 5185000    0.7426206   -4.6477536   -4.6477536   -3.5338238  0.013381737   -4.6477536    1.1139298  1010000 
 5186000   0.74260959   -4.6474118   -4.6474118   -3.5334986  0.012270376   -4.6474118    1.1139133  1010000 
 5187000   0.74293409   -4.6474666   -4.6474666   -3.5330666  0.012652277   -4.6474666       1.1144  1010000 
 5188000   0.74354694    -4.649052    -4.649052   -3.5337327   0.01291864    -4.649052    1.1153193  1010000 
 5189000   0.74229005   -4.6473079   -4.6473079   -3.5338739  0.013706795   -4.6473079     1.113434  1010000 
 5190000   0.74310867   -4.6483248   -4.6483248   -3.5336629  0.013588638   -4.6483248    1.1146619  1010000 
 5191000   0.74343251   -4.6483312   -4.6483312   -3.5331836  0.012317344   -4.6483312    1.1151477  1010000 
 5192000   0.74350868   -4.6486942   -4.6486942   -3.5334323  0.011858128   -4.6486942    1.1152619  1010000 
 5193000   0.74271317   -4.6476622   -4.6476622   -3.5335936  0.014708211   -4.6476622    1.1140686  1010000 
 5194000   0.74377669   -4.6489378   -4.6489378   -3.5332738  0.015549079   -4.6489378    1.1156639  1010000 
 5195000   0.74344784     -4.64865     -4.64865   -3.5334794   0.01331315     -4.64865    1.1151707  1010000 
 5196000   0.74277734   -4.6478244   -4.6478244   -3.5336594  0.015397099   -4.6478244    1.1141649  1010000 
 5197000   0.74355581   -4.6494152   -4.6494152   -3.5340826 0.0091570047   -4.6494152    1.1153326  1010000 
 5198000   0.74268283   -4.6487413   -4.6487413   -3.5347181  0.010420367   -4.6487413    1.1140231  1010000 
 5199000   0.74234349   -4.6484105   -4.6484105   -3.5348964  0.011879036   -4.6484105    1.1135141  1010000 
 5200000    0.7418522   -4.6486185   -4.6486185   -3.5358413  0.010109347   -4.6486185    1.1127772  1010000 
 5201000   0.74179368    -4.648365    -4.648365   -3.5356756 0.0077194451    -4.648365    1.1126894  1010000 
 5202000   0.74252738   -4.6492486   -4.6492486   -3.5354586 0.0049409081   -4.6492486      1.11379  1010000 
 5203000   0.74197525   -4.6481437   -4.6481437   -3.5351819 0.0099074816   -4.6481437    1.1129618  1010000 
 5204000   0.74144642   -4.6470084   -4.6470084   -3.5348398 0.0083343209   -4.6470084    1.1121685  1010000 
 5205000   0.74175997   -4.6479276   -4.6479276   -3.5352887  0.006815014   -4.6479276    1.1126389  1010000 
 5206000   0.74210336   -4.6491097   -4.6491097   -3.5359558 0.0069924673   -4.6491097    1.1131539  1010000 
 5207000   0.74116078   -4.6479672   -4.6479672   -3.5362271  0.010824086   -4.6479672    1.1117401  1010000 
 5208000   0.74186158    -4.649045    -4.649045   -3.5362538 0.0093998051    -4.649045    1.1127913  1010000 
 5209000    0.7415042   -4.6490255   -4.6490255   -3.5367703 0.0063861839   -4.6490255    1.1122552  1010000 
 5210000   0.74190864   -4.6494966   -4.6494966   -3.5366348 0.0064415944   -4.6494966    1.1128619  1010000 
 5211000   0.74213367   -4.6493609   -4.6493609   -3.5361615  0.009272976   -4.6493609    1.1131994  1010000 
 5212000    0.7420237   -4.6495502   -4.6495502   -3.5365158  0.010125151   -4.6495502    1.1130344  1010000 
 5213000   0.74112529   -4.6481753   -4.6481753   -3.5364885  0.012481684   -4.6481753    1.1116868  1010000 
 5214000     0.741733   -4.6494443   -4.6494443   -3.5368459 0.0091248107   -4.6494443    1.1125984  1010000 
 5215000   0.74153598    -4.648945    -4.648945   -3.5366421 0.0093946863    -4.648945    1.1123029  1010000 
 5216000   0.74215495   -4.6497489   -4.6497489   -3.5365176 0.0070772605   -4.6497489    1.1132313  1010000 
 5217000   0.74165145   -4.6488489   -4.6488489   -3.5363729     0.011368   -4.6488489    1.1124761  1010000 
 5218000   0.74223341   -4.6495447   -4.6495447   -3.5361957 0.0096411771   -4.6495447     1.113349  1010000 
 5219000    0.7424291   -4.6503381   -4.6503381   -3.5366955 0.0096074139   -4.6503381    1.1136425  1010000 
 5220000   0.74190728   -4.6499377   -4.6499377   -3.5370779  0.012764313   -4.6499377    1.1128598  1010000 
 5221000   0.74186336   -4.6500115   -4.6500115   -3.5372176  0.011396279   -4.6500115    1.1127939  1010000 
 5222000   0.74284053   -4.6514876   -4.6514876    -3.537228  0.012035658   -4.6514876    1.1142597  1010000 
 5223000   0.74249704   -4.6507657   -4.6507657   -3.5370213  0.011782342   -4.6507657    1.1137445  1010000 
 5224000   0.74253045   -4.6510065   -4.6510065   -3.5372119  0.013912806   -4.6510065    1.1137946  1010000 
 5225000   0.74273691   -4.6513936   -4.6513936   -3.5372893  0.012921817   -4.6513936    1.1141043  1010000 
 5226000   0.74263768    -4.651411    -4.651411   -3.5374555  0.013788761    -4.651411    1.1139554  1010000 
 5227000    0.7424174   -4.6506512   -4.6506512   -3.5370262   0.01418562   -4.6506512     1.113625  1010000 
 5228000   0.74307477   -4.6521495   -4.6521495   -3.5375384  0.011727171   -4.6521495    1.1146111  1010000 
 5229000   0.74252144   -4.6513717   -4.6513717   -3.5375906  0.014400228   -4.6513717    1.1137811  1010000 
 5230000    0.7421978   -4.6515395   -4.6515395   -3.5382439  0.012254182   -4.6515395    1.1132956  1010000 
 5231000   0.74150039   -4.6504195   -4.6504195     -3.53817  0.013105361   -4.6504195    1.1122495  1010000 
 5232000   0.74183628   -4.6513922   -4.6513922   -3.5386389  0.011271312   -4.6513922    1.1127533  1010000 
 5233000   0.74157875   -4.6510955   -4.6510955   -3.5387285  0.013046363   -4.6510955     1.112367  1010000 
 5234000   0.74200465   -4.6519311   -4.6519311   -3.5389252 0.0095226964   -4.6519311    1.1130059  1010000 
 5235000   0.74195548   -4.6517951   -4.6517951    -3.538863 0.0093045508   -4.6517951    1.1129321  1010000 
 5236000   0.74159172   -4.6515307   -4.6515307   -3.5391443  0.010642504   -4.6515307    1.1123865  1010000 
 5237000   0.74188693   -4.6515523   -4.6515523    -3.538723  0.011305034   -4.6515523    1.1128293  1010000 
 5238000   0.74100958   -4.6507162   -4.6507162   -3.5392029  0.015954806   -4.6507162    1.1115133  1010000 
 5239000   0.74227548   -4.6524609   -4.6524609   -3.5390487  0.011449828   -4.6524609    1.1134121  1010000 
 5240000   0.74203133   -4.6515535   -4.6515535   -3.5385076  0.011142086   -4.6515535    1.1130459  1010000 
 5241000   0.74169899   -4.6510691   -4.6510691   -3.5385217  0.012334791   -4.6510691    1.1125474  1010000 
 5242000   0.74208992   -4.6516652   -4.6516652   -3.5385314  0.010733499   -4.6516652    1.1131338  1010000 
 5243000   0.74168165   -4.6508519   -4.6508519   -3.5383306  0.011579403   -4.6508519    1.1125214  1010000 
 5244000   0.74171618    -4.650841    -4.650841   -3.5382679  0.011304198    -4.650841    1.1125732  1010000 
 5245000   0.74167298   -4.6507673   -4.6507673   -3.5382589  0.012839833   -4.6507673    1.1125084  1010000 
 5246000   0.74142758   -4.6509124   -4.6509124   -3.5387722  0.012110715   -4.6509124    1.1121403  1010000 
 5247000   0.74153911   -4.6513462   -4.6513462   -3.5390387  0.011780475   -4.6513462    1.1123076  1010000 
 5248000   0.74130349   -4.6512195   -4.6512195   -3.5392653 0.0082114856   -4.6512195    1.1119541  1010000 
 5249000   0.74209852   -4.6525727   -4.6525727   -3.5394261 0.0087627324   -4.6525727    1.1131467  1010000 
 5250000   0.74088658   -4.6509412   -4.6509412   -3.5396124 0.0078475791   -4.6509412    1.1113288  1010000 
 5251000   0.74103456   -4.6513235   -4.6513235   -3.5397728 0.0061749958   -4.6513235    1.1115507  1010000 
 5252000   0.74063704   -4.6513568   -4.6513568   -3.5404023 0.0046336533   -4.6513568    1.1109545  1010000 
 5253000   0.74039021   -4.6508625   -4.6508625   -3.5402783 0.0075945027   -4.6508625    1.1105842  1010000 
 5254000   0.74100733   -4.6513935   -4.6513935   -3.5398837 0.0086533012   -4.6513935    1.1115099  1010000 
 5255000   0.74124308    -4.652086    -4.652086   -3.5402225 0.0074288998    -4.652086    1.1118635  1010000 
 5256000   0.74139198   -4.6529492   -4.6529492   -3.5408624  0.012991197   -4.6529492    1.1120869  1010000 
 5257000   0.74155358   -4.6527731   -4.6527731   -3.5404439 0.0076776785   -4.6527731    1.1123293  1010000 
 5258000   0.74122846   -4.6522945   -4.6522945   -3.5404529 0.0093075079   -4.6522945    1.1118416  1010000 
 5259000   0.74019743   -4.6511512   -4.6511512   -3.5408562  0.011981635   -4.6511512     1.110295  1010000 
 5260000   0.74133222   -4.6529864   -4.6529864   -3.5409891 0.0093464306   -4.6529864    1.1119972  1010000 
 5261000   0.74141002    -4.653046    -4.653046    -3.540932 0.0071320474    -4.653046    1.1121139  1010000 
 5262000   0.74075451   -4.6523429   -4.6523429   -3.5412122  0.013489907   -4.6523429    1.1111307  1010000 
 5263000   0.74111382   -4.6525976   -4.6525976    -3.540928  0.013058144   -4.6525976    1.1116696  1010000 
 5264000   0.74177842   -4.6539456   -4.6539456   -3.5412791  0.010646039   -4.6539456    1.1126665  1010000 
 5265000   0.74149621   -4.6537012   -4.6537012    -3.541458   0.01288038   -4.6537012    1.1122432  1010000 
 5266000    0.7414876   -4.6536647   -4.6536647   -3.5414344  0.011254502   -4.6536647    1.1122303  1010000 
 5267000   0.74139289   -4.6535458   -4.6535458   -3.5414576   0.01186319   -4.6535458    1.1120882  1010000 
 5268000    0.7410019   -4.6535075   -4.6535075   -3.5420058  0.013515915   -4.6535075    1.1115017  1010000 
 5269000   0.74184964   -4.6549956   -4.6549956   -3.5422222  0.011550078   -4.6549956    1.1127734  1010000 
 5270000   0.74141468    -4.654725    -4.654725   -3.5426041  0.013669027    -4.654725    1.1121209  1010000 
 5271000   0.74124496   -4.6550659   -4.6550659   -3.5431995  0.011025294   -4.6550659    1.1118663  1010000 
 5272000   0.74154615    -4.655627    -4.655627   -3.5433088   0.01138928    -4.655627    1.1123181  1010000 
 5273000   0.74137293   -4.6553834   -4.6553834   -3.5433251  0.010079367   -4.6553834    1.1120583  1010000 
 5274000   0.74152364   -4.6558685   -4.6558685   -3.5435842  0.010683838   -4.6558685    1.1122844  1010000 
 5275000   0.74106527    -4.654689    -4.654689   -3.5430922  0.013177657    -4.654689    1.1115968  1010000 
 5276000   0.74226021    -4.656143    -4.656143   -3.5427538  0.011512136    -4.656143    1.1133892  1010000 
 5277000   0.74112688   -4.6549346   -4.6549346   -3.5432454  0.014346487   -4.6549346    1.1116892  1010000 
 5278000   0.74172433   -4.6560857   -4.6560857   -3.5435003  0.010634592   -4.6560857    1.1125854  1010000 
 5279000   0.74122038   -4.6552356   -4.6552356   -3.5434061   0.01199506   -4.6552356    1.1118295  1010000 
 5280000   0.74125533   -4.6554106   -4.6554106   -3.5435287  0.011994805   -4.6554106    1.1118819  1010000 
 5281000   0.74154227   -4.6553058   -4.6553058   -3.5429935  0.014400808   -4.6553058    1.1123123  1010000 
 5282000   0.74185558   -4.6554665   -4.6554665   -3.5426843  0.013425779   -4.6554665    1.1127823  1010000 
 5283000   0.74148372   -4.6554884   -4.6554884   -3.5432639  0.014519276   -4.6554884    1.1122245  1010000 
 5284000   0.74141734   -4.6554085   -4.6554085   -3.5432836  0.013618513   -4.6554085    1.1121249  1010000 
 5285000   0.74146824    -4.655592    -4.655592   -3.5433907  0.017270915    -4.655592    1.1122013  1010000 
 5286000   0.74159302   -4.6560053   -4.6560053   -3.5436169  0.013282406   -4.6560053    1.1123884  1010000 
 5287000   0.74176087   -4.6560726   -4.6560726   -3.5434324  0.013285915   -4.6560726    1.1126402  1010000 
 5288000   0.74188659   -4.6564349   -4.6564349   -3.5436061  0.011554809   -4.6564349    1.1128288  1010000 
 5289000   0.74157814   -4.6562825   -4.6562825   -3.5439163  0.011782692   -4.6562825    1.1123661  1010000 
 5290000    0.7413762    -4.655946    -4.655946   -3.5438828  0.013197457    -4.655946    1.1120632  1010000 
 5291000   0.74145974   -4.6563925   -4.6563925    -3.544204  0.014590322   -4.6563925    1.1121885  1010000 
 5292000   0.74058417   -4.6552137   -4.6552137   -3.5443386  0.012113366   -4.6552137    1.1108752  1010000 
 5293000   0.74045739   -4.6555149   -4.6555149   -3.5448299 0.0069434056   -4.6555149     1.110685  1010000 
 5294000   0.74032563   -4.6553214   -4.6553214   -3.5448341  0.010016242   -4.6553214    1.1104873  1010000 
 5295000   0.74010629   -4.6552106   -4.6552106   -3.5450522 0.0076000277   -4.6552106    1.1101583  1010000 
 5296000   0.74088465    -4.655705    -4.655705   -3.5443791 0.0086234297    -4.655705    1.1113259  1010000 
 5297000   0.74096735    -4.655548    -4.655548    -3.544098 0.0081041673    -4.655548    1.1114499  1010000 
 5298000    0.7405101   -4.6550219   -4.6550219   -3.5442579  0.008018214   -4.6550219     1.110764  1010000 
 5299000   0.74096978   -4.6554901   -4.6554901   -3.5440365 0.0050938639   -4.6554901    1.1114536  1010000 
 5300000     0.740885   -4.6552842   -4.6552842   -3.5439578 0.0085801055   -4.6552842    1.1113264  1010000 
 5301000   0.74065375   -4.6550236   -4.6550236    -3.544044 0.0090741645   -4.6550236    1.1109795  1010000 
 5302000   0.74014327   -4.6546229   -4.6546229   -3.5444091 0.0092042735   -4.6546229    1.1102138  1010000 
 5303000   0.73953444   -4.6541396   -4.6541396   -3.5448391   0.01225283   -4.6541396    1.1093006  1010000 
 5304000   0.73983754   -4.6549802   -4.6549802    -3.545225 0.0095800634   -4.6549802    1.1097552  1010000 
 5305000   0.74007786   -4.6557654   -4.6557654   -3.5456497 0.0095177508   -4.6557654    1.1101157  1010000 
 5306000   0.74101289   -4.6571745   -4.6571745   -3.5456562 0.0043460676   -4.6571745    1.1115182  1010000 
 5307000   0.74017647   -4.6557277   -4.6557277   -3.5454641 0.0099998005   -4.6557277    1.1102636  1010000 
 5308000   0.74042274   -4.6564926   -4.6564926   -3.5458596 0.0077668624   -4.6564926     1.110633  1010000 
 5309000   0.73978844    -4.655401    -4.655401   -3.5457195  0.010585504    -4.655401    1.1096816  1010000 
 5310000   0.74004816   -4.6559509   -4.6559509   -3.5458798 0.0080040075   -4.6559509    1.1100711  1010000 
 5311000   0.73971799   -4.6550777   -4.6550777   -3.5455018   0.01124185   -4.6550777    1.1095759  1010000 
 5312000   0.74001203    -4.655886    -4.655886    -3.545869 0.0060965233    -4.655886    1.1100169  1010000 
 5313000   0.74028366   -4.6565032   -4.6565032   -3.5460788 0.0054542323   -4.6565032    1.1104244  1010000 
 5314000   0.74027663   -4.6566917   -4.6566917   -3.5462778 0.0068765129   -4.6566917    1.1104138  1010000 
 5315000    0.7405051   -4.6569184   -4.6569184   -3.5461619  0.009892495   -4.6569184    1.1107565  1010000 
 5316000    0.7408867   -4.6571887   -4.6571887   -3.5458597  0.011102616   -4.6571887    1.1113289  1010000 
 5317000   0.74140555   -4.6586156   -4.6586156   -3.5465084 0.0094792754   -4.6586156    1.1121072  1010000 
 5318000   0.74054617   -4.6574298   -4.6574298   -3.5466117  0.015978287   -4.6574298    1.1108182  1010000 
 5319000   0.74123187   -4.6587972   -4.6587972   -3.5469505  0.013271437   -4.6587972    1.1118467  1010000 
 5320000   0.74131921   -4.6590227   -4.6590227   -3.5470449  0.013058969   -4.6590227    1.1119777  1010000 
 5321000   0.74031638    -4.658157    -4.658157   -3.5476835  0.013220088    -4.658157    1.1104735  1010000 
 5322000   0.74005548   -4.6583779   -4.6583779   -3.5482958  0.014097867   -4.6583779    1.1100821  1010000 
 5323000   0.74089052   -4.6591832   -4.6591832   -3.5478485 0.0093467213   -4.6591832    1.1113347  1010000 
 5324000   0.73931617    -4.656908    -4.656908   -3.5479348  0.014817913    -4.656908    1.1089732  1010000 
 5325000   0.73995925   -4.6582103   -4.6582103   -3.5482725  0.013478951   -4.6582103    1.1099378  1010000 
 5326000   0.74041634   -4.6595172   -4.6595172   -3.5488938 0.0097855367   -4.6595172    1.1106234  1010000 
 5327000   0.73980417   -4.6587504   -4.6587504   -3.5490453  0.011224366   -4.6587504    1.1097052  1010000 
 5328000   0.74052968   -4.6600064   -4.6600064    -3.549213 0.0092628094   -4.6600064    1.1107934  1010000 
 5329000   0.73937446   -4.6583495   -4.6583495   -3.5492889  0.012901797   -4.6583495    1.1090606  1010000 
 5330000   0.73955014    -4.659116    -4.659116   -3.5497918  0.014268907    -4.659116    1.1093241  1010000 
 5331000   0.74115837   -4.6610822   -4.6610822   -3.5493458  0.011182625   -4.6610822    1.1117365  1010000 
 5332000    0.7401131   -4.6596817   -4.6596817   -3.5495132  0.014459758   -4.6596817    1.1101685  1010000 
 5333000   0.74039996   -4.6598698   -4.6598698    -3.549271  0.011206957   -4.6598698    1.1105988  1010000 
 5334000     0.740297   -4.6599521   -4.6599521   -3.5495077  0.014009321   -4.6599521    1.1104444  1010000 
 5335000   0.74092541   -4.6617884   -4.6617884   -3.5504014  0.010932166   -4.6617884     1.111387  1010000 
 5336000   0.74032058   -4.6607211   -4.6607211   -3.5502414   0.01116098   -4.6607211    1.1104798  1010000 
 5337000   0.74075006   -4.6609787   -4.6609787   -3.5498547  0.013103978   -4.6609787     1.111124  1010000 
 5338000   0.74039842   -4.6603827   -4.6603827   -3.5497861  0.014054006   -4.6603827    1.1105965  1010000 
 5339000    0.7400391   -4.6605199   -4.6605199   -3.5504624  0.010253127   -4.6605199    1.1100575  1010000 
 5340000   0.74020495   -4.6613928   -4.6613928   -3.5510864 0.0099607831   -4.6613928    1.1103063  1010000 
 5341000   0.73967632   -4.6607449   -4.6607449   -3.5512315  0.007841491   -4.6607449    1.1095134  1010000 
 5342000    0.7391017   -4.6598955   -4.6598955    -3.551244  0.012457742   -4.6598955    1.1086515  1010000 
 5343000   0.73878984   -4.6596411   -4.6596411   -3.5514574  0.011189087   -4.6596411    1.1081837  1010000 
 5344000   0.73972544   -4.6609546   -4.6609546   -3.5513676  0.007032578   -4.6609546    1.1095871  1010000 
 5345000   0.73897463   -4.6597222   -4.6597222   -3.5512613 0.0099350855   -4.6597222    1.1084608  1010000 
 5346000   0.73891132   -4.6598794   -4.6598794   -3.5515135  0.010672823   -4.6598794    1.1083659  1010000 
 5347000   0.73930597   -4.6602429   -4.6602429   -3.5512851  0.011123563   -4.6602429    1.1089579  1010000 
 5348000   0.73896236   -4.6601807   -4.6601807   -3.5517383 0.0081860284   -4.6601807    1.1084424  1010000 
 5349000   0.73972053   -4.6617804   -4.6617804   -3.5522007 0.0055354896   -4.6617804    1.1095797  1010000 
 5350000   0.73867121   -4.6604923   -4.6604923   -3.5524866 0.0091087962   -4.6604923    1.1080057  1010000 
 5351000   0.73954052    -4.661793    -4.661793   -3.5524833 0.0067907674    -4.661793    1.1093097  1010000 
 5352000   0.73890748   -4.6610196   -4.6610196   -3.5526595 0.0097075308   -4.6610196    1.1083601  1010000 
 5353000    0.7384939   -4.6602463   -4.6602463   -3.5525066  0.011910772   -4.6602463    1.1077398  1010000 
 5354000   0.73865216   -4.6609946   -4.6609946   -3.5530175 0.0089031752   -4.6609946    1.1079771  1010000 
 5355000   0.73860651    -4.660798    -4.660798   -3.5528893 0.0088170726    -4.660798    1.1079087  1010000 
 5356000   0.73910904   -4.6616383   -4.6616383   -3.5529758 0.0085274718   -4.6616383    1.1086625  1010000 
 5357000   0.73814119   -4.6603073   -4.6603073   -3.5530966  0.012344733   -4.6603073    1.1072107  1010000 
 5358000   0.73854425   -4.6610729   -4.6610729   -3.5532577 0.0095995515   -4.6610729    1.1078153  1010000 
 5359000   0.73880434   -4.6612791   -4.6612791   -3.5530737  0.011048807   -4.6612791    1.1082054  1010000 
 5360000    0.7389228   -4.6616549   -4.6616549   -3.5532718 0.0071730509   -4.6616549    1.1083831  1010000 
 5361000   0.73920804   -4.6620142   -4.6620142   -3.5532032  0.010401929   -4.6620142     1.108811  1010000 
 5362000   0.73934161   -4.6624564   -4.6624564   -3.5534451 0.0075349532   -4.6624564    1.1090113  1010000 
 5363000   0.73895424   -4.6621882   -4.6621882    -3.553758  0.014003965   -4.6621882    1.1084303  1010000 
 5364000   0.73947585   -4.6630106   -4.6630106   -3.5537979  0.011169231   -4.6630106    1.1092127  1010000 
 5365000   0.73966334   -4.6631035   -4.6631035   -3.5536096  0.012366347   -4.6631035    1.1094939  1010000 
 5366000    0.7394689   -4.6630794   -4.6630794   -3.5538772   0.01443247   -4.6630794    1.1092022  1010000 
 5367000   0.73931995   -4.6632953   -4.6632953   -3.5543165 0.0098774794   -4.6632953    1.1089788  1010000 
 5368000   0.73894645   -4.6627513   -4.6627513   -3.5543328  0.010440384   -4.6627513    1.1084186  1010000 
 5369000   0.73989708   -4.6638455   -4.6638455    -3.554001  0.010648632   -4.6638455    1.1098445  1010000 
 5370000   0.73962179    -4.664066    -4.664066   -3.5546344  0.012644426    -4.664066    1.1094316  1010000 
 5371000   0.73937252   -4.6636505   -4.6636505   -3.5545928  0.013397672   -4.6636505    1.1090577  1010000 
 5372000   0.73955707    -4.663641    -4.663641   -3.5543065  0.010312593    -4.663641    1.1093345  1010000 
 5373000   0.73999576   -4.6648488   -4.6648488   -3.5548562  0.007457555   -4.6648488    1.1099925  1010000 
 5374000   0.73979495   -4.6647718   -4.6647718   -3.5550804  0.010592781   -4.6647718    1.1096913  1010000 
 5375000   0.73922341   -4.6645602   -4.6645602   -3.5557262  0.012757806   -4.6645602     1.108834  1010000 
 5376000   0.73943337   -4.6644649   -4.6644649    -3.555316  0.013335478   -4.6644649     1.109149  1010000 
 5377000   0.73864572   -4.6643511   -4.6643511   -3.5563836  0.012714155   -4.6643511    1.1079675  1010000 
 5378000    0.7390676   -4.6653376   -4.6653376   -3.5567373  0.011372297   -4.6653376    1.1086003  1010000 
 5379000   0.73937317   -4.6654173   -4.6654173   -3.5563586  0.012280344   -4.6654173    1.1090587  1010000 
 5380000   0.73932162   -4.6656164   -4.6656164   -3.5566351  0.010815406   -4.6656164    1.1089813  1010000 
 5381000   0.73905356   -4.6657325   -4.6657325   -3.5571532  0.012105096   -4.6657325    1.1085792  1010000 
 5382000   0.73959787   -4.6659439   -4.6659439   -3.5565482  0.011487509   -4.6659439    1.1093957  1010000 
 5383000   0.73959536   -4.6664387   -4.6664387   -3.5570467  0.008267935   -4.6664387    1.1093919  1010000 
 5384000   0.73882241   -4.6648963   -4.6648963   -3.5566638  0.016626815   -4.6648963    1.1082325  1010000 
 5385000   0.73873185     -4.66498     -4.66498   -3.5568833  0.014037489     -4.66498    1.1080967  1010000 
 5386000   0.73859277   -4.6650871   -4.6650871   -3.5571991  0.010943911   -4.6650871    1.1078881  1010000 
 5387000    0.7390674   -4.6657965   -4.6657965   -3.5571965 0.0094233091   -4.6657965       1.1086  1010000 
 5388000   0.73882159   -4.6651927   -4.6651927   -3.5569614 0.0089207315   -4.6651927    1.1082313  1010000 
 5389000   0.73856624    -4.664852    -4.664852   -3.5570038  0.010162048    -4.664852    1.1078483  1010000 
 5390000   0.73944117   -4.6661765   -4.6661765   -3.5570159  0.010577461   -4.6661765    1.1091607  1010000 
 5391000    0.7393639   -4.6661351   -4.6661351   -3.5570904   0.01003751   -4.6661351    1.1090447  1010000 
 5392000   0.73820387   -4.6647455   -4.6647455   -3.5574407  0.011049812   -4.6647455    1.1073047  1010000 
 5393000   0.73849998    -4.664948    -4.664948   -3.5571991  0.011449328    -4.664948    1.1077489  1010000 
 5394000     0.738866   -4.6655044   -4.6655044   -3.5572065  0.011828645   -4.6655044    1.1082979  1010000 
 5395000   0.73888557   -4.6657855   -4.6657855   -3.5574582  0.010131188   -4.6657855    1.1083273  1010000 
 5396000   0.73871028   -4.6654318   -4.6654318   -3.5573675  0.011173903   -4.6654318    1.1080643  1010000 
 5397000   0.73796381   -4.6647117   -4.6647117   -3.5577671  0.011058983   -4.6647117    1.1069446  1010000 
 5398000   0.73807049   -4.6650219   -4.6650219   -3.5579172 0.0096428613   -4.6650219    1.1071046  1010000 
 5399000   0.73790073   -4.6653868   -4.6653868   -3.5585368 0.0088899353   -4.6653868      1.10685  1010000 
 5400000   0.73825467   -4.6655497   -4.6655497   -3.5581688 0.0081130379   -4.6655497    1.1073809  1010000 
 5401000    0.7382649   -4.6655533   -4.6655533    -3.558157 0.0078541229   -4.6655533    1.1073963  1010000 
 5402000   0.73834447   -4.6655491   -4.6655491   -3.5580335 0.0074659722   -4.6655491    1.1075156  1010000 
 5403000   0.73772262   -4.6648527   -4.6648527   -3.5582698 0.0079928597   -4.6648527    1.1065828  1010000 
 5404000   0.73741819   -4.6646677   -4.6646677   -3.5585415 0.0087619792   -4.6646677    1.1061262  1010000 
 5405000   0.73827142   -4.6659978   -4.6659978   -3.5585918 0.0074352209   -4.6659978     1.107406  1010000 
 5406000   0.73733494   -4.6646716   -4.6646716   -3.5586703  0.008267598   -4.6646716    1.1060013  1010000 
 5407000   0.73813253   -4.6653861   -4.6653861   -3.5581884 0.0088811039   -4.6653861    1.1071977  1010000 
 5408000   0.73831549   -4.6653454   -4.6653454   -3.5578732  0.010170195   -4.6653454    1.1074721  1010000 
 5409000   0.73828288   -4.6655013   -4.6655013    -3.558078  0.010532132   -4.6655013    1.1074232  1010000 
 5410000   0.73798334   -4.6649829   -4.6649829    -3.558009  0.012175421   -4.6649829    1.1069739  1010000 
 5411000   0.73785688    -4.664767    -4.664767   -3.5579828  0.012389898    -4.664767    1.1067842  1010000 
 5412000   0.73861518   -4.6662726   -4.6662726   -3.5583509 0.0097292672   -4.6662726    1.1079217  1010000 
 5413000   0.73761214   -4.6652132   -4.6652132   -3.5587961  0.014065514   -4.6652132    1.1064171  1010000 
 5414000   0.73855987   -4.6664053   -4.6664053   -3.5585666   0.01084694   -4.6664053    1.1078387  1010000 
 5415000    0.7381762   -4.6664213   -4.6664213   -3.5591581 0.0097616723   -4.6664213    1.1072632  1010000 
 5416000   0.73833631   -4.6669278   -4.6669278   -3.5594244 0.0075848636   -4.6669278    1.1075034  1010000 
 5417000   0.73855834   -4.6675406   -4.6675406   -3.5597042 0.0073311417   -4.6675406    1.1078364  1010000 
 5418000   0.73837923   -4.6670481   -4.6670481   -3.5594803  0.009323122   -4.6670481    1.1075678  1010000 
 5419000   0.73774982   -4.6668149   -4.6668149   -3.5601912 0.0087381194   -4.6668149    1.1066236  1010000 
 5420000   0.73798809   -4.6672604   -4.6672604   -3.5602793 0.0086876171   -4.6672604     1.106981  1010000 
 5421000   0.73712981   -4.6668084   -4.6668084   -3.5611148  0.012464838   -4.6668084    1.1056936  1010000 
 5422000   0.73788887   -4.6675889   -4.6675889   -3.5607567  0.010271034   -4.6675889    1.1068322  1010000 
 5423000   0.73800372   -4.6681283   -4.6681283   -3.5611238 0.0080403549   -4.6681283    1.1070045  1010000 
 5424000   0.73771271   -4.6675565   -4.6675565   -3.5609885 0.0096009707   -4.6675565     1.106568  1010000 
 5425000   0.73793571   -4.6678978   -4.6678978   -3.5609953   0.01190139   -4.6678978    1.1069025  1010000 
 5426000   0.73852754   -4.6684192   -4.6684192    -3.560629 0.0083317455   -4.6684192    1.1077902  1010000 
 5427000   0.73760336   -4.6672121   -4.6672121   -3.5608082  0.012286622   -4.6672121    1.1064039  1010000 
 5428000   0.73742629   -4.6667656   -4.6667656   -3.5606273  0.015453444   -4.6667656    1.1061383  1010000 
 5429000   0.73762503   -4.6672254   -4.6672254    -3.560789  0.013568633   -4.6672254    1.1064364  1010000 
 5430000    0.7391361   -4.6691591   -4.6691591    -3.560456 0.0096552212   -4.6691591    1.1087031  1010000 
 5431000   0.73783889    -4.667465    -4.667465   -3.5607078  0.016647449    -4.667465    1.1067572  1010000 
 5432000   0.73885466   -4.6691003   -4.6691003   -3.5608194  0.013456721   -4.6691003    1.1082809  1010000 
 5433000   0.73830409   -4.6685002   -4.6685002   -3.5610452  0.012853653   -4.6685002     1.107455  1010000 
 5434000   0.73878287   -4.6693959   -4.6693959   -3.5612227  0.011854749   -4.6693959    1.1081732  1010000 
 5435000    0.7395413   -4.6708238   -4.6708238    -3.561513  0.008937032   -4.6708238    1.1093108  1010000 
 5436000   0.73874783   -4.6697296   -4.6697296   -3.5616089  0.012233388   -4.6697296    1.1081206  1010000 
 5437000   0.73841713   -4.6698049   -4.6698049   -3.5621803  0.009881708   -4.6698049    1.1076246  1010000 
 5438000   0.73778319   -4.6690674   -4.6690674   -3.5623937  0.011765843   -4.6690674    1.1066737  1010000 
 5439000   0.73788791   -4.6691989   -4.6691989   -3.5623681  0.012851405   -4.6691989    1.1068308  1010000 
 5440000   0.73798211   -4.6695455   -4.6695455   -3.5625734  0.010212239   -4.6695455    1.1069721  1010000 
 5441000   0.73820784    -4.669387    -4.669387   -3.5620763  0.012483176    -4.669387    1.1073107  1010000 
 5442000   0.73838183   -4.6694563   -4.6694563   -3.5618847  0.012079504   -4.6694563    1.1075717  1010000 
 5443000   0.73796151   -4.6693695   -4.6693695   -3.5624283 0.0097652366   -4.6693695    1.1069412  1010000 
 5444000    0.7381591   -4.6701888   -4.6701888   -3.5629513  0.011632154   -4.6701888    1.1072376  1010000 
 5445000   0.73772683   -4.6695985   -4.6695985   -3.5630093  0.010093815   -4.6695985    1.1065891  1010000 
 5446000   0.73807639   -4.6704825   -4.6704825    -3.563369 0.0045780848   -4.6704825    1.1071135  1010000 
 5447000   0.73752743   -4.6700074   -4.6700074   -3.5637174 0.0072318809   -4.6700074      1.10629  1010000 
 5448000   0.73741457   -4.6702634   -4.6702634   -3.5641427 0.0079226679   -4.6702634    1.1061208  1010000 
 5449000   0.73720772   -4.6694267   -4.6694267   -3.5636162  0.010377641   -4.6694267    1.1058105  1010000 
 5450000   0.73751212   -4.6697798   -4.6697798   -3.5635127  0.010128084   -4.6697798    1.1062671  1010000 
 5451000   0.73777479   -4.6698856   -4.6698856   -3.5632245 0.0079871551   -4.6698856    1.1066611  1010000 
 5452000   0.73783849   -4.6704735   -4.6704735   -3.5637169  0.011500723   -4.6704735    1.1067566  1010000 
 5453000   0.73784813   -4.6704895   -4.6704895   -3.5637184 0.0074036324   -4.6704895    1.1067711  1010000 
 5454000   0.73705519    -4.669293    -4.669293   -3.5637113  0.010638801    -4.669293    1.1055817  1010000 
 5455000   0.73740105   -4.6704342   -4.6704342   -3.5643337 0.0093490789   -4.6704342    1.1061005  1010000 
 5456000   0.73792743   -4.6707255   -4.6707255   -3.5638354 0.0076896729   -4.6707255    1.1068901  1010000 
 5457000   0.73755584   -4.6706914   -4.6706914   -3.5643587 0.0083840729   -4.6706914    1.1063327  1010000 
 5458000   0.73708908   -4.6699324   -4.6699324   -3.5642998  0.010302743   -4.6699324    1.1056325  1010000 
 5459000    0.7373411    -4.670624    -4.670624   -3.5646134  0.010810017    -4.670624    1.1060106  1010000 
 5460000   0.73770407   -4.6714404   -4.6714404   -3.5648854 0.0072614556   -4.6714404     1.106555  1010000 
 5461000   0.73762457   -4.6715643   -4.6715643   -3.5651286 0.0092590693   -4.6715643    1.1064358  1010000 
 5462000   0.73708375   -4.6708248   -4.6708248   -3.5652003 0.0093688389   -4.6708248    1.1056245  1010000 
 5463000   0.73704369   -4.6710113   -4.6710113   -3.5654469 0.0098319005   -4.6710113    1.1055644  1010000 
 5464000   0.73735128   -4.6712253   -4.6712253   -3.5651995 0.0099968485   -4.6712253    1.1060258  1010000 
 5465000    0.7367632   -4.6706362   -4.6706362   -3.5654925  0.013562943   -4.6706362    1.1051437  1010000 
 5466000   0.73739792   -4.6712817   -4.6712817   -3.5651859 0.0090984648   -4.6712817    1.1060958  1010000 
 5467000    0.7375881   -4.6715304   -4.6715304   -3.5651494  0.011727577   -4.6715304    1.1063811  1010000 
 5468000   0.73674045   -4.6706662   -4.6706662   -3.5655566  0.014723358   -4.6706662    1.1051096  1010000 
 5469000   0.73752504   -4.6721494   -4.6721494    -3.565863  0.010625181   -4.6721494    1.1062865  1010000 
 5470000   0.73797822   -4.6724561   -4.6724561   -3.5654899  0.011935611   -4.6724561    1.1069662  1010000 
 5471000   0.73791289   -4.6727612   -4.6727612    -3.565893 0.0097873045   -4.6727612    1.1068682  1010000 
 5472000   0.73731274   -4.6726325   -4.6726325   -3.5666645  0.010327162   -4.6726325     1.105968  1010000 
 5473000   0.73743022   -4.6728311   -4.6728311   -3.5666869  0.011771591   -4.6728311    1.1061442  1010000 
 5474000   0.73713476    -4.672831    -4.672831   -3.5671299   0.01328972    -4.672831     1.105701  1010000 
 5475000   0.73665026   -4.6722421   -4.6722421   -3.5672679   0.01472985   -4.6722421    1.1049743  1010000 
 5476000   0.73689358   -4.6726495   -4.6726495   -3.5673102  0.011970713   -4.6726495    1.1053393  1010000 
 5477000    0.7372205    -4.673512    -4.673512   -3.5676823 0.0097398147    -4.673512    1.1058297  1010000 
 5478000   0.73693106   -4.6732309   -4.6732309   -3.5678354 0.0091391978   -4.6732309    1.1053955  1010000 
 5479000    0.7369056   -4.6731314   -4.6731314   -3.5677741  0.011387107   -4.6731314    1.1053573  1010000 
 5480000   0.73700642   -4.6736331   -4.6736331   -3.5681245  0.010440158   -4.6736331    1.1055085  1010000 
 5481000   0.73628538   -4.6727864   -4.6727864   -3.5683594  0.013760523   -4.6727864     1.104427  1010000 
 5482000   0.73636458   -4.6731322   -4.6731322   -3.5685864  0.013025472   -4.6731322    1.1045458  1010000 
 5483000   0.73726529   -4.6748878   -4.6748878   -3.5689909   0.01144384   -4.6748878    1.1058968  1010000 
 5484000   0.73698457   -4.6745749   -4.6745749   -3.5690991  0.010093122   -4.6745749    1.1054758  1010000 
 5485000   0.73634018   -4.6738258   -4.6738258   -3.5693166   0.01252911   -4.6738258    1.1045092  1010000 
 5486000    0.7361083   -4.6730947   -4.6730947   -3.5689333  0.013517429   -4.6730947    1.1041614  1010000 
 5487000   0.73687022   -4.6739983   -4.6739983    -3.568694  0.010566025   -4.6739983    1.1053042  1010000 
 5488000   0.73617606   -4.6731562   -4.6731562   -3.5688931  0.013099192   -4.6731562     1.104263  1010000 
 5489000   0.73705695   -4.6746262   -4.6746262   -3.5690418  0.010162243   -4.6746262    1.1055843  1010000 
 5490000   0.73589786   -4.6735682   -4.6735682   -3.5697225  0.014381331   -4.6735682    1.1038457  1010000 
 5491000   0.73607964   -4.6738499   -4.6738499   -3.5697315  0.012229962   -4.6738499    1.1041184  1010000 
 5492000   0.73729168   -4.6752628   -4.6752628   -3.5693264  0.012438868   -4.6752628    1.1059364  1010000 
 5493000    0.7369305   -4.6748055   -4.6748055   -3.5694109  0.015725933   -4.6748055    1.1053947  1010000 
 5494000   0.73688332   -4.6750319   -4.6750319   -3.5697081  0.012023358   -4.6750319    1.1053239  1010000 
 5495000   0.73748658   -4.6761243   -4.6761243   -3.5698956 0.0079879576   -4.6761243    1.1062288  1010000 
 5496000   0.73703375   -4.6753675   -4.6753675    -3.569818   0.01210245   -4.6753675    1.1055495  1010000 
 5497000   0.73706635   -4.6750448   -4.6750448   -3.5694464  0.014545461   -4.6750448    1.1055984  1010000 
 5498000   0.73696249   -4.6752065   -4.6752065   -3.5697639  0.011982537   -4.6752065    1.1054426  1010000 
 5499000    0.7368019   -4.6752547   -4.6752547   -3.5700529  0.012197069   -4.6752547    1.1052018  1010000 
 5500000   0.73620047   -4.6744661   -4.6744661   -3.5701665  0.012477029   -4.6744661    1.1042996  1010000 
 5501000     0.736677   -4.6754651   -4.6754651   -3.5704507  0.010002009   -4.6754651    1.1050144  1010000 
 5502000   0.73721033   -4.6768027   -4.6768027   -3.5709883 0.0056139549   -4.6768027    1.1058144  1010000 
 5503000   0.73630226   -4.6753481   -4.6753481   -3.5708958 0.0056361742   -4.6753481    1.1044523  1010000 
 5504000   0.73699933   -4.6763992   -4.6763992   -3.5709013  0.007461284   -4.6763992    1.1054979  1010000 
 5505000   0.73638889   -4.6751795   -4.6751795   -3.5705973 0.0063130302   -4.6751795    1.1045822  1010000 
 5506000   0.73598859   -4.6747457   -4.6747457   -3.5707639  0.010190992   -4.6747457    1.1039818  1010000 
 5507000   0.73616433   -4.6752483   -4.6752483   -3.5710029  0.010129085   -4.6752483    1.1042454  1010000 
 5508000   0.73671115   -4.6762856   -4.6762856     -3.57122 0.0084210754   -4.6762856    1.1050656  1010000 
 5509000   0.73640325   -4.6761796   -4.6761796   -3.5715758  0.011544379   -4.6761796    1.1046038  1010000 
 5510000   0.73582376   -4.6751468   -4.6751468   -3.5714123  0.011937976   -4.6751468    1.1037345  1010000 
 5511000   0.73668885   -4.6766189   -4.6766189   -3.5715867  0.010090016   -4.6766189    1.1050322  1010000 
 5512000   0.73701176   -4.6768907   -4.6768907   -3.5713741  0.011060355   -4.6768907    1.1055165  1010000 
 5513000   0.73698505   -4.6764508   -4.6764508   -3.5709743  0.012639779   -4.6764508    1.1054765  1010000 
 5514000   0.73653254   -4.6760908   -4.6760908   -3.5712931 0.0092312247   -4.6760908    1.1047977  1010000 
 5515000   0.73579238    -4.674889    -4.674889   -3.5712015  0.011438267    -4.674889    1.1036875  1010000 
 5516000   0.73647769   -4.6759043   -4.6759043   -3.5711889 0.0092586646   -4.6759043    1.1047154  1010000 
 5517000   0.73625264   -4.6754755   -4.6754755   -3.5710977  0.009181049   -4.6754755    1.1043779  1010000 
 5518000   0.73643823   -4.6756851   -4.6756851   -3.5710288  0.010849587   -4.6756851    1.1046562  1010000 
 5519000   0.73577936    -4.674605    -4.674605   -3.5709371  0.010637592    -4.674605     1.103668  1010000 
 5520000   0.73684959   -4.6762095   -4.6762095   -3.5709362 0.0061264872   -4.6762095    1.1052733  1010000 
 5521000   0.73619717   -4.6754991   -4.6754991   -3.5712044  0.011568389   -4.6754991    1.1042947  1010000 
 5522000   0.73574611   -4.6755556   -4.6755556   -3.5719375 0.0083689334   -4.6755556    1.1036181  1010000 
 5523000   0.73594127   -4.6759865   -4.6759865   -3.5720757  0.010182379   -4.6759865    1.1039108  1010000 
 5524000   0.73647225   -4.6763384   -4.6763384   -3.5716311 0.0093357223   -4.6763384    1.1047073  1010000 
 5525000   0.73566666   -4.6752796   -4.6752796   -3.5717807  0.013189956   -4.6752796    1.1034989  1010000 
 5526000   0.73641608   -4.6766371   -4.6766371    -3.572014  0.010778876   -4.6766371     1.104623  1010000 
 5527000   0.73611352   -4.6761457   -4.6761457   -3.5719765 0.0097759873   -4.6761457    1.1041692  1010000 
 5528000   0.73726207   -4.6772394   -4.6772394   -3.5713473 0.0076581606   -4.6772394     1.105892  1010000 
 5529000   0.73609089   -4.6759261   -4.6759261   -3.5717909  0.011959406   -4.6759261    1.1041352  1010000 
 5530000    0.7365602   -4.6766486   -4.6766486   -3.5718094  0.012618407   -4.6766486    1.1048392  1010000 
 5531000   0.73674928   -4.6767609   -4.6767609   -3.5716381 0.0082037059   -4.6767609    1.1051228  1010000 
 5532000   0.73626381   -4.6764376   -4.6764376    -3.572043 0.0092582441   -4.6764376    1.1043946  1010000 
 5533000   0.73600892   -4.6763782   -4.6763782   -3.5723659 0.0079730031   -4.6763782    1.1040123  1010000 
 5534000    0.7363919   -4.6766578   -4.6766578    -3.572071 0.0095378714   -4.6766578    1.1045868  1010000 
 5535000   0.73617607   -4.6767109   -4.6767109   -3.5724479 0.0081919813   -4.6767109     1.104263  1010000 
 5536000   0.73547666   -4.6764918   -4.6764918   -3.5732779 0.0075275369   -4.6764918    1.1032139  1010000 
 5537000   0.73633497   -4.6780409   -4.6780409   -3.5735396 0.0071529388   -4.6780409    1.1045014  1010000 
 5538000   0.73655989   -4.6783921   -4.6783921   -3.5735534 0.0079183415   -4.6783921    1.1048387  1010000 
 5539000   0.73481824   -4.6761321   -4.6761321   -3.5739059  0.012987199   -4.6761321    1.1022263  1010000 
 5540000   0.73571341   -4.6774669   -4.6774669   -3.5738978  0.011628441   -4.6774669     1.103569  1010000 
 5541000   0.73560467    -4.677749    -4.677749   -3.5743431  0.010562458    -4.677749    1.1034059  1010000 
 5542000   0.73637681   -4.6782135   -4.6782135   -3.5736493 0.0087210572   -4.6782135    1.1045641  1010000 
 5543000   0.73506306   -4.6765669   -4.6765669   -3.5739734  0.012624598   -4.6765669    1.1025935  1010000 
 5544000   0.73504142   -4.6764154   -4.6764154   -3.5738544  0.012185641   -4.6764154     1.102561  1010000 
 5545000   0.73623067   -4.6784936   -4.6784936   -3.5741487 0.0081150121   -4.6784936    1.1043449  1010000 
 5546000   0.73571472   -4.6780829   -4.6780829   -3.5745119  0.010584807   -4.6780829     1.103571  1010000 
 5547000    0.7357704   -4.6785431   -4.6785431   -3.5748886  0.012137099   -4.6785431    1.1036545  1010000 
 5548000   0.73521871   -4.6780261   -4.6780261   -3.5751991  0.014632026   -4.6780261     1.102827  1010000 
 5549000   0.73562364   -4.6783921   -4.6783921   -3.5749577  0.013266932   -4.6783921    1.1034344  1010000 
 5550000   0.73746591   -4.6807771   -4.6807771   -3.5745793 0.0061273995   -4.6807771    1.1061978  1010000 
 5551000   0.73663452   -4.6799016   -4.6799016   -3.5749509 0.0085543376   -4.6799016    1.1049507  1010000 
 5552000   0.73598696   -4.6788913   -4.6788913    -3.574912  0.010811111   -4.6788913    1.1039793  1010000 
 5553000   0.73593475   -4.6792659   -4.6792659   -3.5753649 0.0095256356   -4.6792659     1.103901  1010000 
 5554000   0.73622883    -4.679094    -4.679094   -3.5747518  0.012479324    -4.679094    1.1043422  1010000 
 5555000   0.73622154   -4.6786509   -4.6786509   -3.5743197  0.015022194   -4.6786509    1.1043312  1010000 
 5556000   0.73623634   -4.6787954   -4.6787954   -3.5744419  0.011810241   -4.6787954    1.1043534  1010000 
 5557000   0.73681443   -4.6804607   -4.6804607   -3.5752401  0.010472459   -4.6804607    1.1052205  1010000 
 5558000   0.73589095   -4.6798687   -4.6798687   -3.5760334  0.013355414   -4.6798687    1.1038353  1010000 
 5559000   0.73607541   -4.6800346   -4.6800346   -3.5759225  0.011765382   -4.6800346     1.104112  1010000 
 5560000   0.73571003   -4.6798021   -4.6798021   -3.5762382  0.011191992   -4.6798021     1.103564  1010000 
 5561000   0.73628391   -4.6806303   -4.6806303   -3.5762055  0.011130768   -4.6806303    1.1044248  1010000 
 5562000    0.7361487   -4.6802371   -4.6802371   -3.5760151  0.013092244   -4.6802371     1.104222  1010000 
 5563000   0.73672877   -4.6805403   -4.6805403   -3.5754483  0.012730907   -4.6805403    1.1050921  1010000 
 5564000    0.7363121   -4.6806924   -4.6806924   -3.5762254 0.0081734056   -4.6806924    1.1044671  1010000 
 5565000   0.73553913   -4.6795951   -4.6795951   -3.5762876  0.012625783   -4.6795951    1.1033076  1010000 
 5566000   0.73499131   -4.6790401   -4.6790401   -3.5765542 0.0099291079   -4.6790401    1.1024859  1010000 
 5567000   0.73615919   -4.6810122   -4.6810122   -3.5767745 0.0067043844   -4.6810122    1.1042377  1010000 
 5568000   0.73561766   -4.6800877   -4.6800877   -3.5766623   0.01034091   -4.6800877    1.1034254  1010000 
 5569000   0.73512748   -4.6798047   -4.6798047   -3.5771145  0.011572831   -4.6798047    1.1026901  1010000 
 5570000   0.73533437   -4.6803018   -4.6803018   -3.5773014 0.0090375385   -4.6803018    1.1030005  1010000 
 5571000   0.73539924   -4.6805377   -4.6805377   -3.5774399 0.0089611367   -4.6805377    1.1030978  1010000 
 5572000   0.73474738    -4.679898    -4.679898   -3.5777781 0.0076229347    -4.679898      1.10212  1010000 
 5573000   0.73407842    -4.679096    -4.679096   -3.5779795 0.0091494046    -4.679096    1.1011165  1010000 
 5574000    0.7343618   -4.6795101   -4.6795101   -3.5779685 0.0096359015   -4.6795101    1.1015416  1010000 
 5575000   0.73511059   -4.6801907   -4.6801907   -3.5775259 0.0085514105   -4.6801907    1.1026648  1010000 
 5576000    0.7343823     -4.67971     -4.67971   -3.5781376 0.0093782954     -4.67971    1.1015724  1010000 
 5577000   0.73455582   -4.6801936   -4.6801936    -3.578361 0.0083971038   -4.6801936    1.1018326  1010000 
 5578000   0.73488796   -4.6802996   -4.6802996   -3.5779687 0.0073325766   -4.6802996    1.1023309  1010000 
 5579000   0.73481344   -4.6800119   -4.6800119   -3.5777928   0.00802307   -4.6800119    1.1022191  1010000 
 5580000   0.73483167   -4.6799264   -4.6799264     -3.57768   0.00852195   -4.6799264    1.1022464  1010000 
 5581000   0.73446485   -4.6798402   -4.6798402    -3.578144 0.0093842311   -4.6798402    1.1016962  1010000 
 5582000   0.73503179    -4.680561    -4.680561   -3.5780144  0.010759661    -4.680561    1.1025466  1010000 
 5583000   0.73544425   -4.6809748   -4.6809748   -3.5778095 0.0096363806   -4.6809748    1.1031653  1010000 
 5584000   0.73507293   -4.6808618   -4.6808618   -3.5782535  0.009900759   -4.6808618    1.1026083  1010000 
 5585000   0.73446424   -4.6804495   -4.6804495   -3.5787542  0.010987147   -4.6804495    1.1016953  1010000 
 5586000   0.73455355    -4.681358    -4.681358   -3.5795287 0.0096954826    -4.681358    1.1018292  1010000 
 5587000   0.73511346   -4.6815324   -4.6815324   -3.5788633 0.0098857396   -4.6815324    1.1026691  1010000 
 5588000   0.73490576   -4.6818189   -4.6818189   -3.5794614  0.012744645   -4.6818189    1.1023575  1010000 
 5589000   0.73489676   -4.6820834   -4.6820834   -3.5797394  0.010788316   -4.6820834     1.102344  1010000 
 5590000   0.73523399   -4.6825554   -4.6825554   -3.5797055 0.0080426152   -4.6825554    1.1028499  1010000 
 5591000   0.73512168   -4.6829239   -4.6829239   -3.5802425 0.0064867855   -4.6829239    1.1026814  1010000 
 5592000   0.73444346     -4.68171     -4.68171   -3.5800459  0.010246163     -4.68171    1.1016641  1010000 
 5593000   0.73400273   -4.6810179   -4.6810179   -3.5800149  0.011647526   -4.6810179     1.101003  1010000 
 5594000   0.73450855    -4.682397    -4.682397   -3.5806353  0.012053417    -4.682397    1.1017617  1010000 
 5595000   0.73573577   -4.6836372   -4.6836372   -3.5800346 0.0094323612   -4.6836372    1.1036026  1010000 
 5596000   0.73573319   -4.6836638   -4.6836638   -3.5800651  0.010112224   -4.6836638    1.1035987  1010000 
 5597000   0.73470898   -4.6829517   -4.6829517   -3.5808894 0.0094640148   -4.6829517    1.1020624  1010000 
 5598000   0.73479981   -4.6828671   -4.6828671   -3.5806685   0.01346792   -4.6828671    1.1021986  1010000 
 5599000   0.73534236   -4.6831031   -4.6831031   -3.5800906  0.011148165   -4.6831031    1.1030124  1010000 
 5600000   0.73532761   -4.6835052   -4.6835052   -3.5805149  0.013034309   -4.6835052    1.1029903  1010000 
 5601000    0.7354007   -4.6834828   -4.6834828   -3.5803829  0.011021031   -4.6834828       1.1031  1010000 
 5602000   0.73542619   -4.6838346   -4.6838346   -3.5806964  0.014899502   -4.6838346    1.1031382  1010000 
 5603000   0.73544217   -4.6838621   -4.6838621   -3.5806999  0.013481661   -4.6838621    1.1031622  1010000 
 5604000   0.73440707   -4.6822721   -4.6822721   -3.5806626  0.015270086   -4.6822721    1.1016095  1010000 
 5605000   0.73404776   -4.6823066   -4.6823066    -3.581236  0.012950639   -4.6823066    1.1010705  1010000 
 5606000   0.73460432   -4.6836831   -4.6836831   -3.5817777  0.010408925   -4.6836831    1.1019054  1010000 
 5607000   0.73463766   -4.6836268   -4.6836268   -3.5816714 0.0084367089   -4.6836268    1.1019554  1010000 
 5608000   0.73509333   -4.6844801   -4.6844801   -3.5818412 0.0057943514   -4.6844801    1.1026389  1010000 
 5609000   0.73423608   -4.6832594   -4.6832594   -3.5819064 0.0078472043   -4.6832594     1.101353  1010000 
 5610000   0.73446009   -4.6837318   -4.6837318   -3.5820427 0.0078268163   -4.6837318     1.101689  1010000 
 5611000    0.7342916   -4.6836954   -4.6836954   -3.5822591 0.0070569822   -4.6836954    1.1014363  1010000 
 5612000   0.73377343   -4.6832708   -4.6832708   -3.5826118 0.0095405685   -4.6832708    1.1006591  1010000 
 5613000   0.73395256   -4.6837804   -4.6837804   -3.5828527 0.0074170653   -4.6837804    1.1009277  1010000 
 5614000   0.73379203     -4.68352     -4.68352   -3.5828331  0.011688524     -4.68352     1.100687  1010000 
 5615000   0.73376678   -4.6840315   -4.6840315   -3.5833824  0.011523593   -4.6840315    1.1006491  1010000 
 5616000   0.73398224   -4.6844838   -4.6844838   -3.5835115  0.010780261   -4.6844838    1.1009723  1010000 
 5617000   0.73442732   -4.6851598   -4.6851598   -3.5835199  0.013638575   -4.6851598    1.1016399  1010000 
 5618000   0.73444482   -4.6852681   -4.6852681   -3.5836019   0.01184504   -4.6852681    1.1016661  1010000 
 5619000   0.73368786   -4.6845398   -4.6845398   -3.5840091  0.011902068   -4.6845398    1.1005307  1010000 
 5620000   0.73460417   -4.6854199   -4.6854199   -3.5835147  0.007387635   -4.6854199    1.1019052  1010000 
 5621000   0.73425856   -4.6849276   -4.6849276   -3.5835409 0.0083147482   -4.6849276    1.1013868  1010000 
 5622000   0.73411698   -4.6847547   -4.6847547   -3.5835803 0.0098872576   -4.6847547    1.1011744  1010000 
 5623000   0.73413993   -4.6847749   -4.6847749   -3.5835661 0.0090358491   -4.6847749    1.1012088  1010000 
 5624000   0.73393652   -4.6846012   -4.6846012   -3.5836975  0.008203457   -4.6846012    1.1009037  1010000 
 5625000   0.73377189    -4.684377    -4.684377   -3.5837202 0.0086695408    -4.684377    1.1006567  1010000 
 5626000   0.73409425   -4.6852847   -4.6852847   -3.5841445  0.007663609   -4.6852847    1.1011403  1010000 
 5627000   0.73353683   -4.6847301   -4.6847301   -3.5844259  0.012086868   -4.6847301    1.1003042  1010000 
 5628000   0.73437722   -4.6863692   -4.6863692   -3.5848044 0.0095215466   -4.6863692    1.1015647  1010000 
 5629000   0.73427031   -4.6865703   -4.6865703   -3.5851659 0.0079961536   -4.6865703    1.1014044  1010000 
 5630000   0.73397936   -4.6865926   -4.6865926   -3.5856246 0.0094301456   -4.6865926     1.100968  1010000 
 5631000   0.73422421   -4.6867251   -4.6867251   -3.5853899  0.010458088   -4.6867251    1.1013352  1010000 
 5632000   0.73448493   -4.6872222   -4.6872222   -3.5854959 0.0095721368   -4.6872222    1.1017263  1010000 
 5633000   0.73384701   -4.6862953   -4.6862953   -3.5855259   0.01321635   -4.6862953    1.1007694  1010000 
 5634000   0.73445343   -4.6870658   -4.6870658   -3.5853868  0.012264078   -4.6870658     1.101679  1010000 
 5635000   0.73434511   -4.6873071   -4.6873071   -3.5857905  0.012391094   -4.6873071    1.1015166  1010000 
 5636000   0.73420287   -4.6872773   -4.6872773   -3.5859741 0.0093048613   -4.6872773    1.1013032  1010000 
 5637000   0.73459004    -4.687826    -4.687826    -3.585942  0.010114764    -4.687826     1.101884  1010000 
 5638000   0.73384804   -4.6869781   -4.6869781   -3.5862071 0.0088665214   -4.6869781     1.100771  1010000 
 5639000   0.73395366    -4.687715    -4.687715   -3.5867856 0.0096703609    -4.687715    1.1009294  1010000 
 5640000   0.73325315   -4.6868396   -4.6868396    -3.586961 0.0079572339   -4.6868396    1.0998786  1010000 
 5641000   0.73361678   -4.6881808   -4.6881808   -3.5877567 0.0085754375   -4.6881808    1.1004241  1010000 
 5642000   0.73308069   -4.6878305   -4.6878305   -3.5882106 0.0059150611   -4.6878305    1.0996199  1010000 
 5643000   0.73303546   -4.6874213   -4.6874213   -3.5878692 0.0070998435   -4.6874213    1.0995521  1010000 
 5644000   0.73353506   -4.6877482   -4.6877482   -3.5874467 0.0096729557   -4.6877482    1.1003015  1010000 
 5645000   0.73327743    -4.687121    -4.687121    -3.587206  0.012064968    -4.687121     1.099915  1010000 
 5646000    0.7330004   -4.6870793   -4.6870793   -3.5875798  0.012333765   -4.6870793    1.0994995  1010000 
 5647000   0.73351148   -4.6877689   -4.6877689   -3.5875027  0.012115059   -4.6877689    1.1002661  1010000 
 5648000   0.73359871   -4.6881886   -4.6881886   -3.5877916  0.012596968   -4.6881886     1.100397  1010000 
 5649000   0.73404739   -4.6888022   -4.6888022   -3.5877322  0.012726988   -4.6888022      1.10107  1010000 
 5650000   0.73434395   -4.6893274   -4.6893274   -3.5878125  0.010962122   -4.6893274    1.1015148  1010000 
 5651000   0.73389515   -4.6886699   -4.6886699   -3.5878283  0.013288718   -4.6886699    1.1008416  1010000 
 5652000   0.73461024   -4.6897259   -4.6897259   -3.5878116  0.010371447   -4.6897259    1.1019143  1010000 
 5653000   0.73344479    -4.688136    -4.688136   -3.5879699  0.013392697    -4.688136    1.1001661  1010000 
 5654000   0.73370587    -4.688689    -4.688689   -3.5881313  0.011749509    -4.688689    1.1005577  1010000 
 5655000   0.73398732   -4.6898437   -4.6898437   -3.5888639 0.0073005749   -4.6898437    1.1009799  1010000 
 5656000   0.73367329   -4.6891227   -4.6891227   -3.5886138  0.011316778   -4.6891227    1.1005088  1010000 
 5657000   0.73361239   -4.6895074   -4.6895074   -3.5890899  0.010589096   -4.6895074    1.1004175  1010000 
 5658000   0.73393076   -4.6898965   -4.6898965   -3.5890014 0.0090118392   -4.6898965     1.100895  1010000 
 5659000   0.73344427   -4.6891144   -4.6891144   -3.5889491  0.012076776   -4.6891144    1.1001653  1010000 
 5660000    0.7336743   -4.6897883   -4.6897883   -3.5892779 0.0082192073   -4.6897883    1.1005104  1010000 
 5661000   0.73303143   -4.6889958   -4.6889958   -3.5894497  0.010851578   -4.6889958    1.0995461  1010000 
 5662000   0.73286249   -4.6889521   -4.6889521   -3.5896594   0.01087098   -4.6889521    1.0992927  1010000 
 5663000   0.73349578   -4.6895255   -4.6895255   -3.5892829 0.0093986424   -4.6895255    1.1002426  1010000 
 5664000   0.73408872   -4.6900167   -4.6900167   -3.5888847  0.011430499   -4.6900167     1.101132  1010000 
 5665000   0.73330178   -4.6884353   -4.6884353   -3.5884837  0.014351983   -4.6884353    1.0999516  1010000 
 5666000   0.73399796   -4.6897884   -4.6897884   -3.5887926  0.011146649   -4.6897884    1.1009959  1010000 
 5667000   0.73369812   -4.6893658   -4.6893658   -3.5888197 0.0087400288   -4.6893658    1.1005461  1010000 
 5668000   0.73345969   -4.6888179   -4.6888179   -3.5886295  0.012506204   -4.6888179    1.1001885  1010000 
 5669000   0.73293674   -4.6887797   -4.6887797   -3.5893757  0.011154119   -4.6887797     1.099404  1010000 
 5670000   0.73252139   -4.6882083   -4.6882083   -3.5894273  0.011088522   -4.6882083     1.098781  1010000 
 5671000   0.73306064   -4.6889044   -4.6889044   -3.5893145    0.0131724   -4.6889044    1.0995899  1010000 
 5672000   0.73339571   -4.6896414   -4.6896414   -3.5895489  0.011003461   -4.6896414    1.1000925  1010000 
 5673000    0.7332938   -4.6892968   -4.6892968   -3.5893572 0.0083516203   -4.6892968    1.0999396  1010000 
 5674000   0.73316731   -4.6894848   -4.6894848   -3.5897349 0.0069259203   -4.6894848    1.0997499  1010000 
 5675000    0.7334052   -4.6903007   -4.6903007    -3.590194 0.0032837667   -4.6903007    1.1001067  1010000 
 5676000    0.7322883   -4.6888716   -4.6888716   -3.5904403 0.0085671143   -4.6888716    1.0984314  1010000 
 5677000   0.73293596   -4.6902891   -4.6902891   -3.5908863  0.007591821   -4.6902891    1.0994028  1010000 
 5678000   0.73332284   -4.6904496   -4.6904496   -3.5904664  0.005927938   -4.6904496    1.0999832  1010000 
 5679000   0.73219168   -4.6894699   -4.6894699   -3.5911835 0.0077867704   -4.6894699    1.0982864  1010000 
 5680000   0.73254438   -4.6895734   -4.6895734   -3.5907579 0.0050937428   -4.6895734    1.0988155  1010000 
 5681000   0.73276505   -4.6902103   -4.6902103   -3.5910638 0.0042856397   -4.6902103    1.0991465  1010000 
 5682000   0.73279338   -4.6901347   -4.6901347   -3.5909457 0.0071649666   -4.6901347     1.099189  1010000 
 5683000   0.73215183   -4.6894458   -4.6894458   -3.5912192 0.0083789316   -4.6894458    1.0982267  1010000 
 5684000   0.73305911    -4.690793    -4.690793   -3.5912054 0.0082898398    -4.690793    1.0995876  1010000 
 5685000   0.73276556   -4.6898405   -4.6898405   -3.5906932  0.009490745   -4.6898405    1.0991473  1010000 
 5686000   0.73293989   -4.6904615   -4.6904615   -3.5910527 0.0077425212   -4.6904615    1.0994088  1010000 
 5687000   0.73328386   -4.6911919   -4.6911919   -3.5912672 0.0095674485   -4.6911919    1.0999247  1010000 
 5688000   0.73248061   -4.6903385   -4.6903385   -3.5916187  0.014068848   -4.6903385    1.0987198  1010000 
 5689000    0.7331786   -4.6912673   -4.6912673   -3.5915005 0.0084331523   -4.6912673    1.0997668  1010000 
 5690000   0.73292006   -4.6908742   -4.6908742   -3.5914952  0.009474288   -4.6908742     1.099379  1010000 
 5691000   0.73268013   -4.6912343   -4.6912343   -3.5922152  0.013004595   -4.6912343    1.0990191  1010000 
 5692000   0.73334037   -4.6922822   -4.6922822   -3.5922727  0.011343098   -4.6922822    1.1000095  1010000 
 5693000   0.73285299   -4.6912271   -4.6912271   -3.5919487  0.012651878   -4.6912271    1.0992784  1010000 
 5694000    0.7328445   -4.6911484   -4.6911484   -3.5918828  0.010500179   -4.6911484    1.0992657  1010000 
 5695000   0.73345472   -4.6919958   -4.6919958   -3.5918148 0.0080686143   -4.6919958     1.100181  1010000 
 5696000   0.73311235    -4.691605    -4.691605   -3.5919375  0.012180736    -4.691605    1.0996674  1010000 
 5697000   0.73340578    -4.692013    -4.692013   -3.5919054  0.011669673    -4.692013    1.1001076  1010000 
 5698000   0.73254027   -4.6911244   -4.6911244   -3.5923151  0.014267465   -4.6911244    1.0988093  1010000 
 5699000   0.73239076   -4.6913709   -4.6913709   -3.5927859  0.011720437   -4.6913709    1.0985851  1010000 
 5700000   0.73186399   -4.6905008   -4.6905008   -3.5927059  0.016375869   -4.6905008    1.0977949  1010000 
 5701000   0.73255192   -4.6922195   -4.6922195   -3.5933927  0.010276676   -4.6922195    1.0988268  1010000 
 5702000   0.73253309   -4.6924613   -4.6924613   -3.5936628  0.013033732   -4.6924613    1.0987985  1010000 
 5703000   0.73280824   -4.6924695   -4.6924695   -3.5932583  0.014125931   -4.6924695    1.0992113  1010000 
 5704000   0.73278543   -4.6927986   -4.6927986   -3.5936215  0.012316118   -4.6927986    1.0991771  1010000 
 5705000   0.73254705   -4.6922319   -4.6922319   -3.5934124  0.012224299   -4.6922319    1.0988195  1010000 
 5706000   0.73320848   -4.6932992   -4.6932992   -3.5934876  0.011284477   -4.6932992    1.0998116  1010000 
 5707000   0.73361609   -4.6936748   -4.6936748   -3.5932517  0.010234991   -4.6936748     1.100423  1010000 
 5708000   0.73281071   -4.6927077   -4.6927077   -3.5934927  0.011378867   -4.6927077     1.099215  1010000 
 5709000   0.73307579   -4.6933889   -4.6933889   -3.5937763  0.010699963   -4.6933889    1.0996126  1010000 
 5710000   0.73335079   -4.6939403   -4.6939403   -3.5939152 0.0057130799   -4.6939403    1.1000251  1010000 
 5711000   0.73267994   -4.6931901   -4.6931901   -3.5941713 0.0083657333   -4.6931901    1.0990188  1010000 
 5712000   0.73229573   -4.6923318   -4.6923318   -3.5938893  0.010199678   -4.6923318    1.0984425  1010000 
 5713000    0.7330444   -4.6940439   -4.6940439   -3.5944784 0.0042646851   -4.6940439    1.0995655  1010000 
 5714000     0.732575   -4.6938953   -4.6938953   -3.5950338 0.0075681185   -4.6938953    1.0988614  1010000 
 5715000    0.7318431   -4.6933045   -4.6933045    -3.595541 0.0072246921   -4.6933045    1.0977636  1010000 
 5716000   0.73217162   -4.6935814   -4.6935814    -3.595325  0.006742782   -4.6935814    1.0982563  1010000 
 5717000   0.73282701   -4.6941352   -4.6941352   -3.5948958 0.0082264556   -4.6941352    1.0992394  1010000 
 5718000   0.73192357   -4.6930276   -4.6930276   -3.5951434   0.01120736   -4.6930276    1.0978843  1010000 
 5719000    0.7322309   -4.6937989   -4.6937989   -3.5954537  0.010384567   -4.6937989    1.0983453  1010000 
 5720000   0.73259124   -4.6942654   -4.6942654   -3.5953796 0.0089689947   -4.6942654    1.0988858  1010000 
 5721000   0.73199966   -4.6936326   -4.6936326   -3.5956342 0.0073804739   -4.6936326    1.0979984  1010000 
 5722000   0.73182152   -4.6933001   -4.6933001   -3.5955689 0.0075026789   -4.6933001    1.0977312  1010000 
 5723000   0.73205389   -4.6934716   -4.6934716   -3.5953919 0.0085786027   -4.6934716    1.0980798  1010000 
 5724000   0.73244556   -4.6940834   -4.6940834   -3.5954162 0.0080886365   -4.6940834    1.0986673  1010000 
 5725000   0.73248667   -4.6942643   -4.6942643   -3.5955354 0.0085717896   -4.6942643    1.0987289  1010000 
 5726000   0.73196956    -4.693252    -4.693252   -3.5952987 0.0097248123    -4.693252    1.0979532  1010000 
 5727000   0.73205954   -4.6936383   -4.6936383   -3.5955501 0.0096224321   -4.6936383    1.0980882  1010000 
 5728000   0.73193876   -4.6931364   -4.6931364   -3.5952293  0.010206149   -4.6931364    1.0979071  1010000 
 5729000   0.73157938   -4.6929629   -4.6929629   -3.5955949 0.0098770092   -4.6929629     1.097368  1010000 
 5730000   0.73188031   -4.6937115   -4.6937115   -3.5958921 0.0079412534   -4.6937115    1.0978194  1010000 
 5731000   0.73181074   -4.6937608   -4.6937608   -3.5960458  0.012155221   -4.6937608     1.097715  1010000 
 5732000   0.73212651   -4.6942206   -4.6942206   -3.5960319 0.0081149151   -4.6942206    1.0981887  1010000 
 5733000   0.73149335   -4.6939935   -4.6939935   -3.5967546 0.0095471841   -4.6939935    1.0972389  1010000 
 5734000   0.73222504   -4.6946609   -4.6946609   -3.5963245 0.0094928366   -4.6946609    1.0983365  1010000 
 5735000   0.73213798   -4.6946415   -4.6946415   -3.5964357 0.0074022814   -4.6946415    1.0982059  1010000 
 5736000   0.73128631   -4.6936848   -4.6936848   -3.5967564 0.0090439189   -4.6936848    1.0969284  1010000 
 5737000    0.7320788   -4.6945871   -4.6945871     -3.59647 0.0070689104   -4.6945871    1.0981171  1010000 
 5738000   0.73203211   -4.6951336   -4.6951336   -3.5970865  0.010792802   -4.6951336    1.0980471  1010000 
 5739000   0.73228417   -4.6955614   -4.6955614   -3.5971362 0.0077770352   -4.6955614    1.0984252  1010000 
 5740000   0.73102478   -4.6935344   -4.6935344   -3.5969984   0.01060569   -4.6935344    1.0965361  1010000 
 5741000   0.73184441    -4.694756    -4.694756   -3.5969905  0.010701841    -4.694756    1.0977655  1010000 
 5742000   0.73178132   -4.6948137   -4.6948137   -3.5971428 0.0085423195   -4.6948137    1.0976709  1010000 
 5743000   0.73187715   -4.6955959   -4.6955959   -3.5977813 0.0067464661   -4.6955959    1.0978146  1010000 
 5744000   0.73142853   -4.6951869   -4.6951869   -3.5980451 0.0095538536   -4.6951869    1.0971417  1010000 
 5745000   0.73163506   -4.6953442   -4.6953442   -3.5978927  0.010690553   -4.6953442    1.0974515  1010000 
 5746000   0.73167771   -4.6951504   -4.6951504   -3.5976349  0.014182708   -4.6951504    1.0975155  1010000 
 5747000   0.73161313   -4.6950279   -4.6950279   -3.5976093  0.010632754   -4.6950279    1.0974186  1010000 
 5748000   0.73138555   -4.6950967   -4.6950967   -3.5980195  0.013695507   -4.6950967    1.0970772  1010000 
 5749000   0.73203547   -4.6960728   -4.6960728   -3.5980207 0.0093342614   -4.6960728    1.0980521  1010000 
 5750000   0.73172696    -4.695864    -4.695864   -3.5982746  0.010619804    -4.695864    1.0975894  1010000 
 5751000     0.732522   -4.6969803   -4.6969803   -3.5981984 0.0084052815   -4.6969803    1.0987819  1010000 
 5752000   0.73205533    -4.696775    -4.696775   -3.5986931 0.0085693279    -4.696775    1.0980819  1010000 
 5753000   0.73135881   -4.6960093   -4.6960093   -3.5989722  0.011579093   -4.6960093    1.0970371  1010000 
 5754000   0.73118606   -4.6957407   -4.6957407   -3.5989627  0.011975766   -4.6957407     1.096778  1010000 
 5755000   0.73200471   -4.6969433   -4.6969433   -3.5989374 0.0099132697   -4.6969433     1.098006  1010000 
 5756000   0.73149111   -4.6963395   -4.6963395    -3.599104  0.011210786   -4.6963395    1.0972356  1010000 
 5757000   0.73205334   -4.6969474   -4.6969474   -3.5988685  0.010159482   -4.6969474    1.0980789  1010000 
 5758000   0.73163103   -4.6965322   -4.6965322   -3.5990868 0.0087758884   -4.6965322    1.0974455  1010000 
 5759000    0.7316657   -4.6968116   -4.6968116   -3.5993142 0.0078548812   -4.6968116    1.0974975  1010000 
 5760000    0.7315961   -4.6969271   -4.6969271    -3.599534 0.0090794856   -4.6969271    1.0973931  1010000 
 5761000   0.73095656   -4.6960718   -4.6960718    -3.599638  0.010772005   -4.6960718    1.0964338  1010000 
 5762000   0.73122289   -4.6963257   -4.6963257   -3.5994924  0.011608909   -4.6963257    1.0968332  1010000 
 5763000   0.73173286   -4.6975646   -4.6975646   -3.5999664  0.010537091   -4.6975646    1.0975982  1010000 
 5764000    0.7316368   -4.6975725   -4.6975725   -3.6001184 0.0097945771   -4.6975725    1.0974541  1010000 
 5765000   0.73028756   -4.6956568   -4.6956568   -3.6002266  0.015388745   -4.6956568    1.0954303  1010000 
 5766000   0.73088112   -4.6961621   -4.6961621   -3.5998415  0.011432012   -4.6961621    1.0963206  1010000 
 5767000   0.73062506   -4.6961866   -4.6961866   -3.6002501  0.015101899   -4.6961866    1.0959365  1010000 
 5768000   0.73060564   -4.6960986   -4.6960986   -3.6001912  0.011860127   -4.6960986    1.0959074  1010000 
 5769000   0.73098492   -4.6972148   -4.6972148   -3.6007385   0.01023177   -4.6972148    1.0964763  1010000 
 5770000   0.73147806   -4.6979593   -4.6979593   -3.6007433 0.0080641939   -4.6979593     1.097216  1010000 
 5771000   0.73142721   -4.6979192   -4.6979192   -3.6007795 0.0095001901   -4.6979192    1.0971397  1010000 
 5772000   0.73062617    -4.696452    -4.696452   -3.6005139  0.013594072    -4.696452    1.0959382  1010000 
 5773000   0.73077788   -4.6970296   -4.6970296   -3.6008638 0.0096363075   -4.6970296    1.0961657  1010000 
 5774000   0.73052241   -4.6972914   -4.6972914   -3.6015088 0.0092768503   -4.6972914    1.0957825  1010000 
 5775000   0.73137009   -4.6985409   -4.6985409   -3.6014869 0.0060376322   -4.6985409    1.0970541  1010000 
 5776000   0.73120884   -4.6979505   -4.6979505   -3.6011383  0.008302448   -4.6979505    1.0968122  1010000 
 5777000   0.73034209   -4.6965061   -4.6965061   -3.6009941  0.010087616   -4.6965061    1.0955121  1010000 
 5778000   0.73131946   -4.6979801   -4.6979801    -3.601002 0.0075188669   -4.6979801    1.0969781  1010000 
 5779000   0.73113259   -4.6979089   -4.6979089   -3.6012111 0.0092174467   -4.6979089    1.0966978  1010000 
 5780000    0.7310711   -4.6980887   -4.6980887   -3.6014832 0.0073132037   -4.6980887    1.0966056  1010000 
 5781000   0.73094523   -4.6978711   -4.6978711   -3.6014543 0.0087046071   -4.6978711    1.0964168  1010000 
 5782000   0.73107851   -4.6978848   -4.6978848   -3.6012681 0.0092919575   -4.6978848    1.0966167  1010000 
 5783000   0.73060151   -4.6974147   -4.6974147   -3.6015135  0.011786157   -4.6974147    1.0959012  1010000 
 5784000   0.73083851   -4.6976369   -4.6976369   -3.6013802  0.010206883   -4.6976369    1.0962567  1010000 
 5785000   0.73136603   -4.6984885   -4.6984885   -3.6014405 0.0072177485   -4.6984885     1.097048  1010000 
 5786000   0.73163884   -4.6991474   -4.6991474   -3.6016903  0.010652061   -4.6991474    1.0974572  1010000 
 5787000   0.73113242   -4.6989258   -4.6989258   -3.6022283 0.0088537327   -4.6989258    1.0966975  1010000 
 5788000   0.73057637   -4.6981701   -4.6981701   -3.6023066  0.010563482   -4.6981701    1.0958635  1010000 
 5789000   0.73104233   -4.6992118   -4.6992118   -3.6026494  0.009699638   -4.6992118    1.0965624  1010000 
 5790000   0.73057791   -4.6987572   -4.6987572   -3.6028914 0.0099164004   -4.6987572    1.0958658  1010000 
 5791000   0.73043346   -4.6988103   -4.6988103   -3.6031612  0.008140943   -4.6988103    1.0956491  1010000 
 5792000   0.73076726   -4.6995746   -4.6995746   -3.6034248  0.006066708   -4.6995746    1.0961498  1010000 
 5793000   0.73068996   -4.6988117   -4.6988117   -3.6027779  0.011090038   -4.6988117    1.0960338  1010000 
 5794000   0.73138276    -4.700054    -4.700054   -3.6029809 0.0093438508    -4.700054    1.0970731  1010000 
 5795000   0.73080482   -4.6990931   -4.6990931   -3.6028869  0.011037166   -4.6990931    1.0962061  1010000 
 5796000    0.7309871   -4.6999166   -4.6999166   -3.6034371 0.0073951338   -4.6999166    1.0964796  1010000 
 5797000   0.73074356   -4.6991322   -4.6991322    -3.603018 0.0075695258   -4.6991322    1.0961143  1010000 
 5798000    0.7306735    -4.699517    -4.699517   -3.6035079 0.0081658226    -4.699517    1.0960092  1010000 
 5799000   0.73072373   -4.6998753   -4.6998753   -3.6037908  0.011093486   -4.6998753    1.0960845  1010000 
 5800000   0.73085982   -4.6999682   -4.6999682   -3.6036796  0.012929505   -4.6999682    1.0962887  1010000 
 5801000   0.73159438   -4.7010361   -4.7010361   -3.6036456  0.010292466   -4.7010361    1.0973905  1010000 
 5802000   0.73120043   -4.7003713   -4.7003713   -3.6035717  0.013941759   -4.7003713    1.0967996  1010000 
 5803000   0.73160284   -4.7016161   -4.7016161    -3.604213 0.0093455201   -4.7016161    1.0974032  1010000 
 5804000   0.73169261   -4.7024808   -4.7024808   -3.6049429 0.0068862864   -4.7024808    1.0975378  1010000 
 5805000   0.73139928   -4.7015616   -4.7015616   -3.6044638 0.0069574894   -4.7015616    1.0970978  1010000 
 5806000   0.73068928   -4.7002664   -4.7002664   -3.6042336  0.012895695   -4.7002664    1.0960328  1010000 
 5807000   0.73066237   -4.7005648   -4.7005648   -3.6045724 0.0086780753   -4.7005648    1.0959925  1010000 
 5808000   0.73008411    -4.699846    -4.699846   -3.6047209  0.010768692    -4.699846    1.0951251  1010000 
 5809000    0.7309959   -4.7013521   -4.7013521   -3.6048593 0.0084750351   -4.7013521    1.0964928  1010000 
 5810000   0.73043313   -4.7006863   -4.7006863   -3.6050377 0.0086668719   -4.7006863    1.0956486  1010000 
 5811000    0.7302104   -4.7009172   -4.7009172   -3.6056027  0.010858634   -4.7009172    1.0953145  1010000 
 5812000   0.73057879   -4.7018946   -4.7018946   -3.6060275 0.0073391001   -4.7018946    1.0958671  1010000 
 5813000   0.72960364   -4.7006295   -4.7006295   -3.6062251  0.012182124   -4.7006295    1.0944044  1010000 
 5814000   0.72993445   -4.7010076   -4.7010076   -3.6061071 0.0089465357   -4.7010076    1.0949006  1010000 
 5815000   0.73007712   -4.7014686   -4.7014686    -3.606354 0.0064285512   -4.7014686    1.0951146  1010000 
 5816000   0.73032743   -4.7020518   -4.7020518   -3.6065617 0.0066111622   -4.7020518    1.0954901  1010000 
 5817000   0.73020486   -4.7017065   -4.7017065   -3.6064002 0.0098134281   -4.7017065    1.0953062  1010000 
 5818000   0.73132703   -4.7028248   -4.7028248   -3.6058354 0.0063105224   -4.7028248    1.0969895  1010000 
 5819000   0.73067564   -4.7022047   -4.7022047   -3.6061923  0.012553361   -4.7022047    1.0960124  1010000 
 5820000   0.73079351   -4.7017617   -4.7017617   -3.6055725  0.011113816   -4.7017617    1.0961892  1010000 
 5821000   0.73058523    -4.701404    -4.701404   -3.6055272  0.013094772    -4.701404    1.0958768  1010000 
 5822000   0.73090309   -4.7021831   -4.7021831   -3.6058296  0.010671356   -4.7021831    1.0963536  1010000 
 5823000   0.73016078    -4.701389    -4.701389   -3.6061489  0.012967163    -4.701389    1.0952401  1010000 
 5824000   0.73069021   -4.7021785   -4.7021785   -3.6061442  0.012611293   -4.7021785    1.0960342  1010000 
 5825000   0.72990388   -4.7014595   -4.7014595   -3.6066048  0.010794033   -4.7014595    1.0948547  1010000 
 5826000   0.72961946   -4.7012192   -4.7012192   -3.6067911  0.013492352   -4.7012192    1.0944281  1010000 
 5827000   0.73078427   -4.7028025   -4.7028025   -3.6066271  0.011080615   -4.7028025    1.0961753  1010000 
 5828000   0.73076004   -4.7024107   -4.7024107   -3.6062717  0.010091772   -4.7024107     1.096139  1010000 
 5829000    0.7306161   -4.7021943   -4.7021943   -3.6062713 0.0091828552   -4.7021943    1.0959231  1010000 
 5830000   0.73065907   -4.7023083   -4.7023083   -3.6063208  0.011248992   -4.7023083    1.0959875  1010000 
 5831000    0.7305898   -4.7025584   -4.7025584   -3.6066748  0.010870152   -4.7025584    1.0958836  1010000 
 5832000   0.73016151   -4.7023179   -4.7023179   -3.6070767   0.01211167   -4.7023179    1.0952412  1010000 
 5833000   0.73039461    -4.702848    -4.702848   -3.6072572 0.0095715164    -4.702848    1.0955908  1010000 
 5834000   0.73024652    -4.702537    -4.702537   -3.6071683  0.010705191    -4.702537    1.0953687  1010000 
 5835000   0.73049087   -4.7025849   -4.7025849   -3.6068496   0.01044188   -4.7025849    1.0957352  1010000 
 5836000   0.73030899   -4.7023944   -4.7023944    -3.606932  0.011349688   -4.7023944    1.0954624  1010000 
 5837000   0.73091834   -4.7035924   -4.7035924    -3.607216 0.0078017306   -4.7035924    1.0963764  1010000 
 5838000   0.73008021   -4.7018468   -4.7018468   -3.6067276   0.01519251   -4.7018468    1.0951192  1010000 
 5839000   0.73018293   -4.7021222   -4.7021222   -3.6068489  0.015028837   -4.7021222    1.0952733  1010000 
 5840000   0.73098844    -4.703687    -4.703687   -3.6072054 0.0072103598    -4.703687    1.0964816  1010000 
 5841000   0.72971054    -4.701924    -4.701924   -3.6073593 0.0090468628    -4.701924    1.0945647  1010000 
 5842000   0.73053132   -4.7035272   -4.7035272   -3.6077313 0.0069888576   -4.7035272    1.0957959  1010000 
 5843000   0.72962306   -4.7020523   -4.7020523   -3.6076187 0.0096714575   -4.7020523    1.0944335  1010000 
 5844000   0.73008552   -4.7030028   -4.7030028   -3.6078756  0.011652426   -4.7030028    1.0951272  1010000 
 5845000   0.72968917   -4.7026723   -4.7026723   -3.6081397  0.011747508   -4.7026723    1.0945327  1010000 
 5846000   0.72953283   -4.7028717   -4.7028717   -3.6085735  0.004258462   -4.7028717    1.0942982  1010000 
 5847000   0.72968612   -4.7031523   -4.7031523   -3.6086242 0.0056837417   -4.7031523    1.0945281  1010000 
 5848000   0.72976175   -4.7031978   -4.7031978   -3.6085563  0.005920953   -4.7031978    1.0946415  1010000 
 5849000   0.72896351   -4.7018574   -4.7018574   -3.6084133 0.0096465803   -4.7018574    1.0934442  1010000 
 5850000   0.72896469   -4.7023342   -4.7023342   -3.6088883 0.0092587997   -4.7023342    1.0934459  1010000 
 5851000   0.72927179   -4.7027221   -4.7027221   -3.6088155 0.0086470092   -4.7027221    1.0939066  1010000 
 5852000    0.7307276   -4.7048802   -4.7048802   -3.6087899  0.003674723   -4.7048802    1.0960903  1010000 
 5853000   0.72943823   -4.7028924   -4.7028924   -3.6087361 0.0041127081   -4.7028924    1.0941563  1010000 
 5854000   0.72917658   -4.7027558   -4.7027558    -3.608992 0.0083994764   -4.7027558    1.0937638  1010000 
 5855000   0.72968814   -4.7033885   -4.7033885   -3.6088573 0.0073258592   -4.7033885    1.0945311  1010000 
 5856000    0.7296088   -4.7035315   -4.7035315   -3.6091194 0.0075562149   -4.7035315    1.0944121  1010000 
 5857000   0.72993984   -4.7039463   -4.7039463   -3.6090376 0.0092013301   -4.7039463    1.0949087  1010000 
 5858000   0.72959651    -4.703909    -4.703909   -3.6095153 0.0072313202    -4.703909    1.0943937  1010000 
 5859000   0.72999696   -4.7047939   -4.7047939   -3.6097996 0.0036207725   -4.7047939    1.0949944  1010000 
 5860000   0.72975332   -4.7040756   -4.7040756   -3.6094467 0.0076491738   -4.7040756    1.0946289  1010000 
 5861000   0.72973976   -4.7038801   -4.7038801   -3.6092715   0.01059013   -4.7038801    1.0946086  1010000 
 5862000     0.729986   -4.7043415   -4.7043415   -3.6093636 0.0087536409   -4.7043415    1.0949779  1010000 
 5863000   0.73004145   -4.7047771   -4.7047771    -3.609716 0.0096740834   -4.7047771    1.0950611  1010000 
 5864000   0.72985326   -4.7046693   -4.7046693   -3.6098905  0.011149127   -4.7046693    1.0947788  1010000 
 5865000   0.72867466   -4.7031427   -4.7031427   -3.6101317  0.012127492   -4.7031427    1.0930109  1010000 
 5866000   0.73006434   -4.7056097   -4.7056097   -3.6105143  0.005713249   -4.7056097    1.0950954  1010000 
 5867000      0.73018   -4.7059311   -4.7059311   -3.6106622  0.010501309   -4.7059311    1.0952689  1010000 
 5868000   0.73000919   -4.7059002   -4.7059002   -3.6108875  0.010574329   -4.7059002    1.0950127  1010000 
 5869000   0.73004987   -4.7063871   -4.7063871   -3.6113134 0.0075453705   -4.7063871    1.0950737  1010000 
 5870000   0.72992354   -4.7062074   -4.7062074   -3.6113232  0.013161396   -4.7062074    1.0948842  1010000 
 5871000   0.72943545   -4.7055765   -4.7055765   -3.6114244  0.012702724   -4.7055765    1.0941521  1010000 
 5872000   0.73026933   -4.7067243   -4.7067243   -3.6113214  0.010012062   -4.7067243    1.0954029  1010000 
 5873000   0.73017985   -4.7070847   -4.7070847    -3.611816   0.01148786   -4.7070847    1.0952687  1010000 
 5874000   0.73021598    -4.706789    -4.706789   -3.6114662 0.0087425465    -4.706789    1.0953229  1010000 
 5875000   0.72976692   -4.7062299   -4.7062299   -3.6115806  0.013642002   -4.7062299    1.0946493  1010000 
 5876000   0.72895388   -4.7053443   -4.7053443   -3.6119145  0.011924016   -4.7053443    1.0934297  1010000 
 5877000   0.72894798   -4.7060093   -4.7060093   -3.6125884  0.010497334   -4.7060093    1.0934209  1010000 
 5878000   0.72906006   -4.7064426   -4.7064426   -3.6128536 0.0080499991   -4.7064426     1.093589  1010000 
 5879000    0.7297293   -4.7078592   -4.7078592   -3.6132663 0.0038176544   -4.7078592    1.0945929  1010000 
 5880000   0.72924922   -4.7075832   -4.7075832   -3.6137104 0.0075445506   -4.7075832    1.0938728  1010000 
 5881000   0.72871148    -4.707263    -4.707263   -3.6141969 0.0048428441    -4.707263    1.0930661  1010000 
 5882000   0.72884534   -4.7069071   -4.7069071   -3.6136402  0.010134502   -4.7069071    1.0932669  1010000 
 5883000   0.72892305     -4.70757     -4.70757   -3.6141865  0.006644902     -4.70757    1.0933835  1010000 
 5884000   0.72813261   -4.7064873   -4.7064873   -3.6142894 0.0087900817   -4.7064873    1.0921978  1010000 
 5885000   0.72875247   -4.7070183   -4.7070183   -3.6138907 0.0094242892   -4.7070183    1.0931276  1010000 
 5886000   0.72860127   -4.7070985   -4.7070985   -3.6141976 0.0084016514   -4.7070985    1.0929008  1010000 
 5887000   0.72902408   -4.7074245   -4.7074245   -3.6138894 0.0090979377   -4.7074245     1.093535  1010000 
 5888000   0.72971201   -4.7081846   -4.7081846   -3.6136177 0.0097488564   -4.7081846    1.0945669  1010000 
 5889000   0.72996657   -4.7087605   -4.7087605   -3.6138117 0.0070933233   -4.7087605    1.0949488  1010000 
 5890000   0.72935355   -4.7081075   -4.7081075   -3.6140783  0.010195892   -4.7081075    1.0940292  1010000 
 5891000   0.72997952   -4.7086318   -4.7086318   -3.6136636 0.0095436117   -4.7086318    1.0949682  1010000 
 5892000   0.72930437   -4.7079409   -4.7079409   -3.6139854  0.013275705   -4.7079409    1.0939555  1010000 
 5893000   0.72934873   -4.7078835   -4.7078835   -3.6138615  0.011144121   -4.7078835     1.094022  1010000 
 5894000   0.72933174   -4.7077764   -4.7077764   -3.6137799  0.011199969   -4.7077764    1.0939965  1010000 
 5895000   0.72945271   -4.7086046   -4.7086046   -3.6144266  0.012145882   -4.7086046     1.094178  1010000 
 5896000   0.72965954   -4.7086397   -4.7086397   -3.6141515  0.010324155   -4.7086397    1.0944882  1010000 
 5897000   0.72872641   -4.7078844   -4.7078844   -3.6147959 0.0098177044   -4.7078844    1.0930885  1010000 
 5898000   0.72840665   -4.7078664   -4.7078664   -3.6152575   0.01261381   -4.7078664    1.0926089  1010000 
 5899000   0.72918311   -4.7095202   -4.7095202   -3.6157466 0.0097041845   -4.7095202    1.0937736  1010000 
 5900000   0.72885556   -4.7090573   -4.7090573   -3.6157751 0.0083341643   -4.7090573    1.0932823  1010000 
 5901000   0.72886396   -4.7091921   -4.7091921   -3.6158972 0.0061974958   -4.7091921    1.0932949  1010000 
 5902000    0.7292831   -4.7101228   -4.7101228   -3.6161992 0.0046951362   -4.7101228    1.0939236  1010000 
 5903000   0.72879935   -4.7092836   -4.7092836   -3.6160857 0.0071931496   -4.7092836    1.0931979  1010000 
 5904000   0.72804778   -4.7075949   -4.7075949   -3.6155243  0.010853926   -4.7075949    1.0920706  1010000 
 5905000   0.72875803   -4.7088537   -4.7088537   -3.6157177  0.010526455   -4.7088537     1.093136  1010000 
 5906000   0.72860551   -4.7088176   -4.7088176   -3.6159104  0.012193604   -4.7088176    1.0929072  1010000 
 5907000   0.72899821    -4.709061    -4.709061   -3.6155647 0.0087083074    -4.709061    1.0934962  1010000 
 5908000   0.72847334   -4.7088897   -4.7088897   -3.6161808  0.012079182   -4.7088897    1.0927089  1010000 
 5909000   0.72843295   -4.7090339   -4.7090339   -3.6163855 0.0055056627   -4.7090339    1.0926483  1010000 
 5910000   0.72863712   -4.7095578   -4.7095578   -3.6166032 0.0093885476   -4.7095578    1.0929546  1010000 
 5911000   0.72840943   -4.7092288   -4.7092288   -3.6166158  0.011834122   -4.7092288    1.0926131  1010000 
 5912000     0.727913   -4.7085739   -4.7085739   -3.6167055  0.010955513   -4.7085739    1.0918684  1010000 
 5913000   0.72855062   -4.7093584   -4.7093584   -3.6165336 0.0084382898   -4.7093584    1.0928248  1010000 
 5914000   0.72865111   -4.7098889   -4.7098889   -3.6169134 0.0071062953   -4.7098889    1.0929756  1010000 
 5915000   0.72757909   -4.7084164   -4.7084164   -3.6170488  0.009193221   -4.7084164    1.0913676  1010000 
 5916000   0.72845669   -4.7097802   -4.7097802   -3.6170963 0.0070647399   -4.7097802     1.092684  1010000 
 5917000   0.72814419   -4.7093854   -4.7093854   -3.6171701 0.0064944576   -4.7093854    1.0922152  1010000 
 5918000    0.7281712   -4.7095777   -4.7095777    -3.617322 0.0095386085   -4.7095777    1.0922557  1010000 
 5919000    0.7279081   -4.7094232   -4.7094232   -3.6175622  0.011117688   -4.7094232    1.0918611  1010000 
 5920000   0.72782814   -4.7096353   -4.7096353   -3.6178942 0.0084884881   -4.7096353    1.0917411  1010000 
 5921000   0.72773212   -4.7101429   -4.7101429   -3.6185458  0.010743697   -4.7101429    1.0915971  1010000 
 5922000    0.7287892   -4.7117128   -4.7117128   -3.6185301 0.0067004924   -4.7117128    1.0931827  1010000 
 5923000   0.72807715   -4.7108136   -4.7108136    -3.618699 0.0083320801   -4.7108136    1.0921146  1010000 
 5924000    0.7274971   -4.7100242   -4.7100242   -3.6187797 0.0099444389   -4.7100242    1.0912446  1010000 
 5925000   0.72843716    -4.711368    -4.711368   -3.6187133 0.0083506607    -4.711368    1.0926547  1010000 
 5926000   0.72832956   -4.7111189   -4.7111189   -3.6186256  0.010218946   -4.7111189    1.0924933  1010000 
 5927000   0.72816222   -4.7105665   -4.7105665   -3.6183242  0.011218383   -4.7105665    1.0922423  1010000 
 5928000    0.7287549   -4.7110652   -4.7110652   -3.6179339  0.011311541   -4.7110652    1.0931313  1010000 
 5929000   0.72866775   -4.7112456   -4.7112456   -3.6182451 0.0082624069   -4.7112456    1.0930005  1010000 
 5930000   0.72807189   -4.7103629   -4.7103629   -3.6182561   0.01305072   -4.7103629    1.0921068  1010000 
 5931000   0.72883307   -4.7114392   -4.7114392   -3.6181907  0.011802828   -4.7114392    1.0932485  1010000 
 5932000   0.72946378    -4.712608    -4.712608   -3.6184134  0.007285668    -4.712608    1.0941946  1010000 
 5933000   0.72865665   -4.7115128   -4.7115128    -3.618529  0.011864826   -4.7115128    1.0929839  1010000 
 5934000   0.72818293    -4.710906    -4.710906   -3.6186327  0.014721741    -4.710906    1.0922733  1010000 
 5935000    0.7296271   -4.7131131   -4.7131131   -3.6186736 0.0093506915   -4.7131131    1.0944396  1010000 
 5936000   0.72810029   -4.7114337   -4.7114337   -3.6192843  0.011792339   -4.7114337    1.0921494  1010000 
 5937000   0.72798921   -4.7118607   -4.7118607    -3.619878  0.008226432   -4.7118607    1.0919827  1010000 
 5938000   0.72793412   -4.7112937   -4.7112937   -3.6193936  0.016380839   -4.7112937    1.0919001  1010000 
 5939000   0.72848867   -4.7117786   -4.7117786   -3.6190467   0.01094485   -4.7117786    1.0927319  1010000 
 5940000   0.72838101   -4.7120696   -4.7120696   -3.6194992  0.010368799   -4.7120696    1.0925704  1010000 
 5941000   0.72818692   -4.7116536   -4.7116536   -3.6193743 0.0098148315   -4.7116536    1.0922793  1010000 
 5942000   0.72900236   -4.7131686   -4.7131686   -3.6196662 0.0051713975   -4.7131686    1.0935025  1010000 
 5943000   0.72806285   -4.7120084   -4.7120084   -3.6199152   0.01163019   -4.7120084    1.0920932  1010000 
 5944000   0.72782244    -4.711239    -4.711239   -3.6195064  0.012839487    -4.711239    1.0917326  1010000 
 5945000   0.72818623   -4.7116735   -4.7116735   -3.6193952  0.012233432   -4.7116735    1.0922783  1010000 
 5946000   0.72844189   -4.7122799   -4.7122799   -3.6196182 0.0093557379   -4.7122799    1.0926618  1010000 
 5947000   0.72816537   -4.7124628   -4.7124628   -3.6202158 0.0086526667   -4.7124628     1.092247  1010000 
 5948000   0.72795078   -4.7119118   -4.7119118   -3.6199867  0.011441291   -4.7119118    1.0919251  1010000 
 5949000   0.72845266    -4.712418    -4.712418   -3.6197401 0.0072112646    -4.712418    1.0926779  1010000 
 5950000   0.72858049   -4.7125403   -4.7125403   -3.6196706 0.0097347053   -4.7125403    1.0928697  1010000 
 5951000   0.72814141   -4.7122714   -4.7122714   -3.6200604 0.0088557811   -4.7122714     1.092211  1010000 
 5952000   0.72794589    -4.712326    -4.712326   -3.6204082 0.0071073294    -4.712326    1.0919178  1010000 
 5953000   0.72725078   -4.7114657   -4.7114657   -3.6205906 0.0090973021   -4.7114657    1.0908751  1010000 
 5954000   0.72808591   -4.7129716   -4.7129716   -3.6208438  0.009556226   -4.7129716    1.0921278  1010000 
 5955000   0.72716759   -4.7113333   -4.7113333   -3.6205829 0.0093285403   -4.7113333    1.0907503  1010000 
 5956000   0.72762312   -4.7123892   -4.7123892   -3.6209556 0.0057122993   -4.7123892    1.0914336  1010000 
 5957000   0.72767343   -4.7129073   -4.7129073   -3.6213982 0.0039905168   -4.7129073    1.0915091  1010000 
 5958000   0.72738798   -4.7130027   -4.7130027   -3.6219218 0.0048308062   -4.7130027    1.0910809  1010000 
 5959000   0.72727211   -4.7131728   -4.7131728   -3.6222657 0.0065615004   -4.7131728    1.0909071  1010000 
 5960000   0.72695356   -4.7126836   -4.7126836   -3.6222544 0.0091368473   -4.7126836    1.0904293  1010000 
 5961000   0.72757816   -4.7137142   -4.7137142    -3.622348 0.0056797931   -4.7137142    1.0913662  1010000 
 5962000   0.72744237   -4.7129765   -4.7129765    -3.621814 0.0085397375   -4.7129765    1.0911625  1010000 
 5963000    0.7276807   -4.7139077   -4.7139077   -3.6223878 0.0068071675   -4.7139077      1.09152  1010000 
 5964000   0.72721502   -4.7134655   -4.7134655    -3.622644 0.0078614311   -4.7134655    1.0908215  1010000 
 5965000   0.72747804   -4.7143111   -4.7143111   -3.6230951 0.0072788021   -4.7143111     1.091216  1010000 
 5966000   0.72666679    -4.713454    -4.713454   -3.6234549  0.010423309    -4.713454    1.0899991  1010000 
 5967000    0.7270708   -4.7139551   -4.7139551   -3.6233499  0.010465338   -4.7139551    1.0906051  1010000 
 5968000   0.72740033   -4.7143643   -4.7143643   -3.6232649 0.0092838899   -4.7143643    1.0910994  1010000 
 5969000    0.7272098   -4.7140661   -4.7140661   -3.6232525  0.011943079   -4.7140661    1.0908136  1010000 
 5970000   0.72755615   -4.7145604   -4.7145604   -3.6232272  0.012691278   -4.7145604    1.0913331  1010000 
 5971000   0.72715705   -4.7140724   -4.7140724   -3.6233379  0.010522636   -4.7140724    1.0907345  1010000 
 5972000   0.72775151   -4.7155979   -4.7155979   -3.6239717 0.0075958334   -4.7155979    1.0916262  1010000 
 5973000   0.72751384   -4.7150635   -4.7150635   -3.6237939   0.00938627   -4.7150635    1.0912697  1010000 
 5974000   0.72727194   -4.7147867   -4.7147867   -3.6238799  0.012897055   -4.7147867    1.0909068  1010000 
 5975000   0.72817892   -4.7161843   -4.7161843    -3.623917  0.013080585   -4.7161843    1.0922673  1010000 
 5976000   0.72776485   -4.7161991   -4.7161991   -3.6245529  0.014276431   -4.7161991    1.0916462  1010000 
 5977000   0.72737803   -4.7162229   -4.7162229   -3.6251569   0.01097518   -4.7162229     1.091066  1010000 
 5978000   0.72717353   -4.7155948   -4.7155948   -3.6248356   0.01152227   -4.7155948    1.0907592  1010000 
 5979000   0.72692471   -4.7157766   -4.7157766   -3.6253906  0.011702898   -4.7157766     1.090386  1010000 
 5980000   0.72690417   -4.7156249   -4.7156249   -3.6252697  0.011890421   -4.7156249    1.0903552  1010000 
 5981000   0.72712243   -4.7159423   -4.7159423   -3.6252598  0.009248892   -4.7159423    1.0906826  1010000 
 5982000   0.72763544   -4.7165685   -4.7165685   -3.6251165  0.010725567   -4.7165685    1.0914521  1010000 
 5983000   0.72737666   -4.7162974   -4.7162974   -3.6252335  0.011506578   -4.7162974    1.0910639  1010000 
 5984000   0.72757656   -4.7172922   -4.7172922   -3.6259285 0.0089170043   -4.7172922    1.0913638  1010000 
 5985000   0.72708861    -4.717159    -4.717159   -3.6265272  0.011430864    -4.717159    1.0906318  1010000 
 5986000   0.72740753   -4.7175226   -4.7175226   -3.6264123  0.010799104   -4.7175226    1.0911102  1010000 
 5987000   0.72748754   -4.7176849   -4.7176849   -3.6264547 0.0079471105   -4.7176849    1.0912302  1010000 
 5988000   0.72792742    -4.717634    -4.717634   -3.6257439  0.010515957    -4.717634      1.09189  1010000 
 5989000   0.72708488    -4.716978    -4.716978   -3.6263517  0.010909875    -4.716978    1.0906262  1010000 
 5990000   0.72742226   -4.7172312   -4.7172312   -3.6260989  0.010924109   -4.7172312    1.0911323  1010000 
 5991000   0.72758397   -4.7175213   -4.7175213   -3.6261464  0.011909326   -4.7175213    1.0913749  1010000 
 5992000   0.72739834   -4.7171233   -4.7171233   -3.6260269  0.011418738   -4.7171233    1.0910964  1010000 
 5993000   0.72723142   -4.7174572   -4.7174572   -3.6266111  0.010018841   -4.7174572    1.0908461  1010000 
 5994000   0.72677065   -4.7166944   -4.7166944   -3.6265395  0.010052554   -4.7166944    1.0901549  1010000 
 5995000   0.72658108   -4.7167377   -4.7167377   -3.6268672  0.010545743   -4.7167377    1.0898705  1010000 
 5996000   0.72752863   -4.7179931   -4.7179931   -3.6267013 0.0074143688   -4.7179931    1.0912919  1010000 
 5997000   0.72690845   -4.7173419   -4.7173419   -3.6269802 0.0095649044   -4.7173419    1.0903616  1010000 
 5998000   0.72622616   -4.7158208   -4.7158208   -3.6264826   0.01031245   -4.7158208    1.0893382  1010000 
 5999000   0.72691013   -4.7169749   -4.7169749   -3.6266107 0.0074189108   -4.7169749    1.0903641  1010000 
 6000000   0.72690136   -4.7170969   -4.7170969   -3.6267459 0.0075353187   -4.7170969     1.090351  1010000 
Loop time of 29314.8 on 240 procs for 6000000 steps with 1010000 atoms

Performance: 44209.750 tau/day, 204.675 timesteps/s
99.0% CPU use with 240 MPI tasks x 1 OpenMP threads

MPI task timing breakdown:
Section |  min time  |  avg time  |  max time  |%varavg|  %CPU | %total
-----------------------------------------------------------------------
Pair    | 6406.2     | 11020      | 15283      |1387.5 |  98.9 | 37.59
Bond    | 2.0435     | 2.7626     | 6.8637     |  47.0 | 100.0 |  0.01
Neigh   | 1465.4     | 2424.2     | 3377.9     | 622.8 |  99.5 |  8.27
Comm    | 7907.6     | 13238      | 18547      |1537.2 |  98.8 | 45.16
Output  | 460.38     | 461.91     | 462.33     |   0.5 |  99.8 |  1.58
Modify  | 298.15     | 580.71     | 1919.8     |1780.9 |  99.4 |  1.98
Other   |            | 1588       |            |       |       |  5.42

Nlocal:        4208.33 ave        4679 max        3770 min
Histogram: 1 3 1 3 169 58 2 1 1 1
Nghost:        5744.87 ave        6149 max        4030 min
Histogram: 13 27 0 0 0 0 0 0 0 200
Neighs:       159197.0 ave      169041 max      110673 min
Histogram: 4 4 4 5 1 1 1 2 149 69

Total # of neighbors = 38207186
Ave neighs/atom = 37.828897
Ave special neighs/atom = 0.0000000
Neighbor list builds = 365091
Dangerous builds = 1177

write_data	data.lj
System init for write_data ...
WARNING: Not all mixed pair coeffs generated from mixing. Use write_data with 'pair ij' option to store all pair coeffs. (src/write_data.cpp:312)
Total wall time: 8:08:45
