LAMMPS (24 Dec 2020)
OMP_NUM_THREADS environment is not set. Defaulting to 1 thread. (src/comm.cpp:94)
  using 1 OpenMP thread(s) per MPI task
#Read the equilibrated lj fluid and add nanocubes

units           lj
atom_style      full
atom_modify     map array first cubes
dimension       3
boundary        p p f
pair_style      lj/smooth/linear 2.0

variable        sigma           equal 1.0
variable        epsilon         equal 1.0
read_restart	restart.dat.5000000
Reading restart file ...
  restart file = 24 Dec 2020, LAMMPS = 24 Dec 2020
WARNING: Restart file used different # of processors: 192 vs. 288 (src/read_restart.cpp:697)
  restoring atom style full from restart
  orthogonal box = (0.0000000 0.0000000 0.0000000) to (80.000000 80.000000 160.00000)
  6 by 4 by 12 MPI processor grid
  restoring pair style lj/smooth/linear from restart
  439061 atoms
Finding 1-2 1-3 1-4 neighbors ...
  special bond factors lj:    0        0        0       
  special bond factors coul:  0        0        0       
     0 = max # of 1-2 neighbors
     0 = max # of 1-3 neighbors
     0 = max # of 1-4 neighbors
     1 = max # of special neighbors
  special bonds CPU = 2.308 seconds
  read_restart CPU = 2.730 seconds

group		solvent type 1
439061 atoms in group solvent

read_data	data_96.cubes group cubes add append
Reading data file ...
  orthogonal box = (0.0000000 0.0000000 0.0000000) to (80.000000 80.000000 160.00000)
  6 by 4 by 12 MPI processor grid
WARNING: Pair style in data file differs from currently defined pair style (src/read_data.cpp:588)
  reading atoms ...
  127776 atoms
  reading velocities ...
  127776 velocities
Finding 1-2 1-3 1-4 neighbors ...
  special bond factors lj:    0        0        0       
  special bond factors coul:  0        0        0       
     0 = max # of 1-2 neighbors
     0 = max # of 1-3 neighbors
     0 = max # of 1-4 neighbors
     1 = max # of special neighbors
  special bonds CPU = 0.034 seconds
  read_data CPU = 0.331 seconds

group 		hull  type 2
57792 atoms in group hull
group 		dummy type 3
69984 atoms in group dummy

neighbor      0.4 bin
neigh_modify  exclude molecule/intra cubes


pair_modify   shift yes

pair_coeff    1 1 1.0 1.0 #solvent
pair_coeff    2 2 1.0 1.0 1.12 #np
pair_coeff    3 3 0.0 0.0 0.0 #dummy
pair_coeff    2 3 0.0 0.0 0.0 #np dummy
pair_coeff    1 2 ${eps} ${sig} ${nscut} #np solvent
pair_coeff    1 2 1.0 ${sig} ${nscut} 
pair_coeff    1 2 1.0 1.0 ${nscut} 
pair_coeff    1 2 1.0 1.0 4.0 
pair_coeff    1 3 0.0 0.0 2.5 #dummy solvent

# delete solvent where the cubes are
delete_atoms  overlap 2.0 solvent cubes
System init for delete_atoms ...
Neighbor list info ...
  update every 1 steps, delay 10 steps, check yes
  max neighbors/atom: 2000, page size: 100000
  master list distance cutoff = 4.4
  ghost atom cutoff = 4.4
  binsize = 2.2, bins = 37 37 73
  2 neighbor lists, perpetual/occasional/extra = 1 1 0
  (1) command delete_atoms, occasional
      attributes: full, newton on
      pair build: full/bin
      stencil: full/bin/3d
      bin: standard
  (2) pair lj/smooth/linear, perpetual
      attributes: half, newton on
      pair build: half/bin/newton
      stencil: half/bin/3d/newton
      bin: standard
WARNING: Delete_atoms cutoff > minimum neighbor cutoff (src/delete_atoms.cpp:307)
WARNING: Ignoring 'compress yes' for molecular system (src/delete_atoms.cpp:125)
Deleted 148648 atoms, new total = 418189



pair_coeff    1 1 1.0 1.0 #solvent
pair_coeff    2 2 1.0 1.0 1.12 #np
pair_coeff    3 3 0.0 0.0 0.0 #dummy
pair_coeff    2 3 0.0 0.0 0.0 #np dummy
pair_coeff    1 2 ${eps} ${sig} ${nscut} #np solvent
pair_coeff    1 2 1.0 ${sig} ${nscut} 
pair_coeff    1 2 1.0 1.0 ${nscut} 
pair_coeff    1 2 1.0 1.0 4.0 
pair_coeff    1 3 0.0 0.0 0.0 #dummy solvent


comm_modify   mode multi cutoff/multi 1 2.0 cutoff/multi 2 2.0 cutoff/multi 3 8.67

reset_timestep 	0

balance 	1.05 shift z 10 1.05
Balancing ...
Neighbor list info ...
  update every 1 steps, delay 10 steps, check yes
  max neighbors/atom: 2000, page size: 100000
  master list distance cutoff = 4.4
  ghost atom cutoff = 8.67
  binsize = 2.2, bins = 37 37 73
  1 neighbor lists, perpetual/occasional/extra = 1 0 0
  (1) pair lj/smooth/linear, perpetual
      attributes: half, newton on
      pair build: half/bin/newton
      stencil: half/bin/3d/newton
      bin: standard
 rebalancing time: 0.004 seconds
  iteration count = 4
  initial/final maximal load/proc = 2244.0000 2124.0000
  initial/final imbalance factor  = 1.5454065 1.4627644
  x cuts: 0.0000000 0.16666667 0.33333333 0.50000000 0.66666667 0.83333333 1.0000000
  y cuts: 0.0000000 0.25000000 0.50000000 0.75000000 1.0000000
  z cuts: 0.0000000 0.057291667 0.11979167 0.17187500 0.23958333 0.30208333 0.34375000 0.41145833 0.46354167 0.51562500 0.59895833 0.64583333 1.0000000

####################### WALLS ###########################

variable       epsilonWall equal 2*${epsilon}
variable       epsilonWall equal 2*1
variable       repulsive   equal   0.7147*${sigma}
variable       repulsive   equal   0.7147*1
variable       full	   equal   3*${sigma}
variable       full	   equal   3*1
region         lowWall block EDGE EDGE EDGE EDGE EDGE 2

fix            topWall all wall/lj93 zhi EDGE 	       ${epsilonWall} ${sigma} ${repulsive} units box
fix            topWall all wall/lj93 zhi EDGE 	       2 ${sigma} ${repulsive} units box
fix            topWall all wall/lj93 zhi EDGE 	       2 1 ${repulsive} units box
fix            topWall all wall/lj93 zhi EDGE 	       2 1 0.7147 units box
fix            lowSol solvent wall/lj93 zlo EDGE                ${epsilonWall} ${sigma} ${full} units box
fix            lowSol solvent wall/lj93 zlo EDGE                2 ${sigma} ${full} units box
fix            lowSol solvent wall/lj93 zlo EDGE                2 1 ${full} units box
fix            lowSol solvent wall/lj93 zlo EDGE                2 1 3 units box
fix 	       lowCub cubes wall/lj93 zlo EDGE                ${epsilonWall} ${sigma} ${repulsive} units box
fix 	       lowCub cubes wall/lj93 zlo EDGE                2 ${sigma} ${repulsive} units box
fix 	       lowCub cubes wall/lj93 zlo EDGE                2 1 ${repulsive} units box
fix 	       lowCub cubes wall/lj93 zlo EDGE                2 1 0.7147 units box


###################### COMPUTES ##########################

compute        bin1 solvent chunk/atom bin/1d z lower 1.0 units box


######################  FIXES ############################


fix             peclet solvent ave/chunk 10 10 10000 bin1 density/number norm                  none ave one file density.profile

fix              temp solvent ave/chunk 10 10 10000 bin1 temp norm                  none ave one file temp.profile

fix             1 cubes rigid/nve/small molecule
  create bodies CPU = 0.032 seconds
  96 rigid bodies with 127776 atoms
  8.6602540 = max distance from body owner to body atom

fix             2 solvent nve# temp ${temp} ${temp} 10


## Thermostat
region          regthermo block EDGE EDGE EDGE EDGE 0 15
group           thermo dynamic solvent region regthermo every 1000
dynamic group thermo defined
fix             3 thermo langevin ${temp} ${temp} 10 156453
fix             3 thermo langevin 0.6 ${temp} 10 156453
fix             3 thermo langevin 0.6 0.6 10 156453


#### Load balancing

fix             bal all balance 1000 1.05 shift z 10 1.05

############### Diagnostics and computes ###################

compute        	com cubes          rigid/local   1 mol x y z
compute        	quat cubes         rigid/local   1 mol quatw quati quatj quatk

compute 	cc2 cubes 	   chunk/atom 	 molecule
compute 	msd cubes 	   msd/chunk 	 cc2

fix 		msd all ave/time  1 1 10000 c_msd[*] file dump.msd ave one mode vector

dump            1 all custom 500000 dump.lammpstrj id mol type x y z
dump		cubetrj hull custom 500000 cubes.lammpstrj id mol type x y z
dump            com cubes local 10000 dump.*.xyz c_com[*]
dump	        xyz hull xyz 100000 cubes.xyz
dump            quat cubes      local 10000 dump.*.quat c_quat[*]
#dump		mol cubes molfile 10000 mol.xyz xyz


dump            2 all image 10000 image.*.png type type zoom 1.5 size 1280 720
dump_modify     2 pad 8
dump		image cubes image 10000 image_cubes.*.png type type zoom 1.5 size 1280 720
dump_modify	image pad 8
dump            3 all movie 5000 movie.avi type type zoom 1.5 size 1280 720
dump		4 cubes movie 5000 movie_cubes.avi type type size 1280 720


thermo          1000
thermo_style    custom step temp epair evdwl etotal press pe ke atoms

restart         1000000 restart.dat
timestep        0.005
timer           full
New timer settings: style=full  mode=nosync  timeout=off

run 		5000000
Per MPI rank memory allocation (min/avg/max) = 14.12 | 20.75 | 23.70 Mbytes
Step Temp E_pair E_vdwl TotEng Press PotEng KinEng Atoms 
       0   0.60857357   -1.4835435   -1.4835435  -0.84918709  0.013032728   -1.4835435   0.63435641   418189 
    1000    0.6564388   -1.5347279   -1.5347279  -0.85047841   0.00671894   -1.5347279   0.68424949   418189 
    2000   0.69605079   -1.5819417   -1.5819417  -0.85640201   0.03755113   -1.5819417   0.72553968   418189 
    3000   0.71276474   -1.6074733   -1.6074733  -0.86451153  0.059752326   -1.6074733   0.74296174   418189 
    4000    0.7202044   -1.6222699   -1.6222699  -0.87155333  0.072108776   -1.6222699   0.75071659   418189 
    5000    0.7236066   -1.6339071   -1.6339071  -0.87964413   0.06683726   -1.6339071   0.75426292   418189 
    6000   0.72392041    -1.641881    -1.641881  -0.88729097  0.077006112    -1.641881   0.75459003   418189 
    7000   0.72266385   -1.6481142   -1.6481142  -0.89483396  0.067739597   -1.6481142   0.75328024   418189 
    8000   0.72157474   -1.6549252   -1.6549252  -0.90278019  0.072720117   -1.6549252   0.75214498   418189 
    9000   0.71900684   -1.6604269   -1.6604269  -0.91095861  0.080243071   -1.6604269    0.7494683   418189 
   10000   0.71607172   -1.6640082   -1.6640082  -0.91759935  0.072514965   -1.6640082   0.74640883   418189 
   11000   0.71281978   -1.6678066   -1.6678066  -0.92478744  0.074835685   -1.6678066   0.74301912   418189 
   12000   0.71093157   -1.6723354   -1.6723354   -0.9312845  0.084500259   -1.6723354   0.74105091   418189 
   13000   0.70923225   -1.6770571   -1.6770571  -0.93777752  0.072654679   -1.6770571   0.73927959   418189 
   14000   0.70764025   -1.6811462   -1.6811462  -0.94352608  0.078636034   -1.6811462   0.73762014   418189 
   15000   0.70511815   -1.6849626   -1.6849626  -0.94997139  0.073969747   -1.6849626   0.73499119   418189 
   16000   0.70272465   -1.6876886   -1.6876886  -0.95519233  0.061871504   -1.6876886    0.7324963   418189 
   17000   0.70123968   -1.6910628   -1.6910628  -0.96011437  0.059615844   -1.6910628   0.73094841   418189 
   18000   0.69795641   -1.6920058   -1.6920058  -0.96447978  0.071181443   -1.6920058   0.72752604   418189 
   19000   0.69615948   -1.6932404   -1.6932404  -0.96758738  0.064178781   -1.6932404   0.72565298   418189 
   20000   0.69657772   -1.6967529   -1.6967529    -0.970664  0.070455825   -1.6967529   0.72608894   418189 
   21000   0.69599294   -1.6987671   -1.6987671  -0.97328776  0.055593134   -1.6987671   0.72547939   418189 
   22000   0.69568817   -1.7017865   -1.7017865  -0.97662477  0.064403219   -1.7017865   0.72516171   418189 
   23000   0.69289252   -1.7011196   -1.7011196  -0.97887195  0.066866708   -1.7011196   0.72224761   418189 
   24000   0.69159201   -1.7023835   -1.7023835  -0.98149149  0.080310584   -1.7023835   0.72089201   418189 
   25000   0.69125247   -1.7036923   -1.7036923  -0.98315424  0.071038799   -1.7036923   0.72053808   418189 
   26000   0.69113993   -1.7054772   -1.7054772  -0.98505647  0.072690917   -1.7054772   0.72042077   418189 
   27000   0.69040205   -1.7064924   -1.7064924  -0.98684079  0.057570062   -1.7064924   0.71965163   418189 
   28000   0.68862052   -1.7055749   -1.7055749  -0.98778032   0.06655546   -1.7055749   0.71779463   418189 
   29000   0.68885627   -1.7076203   -1.7076203  -0.98957993    0.0742935   -1.7076203   0.71804037   418189 
   30000   0.68821529   -1.7082365   -1.7082365  -0.99086429  0.055892325   -1.7082365   0.71737223   418189 
   31000   0.68754616   -1.7098117   -1.7098117  -0.99313695   0.07077379   -1.7098117   0.71667475   418189 
   32000   0.68770547   -1.7109424   -1.7109424  -0.99410163    0.0764221   -1.7109424    0.7168408   418189 
   33000   0.68675639   -1.7107437   -1.7107437  -0.99489222  0.060970335   -1.7107437   0.71585152   418189 
   34000   0.68716124   -1.7125832   -1.7125832  -0.99630969  0.064116503   -1.7125832   0.71627352   418189 
   35000   0.68698378   -1.7128511   -1.7128511  -0.99676253  0.066915825   -1.7128511   0.71608855   418189 
   36000   0.68588546   -1.7134653   -1.7134653  -0.99852161  0.059137566   -1.7134653    0.7149437   418189 
   37000    0.6876696   -1.7163105   -1.7163105  -0.99950712  0.073107436   -1.7163105   0.71680342   418189 
   38000    0.6887123   -1.7191013   -1.7191013    -1.001211  0.069484834   -1.7191013   0.71789029   418189 
   39000   0.68665113   -1.7182373   -1.7182373   -1.0024955  0.068656898   -1.7182373    0.7157418   418189 
   40000   0.68552646   -1.7185367   -1.7185367   -1.0039672  0.059857703   -1.7185367   0.71456948   418189 
   41000   0.68512694   -1.7190543   -1.7190543   -1.0049013  0.059563699   -1.7190543   0.71415304   418189 
   42000   0.68481385     -1.72038     -1.72038   -1.0065533  0.071532687     -1.72038   0.71382669   418189 
   43000   0.68490806   -1.7220468   -1.7220468   -1.0081219  0.066829084   -1.7220468   0.71392488   418189 
   44000     0.685097   -1.7234222   -1.7234222   -1.0093004  0.070459206   -1.7234222   0.71412183   418189 
   45000   0.68603679   -1.7260453   -1.7260453   -1.0109438  0.072828931   -1.7260453   0.71510143   418189 
   46000   0.68535368   -1.7262965   -1.7262965   -1.0119071  0.064333794   -1.7262965   0.71438938   418189 
   47000   0.68550168   -1.7283045   -1.7283045   -1.0137608   0.06092843   -1.7283045   0.71454365   418189 
   48000   0.68657655   -1.7293854   -1.7293854   -1.0137213  0.067687583   -1.7293854   0.71566406   418189 
   49000    0.6848652   -1.7283264   -1.7283264   -1.0144462  0.070229414   -1.7283264    0.7138802   418189 
   50000   0.68370438   -1.7278903   -1.7278903     -1.01522  0.067289313   -1.7278903   0.71267021   418189 
   51000   0.68340569   -1.7291014   -1.7291014   -1.0167426   0.07076389   -1.7291014   0.71235886   418189 
   52000   0.68551282   -1.7318854   -1.7318854   -1.0173301  0.066565282   -1.7318854   0.71455527   418189 
   53000   0.68421899   -1.7299259   -1.7299259   -1.0167193  0.059985317   -1.7299259   0.71320662   418189 
   54000   0.68458202    -1.731488    -1.731488    -1.017903  0.069947319    -1.731488   0.71358502   418189 
   55000   0.68380207   -1.7318456   -1.7318456   -1.0190736  0.065147779   -1.7318456   0.71277204   418189 
   56000    0.6839545   -1.7329817   -1.7329817   -1.0200508  0.065555399   -1.7329817   0.71293093   418189 
   57000   0.68251074   -1.7323375   -1.7323375   -1.0209115  0.063083698   -1.7323375     0.711426   418189 
   58000    0.6821501   -1.7331336   -1.7331336   -1.0220835  0.071179813   -1.7331336   0.71105008   418189 
   59000   0.68215817   -1.7334068   -1.7334068   -1.0223483  0.072744893   -1.7334068   0.71105849   418189 
   60000   0.68308921   -1.7352913   -1.7352913   -1.0232624  0.061287514   -1.7352913   0.71202897   418189 
   61000   0.68293387   -1.7365581   -1.7365581    -1.024691  0.066339293   -1.7365581   0.71186706   418189 
   62000   0.68348579   -1.7377643   -1.7377643    -1.025322  0.063518792   -1.7377643   0.71244236   418189 
   63000   0.68323352   -1.7375931   -1.7375931   -1.0254137  0.068032738   -1.7375931    0.7121794   418189 
   64000   0.68210223   -1.7370932   -1.7370932    -1.026093  0.065471879   -1.7370932   0.71100018   418189 
   65000   0.68237507   -1.7388206   -1.7388206    -1.027536   0.06740135   -1.7388206   0.71128458   418189 
   66000   0.68122408   -1.7393787   -1.7393787   -1.0292939  0.063797121   -1.7393787   0.71008483   418189 
   67000   0.68200168   -1.7407867   -1.7407867   -1.0298914  0.060825116   -1.7407867   0.71089538   418189 
   68000   0.68245292   -1.7414123   -1.7414123   -1.0300465  0.072427063   -1.7414123   0.71136573   418189 
   69000   0.68114048   -1.7411131   -1.7411131   -1.0311154   0.06614138   -1.7411131   0.70999769   418189 
   70000   0.68035935   -1.7412289   -1.7412289   -1.0320454  0.065412562   -1.7412289   0.70918346   418189 
   71000   0.68089224   -1.7417782   -1.7417782   -1.0320392  0.063723655   -1.7417782   0.70973893   418189 
   72000   0.68150041   -1.7429465   -1.7429465   -1.0325737   0.06442853   -1.7429465   0.71037287   418189 
   73000   0.68056536   -1.7426523   -1.7426523   -1.0332541  0.067917315   -1.7426523    0.7093982   418189 
   74000    0.6794266   -1.7429929   -1.7429929   -1.0347817  0.069867413   -1.7429929   0.70821119   418189 
   75000   0.68106202   -1.7451139   -1.7451139    -1.035198  0.063661748   -1.7451139   0.70991591   418189 
   76000   0.68005282   -1.7457182   -1.7457182   -1.0368543  0.071767286   -1.7457182   0.70886395   418189 
   77000   0.67948856   -1.7459867   -1.7459867   -1.0377109  0.076209446   -1.7459867   0.70827578   418189 
   78000   0.67974786   -1.7475662   -1.7475662   -1.0390201  0.070396065   -1.7475662   0.70854606   418189 
   79000   0.67980212   -1.7488115   -1.7488115   -1.0402089  0.076282925   -1.7488115   0.70860263   418189 
   80000     0.680603   -1.7503685   -1.7503685   -1.0409311  0.069629544   -1.7503685   0.70943743   418189 
   81000   0.67850439   -1.7488821   -1.7488821   -1.0416321  0.068444837   -1.7488821   0.70724991   418189 
   82000   0.67950971   -1.7510602   -1.7510602   -1.0427624  0.062926055   -1.7510602   0.70829783   418189 
   83000   0.67949662   -1.7516376   -1.7516376   -1.0433534  0.063570912   -1.7516376   0.70828418   418189 
   84000   0.67932317   -1.7525448   -1.7525448   -1.0444414  0.066290578   -1.7525448   0.70810339   418189 
   85000   0.67832075   -1.7521627   -1.7521627   -1.0451042  0.069418345   -1.7521627   0.70705849   418189 
   86000   0.67822415   -1.7527737   -1.7527737   -1.0458159  0.074245809   -1.7527737    0.7069578   418189 
   87000   0.67835671   -1.7536005   -1.7536005   -1.0465045  0.065528636   -1.7536005   0.70709597   418189 
   88000   0.67881469   -1.7549553   -1.7549553   -1.0473819  0.069772228   -1.7549553   0.70757336   418189 
   89000   0.67923284   -1.7565839   -1.7565839   -1.0485746  0.066043014   -1.7565839   0.70800922   418189 
   90000   0.67829641    -1.756231    -1.756231   -1.0491979  0.064918213    -1.756231   0.70703312   418189 
   91000   0.67835121   -1.7565909   -1.7565909   -1.0495007  0.072092501   -1.7565909   0.70709025   418189 
   92000   0.67785365    -1.756926    -1.756926   -1.0503544  0.067135261    -1.756926   0.70657161   418189 
   93000   0.67697775   -1.7568416   -1.7568416    -1.051183  0.070876042   -1.7568416    0.7056586   418189 
   94000   0.67758717   -1.7582272   -1.7582272   -1.0519334  0.072992718   -1.7582272   0.70629383   418189 
   95000   0.67631903   -1.7585207   -1.7585207   -1.0535487  0.068721152   -1.7585207   0.70497197   418189 
   96000   0.67572131   -1.7579941   -1.7579941   -1.0536452  0.065163694   -1.7579941   0.70434893   418189 
   97000   0.67611285   -1.7590829   -1.7590829   -1.0543258  0.063855225   -1.7590829   0.70475705   418189 
   98000    0.6767239   -1.7608039   -1.7608039   -1.0554099  0.070602301   -1.7608039   0.70539399   418189 
   99000   0.67643829   -1.7614854   -1.7614854   -1.0563891  0.067089502   -1.7614854   0.70509629   418189 
  100000   0.67609069   -1.7630705   -1.7630705   -1.0583366  0.073587107   -1.7630705   0.70473396   418189 
  101000   0.67507133   -1.7621576   -1.7621576   -1.0584862  0.071669271   -1.7621576   0.70367141   418189 
  102000   0.67382757   -1.7619818   -1.7619818   -1.0596068  0.074078522   -1.7619818   0.70237495   418189 
  103000   0.67444775    -1.763046    -1.763046   -1.0600246  0.074271692    -1.763046   0.70302141   418189 
  104000   0.67596574    -1.766178    -1.766178   -1.0615743  0.067201502    -1.766178   0.70460371   418189 
  105000   0.67445023   -1.7654024   -1.7654024   -1.0623784  0.069534968   -1.7654024   0.70302399   418189 
  106000   0.67463368   -1.7664969   -1.7664969   -1.0632817  0.064070593   -1.7664969   0.70321522   418189 
  107000   0.67337138   -1.7662892   -1.7662892   -1.0643898  0.067606455   -1.7662892   0.70189944   418189 
  108000   0.67394841   -1.7678081   -1.7678081   -1.0653072  0.069953349   -1.7678081   0.70250091   418189 
  109000   0.67209969   -1.7657054   -1.7657054   -1.0651315  0.060462114   -1.7657054   0.70057387   418189 
  110000   0.67220902   -1.7662953   -1.7662953   -1.0656075  0.054272154   -1.7662953   0.70068783   418189 
  111000   0.67173198    -1.766184    -1.766184   -1.0659934  0.065350844    -1.766184   0.70019058   418189 
  112000    0.6732571   -1.7685059   -1.7685059   -1.0667256  0.066369591   -1.7685059   0.70178032   418189 
  113000   0.67287505   -1.7688354   -1.7688354   -1.0674533  0.064237561   -1.7688354   0.70138208   418189 
  114000   0.67246494   -1.7694807   -1.7694807   -1.0685262  0.061310721   -1.7694807   0.70095459   418189 
  115000   0.67222119   -1.7694833   -1.7694833   -1.0687828  0.069478004   -1.7694833   0.70070052   418189 
  116000   0.67241126   -1.7703182   -1.7703182   -1.0694195  0.068263501   -1.7703182   0.70089865   418189 
  117000   0.67201923   -1.7709627   -1.7709627   -1.0704727  0.065761518   -1.7709627   0.70049001   418189 
  118000   0.67009447   -1.7697477   -1.7697477    -1.071264  0.059777221   -1.7697477    0.6984837   418189 
  119000    0.6722326   -1.7718661   -1.7718661   -1.0711537  0.058935378   -1.7718661   0.70071242   418189 
  120000   0.67077547   -1.7719186   -1.7719186    -1.072725  0.058630929   -1.7719186   0.69919355   418189 
  121000   0.67183262   -1.7737387   -1.7737387   -1.0734432  0.058573102   -1.7737387   0.70029549   418189 
  122000   0.67120262   -1.7741073   -1.7741073   -1.0744685  0.067713336   -1.7741073    0.6996388   418189 
  123000   0.67039799   -1.7741474   -1.7741474   -1.0753473  0.062497642   -1.7741474   0.69880007   418189 
  124000   0.67060917   -1.7741943   -1.7741943   -1.0751741  0.064898995   -1.7741943   0.69902021   418189 
  125000   0.67200322   -1.7753292   -1.7753292   -1.0748559  0.061308698   -1.7753292   0.70047331   418189 
  126000   0.67124163   -1.7752455   -1.7752455   -1.0755661  0.067885789   -1.7752455   0.69967946   418189 
  127000   0.66989806   -1.7746065   -1.7746065   -1.0763275  0.063375767   -1.7746065   0.69827897   418189 
  128000   0.67151527   -1.7770108   -1.7770108   -1.0770461  0.072815225   -1.7770108   0.69996469   418189 
  129000   0.66966593   -1.7757443   -1.7757443   -1.0777073  0.067852991   -1.7757443     0.698037   418189 
  130000   0.66989114   -1.7769916   -1.7769916   -1.0787198  0.065177022   -1.7769916   0.69827175   418189 
  131000   0.67071301   -1.7782047   -1.7782047   -1.0790763  0.066162564   -1.7782047   0.69912844   418189 
  132000    0.6705387   -1.7781037   -1.7781037   -1.0791569  0.059558956   -1.7781037   0.69894675   418189 
  133000   0.67087864   -1.7789335   -1.7789335   -1.0796324   0.05844543   -1.7789335   0.69930109   418189 
  134000   0.66994563   -1.7790369   -1.7790369   -1.0807083  0.060712544   -1.7790369   0.69832855   418189 
  135000   0.66750511   -1.7772289   -1.7772289   -1.0814443  0.068953509   -1.7772289   0.69578464   418189 
  136000   0.67021245   -1.7806128   -1.7806128   -1.0820061  0.067001392   -1.7806128   0.69860668   418189 
  137000    0.6695072   -1.7803726   -1.7803726   -1.0825011  0.063815481   -1.7803726   0.69787155   418189 
  138000   0.66893719   -1.7813137   -1.7813137   -1.0840363  0.055877733   -1.7813137   0.69727739   418189 
  139000    0.6687646   -1.7821645   -1.7821645    -1.085067  0.058987472   -1.7821645   0.69709749   418189 
  140000   0.66787463   -1.7818357   -1.7818357   -1.0856659  0.054706406   -1.7818357   0.69616981   418189 
  141000   0.66867215   -1.7833515   -1.7833515   -1.0863504  0.059238864   -1.7833515   0.69700112   418189 
  142000   0.66670789   -1.7824126   -1.7824126    -1.087459  0.063414489   -1.7824126   0.69495365   418189 
  143000   0.66949491   -1.7855723   -1.7855723   -1.0877135  0.060230811   -1.7855723   0.69785873   418189 
  144000   0.66767617   -1.7842352   -1.7842352   -1.0882723  0.058344006   -1.7842352   0.69596295   418189 
  145000   0.66759416   -1.7851682   -1.7851682   -1.0892908  0.073104277   -1.7851682   0.69587746   418189 
  146000   0.66759371   -1.7853261   -1.7853261   -1.0894491  0.054799471   -1.7853261   0.69587699   418189 
  147000   0.66807899   -1.7861005   -1.7861005   -1.0897176  0.064163213   -1.7861005   0.69638284   418189 
  148000   0.66928835   -1.7874873   -1.7874873   -1.0898439  0.063531654   -1.7874873   0.69764343   418189 
  149000   0.66875604   -1.7874602   -1.7874602   -1.0903716  0.067243374   -1.7874602   0.69708857   418189 
  150000   0.66796419    -1.786502    -1.786502   -1.0902388  0.060468852    -1.786502   0.69626317   418189 
  151000   0.66968394   -1.7887509   -1.7887509   -1.0906951  0.066679384   -1.7887509   0.69805578   418189 
  152000   0.66756376   -1.7872563   -1.7872563   -1.0914105     0.062664   -1.7872563   0.69584577   418189 
  153000    0.6677232   -1.7877801   -1.7877801   -1.0917682  0.065877565   -1.7877801   0.69601197   418189 
  154000   0.67008933   -1.7910098   -1.7910098   -1.0925314  0.054850014   -1.7910098   0.69847834   418189 
  155000   0.66707079   -1.7885984   -1.7885984   -1.0932664  0.056762483   -1.7885984   0.69533191   418189 
  156000   0.66656357   -1.7895473   -1.7895473   -1.0947441  0.066464672   -1.7895473   0.69480321   418189 
  157000   0.66662748   -1.7895254   -1.7895254   -1.0946556  0.072671274   -1.7895254   0.69486983   418189 
  158000   0.66743454   -1.7913426   -1.7913426   -1.0956315  0.066810724   -1.7913426   0.69571107   418189 
  159000    0.6658414   -1.7905267   -1.7905267   -1.0964763  0.063602317   -1.7905267   0.69405044   418189 
  160000    0.6657348   -1.7905178   -1.7905178   -1.0965785  0.063844801   -1.7905178   0.69393932   418189 
  161000   0.66773137   -1.7931141   -1.7931141   -1.0970936  0.060834347   -1.7931141   0.69602049   418189 
  162000    0.6675312   -1.7936485   -1.7936485   -1.0978367  0.069951579   -1.7936485   0.69581183   418189 
  163000   0.66785446   -1.7937249   -1.7937249   -1.0975761  0.060091385   -1.7937249   0.69614879   418189 
  164000   0.66791852   -1.7943623   -1.7943623   -1.0981468   0.07091614   -1.7943623   0.69621556   418189 
  165000   0.66736051   -1.7950018   -1.7950018   -1.0993679  0.058991136   -1.7950018   0.69563391   418189 
  166000   0.66708326   -1.7953879   -1.7953879    -1.100043  0.062356697   -1.7953879   0.69534492   418189 
  167000   0.66653079   -1.7954378   -1.7954378   -1.1006687   0.05638091   -1.7954378   0.69476905   418189 
  168000   0.66492814   -1.7935366   -1.7935366   -1.1004381   0.06681563   -1.7935366   0.69309849   418189 
  169000   0.66591547   -1.7953801   -1.7953801   -1.1012525  0.058148161   -1.7953801   0.69412766   418189 
  170000    0.6660762   -1.7962857   -1.7962857   -1.1019905  0.063583071   -1.7962857    0.6942952   418189 
  171000   0.66533886   -1.7957726   -1.7957726    -1.102246  0.057779578   -1.7957726   0.69352661   418189 
  172000   0.66610267   -1.7973282   -1.7973282   -1.1030054  0.066041409   -1.7973282   0.69432278   418189 
  173000   0.66504927   -1.7973195   -1.7973195   -1.1040947  0.052632443   -1.7973195   0.69322475   418189 
  174000   0.66596177   -1.7987382   -1.7987382   -1.1045623  0.068388546   -1.7987382   0.69417591   418189 
  175000   0.66627213   -1.7988917   -1.7988917   -1.1043923  0.064203564   -1.7988917   0.69449942   418189 
  176000   0.66613177    -1.799016    -1.799016   -1.1046629  0.060828102    -1.799016   0.69435311   418189 
  177000   0.66584137   -1.7990313   -1.7990313   -1.1049808  0.057689294   -1.7990313   0.69405041   418189 
  178000   0.66421335   -1.7983563   -1.7983563   -1.1060029  0.065411094   -1.7983563   0.69235342   418189 
  179000   0.66510754   -1.7996102   -1.7996102   -1.1063247  0.060204095   -1.7996102    0.6932855   418189 
  180000   0.66538649    -1.799726    -1.799726   -1.1061498  0.069481211    -1.799726   0.69357626   418189 
  181000   0.66501885   -1.7996679   -1.7996679   -1.1064748  0.066712466   -1.7996679   0.69319305   418189 
  182000    0.6637867    -1.799927    -1.799927   -1.1080183  0.066384169    -1.799927   0.69190869   418189 
  183000   0.66519845   -1.8013329   -1.8013329   -1.1079526   0.06883667   -1.8013329   0.69338026   418189 
  184000   0.66633112   -1.8026855   -1.8026855   -1.1081246  0.072274465   -1.8026855   0.69456092   418189 
  185000   0.66364643   -1.8007153   -1.8007153   -1.1089528  0.060319027   -1.8007153   0.69176249   418189 
  186000    0.6646477   -1.8022174   -1.8022174   -1.1094113  0.061104525   -1.8022174   0.69280617   418189 
  187000   0.66363571   -1.8020563   -1.8020563    -1.110305  0.063798178   -1.8020563    0.6917513   418189 
  188000   0.66275874   -1.8021323   -1.8021323   -1.1112951   0.06483798   -1.8021323   0.69083719   418189 
  189000   0.66544417   -1.8047676   -1.8047676   -1.1111312  0.067831966   -1.8047676   0.69363639   418189 
  190000   0.66433536   -1.8043346   -1.8043346    -1.111854  0.068566547   -1.8043346    0.6924806   418189 
  191000   0.66283272   -1.8033455   -1.8033455   -1.1124312  0.063602967   -1.8033455    0.6909143   418189 
  192000   0.66349958   -1.8047911   -1.8047911   -1.1131817  0.062164433   -1.8047911   0.69160941   418189 
  193000   0.66361832   -1.8055848   -1.8055848   -1.1138516  0.066268523   -1.8055848   0.69173318   418189 
  194000   0.66285319    -1.805304    -1.805304   -1.1143684  0.064776435    -1.805304   0.69093564   418189 
  195000     0.664155    -1.806823    -1.806823   -1.1145304  0.063543144    -1.806823    0.6922926   418189 
  196000   0.66309681   -1.8062409   -1.8062409   -1.1150513  0.057588923   -1.8062409   0.69118958   418189 
  197000   0.66332619   -1.8069328   -1.8069328   -1.1155041  0.068668119   -1.8069328   0.69142867   418189 
  198000   0.66324145   -1.8074567   -1.8074567   -1.1161163  0.065255364   -1.8074567   0.69134035   418189 
  199000    0.6633059   -1.8082482   -1.8082482   -1.1168407  0.056728572   -1.8082482   0.69140753   418189 
  200000   0.66284655    -1.808459    -1.808459   -1.1175303  0.063678441    -1.808459   0.69092872   418189 
  201000   0.66160722   -1.8071423   -1.8071423   -1.1175054   0.06261687   -1.8071423   0.68963688   418189 
  202000   0.66370562   -1.8087072   -1.8087072    -1.116883  0.060018629   -1.8087072   0.69182418   418189 
  203000   0.66319503    -1.808327    -1.808327   -1.1170351  0.056211908    -1.808327   0.69129195   418189 
  204000   0.66235997   -1.8083943   -1.8083943   -1.1179728  0.052664648   -1.8083943   0.69042152   418189 
  205000   0.66297278   -1.8105729   -1.8105729   -1.1195126   0.06688076   -1.8105729   0.69106029   418189 
  206000   0.66288799    -1.809952    -1.809952   -1.1189801  0.056933624    -1.809952   0.69097191   418189 
  207000   0.66180738   -1.8095459   -1.8095459   -1.1197003  0.065817465   -1.8095459   0.68984552   418189 
  208000   0.66266256   -1.8116375   -1.8116375   -1.1209006  0.047865784   -1.8116375   0.69073693   418189 
  209000   0.66228505   -1.8116269   -1.8116269   -1.1212835  0.068265386   -1.8116269   0.69034343   418189 
  210000   0.66214335   -1.8115506   -1.8115506   -1.1213548   0.06040681   -1.8115506   0.69019572   418189 
  211000   0.66217442   -1.8128043   -1.8128043   -1.1225762  0.073769277   -1.8128043   0.69022811   418189 
  212000   0.66113739   -1.8123138   -1.8123138   -1.1231666  0.061458124   -1.8123138   0.68914714   418189 
  213000   0.66207357   -1.8145624   -1.8145624   -1.1244394  0.061768633   -1.8145624   0.69012299   418189 
  214000   0.65987624    -1.813194    -1.813194   -1.1253615  0.067051299    -1.813194   0.68783256   418189 
  215000   0.66111657   -1.8146024   -1.8146024   -1.1254769  0.062402112   -1.8146024   0.68912544   418189 
  216000   0.66051334    -1.814224    -1.814224   -1.1257273  0.060176263    -1.814224   0.68849666   418189 
  217000   0.65997829    -1.814007    -1.814007   -1.1260681   0.05891654    -1.814007   0.68793894   418189 
  218000   0.66223131   -1.8166622   -1.8166622   -1.1263748  0.067841031   -1.8166622   0.69028741   418189 
  219000   0.65958028    -1.814908    -1.814908   -1.1273839  0.059583866    -1.814908   0.68752407   418189 
  220000    0.6600501   -1.8157569   -1.8157569   -1.1277431  0.064247006   -1.8157569   0.68801379   418189 
  221000   0.66059346   -1.8160467   -1.8160467   -1.1274665  0.053532988   -1.8160467   0.68858017   418189 
  222000   0.66123639   -1.8176421   -1.8176421   -1.1283917  0.063729107   -1.8176421   0.68925034   418189 
  223000   0.65880953   -1.8155974   -1.8155974   -1.1288767  0.066262794   -1.8155974   0.68672067   418189 
  224000   0.66145239   -1.8182707   -1.8182707   -1.1287952  0.068304536   -1.8182707   0.68947549   418189 
  225000   0.66090776   -1.8183869   -1.8183869   -1.1294791   0.06860655   -1.8183869   0.68890779   418189 
  226000   0.65968614   -1.8178863   -1.8178863   -1.1302519   0.05642264   -1.8178863   0.68763441   418189 
  227000   0.66000772    -1.818575    -1.818575   -1.1306054  0.060974403    -1.818575   0.68796961   418189 
  228000   0.65830352   -1.8175683   -1.8175683    -1.131375  0.063890676   -1.8175683   0.68619321   418189 
  229000   0.65955985   -1.8197019   -1.8197019   -1.1321991  0.055732707   -1.8197019   0.68750277   418189 
  230000   0.66041615   -1.8198765   -1.8198765   -1.1314812  0.061884815   -1.8198765   0.68839534   418189 
  231000   0.65991119    -1.820024    -1.820024    -1.132155  0.061847898    -1.820024   0.68786899   418189 
  232000   0.65899679   -1.8199651   -1.8199651   -1.1330492  0.069392296   -1.8199651   0.68691586   418189 
  233000   0.66022505    -1.821486    -1.821486   -1.1332898  0.059885439    -1.821486   0.68819615   418189 
  234000   0.66087116   -1.8222631   -1.8222631   -1.1333934  0.062569488   -1.8222631   0.68886964   418189 
  235000   0.66058797   -1.8223199   -1.8223199   -1.1337455  0.060405655   -1.8223199   0.68857445   418189 
  236000   0.65994443   -1.8224365   -1.8224365   -1.1345329   0.06402016   -1.8224365   0.68790364   418189 
  237000   0.65940742   -1.8222296   -1.8222296   -1.1348857  0.060338174   -1.8222296   0.68734388   418189 
  238000   0.66041114   -1.8231651   -1.8231651   -1.1347749  0.054275515   -1.8231651   0.68839013   418189 
  239000   0.66065597   -1.8232848   -1.8232848   -1.1346394  0.058083825   -1.8232848   0.68864533   418189 
  240000   0.65826663   -1.8215114   -1.8215114   -1.1353566  0.060977745   -1.8215114   0.68615476   418189 
  241000   0.65879687   -1.8228883   -1.8228883   -1.1361809  0.062668443   -1.8228883   0.68670747   418189 
  242000   0.65993622   -1.8246139   -1.8246139   -1.1367188  0.055900114   -1.8246139   0.68789508   418189 
  243000   0.65943649   -1.8247371   -1.8247371   -1.1373629  0.070494055   -1.8247371   0.68737418   418189 
  244000   0.65877497   -1.8245009   -1.8245009   -1.1378163  0.058825917   -1.8245009   0.68668464   418189 
  245000   0.65887522   -1.8249358   -1.8249358   -1.1381466  0.055644735   -1.8249358   0.68678913   418189 
  246000   0.65910692   -1.8248732   -1.8248732   -1.1378426  0.070620111   -1.8248732   0.68703065   418189 
  247000    0.6587111   -1.8247613   -1.8247613   -1.1381432  0.053739314   -1.8247613   0.68661806   418189 
  248000   0.65893735   -1.8261577   -1.8261577   -1.1393038   0.04830246   -1.8261577    0.6868539   418189 
  249000   0.65891043     -1.82657     -1.82657   -1.1397441  0.061518078     -1.82657   0.68682584   418189 
  250000   0.65860436   -1.8269534   -1.8269534   -1.1404466  0.059985263   -1.8269534    0.6865068   418189 
  251000   0.65874373   -1.8271174   -1.8271174   -1.1404653   0.06238413   -1.8271174   0.68665207   418189 
  252000   0.66017166   -1.8293557   -1.8293557   -1.1412152   0.06345886   -1.8293557    0.6881405   418189 
  253000   0.65839633   -1.8282226   -1.8282226   -1.1419327  0.056554641   -1.8282226   0.68628995   418189 
  254000   0.65740827   -1.8278083   -1.8278083   -1.1425482  0.062335861   -1.8278083   0.68526003   418189 
  255000   0.65798328   -1.8281536   -1.8281536   -1.1422942  0.069919237   -1.8281536    0.6858594   418189 
  256000   0.65929611   -1.8295741   -1.8295741   -1.1423462   0.06285269   -1.8295741   0.68722785   418189 
  257000   0.65796171   -1.8289298   -1.8289298   -1.1430929  0.062791308   -1.8289298   0.68583692   418189 
  258000   0.65767182   -1.8290571   -1.8290571   -1.1435223   0.06226759   -1.8290571   0.68553475   418189 
  259000   0.65777745   -1.8290217   -1.8290217   -1.1433769   0.05690938   -1.8290217   0.68564485   418189 
  260000   0.65811453   -1.8293843   -1.8293843    -1.143388  0.059047395   -1.8293843   0.68599622   418189 
  261000   0.65766214   -1.8291004   -1.8291004   -1.1435758  0.059857864   -1.8291004   0.68552466   418189 
  262000   0.65793755    -1.830124    -1.830124   -1.1443122  0.061542549    -1.830124   0.68581174   418189 
  263000   0.65761754   -1.8298146   -1.8298146   -1.1443364  0.053975214   -1.8298146   0.68547818   418189 
  264000   0.65752566   -1.8304087   -1.8304087   -1.1450263  0.060866456   -1.8304087   0.68538239   418189 
  265000   0.65698827    -1.830142    -1.830142   -1.1453197  0.051089825    -1.830142   0.68482225   418189 
  266000   0.65719089   -1.8300712   -1.8300712   -1.1450378  0.058261575   -1.8300712   0.68503345   418189 
  267000   0.65634474   -1.8292658   -1.8292658   -1.1451143  0.064621826   -1.8292658   0.68415145   418189 
  268000   0.65870429   -1.8318679   -1.8318679   -1.1452569  0.060624908   -1.8318679   0.68661096   418189 
  269000    0.6569653   -1.8304352   -1.8304352   -1.1456369  0.048475181   -1.8304352    0.6847983   418189 
  270000   0.65745643   -1.8324309   -1.8324309   -1.1471207  0.054305783   -1.8324309   0.68531024   418189 
  271000   0.65688631    -1.831952    -1.831952    -1.147236  0.057977127    -1.831952   0.68471597   418189 
  272000   0.65573001   -1.8321513   -1.8321513   -1.1486407  0.058728979   -1.8321513   0.68351068   418189 
  273000    0.6559727    -1.833323    -1.833323   -1.1495593  0.053762539    -1.833323   0.68376365   418189 
  274000   0.65673531   -1.8340433   -1.8340433   -1.1494848  0.059962311   -1.8340433   0.68455857   418189 
  275000   0.65513769   -1.8331056   -1.8331056   -1.1502123  0.058307692   -1.8331056   0.68289326   418189 
  276000   0.65656643   -1.8346267   -1.8346267   -1.1502442   0.06182537   -1.8346267   0.68438253   418189 
  277000   0.65790004   -1.8359217   -1.8359217    -1.150149  0.066257107   -1.8359217   0.68577264   418189 
  278000   0.65822826   -1.8369018   -1.8369018   -1.1507871    0.0557544   -1.8369018   0.68611477   418189 
  279000   0.65614639   -1.8350093   -1.8350093   -1.1510646  0.059841924   -1.8350093   0.68394469   418189 
  280000   0.65635978    -1.836254    -1.836254   -1.1520869  0.065362544    -1.836254   0.68416713   418189 
  281000   0.65612547   -1.8365385   -1.8365385   -1.1526156  0.053269215   -1.8365385   0.68392289   418189 
  282000   0.65595615   -1.8367682   -1.8367682   -1.1530218    0.0568207   -1.8367682   0.68374639   418189 
  283000   0.65475091   -1.8359217   -1.8359217   -1.1534316  0.057083251   -1.8359217   0.68249009   418189 
  284000   0.65590667   -1.8382219   -1.8382219    -1.154527  0.051799034   -1.8382219   0.68369482   418189 
  285000   0.65634934   -1.8380393   -1.8380393   -1.1538831  0.056797454   -1.8380393   0.68415625   418189 
  286000   0.65598187   -1.8373297   -1.8373297   -1.1535565  0.051814777   -1.8373297    0.6837732   418189 
  287000   0.65516985   -1.8369676   -1.8369676   -1.1540408  0.069157562   -1.8369676   0.68292678   418189 
  288000   0.65527683   -1.8373765   -1.8373765   -1.1543382    0.0673685   -1.8373765   0.68303829   418189 
  289000   0.65622092   -1.8396909   -1.8396909   -1.1556685  0.056687551   -1.8396909   0.68402238   418189 
  290000   0.65596903   -1.8392486   -1.8392486   -1.1554888  0.063782521   -1.8392486   0.68375982   418189 
  291000   0.65601806   -1.8400387   -1.8400387   -1.1562277   0.05724486   -1.8400387   0.68381093   418189 
  292000   0.65551524   -1.8402983   -1.8402983   -1.1570115  0.057238472   -1.8402983    0.6832868   418189 
  293000   0.65305333   -1.8380218   -1.8380218   -1.1573013  0.058449424   -1.8380218   0.68072059   418189 
  294000   0.65427342    -1.839514    -1.839514   -1.1575216  0.058620199    -1.839514   0.68199237   418189 
  295000   0.65514645   -1.8408615   -1.8408615   -1.1579592  0.056317329   -1.8408615   0.68290239   418189 
  296000   0.65417278   -1.8403886   -1.8403886   -1.1585011  0.052617788   -1.8403886   0.68188747   418189 
  297000   0.65570489   -1.8409599   -1.8409599   -1.1574754  0.064815134   -1.8409599   0.68348449   418189 
  298000   0.65495029   -1.8412499   -1.8412499    -1.158552  0.060753465   -1.8412499   0.68269792   418189 
  299000   0.65396815   -1.8417046   -1.8417046   -1.1600304  0.057758096   -1.8417046   0.68167417   418189 
  300000   0.65568749   -1.8430389   -1.8430389   -1.1595725  0.057297707   -1.8430389   0.68346636   418189 
  301000   0.65407402   -1.8418892   -1.8418892   -1.1601046  0.059414353   -1.8418892   0.68178453   418189 
  302000   0.65450006   -1.8428431   -1.8428431   -1.1606144  0.056890568   -1.8428431   0.68222861   418189 
  303000   0.65267081   -1.8420272   -1.8420272   -1.1617054  0.064035111   -1.8420272   0.68032187   418189 
  304000   0.65430597   -1.8435542   -1.8435542   -1.1615279  0.062659545   -1.8435542   0.68202631   418189 
  305000   0.65556569   -1.8446988   -1.8446988   -1.1613594  0.053098829   -1.8446988   0.68333939   418189 
  306000   0.65402602   -1.8436615   -1.8436615    -1.161927  0.064248829   -1.8436615   0.68173449   418189 
  307000   0.65487307   -1.8449898   -1.8449898   -1.1623724  0.058770605   -1.8449898   0.68261743   418189 
  308000   0.65448419   -1.8449045   -1.8449045   -1.1626924  0.059934999   -1.8449045   0.68221208   418189 
  309000   0.65288772    -1.843562    -1.843562   -1.1630141   0.07062772    -1.843562   0.68054797   418189 
  310000   0.65424827   -1.8462157   -1.8462157   -1.1642495  0.056991808   -1.8462157   0.68196616   418189 
  311000   0.65126152   -1.8437163   -1.8437163   -1.1648634  0.059799273   -1.8437163   0.67885287   418189 
  312000   0.65365292   -1.8465945   -1.8465945   -1.1652489  0.055624125   -1.8465945   0.68134559   418189 
  313000   0.65304531   -1.8464543   -1.8464543   -1.1657421  0.067450193   -1.8464543   0.68071224   418189 
  314000   0.65412365   -1.8479525   -1.8479525   -1.1661162  0.056857296   -1.8479525   0.68183626   418189 
  315000   0.65312216      -1.8467      -1.8467   -1.1659076  0.066635268      -1.8467   0.68079234   418189 
  316000   0.65420574   -1.8474929   -1.8474929   -1.1655711  0.063155592   -1.8474929   0.68192183   418189 
  317000   0.65372977    -1.846775    -1.846775   -1.1653493  0.054352946    -1.846775   0.68142569   418189 
  318000   0.65380004   -1.8476308   -1.8476308   -1.1661319  0.061478583   -1.8476308   0.68149894   418189 
  319000   0.65392608   -1.8482197   -1.8482197   -1.1665894  0.060134911   -1.8482197   0.68163032   418189 
  320000   0.65334582   -1.8488503   -1.8488503   -1.1678248   0.05611109   -1.8488503   0.68102547   418189 
  321000    0.6524995   -1.8486753   -1.8486753    -1.168532  0.060378781   -1.8486753   0.68014331   418189 
  322000    0.6525887   -1.8487917   -1.8487917   -1.1685555   0.05149947   -1.8487917   0.68023628   418189 
  323000   0.65236627   -1.8490544   -1.8490544   -1.1690499  0.063997134   -1.8490544   0.68000443   418189 
  324000   0.65184934   -1.8496049   -1.8496049   -1.1701393  0.050812566   -1.8496049   0.67946559   418189 
  325000   0.65160183   -1.8497684   -1.8497684   -1.1705608  0.058394005   -1.8497684    0.6792076   418189 
  326000   0.65248908   -1.8514362   -1.8514362   -1.1713038  0.045258542   -1.8514362   0.68013244   418189 
  327000   0.65249267   -1.8514866   -1.8514866   -1.1713504  0.050468443   -1.8514866   0.68013619   418189 
  328000   0.65267554   -1.8530461   -1.8530461   -1.1727193  0.049486025   -1.8530461    0.6803268   418189 
  329000   0.65062158   -1.8514021   -1.8514021   -1.1732163  0.067761939   -1.8514021   0.67818582   418189 
  330000   0.65160598   -1.8525103   -1.8525103   -1.1732984  0.063972535   -1.8525103   0.67921192   418189 
  331000   0.65181237   -1.8529526   -1.8529526   -1.1735255  0.058711693   -1.8529526   0.67942706   418189 
  332000   0.65154257   -1.8526614   -1.8526614   -1.1735156  0.052960918   -1.8526614   0.67914583   418189 
  333000   0.65285375   -1.8547382   -1.8547382   -1.1742256  0.050076069   -1.8547382   0.68051256   418189 
  334000   0.65096501   -1.8534963   -1.8534963   -1.1749525  0.068375414   -1.8534963    0.6785438   418189 
  335000   0.65197503   -1.8548655   -1.8548655   -1.1752689  0.068079748   -1.8548655   0.67959661   418189 
  336000   0.65119185   -1.8546569   -1.8546569   -1.1758766  0.057759182   -1.8546569   0.67878025   418189 
  337000   0.64918778   -1.8528879   -1.8528879   -1.1761966  0.054746523   -1.8528879   0.67669127   418189 
  338000   0.65239282   -1.8562529   -1.8562529   -1.1762208  0.060896089   -1.8562529    0.6800321   418189 
  339000   0.65118102   -1.8551413   -1.8551413   -1.1763723    0.0562205   -1.8551413   0.67876896   418189 
  340000     0.652402   -1.8560283   -1.8560283   -1.1759866  0.070581058   -1.8560283   0.68004167   418189 
  341000   0.65101616   -1.8545956   -1.8545956   -1.1759984  0.054710796   -1.8545956   0.67859711   418189 
  342000   0.65206465   -1.8557609   -1.8557609   -1.1760708  0.059546668   -1.8557609   0.67969003   418189 
  343000   0.65034744   -1.8549146   -1.8549146   -1.1770146  0.050684708   -1.8549146   0.67790006   418189 
  344000   0.65154032   -1.8563175   -1.8563175    -1.177174  0.058978701   -1.8563175   0.67914349   418189 
  345000   0.65099609   -1.8565304   -1.8565304   -1.1779542  0.050346752   -1.8565304    0.6785762   418189 
  346000   0.65049895   -1.8561061   -1.8561061   -1.1780481  0.054018396   -1.8561061   0.67805799   418189 
  347000   0.65056365   -1.8572742   -1.8572742   -1.1791488  0.054217905   -1.8572742   0.67812543   418189 
  348000   0.65131049   -1.8577964   -1.8577964   -1.1788925  0.061036545   -1.8577964   0.67890392   418189 
  349000   0.65067133   -1.8574524   -1.8574524   -1.1792148  0.054816392   -1.8574524   0.67823768   418189 
  350000   0.65174336   -1.8594473   -1.8594473   -1.1800922  0.055929233   -1.8594473   0.67935512   418189 
  351000   0.65163796   -1.8590008   -1.8590008   -1.1797555  0.054151396   -1.8590008   0.67924526   418189 
  352000   0.65096368   -1.8589904   -1.8589904    -1.180448   0.05238102   -1.8589904   0.67854242   418189 
  353000   0.65161802    -1.860047    -1.860047   -1.1808225  0.060121081    -1.860047   0.67922447   418189 
  354000   0.64977649   -1.8579749   -1.8579749     -1.18067  0.052619956   -1.8579749   0.67730493   418189 
  355000   0.65033548   -1.8589584   -1.8589584   -1.1810708  0.051657264   -1.8589584    0.6778876   418189 
  356000   0.65104912   -1.8602618   -1.8602618   -1.1816304  0.052871339   -1.8602618   0.67863148   418189 
  357000     0.650755    -1.860934    -1.860934   -1.1826091  0.058961347    -1.860934   0.67832489   418189 
  358000   0.65055287   -1.8609651   -1.8609651   -1.1828509  0.058194123   -1.8609651    0.6781142   418189 
  359000   0.64972586   -1.8602262   -1.8602262   -1.1829741  0.050983123   -1.8602262   0.67725215   418189 
  360000   0.65110274   -1.8613619   -1.8613619   -1.1826746  0.059449012   -1.8613619   0.67868737   418189 
  361000   0.65224047   -1.8627123   -1.8627123    -1.182839  0.061232769   -1.8627123    0.6798733   418189 
  362000   0.65056344    -1.861152    -1.861152   -1.1830268   0.06003363    -1.861152   0.67812521   418189 
  363000   0.65164646   -1.8632399   -1.8632399   -1.1839858  0.063323226   -1.8632399   0.67925413   418189 
  364000   0.65156254   -1.8635198   -1.8635198   -1.1843531  0.062551404   -1.8635198   0.67916664   418189 
  365000   0.64971706   -1.8621573   -1.8621573   -1.1849143  0.051250378   -1.8621573   0.67724298   418189 
  366000   0.65112225   -1.8635649   -1.8635649   -1.1848572   0.05974849   -1.8635649    0.6787077   418189 
  367000   0.65095416   -1.8640583   -1.8640583   -1.1855258  0.062092172   -1.8640583   0.67853249   418189 
  368000   0.65030072   -1.8631195   -1.8631195   -1.1852681   0.05608782   -1.8631195   0.67785136   418189 
  369000   0.64912227   -1.8619699   -1.8619699   -1.1853469  0.045026837   -1.8619699   0.67662299   418189 
  370000   0.65148182   -1.8641108   -1.8641108   -1.1850283   0.05093244   -1.8641108   0.67908251   418189 
  371000    0.6498518   -1.8625519   -1.8625519   -1.1851684  0.056189283   -1.8625519   0.67738343   418189 
  372000   0.64979562   -1.8635567   -1.8635567   -1.1862318  0.057325671   -1.8635567   0.67732487   418189 
  373000   0.65061241   -1.8641701   -1.8641701   -1.1859938  0.063631298   -1.8641701   0.67817626   418189 
  374000   0.65074144   -1.8653541   -1.8653541   -1.1870434   0.05639428   -1.8653541   0.67831076   418189 
  375000   0.65146178   -1.8660166   -1.8660166    -1.186955  0.053153081   -1.8660166   0.67906162   418189 
  376000   0.65076349    -1.865881    -1.865881   -1.1875473  0.055153637    -1.865881   0.67833374   418189 
  377000   0.65000259   -1.8654788   -1.8654788   -1.1879382  0.055984194   -1.8654788   0.67754061   418189 
  378000   0.64932505    -1.865601    -1.865601   -1.1887667  0.061063499    -1.865601   0.67683436   418189 
  379000   0.65025107    -1.866895    -1.866895   -1.1890954  0.053765453    -1.866895   0.67779962   418189 
  380000   0.64911029     -1.86591     -1.86591   -1.1892995   0.05672684     -1.86591    0.6766105   418189 
  381000   0.64904641   -1.8658561   -1.8658561   -1.1893122  0.050679297   -1.8658561   0.67654392   418189 
  382000   0.64982626   -1.8662794   -1.8662794   -1.1889226  0.065791797   -1.8662794    0.6773568   418189 
  383000    0.6508401   -1.8675155   -1.8675155   -1.1891019  0.063423613   -1.8675155   0.67841359   418189 
  384000   0.64977559   -1.8666514   -1.8666514   -1.1893474  0.060094118   -1.8666514   0.67730399   418189 
  385000   0.64965465   -1.8679443   -1.8679443   -1.1907664   0.05576775   -1.8679443   0.67717792   418189 
  386000   0.65007653   -1.8681265   -1.8681265   -1.1905088  0.051999698   -1.8681265   0.67761768   418189 
  387000   0.64816088     -1.86666     -1.86666   -1.1910391   0.05327636     -1.86666   0.67562087   418189 
  388000   0.64855212    -1.867901    -1.867901   -1.1918723  0.061218256    -1.867901   0.67602869   418189 
  389000   0.64651018   -1.8657613   -1.8657613   -1.1918611  0.054133365   -1.8657613   0.67390024   418189 
  390000   0.64914819   -1.8688814   -1.8688814   -1.1922314  0.062984348   -1.8688814   0.67665001   418189 
  391000   0.64879631   -1.8683982   -1.8683982   -1.1921149  0.054285905   -1.8683982   0.67628322   418189 
  392000   0.64847249   -1.8673778   -1.8673778   -1.1914321  0.056130417   -1.8673778   0.67594568   418189 
  393000   0.64859716   -1.8683099   -1.8683099   -1.1922343   0.06263547   -1.8683099   0.67607564   418189 
  394000   0.64857677   -1.8681049   -1.8681049   -1.1920505  0.048622389   -1.8681049   0.67605438   418189 
  395000    0.6476222   -1.8672882   -1.8672882   -1.1922288  0.053777316   -1.8672882   0.67505937   418189 
  396000    0.6483462   -1.8680765   -1.8680765   -1.1922624  0.051509854   -1.8680765   0.67581404   418189 
  397000   0.64868293   -1.8693788   -1.8693788   -1.1932138   0.05779479   -1.8693788   0.67616504   418189 
  398000   0.64858749   -1.8687957   -1.8687957   -1.1927301  0.060558836   -1.8687957   0.67606555   418189 
  399000   0.64832393   -1.8695173   -1.8695173   -1.1937265  0.057287216   -1.8695173   0.67579083   418189 
  400000   0.64718037   -1.8686341   -1.8686341   -1.1940353  0.052297869   -1.8686341   0.67459882   418189 
  401000    0.6476999   -1.8693813   -1.8693813    -1.194241  0.053975392   -1.8693813   0.67514037   418189 
  402000   0.64766116   -1.8697341   -1.8697341   -1.1946341  0.065088175   -1.8697341   0.67509998   418189 
  403000   0.64853898   -1.8713286   -1.8713286   -1.1953136  0.056514478   -1.8713286   0.67601499   418189 
  404000    0.6485559   -1.8721292   -1.8721292   -1.1960966  0.053657067   -1.8721292   0.67603263   418189 
  405000   0.64634161   -1.8694628   -1.8694628   -1.1957383  0.051852778   -1.8694628   0.67372452   418189 
  406000   0.64718457    -1.871149    -1.871149   -1.1965458  0.056989393    -1.871149   0.67460319   418189 
  407000   0.64673478   -1.8708808   -1.8708808   -1.1967464  0.056091528   -1.8708808   0.67413436   418189 
  408000   0.64668055   -1.8706283   -1.8706283   -1.1965505  0.067843157   -1.8706283   0.67407782   418189 
  409000   0.64734173   -1.8720524   -1.8720524   -1.1972854   0.05539452   -1.8720524   0.67476702   418189 
  410000   0.64822812   -1.8731272   -1.8731272   -1.1974362  0.049897903   -1.8731272   0.67569096   418189 
  411000   0.64838883   -1.8728071   -1.8728071   -1.1969486  0.060912264   -1.8728071   0.67585848   418189 
  412000   0.64822862   -1.8729201   -1.8729201   -1.1972286  0.056114717   -1.8729201   0.67569148   418189 
  413000   0.64816219   -1.8729722   -1.8729722     -1.19735  0.052993164   -1.8729722   0.67562224   418189 
  414000    0.6473882   -1.8735285   -1.8735285    -1.198713  0.053203079   -1.8735285   0.67481546   418189 
  415000   0.64743101   -1.8737354   -1.8737354   -1.1988753  0.050754897   -1.8737354   0.67486008   418189 
  416000    0.6475676   -1.8741114   -1.8741114   -1.1991089  0.066024899   -1.8741114   0.67500245   418189 
  417000    0.6459377   -1.8728646   -1.8728646   -1.1995611  0.056004106   -1.8728646    0.6733035   418189 
  418000   0.64863005   -1.8750387   -1.8750387   -1.1989287  0.063281339   -1.8750387   0.67610992   418189 
  419000   0.64726898   -1.8750545   -1.8750545   -1.2003633   0.04765269   -1.8750545   0.67469118   418189 
  420000   0.64703863   -1.8749319   -1.8749319   -1.2004808   0.05226576   -1.8749319   0.67445107   418189 
  421000   0.64510322   -1.8730835   -1.8730835   -1.2006499  0.054706528   -1.8730835   0.67243367   418189 
  422000   0.64607186   -1.8744337   -1.8744337   -1.2009904  0.061584609   -1.8744337   0.67344335   418189 
  423000   0.64600656    -1.873973    -1.873973   -1.2005977  0.047623038    -1.873973   0.67337529   418189 
  424000   0.64682424   -1.8749199   -1.8749199   -1.2006923  0.057154811   -1.8749199    0.6742276   418189 
  425000   0.64738558   -1.8765453   -1.8765453   -1.2017326  0.058118694   -1.8765453   0.67481272   418189 
  426000   0.64770105   -1.8778516   -1.8778516   -1.2027101  0.058385578   -1.8778516   0.67514156   418189 
  427000   0.64544716   -1.8764587   -1.8764587   -1.2036665  0.048875372   -1.8764587   0.67279218   418189 
  428000   0.64694639   -1.8783558   -1.8783558   -1.2040009  0.051801406   -1.8783558   0.67435493   418189 
  429000   0.64652086    -1.878307    -1.878307   -1.2043957  0.053606824    -1.878307   0.67391137   418189 
  430000   0.64529454   -1.8764019   -1.8764019   -1.2037688  0.060911814   -1.8764019   0.67263309   418189 
  431000   0.64735983   -1.8792067   -1.8792067   -1.2044208  0.060712115   -1.8792067   0.67478588   418189 
  432000    0.6469763   -1.8792191   -1.8792191    -1.204833  0.048856416   -1.8792191    0.6743861   418189 
  433000   0.64607705    -1.878677    -1.878677   -1.2052283  0.058962987    -1.878677   0.67344876   418189 
  434000   0.64572775   -1.8790799   -1.8790799   -1.2059952  0.054259845   -1.8790799   0.67308466   418189 
  435000    0.6451248   -1.8788906   -1.8788906   -1.2064344  0.050116769   -1.8788906   0.67245617   418189 
  436000   0.64605027   -1.8801563   -1.8801563   -1.2067354  0.061178437   -1.8801563   0.67342084   418189 
  437000   0.64703696   -1.8816936   -1.8816936   -1.2072443  0.062297392   -1.8816936   0.67444933   418189 
  438000   0.64498412   -1.8802701   -1.8802701   -1.2079606    0.0508128   -1.8802701   0.67230952   418189 
  439000   0.64453747   -1.8800188   -1.8800188   -1.2081749  0.053761468   -1.8800188   0.67184395   418189 
  440000   0.64747441   -1.8829254   -1.8829254   -1.2080201   0.06040362   -1.8829254   0.67490532   418189 
  441000   0.64796309   -1.8825149   -1.8825149   -1.2071002  0.047401698   -1.8825149   0.67541471   418189 
  442000    0.6465388   -1.8814988   -1.8814988   -1.2075687  0.061033122   -1.8814988   0.67393007   418189 
  443000   0.64444375   -1.8788753   -1.8788753    -1.207129  0.060594017   -1.8788753   0.67174626   418189 
  444000   0.64565897   -1.8803228   -1.8803228   -1.2073099  0.061351865   -1.8803228   0.67301297   418189 
  445000   0.64608225   -1.8813793   -1.8813793   -1.2079251  0.057851411   -1.8813793   0.67345417   418189 
  446000   0.64461584   -1.8812043   -1.8812043   -1.2092787  0.056511578   -1.8812043   0.67192564   418189 
  447000   0.64563235   -1.8818163   -1.8818163   -1.2088311  0.052920783   -1.8818163   0.67298522   418189 
  448000   0.64524674   -1.8821681   -1.8821681   -1.2095848   0.05132514   -1.8821681   0.67258327   418189 
  449000   0.64557999   -1.8823813   -1.8823813   -1.2094507  0.061610891   -1.8823813   0.67293064   418189 
  450000   0.64569498   -1.8831772   -1.8831772   -1.2101267  0.052249258   -1.8831772   0.67305051   418189 
  451000   0.64507745   -1.8824383   -1.8824383   -1.2100315  0.054603871   -1.8824383   0.67240681   418189 
  452000   0.64526554   -1.8821166   -1.8821166   -1.2095137  0.052810789   -1.8821166   0.67260286   418189 
  453000   0.64471639   -1.8820228   -1.8820228   -1.2099924  0.052420077   -1.8820228   0.67203045   418189 
  454000   0.64567052    -1.883795    -1.883795     -1.21077  0.052146854    -1.883795   0.67302501   418189 
  455000   0.64581771   -1.8837686   -1.8837686   -1.2105902  0.050865681   -1.8837686   0.67317843   418189 
  456000   0.64471053   -1.8827722   -1.8827722   -1.2107479  0.056752032   -1.8827722   0.67202434   418189 
  457000   0.64477715   -1.8827764   -1.8827764   -1.2106826  0.060056035   -1.8827764   0.67209379   418189 
  458000   0.64525166   -1.8840899   -1.8840899   -1.2115015  0.050474532   -1.8840899    0.6725884   418189 
  459000   0.64625668   -1.8860537   -1.8860537   -1.2124177  0.040472884   -1.8860537   0.67363599   418189 
  460000   0.64608312   -1.8859774   -1.8859774   -1.2125223  0.058387769   -1.8859774   0.67345508   418189 
  461000   0.64560005   -1.8856322   -1.8856322   -1.2126806  0.061088735   -1.8856322   0.67295155   418189 
  462000   0.64537718   -1.8859887   -1.8859887   -1.2132695  0.054377759   -1.8859887   0.67271924   418189 
  463000   0.64426956   -1.8852377   -1.8852377    -1.213673  0.054018002   -1.8852377   0.67156469   418189 
  464000   0.64646983   -1.8884246   -1.8884246   -1.2145665  0.060346914   -1.8884246   0.67385818   418189 
  465000   0.64550892   -1.8868894   -1.8868894   -1.2140329  0.058390536   -1.8868894   0.67285656   418189 
  466000   0.64519859   -1.8867044   -1.8867044   -1.2141713  0.057403036   -1.8867044   0.67253308   418189 
  467000   0.64504935   -1.8872462   -1.8872462   -1.2148687  0.050787054   -1.8872462   0.67237752   418189 
  468000   0.64453828   -1.8877484   -1.8877484   -1.2159036  0.055692005   -1.8877484   0.67184479   418189 
  469000   0.64431771   -1.8863441   -1.8863441   -1.2147292  0.061188369   -1.8863441   0.67161488   418189 
  470000   0.64641977   -1.8880071   -1.8880071   -1.2142011  0.067948144   -1.8880071     0.673806   418189 
  471000   0.64568801   -1.8879352   -1.8879352    -1.214892  0.058283161   -1.8879352   0.67304323   418189 
  472000   0.64400872   -1.8867896   -1.8867896   -1.2154968  0.059872851   -1.8867896    0.6712928   418189 
  473000   0.64442897   -1.8875644   -1.8875644   -1.2158335   0.05305383   -1.8875644   0.67173086   418189 
  474000   0.64539069    -1.889348    -1.889348   -1.2166147  0.057377013    -1.889348   0.67273332   418189 
  475000    0.6464614   -1.8906787   -1.8906787   -1.2168293  0.060915485   -1.8906787   0.67384939   418189 
  476000   0.64458864   -1.8892936   -1.8892936   -1.2173963  0.051502566   -1.8892936   0.67189729   418189 
  477000   0.64438223   -1.8892517   -1.8892517   -1.2175695  0.054194213   -1.8892517   0.67168213   418189 
  478000   0.64357589   -1.8891706   -1.8891706    -1.218329  0.047425563   -1.8891706   0.67084163   418189 
  479000   0.64526729   -1.8907149   -1.8907149   -1.2181102   0.05486282   -1.8907149   0.67260469   418189 
  480000   0.64461123   -1.8898109   -1.8898109   -1.2178901  0.055832728   -1.8898109   0.67192084   418189 
  481000   0.64600498    -1.891505    -1.891505   -1.2181314  0.056180451    -1.891505   0.67337364   418189 
  482000   0.64427961   -1.8900811   -1.8900811   -1.2185059  0.050856713   -1.8900811   0.67157516   418189 
  483000    0.6443311   -1.8909913   -1.8909913   -1.2193625  0.057833863   -1.8909913   0.67162884   418189 
  484000   0.64155723   -1.8891395   -1.8891395   -1.2204021  0.060656374   -1.8891395   0.66873745   418189 
  485000   0.64374595    -1.891223    -1.891223   -1.2202041  0.051316867    -1.891223    0.6710189   418189 
  486000   0.64453496    -1.891988    -1.891988   -1.2201466  0.053377907    -1.891988   0.67184134   418189 
  487000   0.64530395     -1.89287     -1.89287   -1.2202271  0.063784069     -1.89287   0.67264291   418189 
  488000   0.64442639   -1.8929713   -1.8929713   -1.2212431   0.05968741   -1.8929713   0.67172817   418189 
  489000   0.64263514   -1.8913399   -1.8913399   -1.2214789  0.051635497   -1.8913399   0.66986103   418189 
  490000   0.64577413   -1.8942155   -1.8942155   -1.2210825  0.048337575   -1.8942155     0.673133   418189 
  491000   0.64376656   -1.8929848   -1.8929848   -1.2219444  0.054758446   -1.8929848   0.67104039   418189 
  492000   0.64395967     -1.89279     -1.89279   -1.2215483  0.051604954     -1.89279   0.67124167   418189 
  493000   0.64572759   -1.8952686   -1.8952686   -1.2221841   0.05121033   -1.8952686   0.67308449   418189 
  494000   0.64382209   -1.8934055   -1.8934055   -1.2223072  0.049456098   -1.8934055   0.67109826   418189 
  495000    0.6437029   -1.8938283   -1.8938283   -1.2228542  0.065882696   -1.8938283   0.67097403   418189 
  496000   0.64447716   -1.8939482   -1.8939482   -1.2221671  0.061277894   -1.8939482   0.67178109   418189 
  497000   0.64500109   -1.8945091   -1.8945091   -1.2221818  0.054053298   -1.8945091   0.67232722   418189 
  498000   0.64353267   -1.8940534   -1.8940534   -1.2232568  0.055980481   -1.8940534   0.67079658   418189 
  499000   0.64393841   -1.8943563   -1.8943563   -1.2231368  0.054433708   -1.8943563   0.67121952   418189 
  500000    0.6436899    -1.893847    -1.893847   -1.2228866  0.050010039    -1.893847   0.67096047   418189 
  501000   0.64180967   -1.8917848   -1.8917848   -1.2227842  0.051645586   -1.8917848   0.66900058   418189 
  502000   0.64321864   -1.8930766   -1.8930766   -1.2226074   0.05395693   -1.8930766   0.67046924   418189 
  503000   0.64245643   -1.8928101   -1.8928101   -1.2231354  0.054371838   -1.8928101   0.66967475   418189 
  504000   0.64297304   -1.8936132   -1.8936132   -1.2233999  0.051323701   -1.8936132   0.67021324   418189 
  505000   0.64449479   -1.8951637   -1.8951637   -1.2233643  0.060651149   -1.8951637   0.67179947   418189 
  506000   0.64429456   -1.8956773   -1.8956773   -1.2240865  0.057005978   -1.8956773   0.67159075   418189 
  507000    0.6439353   -1.8966958   -1.8966958   -1.2254795  0.061482181   -1.8966958   0.67121627   418189 
  508000   0.64358388   -1.8962518   -1.8962518   -1.2254019  0.066201883   -1.8962518   0.67084996   418189 
  509000   0.64332546   -1.8960676   -1.8960676    -1.225487  0.064733304   -1.8960676   0.67058059   418189 
  510000   0.64393469   -1.8975376   -1.8975376   -1.2263219  0.053336851   -1.8975376   0.67121563   418189 
  511000   0.64326925   -1.8969279   -1.8969279   -1.2264059  0.054673447   -1.8969279     0.670522   418189 
  512000   0.64343456    -1.896729    -1.896729   -1.2260346  0.054483966    -1.896729   0.67069431   418189 
  513000   0.64358295   -1.8975878   -1.8975878   -1.2267388  0.051512116   -1.8975878   0.67084899   418189 
  514000    0.6449675   -1.8993435   -1.8993435   -1.2270513  0.056751202   -1.8993435    0.6722922   418189 
  515000   0.64378382   -1.8974511   -1.8974511   -1.2263927  0.059281075   -1.8974511   0.67105837   418189 
  516000    0.6429917   -1.8965798   -1.8965798   -1.2263471  0.053018012   -1.8965798   0.67023269   418189 
  517000   0.64193362   -1.8962994   -1.8962994   -1.2271696  0.058098847   -1.8962994   0.66912978   418189 
  518000   0.64164736   -1.8967491   -1.8967491   -1.2279178   0.05126644   -1.8967491    0.6688314   418189 
  519000   0.64159745   -1.8959745   -1.8959745   -1.2271952   0.05140792   -1.8959745   0.66877938   418189 
  520000   0.64093294   -1.8950458   -1.8950458   -1.2269591  0.046834168   -1.8950458   0.66808671   418189 
  521000   0.64133382   -1.8963536   -1.8963536   -1.2278491  0.053629673   -1.8963536   0.66850457   418189 
  522000   0.64296561   -1.8980925   -1.8980925    -1.227887  0.049265599   -1.8980925    0.6702055   418189 
  523000    0.6411228   -1.8974147   -1.8974147   -1.2291301  0.058597324   -1.8974147   0.66828462   418189 
  524000   0.64266151   -1.8987703   -1.8987703   -1.2288817  0.052091387   -1.8987703   0.66988851   418189 
  525000   0.64269365   -1.8995256   -1.8995256   -1.2296036  0.056135938   -1.8995256   0.66992202   418189 
  526000   0.64173529   -1.9000347   -1.9000347   -1.2311117  0.045090478   -1.9000347   0.66892306   418189 
  527000    0.6418344   -1.9000429   -1.9000429   -1.2310166  0.053625201   -1.9000429   0.66902637   418189 
  528000   0.64217062   -1.9002079   -1.9002079   -1.2308311   0.05324532   -1.9002079   0.66937683   418189 
  529000    0.6423636   -1.9005713   -1.9005713   -1.2309933  0.070771491   -1.9005713   0.66957798   418189 
  530000   0.64372425   -1.9024343   -1.9024343   -1.2314381  0.053510959   -1.9024343   0.67099628   418189 
  531000   0.64083114   -1.9007654   -1.9007654   -1.2327848  0.055420581   -1.9007654    0.6679806   418189 
  532000   0.64243086   -1.9021344   -1.9021344   -1.2324863  0.059953677   -1.9021344   0.66964809   418189 
  533000   0.64214154    -1.901923    -1.901923   -1.2325765  0.057888188    -1.901923   0.66934652   418189 
  534000   0.64393717   -1.9043029   -1.9043029   -1.2330847  0.050486706   -1.9043029   0.67121822   418189 
  535000   0.64423765   -1.9052448   -1.9052448   -1.2337134   0.05397895   -1.9052448   0.67153142   418189 
  536000   0.64226917   -1.9039677   -1.9039677   -1.2344881  0.055174104   -1.9039677   0.66947955   418189 
  537000   0.64130688   -1.9028747   -1.9028747   -1.2343982  0.046000301   -1.9028747   0.66847649   418189 
  538000   0.64269726   -1.9039752   -1.9039752   -1.2340494  0.061681425   -1.9039752   0.66992577   418189 
  539000   0.64203829    -1.903789    -1.903789   -1.2345501  0.049912165    -1.903789   0.66923889   418189 
  540000   0.64312985   -1.9057395   -1.9057395   -1.2353628  0.054163917   -1.9057395    0.6703767   418189 
  541000   0.64202865   -1.9048701   -1.9048701   -1.2356413  0.057921681   -1.9048701   0.66922885   418189 
  542000   0.64208214   -1.9045427   -1.9045427   -1.2352581  0.051634937   -1.9045427    0.6692846   418189 
  543000   0.64010242    -1.902998    -1.902998    -1.235777  0.057231701    -1.902998     0.667221   418189 
  544000   0.64087526   -1.9040158   -1.9040158   -1.2359893  0.056242373   -1.9040158   0.66802659   418189 
  545000   0.64172685   -1.9046186   -1.9046186   -1.2357044  0.060606641   -1.9046186   0.66891426   418189 
  546000   0.64043377   -1.9041847   -1.9041847   -1.2366183  0.049581136   -1.9041847   0.66756639   418189 
  547000   0.64067661   -1.9043969   -1.9043969   -1.2365774  0.057183215   -1.9043969   0.66781952   418189 
  548000   0.64221529   -1.9058457   -1.9058457   -1.2364223  0.053342857   -1.9058457   0.66942339   418189 
  549000   0.64065785    -1.904289    -1.904289    -1.236489  0.062572659    -1.904289   0.66779997   418189 
  550000   0.64272192   -1.9074034   -1.9074034   -1.2374519  0.051749831   -1.9074034   0.66995148   418189 
  551000   0.64292279   -1.9071951   -1.9071951   -1.2370343  0.058216621   -1.9071951   0.67016086   418189 
  552000   0.64315708   -1.9085506   -1.9085506   -1.2381456  0.059644481   -1.9085506   0.67040508   418189 
  553000   0.64238743    -1.908225    -1.908225   -1.2386222  0.048840475    -1.908225   0.66960283   418189 
  554000   0.64268599   -1.9093405   -1.9093405   -1.2394264  0.052049269   -1.9093405   0.66991404   418189 
  555000   0.64126347   -1.9081571   -1.9081571   -1.2397258  0.059089604   -1.9081571   0.66843125   418189 
  556000     0.639957    -1.907169    -1.907169   -1.2400996  0.056628333    -1.907169   0.66706942   418189 
  557000   0.64079004   -1.9081141   -1.9081141   -1.2401763  0.062706389   -1.9081141   0.66793776   418189 
  558000   0.64152842   -1.9091411   -1.9091411   -1.2404337  0.044427359   -1.9091411   0.66870742   418189 
  559000   0.64043238    -1.907837    -1.907837    -1.240272  0.059007969    -1.907837   0.66756494   418189 
  560000   0.64090059   -1.9082839   -1.9082839   -1.2402309  0.048399716   -1.9082839   0.66805299   418189 
  561000   0.64080927    -1.907703    -1.907703   -1.2397452  0.048403817    -1.907703   0.66795781   418189 
  562000   0.64072337   -1.9080284   -1.9080284   -1.2401601  0.063664971   -1.9080284   0.66786827   418189 
  563000    0.6391838   -1.9067351   -1.9067351   -1.2404716  0.054974385   -1.9067351   0.66626347   418189 
  564000   0.64025631   -1.9088325   -1.9088325    -1.241451  0.062434852   -1.9088325   0.66738142   418189 
  565000   0.64037608    -1.908889    -1.908889   -1.2413828  0.048924202    -1.908889   0.66750626   418189 
  566000   0.63983378   -1.9091455   -1.9091455   -1.2422045  0.050919621   -1.9091455   0.66694099   418189 
  567000   0.64029018   -1.9100749   -1.9100749   -1.2426581  0.050244035   -1.9100749   0.66741672   418189 
  568000   0.64199782    -1.911657    -1.911657   -1.2424603  0.051684855    -1.911657   0.66919671   418189 
  569000   0.64057286   -1.9106082   -1.9106082   -1.2428968  0.053175073   -1.9106082   0.66771138   418189 
  570000   0.64095601   -1.9114705   -1.9114705   -1.2433598  0.051358013   -1.9114705   0.66811076   418189 
  571000   0.64114856   -1.9116959   -1.9116959   -1.2433845  0.056101193   -1.9116959   0.66831147   418189 
  572000   0.63990449   -1.9110733   -1.9110733   -1.2440586  0.054104589   -1.9110733   0.66701469   418189 
  573000   0.63894571   -1.9102474   -1.9102474   -1.2442321  0.047210471   -1.9102474   0.66601529   418189 
  574000   0.63971143   -1.9117352   -1.9117352   -1.2449218  0.053433459   -1.9117352   0.66681345   418189 
  575000   0.64055052   -1.9122315   -1.9122315   -1.2445435  0.048061432   -1.9122315   0.66768809   418189 
  576000   0.63905118   -1.9100963   -1.9100963    -1.243971  0.045142208   -1.9100963   0.66612523   418189 
  577000   0.64130927   -1.9128357   -1.9128357   -1.2443568  0.063747659   -1.9128357   0.66847898   418189 
  578000   0.63991659    -1.911553    -1.911553   -1.2445257  0.058695753    -1.911553   0.66702731   418189 
  579000   0.64049265   -1.9119478   -1.9119478     -1.24432  0.056416637   -1.9119478   0.66762777   418189 
  580000   0.63971406   -1.9118035   -1.9118035   -1.2449873   0.05136393   -1.9118035    0.6668162   418189 
  581000   0.64069079   -1.9125423   -1.9125423    -1.244708  0.050138473   -1.9125423   0.66783431   418189 
  582000   0.64044331   -1.9114837   -1.9114837   -1.2439074  0.058864448   -1.9114837   0.66757633   418189 
  583000   0.63982561    -1.910555    -1.910555   -1.2436225  0.056251661    -1.910555   0.66693247   418189 
  584000   0.64034062   -1.9118385   -1.9118385   -1.2443692  0.050768878   -1.9118385    0.6674693   418189 
  585000   0.64133663   -1.9127223   -1.9127223   -1.2442148  0.058810763   -1.9127223   0.66850751   418189 
  586000    0.6398434   -1.9116116   -1.9116116   -1.2446606  0.055515472   -1.9116116   0.66695101   418189 
  587000   0.63996899   -1.9122551   -1.9122551   -1.2451732  0.057766932   -1.9122551   0.66708192   418189 
  588000   0.64027747   -1.9120135   -1.9120135   -1.2446101  0.050623735   -1.9120135   0.66740347   418189 
  589000   0.64141627   -1.9132732   -1.9132732   -1.2446827  0.060663145   -1.9132732   0.66859052   418189 
  590000   0.64159602   -1.9132772   -1.9132772   -1.2444993  0.050234442   -1.9132772   0.66877789   418189 
  591000   0.64092873   -1.9125396   -1.9125396   -1.2444573  0.045337025   -1.9125396   0.66808233   418189 
  592000   0.64037092   -1.9131734   -1.9131734   -1.2456725  0.059794088   -1.9131734   0.66750088   418189 
  593000   0.63907767   -1.9122148   -1.9122148   -1.2460619  0.045598065   -1.9122148   0.66615285   418189 
  594000   0.63914612   -1.9124674   -1.9124674   -1.2462432  0.056281048   -1.9124674   0.66622419   418189 
  595000   0.64031893    -1.913738    -1.913738   -1.2462914  0.057138354    -1.913738   0.66744669   418189 
  596000   0.63973611   -1.9132846   -1.9132846   -1.2464454  0.058714539   -1.9132846   0.66683917   418189 
  597000   0.64087965   -1.9145489   -1.9145489   -1.2465177  0.050225984   -1.9145489   0.66803117   418189 
  598000   0.64087734   -1.9143399   -1.9143399   -1.2463111  0.050415267   -1.9143399   0.66802876   418189 
  599000   0.64051811    -1.914703    -1.914703   -1.2470487  0.050483448    -1.914703   0.66765431   418189 
  600000   0.64170526   -1.9156906   -1.9156906   -1.2467988  0.056345594   -1.9156906   0.66889175   418189 
  601000   0.64057889   -1.9149609   -1.9149609   -1.2472432  0.053239798   -1.9149609   0.66771766   418189 
  602000   0.64021397   -1.9145288   -1.9145288   -1.2471915  0.058550421   -1.9145288   0.66733729   418189 
  603000   0.64035176   -1.9149238   -1.9149238   -1.2474429  0.055446773   -1.9149238   0.66748091   418189 
  604000   0.63914499    -1.913837    -1.913837    -1.247614  0.047842579    -1.913837   0.66622301   418189 
  605000    0.6391126    -1.913985    -1.913985   -1.2477958  0.061637589    -1.913985   0.66618926   418189 
  606000   0.63808925   -1.9135835   -1.9135835    -1.248461  0.053223227   -1.9135835   0.66512255   418189 
  607000   0.63812472   -1.9134554   -1.9134554   -1.2482959  0.055318465   -1.9134554   0.66515952   418189 
  608000   0.63962278   -1.9145181   -1.9145181    -1.247797  0.055580321   -1.9145181   0.66672104   418189 
  609000   0.63913581   -1.9144119   -1.9144119   -1.2481985  0.047087708   -1.9144119   0.66621345   418189 
  610000   0.63966587   -1.9152493   -1.9152493   -1.2484833  0.054397683   -1.9152493   0.66676596   418189 
  611000    0.6381224   -1.9142858   -1.9142858   -1.2491286   0.05879289   -1.9142858    0.6651571   418189 
  612000   0.63950316   -1.9158413   -1.9158413   -1.2492449  0.061287716   -1.9158413   0.66659636   418189 
  613000   0.63951475   -1.9163289   -1.9163289   -1.2497205  0.050704938   -1.9163289   0.66660843   418189 
  614000   0.63958104   -1.9165931   -1.9165931   -1.2499155  0.059180626   -1.9165931   0.66667754   418189 
  615000   0.63993388   -1.9169687   -1.9169687   -1.2499233   0.05377807   -1.9169687   0.66704532   418189 
  616000   0.63956398   -1.9172493   -1.9172493   -1.2505895  0.046448966   -1.9172493   0.66665975   418189 
  617000   0.63880773   -1.9158485   -1.9158485    -1.249977  0.061507053   -1.9158485   0.66587147   418189 
  618000   0.63811746   -1.9157782   -1.9157782   -1.2506263  0.049973223   -1.9157782   0.66515196   418189 
  619000   0.63786708   -1.9171712   -1.9171712   -1.2522802  0.057022707   -1.9171712   0.66489096   418189 
  620000   0.63843144   -1.9182012   -1.9182012    -1.252722  0.053767805   -1.9182012   0.66547923   418189 
  621000   0.63814608   -1.9181312   -1.9181312   -1.2529494   0.04626337   -1.9181312   0.66518179   418189 
  622000   0.63947564   -1.9191268   -1.9191268   -1.2525591  0.049031061   -1.9191268   0.66656768   418189 
  623000    0.6388312   -1.9180107   -1.9180107   -1.2521148  0.055269261   -1.9180107   0.66589594   418189 
  624000   0.63907093   -1.9185524   -1.9185524   -1.2524065  0.052965058   -1.9185524   0.66614582   418189 
  625000   0.63844401    -1.918393    -1.918393   -1.2529007  0.051665084    -1.918393   0.66549233   418189 
  626000   0.63900308   -1.9188469   -1.9188469   -1.2527718  0.054012937   -1.9188469    0.6660751   418189 
  627000   0.63862715   -1.9185024   -1.9185024   -1.2528192  0.048477888   -1.9185024   0.66568323   418189 
  628000   0.63830745     -1.91796     -1.91796     -1.25261  0.051205665     -1.91796   0.66534999   418189 
  629000   0.63862697   -1.9201133   -1.9201133   -1.2544302  0.053114609   -1.9201133   0.66568305   418189 
  630000   0.63654874   -1.9174439   -1.9174439   -1.2539272  0.055207511   -1.9174439   0.66351677   418189 
  631000   0.63761901    -1.919233    -1.919233   -1.2546006  0.047640243    -1.919233   0.66463238   418189 
  632000   0.63711768    -1.919167    -1.919167   -1.2550572  0.051024442    -1.919167   0.66410982   418189 
  633000   0.63819486   -1.9201948   -1.9201948   -1.2549622  0.049956986   -1.9201948   0.66523263   418189 
  634000    0.6387985   -1.9206366   -1.9206366   -1.2547748  0.058136202   -1.9206366   0.66586185   418189 
  635000    0.6385335   -1.9205103   -1.9205103   -1.2549247  0.050627292   -1.9205103   0.66558562   418189 
  636000   0.63936358   -1.9210886   -1.9210886   -1.2546377  0.050053548   -1.9210886   0.66645087   418189 
  637000     0.639876   -1.9216487   -1.9216487   -1.2546637  0.058130735   -1.9216487   0.66698499   418189 
  638000   0.63996006   -1.9215241   -1.9215241   -1.2544515   0.04716935   -1.9215241   0.66707262   418189 
  639000   0.63889639   -1.9198306   -1.9198306   -1.2538667  0.051277988   -1.9198306   0.66596389   418189 
  640000    0.6386473   -1.9194818   -1.9194818   -1.2537775    0.0533793   -1.9194818   0.66570424   418189 
  641000   0.63869526   -1.9193035   -1.9193035   -1.2535493  0.062040065   -1.9193035   0.66575423   418189 
  642000   0.63852734   -1.9194417   -1.9194417   -1.2538625  0.041641476   -1.9194417   0.66557919   418189 
  643000   0.63831218   -1.9188399   -1.9188399    -1.253485  0.049314812   -1.9188399   0.66535492   418189 
  644000   0.63741202   -1.9183461   -1.9183461   -1.2539295    0.0505395   -1.9183461   0.66441662   418189 
  645000   0.63863653   -1.9206473   -1.9206473   -1.2549543  0.057669512   -1.9206473   0.66569301   418189 
  646000   0.63834219   -1.9202312   -1.9202312    -1.254845  0.048022232   -1.9202312    0.6653862   418189 
  647000   0.63788292   -1.9198249   -1.9198249   -1.2549174  0.049136833   -1.9198249   0.66490747   418189 
  648000   0.63926306   -1.9211321   -1.9211321    -1.254786  0.055959382   -1.9211321   0.66634609   418189 
  649000   0.63862455    -1.921183    -1.921183   -1.2555025  0.054479746    -1.921183   0.66568053   418189 
  650000   0.63872192   -1.9213826   -1.9213826   -1.2556005   0.04200157   -1.9213826   0.66578202   418189 
  651000   0.63914708   -1.9223264   -1.9223264   -1.2561012  0.051767912   -1.9223264   0.66622519   418189 
  652000   0.63835405   -1.9220149   -1.9220149   -1.2566163  0.057158685   -1.9220149   0.66539857   418189 
  653000   0.63798213   -1.9215475   -1.9215475   -1.2565366  0.045771215   -1.9215475   0.66501088   418189 
  654000   0.63831724   -1.9225071   -1.9225071   -1.2571469  0.059226516   -1.9225071   0.66536019   418189 
  655000   0.63667031   -1.9215581   -1.9215581   -1.2579146  0.044839679   -1.9215581   0.66364349   418189 
  656000   0.63704204   -1.9223682   -1.9223682   -1.2583373  0.049372883   -1.9223682   0.66403097   418189 
  657000   0.63771519   -1.9226994   -1.9226994   -1.2579668  0.056608028   -1.9226994   0.66473264   418189 
  658000   0.63794772   -1.9227793   -1.9227793   -1.2578042  0.054406906   -1.9227793   0.66497502   418189 
  659000   0.63675673   -1.9222471   -1.9222471   -1.2585135  0.060720007   -1.9222471   0.66373357   418189 
  660000   0.63803654   -1.9238941   -1.9238941   -1.2588265  0.048051556   -1.9238941    0.6650676   418189 
  661000   0.63617304   -1.9222766   -1.9222766   -1.2591514  0.048744076   -1.9222766   0.66312515   418189 
  662000   0.63782473   -1.9245977   -1.9245977   -1.2597509  0.046833897   -1.9245977   0.66484682   418189 
  663000   0.63735058   -1.9239399   -1.9239399   -1.2595873  0.057288656   -1.9239399   0.66435258   418189 
  664000   0.63704721    -1.924182    -1.924182   -1.2601456  0.051869788    -1.924182   0.66403635   418189 
  665000     0.635932    -1.922886    -1.922886   -1.2600121  0.050962701    -1.922886    0.6628739   418189 
  666000   0.63680895   -1.9234845   -1.9234845   -1.2596965  0.052317136   -1.9234845   0.66378801   418189 
  667000   0.63769118   -1.9246527   -1.9246527   -1.2599451    0.0495191   -1.9246527   0.66470762   418189 
  668000   0.63852831   -1.9254537   -1.9254537   -1.2598735  0.040237656   -1.9254537   0.66558021   418189 
  669000   0.63742595   -1.9249367   -1.9249367   -1.2605055  0.060112009   -1.9249367   0.66443115   418189 
  670000   0.63894597   -1.9260944   -1.9260944   -1.2600788  0.055335795   -1.9260944   0.66601556   418189 
  671000   0.63828167   -1.9248925   -1.9248925   -1.2595694  0.055303294   -1.9248925   0.66532312   418189 
  672000    0.6373975   -1.9253419   -1.9253419   -1.2609404  0.065648234   -1.9253419   0.66440149   418189 
  673000   0.63853069   -1.9269906   -1.9269906   -1.2614079  0.046539287   -1.9269906   0.66558269   418189 
  674000     0.636947   -1.9255928   -1.9255928   -1.2616609   0.05201893   -1.9255928   0.66393191   418189 
  675000   0.63685882   -1.9258903   -1.9258903   -1.2620503  0.049517012   -1.9258903   0.66383998   418189 
  676000   0.63800861   -1.9273009   -1.9273009   -1.2622625  0.058653098   -1.9273009   0.66503849   418189 
  677000   0.63616857   -1.9254343   -1.9254343   -1.2623138  0.053660907   -1.9254343   0.66312049   418189 
  678000   0.63771245   -1.9271637   -1.9271637   -1.2624339  0.052967477   -1.9271637   0.66472979   418189 
  679000   0.63753844   -1.9268009   -1.9268009   -1.2622525  0.060492689   -1.9268009    0.6645484   418189 
  680000    0.6374158   -1.9272654   -1.9272654   -1.2628448  0.045410174   -1.9272654   0.66442057   418189 
  681000   0.63684033    -1.926623    -1.926623   -1.2628023  0.045492148    -1.926623   0.66382072   418189 
  682000   0.63800862    -1.928427    -1.928427   -1.2633885  0.053690635    -1.928427    0.6650385   418189 
  683000   0.63803922   -1.9283943   -1.9283943   -1.2633239   0.05005845   -1.9283943    0.6650704   418189 
  684000   0.63680314   -1.9268702   -1.9268702   -1.2630882  0.048416938   -1.9268702   0.66378195   418189 
  685000   0.63549711   -1.9259686   -1.9259686    -1.263548  0.050043353   -1.9259686   0.66242058   418189 
  686000   0.63694968    -1.927321    -1.927321   -1.2633863   0.05158183    -1.927321    0.6639347   418189 
  687000   0.63576737   -1.9262981   -1.9262981   -1.2635958  0.050933346   -1.9262981    0.6627023   418189 
  688000   0.63695213   -1.9271309   -1.9271309   -1.2631936  0.039805755   -1.9271309   0.66393725   418189 
  689000   0.63749997   -1.9280307   -1.9280307   -1.2635224  0.049499564   -1.9280307    0.6645083   418189 
  690000   0.63638679    -1.926543    -1.926543   -1.2631951  0.049262965    -1.926543   0.66334796   418189 
  691000   0.63661928   -1.9264666   -1.9264666   -1.2628763   0.04908692   -1.9264666    0.6635903   418189 
  692000   0.63689887   -1.9266234   -1.9266234   -1.2627417  0.057176015   -1.9266234   0.66388174   418189 
  693000   0.63710602   -1.9268423   -1.9268423   -1.2627447   0.04879907   -1.9268423   0.66409767   418189 
  694000   0.63677215   -1.9273331   -1.9273331   -1.2635835  0.054380561   -1.9273331   0.66374965   418189 
  695000   0.63735205   -1.9280669   -1.9280669   -1.2637128  0.056829952   -1.9280669   0.66435411   418189 
  696000   0.63657021   -1.9282829   -1.9282829   -1.2647438    0.0526955   -1.9282829   0.66353915   418189 
  697000   0.63796479   -1.9296616   -1.9296616   -1.2646688  0.055016725   -1.9296616   0.66499281   418189 
  698000   0.63697091   -1.9282265   -1.9282265   -1.2642697  0.054102844   -1.9282265   0.66395683   418189 
  699000   0.63588499   -1.9276385   -1.9276385   -1.2648136  0.056974344   -1.9276385    0.6628249   418189 
  700000   0.63570956   -1.9278923   -1.9278923   -1.2652503   0.05566531   -1.9278923   0.66264204   418189 
  701000    0.6355474   -1.9283001   -1.9283001   -1.2658271   0.05678001   -1.9283001   0.66247301   418189 
  702000      0.63668   -1.9297497   -1.9297497   -1.2660961  0.044499514   -1.9297497   0.66365359   418189 
  703000   0.63693037   -1.9300527   -1.9300527   -1.2661381   0.04083691   -1.9300527   0.66391457   418189 
  704000   0.63524712   -1.9285685   -1.9285685   -1.2664085  0.054700653   -1.9285685   0.66216001   418189 
  705000     0.636765   -1.9312251   -1.9312251   -1.2674829  0.051991304   -1.9312251   0.66374219   418189 
  706000   0.63755015   -1.9322636   -1.9322636    -1.267703  0.052753394   -1.9322636   0.66456061   418189 
  707000    0.6358825   -1.9310085   -1.9310085   -1.2681862  0.055857452   -1.9310085    0.6628223   418189 
  708000    0.6362496   -1.9318706   -1.9318706   -1.2686657  0.048698701   -1.9318706   0.66320496   418189 
  709000   0.63530938   -1.9304561   -1.9304561   -1.2682312  0.057752944   -1.9304561    0.6622249   418189 
  710000   0.63587195   -1.9308194   -1.9308194   -1.2680081  0.061940112   -1.9308194   0.66281131   418189 
  711000   0.63784259   -1.9326963   -1.9326963   -1.2678309  0.059683462   -1.9326963   0.66486544   418189 
  712000   0.63703457   -1.9312563   -1.9312563   -1.2672332  0.047978992   -1.9312563   0.66402318   418189 
  713000   0.63651024   -1.9304604   -1.9304604   -1.2669838  0.051290758   -1.9304604   0.66347664   418189 
  714000   0.63572819   -1.9297706   -1.9297706   -1.2671092  0.045820864   -1.9297706   0.66266145   418189 
  715000   0.63613081   -1.9310761   -1.9310761    -1.267995  0.045737482   -1.9310761   0.66308113   418189 
  716000   0.63626166   -1.9320305   -1.9320305   -1.2688129  0.055403414   -1.9320305   0.66321753   418189 
  717000   0.63633565    -1.931884    -1.931884   -1.2685894  0.055579362    -1.931884   0.66329465   418189 
  718000   0.63817145   -1.9339826   -1.9339826   -1.2687744  0.050567761   -1.9339826   0.66520823   418189 
  719000   0.63644862     -1.93253     -1.93253   -1.2691176  0.055023788     -1.93253   0.66341241   418189 
  720000   0.63561978   -1.9319097   -1.9319097   -1.2693613  0.050878798   -1.9319097   0.66254845   418189 
  721000   0.63624207   -1.9323203   -1.9323203   -1.2691232   0.05678658   -1.9323203   0.66319711   418189 
  722000   0.63548952   -1.9322183   -1.9322183   -1.2698056  0.055562491   -1.9322183   0.66241267   418189 
  723000   0.63647499   -1.9335689   -1.9335689    -1.270129  0.060545113   -1.9335689   0.66343989   418189 
  724000   0.63431821   -1.9310353   -1.9310353   -1.2698436  0.052088768   -1.9310353   0.66119174   418189 
  725000   0.63573917   -1.9325999   -1.9325999    -1.269927  0.051561848   -1.9325999    0.6626729   418189 
  726000   0.63712149   -1.9336764   -1.9336764   -1.2695626  0.059182008   -1.9336764   0.66411379   418189 
  727000   0.63636922   -1.9329504   -1.9329504   -1.2696208  0.043065695   -1.9329504   0.66332964   418189 
  728000   0.63604611   -1.9327442   -1.9327442   -1.2697513  0.043374599   -1.9327442   0.66299285   418189 
  729000   0.63587189   -1.9333735   -1.9333735   -1.2705623   0.06035404   -1.9333735   0.66281125   418189 
  730000   0.63392578   -1.9313373   -1.9313373   -1.2705546  0.051638727   -1.9313373   0.66078268   418189 
  731000   0.63586092   -1.9338669   -1.9338669   -1.2710671  0.047528161   -1.9338669   0.66279981   418189 
  732000   0.63596654   -1.9347873   -1.9347873   -1.2718774  0.039021513   -1.9347873   0.66290991   418189 
  733000   0.63518538   -1.9339997   -1.9339997    -1.271904  0.058445211   -1.9339997   0.66209566   418189 
  734000   0.63515582   -1.9350367   -1.9350367   -1.2729718  0.051409097   -1.9350367   0.66206484   418189 
  735000   0.63601738   -1.9353556   -1.9353556   -1.2723927  0.050101087   -1.9353556   0.66296289   418189 
  736000   0.63638413   -1.9359652   -1.9359652     -1.27262  0.063194593   -1.9359652   0.66334519   418189 
  737000   0.63722371    -1.935855    -1.935855   -1.2716347  0.047108423    -1.935855   0.66422034   418189 
  738000   0.63705344   -1.9360874   -1.9360874   -1.2720445  0.052407779   -1.9360874   0.66404286   418189 
  739000   0.63715055   -1.9365596   -1.9365596   -1.2724155  0.053486142   -1.9365596   0.66414407   418189 
  740000   0.63533908   -1.9355409   -1.9355409    -1.273285  0.052995436   -1.9355409   0.66225586   418189 
  741000   0.63515132   -1.9357031   -1.9357031   -1.2736429  0.045370612   -1.9357031   0.66206015   418189 
  742000    0.6357223   -1.9367546   -1.9367546   -1.2740993  0.054141364   -1.9367546   0.66265532   418189 
  743000    0.6348487    -1.936162    -1.936162   -1.2744173  0.046714454    -1.936162    0.6617447   418189 
  744000   0.63469629   -1.9372911   -1.9372911   -1.2757053  0.048781018   -1.9372911   0.66158584   418189 
  745000   0.63375223   -1.9358605   -1.9358605   -1.2752588  0.047002179   -1.9358605   0.66060179   418189 
  746000   0.63442932   -1.9367495   -1.9367495   -1.2754419  0.045575434   -1.9367495   0.66130756   418189 
  747000    0.6341694   -1.9368829   -1.9368829   -1.2758462  0.049141805   -1.9368829   0.66103663   418189 
  748000   0.63612989   -1.9383505   -1.9383505   -1.2752703  0.047441831   -1.9383505   0.66308018   418189 
  749000   0.63616086   -1.9380199   -1.9380199   -1.2749074  0.056813156   -1.9380199   0.66311246   418189 
  750000   0.63609332   -1.9383985   -1.9383985   -1.2753565  0.047867458   -1.9383985   0.66304206   418189 
  751000   0.63502741   -1.9381483   -1.9381483   -1.2762173  0.053956055   -1.9381483   0.66193099   418189 
  752000   0.63424028   -1.9377025   -1.9377025    -1.276592  0.053812441   -1.9377025   0.66111051   418189 
  753000   0.63423876   -1.9379278   -1.9379278   -1.2768189  0.048807463   -1.9379278   0.66110893   418189 
  754000   0.63484876   -1.9385466   -1.9385466   -1.2768018  0.042967934   -1.9385466   0.66174477   418189 
  755000   0.63516894   -1.9389829   -1.9389829   -1.2769044  0.045095002   -1.9389829   0.66207852   418189 
  756000   0.63557878   -1.9389037   -1.9389037    -1.276398  0.049989482   -1.9389037   0.66250571   418189 
  757000    0.6349777   -1.9384995   -1.9384995   -1.2766203  0.051556429   -1.9384995   0.66187918   418189 
  758000   0.63484335   -1.9387547   -1.9387547   -1.2770156   0.04920087   -1.9387547   0.66173913   418189 
  759000   0.63549877   -1.9402541   -1.9402541   -1.2778318  0.051665401   -1.9402541   0.66242232   418189 
  760000    0.6358432   -1.9410436   -1.9410436   -1.2782622  0.052523853   -1.9410436   0.66278134   418189 
  761000   0.63488051   -1.9398988   -1.9398988   -1.2781209  0.051819987   -1.9398988   0.66177787   418189 
  762000   0.63483335   -1.9402273   -1.9402273   -1.2784986  0.042035069   -1.9402273   0.66172871   418189 
  763000   0.63439417   -1.9399878   -1.9399878   -1.2787169  0.056252556   -1.9399878   0.66127092   418189 
  764000   0.63516033   -1.9411397   -1.9411397   -1.2790702  0.054824238   -1.9411397   0.66206954   418189 
  765000   0.63556614   -1.9415683   -1.9415683   -1.2790758  0.043671595   -1.9415683   0.66249255   418189 
  766000   0.63383856   -1.9406283   -1.9406283   -1.2799365   0.04318218   -1.9406283   0.66069177   418189 
  767000   0.63455022   -1.9412851   -1.9412851   -1.2798515  0.046215804   -1.9412851   0.66143358   418189 
  768000   0.63448566    -1.941073    -1.941073   -1.2797067  0.047945416    -1.941073   0.66136629   418189 
  769000   0.63408059   -1.9406197   -1.9406197   -1.2796756  0.047236033   -1.9406197   0.66094406   418189 
  770000   0.63423983   -1.9397909   -1.9397909   -1.2786809  0.056703177   -1.9397909   0.66111004   418189 
  771000    0.6346275   -1.9397548   -1.9397548   -1.2782407  0.054087643   -1.9397548   0.66151413   418189 
  772000   0.63339714   -1.9395387   -1.9395387    -1.279307  0.048280889   -1.9395387   0.66023165   418189 
  773000   0.63512682   -1.9411887   -1.9411887   -1.2791541  0.049699077   -1.9411887   0.66203461   418189 
  774000   0.63364473   -1.9398709   -1.9398709   -1.2793811  0.046734527   -1.9398709   0.66048972   418189 
  775000   0.63491598   -1.9416394   -1.9416394   -1.2798245  0.048108492   -1.9416394   0.66181484   418189 
  776000   0.63507597   -1.9420746   -1.9420746    -1.280093  0.044284028   -1.9420746    0.6619816   418189 
  777000    0.6331828   -1.9401818   -1.9401818   -1.2801735  0.051230133   -1.9401818   0.66000823   418189 
  778000   0.63513728   -1.9427688   -1.9427688   -1.2807233  0.056237334   -1.9427688   0.66204551   418189 
  779000   0.63393561   -1.9412848   -1.9412848   -1.2804919  0.053528949   -1.9412848   0.66079293   418189 
  780000   0.63385158   -1.9420893   -1.9420893    -1.281384  0.052280272   -1.9420893   0.66070534   418189 
  781000   0.63524739   -1.9432182   -1.9432182   -1.2810579  0.058091209   -1.9432182   0.66216028   418189 
  782000   0.63481462   -1.9433171   -1.9433171   -1.2816079  0.043742573   -1.9433171   0.66170919   418189 
  783000   0.63531616    -1.944415    -1.944415    -1.282183  0.048555546    -1.944415   0.66223197   418189 
  784000   0.63548607   -1.9448265   -1.9448265   -1.2824174  0.048461462   -1.9448265   0.66240908   418189 
  785000   0.63378173    -1.943628    -1.943628   -1.2829955  0.051013834    -1.943628   0.66063254   418189 
  786000   0.63263821   -1.9429593   -1.9429593   -1.2835187  0.050568297   -1.9429593   0.65944057   418189 
  787000   0.63227648   -1.9423924   -1.9423924   -1.2833289   0.05372994   -1.9423924   0.65906352   418189 
  788000   0.63369077   -1.9434575   -1.9434575   -1.2829198  0.053574973   -1.9434575   0.66053772   418189 
  789000   0.63352056   -1.9442185   -1.9442185   -1.2838582  0.049006024   -1.9442185    0.6603603   418189 
  790000   0.63355361   -1.9444883   -1.9444883   -1.2840936    0.0569816   -1.9444883   0.66039475   418189 
  791000   0.63418761   -1.9454617   -1.9454617   -1.2844061  0.049803941   -1.9454617   0.66105561   418189 
  792000   0.63498955    -1.946017    -1.946017   -1.2841255  0.046814413    -1.946017   0.66189152   418189 
  793000   0.63381239   -1.9457986   -1.9457986   -1.2851341  0.048357594   -1.9457986   0.66066449   418189 
  794000   0.63356975   -1.9447177   -1.9447177   -1.2843061  0.047623796   -1.9447177   0.66041157   418189 
  795000   0.63438447   -1.9453532   -1.9453532   -1.2840924  0.054226147   -1.9453532   0.66126081   418189 
  796000   0.63357763   -1.9446304   -1.9446304   -1.2842106  0.041265029   -1.9446304   0.66041979   418189 
  797000   0.63370883   -1.9452933   -1.9452933   -1.2847367  0.042440078   -1.9452933   0.66055654   418189 
  798000   0.63510175    -1.946701    -1.946701   -1.2846925  0.049240875    -1.946701   0.66200847   418189 
  799000   0.63228014   -1.9440789   -1.9440789   -1.2850116   0.04847153   -1.9440789   0.65906733   418189 
  800000   0.63265319   -1.9447058   -1.9447058   -1.2852496  0.052827763   -1.9447058   0.65945618   418189 
  801000   0.63143221   -1.9432516   -1.9432516   -1.2850682  0.055262877   -1.9432516   0.65818347   418189 
  802000   0.63228928   -1.9448489   -1.9448489   -1.2857721  0.047578177   -1.9448489   0.65907685   418189 
  803000   0.63256762   -1.9447597   -1.9447597   -1.2853927  0.044976295   -1.9447597   0.65936699   418189 
  804000   0.63292767    -1.944853    -1.944853   -1.2851107   0.03961312    -1.944853    0.6597423   418189 
  805000   0.63250072   -1.9437308   -1.9437308   -1.2844335  0.047499657   -1.9437308   0.65929726   418189 
  806000   0.63309264   -1.9448807   -1.9448807   -1.2849665  0.056613729   -1.9448807   0.65991425   418189 
  807000   0.63369151    -1.945758    -1.945758   -1.2852196  0.060178028    -1.945758   0.66053849   418189 
  808000   0.63335331   -1.9449129   -1.9449129    -1.284727  0.053233279   -1.9449129   0.66018596   418189 
  809000   0.63286489   -1.9454303   -1.9454303   -1.2857535  0.045556474   -1.9454303   0.65967685   418189 
  810000   0.63545575   -1.9474997   -1.9474997   -1.2851223  0.049210824   -1.9474997   0.66237748   418189 
  811000   0.63458123   -1.9472124   -1.9472124   -1.2857465  0.050336555   -1.9472124    0.6614659   418189 
  812000   0.63427933   -1.9474052   -1.9474052    -1.286254  0.050021789   -1.9474052   0.66115121   418189 
  813000   0.63377621   -1.9471522   -1.9471522   -1.2865255  0.050797599   -1.9471522   0.66062678   418189 
  814000   0.63231699   -1.9464917   -1.9464917    -1.287386  0.051699913   -1.9464917   0.65910574   418189 
  815000   0.63346611   -1.9479678   -1.9479678   -1.2876643  0.054827239   -1.9479678   0.66030354   418189 
  816000    0.6326504   -1.9474813   -1.9474813   -1.2880281  0.058599321   -1.9474813   0.65945328   418189 
  817000   0.63211781   -1.9472608   -1.9472608   -1.2883627  0.049257409   -1.9472608   0.65889813   418189 
  818000   0.63330928   -1.9482246   -1.9482246   -1.2880846  0.049316636   -1.9482246   0.66014007   418189 
  819000   0.63314909   -1.9487478   -1.9487478   -1.2887747  0.054703216   -1.9487478   0.65997309   418189 
  820000   0.63279789      -1.9485      -1.9485   -1.2888929  0.044348893      -1.9485   0.65960701   418189 
  821000    0.6342982   -1.9494771   -1.9494771   -1.2883062  0.062724586   -1.9494771   0.66117089   418189 
  822000   0.63293605   -1.9488867   -1.9488867   -1.2891357  0.055457771   -1.9488867   0.65975102   418189 
  823000    0.6339782   -1.9494712   -1.9494712   -1.2886339  0.057028733   -1.9494712   0.66083733   418189 
  824000    0.6319198   -1.9477641   -1.9477641   -1.2890724  0.048607389   -1.9477641   0.65869173   418189 
  825000   0.63233458   -1.9490455   -1.9490455   -1.2899214  0.046369793   -1.9490455   0.65912408   418189 
  826000   0.63335354   -1.9498809   -1.9498809   -1.2896947  0.048536361   -1.9498809    0.6601862   418189 
  827000   0.63317885   -1.9500208   -1.9500208   -1.2900167  0.050213066   -1.9500208   0.66000411   418189 
  828000   0.63453212    -1.951403    -1.951403   -1.2899883  0.052244586    -1.951403   0.66141472   418189 
  829000   0.63362549   -1.9508529   -1.9508529   -1.2903832  0.049756932   -1.9508529   0.66046967   418189 
  830000   0.63284534   -1.9507283   -1.9507283   -1.2910718  0.051757229   -1.9507283   0.65965648   418189 
  831000   0.63161782   -1.9495142   -1.9495142   -1.2911373  0.052635476   -1.9495142   0.65837695   418189 
  832000   0.63116652   -1.9495627   -1.9495627   -1.2916561  0.053060218   -1.9495627   0.65790653   418189 
  833000   0.63121869   -1.9498346   -1.9498346   -1.2918737  0.048367164   -1.9498346    0.6579609   418189 
  834000   0.63195851   -1.9506673   -1.9506673   -1.2919352  0.058469551   -1.9506673   0.65873207   418189 
  835000   0.63218577   -1.9504259   -1.9504259   -1.2914569  0.052077273   -1.9504259   0.65896896   418189 
  836000   0.63305391   -1.9517117   -1.9517117   -1.2918379  0.045219546   -1.9517117   0.65987387   418189 
  837000   0.63244096   -1.9512929   -1.9512929   -1.2920579  0.058282946   -1.9512929   0.65923496   418189 
  838000   0.63295379   -1.9514616   -1.9514616   -1.2916921  0.057871361   -1.9514616   0.65976952   418189 
  839000   0.63335464   -1.9521253   -1.9521253   -1.2919379  0.058113561   -1.9521253   0.66018735   418189 
  840000   0.63336982   -1.9523518   -1.9523518   -1.2921486  0.058878804   -1.9523518   0.66020317   418189 
  841000   0.63220609   -1.9512974   -1.9512974   -1.2923072   0.05901946   -1.9512974   0.65899014   418189 
  842000   0.63184713   -1.9510622   -1.9510622   -1.2924463  0.046043878   -1.9510622   0.65861598   418189 
  843000   0.63181138   -1.9508641   -1.9508641   -1.2922854  0.058950242   -1.9508641   0.65857871   418189 
  844000   0.63384858   -1.9533611   -1.9533611   -1.2926589   0.05543115   -1.9533611   0.66070222   418189 
  845000   0.63261206   -1.9524744   -1.9524744   -1.2930611  0.048852641   -1.9524744   0.65941332   418189 
  846000   0.63155161   -1.9523679   -1.9523679     -1.29406  0.048796981   -1.9523679   0.65830793   418189 
  847000   0.63239196   -1.9533004   -1.9533004   -1.2941165  0.048367705   -1.9533004   0.65918388   418189 
  848000   0.63235383   -1.9530942   -1.9530942     -1.29395  0.052660889   -1.9530942   0.65914414   418189 
  849000    0.6313495    -1.952408    -1.952408   -1.2943108  0.056089329    -1.952408   0.65809726   418189 
  850000   0.63192903   -1.9533507   -1.9533507   -1.2946494  0.043537759   -1.9533507   0.65870135   418189 
  851000   0.63281288   -1.9542053   -1.9542053   -1.2945826  0.052360924   -1.9542053   0.65962264   418189 
  852000   0.63207061   -1.9543823   -1.9543823   -1.2955334  0.049487543   -1.9543823   0.65884892   418189 
  853000   0.63229992   -1.9542712   -1.9542712   -1.2951832  0.054644739   -1.9542712   0.65908795   418189 
  854000   0.63258656   -1.9544679   -1.9544679   -1.2950811  0.056841034   -1.9544679   0.65938673   418189 
  855000    0.6318443    -1.954802    -1.954802    -1.296189  0.046103327    -1.954802   0.65861302   418189 
  856000   0.63248453   -1.9556298   -1.9556298   -1.2963494  0.048319772   -1.9556298   0.65928038   418189 
  857000   0.63101241   -1.9544676   -1.9544676   -1.2967217  0.043767046   -1.9544676   0.65774589   418189 
  858000   0.63202506   -1.9554669   -1.9554669   -1.2966655  0.041455284   -1.9554669   0.65880144   418189 
  859000   0.63212205   -1.9553558   -1.9553558   -1.2964532   0.04961288   -1.9553558   0.65890254   418189 
  860000    0.6319709   -1.9557132   -1.9557132   -1.2969682  0.048101158   -1.9557132   0.65874498   418189 
  861000   0.63222222    -1.955879    -1.955879   -1.2968721  0.049991071    -1.955879   0.65900695   418189 
  862000    0.6305771   -1.9534896   -1.9534896   -1.2961974  0.047442433   -1.9534896   0.65729214   418189 
  863000   0.63150413   -1.9549299   -1.9549299   -1.2966715  0.036347582   -1.9549299   0.65825845   418189 
  864000   0.63177387   -1.9548381   -1.9548381   -1.2962985  0.051909596   -1.9548381   0.65853961   418189 
  865000   0.63098873   -1.9541347   -1.9541347   -1.2964135  0.050687849   -1.9541347   0.65772121   418189 
  866000   0.63255767   -1.9556225   -1.9556225   -1.2962659  0.049620175   -1.9556225   0.65935662   418189 
  867000   0.63183199   -1.9554452   -1.9554452    -1.296845   0.04208882   -1.9554452   0.65860019   418189 
  868000    0.6313183   -1.9546711   -1.9546711   -1.2966063  0.055229012   -1.9546711   0.65806474   418189 
  869000   0.63220137   -1.9550295   -1.9550295   -1.2960443  0.050068194   -1.9550295   0.65898522   418189 
  870000   0.63204409   -1.9547837   -1.9547837   -1.2959624   0.04779682   -1.9547837   0.65882128   418189 
  871000   0.63210354   -1.9552608   -1.9552608   -1.2963775  0.049022516   -1.9552608   0.65888325   418189 
  872000   0.63096859   -1.9547631   -1.9547631   -1.2970629  0.047453336   -1.9547631   0.65770021   418189 
  873000   0.63086105   -1.9551639   -1.9551639   -1.2975758  0.045186949   -1.9551639   0.65758812   418189 
  874000   0.63278305   -1.9574294   -1.9574294   -1.2978378  0.047514437   -1.9574294   0.65959154   418189 
  875000   0.63118602   -1.9561448   -1.9561448    -1.298218  0.051293784   -1.9561448   0.65792686   418189 
  876000   0.63203241   -1.9567147   -1.9567147   -1.2979056  0.048009699   -1.9567147    0.6588091   418189 
  877000   0.63098347   -1.9562681   -1.9562681   -1.2985524  0.050295176   -1.9562681   0.65771572   418189 
  878000   0.63017819   -1.9552212   -1.9552212   -1.2983449  0.048634243   -1.9552212   0.65687632   418189 
  879000   0.63226265   -1.9572479   -1.9572479   -1.2981988  0.045833496   -1.9572479   0.65904909   418189 
  880000   0.63093472   -1.9566033   -1.9566033   -1.2989384  0.049974698   -1.9566033    0.6576649   418189 
  881000    0.6330783   -1.9590065   -1.9590065   -1.2991072  0.045597878   -1.9590065    0.6598993   418189 
  882000   0.63051689   -1.9565803   -1.9565803    -1.299351  0.052945967   -1.9565803   0.65722938   418189 
  883000   0.63179118   -1.9584346   -1.9584346    -1.299877  0.041777384   -1.9584346   0.65855765   418189 
  884000   0.63016383   -1.9570571   -1.9570571   -1.3001958  0.051599298   -1.9570571   0.65686136   418189 
  885000   0.63191081   -1.9583133   -1.9583133   -1.2996309  0.047736746   -1.9583133   0.65868235   418189 
  886000   0.63104052   -1.9575665   -1.9575665   -1.2997913  0.047767286   -1.9575665   0.65777519   418189 
  887000   0.63054514   -1.9568196   -1.9568196   -1.2995608  0.057765022   -1.9568196   0.65725882   418189 
  888000   0.63045069   -1.9566707   -1.9566707   -1.2995104  0.057544755   -1.9566707   0.65716037   418189 
  889000   0.62975149   -1.9559876   -1.9559876    -1.299556  0.043595162   -1.9559876   0.65643155   418189 
  890000   0.62944123    -1.955512    -1.955512   -1.2994039  0.042095547    -1.955512   0.65610814   418189 
  891000   0.62948518   -1.9556883   -1.9556883   -1.2995344  0.053389464   -1.9556883   0.65615395   418189 
  892000    0.6316109   -1.9578957   -1.9578957    -1.299526  0.050791014   -1.9578957   0.65836974   418189 
  893000   0.63125738   -1.9577744   -1.9577744   -1.2997732  0.047390772   -1.9577744   0.65800124   418189 
  894000   0.63046975   -1.9572225   -1.9572225   -1.3000422  0.041305263   -1.9572225   0.65718024   418189 
  895000   0.62987081    -1.956827    -1.956827    -1.300271  0.048205999    -1.956827   0.65655593   418189 
  896000   0.63048913   -1.9579022   -1.9579022   -1.3007017  0.043931933   -1.9579022   0.65720044   418189 
  897000   0.63005488   -1.9573949   -1.9573949   -1.3006471  0.045349757   -1.9573949    0.6567478   418189 
  898000   0.63096228   -1.9583396   -1.9583396    -1.300646  0.052691399   -1.9583396   0.65769364   418189 
  899000   0.62964304   -1.9567889   -1.9567889   -1.3004704  0.051606035   -1.9567889   0.65631851   418189 
  900000   0.63181008   -1.9586221   -1.9586221   -1.3000447  0.052441617   -1.9586221   0.65857736   418189 
  901000   0.63193097   -1.9593318   -1.9593318   -1.3006285  0.046534727   -1.9593318   0.65870337   418189 
  902000   0.63196843   -1.9599719   -1.9599719   -1.3012295  0.051291504   -1.9599719   0.65874242   418189 
  903000   0.63117285   -1.9590602   -1.9590602   -1.3011471  0.046068931   -1.9590602   0.65791313   418189 
  904000    0.6309265   -1.9583162   -1.9583162   -1.3006598  0.048463777   -1.9583162   0.65765634   418189 
  905000   0.63178223   -1.9592165   -1.9592165   -1.3006682  0.048648525   -1.9592165   0.65854833   418189 
  906000   0.63094231   -1.9585564   -1.9585564   -1.3008836  0.045989354   -1.9585564   0.65767282   418189 
  907000   0.63169089   -1.9593765   -1.9593765   -1.3009234  0.046639855   -1.9593765   0.65845311   418189 
  908000   0.63100017   -1.9590535   -1.9590535   -1.3013204  0.044588291   -1.9590535   0.65773313   418189 
  909000   0.63179174    -1.959341    -1.959341   -1.3007828  0.050925977    -1.959341   0.65855823   418189 
  910000    0.6318808   -1.9590708   -1.9590708   -1.3004197   0.04044071   -1.9590708   0.65865107   418189 
  911000   0.63205141   -1.9579862   -1.9579862   -1.2991573  0.051525182   -1.9579862   0.65882891   418189 
  912000   0.63147819   -1.9577771   -1.9577771   -1.2995457  0.048701475   -1.9577771    0.6582314   418189 
  913000   0.63266527   -1.9596517   -1.9596517   -1.3001829  0.043284235   -1.9596517   0.65946877   418189 
  914000   0.63157057   -1.9583592   -1.9583592   -1.3000315  0.048573402   -1.9583592    0.6583277   418189 
  915000   0.63109003   -1.9582504   -1.9582504   -1.3004237  0.051802272   -1.9582504   0.65782679   418189 
  916000   0.63084448   -1.9575015   -1.9575015   -1.2999307  0.045834952   -1.9575015   0.65757085   418189 
  917000   0.63124376   -1.9586588   -1.9586588   -1.3006718  0.048000442   -1.9586588   0.65798704   418189 
  918000   0.63076726   -1.9583225   -1.9583225   -1.3008321  0.058200234   -1.9583225   0.65749036   418189 
  919000   0.63213253   -1.9606671   -1.9606671   -1.3017536  0.047302554   -1.9606671   0.65891346   418189 
  920000   0.63098125    -1.959481    -1.959481   -1.3017676  0.047094263    -1.959481   0.65771341   418189 
  921000   0.63007561   -1.9592968   -1.9592968   -1.3025274  0.063725648   -1.9592968    0.6567694   418189 
  922000   0.63024513   -1.9596091   -1.9596091    -1.302663  0.048607825   -1.9596091    0.6569461   418189 
  923000   0.63193022   -1.9616172   -1.9616172   -1.3029146  0.044037285   -1.9616172   0.65870258   418189 
  924000   0.62938355   -1.9596954   -1.9596954   -1.3036474  0.054096416   -1.9596954   0.65604802   418189 
  925000   0.63186626   -1.9612996   -1.9612996   -1.3026637  0.050232077   -1.9612996   0.65863591   418189 
  926000   0.63048853   -1.9606707   -1.9606707   -1.3034709  0.048614887   -1.9606707   0.65719982   418189 
  927000   0.63006043   -1.9597307   -1.9597307   -1.3029771  0.048059032   -1.9597307   0.65675357   418189 
  928000   0.63100346   -1.9615435   -1.9615435    -1.303807  0.052810932   -1.9615435   0.65773656   418189 
  929000   0.63107495   -1.9623136   -1.9623136   -1.3045025  0.043669247   -1.9623136   0.65781108   418189 
  930000   0.63023881   -1.9615025   -1.9615025   -1.3045629  0.046258081   -1.9615025   0.65693952   418189 
  931000   0.63091694   -1.9623098   -1.9623098   -1.3046634  0.058743654   -1.9623098   0.65764638   418189 
  932000   0.63043645   -1.9624552   -1.9624552   -1.3053097  0.055240369   -1.9624552   0.65714552   418189 
  933000   0.62810009   -1.9604838   -1.9604838   -1.3057736    0.0485635   -1.9604838   0.65471018   418189 
  934000   0.63074802   -1.9624919   -1.9624919   -1.3050216  0.051043023   -1.9624919   0.65747029   418189 
  935000   0.63112527   -1.9630921   -1.9630921   -1.3052286  0.051671409   -1.9630921   0.65786353   418189 
  936000   0.62904085   -1.9612426   -1.9612426   -1.3055518  0.053459739   -1.9612426    0.6556908   418189 
  937000   0.62914693   -1.9622151   -1.9622151   -1.3064137   0.05494592   -1.9622151   0.65580138   418189 
  938000   0.62948384   -1.9627012   -1.9627012   -1.3065486  0.056463587   -1.9627012   0.65615256   418189 
  939000   0.62950751   -1.9628324   -1.9628324   -1.3066551  0.049785715   -1.9628324   0.65617723   418189 
  940000   0.62946329   -1.9624461   -1.9624461    -1.306315  0.045900764   -1.9624461   0.65613114   418189 
  941000   0.62896515   -1.9623508   -1.9623508   -1.3067389  0.043749815   -1.9623508   0.65561189   418189 
  942000   0.62914148   -1.9628097   -1.9628097    -1.307014  0.047594033   -1.9628097    0.6557957   418189 
  943000   0.62978866   -1.9636816   -1.9636816   -1.3072113  0.040118467   -1.9636816    0.6564703   418189 
  944000   0.63017766   -1.9643124   -1.9643124   -1.3074366  0.051454513   -1.9643124   0.65687577   418189 
  945000   0.62949747   -1.9631529   -1.9631529   -1.3069861  0.061733048   -1.9631529   0.65616676   418189 
  946000   0.63042755   -1.9647383   -1.9647383   -1.3076021  0.055313672   -1.9647383   0.65713625   418189 
  947000   0.63007318    -1.965271    -1.965271   -1.3085041  0.039469663    -1.965271   0.65676687   418189 
  948000    0.6299182   -1.9639175   -1.9639175   -1.3073122  0.053686049   -1.9639175   0.65660532   418189 
  949000   0.62938678   -1.9642332   -1.9642332   -1.3081818  0.043502558   -1.9642332   0.65605138   418189 
  950000   0.63011431   -1.9661868   -1.9661868   -1.3093771  0.042044907   -1.9661868   0.65680974   418189 
  951000   0.62985576   -1.9648847   -1.9648847   -1.3083445  0.046980679   -1.9648847   0.65654023   418189 
  952000   0.62905208   -1.9640501   -1.9640501   -1.3083476  0.054754282   -1.9640501   0.65570251   418189 
  953000   0.62974216   -1.9642894   -1.9642894   -1.3078676   0.04561656   -1.9642894   0.65642182   418189 
  954000   0.63149462   -1.9658146   -1.9658146   -1.3075661  0.053140363   -1.9658146   0.65824852   418189 
  955000   0.63128254   -1.9667386   -1.9667386   -1.3087111  0.045948651   -1.9667386   0.65802747   418189 
  956000   0.63110006   -1.9665687   -1.9665687   -1.3087314  0.043675893   -1.9665687   0.65783725   418189 
  957000    0.6311073     -1.96729     -1.96729   -1.3094452  0.052795593     -1.96729    0.6578448   418189 
  958000   0.63038504   -1.9675612   -1.9675612   -1.3104692  0.047825998   -1.9675612   0.65709194   418189 
  959000   0.63034895   -1.9671904   -1.9671904   -1.3101361  0.056232586   -1.9671904   0.65705432   418189 
  960000   0.63039484   -1.9676045   -1.9676045   -1.3105023  0.050494499   -1.9676045   0.65710216   418189 
  961000   0.62982748   -1.9668597   -1.9668597   -1.3103489  0.052540883   -1.9668597   0.65651076   418189 
  962000    0.6280268   -1.9646274   -1.9646274   -1.3099936  0.048363967   -1.9646274   0.65463379   418189 
  963000   0.62833405   -1.9645033   -1.9645033   -1.3095492  0.044352001   -1.9645033   0.65495406   418189 
  964000   0.62766045   -1.9639435   -1.9639435   -1.3096916  0.044512514   -1.9639435   0.65425192   418189 
  965000   0.62909566   -1.9657741   -1.9657741   -1.3100261  0.047279188   -1.9657741   0.65574793   418189 
  966000   0.62985203   -1.9660899   -1.9660899   -1.3095535  0.047377943   -1.9660899   0.65653635   418189 
  967000   0.63031729   -1.9667282   -1.9667282   -1.3097069  0.054341614   -1.9667282   0.65702132   418189 
  968000   0.63108485   -1.9677461   -1.9677461   -1.3099247  0.046208247   -1.9677461    0.6578214   418189 
  969000   0.62854037   -1.9659378   -1.9659378   -1.3107687   0.03667429   -1.9659378   0.65516912   418189 
  970000   0.62993223   -1.9677243   -1.9677243   -1.3111043  0.046252199   -1.9677243   0.65661995   418189 
  971000   0.62903012   -1.9666258   -1.9666258   -1.3109461  0.043947594   -1.9666258   0.65567961   418189 
  972000   0.62892496   -1.9678991   -1.9678991   -1.3123291  0.042973664   -1.9678991      0.65557   418189 
  973000   0.63049605   -1.9699097   -1.9699097    -1.312702  0.045809355   -1.9699097   0.65720766   418189 
  974000   0.63038602   -1.9690175   -1.9690175   -1.3119245  0.053308006   -1.9690175   0.65709296   418189 
  975000    0.6293926   -1.9684158   -1.9684158   -1.3123584  0.052237162   -1.9684158   0.65605745   418189 
  976000   0.62961602   -1.9696958   -1.9696958   -1.3134055  0.043159592   -1.9696958   0.65629034   418189 
  977000   0.62973246   -1.9698222   -1.9698222   -1.3134105  0.052722324   -1.9698222   0.65641171   418189 
  978000    0.6291242   -1.9698716   -1.9698716    -1.314094  0.047300097   -1.9698716   0.65577768   418189 
  979000   0.62979612   -1.9691983   -1.9691983   -1.3127203  0.055866993   -1.9691983   0.65647807   418189 
  980000   0.63007873   -1.9702778   -1.9702778   -1.3135052  0.051069717   -1.9702778   0.65677265   418189 
  981000   0.62940615   -1.9699885   -1.9699885   -1.3139169  0.046940871   -1.9699885   0.65607158   418189 
  982000   0.62879978   -1.9696446   -1.9696446   -1.3142051   0.05426547   -1.9696446   0.65543952   418189 
  983000   0.63003317   -1.9703186   -1.9703186   -1.3135934  0.050048982   -1.9703186   0.65672516   418189 
  984000   0.62928232   -1.9696494   -1.9696494   -1.3137069  0.058858972   -1.9696494   0.65594251   418189 
  985000    0.6297151   -1.9706163   -1.9706163   -1.3142226  0.045876318   -1.9706163   0.65639361   418189 
  986000   0.62865833   -1.9698671   -1.9698671    -1.314575  0.046165441   -1.9698671   0.65529208   418189 
  987000   0.62902875   -1.9698525   -1.9698525   -1.3141744  0.042137941   -1.9698525   0.65567819   418189 
  988000   0.62984642   -1.9707121   -1.9707121   -1.3141816  0.039376623   -1.9707121    0.6565305   418189 
  989000   0.62962657   -1.9697251   -1.9697251   -1.3134238  0.046436862   -1.9697251   0.65630133   418189 
  990000   0.62982178   -1.9706778   -1.9706778    -1.314173  0.055741369   -1.9706778   0.65650482   418189 
  991000    0.6293569    -1.970356    -1.970356   -1.3143357  0.040916328    -1.970356   0.65602024   418189 
  992000   0.62749985   -1.9691581   -1.9691581   -1.3150736  0.044339862   -1.9691581   0.65408452   418189 
  993000   0.62743711   -1.9694387   -1.9694387   -1.3154195  0.044756206   -1.9694387   0.65401912   418189 
  994000   0.62892095   -1.9702349   -1.9702349   -1.3146691  0.044534203   -1.9702349   0.65556582   418189 
  995000   0.62983751    -1.972573    -1.972573   -1.3160518   0.04834973    -1.972573   0.65652122   418189 
  996000   0.62766249   -1.9711536   -1.9711536   -1.3168995  0.044388765   -1.9711536   0.65425405   418189 
  997000   0.62905265    -1.971672    -1.971672   -1.3159689  0.048759048    -1.971672    0.6557031   418189 
  998000   0.62924407   -1.9712739   -1.9712739   -1.3153712  0.044036343   -1.9712739   0.65590263   418189 
  999000   0.62959973   -1.9720702   -1.9720702   -1.3157968  0.049855633   -1.9720702   0.65627336   418189 
 1000000   0.62963575   -1.9720207   -1.9720207   -1.3157098  0.054690558   -1.9720207   0.65631091   418189 
 1001000   0.62930192   -1.9720003   -1.9720003   -1.3160373  0.053444551   -1.9720003   0.65596293   418189 
 1002000   0.63040851   -1.9734071   -1.9734071   -1.3162907  0.049514976   -1.9734071    0.6571164   418189 
 1003000   0.63007392   -1.9732067   -1.9732067   -1.3164391  0.041565248   -1.9732067   0.65676764   418189 
 1004000   0.62893658   -1.9716347   -1.9716347   -1.3160526  0.045224871   -1.9716347   0.65558212   418189 
 1005000   0.62826673    -1.971284    -1.971284   -1.3164001  0.042130719    -1.971284   0.65488389   418189 
 1006000   0.62978342   -1.9733664   -1.9733664   -1.3169016  0.046780286   -1.9733664   0.65646484   418189 
 1007000   0.63000971   -1.9731698   -1.9731698   -1.3164691  0.053477576   -1.9731698    0.6567007   418189 
 1008000    0.6291714   -1.9730566   -1.9730566   -1.3172297  0.048367168   -1.9730566   0.65582689   418189 
 1009000   0.62912974     -1.97398     -1.97398   -1.3181965  0.051735393     -1.97398   0.65578346   418189 
 1010000   0.62754421   -1.9729295   -1.9729295   -1.3187988  0.047673634   -1.9729295   0.65413076   418189 
 1011000   0.62812309   -1.9731761   -1.9731761    -1.318442  0.044003609   -1.9731761   0.65473416   418189 
 1012000    0.6291024    -1.973711    -1.973711   -1.3179561   0.05078048    -1.973711   0.65575496   418189 
 1013000   0.62908932   -1.9740473   -1.9740473    -1.318306   0.06057732   -1.9740473   0.65574132   418189 
 1014000   0.62966049    -1.974723    -1.974723   -1.3183863  0.050827495    -1.974723    0.6563367   418189 
 1015000   0.62818704   -1.9738527   -1.9738527   -1.3190519  0.059811479   -1.9738527   0.65480082   418189 
 1016000   0.62900025   -1.9748595   -1.9748595    -1.319211  0.046103459   -1.9748595   0.65564848   418189 
 1017000   0.62950908   -1.9753203   -1.9753203   -1.3191415   0.04431484   -1.9753203   0.65617887   418189 
 1018000   0.62981068   -1.9756051   -1.9756051   -1.3191118  0.043849539   -1.9756051   0.65649324   418189 
 1019000   0.62984049   -1.9752179   -1.9752179   -1.3186936  0.048841229   -1.9752179   0.65652432   418189 
 1020000   0.62850533   -1.9744362   -1.9744362   -1.3193036  0.052026022   -1.9744362   0.65513259   418189 
 1021000   0.62804485   -1.9742853   -1.9742853   -1.3196327  0.051147446   -1.9742853    0.6546526   418189 
 1022000   0.62866183   -1.9751097   -1.9751097   -1.3198139  0.046927004   -1.9751097   0.65529573   418189 
 1023000   0.62857226   -1.9744707   -1.9744707   -1.3192684  0.043644497   -1.9744707   0.65520236   418189 
 1024000   0.62880867   -1.9757584   -1.9757584   -1.3203096  0.045484884   -1.9757584   0.65544878   418189 
 1025000    0.6276664   -1.9749602   -1.9749602   -1.3207021  0.042365685   -1.9749602   0.65425812   418189 
 1026000    0.6282915   -1.9758372   -1.9758372   -1.3209275  0.045856402   -1.9758372    0.6549097   418189 
 1027000   0.62794476   -1.9756593   -1.9756593    -1.321111  0.042359644   -1.9756593   0.65454827   418189 
 1028000   0.62702963   -1.9741264   -1.9741264   -1.3205321  0.047309096   -1.9741264   0.65359438   418189 
 1029000   0.62878271   -1.9764503   -1.9764503   -1.3210286  0.047413747   -1.9764503   0.65542173   418189 
 1030000   0.62851077   -1.9763027   -1.9763027   -1.3211645  0.040687606   -1.9763027   0.65513827   418189 
 1031000   0.62857545    -1.976627    -1.976627   -1.3214213  0.041173914    -1.976627   0.65520569   418189 
 1032000   0.62850575   -1.9765415   -1.9765415   -1.3214085  0.050743199   -1.9765415   0.65513303   418189 
 1033000   0.62812943    -1.975557    -1.975557   -1.3208163  0.049615831    -1.975557   0.65474077   418189 
 1034000   0.62821472   -1.9758016   -1.9758016   -1.3209719  0.051386752   -1.9758016   0.65482968   418189 
 1035000   0.62964601   -1.9766332   -1.9766332   -1.3203116  0.059520427   -1.9766332    0.6563216   418189 
 1036000   0.62817876   -1.9753393   -1.9753393   -1.3205472  0.050737034   -1.9753393   0.65479218   418189 
 1037000   0.62807428   -1.9757549   -1.9757549   -1.3210716  0.047347027   -1.9757549   0.65468328   418189 
 1038000   0.62775559   -1.9751962   -1.9751962   -1.3208451  0.053334246   -1.9751962   0.65435109   418189 
 1039000   0.62841297   -1.9765016   -1.9765016   -1.3214653  0.052622413   -1.9765016   0.65503632   418189 
 1040000   0.62879772   -1.9767866   -1.9767866   -1.3213492  0.046541292   -1.9767866   0.65543737   418189 
 1041000   0.62825858   -1.9761348   -1.9761348   -1.3212594  0.044832289   -1.9761348   0.65487539   418189 
 1042000   0.62881347   -1.9766071   -1.9766071   -1.3211533  0.046482712   -1.9766071   0.65545379   418189 
 1043000   0.62792983   -1.9762373   -1.9762373   -1.3217046  0.047870155   -1.9762373   0.65453271   418189 
 1044000   0.62935192   -1.9774055   -1.9774055   -1.3213905  0.043140465   -1.9774055   0.65601505   418189 
 1045000   0.62750098   -1.9762667   -1.9762667    -1.322181  0.041149515   -1.9762667   0.65408569   418189 
 1046000   0.62710855    -1.976303    -1.976303   -1.3226263   0.04008018    -1.976303   0.65367664   418189 
 1047000   0.62833338   -1.9773356   -1.9773356   -1.3223822  0.044941273   -1.9773356   0.65495336   418189 
 1048000   0.62854687   -1.9779987   -1.9779987   -1.3228228  0.049283319   -1.9779987    0.6551759   418189 
 1049000   0.62747302   -1.9774573   -1.9774573   -1.3234007  0.047680362   -1.9774573   0.65405655   418189 
 1050000   0.62736423   -1.9768672   -1.9768672    -1.322924  0.058068102   -1.9768672   0.65394315   418189 
 1051000   0.62745442   -1.9776475   -1.9776475   -1.3236103  0.045216407   -1.9776475   0.65403716   418189 
 1052000   0.62885942   -1.9794147   -1.9794147    -1.323913  0.044292643   -1.9794147   0.65550169   418189 
 1053000   0.62871415   -1.9796602   -1.9796602   -1.3243099  0.055014384   -1.9796602   0.65535026   418189 
 1054000   0.62847543    -1.979804    -1.979804   -1.3247026  0.041231955    -1.979804   0.65510143   418189 
 1055000   0.62835002   -1.9792213   -1.9792213   -1.3242506   0.04156615   -1.9792213    0.6549707   418189 
 1056000   0.62910358   -1.9804377   -1.9804377   -1.3246815  0.055091636   -1.9804377   0.65575619   418189 
 1057000   0.62793262   -1.9792251   -1.9792251   -1.3246895  0.049921439   -1.9792251   0.65453562   418189 
 1058000   0.62730676   -1.9789087   -1.9789087   -1.3250254  0.052628263   -1.9789087   0.65388325   418189 
 1059000   0.62730294   -1.9792807   -1.9792807   -1.3254014  0.046889299   -1.9792807   0.65387927   418189 
 1060000   0.62818278   -1.9801871   -1.9801871   -1.3253907  0.045403362   -1.9801871   0.65479638   418189 
 1061000   0.62618497   -1.9776729   -1.9776729    -1.324959  0.045066249   -1.9776729   0.65271392   418189 
 1062000   0.62791256   -1.9791931   -1.9791931   -1.3246784  0.057354852   -1.9791931   0.65451471   418189 
 1063000   0.62607672    -1.978025    -1.978025    -1.325424  0.038734455    -1.978025   0.65260109   418189 
 1064000    0.6270768   -1.9782613   -1.9782613   -1.3246178  0.043936069   -1.9782613   0.65364354   418189 
 1065000   0.62699755   -1.9788419   -1.9788419    -1.325281  0.043928822   -1.9788419   0.65356094   418189 
 1066000   0.62687745   -1.9783781   -1.9783781   -1.3249424  0.047995516   -1.9783781   0.65343575   418189 
 1067000   0.62724877   -1.9788693   -1.9788693   -1.3250465  0.038873383   -1.9788693    0.6538228   418189 
 1068000   0.62744658   -1.9790693   -1.9790693   -1.3250403  0.047802596   -1.9790693   0.65402899   418189 
 1069000   0.62757324   -1.9799326   -1.9799326   -1.3257716  0.040257052   -1.9799326   0.65416102   418189 
 1070000   0.62712157   -1.9797067   -1.9797067   -1.3260165  0.048441251   -1.9797067    0.6536902   418189 
 1071000    0.6277538   -1.9795814   -1.9795814   -1.3252322  0.051173494   -1.9795814   0.65434922   418189 
 1072000   0.62708611   -1.9790851   -1.9790851   -1.3254319  0.048683614   -1.9790851   0.65365325   418189 
 1073000   0.62935627   -1.9809316   -1.9809316    -1.324912  0.046807895   -1.9809316   0.65601958   418189 
 1074000   0.62973304   -1.9820798   -1.9820798   -1.3256675  0.044932779   -1.9820798   0.65641231   418189 
 1075000   0.62940015   -1.9823375   -1.9823375   -1.3262722  0.035803611   -1.9823375   0.65606532   418189 
 1076000   0.62773899   -1.9807615   -1.9807615   -1.3264277  0.044896618   -1.9807615   0.65433378   418189 
 1077000   0.62813358   -1.9807512   -1.9807512   -1.3260062  0.043424465   -1.9807512   0.65474509   418189 
 1078000   0.62842294   -1.9817551   -1.9817551   -1.3267084  0.047893234   -1.9817551   0.65504672   418189 
 1079000   0.62855482   -1.9824462   -1.9824462    -1.327262  0.043935217   -1.9824462   0.65518418   418189 
 1080000   0.62857254   -1.9817247   -1.9817247   -1.3265221  0.046333089   -1.9817247   0.65520265   418189 
 1081000   0.62918854   -1.9825288   -1.9825288   -1.3266841  0.041925183   -1.9825288   0.65584474   418189 
 1082000   0.62829169    -1.981533    -1.981533    -1.326623  0.049082038    -1.981533   0.65490991   418189 
 1083000   0.62896652   -1.9815617   -1.9815617   -1.3259483   0.05859124   -1.9815617   0.65561333   418189 
 1084000   0.62836152   -1.9812944   -1.9812944   -1.3263117  0.048615963   -1.9812944   0.65498269   418189 
 1085000   0.62868046   -1.9808938   -1.9808938   -1.3255786  0.049922243   -1.9808938   0.65531514   418189 
 1086000   0.62942439   -1.9819368   -1.9819368   -1.3258462  0.044448846   -1.9819368   0.65609059   418189 
 1087000   0.62966041   -1.9829302   -1.9829302   -1.3265936  0.045710634   -1.9829302   0.65633661   418189 
 1088000   0.62794913   -1.9821349   -1.9821349    -1.327582   0.05148303   -1.9821349   0.65455283   418189 
 1089000   0.62779726   -1.9815986   -1.9815986    -1.327204  0.048100906   -1.9815986   0.65439453   418189 
 1090000   0.62774759   -1.9811372   -1.9811372   -1.3267944  0.045070597   -1.9811372   0.65434275   418189 
 1091000   0.62842866   -1.9824101   -1.9824101   -1.3273575  0.040679648   -1.9824101   0.65505268   418189 
 1092000   0.62705882   -1.9808192   -1.9808192   -1.3271944  0.050820178   -1.9808192    0.6536248   418189 
 1093000   0.62791727   -1.9819178   -1.9819178   -1.3273982   0.04441617   -1.9819178   0.65451962   418189 
 1094000   0.62688295   -1.9811854   -1.9811854   -1.3277439  0.045234197   -1.9811854   0.65344148   418189 
 1095000    0.6278737   -1.9824077   -1.9824077   -1.3279335  0.050751573   -1.9824077    0.6544742   418189 
 1096000   0.62761979   -1.9819389   -1.9819389   -1.3277294  0.044008383   -1.9819389   0.65420954   418189 
 1097000   0.62683736   -1.9809789   -1.9809789    -1.327585  0.048971751   -1.9809789   0.65339396   418189 
 1098000   0.62813051   -1.9829631   -1.9829631   -1.3282212  0.052709331   -1.9829631   0.65474189   418189 
 1099000   0.62849783   -1.9832019   -1.9832019   -1.3280771  0.054318279   -1.9832019   0.65512478   418189 
 1100000   0.62774497   -1.9829489   -1.9829489   -1.3286089  0.043708519   -1.9829489   0.65434002   418189 
 1101000   0.62904555   -1.9840808   -1.9840808   -1.3283851  0.044414581   -1.9840808    0.6556957   418189 
 1102000   0.62810875   -1.9828831   -1.9828831   -1.3281639   0.04776616   -1.9828831   0.65471921   418189 
 1103000   0.62823266   -1.9828427   -1.9828427   -1.3279943  0.049784543   -1.9828427   0.65484838   418189 
 1104000   0.62630786   -1.9814513   -1.9814513   -1.3286093  0.051416175   -1.9814513   0.65284202   418189 
 1105000    0.6281829   -1.9833345   -1.9833345    -1.328538  0.045402118   -1.9833345    0.6547965   418189 
 1106000   0.62633536   -1.9819142   -1.9819142   -1.3290435  0.050497508   -1.9819142   0.65287069   418189 
 1107000   0.62658764   -1.9824236   -1.9824236     -1.32929  0.051011706   -1.9824236   0.65313366   418189 
 1108000   0.62798716   -1.9841932   -1.9841932   -1.3296007  0.053915738   -1.9841932   0.65459247   418189 
 1109000   0.62809798   -1.9848267   -1.9848267   -1.3301187    0.0586118   -1.9848267   0.65470799   418189 
 1110000   0.62759117   -1.9850613   -1.9850613   -1.3308816   0.03868043   -1.9850613   0.65417971   418189 
 1111000   0.62676258   -1.9848212   -1.9848212   -1.3315052  0.042003146   -1.9848212   0.65331601   418189 
 1112000   0.62804536   -1.9859736   -1.9859736   -1.3313204  0.054367948   -1.9859736   0.65465314   418189 
 1113000   0.62700772   -1.9854192   -1.9854192   -1.3318477  0.047665233   -1.9854192   0.65357154   418189 
 1114000   0.62723356   -1.9857036   -1.9857036   -1.3318967  0.048289908   -1.9857036   0.65380694   418189 
 1115000    0.6277081   -1.9867529   -1.9867529   -1.3324513   0.04987633   -1.9867529   0.65430159   418189 
 1116000   0.62762186   -1.9872317   -1.9872317     -1.33302  0.039931554   -1.9872317    0.6542117   418189 
 1117000   0.62875438   -1.9881176   -1.9881176   -1.3327254   0.05282667   -1.9881176    0.6553922   418189 
 1118000   0.62830797   -1.9879892   -1.9879892   -1.3330623  0.051075458   -1.9879892   0.65492687   418189 
 1119000   0.62695799   -1.9869451   -1.9869451   -1.3334254   0.04146511   -1.9869451    0.6535197   418189 
 1120000   0.62672009   -1.9870224   -1.9870224   -1.3337507  0.042354288   -1.9870224   0.65327172   418189 
 1121000   0.62534427    -1.985582    -1.985582   -1.3337444  0.050947126    -1.985582   0.65183761   418189 
 1122000   0.62791964   -1.9873119   -1.9873119   -1.3327898   0.04751901   -1.9873119   0.65452209   418189 
 1123000   0.62779901   -1.9875226   -1.9875226   -1.3331263  0.041730732   -1.9875226   0.65439635   418189 
 1124000   0.62694934   -1.9872541   -1.9872541   -1.3337434  0.045309401   -1.9872541   0.65351068   418189 
 1125000   0.62741602   -1.9872215   -1.9872215   -1.3332244  0.044519684   -1.9872215   0.65399713   418189 
 1126000   0.62796876   -1.9878135   -1.9878135   -1.3332402   0.04878231   -1.9878135    0.6545733   418189 
 1127000   0.62816894   -1.9888853   -1.9888853   -1.3341033  0.047813294   -1.9888853   0.65478195   418189 
 1128000   0.62730729   -1.9884061   -1.9884061   -1.3345223  0.049524604   -1.9884061   0.65388379   418189 
 1129000   0.62657039   -1.9884969   -1.9884969   -1.3353812  0.039017521   -1.9884969   0.65311568   418189 
 1130000   0.62676322   -1.9894459   -1.9894459   -1.3361292  0.040300298   -1.9894459   0.65331668   418189 
 1131000   0.62657863    -1.988973    -1.988973   -1.3358487   0.04641802    -1.988973   0.65312426   418189 
 1132000   0.62704967   -1.9899613   -1.9899613    -1.336346  0.053109464   -1.9899613   0.65361526   418189 
 1133000   0.62670178   -1.9902459   -1.9902459   -1.3369932  0.043512301   -1.9902459   0.65325264   418189 
 1134000   0.62706276   -1.9897438   -1.9897438   -1.3361149  0.049096873   -1.9897438    0.6536289   418189 
 1135000   0.62640132   -1.9881461   -1.9881461   -1.3352067  0.051846221   -1.9881461   0.65293944   418189 
 1136000   0.62809404     -1.99075     -1.99075   -1.3360461  0.046217371     -1.99075   0.65470388   418189 
 1137000   0.62480294   -1.9884058   -1.9884058   -1.3371324  0.050547376   -1.9884058   0.65127335   418189 
 1138000    0.6259186   -1.9891872   -1.9891872   -1.3367509  0.045778055   -1.9891872   0.65243627   418189 
 1139000   0.62588857   -1.9887009   -1.9887009   -1.3362959  0.044391376   -1.9887009   0.65240498   418189 
 1140000   0.62570575   -1.9880488   -1.9880488   -1.3358344  0.045440792   -1.9880488    0.6522144   418189 
 1141000   0.62613847   -1.9893369   -1.9893369   -1.3366715  0.043275459   -1.9893369   0.65266546   418189 
 1142000   0.62650865   -1.9893112   -1.9893112   -1.3362599  0.033004416   -1.9893112   0.65305132   418189 
 1143000   0.62835626   -1.9913373   -1.9913373   -1.3363601  0.048713009   -1.9913373   0.65497721   418189 
 1144000   0.62673923   -1.9897586   -1.9897586   -1.3364669  0.050858993   -1.9897586   0.65329167   418189 
 1145000   0.62607284   -1.9894869   -1.9894869   -1.3368899  0.045170816   -1.9894869   0.65259705   418189 
 1146000   0.62731869   -1.9904478   -1.9904478   -1.3365521  0.047237865   -1.9904478   0.65389568   418189 
 1147000   0.62837383   -1.9911817   -1.9911817   -1.3361862  0.051215583   -1.9911817   0.65499552   418189 
 1148000   0.62750465   -1.9902883   -1.9902883   -1.3361987  0.058703629   -1.9902883   0.65408952   418189 
 1149000   0.62651297   -1.9898432   -1.9898432   -1.3367874  0.056708503   -1.9898432   0.65305582   418189 
 1150000   0.62727562   -1.9907255   -1.9907255   -1.3368747  0.054688085   -1.9907255   0.65385078   418189 
 1151000   0.62687104   -1.9901112   -1.9901112   -1.3366821  0.054088943   -1.9901112   0.65342906   418189 
 1152000   0.62598172   -1.9896172   -1.9896172   -1.3371151  0.045086343   -1.9896172   0.65250206   418189 
 1153000   0.62559071   -1.9890179   -1.9890179   -1.3369234  0.046448858   -1.9890179   0.65209449   418189 
 1154000   0.62658171   -1.9893232   -1.9893232   -1.3361957  0.045853444   -1.9893232   0.65312747   418189 
 1155000   0.62684475   -1.9899389   -1.9899389   -1.3365372  0.046105296   -1.9899389   0.65340166   418189 
 1156000   0.62656567   -1.9906775   -1.9906775   -1.3375667  0.030427302   -1.9906775   0.65311076   418189 
 1157000   0.62657491   -1.9902164   -1.9902164    -1.337096  0.046654038   -1.9902164   0.65312039   418189 
 1158000   0.62587628   -1.9898736   -1.9898736   -1.3374814  0.043571178   -1.9898736   0.65239217   418189 
 1159000    0.6270054   -1.9906617   -1.9906617   -1.3370926   0.04059744   -1.9906617   0.65356912   418189 
 1160000    0.6261379   -1.9895674   -1.9895674   -1.3369025  0.045162291   -1.9895674   0.65266487   418189 
 1161000   0.62527493   -1.9893263   -1.9893263    -1.337561  0.047871655   -1.9893263   0.65176534   418189 
 1162000   0.62578954   -1.9909094   -1.9909094   -1.3386077  0.055884636   -1.9909094   0.65230175   418189 
 1163000   0.62617355   -1.9909679   -1.9909679   -1.3382658   0.04416116   -1.9909679   0.65270202   418189 
 1164000   0.62578867   -1.9908042   -1.9908042   -1.3385034  0.035682232   -1.9908042   0.65230084   418189 
 1165000    0.6269535   -1.9921253   -1.9921253   -1.3386103  0.045564742   -1.9921253   0.65351502   418189 
 1166000    0.6242984   -1.9900235   -1.9900235   -1.3392761  0.046131842   -1.9900235   0.65074743   418189 
 1167000   0.62748067   -1.9930555   -1.9930555    -1.338991  0.054215841   -1.9930555   0.65406452   418189 
 1168000   0.62774399   -1.9931265   -1.9931265   -1.3387875  0.047419188   -1.9931265   0.65433899   418189 
 1169000   0.62707259   -1.9927242   -1.9927242    -1.339085  0.045531261   -1.9927242   0.65363916   418189 
 1170000   0.62718008   -1.9918734   -1.9918734   -1.3381222  0.048916217   -1.9918734    0.6537512   418189 
 1171000   0.62669528   -1.9913857   -1.9913857   -1.3381398  0.048579828   -1.9913857   0.65324586   418189 
 1172000   0.62738337   -1.9929164   -1.9929164   -1.3389533  0.053179152   -1.9929164    0.6539631   418189 
 1173000   0.62715606   -1.9934484   -1.9934484   -1.3397222  0.043690166   -1.9934484   0.65372616   418189 
 1174000   0.62748557    -1.993606    -1.993606   -1.3395363  0.042359563    -1.993606   0.65406964   418189 
 1175000   0.62764666   -1.9934568   -1.9934568   -1.3392193  0.043328258   -1.9934568   0.65423755   418189 
 1176000   0.62640535   -1.9922364   -1.9922364   -1.3392927  0.048190139   -1.9922364   0.65294365   418189 
 1177000   0.62699585    -1.993651    -1.993651   -1.3400918  0.050758361    -1.993651   0.65355916   418189 
 1178000   0.62512264    -1.992067    -1.992067   -1.3404604  0.057818226    -1.992067   0.65160659   418189 
 1179000   0.62593903   -1.9934843   -1.9934843   -1.3410267  0.043867345   -1.9934843   0.65245757   418189 
 1180000   0.62536241   -1.9927128   -1.9927128   -1.3408563  0.045303215   -1.9927128   0.65185652   418189 
 1181000   0.62701017   -1.9946943   -1.9946943   -1.3411202  0.039388769   -1.9946943   0.65357409   418189 
 1182000   0.62506421   -1.9925861   -1.9925861   -1.3410405  0.038463556   -1.9925861   0.65154569   418189 
 1183000   0.62579428   -1.9936467   -1.9936467     -1.34134  0.049164225   -1.9936467   0.65230669   418189 
 1184000   0.62654661   -1.9940023   -1.9940023   -1.3409114  0.040740362   -1.9940023   0.65309089   418189 
 1185000   0.62670261   -1.9939919   -1.9939919   -1.3407384  0.062822512   -1.9939919    0.6532535   418189 
 1186000   0.62584844   -1.9928779   -1.9928779   -1.3405148  0.050391999   -1.9928779   0.65236314   418189 
 1187000   0.62651297   -1.9940427   -1.9940427   -1.3409869  0.038400684   -1.9940427   0.65305582   418189 
 1188000   0.62678558   -1.9946137   -1.9946137   -1.3412738  0.053257994   -1.9946137   0.65333998   418189 
 1189000   0.62632342   -1.9945274   -1.9945274   -1.3416691  0.047668095   -1.9945274   0.65285825   418189 
 1190000   0.62573788   -1.9943171   -1.9943171   -1.3420692   0.05670335   -1.9943171    0.6522479   418189 
 1191000   0.62475644   -1.9940351   -1.9940351   -1.3428102  0.047615167   -1.9940351   0.65122488   418189 
 1192000    0.6261793   -1.9950522   -1.9950522   -1.3423441  0.049185028   -1.9950522   0.65270802   418189 
 1193000   0.62625168   -1.9945789   -1.9945789   -1.3417954  0.042463599   -1.9945789   0.65278347   418189 
 1194000   0.62476163   -1.9934458   -1.9934458   -1.3422155  0.036982964   -1.9934458   0.65123029   418189 
 1195000   0.62620679   -1.9941261   -1.9941261   -1.3413895  0.056860435   -1.9941261   0.65273667   418189 
 1196000   0.62524682   -1.9929363   -1.9929363   -1.3412003   0.04909724   -1.9929363   0.65173603   418189 
 1197000   0.62637187   -1.9941313   -1.9941313   -1.3412226  0.042246574   -1.9941313   0.65290875   418189 
 1198000   0.62574363   -1.9937168   -1.9937168   -1.3414629  0.050260244   -1.9937168   0.65225389   418189 
 1199000   0.62599056   -1.9941518   -1.9941518   -1.3416405  0.051275054   -1.9941518   0.65251128   418189 
 1200000   0.62605716    -1.994601    -1.994601   -1.3420203  0.051149476    -1.994601   0.65258071   418189 
 1201000   0.62524474   -1.9944192   -1.9944192   -1.3426854  0.053890416   -1.9944192   0.65173386   418189 
 1202000     0.624986   -1.9940233   -1.9940233   -1.3425591  0.042227973   -1.9940233   0.65146416   418189 
 1203000   0.62594485   -1.9948208   -1.9948208   -1.3423571  0.046800034   -1.9948208   0.65246364   418189 
 1204000   0.62511035   -1.9944354   -1.9944354   -1.3428416  0.047362207   -1.9944354   0.65159378   418189 
 1205000   0.62578144   -1.9948286   -1.9948286   -1.3425353  0.051053084   -1.9948286    0.6522933   418189 
 1206000   0.62633463   -1.9958627   -1.9958627   -1.3429927  0.050164468   -1.9958627   0.65286993   418189 
 1207000   0.62489857   -1.9949993   -1.9949993   -1.3436263    0.0431595   -1.9949993   0.65137303   418189 
 1208000   0.62401759   -1.9940323   -1.9940323   -1.3435776  0.043769781   -1.9940323   0.65045473   418189 
 1209000   0.62423933    -1.994375    -1.994375   -1.3436891  0.048682187    -1.994375   0.65068587   418189 
 1210000   0.62575827   -1.9956072   -1.9956072   -1.3433381  0.051336277   -1.9956072   0.65226915   418189 
 1211000   0.62689181   -1.9971043   -1.9971043   -1.3436535  0.035935668   -1.9971043   0.65345071   418189 
 1212000   0.62647853   -1.9963213   -1.9963213   -1.3433014  0.051553631   -1.9963213   0.65301992   418189 
 1213000   0.62589063   -1.9957821   -1.9957821    -1.343375  0.045787283   -1.9957821   0.65240712   418189 
 1214000   0.62598296   -1.9968171   -1.9968171   -1.3443137  0.047485119   -1.9968171   0.65250336   418189 
 1215000   0.62625069   -1.9969343   -1.9969343   -1.3441519  0.040565035   -1.9969343   0.65278244   418189 
 1216000   0.62785874   -1.9985624   -1.9985624   -1.3441038  0.051130021   -1.9985624   0.65445861   418189 
 1217000    0.6262172   -1.9971586   -1.9971586   -1.3444111  0.048932776   -1.9971586   0.65274752   418189 
 1218000   0.62653656   -1.9976748   -1.9976748   -1.3445944  0.049396445   -1.9976748   0.65308042   418189 
 1219000   0.62591981   -1.9974428   -1.9974428   -1.3450052  0.051501283   -1.9974428   0.65243754   418189 
 1220000   0.62637575   -1.9980576   -1.9980576   -1.3451448  0.045519226   -1.9980576   0.65291279   418189 
 1221000   0.62536494   -1.9973124   -1.9973124   -1.3454532  0.039608232   -1.9973124   0.65185916   418189 
 1222000   0.62433313   -1.9960888   -1.9960888   -1.3453052  0.043515125   -1.9960888   0.65078364   418189 
 1223000   0.62529412   -1.9970053   -1.9970053     -1.34522  0.050835743   -1.9970053   0.65178534   418189 
 1224000    0.6252029    -1.997272    -1.997272   -1.3455817  0.047716356    -1.997272   0.65169026   418189 
 1225000   0.62570662   -1.9976878   -1.9976878   -1.3454724  0.045925314   -1.9976878   0.65221531   418189 
 1226000   0.62525551   -1.9970976   -1.9970976   -1.3453525  0.046549654   -1.9970976   0.65174509   418189 
 1227000    0.6247828   -1.9969888   -1.9969888   -1.3457364  0.047917265   -1.9969888   0.65125236   418189 
 1228000   0.62502549   -1.9974273   -1.9974273    -1.345922     0.033396   -1.9974273   0.65150533   418189 
 1229000   0.62603245   -1.9974484   -1.9974484   -1.3448935  0.055679492   -1.9974484   0.65255494   418189 
 1230000   0.62535208   -1.9970191   -1.9970191   -1.3451733  0.055663176   -1.9970191   0.65184575   418189 
 1231000   0.62495962   -1.9972003   -1.9972003   -1.3457636  0.043617066   -1.9972003   0.65143667   418189 
 1232000   0.62381398   -1.9961222   -1.9961222   -1.3458797  0.038788896   -1.9961222   0.65024249   418189 
 1233000    0.6250474   -1.9971849   -1.9971849   -1.3456567  0.046127419   -1.9971849   0.65152817   418189 
 1234000   0.62526739    -1.997357    -1.997357   -1.3455996  0.052732575    -1.997357   0.65175747   418189 
 1235000   0.62583306   -1.9987624   -1.9987624   -1.3464152  0.039325211   -1.9987624   0.65234711   418189 
 1236000   0.62505909   -1.9984692   -1.9984692   -1.3469289   0.04605662   -1.9984692   0.65154036   418189 
 1237000   0.62512516   -1.9988356   -1.9988356   -1.3472263  0.042990745   -1.9988356   0.65160922   418189 
 1238000   0.62463867   -1.9994045   -1.9994045   -1.3483024  0.049035513   -1.9994045   0.65110212   418189 
 1239000   0.62455342    -1.999339    -1.999339   -1.3483258  0.040099384    -1.999339   0.65101326   418189 
 1240000   0.62536087   -1.9996817   -1.9996817   -1.3478268  0.054814933   -1.9996817   0.65185492   418189 
 1241000   0.62589092    -2.000619    -2.000619   -1.3482116  0.044463507    -2.000619   0.65240742   418189 
 1242000   0.62562712   -2.0002368   -2.0002368   -1.3481043  0.052448266   -2.0002368   0.65213245   418189 
 1243000   0.62661312   -2.0010395   -2.0010395   -1.3478793  0.042226749   -2.0010395   0.65316021   418189 
 1244000   0.62531737   -1.9994005   -1.9994005   -1.3475909  0.041295697   -1.9994005   0.65180958   418189 
 1245000   0.62518174   -1.9999252   -1.9999252    -1.348257  0.044750924   -1.9999252    0.6516682   418189 
 1246000   0.62518179    -1.999552    -1.999552   -1.3478838   0.03741245    -1.999552   0.65166825   418189 
 1247000   0.62523174   -1.9997822   -1.9997822   -1.3480618  0.043012575   -1.9997822   0.65172032   418189 
 1248000   0.62497563   -1.9999711   -1.9999711   -1.3485177  0.034706489   -1.9999711   0.65145336   418189 
 1249000   0.62386517   -1.9991292   -1.9991292   -1.3488333  0.044642579   -1.9991292   0.65029585   418189 
 1250000    0.6227905   -1.9985157   -1.9985157     -1.34934  0.047617803   -1.9985157   0.64917565   418189 
 1251000   0.62326055   -1.9997069   -1.9997069   -1.3500413  0.049564926   -1.9997069   0.64966561   418189 
 1252000   0.62478672   -2.0002877   -2.0002877   -1.3490312  0.053753584   -2.0002877   0.65125644   418189 
 1253000   0.62455885   -2.0000222   -2.0000222   -1.3490033  0.042912823   -2.0000222   0.65101892   418189 
 1254000   0.62472376   -2.0006266   -2.0006266   -1.3494358   0.04405227   -2.0006266   0.65119082   418189 
 1255000   0.62499483   -2.0005133   -2.0005133     -1.34904   0.04988414   -2.0005133   0.65147337   418189 
 1256000   0.62506574   -2.0006757   -2.0006757   -1.3491284  0.056218453   -2.0006757   0.65154729   418189 
 1257000   0.62556619   -2.0009113   -2.0009113   -1.3488423  0.051585829   -2.0009113   0.65206894   418189 
 1258000    0.6253049   -2.0006827   -2.0006827   -1.3488861  0.049064443   -2.0006827   0.65179657   418189 
 1259000   0.62640269   -2.0021152   -2.0021152   -1.3491743  0.046487125   -2.0021152   0.65294087   418189 
 1260000    0.6264901   -2.0017878   -2.0017878   -1.3487558  0.042847967   -2.0017878   0.65303199   418189 
 1261000   0.62552383   -2.0018182   -2.0018182   -1.3497934  0.036883029   -2.0018182   0.65202478   418189 
 1262000   0.62389009   -2.0012707   -2.0012707   -1.3509488  0.045518309   -2.0012707   0.65032183   418189 
 1263000   0.62397634   -2.0016547   -2.0016547   -1.3512429  0.048629646   -2.0016547   0.65041173   418189 
 1264000   0.62474471   -2.0028651   -2.0028651   -1.3516524    0.0417835   -2.0028651   0.65121265   418189 
 1265000   0.62566529   -2.0034391   -2.0034391   -1.3512668   0.04923621   -2.0034391   0.65217223   418189 
 1266000   0.62419815   -2.0019023   -2.0019023   -1.3512593  0.048740869   -2.0019023   0.65064294   418189 
 1267000   0.62480886   -2.0027357   -2.0027357   -1.3514562   0.04836356   -2.0027357   0.65127952   418189 
 1268000   0.62337276   -2.0016934   -2.0016934   -1.3519109  0.036859743   -2.0016934   0.64978258   418189 
 1269000   0.62388614   -2.0024396   -2.0024396   -1.3521219  0.043630417   -2.0024396   0.65031771   418189 
 1270000   0.62353218   -2.0019047   -2.0019047   -1.3519559  0.045113464   -2.0019047   0.64994875   418189 
 1271000   0.62443578   -2.0026934   -2.0026934   -1.3518027  0.041742858   -2.0026934   0.65089063   418189 
 1272000   0.62377297   -2.0029673   -2.0029673   -1.3527676   0.04456642   -2.0029673   0.65019974   418189 
 1273000   0.62400359   -2.0032626   -2.0032626   -1.3528225  0.038665448   -2.0032626   0.65044013   418189 
 1274000   0.62385326   -2.0032376   -2.0032376   -1.3529541  0.042198774   -2.0032376   0.65028343   418189 
 1275000   0.62346004   -2.0031142   -2.0031142   -1.3532406  0.046151587   -2.0031142   0.64987355   418189 
 1276000   0.62381193   -2.0032453   -2.0032453    -1.353005  0.052703257   -2.0032453   0.65024036   418189 
 1277000   0.62390521   -2.0043072   -2.0043072   -1.3539696  0.046779843   -2.0043072   0.65033759   418189 
 1278000   0.62280346     -2.00365     -2.00365   -1.3544609  0.041502291     -2.00365   0.64918916   418189 
 1279000   0.62320288   -2.0047289   -2.0047289   -1.3551234  0.042449526   -2.0047289    0.6496055   418189 
 1280000   0.62224628   -2.0033394   -2.0033394    -1.354731  0.040082883   -2.0033394   0.64860838   418189 
 1281000   0.62409054   -2.0049665   -2.0049665   -1.3544357  0.043788455   -2.0049665   0.65053077   418189 
 1282000   0.62295616   -2.0028173   -2.0028173    -1.353469  0.041399247   -2.0028173   0.64934833   418189 
 1283000   0.62470424   -2.0048222   -2.0048222   -1.3536517  0.052217495   -2.0048222   0.65117047   418189 
 1284000   0.62288302   -2.0035919   -2.0035919   -1.3543198  0.045978513   -2.0035919   0.64927209   418189 
 1285000   0.62383483   -2.0049733   -2.0049733   -1.3547091   0.04370946   -2.0049733   0.65026423   418189 
 1286000   0.62601399   -2.0073076   -2.0073076   -1.3547719  0.040237527   -2.0073076    0.6525357   418189 
 1287000   0.62294352   -2.0044705   -2.0044705   -1.3551353  0.038663488   -2.0044705   0.64933515   418189 
 1288000   0.62530482   -2.0068271   -2.0068271   -1.3550306  0.044785096   -2.0068271   0.65179649   418189 
 1289000   0.62402628   -2.0052686   -2.0052686   -1.3548048  0.053170457   -2.0052686   0.65046378   418189 
 1290000   0.62459257   -2.0057371   -2.0057371    -1.354683  0.043364332   -2.0057371   0.65105406   418189 
 1291000   0.62376705   -2.0048952   -2.0048952   -1.3547016  0.046284465   -2.0048952   0.65019357   418189 
 1292000   0.62298674   -2.0039097   -2.0039097   -1.3545295  0.039602889   -2.0039097    0.6493802   418189 
 1293000   0.62411344    -2.005804    -2.005804   -1.3552493   0.03846926    -2.005804   0.65055464   418189 
 1294000   0.62321179   -2.0049849   -2.0049849   -1.3553701  0.046174895   -2.0049849   0.64961479   418189 
 1295000   0.62292159   -2.0044956   -2.0044956   -1.3551833  0.047139922   -2.0044956   0.64931229   418189 
 1296000   0.62420826   -2.0061759   -2.0061759   -1.3555224  0.048046838   -2.0061759   0.65065348   418189 
 1297000   0.62527861   -2.0076637   -2.0076637   -1.3558946  0.045320565   -2.0076637   0.65176917   418189 
 1298000   0.62374652   -2.0064588   -2.0064588   -1.3562866  0.042986868   -2.0064588   0.65017217   418189 
 1299000   0.62225439    -2.005951    -2.005951   -1.3573342  0.056267302    -2.005951   0.64861683   418189 
 1300000   0.62383769   -2.0068125   -2.0068125   -1.3565453  0.037294623   -2.0068125   0.65026721   418189 
 1301000   0.62325484   -2.0060427   -2.0060427    -1.356383  0.047607941   -2.0060427   0.64965966   418189 
 1302000   0.62307001   -2.0068223   -2.0068223   -1.3573553  0.055736224   -2.0068223     0.649467   418189 
 1303000    0.6231232   -2.0070354   -2.0070354    -1.357513  0.047173845   -2.0070354   0.64952244   418189 
 1304000   0.62330116   -2.0068497   -2.0068497   -1.3571418  0.046811213   -2.0068497   0.64970794   418189 
 1305000   0.62355086   -2.0068916   -2.0068916   -1.3569234   0.04707619   -2.0068916   0.64996823   418189 
 1306000   0.62437559   -2.0074254   -2.0074254   -1.3565975  0.046659485   -2.0074254    0.6508279   418189 
 1307000   0.62383066   -2.0070684   -2.0070684   -1.3568086  0.051185859   -2.0070684   0.65025987   418189 
 1308000    0.6247333   -2.0083764   -2.0083764   -1.3571756  0.050731295   -2.0083764   0.65120076   418189 
 1309000   0.62387543    -2.006883    -2.006883   -1.3565764  0.048722515    -2.006883   0.65030655   418189 
 1310000   0.62448605   -2.0076303   -2.0076303   -1.3566872  0.038382743   -2.0076303   0.65094304   418189 
 1311000     0.623593   -2.0070938   -2.0070938   -1.3570816  0.038392721   -2.0070938   0.65001215   418189 
 1312000    0.6242311   -2.0073943   -2.0073943    -1.356717  0.045423581   -2.0073943   0.65067728   418189 
 1313000   0.62422771   -2.0072948   -2.0072948   -1.3566211  0.044319021   -2.0072948   0.65067375   418189 
 1314000   0.62332414   -2.0070581   -2.0070581   -1.3573262  0.043035416   -2.0070581    0.6497319   418189 
 1315000   0.62415024   -2.0076833   -2.0076833   -1.3570903  0.037588421   -2.0076833     0.650593   418189 
 1316000     0.623898   -2.0079316   -2.0079316   -1.3576016  0.044006277   -2.0079316   0.65033007   418189 
 1317000   0.62286003   -2.0073934   -2.0073934   -1.3581453  0.044745171   -2.0073934   0.64924813   418189 
 1318000   0.62283459    -2.007333    -2.007333   -1.3581114  0.045430896    -2.007333    0.6492216   418189 
 1319000   0.62375017   -2.0079973   -2.0079973   -1.3578214  0.047312326   -2.0079973   0.65017598   418189 
 1320000   0.62253875   -2.0071119   -2.0071119   -1.3581987  0.040072718   -2.0071119   0.64891323   418189 
 1321000   0.62444498    -2.008642    -2.008642   -1.3577418  0.045533686    -2.008642   0.65090023   418189 
 1322000   0.62348973   -2.0086143   -2.0086143   -1.3587098  0.050157929   -2.0086143    0.6499045   418189 
 1323000   0.62393196   -2.0088162   -2.0088162   -1.3584507  0.039979438   -2.0088162   0.65036547   418189 
 1324000   0.62433013   -2.0088574   -2.0088574   -1.3580769  0.050969375   -2.0088574   0.65078051   418189 
 1325000   0.62351216   -2.0079739   -2.0079739    -1.358046  0.038201445   -2.0079739   0.64992789   418189 
 1326000    0.6243433   -2.0093385   -2.0093385   -1.3585442  0.051016726   -2.0093385   0.65079424   418189 
 1327000   0.62485018    -2.009817    -2.009817   -1.3584944  0.041555001    -2.009817   0.65132259   418189 
 1328000   0.62220522   -2.0073616   -2.0073616    -1.358796  0.031696117   -2.0073616   0.64856558   418189 
 1329000   0.62395069   -2.0080108   -2.0080108   -1.3576258  0.047894068   -2.0080108   0.65038499   418189 
 1330000   0.62332809   -2.0077415   -2.0077415   -1.3580055  0.049455854   -2.0077415   0.64973601   418189 
 1331000   0.62403649   -2.0089406   -2.0089406   -1.3584662  0.045394804   -2.0089406   0.65047443   418189 
 1332000   0.62337917   -2.0087528   -2.0087528   -1.3589635  0.046693682   -2.0087528   0.64978926   418189 
 1333000   0.62441391   -2.0096439   -2.0096439   -1.3587761   0.03666434   -2.0096439   0.65086784   418189 
 1334000   0.62413841   -2.0089117   -2.0089117    -1.358331  0.057486362   -2.0089117   0.65058067   418189 
 1335000   0.62393871   -2.0084759   -2.0084759   -1.3581034   0.05000741   -2.0084759   0.65037251   418189 
 1336000   0.62483864   -2.0102635   -2.0102635   -1.3589529  0.044277558   -2.0102635   0.65131057   418189 
 1337000   0.62262944   -2.0082714   -2.0082714   -1.3592636  0.041411404   -2.0082714   0.64900777   418189 
 1338000   0.62355845   -2.0093209   -2.0093209   -1.3593447  0.042047714   -2.0093209   0.64997614   418189 
 1339000   0.62258975   -2.0079211   -2.0079211   -1.3589547  0.047496073   -2.0079211    0.6489664   418189 
 1340000   0.62371371   -2.0094629   -2.0094629   -1.3593249  0.039266141   -2.0094629   0.65013797   418189 
 1341000   0.62339288   -2.0092434   -2.0092434   -1.3594399  0.043993688   -2.0092434   0.64980355   418189 
 1342000   0.62328768   -2.0093515   -2.0093515   -1.3596576   0.04134187   -2.0093515   0.64969389   418189 
 1343000   0.62265033   -2.0094276   -2.0094276   -1.3603981  0.050543332   -2.0094276   0.64902954   418189 
 1344000   0.62372967   -2.0104916   -2.0104916    -1.360337  0.047791527   -2.0104916   0.65015461   418189 
 1345000   0.62453517   -2.0107967   -2.0107967   -1.3598025  0.049456955   -2.0107967   0.65099424   418189 
 1346000   0.62371531   -2.0107562   -2.0107562   -1.3606165  0.046579648   -2.0107562   0.65013964   418189 
 1347000   0.62348316   -2.0114995   -2.0114995   -1.3616018  0.048393065   -2.0114995   0.64989766   418189 
 1348000   0.62418636   -2.0122351   -2.0122351   -1.3616045  0.047535613   -2.0122351   0.65063065   418189 
 1349000   0.62201618   -2.0103871   -2.0103871   -1.3620185  0.045977512   -2.0103871   0.64836853   418189 
 1350000   0.62177429   -2.0106863   -2.0106863     -1.36257  0.048551318   -2.0106863   0.64811638   418189 
 1351000   0.62236662   -2.0115258   -2.0115258    -1.362792  0.040957018   -2.0115258   0.64873382   418189 
 1352000   0.62285744   -2.0117888   -2.0117888   -1.3625434  0.040374781   -2.0117888   0.64924542   418189 
 1353000   0.62250949   -2.0110873   -2.0110873   -1.3622046  0.052113752   -2.0110873   0.64888273   418189 
 1354000   0.62221087   -2.0113634   -2.0113634   -1.3627919  0.053281474   -2.0113634   0.64857146   418189 
 1355000   0.62345658   -2.0124561   -2.0124561   -1.3625861   0.04624851   -2.0124561   0.64986995   418189 
 1356000   0.62347103   -2.0122715   -2.0122715   -1.3623865  0.046875074   -2.0122715   0.64988501   418189 
 1357000   0.62303826   -2.0119023   -2.0119023   -1.3624684  0.043217576   -2.0119023    0.6494339   418189 
 1358000   0.62397401   -2.0120919   -2.0120919   -1.3616826  0.050920391   -2.0120919    0.6504093   418189 
 1359000   0.62301996   -2.0116469   -2.0116469   -1.3622321  0.037659623   -2.0116469   0.64941483   418189 
 1360000   0.62269761   -2.0117121   -2.0117121   -1.3626332  0.042950902   -2.0117121   0.64907882   418189 
 1361000   0.62266809   -2.0114299   -2.0114299   -1.3623819   0.05351188   -2.0114299   0.64904805   418189 
 1362000   0.62372813   -2.0129115   -2.0129115   -1.3627585  0.041164074   -2.0129115   0.65015301   418189 
 1363000   0.62351822   -2.0129296   -2.0129296   -1.3629954  0.039361214   -2.0129296    0.6499342   418189 
 1364000   0.62372988     -2.01408     -2.01408   -1.3639252  0.050010121     -2.01408   0.65015483   418189 
 1365000   0.62290516    -2.012624    -2.012624   -1.3633288  0.037511523    -2.012624   0.64929517   418189 
 1366000   0.62375254   -2.0131694   -2.0131694   -1.3629909  0.044575208   -2.0131694   0.65017845   418189 
 1367000   0.62279135   -2.0125562   -2.0125562   -1.3633797  0.043344555   -2.0125562   0.64917654   418189 
 1368000   0.62265582   -2.0124125   -2.0124125   -1.3633772  0.049474359   -2.0124125   0.64903526   418189 
 1369000   0.62363045   -2.0139673   -2.0139673   -1.3639161  0.045950059   -2.0139673   0.65005118   418189 
 1370000   0.62368307   -2.0133949   -2.0133949   -1.3632889  0.044607971   -2.0133949   0.65010604   418189 
 1371000   0.62385461    -2.013572    -2.013572   -1.3632872   0.05190657    -2.013572   0.65028484   418189 
 1372000   0.62305401   -2.0137164   -2.0137164    -1.364266  0.032126077   -2.0137164   0.64945032   418189 
 1373000   0.62058779   -2.0109516   -2.0109516    -1.364072  0.045557978   -2.0109516   0.64687962   418189 
 1374000   0.62220637   -2.0128242   -2.0128242   -1.3642575  0.046382614   -2.0128242   0.64856677   418189 
 1375000   0.62434346   -2.0148076   -2.0148076   -1.3640132   0.05507242   -2.0148076    0.6507944   418189 
 1376000   0.62229578    -2.012644    -2.012644    -1.363984  0.041351332    -2.012644   0.64865997   418189 
 1377000   0.62410085   -2.0153605   -2.0153605    -1.364819  0.041381572   -2.0153605   0.65054151   418189 
 1378000   0.62106878    -2.012238    -2.012238    -1.364857  0.046010265    -2.012238   0.64738099   418189 
 1379000   0.62320693   -2.0144624   -2.0144624   -1.3648527  0.042435996   -2.0144624   0.64960972   418189 
 1380000   0.62275316   -2.0137331   -2.0137331   -1.3645964  0.043276143   -2.0137331   0.64913673   418189 
 1381000   0.62453236   -2.0154542   -2.0154542   -1.3644629  0.054555078   -2.0154542   0.65099131   418189 
 1382000   0.62342108   -2.0146548   -2.0146548   -1.3648218  0.046931655   -2.0146548   0.64983295   418189 
 1383000   0.62335448   -2.0146669   -2.0146669   -1.3649034  0.052638549   -2.0146669   0.64976353   418189 
 1384000   0.62268233   -2.0139148   -2.0139148   -1.3648519  0.043658203   -2.0139148    0.6490629   418189 
 1385000   0.62332425   -2.0152094   -2.0152094   -1.3654774  0.048006855   -2.0152094   0.64973202   418189 
 1386000   0.62291368   -2.0140633   -2.0140633   -1.3647593  0.040003469   -2.0140633   0.64930404   418189 
 1387000   0.62240629   -2.0142949   -2.0142949   -1.3655197  0.048913853   -2.0142949   0.64877516   418189 
 1388000     0.622461   -2.0146863   -2.0146863   -1.3658541  0.039036189   -2.0146863   0.64883219   418189 
 1389000   0.62213419   -2.0140611   -2.0140611   -1.3655695  0.044138247   -2.0140611   0.64849154   418189 
 1390000   0.62238323   -2.0151384   -2.0151384   -1.3663873  0.047416168   -2.0151384   0.64875112   418189 
 1391000    0.6218838    -2.014809    -2.014809   -1.3665785  0.047130572    -2.014809   0.64823053   418189 
 1392000   0.62228236   -2.0150665   -2.0150665   -1.3664205  0.046791035   -2.0150665   0.64864599   418189 
 1393000   0.62186245   -2.0149137   -2.0149137   -1.3667055  0.041072289   -2.0149137   0.64820829   418189 
 1394000   0.62289685   -2.0154231   -2.0154231   -1.3661366  0.047600683   -2.0154231   0.64928651   418189 
 1395000   0.62251955   -2.0155581   -2.0155581   -1.3666649  0.043415363   -2.0155581   0.64889322   418189 
 1396000   0.62340742   -2.0165768   -2.0165768   -1.3667581  0.040938468   -2.0165768   0.64981871   418189 
 1397000   0.62214611   -2.0150391   -2.0150391   -1.3665351  0.057320813   -2.0150391   0.64850396   418189 
 1398000   0.62403791   -2.0172271   -2.0172271   -1.3667512  0.047235159   -2.0172271   0.65047591   418189 
 1399000   0.62251795   -2.0161065   -2.0161065    -1.367215  0.040151169   -2.0161065   0.64889155   418189 
 1400000   0.62294068   -2.0166721   -2.0166721   -1.3673399  0.044720599   -2.0166721    0.6493322   418189 
 1401000   0.62175623     -2.01625     -2.01625   -1.3681524  0.049576042     -2.01625   0.64809756   418189 
 1402000   0.62217708   -2.0165053   -2.0165053    -1.367969  0.041534761   -2.0165053   0.64853624   418189 
 1403000   0.62315472   -2.0173384   -2.0173384   -1.3677831  0.045079156   -2.0173384    0.6495553   418189 
 1404000   0.62192268   -2.0165144   -2.0165144   -1.3682433  0.043147988   -2.0165144   0.64827106   418189 
 1405000    0.6222108   -2.0167081   -2.0167081   -1.3681368  0.037921351   -2.0167081   0.64857139   418189 
 1406000   0.62206236   -2.0161845   -2.0161845   -1.3677678  0.055791718   -2.0161845   0.64841666   418189 
 1407000   0.62253955   -2.0168014   -2.0168014   -1.3678873  0.035736155   -2.0168014   0.64891406   418189 
 1408000   0.62105716   -2.0151596   -2.0151596   -1.3677907  0.042087103   -2.0151596   0.64736888   418189 
 1409000   0.62182416   -2.0160914   -2.0160914    -1.367923  0.044324894   -2.0160914   0.64816837   418189 
 1410000   0.62328072   -2.0173328   -2.0173328   -1.3676462  0.047890324   -2.0173328   0.64968664   418189 
 1411000   0.62234384    -2.017127    -2.017127   -1.3684169  0.039298665    -2.017127   0.64871006   418189 
 1412000    0.6233105   -2.0181289   -2.0181289   -1.3684112  0.046939047   -2.0181289   0.64971768   418189 
 1413000   0.62233363   -2.0166974   -2.0166974    -1.367998  0.039551149   -2.0166974   0.64869943   418189 
 1414000   0.62280312   -2.0173833   -2.0173833   -1.3681945  0.043334814   -2.0173833    0.6491888   418189 
 1415000   0.62211228   -2.0171535   -2.0171535   -1.3686848  0.046668633   -2.0171535    0.6484687   418189 
 1416000   0.62224767   -2.0177503   -2.0177503   -1.3691405  0.052532407   -2.0177503   0.64860982   418189 
 1417000    0.6211769   -2.0164433   -2.0164433   -1.3689496  0.051881394   -2.0164433   0.64749369   418189 
 1418000   0.62220278   -2.0174697   -2.0174697   -1.3689067  0.036062723   -2.0174697   0.64856303   418189 
 1419000   0.62133654   -2.0168724   -2.0168724   -1.3692123  0.039624385   -2.0168724   0.64766009   418189 
 1420000   0.62338732   -2.0171916   -2.0171916   -1.3673939  0.051117675   -2.0171916   0.64979776   418189 
 1421000   0.62281083    -2.018274    -2.018274   -1.3690772  0.040056329    -2.018274   0.64919684   418189 
 1422000   0.62208476    -2.016622    -2.016622    -1.368182  0.044131084    -2.016622   0.64844001   418189 
 1423000   0.62206177    -2.016801    -2.016801   -1.3683849  0.049061752    -2.016801   0.64841604   418189 
 1424000   0.62240284   -2.0177469   -2.0177469   -1.3689753  0.045838416   -2.0177469   0.64877156   418189 
 1425000   0.62186713   -2.0173172   -2.0173172   -1.3691041  0.045818871   -2.0173172   0.64821316   418189 
 1426000   0.62233091   -2.0177698   -2.0177698   -1.3690732  0.045263631   -2.0177698   0.64869659   418189 
 1427000   0.62290625   -2.0183421   -2.0183421   -1.3690458  0.047394872   -2.0183421   0.64929631   418189 
 1428000   0.62113982   -2.0172611   -2.0172611   -1.3698061  0.047629486   -2.0172611   0.64745504   418189 
 1429000   0.62253538   -2.0193146   -2.0193146   -1.3704048  0.047282076   -2.0193146   0.64890972   418189 
 1430000   0.62194128   -2.0198387   -2.0198387   -1.3715482  0.044035566   -2.0198387   0.64829045   418189 
 1431000    0.6219224   -2.0197206   -2.0197206   -1.3714499  0.049366506   -2.0197206   0.64827077   418189 
 1432000   0.62099679   -2.0188178   -2.0188178   -1.3715118  0.029899052   -2.0188178   0.64730595   418189 
 1433000    0.6219675    -2.019315    -2.019315   -1.3709972  0.039463383    -2.019315   0.64831778   418189 
 1434000   0.62138737   -2.0190424   -2.0190424   -1.3713293  0.051676861   -2.0190424   0.64771308   418189 
 1435000   0.62210811   -2.0199042   -2.0199042   -1.3714399  0.044276459   -2.0199042   0.64846435   418189 
 1436000   0.62243018   -2.0213702   -2.0213702   -1.3725701  0.038799012   -2.0213702   0.64880007   418189 
 1437000   0.62060105   -2.0193701   -2.0193701   -1.3724767  0.044235331   -2.0193701   0.64689344   418189 
 1438000   0.62244313    -2.021861    -2.021861   -1.3730474  0.043791533    -2.021861   0.64881356   418189 
 1439000   0.62143544   -2.0210088   -2.0210088   -1.3732456  0.051660867   -2.0210088   0.64776318   418189 
 1440000   0.62198466   -2.0207789   -2.0207789   -1.3724432  0.037432024   -2.0207789   0.64833567   418189 
 1441000   0.62103008   -2.0205284   -2.0205284   -1.3731878    0.0418909   -2.0205284   0.64734065   418189 
 1442000    0.6215762   -2.0214011   -2.0214011   -1.3734912  0.049302848   -2.0214011    0.6479099   418189 
 1443000   0.61952484   -2.0193582   -2.0193582   -1.3735866  0.045922013   -2.0193582   0.64577164   418189 
 1444000   0.62146726   -2.0217321   -2.0217321   -1.3739358  0.042895912   -2.0217321   0.64779635   418189 
 1445000   0.62180422   -2.0218786   -2.0218786    -1.373731  0.051996082   -2.0218786   0.64814758   418189 
 1446000   0.62242744   -2.0227324   -2.0227324   -1.3739352  0.052078853   -2.0227324   0.64879721   418189 
 1447000   0.62218601   -2.0225839   -2.0225839   -1.3740384  0.040831804   -2.0225839   0.64854555   418189 
 1448000   0.62184524   -2.0223126   -2.0223126   -1.3741223  0.039797285   -2.0223126   0.64819034   418189 
 1449000   0.62216219   -2.0226501   -2.0226501   -1.3741294  0.042888835   -2.0226501   0.64852072   418189 
 1450000   0.62245089   -2.0236148   -2.0236148   -1.3747931   0.04584191   -2.0236148   0.64882165   418189 
 1451000   0.62146736   -2.0222519   -2.0222519   -1.3744555  0.045705771   -2.0222519   0.64779645   418189 
 1452000   0.62218361   -2.0227856   -2.0227856   -1.3742426  0.038747115   -2.0227856   0.64854304   418189 
 1453000   0.62066729   -2.0217017   -2.0217017   -1.3747392  0.040927549   -2.0217017   0.64696248   418189 
 1454000    0.6219605    -2.023429    -2.023429   -1.3751185  0.041337987    -2.023429   0.64831049   418189 
 1455000   0.62267825   -2.0238056   -2.0238056    -1.374747  0.052933868   -2.0238056   0.64905864   418189 
 1456000   0.62128087   -2.0229758   -2.0229758   -1.3753737  0.046725731   -2.0229758   0.64760207   418189 
 1457000    0.6212973   -2.0228946   -2.0228946   -1.3752754  0.043743182   -2.0228946   0.64761919   418189 
 1458000   0.62182868   -2.0231647   -2.0231647   -1.3749916  0.046036114   -2.0231647   0.64817308   418189 
 1459000    0.6207599   -2.0216765   -2.0216765   -1.3746175   0.05001631   -2.0216765   0.64705902   418189 
 1460000   0.62079175   -2.0216001   -2.0216001   -1.3745079  0.042707267   -2.0216001   0.64709222   418189 
 1461000   0.62063181   -2.0215562   -2.0215562   -1.3746307  0.038529845   -2.0215562   0.64692551   418189 
 1462000   0.62030776   -2.0216475   -2.0216475   -1.3750598    0.0438617   -2.0216475   0.64658772   418189 
 1463000   0.62079581    -2.022165    -2.022165   -1.3750686  0.044109226    -2.022165   0.64709646   418189 
 1464000   0.62192148    -2.023304    -2.023304   -1.3750342  0.047390418    -2.023304   0.64826981   418189 
 1465000   0.62100239   -2.0223407   -2.0223407   -1.3750289  0.043081805   -2.0223407   0.64731179   418189 
 1466000   0.62228428   -2.0241295   -2.0241295   -1.3754815  0.042800044   -2.0241295   0.64864799   418189 
 1467000   0.62116418   -2.0227618   -2.0227618   -1.3752814  0.048561076   -2.0227618   0.64748043   418189 
 1468000   0.62217085   -2.0238821   -2.0238821   -1.3753523  0.049546943   -2.0238821   0.64852975   418189 
 1469000   0.62156312   -2.0241207   -2.0241207   -1.3762244  0.049157124   -2.0241207   0.64789627   418189 
 1470000   0.62093555   -2.0240679   -2.0240679   -1.3768258  0.040250059   -2.0240679   0.64724211   418189 
 1471000    0.6213831   -2.0244933   -2.0244933   -1.3767847  0.041412409   -2.0244933   0.64770863   418189 
 1472000   0.62019834   -2.0234035   -2.0234035   -1.3769298   0.04605713   -2.0234035   0.64647367   418189 
 1473000   0.62027527   -2.0236423   -2.0236423   -1.3770885  0.047799392   -2.0236423   0.64655386   418189 
 1474000   0.62059249   -2.0239676   -2.0239676    -1.377083  0.039778366   -2.0239676   0.64688452   418189 
 1475000   0.62083875   -2.0246146   -2.0246146   -1.3774734  0.035962935   -2.0246146   0.64714121   418189 
 1476000    0.6213835   -2.0261563   -2.0261563   -1.3784472  0.046607555   -2.0261563   0.64770904   418189 
 1477000   0.62051242   -2.0256867   -2.0256867   -1.3788856  0.044957726   -2.0256867   0.64680106   418189 
 1478000   0.61852238   -2.0241773   -2.0241773   -1.3794506  0.046941396   -2.0241773    0.6447267   418189 
 1479000   0.61953398   -2.0255929   -2.0255929   -1.3798117  0.049158634   -2.0255929   0.64578117   418189 
 1480000   0.62013837   -2.0257402   -2.0257402   -1.3793291  0.037561077   -2.0257402   0.64641116   418189 
 1481000   0.62114261   -2.0267191   -2.0267191   -1.3792612  0.046778894   -2.0267191   0.64745795   418189 
 1482000   0.62078363   -2.0268413   -2.0268413   -1.3797575  0.041286065   -2.0268413   0.64708376   418189 
 1483000   0.62039278   -2.0268686   -2.0268686   -1.3801922  0.048902733   -2.0268686   0.64667635   418189 
 1484000    0.6213039   -2.0274941   -2.0274941   -1.3798681  0.046564003   -2.0274941   0.64762607   418189 
 1485000   0.62002933   -2.0257694   -2.0257694   -1.3794719   0.03841237   -2.0257694    0.6462975   418189 
 1486000   0.62110978   -2.0279808   -2.0279808   -1.3805571  0.045280518   -2.0279808   0.64742372   418189 
 1487000   0.62188014   -2.0289796   -2.0289796   -1.3807529  0.047304708   -2.0289796   0.64822672   418189 
 1488000   0.61912489    -2.026039    -2.026039   -1.3806843  0.043351397    -2.026039   0.64535474   418189 
 1489000   0.62095553   -2.0274642   -2.0274642   -1.3802013  0.049094347   -2.0274642   0.64726294   418189 
 1490000   0.62046254   -2.0269167   -2.0269167   -1.3801677  0.043723579   -2.0269167   0.64674907   418189 
 1491000   0.62044683   -2.0273156   -2.0273156   -1.3805829  0.044182577   -2.0273156   0.64673268   418189 
 1492000    0.6197681   -2.0263803   -2.0263803   -1.3803551  0.043829913   -2.0263803    0.6460252   418189 
 1493000   0.62021939   -2.0270872   -2.0270872   -1.3805916  0.048176454   -2.0270872   0.64649562   418189 
 1494000   0.62199377   -2.0293336   -2.0293336   -1.3809884  0.038491549   -2.0293336   0.64834516   418189 
 1495000   0.62003712   -2.0264119   -2.0264119   -1.3801062  0.048526605   -2.0264119   0.64630562   418189 
 1496000   0.62052798   -2.0277051   -2.0277051   -1.3808879  0.050992635   -2.0277051   0.64681728   418189 
 1497000   0.62070748   -2.0285849   -2.0285849   -1.3815805  0.045294059   -2.0285849   0.64700438   418189 
 1498000   0.62031983   -2.0274342   -2.0274342   -1.3808339  0.046484094   -2.0274342    0.6466003   418189 
 1499000   0.62072186   -2.0270367   -2.0270367   -1.3800174  0.046303475   -2.0270367   0.64701937   418189 
 1500000   0.62208768    -2.028353    -2.028353   -1.3799099  0.043622692    -2.028353   0.64844306   418189 
 1501000   0.61937779   -2.0253307   -2.0253307   -1.3797124  0.048621172   -2.0253307   0.64561835   418189 
 1502000   0.61911657    -2.025231    -2.025231    -1.379885  0.047828714    -2.025231   0.64534607   418189 
 1503000   0.62054769   -2.0265101   -2.0265101   -1.3796723  0.040645477   -2.0265101   0.64683782   418189 
 1504000   0.62155269   -2.0278496   -2.0278496   -1.3799642  0.041800227   -2.0278496    0.6478854   418189 
 1505000     0.618948   -2.0254147   -2.0254147   -1.3802443  0.043673912   -2.0254147   0.64517036   418189 
 1506000   0.61931763   -2.0256292   -2.0256292   -1.3800735  0.041817405   -2.0256292   0.64555564   418189 
 1507000    0.6193926    -2.025797    -2.025797   -1.3801633  0.043748988    -2.025797   0.64563379   418189 
 1508000   0.62027476   -2.0253093   -2.0253093    -1.378756   0.04553128   -2.0253093   0.64655333   418189 
 1509000   0.62048632   -2.0261065   -2.0261065   -1.3793326  0.040520145   -2.0261065   0.64677385   418189 
 1510000   0.62147539    -2.027833    -2.027833   -1.3800282  0.036435468    -2.027833   0.64780482   418189 
 1511000   0.62050331   -2.0267892   -2.0267892   -1.3799977  0.050271016   -2.0267892   0.64679156   418189 
 1512000   0.62005573   -2.0268745   -2.0268745   -1.3805494  0.048434098   -2.0268745   0.64632502   418189 
 1513000   0.62113043   -2.0275661   -2.0275661   -1.3801209  0.044220131   -2.0275661   0.64744524   418189 
 1514000   0.62047982   -2.0263016   -2.0263016   -1.3795345  0.051616014   -2.0263016   0.64676708   418189 
 1515000   0.62029594    -2.026804    -2.026804   -1.3802286  0.047881724    -2.026804   0.64657541   418189 
 1516000   0.62095214   -2.0276528   -2.0276528   -1.3803934  0.035274588   -2.0276528   0.64725941   418189 
 1517000   0.62119994   -2.0283361   -2.0283361   -1.3808184  0.045651431   -2.0283361    0.6475177   418189 
 1518000   0.61985664   -2.0270689   -2.0270689   -1.3809514  0.043249844   -2.0270689   0.64611749   418189 
 1519000   0.62056768     -2.02756     -2.02756   -1.3807013  0.034742171     -2.02756   0.64685865   418189 
 1520000   0.62094714   -2.0269744   -2.0269744   -1.3797202  0.036520449   -2.0269744   0.64725419   418189 
 1521000   0.61935977   -2.0265204   -2.0265204   -1.3809208  0.038069941   -2.0265204   0.64559957   418189 
 1522000   0.62003099   -2.0272016   -2.0272016   -1.3809023  0.039493773   -2.0272016   0.64629923   418189 
 1523000   0.61928595   -2.0264242   -2.0264242   -1.3809016  0.042842705   -2.0264242   0.64552263   418189 
 1524000   0.62041817   -2.0276454   -2.0276454   -1.3809426  0.044949825   -2.0276454   0.64670281   418189 
 1525000   0.62108331   -2.0284873   -2.0284873   -1.3810911  0.047805443   -2.0284873   0.64739614   418189 
 1526000   0.62060704   -2.0274327   -2.0274327    -1.380533  0.048705172   -2.0274327   0.64689968   418189 
 1527000   0.61912005   -2.0267393   -2.0267393   -1.3813896  0.048158911   -2.0267393   0.64534969   418189 
 1528000   0.61940295   -2.0279526   -2.0279526    -1.382308  0.045403957   -2.0279526   0.64564459   418189 
 1529000   0.61937516   -2.0285603   -2.0285603   -1.3829447    0.0359784   -2.0285603   0.64561562   418189 
 1530000   0.62022651   -2.0287587   -2.0287587   -1.3822557  0.046517726   -2.0287587   0.64650303   418189 
 1531000    0.6206092   -2.0302791   -2.0302791   -1.3833772  0.045700018   -2.0302791   0.64690193   418189 
 1532000   0.61970601   -2.0291456   -2.0291456   -1.3831851  0.046985935   -2.0291456   0.64596048   418189 
 1533000     0.619244    -2.028344    -2.028344   -1.3828651  0.048354417    -2.028344    0.6454789   418189 
 1534000   0.62077881   -2.0298086   -2.0298086   -1.3827298  0.044366094   -2.0298086   0.64707873   418189 
 1535000   0.62088067   -2.0297251   -2.0297251   -1.3825402  0.050359302   -2.0297251   0.64718491   418189 
 1536000   0.62094184   -2.0303727   -2.0303727   -1.3831241  0.049712911   -2.0303727   0.64724867   418189 
 1537000   0.62082205   -2.0304482   -2.0304482   -1.3833244  0.047060991   -2.0304482    0.6471238   418189 
 1538000   0.61984253   -2.0300513   -2.0300513   -1.3839485  0.048204242   -2.0300513   0.64610279   418189 
 1539000   0.61991134    -2.029336    -2.029336   -1.3831615  0.041434703    -2.029336   0.64617451   418189 
 1540000   0.61947735   -2.0295056   -2.0295056   -1.3837835  0.049332164   -2.0295056   0.64572214   418189 
 1541000   0.61975039   -2.0289371   -2.0289371   -1.3829303  0.049633882   -2.0289371   0.64600674   418189 
 1542000   0.62049789   -2.0298963   -2.0298963   -1.3831104  0.039773183   -2.0298963   0.64678591   418189 
 1543000   0.62063538   -2.0298237   -2.0298237   -1.3828945  0.045595154   -2.0298237   0.64692923   418189 
 1544000   0.62012054   -2.0297268   -2.0297268   -1.3833342  0.039858037   -2.0297268   0.64639257   418189 
 1545000   0.62059071   -2.0302793   -2.0302793   -1.3833966  0.037949119   -2.0302793   0.64688266   418189 
 1546000   0.62139546   -2.0312549   -2.0312549   -1.3835334  0.052671047   -2.0312549   0.64772151   418189 
 1547000   0.62026709   -2.0292272   -2.0292272   -1.3826819   0.03957756   -2.0292272   0.64654534   418189 
 1548000   0.62005642   -2.0292174   -2.0292174   -1.3828917   0.04805877   -2.0292174   0.64632574   418189 
 1549000   0.62041617   -2.0296896   -2.0296896   -1.3829889  0.052439032   -2.0296896   0.64670073   418189 
 1550000   0.62047112   -2.0303497   -2.0303497   -1.3835917   0.03832598   -2.0303497   0.64675801   418189 
 1551000   0.62106813   -2.0308664   -2.0308664   -1.3834861  0.033817289   -2.0308664   0.64738031   418189 
 1552000   0.62008963   -2.0300175   -2.0300175   -1.3836572  0.040661848   -2.0300175   0.64636036   418189 
 1553000   0.62104672   -2.0304886   -2.0304886   -1.3831306  0.051426107   -2.0304886   0.64735799   418189 
 1554000   0.61949251   -2.0297345   -2.0297345   -1.3839965  0.038657514   -2.0297345   0.64573794   418189 
 1555000   0.61939416   -2.0295612   -2.0295612   -1.3839258  0.050784711   -2.0295612   0.64563542   418189 
 1556000   0.61819574   -2.0290132   -2.0290132   -1.3846269  0.043427042   -2.0290132   0.64438622   418189 
 1557000   0.61890371   -2.0302853   -2.0302853   -1.3851611  0.048474685   -2.0302853   0.64512419   418189 
 1558000    0.6192868   -2.0302644   -2.0302644   -1.3847409  0.045346316   -2.0302644   0.64552352   418189 
 1559000   0.61911917   -2.0301865   -2.0301865   -1.3848377  0.040798427   -2.0301865   0.64534878   418189 
 1560000   0.62008861   -2.0308236   -2.0308236   -1.3844643  0.039448412   -2.0308236   0.64635929   418189 
 1561000   0.61910267   -2.0304006   -2.0304006    -1.385069  0.051596253   -2.0304006   0.64533159   418189 
 1562000   0.61858761   -2.0293282   -2.0293282   -1.3845335  0.046691997   -2.0293282    0.6447947   418189 
 1563000   0.61900567   -2.0303258   -2.0303258   -1.3850953  0.033568082   -2.0303258   0.64523047   418189 
 1564000   0.61937918   -2.0301833   -2.0301833   -1.3845635  0.049389775   -2.0301833    0.6456198   418189 
 1565000   0.61852177   -2.0297575   -2.0297575   -1.3850315    0.0370995   -2.0297575   0.64472607   418189 
 1566000   0.61747674   -2.0286092   -2.0286092   -1.3849725  0.042647932   -2.0286092   0.64363677   418189 
 1567000   0.61804704   -2.0283951   -2.0283951   -1.3841639  0.045662398   -2.0283951   0.64423123   418189 
 1568000   0.61984556   -2.0308527   -2.0308527   -1.3847468  0.038965187   -2.0308527   0.64610594   418189 
 1569000   0.61954611   -2.0308644   -2.0308644   -1.3850706  0.051386706   -2.0308644    0.6457938   418189 
 1570000   0.61950415   -2.0302952   -2.0302952   -1.3845451  0.051259002   -2.0302952   0.64575007   418189 
 1571000   0.61929661   -2.0301961   -2.0301961   -1.3846623  0.043653068   -2.0301961   0.64553374   418189 
 1572000   0.61981234   -2.0303246   -2.0303246   -1.3842532  0.049898867   -2.0303246   0.64607132   418189 
 1573000   0.62033438   -2.0319694   -2.0319694   -1.3853539  0.054553152   -2.0319694   0.64661548   418189 
 1574000   0.62153858   -2.0331665   -2.0331665   -1.3852959  0.047360216   -2.0331665   0.64787069   418189 
 1575000   0.62201315   -2.0331203   -2.0331203   -1.3847549  0.045724155   -2.0331203   0.64836536   418189 
 1576000   0.62121101   -2.0320713   -2.0320713   -1.3845421  0.048392214   -2.0320713   0.64752924   418189 
 1577000   0.61941832   -2.0301915   -2.0301915   -1.3845309  0.054381136   -2.0301915    0.6456606   418189 
 1578000   0.61987454   -2.0312246   -2.0312246   -1.3850885  0.043889493   -2.0312246   0.64613615   418189 
 1579000   0.61865404   -2.0303753   -2.0303753   -1.3855114  0.042567313   -2.0303753   0.64486395   418189 
 1580000   0.61898088   -2.0314548   -2.0314548   -1.3862501  0.047454024   -2.0314548   0.64520463   418189 
 1581000   0.61807863   -2.0308627   -2.0308627   -1.3865986  0.043857392   -2.0308627   0.64426416   418189 
 1582000   0.61885667    -2.031215    -2.031215   -1.3861398   0.05017874    -2.031215   0.64507516   418189 
 1583000   0.61863544   -2.0304734   -2.0304734   -1.3856289  0.050633205   -2.0304734   0.64484455   418189 
 1584000    0.6199096   -2.0312999   -2.0312999   -1.3851272  0.046311782   -2.0312999   0.64617269   418189 
 1585000   0.61995858   -2.0316208   -2.0316208   -1.3853971   0.04634542   -2.0316208   0.64622375   418189 
 1586000   0.62020003   -2.0320605   -2.0320605   -1.3855851  0.047176841   -2.0320605   0.64647543   418189 
 1587000   0.61964669   -2.0324488   -2.0324488   -1.3865502  0.048760768   -2.0324488   0.64589865   418189 
 1588000   0.61906822   -2.0325101   -2.0325101   -1.3872144  0.038292478   -2.0325101   0.64529567   418189 
 1589000   0.61878342   -2.0320039   -2.0320039   -1.3870051  0.041649806   -2.0320039   0.64499881   418189 
 1590000   0.61897467   -2.0319182   -2.0319182   -1.3867201  0.036838204   -2.0319182   0.64519815   418189 
 1591000   0.61961481   -2.0319502   -2.0319502   -1.3860848  0.041308866   -2.0319502   0.64586542   418189 
 1592000   0.61837832   -2.0318443   -2.0318443   -1.3872677  0.044808701   -2.0318443   0.64457654   418189 
 1593000   0.61923425   -2.0327457   -2.0327457    -1.387277  0.042920613   -2.0327457   0.64546874   418189 
 1594000   0.61946284   -2.0325222   -2.0325222   -1.3868151  0.045252317   -2.0325222   0.64570701   418189 
 1595000    0.6181036   -2.0310383   -2.0310383   -1.3867481  0.045305609   -2.0310383   0.64429019   418189 
 1596000   0.61966716   -2.0321485   -2.0321485   -1.3862285   0.04745876   -2.0321485   0.64591998   418189 
 1597000   0.61931346   -2.0322384   -2.0322384   -1.3866871  0.043003498   -2.0322384    0.6455513   418189 
 1598000   0.61944679   -2.0330373   -2.0330373   -1.3873471  0.035992958   -2.0330373   0.64569028   418189 
 1599000   0.61919332   -2.0334661   -2.0334661     -1.38804  0.044759852   -2.0334661   0.64542607   418189 
 1600000   0.61992065   -2.0334179   -2.0334179   -1.3872337  0.043581063   -2.0334179   0.64618421   418189 
 1601000   0.61924314   -2.0334762   -2.0334762   -1.3879981  0.039570382   -2.0334762   0.64547801   418189 
 1602000   0.62012065   -2.0340809   -2.0340809   -1.3876882  0.055985633   -2.0340809   0.64639269   418189 
 1603000   0.62041227   -2.0346984   -2.0346984   -1.3880017  0.047377202   -2.0346984   0.64669666   418189 
 1604000   0.61951844   -2.0343328   -2.0343328   -1.3885678  0.048526484   -2.0343328   0.64576496   418189 
 1605000   0.61872722   -2.0334066   -2.0334066   -1.3884663  0.044794835   -2.0334066   0.64494023   418189 
 1606000   0.61862229    -2.033564    -2.033564   -1.3887332  0.045172981    -2.033564   0.64483085   418189 
 1607000   0.61813911   -2.0333741   -2.0333741   -1.3890469  0.040205699   -2.0333741    0.6443272   418189 
 1608000   0.61937065   -2.0348534   -2.0348534   -1.3892425  0.036331508   -2.0348534   0.64561091   418189 
 1609000   0.61839035    -2.034102    -2.034102    -1.389513  0.039124682    -2.034102   0.64458908   418189 
 1610000   0.61864002   -2.0340833   -2.0340833    -1.389234  0.045645145   -2.0340833   0.64484933   418189 
 1611000   0.62008644   -2.0351444   -2.0351444   -1.3887874  0.043596316   -2.0351444   0.64635703   418189 
 1612000   0.62047354   -2.0361668   -2.0361668   -1.3894063  0.044315956   -2.0361668   0.64676053   418189 
 1613000   0.61973505    -2.035333    -2.035333   -1.3893423  0.047537271    -2.035333   0.64599075   418189 
 1614000   0.61940833     -2.03544     -2.03544   -1.3897898  0.043841362     -2.03544   0.64565019   418189 
 1615000   0.61727076   -2.0333964   -2.0333964   -1.3899743  0.046521346   -2.0333964   0.64342206   418189 
 1616000   0.61873317   -2.0342982   -2.0342982   -1.3893518  0.045535737   -2.0342982   0.64494643   418189 
 1617000   0.61889167    -2.035268    -2.035268   -1.3901563  0.043386065    -2.035268   0.64511164   418189 
 1618000   0.61921782   -2.0348642   -2.0348642   -1.3894126  0.041596081   -2.0348642   0.64545161   418189 
 1619000   0.62016949   -2.0361402   -2.0361402   -1.3896966  0.048680725   -2.0361402    0.6464436   418189 
 1620000   0.61927658    -2.035227    -2.035227   -1.3897141    0.0345913    -2.035227   0.64551286   418189 
 1621000   0.61767508   -2.0338234   -2.0338234   -1.3899799  0.047518332   -2.0338234   0.64384351   418189 
 1622000   0.61906313   -2.0351037   -2.0351037   -1.3898134  0.040216683   -2.0351037   0.64529037   418189 
 1623000   0.61927841   -2.0355262   -2.0355262   -1.3900115  0.036908374   -2.0355262   0.64551476   418189 
 1624000   0.61865993   -2.0348257   -2.0348257   -1.3899557  0.044997125   -2.0348257   0.64487008   418189 
 1625000   0.62017509   -2.0364993   -2.0364993   -1.3900498  0.041876096   -2.0364993   0.64644943   418189 
 1626000   0.61888337   -2.0348381   -2.0348381   -1.3897351  0.045048731   -2.0348381   0.64510299   418189 
 1627000   0.61888999   -2.0344314   -2.0344314   -1.3893215   0.04494619   -2.0344314   0.64510989   418189 
 1628000   0.61862006   -2.0349001   -2.0349001   -1.3900716   0.03698391   -2.0349001   0.64482853   418189 
 1629000   0.61858921    -2.034744    -2.034744   -1.3899476  0.039239624    -2.034744   0.64479637   418189 
 1630000   0.61777758   -2.0337707   -2.0337707   -1.3898204  0.048238093   -2.0337707   0.64395035   418189 
 1631000   0.61837735   -2.0346606   -2.0346606   -1.3900851  0.038960914   -2.0346606   0.64457553   418189 
 1632000   0.61867251   -2.0350357   -2.0350357   -1.3901525  0.042097935   -2.0350357   0.64488319   418189 
 1633000   0.62009978   -2.0356475   -2.0356475   -1.3892766  0.047349639   -2.0356475   0.64637093   418189 
 1634000   0.61964176   -2.0355381   -2.0355381   -1.3896446  0.044793243   -2.0355381   0.64589351   418189 
 1635000   0.61872177   -2.0348838   -2.0348838   -1.3899493  0.040798925   -2.0348838   0.64493454   418189 
 1636000   0.61861998   -2.0356358   -2.0356358   -1.3908073  0.045675258   -2.0356358   0.64482844   418189 
 1637000   0.61881498   -2.0360389   -2.0360389   -1.3910072  0.039113608   -2.0360389    0.6450317   418189 
 1638000   0.61837936   -2.0361828   -2.0361828   -1.3916052  0.044134573   -2.0361828   0.64457762   418189 
 1639000   0.61900202   -2.0371659   -2.0371659   -1.3919392     0.045732   -2.0371659   0.64522667   418189 
 1640000   0.61737665   -2.0360998   -2.0360998   -1.3925674  0.045035632   -2.0360998   0.64353243   418189 
 1641000   0.61903447   -2.0381504   -2.0381504     -1.39289  0.042852162   -2.0381504   0.64526049   418189 
 1642000    0.6181239   -2.0367437   -2.0367437   -1.3924324   0.04446541   -2.0367437   0.64431135   418189 
 1643000   0.61793492   -2.0373957   -2.0373957   -1.3932813  0.037523129   -2.0373957   0.64411436   418189 
 1644000   0.61937151   -2.0379843   -2.0379843   -1.3923725  0.049518538   -2.0379843   0.64561181   418189 
 1645000   0.61817789   -2.0375678   -2.0375678   -1.3932001  0.042788795   -2.0375678   0.64436763   418189 
 1646000   0.61882445   -2.0379331   -2.0379331   -1.3928916  0.043079102   -2.0379331   0.64504158   418189 
 1647000   0.61945722   -2.0383995   -2.0383995   -1.3926984  0.039490265   -2.0383995   0.64570115   418189 
 1648000   0.61717533   -2.0363206   -2.0363206    -1.392998  0.049701446   -2.0363206   0.64332258   418189 
 1649000   0.61901745   -2.0386638   -2.0386638    -1.393421  0.043884855   -2.0386638   0.64524275   418189 
 1650000   0.61859516   -2.0379283   -2.0379283   -1.3931258  0.042281644   -2.0379283   0.64480257   418189 
 1651000   0.61892183   -2.0382069   -2.0382069   -1.3930638  0.045045697   -2.0382069   0.64514308   418189 
 1652000   0.61821971   -2.0375782   -2.0375782    -1.393167  0.053458741   -2.0375782   0.64441121   418189 
 1653000   0.61880269   -2.0381725   -2.0381725   -1.3931536  0.048999974   -2.0381725    0.6450189   418189 
 1654000   0.61965276   -2.0396018   -2.0396018   -1.3936968  0.044728106   -2.0396018   0.64590498   418189 
 1655000   0.61765192   -2.0381247   -2.0381247   -1.3943054  0.045491444   -2.0381247   0.64381936   418189 
 1656000   0.61779303   -2.0384154   -2.0384154   -1.3944489  0.045758943   -2.0384154   0.64396646   418189 
 1657000   0.61824582   -2.0388968   -2.0388968   -1.3944584  0.045246398   -2.0388968   0.64443843   418189 
 1658000   0.62051563   -2.0411544   -2.0411544     -1.39435  0.047363334   -2.0411544    0.6468044   418189 
 1659000   0.61776077   -2.0377098   -2.0377098    -1.393777  0.044896152   -2.0377098   0.64393283   418189 
 1660000   0.61942881   -2.0397038   -2.0397038   -1.3940322  0.047217728   -2.0397038   0.64567154   418189 
 1661000   0.61850137   -2.0386158   -2.0386158    -1.393911  0.037920646   -2.0386158   0.64470481   418189 
 1662000   0.61890103   -2.0390709   -2.0390709   -1.3939495  0.052826887   -2.0390709   0.64512139   418189 
 1663000   0.61896531   -2.0389436   -2.0389436   -1.3937552  0.045722528   -2.0389436   0.64518841   418189 
 1664000   0.61947293   -2.0395352   -2.0395352   -1.3938177  0.052769355   -2.0395352   0.64571753   418189 
 1665000   0.61906399   -2.0387226   -2.0387226   -1.3934313  0.039037211   -2.0387226   0.64529126   418189 
 1666000   0.61840661   -2.0384819   -2.0384819   -1.3938759  0.043094027   -2.0384819   0.64460603   418189 
 1667000   0.61800838   -2.0381213   -2.0381213   -1.3939304  0.043312858   -2.0381213   0.64419093   418189 
 1668000   0.61760216   -2.0374757   -2.0374757   -1.3937082  0.047682898   -2.0374757    0.6437675   418189 
 1669000   0.61841619   -2.0380188   -2.0380188   -1.3934028  0.038318996   -2.0380188   0.64461602   418189 
 1670000   0.61802969   -2.0378294   -2.0378294   -1.3936163  0.040252881   -2.0378294   0.64421314   418189 
 1671000   0.61996146   -2.0399409   -2.0399409   -1.3937141  0.041265697   -2.0399409   0.64622676   418189 
 1672000   0.61836201   -2.0381038   -2.0381038   -1.3935443  0.042424184   -2.0381038   0.64455955   418189 
 1673000   0.61876449   -2.0396112   -2.0396112   -1.3946321  0.035185061   -2.0396112   0.64497907   418189 
 1674000   0.61753974   -2.0383007   -2.0383007   -1.3945982   0.05525047   -2.0383007   0.64370244   418189 
 1675000   0.61718784   -2.0383756   -2.0383756   -1.3950399  0.046974734   -2.0383756   0.64333563   418189 
 1676000     0.618004   -2.0386859   -2.0386859   -1.3944996  0.044686159   -2.0386859   0.64418636   418189 
 1677000   0.61884864   -2.0405545   -2.0405545   -1.3954877  0.043980246   -2.0405545   0.64506679   418189 
 1678000   0.61893173   -2.0404117   -2.0404117   -1.3952583  0.037727391   -2.0404117    0.6451534   418189 
 1679000   0.61871962   -2.0403394   -2.0403394   -1.3954071  0.044730831   -2.0403394    0.6449323   418189 
 1680000   0.61890844   -2.0409892   -2.0409892   -1.3958601  0.047938322   -2.0409892   0.64512912   418189 
 1681000   0.61743929   -2.0392008   -2.0392008   -1.3956031  0.044752718   -2.0392008   0.64359774   418189 
 1682000   0.61782963   -2.0393457   -2.0393457   -1.3953411  0.047479418   -2.0393457   0.64400461   418189 
 1683000   0.61863975   -2.0409933   -2.0409933   -1.3961442  0.042783222   -2.0409933   0.64484905   418189 
 1684000   0.61906788   -2.0416264   -2.0416264   -1.3963311  0.036986851   -2.0416264   0.64529532   418189 
 1685000   0.61848961   -2.0399739   -2.0399739   -1.3952814  0.043212094   -2.0399739   0.64469255   418189 
 1686000   0.61908669   -2.0406852   -2.0406852   -1.3953703  0.050271266   -2.0406852   0.64531492   418189 
 1687000   0.61823707   -2.0391853   -2.0391853    -1.394756  0.039676491   -2.0391853   0.64442931   418189 
 1688000   0.61812654   -2.0398216   -2.0398216   -1.3955075  0.039860236   -2.0398216    0.6443141   418189 
 1689000   0.61915659    -2.041373    -2.041373   -1.3959852  0.041239432    -2.041373   0.64538779   418189 
 1690000   0.61784866   -2.0404743   -2.0404743   -1.3964498  0.045934209   -2.0404743   0.64402444   418189 
 1691000   0.61829885   -2.0403491   -2.0403491   -1.3958554   0.04771578   -2.0403491    0.6444937   418189 
 1692000   0.61965207   -2.0416661   -2.0416661   -1.3957619  0.033975685   -2.0416661   0.64590426   418189 
 1693000   0.61788896   -2.0403611   -2.0403611   -1.3962947  0.032647506   -2.0403611   0.64406645   418189 
 1694000   0.61861809   -2.0411386   -2.0411386   -1.3963121  0.045413511   -2.0411386   0.64482647   418189 
 1695000   0.61809442   -2.0407906   -2.0407906     -1.39651  0.037857749   -2.0407906   0.64428062   418189 
 1696000   0.61856456   -2.0408919   -2.0408919   -1.3961212   0.04975912   -2.0408919   0.64477068   418189 
 1697000   0.61828746   -2.0422541   -2.0422541   -1.3977723  0.051015031   -2.0422541   0.64448183   418189 
 1698000   0.61854826    -2.041898    -2.041898   -1.3971443  0.049989495    -2.041898   0.64475368   418189 
 1699000   0.61889308   -2.0420125   -2.0420125   -1.3968994  0.044568061   -2.0420125   0.64511312   418189 
 1700000   0.61800227   -2.0417835   -2.0417835    -1.397599  0.048941996   -2.0417835   0.64418457   418189 
 1701000   0.61901758   -2.0429401   -2.0429401   -1.3976972   0.03957286   -2.0429401   0.64524288   418189 
 1702000    0.6182429   -2.0422043   -2.0422043   -1.3977689  0.038741466   -2.0422043   0.64443539   418189 
 1703000   0.61805746   -2.0413327   -2.0413327   -1.3970906  0.043519566   -2.0413327   0.64424209   418189 
 1704000   0.61850075   -2.0416523   -2.0416523   -1.3969482  0.048799272   -2.0416523   0.64470416   418189 
 1705000   0.61789407   -2.0409626   -2.0409626   -1.3968908   0.04990812   -2.0409626   0.64407178   418189 
 1706000   0.61778572   -2.0414538   -2.0414538   -1.3974949  0.050520026   -2.0414538   0.64395883   418189 
 1707000   0.61927354    -2.042406    -2.042406   -1.3968963  0.040718316    -2.042406   0.64550969   418189 
 1708000   0.61781543   -2.0416284   -2.0416284   -1.3976386  0.042423843   -2.0416284   0.64398981   418189 
 1709000   0.61745603   -2.0415651   -2.0415651   -1.3979499  0.047434497   -2.0415651   0.64361518   418189 
 1710000   0.61762464   -2.0415361   -2.0415361   -1.3977452  0.047263682   -2.0415361   0.64379093   418189 
 1711000   0.61898776   -2.0425914   -2.0425914   -1.3973796  0.045577979   -2.0425914    0.6452118   418189 
 1712000   0.61782366   -2.0426322   -2.0426322   -1.3986338  0.042845958   -2.0426322   0.64399838   418189 
 1713000   0.61664884   -2.0414741   -2.0414741   -1.3987003  0.038863757   -2.0414741   0.64277379   418189 
 1714000   0.61739164   -2.0430167   -2.0430167   -1.3994686  0.038036745   -2.0430167   0.64354807   418189 
 1715000   0.61686244   -2.0415921   -2.0415921   -1.3985957  0.049559018   -2.0415921   0.64299645   418189 
 1716000   0.61674711    -2.041696    -2.041696   -1.3988197  0.047972093    -2.041696   0.64287623   418189 
 1717000   0.61710346   -2.0412404   -2.0412404   -1.3979927  0.046059923   -2.0412404   0.64324767   418189 
 1718000   0.61667288    -2.040909    -2.040909   -1.3981102  0.044746332    -2.040909   0.64279885   418189 
 1719000   0.61771752   -2.0417034   -2.0417034   -1.3978157  0.044399658   -2.0417034   0.64388774   418189 
 1720000   0.61723423   -2.0413688   -2.0413688   -1.3979848  0.042695012   -2.0413688   0.64338398   418189 
 1721000   0.61651969   -2.0407132   -2.0407132    -1.398074   0.03751325   -2.0407132   0.64263917   418189 
 1722000   0.61831874   -2.0424643   -2.0424643   -1.3979499  0.047216076   -2.0424643   0.64451444   418189 
 1723000   0.61749054   -2.0413722   -2.0413722   -1.3977211  0.047567996   -2.0413722   0.64365115   418189 
 1724000    0.6173579   -2.0421065   -2.0421065   -1.3985936  0.041901647   -2.0421065   0.64351289   418189 
 1725000   0.61768141   -2.0434254   -2.0434254   -1.3995752  0.052510726   -2.0434254   0.64385011   418189 
 1726000    0.6166473   -2.0421303   -2.0421303   -1.3993581  0.052476991   -2.0421303   0.64277219   418189 
 1727000   0.61816434   -2.0432482   -2.0432482   -1.3988947  0.044854326   -2.0432482    0.6443535   418189 
 1728000   0.61763406   -2.0431953   -2.0431953   -1.3993946  0.045850031   -2.0431953   0.64380075   418189 
 1729000   0.61869679   -2.0447182   -2.0447182   -1.3998097  0.047343394   -2.0447182   0.64490851   418189 
 1730000   0.61801941   -2.0442576   -2.0442576   -1.4000552   0.04764059   -2.0442576   0.64420243   418189 
 1731000   0.61810568   -2.0441357   -2.0441357   -1.3998433  0.047628027   -2.0441357   0.64429235   418189 
 1732000   0.61796602   -2.0439622   -2.0439622   -1.3998154  0.030317495   -2.0439622   0.64414677   418189 
 1733000   0.61871447   -2.0448856   -2.0448856   -1.3999586  0.042373128   -2.0448856   0.64492694   418189 
 1734000   0.61776543   -2.0437321   -2.0437321   -1.3997944  0.046707917   -2.0437321   0.64393769   418189 
 1735000   0.61900976   -2.0458616   -2.0458616   -1.4006269  0.042327369   -2.0458616   0.64523474   418189 
 1736000     0.618404   -2.0451894   -2.0451894   -1.4005861  0.034384911   -2.0451894   0.64460331   418189 
 1737000   0.61807991   -2.0448848   -2.0448848   -1.4006193  0.038156631   -2.0448848   0.64426549   418189 
 1738000   0.61655844    -2.044388    -2.044388   -1.4017085  0.051377773    -2.044388   0.64267957   418189 
 1739000   0.61690339   -2.0442387   -2.0442387   -1.4011996  0.048309617   -2.0442387   0.64303912   418189 
 1740000   0.61698781   -2.0442031   -2.0442031    -1.401076  0.047101747   -2.0442031   0.64312713   418189 
 1741000   0.61718905   -2.0445055   -2.0445055   -1.4011686  0.042218193   -2.0445055   0.64333689   418189 
 1742000   0.61767516   -2.0443334   -2.0443334   -1.4004899  0.041043121   -2.0443334   0.64384359   418189 
 1743000   0.61826075   -2.0452651   -2.0452651   -1.4008112  0.045883291   -2.0452651   0.64445399   418189 
 1744000   0.61794439   -2.0454983   -2.0454983    -1.401374  0.040298825   -2.0454983   0.64412423   418189 
 1745000   0.61705326    -2.044765    -2.044765   -1.4015696  0.043771656    -2.044765   0.64319535   418189 
 1746000   0.61690185   -2.0446988   -2.0446988   -1.4016612  0.045194779   -2.0446988   0.64303752   418189 
 1747000   0.61740456   -2.0451691   -2.0451691   -1.4016076  0.038817319   -2.0451691   0.64356153   418189 
 1748000    0.6176654   -2.0461242   -2.0461242   -1.4022908  0.041150665   -2.0461242   0.64383342   418189 
 1749000   0.61718683   -2.0457891   -2.0457891   -1.4024545  0.049621814   -2.0457891   0.64333457   418189 
 1750000   0.61651778   -2.0456204   -2.0456204   -1.4029833  0.045782844   -2.0456204   0.64263718   418189 
 1751000   0.61603415   -2.0448838   -2.0448838   -1.4027508  0.045539032   -2.0448838   0.64213306   418189 
 1752000   0.61752571   -2.0459114   -2.0459114   -1.4022236  0.038859478   -2.0459114   0.64368781   418189 
 1753000   0.61751092   -2.0451933   -2.0451933   -1.4015209  0.039782012   -2.0451933    0.6436724   418189 
 1754000   0.61876202   -2.0468325   -2.0468325    -1.401856  0.034087367   -2.0468325   0.64497649   418189 
 1755000   0.61809454     -2.04609     -2.04609   -1.4018092   0.04328717     -2.04609   0.64428074   418189 
 1756000   0.61714498   -2.0452842   -2.0452842   -1.4019932  0.039843293   -2.0452842   0.64329096   418189 
 1757000   0.61739889   -2.0458362   -2.0458362   -1.4022805  0.043982061   -2.0458362   0.64355562   418189 
 1758000   0.61704106   -2.0452663   -2.0452663   -1.4020837   0.04036767   -2.0452663   0.64318263   418189 
 1759000   0.61791619   -2.0460417   -2.0460417   -1.4019469  0.043042584   -2.0460417   0.64409483   418189 
 1760000   0.61863212    -2.047031    -2.047031   -1.4021899  0.048426733    -2.047031   0.64484109   418189 
 1761000   0.61886629   -2.0465979   -2.0465979   -1.4015127  0.048415829   -2.0465979   0.64508518   418189 
 1762000   0.61856237     -2.04589     -2.04589   -1.4011216  0.042197766     -2.04589   0.64476839   418189 
 1763000   0.61645528   -2.0445873   -2.0445873   -1.4020152  0.035250711   -2.0445873   0.64257203   418189 
 1764000    0.6164422   -2.0452336   -2.0452336   -1.4026752  0.038241482   -2.0452336   0.64255839   418189 
 1765000   0.61752012   -2.0457631   -2.0457631   -1.4020811  0.047411703   -2.0457631   0.64368198   418189 
 1766000    0.6169959   -2.0453696   -2.0453696    -1.402234  0.049242533   -2.0453696   0.64313556   418189 
 1767000   0.61651295   -2.0445379   -2.0445379   -1.4019057  0.039640728   -2.0445379   0.64263215   418189 
 1768000   0.61722199   -2.0456748   -2.0456748   -1.4023036  0.040631414   -2.0456748   0.64337123   418189 
 1769000   0.61851619   -2.0463322   -2.0463322   -1.4016119  0.044669595   -2.0463322   0.64472026   418189 
 1770000   0.61922953    -2.046995    -2.046995   -1.4015312   0.03484686    -2.046995   0.64546382   418189 
 1771000   0.61766764   -2.0454286   -2.0454286   -1.4015928  0.037313228   -2.0454286   0.64383576   418189 
 1772000    0.6179091   -2.0464405   -2.0464405   -1.4023531  0.050591261   -2.0464405   0.64408745   418189 
 1773000   0.61789448   -2.0467749   -2.0467749   -1.4027027  0.044283458   -2.0467749    0.6440722   418189 
 1774000   0.61686284   -2.0456011   -2.0456011   -1.4026042  0.041824991   -2.0456011   0.64299686   418189 
 1775000   0.61779813   -2.0483865   -2.0483865   -1.4044147  0.036580991   -2.0483865   0.64397177   418189 
 1776000   0.61707542   -2.0470086   -2.0470086   -1.4037902  0.039782809   -2.0470086   0.64321845   418189 
 1777000   0.61668503   -2.0467128   -2.0467128   -1.4039013  0.043246478   -2.0467128   0.64281152   418189 
 1778000   0.61721989   -2.0475027   -2.0475027   -1.4041337  0.041311592   -2.0475027   0.64336904   418189 
 1779000   0.61713583   -2.0473531   -2.0473531   -1.4040717  0.042887583   -2.0473531   0.64328141   418189 
 1780000   0.61700275   -2.0476136   -2.0476136   -1.4044709  0.040694761   -2.0476136   0.64314269   418189 
 1781000   0.61688134   -2.0474963   -2.0474963   -1.4044802  0.045509851   -2.0474963   0.64301614   418189 
 1782000   0.61678352   -2.0477813   -2.0477813   -1.4048671  0.034481881   -2.0477813   0.64291418   418189 
 1783000   0.61641966   -2.0465734   -2.0465734   -1.4040385   0.04242236   -2.0465734    0.6425349   418189 
 1784000   0.61690125   -2.0473597   -2.0473597   -1.4043229  0.052578263   -2.0473597   0.64303689   418189 
 1785000   0.61717901   -2.0482447   -2.0482447   -1.4049183   0.04385671   -2.0482447   0.64332642   418189 
 1786000   0.61683038   -2.0476152   -2.0476152   -1.4046522  0.036737917   -2.0476152   0.64296303   418189 
 1787000   0.61746777   -2.0482173   -2.0482173   -1.4045899  0.037098247   -2.0482173   0.64362742   418189 
 1788000   0.61712523   -2.0470905   -2.0470905   -1.4038201  0.051898561   -2.0470905   0.64327036   418189 
 1789000   0.61699822   -2.0468549   -2.0468549   -1.4037169  0.053894782   -2.0468549   0.64313798   418189 
 1790000   0.61664074   -2.0470165   -2.0470165   -1.4042511  0.041347675   -2.0470165   0.64276535   418189 
 1791000   0.61638831   -2.0464805   -2.0464805   -1.4039783  0.046014534   -2.0464805   0.64250222   418189 
 1792000   0.61686716   -2.0472819   -2.0472819   -1.4042805  0.043182372   -2.0472819   0.64300137   418189 
 1793000   0.61728993   -2.0477887   -2.0477887   -1.4043467  0.036578507   -2.0477887   0.64344205   418189 
 1794000   0.61779079   -2.0489034   -2.0489034   -1.4049392  0.047595088   -2.0489034   0.64396412   418189 
 1795000   0.61768896   -2.0490611   -2.0490611   -1.4052031  0.050937544   -2.0490611   0.64385798   418189 
 1796000   0.61756804   -2.0479008   -2.0479008   -1.4041689   0.03449691   -2.0479008   0.64373193   418189 
 1797000   0.61632573   -2.0472756   -2.0472756   -1.4048386  0.044050861   -2.0472756     0.642437   418189 
 1798000   0.61668367   -2.0479373   -2.0479373   -1.4051272  0.044165633   -2.0479373    0.6428101   418189 
 1799000   0.61713169   -2.0481574   -2.0481574   -1.4048803  0.043634168   -2.0481574    0.6432771   418189 
 1800000   0.61530343   -2.0465603   -2.0465603   -1.4051889   0.05511608   -2.0465603   0.64137138   418189 
 1801000   0.61614419    -2.048242    -2.048242   -1.4059943  0.045813164    -2.048242   0.64224776   418189 
 1802000    0.6157944   -2.0479398   -2.0479398   -1.4060567  0.046814007   -2.0479398   0.64188315   418189 
 1803000   0.61814471   -2.0503825   -2.0503825   -1.4060494  0.033859037   -2.0503825   0.64433303   418189 
 1804000   0.61700376   -2.0494214   -2.0494214   -1.4062776  0.043484595   -2.0494214   0.64314375   418189 
 1805000   0.61616079   -2.0490431   -2.0490431    -1.406778  0.036763816   -2.0490431   0.64226506   418189 
 1806000   0.61678061   -2.0501451   -2.0501451    -1.407234  0.043375919   -2.0501451   0.64291115   418189 
 1807000   0.61532768   -2.0483797   -2.0483797    -1.406983  0.037183357   -2.0483797   0.64139666   418189 
 1808000    0.6164778   -2.0498768   -2.0498768   -1.4072812  0.048055558   -2.0498768   0.64259551   418189 
 1809000   0.61625866     -2.04949     -2.04949   -1.4071229  0.036097229     -2.04949   0.64236708   418189 
 1810000   0.61594854   -2.0499403   -2.0499403   -1.4078965  0.043011225   -2.0499403   0.64204382   418189 
 1811000   0.61609743    -2.049991    -2.049991   -1.4077919  0.045355268    -2.049991   0.64219903   418189 
 1812000   0.61572603   -2.0499062   -2.0499062   -1.4080943  0.038104607   -2.0499062   0.64181188   418189 
 1813000   0.61602714   -2.0503315   -2.0503315   -1.4082058   0.05754048   -2.0503315   0.64212575   418189 
 1814000   0.61702967   -2.0512877   -2.0512877   -1.4081169  0.044199932   -2.0512877   0.64317076   418189 
 1815000   0.61712171   -2.0506937   -2.0506937    -1.407427  0.040503439   -2.0506937   0.64326669   418189 
 1816000   0.61769562   -2.0517542   -2.0517542   -1.4078892  0.046428439   -2.0517542   0.64386492   418189 
 1817000   0.61719942   -2.0518479   -2.0518479   -1.4085002  0.045648435   -2.0518479    0.6433477   418189 
 1818000   0.61702783   -2.0515777   -2.0515777   -1.4084089  0.044459104   -2.0515777   0.64316884   418189 
 1819000   0.61784314   -2.0518432   -2.0518432   -1.4078245  0.045171745   -2.0518432   0.64401869   418189 
 1820000   0.61692431    -2.051244    -2.051244    -1.408183  0.042522623    -2.051244   0.64306094   418189 
 1821000   0.61684025   -2.0507582   -2.0507582   -1.4077848  0.038215267   -2.0507582   0.64297332   418189 
 1822000   0.61649244   -2.0507781   -2.0507781   -1.4081673  0.049814316   -2.0507781   0.64261077   418189 
 1823000   0.61705495   -2.0514777   -2.0514777   -1.4082806  0.051243854   -2.0514777   0.64319711   418189 
 1824000   0.61547813   -2.0494918   -2.0494918   -1.4079383  0.046405026   -2.0494918   0.64155348   418189 
 1825000   0.61529613   -2.0494662   -2.0494662   -1.4081024  0.037472853   -2.0494662   0.64136377   418189 
 1826000   0.61442269    -2.048881    -2.048881   -1.4084277  0.041469462    -2.048881   0.64045333   418189 
 1827000   0.61520229   -2.0490975   -2.0490975   -1.4078316  0.048304527   -2.0490975   0.64126595   418189 
 1828000   0.61460896   -2.0490349   -2.0490349   -1.4083875  0.050445855   -2.0490349   0.64064749   418189 
 1829000   0.61541287   -2.0495074   -2.0495074   -1.4080219  0.043430864   -2.0495074   0.64148546   418189 
 1830000   0.61553931   -2.0493404   -2.0493404   -1.4077232  0.045131787   -2.0493404   0.64161726   418189 
 1831000   0.61656852   -2.0495102   -2.0495102   -1.4068201  0.036346732   -2.0495102   0.64269007   418189 
 1832000   0.61568958   -2.0487762   -2.0487762   -1.4070024  0.040971849   -2.0487762   0.64177389   418189 
 1833000   0.61649001   -2.0491412   -2.0491412   -1.4065329  0.048578178   -2.0491412   0.64260823   418189 
 1834000   0.61637147   -2.0502708   -2.0502708   -1.4077861  0.039084279   -2.0502708   0.64248467   418189 
 1835000   0.61577838   -2.0502194   -2.0502194   -1.4083529  0.044465125   -2.0502194   0.64186645   418189 
 1836000   0.61725543   -2.0513448   -2.0513448   -1.4079387   0.04694983   -2.0513448   0.64340608   418189 
 1837000   0.61654524   -2.0505209   -2.0505209   -1.4078551  0.038530208   -2.0505209    0.6426658   418189 
 1838000    0.6159734   -2.0498223   -2.0498223   -1.4077526  0.050631136   -2.0498223   0.64206974   418189 
 1839000   0.61552296   -2.0498244   -2.0498244   -1.4082242  0.046054188   -2.0498244   0.64160021   418189 
 1840000    0.6174143   -2.0514065   -2.0514065   -1.4078348  0.040954856   -2.0514065   0.64357168   418189 
 1841000   0.61714486   -2.0510059   -2.0510059    -1.407715  0.048606234   -2.0510059   0.64329083   418189 
 1842000    0.6163898   -2.0494897   -2.0494897   -1.4069859  0.034423686   -2.0494897   0.64250378   418189 
 1843000    0.6166822   -2.0498516   -2.0498516   -1.4070431  0.047208336   -2.0498516   0.64280857   418189 
 1844000   0.61580358   -2.0498353   -2.0498353   -1.4079426  0.033999302   -2.0498353   0.64189272   418189 
 1845000   0.61587096   -2.0494476   -2.0494476   -1.4074846  0.043987772   -2.0494476   0.64196296   418189 
 1846000   0.61475718    -2.048685    -2.048685    -1.407883  0.039167628    -2.048685   0.64080199   418189 
 1847000   0.61554612   -2.0500306   -2.0500306   -1.4084063  0.046004572   -2.0500306   0.64162435   418189 
 1848000   0.61553363    -2.049303    -2.049303   -1.4076917  0.048658576    -2.049303   0.64161133   418189 
 1849000   0.61617308   -2.0499774   -2.0499774   -1.4076996  0.046229223   -2.0499774   0.64227788   418189 
 1850000   0.61633897   -2.0496812   -2.0496812   -1.4072304  0.048096253   -2.0496812    0.6424508   418189 
 1851000   0.61650689   -2.0502662   -2.0502662   -1.4076404  0.045383859   -2.0502662   0.64262583   418189 
 1852000   0.61529217   -2.0491753   -2.0491753   -1.4078156  0.040333521   -2.0491753   0.64135964   418189 
 1853000   0.61617949   -2.0496902   -2.0496902   -1.4074056  0.036409864   -2.0496902   0.64228456   418189 
 1854000   0.61529822   -2.0484289   -2.0484289    -1.407063  0.046063566   -2.0484289   0.64136596   418189 
 1855000   0.61671709   -2.0499494   -2.0499494   -1.4071045  0.038871195   -2.0499494   0.64284494   418189 
 1856000    0.6159791   -2.0494266   -2.0494266   -1.4073509   0.04351518   -2.0494266   0.64207568   418189 
 1857000   0.61679798   -2.0505155   -2.0505155   -1.4075862  0.043668814   -2.0505155   0.64292925   418189 
 1858000   0.61616094   -2.0505441   -2.0505441   -1.4082788  0.043902641   -2.0505441   0.64226522   418189 
 1859000   0.61545568   -2.0492953   -2.0492953   -1.4077652  0.047350152   -2.0492953   0.64153008   418189 
 1860000   0.61746062    -2.051023    -2.051023    -1.407403  0.048546792    -2.051023   0.64361996   418189 
 1861000    0.6166057   -2.0499084   -2.0499084   -1.4071796  0.044328698   -2.0499084   0.64272883   418189 
 1862000   0.61695547     -2.05142     -2.05142   -1.4083266  0.045499482     -2.05142   0.64309342   418189 
 1863000    0.6171893   -2.0510287   -2.0510287   -1.4076915  0.041402298   -2.0510287   0.64333715   418189 
 1864000   0.61647104   -2.0499972   -2.0499972   -1.4074087  0.045149298   -2.0499972   0.64258846   418189 
 1865000     0.618548   -2.0520956   -2.0520956   -1.4073422  0.028587556   -2.0520956   0.64475341   418189 
 1866000   0.61651678   -2.0508649   -2.0508649   -1.4082287  0.043049578   -2.0508649   0.64263614   418189 
 1867000    0.6164128   -2.0500509   -2.0500509   -1.4075231  0.040683653   -2.0500509   0.64252775   418189 
 1868000   0.61678016    -2.050138    -2.050138   -1.4072273  0.052929542    -2.050138   0.64291068   418189 
 1869000   0.61784713   -2.0503693   -2.0503693   -1.4063464  0.044940698   -2.0503693   0.64402285   418189 
 1870000   0.61676651   -2.0503972   -2.0503972   -1.4075007  0.055222725   -2.0503972   0.64289644   418189 
 1871000   0.61637238   -2.0507876   -2.0507876    -1.408302  0.039630511   -2.0507876   0.64248562   418189 
 1872000   0.61557567   -2.0498072   -2.0498072    -1.408152  0.051956987   -2.0498072   0.64165516   418189 
 1873000   0.61532944   -2.0502885   -2.0502885     -1.40889  0.038568588   -2.0502885   0.64139849   418189 
 1874000   0.61683455   -2.0517773   -2.0517773   -1.4088099  0.048730129   -2.0517773   0.64296737   418189 
 1875000   0.61586041   -2.0512922   -2.0512922   -1.4093403  0.046177376   -2.0512922   0.64195196   418189 
 1876000   0.61599012   -2.0514294   -2.0514294   -1.4093422  0.033697838   -2.0514294   0.64208716   418189 
 1877000   0.61614794   -2.0514739   -2.0514739   -1.4092222  0.045443243   -2.0514739   0.64225167   418189 
 1878000    0.6152935    -2.051023    -2.051023   -1.4096619  0.030503818    -2.051023   0.64136104   418189 
 1879000   0.61632434   -2.0525086   -2.0525086   -1.4100731  0.047924286   -2.0525086   0.64243554   418189 
 1880000   0.61787535    -2.053398    -2.053398   -1.4093458  0.042875521    -2.053398   0.64405226   418189 
 1881000   0.61580019   -2.0515378   -2.0515378   -1.4096487  0.043486399   -2.0515378   0.64188919   418189 
 1882000   0.61581044   -2.0519847   -2.0519847   -1.4100848  0.053216585   -2.0519847   0.64189987   418189 
 1883000   0.61776079   -2.0541367   -2.0541367   -1.4102038  0.056681124   -2.0541367   0.64393285   418189 
 1884000   0.61501368   -2.0516649   -2.0516649   -1.4105955  0.043904907   -2.0516649   0.64106936   418189 
 1885000    0.6152931   -2.0520208   -2.0520208   -1.4106602  0.039271249   -2.0520208   0.64136061   418189 
 1886000   0.61653895   -2.0526587   -2.0526587   -1.4099995   0.03616573   -2.0526587   0.64265924   418189 
 1887000   0.61808153   -2.0542068   -2.0542068   -1.4099396  0.040900539   -2.0542068   0.64426718   418189 
 1888000   0.61587422   -2.0520411   -2.0520411   -1.4100747  0.044966418   -2.0520411   0.64196636   418189 
 1889000   0.61553904   -2.0521311   -2.0521311   -1.4105142  0.047943649   -2.0521311   0.64161697   418189 
 1890000   0.61485277   -2.0513095   -2.0513095   -1.4104079   0.04548108   -2.0513095   0.64090163   418189 
 1891000   0.61585385   -2.0529105   -2.0529105   -1.4109654  0.038835308   -2.0529105   0.64194512   418189 
 1892000   0.61560339   -2.0527812   -2.0527812   -1.4110971    0.0499268   -2.0527812   0.64168405   418189 
 1893000   0.61613144   -2.0525364   -2.0525364    -1.410302  0.037676689   -2.0525364   0.64223447   418189 
 1894000   0.61614465   -2.0528216   -2.0528216   -1.4105733    0.0462467   -2.0528216   0.64224825   418189 
 1895000   0.61504208   -2.0514091   -2.0514091   -1.4103102  0.049058628   -2.0514091   0.64109896   418189 
 1896000   0.61682699   -2.0530465   -2.0530465    -1.410087  0.047194875   -2.0530465   0.64295949   418189 
 1897000   0.61661654   -2.0526433   -2.0526433   -1.4099031   0.05238764   -2.0526433   0.64274013   418189 
 1898000   0.61760548   -2.0534437   -2.0534437   -1.4096727  0.051074704   -2.0534437   0.64377096   418189 
 1899000   0.61803263   -2.0534196   -2.0534196   -1.4092034  0.040204506   -2.0534196   0.64421621   418189 
 1900000   0.61520787   -2.0514815   -2.0514815   -1.4102097  0.047379091   -2.0514815   0.64127177   418189 
 1901000   0.61677568   -2.0534041   -2.0534041   -1.4104981   0.04487005   -2.0534041     0.642906   418189 
 1902000   0.61694954   -2.0535466   -2.0535466   -1.4104594  0.049563572   -2.0535466   0.64308723   418189 
 1903000   0.61682421   -2.0532008   -2.0532008   -1.4102442  0.039357865   -2.0532008   0.64295659   418189 
 1904000   0.61835464   -2.0555948   -2.0555948   -1.4110429  0.040005816   -2.0555948   0.64455185   418189 
 1905000   0.61660152   -2.0531881   -2.0531881   -1.4104637  0.043634106   -2.0531881   0.64272446   418189 
 1906000   0.61611303   -2.0520478   -2.0520478   -1.4098326  0.040885781   -2.0520478   0.64221528   418189 
 1907000   0.61765219   -2.0537581   -2.0537581   -1.4099384  0.042628954   -2.0537581   0.64381965   418189 
 1908000   0.61632046   -2.0517943   -2.0517943   -1.4093628  0.045248406   -2.0517943    0.6424315   418189 
 1909000   0.61656127    -2.052159    -2.052159   -1.4094765    0.0492118    -2.052159   0.64268251   418189 
 1910000    0.6157971   -2.0523387   -2.0523387   -1.4104528  0.039038264   -2.0523387   0.64188597   418189 
 1911000   0.61438762   -2.0509581   -2.0509581   -1.4105413  0.040028264   -2.0509581   0.64041677   418189 
 1912000   0.61417374   -2.0505407   -2.0505407   -1.4103469  0.042768157   -2.0505407   0.64019383   418189 
 1913000    0.6144414   -2.0515348   -2.0515348   -1.4110619  0.042626654   -2.0515348   0.64047283   418189 
 1914000   0.61612937   -2.0527458   -2.0527458   -1.4105135  0.038424339   -2.0527458   0.64223232   418189 
 1915000   0.61581561   -2.0528127   -2.0528127   -1.4109075  0.039519846   -2.0528127   0.64190526   418189 
 1916000   0.61489359   -2.0527768   -2.0527768   -1.4118326  0.038186295   -2.0527768   0.64094418   418189 
 1917000   0.61778033   -2.0548242   -2.0548242    -1.410871  0.039507465   -2.0548242   0.64395322   418189 
 1918000   0.61609014   -2.0523757   -2.0523757   -1.4101843  0.043915329   -2.0523757   0.64219142   418189 
 1919000   0.61579621   -2.0531055   -2.0531055   -1.4112205  0.033560602   -2.0531055   0.64188504   418189 
 1920000   0.61521759   -2.0532803   -2.0532803   -1.4119984   0.03441284   -2.0532803   0.64128191   418189 
 1921000    0.6163565   -2.0544214   -2.0544214   -1.4119523  0.045906295   -2.0544214   0.64246907   418189 
 1922000   0.61681378   -2.0549725   -2.0549725   -1.4120267  0.041647695   -2.0549725   0.64294572   418189 
 1923000   0.61586596   -2.0540196   -2.0540196   -1.4120619  0.043126005   -2.0540196   0.64195775   418189 
 1924000   0.61533919   -2.0541518   -2.0541518   -1.4127431  0.037656438   -2.0541518   0.64140865   418189 
 1925000   0.61567736   -2.0552108   -2.0552108   -1.4134496  0.047193151   -2.0552108   0.64176116   418189 
 1926000   0.61598725   -2.0557919   -2.0557919   -1.4137078  0.038326134   -2.0557919   0.64208417   418189 
 1927000   0.61585003   -2.0556035   -2.0556035   -1.4136623  0.046440452   -2.0556035   0.64194114   418189 
 1928000   0.61533728   -2.0558963   -2.0558963   -1.4144896  0.035421468   -2.0558963   0.64140667   418189 
 1929000   0.61613435   -2.0563636   -2.0563636   -1.4141261  0.046306909   -2.0563636    0.6422375   418189 
 1930000   0.61618656   -2.0567407   -2.0567407   -1.4144488  0.045803197   -2.0567407   0.64229193   418189 
 1931000   0.61441528   -2.0553477   -2.0553477   -1.4149021  0.042155902   -2.0553477    0.6404456   418189 
 1932000   0.61582416   -2.0573404   -2.0573404   -1.4154262  0.045164193   -2.0573404   0.64191418   418189 
 1933000   0.61522975   -2.0574776   -2.0574776    -1.416183   0.04101833   -2.0574776   0.64129458   418189 
 1934000   0.61590322   -2.0571615   -2.0571615   -1.4151649  0.054123391   -2.0571615   0.64199658   418189 
 1935000   0.61696078   -2.0577401   -2.0577401   -1.4146412  0.039260121   -2.0577401   0.64309895   418189 
 1936000   0.61669426   -2.0583781   -2.0583781    -1.415557  0.047752094   -2.0583781   0.64282114   418189 
 1937000   0.61636049   -2.0580387   -2.0580387   -1.4155655  0.051045122   -2.0580387   0.64247322   418189 
 1938000   0.61749048    -2.058841    -2.058841   -1.4151899  0.039142404    -2.058841   0.64365109   418189 
 1939000   0.61554383   -2.0558561   -2.0558561   -1.4142341  0.053747673   -2.0558561   0.64162197   418189 
 1940000   0.61541339   -2.0567733   -2.0567733   -1.4152873  0.046277605   -2.0567733     0.641486   418189 
 1941000   0.61627113   -2.0572598   -2.0572598   -1.4148798  0.050354136   -2.0572598   0.64238008   418189 
 1942000   0.61556346    -2.057266    -2.057266   -1.4156236   0.04065287    -2.057266   0.64164243   418189 
 1943000    0.6163492   -2.0567609   -2.0567609   -1.4142994  0.039074321   -2.0567609   0.64246146   418189 
 1944000   0.61653674   -2.0568817   -2.0568817   -1.4142247  0.049409298   -2.0568817   0.64265695   418189 
 1945000   0.61644679   -2.0568303   -2.0568303   -1.4142671  0.045694466   -2.0568303   0.64256318   418189 
 1946000   0.61545732   -2.0565034   -2.0565034   -1.4149716  0.039475044   -2.0565034   0.64153179   418189 
 1947000   0.61597432   -2.0565576   -2.0565576   -1.4144869  0.040780063   -2.0565576    0.6420707   418189 
 1948000   0.61547997   -2.0566225   -2.0566225   -1.4150671   0.04558357   -2.0566225    0.6415554   418189 
 1949000    0.6144563   -2.0556112   -2.0556112   -1.4151229   0.03966283   -2.0556112   0.64048836   418189 
 1950000   0.61479364   -2.0565989   -2.0565989   -1.4157589  0.038849257   -2.0565989      0.64084   418189 
 1951000    0.6145754   -2.0562798   -2.0562798   -1.4156673  0.045056008   -2.0562798    0.6406125   418189 
 1952000   0.61509624   -2.0568356   -2.0568356   -1.4156802  0.045145852   -2.0568356   0.64115541   418189 
 1953000   0.61393844   -2.0557484   -2.0557484   -1.4157999  0.036572442   -2.0557484   0.63994856   418189 
 1954000   0.61566771   -2.0574517   -2.0574517   -1.4157006  0.052089849   -2.0574517    0.6417511   418189 
 1955000   0.61440874   -2.0560109   -2.0560109   -1.4155721  0.036514006   -2.0560109   0.64043878   418189 
 1956000   0.61529463   -2.0570255   -2.0570255   -1.4156633  0.045508307   -2.0570255    0.6413622   418189 
 1957000   0.61646661   -2.0571581   -2.0571581   -1.4145742  0.043951733   -2.0571581   0.64258384   418189 
 1958000   0.61589391   -2.0566884   -2.0566884   -1.4147016  0.039793581   -2.0566884   0.64198688   418189 
 1959000    0.6151523   -2.0565656   -2.0565656   -1.4153517  0.036978247   -2.0565656   0.64121385   418189 
 1960000   0.61578162   -2.0567724   -2.0567724   -1.4149025   0.04761778   -2.0567724   0.64186983   418189 
 1961000   0.61586307    -2.057581    -2.057581   -1.4156262  0.038785502    -2.057581   0.64195473   418189 
 1962000   0.61541515   -2.0567683   -2.0567683   -1.4152805  0.044264474   -2.0567683   0.64148783   418189 
 1963000   0.61514086   -2.0566965   -2.0566965   -1.4154946  0.042544534   -2.0566965   0.64120193   418189 
 1964000    0.6141243   -2.0557511   -2.0557511   -1.4156088  0.049754452   -2.0557511   0.64014229   418189 
 1965000   0.61533854   -2.0575464   -2.0575464   -1.4161385  0.036926493   -2.0575464   0.64140798   418189 
 1966000   0.61514054   -2.0564782   -2.0564782   -1.4152766  0.053851255   -2.0564782    0.6412016   418189 
 1967000   0.61580492   -2.0574932   -2.0574932   -1.4155991  0.042361977   -2.0574932   0.64189412   418189 
 1968000   0.61568191   -2.0577095   -2.0577095   -1.4159436  0.036298857   -2.0577095    0.6417659   418189 
 1969000   0.61520695   -2.0571268   -2.0571268    -1.415856  0.036784021   -2.0571268   0.64127081   418189 
 1970000    0.6153615   -2.0575263   -2.0575263   -1.4160944  0.046225243   -2.0575263   0.64143191   418189 
 1971000   0.61533517   -2.0577954   -2.0577954   -1.4163909  0.043116956   -2.0577954   0.64140447   418189 
 1972000   0.61672469   -2.0587715   -2.0587715   -1.4159187  0.047678528   -2.0587715   0.64285286   418189 
 1973000   0.61558184    -2.058002    -2.058002   -1.4163404  0.037689798    -2.058002   0.64166159   418189 
 1974000   0.61637098   -2.0583934   -2.0583934   -1.4159092   0.04514735   -2.0583934   0.64248416   418189 
 1975000   0.61625794   -2.0589423   -2.0589423   -1.4165759  0.038675253   -2.0589423   0.64236633   418189 
 1976000   0.61484664   -2.0583891   -2.0583891   -1.4174938  0.042089868   -2.0583891   0.64089524   418189 
 1977000   0.61523495    -2.057964    -2.057964    -1.416664  0.035098797    -2.057964       0.6413   418189 
 1978000    0.6158814   -2.0594241   -2.0594241   -1.4174503  0.034953774   -2.0594241   0.64197384   418189 
 1979000   0.61667582   -2.0600277   -2.0600277   -1.4172258  0.043996735   -2.0600277   0.64280191   418189 
 1980000   0.61462414   -2.0588244   -2.0588244   -1.4181611  0.044078045   -2.0588244   0.64066331   418189 
 1981000   0.61556422   -2.0585236   -2.0585236   -1.4168804  0.040318689   -2.0585236   0.64164322   418189 
 1982000   0.61608667   -2.0592902   -2.0592902   -1.4171024  0.050353677   -2.0592902    0.6421878   418189 
 1983000   0.61408286   -2.0583027   -2.0583027   -1.4182036  0.041094846   -2.0583027    0.6400991   418189 
 1984000   0.61558716    -2.059658    -2.059658   -1.4179909  0.038979055    -2.059658   0.64166713   418189 
 1985000   0.61398591   -2.0579427   -2.0579427   -1.4179446  0.046727074   -2.0579427   0.63999804   418189 
 1986000   0.61369719    -2.058318    -2.058318   -1.4186209  0.042092834    -2.058318   0.63969709   418189 
 1987000   0.61554797   -2.0603856   -2.0603856   -1.4187593  0.048808285   -2.0603856   0.64162629   418189 
 1988000   0.61442675    -2.058656    -2.058656   -1.4181984  0.039626481    -2.058656   0.64045756   418189 
 1989000   0.61502346   -2.0584227   -2.0584227   -1.4173432  0.040122493   -2.0584227   0.64107955   418189 
 1990000   0.61551394   -2.0584951   -2.0584951   -1.4169043  0.049259138   -2.0584951   0.64159081   418189 
 1991000    0.6149898   -2.0579532   -2.0579532   -1.4169088  0.042975308   -2.0579532   0.64104446   418189 
 1992000   0.61599526   -2.0589366   -2.0589366   -1.4168441  0.040771941   -2.0589366   0.64209252   418189 
 1993000   0.61555725   -2.0588587   -2.0588587   -1.4172227   0.04334384   -2.0588587   0.64163596   418189 
 1994000   0.61595404   -2.0588472   -2.0588472   -1.4167977  0.044022587   -2.0588472   0.64204955   418189 
 1995000   0.61530798   -2.0580928   -2.0580928   -1.4167167  0.046040794   -2.0580928   0.64137612   418189 
 1996000   0.61514034   -2.0583338   -2.0583338   -1.4171324  0.046322917   -2.0583338   0.64120138   418189 
 1997000   0.61517245   -2.0582668   -2.0582668    -1.417032   0.03551015   -2.0582668   0.64123486   418189 
 1998000   0.61698094   -2.0598691   -2.0598691   -1.4167491  0.046724786   -2.0598691   0.64311996   418189 
 1999000   0.61667493   -2.0595294   -2.0595294   -1.4167284  0.042926975   -2.0595294   0.64280098   418189 
 2000000   0.61516592    -2.057993    -2.057993    -1.416765  0.036882759    -2.057993   0.64122805   418189 
 2001000   0.61562201   -2.0583136   -2.0583136   -1.4166101  0.044984698   -2.0583136   0.64170346   418189 
 2002000   0.61596005   -2.0587317   -2.0587317   -1.4166759   0.03494353   -2.0587317   0.64205582   418189 
 2003000   0.61694278   -2.0582957   -2.0582957   -1.4152155  0.044414236   -2.0582957   0.64308018   418189 
 2004000   0.61585946     -2.05789     -2.05789    -1.415939  0.045830771     -2.05789   0.64195097   418189 
 2005000   0.61588613    -2.058995    -2.058995   -1.4170162  0.042609911    -2.058995   0.64197877   418189 
 2006000   0.61387141   -2.0577231   -2.0577231   -1.4178444  0.038738789   -2.0577231   0.63987869   418189 
 2007000   0.61472623   -2.0587074   -2.0587074   -1.4179376  0.042135094   -2.0587074   0.64076973   418189 
 2008000   0.61408294   -2.0582531   -2.0582531    -1.418154  0.040545745   -2.0582531   0.64009918   418189 
 2009000   0.61509506   -2.0591072   -2.0591072    -1.417953  0.039349524   -2.0591072   0.64115418   418189 
 2010000   0.61562259    -2.059542    -2.059542    -1.417838  0.047538646    -2.059542   0.64170406   418189 
 2011000     0.614774   -2.0589359   -2.0589359   -1.4181164  0.038600905   -2.0589359   0.64081953   418189 
 2012000   0.61519409   -2.0590984   -2.0590984    -1.417841  0.039522259   -2.0590984   0.64125741   418189 
 2013000   0.61650319    -2.060085    -2.060085   -1.4174631  0.045016073    -2.060085   0.64262197   418189 
 2014000   0.61498943   -2.0594236   -2.0594236   -1.4183795  0.049294232   -2.0594236   0.64104408   418189 
 2015000   0.61540817   -2.0602396   -2.0602396   -1.4187591  0.036452987   -2.0602396   0.64148056   418189 
 2016000   0.61584151   -2.0615996   -2.0615996   -1.4196674  0.044503884   -2.0615996   0.64193226   418189 
 2017000   0.61585919   -2.0619358   -2.0619358   -1.4199851  0.047673744   -2.0619358   0.64195069   418189 
 2018000   0.61494108   -2.0611586   -2.0611586   -1.4201649  0.049440881   -2.0611586   0.64099368   418189 
 2019000   0.61432334    -2.060117    -2.060117   -1.4197672  0.048218949    -2.060117   0.64034977   418189 
 2020000   0.61436092   -2.0607492   -2.0607492   -1.4203603  0.044061438   -2.0607492   0.64038894   418189 
 2021000   0.61378578   -2.0603875   -2.0603875   -1.4205981  0.043314616   -2.0603875   0.63978943   418189 
 2022000   0.61405155   -2.0612083   -2.0612083   -1.4211419  0.041261026   -2.0612083   0.64006647   418189 
 2023000    0.6134609    -2.059976    -2.059976   -1.4205252   0.03612202    -2.059976   0.63945079   418189 
 2024000   0.61518957   -2.0620039   -2.0620039   -1.4207512  0.043598747   -2.0620039    0.6412527   418189 
 2025000   0.61569379   -2.0626637   -2.0626637   -1.4208855  0.039436608   -2.0626637   0.64177828   418189 
 2026000    0.6150188   -2.0615246   -2.0615246   -1.4204499  0.045749855   -2.0615246   0.64107469   418189 
 2027000    0.6135951   -2.0606948   -2.0606948   -1.4211041  0.045572113   -2.0606948   0.63959067   418189 
 2028000   0.61585233   -2.0629625   -2.0629625   -1.4210189  0.044164904   -2.0629625   0.64194353   418189 
 2029000   0.61572336   -2.0634521   -2.0634521    -1.421643   0.04683946   -2.0634521    0.6418091   418189 
 2030000   0.61729491    -2.063979    -2.063979   -1.4205317  0.036932261    -2.063979   0.64344723   418189 
 2031000   0.61578973   -2.0631101   -2.0631101   -1.4212318  0.043628322   -2.0631101   0.64187828   418189 
 2032000   0.61501274   -2.0632803   -2.0632803   -1.4222119  0.050592495   -2.0632803   0.64106838   418189 
 2033000   0.61435977   -2.0616747   -2.0616747   -1.4212869  0.048278043   -2.0616747   0.64038774   418189 
 2034000   0.61512972   -2.0628137   -2.0628137   -1.4216234  0.034991147   -2.0628137   0.64119031   418189 
 2035000   0.61404004    -2.062135    -2.062135   -1.4220805  0.034845211    -2.062135   0.64005447   418189 
 2036000   0.61393421   -2.0617706   -2.0617706   -1.4218264   0.05129252   -2.0617706   0.63994415   418189 
 2037000   0.61406039   -2.0625027   -2.0625027    -1.422427  0.032477713   -2.0625027   0.64007568   418189 
 2038000   0.61338051   -2.0617539   -2.0617539   -1.4223869  0.045849606   -2.0617539   0.63936699   418189 
 2039000   0.61320073    -2.062096    -2.062096   -1.4229164   0.03398539    -2.062096    0.6391796   418189 
 2040000   0.61364988    -2.062288    -2.062288   -1.4226402  0.029536735    -2.062288   0.63964777   418189 
 2041000   0.61444797   -2.0630384   -2.0630384   -1.4225587  0.045813465   -2.0630384   0.64047968   418189 
 2042000   0.61426591    -2.063101    -2.063101   -1.4228111  0.044816502    -2.063101   0.64028991   418189 
 2043000   0.61501107   -2.0632686   -2.0632686    -1.422202  0.038771533   -2.0632686   0.64106663   418189 
 2044000   0.61365435     -2.06229     -2.06229   -1.4226376  0.041975018     -2.06229   0.63965244   418189 
 2045000   0.61529679   -2.0634577   -2.0634577   -1.4220933  0.048296418   -2.0634577   0.64136446   418189 
 2046000   0.61453687   -2.0629578   -2.0629578   -1.4223855  0.045599014   -2.0629578   0.64057235   418189 
 2047000   0.61582153    -2.065178    -2.065178   -1.4232665  0.043989283    -2.065178   0.64191143   418189 
 2048000   0.61424938   -2.0626915   -2.0626915   -1.4224189  0.033700103   -2.0626915   0.64027268   418189 
 2049000   0.61453127   -2.0632758   -2.0632758   -1.4227093  0.042177776   -2.0632758   0.64056651   418189 
 2050000   0.61443409   -2.0635078   -2.0635078   -1.4230426  0.046894091   -2.0635078   0.64046521   418189 
 2051000   0.61243792    -2.062009    -2.062009   -1.4236245  0.049447113    -2.062009   0.63838447   418189 
 2052000   0.61456275    -2.063721    -2.063721   -1.4231217   0.03294716    -2.063721   0.64059932   418189 
 2053000   0.61305966    -2.062621    -2.062621   -1.4235884  0.043236096    -2.062621   0.63903256   418189 
 2054000   0.61313597   -2.0619285   -2.0619285   -1.4228164  0.036431049   -2.0619285   0.63911209   418189 
 2055000   0.61487056   -2.0636816   -2.0636816   -1.4227614  0.038852505   -2.0636816   0.64092017   418189 
 2056000   0.61392106   -2.0627258   -2.0627258   -1.4227953  0.043319174   -2.0627258   0.63993044   418189 
 2057000   0.61324367   -2.0617681   -2.0617681   -1.4225437  0.048539851   -2.0617681   0.63922436   418189 
 2058000   0.61382541   -2.0631135   -2.0631135   -1.4232827  0.044896571   -2.0631135   0.63983075   418189 
 2059000   0.61352477   -2.0627206   -2.0627206   -1.4232033  0.040896142   -2.0627206   0.63951737   418189 
 2060000   0.61371257    -2.063495    -2.063495   -1.4237818  0.040844273    -2.063495   0.63971313   418189 
 2061000   0.61316892   -2.0633128   -2.0633128   -1.4241663  0.042162013   -2.0633128   0.63914644   418189 
 2062000   0.61297887   -2.0629475   -2.0629475   -1.4239992  0.034800229   -2.0629475   0.63894834   418189 
 2063000   0.61300364   -2.0638515   -2.0638515   -1.4248773   0.03617457   -2.0638515   0.63897416   418189 
 2064000   0.61463197   -2.0649208   -2.0649208   -1.4242493  0.032632668   -2.0649208   0.64067147   418189 
 2065000   0.61337062   -2.0639424   -2.0639424   -1.4245857  0.044065365   -2.0639424   0.63935669   418189 
 2066000   0.61329927   -2.0642575   -2.0642575   -1.4249752  0.047128759   -2.0642575   0.63928231   418189 
 2067000   0.61393179   -2.0645149   -2.0645149   -1.4245732  0.044047004   -2.0645149   0.63994163   418189 
 2068000   0.61370749   -2.0645286   -2.0645286   -1.4248207  0.045214752   -2.0645286   0.63970783   418189 
 2069000    0.6145228   -2.0648684   -2.0648684   -1.4243107  0.033234106   -2.0648684   0.64055768   418189 
 2070000    0.6127544   -2.0635026   -2.0635026   -1.4247883  0.043422418   -2.0635026   0.63871436   418189 
 2071000   0.61389783   -2.0648096   -2.0648096   -1.4249034  0.049270567   -2.0648096   0.63990623   418189 
 2072000   0.61554744   -2.0657317   -2.0657317    -1.424106  0.039663967   -2.0657317   0.64162573   418189 
 2073000   0.61422502   -2.0646582   -2.0646582   -1.4244109  0.040113276   -2.0646582   0.64024728   418189 
 2074000   0.61477749   -2.0645822   -2.0645822   -1.4237591  0.050248987   -2.0645822   0.64082316   418189 
 2075000   0.61562713    -2.065853    -2.065853   -1.4241442   0.04850556    -2.065853    0.6417088   418189 
 2076000   0.61578759   -2.0660304   -2.0660304   -1.4241544  0.041314408   -2.0660304   0.64187605   418189 
 2077000   0.61572381   -2.0662388   -2.0662388   -1.4244292    0.0385249   -2.0662388   0.64180957   418189 
 2078000   0.61478738   -2.0661786   -2.0661786   -1.4253452   0.04540899   -2.0661786   0.64083347   418189 
 2079000    0.6144731   -2.0650017   -2.0650017   -1.4244959  0.036239168   -2.0650017   0.64050587   418189 
 2080000   0.61479739    -2.065708    -2.065708   -1.4248641  0.034858362    -2.065708    0.6408439   418189 
 2081000   0.61456289   -2.0656477   -2.0656477   -1.4250482  0.040574876   -2.0656477   0.64059947   418189 
 2082000    0.6132123   -2.0648887   -2.0648887    -1.425697  0.033123316   -2.0648887   0.63919166   418189 
 2083000   0.61316695   -2.0645401   -2.0645401   -1.4253957  0.041539409   -2.0645401   0.63914439   418189 
 2084000   0.61370936   -2.0652396   -2.0652396   -1.4255298  0.034887876   -2.0652396   0.63970978   418189 
 2085000   0.61378131   -2.0655669   -2.0655669   -1.4257822  0.038714365   -2.0655669   0.63978478   418189 
 2086000   0.61461752   -2.0662451   -2.0662451   -1.4255887  0.041548242   -2.0662451   0.64065641   418189 
 2087000   0.61413202   -2.0659061   -2.0659061   -1.4257558  0.039169335   -2.0659061   0.64015035   418189 
 2088000   0.61354682     -2.06542     -2.06542   -1.4258797  0.045470792     -2.06542   0.63954035   418189 
 2089000   0.61291566   -2.0646624   -2.0646624     -1.42578  0.037856505   -2.0646624   0.63888245   418189 
 2090000   0.61241819   -2.0638844   -2.0638844   -1.4255205  0.047872955   -2.0638844   0.63836391   418189 
 2091000   0.61264856   -2.0632821   -2.0632821   -1.4246781  0.050199291   -2.0632821   0.63860404   418189 
 2092000    0.6128566   -2.0637566   -2.0637566   -1.4249357  0.036609407   -2.0637566   0.63882089   418189 
 2093000   0.61325888   -2.0644215   -2.0644215   -1.4251813  0.050219687   -2.0644215   0.63924021   418189 
 2094000   0.61355755     -2.06523     -2.06523   -1.4256785  0.042049187     -2.06523   0.63955154   418189 
 2095000   0.61260003   -2.0645861   -2.0645861   -1.4260327  0.033547949   -2.0645861   0.63855345   418189 
 2096000   0.61334496   -2.0641723   -2.0641723   -1.4248423  0.045030642   -2.0641723   0.63932994   418189 
 2097000   0.61439311   -2.0657032   -2.0657032   -1.4252808  0.045404658   -2.0657032   0.64042249   418189 
 2098000   0.61420931   -2.0653689   -2.0653689    -1.425138  0.038961739   -2.0653689    0.6402309   418189 
 2099000   0.61465926   -2.0659705   -2.0659705   -1.4252706  0.048585869   -2.0659705   0.64069992   418189 
 2100000   0.61472481      -2.0654      -2.0654   -1.4246318  0.045366245      -2.0654   0.64076825   418189 
 2101000   0.61588801   -2.0662567   -2.0662567    -1.424276  0.038460978   -2.0662567   0.64198073   418189 
 2102000   0.61459208   -2.0651553   -2.0651553   -1.4245254  0.033657329   -2.0651553   0.64062989   418189 
 2103000   0.61432393   -2.0644669   -2.0644669   -1.4241165  0.045673207   -2.0644669   0.64035039   418189 
 2104000   0.61447443   -2.0649125   -2.0649125   -1.4244052  0.044507957   -2.0649125   0.64050726   418189 
 2105000   0.61373765   -2.0641249   -2.0641249   -1.4243856  0.039245578   -2.0641249   0.63973927   418189 
 2106000   0.61392761   -2.0637761   -2.0637761   -1.4238389  0.033196777   -2.0637761   0.63993728   418189 
 2107000    0.6150417   -2.0647849   -2.0647849   -1.4236863  0.038526094   -2.0647849   0.64109856   418189 
 2108000   0.61277832   -2.0632629   -2.0632629   -1.4245236  0.039504103   -2.0632629    0.6387393   418189 
 2109000   0.61350248   -2.0636659   -2.0636659   -1.4241718  0.039385162   -2.0636659   0.63949413   418189 
 2110000   0.61345436   -2.0635241   -2.0635241   -1.4240801  0.044016212   -2.0635241   0.63944398   418189 
 2111000   0.61228332   -2.0624642   -2.0624642   -1.4242408  0.041161654   -2.0624642   0.63822332   418189 
 2112000    0.6136346   -2.0639534   -2.0639534   -1.4243216  0.039941505   -2.0639534   0.63963185   418189 
 2113000    0.6128557   -2.0640208   -2.0640208   -1.4252008  0.038247386   -2.0640208   0.63881996   418189 
 2114000     0.613076   -2.0642756   -2.0642756    -1.425226  0.036693594   -2.0642756   0.63904959   418189 
 2115000   0.61347718   -2.0646032   -2.0646032   -1.4251354  0.037834162   -2.0646032   0.63946776   418189 
 2116000    0.6133053   -2.0643501   -2.0643501   -1.4250615  0.042817421   -2.0643501    0.6392886   418189 
 2117000   0.61399107   -2.0647665   -2.0647665   -1.4247631   0.05171138   -2.0647665   0.64000342   418189 
 2118000   0.61484685   -2.0662997   -2.0662997   -1.4254043  0.048459676   -2.0662997   0.64089545   418189 
 2119000   0.61503353   -2.0656914   -2.0656914   -1.4246014  0.041388077   -2.0656914   0.64109005   418189 
 2120000   0.61471529   -2.0656336   -2.0656336   -1.4248752  0.042449391   -2.0656336   0.64075833   418189 
 2121000   0.61412675    -2.066161    -2.066161   -1.4260161  0.036254401    -2.066161   0.64014485   418189 
 2122000   0.61242069   -2.0654263   -2.0654263   -1.4270598  0.036192369   -2.0654263   0.63836651   418189 
 2123000   0.61335076   -2.0672186   -2.0672186   -1.4278826  0.030062824   -2.0672186   0.63933598   418189 
 2124000   0.61239971   -2.0659541   -2.0659541   -1.4276095  0.029574308   -2.0659541   0.63834465   418189 
 2125000   0.61251492   -2.0660517   -2.0660517    -1.427587  0.040715118   -2.0660517   0.63846473   418189 
 2126000   0.61254531   -2.0660266   -2.0660266   -1.4275302  0.042774736   -2.0660266   0.63849641   418189 
 2127000   0.61364419   -2.0673467   -2.0673467   -1.4277048  0.045613898   -2.0673467   0.63964184   418189 
 2128000   0.61300039    -2.066361    -2.066361   -1.4273902  0.037813923    -2.066361   0.63897078   418189 
 2129000   0.61347138   -2.0664113   -2.0664113   -1.4269495  0.039102278   -2.0664113   0.63946172   418189 
 2130000   0.61298386   -2.0670979   -2.0670979   -1.4281443  0.040371788   -2.0670979   0.63895354   418189 
 2131000   0.61326075   -2.0672985   -2.0672985   -1.4280564  0.041232167   -2.0672985   0.63924216   418189 
 2132000   0.61368618   -2.0670523   -2.0670523   -1.4273666  0.041223961   -2.0670523   0.63968562   418189 
 2133000   0.61285136   -2.0663707   -2.0663707   -1.4275553  0.047777158   -2.0663707   0.63881542   418189 
 2134000   0.61307301   -2.0674549   -2.0674549   -1.4284085  0.030833676   -2.0674549   0.63904646   418189 
 2135000   0.61457556   -2.0689256   -2.0689256   -1.4283129  0.039631328   -2.0689256   0.64061268   418189 
 2136000    0.6132322   -2.0668733   -2.0668733   -1.4276609  0.037292567   -2.0668733    0.6392124   418189 
 2137000    0.6138353   -2.0678095   -2.0678095   -1.4279684  0.039016658   -2.0678095   0.63984105   418189 
 2138000   0.61332289   -2.0665433   -2.0665433   -1.4272364  0.043088627   -2.0665433   0.63930693   418189 
 2139000   0.61322375   -2.0661301   -2.0661301   -1.4269265  0.032037632   -2.0661301   0.63920359   418189 
 2140000   0.61368141   -2.0668077   -2.0668077    -1.427127  0.046809331   -2.0668077   0.63968064   418189 
 2141000   0.61327798   -2.0661522   -2.0661522   -1.4268921  0.050261108   -2.0661522   0.63926012   418189 
 2142000    0.6136327    -2.067045    -2.067045   -1.4274152  0.043656663    -2.067045   0.63962987   418189 
 2143000   0.61262412   -2.0664474   -2.0664474   -1.4278689  0.041330798   -2.0664474   0.63857856   418189 
 2144000   0.61368652   -2.0673694   -2.0673694   -1.4276835  0.045259267   -2.0673694   0.63968597   418189 
 2145000   0.61300041   -2.0668032   -2.0668032   -1.4278324  0.045712622   -2.0668032    0.6389708   418189 
 2146000   0.61268993   -2.0669724   -2.0669724   -1.4283253  0.042719543   -2.0669724   0.63864716   418189 
 2147000   0.61293362   -2.0665846   -2.0665846   -1.4276834  0.039342562   -2.0665846   0.63890118   418189 
 2148000   0.61283808   -2.0669448   -2.0669448   -1.4281432  0.040992614   -2.0669448   0.63880159   418189 
 2149000   0.61266809    -2.066329    -2.066329   -1.4277046  0.040205977    -2.066329    0.6386244   418189 
 2150000   0.61337435   -2.0665499   -2.0665499   -1.4271893  0.035717146   -2.0665499   0.63936057   418189 
 2151000   0.61361405   -2.0672381   -2.0672381   -1.4276277  0.036664001   -2.0672381   0.63961043   418189 
 2152000   0.61293573   -2.0667212   -2.0667212   -1.4278178  0.040272796   -2.0667212   0.63890338   418189 
 2153000   0.61484532   -2.0679936   -2.0679936   -1.4270998  0.039704833   -2.0679936   0.64089386   418189 
 2154000   0.61545452   -2.0685211   -2.0685211   -1.4269922  0.034054478   -2.0685211   0.64152887   418189 
 2155000    0.6147945   -2.0684185   -2.0684185   -1.4275776  0.040460213   -2.0684185   0.64084089   418189 
 2156000   0.61377268   -2.0677775   -2.0677775   -1.4280017  0.040600883   -2.0677775   0.63977578   418189 
 2157000   0.61227753   -2.0653397   -2.0653397   -1.4271224  0.031573753   -2.0653397   0.63821729   418189 
 2158000   0.61362773   -2.0667867   -2.0667867    -1.427162  0.041980798   -2.0667867   0.63962469   418189 
 2159000   0.61369914   -2.0667769   -2.0667769   -1.4270777  0.036596064   -2.0667769   0.63969913   418189 
 2160000   0.61403637    -2.067146    -2.067146   -1.4270953    0.0415899    -2.067146   0.64005064   418189 
 2161000   0.61446534   -2.0674624   -2.0674624   -1.4269646  0.051107499   -2.0674624   0.64049778   418189 
 2162000   0.61485225   -2.0679992   -2.0679992   -1.4270981  0.042946415   -2.0679992   0.64090108   418189 
 2163000   0.61505043   -2.0680947   -2.0680947   -1.4269871  0.054555313   -2.0680947   0.64110766   418189 
 2164000   0.61470142   -2.0679738   -2.0679738   -1.4272299  0.043103412   -2.0679738   0.64074387   418189 
 2165000   0.61377703   -2.0677112   -2.0677112   -1.4279309    0.0415992   -2.0677112   0.63978032   418189 
 2166000   0.61401359    -2.067564    -2.067564   -1.4275371  0.038523449    -2.067564   0.64002689   418189 
 2167000   0.61411983    -2.067236    -2.067236   -1.4270984  0.042381816    -2.067236   0.64013763   418189 
 2168000   0.61232516   -2.0656816   -2.0656816   -1.4274147  0.043640401   -2.0656816   0.63826693   418189 
 2169000   0.61307381    -2.066268    -2.066268   -1.4272207  0.044137232    -2.066268   0.63904731   418189 
 2170000   0.61330465   -2.0663463   -2.0663463   -1.4270584  0.049963669   -2.0663463   0.63928792   418189 
 2171000     0.612311   -2.0658264   -2.0658264   -1.4275743  0.037198157   -2.0658264   0.63825217   418189 
 2172000   0.61268795   -2.0661998   -2.0661998   -1.4275547  0.052074567   -2.0661998   0.63864509   418189 
 2173000   0.61331858   -2.0667266   -2.0667266   -1.4274242  0.040102614   -2.0667266   0.63930244   418189 
 2174000    0.6142603    -2.067403    -2.067403   -1.4271189  0.040403108    -2.067403   0.64028406   418189 
 2175000   0.61510365    -2.068052    -2.068052   -1.4268888  0.042857328    -2.068052   0.64116314   418189 
 2176000   0.61357735   -2.0672114   -2.0672114   -1.4276392  0.039820132   -2.0672114   0.63957218   418189 
 2177000   0.61284126   -2.0664895   -2.0664895   -1.4276846  0.039057893   -2.0664895    0.6388049   418189 
 2178000   0.61286437   -2.0672381   -2.0672381   -1.4284091  0.040388297   -2.0672381   0.63882899   418189 
 2179000   0.61268196   -2.0687264   -2.0687264   -1.4300875  0.029212261   -2.0687264   0.63863885   418189 
 2180000   0.61293084   -2.0679651   -2.0679651   -1.4290668  0.038889753   -2.0679651   0.63889827   418189 
 2181000    0.6129028   -2.0678637   -2.0678637   -1.4289947  0.030169079   -2.0678637   0.63886905   418189 
 2182000   0.61294141   -2.0682234   -2.0682234   -1.4293141  0.038540911   -2.0682234   0.63890929   418189 
 2183000   0.61404975   -2.0687887   -2.0687887   -1.4287241  0.040099934   -2.0687887   0.64006459   418189 
 2184000   0.61396564   -2.0682899   -2.0682899    -1.428313  0.042620616   -2.0682899   0.63997691   418189 
 2185000   0.61403895   -2.0685541   -2.0685541   -1.4285008  0.029847843   -2.0685541   0.64005334   418189 
 2186000   0.61378294   -2.0682083   -2.0682083   -1.4284218  0.034773289   -2.0682083   0.63978647   418189 
 2187000   0.61428719   -2.0685078   -2.0685078   -1.4281957  0.041788944   -2.0685078   0.64031209   418189 
 2188000   0.61326989   -2.0677525   -2.0677525   -1.4285008  0.039286606   -2.0677525   0.63925169   418189 
 2189000   0.61292491   -2.0675297   -2.0675297   -1.4286376  0.037209244   -2.0675297    0.6388921   418189 
 2190000   0.61387685   -2.0687676   -2.0687676   -1.4288833  0.044708916   -2.0687676   0.63988437   418189 
 2191000    0.6132223    -2.068209    -2.068209   -1.4290069  0.039615725    -2.068209   0.63920208   418189 
 2192000   0.61353261    -2.069299    -2.069299   -1.4297734  0.045442811    -2.069299   0.63952554   418189 
 2193000   0.61321356   -2.0678794   -2.0678794   -1.4286864  0.048385705   -2.0678794   0.63919298   418189 
 2194000   0.61438894   -2.0693616   -2.0693616   -1.4289434   0.03182739   -2.0693616   0.64041815   418189 
 2195000   0.61338438   -2.0693229   -2.0693229   -1.4299519   0.04356837   -2.0693229   0.63937103   418189 
 2196000   0.61362875   -2.0699082   -2.0699082   -1.4302824  0.035509762   -2.0699082   0.63962575   418189 
 2197000   0.61425106   -2.0710572   -2.0710572   -1.4307827  0.045954527   -2.0710572   0.64027443   418189 
 2198000   0.61331789   -2.0705454   -2.0705454   -1.4312437  0.035681907   -2.0705454   0.63930172   418189 
 2199000   0.61299871   -2.0693125   -2.0693125   -1.4303435  0.045908001   -2.0693125   0.63896902   418189 
 2200000   0.61377898   -2.0700797   -2.0700797   -1.4302974  0.039133838   -2.0700797   0.63978235   418189 
 2201000   0.61358603   -2.0703242   -2.0703242   -1.4307429  0.044519103   -2.0703242   0.63958122   418189 
 2202000   0.61350336   -2.0704127   -2.0704127   -1.4309177  0.034233294   -2.0704127   0.63949505   418189 
 2203000   0.61239302   -2.0689301   -2.0689301   -1.4305924  0.041513341   -2.0689301   0.63833767   418189 
 2204000   0.61202989   -2.0679639   -2.0679639   -1.4300047  0.044037245   -2.0679639   0.63795915   418189 
 2205000   0.61285674   -2.0689881   -2.0689881   -1.4301671  0.042440165   -2.0689881   0.63882104   418189 
 2206000   0.61373281   -2.0691987   -2.0691987   -1.4294645  0.043293364   -2.0691987   0.63973422   418189 
 2207000   0.61373412   -2.0690382   -2.0690382   -1.4293026  0.043373586   -2.0690382   0.63973559   418189 
 2208000   0.61338981    -2.068734    -2.068734   -1.4293574  0.047153798    -2.068734   0.63937669   418189 
 2209000   0.61301822   -2.0682047   -2.0682047   -1.4292154  0.032401829   -2.0682047   0.63898935   418189 
 2210000   0.61350011   -2.0690911   -2.0690911   -1.4295994  0.044905304   -2.0690911   0.63949166   418189 
 2211000    0.6124566   -2.0683589   -2.0683589    -1.429955  0.042489021   -2.0683589   0.63840394   418189 
 2212000   0.61305989    -2.069505    -2.069505   -1.4304722  0.035603691    -2.069505    0.6390328   418189 
 2213000   0.61229876   -2.0689231   -2.0689231   -1.4306837   0.03723144   -2.0689231   0.63823942   418189 
 2214000   0.61196936   -2.0679832   -2.0679832   -1.4300871   0.03261672   -2.0679832   0.63789607   418189 
 2215000   0.61259845   -2.0692701   -2.0692701   -1.4307183  0.034431679   -2.0692701    0.6385518   418189 
 2216000   0.61304765   -2.0702329   -2.0702329   -1.4312129  0.053100346   -2.0702329   0.63902003   418189 
 2217000   0.61233332   -2.0685587   -2.0685587   -1.4302832  0.037945676   -2.0685587   0.63827544   418189 
 2218000   0.61535822   -2.0723464   -2.0723464   -1.4309179  0.042328399   -2.0723464    0.6414285   418189 
 2219000   0.61405327   -2.0710743   -2.0710743    -1.431006  0.041757453   -2.0710743   0.64006825   418189 
 2220000   0.61520043   -2.0726587   -2.0726587   -1.4313947  0.040462362   -2.0726587   0.64126402   418189 
 2221000   0.61359221   -2.0704211   -2.0704211   -1.4308335  0.041597563   -2.0704211   0.63958766   418189 
 2222000   0.61389977   -2.0715249   -2.0715249   -1.4316166  0.037840376   -2.0715249   0.63990826   418189 
 2223000   0.61481983   -2.0731005   -2.0731005   -1.4322332  0.035158162   -2.0731005   0.64086729   418189 
 2224000   0.61338341   -2.0722345   -2.0722345   -1.4328645  0.037264388   -2.0722345   0.63937002   418189 
 2225000   0.61378866    -2.072409    -2.072409   -1.4326165  0.036225035    -2.072409   0.63979244   418189 
 2226000   0.61199594   -2.0708793   -2.0708793   -1.4329555  0.039583618   -2.0708793   0.63792376   418189 
 2227000   0.61302095   -2.0718172   -2.0718172    -1.432825  0.038619557   -2.0718172    0.6389922   418189 
 2228000   0.61228251   -2.0708266   -2.0708266   -1.4326041  0.041689603   -2.0708266   0.63822248   418189 
 2229000   0.61377515   -2.0722218   -2.0722218   -1.4324435  0.039014816   -2.0722218   0.63977835   418189 
 2230000   0.61258253   -2.0708385   -2.0708385   -1.4323033  0.030431218   -2.0708385   0.63853521   418189 
 2231000   0.61321755   -2.0715462   -2.0715462   -1.4323491  0.034867703   -2.0715462   0.63919713   418189 
 2232000   0.61105569    -2.070542    -2.070542   -1.4335983  0.041542791    -2.070542   0.63694368   418189 
 2233000   0.61217095   -2.0719804   -2.0719804   -1.4338742  0.041439326   -2.0719804   0.63810619   418189 
 2234000   0.61166201   -2.0711941   -2.0711941   -1.4336184  0.034526291   -2.0711941   0.63757569   418189 
 2235000   0.61119733   -2.0706304   -2.0706304    -1.433539  0.040510996   -2.0706304   0.63709132   418189 
 2236000   0.61251622   -2.0716749   -2.0716749   -1.4332088  0.037974685   -2.0716749   0.63846609   418189 
 2237000   0.61262205   -2.0721183   -2.0721183   -1.4335419  0.041416926   -2.0721183    0.6385764   418189 
 2238000   0.61301506    -2.072125    -2.072125   -1.4331389  0.037562536    -2.072125   0.63898606   418189 
 2239000   0.61341787   -2.0722009   -2.0722009    -1.432795  0.042023574   -2.0722009   0.63940594   418189 
 2240000   0.61334604   -2.0725486   -2.0725486   -1.4332175  0.036101583   -2.0725486   0.63933107   418189 
 2241000   0.61294605   -2.0717615   -2.0717615   -1.4328474  0.041531544   -2.0717615   0.63891413   418189 
 2242000   0.61372316    -2.072881    -2.072881   -1.4331569  0.037427264    -2.072881   0.63972416   418189 
 2243000   0.61470123    -2.073715    -2.073715   -1.4329713  0.045887714    -2.073715   0.64074367   418189 
 2244000   0.61442288   -2.0735957   -2.0735957   -1.4331422  0.046761247   -2.0735957   0.64045353   418189 
 2245000   0.61413359   -2.0729586   -2.0729586   -1.4328066  0.045058106   -2.0729586   0.64015198   418189 
 2246000   0.61446882   -2.0735911   -2.0735911   -1.4330897  0.047887967   -2.0735911   0.64050141   418189 
 2247000   0.61356715   -2.0729648   -2.0729648   -1.4334032  0.040042492   -2.0729648   0.63956154   418189 
 2248000   0.61405954   -2.0730927   -2.0730927   -1.4330179  0.039795977   -2.0730927    0.6400748   418189 
 2249000   0.61329308   -2.0725388   -2.0725388   -1.4332629  0.037565496   -2.0725388   0.63927586   418189 
 2250000   0.61427621   -2.0724119   -2.0724119   -1.4321113  0.040130591   -2.0724119   0.64030064   418189 
 2251000   0.61373451   -2.0725796   -2.0725796   -1.4328436  0.041393895   -2.0725796     0.639736   418189 
 2252000   0.61338778   -2.0725764   -2.0725764   -1.4332018  0.040811869   -2.0725764   0.63937457   418189 
 2253000   0.61178513   -2.0710849   -2.0710849   -1.4333808  0.033447756   -2.0710849   0.63770403   418189 
 2254000   0.61335268    -2.072989    -2.072989    -1.433651  0.041402619    -2.072989   0.63933799   418189 
 2255000   0.61225712    -2.071958    -2.071958    -1.433762  0.037659462    -2.071958   0.63819602   418189 
 2256000   0.61101961   -2.0710242   -2.0710242   -1.4341181  0.036018682   -2.0710242   0.63690608   418189 
 2257000   0.61106895    -2.070852    -2.070852   -1.4338945  0.034654237    -2.070852    0.6369575   418189 
 2258000   0.61258602   -2.0720261   -2.0720261   -1.4334872  0.043483544   -2.0720261   0.63853885   418189 
 2259000   0.61412325    -2.073647    -2.073647   -1.4335058  0.041820466    -2.073647    0.6401412   418189 
 2260000   0.61282977   -2.0721772   -2.0721772   -1.4333842  0.044769142   -2.0721772   0.63879292   418189 
 2261000   0.61426538   -2.0733145   -2.0733145   -1.4330252  0.043167952   -2.0733145   0.64028936   418189 
 2262000   0.61226152   -2.0711333   -2.0711333   -1.4329327  0.040826695   -2.0711333    0.6382006   418189 
 2263000   0.61396853   -2.0731289   -2.0731289    -1.433149  0.036823825   -2.0731289   0.63997993   418189 
 2264000   0.61359712   -2.0733057   -2.0733057   -1.4337129  0.046567566   -2.0733057   0.63959279   418189 
 2265000   0.61413606   -2.0738186   -2.0738186   -1.4336641  0.045690992   -2.0738186   0.64015455   418189 
 2266000    0.6127862   -2.0726125   -2.0726125    -1.433865  0.047496588   -2.0726125    0.6387475   418189 
 2267000   0.61278554   -2.0729301   -2.0729301   -1.4341833  0.030020742   -2.0729301   0.63874682   418189 
 2268000    0.6124241   -2.0720797   -2.0720797   -1.4337097  0.038878816   -2.0720797   0.63837007   418189 
 2269000   0.61262249   -2.0722441   -2.0722441   -1.4336672  0.049716839   -2.0722441   0.63857687   418189 
 2270000   0.61219314   -2.0725361   -2.0725361   -1.4344068  0.036860823   -2.0725361   0.63812932   418189 
 2271000   0.61245919   -2.0732502   -2.0732502   -1.4348435  0.040758193   -2.0732502   0.63840664   418189 
 2272000   0.61160611   -2.0719856   -2.0719856   -1.4344682  0.040136511   -2.0719856   0.63751742   418189 
 2273000   0.61089297   -2.0714082   -2.0714082   -1.4346341  0.041604905   -2.0714082   0.63677407   418189 
 2274000   0.61216342   -2.0725563   -2.0725563   -1.4344579  0.025370133   -2.0725563   0.63809835   418189 
 2275000   0.61156379   -2.0723842   -2.0723842   -1.4349109  0.045761134   -2.0723842    0.6374733   418189 
 2276000   0.61265864    -2.072876    -2.072876   -1.4342615  0.045020859    -2.072876   0.63861454   418189 
 2277000   0.61226427   -2.0728998   -2.0728998   -1.4346963  0.041753276   -2.0728998   0.63820346   418189 
 2278000   0.61302113   -2.0738958   -2.0738958   -1.4349034  0.047308366   -2.0738958   0.63899239   418189 
 2279000   0.61310975   -2.0730409   -2.0730409   -1.4339561  0.041636956   -2.0730409   0.63908476   418189 
 2280000   0.61290932   -2.0726955   -2.0726955   -1.4338197  0.045683172   -2.0726955   0.63887584   418189 
 2281000   0.61431782   -2.0742171   -2.0742171   -1.4338731  0.037918813   -2.0742171   0.64034402   418189 
 2282000   0.61378079   -2.0746003   -2.0746003    -1.434816  0.040589259   -2.0746003   0.63978423   418189 
 2283000   0.61221338   -2.0744188   -2.0744188   -1.4362683  0.029373198   -2.0744188   0.63815042   418189 
 2284000   0.61273467    -2.074512    -2.074512   -1.4358182  0.036747482    -2.074512   0.63869379   418189 
 2285000   0.61206597   -2.0736384   -2.0736384   -1.4356416  0.043920363   -2.0736384   0.63799676   418189 
 2286000   0.61190382   -2.0737648   -2.0737648   -1.4359371  0.043700282   -2.0737648   0.63782774   418189 
 2287000   0.61231344   -2.0744686   -2.0744686   -1.4362139  0.041441526   -2.0744686   0.63825472   418189 
 2288000   0.61095273   -2.0730931   -2.0730931   -1.4362568  0.041927668   -2.0730931   0.63683636   418189 
 2289000   0.61228832   -2.0745271   -2.0745271   -1.4362985   0.02792865   -2.0745271   0.63822854   418189 
 2290000   0.61285921   -2.0750161   -2.0750161   -1.4361925  0.035870476   -2.0750161   0.63882361   418189 
 2291000   0.61281257   -2.0738736   -2.0738736   -1.4350986  0.039580696   -2.0738736     0.638775   418189 
 2292000   0.61248107    -2.073949    -2.073949   -1.4355195  0.033007536    -2.073949   0.63842945   418189 
 2293000   0.61288696   -2.0743572   -2.0743572   -1.4355047  0.039119884   -2.0743572   0.63885253   418189 
 2294000   0.61390109   -2.0753569   -2.0753569   -1.4354473  0.037397932   -2.0753569   0.63990963   418189 
 2295000    0.6131277   -2.0747136   -2.0747136   -1.4356101  0.035817686   -2.0747136   0.63910347   418189 
 2296000   0.61330514   -2.0747275   -2.0747275   -1.4354391   0.04287998   -2.0747275   0.63928843   418189 
 2297000   0.61397387   -2.0762334   -2.0762334   -1.4362479  0.037407495   -2.0762334   0.63998549   418189 
 2298000   0.61248928   -2.0749449   -2.0749449   -1.4365069   0.04266826   -2.0749449   0.63843801   418189 
 2299000   0.61264392   -2.0752471   -2.0752471   -1.4366479  0.039674219   -2.0752471    0.6385992   418189 
 2300000   0.61334267   -2.0760774   -2.0760774   -1.4367499  0.040609043   -2.0760774   0.63932755   418189 
 2301000   0.61345139   -2.0761316   -2.0761316   -1.4366907  0.039297875   -2.0761316   0.63944088   418189 
 2302000   0.61237747   -2.0749967   -2.0749967   -1.4366752  0.037062329   -2.0749967   0.63832146   418189 
 2303000   0.61211826   -2.0748487   -2.0748487   -1.4367974  0.045507467   -2.0748487   0.63805127   418189 
 2304000   0.61233204   -2.0759047   -2.0759047   -1.4376306  0.041821392   -2.0759047    0.6382741   418189 
 2305000   0.61246098    -2.075907    -2.075907   -1.4374985  0.044737967    -2.075907    0.6384085   418189 
 2306000   0.61233996   -2.0755923   -2.0755923     -1.43731  0.040954095   -2.0755923   0.63828236   418189 
 2307000   0.61227867   -2.0762201   -2.0762201   -1.4380016  0.034513601   -2.0762201   0.63821847   418189 
 2308000    0.6119871   -2.0752354   -2.0752354   -1.4373208  0.040697901   -2.0752354   0.63791455   418189 
 2309000   0.61330819   -2.0768328   -2.0768328   -1.4375411  0.038622459   -2.0768328   0.63929161   418189 
 2310000   0.61222915   -2.0754267   -2.0754267   -1.4372599  0.047014481   -2.0754267   0.63816686   418189 
 2311000   0.61177221   -2.0749673   -2.0749673   -1.4372768  0.047759856   -2.0749673   0.63769056   418189 
 2312000   0.61204387   -2.0750705   -2.0750705   -1.4370968  0.041847808   -2.0750705   0.63797373   418189 
 2313000   0.61295581   -2.0760717   -2.0760717   -1.4371474  0.033399032   -2.0760717   0.63892431   418189 
 2314000   0.61127568   -2.0747426   -2.0747426   -1.4375696  0.042793655   -2.0747426     0.637173   418189 
 2315000   0.61210211   -2.0757074   -2.0757074    -1.437673  0.045041997   -2.0757074   0.63803443   418189 
 2316000   0.61107239   -2.0755794   -2.0755794   -1.4386183  0.040398787   -2.0755794   0.63696109   418189 
 2317000   0.61230967   -2.0767203   -2.0767203   -1.4384695   0.03618741   -2.0767203   0.63825079   418189 
 2318000   0.61175824   -2.0763638   -2.0763638   -1.4386878  0.044265796   -2.0763638   0.63767599   418189 
 2319000   0.61197133   -2.0772317   -2.0772317   -1.4393336  0.037697831   -2.0772317   0.63789811   418189 
 2320000    0.6107717   -2.0761386   -2.0761386   -1.4394909   0.04338551   -2.0761386   0.63664766   418189 
 2321000   0.61200377   -2.0769793   -2.0769793   -1.4390474  0.040686728   -2.0769793   0.63793193   418189 
 2322000   0.61203309   -2.0775883   -2.0775883   -1.4396259  0.043607185   -2.0775883   0.63796249   418189 
 2323000   0.61206935   -2.0775717   -2.0775717   -1.4395714  0.041727869   -2.0775717   0.63800029   418189 
 2324000   0.61073352    -2.076198    -2.076198   -1.4395902  0.036587966    -2.076198   0.63660787   418189 
 2325000   0.61099914   -2.0766271   -2.0766271   -1.4397423   0.03398217   -2.0766271   0.63688473   418189 
 2326000   0.61169856   -2.0770883   -2.0770883   -1.4394745  0.046162254   -2.0770883   0.63761379   418189 
 2327000   0.61218478   -2.0768639   -2.0768639   -1.4387433  0.037258594   -2.0768639   0.63812061   418189 
 2328000   0.61215193   -2.0771783   -2.0771783   -1.4390919  0.038826747   -2.0771783   0.63808637   418189 
 2329000   0.61256113   -2.0776725   -2.0776725   -1.4391596  0.039920865   -2.0776725    0.6385129   418189 
 2330000   0.61134157   -2.0766406   -2.0766406   -1.4393989  0.038800513   -2.0766406   0.63724167   418189 
 2331000   0.61044444   -2.0760501   -2.0760501   -1.4397436  0.032177117   -2.0760501   0.63630654   418189 
 2332000   0.61181426   -2.0775989   -2.0775989   -1.4398645  0.031858626   -2.0775989   0.63773439   418189 
 2333000   0.61240448    -2.077921    -2.077921   -1.4395714  0.043747962    -2.077921   0.63834962   418189 
 2334000    0.6126028   -2.0777967   -2.0777967   -1.4392403  0.039040678   -2.0777967   0.63855634   418189 
 2335000   0.61187208   -2.0778219   -2.0778219   -1.4400273  0.039657592   -2.0778219   0.63779466   418189 
 2336000   0.61199121   -2.0778307   -2.0778307   -1.4399118  0.036272386   -2.0778307   0.63791884   418189 
 2337000   0.61231687   -2.0778282   -2.0778282   -1.4395699  0.038192465   -2.0778282    0.6382583   418189 
 2338000   0.61294169   -2.0781129   -2.0781129   -1.4392033  0.043286645   -2.0781129   0.63890958   418189 
 2339000   0.61329554   -2.0789926   -2.0789926   -1.4397142  0.046862059   -2.0789926   0.63927843   418189 
 2340000   0.61356879   -2.0791101   -2.0791101   -1.4395469  0.045795504   -2.0791101   0.63956325   418189 
 2341000   0.61142832   -2.0781464   -2.0781464   -1.4408143  0.036980377   -2.0781464    0.6373321   418189 
 2342000   0.61239932   -2.0786701   -2.0786701   -1.4403259  0.032703947   -2.0786701   0.63834424   418189 
 2343000    0.6122481   -2.0776126   -2.0776126    -1.439426  0.038209859   -2.0776126   0.63818661   418189 
 2344000   0.61225882   -2.0778184   -2.0778184   -1.4396206  0.041207229   -2.0778184   0.63819778   418189 
 2345000    0.6102534   -2.0764009   -2.0764009   -1.4402935  0.050816612   -2.0764009   0.63610741   418189 
 2346000   0.61214438   -2.0777662   -2.0777662   -1.4396877  0.038184844   -2.0777662    0.6380785   418189 
 2347000   0.61105045   -2.0765931   -2.0765931   -1.4396549  0.039114507   -2.0765931   0.63693822   418189 
 2348000   0.61187159   -2.0770682   -2.0770682   -1.4392741  0.035318916   -2.0770682   0.63779415   418189 
 2349000   0.60982585   -2.0748052   -2.0748052   -1.4391435  0.043849713   -2.0748052   0.63566174   418189 
 2350000   0.61048071   -2.0760308   -2.0760308   -1.4396864   0.03499085   -2.0760308   0.63634435   418189 
 2351000   0.61194978   -2.0771862   -2.0771862   -1.4393105  0.038340484   -2.0771862   0.63787565   418189 
 2352000   0.61159222   -2.0767441   -2.0767441   -1.4392412  0.040831052   -2.0767441   0.63750294   418189 
 2353000    0.6114525   -2.0766043   -2.0766043    -1.439247  0.043982674   -2.0766043    0.6373573   418189 
 2354000    0.6113956   -2.0765755   -2.0765755   -1.4392775   0.03977324   -2.0765755   0.63729799   418189 
 2355000   0.61150441    -2.078163    -2.078163   -1.4407516  0.035200645    -2.078163   0.63741142   418189 
 2356000   0.61135564   -2.0770179   -2.0770179   -1.4397616  0.037980395   -2.0770179   0.63725634   418189 
 2357000    0.6122329   -2.0772567   -2.0772567    -1.439086  0.037289669   -2.0772567   0.63817076   418189 
 2358000   0.61157513    -2.077295    -2.077295   -1.4398099  0.045860183    -2.077295   0.63748513   418189 
 2359000   0.61268858   -2.0783973   -2.0783973   -1.4397516  0.044565978   -2.0783973   0.63864576   418189 
 2360000   0.61214278    -2.077957    -2.077957   -1.4398801  0.039731537    -2.077957   0.63807683   418189 
 2361000    0.6121588   -2.0782883   -2.0782883   -1.4401948  0.034885722   -2.0782883   0.63809353   418189 
 2362000   0.61196951   -2.0776226   -2.0776226   -1.4397264  0.037188633   -2.0776226   0.63789622   418189 
 2363000    0.6117202   -2.0776873   -2.0776873    -1.440051  0.042057879   -2.0776873   0.63763635   418189 
 2364000   0.61216903   -2.0780196   -2.0780196   -1.4399154  0.043729919   -2.0780196   0.63810419   418189 
 2365000   0.61053048   -2.0769782   -2.0769782    -1.440582  0.034044542   -2.0769782   0.63639623   418189 
 2366000   0.61252147   -2.0790474   -2.0790474   -1.4405758  0.034918228   -2.0790474   0.63847156   418189 
 2367000    0.6126766   -2.0795776   -2.0795776   -1.4409444  0.041189593   -2.0795776   0.63863326   418189 
 2368000   0.61250218   -2.0789021   -2.0789021   -1.4404507  0.034643524   -2.0789021   0.63845145   418189 
 2369000   0.61336854   -2.0804624   -2.0804624   -1.4411079  0.044787509   -2.0804624   0.63935452   418189 
 2370000    0.6124439   -2.0794328   -2.0794328   -1.4410421  0.043765628   -2.0794328   0.63839071   418189 
 2371000   0.61331722   -2.0803516   -2.0803516   -1.4410506  0.047791045   -2.0803516   0.63930102   418189 
 2372000   0.61320344   -2.0795648   -2.0795648   -1.4403824  0.036349411   -2.0795648   0.63918242   418189 
 2373000   0.61294873   -2.0800978   -2.0800978   -1.4411808  0.043502446   -2.0800978   0.63891693   418189 
 2374000    0.6126862   -2.0797395   -2.0797395   -1.4410962  0.045250656   -2.0797395   0.63864327   418189 
 2375000   0.61091428   -2.0783642   -2.0783642   -1.4415679  0.041016069   -2.0783642   0.63679628   418189 
 2376000   0.61080644   -2.0780976   -2.0780976   -1.4414137  0.044189129   -2.0780976   0.63668388   418189 
 2377000   0.61168359   -2.0784579   -2.0784579   -1.4408597  0.041028708   -2.0784579   0.63759818   418189 
 2378000   0.61131694   -2.0788981   -2.0788981   -1.4416821  0.039060933   -2.0788981     0.637216   418189 
 2379000   0.61014589   -2.0778202   -2.0778202   -1.4418249  0.040486726   -2.0778202   0.63599534   418189 
 2380000   0.61057762   -2.0780974   -2.0780974   -1.4416521  0.039623795   -2.0780974   0.63644536   418189 
 2381000   0.61111984   -2.0785237   -2.0785237   -1.4415131  0.035182594   -2.0785237   0.63701055   418189 
 2382000   0.61198338   -2.0787545   -2.0787545   -1.4408438  0.036550465   -2.0787545   0.63791068   418189 
 2383000    0.6111731   -2.0784639   -2.0784639   -1.4413979  0.047763442   -2.0784639   0.63706607   418189 
 2384000    0.6130022   -2.0795939   -2.0795939   -1.4406212  0.038409997   -2.0795939   0.63897266   418189 
 2385000   0.61236588   -2.0789714   -2.0789714    -1.440662  0.041988918   -2.0789714   0.63830938   418189 
 2386000   0.61112524   -2.0778874   -2.0778874   -1.4408713  0.033988419   -2.0778874   0.63701618   418189 
 2387000   0.61250498   -2.0780598   -2.0780598   -1.4396054  0.041543604   -2.0780598   0.63845437   418189 
 2388000   0.61325416   -2.0794877   -2.0794877   -1.4402524  0.039967302   -2.0794877   0.63923529   418189 
 2389000    0.6121366   -2.0793414   -2.0793414    -1.441271  0.039688599   -2.0793414   0.63807039   418189 
 2390000   0.61374656   -2.0794572   -2.0794572   -1.4397087  0.030397397   -2.0794572   0.63974855   418189 
 2391000   0.61262466   -2.0781851   -2.0781851   -1.4396059  0.036210557   -2.0781851   0.63857913   418189 
 2392000   0.61191401   -2.0782647   -2.0782647   -1.4404264  0.034957123   -2.0782647   0.63783837   418189 
 2393000   0.61028283   -2.0766796   -2.0766796   -1.4405416  0.033639199   -2.0766796   0.63613808   418189 
 2394000   0.61059422   -2.0768508   -2.0768508   -1.4403882  0.039470032   -2.0768508   0.63646266   418189 
 2395000   0.61111488   -2.0784081   -2.0784081   -1.4414027  0.035534506   -2.0784081   0.63700538   418189 
 2396000   0.61152847    -2.078889    -2.078889   -1.4414525  0.040174051    -2.078889   0.63743649   418189 
 2397000   0.61263813   -2.0798679   -2.0798679   -1.4412747  0.035367708   -2.0798679   0.63859317   418189 
 2398000   0.61145819    -2.078742    -2.078742   -1.4413788  0.037352406    -2.078742   0.63736323   418189 
 2399000   0.61132816    -2.078635    -2.078635   -1.4414073  0.044674637    -2.078635   0.63722769   418189 
 2400000   0.61197353   -2.0799175   -2.0799175   -1.4420171   0.04003228   -2.0799175   0.63790041   418189 
 2401000   0.61147451    -2.079838    -2.079838   -1.4424577  0.044405143    -2.079838   0.63738024   418189 
 2402000    0.6128568   -2.0814676   -2.0814676   -1.4426465  0.039989443   -2.0814676    0.6388211   418189 
 2403000   0.61225854   -2.0809435   -2.0809435    -1.442746  0.047281264   -2.0809435   0.63819749   418189 
 2404000   0.61162274   -2.0798303   -2.0798303   -1.4422955  0.044398248   -2.0798303   0.63753476   418189 
 2405000   0.61180038   -2.0800782   -2.0800782   -1.4423582  0.041948679   -2.0800782   0.63771992   418189 
 2406000   0.60941452   -2.0780999   -2.0780999    -1.442867  0.043180845   -2.0780999   0.63523298   418189 
 2407000   0.61038626   -2.0795621   -2.0795621   -1.4433162  0.035576198   -2.0795621   0.63624589   418189 
 2408000    0.6105745   -2.0793201   -2.0793201    -1.442878  0.042464228   -2.0793201   0.63644211   418189 
 2409000    0.6105762   -2.0794535   -2.0794535   -1.4430096  0.040552587   -2.0794535   0.63644388   418189 
 2410000   0.61156101   -2.0801943   -2.0801943   -1.4427239  0.034657099   -2.0801943   0.63747041   418189 
 2411000    0.6107596   -2.0793056   -2.0793056   -1.4426706  0.045436632   -2.0793056   0.63663505   418189 
 2412000   0.61199525   -2.0798083   -2.0798083   -1.4418853  0.037887216   -2.0798083   0.63792304   418189 
 2413000   0.61253151   -2.0805477   -2.0805477   -1.4420657  0.039381472   -2.0805477   0.63848202   418189 
 2414000    0.6121964   -2.0806638   -2.0806638   -1.4425311  0.041127865   -2.0806638   0.63813272   418189 
 2415000   0.61185907   -2.0798677   -2.0798677   -1.4420866  0.034751465   -2.0798677    0.6377811   418189 
 2416000   0.61182311   -2.0801977   -2.0801977   -1.4424541  0.041115399   -2.0801977   0.63774362   418189 
 2417000   0.61132564   -2.0805189   -2.0805189   -1.4432938  0.036204898   -2.0805189   0.63722507   418189 
 2418000    0.6100993   -2.0794466   -2.0794466   -1.4434999  0.051747171   -2.0794466   0.63594677   418189 
 2419000   0.61062224    -2.079187    -2.079187   -1.4426951  0.048815905    -2.079187   0.63649187   418189 
 2420000   0.61043355   -2.0796045   -2.0796045   -1.4433093  0.040687682   -2.0796045   0.63629518   418189 
 2421000   0.61173014   -2.0806001   -2.0806001   -1.4429533  0.049804482   -2.0806001   0.63764671   418189 
 2422000   0.60973481   -2.0788582   -2.0788582   -1.4432914  0.043989796   -2.0788582   0.63556684   418189 
 2423000   0.60980419   -2.0793194   -2.0793194   -1.4436803  0.037358066   -2.0793194   0.63563916   418189 
 2424000   0.60945169   -2.0796626   -2.0796626   -1.4443908  0.037888453   -2.0796626   0.63527172   418189 
 2425000   0.61161316   -2.0803222   -2.0803222   -1.4427975  0.041460761   -2.0803222   0.63752477   418189 
 2426000   0.61144534   -2.0804199   -2.0804199     -1.44307  0.040057889   -2.0804199   0.63734984   418189 
 2427000   0.61071938   -2.0793311   -2.0793311   -1.4427379  0.035502884   -2.0793311   0.63659313   418189 
 2428000   0.61095829   -2.0804177   -2.0804177   -1.4435756  0.041378997   -2.0804177   0.63684215   418189 
 2429000   0.61155546   -2.0801199   -2.0801199   -1.4426553  0.043458768   -2.0801199   0.63746463   418189 
 2430000   0.61204203   -2.0800281   -2.0800281   -1.4420563  0.034633423   -2.0800281   0.63797181   418189 
 2431000   0.61357822   -2.0819233   -2.0819233   -1.4423502  0.036066436   -2.0819233   0.63957308   418189 
 2432000    0.6130583     -2.08227     -2.08227   -1.4432389  0.038649365     -2.08227   0.63903113   418189 
 2433000   0.61183771   -2.0807177   -2.0807177   -1.4429588  0.048025101   -2.0807177   0.63775883   418189 
 2434000   0.61254416   -2.0813491   -2.0813491   -1.4428539  0.044836861   -2.0813491   0.63849521   418189 
 2435000   0.61282264   -2.0818737   -2.0818737   -1.4430882  0.042359179   -2.0818737   0.63878549   418189 
 2436000   0.61256803   -2.0814993   -2.0814993   -1.4429792  0.046763767   -2.0814993   0.63852009   418189 
 2437000   0.61261335   -2.0818962   -2.0818962   -1.4433289  0.048803121   -2.0818962   0.63856734   418189 
 2438000   0.61122027   -2.0808437   -2.0808437   -1.4437284   0.03448432   -2.0808437   0.63711524   418189 
 2439000   0.61148187   -2.0808232   -2.0808232   -1.4434352  0.041004985   -2.0808232   0.63738792   418189 
 2440000    0.6092684   -2.0789552   -2.0789552   -1.4438745  0.047942073   -2.0789552   0.63508067   418189 
 2441000   0.61093762    -2.080264    -2.080264   -1.4434434  0.038715035    -2.080264   0.63682061   418189 
 2442000    0.6110432   -2.0802098   -2.0802098   -1.4432791  0.038781385   -2.0802098   0.63693067   418189 
 2443000   0.61000314   -2.0792876   -2.0792876   -1.4434411  0.037923964   -2.0792876   0.63584654   418189 
 2444000   0.61048987   -2.0799285   -2.0799285   -1.4435746  0.035511842   -2.0799285   0.63635389   418189 
 2445000   0.61025651   -2.0785034   -2.0785034   -1.4423928  0.044294444   -2.0785034   0.63611065   418189 
 2446000   0.61097842   -2.0792984   -2.0792984   -1.4424353  0.038051299   -2.0792984   0.63686314   418189 
 2447000   0.61107778   -2.0791882   -2.0791882   -1.4422214  0.046885872   -2.0791882    0.6369667   418189 
 2448000   0.61153867   -2.0789977   -2.0789977   -1.4415505  0.038126185   -2.0789977   0.63744713   418189 
 2449000   0.61155622   -2.0799208   -2.0799208   -1.4424554  0.032494002   -2.0799208   0.63746542   418189 
 2450000   0.61213132   -2.0808209   -2.0808209    -1.442756  0.042205462   -2.0808209   0.63806489   418189 
 2451000   0.61174074   -2.0805563   -2.0805563   -1.4428985  0.041839449   -2.0805563   0.63765775   418189 
 2452000   0.61120369   -2.0799611   -2.0799611   -1.4428632  0.041574103   -2.0799611   0.63709795   418189 
 2453000   0.61182918   -2.0804741   -2.0804741   -1.4427241  0.040886824   -2.0804741   0.63774994   418189 
 2454000   0.61129564   -2.0805624   -2.0805624   -1.4433686  0.042644098   -2.0805624    0.6371938   418189 
 2455000    0.6114205   -2.0798602   -2.0798602   -1.4425363  0.037679665   -2.0798602   0.63732395   418189 
 2456000   0.61105774   -2.0803015   -2.0803015   -1.4433557  0.040186346   -2.0803015   0.63694581   418189 
 2457000    0.6108588    -2.080034    -2.080034   -1.4432956  0.039512483    -2.080034   0.63673845   418189 
 2458000   0.61208074    -2.081952    -2.081952   -1.4439399  0.036350564    -2.081952   0.63801216   418189 
 2459000    0.6107281   -2.0801604   -2.0801604   -1.4435582  0.033809993   -2.0801604   0.63660221   418189 
 2460000   0.61029413   -2.0803796   -2.0803796   -1.4442297  0.030708142   -2.0803796   0.63614986   418189 
 2461000   0.61071475   -2.0816477   -2.0816477   -1.4450594  0.041876145   -2.0816477    0.6365883   418189 
 2462000   0.61107594   -2.0821684   -2.0821684   -1.4452036  0.042962388   -2.0821684   0.63696479   418189 
 2463000   0.61139707    -2.082074    -2.082074   -1.4447744  0.044129932    -2.082074   0.63729953   418189 
 2464000   0.61118525   -2.0822797   -2.0822797    -1.445201  0.053926812   -2.0822797   0.63707873   418189 
 2465000   0.61228838   -2.0837146   -2.0837146    -1.445486  0.037886345   -2.0837146   0.63822859   418189 
 2466000   0.61180783   -2.0829086   -2.0829086   -1.4451809  0.036977544   -2.0829086   0.63772769   418189 
 2467000   0.61160882   -2.0826017   -2.0826017   -1.4450815  0.042960071   -2.0826017   0.63752025   418189 
 2468000   0.61194805   -2.0826843   -2.0826843   -1.4448104  0.040765417   -2.0826843   0.63787385   418189 
 2469000   0.61227463   -2.0834476   -2.0834476   -1.4452333  0.040026436   -2.0834476   0.63821427   418189 
 2470000   0.61188865   -2.0833626   -2.0833626   -1.4455507  0.040753314   -2.0833626   0.63781194   418189 
 2471000   0.61016035   -2.0824735   -2.0824735   -1.4464631  0.047011814   -2.0824735   0.63601042   418189 
 2472000   0.61016307   -2.0817406   -2.0817406   -1.4457273  0.034563657   -2.0817406   0.63601325   418189 
 2473000   0.61102218   -2.0834802   -2.0834802   -1.4465714  0.040458042   -2.0834802   0.63690875   418189 
 2474000   0.61016115   -2.0828843   -2.0828843   -1.4468731  0.041693462   -2.0828843   0.63601124   418189 
 2475000   0.61151337    -2.083422    -2.083422   -1.4460013  0.041282661    -2.083422   0.63742075   418189 
 2476000   0.61038037   -2.0824431   -2.0824431   -1.4462033  0.026793097   -2.0824431   0.63623975   418189 
 2477000   0.61236671   -2.0846112   -2.0846112    -1.446301  0.039980213   -2.0846112   0.63831025   418189 
 2478000   0.61105152    -2.083434    -2.083434   -1.4464946  0.040905607    -2.083434   0.63693934   418189 
 2479000   0.61078255   -2.0822222   -2.0822222   -1.4455632  0.045465371   -2.0822222   0.63665897   418189 
 2480000   0.61087327   -2.0830787   -2.0830787   -1.4463251  0.036559884   -2.0830787   0.63675353   418189 
 2481000   0.61044232    -2.082867    -2.082867   -1.4465627  0.038926971    -2.082867   0.63630433   418189 
 2482000    0.6116328   -2.0840252   -2.0840252   -1.4464799   0.03474906   -2.0840252   0.63754524   418189 
 2483000   0.61115843   -2.0833326   -2.0833326   -1.4462818  0.043694232   -2.0833326   0.63705078   418189 
 2484000   0.61149644   -2.0836845   -2.0836845   -1.4462814  0.034654164   -2.0836845   0.63740311   418189 
 2485000    0.6098932   -2.0812829   -2.0812829   -1.4455509  0.040926451   -2.0812829   0.63573194   418189 
 2486000   0.61233169   -2.0837761   -2.0837761   -1.4455023  0.037840111   -2.0837761   0.63827374   418189 
 2487000   0.61180534   -2.0835985   -2.0835985   -1.4458734  0.029739037   -2.0835985   0.63772509   418189 
 2488000   0.61146681   -2.0840471   -2.0840471   -1.4466749  0.039060252   -2.0840471   0.63737222   418189 
 2489000   0.61136753   -2.0834756   -2.0834756   -1.4462069   0.03522724   -2.0834756   0.63726874   418189 
 2490000   0.61120808    -2.083285    -2.083285   -1.4461825  0.034851408    -2.083285   0.63710253   418189 
 2491000   0.61100228    -2.083539    -2.083539    -1.446651   0.03665352    -2.083539   0.63688801   418189 
 2492000   0.61142428   -2.0841196   -2.0841196   -1.4467917  0.045834233   -2.0841196   0.63732789   418189 
 2493000   0.61209157   -2.0846919   -2.0846919   -1.4466684  0.051994145   -2.0846919   0.63802344   418189 
 2494000   0.61171645   -2.0847557   -2.0847557   -1.4471232  0.035685896   -2.0847557   0.63763243   418189 
 2495000   0.61137564    -2.084479    -2.084479   -1.4472018  0.042798189    -2.084479   0.63727718   418189 
 2496000   0.61215845   -2.0844958   -2.0844958   -1.4464026  0.039842071   -2.0844958   0.63809316   418189 
 2497000   0.60985104   -2.0824065   -2.0824065   -1.4467185  0.047047181   -2.0824065     0.635688   418189 
 2498000   0.61037782   -2.0830223   -2.0830223   -1.4467852  0.037963266   -2.0830223   0.63623709   418189 
 2499000   0.61125464   -2.0832502   -2.0832502   -1.4460991  0.045217491   -2.0832502   0.63715107   418189 
 2500000   0.61021989    -2.082481    -2.082481   -1.4464086  0.045950574    -2.082481   0.63607247   418189 
 2501000   0.60986168    -2.082306    -2.082306    -1.446607  0.031944133    -2.082306   0.63569908   418189 
 2502000   0.60957487   -2.0816755   -2.0816755   -1.4462754  0.037966234   -2.0816755   0.63540012   418189 
 2503000   0.61187686   -2.0830421   -2.0830421   -1.4452425  0.043319591   -2.0830421   0.63779964   418189 
 2504000   0.61153874   -2.0828876   -2.0828876   -1.4454404  0.045468627   -2.0828876    0.6374472   418189 
 2505000   0.61032001   -2.0822842   -2.0822842   -1.4461074  0.038464638   -2.0822842   0.63617683   418189 
 2506000   0.61087923   -2.0817772   -2.0817772   -1.4450175  0.039631789   -2.0817772   0.63675974   418189 
 2507000   0.61018397   -2.0808871   -2.0808871    -1.444852  0.035629889   -2.0808871   0.63603503   418189 
 2508000   0.61114337   -2.0817648   -2.0817648   -1.4447297  0.039795737   -2.0817648   0.63703507   418189 
 2509000   0.61176504   -2.0822516   -2.0822516   -1.4445685  0.038044772   -2.0822516   0.63768309   418189 
 2510000   0.61093744   -2.0814952   -2.0814952   -1.4446748  0.042668613   -2.0814952   0.63682043   418189 
 2511000   0.61251325   -2.0828051   -2.0828051   -1.4443421  0.044380459   -2.0828051     0.638463   418189 
 2512000   0.61212448     -2.08339     -2.08339   -1.4453322  0.046519512     -2.08339   0.63805775   418189 
 2513000   0.61141392   -2.0831408   -2.0831408   -1.4458237  0.043382359   -2.0831408   0.63731709   418189 
 2514000    0.6121224   -2.0828602   -2.0828602   -1.4448046  0.026280629   -2.0828602   0.63805558   418189 
 2515000   0.61166603    -2.081727    -2.081727   -1.4441471  0.040530714    -2.081727   0.63757988   418189 
 2516000    0.6114549   -2.0818882   -2.0818882   -1.4445284  0.047582286   -2.0818882    0.6373598   418189 
 2517000   0.61239333   -2.0834229   -2.0834229   -1.4450849  0.044060371   -2.0834229   0.63833799   418189 
 2518000   0.61186108   -2.0832606   -2.0832606   -1.4454774  0.039028884   -2.0832606   0.63778319   418189 
 2519000   0.61118639   -2.0838221   -2.0838221   -1.4467422  0.033318965   -2.0838221   0.63707992   418189 
 2520000   0.61093033   -2.0841246   -2.0841246   -1.4473116  0.035567778   -2.0841246   0.63681301   418189 
 2521000   0.61206278   -2.0845916   -2.0845916   -1.4465982  0.044132778   -2.0845916   0.63799344   418189 
 2522000   0.61256776    -2.085242    -2.085242   -1.4467222  0.041488229    -2.085242   0.63851981   418189 
 2523000   0.61206284   -2.0839092   -2.0839092   -1.4459157  0.040548443   -2.0839092    0.6379935   418189 
 2524000   0.61175773   -2.0835582   -2.0835582   -1.4458827  0.047842419   -2.0835582   0.63767547   418189 
 2525000   0.61250918   -2.0843896   -2.0843896   -1.4459309  0.038956854   -2.0843896   0.63845875   418189 
 2526000   0.61308405   -2.0850089   -2.0850089   -1.4459509  0.037788755   -2.0850089   0.63905797   418189 
 2527000   0.61206052   -2.0840079   -2.0840079   -1.4460168  0.038689793   -2.0840079   0.63799108   418189 
 2528000   0.61193704   -2.0841689   -2.0841689   -1.4463065  0.041605593   -2.0841689   0.63786237   418189 
 2529000   0.61226437   -2.0842698   -2.0842698   -1.4460662  0.027738579   -2.0842698   0.63820356   418189 
 2530000   0.61090207   -2.0834154   -2.0834154   -1.4466319  0.048538638   -2.0834154   0.63678356   418189 
 2531000   0.61126884   -2.0839156   -2.0839156   -1.4467498  0.036335431   -2.0839156   0.63716586   418189 
 2532000   0.61180534   -2.0837364   -2.0837364   -1.4460114  0.039987631   -2.0837364   0.63772509   418189 
 2533000   0.61088846   -2.0834505   -2.0834505   -1.4466812  0.039348143   -2.0834505   0.63676937   418189 
 2534000   0.61143019   -2.0829632   -2.0829632   -1.4456291  0.037324971   -2.0829632   0.63733405   418189 
 2535000   0.61158205   -2.0834828   -2.0834828   -1.4459904  0.042513148   -2.0834828   0.63749234   418189 
 2536000   0.61152116   -2.0838406   -2.0838406   -1.4464117  0.034492949   -2.0838406   0.63742887   418189 
 2537000    0.6127543   -2.0860465   -2.0860465   -1.4473322  0.038220408   -2.0860465   0.63871425   418189 
 2538000   0.61017235   -2.0838225   -2.0838225   -1.4477995  0.041554417   -2.0838225   0.63602292   418189 
 2539000   0.60989553   -2.0832863   -2.0832863   -1.4475519  0.039510272   -2.0832863   0.63573437   418189 
 2540000   0.61100387   -2.0836077   -2.0836077   -1.4467181  0.035332119   -2.0836077   0.63688967   418189 
 2541000   0.61153804   -2.0839579   -2.0839579   -1.4465114  0.038396481   -2.0839579   0.63744647   418189 
 2542000   0.61160599   -2.0842566   -2.0842566   -1.4467393  0.038424718   -2.0842566    0.6375173   418189 
 2543000   0.61073718   -2.0836416   -2.0836416   -1.4470299   0.03898467   -2.0836416   0.63661168   418189 
 2544000   0.61136381   -2.0838245   -2.0838245   -1.4465597  0.036081623   -2.0838245   0.63726486   418189 
 2545000   0.61214446   -2.0847762   -2.0847762   -1.4466976  0.037227047   -2.0847762   0.63807858   418189 
 2546000   0.61192489    -2.084182    -2.084182   -1.4463323  0.043620382    -2.084182   0.63784971   418189 
 2547000   0.61212544   -2.0849184   -2.0849184   -1.4468596  0.040456774   -2.0849184   0.63805876   418189 
 2548000   0.61208538    -2.085297    -2.085297     -1.44728  0.037297452    -2.085297     0.638017   418189 
 2549000   0.61248133   -2.0848589   -2.0848589   -1.4464291  0.042884701   -2.0848589   0.63842972   418189 
 2550000   0.61199933   -2.0847645   -2.0847645   -1.4468372  0.034055235   -2.0847645    0.6379273   418189 
 2551000   0.61155607   -2.0849585   -2.0849585   -1.4474932  0.034723665   -2.0849585   0.63746527   418189 
 2552000   0.61258668   -2.0860967   -2.0860967   -1.4475572  0.031160553   -2.0860967   0.63853954   418189 
 2553000   0.61207808   -2.0851089   -2.0851089   -1.4470995  0.039423576   -2.0851089   0.63800939   418189 
 2554000   0.61190377   -2.0854565   -2.0854565   -1.4476288   0.02928837   -2.0854565   0.63782769   418189 
 2555000   0.61091803   -2.0851544   -2.0851544   -1.4483542  0.034828983   -2.0851544   0.63680019   418189 
 2556000   0.61236944   -2.0869152   -2.0869152   -1.4486021  0.034907438   -2.0869152    0.6383131   418189 
 2557000   0.61032005   -2.0847932   -2.0847932   -1.4486164  0.038632643   -2.0847932   0.63617688   418189 
 2558000   0.61126547   -2.0853721   -2.0853721   -1.4482097  0.043160119   -2.0853721   0.63716235   418189 
 2559000   0.61126268   -2.0863668   -2.0863668   -1.4492074  0.036989747   -2.0863668   0.63715944   418189 
 2560000   0.61122234   -2.0855546   -2.0855546   -1.4484372  0.040393154   -2.0855546    0.6371174   418189 
 2561000   0.61081153   -2.0855116   -2.0855116   -1.4488225   0.03899294   -2.0855116   0.63668918   418189 
 2562000   0.61273316   -2.0871498   -2.0871498   -1.4484575  0.050511694   -2.0871498   0.63869222   418189 
 2563000   0.61095568   -2.0862995   -2.0862995     -1.44946  0.046132683   -2.0862995   0.63683944   418189 
 2564000   0.61157743   -2.0862674   -2.0862674   -1.4487799  0.033010115   -2.0862674   0.63748752   418189 
 2565000   0.61195068   -2.0872613   -2.0872613   -1.4493847  0.049080015   -2.0872613   0.63787659   418189 
 2566000   0.61185499   -2.0871061   -2.0871061   -1.4493293  0.047517729   -2.0871061   0.63777684   418189 
 2567000   0.61140536   -2.0857656   -2.0857656   -1.4484574  0.043049785   -2.0857656   0.63730817   418189 
 2568000   0.61191981   -2.0864471   -2.0864471   -1.4486027  0.038593314   -2.0864471   0.63784442   418189 
 2569000   0.61181199   -2.0860497   -2.0860497   -1.4483177  0.034896387   -2.0860497   0.63773203   418189 
 2570000   0.61019451   -2.0850917   -2.0850917   -1.4490457  0.036265536   -2.0850917   0.63604601   418189 
 2571000   0.61127434   -2.0851223   -2.0851223   -1.4479507  0.043139977   -2.0851223    0.6371716   418189 
 2572000   0.61074608   -2.0848125   -2.0848125   -1.4481916  0.038779858   -2.0848125   0.63662095   418189 
 2573000   0.60972137   -2.0841958   -2.0841958   -1.4486429  0.028321948   -2.0841958   0.63555283   418189 
 2574000   0.60990452   -2.0846784   -2.0846784   -1.4489347  0.044161082   -2.0846784   0.63574374   418189 
 2575000   0.61109752   -2.0859787   -2.0859787   -1.4489914  0.031723683   -2.0859787   0.63698729   418189 
 2576000   0.60969869   -2.0841488   -2.0841488   -1.4486196  0.039105945   -2.0841488   0.63552919   418189 
 2577000   0.61100123   -2.0857827   -2.0857827   -1.4488958  0.036204473   -2.0857827   0.63688691   418189 
 2578000   0.61043632   -2.0846236   -2.0846236   -1.4483255   0.03815901   -2.0846236   0.63629808   418189 
 2579000   0.61061347   -2.0849238   -2.0849238    -1.448441  0.032865249   -2.0849238   0.63648273   418189 
 2580000   0.61154074   -2.0859388   -2.0859388   -1.4484895  0.033019289   -2.0859388   0.63744928   418189 
 2581000    0.6103689   -2.0850174   -2.0850174   -1.4487896  0.038136727   -2.0850174   0.63622779   418189 
 2582000   0.61101768   -2.0867869   -2.0867869   -1.4498828  0.042022937   -2.0867869   0.63690406   418189 
 2583000   0.61048022   -2.0860572   -2.0860572   -1.4497133  0.035558723   -2.0860572   0.63634384   418189 
 2584000   0.61244018   -2.0878447   -2.0878447   -1.4494578  0.038761346   -2.0878447   0.63838683   418189 
 2585000   0.61090914   -2.0869961   -2.0869961   -1.4502052  0.043075857   -2.0869961   0.63679093   418189 
 2586000    0.6112621   -2.0873593   -2.0873593   -1.4502005  0.039296069   -2.0873593   0.63715884   418189 
 2587000   0.61128898   -2.0882845   -2.0882845   -1.4510977  0.042353877   -2.0882845   0.63718685   418189 
 2588000   0.61142053   -2.0880424   -2.0880424   -1.4507184  0.042548233   -2.0880424   0.63732397   418189 
 2589000   0.61193765   -2.0884199   -2.0884199   -1.4505569  0.050370391   -2.0884199     0.637863   418189 
 2590000   0.61081771   -2.0872983   -2.0872983   -1.4506027  0.030670193   -2.0872983   0.63669562   418189 
 2591000    0.6104759   -2.0866643   -2.0866643    -1.450325  0.041836588   -2.0866643   0.63633933   418189 
 2592000   0.61035965   -2.0869443   -2.0869443   -1.4507262  0.038687465   -2.0869443   0.63621816   418189 
 2593000   0.60857263   -2.0851994   -2.0851994    -1.450844   0.04386382   -2.0851994   0.63435543   418189 
 2594000   0.61074488   -2.0873721   -2.0873721   -1.4507524  0.045283717   -2.0873721   0.63661971   418189 
 2595000   0.61093186    -2.087606    -2.087606   -1.4507914  0.032135863    -2.087606   0.63681461   418189 
 2596000   0.61141848   -2.0883411   -2.0883411   -1.4510192  0.038771723   -2.0883411   0.63732185   418189 
 2597000   0.61067118   -2.0877044   -2.0877044   -1.4511615  0.040791678   -2.0877044   0.63654288   418189 
 2598000   0.61117625   -2.0885038   -2.0885038   -1.4514344  0.037736585   -2.0885038   0.63706935   418189 
 2599000   0.61158937   -2.0884407   -2.0884407   -1.4509408  0.042963085   -2.0884407   0.63749997   418189 
 2600000   0.61110402   -2.0878008   -2.0878008   -1.4508067  0.041476036   -2.0878008   0.63699406   418189 
 2601000   0.61032557   -2.0875198   -2.0875198   -1.4513372  0.039000555   -2.0875198   0.63618263   418189 
 2602000   0.61063977   -2.0881434   -2.0881434   -1.4516332  0.040945336   -2.0881434   0.63651014   418189 
 2603000   0.61010916   -2.0875877   -2.0875877   -1.4516306  0.030334982   -2.0875877   0.63595705   418189 
 2604000   0.61086324   -2.0891074   -2.0891074   -1.4523643  0.048919785   -2.0891074   0.63674308   418189 
 2605000   0.61144747   -2.0892669   -2.0892669   -1.4519149  0.036590942   -2.0892669   0.63735206   418189 
 2606000   0.61119858   -2.0889776   -2.0889776    -1.451885  0.040946134   -2.0889776   0.63709263   418189 
 2607000   0.61097892   -2.0890202   -2.0890202   -1.4521565  0.029150083   -2.0890202   0.63686366   418189 
 2608000   0.61076728    -2.089376    -2.089376   -1.4527329  0.041661671    -2.089376   0.63664305   418189 
 2609000   0.61109157   -2.0902007   -2.0902007   -1.4532196  0.036355626   -2.0902007   0.63698108   418189 
 2610000   0.61096345   -2.0900591   -2.0900591   -1.4532116  0.034882762   -2.0900591   0.63684754   418189 
 2611000   0.61046427   -2.0894536   -2.0894536   -1.4531264  0.039587381   -2.0894536   0.63632721   418189 
 2612000   0.60978471   -2.0878907   -2.0878907   -1.4522718  0.036782715   -2.0878907   0.63561885   418189 
 2613000   0.61032379   -2.0881785   -2.0881785   -1.4519977  0.040194004   -2.0881785   0.63618077   418189 
 2614000    0.6097652   -2.0877398   -2.0877398   -1.4521412  0.037209572   -2.0877398   0.63559852   418189 
 2615000   0.61077719   -2.0883313   -2.0883313    -1.451678  0.037598753   -2.0883313   0.63665339   418189 
 2616000   0.60997614   -2.0875326   -2.0875326   -1.4517142  0.039849592   -2.0875326    0.6358184   418189 
 2617000   0.61081727   -2.0881506   -2.0881506   -1.4514555  0.033119092   -2.0881506   0.63669516   418189 
 2618000    0.6114419   -2.0886722   -2.0886722    -1.451326  0.039260526   -2.0886722   0.63734625   418189 
 2619000   0.61010937   -2.0877486   -2.0877486   -1.4517913  0.043092527   -2.0877486   0.63595727   418189 
 2620000   0.60971639   -2.0871521   -2.0871521   -1.4516045  0.043749128   -2.0871521   0.63554764   418189 
 2621000   0.61047514   -2.0879841   -2.0879841   -1.4516456  0.039998599   -2.0879841   0.63633854   418189 
 2622000   0.61186373   -2.0895351   -2.0895351   -1.4517492  0.038809976   -2.0895351   0.63778595   418189 
 2623000   0.61118419   -2.0888174   -2.0888174   -1.4517397   0.03911792   -2.0888174   0.63707762   418189 
 2624000   0.61180875   -2.0893597   -2.0893597   -1.4516311  0.034593803   -2.0893597   0.63772864   418189 
 2625000   0.61162563   -2.0894598   -2.0894598   -1.4519221  0.038652999   -2.0894598   0.63753777   418189 
 2626000   0.61092517   -2.0892486   -2.0892486    -1.452441  0.030256655   -2.0892486   0.63680763   418189 
 2627000    0.6101432     -2.08834     -2.08834   -1.4523475  0.039968209     -2.08834   0.63599253   418189 
 2628000   0.61136852   -2.0890444   -2.0890444   -1.4517746  0.043477817   -2.0890444   0.63726976   418189 
 2629000   0.61099631   -2.0881484   -2.0881484   -1.4512666  0.041015628   -2.0881484   0.63688179   418189 
 2630000   0.61305678   -2.0902133   -2.0902133   -1.4511837   0.03808819   -2.0902133   0.63902956   418189 
 2631000   0.61095254   -2.0884625   -2.0884625   -1.4516263  0.045046646   -2.0884625   0.63683616   418189 
 2632000   0.61113591   -2.0897715   -2.0897715   -1.4527442  0.031586272   -2.0897715    0.6370273   418189 
 2633000   0.60988286   -2.0877623   -2.0877623   -1.4520411   0.03607112   -2.0877623   0.63572116   418189 
 2634000   0.61041832   -2.0890045   -2.0890045   -1.4527252  0.037746597   -2.0890045   0.63627931   418189 
 2635000   0.61132985   -2.0896296   -2.0896296   -1.4524001  0.038896363   -2.0896296   0.63722946   418189 
 2636000    0.6119959   -2.0905579   -2.0905579   -1.4526341  0.038750005   -2.0905579   0.63792373   418189 
 2637000   0.61096908   -2.0890065   -2.0890065   -1.4521531  0.041981544   -2.0890065   0.63685341   418189 
 2638000   0.61146819   -2.0894659   -2.0894659   -1.4520923  0.040665287   -2.0894659   0.63737366   418189 
 2639000   0.61135071   -2.0892314   -2.0892314   -1.4519802  0.036831929   -2.0892314    0.6372512   418189 
 2640000   0.61019699    -2.088849    -2.088849   -1.4528004  0.034927791    -2.088849    0.6360486   418189 
 2641000   0.60998503   -2.0888821   -2.0888821   -1.4530544  0.034598529   -2.0888821   0.63582767   418189 
 2642000   0.61086505   -2.0888324   -2.0888324   -1.4520874  0.035545121   -2.0888324   0.63674497   418189 
 2643000   0.61095298   -2.0881066   -2.0881066     -1.45127  0.043273598   -2.0881066   0.63683662   418189 
 2644000   0.61014554   -2.0876392   -2.0876392   -1.4516443   0.04867791   -2.0876392   0.63599498   418189 
 2645000   0.61093183   -2.0882318   -2.0882318   -1.4514172  0.034823867   -2.0882318   0.63681458   418189 
 2646000   0.61106911   -2.0888418   -2.0888418   -1.4518842  0.036864605   -2.0888418   0.63695767   418189 
 2647000   0.61019871   -2.0876283   -2.0876283   -1.4515779  0.034480788   -2.0876283   0.63605039   418189 
 2648000   0.61048291   -2.0885874   -2.0885874   -1.4522407  0.029867198   -2.0885874   0.63634663   418189 
 2649000   0.61071221   -2.0894784   -2.0894784   -1.4528927  0.034874434   -2.0894784   0.63658565   418189 
 2650000   0.61096638   -2.0895554   -2.0895554   -1.4527048  0.037554798   -2.0895554   0.63685059   418189 
 2651000   0.61025948   -2.0892843   -2.0892843   -1.4531705  0.034869166   -2.0892843   0.63611374   418189 
 2652000   0.61101023   -2.0897952   -2.0897952   -1.4528989  0.037258006   -2.0897952    0.6368963   418189 
 2653000   0.61140358   -2.0905737   -2.0905737   -1.4532673   0.04736749   -2.0905737   0.63730631   418189 
 2654000   0.61034535   -2.0900347   -2.0900347   -1.4538315  0.042396028   -2.0900347   0.63620325   418189 
 2655000   0.60985741   -2.0903829   -2.0903829   -1.4546883  0.030670213   -2.0903829   0.63569463   418189 
 2656000   0.61049651   -2.0907293   -2.0907293   -1.4543685  0.037111918   -2.0907293   0.63636081   418189 
 2657000   0.61004016   -2.0901561   -2.0901561    -1.454271  0.031691237   -2.0901561   0.63588513   418189 
 2658000   0.61049981   -2.0903745   -2.0903745   -1.4540103  0.040877549   -2.0903745   0.63636425   418189 
 2659000    0.6119525   -2.0919684   -2.0919684   -1.4540899  0.034108133   -2.0919684   0.63787849   418189 
 2660000   0.61096933   -2.0904523   -2.0904523   -1.4535987  0.039813036   -2.0904523   0.63685366   418189 
 2661000   0.61111722    -2.089997    -2.089997   -1.4529892  0.038610985    -2.089997   0.63700782   418189 
 2662000   0.60947264   -2.0881492   -2.0881492   -1.4528557  0.043543358   -2.0881492   0.63529357   418189 
 2663000   0.60985227    -2.089563    -2.089563   -1.4538737  0.041783259    -2.089563   0.63568928   418189 
 2664000   0.61091199   -2.0905805   -2.0905805   -1.4537866  0.032382398   -2.0905805   0.63679389   418189 
 2665000   0.61112705   -2.0911749   -2.0911749   -1.4541569  0.037330472   -2.0911749   0.63701806   418189 
 2666000   0.60993623   -2.0902464   -2.0902464   -1.4544696  0.038798336   -2.0902464    0.6357768   418189 
 2667000    0.6107588   -2.0909099   -2.0909099   -1.4542756  0.024737292   -2.0909099   0.63663422   418189 
 2668000   0.61123389   -2.0912851   -2.0912851   -1.4541556  0.041183219   -2.0912851   0.63712944   418189 
 2669000   0.61113664   -2.0902188   -2.0902188   -1.4531907  0.039452113   -2.0902188   0.63702806   418189 
 2670000    0.6114597   -2.0910182   -2.0910182   -1.4536534  0.041615193   -2.0910182   0.63736481   418189 
 2671000   0.61085778   -2.0906227   -2.0906227   -1.4538853  0.040240795   -2.0906227   0.63673739   418189 
 2672000   0.61033154   -2.0894259   -2.0894259   -1.4532371   0.03956834   -2.0894259   0.63618885   418189 
 2673000    0.6119462   -2.0906343   -2.0906343   -1.4527623  0.044009318   -2.0906343   0.63787192   418189 
 2674000   0.61131314   -2.0906563   -2.0906563   -1.4534442  0.042564665   -2.0906563   0.63721204   418189 
 2675000    0.6096956   -2.0893498   -2.0893498   -1.4538239   0.04059158   -2.0893498   0.63552597   418189 
 2676000   0.61034968   -2.0907571   -2.0907571   -1.4545493  0.042629742   -2.0907571   0.63620776   418189 
 2677000   0.60894385   -2.0894079   -2.0894079   -1.4546656  0.044987884   -2.0894079   0.63474237   418189 
 2678000   0.60949501   -2.0900492   -2.0900492   -1.4547323   0.03214298   -2.0900492   0.63531689   418189 
 2679000   0.60988104    -2.089761    -2.089761   -1.4540417  0.042281846    -2.089761   0.63571927   418189 
 2680000   0.61023117   -2.0901259   -2.0901259   -1.4540417  0.032797513   -2.0901259   0.63608423   418189 
 2681000   0.61123719   -2.0911654   -2.0911654   -1.4540325  0.044971468   -2.0911654   0.63713287   418189 
 2682000   0.61110302    -2.090644    -2.090644    -1.453651   0.03915287    -2.090644   0.63699301   418189 
 2683000   0.61005718   -2.0897871   -2.0897871   -1.4538843  0.044431639   -2.0897871   0.63590287   418189 
 2684000   0.61045495    -2.090086    -2.090086   -1.4537685  0.039013529    -2.090086    0.6363175   418189 
 2685000    0.6105831   -2.0896944   -2.0896944   -1.4532433  0.041223961   -2.0896944   0.63645107   418189 
 2686000   0.61056408    -2.090278    -2.090278   -1.4538467  0.041344964    -2.090278   0.63643124   418189 
 2687000   0.61142213   -2.0906482   -2.0906482   -1.4533226  0.036167683   -2.0906482   0.63732565   418189 
 2688000   0.61092131   -2.0904047   -2.0904047   -1.4536011  0.035311114   -2.0904047   0.63680361   418189 
 2689000   0.60975356   -2.0888481   -2.0888481   -1.4532617  0.041717764   -2.0888481   0.63558638   418189 
 2690000   0.60926403   -2.0887237   -2.0887237   -1.4536476  0.043137152   -2.0887237   0.63507612   418189 
 2691000   0.61005983   -2.0894972   -2.0894972   -1.4535916  0.040670482   -2.0894972   0.63590563   418189 
 2692000   0.60964505   -2.0891039   -2.0891039   -1.4536306   0.03691958   -2.0891039   0.63547328   418189 
 2693000   0.61000922   -2.0904718   -2.0904718   -1.4546189  0.037807565   -2.0904718   0.63585288   418189 
 2694000   0.60881471   -2.0897207   -2.0897207   -1.4551129  0.031337207   -2.0897207   0.63460776   418189 
 2695000   0.60908823   -2.0894536   -2.0894536   -1.4545608  0.028361543   -2.0894536   0.63489287   418189 
 2696000   0.60865972   -2.0892155   -2.0892155   -1.4547693  0.039394324   -2.0892155    0.6344462   418189 
 2697000   0.60850414   -2.0892662   -2.0892662   -1.4549822  0.036991023   -2.0892662   0.63428404   418189 
 2698000   0.61032674     -2.09087     -2.09087   -1.4546861  0.033280548     -2.09087   0.63618385   418189 
 2699000   0.60985397   -2.0893823   -2.0893823   -1.4536913  0.038386192   -2.0893823   0.63569105   418189 
 2700000   0.60969217   -2.0897088   -2.0897088   -1.4541864  0.040110814   -2.0897088   0.63552239   418189 
 2701000   0.60991066   -2.0900259   -2.0900259   -1.4542758  0.038639652   -2.0900259   0.63575014   418189 
 2702000   0.61123095   -2.0909962   -2.0909962   -1.4538699  0.038020612   -2.0909962   0.63712637   418189 
 2703000   0.61143058   -2.0916112   -2.0916112   -1.4542767  0.042279228   -2.0916112   0.63733446   418189 
 2704000   0.61004958   -2.0913236   -2.0913236   -1.4554287  0.038563245   -2.0913236   0.63589495   418189 
 2705000   0.61001071    -2.091615    -2.091615   -1.4557606  0.028312302    -2.091615   0.63585443   418189 
 2706000   0.60999255   -2.0920667   -2.0920667   -1.4562312  0.043811067   -2.0920667    0.6358355   418189 
 2707000   0.61076345   -2.0922324   -2.0922324   -1.4555933   0.03320519   -2.0922324   0.63663907   418189 
 2708000   0.61032009   -2.0929571   -2.0929571   -1.4567802  0.028078788   -2.0929571   0.63617692   418189 
 2709000   0.61041963   -2.0929418   -2.0929418   -1.4566612  0.043919335   -2.0929418   0.63628068   418189 
 2710000   0.60947667   -2.0921371   -2.0921371   -1.4568394  0.042703559   -2.0921371   0.63529777   418189 
 2711000   0.60983306   -2.0921769   -2.0921769   -1.4565076  0.029629098   -2.0921769   0.63566926   418189 
 2712000   0.60975977   -2.0911105   -2.0911105   -1.4555176  0.038381195   -2.0911105   0.63559286   418189 
 2713000     0.610382   -2.0920614   -2.0920614   -1.4558199  0.040261332   -2.0920614   0.63624145   418189 
 2714000   0.60994357   -2.0920517   -2.0920517   -1.4562672  0.040882838   -2.0920517   0.63578445   418189 
 2715000    0.6101094   -2.0918777   -2.0918777   -1.4559204  0.042669163   -2.0918777   0.63595731   418189 
 2716000   0.60958482   -2.0911014   -2.0911014   -1.4556909  0.034265521   -2.0911014    0.6354105   418189 
 2717000   0.60832253   -2.0905042   -2.0905042   -1.4564095  0.036914954   -2.0905042   0.63409473   418189 
 2718000   0.60823532   -2.0908641   -2.0908641   -1.4568603  0.036521313   -2.0908641   0.63400383   418189 
 2719000   0.60999974   -2.0919569   -2.0919569   -1.4561139  0.041186492   -2.0919569     0.635843   418189 
 2720000   0.61023748   -2.0915523   -2.0915523   -1.4554615  0.036162036   -2.0915523   0.63609081   418189 
 2721000    0.6102439   -2.0917929   -2.0917929   -1.4556954  0.033248931   -2.0917929    0.6360975   418189 
 2722000    0.6098997   -2.0914945   -2.0914945   -1.4557558  0.044036722   -2.0914945   0.63573872   418189 
 2723000   0.60950701   -2.0915774   -2.0915774   -1.4562481  0.043934173   -2.0915774   0.63532939   418189 
 2724000   0.60901167   -2.0912212   -2.0912212   -1.4564082  0.042330956   -2.0912212   0.63481307   418189 
 2725000   0.61000199   -2.0925384   -2.0925384    -1.456693  0.034553376   -2.0925384   0.63584534   418189 
 2726000   0.61005782   -2.0930103   -2.0930103   -1.4571068  0.037216262   -2.0930103   0.63590353   418189 
 2727000   0.60967225    -2.092578    -2.092578   -1.4570764  0.044577197    -2.092578   0.63550163   418189 
 2728000   0.61021627   -2.0929554   -2.0929554   -1.4568867  0.027620734   -2.0929554   0.63606869   418189 
 2729000    0.6102648   -2.0932926   -2.0932926   -1.4571733  0.033517932   -2.0932926   0.63611928   418189 
 2730000   0.61052903   -2.0931666   -2.0931666   -1.4567719  0.037904981   -2.0931666   0.63639471   418189 
 2731000   0.61045132   -2.0927743   -2.0927743   -1.4564606  0.040943175   -2.0927743   0.63631371   418189 
 2732000   0.61097529   -2.0934435   -2.0934435   -1.4565836  0.050849242   -2.0934435   0.63685988   418189 
 2733000   0.61147748   -2.0938869   -2.0938869   -1.4565035   0.04320186   -2.0938869   0.63738334   418189 
 2734000   0.60964542   -2.0915535   -2.0915535   -1.4560798  0.043563995   -2.0915535   0.63547366   418189 
 2735000   0.61021504   -2.0927444   -2.0927444   -1.4566769  0.038721649   -2.0927444   0.63606742   418189 
 2736000   0.60977615    -2.091924    -2.091924    -1.456314  0.029777272    -2.091924   0.63560993   418189 
 2737000   0.61038088   -2.0923516   -2.0923516   -1.4561113  0.034546638   -2.0923516   0.63624029   418189 
 2738000   0.60991972   -2.0916245   -2.0916245    -1.455865   0.03986549   -2.0916245   0.63575958   418189 
 2739000   0.61000165   -2.0917012   -2.0917012   -1.4558562  0.044788828   -2.0917012   0.63584499   418189 
 2740000   0.60995014   -2.0919774   -2.0919774   -1.4561861  0.040013844   -2.0919774   0.63579129   418189 
 2741000   0.60902283   -2.0908624   -2.0908624   -1.4560377  0.034900889   -2.0908624   0.63482469   418189 
 2742000   0.60938152   -2.0910732   -2.0910732   -1.4558746  0.041669727   -2.0910732   0.63519859   418189 
 2743000   0.60853261   -2.0898523   -2.0898523   -1.4555385  0.041588407   -2.0898523   0.63431371   418189 
 2744000   0.60935219   -2.0903014   -2.0903014   -1.4551334  0.033409503   -2.0903014   0.63516801   418189 
 2745000    0.6097704   -2.0908168   -2.0908168   -1.4552128  0.043293597   -2.0908168   0.63560394   418189 
 2746000   0.60913124   -2.0902285   -2.0902285   -1.4552908  0.030259687   -2.0902285    0.6349377   418189 
 2747000   0.60957944   -2.0905214   -2.0905214   -1.4551165  0.037427462   -2.0905214   0.63540489   418189 
 2748000    0.6088107   -2.0902657   -2.0902657   -1.4556621  0.030050804   -2.0902657   0.63460358   418189 
 2749000   0.61007295   -2.0915316   -2.0915316   -1.4556123  0.031010889   -2.0915316   0.63591931   418189 
 2750000   0.60976172   -2.0916978   -2.0916978   -1.4561029  0.042013726   -2.0916978   0.63559489   418189 
 2751000   0.61033025   -2.0929484   -2.0929484   -1.4567609  0.035814864   -2.0929484   0.63618751   418189 
 2752000   0.61126333   -2.0940295   -2.0940295   -1.4568694  0.037095251   -2.0940295   0.63716012   418189 
 2753000    0.6107768   -2.0932878   -2.0932878   -1.4566348  0.042369647   -2.0932878   0.63665298   418189 
 2754000   0.61128144   -2.0938495   -2.0938495   -1.4566705  0.045258476   -2.0938495   0.63717899   418189 
 2755000   0.61158752   -2.0944163   -2.0944163   -1.4569183  0.041599762   -2.0944163   0.63749805   418189 
 2756000   0.61021596   -2.0925987   -2.0925987   -1.4565304   0.04111821   -2.0925987   0.63606837   418189 
 2757000   0.61138142   -2.0945528   -2.0945528   -1.4572695  0.042837304   -2.0945528   0.63728322   418189 
 2758000   0.60962143   -2.0927775   -2.0927775   -1.4573289  0.035013537   -2.0927775   0.63544866   418189 
 2759000   0.60999328    -2.092794    -2.092794   -1.4569578   0.03508069    -2.092794   0.63583626   418189 
 2760000   0.60929697   -2.0928034   -2.0928034   -1.4576929  0.039325278   -2.0928034   0.63511045   418189 
 2761000    0.6095525   -2.0925835   -2.0925835   -1.4572067  0.042609913   -2.0925835   0.63537681   418189 
 2762000   0.60957577    -2.092568    -2.092568   -1.4571669  0.033807633    -2.092568   0.63540107   418189 
 2763000   0.61024038   -2.0934615   -2.0934615   -1.4573676  0.025200286   -2.0934615   0.63609383   418189 
 2764000    0.6095289   -2.0914665   -2.0914665   -1.4561143  0.033818762   -2.0914665   0.63535221   418189 
 2765000   0.60893217   -2.0908573   -2.0908573   -1.4561271   0.03617198   -2.0908573    0.6347302   418189 
 2766000   0.60938133   -2.0910975   -2.0910975   -1.4558991  0.034564487   -2.0910975   0.63519839   418189 
 2767000   0.60805185   -2.0905874   -2.0905874   -1.4567748  0.037845768   -2.0905874   0.63381259   418189 
 2768000   0.60951415   -2.0916841   -2.0916841   -1.4563473  0.037437723   -2.0916841   0.63533683   418189 
 2769000   0.60953873   -2.0921756   -2.0921756   -1.4568132   0.04406093   -2.0921756   0.63536245   418189 
 2770000   0.60918229   -2.0920594   -2.0920594   -1.4570685  0.026127371   -2.0920594   0.63499091   418189 
 2771000   0.60854472   -2.0910657   -2.0910657   -1.4567394  0.029366609   -2.0910657   0.63432633   418189 
 2772000   0.61016488   -2.0924966   -2.0924966   -1.4564815  0.037706256   -2.0924966   0.63601513   418189 
 2773000   0.60981598   -2.0919025   -2.0919025    -1.456251  0.045892953   -2.0919025   0.63565146   418189 
 2774000    0.6123937   -2.0941691   -2.0941691   -1.4558308  0.045930568   -2.0941691   0.63833838   418189 
 2775000   0.60965813   -2.0919109   -2.0919109   -1.4564239  0.037381848   -2.0919109   0.63548692   418189 
 2776000   0.61203357   -2.0942202   -2.0942202   -1.4562572  0.043407679   -2.0942202     0.637963   418189 
 2777000   0.61052515   -2.0932867   -2.0932867    -1.456896  0.038375783   -2.0932867   0.63639067   418189 
 2778000   0.61021411   -2.0928869   -2.0928869   -1.4568204  0.041707148   -2.0928869   0.63606645   418189 
 2779000   0.60902748   -2.0923382   -2.0923382   -1.4575087  0.039484793   -2.0923382   0.63482955   418189 
 2780000   0.61005778    -2.093397    -2.093397   -1.4574935  0.033227158    -2.093397   0.63590349   418189 
 2781000   0.60906382   -2.0919674   -2.0919674      -1.4571   0.04063008   -2.0919674   0.63486742   418189 
 2782000   0.60961704   -2.0930761   -2.0930761    -1.457632  0.044182728   -2.0930761   0.63544409   418189 
 2783000   0.61045505   -2.0939517   -2.0939517   -1.4576341   0.04114377   -2.0939517    0.6363176   418189 
 2784000   0.61008425   -2.0935737   -2.0935737   -1.4576426  0.035231685   -2.0935737   0.63593109   418189 
 2785000   0.60989973   -2.0935518   -2.0935518   -1.4578131  0.039347178   -2.0935518   0.63573875   418189 
 2786000   0.60960655   -2.0931786   -2.0931786   -1.4577455   0.04713699   -2.0931786   0.63543315   418189 
 2787000   0.60913766   -2.0922249   -2.0922249   -1.4572805  0.036107548   -2.0922249    0.6349444   418189 
 2788000   0.61055571   -2.0933206   -2.0933206   -1.4568981  0.046638845   -2.0933206   0.63642252   418189 
 2789000   0.61046981   -2.0927598   -2.0927598   -1.4564268  0.039478952   -2.0927598   0.63633298   418189 
 2790000   0.60965416    -2.091928    -2.091928   -1.4564452  0.037830007    -2.091928   0.63548278   418189 
 2791000   0.61089694   -2.0928911   -2.0928911   -1.4561128  0.034392088   -2.0928911    0.6367782   418189 
 2792000   0.61006004   -2.0919314   -2.0919314   -1.4560256  0.047645882   -2.0919314   0.63590585   418189 
 2793000   0.61126082   -2.0935004   -2.0935004   -1.4563429  0.036908878   -2.0935004    0.6371575   418189 
 2794000   0.60868367   -2.0911738   -2.0911738   -1.4567026  0.041184693   -2.0911738   0.63447117   418189 
 2795000   0.60988206    -2.092822    -2.092822   -1.4571016  0.034403127    -2.092822   0.63572033   418189 
 2796000   0.61014931     -2.09288     -2.09288   -1.4568811  0.039362967     -2.09288    0.6359989   418189 
 2797000    0.6094475   -2.0924076   -2.0924076   -1.4571403  0.036254358   -2.0924076   0.63526736   418189 
 2798000   0.61069105   -2.0934575   -2.0934575   -1.4568939  0.033756642   -2.0934575   0.63656359   418189 
 2799000   0.61004175   -2.0935948   -2.0935948    -1.457708  0.034953887   -2.0935948   0.63588679   418189 
 2800000   0.61039034   -2.0934727   -2.0934727   -1.4572225  0.056200873   -2.0934727   0.63625015   418189 
 2801000   0.61019659   -2.0938325   -2.0938325   -1.4577843  0.037222345   -2.0938325   0.63604819   418189 
 2802000   0.60805541   -2.0915492   -2.0915492   -1.4577329  0.043999038   -2.0915492   0.63381629   418189 
 2803000   0.60981478   -2.0932285   -2.0932285   -1.4575783  0.042061179   -2.0932285    0.6356502   418189 
 2804000     0.610537   -2.0940463   -2.0940463   -1.4576433  0.033505091   -2.0940463   0.63640302   418189 
 2805000   0.60914421    -2.092464    -2.092464   -1.4575128  0.030150563    -2.092464   0.63495122   418189 
 2806000   0.61044952   -2.0939862   -2.0939862   -1.4576743  0.039726094   -2.0939862   0.63631183   418189 
 2807000   0.60987778   -2.0934894   -2.0934894   -1.4577736  0.046679716   -2.0934894   0.63571587   418189 
 2808000   0.61084348   -2.0937595   -2.0937595    -1.457037  0.041354601   -2.0937595   0.63672248   418189 
 2809000   0.61036222   -2.0928303   -2.0928303   -1.4566094  0.036075051   -2.0928303   0.63622084   418189 
 2810000   0.61028156   -2.0929658   -2.0929658   -1.4568291   0.03507268   -2.0929658   0.63613676   418189 
 2811000   0.60959411   -2.0929487   -2.0929487   -1.4575285  0.030522929   -2.0929487   0.63542018   418189 
 2812000   0.61041741   -2.0937599   -2.0937599   -1.4574815  0.034529576   -2.0937599   0.63627836   418189 
 2813000   0.61014218   -2.0937002   -2.0937002   -1.4577087  0.038486342   -2.0937002   0.63599147   418189 
 2814000   0.60999703   -2.0928572   -2.0928572   -1.4570171  0.046925872   -2.0928572   0.63584018   418189 
 2815000   0.61057094   -2.0936789   -2.0936789   -1.4572405  0.042965332   -2.0936789   0.63643839   418189 
 2816000   0.61059971   -2.0936117   -2.0936117   -1.4571433  0.038062917   -2.0936117   0.63646838   418189 
 2817000   0.61242398   -2.0959073   -2.0959073   -1.4575374  0.033301663   -2.0959073   0.63836995   418189 
 2818000   0.61179766   -2.0951689   -2.0951689   -1.4574518  0.036682867   -2.0951689   0.63771709   418189 
 2819000   0.61034231   -2.0939898   -2.0939898   -1.4577898  0.039430268   -2.0939898   0.63620008   418189 
 2820000   0.61054295   -2.0939416   -2.0939416   -1.4575324  0.040465894   -2.0939416   0.63640922   418189 
 2821000   0.61074861   -2.0943965   -2.0943965   -1.4577729  0.046558859   -2.0943965    0.6366236   418189 
 2822000   0.60978729    -2.094184    -2.094184   -1.4585625  0.038181913    -2.094184   0.63562155   418189 
 2823000   0.61056848   -2.0946901   -2.0946901   -1.4582543  0.039441363   -2.0946901   0.63643583   418189 
 2824000   0.61022757   -2.0936293   -2.0936293   -1.4575488  0.036495698   -2.0936293   0.63608048   418189 
 2825000   0.60884989    -2.092999    -2.092999   -1.4583545  0.039587724    -2.092999   0.63464443   418189 
 2826000   0.60994395   -2.0935413   -2.0935413   -1.4577565   0.03176507   -2.0935413   0.63578484   418189 
 2827000   0.61162059     -2.09465     -2.09465   -1.4571175  0.039107264     -2.09465   0.63753252   418189 
 2828000    0.6100211   -2.0930559   -2.0930559   -1.4571907  0.042387835   -2.0930559   0.63586526   418189 
 2829000   0.61153488   -2.0951141   -2.0951141   -1.4576709  0.042372439   -2.0951141   0.63744317   418189 
 2830000   0.61162387   -2.0952605   -2.0952605   -1.4577246  0.039750822   -2.0952605   0.63753594   418189 
 2831000   0.61065079   -2.0943349   -2.0943349   -1.4578133   0.04272156   -2.0943349   0.63652162   418189 
 2832000   0.61098437   -2.0947226   -2.0947226   -1.4578532  0.039269532   -2.0947226   0.63686934   418189 
 2833000   0.61169508   -2.0950505   -2.0950505   -1.4574403  0.034575288   -2.0950505   0.63761016   418189 
 2834000   0.61031872   -2.0939738   -2.0939738   -1.4577983  0.039975985   -2.0939738   0.63617549   418189 
 2835000   0.60982928    -2.093976    -2.093976   -1.4583106  0.035492932    -2.093976   0.63566531   418189 
 2836000   0.61011416   -2.0943956   -2.0943956   -1.4584333  0.032265431   -2.0943956   0.63596226   418189 
 2837000   0.60862482   -2.0920652   -2.0920652   -1.4576554  0.043042353   -2.0920652   0.63440982   418189 
 2838000   0.61076913   -2.0938572   -2.0938572   -1.4572122  0.032116849   -2.0938572   0.63664498   418189 
 2839000   0.61022811   -2.0935739   -2.0935739   -1.4574929  0.036058253   -2.0935739   0.63608104   418189 
 2840000    0.6108872   -2.0941278   -2.0941278   -1.4573598  0.042630169   -2.0941278   0.63676806   418189 
 2841000   0.60930336   -2.0932027   -2.0932027   -1.4580855  0.041144328   -2.0932027   0.63511712   418189 
 2842000   0.60957314    -2.093553    -2.093553   -1.4581547  0.029106493    -2.093553   0.63539833   418189 
 2843000   0.61046674   -2.0946131   -2.0946131   -1.4582833  0.036307599   -2.0946131   0.63632978   418189 
 2844000   0.61078657   -2.0943702   -2.0943702    -1.457707  0.044133574   -2.0943702   0.63666316   418189 
 2845000   0.61152258   -2.0948769   -2.0948769   -1.4574466  0.042861101   -2.0948769   0.63743036   418189 
 2846000   0.61229028   -2.0957422   -2.0957422   -1.4575116  0.035572954   -2.0957422   0.63823058   418189 
 2847000   0.61133056   -2.0946516   -2.0946516   -1.4574214  0.045508395   -2.0946516    0.6372302   418189 
 2848000   0.61047056   -2.0937927   -2.0937927   -1.4574589  0.041765946   -2.0937927   0.63633376   418189 
 2849000   0.61167351   -2.0958686   -2.0958686   -1.4582809   0.04292529   -2.0958686   0.63758768   418189 
 2850000   0.61122814   -2.0955386   -2.0955386   -1.4584151  0.038975666   -2.0955386   0.63712344   418189 
 2851000   0.61146017     -2.09614     -2.09614   -1.4587747  0.037358441     -2.09614    0.6373653   418189 
 2852000   0.61052756   -2.0950362   -2.0950362    -1.458643  0.033770271   -2.0950362   0.63639318   418189 
 2853000   0.61094419   -2.0956307   -2.0956307   -1.4588032  0.040984753   -2.0956307   0.63682746   418189 
 2854000    0.6110203   -2.0952955   -2.0952955   -1.4583887  0.033235183   -2.0952955   0.63690679   418189 
 2855000   0.61072003   -2.0952525   -2.0952525   -1.4586587   0.04357678   -2.0952525    0.6365938   418189 
 2856000   0.60987604   -2.0947632   -2.0947632   -1.4590492  0.042061956   -2.0947632   0.63571405   418189 
 2857000   0.61030493   -2.0950428   -2.0950428   -1.4588817  0.035949497   -2.0950428   0.63616112   418189 
 2858000   0.60964295   -2.0947083   -2.0947083   -1.4592372  0.030353975   -2.0947083   0.63547109   418189 
 2859000   0.60994291   -2.0948671   -2.0948671   -1.4590834  0.032424712   -2.0948671   0.63578376   418189 
 2860000   0.60829899   -2.0934957   -2.0934957   -1.4594255  0.029972041   -2.0934957   0.63407019   418189 
 2861000   0.61066959   -2.0954335   -2.0954335   -1.4588923  0.049674877   -2.0954335   0.63654122   418189 
 2862000   0.60919263   -2.0937858   -2.0937858   -1.4587841   0.03540975   -2.0937858   0.63500169   418189 
 2863000   0.60949634   -2.0945321   -2.0945321   -1.4592138  0.033530276   -2.0945321   0.63531827   418189 
 2864000   0.60949344   -2.0950261   -2.0950261   -1.4597108  0.038334924   -2.0950261   0.63531524   418189 
 2865000   0.60930123   -2.0946531   -2.0946531   -1.4595382  0.040366632   -2.0946531   0.63511489   418189 
 2866000   0.61013482   -2.0956831   -2.0956831   -1.4596993  0.046177027   -2.0956831    0.6359838   418189 
 2867000    0.6101386   -2.0953663   -2.0953663   -1.4593786  0.053302254   -2.0953663   0.63598774   418189 
 2868000   0.61106766   -2.0962728   -2.0962728   -1.4593166  0.040267856   -2.0962728   0.63695616   418189 
 2869000   0.61050468   -2.0955903   -2.0955903    -1.459221  0.039859888   -2.0955903   0.63636932   418189 
 2870000   0.60906085   -2.0941528   -2.0941528   -1.4592885  0.042355716   -2.0941528   0.63486433   418189 
 2871000   0.61019589   -2.0957425   -2.0957425   -1.4596951  0.033612856   -2.0957425   0.63604745   418189 
 2872000   0.60973571   -2.0957471   -2.0957471   -1.4601793  0.037052365   -2.0957471   0.63556778   418189 
 2873000   0.60971154   -2.0954963   -2.0954963   -1.4599537  0.039223989   -2.0954963   0.63554259   418189 
 2874000   0.61072806   -2.0967221   -2.0967221   -1.4601199  0.036334263   -2.0967221   0.63660217   418189 
 2875000   0.61099124   -2.0975282   -2.0975282   -1.4606517  0.049345594   -2.0975282    0.6368765   418189 
 2876000   0.60992242   -2.0959425   -2.0959425   -1.4601801  0.033112727   -2.0959425    0.6357624   418189 
 2877000   0.61064649   -2.0966703   -2.0966703   -1.4601532  0.039947235   -2.0966703   0.63651715   418189 
 2878000   0.61094942   -2.0975327   -2.0975327   -1.4606998  0.038023294   -2.0975327   0.63683291   418189 
 2879000   0.61043394   -2.0971514   -2.0971514   -1.4608558  0.043010897   -2.0971514   0.63629559   418189 
 2880000   0.61009059   -2.0965386   -2.0965386   -1.4606009  0.041022047   -2.0965386   0.63593769   418189 
 2881000   0.60965461    -2.096223    -2.096223   -1.4607398  0.030445631    -2.096223   0.63548325   418189 
 2882000   0.61005766   -2.0956003   -2.0956003   -1.4596969  0.039280813   -2.0956003   0.63590337   418189 
 2883000    0.6105958   -2.0969076   -2.0969076   -1.4604433  0.040619106   -2.0969076   0.63646431   418189 
 2884000   0.60964262   -2.0964292   -2.0964292   -1.4609584  0.045210068   -2.0964292   0.63547075   418189 
 2885000   0.60860894   -2.0950888   -2.0950888   -1.4606956  0.039488895   -2.0950888   0.63439327   418189 
 2886000   0.60936542   -2.0955186   -2.0955186   -1.4603368  0.041861659   -2.0955186    0.6351818   418189 
 2887000   0.60927024   -2.0950992   -2.0950992   -1.4600166  0.037102938   -2.0950992   0.63508259   418189 
 2888000   0.61135509   -2.0959798   -2.0959798    -1.458724  0.039860859   -2.0959798   0.63725577   418189 
 2889000   0.61085762   -2.0950939   -2.0950939   -1.4583567  0.044500859   -2.0950939   0.63673722   418189 
 2890000   0.61107286   -2.0946363   -2.0946363   -1.4576747  0.045114268   -2.0946363   0.63696158   418189 
 2891000   0.61074926    -2.094896    -2.094896   -1.4582718  0.040790346    -2.094896   0.63662427   418189 
 2892000   0.61104573   -2.0957083   -2.0957083    -1.458775   0.03606855   -2.0957083    0.6369333   418189 
 2893000    0.6103106   -2.0954171   -2.0954171   -1.4592501  0.034098242   -2.0954171   0.63616702   418189 
 2894000   0.60993036   -2.0943629   -2.0943629   -1.4585923  0.042424008   -2.0943629   0.63577067   418189 
 2895000   0.61018966   -2.0946473   -2.0946473   -1.4586063  0.043181932   -2.0946473   0.63604096   418189 
 2896000   0.61047673    -2.095388    -2.095388   -1.4590478   0.03230949    -2.095388    0.6363402   418189 
 2897000   0.61022021   -2.0949887   -2.0949887   -1.4589159  0.031338274   -2.0949887   0.63607281   418189 
 2898000   0.60978887   -2.0950466   -2.0950466   -1.4594234  0.031966852   -2.0950466    0.6356232   418189 
 2899000   0.60993284   -2.0949251   -2.0949251   -1.4591519    0.0386627   -2.0949251   0.63577326   418189 
 2900000   0.60979138   -2.0958129   -2.0958129   -1.4601871  0.038386183   -2.0958129   0.63562581   418189 
 2901000   0.61047438   -2.0963998   -2.0963998   -1.4600621  0.035870601   -2.0963998   0.63633775   418189 
 2902000   0.60924553   -2.0960147   -2.0960147   -1.4609579  0.035817011   -2.0960147   0.63505683   418189 
 2903000   0.61030447   -2.0969895   -2.0969895   -1.4608289  0.030930677   -2.0969895   0.63616063   418189 
 2904000   0.60937615   -2.0959823   -2.0959823   -1.4607893  0.045903996   -2.0959823   0.63519299   418189 
 2905000   0.60968394   -2.0963679   -2.0963679    -1.460854  0.034854214   -2.0963679   0.63551382   418189 
 2906000   0.60969327   -2.0955117   -2.0955117   -1.4599881  0.042613635   -2.0955117   0.63552354   418189 
 2907000   0.61012367   -2.0957259   -2.0957259   -1.4597537  0.046446806   -2.0957259   0.63597217   418189 
 2908000   0.61132728   -2.0971304   -2.0971304   -1.4599037  0.043473598   -2.0971304   0.63722678   418189 
 2909000    0.6089141   -2.0954963   -2.0954963   -1.4607849  0.032654016   -2.0954963   0.63471137   418189 
 2910000   0.61140531   -2.0977129   -2.0977129   -1.4604047  0.037743107   -2.0977129   0.63730812   418189 
 2911000   0.61017259   -2.0965392   -2.0965392    -1.460516  0.032161243   -2.0965392   0.63602317   418189 
 2912000   0.61018756   -2.0962122   -2.0962122   -1.4601734  0.042697881   -2.0962122   0.63603878   418189 
 2913000   0.60926705   -2.0951122   -2.0951122   -1.4600329  0.044263573   -2.0951122   0.63507927   418189 
 2914000   0.60957429   -2.0962855   -2.0962855    -1.460886  0.037316318   -2.0962855   0.63539952   418189 
 2915000   0.60992259   -2.0968927   -2.0968927   -1.4611301  0.034855701   -2.0968927   0.63576258   418189 
 2916000    0.6100935    -2.096443    -2.096443   -1.4605023  0.038772522    -2.096443   0.63594072   418189 
 2917000   0.60938859   -2.0965864   -2.0965864   -1.4613805  0.032787457   -2.0965864   0.63520596   418189 
 2918000   0.61068078   -2.0974547   -2.0974547   -1.4609018  0.041915356   -2.0974547   0.63655289   418189 
 2919000   0.60955042   -2.0961225   -2.0961225   -1.4607479  0.035451212   -2.0961225   0.63537464   418189 
 2920000   0.61070435   -2.0966928   -2.0966928   -1.4601154  0.041352621   -2.0966928   0.63657746   418189 
 2921000    0.6098927   -2.0967376   -2.0967376   -1.4610062  0.039657247   -2.0967376   0.63573142   418189 
 2922000   0.60956406   -2.0964445   -2.0964445   -1.4610556  0.036494198   -2.0964445   0.63538886   418189 
 2923000    0.6105124   -2.0978956   -2.0978956   -1.4615183   0.03826665   -2.0978956   0.63637738   418189 
 2924000   0.61042738   -2.0982351   -2.0982351   -1.4619463  0.042568284   -2.0982351   0.63628876   418189 
 2925000   0.60957633   -2.0972979   -2.0972979   -1.4618963  0.042977411   -2.0972979   0.63540165   418189 
 2926000   0.61074817   -2.0985555   -2.0985555   -1.4619324  0.030958706   -2.0985555   0.63662313   418189 
 2927000   0.60949581   -2.0970029   -2.0970029   -1.4616852  0.032789986   -2.0970029   0.63531772   418189 
 2928000   0.60933085   -2.0966974   -2.0966974   -1.4615516  0.038313602   -2.0966974   0.63514577   418189 
 2929000   0.61066535   -2.0977032   -2.0977032   -1.4611664  0.031413715   -2.0977032   0.63653681   418189 
 2930000   0.61031418   -2.0976678   -2.0976678    -1.461497  0.048671087   -2.0976678   0.63617075   418189 
 2931000   0.61034181    -2.097572    -2.097572   -1.4613724  0.041834073    -2.097572   0.63619956   418189 
 2932000    0.6101053   -2.0976581   -2.0976581    -1.461705  0.036471991   -2.0976581   0.63595303   418189 
 2933000   0.61060208   -2.0981176   -2.0981176   -1.4616468  0.036392787   -2.0981176   0.63647085   418189 
 2934000   0.61025433   -2.0974872   -2.0974872   -1.4613788  0.047384284   -2.0974872   0.63610837   418189 
 2935000   0.61002849   -2.0977135   -2.0977135   -1.4618405  0.035077507   -2.0977135   0.63587296   418189 
 2936000   0.60856703   -2.0962463   -2.0962463   -1.4618967  0.035315056   -2.0962463   0.63434958   418189 
 2937000   0.60931956   -2.0966567   -2.0966567   -1.4615227  0.034746954   -2.0966567     0.635134   418189 
 2938000   0.61063336   -2.0978358   -2.0978358   -1.4613323  0.037261268   -2.0978358   0.63650346   418189 
 2939000   0.61067168    -2.097729    -2.097729   -1.4611856  0.036856722    -2.097729    0.6365434   418189 
 2940000   0.61005902   -2.0966624   -2.0966624   -1.4607577  0.051561445   -2.0966624   0.63590478   418189 
 2941000   0.60929506   -2.0961581   -2.0961581   -1.4610496  0.042604811   -2.0961581   0.63510846   418189 
 2942000    0.6083208   -2.0950931   -2.0950931   -1.4610002  0.036225201   -2.0950931   0.63409293   418189 
 2943000   0.61193986   -2.0978567   -2.0978567   -1.4599914  0.026913547   -2.0978567   0.63786531   418189 
 2944000   0.61053125   -2.0971575   -2.0971575   -1.4607604  0.029310644   -2.0971575   0.63639703   418189 
 2945000   0.61006812   -2.0969951   -2.0969951   -1.4610809  0.037218527   -2.0969951   0.63591427   418189 
 2946000   0.60968345    -2.097305    -2.097305   -1.4617917  0.034458418    -2.097305   0.63551331   418189 
 2947000   0.60946913   -2.0968114   -2.0968114   -1.4615215  0.048673269   -2.0968114    0.6352899   418189 
 2948000   0.60849763   -2.0958502   -2.0958502    -1.461573  0.039594684   -2.0958502   0.63427725   418189 
 2949000   0.60938996   -2.0962304   -2.0962304    -1.461023  0.036965778   -2.0962304   0.63520738   418189 
 2950000   0.61072341   -2.0972696   -2.0972696   -1.4606723  0.036128519   -2.0972696   0.63659733   418189 
 2951000   0.60991883   -2.0965354   -2.0965354   -1.4607767  0.037131116   -2.0965354   0.63575866   418189 
 2952000   0.61108453   -2.0979664   -2.0979664   -1.4609927  0.034083403   -2.0979664   0.63697375   418189 
 2953000   0.61057088   -2.0962382   -2.0962382   -1.4597999  0.038472834   -2.0962382   0.63643834   418189 
 2954000   0.61088369   -2.0967888   -2.0967888   -1.4600244  0.041718401   -2.0967888    0.6367644   418189 
 2955000   0.61026402   -2.0960422   -2.0960422   -1.4599238  0.041445801   -2.0960422   0.63611847   418189 
 2956000   0.61132452   -2.0969961   -2.0969961   -1.4597722  0.041763675   -2.0969961    0.6372239   418189 
 2957000   0.61244084   -2.0985849   -2.0985849   -1.4601974  0.037110868   -2.0985849   0.63838752   418189 
 2958000   0.61051919   -2.0964926   -2.0964926   -1.4601082   0.03737518   -2.0964926   0.63638445   418189 
 2959000   0.61132911   -2.0974686   -2.0974686   -1.4602399  0.045155042   -2.0974686   0.63722868   418189 
 2960000   0.61188383   -2.0985039   -2.0985039    -1.460697  0.040988245   -2.0985039   0.63780691   418189 
 2961000   0.61010433   -2.0967806   -2.0967806   -1.4608286  0.043417815   -2.0967806   0.63595202   418189 
 2962000   0.61001836   -2.0976403   -2.0976403   -1.4617779  0.041846931   -2.0976403    0.6358624   418189 
 2963000   0.60920712   -2.0971013   -2.0971013   -1.4620845  0.039067073   -2.0971013    0.6350168   418189 
 2964000   0.60905716   -2.0973476   -2.0973476   -1.4624871  0.034267761   -2.0973476   0.63486048   418189 
 2965000   0.60898005   -2.0968785   -2.0968785   -1.4620984  0.039003486   -2.0968785   0.63478011   418189 
 2966000   0.60908793   -2.0967851   -2.0967851   -1.4618925  0.042314573   -2.0967851   0.63489256   418189 
 2967000   0.60896542    -2.095316    -2.095316   -1.4605511  0.045012534    -2.095316   0.63476486   418189 
 2968000   0.61140044   -2.0979158   -2.0979158   -1.4606128  0.040391834   -2.0979158   0.63730304   418189 
 2969000   0.61024915   -2.0966627   -2.0966627   -1.4605597  0.045039417   -2.0966627   0.63610297   418189 
 2970000   0.61134645   -2.0982181   -2.0982181   -1.4609713  0.033587929   -2.0982181   0.63724676   418189 
 2971000   0.61121558   -2.0975702   -2.0975702   -1.4604598  0.038858169   -2.0975702   0.63711034   418189 
 2972000   0.61035364   -2.0967314   -2.0967314   -1.4605195   0.04566586   -2.0967314   0.63621189   418189 
 2973000    0.6099973   -2.0965623   -2.0965623   -1.4607218  0.037666983   -2.0965623   0.63584045   418189 
 2974000    0.6097719   -2.0964509   -2.0964509   -1.4608454  0.040964206   -2.0964509   0.63560551   418189 
 2975000   0.61034166   -2.0973403   -2.0973403   -1.4611409  0.029268197   -2.0973403    0.6361994   418189 
 2976000    0.6097075   -2.0964895   -2.0964895   -1.4609511  0.035853741   -2.0964895   0.63553838   418189 
 2977000   0.60937896   -2.0966994   -2.0966994   -1.4615035   0.04202089   -2.0966994   0.63519592   418189 
 2978000   0.60928608   -2.0965215   -2.0965215   -1.4614224   0.03312195   -2.0965215    0.6350991   418189 
 2979000   0.61082949   -2.0978972   -2.0978972   -1.4611893  0.035169866   -2.0978972    0.6367079   418189 
 2980000    0.6105061   -2.0977338   -2.0977338    -1.461363  0.037652273   -2.0977338   0.63637081   418189 
 2981000   0.60909344   -2.0968671   -2.0968671   -1.4619688  0.030473728   -2.0968671    0.6348983   418189 
 2982000   0.60895354   -2.0969643   -2.0969643   -1.4622118  0.034544057   -2.0969643   0.63475247   418189 
 2983000   0.61063323   -2.0988525   -2.0988525   -1.4623492   0.04332054   -2.0988525   0.63650333   418189 
 2984000    0.6112457   -2.0996956   -2.0996956   -1.4625539  0.036864363   -2.0996956   0.63714175   418189 
 2985000   0.61062076   -2.0987737   -2.0987737   -1.4622834  0.027776221   -2.0987737   0.63649033   418189 
 2986000   0.61023159   -2.0990474   -2.0990474   -1.4629627  0.031542942   -2.0990474   0.63608467   418189 
 2987000   0.61012735   -2.0984883   -2.0984883   -1.4625123  0.040656606   -2.0984883   0.63597602   418189 
 2988000   0.61152036   -2.1002767   -2.1002767   -1.4628487  0.040729336   -2.1002767   0.63742804   418189 
 2989000   0.61064766   -2.0998147   -2.0998147   -1.4632963  0.048361539   -2.0998147   0.63651836   418189 
 2990000   0.61120393   -2.1005562   -2.1005562    -1.463458  0.039176356   -2.1005562   0.63709821   418189 
 2991000    0.6106296   -2.0997525   -2.0997525    -1.463253  0.045481993   -2.0997525   0.63649954   418189 
 2992000    0.6106558   -2.1004347   -2.1004347   -1.4639079  0.041244824   -2.1004347   0.63652685   418189 
 2993000   0.61092758   -2.0997256   -2.0997256   -1.4629154  0.037433031   -2.0997256   0.63681014   418189 
 2994000   0.60970331     -2.09932     -2.09932    -1.463786  0.033766093     -2.09932   0.63553401   418189 
 2995000   0.61053588   -2.1009334   -2.1009334   -1.4645316   0.04570459   -2.1009334   0.63640185   418189 
 2996000   0.61099445   -2.1006753   -2.1006753   -1.4637954  0.037207866   -2.1006753   0.63687985   418189 
 2997000    0.6104432   -2.1005527   -2.1005527   -1.4642474   0.03987247   -2.1005527   0.63630525   418189 
 2998000   0.61042857   -2.1001817   -2.1001817   -1.4638917  0.034575302   -2.1001817   0.63628999   418189 
 2999000   0.61115549   -2.1002931   -2.1002931   -1.4632454  0.044425719   -2.1002931   0.63704771   418189 
 3000000   0.61031064    -2.099656    -2.099656   -1.4634889  0.035603424    -2.099656   0.63616706   418189 
 3001000   0.60944438    -2.098474    -2.098474   -1.4632099  0.035150097    -2.098474   0.63526411   418189 
 3002000   0.61013177   -2.0998581   -2.0998581   -1.4638775  0.035043417   -2.0998581   0.63598062   418189 
 3003000   0.61049378   -2.1009247   -2.1009247   -1.4645667  0.033444928   -2.1009247   0.63635797   418189 
 3004000   0.60992017   -2.0995373   -2.0995373   -1.4637773  0.034872558   -2.0995373   0.63576005   418189 
 3005000   0.60930053    -2.098881    -2.098881   -1.4637668  0.034370658    -2.098881   0.63511416   418189 
 3006000   0.61026244   -2.1005261   -2.1005261   -1.4644093  0.041211187   -2.1005261   0.63611683   418189 
 3007000   0.60892081   -2.0988922   -2.0988922   -1.4641738   0.03815326   -2.0988922   0.63471835   418189 
 3008000   0.61136367   -2.1009526   -2.1009526   -1.4636879   0.03927956   -2.1009526   0.63726471   418189 
 3009000   0.61071903   -2.0998486   -2.0998486   -1.4632559  0.036930322   -2.0998486   0.63659276   418189 
 3010000   0.60947788   -2.0988703   -2.0988703   -1.4635712  0.039488732   -2.0988703   0.63529903   418189 
 3011000   0.61019855   -2.0991998   -2.0991998   -1.4631495  0.033930932   -2.0991998   0.63605023   418189 
 3012000    0.6096502   -2.0986752   -2.0986752   -1.4631966  0.043327983   -2.0986752   0.63547865   418189 
 3013000   0.60918016   -2.0979878   -2.0979878   -1.4629991   0.04359097   -2.0979878   0.63498869   418189 
 3014000   0.60998353    -2.097933    -2.097933   -1.4621069  0.046030398    -2.097933    0.6358261   418189 
 3015000   0.60995465   -2.0983041   -2.0983041   -1.4625081  0.039570471   -2.0983041     0.635796   418189 
 3016000   0.60993216   -2.0984553   -2.0984553   -1.4626827  0.039521024   -2.0984553   0.63577255   418189 
 3017000   0.60923976   -2.0969317   -2.0969317   -1.4618809  0.035695271   -2.0969317   0.63505082   418189 
 3018000   0.61069199   -2.0980042   -2.0980042   -1.4614396  0.030339322   -2.0980042   0.63656457   418189 
 3019000   0.61142379   -2.0978293   -2.0978293   -1.4605019  0.040479713   -2.0978293   0.63732737   418189 
 3020000   0.61128903   -2.0978703   -2.0978703   -1.4606834  0.040542349   -2.0978703   0.63718691   418189 
 3021000   0.61029833   -2.0974906   -2.0974906   -1.4613364  0.045913755   -2.0974906   0.63615424   418189 
 3022000   0.61104439   -2.0972781   -2.0972781   -1.4603462  0.035202281   -2.0972781    0.6369319   418189 
 3023000   0.61015358   -2.0962615   -2.0962615   -1.4602581  0.033012948   -2.0962615   0.63600336   418189 
 3024000   0.60966571   -2.0963881   -2.0963881   -1.4608933  0.034353172   -2.0963881   0.63549481   418189 
 3025000   0.60811064   -2.0947562   -2.0947562   -1.4608823  0.039026295   -2.0947562   0.63387386   418189 
 3026000   0.60918972   -2.0954087   -2.0954087     -1.46041  0.035544755   -2.0954087   0.63499865   418189 
 3027000   0.61066858   -2.0975855   -2.0975855   -1.4610453  0.031107202   -2.0975855   0.63654018   418189 
 3028000   0.61121484   -2.0975432   -2.0975432   -1.4604336  0.034162537   -2.0975432   0.63710957   418189 
 3029000   0.61007731   -2.0972601   -2.0972601   -1.4613362  0.042431068   -2.0972601   0.63592385   418189 
 3030000   0.61024364   -2.0972743   -2.0972743   -1.4611771  0.042575863   -2.0972743   0.63609723   418189 
 3031000   0.61134478   -2.0984852   -2.0984852   -1.4612402  0.034510392   -2.0984852   0.63724502   418189 
 3032000    0.6103885   -2.0983784   -2.0983784   -1.4621301  0.043119356   -2.0983784   0.63624823   418189 
 3033000    0.6099756   -2.0982535   -2.0982535   -1.4624357  0.035055645   -2.0982535   0.63581784   418189 
 3034000   0.61002584   -2.0987519   -2.0987519   -1.4628817  0.039729716   -2.0987519   0.63587021   418189 
 3035000   0.60961071   -2.0992188   -2.0992188   -1.4637814  0.042898847   -2.0992188   0.63543748   418189 
 3036000   0.60980923   -2.0990953   -2.0990953   -1.4634509  0.039665474   -2.0990953   0.63564442   418189 
 3037000   0.61046627   -2.0996743   -2.0996743    -1.463345  0.035110464   -2.0996743   0.63632929   418189 
 3038000   0.61046944   -2.0988235   -2.0988235   -1.4624909  0.039850921   -2.0988235   0.63633259   418189 
 3039000   0.61115846   -2.0998958   -2.0998958    -1.462845  0.041251272   -2.0998958   0.63705081   418189 
 3040000   0.61070665   -2.0997244   -2.0997244   -1.4631446  0.044862195   -2.0997244   0.63657986   418189 
 3041000   0.61098449   -2.0995104   -2.0995104   -1.4626409  0.043899451   -2.0995104   0.63686947   418189 
 3042000   0.61048982   -2.0986683   -2.0986683   -1.4623145  0.032878217   -2.0986683   0.63635384   418189 
 3043000   0.61016496   -2.0979363   -2.0979363    -1.461921  0.035784683   -2.0979363   0.63601522   418189 
 3044000   0.60967886   -2.0980335   -2.0980335    -1.462525  0.035942157   -2.0980335   0.63550852   418189 
 3045000   0.61094349   -2.0993822   -2.0993822   -1.4625554  0.041911946   -2.0993822   0.63682673   418189 
 3046000   0.61068392   -2.0987689   -2.0987689   -1.4622128  0.039043511   -2.0987689   0.63655616   418189 
 3047000   0.61018222   -2.0979743   -2.0979743   -1.4619411  0.039838091   -2.0979743   0.63603321   418189 
 3048000   0.60972071   -2.0986513   -2.0986513   -1.4630992   0.02755954   -2.0986513   0.63555214   418189 
 3049000   0.60920315   -2.0979662   -2.0979662   -1.4629535  0.033105255   -2.0979662   0.63501266   418189 
 3050000   0.60998653    -2.098552    -2.098552   -1.4627228  0.037086773    -2.098552   0.63582923   418189 
 3051000   0.60927303   -2.0988929   -2.0988929   -1.4638074  0.031465896   -2.0988929    0.6350855   418189 
 3052000   0.60953349   -2.0984786   -2.0984786   -1.4631217  0.031769726   -2.0984786   0.63535699   418189 
 3053000   0.60849375   -2.0971103   -2.0971103   -1.4628371  0.039681653   -2.0971103    0.6342732   418189 
 3054000   0.60867993   -2.0980437   -2.0980437   -1.4635764   0.03263768   -2.0980437   0.63446727   418189 
 3055000   0.60897891   -2.0982153   -2.0982153   -1.4634364  0.035173449   -2.0982153   0.63477891   418189 
 3056000    0.6106606   -2.0999192   -2.0999192   -1.4633874  0.038452701   -2.0999192   0.63653186   418189 
 3057000   0.61011219   -2.0993158   -2.0993158   -1.4633556  0.050101234   -2.0993158   0.63596021   418189 
 3058000   0.61111728   -2.1003791   -2.1003791   -1.4633712  0.039383864   -2.1003791   0.63700788   418189 
 3059000   0.60903719    -2.098769    -2.098769   -1.4639293  0.029518887    -2.098769   0.63483967   418189 
 3060000   0.61031651   -2.0990967   -2.0990967   -1.4629235  0.042590265   -2.0990967   0.63617319   418189 
 3061000   0.60980332   -2.0983198   -2.0983198   -1.4626815  0.032849308   -2.0983198   0.63563826   418189 
 3062000   0.60949791   -2.0979179   -2.0979179    -1.462598  0.040725439   -2.0979179   0.63531991   418189 
 3063000   0.61005719   -2.0987433   -2.0987433   -1.4628404  0.033718354   -2.0987433   0.63590288   418189 
 3064000   0.61061551   -2.0989027   -2.0989027   -1.4624179  0.043633241   -2.0989027   0.63648486   418189 
 3065000   0.60986111   -2.0980971   -2.0980971   -1.4623986  0.042740198   -2.0980971   0.63569849   418189 
 3066000   0.61107671   -2.0993222   -2.0993222   -1.4623566  0.042134133   -2.0993222   0.63696559   418189 
 3067000   0.61199943   -2.1004645   -2.1004645   -1.4625371  0.046602564   -2.1004645   0.63792741   418189 
 3068000   0.60994132   -2.0977505   -2.0977505   -1.4619684  0.045939978   -2.0977505    0.6357821   418189 
 3069000   0.61080186   -2.0994348   -2.0994348   -1.4627557  0.041455084   -2.0994348    0.6366791   418189 
 3070000    0.6107297   -2.0990942   -2.0990942   -1.4624903  0.039528392   -2.0990942   0.63660389   418189 
 3071000   0.61087518   -2.0992599   -2.0992599   -1.4625043  0.038722433   -2.0992599   0.63675552   418189 
 3072000   0.60989891   -2.0985738   -2.0985738   -1.4628359  0.039011564   -2.0985738    0.6357379   418189 
 3073000   0.61035858   -2.0994369   -2.0994369   -1.4632199  0.039481812   -2.0994369   0.63621704   418189 
 3074000   0.60911186   -2.0980185   -2.0980185    -1.463101  0.044946322   -2.0980185    0.6349175   418189 
 3075000   0.61038753   -2.0995788   -2.0995788   -1.4633316  0.036892483   -2.0995788   0.63624722   418189 
 3076000   0.60923397   -2.0986122   -2.0986122   -1.4635674  0.037485485   -2.0986122   0.63504478   418189 
 3077000   0.60968194   -2.0992343   -2.0992343   -1.4637225  0.043193586   -2.0992343   0.63551174   418189 
 3078000   0.61033811   -2.0996723   -2.0996723   -1.4634766  0.031103203   -2.0996723   0.63619571   418189 
 3079000   0.60980719   -2.0990663   -2.0990663    -1.463424  0.028526188   -2.0990663   0.63564229   418189 
 3080000   0.61025058   -2.0991875   -2.0991875    -1.463083  0.044150568   -2.0991875   0.63610446   418189 
 3081000   0.60941797     -2.09908     -2.09908   -1.4638435  0.036084559     -2.09908   0.63523657   418189 
 3082000   0.60927704   -2.0986835   -2.0986835   -1.4635938  0.045943339   -2.0986835   0.63508967   418189 
 3083000   0.60999348    -2.099256    -2.099256   -1.4634196  0.036686465    -2.099256   0.63583647   418189 
 3084000   0.60983655   -2.0995016   -2.0995016   -1.4638287  0.032652105   -2.0995016   0.63567289   418189 
 3085000   0.61072518   -2.1009374   -2.1009374   -1.4643382  0.037861129   -2.1009374   0.63659917   418189 
 3086000    0.6086287    -2.099234    -2.099234   -1.4648201  0.039154465    -2.099234   0.63441387   418189 
 3087000   0.60897592   -2.0996272   -2.0996272   -1.4648514  0.036175224   -2.0996272    0.6347758   418189 
 3088000   0.60985529   -2.1001037   -2.1001037   -1.4644113   0.04699155   -2.1001037   0.63569242   418189 
 3089000   0.60994262   -2.1006433   -2.1006433   -1.4648599  0.040023052   -2.1006433   0.63578346   418189 
 3090000   0.60920871   -2.0998031   -2.0998031   -1.4647846  0.043404506   -2.0998031   0.63501845   418189 
 3091000   0.61000392     -2.10103     -2.10103   -1.4651826  0.041514379     -2.10103   0.63584735   418189 
 3092000   0.61073576   -2.1019138   -2.1019138   -1.4653036  0.043238568   -2.1019138   0.63661019   418189 
 3093000   0.60973427   -2.1015334   -2.1015334   -1.4659672  0.044186459   -2.1015334   0.63556628   418189 
 3094000   0.61022691   -2.1019054   -2.1019054   -1.4658256  0.047631954   -2.1019054   0.63607979   418189 
 3095000   0.61059727    -2.102332    -2.102332   -1.4658662  0.034459003    -2.102332   0.63646584   418189 
 3096000   0.61061249   -2.1026769   -2.1026769   -1.4661952  0.039930796   -2.1026769   0.63648171   418189 
 3097000   0.61100614   -2.1025832   -2.1025832   -1.4656912  0.046178593   -2.1025832   0.63689203   418189 
 3098000   0.61014074   -2.1025314   -2.1025314   -1.4665415  0.043110375   -2.1025314   0.63598997   418189 
 3099000   0.60878688   -2.1013829   -2.1013829   -1.4668042  0.039190783   -2.1013829   0.63457876   418189 
 3100000   0.61029474   -2.1022428   -2.1022428   -1.4660923  0.036537873   -2.1022428    0.6361505   418189 
 3101000   0.60904907   -2.1016348   -2.1016348   -1.4667828  0.034040997   -2.1016348   0.63485205   418189 
 3102000   0.61010559   -2.1016201   -2.1016201   -1.4656667  0.034797181   -2.1016201   0.63595333   418189 
 3103000   0.61006166   -2.1018392   -2.1018392   -1.4659317    0.0427149   -2.1018392   0.63590753   418189 
 3104000    0.6102568   -2.1017846   -2.1017846   -1.4656737  0.035960554   -2.1017846   0.63611095   418189 
 3105000   0.60949804   -2.1019593   -2.1019593   -1.4666393  0.027565596   -2.1019593   0.63532004   418189 
 3106000   0.60942479   -2.1007445   -2.1007445   -1.4655008  0.037157035   -2.1007445   0.63524369   418189 
 3107000   0.61014961   -2.1020628   -2.1020628   -1.4660636  0.036374345   -2.1020628   0.63599921   418189 
 3108000   0.60997464   -2.1014259   -2.1014259   -1.4656091   0.03300466   -2.1014259   0.63581683   418189 
 3109000   0.61011145   -2.1005163   -2.1005163   -1.4645568  0.037700394   -2.1005163   0.63595944   418189 
 3110000   0.61062861   -2.1005309   -2.1005309   -1.4640324  0.039355687   -2.1005309   0.63649851   418189 
 3111000   0.61017348   -2.1007434   -2.1007434   -1.4647193  0.043441348   -2.1007434    0.6360241   418189 
 3112000   0.61019647   -2.1002581   -2.1002581     -1.46421  0.046364656   -2.1002581   0.63604806   418189 
 3113000   0.61174496   -2.1019263   -2.1019263   -1.4642642  0.044210737   -2.1019263   0.63766215   418189 
 3114000   0.61146658   -2.1017431   -2.1017431   -1.4643712  0.035771537   -2.1017431   0.63737198   418189 
 3115000   0.60997704   -2.1007683   -2.1007683   -1.4649489  0.040709331   -2.1007683   0.63581933   418189 
 3116000   0.61081767    -2.101293    -2.101293   -1.4645974  0.044986324    -2.101293   0.63669558   418189 
 3117000   0.61043826   -2.1009199   -2.1009199   -1.4646198  0.033841206   -2.1009199   0.63630009   418189 
 3118000   0.61064417   -2.1003835   -2.1003835   -1.4638688  0.036542478   -2.1003835   0.63651473   418189 
 3119000   0.61004383   -2.0999304   -2.0999304   -1.4640414  0.037972012   -2.0999304   0.63588895   418189 
 3120000   0.61035372   -2.1007275   -2.1007275   -1.4645156  0.032608069   -2.1007275   0.63621197   418189 
 3121000   0.61088671   -2.1011358   -2.1011358   -1.4643683  0.035885411   -2.1011358   0.63676755   418189 
 3122000   0.61024185   -2.1011405   -2.1011405   -1.4650451  0.041194097   -2.1011405   0.63609537   418189 
 3123000   0.61002745   -2.1002052   -2.1002052   -1.4643333  0.038051584   -2.1002052   0.63587188   418189 
 3124000   0.60903523   -2.0994948   -2.0994948   -1.4646571  0.037278695   -2.0994948   0.63483763   418189 
 3125000   0.61068979   -2.1001451   -2.1001451   -1.4635828  0.039476426   -2.1001451   0.63656228   418189 
 3126000   0.61045674   -2.1000266   -2.1000266   -1.4637072  0.048143762   -2.1000266   0.63631936   418189 
 3127000   0.61125761    -2.100955    -2.100955   -1.4638008  0.035213519    -2.100955   0.63715415   418189 
 3128000   0.61194977   -2.1014976   -2.1014976    -1.463622  0.038890636   -2.1014976   0.63787564   418189 
 3129000   0.61115953   -2.1002451   -2.1002451   -1.4631931  0.045356269   -2.1002451   0.63705192   418189 
 3130000   0.61155586   -2.1011009   -2.1011009   -1.4636359  0.034007863   -2.1011009   0.63746504   418189 
 3131000   0.61074475   -2.1004378   -2.1004378   -1.4638182  0.042680067   -2.1004378   0.63661956   418189 
 3132000   0.61206684   -2.1007042   -2.1007042   -1.4627065  0.046376865   -2.1007042   0.63799767   418189 
 3133000   0.61162398    -2.100075    -2.100075   -1.4625389  0.046047785    -2.100075   0.63753605   418189 
 3134000   0.61177752   -2.1002491   -2.1002491    -1.462553  0.038429634   -2.1002491   0.63769609   418189 
 3135000   0.61210326    -2.099932    -2.099932   -1.4618964  0.038368673    -2.099932   0.63803563   418189 
 3136000   0.61053902   -2.0997137   -2.0997137   -1.4633086  0.052762656   -2.0997137   0.63640512   418189 
 3137000   0.60951615   -2.0985724   -2.0985724   -1.4632335   0.04401573   -2.0985724   0.63533892   418189 
 3138000   0.60982767   -2.0989242   -2.0989242   -1.4632606  0.044198148   -2.0989242   0.63566363   418189 
 3139000   0.61044279   -2.1002574   -2.1002574   -1.4639526  0.033874367   -2.1002574   0.63630482   418189 
 3140000   0.61034615   -2.0992688   -2.0992688   -1.4630647  0.043198984   -2.0992688   0.63620408   418189 
 3141000   0.61159331   -2.1008267   -2.1008267   -1.4633226  0.032171744   -2.1008267   0.63750408   418189 
 3142000   0.60916517   -2.0988382   -2.0988382   -1.4638651  0.035200414   -2.0988382   0.63497306   418189 
 3143000   0.60991736   -2.1000419   -2.1000419   -1.4642848  0.042731594   -2.1000419   0.63575713   418189 
 3144000   0.61018003   -2.1001535   -2.1001535   -1.4641226  0.033337124   -2.1001535   0.63603093   418189 
 3145000   0.61164449   -2.1013155   -2.1013155   -1.4637581  0.046463193   -2.1013155   0.63755743   418189 
 3146000   0.61106638   -2.1007697   -2.1007697   -1.4638149  0.039196298   -2.1007697   0.63695483   418189 
 3147000   0.61204509   -2.1026422   -2.1026422   -1.4646672  0.043399694   -2.1026422     0.637975   418189 
 3148000   0.61152108    -2.101963    -2.101963   -1.4645343  0.034041264    -2.101963   0.63742879   418189 
 3149000   0.61217438   -2.1029989   -2.1029989   -1.4648891  0.049255844   -2.1029989   0.63810976   418189 
 3150000   0.61071473   -2.1012599   -2.1012599   -1.4646716  0.033397496   -2.1012599   0.63658828   418189 
 3151000   0.61159238   -2.1025627   -2.1025627   -1.4650596    0.0399428   -2.1025627   0.63750311   418189 
 3152000   0.60958191   -2.1009446   -2.1009446   -1.4655371  0.045347856   -2.1009446   0.63540746   418189 
 3153000   0.61150873   -2.1025658   -2.1025658   -1.4651498  0.032245335   -2.1025658   0.63741591   418189 
 3154000    0.6106075   -2.1025239   -2.1025239   -1.4660474  0.036948378   -2.1025239    0.6364765   418189 
 3155000   0.60949208   -2.1008396   -2.1008396   -1.4655257  0.034638517   -2.1008396   0.63531382   418189 
 3156000   0.61039405    -2.100524    -2.100524     -1.46427  0.046038282    -2.100524   0.63625401   418189 
 3157000    0.6104262   -2.1004348   -2.1004348   -1.4641473  0.027402126   -2.1004348   0.63628752   418189 
 3158000   0.61024629   -2.1007557   -2.1007557   -1.4646557  0.036619642   -2.1007557   0.63609999   418189 
 3159000   0.61106263   -2.1016482   -2.1016482   -1.4646973  0.033965456   -2.1016482   0.63695092   418189 
 3160000   0.61017415   -2.1012226   -2.1012226   -1.4651978  0.034854879   -2.1012226    0.6360248   418189 
 3161000   0.60975801   -2.1014027   -2.1014027   -1.4658116  0.037480823   -2.1014027   0.63559102   418189 
 3162000   0.60987109   -2.1012427   -2.1012427   -1.4655338  0.040723601   -2.1012427    0.6357089   418189 
 3163000   0.60935392    -2.100507    -2.100507   -1.4653371  0.041839242    -2.100507   0.63516982   418189 
 3164000   0.60964146   -2.1004882   -2.1004882   -1.4650187  0.044463129   -2.1004882   0.63546953   418189 
 3165000   0.61077923   -2.1013665   -2.1013665    -1.464711  0.034740636   -2.1013665   0.63665551   418189 
 3166000   0.60977163   -2.1013595   -2.1013595   -1.4657543  0.037292252   -2.1013595   0.63560522   418189 
 3167000   0.61085533   -2.1018949   -2.1018949   -1.4651601  0.032982093   -2.1018949   0.63673484   418189 
 3168000   0.61079709   -2.1022858   -2.1022858   -1.4656117  0.036946274   -2.1022858   0.63667413   418189 
 3169000   0.61008405   -2.1012444   -2.1012444   -1.4653135  0.040437373   -2.1012444   0.63593088   418189 
 3170000   0.61156478    -2.102578    -2.102578   -1.4651037  0.046061916    -2.102578   0.63747434   418189 
 3171000   0.61006387   -2.1021894   -2.1021894   -1.4662796  0.036861193   -2.1021894   0.63590984   418189 
 3172000    0.6107386   -2.1024127   -2.1024127   -1.4657995  0.031967181   -2.1024127   0.63661316   418189 
 3173000   0.61081465   -2.1027439   -2.1027439   -1.4660514  0.046996338   -2.1027439   0.63669244   418189 
 3174000   0.61120615    -2.102649    -2.102649   -1.4655485  0.025140406    -2.102649   0.63710052   418189 
 3175000   0.61120638   -2.1035197   -2.1035197   -1.4664189  0.038081149   -2.1035197   0.63710075   418189 
 3176000   0.61049945   -2.1030769   -2.1030769   -1.4667131  0.034408823   -2.1030769   0.63636388   418189 
 3177000   0.61062304   -2.1034085   -2.1034085   -1.4669158  0.047420951   -2.1034085    0.6364927   418189 
 3178000   0.61063951    -2.103512    -2.103512   -1.4670021   0.03490297    -2.103512   0.63650987   418189 
 3179000   0.60966407   -2.1027282   -2.1027282    -1.467235  0.047929304   -2.1027282   0.63549311   418189 
 3180000   0.60969796   -2.1024765   -2.1024765    -1.466948  0.028899223   -2.1024765   0.63552843   418189 
 3181000   0.60979133   -2.1029559   -2.1029559   -1.4673302   0.03308156   -2.1029559   0.63562575   418189 
 3182000   0.60911622   -2.1019465   -2.1019465   -1.4670244  0.036801927   -2.1019465   0.63492204   418189 
 3183000   0.60980268   -2.1037444   -2.1037444   -1.4681068  0.039842408   -2.1037444   0.63563759   418189 
 3184000   0.61009945   -2.1027458   -2.1027458   -1.4667989  0.030951061   -2.1027458   0.63594693   418189 
 3185000   0.60965124   -2.1020969   -2.1020969   -1.4666172    0.0311876   -2.1020969   0.63547973   418189 
 3186000   0.61042304   -2.1029108   -2.1029108   -1.4666266  0.037997922   -2.1029108   0.63628423   418189 
 3187000    0.6095299   -2.1020736   -2.1020736   -1.4667203  0.046996985   -2.1020736   0.63535325   418189 
 3188000   0.61016597   -2.1028968   -2.1028968   -1.4668805  0.034188308   -2.1028968   0.63601627   418189 
 3189000   0.60943505   -2.1026684   -2.1026684    -1.467414  0.038132373   -2.1026684   0.63525439   418189 
 3190000   0.61094314   -2.1032534   -2.1032534    -1.466427  0.040635055   -2.1032534   0.63682636   418189 
 3191000   0.60969545   -2.1020586   -2.1020586   -1.4665328  0.028138549   -2.1020586   0.63552582   418189 
 3192000   0.61026076   -2.1021758   -2.1021758   -1.4660608  0.040473815   -2.1021758   0.63611507   418189 
 3193000   0.60891544    -2.100837    -2.100837   -1.4661242  0.036345991    -2.100837   0.63471276   418189 
 3194000   0.61014176   -2.1028553   -2.1028553   -1.4668642  0.039680775   -2.1028553   0.63599104   418189 
 3195000   0.61061819   -2.1023844   -2.1023844   -1.4658967  0.040943093   -2.1023844   0.63648765   418189 
 3196000   0.60904797   -2.1017613   -2.1017613   -1.4669104  0.032729371   -2.1017613    0.6348509   418189 
 3197000    0.6110294   -2.1037396   -2.1037396   -1.4668234  0.031830901   -2.1037396   0.63691628   418189 
 3198000   0.60891457   -2.1016408   -2.1016408    -1.466929  0.045714667   -2.1016408   0.63471186   418189 
 3199000   0.60875682   -2.1017958   -2.1017958   -1.4672483  0.027425391   -2.1017958   0.63454742   418189 
 3200000   0.61061024   -2.1034972   -2.1034972   -1.4670179  0.047145988   -2.1034972   0.63647936   418189 
 3201000   0.60845702   -2.1013972   -2.1013972   -1.4671623  0.037868437   -2.1013972   0.63423492   418189 
 3202000   0.61060585   -2.1033439   -2.1033439   -1.4668691  0.032243207   -2.1033439   0.63647479   418189 
 3203000   0.60995312   -2.1019708   -2.1019708   -1.4661764  0.038676455   -2.1019708    0.6357944   418189 
 3204000   0.60915282   -2.1011781   -2.1011781   -1.4662179  0.046027343   -2.1011781   0.63496019   418189 
 3205000   0.60897128   -2.1006158   -2.1006158   -1.4658448   0.04819254   -2.1006158   0.63477096   418189 
 3206000   0.61065369   -2.1022897   -2.1022897    -1.465765  0.043278496   -2.1022897   0.63652465   418189 
 3207000   0.61049409    -2.102132    -2.102132   -1.4657737  0.033603797    -2.102132   0.63635829   418189 
 3208000   0.60765869   -2.1002256   -2.1002256   -1.4668229  0.035230144   -2.1002256   0.63340277   418189 
 3209000    0.6085492   -2.1015522   -2.1015522   -1.4672212  0.031368659   -2.1015522     0.634331   418189 
 3210000   0.60739796   -2.1008329   -2.1008329   -1.4677019  0.037189673   -2.1008329   0.63313099   418189 
 3211000   0.60855488   -2.1023778   -2.1023778   -1.4680408  0.032198292   -2.1023778   0.63433693   418189 
 3212000   0.60850871   -2.1023961   -2.1023961   -1.4681073  0.036761853   -2.1023961   0.63428879   418189 
 3213000   0.60823824   -2.1014078   -2.1014078   -1.4674009  0.038045857   -2.1014078   0.63400687   418189 
 3214000   0.60872277   -2.1018124   -2.1018124   -1.4673005  0.038809751   -2.1018124   0.63451192   418189 
 3215000   0.60985638   -2.1031915   -2.1031915   -1.4674979  0.042511345   -2.1031915   0.63569357   418189 
 3216000   0.60961349   -2.1033168   -2.1033168   -1.4678764   0.04512256   -2.1033168   0.63544038   418189 
 3217000   0.61067475   -2.1043662   -2.1043662   -1.4678196  0.035654463   -2.1043662    0.6365466   418189 
 3218000   0.61103417   -2.1051329   -2.1051329   -1.4682116  0.044523713   -2.1051329   0.63692125   418189 
 3219000   0.61067549   -2.1054034   -2.1054034    -1.468856  0.040056944   -2.1054034   0.63654737   418189 
 3220000   0.61186847   -2.1058491   -2.1058491   -1.4680582  0.043549945   -2.1058491    0.6377909   418189 
 3221000   0.61165798   -2.1054204   -2.1054204    -1.467849   0.03730211   -2.1054204   0.63757149   418189 
 3222000    0.6101944    -2.104062    -2.104062   -1.4680161  0.038095546    -2.104062    0.6360459   418189 
 3223000   0.61041885   -2.1048883   -2.1048883   -1.4686084  0.046557349   -2.1048883   0.63627986   418189 
 3224000   0.60899736   -2.1037096   -2.1037096   -1.4689114  0.041309703   -2.1037096   0.63479814   418189 
 3225000   0.60949645   -2.1041566   -2.1041566   -1.4688382  0.046340744   -2.1041566   0.63531838   418189 
 3226000   0.60879977   -2.1034847   -2.1034847   -1.4688925  0.043785982   -2.1034847   0.63459219   418189 
 3227000    0.6096594   -2.1050851   -2.1050851   -1.4695968  0.028554809   -2.1050851   0.63548824   418189 
 3228000   0.60867685   -2.1025298   -2.1025298   -1.4680658  0.035696487   -2.1025298   0.63446406   418189 
 3229000   0.60880586   -2.1028134   -2.1028134   -1.4682149  0.036332109   -2.1028134   0.63459854   418189 
 3230000   0.60893795   -2.1025003   -2.1025003   -1.4677641  0.035467919   -2.1025003   0.63473623   418189 
 3231000   0.60896911   -2.1013315   -2.1013315   -1.4665628  0.047632989   -2.1013315   0.63476871   418189 
 3232000   0.61004094   -2.1034795   -2.1034795   -1.4675936  0.028960141   -2.1034795   0.63588594   418189 
 3233000   0.60971709   -2.1026211   -2.1026211   -1.4670728  0.033536486   -2.1026211   0.63554837   418189 
 3234000   0.60948559    -2.102559    -2.102559    -1.467252  0.036138207    -2.102559   0.63530707   418189 
 3235000   0.60945048   -2.1022111   -2.1022111   -1.4669406  0.039657367   -2.1022111   0.63527047   418189 
 3236000   0.61013965   -2.1032612   -2.1032612   -1.4672723  0.038214694   -2.1032612   0.63598883   418189 
 3237000    0.6097959   -2.1027787   -2.1027787   -1.4671482  0.042103428   -2.1027787   0.63563052   418189 
 3238000    0.6099851   -2.1030689   -2.1030689   -1.4672412  0.038109762   -2.1030689   0.63582773   418189 
 3239000   0.61169673    -2.104282    -2.104282   -1.4666701  0.031351539    -2.104282   0.63761188   418189 
 3240000   0.61023685   -2.1035465   -2.1035465   -1.4674563  0.044222956   -2.1035465   0.63609015   418189 
 3241000   0.61027056   -2.1042261   -2.1042261   -1.4681008  0.036525567   -2.1042261   0.63612529   418189 
 3242000   0.60888859   -2.1038216   -2.1038216   -1.4691368  0.036003492   -2.1038216   0.63468477   418189 
 3243000   0.60933615   -2.1039941   -2.1039941   -1.4688428  0.044837499   -2.1039941   0.63515129   418189 
 3244000   0.60981585   -2.1050956   -2.1050956   -1.4694443  0.036947368   -2.1050956   0.63565132   418189 
 3245000    0.6080831   -2.1040759   -2.1040759   -1.4702307  0.033470406   -2.1040759   0.63384515   418189 
 3246000   0.60927439   -2.1051745   -2.1051745   -1.4700876  0.038969838   -2.1051745   0.63508692   418189 
 3247000   0.61062156   -2.1058564   -2.1058564   -1.4693653  0.041678476   -2.1058564   0.63649116   418189 
 3248000   0.61062598   -2.1069719   -2.1069719   -1.4704761  0.040956042   -2.1069719   0.63649577   418189 
 3249000   0.60973293   -2.1059408   -2.1059408   -1.4703759  0.044848783   -2.1059408   0.63556488   418189 
 3250000   0.60947867    -2.106372    -2.106372   -1.4710721  0.039953526    -2.106372   0.63529985   418189 
 3251000   0.61076665   -2.1068457   -2.1068457   -1.4702034  0.042528101   -2.1068457   0.63664239   418189 
 3252000   0.60876343    -2.104959    -2.104959   -1.4704047  0.035538257    -2.104959    0.6345543   418189 
 3253000   0.61014014   -2.1061731   -2.1061731   -1.4701837  0.035512966   -2.1061731   0.63598935   418189 
 3254000   0.60957696   -2.1060329   -2.1060329   -1.4706306  0.040203476   -2.1060329   0.63540231   418189 
 3255000   0.61045996   -2.1068759   -2.1068759   -1.4705532  0.039242894   -2.1068759   0.63632271   418189 
 3256000   0.60942799   -2.1064257   -2.1064257   -1.4711786  0.034337025   -2.1064257   0.63524703   418189 
 3257000    0.6103244   -2.1070169   -2.1070169   -1.4708355   0.02927805   -2.1070169   0.63618141   418189 
 3258000   0.60995075   -2.1065254   -2.1065254   -1.4707334  0.046481333   -2.1065254   0.63579193   418189 
 3259000   0.60980917   -2.1066571   -2.1066571   -1.4710128  0.032229714   -2.1066571   0.63564435   418189 
 3260000   0.60933102   -2.1058536   -2.1058536   -1.4707076  0.044108407   -2.1058536   0.63514595   418189 
 3261000   0.61100361   -2.1076705   -2.1076705   -1.4707812  0.034276872   -2.1076705   0.63688939   418189 
 3262000   0.60913071   -2.1056232   -2.1056232    -1.470686  0.032173911   -2.1056232   0.63493715   418189 
 3263000   0.61100156   -2.1078464   -2.1078464   -1.4709591  0.039111106   -2.1078464   0.63688726   418189 
 3264000   0.60985619   -2.1057213   -2.1057213    -1.470028   0.03718043   -2.1057213   0.63569337   418189 
 3265000   0.61110057   -2.1073075   -2.1073075    -1.470317     0.034862   -2.1073075   0.63699046   418189 
 3266000   0.60993085   -2.1062423   -2.1062423   -1.4704711  0.046452007   -2.1062423   0.63577119   418189 
 3267000   0.61121921   -2.1073717   -2.1073717   -1.4702576  0.042441201   -2.1073717   0.63711413   418189 
 3268000   0.61084893   -2.1068998   -2.1068998   -1.4701717  0.039074178   -2.1068998   0.63672816   418189 
 3269000   0.60957699   -2.1061244   -2.1061244   -1.4707221   0.03714511   -2.1061244   0.63540234   418189 
 3270000   0.60850647   -2.1049021   -2.1049021   -1.4706157  0.033100268   -2.1049021   0.63428647   418189 
 3271000   0.60827205   -2.1048483   -2.1048483   -1.4708061  0.036656314   -2.1048483   0.63404211   418189 
 3272000   0.61012446   -2.1062725   -2.1062725   -1.4702995  0.030703709   -2.1062725     0.635973   418189 
 3273000   0.60924699   -2.1055924   -2.1055924    -1.470534  0.036134237   -2.1055924   0.63505835   418189 
 3274000    0.6093958   -2.1051163   -2.1051163   -1.4699028  0.030661655   -2.1051163   0.63521347   418189 
 3275000    0.6101267   -2.1055113   -2.1055113   -1.4695359  0.036225662   -2.1055113   0.63597534   418189 
 3276000   0.60949054   -2.1041169   -2.1041169   -1.4688047  0.039452134   -2.1041169   0.63531222   418189 
 3277000   0.60964459   -2.1042768   -2.1042768    -1.468804  0.034002999   -2.1042768    0.6354728   418189 
 3278000   0.60969288   -2.1038935   -2.1038935   -1.4683703  0.035412835   -2.1038935   0.63552314   418189 
 3279000   0.60884867   -2.1034214   -2.1034214   -1.4687783  0.045778557   -2.1034214   0.63464316   418189 
 3280000   0.61028704   -2.1056788   -2.1056788   -1.4695363  0.033004525   -2.1056788   0.63614246   418189 
 3281000   0.60886358   -2.1047611   -2.1047611   -1.4701024  0.042718183   -2.1047611    0.6346587   418189 
 3282000   0.60887649   -2.1050298   -2.1050298   -1.4703577  0.045204819   -2.1050298   0.63467215   418189 
 3283000   0.60880878   -2.1046297   -2.1046297   -1.4700281  0.034683596   -2.1046297   0.63460158   418189 
 3284000   0.60902053   -2.1054456   -2.1054456   -1.4706233  0.041649408   -2.1054456    0.6348223   418189 
 3285000   0.61034585    -2.106994    -2.106994   -1.4707902  0.038976546    -2.106994   0.63620377   418189 
 3286000   0.60948261   -2.1060345   -2.1060345   -1.4707306  0.041086344   -2.1060345   0.63530396   418189 
 3287000   0.60876591   -2.1050673   -2.1050673   -1.4705104   0.03016983   -2.1050673    0.6345569   418189 
 3288000   0.60965587   -2.1056953   -2.1056953   -1.4702107  0.041290841   -2.1056953   0.63548456   418189 
 3289000   0.60896722   -2.1053326   -2.1053326   -1.4705659  0.045085468   -2.1053326   0.63476674   418189 
 3290000   0.60973878   -2.1066599   -2.1066599   -1.4710889  0.041966357   -2.1066599   0.63557098   418189 
 3291000   0.61003144   -2.1074195   -2.1074195   -1.4715434  0.044361259   -2.1074195   0.63587604   418189 
 3292000   0.60898633   -2.1070093   -2.1070093   -1.4722227  0.029848598   -2.1070093   0.63478666   418189 
 3293000   0.60895725   -2.1073602   -2.1073602   -1.4726038  0.034349667   -2.1073602   0.63475634   418189 
 3294000   0.60861761   -2.1066549   -2.1066549   -1.4722526  0.039798791   -2.1066549   0.63440232   418189 
 3295000   0.60848627   -2.1066625   -2.1066625   -1.4723971    0.0393192   -2.1066625    0.6342654   418189 
 3296000   0.60993606    -2.107996    -2.107996   -1.4722193  0.040571906    -2.107996   0.63577662   418189 
 3297000    0.6088879   -2.1072702   -2.1072702   -1.4725862  0.047235299   -2.1072702   0.63468405   418189 
 3298000   0.61080718   -2.1085511   -2.1085511   -1.4718665  0.036496815   -2.1085511   0.63668464   418189 
 3299000   0.61094437   -2.1081891   -2.1081891   -1.4713614  0.043125024   -2.1081891   0.63682765   418189 
 3300000    0.6094702   -2.1078896   -2.1078896   -1.4725986  0.036757986   -2.1078896   0.63529102   418189 
 3301000    0.6111294   -2.1094675   -2.1094675    -1.472447  0.032990953   -2.1094675   0.63702052   418189 
 3302000   0.61153705   -2.1099687   -2.1099687   -1.4725232  0.045497952   -2.1099687   0.63744544   418189 
 3303000   0.60855275    -2.107089    -2.107089   -1.4727543  0.030363051    -2.107089    0.6343347   418189 
 3304000   0.60749971   -2.1057395   -2.1057395   -1.4725024  0.031231332   -2.1057395   0.63323705   418189 
 3305000   0.60909881    -2.107544    -2.107544   -1.4726401  0.034038539    -2.107544   0.63490389   418189 
 3306000   0.60872345   -2.1066481   -2.1066481   -1.4721355  0.031800832   -2.1066481   0.63451263   418189 
 3307000   0.60756613   -2.1054581   -2.1054581   -1.4721518  0.030955788   -2.1054581   0.63330628   418189 
 3308000    0.6076431   -2.1052377   -2.1052377   -1.4718512  0.040782504   -2.1052377   0.63338651   418189 
 3309000   0.60888275   -2.1062695   -2.1062695   -1.4715908  0.038179473   -2.1062695   0.63467868   418189 
 3310000   0.61012954   -2.1075456   -2.1075456   -1.4715673  0.035571107   -2.1075456   0.63597829   418189 
 3311000   0.60864229   -2.1054928   -2.1054928   -1.4710648  0.037081667   -2.1054928   0.63442804   418189 
 3312000   0.60751453   -2.1043861   -2.1043861   -1.4711336   0.05021022   -2.1043861    0.6332525   418189 
 3313000    0.6090036   -2.1055281   -2.1055281   -1.4707235   0.04540195   -2.1055281   0.63480465   418189 
 3314000   0.60936977   -2.1060016   -2.1060016   -1.4708153  0.036118364   -2.1060016   0.63518634   418189 
 3315000   0.60958093    -2.106055    -2.106055   -1.4706485  0.033617531    -2.106055   0.63540644   418189 
 3316000   0.60891917   -2.1052275   -2.1052275   -1.4705108  0.034725019   -2.1052275   0.63471665   418189 
 3317000   0.61011536   -2.1060748   -2.1060748   -1.4701113  0.031480775   -2.1060748   0.63596351   418189 
 3318000   0.61117511   -2.1068465   -2.1068465   -1.4697783  0.036276237   -2.1068465   0.63706817   418189 
 3319000   0.60940315   -2.1057562   -2.1057562   -1.4705351  0.039577957   -2.1057562   0.63522113   418189 
 3320000   0.61044353   -2.1074363   -2.1074363   -1.4711307   0.04749173   -2.1074363   0.63630558   418189 
 3321000   0.60952424   -2.1059068   -2.1059068   -1.4705595  0.033774094   -2.1059068   0.63534735   418189 
 3322000   0.60911953   -2.1062891   -2.1062891   -1.4713636  0.038620379   -2.1062891    0.6349255   418189 
 3323000   0.60901859   -2.1060629   -2.1060629   -1.4712426  0.040875531   -2.1060629   0.63482028   418189 
 3324000   0.60872626   -2.1056084   -2.1056084   -1.4710928  0.033574823   -2.1056084   0.63451557   418189 
 3325000   0.60954612   -2.1060378   -2.1060378   -1.4706677  0.036595579   -2.1060378   0.63537016   418189 
 3326000   0.61027805   -2.1068846   -2.1068846   -1.4707515  0.037680084   -2.1068846    0.6361331   418189 
 3327000    0.6100468    -2.106467    -2.106467   -1.4705749  0.036116486    -2.106467   0.63589205   418189 
 3328000   0.61077763   -2.1067433   -2.1067433   -1.4700894  0.042474589   -2.1067433   0.63665384   418189 
 3329000    0.6104978   -2.1061027   -2.1061027   -1.4697405  0.037802985   -2.1061027   0.63636215   418189 
 3330000   0.61084107   -2.1067023   -2.1067023   -1.4699823  0.036514339   -2.1067023   0.63671997   418189 
 3331000   0.61102949   -2.1060231   -2.1060231   -1.4691067  0.045740516   -2.1060231   0.63691638   418189 
 3332000   0.61029653   -2.1055132   -2.1055132   -1.4693608  0.032602472   -2.1055132   0.63615236   418189 
 3333000   0.61002298   -2.1049664   -2.1049664   -1.4690992  0.036572805   -2.1049664   0.63586722   418189 
 3334000   0.61063279   -2.1057612   -2.1057612   -1.4692583   0.03393167   -2.1057612   0.63650287   418189 
 3335000   0.61125669   -2.1069397   -2.1069397   -1.4697865  0.035055269   -2.1069397    0.6371532   418189 
 3336000    0.6099695    -2.105939    -2.105939   -1.4701275   0.03778405    -2.105939   0.63581148   418189 
 3337000   0.61145874   -2.1070983   -2.1070983   -1.4697344   0.03458992   -2.1070983   0.63736381   418189 
 3338000   0.61025153   -2.1058834   -2.1058834   -1.4697779   0.03886952   -2.1058834   0.63610545   418189 
 3339000   0.61063006   -2.1067021   -2.1067021   -1.4702021  0.041839415   -2.1067021   0.63650002   418189 
 3340000   0.61041513   -2.1064162   -2.1064162   -1.4701402  0.040282317   -2.1064162   0.63627598   418189 
 3341000   0.61002651   -2.1060426   -2.1060426   -1.4701717   0.03967671   -2.1060426    0.6358709   418189 
 3342000   0.60881556   -2.1047425   -2.1047425   -1.4701339  0.045837592   -2.1047425   0.63460864   418189 
 3343000   0.60927963   -2.1055112   -2.1055112   -1.4704188  0.040420607   -2.1055112   0.63509238   418189 
 3344000   0.60998622   -2.1050632   -2.1050632   -1.4692343  0.037696515   -2.1050632   0.63582891   418189 
 3345000   0.60953467   -2.1049865   -2.1049865   -1.4696283  0.039234106   -2.1049865   0.63535822   418189 
 3346000   0.61007891   -2.1060127   -2.1060127   -1.4700872   0.03369871   -2.1060127   0.63592552   418189 
 3347000   0.61059128   -2.1064905   -2.1064905   -1.4700309  0.034989399   -2.1064905    0.6364596   418189 
 3348000   0.61027562   -2.1070147   -2.1070147   -1.4708841  0.039699312   -2.1070147   0.63613056   418189 
 3349000   0.60971143   -2.1061208   -2.1061208   -1.4705783  0.040988937   -2.1061208   0.63554247   418189 
 3350000   0.60881798   -2.1055118   -2.1055118   -1.4709007  0.044313599   -2.1055118   0.63461117   418189 
 3351000   0.60888819   -2.1058076   -2.1058076   -1.4711232  0.042382678   -2.1058076   0.63468435   418189 
 3352000   0.61046114   -2.1065907   -2.1065907   -1.4702668  0.035472416   -2.1065907   0.63632395   418189 
 3353000   0.60934906   -2.1055108   -2.1055108    -1.470346   0.03793333   -2.1055108   0.63516474   418189 
 3354000   0.61021531   -2.1061012   -2.1061012   -1.4700335  0.029294652   -2.1061012   0.63606769   418189 
 3355000   0.61017392   -2.1068636   -2.1068636   -1.4708391  0.034888388   -2.1068636   0.63602455   418189 
 3356000   0.60929958   -2.1058681   -2.1058681   -1.4707549  0.034273873   -2.1058681   0.63511317   418189 
 3357000   0.61129733   -2.1064699   -2.1064699   -1.4692743  0.042558567   -2.1064699   0.63719556   418189 
 3358000   0.60960179   -2.1051888   -2.1051888   -1.4697607  0.032006443   -2.1051888   0.63542819   418189 
 3359000   0.60930817   -2.1051275   -2.1051275   -1.4700054  0.044199639   -2.1051275   0.63512213   418189 
 3360000   0.60932939   -2.1054738   -2.1054738   -1.4703296  0.043635577   -2.1054738   0.63514424   418189 
 3361000    0.6095603   -2.1059873   -2.1059873   -1.4706024  0.031444037   -2.1059873   0.63538494   418189 
 3362000    0.6094302   -2.1068411   -2.1068411   -1.4715918  0.035739138   -2.1068411   0.63524932   418189 
 3363000   0.60990531      -2.1066      -2.1066   -1.4708554  0.038714611      -2.1066   0.63574456   418189 
 3364000   0.60883506   -2.1057507   -2.1057507   -1.4711217  0.036643496   -2.1057507   0.63462897   418189 
 3365000   0.60900239   -2.1060784   -2.1060784    -1.471275   0.03896044   -2.1060784   0.63480339   418189 
 3366000   0.60884944    -2.105568    -2.105568    -1.470924   0.03592148    -2.105568   0.63464396   418189 
 3367000   0.60909711   -2.1060858   -2.1060858   -1.4711836  0.034325365   -2.1060858   0.63490212   418189 
 3368000   0.60953417    -2.106119    -2.106119   -1.4707613  0.025396719    -2.106119    0.6353577   418189 
 3369000   0.61062115   -2.1070738   -2.1070738   -1.4705831   0.03566374   -2.1070738   0.63649073   418189 
 3370000   0.61119452   -2.1079645   -2.1079645   -1.4708761  0.036663825   -2.1079645   0.63708839   418189 
 3371000   0.61025397    -2.107984    -2.107984    -1.471876  0.047658557    -2.107984     0.636108   418189 
 3372000     0.608764   -2.1076745   -2.1076745   -1.4731196  0.039574218   -2.1076745    0.6345549   418189 
 3373000    0.6086266   -2.1083491   -2.1083491   -1.4739374  0.038644685   -2.1083491   0.63441168   418189 
 3374000   0.61066726   -2.1093567   -2.1093567   -1.4728179  0.048293488   -2.1093567   0.63653879   418189 
 3375000   0.60962932   -2.1083838   -2.1083838   -1.4729269   0.04384958   -2.1083838   0.63545688   418189 
 3376000   0.60953513   -2.1078799   -2.1078799   -1.4725212  0.032733903   -2.1078799   0.63535871   418189 
 3377000    0.6102725    -2.109189    -2.109189   -1.4730617  0.036021381    -2.109189   0.63612731   418189 
 3378000    0.6101386    -2.108558    -2.108558   -1.4725703  0.036610857    -2.108558   0.63598774   418189 
 3379000   0.60929675   -2.1076098   -2.1076098   -1.4724996  0.040430003   -2.1076098   0.63511022   418189 
 3380000   0.60950705   -2.1081294   -2.1081294      -1.4728  0.037643024   -2.1081294   0.63532944   418189 
 3381000   0.60960633   -2.1072636   -2.1072636   -1.4718307  0.039299318   -2.1072636   0.63543292   418189 
 3382000   0.60957273   -2.1081155   -2.1081155   -1.4727176  0.035138694   -2.1081155   0.63539789   418189 
 3383000   0.61013632   -2.1079395   -2.1079395   -1.4719541  0.037948716   -2.1079395   0.63598536   418189 
 3384000   0.60844706   -2.1062687   -2.1062687   -1.4720442  0.032077584   -2.1062687   0.63422453   418189 
 3385000   0.60897152   -2.1059082   -2.1059082   -1.4711369  0.036501873   -2.1059082   0.63477122   418189 
 3386000   0.60844216   -2.1055458   -2.1055458   -1.4713264  0.032490937   -2.1055458   0.63421943   418189 
 3387000   0.60875004   -2.1062957   -2.1062957   -1.4717553  0.032800694   -2.1062957   0.63454035   418189 
 3388000   0.60991597   -2.1069413   -2.1069413   -1.4711856  0.043557939   -2.1069413   0.63575567   418189 
 3389000   0.60965092   -2.1070012   -2.1070012   -1.4715218  0.038624864   -2.1070012    0.6354794   418189 
 3390000    0.6085419   -2.1057599   -2.1057599   -1.4714365  0.044181902   -2.1057599    0.6343234   418189 
 3391000   0.60849831   -2.1060938   -2.1060938   -1.4718159  0.032970302   -2.1060938   0.63427796   418189 
 3392000    0.6095088    -2.106508    -2.106508   -1.4711768  0.032532371    -2.106508   0.63533126   418189 
 3393000   0.60901205   -2.1059106   -2.1059106   -1.4710971  0.042397574   -2.1059106   0.63481346   418189 
 3394000   0.60986155   -2.1065247   -2.1065247   -1.4708257  0.029286392   -2.1065247   0.63569895   418189 
 3395000   0.60876858   -2.1064964   -2.1064964   -1.4719367   0.02757761   -2.1064964   0.63455968   418189 
 3396000   0.60984549   -2.1067972   -2.1067972    -1.471115  0.033262899   -2.1067972   0.63568221   418189 
 3397000   0.60926269   -2.1061901   -2.1061901   -1.4711154  0.036966997   -2.1061901   0.63507472   418189 
 3398000   0.60982208   -2.1073821   -2.1073821   -1.4717243  0.034426795   -2.1073821   0.63565781   418189 
 3399000   0.61059673   -2.1085701   -2.1085701   -1.4721049  0.035707051   -2.1085701   0.63646527   418189 
 3400000   0.60931741   -2.1070424   -2.1070424   -1.4719106  0.039880474   -2.1070424   0.63513176   418189 
 3401000   0.60871437   -2.1061544   -2.1061544   -1.4716512  0.030543773   -2.1061544   0.63450317   418189 
 3402000   0.61027872   -2.1072521   -2.1072521   -1.4711183   0.03745198   -2.1072521    0.6361338   418189 
 3403000   0.60932951   -2.1065559   -2.1065559   -1.4714115  0.039088074   -2.1065559   0.63514437   418189 
 3404000   0.60951553   -2.1063209   -2.1063209   -1.4709827  0.032442565   -2.1063209   0.63533827   418189 
 3405000   0.60894093   -2.1055818   -2.1055818   -1.4708424  0.046380453   -2.1055818   0.63473933   418189 
 3406000   0.61044323    -2.106189    -2.106189   -1.4698837  0.034560984    -2.106189   0.63630528   418189 
 3407000   0.60973341   -2.1064359   -2.1064359   -1.4708705  0.033719853   -2.1064359   0.63556539   418189 
 3408000   0.61020309   -2.1066703   -2.1066703   -1.4706154  0.033474082   -2.1066703   0.63605496   418189 
 3409000   0.61045134   -2.1075253   -2.1075253   -1.4712116  0.033598085   -2.1075253   0.63631372   418189 
 3410000   0.60971647   -2.1065253   -2.1065253   -1.4709776  0.039239209   -2.1065253   0.63554773   418189 
 3411000    0.6092249   -2.1066383   -2.1066383    -1.471603  0.030666932   -2.1066383   0.63503533   418189 
 3412000   0.60976796   -2.1072509   -2.1072509   -1.4716495  0.032165186   -2.1072509    0.6356014   418189 
 3413000   0.60957893   -2.1076002   -2.1076002   -1.4721958  0.029366707   -2.1076002   0.63540436   418189 
 3414000   0.61006608   -2.1075395   -2.1075395   -1.4716273  0.034293528   -2.1075395   0.63591214   418189 
 3415000   0.60955323   -2.1074583   -2.1074583   -1.4720808  0.042814926   -2.1074583   0.63537756   418189 
 3416000    0.6095354   -2.1076289   -2.1076289   -1.4722699    0.0376461   -2.1076289   0.63535898   418189 
 3417000   0.60978054   -2.1079419   -2.1079419   -1.4723274  0.042035773   -2.1079419   0.63561451   418189 
 3418000   0.60981493   -2.1081424   -2.1081424   -1.4724921  0.035093169   -2.1081424   0.63565036   418189 
 3419000    0.6108455   -2.1097105   -2.1097105   -1.4729859  0.037759203   -2.1097105   0.63672459   418189 
 3420000   0.61067073   -2.1095451   -2.1095451   -1.4730027  0.036676556   -2.1095451   0.63654241   418189 
 3421000   0.61042085   -2.1101908   -2.1101908   -1.4739089  0.038844751   -2.1101908   0.63628195   418189 
 3422000   0.60900444   -2.1082882   -2.1082882   -1.4734827  0.038092584   -2.1082882   0.63480553   418189 
 3423000   0.60951848   -2.1084424   -2.1084424   -1.4731011  0.030493947   -2.1084424   0.63534135   418189 
 3424000    0.6099904    -2.108715    -2.108715   -1.4728817  0.040190973    -2.108715   0.63583327   418189 
 3425000   0.61008845   -2.1081036   -2.1081036   -1.4721681  0.041039795   -2.1081036   0.63593547   418189 
 3426000   0.60972675   -2.1078255   -2.1078255   -1.4722671  0.041145946   -2.1078255   0.63555845   418189 
 3427000   0.61048355   -2.1088326   -2.1088326   -1.4724852  0.038529962   -2.1088326    0.6363473   418189 
 3428000   0.60886766   -2.1076405   -2.1076405   -1.4729775  0.037661606   -2.1076405   0.63466296   418189 
 3429000   0.61061912   -2.1088592   -2.1088592   -1.4723706  0.039114187   -2.1088592   0.63648861   418189 
 3430000   0.60847236   -2.1067941   -2.1067941   -1.4725432  0.030486946   -2.1067941   0.63425091   418189 
 3431000   0.60820773   -2.1062975   -2.1062975   -1.4723224  0.036247047   -2.1062975   0.63397507   418189 
 3432000    0.6087739   -2.1062668   -2.1062668   -1.4717016  0.033038593   -2.1062668   0.63456522   418189 
 3433000   0.60795582    -2.106023    -2.106023   -1.4723105  0.042749591    -2.106023   0.63371249   418189 
 3434000    0.6082763   -2.1065935   -2.1065935    -1.472547  0.042894192   -2.1065935   0.63404654   418189 
 3435000   0.60941746   -2.1070862   -2.1070862   -1.4718502  0.036723335   -2.1070862   0.63523605   418189 
 3436000    0.6103543   -2.1073354   -2.1073354   -1.4711228  0.040350516   -2.1073354   0.63621258   418189 
 3437000   0.60974078   -2.1065801   -2.1065801   -1.4710071  0.040974305   -2.1065801   0.63557306   418189 
 3438000    0.6109566   -2.1087728   -2.1087728   -1.4719324  0.040047104   -2.1087728    0.6368404   418189 
 3439000   0.61050971   -2.1078732   -2.1078732   -1.4714986  0.035809841   -2.1078732   0.63637457   418189 
 3440000     0.610847   -2.1089803   -2.1089803   -1.4722541  0.034721117   -2.1089803   0.63672615   418189 
 3441000   0.60924014   -2.1084033   -2.1084033   -1.4733521    0.0434839   -2.1084033   0.63505122   418189 
 3442000   0.60931513   -2.1087204   -2.1087204    -1.473591  0.039930387   -2.1087204   0.63512938   418189 
 3443000   0.60919777   -2.1087169   -2.1087169   -1.4737099  0.042147535   -2.1087169   0.63500705   418189 
 3444000   0.60998098    -2.109645    -2.109645   -1.4738215   0.04328241    -2.109645   0.63582344   418189 
 3445000   0.60959544     -2.10962     -2.10962   -1.4741984  0.043164072     -2.10962   0.63542156   418189 
 3446000   0.60885493   -2.1086189   -2.1086189   -1.4739692  0.040992375   -2.1086189   0.63464969   418189 
 3447000   0.60981984   -2.1091697   -2.1091697   -1.4735142  0.037310504   -2.1091697   0.63565547   418189 
 3448000   0.60997946   -2.1098102   -2.1098102   -1.4739883  0.043039571   -2.1098102   0.63582185   418189 
 3449000   0.61043415   -2.1098353   -2.1098353   -1.4735395  0.036941594   -2.1098353   0.63629581   418189 
 3450000   0.60949352   -2.1089361   -2.1089361   -1.4736208  0.037628353   -2.1089361   0.63531533   418189 
 3451000   0.60897337   -2.1083467   -2.1083467   -1.4735735  0.034876557   -2.1083467   0.63477314   418189 
 3452000   0.60884958   -2.1086609   -2.1086609   -1.4740168  0.028300186   -2.1086609   0.63464411   418189 
 3453000   0.60905383   -2.1088168   -2.1088168   -1.4739598  0.036951696   -2.1088168   0.63485701   418189 
 3454000   0.60916816   -2.1092744   -2.1092744   -1.4742982  0.043605746   -2.1092744   0.63497619   418189 
 3455000   0.60883891   -2.1080868   -2.1080868   -1.4734538  0.036049278   -2.1080868   0.63463299   418189 
 3456000    0.6093294   -2.1082536   -2.1082536   -1.4731093  0.042362282   -2.1082536   0.63514426   418189 
 3457000   0.60884511   -2.1087125   -2.1087125    -1.474073  0.037527669   -2.1087125   0.63463945   418189 
 3458000   0.60960606   -2.1096459   -2.1096459   -1.4742132  0.034839507   -2.1096459   0.63543264   418189 
 3459000   0.60901117    -2.109046    -2.109046   -1.4742334  0.039452327    -2.109046   0.63481254   418189 
 3460000   0.60782364   -2.1084044   -2.1084044   -1.4748297  0.042492474   -2.1084044    0.6335747   418189 
 3461000   0.60784724   -2.1081325   -2.1081325   -1.4745332  0.040087344   -2.1081325   0.63359931   418189 
 3462000   0.60981318   -2.1104848   -2.1104848   -1.4748363  0.031938215   -2.1104848   0.63564853   418189 
 3463000   0.61028333   -2.1110073   -2.1110073   -1.4748687  0.042802422   -2.1110073   0.63613861   418189 
 3464000   0.60866259   -2.1099128   -2.1099128   -1.4754636  0.038741656   -2.1099128   0.63444919   418189 
 3465000   0.60966169   -2.1101073   -2.1101073   -1.4746166  0.040513867   -2.1101073   0.63549062   418189 
 3466000   0.60904855   -2.1096821   -2.1096821   -1.4748306  0.044631993   -2.1096821    0.6348515   418189 
 3467000   0.60906762   -2.1096187   -2.1096187   -1.4747473  0.043543439   -2.1096187   0.63487138   418189 
 3468000    0.6094245   -2.1105377   -2.1105377   -1.4752943  0.035732512   -2.1105377   0.63524338   418189 
 3469000   0.60907299    -2.109807    -2.109807     -1.47493  0.033916167    -2.109807   0.63487698   418189 
 3470000   0.60806462   -2.1085385   -2.1085385   -1.4747126  0.038756161   -2.1085385    0.6338259   418189 
 3471000   0.60926317   -2.1103024   -2.1103024   -1.4752271  0.042460827   -2.1103024   0.63507522   418189 
 3472000   0.60904614   -2.1101537   -2.1101537   -1.4753048  0.039287043   -2.1101537   0.63484899   418189 
 3473000   0.60865289   -2.1088788   -2.1088788   -1.4744398  0.040334736   -2.1088788   0.63443908   418189 
 3474000   0.60816163   -2.1088421   -2.1088421   -1.4749151  0.032405612   -2.1088421   0.63392702   418189 
 3475000   0.60939985   -2.1099788   -2.1099788   -1.4747611   0.03883341   -2.1099788   0.63521769   418189 
 3476000   0.60876194   -2.1095093   -2.1095093   -1.4749565  0.028680485   -2.1095093   0.63455275   418189 
 3477000   0.60828681   -2.1081135   -2.1081135    -1.474056  0.034071299   -2.1081135   0.63405749   418189 
 3478000    0.6097651   -2.1100443   -2.1100443   -1.4744459  0.040131903   -2.1100443   0.63559841   418189 
 3479000   0.60818709   -2.1088308   -2.1088308   -1.4748772  0.035053462   -2.1088308   0.63395356   418189 
 3480000   0.61013619   -2.1105185   -2.1105185   -1.4745333  0.035541567   -2.1105185   0.63598523   418189 
 3481000   0.60968623   -2.1097064   -2.1097064   -1.4741901  0.040464948   -2.1097064    0.6355162   418189 
 3482000   0.60845613   -2.1084756   -2.1084756   -1.4742416  0.037788889   -2.1084756   0.63423399   418189 
 3483000     0.608531   -2.1086905   -2.1086905   -1.4743785  0.036106255   -2.1086905   0.63431203   418189 
 3484000   0.60682757   -2.1076259   -2.1076259   -1.4750895   0.03556901   -2.1076259   0.63253643   418189 
 3485000   0.60905441   -2.1094046   -2.1094046    -1.474547  0.029917589   -2.1094046   0.63485761   418189 
 3486000   0.60855579   -2.1095678   -2.1095678     -1.47523  0.040390378   -2.1095678   0.63433787   418189 
 3487000    0.6088956   -2.1096379   -2.1096379   -1.4749459  0.035149822   -2.1096379   0.63469207   418189 
 3488000   0.60893176    -2.109704    -2.109704   -1.4749742  0.030634556    -2.109704   0.63472977   418189 
 3489000   0.60837454   -2.1094246   -2.1094246   -1.4752756  0.037691089   -2.1094246   0.63414894   418189 
 3490000   0.60824488   -2.1098377   -2.1098377   -1.4758239  0.041746778   -2.1098377   0.63401379   418189 
 3491000   0.60827101   -2.1101504   -2.1101504   -1.4761094  0.040120029   -2.1101504   0.63404103   418189 
 3492000   0.60982555     -2.11102     -2.11102   -1.4753586  0.035868409     -2.11102   0.63566143   418189 
 3493000   0.61025097   -2.1113439   -2.1113439   -1.4752391  0.044908462   -2.1113439   0.63610487   418189 
 3494000   0.60991731   -2.1112049   -2.1112049   -1.4754478  0.035173774   -2.1112049   0.63575707   418189 
 3495000   0.61048697   -2.1116491   -2.1116491   -1.4752982  0.041274239   -2.1116491   0.63635087   418189 
 3496000   0.61054988   -2.1120996   -2.1120996   -1.4756831  0.043561499   -2.1120996   0.63641644   418189 
 3497000   0.60979464   -2.1114577   -2.1114577   -1.4758285  0.037629723   -2.1114577   0.63562921   418189 
 3498000   0.60932652   -2.1114149   -2.1114149   -1.4762737  0.047373599   -2.1114149   0.63514125   418189 
 3499000   0.60894992   -2.1117167   -2.1117167    -1.476968  0.034366231   -2.1117167    0.6347487   418189 
 3500000   0.60868968   -2.1111036   -2.1111036   -1.4766262  0.042777116   -2.1111036   0.63447744   418189 
 3501000   0.60755439   -2.1106097   -2.1106097   -1.4773156  0.032480048   -2.1106097   0.63329404   418189 
 3502000   0.60804015   -2.1105915   -2.1105915   -1.4767911  0.033586707   -2.1105915   0.63380039   418189 
 3503000   0.60796875   -2.1104868   -2.1104868   -1.4767609  0.030167853   -2.1104868   0.63372596   418189 
 3504000   0.60968034   -2.1118659   -2.1118659   -1.4763558   0.04673001   -2.1118659   0.63551007   418189 
 3505000   0.60930489   -2.1103086   -2.1103086   -1.4751899  0.039922316   -2.1103086   0.63511871   418189 
 3506000   0.60765367   -2.1101233   -2.1101233   -1.4767258  0.032375263   -2.1101233   0.63339753   418189 
 3507000   0.60862653   -2.1114943   -2.1114943   -1.4770827  0.022827879   -2.1114943   0.63441161   418189 
 3508000   0.60838204   -2.1116335   -2.1116335   -1.4774767  0.041001575   -2.1116335   0.63415676   418189 
 3509000   0.60745806   -2.1106489   -2.1106489   -1.4774553  0.034806348   -2.1106489   0.63319364   418189 
 3510000   0.60970225   -2.1134547   -2.1134547   -1.4779218  0.042823333   -2.1134547   0.63553291   418189 
 3511000   0.60939938   -2.1122574   -2.1122574   -1.4770402  0.038057744   -2.1122574    0.6352172   418189 
 3512000   0.60896165   -2.1120536   -2.1120536   -1.4772927  0.044458066   -2.1120536   0.63476092   418189 
 3513000   0.60920637   -2.1123021   -2.1123021   -1.4772861  0.041238241   -2.1123021   0.63501602   418189 
 3514000   0.60990262   -2.1131394   -2.1131394   -1.4773977  0.036906231   -2.1131394   0.63574176   418189 
 3515000   0.60888489   -2.1117923   -2.1117923   -1.4771114  0.033799153   -2.1117923   0.63468091   418189 
 3516000   0.61014092    -2.112825    -2.112825   -1.4768349   0.04418019    -2.112825   0.63599015   418189 
 3517000   0.60961631   -2.1118293   -2.1118293    -1.476386  0.037806859   -2.1118293   0.63544333   418189 
 3518000   0.60906744   -2.1113715   -2.1113715   -1.4765003   0.04039849   -2.1113715   0.63487119   418189 
 3519000   0.60989164   -2.1127426   -2.1127426   -1.4770123  0.029548267   -2.1127426   0.63573032   418189 
 3520000   0.60971863   -2.1116617   -2.1116617   -1.4761117  0.040411261   -2.1116617   0.63554998   418189 
 3521000   0.60890412   -2.1117078   -2.1117078   -1.4770069  0.031898025   -2.1117078   0.63470096   418189 
 3522000   0.60832434   -2.1109998   -2.1109998   -1.4769032  0.039149229   -2.1109998   0.63409662   418189 
 3523000   0.60935103   -2.1119754   -2.1119754   -1.4768086  0.036899592   -2.1119754    0.6351668   418189 
 3524000    0.6083625   -2.1108241   -2.1108241   -1.4766877  0.030405073   -2.1108241    0.6341364   418189 
 3525000   0.61010078   -2.1125312   -2.1125312   -1.4765828   0.04355562   -2.1125312   0.63594832   418189 
 3526000   0.60962237    -2.112103    -2.112103   -1.4766534  0.041504275    -2.112103   0.63544964   418189 
 3527000   0.60866659   -2.1104186   -2.1104186   -1.4759652   0.03643033   -2.1104186   0.63445337   418189 
 3528000   0.60808776   -2.1099569   -2.1099569   -1.4761069  0.036930673   -2.1099569   0.63385001   418189 
 3529000   0.60870931   -2.1110657   -2.1110657   -1.4765678   0.04074971   -2.1110657   0.63449789   418189 
 3530000   0.60858688   -2.1113761   -2.1113761   -1.4770058  0.033332904   -2.1113761   0.63437028   418189 
 3531000    0.6078025   -2.1110145   -2.1110145   -1.4774618  0.039138365   -2.1110145   0.63355267   418189 
 3532000   0.60846761   -2.1124188   -2.1124188   -1.4781728  0.043543752   -2.1124188   0.63424595   418189 
 3533000   0.60843099   -2.1126696   -2.1126696   -1.4784618  0.044129906   -2.1126696   0.63420778   418189 
 3534000   0.60767446   -2.1123891   -2.1123891   -1.4789699  0.034523186   -2.1123891    0.6334192   418189 
 3535000   0.60706665   -2.1112921   -2.1112921   -1.4785065   0.03906496   -2.1112921   0.63278564   418189 
 3536000   0.60760382   -2.1117052   -2.1117052   -1.4783596  0.029078749   -2.1117052   0.63334557   418189 
 3537000   0.60681011   -2.1110281   -2.1110281   -1.4785099   0.04156512   -2.1110281   0.63251823   418189 
 3538000   0.60771476   -2.1115474   -2.1115474   -1.4780862   0.03077275   -2.1115474   0.63346121   418189 
 3539000   0.60815641   -2.1114042   -2.1114042   -1.4774826  0.039121613   -2.1114042   0.63392157   418189 
 3540000   0.60907514   -2.1126604   -2.1126604   -1.4777811  0.037272594   -2.1126604   0.63487923   418189 
 3541000   0.60895561    -2.112634    -2.112634   -1.4778794  0.042681554    -2.112634   0.63475463   418189 
 3542000    0.6095077   -2.1130329   -2.1130329   -1.4777028  0.030709467   -2.1130329   0.63533011   418189 
 3543000    0.6085161   -2.1125883   -2.1125883   -1.4782918   0.03630074   -2.1125883    0.6342965   418189 
 3544000   0.60842393   -2.1120649   -2.1120649   -1.4778644  0.040999606   -2.1120649   0.63420042   418189 
 3545000   0.60882447   -2.1126423   -2.1126423   -1.4780243  0.039370932   -2.1126423   0.63461793   418189 
 3546000   0.60827695   -2.1127756   -2.1127756   -1.4787283  0.030073052   -2.1127756   0.63404722   418189 
 3547000   0.60918741   -2.1136597   -2.1136597   -1.4786634   0.03254265   -2.1136597   0.63499625   418189 
 3548000   0.60839916   -2.1135391   -2.1135391   -1.4793645  0.049282464   -2.1135391   0.63417461   418189 
 3549000   0.60889619   -2.1137981   -2.1137981   -1.4791054  0.041822569   -2.1137981   0.63469269   418189 
 3550000   0.60974466    -2.114531    -2.114531   -1.4789539  0.045531669    -2.114531   0.63557711   418189 
 3551000   0.60925816   -2.1143274   -2.1143274   -1.4792574  0.043779248   -2.1143274      0.63507   418189 
 3552000   0.60875154    -2.113324    -2.113324   -1.4787821   0.03989033    -2.113324   0.63454192   418189 
 3553000   0.60883193   -2.1129067   -2.1129067    -1.478281   0.03644552   -2.1129067   0.63462571   418189 
 3554000    0.6082243   -2.1134885   -2.1134885   -1.4794962  0.040358063   -2.1134885   0.63399234   418189 
 3555000   0.60725902   -2.1133258   -2.1133258   -1.4803397    0.0427253   -2.1133258   0.63298616   418189 
 3556000   0.60766549   -2.1130214   -2.1130214   -1.4796115  0.039451737   -2.1130214   0.63340986   418189 
 3557000   0.60924459   -2.1150339   -2.1150339    -1.479978  0.031437707   -2.1150339   0.63505585   418189 
 3558000   0.60856152   -2.1146093   -2.1146093   -1.4802655  0.036759818   -2.1146093   0.63434384   418189 
 3559000   0.60881534   -2.1143765   -2.1143765   -1.4797681   0.03521361   -2.1143765   0.63460842   418189 
 3560000   0.60923019   -2.1145734   -2.1145734   -1.4795326  0.032292269   -2.1145734   0.63504084   418189 
 3561000   0.60776039   -2.1132605   -2.1132605   -1.4797517  0.041830578   -2.1132605   0.63350878   418189 
 3562000   0.60834379   -2.1144226   -2.1144226   -1.4803057  0.036667957   -2.1144226   0.63411689   418189 
 3563000   0.60829732   -2.1147681   -2.1147681   -1.4806996  0.036455707   -2.1147681   0.63406846   418189 
 3564000   0.60686647   -2.1140001   -2.1140001   -1.4814232  0.036358851   -2.1140001   0.63257699   418189 
 3565000   0.60882062   -2.1152255   -2.1152255   -1.4806116  0.033103074   -2.1152255   0.63461392   418189 
 3566000    0.6097371   -2.1154047   -2.1154047   -1.4798355  0.036739883   -2.1154047   0.63556922   418189 
 3567000   0.60842182   -2.1141453   -2.1141453   -1.4799471  0.048491076   -2.1141453   0.63419823   418189 
 3568000   0.60827487   -2.1143347   -2.1143347   -1.4802897  0.042730911   -2.1143347   0.63404505   418189 
 3569000   0.60832264   -2.1143499   -2.1143499   -1.4802551  0.046382009   -2.1143499   0.63409484   418189 
 3570000   0.60807323   -2.1134323   -2.1134323   -1.4795974  0.034247714   -2.1134323   0.63383486   418189 
 3571000   0.60789269   -2.1130794   -2.1130794   -1.4794327  0.036166632   -2.1130794   0.63364668   418189 
 3572000   0.60794456   -2.1128525   -2.1128525   -1.4791518  0.038306206   -2.1128525   0.63370074   418189 
 3573000   0.60798584   -2.1129709   -2.1129709   -1.4792271  0.032022791   -2.1129709   0.63374377   418189 
 3574000   0.60661432   -2.1118506   -2.1118506   -1.4795364  0.029704969   -2.1118506   0.63231414   418189 
 3575000   0.60753189   -2.1126653   -2.1126653   -1.4793948  0.041313228   -2.1126653   0.63327059   418189 
 3576000   0.60731024   -2.1125008   -2.1125008   -1.4794612  0.040761917   -2.1125008   0.63303955   418189 
 3577000   0.60835047   -2.1133597   -2.1133597   -1.4792359   0.03759758   -2.1133597   0.63412386   418189 
 3578000   0.60856662   -2.1131841   -2.1131841    -1.478835  0.042766636   -2.1131841   0.63434916   418189 
 3579000   0.60835013   -2.1128701   -2.1128701   -1.4787466  0.032018944   -2.1128701    0.6341235   418189 
 3580000   0.60904843   -2.1134042   -2.1134042   -1.4785528  0.033163588   -2.1134042   0.63485139   418189 
 3581000    0.6085117   -2.1131281   -2.1131281   -1.4788362   0.03928602   -2.1131281   0.63429191   418189 
 3582000   0.60969135   -2.1139441   -2.1139441   -1.4784226  0.037576911   -2.1139441   0.63552154   418189 
 3583000   0.60987441    -2.113756    -2.113756   -1.4780436  0.042791182    -2.113756   0.63571236   418189 
 3584000   0.61112308   -2.1149274   -2.1149274   -1.4779135  0.037237903   -2.1149274   0.63701393   418189 
 3585000   0.60998643   -2.1149152   -2.1149152   -1.4790861  0.032409314   -2.1149152   0.63582912   418189 
 3586000   0.60845993   -2.1129171   -2.1129171   -1.4786791  0.036257237   -2.1129171   0.63423795   418189 
 3587000   0.60863534   -2.1133039   -2.1133039   -1.4788831  0.037248324   -2.1133039   0.63442079   418189 
 3588000   0.60981482   -2.1140044   -2.1140044   -1.4783541   0.03318933   -2.1140044   0.63565024   418189 
 3589000   0.60842222   -2.1122812   -2.1122812   -1.4780826  0.047888196   -2.1122812   0.63419864   418189 
 3590000   0.60915804   -2.1125157   -2.1125157     -1.47755  0.043406326   -2.1125157   0.63496564   418189 
 3591000   0.60812296   -2.1106134   -2.1106134   -1.4767267  0.036453878   -2.1106134    0.6338867   418189 
 3592000   0.60873771   -2.1115197   -2.1115197   -1.4769922  0.032568288   -2.1115197    0.6345275   418189 
 3593000   0.60922199   -2.1116879   -2.1116879   -1.4766557  0.041086741   -2.1116879   0.63503229   418189 
 3594000   0.60918392   -2.1119219   -2.1119219   -1.4769293   0.03790442   -2.1119219   0.63499261   418189 
 3595000   0.60989418   -2.1124615   -2.1124615   -1.4767285  0.030829622   -2.1124615   0.63573297   418189 
 3596000   0.60821197   -2.1101746   -2.1101746   -1.4761951  0.040967877   -2.1101746   0.63397949   418189 
 3597000   0.60870144   -2.1103318   -2.1103318   -1.4758421  0.034534532   -2.1103318   0.63448969   418189 
 3598000   0.60897921   -2.1105528   -2.1105528   -1.4757736  0.039749736   -2.1105528   0.63477923   418189 
 3599000   0.60942103   -2.1112094   -2.1112094   -1.4759697  0.042935713   -2.1112094   0.63523977   418189 
 3600000   0.60981161   -2.1116516   -2.1116516   -1.4760047  0.031645755   -2.1116516    0.6356469   418189 
 3601000   0.60957063   -2.1113292   -2.1113292   -1.4759335  0.046564685   -2.1113292   0.63539571   418189 
 3602000   0.60900264   -2.1114014   -2.1114014   -1.4765978   0.03226635   -2.1114014   0.63480365   418189 
 3603000   0.60865237   -2.1106701   -2.1106701   -1.4762315  0.042709792   -2.1106701   0.63443854   418189 
 3604000   0.60731767   -2.1098552   -2.1098552   -1.4768079   0.03361375   -2.1098552   0.63304729   418189 
 3605000   0.60908698   -2.1116841   -2.1116841   -1.4767926  0.037110684   -2.1116841   0.63489157   418189 
 3606000   0.60834075   -2.1122222   -2.1122222   -1.4781085  0.029760489   -2.1122222   0.63411372   418189 
 3607000   0.60788696   -2.1120421   -2.1120421   -1.4784014  0.031713805   -2.1120421    0.6336407   418189 
 3608000   0.60846088   -2.1127476   -2.1127476   -1.4785086  0.037519967   -2.1127476   0.63423894   418189 
 3609000   0.60818723   -2.1125226   -2.1125226   -1.4785689  0.035862962   -2.1125226   0.63395369   418189 
 3610000   0.60881402   -2.1131699   -2.1131699   -1.4785629  0.037419637   -2.1131699   0.63460704   418189 
 3611000   0.60934164   -2.1139026   -2.1139026   -1.4787456  0.033605028   -2.1139026   0.63515701   418189 
 3612000   0.60987425   -2.1139043   -2.1139043   -1.4781921   0.04766573   -2.1139043   0.63571218   418189 
 3613000   0.60906527   -2.1136613   -2.1136613   -1.4787923  0.031936104   -2.1136613   0.63486893   418189 
 3614000   0.60852106   -2.1133486   -2.1133486   -1.4790469   0.03744699   -2.1133486   0.63430168   418189 
 3615000    0.6094818   -2.1146926   -2.1146926   -1.4793895   0.03190013   -2.1146926   0.63530311   418189 
 3616000   0.60781956   -2.1124329   -2.1124329   -1.4788625  0.039239506   -2.1124329   0.63357045   418189 
 3617000   0.60897398   -2.1140556   -2.1140556   -1.4792818  0.046005484   -2.1140556   0.63477378   418189 
 3618000    0.6084898   -2.1135487   -2.1135487   -1.4792796  0.033407738   -2.1135487   0.63426909   418189 
 3619000   0.60741421   -2.1119833   -2.1119833   -1.4788353  0.034877085   -2.1119833   0.63314793   418189 
 3620000   0.60760836   -2.1120368   -2.1120368   -1.4786865  0.043619625   -2.1120368   0.63335031   418189 
 3621000    0.6074343   -2.1112656   -2.1112656   -1.4780968  0.034927914   -2.1112656   0.63316886   418189 
 3622000   0.60763677   -2.1123691   -2.1123691   -1.4789892  0.035098306   -2.1123691   0.63337992   418189 
 3623000   0.60768144   -2.1126013   -2.1126013   -1.4791749  0.041515575   -2.1126013   0.63342648   418189 
 3624000   0.60808844   -2.1136361   -2.1136361   -1.4797854   0.03731536   -2.1136361   0.63385072   418189 
 3625000   0.60821489   -2.1133212   -2.1133212   -1.4793386  0.041395814   -2.1133212   0.63398253   418189 
 3626000   0.60759318   -2.1132026   -2.1132026   -1.4798682  0.041875018   -2.1132026   0.63333448   418189 
 3627000   0.60846307   -2.1141045   -2.1141045   -1.4798633  0.037380101   -2.1141045   0.63424122   418189 
 3628000    0.6071589   -2.1129537   -2.1129537   -1.4800719   0.03879184   -2.1129537    0.6328818   418189 
 3629000   0.60743825   -2.1125806   -2.1125806   -1.4794076  0.032641248   -2.1125806   0.63317299   418189 
 3630000   0.60784069   -2.1129577   -2.1129577   -1.4793653  0.038877934   -2.1129577   0.63359248   418189 
 3631000   0.60863562   -2.1137617   -2.1137617   -1.4793406  0.037378681   -2.1137617   0.63442108   418189 
 3632000   0.60929059   -2.1146756   -2.1146756   -1.4795718  0.036169631   -2.1146756   0.63510381   418189 
 3633000   0.60820162   -2.1131243   -2.1131243   -1.4791556   0.03102917   -2.1131243    0.6339687   418189 
 3634000   0.60753369   -2.1127884   -2.1127884   -1.4795159  0.038178251   -2.1127884   0.63327247   418189 
 3635000    0.6083737    -2.114666    -2.114666    -1.480518  0.040338661    -2.114666   0.63414807   418189 
 3636000   0.60830251   -2.1140386   -2.1140386   -1.4799648   0.03341215   -2.1140386   0.63407386   418189 
 3637000   0.60676725   -2.1128789   -2.1128789   -1.4804053  0.030374832   -2.1128789   0.63247356   418189 
 3638000   0.60920752   -2.1144474   -2.1144474   -1.4794302   0.03869018   -2.1144474   0.63501721   418189 
 3639000   0.60847441   -2.1134347   -2.1134347   -1.4791817  0.035385908   -2.1134347   0.63425304   418189 
 3640000   0.60931199   -2.1139713   -2.1139713   -1.4788452  0.040238483   -2.1139713   0.63512611   418189 
 3641000   0.60938061   -2.1146377   -2.1146377   -1.4794401  0.036185255   -2.1146377   0.63519763   418189 
 3642000   0.60867633   -2.1137911   -2.1137911   -1.4793275  0.040553856   -2.1137911   0.63446352   418189 
 3643000   0.60912542   -2.1146381   -2.1146381   -1.4797065   0.03338088   -2.1146381   0.63493163   418189 
 3644000   0.60771593   -2.1133473   -2.1133473   -1.4798849  0.037097678   -2.1133473   0.63346243   418189 
 3645000   0.60754607   -2.1135029   -2.1135029   -1.4802175  0.035501569   -2.1135029   0.63328537   418189 
 3646000    0.6072507   -2.1127836   -2.1127836   -1.4798062  0.040783847   -2.1127836   0.63297749   418189 
 3647000    0.6071783   -2.1131862   -2.1131862   -1.4802842  0.034049986   -2.1131862   0.63290203   418189 
 3648000   0.60809938   -2.1136205   -2.1136205   -1.4797583  0.045057542   -2.1136205   0.63386213   418189 
 3649000   0.60678149   -2.1119349   -2.1119349   -1.4794465  0.031797535   -2.1119349   0.63248841   418189 
 3650000   0.60835471   -2.1136167   -2.1136167   -1.4794885  0.036526071   -2.1136167   0.63412827   418189 
 3651000   0.60778075   -2.1125596   -2.1125596   -1.4790297  0.040407505   -2.1125596      0.63353   418189 
 3652000   0.60905608   -2.1142081   -2.1142081   -1.4793488   0.03387383   -2.1142081   0.63485935   418189 
 3653000   0.60892507   -2.1137369   -2.1137369   -1.4790141  0.036121623   -2.1137369    0.6347228   418189 
 3654000   0.60789611   -2.1131369   -2.1131369   -1.4794867  0.046364655   -2.1131369   0.63365024   418189 
 3655000   0.60821032    -2.113047    -2.113047   -1.4790692  0.037995981    -2.113047   0.63397777   418189 
 3656000   0.60840713   -2.1130887   -2.1130887   -1.4789058  0.027408463   -2.1130887   0.63418291   418189 
 3657000   0.60821816   -2.1135686   -2.1135686   -1.4795826  0.041186826   -2.1135686   0.63398594   418189 
 3658000   0.60757499   -2.1128647   -2.1128647   -1.4795492  0.038346908   -2.1128647   0.63331551   418189 
 3659000   0.60846686   -2.1132303   -2.1132303   -1.4789852  0.041006949   -2.1132303   0.63424518   418189 
 3660000   0.60942046   -2.1140743   -2.1140743   -1.4788351  0.037420722   -2.1140743   0.63523917   418189 
 3661000   0.60885753   -2.1145613   -2.1145613   -1.4799089  0.042359478   -2.1145613   0.63465239   418189 
 3662000    0.6073246   -2.1134026   -2.1134026   -1.4803481  0.041605238   -2.1134026   0.63305452   418189 
 3663000     0.608199   -2.1145939   -2.1145939   -1.4806279  0.044255477   -2.1145939   0.63396597   418189 
 3664000   0.60711748   -2.1131263   -2.1131263   -1.4802876  0.029868911   -2.1131263   0.63283863   418189 
 3665000   0.60841262   -2.1141176   -2.1141176   -1.4799289  0.037127143   -2.1141176   0.63418864   418189 
 3666000   0.61035783   -2.1155599   -2.1155599   -1.4793436  0.034549162   -2.1155599   0.63621626   418189 
 3667000   0.60853874   -2.1144658   -2.1144658   -1.4801457  0.038936227   -2.1144658    0.6343201   418189 
 3668000   0.60886952   -2.1146198   -2.1146198    -1.479955  0.036333514   -2.1146198   0.63466489   418189 
 3669000   0.60837021   -2.1142918   -2.1142918   -1.4801474  0.044641789   -2.1142918   0.63414443   418189 
 3670000   0.60877188   -2.1152048   -2.1152048   -1.4806417  0.037663106   -2.1152048   0.63456311   418189 
 3671000   0.60715093   -2.1134788   -2.1134788   -1.4806053  0.047725038   -2.1134788   0.63287349   418189 
 3672000   0.60859905   -2.1156225   -2.1156225   -1.4812395  0.033250572   -2.1156225   0.63438297   418189 
 3673000   0.60835512     -2.11486     -2.11486   -1.4807313  0.021420532     -2.11486    0.6341287   418189 
 3674000   0.60817243   -2.1139905   -2.1139905   -1.4800522  0.038070073   -2.1139905   0.63393827   418189 
 3675000   0.60758072   -2.1135487   -2.1135487   -1.4802273  0.041536906   -2.1135487   0.63332149   418189 
 3676000   0.60809779   -2.1133097   -2.1133097   -1.4794492  0.035555686   -2.1133097   0.63386047   418189 
 3677000   0.60942329   -2.1146666   -2.1146666   -1.4794245  0.038922525   -2.1146666   0.63524212   418189 
 3678000   0.60963011   -2.1148496   -2.1148496   -1.4793919  0.040236169   -2.1148496   0.63545771   418189 
 3679000   0.61039739   -2.1151199   -2.1151199   -1.4788624  0.037660985   -2.1151199    0.6362575   418189 
 3680000    0.6089384   -2.1136599   -2.1136599   -1.4789232  0.038573814   -2.1136599   0.63473669   418189 
 3681000   0.60958232   -2.1139324   -2.1139324   -1.4785245  0.031872907   -2.1139324   0.63540789   418189 
 3682000   0.60959693   -2.1134544   -2.1134544   -1.4780313  0.033291215   -2.1134544   0.63542312   418189 
 3683000   0.60960654   -2.1134618   -2.1134618   -1.4780287  0.041061957   -2.1134618   0.63543314   418189 
 3684000   0.60816678   -2.1118012   -2.1118012   -1.4778688  0.030379786   -2.1118012   0.63393238   418189 
 3685000   0.60704279   -2.1106539   -2.1106539   -1.4778931  0.037980973   -2.1106539   0.63276077   418189 
 3686000   0.60760966   -2.1121999   -2.1121999   -1.4788483  0.038943204   -2.1121999   0.63335166   418189 
 3687000   0.60790215    -2.112537    -2.112537   -1.4788805  0.035101304    -2.112537   0.63365654   418189 
 3688000   0.60876805   -2.1129336   -2.1129336   -1.4783745  0.027230463   -2.1129336   0.63455912   418189 
 3689000   0.60947462    -2.112769    -2.112769   -1.4774734  0.037535362    -2.112769   0.63529563   418189 
 3690000   0.60669229   -2.1112173   -2.1112173   -1.4788219  0.030188488   -2.1112173   0.63239542   418189 
 3691000   0.60804503   -2.1130199   -2.1130199   -1.4792145  0.037084969   -2.1130199   0.63380547   418189 
 3692000   0.60797898   -2.1129592   -2.1129592   -1.4792225  0.033168255   -2.1129592   0.63373662   418189 
 3693000   0.60935573   -2.1134785   -2.1134785   -1.4783068  0.047980936   -2.1134785    0.6351717   418189 
 3694000   0.60925611   -2.1132591   -2.1132591   -1.4781912  0.039475184   -2.1132591   0.63506786   418189 
 3695000    0.6092256   -2.1133961   -2.1133961   -1.4783601  0.034882281   -2.1133961   0.63503605   418189 
 3696000   0.60961482   -2.1146812   -2.1146812   -1.4792394  0.037385992   -2.1146812   0.63544177   418189 
 3697000   0.60776104   -2.1133497   -2.1133497   -1.4798402  0.034955976   -2.1133497   0.63350945   418189 
 3698000    0.6096263   -2.1147575   -2.1147575   -1.4793037   0.04516874   -2.1147575   0.63545373   418189 
 3699000    0.6095899   -2.1142229   -2.1142229   -1.4788072  0.043073866   -2.1142229   0.63541579   418189 
 3700000    0.6084151   -2.1130471   -2.1130471   -1.4788559  0.042411235   -2.1130471   0.63419122   418189 
 3701000   0.60879978    -2.113741    -2.113741   -1.4791488  0.047618092    -2.113741    0.6345922   418189 
 3702000   0.60985648   -2.1146836   -2.1146836   -1.4789899  0.034458195   -2.1146836   0.63569367   418189 
 3703000   0.60858743   -2.1138687   -2.1138687   -1.4794978  0.028172436   -2.1138687   0.63437086   418189 
 3704000   0.60719031   -2.1130506   -2.1130506    -1.480136   0.03815207   -2.1130506   0.63291455   418189 
 3705000   0.60737298   -2.1126063   -2.1126063   -1.4795013  0.032283191   -2.1126063   0.63310495   418189 
 3706000   0.60773442   -2.1123387   -2.1123387    -1.478857  0.038486295   -2.1123387   0.63348171   418189 
 3707000   0.60716822   -2.1110982   -2.1110982   -1.4782067   0.03787155   -2.1110982   0.63289151   418189 
 3708000   0.60948223   -2.1126544   -2.1126544   -1.4773509  0.037293267   -2.1126544   0.63530356   418189 
 3709000   0.60839957   -2.1116933   -2.1116933   -1.4775183  0.036962106   -2.1116933   0.63417503   418189 
 3710000   0.60986695   -2.1134267   -2.1134267   -1.4777221  0.037025832   -2.1134267   0.63570458   418189 
 3711000   0.60964634   -2.1136451   -2.1136451   -1.4781705  0.036612175   -2.1136451   0.63547463   418189 
 3712000   0.60852498   -2.1125821   -2.1125821   -1.4782764   0.03467736   -2.1125821   0.63430576   418189 
 3713000   0.60908337   -2.1121037   -2.1121037   -1.4772159  0.030970521   -2.1121037    0.6348878   418189 
 3714000   0.60884188   -2.1119106   -2.1119106   -1.4772745  0.040006654   -2.1119106   0.63463608   418189 
 3715000   0.60925428   -2.1125638   -2.1125638   -1.4774979  0.041819926   -2.1125638   0.63506595   418189 
 3716000   0.60890983   -2.1121834   -2.1121834   -1.4774765  0.041467495   -2.1121834   0.63470691   418189 
 3717000   0.60987806   -2.1129273   -2.1129273   -1.4772111  0.027300247   -2.1129273   0.63571616   418189 
 3718000   0.60938808   -2.1120023   -2.1120023   -1.4767969  0.035840274   -2.1120023   0.63520542   418189 
 3719000   0.60893087   -2.1121753   -2.1121753   -1.4774465  0.044973405   -2.1121753   0.63472885   418189 
 3720000   0.60982066   -2.1135781   -2.1135781   -1.4779217  0.041949058   -2.1135781   0.63565633   418189 
 3721000   0.60886708   -2.1134911   -2.1134911   -1.4788287  0.038269307   -2.1134911   0.63466235   418189 
 3722000   0.60800956   -2.1124629   -2.1124629   -1.4786944  0.040261924   -2.1124629    0.6337685   418189 
 3723000   0.60820453   -2.1130416   -2.1130416   -1.4790699  0.037927792   -2.1130416   0.63397173   418189 
 3724000   0.60716229    -2.111796    -2.111796   -1.4789107  0.037993921    -2.111796   0.63288533   418189 
 3725000   0.60693371   -2.1123205   -2.1123205   -1.4796734  0.031391281   -2.1123205   0.63264707   418189 
 3726000   0.60808347   -2.1132227   -2.1132227   -1.4793772  0.032225409   -2.1132227   0.63384554   418189 
 3727000   0.60760223   -2.1131433   -2.1131433   -1.4797994  0.036008832   -2.1131433   0.63334392   418189 
 3728000   0.60862395   -2.1140181   -2.1140181   -1.4796092  0.036928305   -2.1140181   0.63440892   418189 
 3729000   0.60803168   -2.1134732   -2.1134732   -1.4796817  0.037712995   -2.1134732   0.63379156   418189 
 3730000   0.60823004   -2.1137907   -2.1137907   -1.4797924  0.040755692   -2.1137907   0.63399832   418189 
 3731000     0.607972   -2.1140625   -2.1140625   -1.4803331  0.033835407   -2.1140625   0.63372934   418189 
 3732000   0.60846408   -2.1147472   -2.1147472   -1.4805049  0.028715165   -2.1147472   0.63424227   418189 
 3733000   0.60752401   -2.1141893   -2.1141893    -1.480927  0.030579118   -2.1141893   0.63326238   418189 
 3734000   0.60743495   -2.1136164   -2.1136164   -1.4804468  0.045418869   -2.1136164   0.63316954   418189 
 3735000   0.60742102   -2.1142335   -2.1142335   -1.4810784  0.039400063   -2.1142335   0.63315503   418189 
 3736000   0.60678652   -2.1137035   -2.1137035   -1.4812099  0.043058535   -2.1137035   0.63249365   418189 
 3737000   0.60730816   -2.1136881   -2.1136881   -1.4806508  0.024757552   -2.1136881   0.63303739   418189 
 3738000   0.60722986   -2.1135259   -2.1135259   -1.4805702   0.03868261   -2.1135259   0.63295577   418189 
 3739000   0.60856593   -2.1149382   -2.1149382   -1.4805898   0.03550252   -2.1149382   0.63434845   418189 
 3740000   0.60870561   -2.1145226   -2.1145226   -1.4800286  0.040975863   -2.1145226   0.63449403   418189 
 3741000   0.60881691   -2.1150167   -2.1150167   -1.4804066  0.038272634   -2.1150167   0.63461005   418189 
 3742000   0.60751744   -2.1127858   -2.1127858   -1.4795303  0.041093051   -2.1127858   0.63325553   418189 
 3743000   0.60821535   -2.1122388   -2.1122388   -1.4782558  0.038895585   -2.1122388   0.63398301   418189 
 3744000    0.6093533   -2.1144467   -2.1144467   -1.4792775  0.032631585   -2.1144467   0.63516917   418189 
 3745000   0.60878628   -2.1139164   -2.1139164   -1.4793383  0.030739382   -2.1139164   0.63457813   418189 
 3746000   0.60842605   -2.1135781   -2.1135781   -1.4793755  0.035597349   -2.1135781   0.63420263   418189 
 3747000   0.60640611   -2.1123226   -2.1123226   -1.4802255  0.033654324   -2.1123226   0.63209712   418189 
 3748000   0.60708512   -2.1121872   -2.1121872   -1.4793823   0.02929925   -2.1121872    0.6328049   418189 
 3749000   0.60796366   -2.1130133   -2.1130133   -1.4792927   0.03843843   -2.1130133   0.63372066   418189 
 3750000   0.60860801   -2.1133997   -2.1133997   -1.4790074  0.041826258   -2.1133997    0.6343923   418189 
 3751000   0.60863338   -2.1136683   -2.1136683   -1.4792496  0.037949237   -2.1136683   0.63441875   418189 
 3752000   0.61039022   -2.1147903   -2.1147903   -1.4785403  0.043203985   -2.1147903   0.63625002   418189 
 3753000   0.60813773    -2.112918    -2.112918   -1.4790159  0.040923031    -2.112918    0.6339021   418189 
 3754000   0.60831156   -2.1132202   -2.1132202   -1.4791369  0.035088944   -2.1132202   0.63408329   418189 
 3755000   0.60856113   -2.1130319   -2.1130319   -1.4786885  0.044755402   -2.1130319   0.63434343   418189 
 3756000   0.60915405   -2.1140455   -2.1140455    -1.479084  0.032574941   -2.1140455   0.63496148   418189 
 3757000   0.60834131   -2.1134101   -2.1134101   -1.4792958  0.031166722   -2.1134101    0.6341143   418189 
 3758000   0.60827331   -2.1125259   -2.1125259   -1.4784824  0.023568148   -2.1125259   0.63404342   418189 
 3759000   0.60874546   -2.1127758   -2.1127758   -1.4782402  0.023323362   -2.1127758   0.63453558   418189 
 3760000   0.60955624   -2.1143103   -2.1143103   -1.4789296  0.029725881   -2.1143103   0.63538071   418189 
 3761000   0.60787149   -2.1128236   -2.1128236    -1.479199  0.030239686   -2.1128236   0.63362458   418189 
 3762000   0.60771084   -2.1117768   -2.1117768   -1.4783197  0.040641387   -2.1117768   0.63345713   418189 
 3763000   0.61029386    -2.115117    -2.115117   -1.4789674  0.029310139    -2.115117   0.63614958   418189 
 3764000   0.60769248   -2.1124021   -2.1124021   -1.4789641  0.036088379   -2.1124021   0.63343799   418189 
 3765000   0.60764896   -2.1130158   -2.1130158   -1.4796232  0.036301655   -2.1130158   0.63339262   418189 
 3766000   0.60762477   -2.1132032   -2.1132032   -1.4798358   0.04684581   -2.1132032   0.63336741   418189 
 3767000   0.60775395   -2.1146106   -2.1146106   -1.4811086  0.036225351   -2.1146106   0.63350206   418189 
 3768000   0.60779909    -2.113871    -2.113871   -1.4803219  0.030776538    -2.113871   0.63354911   418189 
 3769000   0.60966286    -2.115103    -2.115103   -1.4796111  0.034206427    -2.115103   0.63549184   418189 
 3770000   0.60911533   -2.1148961   -2.1148961    -1.479975   0.03358955   -2.1148961   0.63492112   418189 
 3771000   0.60808928   -2.1135627   -2.1135627   -1.4797111  0.035736382   -2.1135627    0.6338516   418189 
 3772000   0.60892414   -2.1151835   -2.1151835   -1.4804617   0.03566143   -2.1151835   0.63472183   418189 
 3773000    0.6077543   -2.1147351   -2.1147351   -1.4812327  0.035646137   -2.1147351   0.63350243   418189 
 3774000   0.60918902   -2.1164778   -2.1164778   -1.4814799  0.033197617   -2.1164778   0.63499793   418189 
 3775000    0.6094122   -2.1162519   -2.1162519   -1.4810213   0.02913756   -2.1162519   0.63523057   418189 
 3776000   0.60884366   -2.1159898   -2.1159898   -1.4813519  0.035628355   -2.1159898   0.63463794   418189 
 3777000   0.60795046   -2.1149107   -2.1149107   -1.4812038  0.037762142   -2.1149107    0.6337069   418189 
 3778000   0.60837951   -2.1150733   -2.1150733   -1.4809191  0.037981758   -2.1150733   0.63415412   418189 
 3779000   0.60758554   -2.1139505   -2.1139505    -1.480624  0.039598286   -2.1139505   0.63332652   418189 
 3780000   0.60785595   -2.1142931   -2.1142931   -1.4806847  0.041326229   -2.1142931   0.63360839   418189 
 3781000   0.60830292   -2.1138275   -2.1138275   -1.4797532  0.029661536   -2.1138275   0.63407429   418189 
 3782000   0.60909343   -2.1148069   -2.1148069   -1.4799086  0.030177821   -2.1148069   0.63489829   418189 
 3783000   0.60879707   -2.1146888   -2.1146888   -1.4800994  0.042114696   -2.1146888   0.63458938   418189 
 3784000   0.60865534   -2.1144099   -2.1144099   -1.4799683  0.035549965   -2.1144099   0.63444163   418189 
 3785000   0.60843047   -2.1150613   -2.1150613   -1.4808541  0.035017252   -2.1150613   0.63420724   418189 
 3786000   0.60861992   -2.1155772   -2.1155772   -1.4811725  0.043328746   -2.1155772   0.63440472   418189 
 3787000    0.6081666   -2.1151796   -2.1151796   -1.4812474  0.038585741   -2.1151796   0.63393219   418189 
 3788000   0.60844045   -2.1152426   -2.1152426   -1.4810249  0.028027377   -2.1152426   0.63421765   418189 
 3789000   0.60828194   -2.1158825   -2.1158825   -1.4818301  0.032777842   -2.1158825   0.63405241   418189 
 3790000   0.60822838   -2.1160475   -2.1160475   -1.4820509  0.033628518   -2.1160475   0.63399659   418189 
 3791000   0.60964109   -2.1173573   -2.1173573   -1.4818882  0.035528222   -2.1173573   0.63546915   418189 
 3792000   0.60872183   -2.1162561   -2.1162561   -1.4817452    0.0363433   -2.1162561   0.63451095   418189 
 3793000   0.60912105   -2.1170617   -2.1170617   -1.4821346  0.032213506   -2.1170617   0.63492708   418189 
 3794000   0.60882996   -2.1168724   -2.1168724   -1.4822488  0.043654097   -2.1168724   0.63462366   418189 
 3795000     0.607948   -2.1169203   -2.1169203    -1.483216  0.031356056   -2.1169203   0.63370434   418189 
 3796000   0.60731913   -2.1162337   -2.1162337   -1.4831849  0.044085379   -2.1162337   0.63304882   418189 
 3797000   0.60845045   -2.1172505   -2.1172505   -1.4830224  0.043104486   -2.1172505   0.63422806   418189 
 3798000   0.60718476   -2.1161136   -2.1161136   -1.4832048  0.039494443   -2.1161136   0.63290875   418189 
 3799000   0.60873304   -2.1169262   -2.1169262   -1.4824035   0.03295859   -2.1169262   0.63452264   418189 
 3800000   0.61069587   -2.1179358   -2.1179358   -1.4813672  0.034898656   -2.1179358   0.63656862   418189 
 3801000   0.60956052   -2.1179161   -2.1179161    -1.482531  0.042476182   -2.1179161   0.63538517   418189 
 3802000   0.60850478     -2.11631     -2.11631   -1.4820253  0.037494003     -2.11631    0.6342847   418189 
 3803000   0.60731662   -2.1161672   -2.1161672    -1.483121  0.035903708   -2.1161672   0.63304621   418189 
 3804000   0.60697656   -2.1156751   -2.1156751   -1.4829834   0.03891446   -2.1156751   0.63269173   418189 
 3805000    0.6076789   -2.1168072   -2.1168072   -1.4833834  0.031547792   -2.1168072   0.63342383   418189 
 3806000   0.60636895   -2.1157658   -2.1157658   -1.4837074  0.039850937   -2.1157658   0.63205839   418189 
 3807000   0.60714004   -2.1165064   -2.1165064   -1.4836443   0.03528109   -2.1165064   0.63286215   418189 
 3808000    0.6068319   -2.1156347   -2.1156347   -1.4830938  0.035914548   -2.1156347   0.63254095   418189 
 3809000    0.6086032    -2.117833    -2.117833   -1.4834457  0.040616343    -2.117833    0.6343873   418189 
 3810000   0.60755404   -2.1171474   -2.1171474   -1.4838537  0.034027475   -2.1171474   0.63329368   418189 
 3811000   0.60732113   -2.1171422   -2.1171422   -1.4840913  0.032369973   -2.1171422    0.6330509   418189 
 3812000   0.60791897    -2.118002    -2.118002   -1.4843279  0.028693644    -2.118002   0.63367407   418189 
 3813000   0.60870935   -2.1178536   -2.1178536   -1.4833556  0.039858442   -2.1178536   0.63449794   418189 
 3814000   0.60873396   -2.1169178   -2.1169178   -1.4823942  0.036370871   -2.1169178   0.63452359   418189 
 3815000   0.60857808    -2.117811    -2.117811   -1.4834499  0.035904008    -2.117811   0.63436111   418189 
 3816000   0.60805359    -2.117014    -2.117014   -1.4831996  0.030035725    -2.117014   0.63381439   418189 
 3817000   0.60743823   -2.1162199   -2.1162199   -1.4830469  0.042826453   -2.1162199   0.63317296   418189 
 3818000   0.60813631   -2.1172701   -2.1172701   -1.4833694  0.042210368   -2.1172701   0.63390062   418189 
 3819000   0.60992319    -2.118564    -2.118564   -1.4828008  0.035122611    -2.118564    0.6357632   418189 
 3820000   0.60797294   -2.1168623   -2.1168623    -1.483132  0.039545884   -2.1168623   0.63373033   418189 
 3821000   0.60728024   -2.1171081   -2.1171081   -1.4840998  0.032549142   -2.1171081   0.63300828   418189 
 3822000   0.60761772   -2.1174273   -2.1174273   -1.4840673  0.042803338   -2.1174273   0.63336006   418189 
 3823000   0.60852425   -2.1178854   -2.1178854   -1.4835804  0.040654019   -2.1178854   0.63430499   418189 
 3824000   0.60925457   -2.1189234   -2.1189234   -1.4838572  0.033974189   -2.1189234   0.63506626   418189 
 3825000   0.60747279   -2.1175012   -2.1175012   -1.4842922  0.036921252   -2.1175012   0.63320899   418189 
 3826000   0.60709581   -2.1166879   -2.1166879   -1.4838719  0.042164244   -2.1166879   0.63281604   418189 
 3827000   0.60652045   -2.1168625   -2.1168625   -1.4846462  0.040920478   -2.1168625    0.6322163   418189 
 3828000   0.60767648   -2.1179185   -2.1179185   -1.4844972  0.032492079   -2.1179185   0.63342131   418189 
 3829000   0.60777185   -2.1173471   -2.1173471   -1.4838264  0.041702703   -2.1173471   0.63352072   418189 
 3830000   0.60691186    -2.117213    -2.117213   -1.4845887  0.047765185    -2.117213    0.6326243   418189 
 3831000   0.60769948   -2.1182268   -2.1182268   -1.4847815  0.034045291   -2.1182268   0.63344528   418189 
 3832000   0.60729297   -2.1174668   -2.1174668   -1.4844453  0.035628699   -2.1174668   0.63302155   418189 
 3833000   0.60768664   -2.1178257   -2.1178257   -1.4843938  0.029742881   -2.1178257    0.6334319   418189 
 3834000   0.60694879   -2.1165457   -2.1165457   -1.4838829  0.035742474   -2.1165457   0.63266279   418189 
 3835000    0.6087729   -2.1182638   -2.1182638   -1.4836997  0.037333258   -2.1182638   0.63456418   418189 
 3836000   0.60724117   -2.1173785   -2.1173785    -1.484411  0.039591887   -2.1173785   0.63296756   418189 
 3837000   0.60779024   -2.1175863   -2.1175863   -1.4840464  0.040062787   -2.1175863   0.63353988   418189 
 3838000   0.60782438   -2.1178611   -2.1178611   -1.4842856   0.03434032   -2.1178611   0.63357548   418189 
 3839000   0.60841448    -2.118998    -2.118998   -1.4848074  0.036642494    -2.118998   0.63419058   418189 
 3840000   0.60815769   -2.1187304   -2.1187304   -1.4848075  0.035829277   -2.1187304   0.63392291   418189 
 3841000   0.60699043   -2.1180281   -2.1180281   -1.4853219  0.026379651   -2.1180281    0.6327062   418189 
 3842000    0.6083131   -2.1185799   -2.1185799    -1.484495  0.041498396   -2.1185799    0.6340849   418189 
 3843000   0.60886316   -2.1190193   -2.1190193   -1.4843611  0.041242412   -2.1190193   0.63465826   418189 
 3844000   0.60758835   -2.1172317   -2.1172317   -1.4839022  0.036606618   -2.1172317   0.63332945   418189 
 3845000    0.6074427   -2.1170363   -2.1170363   -1.4838587  0.036885116   -2.1170363   0.63317763   418189 
 3846000   0.60748365   -2.1173293   -2.1173293    -1.484109  0.038013322   -2.1173293   0.63322031   418189 
 3847000   0.60709092   -2.1181383   -2.1181383   -1.4853273  0.044261394   -2.1181383   0.63281094   418189 
 3848000    0.6075072   -2.1182821   -2.1182821   -1.4850373  0.039599173   -2.1182821   0.63324486   418189 
 3849000   0.60710993   -2.1179304   -2.1179304   -1.4850996  0.045112086   -2.1179304   0.63283076   418189 
 3850000   0.60655692   -2.1167466   -2.1167466   -1.4844923  0.029852578   -2.1167466   0.63225432   418189 
 3851000   0.60616937   -2.1160904   -2.1160904   -1.4842401  0.029763963   -2.1160904   0.63185035   418189 
 3852000   0.60798257   -2.1178752   -2.1178752   -1.4841348  0.035576663   -2.1178752   0.63374036   418189 
 3853000    0.6079238   -2.1180959   -2.1180959   -1.4844168  0.034282132   -2.1180959    0.6336791   418189 
 3854000   0.60737429   -2.1178396   -2.1178396   -1.4847333  0.046706696   -2.1178396   0.63310632   418189 
 3855000   0.60733714   -2.1169038   -2.1169038   -1.4838363  0.034170973   -2.1169038   0.63306759   418189 
 3856000   0.60839827   -2.1185847   -2.1185847    -1.484411  0.035192395   -2.1185847   0.63417367   418189 
 3857000   0.60820334   -2.1183219   -2.1183219   -1.4843515  0.025218707   -2.1183219   0.63397049   418189 
 3858000   0.60792154   -2.1178398   -2.1178398   -1.4841631  0.034356686   -2.1178398   0.63367675   418189 
 3859000   0.60689621   -2.1167138   -2.1167138   -1.4841058   0.03676356   -2.1167138   0.63260798   418189 
 3860000   0.60781953   -2.1176814   -2.1176814   -1.4841109  0.035173394   -2.1176814   0.63357042   418189 
 3861000   0.60781703   -2.1181054   -2.1181054   -1.4845376  0.030472028   -2.1181054   0.63356781   418189 
 3862000   0.60719545   -2.1173464   -2.1173464   -1.4844265  0.043489746   -2.1173464    0.6329199   418189 
 3863000   0.60741733   -2.1176707   -2.1176707   -1.4845195  0.037330341   -2.1176707   0.63315118   418189 
 3864000   0.60703473   -2.1170907   -2.1170907   -1.4843383  0.030792499   -2.1170907   0.63275237   418189 
 3865000   0.60775519   -2.1178599   -2.1178599   -1.4843566   0.04045685   -2.1178599   0.63350336   418189 
 3866000   0.60849421   -2.1189165   -2.1189165   -1.4846428  0.035142557   -2.1189165   0.63427368   418189 
 3867000    0.6070063   -2.1176172   -2.1176172   -1.4848944  0.037770765   -2.1176172   0.63272274   418189 
 3868000   0.60715899   -2.1170794   -2.1170794   -1.4841975  0.043493761   -2.1170794    0.6328819   418189 
 3869000   0.60875799   -2.1188986   -2.1188986     -1.48435   0.04736634   -2.1188986   0.63454864   418189 
 3870000   0.60830511   -2.1185722   -2.1185722   -1.4844956  0.032659111   -2.1185722   0.63407657   418189 
 3871000    0.6093834   -2.1198952   -2.1198952   -1.4846947  0.043797593   -2.1198952   0.63520054   418189 
 3872000    0.6097529   -2.1192561   -2.1192561   -1.4836704  0.035346321   -2.1192561    0.6355857   418189 
 3873000   0.60804572    -2.117469    -2.117469   -1.4836628  0.035611292    -2.117469   0.63380619   418189 
 3874000   0.60855696   -2.1188723   -2.1188723   -1.4845332  0.040486596   -2.1188723   0.63433909   418189 
 3875000   0.60738147   -2.1176603   -2.1176603   -1.4845465  0.032801425   -2.1176603    0.6331138   418189 
 3876000   0.60843111   -2.1188191   -2.1188191   -1.4846112  0.027508531   -2.1188191   0.63420791   418189 
 3877000   0.60820086   -2.1185688   -2.1185688   -1.4846009  0.042012414   -2.1185688    0.6339679   418189 
 3878000   0.60889357   -2.1189005   -2.1189005   -1.4842105   0.03730601   -2.1189005   0.63468997   418189 
 3879000   0.60787617   -2.1190404   -2.1190404   -1.4854109  0.038977312   -2.1190404   0.63362946   418189 
 3880000   0.60742195   -2.1185396   -2.1185396   -1.4853836  0.040174788   -2.1185396     0.633156   418189 
 3881000    0.6075918   -2.1191794   -2.1191794   -1.4858463  0.025806624   -2.1191794   0.63333304   418189 
 3882000   0.60549669   -2.1158653   -2.1158653   -1.4847161  0.037500357   -2.1158653   0.63114917   418189 
 3883000   0.60745721    -2.118219    -2.118219   -1.4850262   0.02841038    -2.118219   0.63319275   418189 
 3884000     0.606491   -2.1173159   -2.1173159   -1.4851303  0.036612432   -2.1173159    0.6321856   418189 
 3885000   0.60694011   -2.1173603   -2.1173603   -1.4847065  0.034212351   -2.1173603   0.63265374   418189 
 3886000   0.60711622   -2.1176165   -2.1176165   -1.4847792  0.038158163   -2.1176165   0.63283731   418189 
 3887000    0.6074555   -2.1176197   -2.1176197   -1.4844288   0.03362858   -2.1176197   0.63319096   418189 
 3888000   0.60861474   -2.1180151   -2.1180151   -1.4836158  0.033581541   -2.1180151   0.63439932   418189 
 3889000    0.6092483   -2.1183315   -2.1183315   -1.4832718  0.037989815   -2.1183315   0.63505972   418189 
 3890000   0.60869353   -2.1178566   -2.1178566   -1.4833751  0.042067438   -2.1178566   0.63448144   418189 
 3891000   0.60742206   -2.1175349   -2.1175349   -1.4843788  0.039500451   -2.1175349   0.63315611   418189 
 3892000    0.6086064    -2.118231    -2.118231   -1.4838403  0.032887448    -2.118231   0.63439063   418189 
 3893000    0.6086602   -2.1181211   -2.1181211   -1.4836743  0.030805221   -2.1181211   0.63444671   418189 
 3894000   0.60780126   -2.1170713   -2.1170713   -1.4835199  0.036578885   -2.1170713   0.63355137   418189 
 3895000   0.60867481   -2.1180802   -2.1180802   -1.4836183  0.043985261   -2.1180802   0.63446193   418189 
 3896000   0.60832833   -2.1181605   -2.1181605   -1.4840597  0.042295975   -2.1181605   0.63410077   418189 
 3897000   0.60801267   -2.1172267   -2.1172267    -1.483455  0.042111925   -2.1172267   0.63377175   418189 
 3898000   0.60741047   -2.1175013   -2.1175013   -1.4843573  0.037772662   -2.1175013   0.63314403   418189 
 3899000   0.60758367   -2.1175089   -2.1175089   -1.4841843  0.039846119   -2.1175089   0.63332456   418189 
 3900000   0.60682777   -2.1166766   -2.1166766     -1.48414  0.034843147   -2.1166766   0.63253664   418189 
 3901000   0.60701353   -2.1169538   -2.1169538   -1.4842235  0.041092781   -2.1169538   0.63273028   418189 
 3902000   0.60880619   -2.1177952   -2.1177952   -1.4831963  0.041651441   -2.1177952   0.63459889   418189 
 3903000   0.60806305   -2.1169821   -2.1169821   -1.4831578  0.044303566   -2.1169821   0.63382426   418189 
 3904000   0.60673736   -2.1161404   -2.1161404    -1.483698  0.030434391   -2.1161404    0.6324424   418189 
 3905000   0.60849322   -2.1171606   -2.1171606    -1.482888  0.029782767   -2.1171606   0.63427265   418189 
 3906000   0.60703381   -2.1149691   -2.1149691   -1.4822177  0.040587768   -2.1149691   0.63275141   418189 
 3907000   0.60767868    -2.115941    -2.115941   -1.4825174  0.030891499    -2.115941    0.6334236   418189 
 3908000    0.6067348   -2.1150558   -2.1150558   -1.4826161  0.027518977   -2.1150558   0.63243973   418189 
 3909000   0.60698482   -2.1161868   -2.1161868   -1.4834865  0.032892884   -2.1161868   0.63270034   418189 
 3910000   0.60748625   -2.1167123   -2.1167123   -1.4834893   0.04121988   -2.1167123   0.63322302   418189 
 3911000   0.60586884   -2.1153383   -2.1153383   -1.4838012  0.035183042   -2.1153383   0.63153709   418189 
 3912000   0.60703194   -2.1169127   -2.1169127   -1.4841632  0.033852534   -2.1169127   0.63274946   418189 
 3913000   0.60788784   -2.1182912   -2.1182912   -1.4846496  0.045105304   -2.1182912   0.63364163   418189 
 3914000   0.60803853   -2.1179632   -2.1179632   -1.4841645  0.037484253   -2.1179632    0.6337987   418189 
 3915000   0.60617551   -2.1165825   -2.1165825   -1.4847258   0.04052897   -2.1165825   0.63185675   418189 
 3916000   0.60874548   -2.1189295   -2.1189295   -1.4843939   0.04332272   -2.1189295    0.6345356   418189 
 3917000   0.60849476    -2.118108    -2.118108   -1.4838338  0.025835124    -2.118108   0.63427426   418189 
 3918000    0.6075592   -2.1173472   -2.1173472   -1.4840481  0.030695972   -2.1173472   0.63329906   418189 
 3919000    0.6087549   -2.1187701   -2.1187701   -1.4842247  0.039355875   -2.1187701   0.63454542   418189 
 3920000   0.60819162   -2.1185488   -2.1185488   -1.4845905  0.037963085   -2.1185488   0.63395828   418189 
 3921000   0.60769568   -2.1184925   -2.1184925   -1.4850511  0.038455481   -2.1184925   0.63344132   418189 
 3922000   0.60680609   -2.1179855   -2.1179855   -1.4854715  0.034903559   -2.1179855   0.63251405   418189 
 3923000   0.60733081   -2.1184619   -2.1184619   -1.4854009  0.040016692   -2.1184619   0.63306099   418189 
 3924000   0.60739836   -2.1181263   -2.1181263   -1.4849949   0.03607357   -2.1181263    0.6331314   418189 
 3925000   0.60712139   -2.1175593   -2.1175593   -1.4847166  0.033616547   -2.1175593    0.6328427   418189 
 3926000   0.60592385   -2.1175789   -2.1175789   -1.4859845  0.027706421   -2.1175789   0.63159442   418189 
 3927000   0.60590648   -2.1180262   -2.1180262   -1.4864499  0.033915673   -2.1180262   0.63157632   418189 
 3928000   0.60761112   -2.1189167   -2.1189167   -1.4855635   0.03379352   -2.1189167   0.63335318   418189 
 3929000   0.60773874   -2.1191426   -2.1191426   -1.4856564  0.040547249   -2.1191426    0.6334862   418189 
 3930000   0.60559379   -2.1173537   -2.1173537   -1.4861033   0.03727586   -2.1173537   0.63125038   418189 
 3931000   0.60602559   -2.1174761   -2.1174761   -1.4857756  0.027085329   -2.1174761   0.63170048   418189 
 3932000   0.60763644   -2.1192228   -2.1192228   -1.4858433  0.035511307   -2.1192228   0.63337957   418189 
 3933000   0.60689194   -2.1183196   -2.1183196    -1.485716  0.040991008   -2.1183196   0.63260353   418189 
 3934000   0.60724671   -2.1190454   -2.1190454   -1.4860721  0.037298353   -2.1190454   0.63297333   418189 
 3935000   0.60767017   -2.1196944   -2.1196944   -1.4862797  0.032921104   -2.1196944   0.63341474   418189 
 3936000   0.60654155   -2.1189024   -2.1189024   -1.4866641  0.039983717   -2.1189024    0.6322383   418189 
 3937000   0.60666299    -2.119333    -2.119333   -1.4869681  0.034018086    -2.119333   0.63236488   418189 
 3938000     0.606369   -2.1194395   -2.1194395   -1.4873811  0.037091316   -2.1194395   0.63205844   418189 
 3939000   0.60749763   -2.1206552   -2.1206552   -1.4874203  0.036609098   -2.1206552   0.63323488   418189 
 3940000   0.60670873   -2.1198563   -2.1198563   -1.4874437  0.044245113   -2.1198563   0.63241256   418189 
 3941000   0.60657033   -2.1203914   -2.1203914   -1.4881231  0.036676225   -2.1203914    0.6322683   418189 
 3942000   0.60685973   -2.1199768   -2.1199768   -1.4874068  0.039569335   -2.1199768   0.63256996   418189 
 3943000   0.60756138   -2.1212914   -2.1212914     -1.48799  0.037725534   -2.1212914   0.63330133   418189 
 3944000   0.60635076    -2.120235    -2.120235   -1.4881956  0.038524689    -2.120235   0.63203942   418189 
 3945000   0.60668311   -2.1201821   -2.1201821   -1.4877962  0.031515945   -2.1201821   0.63238586   418189 
 3946000   0.60692514   -2.1201622   -2.1201622    -1.487524  0.027022753   -2.1201622   0.63263814   418189 
 3947000   0.60729066    -2.120038    -2.120038   -1.4870188  0.038802186    -2.120038   0.63301914   418189 
 3948000   0.60749009   -2.1203474   -2.1203474   -1.4871204  0.042058884   -2.1203474   0.63322703   418189 
 3949000   0.60551575    -2.119022    -2.119022   -1.4878529  0.038790745    -2.119022   0.63116904   418189 
 3950000   0.60627233   -2.1201166   -2.1201166    -1.488159  0.040555752   -2.1201166   0.63195767   418189 
 3951000   0.60868384   -2.1215749   -2.1215749   -1.4871035  0.029394021   -2.1215749   0.63447134   418189 
 3952000   0.60733096   -2.1208506   -2.1208506   -1.4877894  0.025400059   -2.1208506   0.63306115   418189 
 3953000   0.60656774   -2.1196561   -2.1196561   -1.4873905  0.041826697   -2.1196561    0.6322656   418189 
 3954000   0.60695766   -2.1205781   -2.1205781    -1.487906  0.034941516   -2.1205781   0.63267204   418189 
 3955000    0.6090127   -2.1219257   -2.1219257   -1.4871115  0.031901875   -2.1219257   0.63481414   418189 
 3956000   0.60753238   -2.1209627   -2.1209627   -1.4876916  0.040921326   -2.1209627   0.63327111   418189 
 3957000     0.606287   -2.1207289   -2.1207289   -1.4887559   0.03769336   -2.1207289   0.63197296   418189 
 3958000   0.60608217   -2.1202996   -2.1202996   -1.4885402  0.028217436   -2.1202996   0.63175946   418189 
 3959000   0.60597657   -2.1207353   -2.1207353   -1.4890859   0.03855078   -2.1207353   0.63164938   418189 
 3960000   0.60663085   -2.1212911   -2.1212911   -1.4889597  0.035727889   -2.1212911   0.63233138   418189 
 3961000   0.60785082    -2.121471    -2.121471    -1.487868  0.043654693    -2.121471   0.63360303   418189 
 3962000   0.60686632   -2.1203884   -2.1203884   -1.4878115  0.045029205   -2.1203884   0.63257682   418189 
 3963000   0.60766581   -2.1205446   -2.1205446   -1.4871344  0.041319016   -2.1205446   0.63341019   418189 
 3964000    0.6069195   -2.1196783   -2.1196783    -1.487046  0.031541852   -2.1196783   0.63263226   418189 
 3965000   0.60701128   -2.1193134   -2.1193134   -1.4865855   0.03300239   -2.1193134   0.63272793   418189 
 3966000   0.60824087   -2.1207591   -2.1207591   -1.4867495  0.033655058   -2.1207591   0.63400961   418189 
 3967000   0.60693783    -2.119176    -2.119176   -1.4865247  0.036724257    -2.119176   0.63265137   418189 
 3968000   0.60649449   -2.1184404   -2.1184404   -1.4862512  0.027713086   -2.1184404   0.63218924   418189 
 3969000   0.60792233   -2.1200016   -2.1200016    -1.486324  0.036718745   -2.1200016   0.63367758   418189 
 3970000   0.60749842   -2.1186893   -2.1186893   -1.4854535  0.034848682   -2.1186893   0.63323571   418189 
 3971000   0.60608866   -2.1181685   -2.1181685   -1.4864023  0.034523563   -2.1181685   0.63176622   418189 
 3972000   0.60682926   -2.1183908   -2.1183908   -1.4858526  0.039478422   -2.1183908   0.63253819   418189 
 3973000   0.60792588   -2.1196514   -2.1196514   -1.4859702  0.034497771   -2.1196514   0.63368127   418189 
 3974000   0.60852815   -2.1209194   -2.1209194   -1.4866104  0.039225974   -2.1209194   0.63430906   418189 
 3975000   0.60755479   -2.1199477   -2.1199477   -1.4866532   0.04191652   -2.1199477   0.63329446   418189 
 3976000   0.60814883   -2.1205255   -2.1205255   -1.4866118  0.039614238   -2.1205255   0.63391367   418189 
 3977000   0.60650723    -2.118856    -2.118856   -1.4866534   0.03167219    -2.118856   0.63220253   418189 
 3978000   0.60771577   -2.1206504   -2.1206504   -1.4871881   0.03141072   -2.1206504   0.63346227   418189 
 3979000   0.60870345   -2.1214062   -2.1214062   -1.4869144  0.046402162   -2.1214062   0.63449179   418189 
 3980000   0.61026782   -2.1233498   -2.1233498   -1.4872273  0.036741901   -2.1233498   0.63612243   418189 
 3981000   0.60798961   -2.1209547   -2.1209547    -1.487207  0.038589691   -2.1209547    0.6337477   418189 
 3982000   0.60661243   -2.1198876   -2.1198876   -1.4875754  0.030204556   -2.1198876   0.63231218   418189 
 3983000   0.60662492   -2.1200099   -2.1200099   -1.4876847  0.031774622   -2.1200099    0.6323252   418189 
 3984000   0.60809538   -2.1213382   -2.1213382   -1.4874803  0.021672733   -2.1213382   0.63385796   418189 
 3985000   0.60658966   -2.1197197   -2.1197197   -1.4874312  0.038204646   -2.1197197   0.63228844   418189 
 3986000   0.60621317   -2.1195751   -2.1195751   -1.4876791  0.040134569   -2.1195751     0.631896   418189 
 3987000   0.60702303   -2.1201515   -2.1201515   -1.4874113  0.032711188   -2.1201515   0.63274017   418189 
 3988000   0.60752971   -2.1212317   -2.1212317   -1.4879634  0.036229347   -2.1212317   0.63326832   418189 
 3989000   0.60641561   -2.1194438   -2.1194438   -1.4873368  0.038829137   -2.1194438   0.63210702   418189 
 3990000   0.60807868   -2.1214603   -2.1214603   -1.4876197  0.041549902   -2.1214603   0.63384055   418189 
 3991000   0.60716241   -2.1207946   -2.1207946   -1.4879092  0.032680851   -2.1207946   0.63288546   418189 
 3992000   0.60717745   -2.1203459   -2.1203459   -1.4874448  0.038808033   -2.1203459   0.63290113   418189 
 3993000    0.6070198   -2.1215581   -2.1215581   -1.4888213  0.031112444   -2.1215581   0.63273681   418189 
 3994000   0.60723443   -2.1217583   -2.1217583   -1.4887978  0.037309292   -2.1217583   0.63296053   418189 
 3995000   0.60695459   -2.1210123   -2.1210123   -1.4883434  0.036195805   -2.1210123   0.63266883   418189 
 3996000   0.60700139   -2.1212371   -2.1212371   -1.4885194  0.036917786   -2.1212371   0.63271762   418189 
 3997000   0.60594391   -2.1204288   -2.1204288   -1.4888135  0.030703142   -2.1204288   0.63161534   418189 
 3998000   0.60619949   -2.1205881   -2.1205881   -1.4887064  0.035925858   -2.1205881   0.63188175   418189 
 3999000   0.60680176   -2.1205389   -2.1205389   -1.4880294   0.03651181   -2.1205389   0.63250953   418189 
 4000000   0.60647566   -2.1195556   -2.1195556    -1.487386  0.038513611   -2.1195556   0.63216961   418189 
 4001000   0.60702611   -2.1202081   -2.1202081   -1.4874647  0.035917426   -2.1202081   0.63274339   418189 
 4002000   0.60593954   -2.1194206   -2.1194206   -1.4878098  0.037503835   -2.1194206   0.63161078   418189 
 4003000   0.60707149   -2.1206479   -2.1206479   -1.4878572  0.032005069   -2.1206479   0.63279069   418189 
 4004000   0.60695258   -2.1206375   -2.1206375   -1.4879708  0.033343726   -2.1206375   0.63266674   418189 
 4005000   0.60681916   -2.1216237   -2.1216237    -1.489096  0.033136226   -2.1216237   0.63252767   418189 
 4006000    0.6062291   -2.1212725   -2.1212725   -1.4893599  0.035513713   -2.1212725   0.63191261   418189 
 4007000   0.60588308   -2.1206833   -2.1206833   -1.4891314  0.039795448   -2.1206833   0.63155193   418189 
 4008000   0.60697331   -2.1212756   -2.1212756   -1.4885873  0.023192015   -2.1212756   0.63268835   418189 
 4009000   0.60636171   -2.1210237   -2.1210237   -1.4889729  0.037693879   -2.1210237   0.63205084   418189 
 4010000   0.60755012   -2.1218009   -2.1218009   -1.4885113  0.044273018   -2.1218009    0.6332896   418189 
 4011000   0.60750238   -2.1216879   -2.1216879   -1.4884481  0.036892123   -2.1216879   0.63323983   418189 
 4012000   0.60744646   -2.1220731   -2.1220731   -1.4888916   0.04073831   -2.1220731   0.63318154   418189 
 4013000   0.60708599   -2.1224085   -2.1224085   -1.4896027  0.040289874   -2.1224085    0.6328058   418189 
 4014000   0.60642787   -2.1222363   -2.1222363   -1.4901165  0.034612188   -2.1222363    0.6321198   418189 
 4015000   0.60646636   -2.1232627   -2.1232627   -1.4911028  0.044848954   -2.1232627   0.63215992   418189 
 4016000   0.60767844   -2.1237718   -2.1237718   -1.4903484  0.035261585   -2.1237718   0.63342335   418189 
 4017000   0.60648239   -2.1220348   -2.1220348   -1.4898582    0.0450687   -2.1220348   0.63217663   418189 
 4018000   0.60813208   -2.1243788   -2.1243788   -1.4904826  0.040647651   -2.1243788   0.63389621   418189 
 4019000   0.60761848   -2.1237393   -2.1237393   -1.4903784  0.041476653   -2.1237393   0.63336085   418189 
 4020000   0.60706027   -2.1233089   -2.1233089   -1.4905299  0.037346509   -2.1233089   0.63277899   418189 
 4021000   0.60700134    -2.123447    -2.123447   -1.4907294  0.031958139    -2.123447   0.63271757   418189 
 4022000    0.6083072   -2.1244246   -2.1244246   -1.4903459  0.038348401   -2.1244246   0.63407875   418189 
 4023000   0.60693046   -2.1228227   -2.1228227    -1.490179  0.034579246   -2.1228227   0.63264369   418189 
 4024000   0.60679914    -2.122087    -2.122087   -1.4895802  0.032445768    -2.122087    0.6325068   418189 
 4025000   0.60677074   -2.1219794   -2.1219794   -1.4895022  0.049210786   -2.1219794    0.6324772   418189 
 4026000   0.60785379   -2.1225953   -2.1225953   -1.4889891   0.03225554   -2.1225953   0.63360614   418189 
 4027000   0.60733414   -2.1218309   -2.1218309   -1.4887664  0.036818115   -2.1218309   0.63306446   418189 
 4028000   0.60600214   -2.1200384   -2.1200384   -1.4883624   0.03562523   -2.1200384   0.63167603   418189 
 4029000   0.60758242   -2.1213317   -2.1213317   -1.4880085  0.034197239   -2.1213317   0.63332326   418189 
 4030000   0.60748867   -2.1208587   -2.1208587   -1.4876331  0.035381039   -2.1208587   0.63322555   418189 
 4031000   0.60730881   -2.1210292   -2.1210292   -1.4879911  0.034165951   -2.1210292   0.63303807   418189 
 4032000   0.60694891   -2.1206576   -2.1206576   -1.4879947  0.040973488   -2.1206576   0.63266292   418189 
 4033000   0.60724713   -2.1207462   -2.1207462   -1.4877724  0.032612464   -2.1207462   0.63297377   418189 
 4034000   0.60528752   -2.1195958   -2.1195958   -1.4886647  0.031675133   -2.1195958   0.63093114   418189 
 4035000   0.60653095   -2.1212421   -2.1212421   -1.4890148  0.028707344   -2.1212421   0.63222724   418189 
 4036000   0.60626517   -2.1200322   -2.1200322    -1.488082  0.041813606   -2.1200322   0.63195021   418189 
 4037000    0.6067094   -2.1209475   -2.1209475   -1.4885343  0.039469173   -2.1209475   0.63241326   418189 
 4038000   0.60672851   -2.1205013   -2.1205013   -1.4880681  0.037991169   -2.1205013   0.63243318   418189 
 4039000   0.60754978    -2.121008    -2.121008   -1.4877188  0.035953915    -2.121008   0.63328924   418189 
 4040000   0.60956784   -2.1231093   -2.1231093   -1.4877165  0.029182011   -2.1231093    0.6353928   418189 
 4041000   0.60803731   -2.1209969   -2.1209969   -1.4871995  0.033643858   -2.1209969   0.63379743   418189 
 4042000   0.60706542     -2.12039     -2.12039   -1.4876056  0.036845956     -2.12039   0.63278437   418189 
 4043000   0.60697815   -2.1200316   -2.1200316   -1.4873382    0.0412331   -2.1200316   0.63269339   418189 
 4044000   0.60824522   -2.1215603   -2.1215603   -1.4875462  0.030818146   -2.1215603   0.63401415   418189 
 4045000   0.60759849   -2.1207293   -2.1207293   -1.4873893  0.045525312   -2.1207293   0.63334002   418189 
 4046000   0.60672398   -2.1202611   -2.1202611   -1.4878326  0.034692151   -2.1202611   0.63242846   418189 
 4047000   0.60694318   -2.1202921   -2.1202921   -1.4876352  0.027874727   -2.1202921   0.63265694   418189 
 4048000   0.60635977   -2.1208786   -2.1208786   -1.4888298  0.035311329   -2.1208786   0.63204882   418189 
 4049000    0.6058163   -2.1203768   -2.1203768   -1.4888945  0.037980631   -2.1203768   0.63148232   418189 
 4050000   0.60667001   -2.1198245   -2.1198245   -1.4874523  0.038128925   -2.1198245    0.6323722   418189 
 4051000   0.60729092   -2.1206978   -2.1206978   -1.4876783  0.032501334   -2.1206978   0.63301942   418189 
 4052000    0.6083347   -2.1216293   -2.1216293   -1.4875218  0.034765515   -2.1216293   0.63410741   418189 
 4053000   0.60764256   -2.1207703   -2.1207703   -1.4873843   0.03355246   -2.1207703   0.63338596   418189 
 4054000   0.60754262    -2.120187    -2.120187   -1.4869052  0.041338101    -2.120187   0.63328178   418189 
 4055000   0.60723731   -2.1194815   -2.1194815    -1.486518  0.033730043   -2.1194815   0.63296353   418189 
 4056000   0.60728727   -2.1194989   -2.1194989   -1.4864832  0.034529413   -2.1194989   0.63301561   418189 
 4057000    0.6068034   -2.1193739   -2.1193739   -1.4868627  0.035267913   -2.1193739   0.63251124   418189 
 4058000   0.60787988   -2.1215793   -2.1215793    -1.487946  0.035004391   -2.1215793   0.63363332   418189 
 4059000   0.60678291   -2.1201961   -2.1201961   -1.4877063   0.04488785   -2.1201961   0.63248988   418189 
 4060000   0.60795639    -2.121053    -2.121053   -1.4873399  0.035759445    -2.121053   0.63371308   418189 
 4061000   0.60795272   -2.1207606   -2.1207606   -1.4870514  0.036367366   -2.1207606   0.63370925   418189 
 4062000   0.60728339    -2.120364    -2.120364   -1.4873525  0.030752008    -2.120364   0.63301157   418189 
 4063000   0.60706802   -2.1199945   -2.1199945   -1.4872075  0.034481782   -2.1199945   0.63278707   418189 
 4064000   0.60707959   -2.1193857   -2.1193857   -1.4865865  0.024107739   -2.1193857   0.63279913   418189 
 4065000   0.60773124   -2.1198284   -2.1198284     -1.48635  0.032416821   -2.1198284   0.63347839   418189 
 4066000   0.60895221    -2.121822    -2.121822   -1.4870709  0.026812814    -2.121822   0.63475109   418189 
 4067000   0.60817382   -2.1213219   -2.1213219   -1.4873822  0.028247998   -2.1213219   0.63393972   418189 
 4068000   0.60745923   -2.1201636   -2.1201636   -1.4869688  0.036629142   -2.1201636   0.63319486   418189 
 4069000   0.60779396   -2.1207636   -2.1207636   -1.4872198  0.034762953   -2.1207636   0.63354377   418189 
 4070000   0.60800278   -2.1200546   -2.1200546   -1.4862932  0.041764444   -2.1200546   0.63376143   418189 
 4071000   0.60729934    -2.120326    -2.120326   -1.4872978   0.04190434    -2.120326   0.63302819   418189 
 4072000   0.60718135   -2.1202925   -2.1202925   -1.4873873  0.030590292   -2.1202925    0.6329052   418189 
 4073000   0.60525757   -2.1193345   -2.1193345   -1.4884346  0.030435038   -2.1193345   0.63089992   418189 
 4074000   0.60667227   -2.1200784   -2.1200784   -1.4877039  0.041859323   -2.1200784   0.63237455   418189 
 4075000   0.60617251   -2.1205009   -2.1205009   -1.4886472  0.031679501   -2.1205009   0.63185362   418189 
 4076000   0.60556267   -2.1196394   -2.1196394   -1.4884214  0.032920779   -2.1196394   0.63121795   418189 
 4077000   0.60639542   -2.1206396   -2.1206396   -1.4885537  0.037017824   -2.1206396   0.63208598   418189 
 4078000   0.60724042   -2.1214869   -2.1214869   -1.4885202  0.038631362   -2.1214869   0.63296678   418189 
 4079000   0.60731448    -2.121255    -2.121255    -1.488211  0.040839417    -2.121255   0.63304397   418189 
 4080000   0.60692385   -2.1207808   -2.1207808    -1.488144  0.039146588   -2.1207808   0.63263679   418189 
 4081000   0.60836959   -2.1221119   -2.1221119   -1.4879681  0.038102089   -2.1221119   0.63414378   418189 
 4082000   0.60771984   -2.1216543   -2.1216543   -1.4881878  0.035838599   -2.1216543   0.63346651   418189 
 4083000   0.60731252   -2.1221878   -2.1221878   -1.4891459  0.041339169   -2.1221878   0.63304193   418189 
 4084000   0.60622236   -2.1206622   -2.1206622   -1.4887566  0.039722555   -2.1206622   0.63190558   418189 
 4085000   0.60669112   -2.1211736   -2.1211736   -1.4887794  0.041919737   -2.1211736    0.6323942   418189 
 4086000   0.60767584   -2.1222119   -2.1222119   -1.4887912  0.039663455   -2.1222119   0.63342064   418189 
 4087000   0.60804382   -2.1238353   -2.1238353   -1.4900311   0.03175205   -2.1238353   0.63380421   418189 
 4088000   0.60654611   -2.1223789   -2.1223789   -1.4901359  0.040583044   -2.1223789   0.63224305   418189 
 4089000   0.60581732   -2.1214588   -2.1214588   -1.4899754  0.037841772   -2.1214588   0.63148338   418189 
 4090000   0.60608816   -2.1218641   -2.1218641   -1.4900984  0.036241218   -2.1218641    0.6317657   418189 
 4091000    0.6054972   -2.1225471   -2.1225471   -1.4913974  0.037891251   -2.1225471    0.6311497   418189 
 4092000   0.60597253   -2.1219758   -2.1219758   -1.4903306  0.036408992   -2.1219758   0.63164517   418189 
 4093000   0.60718936   -2.1225192   -2.1225192   -1.4896057  0.034199386   -2.1225192   0.63291355   418189 
 4094000   0.60708977   -2.1224377   -2.1224377    -1.489628  0.037013023   -2.1224377   0.63280974   418189 
 4095000   0.60760099   -2.1237275   -2.1237275   -1.4903849    0.0337583   -2.1237275   0.63334262   418189 
 4096000   0.60575876   -2.1223905   -2.1223905   -1.4909682  0.039100916   -2.1223905   0.63142235   418189 
 4097000   0.60739548   -2.1231594   -2.1231594    -1.490031  0.035595943   -2.1231594    0.6331284   418189 
 4098000   0.60585847   -2.1218696   -2.1218696   -1.4903433  0.035435864   -2.1218696   0.63152628   418189 
 4099000   0.60583014    -2.121994    -2.121994   -1.4904972   0.03831358    -2.121994   0.63149675   418189 
 4100000   0.60738038   -2.1232983   -2.1232983   -1.4901857  0.038528617   -2.1232983   0.63311266   418189 
 4101000   0.60630392   -2.1221663   -2.1221663   -1.4901757   0.03423328   -2.1221663    0.6319906   418189 
 4102000   0.60749281   -2.1236691   -2.1236691   -1.4904393   0.03717157   -2.1236691   0.63322985   418189 
 4103000   0.60850758   -2.1248517   -2.1248517   -1.4905641  0.031291963   -2.1248517   0.63428762   418189 
 4104000   0.60784743      -2.1233      -2.1233   -1.4897005  0.037297866      -2.1233    0.6335995   418189 
 4105000   0.60721181    -2.123052    -2.123052    -1.490115   0.03685525    -2.123052   0.63293696   418189 
 4106000   0.60568712   -2.1217269   -2.1217269   -1.4903793  0.034439588   -2.1217269   0.63134767   418189 
 4107000   0.60691082   -2.1232203   -2.1232203   -1.4905971  0.032401453   -2.1232203   0.63262321   418189 
 4108000   0.60616954   -2.1225308   -2.1225308   -1.4906803  0.030399247   -2.1225308   0.63185053   418189 
 4109000   0.60647121   -2.1228177   -2.1228177   -1.4906527  0.030145195   -2.1228177   0.63216498   418189 
 4110000     0.606027    -2.121686    -2.121686   -1.4899841  0.035325202    -2.121686   0.63170195   418189 
 4111000   0.60727086   -2.1225369   -2.1225369   -1.4895383  0.041353777   -2.1225369   0.63299851   418189 
 4112000   0.60629727   -2.1230015   -2.1230015   -1.4910178  0.037198755   -2.1230015   0.63198367   418189 
 4113000   0.60790973   -2.1241624   -2.1241624    -1.490498  0.038862696   -2.1241624   0.63366445   418189 
 4114000   0.60678682   -2.1227061   -2.1227061   -1.4902121  0.040579854   -2.1227061   0.63249395   418189 
 4115000   0.60670729   -2.1231613   -2.1231613   -1.4907502  0.032663987   -2.1231613   0.63241106   418189 
 4116000   0.60664119   -2.1238411   -2.1238411   -1.4914989  0.031613581   -2.1238411   0.63234216   418189 
 4117000    0.6063646   -2.1229741   -2.1229741   -1.4909203  0.045162963   -2.1229741   0.63205385   418189 
 4118000   0.60749723   -2.1233113   -2.1233113   -1.4900768  0.037472672   -2.1233113   0.63323446   418189 
 4119000   0.60666985   -2.1220536   -2.1220536   -1.4896816  0.033995405   -2.1220536   0.63237203   418189 
 4120000    0.6064675   -2.1219063   -2.1219063   -1.4897452  0.034909325   -2.1219063   0.63216111   418189 
 4121000   0.60649261   -2.1223774   -2.1223774   -1.4901901   0.04264272   -2.1223774   0.63218728   418189 
 4122000   0.60723568   -2.1236213   -2.1236213   -1.4906594  0.041233587   -2.1236213   0.63296184   418189 
 4123000   0.60678912   -2.1234657   -2.1234657   -1.4909693  0.029972344   -2.1234657   0.63249636   418189 
 4124000   0.60635255   -2.1226709   -2.1226709   -1.4906296  0.033614892   -2.1226709   0.63204129   418189 
 4125000    0.6070403   -2.1239141   -2.1239141    -1.491156  0.034677571   -2.1239141   0.63275818   418189 
 4126000   0.60673888   -2.1235931   -2.1235931   -1.4911491  0.043308945   -2.1235931   0.63244399   418189 
 4127000   0.60722453   -2.1229315   -2.1229315   -1.4899812  0.041134508   -2.1229315   0.63295021   418189 
 4128000   0.60546422   -2.1217564   -2.1217564   -1.4906411  0.039217673   -2.1217564   0.63111533   418189 
 4129000   0.60671541    -2.123736    -2.123736   -1.4913165  0.028360747    -2.123736   0.63241952   418189 
 4130000   0.60672057   -2.1237782   -2.1237782   -1.4913533   0.02041642   -2.1237782    0.6324249   418189 
 4131000     0.607361   -2.1242585   -2.1242585   -1.4911661  0.033825602   -2.1242585   0.63309247   418189 
 4132000   0.60662801   -2.1241262   -2.1241262   -1.4917977    0.0365668   -2.1241262   0.63232842   418189 
 4133000   0.60707795   -2.1237778   -2.1237778   -1.4909804  0.038921278   -2.1237778   0.63279742   418189 
 4134000   0.60729229   -2.1242295   -2.1242295   -1.4912087  0.038160259   -2.1242295   0.63302084   418189 
 4135000   0.60713584   -2.1246357   -2.1246357    -1.491778    0.0407138   -2.1246357   0.63285777   418189 
 4136000   0.60744302   -2.1241728   -2.1241728   -1.4909949  0.041059184   -2.1241728   0.63317796   418189 
 4137000   0.60684408   -2.1240532   -2.1240532   -1.4914995  0.029299342   -2.1240532   0.63255364   418189 
 4138000   0.60749475   -2.1248034   -2.1248034   -1.4915715  0.043250605   -2.1248034   0.63323187   418189 
 4139000   0.60655913   -2.1236011   -2.1236011   -1.4913445  0.044431845   -2.1236011   0.63225662   418189 
 4140000   0.60643411   -2.1236315   -2.1236315   -1.4915052  0.037771332   -2.1236315   0.63212631   418189 
 4141000   0.60712897   -2.1238083   -2.1238083   -1.4909577  0.032824335   -2.1238083    0.6328506   418189 
 4142000   0.60641057    -2.123578    -2.123578   -1.4914762  0.035950532    -2.123578   0.63210176   418189 
 4143000   0.60609677   -2.1232773   -2.1232773   -1.4915026  0.043425656   -2.1232773   0.63177467   418189 
 4144000   0.60667636   -2.1239072   -2.1239072   -1.4915283  0.036966744   -2.1239072   0.63237882   418189 
 4145000   0.60672883   -2.1242911   -2.1242911   -1.4918576  0.041503142   -2.1242911   0.63243351   418189 
 4146000   0.60607049   -2.1234641   -2.1234641   -1.4917168  0.032251501   -2.1234641   0.63174727   418189 
 4147000   0.60705756   -2.1248192   -2.1248192    -1.492043    0.0357713   -2.1248192   0.63277617   418189 
 4148000   0.60567637   -2.1236534   -2.1236534   -1.4923169  0.030087982   -2.1236534   0.63133646   418189 
 4149000   0.60653732   -2.1241886   -2.1241886   -1.4919547  0.042417687   -2.1241886   0.63223389   418189 
 4150000   0.60627856   -2.1247966   -2.1247966   -1.4928324   0.03794326   -2.1247966   0.63196416   418189 
 4151000   0.60487614   -2.1233637   -2.1233637   -1.4928614  0.033337478   -2.1233637   0.63050233   418189 
 4152000   0.60622224   -2.1240738   -2.1240738   -1.4921684   0.02428011   -2.1240738   0.63190545   418189 
 4153000   0.60623262   -2.1241354   -2.1241354   -1.4922191  0.027511728   -2.1241354   0.63191628   418189 
 4154000   0.60589882    -2.123577    -2.123577   -1.4920086  0.037210703    -2.123577   0.63156833   418189 
 4155000   0.60727079   -2.1257468   -2.1257468   -1.4927484  0.047071542   -2.1257468   0.63299843   418189 
 4156000   0.60682775   -2.1250043   -2.1250043   -1.4924677  0.036655011   -2.1250043   0.63253662   418189 
 4157000   0.60800072   -2.1261564   -2.1261564   -1.4923971  0.041683006   -2.1261564   0.63375928   418189 
 4158000   0.60756998    -2.126628    -2.126628   -1.4933177  0.029970852    -2.126628    0.6333103   418189 
 4159000   0.60635212    -2.124988    -2.124988   -1.4929471  0.038666097    -2.124988   0.63204085   418189 
 4160000   0.60548753   -2.1246672   -2.1246672   -1.4935276  0.037602705   -2.1246672   0.63113962   418189 
 4161000   0.60599727   -2.1247325   -2.1247325   -1.4930615  0.033123353   -2.1247325   0.63167096   418189 
 4162000   0.60629363   -2.1245385   -2.1245385   -1.4925586  0.036695801   -2.1245385   0.63197987   418189 
 4163000   0.60685856   -2.1258612   -2.1258612   -1.4932924  0.039939347   -2.1258612   0.63256874   418189 
 4164000   0.60702709   -2.1255398   -2.1255398   -1.4927954  0.032454192   -2.1255398   0.63274441   418189 
 4165000   0.60548199   -2.1241132   -2.1241132   -1.4929794  0.041050454   -2.1241132   0.63113385   418189 
 4166000   0.60597342   -2.1244347   -2.1244347   -1.4927886  0.033932537   -2.1244347    0.6316461   418189 
 4167000   0.60543175   -2.1238962   -2.1238962   -1.4928147  0.029373671   -2.1238962   0.63108147   418189 
 4168000   0.60533483   -2.1228851   -2.1228851   -1.4919046  0.041240658   -2.1228851   0.63098045   418189 
 4169000   0.60730342   -2.1249967   -2.1249967   -1.4919643  0.033276212   -2.1249967   0.63303244   418189 
 4170000   0.60710195   -2.1247765   -2.1247765   -1.4919541  0.042300849   -2.1247765   0.63282244   418189 
 4171000   0.60630837   -2.1245476   -2.1245476   -1.4925524  0.034091889   -2.1245476   0.63199524   418189 
 4172000   0.60678888   -2.1243703   -2.1243703   -1.4918742  0.042214484   -2.1243703   0.63249611   418189 
 4173000   0.60663303   -2.1243487   -2.1243487   -1.4920151  0.034580369   -2.1243487   0.63233365   418189 
 4174000   0.60776874   -2.1254335   -2.1254335    -1.491916  0.041668114   -2.1254335   0.63351748   418189 
 4175000   0.60606276   -2.1241809   -2.1241809   -1.4924417  0.037050277   -2.1241809   0.63173922   418189 
 4176000    0.6067665   -2.1253656   -2.1253656   -1.4928928  0.042682359   -2.1253656   0.63247278   418189 
 4177000   0.60715709   -2.1255164   -2.1255164   -1.4926365  0.034762297   -2.1255164   0.63287991   418189 
 4178000   0.60712519   -2.1252327   -2.1252327    -1.492386  0.041541875   -2.1252327   0.63284666   418189 
 4179000   0.60612155   -2.1236963   -2.1236963   -1.4918958  0.041834917   -2.1236963    0.6318005   418189 
 4180000   0.60650886   -2.1241175   -2.1241175   -1.4919133  0.036325707   -2.1241175   0.63220422   418189 
 4181000   0.60476347   -2.1226642   -2.1226642   -1.4922793  0.042213556   -2.1226642   0.63038489   418189 
 4182000   0.60747593   -2.1252151   -2.1252151   -1.4920028  0.044084839   -2.1252151   0.63321227   418189 
 4183000   0.60564086   -2.1230887   -2.1230887   -1.4917893  0.035253434   -2.1230887   0.63129944   418189 
 4184000   0.60596778   -2.1230565   -2.1230565   -1.4914163  0.041245705   -2.1230565   0.63164022   418189 
 4185000   0.60666858    -2.123753    -2.123753   -1.4913823  0.036036277    -2.123753   0.63237071   418189 
 4186000   0.60740353   -2.1253512   -2.1253512   -1.4922144  0.042958641   -2.1253512    0.6331368   418189 
 4187000   0.60641842   -2.1231937   -2.1231937   -1.4910838  0.029232636   -2.1231937   0.63210995   418189 
 4188000   0.60600271    -2.123326    -2.123326   -1.4916494  0.033205395    -2.123326   0.63167663   418189 
 4189000   0.60550301   -2.1227678   -2.1227678   -1.4916121  0.047050385   -2.1227678   0.63115576   418189 
 4190000   0.60567081   -2.1228655   -2.1228655   -1.4915349   0.03121363   -2.1228655   0.63133067   418189 
 4191000   0.60708895    -2.124893    -2.124893   -1.4920841  0.033520815    -2.124893   0.63280888   418189 
 4192000   0.60802872    -2.125953    -2.125953   -1.4921645   0.04149771    -2.125953   0.63378847   418189 
 4193000   0.60619476   -2.1241103   -2.1241103   -1.4922335  0.029742461   -2.1241103   0.63187681   418189 
 4194000   0.60690153   -2.1244225   -2.1244225   -1.4918089  0.035221324   -2.1244225   0.63261352   418189 
 4195000   0.60732682   -2.1256424   -2.1256424   -1.4925856  0.043321532   -2.1256424   0.63305684   418189 
 4196000   0.60733829   -2.1267463   -2.1267463   -1.4936775  0.034440337   -2.1267463   0.63306879   418189 
 4197000   0.60740262    -2.126073    -2.126073   -1.4929372  0.041066042    -2.126073   0.63313584   418189 
 4198000   0.60584324   -2.1251441   -2.1251441   -1.4936337  0.030560534   -2.1251441    0.6315104   418189 
 4199000   0.60495978      -2.1242      -2.1242   -1.4936105  0.042181471      -2.1242   0.63058952   418189 
 4200000   0.60673991   -2.1263617   -2.1263617   -1.4939167  0.040448017   -2.1263617   0.63244506   418189 
 4201000    0.6070548   -2.1268529   -2.1268529   -1.4940796  0.039359224   -2.1268529   0.63277329   418189 
 4202000   0.60681911    -2.126183    -2.126183   -1.4936554  0.034902901    -2.126183   0.63252761   418189 
 4203000   0.60759725   -2.1263107   -2.1263107   -1.4929719  0.032931105   -2.1263107   0.63333872   418189 
 4204000    0.6069833   -2.1256563   -2.1256563   -1.4929575  0.041437617   -2.1256563   0.63269876   418189 
 4205000   0.60721171   -2.1262657   -2.1262657   -1.4933289  0.033859896   -2.1262657   0.63293685   418189 
 4206000   0.60851629   -2.1270893   -2.1270893   -1.4927926  0.030324842   -2.1270893    0.6342967   418189 
 4207000   0.60738382   -2.1256548   -2.1256548   -1.4925385  0.043567132   -2.1256548   0.63311625   418189 
 4208000   0.60723679   -2.1257672   -2.1257672   -1.4928042  0.049072611   -2.1257672   0.63296299   418189 
 4209000   0.60607909   -2.1253221   -2.1253221   -1.4935659  0.037528376   -2.1253221   0.63175624   418189 
 4210000   0.60558901   -2.1252329   -2.1252329   -1.4939875  0.035981765   -2.1252329    0.6312454   418189 
 4211000   0.60719242   -2.1258447   -2.1258447    -1.492928   0.03750244   -2.1258447   0.63291674   418189 
 4212000   0.60704114   -2.1258266   -2.1258266   -1.4930676  0.031503557   -2.1258266   0.63275906   418189 
 4213000   0.60706832   -2.1252573   -2.1252573   -1.4924699  0.036018956   -2.1252573   0.63278738   418189 
 4214000   0.60685682   -2.1257489   -2.1257489   -1.4931819  0.040020713   -2.1257489   0.63256692   418189 
 4215000   0.60723069   -2.1250767   -2.1250767     -1.49212  0.036426669   -2.1250767   0.63295663   418189 
 4216000   0.60689923   -2.1238482   -2.1238482   -1.4912371  0.039524531   -2.1238482   0.63261113   418189 
 4217000   0.60723223   -2.1245396   -2.1245396   -1.4915814  0.032074184   -2.1245396   0.63295824   418189 
 4218000   0.60689608   -2.1244894   -2.1244894   -1.4918815  0.036407999   -2.1244894   0.63260785   418189 
 4219000   0.60707451   -2.1249714   -2.1249714   -1.4921776  0.038028821   -2.1249714   0.63279384   418189 
 4220000   0.60680578   -2.1246572   -2.1246572   -1.4921435  0.038801361   -2.1246572   0.63251372   418189 
 4221000   0.60752473   -2.1253592   -2.1253592    -1.492096  0.034945618   -2.1253592   0.63326313   418189 
 4222000   0.60640736    -2.124562    -2.124562   -1.4924636  0.040111339    -2.124562   0.63209842   418189 
 4223000   0.60758594   -2.1248622   -2.1248622   -1.4915352  0.033807448   -2.1248622   0.63332693   418189 
 4224000   0.60728241   -2.1251971   -2.1251971   -1.4921865  0.039460093   -2.1251971   0.63301055   418189 
 4225000   0.60863898   -2.1264241   -2.1264241   -1.4919995  0.028882756   -2.1264241   0.63442459   418189 
 4226000   0.60765513   -2.1249236   -2.1249236   -1.4915245  0.031249636   -2.1249236   0.63339906   418189 
 4227000   0.60617922   -2.1235024   -2.1235024   -1.4916418  0.038826545   -2.1235024   0.63186061   418189 
 4228000   0.60718071   -2.1253314   -2.1253314   -1.4924268  0.048075224   -2.1253314   0.63290454   418189 
 4229000   0.60672072   -2.1247464   -2.1247464   -1.4923213  0.041369663   -2.1247464   0.63242505   418189 
 4230000   0.60712451    -2.125904    -2.125904    -1.493058  0.032532676    -2.125904   0.63284595   418189 
 4231000   0.60719819   -2.1248935   -2.1248935   -1.4919708   0.04446418   -2.1248935   0.63292275   418189 
 4232000   0.60735157   -2.1248527   -2.1248527   -1.4917701   0.03152083   -2.1248527   0.63308264   418189 
 4233000    0.6085776   -2.1258548   -2.1258548   -1.4914942  0.038245928   -2.1258548   0.63436061   418189 
 4234000   0.60626854   -2.1233701   -2.1233701   -1.4914164  0.040987808   -2.1233701   0.63195372   418189 
 4235000    0.6071727   -2.1245587   -2.1245587   -1.4916625  0.040097992   -2.1245587   0.63289619   418189 
 4236000   0.60677238   -2.1244499   -2.1244499    -1.491971  0.032999081   -2.1244499   0.63247891   418189 
 4237000   0.60631219     -2.12397     -2.12397   -1.4919708  0.030979164     -2.12397   0.63199922   418189 
 4238000   0.60698367   -2.1253925   -2.1253925   -1.4926934  0.032059359   -2.1253925   0.63269914   418189 
 4239000   0.60579534   -2.1240444   -2.1240444    -1.492584  0.036524279   -2.1240444   0.63146047   418189 
 4240000   0.60564402   -2.1235709   -2.1235709   -1.4922681  0.036270356   -2.1235709   0.63130274   418189 
 4241000   0.60580226   -2.1237723   -2.1237723   -1.4923046  0.035295541   -2.1237723   0.63146769   418189 
 4242000   0.60678709   -2.1251844   -2.1251844   -1.4926902   0.03083186   -2.1251844   0.63249424   418189 
 4243000   0.60710576   -2.1257369   -2.1257369   -1.4929105  0.038625288   -2.1257369   0.63282641   418189 
 4244000   0.60678544   -2.1247369   -2.1247369   -1.4922444  0.042060096   -2.1247369   0.63249251   418189 
 4245000   0.60776016   -2.1256371   -2.1256371   -1.4921286   0.03869477   -2.1256371   0.63350854   418189 
 4246000   0.60781293   -2.1250583   -2.1250583   -1.4914947  0.036215064   -2.1250583   0.63356354   418189 
 4247000   0.60692581   -2.1242746   -2.1242746   -1.4916358  0.032805017   -2.1242746   0.63263884   418189 
 4248000   0.60659936   -2.1244917   -2.1244917   -1.4921932  0.032694715   -2.1244917   0.63229855   418189 
 4249000   0.60681128   -2.1246151   -2.1246151   -1.4920956   0.03696712   -2.1246151   0.63251946   418189 
 4250000   0.60581096   -2.1240477   -2.1240477   -1.4925709  0.044752701   -2.1240477   0.63147676   418189 
 4251000   0.60683252   -2.1255558   -2.1255558   -1.4930142  0.036783241   -2.1255558    0.6325416   418189 
 4252000   0.60563208   -2.1245162   -2.1245162   -1.4932259  0.044683588   -2.1245162    0.6312903   418189 
 4253000   0.60610564   -2.1246041   -2.1246041   -1.4928202  0.037549218   -2.1246041   0.63178392   418189 
 4254000   0.60753804   -2.1253697   -2.1253697   -1.4920927  0.037102095   -2.1253697     0.633277   418189 
 4255000   0.60788273   -2.1253301   -2.1253301   -1.4916938  0.035793407   -2.1253301    0.6336363   418189 
 4256000   0.60839685    -2.125728    -2.125728   -1.4915558  0.041346529    -2.125728    0.6341722   418189 
 4257000   0.60846054   -2.1260289   -2.1260289   -1.4917903  0.026372936   -2.1260289   0.63423859   418189 
 4258000   0.60764832   -2.1251208   -2.1251208   -1.4917289  0.042744655   -2.1251208   0.63339196   418189 
 4259000   0.60727101   -2.1245652   -2.1245652   -1.4915666   0.03507339   -2.1245652   0.63299866   418189 
 4260000   0.60631546   -2.1236832   -2.1236832   -1.4916806  0.046264641   -2.1236832   0.63200262   418189 
 4261000     0.607139   -2.1244833   -2.1244833   -1.4916223  0.039117962   -2.1244833   0.63286106   418189 
 4262000    0.6082126   -2.1256096   -2.1256096   -1.4916294  0.036206683   -2.1256096   0.63398014   418189 
 4263000   0.60636505   -2.1240363   -2.1240363    -1.491982  0.044185228   -2.1240363   0.63205432   418189 
 4264000   0.60672749   -2.1248076   -2.1248076   -1.4923755  0.036408926   -2.1248076   0.63243211   418189 
 4265000   0.60643847   -2.1247426   -2.1247426   -1.4926117  0.035007885   -2.1247426   0.63213084   418189 
 4266000   0.60454466   -2.1236521   -2.1236521   -1.4934953  0.033886933   -2.1236521   0.63015681   418189 
 4267000    0.6057521   -2.1245209   -2.1245209   -1.4931055  0.034655306   -2.1245209    0.6314154   418189 
 4268000   0.60519389   -2.1243255   -2.1243255    -1.493492  0.034599558   -2.1243255   0.63083354   418189 
 4269000   0.60585988   -2.1253496   -2.1253496   -1.4938218  0.037321084   -2.1253496   0.63152775   418189 
 4270000   0.60595753   -2.1255191   -2.1255191   -1.4938896  0.034836651   -2.1255191   0.63162953   418189 
 4271000   0.60713448   -2.1266091   -2.1266091   -1.4937528  0.040985535   -2.1266091   0.63285635   418189 
 4272000   0.60656383    -2.126009    -2.126009   -1.4937475  0.030975988    -2.126009   0.63226152   418189 
 4273000   0.60658305   -2.1264848   -2.1264848   -1.4942032  0.040406155   -2.1264848   0.63228156   418189 
 4274000   0.60745167   -2.1273155   -2.1273155   -1.4941286  0.035459463   -2.1273155   0.63318697   418189 
 4275000   0.60696816   -2.1268179   -2.1268179   -1.4941349  0.034179948   -2.1268179   0.63268298   418189 
 4276000   0.60581214   -2.1259906   -2.1259906   -1.4945126  0.037752046   -2.1259906   0.63147798   418189 
 4277000   0.60551746   -2.1254182   -2.1254182   -1.4942474  0.036859616   -2.1254182   0.63117082   418189 
 4278000   0.60595924   -2.1253098   -2.1253098   -1.4936785  0.043404453   -2.1253098   0.63163131   418189 
 4279000   0.60609626   -2.1257454   -2.1257454   -1.4939712  0.043150649   -2.1257454   0.63177415   418189 
 4280000   0.60545637   -2.1242006   -2.1242006   -1.4930935  0.039694617   -2.1242006   0.63110714   418189 
 4281000   0.60602455   -2.1249519   -2.1249519   -1.4932525  0.039222801   -2.1249519    0.6316994   418189 
 4282000   0.60709533   -2.1262681   -2.1262681   -1.4934525  0.040558828   -2.1262681   0.63281554   418189 
 4283000   0.60705455   -2.1265455   -2.1265455   -1.4937724  0.039342947   -2.1265455   0.63277304   418189 
 4284000   0.60614565   -2.1255926   -2.1255926    -1.493767   0.04039421   -2.1255926   0.63182562   418189 
 4285000    0.6060741   -2.1265179   -2.1265179   -1.4947668  0.036564738   -2.1265179   0.63175104   418189 
 4286000   0.60726074   -2.1275848   -2.1275848   -1.4945969   0.03418608   -2.1275848   0.63298795   418189 
 4287000    0.6072031   -2.1272401   -2.1272401   -1.4943122  0.037457869   -2.1272401   0.63292787   418189 
 4288000   0.60582798   -2.1262316   -2.1262316   -1.4947371  0.038140692   -2.1262316    0.6314945   418189 
 4289000   0.60572112   -2.1259781   -2.1259781    -1.494595   0.03748817   -2.1259781   0.63138311   418189 
 4290000   0.60538548   -2.1249439   -2.1249439   -1.4939107  0.042115171   -2.1249439   0.63103325   418189 
 4291000   0.60781728   -2.1272832   -2.1272832   -1.4937151  0.039572671   -2.1272832   0.63356808   418189 
 4292000   0.60692724    -2.125758    -2.125758   -1.4931177  0.032964676    -2.125758   0.63264032   418189 
 4293000   0.60744175   -2.1270818   -2.1270818   -1.4939052  0.039862974   -2.1270818   0.63317664   418189 
 4294000   0.60793211   -2.1268681   -2.1268681   -1.4931803  0.030226891   -2.1268681   0.63368777   418189 
 4295000   0.60608844   -2.1254973   -2.1254973   -1.4937313  0.035711366   -2.1254973   0.63176598   418189 
 4296000   0.60663045   -2.1256186   -2.1256186   -1.4932877  0.029006267   -2.1256186   0.63233097   418189 
 4297000   0.60712036   -2.1258648   -2.1258648   -1.4930231  0.038465735   -2.1258648   0.63284163   418189 
 4298000   0.60645061   -2.1256284   -2.1256284   -1.4934849  0.036210228   -2.1256284    0.6321435   418189 
 4299000   0.60548504   -2.1246453   -2.1246453   -1.4935083  0.035429421   -2.1246453   0.63113702   418189 
 4300000   0.60685073   -2.1254754   -2.1254754   -1.4929149  0.035394977   -2.1254754   0.63256058   418189 
 4301000   0.60677261   -2.1255875   -2.1255875   -1.4931084  0.031430777   -2.1255875   0.63247915   418189 
 4302000   0.60558033   -2.1255524   -2.1255524    -1.494316  0.043879097   -2.1255524   0.63123636   418189 
 4303000   0.60576763   -2.1252484   -2.1252484   -1.4938168  0.034971924   -2.1252484   0.63143159   418189 
 4304000   0.60525784   -2.1250417   -2.1250417   -1.4941415  0.028598861   -2.1250417    0.6309002   418189 
 4305000    0.6058502   -2.1255277   -2.1255277     -1.49401  0.025750441   -2.1255277   0.63151765   418189 
 4306000   0.60602854   -2.1261456   -2.1261456   -1.4944421   0.03393825   -2.1261456   0.63170356   418189 
 4307000   0.60731109   -2.1268293   -2.1268293   -1.4937889  0.040553536   -2.1268293   0.63304044   418189 
 4308000    0.6074998   -2.1268368   -2.1268368   -1.4935996  0.042242354   -2.1268368   0.63323715   418189 
 4309000   0.60651472     -2.12556     -2.12556   -1.4933497  0.043194873     -2.12556   0.63221033   418189 
 4310000   0.60672195   -2.1264295   -2.1264295   -1.4940032  0.032787785   -2.1264295   0.63242634   418189 
 4311000   0.60654437   -2.1259157   -2.1259157   -1.4936744  0.039814888   -2.1259157   0.63224123   418189 
 4312000   0.60592187   -2.1261215   -2.1261215   -1.4945291  0.033527019   -2.1261215   0.63159236   418189 
 4313000   0.60658466     -2.12749     -2.12749   -1.4952067  0.029509016     -2.12749   0.63228323   418189 
 4314000   0.60698624   -2.1278188   -2.1278188    -1.495117  0.032220149   -2.1278188   0.63270182   418189 
 4315000   0.60565046   -2.1269269   -2.1269269   -1.4956174  0.025693709   -2.1269269   0.63130946   418189 
 4316000   0.60724448   -2.1279446   -2.1279446   -1.4949736  0.034734356   -2.1279446     0.632971   418189 
 4317000   0.60743053   -2.1277444   -2.1277444   -1.4945795  0.030920783   -2.1277444   0.63316494   418189 
 4318000   0.60853321   -2.1290025   -2.1290025   -1.4946881  0.037339557   -2.1290025   0.63431434   418189 
 4319000   0.60645127   -2.1276762   -2.1276762   -1.4955321  0.037847257   -2.1276762   0.63214419   418189 
 4320000   0.60612863   -2.1274232   -2.1274232   -1.4956153  0.033140117   -2.1274232   0.63180788   418189 
 4321000   0.60701582   -2.1286066   -2.1286066    -1.495874  0.041194894   -2.1286066   0.63273266   418189 
 4322000   0.60545572   -2.1271804   -2.1271804    -1.496074  0.030016169   -2.1271804   0.63110646   418189 
 4323000    0.6075321    -2.129449    -2.129449   -1.4961782  0.029742284    -2.129449   0.63327081   418189 
 4324000   0.60765393   -2.1296419   -2.1296419   -1.4962441  0.038642897   -2.1296419   0.63339781   418189 
 4325000   0.60774369   -2.1294889   -2.1294889   -1.4959975  0.035708415   -2.1294889   0.63349137   418189 
 4326000   0.60685813   -2.1280748   -2.1280748   -1.4955065  0.038389476   -2.1280748   0.63256828   418189 
 4327000   0.60627769   -2.1270645   -2.1270645   -1.4951013  0.033647015   -2.1270645   0.63196325   418189 
 4328000   0.60574703   -2.1269274   -2.1269274   -1.4955173  0.039838987   -2.1269274   0.63141011   418189 
 4329000    0.6070121   -2.1278729   -2.1278729   -1.4951441  0.041559996   -2.1278729   0.63272878   418189 
 4330000   0.60689677   -2.1271672   -2.1271672   -1.4945587  0.031951964   -2.1271672   0.63260857   418189 
 4331000   0.60619399   -2.1265999   -2.1265999   -1.4947238   0.03511586   -2.1265999   0.63187601   418189 
 4332000   0.60777925   -2.1274024   -2.1274024    -1.493874  0.033541201   -2.1274024   0.63352843   418189 
 4333000   0.60551808   -2.1249552   -2.1249552   -1.4937838  0.036812938   -2.1249552   0.63117146   418189 
 4334000   0.60660376   -2.1267255   -2.1267255   -1.4944223  0.030731484   -2.1267255   0.63230315   418189 
 4335000   0.60497077    -2.125422    -2.125422    -1.494821  0.037265324    -2.125422   0.63060096   418189 
 4336000   0.60568704   -2.1267192   -2.1267192   -1.4953716  0.036005246   -2.1267192   0.63134759   418189 
 4337000   0.60582103   -2.1267563   -2.1267563    -1.495269  0.037745367   -2.1267563   0.63148726   418189 
 4338000   0.60577469   -2.1271965   -2.1271965   -1.4957575  0.033312731   -2.1271965   0.63143894   418189 
 4339000   0.60609422   -2.1274671   -2.1274671   -1.4956951  0.035259846   -2.1274671   0.63177201   418189 
 4340000   0.60412626   -2.1252643   -2.1252643   -1.4955437    0.0378525   -2.1252643   0.62972068   418189 
 4341000   0.60684183   -2.1286415   -2.1286415   -1.4960902  0.033785676   -2.1286415   0.63255129   418189 
 4342000   0.60672213   -2.1277001   -2.1277001   -1.4952736  0.031614753   -2.1277001   0.63242652   418189 
 4343000   0.60729501   -2.1282442   -2.1282442   -1.4952205  0.045393935   -2.1282442   0.63302368   418189 
 4344000   0.60628253   -2.1275232   -2.1275232   -1.4955549  0.036763803   -2.1275232    0.6319683   418189 
 4345000   0.60699364   -2.1290767   -2.1290767   -1.4963672  0.033032167   -2.1290767   0.63270954   418189 
 4346000   0.60563725   -2.1272959   -2.1272959   -1.4960003  0.030887707   -2.1272959   0.63129569   418189 
 4347000   0.60421245    -2.125889    -2.125889   -1.4960785  0.037832304    -2.125889   0.62981052   418189 
 4348000   0.60624289   -2.1282069   -2.1282069   -1.4962799  0.033014371   -2.1282069   0.63192699   418189 
 4349000   0.60627186   -2.1284077   -2.1284077   -1.4964506  0.039542468   -2.1284077   0.63195718   418189 
 4350000   0.60644107   -2.1282039   -2.1282039   -1.4960704  0.033938143   -2.1282039   0.63213356   418189 
 4351000   0.60676933   -2.1282637   -2.1282637    -1.495788  0.038853916   -2.1282637   0.63247572   418189 
 4352000   0.60487857   -2.1270488   -2.1270488    -1.496544  0.029376085   -2.1270488   0.63050486   418189 
 4353000   0.60547767    -2.128517    -2.128517   -1.4973877  0.031364115    -2.128517   0.63112935   418189 
 4354000   0.60629492    -2.129796    -2.129796   -1.4978148  0.044722817    -2.129796   0.63198122   418189 
 4355000   0.60643803   -2.1298938   -2.1298938   -1.4977634  0.038589426   -2.1298938   0.63213039   418189 
 4356000   0.60573417    -2.129058    -2.129058   -1.4976613  0.038361352    -2.129058   0.63139672   418189 
 4357000   0.60574571   -2.1290034   -2.1290034   -1.4975946  0.034492923   -2.1290034   0.63140874   418189 
 4358000   0.60606933   -2.1295984   -2.1295984   -1.4978524  0.032472614   -2.1295984   0.63174607   418189 
 4359000    0.6057716   -2.1294463   -2.1294463   -1.4980105  0.028548866   -2.1294463   0.63143573   418189 
 4360000   0.60637967   -2.1294997   -2.1294997   -1.4974301  0.034387232   -2.1294997   0.63206956   418189 
 4361000   0.60624154   -2.1288407   -2.1288407   -1.4969152  0.048447194   -2.1288407   0.63192557   418189 
 4362000   0.60629311   -2.1292494   -2.1292494   -1.4972701  0.036919584   -2.1292494   0.63197933   418189 
 4363000   0.60652367   -2.1288291   -2.1288291   -1.4966094  0.040160043   -2.1288291   0.63221966   418189 
 4364000   0.60665252   -2.1289785   -2.1289785   -1.4966245   0.03326676   -2.1289785   0.63235397   418189 
 4365000   0.60614554   -2.1282199   -2.1282199   -1.4963944   0.03791854   -2.1282199   0.63182551   418189 
 4366000   0.60662037   -2.1286324   -2.1286324   -1.4963119  0.031599865   -2.1286324   0.63232045   418189 
 4367000   0.60619269   -2.1283924   -2.1283924   -1.4965177  0.036714887   -2.1283924   0.63187466   418189 
 4368000   0.60580136   -2.1278216   -2.1278216   -1.4963549  0.035730066   -2.1278216   0.63146675   418189 
 4369000   0.60710259   -2.1289004   -2.1289004   -1.4960773  0.038971831   -2.1289004    0.6328231   418189 
 4370000   0.60796112   -2.1292231   -2.1292231   -1.4955051  0.039329732   -2.1292231   0.63371801   418189 
 4371000   0.60553783   -2.1267685   -2.1267685   -1.4955764  0.030873297   -2.1267685   0.63119205   418189 
 4372000   0.60665531   -2.1297861   -2.1297861   -1.4974292   0.02742552   -2.1297861   0.63235687   418189 
 4373000   0.60499246   -2.1271701   -2.1271701   -1.4965465   0.03560029   -2.1271701   0.63062358   418189 
 4374000   0.60556001   -2.1279785   -2.1279785   -1.4967633  0.039920916   -2.1279785   0.63121517   418189 
 4375000   0.60543921   -2.1283467   -2.1283467   -1.4972575  0.034940069   -2.1283467   0.63108926   418189 
 4376000   0.60714988   -2.1303725   -2.1303725   -1.4975001  0.041897399   -2.1303725    0.6328724   418189 
 4377000   0.60622969   -2.1285093   -2.1285093   -1.4965961  0.027805346   -2.1285093   0.63191322   418189 
 4378000   0.60691002   -2.1284703   -2.1284703   -1.4958479  0.029684429   -2.1284703   0.63262237   418189 
 4379000   0.60613829   -2.1276141   -2.1276141   -1.4957961  0.031009338   -2.1276141   0.63181795   418189 
 4380000   0.60718715   -2.1288905   -2.1288905   -1.4959792  0.032381039   -2.1288905   0.63291125   418189 
 4381000   0.60710442   -2.1291816   -2.1291816   -1.4963566  0.036998102   -2.1291816   0.63282501   418189 
 4382000   0.60562158   -2.1278553   -2.1278553   -1.4965759  0.041602795   -2.1278553   0.63127936   418189 
 4383000   0.60575243   -2.1281885   -2.1281885   -1.4967727  0.030045757   -2.1281885   0.63141575   418189 
 4384000   0.60599571   -2.1285647   -2.1285647   -1.4968954  0.033707589   -2.1285647   0.63166933   418189 
 4385000   0.60701086    -2.128635    -2.128635   -1.4959075  0.032428568    -2.128635   0.63272748   418189 
 4386000   0.60596436   -2.1275943   -2.1275943   -1.4959577  0.040471512   -2.1275943   0.63163665   418189 
 4387000   0.60684602   -2.1284729   -2.1284729   -1.4959172  0.040551453   -2.1284729   0.63255567   418189 
 4388000   0.60585195   -2.1286653   -2.1286653   -1.4971458  0.027797248   -2.1286653   0.63151949   418189 
 4389000   0.60709745   -2.1290484   -2.1290484   -1.4962306  0.044564517   -2.1290484   0.63281775   418189 
 4390000   0.60608971   -2.1277632   -2.1277632   -1.4959959  0.043719431   -2.1277632   0.63176731   418189 
 4391000   0.60686421   -2.1274956   -2.1274956   -1.4949209   0.03510374   -2.1274956   0.63257463   418189 
 4392000   0.60732832   -2.1279775   -2.1279775   -1.4949191  0.045190264   -2.1279775    0.6330584   418189 
 4393000    0.6075663   -2.1279215   -2.1279215    -1.494615  0.033593275   -2.1279215   0.63330646   418189 
 4394000   0.60680887   -2.1280394   -2.1280394   -1.4955224  0.037469008   -2.1280394   0.63251694   418189 
 4395000   0.60744441   -2.1285121   -2.1285121   -1.4953327  0.039875119   -2.1285121   0.63317941   418189 
 4396000   0.60776426   -2.1295039   -2.1295039   -1.4959911  0.032870898   -2.1295039    0.6335128   418189 
 4397000   0.60616573   -2.1280828   -2.1280828   -1.4962363  0.037846883   -2.1280828   0.63184656   418189 
 4398000   0.60564126   -2.1278585   -2.1278585   -1.4965586  0.038644233   -2.1278585   0.63129986   418189 
 4399000   0.60527718   -2.1271137   -2.1271137   -1.4961933  0.039520851   -2.1271137   0.63092036   418189 
 4400000   0.60600204   -2.1275989   -2.1275989   -1.4959229  0.031990144   -2.1275989   0.63167593   418189 
 4401000   0.60656585   -2.1278431   -2.1278431   -1.4955795  0.037419247   -2.1278431   0.63226362   418189 
 4402000   0.60767757   -2.1291757   -2.1291757   -1.4957533  0.029758864   -2.1291757   0.63342244   418189 
 4403000   0.60565295   -2.1263237   -2.1263237   -1.4950117   0.03650091   -2.1263237   0.63131204   418189 
 4404000   0.60603921   -2.1266616   -2.1266616    -1.494947  0.051180171   -2.1266616   0.63171467   418189 
 4405000   0.60656141   -2.1273903   -2.1273903   -1.4951313  0.036035944   -2.1273903     0.632259   418189 
 4406000   0.60659476    -2.127381    -2.127381   -1.4950873  0.032465812    -2.127381   0.63229376   418189 
 4407000   0.60701231   -2.1277567   -2.1277567   -1.4950277  0.025388237   -2.1277567     0.632729   418189 
 4408000   0.60643894    -2.127366    -2.127366   -1.4952347  0.038595093    -2.127366   0.63213134   418189 
 4409000   0.60694826   -2.1278636   -2.1278636   -1.4952013  0.041960148   -2.1278636   0.63266224   418189 
 4410000   0.60607258   -2.1274425   -2.1274425   -1.4956931  0.037657585   -2.1274425   0.63174945   418189 
 4411000   0.60583438   -2.1278618   -2.1278618   -1.4963607  0.038815357   -2.1278618   0.63150116   418189 
 4412000   0.60603832   -2.1276654   -2.1276654   -1.4959517  0.042763109   -2.1276654   0.63171375   418189 
 4413000   0.60617265   -2.1279489   -2.1279489   -1.4960952  0.038935254   -2.1279489   0.63185377   418189 
 4414000   0.60573309   -2.1271482   -2.1271482   -1.4957526  0.038149817   -2.1271482   0.63139558   418189 
 4415000   0.60620613   -2.1271436   -2.1271436   -1.4952549  0.037649402   -2.1271436   0.63188866   418189 
 4416000   0.60625225   -2.1282498   -2.1282498    -1.496313  0.039273343   -2.1282498   0.63193674   418189 
 4417000   0.60726851     -2.12874     -2.12874   -1.4957439  0.036223954     -2.12874   0.63299606   418189 
 4418000   0.60655236   -2.1283273   -2.1283273   -1.4960778    0.0346559   -2.1283273   0.63224956   418189 
 4419000    0.6067479    -2.129023    -2.129023   -1.4965696  0.032188596    -2.129023   0.63245338   418189 
 4420000   0.60587126   -2.1276477   -2.1276477   -1.4961081  0.037800398   -2.1276477   0.63153961   418189 
 4421000   0.60709869   -2.1287576   -2.1287576   -1.4959386  0.030953468   -2.1287576   0.63281904   418189 
 4422000   0.60443977   -2.1269824   -2.1269824   -1.4969349  0.040551903   -2.1269824   0.63004747   418189 
 4423000   0.60528992   -2.1278157   -2.1278157    -1.496882  0.033196616   -2.1278157   0.63093364   418189 
 4424000   0.60593686   -2.1276091   -2.1276091   -1.4960011  0.039726823   -2.1276091   0.63160799   418189 
 4425000   0.60817568   -2.1299762   -2.1299762   -1.4960346  0.036632728   -2.1299762   0.63394165   418189 
 4426000   0.60601568   -2.1277268   -2.1277268   -1.4960366  0.049034182   -2.1277268   0.63169015   418189 
 4427000   0.60667164   -2.1279188   -2.1279188   -1.4955449  0.039962251   -2.1279188    0.6323739   418189 
 4428000   0.60566623   -2.1268429   -2.1268429    -1.495517   0.02605875   -2.1268429   0.63132589   418189 
 4429000   0.60502305   -2.1268537   -2.1268537   -1.4961982  0.034220993   -2.1268537   0.63065546   418189 
 4430000   0.60590251     -2.12776     -2.12776   -1.4961879  0.039020552     -2.12776   0.63157218   418189 
 4431000   0.60681739   -2.1277499   -2.1277499   -1.4952241  0.034831942   -2.1277499   0.63252583   418189 
 4432000   0.60669306   -2.1280787   -2.1280787   -1.4956825  0.035128077   -2.1280787   0.63239622   418189 
 4433000   0.60609661   -2.1279637   -2.1279637   -1.4961892  0.034825281   -2.1279637   0.63177451   418189 
 4434000   0.60607693    -2.127794    -2.127794     -1.49604  0.043226304    -2.127794   0.63175399   418189 
 4435000   0.60715684   -2.1286653   -2.1286653   -1.4957856  0.038675549   -2.1286653   0.63287965   418189 
 4436000    0.6060678   -2.1274712   -2.1274712   -1.4957267  0.040036868   -2.1274712   0.63174448   418189 
 4437000   0.60544838   -2.1265647   -2.1265647   -1.4954659  0.040661259   -2.1265647   0.63109882   418189 
 4438000   0.60652732   -2.1276973   -2.1276973   -1.4954738  0.035408506   -2.1276973   0.63222347   418189 
 4439000    0.6063538   -2.1270442   -2.1270442   -1.4950016  0.037626475   -2.1270442   0.63204259   418189 
 4440000   0.60570401   -2.1282885   -2.1282885   -1.4969232  0.032721967   -2.1282885   0.63136528   418189 
 4441000    0.6063946   -2.1285977   -2.1285977   -1.4965125  0.037356325   -2.1285977   0.63208512   418189 
 4442000   0.60508129   -2.1271688   -2.1271688   -1.4964526  0.024471047   -2.1271688   0.63071617   418189 
 4443000   0.60709588   -2.1295601   -2.1295601    -1.496744  0.036056985   -2.1295601   0.63281611   418189 
 4444000   0.60767841   -2.1303791   -2.1303791   -1.4969558  0.037563099   -2.1303791   0.63342333   418189 
 4445000   0.60681624   -2.1292198   -2.1292198   -1.4966952  0.039082571   -2.1292198   0.63252463   418189 
 4446000    0.6068191   -2.1288438   -2.1288438   -1.4963162  0.033753507   -2.1288438    0.6325276   418189 
 4447000   0.60620377   -2.1285447   -2.1285447   -1.4966585  0.042626223   -2.1285447   0.63188621   418189 
 4448000   0.60675744   -2.1290221   -2.1290221   -1.4965587  0.036372731   -2.1290221   0.63246334   418189 
 4449000   0.60674455   -2.1283524   -2.1283524   -1.4959025  0.043818026   -2.1283524    0.6324499   418189 
 4450000   0.60772914   -2.1290289   -2.1290289   -1.4955527  0.036126358   -2.1290289    0.6334762   418189 
 4451000   0.60600574   -2.1280168   -2.1280168    -1.496337  0.037067312   -2.1280168   0.63167979   418189 
 4452000   0.60707543   -2.1288011   -2.1288011   -1.4960063  0.033625477   -2.1288011    0.6327948   418189 
 4453000   0.60787923   -2.1288096   -2.1288096    -1.495177  0.033216817   -2.1288096   0.63363264   418189 
 4454000   0.60665647    -2.128202    -2.128202    -1.495844  0.035158826    -2.128202   0.63235809   418189 
 4455000   0.60705022   -2.1286913   -2.1286913   -1.4959228  0.030701738   -2.1286913   0.63276852   418189 
 4456000    0.6069824   -2.1286895   -2.1286895   -1.4959917   0.04090512   -2.1286895   0.63269782   418189 
 4457000   0.60755037   -2.1283348   -2.1283348    -1.495045  0.033956808   -2.1283348   0.63328986   418189 
 4458000   0.60689991    -2.127524    -2.127524   -1.4949121  0.036637458    -2.127524   0.63261183   418189 
 4459000   0.60563276   -2.1258955   -2.1258955   -1.4946045  0.030616266   -2.1258955     0.631291   418189 
 4460000   0.60457025   -2.1255122   -2.1255122   -1.4953288    0.0364122   -2.1255122   0.63018348   418189 
 4461000   0.60609089   -2.1268495   -2.1268495   -1.4950809  0.033329432   -2.1268495   0.63176855   418189 
 4462000   0.60693239   -2.1283356   -2.1283356   -1.4956899  0.032365821   -2.1283356   0.63264569   418189 
 4463000   0.60729027   -2.1283665   -2.1283665   -1.4953478  0.038252104   -2.1283665   0.63301874   418189 
 4464000   0.60656812    -2.127944    -2.127944    -1.495678  0.037783157    -2.127944   0.63226599   418189 
 4465000   0.60712421   -2.1284887   -2.1284887   -1.4956431  0.042689373   -2.1284887   0.63284564   418189 
 4466000   0.60539626   -2.1260022   -2.1260022   -1.4949577  0.040264388   -2.1260022   0.63104448   418189 
 4467000    0.6066412   -2.1279888   -2.1279888   -1.4956466  0.037846148   -2.1279888   0.63234217   418189 
 4468000   0.60707928    -2.127677    -2.127677   -1.4948782  0.038913498    -2.127677    0.6327988   418189 
 4469000   0.60667887   -2.1281017   -2.1281017   -1.4957202  0.034428398   -2.1281017   0.63238143   418189 
 4470000   0.60737994   -2.1281208   -2.1281208   -1.4950086  0.033886779   -2.1281208    0.6331122   418189 
 4471000   0.60629155   -2.1284195   -2.1284195   -1.4964418  0.038314232   -2.1284195    0.6319777   418189 
 4472000    0.6069177   -2.1285966   -2.1285966   -1.4959663  0.031466653   -2.1285966   0.63263038   418189 
 4473000   0.60622791   -2.1279842   -2.1279842   -1.4960728  0.027625643   -2.1279842   0.63191136   418189 
 4474000   0.60718933   -2.1292282   -2.1292282   -1.4963147   0.03494321   -2.1292282   0.63291352   418189 
 4475000     0.606012   -2.1281668   -2.1281668   -1.4964805  0.039213286   -2.1281668   0.63168631   418189 
 4476000   0.60692486   -2.1282544   -2.1282544   -1.4956166  0.033899573   -2.1282544   0.63263784   418189 
 4477000   0.60882886   -2.1302646   -2.1302646   -1.4956421  0.036336604   -2.1302646   0.63462251   418189 
 4478000   0.60592907   -2.1272882   -2.1272882   -1.4956883  0.042941272   -2.1272882   0.63159987   418189 
 4479000    0.6041364   -2.1262658   -2.1262658   -1.4965346  0.034355345   -2.1262658   0.62973125   418189 
 4480000   0.60636854   -2.1283416   -2.1283416   -1.4962837  0.029954278   -2.1283416   0.63205795   418189 
 4481000   0.60510219   -2.1276993   -2.1276993   -1.4969614  0.031751434   -2.1276993   0.63073795   418189 
 4482000    0.6060354   -2.1276624   -2.1276624   -1.4959517  0.038310133   -2.1276624   0.63171071   418189 
 4483000   0.60603578    -2.126872    -2.126872   -1.4951609  0.038762208    -2.126872    0.6317111   418189 
 4484000     0.606675   -2.1276246   -2.1276246   -1.4952472  0.034213691   -2.1276246    0.6323774   418189 
 4485000   0.60749726   -2.1277605   -2.1277605    -1.494526  0.041145543   -2.1277605    0.6332345   418189 
 4486000   0.60770942   -2.1279246   -2.1279246    -1.494469  0.038489231   -2.1279246   0.63345565   418189 
 4487000   0.60713248   -2.1270189   -2.1270189   -1.4941647  0.043633821   -2.1270189   0.63285426   418189 
 4488000    0.6072186   -2.1276658   -2.1276658   -1.4947218  0.030637243   -2.1276658   0.63294403   418189 
 4489000   0.60577685   -2.1261842   -2.1261842    -1.494743  0.033692794   -2.1261842    0.6314412   418189 
 4490000   0.60591613      -2.1263      -2.1263   -1.4947137  0.028212985      -2.1263   0.63158638   418189 
 4491000   0.60588176   -2.1264474   -2.1264474   -1.4948969  0.039426914   -2.1264474   0.63155055   418189 
 4492000   0.60748864   -2.1286384   -2.1286384   -1.4954129  0.029443376   -2.1286384   0.63322551   418189 
 4493000   0.60659148   -2.1274627   -2.1274627   -1.4951724  0.033792367   -2.1274627   0.63229035   418189 
 4494000   0.60634293   -2.1268138   -2.1268138   -1.4947825  0.032281211   -2.1268138   0.63203126   418189 
 4495000   0.60590752   -2.1259665   -2.1259665   -1.4943891  0.030146866   -2.1259665    0.6315774   418189 
 4496000   0.60651557   -2.1265398   -2.1265398   -1.4943286  0.029169992   -2.1265398   0.63221121   418189 
 4497000   0.60610499   -2.1262309   -2.1262309   -1.4944476   0.03282712   -2.1262309   0.63178325   418189 
 4498000   0.60543228   -2.1256023   -2.1256023   -1.4945202  0.037526987   -2.1256023   0.63108203   418189 
 4499000   0.60573648   -2.1265425   -2.1265425   -1.4951434   0.03739254   -2.1265425   0.63139912   418189 
 4500000   0.60594657    -2.127402    -2.127402   -1.4957839  0.039177347    -2.127402   0.63161811   418189 
 4501000   0.60674415   -2.1276185   -2.1276185    -1.495169   0.02917567   -2.1276185   0.63244948   418189 
 4502000   0.60651045   -2.1275097   -2.1275097   -1.4953039  0.033105562   -2.1275097   0.63220588   418189 
 4503000    0.6058259   -2.1264342   -2.1264342   -1.4949419  0.041010638   -2.1264342   0.63149233   418189 
 4504000   0.60681056   -2.1268567   -2.1268567    -1.494338  0.033388996   -2.1268567    0.6325187   418189 
 4505000   0.60697558   -2.1275383   -2.1275383   -1.4948476  0.029862094   -2.1275383   0.63269072   418189 
 4506000   0.60668358   -2.1277709   -2.1277709   -1.4953846  0.032316551   -2.1277709   0.63238635   418189 
 4507000   0.60670844   -2.1273563   -2.1273563   -1.4949441   0.03524041   -2.1273563   0.63241226   418189 
 4508000   0.60568378   -2.1263923   -2.1263923   -1.4950482  0.039477282   -2.1263923   0.63134419   418189 
 4509000   0.60512888   -2.1266034   -2.1266034   -1.4958377  0.036254713   -2.1266034   0.63076578   418189 
 4510000   0.60670824   -2.1276057   -2.1276057   -1.4951937  0.036986341   -2.1276057   0.63241205   418189 
 4511000   0.60838458   -2.1289569   -2.1289569   -1.4947975  0.034225422   -2.1289569   0.63415941   418189 
 4512000    0.6079728    -2.128597    -2.128597   -1.4948669  0.036044413    -2.128597   0.63373018   418189 
 4513000   0.60775978   -2.1279434   -2.1279434   -1.4944352  0.042475209   -2.1279434   0.63350814   418189 
 4514000   0.60732097   -2.1278112   -2.1278112   -1.4947605  0.047166755   -2.1278112   0.63305074   418189 
 4515000   0.60756159   -2.1280626   -2.1280626    -1.494761   0.03898497   -2.1280626   0.63330155   418189 
 4516000   0.60649767    -2.127098    -2.127098   -1.4949054  0.024409913    -2.127098   0.63219256   418189 
 4517000    0.6064075   -2.1275324   -2.1275324   -1.4954338   0.02892292   -2.1275324   0.63209857   418189 
 4518000   0.60637492    -2.127667    -2.127667   -1.4956024  0.041667991    -2.127667    0.6320646   418189 
 4519000   0.60475218   -2.1263678   -2.1263678   -1.4959947  0.038785537   -2.1263678   0.63037312   418189 
 4520000   0.60512856   -2.1272468   -2.1272468   -1.4964813  0.030583537   -2.1272468   0.63076544   418189 
 4521000   0.60632897   -2.1293042   -2.1293042   -1.4972875   0.03852695   -2.1293042   0.63201671   418189 
 4522000   0.60673628   -2.1291419   -2.1291419   -1.4967007  0.040754881   -2.1291419   0.63244128   418189 
 4523000   0.60595278   -2.1284428   -2.1284428   -1.4968182  0.034600289   -2.1284428   0.63162459   418189 
 4524000   0.60628714   -2.1285901   -2.1285901    -1.496617   0.02763329   -2.1285901   0.63197311   418189 
 4525000   0.60678888    -2.128801    -2.128801   -1.4963049  0.038779305    -2.128801   0.63249611   418189 
 4526000   0.60651733   -2.1293314   -2.1293314   -1.4971184  0.039500564   -2.1293314   0.63221305   418189 
 4527000   0.60568108   -2.1285059   -2.1285059   -1.4971646  0.028160217   -2.1285059   0.63134137   418189 
 4528000   0.60662711   -2.1294308   -2.1294308   -1.4971034  0.044691966   -2.1294308   0.63232748   418189 
 4529000   0.60508037   -2.1282474   -2.1282474   -1.4975321   0.03461532   -2.1282474   0.63071521   418189 
 4530000   0.60773571   -2.1303983   -2.1303983   -1.4969152  0.041238145   -2.1303983   0.63348305   418189 
 4531000   0.60643148   -2.1289999   -2.1289999   -1.4968763  0.045444308   -2.1289999   0.63212357   418189 
 4532000   0.60584795   -2.1294888   -2.1294888   -1.4979735  0.037272255   -2.1294888   0.63151531   418189 
 4533000     0.606135   -2.1296308   -2.1296308   -1.4978163  0.031359665   -2.1296308   0.63181452   418189 
 4534000   0.60634528   -2.1307067   -2.1307067   -1.4986729   0.02366047   -2.1307067   0.63203371   418189 
 4535000   0.60632599   -2.1305469   -2.1305469   -1.4985333  0.042072486   -2.1305469    0.6320136   418189 
 4536000   0.60433238   -2.1290744   -2.1290744   -1.4991388  0.039949481   -2.1290744   0.62993553   418189 
 4537000   0.60538544   -2.1299331   -2.1299331   -1.4988998  0.032747969   -2.1299331   0.63103321   418189 
 4538000   0.60688544    -2.131366    -2.131366   -1.4987693  0.043014664    -2.131366   0.63259676   418189 
 4539000   0.60601691   -2.1297971   -2.1297971   -1.4981057  0.034297512   -2.1297971   0.63169143   418189 
 4540000   0.60657543   -2.1301761   -2.1301761   -1.4979025  0.037298694   -2.1301761   0.63227361   418189 
 4541000   0.60530322   -2.1298576   -2.1298576   -1.4989101  0.026082941   -2.1298576    0.6309475   418189 
 4542000   0.60599722   -2.1310276   -2.1310276   -1.4993567  0.036685443   -2.1310276    0.6316709   418189 
 4543000   0.60668755   -2.1308868   -2.1308868   -1.4984963  0.034181505   -2.1308868   0.63239048   418189 
 4544000   0.60585529   -2.1304975   -2.1304975   -1.4989745  0.034678341   -2.1304975   0.63152296   418189 
 4545000   0.60668057    -2.131786    -2.131786   -1.4994028   0.03308915    -2.131786    0.6323832   418189 
 4546000   0.60579743   -2.1302619   -2.1302619   -1.4987992  0.041011299   -2.1302619   0.63146265   418189 
 4547000   0.60726296   -2.1314484   -2.1314484   -1.4984582  0.031782407   -2.1314484   0.63299027   418189 
 4548000   0.60645715   -2.1303067   -2.1303067   -1.4981564  0.044144795   -2.1303067   0.63215033   418189 
 4549000   0.60675678   -2.1310753   -2.1310753   -1.4986127  0.038195622   -2.1310753   0.63246264   418189 
 4550000   0.60760744   -2.1314104   -2.1314104    -1.498061  0.034264002   -2.1314104   0.63334934   418189 
 4551000   0.60628598   -2.1304684   -2.1304684   -1.4984965  0.030102287   -2.1304684    0.6319719   418189 
 4552000   0.60704424   -2.1311477   -2.1311477   -1.4983854  0.033302812   -2.1311477   0.63276228   418189 
 4553000   0.60728982   -2.1315737   -2.1315737   -1.4985554  0.032563452   -2.1315737   0.63301827   418189 
 4554000   0.60762973   -2.1315179   -2.1315179   -1.4981453  0.039471611   -2.1315179   0.63337258   418189 
 4555000   0.60667089   -2.1303264   -2.1303264   -1.4979533  0.041020124   -2.1303264   0.63237312   418189 
 4556000   0.60766353   -2.1309785   -2.1309785   -1.4975706  0.044498746   -2.1309785   0.63340781   418189 
 4557000   0.60759754    -2.130927    -2.130927    -1.497588  0.034943853    -2.130927   0.63333902   418189 
 4558000   0.60600776   -2.1296277   -2.1296277   -1.4979458   0.03565796   -2.1296277   0.63168189   418189 
 4559000   0.60604364    -2.130158    -2.130158   -1.4984387  0.031260359    -2.130158    0.6317193   418189 
 4560000   0.60616353     -2.12999     -2.12999   -1.4981457  0.034262624     -2.12999   0.63184426   418189 
 4561000   0.60678959   -2.1303283   -2.1303283   -1.4978315  0.038496698   -2.1303283   0.63249685   418189 
 4562000   0.60680308    -2.130062    -2.130062   -1.4975511  0.038396234    -2.130062   0.63251091   418189 
 4563000   0.60655306   -2.1297592   -2.1297592   -1.4975089  0.031836575   -2.1297592   0.63225029   418189 
 4564000   0.60775823   -2.1306678   -2.1306678   -1.4971613  0.041155759   -2.1306678   0.63350652   418189 
 4565000   0.60759978   -2.1303799   -2.1303799   -1.4970385  0.043600474   -2.1303799   0.63334136   418189 
 4566000   0.60624115   -2.1287475   -2.1287475   -1.4968223  0.029735482   -2.1287475   0.63192516   418189 
 4567000   0.60636001   -2.1297819   -2.1297819   -1.4977328  0.025837232   -2.1297819   0.63204906   418189 
 4568000    0.6049123   -2.1294494   -2.1294494   -1.4989094   0.03407977   -2.1294494   0.63054002   418189 
 4569000   0.60572745   -2.1300302   -2.1300302   -1.4986405  0.028879048   -2.1300302   0.63138971   418189 
 4570000   0.60541439   -2.1285381   -2.1285381   -1.4974747  0.038937756   -2.1285381   0.63106338   418189 
 4571000   0.60608201   -2.1294573   -2.1294573    -1.497698  0.031222328   -2.1294573   0.63175928   418189 
 4572000   0.60672436    -2.130145    -2.130145   -1.4977162  0.038117805    -2.130145   0.63242885   418189 
 4573000   0.60639156    -2.130689    -2.130689    -1.498607  0.037485908    -2.130689   0.63208196   418189 
 4574000   0.60655481   -2.1302348   -2.1302348   -1.4979827  0.033548651   -2.1302348   0.63225212   418189 
 4575000   0.60792313   -2.1312829   -2.1312829   -1.4976045  0.036310634   -2.1312829   0.63367841   418189 
 4576000   0.60650844   -2.1296763   -2.1296763   -1.4974725  0.035439423   -2.1296763   0.63220379   418189 
 4577000   0.60617465   -2.1295584   -2.1295584   -1.4977025  0.024927917   -2.1295584   0.63185585   418189 
 4578000   0.60753792    -2.130722    -2.130722   -1.4974451  0.044504724    -2.130722   0.63327688   418189 
 4579000   0.60758404   -2.1309444   -2.1309444   -1.4976194  0.043400886   -2.1309444   0.63332496   418189 
 4580000   0.60783093   -2.1312249   -2.1312249   -1.4976426     0.042356   -2.1312249    0.6335823   418189 
 4581000   0.60813623   -2.1319103   -2.1319103   -1.4980098  0.044558551   -2.1319103   0.63390054   418189 
 4582000   0.60743747   -2.1310595   -2.1310595   -1.4978873  0.036921042   -2.1310595   0.63317217   418189 
 4583000   0.60587986   -2.1292601   -2.1292601   -1.4977115  0.050860844   -2.1292601   0.63154857   418189 
 4584000   0.60739626   -2.1304111   -2.1304111   -1.4972819  0.033036637   -2.1304111   0.63312922   418189 
 4585000   0.60640312   -2.1291072   -2.1291072   -1.4970132  0.036941921   -2.1291072   0.63209401   418189 
 4586000    0.6053083   -2.1280133   -2.1280133   -1.4970605  0.031263812   -2.1280133    0.6309528   418189 
 4587000   0.60546467   -2.1278182   -2.1278182   -1.4967024  0.033349217   -2.1278182   0.63111579   418189 
 4588000   0.60492419   -2.1281515   -2.1281515   -1.4975991  0.025281375   -2.1281515   0.63055242   418189 
 4589000   0.60518764   -2.1286315   -2.1286315   -1.4978044  0.034649412   -2.1286315   0.63082703   418189 
 4590000    0.6067145    -2.129899    -2.129899   -1.4974804   0.03182017    -2.129899   0.63241857   418189 
 4591000   0.60457961   -2.1274089   -2.1274089   -1.4972157  0.035655498   -2.1274089   0.63019324   418189 
 4592000   0.60649055   -2.1301999   -2.1301999   -1.4980147   0.02533525   -2.1301999   0.63218514   418189 
 4593000   0.60582255   -2.1292077   -2.1292077   -1.4977188  0.037098974   -2.1292077   0.63148884   418189 
 4594000   0.60720598   -2.1307165   -2.1307165   -1.4977857  0.041868478   -2.1307165   0.63293087   418189 
 4595000   0.60712099   -2.1316404   -2.1316404   -1.4987981  0.037999474   -2.1316404   0.63284229   418189 
 4596000   0.60601674   -2.1302542   -2.1302542   -1.4985629  0.035868545   -2.1302542   0.63169125   418189 
 4597000   0.60688887   -2.1314624   -2.1314624   -1.4988621  0.039422487   -2.1314624   0.63260033   418189 
 4598000   0.60728258   -2.1313764   -2.1313764   -1.4983657  0.035485974   -2.1313764   0.63301072   418189 
 4599000   0.60629416   -2.1307944   -2.1307944    -1.498814  0.034442127   -2.1307944   0.63198042   418189 
 4600000   0.60694206   -2.1316717   -2.1316717   -1.4990159  0.034195688   -2.1316717   0.63265577   418189 
 4601000   0.60597086   -2.1308393   -2.1308393   -1.4991959   0.02752455   -2.1308393   0.63164343   418189 
 4602000   0.60648831   -2.1311237   -2.1311237   -1.4989409  0.041705578   -2.1311237   0.63218281   418189 
 4603000   0.60712376   -2.1326938   -2.1326938   -1.4998486  0.041417877   -2.1326938   0.63284517   418189 
 4604000     0.607306   -2.1333172   -2.1333172   -1.5002821    0.0371579   -2.1333172   0.63303513   418189 
 4605000   0.60704268    -2.131641    -2.131641   -1.4988803  0.039603535    -2.131641   0.63276066   418189 
 4606000   0.60649697   -2.1313817   -2.1313817   -1.4991899  0.040086185   -2.1313817   0.63219183   418189 
 4607000   0.60668683   -2.1316126   -2.1316126   -1.4992229  0.036126009   -2.1316126   0.63238973   418189 
 4608000   0.60666695   -2.1316916   -2.1316916   -1.4993226  0.027581261   -2.1316916   0.63236901   418189 
 4609000   0.60697556   -2.1321972   -2.1321972   -1.4995065  0.038332872   -2.1321972    0.6326907   418189 
 4610000   0.60530124   -2.1301721   -2.1301721   -1.4992266  0.041450797   -2.1301721   0.63094544   418189 
 4611000   0.60553968   -2.1304012   -2.1304012   -1.4992072   0.03067873   -2.1304012   0.63119399   418189 
 4612000   0.60492642   -2.1296901   -2.1296901   -1.4991354  0.029686919   -2.1296901   0.63055474   418189 
 4613000   0.60746776   -2.1327912   -2.1327912   -1.4995874  0.027606706   -2.1327912   0.63320374   418189 
 4614000   0.60486819   -2.1300847   -2.1300847   -1.4995906  0.036457469   -2.1300847   0.63049405   418189 
 4615000   0.60542622   -2.1307789   -2.1307789   -1.4997032  0.030080599   -2.1307789   0.63107572   418189 
 4616000   0.60539501   -2.1303935   -2.1303935   -1.4993503  0.035551743   -2.1303935   0.63104318   418189 
 4617000   0.60580966   -2.1306587   -2.1306587   -1.4991833  0.039598146   -2.1306587    0.6314754   418189 
 4618000   0.60591832   -2.1310381   -2.1310381   -1.4994494  0.031475315   -2.1310381   0.63158866   418189 
 4619000   0.60612013   -2.1312685   -2.1312685   -1.4994695  0.037355851   -2.1312685   0.63179902   418189 
 4620000   0.60456926   -2.1297627   -2.1297627   -1.4995802  0.031229045   -2.1297627   0.63018245   418189 
 4621000   0.60650393   -2.1309595   -2.1309595   -1.4987604   0.03197765   -2.1309595   0.63219909   418189 
 4622000   0.60698212   -2.1311092   -2.1311092   -1.4984117  0.037524592   -2.1311092   0.63269753   418189 
 4623000   0.60719443   -2.1314344   -2.1314344   -1.4985156  0.037199444   -2.1314344   0.63291884   418189 
 4624000   0.60707485   -2.1316519   -2.1316519   -1.4988577  0.030985441   -2.1316519   0.63279419   418189 
 4625000   0.60698917   -2.1316506   -2.1316506   -1.4989458    0.0379233   -2.1316506   0.63270488   418189 
 4626000   0.60649984   -2.1309158   -2.1309158   -1.4987209  0.036330186   -2.1309158   0.63219482   418189 
 4627000   0.60705919   -2.1309388   -2.1309388   -1.4981609  0.040493166   -2.1309388   0.63277787   418189 
 4628000   0.60748495   -2.1311667   -2.1311667   -1.4979451  0.039054249   -2.1311667   0.63322166   418189 
 4629000   0.60672133   -2.1308927   -2.1308927    -1.498467  0.033189067   -2.1308927    0.6324257   418189 
 4630000   0.60526372   -2.1307443   -2.1307443    -1.499838  0.038411291   -2.1307443   0.63090633   418189 
 4631000   0.60561299   -2.1304314   -2.1304314    -1.499161  0.030437257   -2.1304314    0.6312704   418189 
 4632000   0.60657203   -2.1310621   -2.1310621   -1.4987921  0.039916336   -2.1310621   0.63227006   418189 
 4633000   0.60597167   -2.1302772   -2.1302772   -1.4986329  0.039923463   -2.1302772   0.63164427   418189 
 4634000   0.60556172   -2.1299609   -2.1299609    -1.498744  0.039226842   -2.1299609   0.63121696   418189 
 4635000   0.60514522   -2.1289817   -2.1289817   -1.4981989  0.032661517   -2.1289817   0.63078281   418189 
 4636000   0.60658507   -2.1298614   -2.1298614   -1.4975777  0.039111832   -2.1298614   0.63228366   418189 
 4637000   0.60488573   -2.1289174   -2.1289174   -1.4984051  0.030199365   -2.1289174   0.63051232   418189 
 4638000   0.60477542   -2.1286878   -2.1286878   -1.4982905  0.037501511   -2.1286878   0.63039734   418189 
 4639000      0.60469   -2.1282114   -2.1282114   -1.4979031  0.030121713   -2.1282114    0.6303083   418189 
 4640000    0.6053444   -2.1286506   -2.1286506   -1.4976602   0.03320528   -2.1286506   0.63099043   418189 
 4641000   0.60649585   -2.1305075   -2.1305075   -1.4983169  0.026849253   -2.1305075   0.63219066   418189 
 4642000   0.60688161   -2.1310342   -2.1310342   -1.4984414  0.033441884   -2.1310342   0.63259276   418189 
 4643000   0.60587723   -2.1300335   -2.1300335   -1.4984877  0.027963121   -2.1300335   0.63154583   418189 
 4644000   0.60541037   -2.1299217   -2.1299217   -1.4988625  0.034310625   -2.1299217    0.6310592   418189 
 4645000   0.60598646   -2.1302184   -2.1302184   -1.4985588  0.029073228   -2.1302184   0.63165969   418189 
 4646000   0.60746079   -2.1314039   -2.1314039   -1.4982074  0.035768247   -2.1314039   0.63319648   418189 
 4647000   0.60651554   -2.1305675   -2.1305675   -1.4983563  0.033610346   -2.1305675   0.63221118   418189 
 4648000   0.60531606   -2.1297408   -2.1297408   -1.4987799  0.037758344   -2.1297408   0.63096089   418189 
 4649000   0.60579253   -2.1304948   -2.1304948   -1.4990373  0.035423767   -2.1304948   0.63145754   418189 
 4650000   0.60599228   -2.1301465   -2.1301465   -1.4984807  0.038000388   -2.1301465   0.63166575   418189 
 4651000   0.60540096   -2.1300278   -2.1300278   -1.4989785  0.032892466   -2.1300278   0.63104938   418189 
 4652000   0.60613462   -2.1309978   -2.1309978   -1.4991837  0.030681497   -2.1309978   0.63181412   418189 
 4653000   0.60592935   -2.1309154   -2.1309154   -1.4993153  0.037720684   -2.1309154   0.63160016   418189 
 4654000   0.60690753   -2.1319707   -2.1319707   -1.4993509  0.035271946   -2.1319707   0.63261978   418189 
 4655000   0.60606238   -2.1310941   -2.1310941   -1.4993553  0.038043391   -2.1310941   0.63173882   418189 
 4656000   0.60540283   -2.1309092   -2.1309092   -1.4998579  0.045850822   -2.1309092   0.63105133   418189 
 4657000   0.60564238   -2.1314629   -2.1314629   -1.5001619  0.040588078   -2.1314629   0.63130103   418189 
 4658000    0.6059593   -2.1315321   -2.1315321   -1.4999008  0.025926564   -2.1315321   0.63163138   418189 
 4659000   0.60559323    -2.131903    -2.131903   -1.5006532  0.040576923    -2.131903    0.6312498   418189 
 4660000   0.60486468   -2.1310968   -2.1310968   -1.5006064  0.036348265   -2.1310968   0.63049038   418189 
 4661000   0.60529616   -2.1303233   -2.1303233   -1.4993831  0.038443538   -2.1303233   0.63094015   418189 
 4662000   0.60623653   -2.1311652   -2.1311652   -1.4992448  0.026449013   -2.1311652   0.63192035   418189 
 4663000   0.60519577   -2.1301714   -2.1301714   -1.4993359  0.036034368   -2.1301714    0.6308355   418189 
 4664000   0.60394422   -2.1294709   -2.1294709     -1.49994  0.025775184   -2.1294709   0.62953093   418189 
 4665000   0.60428471   -2.1298283   -2.1298283   -1.4999424  0.035405689   -2.1298283   0.62988584   418189 
 4666000   0.60360037   -2.1290547   -2.1290547   -1.4998822   0.03253984   -2.1290547   0.62917251   418189 
 4667000   0.60446883   -2.1294592   -2.1294592   -1.4993815  0.040650493   -2.1294592   0.63007776   418189 
 4668000   0.60504872   -2.1307356   -2.1307356   -1.5000534  0.030513855   -2.1307356   0.63068222   418189 
 4669000   0.60659384   -2.1321477   -2.1321477   -1.4998549  0.039473113   -2.1321477    0.6322928   418189 
 4670000   0.60604744   -2.1310586   -2.1310586   -1.4993354  0.039429949   -2.1310586   0.63172325   418189 
 4671000    0.6062302   -2.1321455   -2.1321455   -1.5002317  0.035545164   -2.1321455   0.63191376   418189 
 4672000   0.60677644   -2.1325141   -2.1325141    -1.500031  0.033879101   -2.1325141   0.63248313   418189 
 4673000   0.60682099   -2.1324527   -2.1324527   -1.4999231  0.031026908   -2.1324527   0.63252958   418189 
 4674000   0.60677957   -2.1324836   -2.1324836   -1.4999972  0.036206738   -2.1324836    0.6324864   418189 
 4675000   0.60571052   -2.1320127   -2.1320127   -1.5006406  0.033550375   -2.1320127   0.63137206   418189 
 4676000    0.6055631   -2.1320234   -2.1320234    -1.500805  0.041324227   -2.1320234    0.6312184   418189 
 4677000   0.60592844   -2.1323454   -2.1323454   -1.5007461  0.034208791   -2.1323454   0.63159921   418189 
 4678000   0.60675351   -2.1336202   -2.1336202    -1.501161  0.031630677   -2.1336202   0.63245923   418189 
 4679000   0.60564004   -2.1325741   -2.1325741   -1.5012755  0.032793817   -2.1325741    0.6312986   418189 
 4680000   0.60655362   -2.1333384   -2.1333384   -1.5010875  0.031852162   -2.1333384   0.63225088   418189 
 4681000    0.6067583   -2.1333828   -2.1333828   -1.5009186  0.035669749   -2.1333828   0.63246423   418189 
 4682000   0.60528743   -2.1320952   -2.1320952   -1.5011642  0.040237739   -2.1320952   0.63093104   418189 
 4683000   0.60586756   -2.1325829   -2.1325829   -1.5010472  0.032737132   -2.1325829   0.63153576   418189 
 4684000    0.6058361   -2.1321992   -2.1321992   -1.5006962  0.033455513   -2.1321992   0.63150296   418189 
 4685000   0.60616536   -2.1324498   -2.1324498   -1.5006036  0.032742035   -2.1324498   0.63184617   418189 
 4686000   0.60699945   -2.1328385   -2.1328385   -1.5001229  0.037571573   -2.1328385    0.6327156   418189 
 4687000    0.6059847   -2.1322525   -2.1322525   -1.5005946   0.04136011   -2.1322525   0.63165785   418189 
 4688000   0.60637625    -2.132345    -2.132345    -1.500279  0.041058587    -2.132345     0.632066   418189 
 4689000   0.60592523   -2.1315597   -2.1315597   -1.4999638  0.036144379   -2.1315597   0.63159587   418189 
 4690000    0.6068391   -2.1325798   -2.1325798   -1.5000313  0.041343855   -2.1325798   0.63254845   418189 
 4691000   0.60661115   -2.1328559   -2.1328559    -1.500545   0.03746051   -2.1328559   0.63231085   418189 
 4692000   0.60579969   -2.1323513   -2.1323513   -1.5008863  0.044575737   -2.1323513   0.63146501   418189 
 4693000   0.60595386   -2.1323777   -2.1323777   -1.5007519  0.038017113   -2.1323777   0.63162571   418189 
 4694000   0.60504998   -2.1316705   -2.1316705    -1.500987   0.02734404   -2.1316705   0.63068353   418189 
 4695000   0.60546474   -2.1318935   -2.1318935   -1.5007776  0.023326892   -2.1318935   0.63111586   418189 
 4696000   0.60502355   -2.1299736   -2.1299736   -1.4993176  0.036686018   -2.1299736   0.63065599   418189 
 4697000    0.6058165   -2.1308789   -2.1308789   -1.4993964  0.036365246   -2.1308789   0.63148253   418189 
 4698000   0.60559189   -2.1313322   -2.1313322   -1.5000838  0.041700513   -2.1313322   0.63124841   418189 
 4699000    0.6056629   -2.1316686   -2.1316686   -1.5003462   0.03846796   -2.1316686   0.63132242   418189 
 4700000   0.60529449   -2.1321466   -2.1321466   -1.5012082  0.031793229   -2.1321466   0.63093841   418189 
 4701000   0.60590326   -2.1328647   -2.1328647   -1.5012918   0.03335371   -2.1328647   0.63157296   418189 
 4702000   0.60524622   -2.1320058   -2.1320058   -1.5011178  0.036571104   -2.1320058   0.63088809   418189 
 4703000   0.60600535    -2.131943    -2.131943   -1.5002637  0.038179824    -2.131943   0.63167938   418189 
 4704000   0.60603376   -2.1322682   -2.1322682   -1.5005593  0.040043801   -2.1322682   0.63170899   418189 
 4705000   0.60609931   -2.1324876   -2.1324876   -1.5007103  0.047338268   -2.1324876   0.63177732   418189 
 4706000   0.60666454   -2.1325068   -2.1325068   -1.5001403    0.0401871   -2.1325068    0.6323665   418189 
 4707000   0.60724946   -2.1338314   -2.1338314   -1.5008552   0.03724177   -2.1338314    0.6329762   418189 
 4708000   0.60503172    -2.131012    -2.131012   -1.5003475  0.035679608    -2.131012    0.6306645   418189 
 4709000   0.60611738   -2.1316968   -2.1316968   -1.4999007  0.041462555   -2.1316968   0.63179616   418189 
 4710000   0.60530414    -2.132437    -2.132437   -1.5014885  0.036979736    -2.132437   0.63094847   418189 
 4711000   0.60503763   -2.1321414   -2.1321414   -1.5014707  0.041801086   -2.1321414   0.63067066   418189 
 4712000   0.60542217   -2.1321074   -2.1321074    -1.501036  0.034268031   -2.1321074   0.63107149   418189 
 4713000   0.60492692   -2.1317952   -2.1317952   -1.5012399  0.026164176   -2.1317952   0.63055526   418189 
 4714000    0.6053646   -2.1321126   -2.1321126   -1.5011011  0.043779293   -2.1321126   0.63101148   418189 
 4715000   0.60583578   -2.1319792   -2.1319792   -1.5004766  0.035215267   -2.1319792   0.63150262   418189 
 4716000   0.60591647   -2.1317877   -2.1317877   -1.5002009  0.029476455   -2.1317877   0.63158674   418189 
 4717000   0.60537098   -2.1316011   -2.1316011    -1.500583  0.032430097   -2.1316011   0.63101814   418189 
 4718000   0.60512298   -2.1317078   -2.1317078   -1.5009482  0.045070294   -2.1317078   0.63075963   418189 
 4719000   0.60654069   -2.1335019   -2.1335019   -1.5012645   0.04549651   -2.1335019    0.6322374   418189 
 4720000   0.60634835   -2.1337736   -2.1337736   -1.5017366  0.042650427   -2.1337736   0.63203691   418189 
 4721000   0.60627525   -2.1335875   -2.1335875   -1.5016268  0.030791194   -2.1335875   0.63196071   418189 
 4722000   0.60619672    -2.133499    -2.133499   -1.5016201   0.02946752    -2.133499   0.63187886   418189 
 4723000   0.60607012   -2.1333821   -2.1333821   -1.5016352  0.031631132   -2.1333821   0.63174689   418189 
 4724000   0.60660176   -2.1336072   -2.1336072   -1.5013062  0.038598662   -2.1336072   0.63230106   418189 
 4725000   0.60595239   -2.1334845   -2.1334845   -1.5018603  0.031563331   -2.1334845   0.63162418   418189 
 4726000   0.60567475   -2.1328749   -2.1328749   -1.5015401   0.04223458   -2.1328749   0.63133478   418189 
 4727000   0.60633684   -2.1325057   -2.1325057   -1.5004808   0.04155451   -2.1325057   0.63202492   418189 
 4728000   0.60511817    -2.131991    -2.131991   -1.5012364  0.039136347    -2.131991   0.63075461   418189 
 4729000   0.60514557   -2.1326047   -2.1326047   -1.5018215  0.027498457   -2.1326047   0.63078317   418189 
 4730000   0.60521722   -2.1321652   -2.1321652   -1.5013073  0.033839243   -2.1321652   0.63085786   418189 
 4731000   0.60628233   -2.1331992   -2.1331992   -1.5012311  0.033350173   -2.1331992    0.6319681   418189 
 4732000    0.6052589   -2.1326365   -2.1326365   -1.5017352  0.039084032   -2.1326365    0.6309013   418189 
 4733000   0.60500519   -2.1326527   -2.1326527   -1.5020158  0.035844746   -2.1326527   0.63063684   418189 
 4734000   0.60453689   -2.1326393   -2.1326393   -1.5024906  0.042180554   -2.1326393   0.63014871   418189 
 4735000   0.60471603   -2.1327271   -2.1327271   -1.5023917  0.035916362   -2.1327271   0.63033543   418189 
 4736000   0.60585064   -2.1336365   -2.1336365   -1.5021184  0.036875138   -2.1336365   0.63151812   418189 
 4737000   0.60669112   -2.1336073   -2.1336073   -1.5012131   0.04152047   -2.1336073    0.6323942   418189 
 4738000   0.60655565   -2.1341147   -2.1341147   -1.5018617  0.032391929   -2.1341147   0.63225299   418189 
 4739000   0.60581323   -2.1331344   -2.1331344   -1.5016553   0.03537744   -2.1331344   0.63147912   418189 
 4740000    0.6050457   -2.1325503   -2.1325503   -1.5018712  0.036695235   -2.1325503   0.63067908   418189 
 4741000   0.60515036   -2.1333468   -2.1333468   -1.5025586  0.031611219   -2.1333468   0.63078817   418189 
 4742000   0.60622589   -2.1340769   -2.1340769   -1.5021676  0.041016579   -2.1340769   0.63190926   418189 
 4743000   0.60444402    -2.132492    -2.132492   -1.5024401  0.030504042    -2.132492    0.6300519   418189 
 4744000   0.60494249   -2.1332977   -2.1332977   -1.5027262  0.033708734   -2.1332977   0.63057149   418189 
 4745000   0.60531083   -2.1335433   -2.1335433   -1.5025879  0.036020286   -2.1335433   0.63095544   418189 
 4746000   0.60628958   -2.1343358   -2.1343358   -1.5023601  0.033985876   -2.1343358   0.63197565   418189 
 4747000   0.60573383   -2.1338952   -2.1338952   -1.5024988  0.042863379   -2.1338952   0.63139635   418189 
 4748000   0.60690981    -2.135912    -2.135912   -1.5032898  0.034851984    -2.135912   0.63262215   418189 
 4749000   0.60529526   -2.1342485   -2.1342485   -1.5033093   0.03591775   -2.1342485   0.63093921   418189 
 4750000   0.60603616   -2.1349305   -2.1349305    -1.503219  0.036954274   -2.1349305    0.6317115   418189 
 4751000    0.6067692   -2.1355881   -2.1355881   -1.5031125  0.033144009   -2.1355881    0.6324756   418189 
 4752000    0.6064154   -2.1360701   -2.1360701   -1.5039633  0.030967973   -2.1360701    0.6321068   418189 
 4753000   0.60607366   -2.1364431   -2.1364431   -1.5046925  0.038627017   -2.1364431   0.63175058   418189 
 4754000    0.6052638   -2.1360122   -2.1360122   -1.5051058  0.036033799   -2.1360122   0.63090641   418189 
 4755000   0.60663877   -2.1365812   -2.1365812   -1.5042415  0.036614084   -2.1365812   0.63233964   418189 
 4756000   0.60557167   -2.1356565   -2.1356565   -1.5044292   0.03204334   -2.1356565   0.63122733   418189 
 4757000   0.60512809   -2.1352745   -2.1352745   -1.5045095  0.032704551   -2.1352745   0.63076496   418189 
 4758000   0.60545036   -2.1361279   -2.1361279    -1.505027  0.028989801   -2.1361279   0.63110087   418189 
 4759000   0.60514463   -2.1342481   -2.1342481   -1.5034659  0.037142979   -2.1342481    0.6307822   418189 
 4760000   0.60499835   -2.1332091   -2.1332091   -1.5025794  0.041084366   -2.1332091   0.63062971   418189 
 4761000   0.60493306   -2.1337093   -2.1337093   -1.5031476  0.043148436   -2.1337093   0.63056166   418189 
 4762000   0.60635401   -2.1347873   -2.1347873   -1.5027445  0.031086414   -2.1347873   0.63204281   418189 
 4763000    0.6059981   -2.1351098   -2.1351098    -1.503438  0.033496344   -2.1351098   0.63167182   418189 
 4764000   0.60510929   -2.1339571   -2.1339571   -1.5032117  0.037631742   -2.1339571   0.63074536   418189 
 4765000   0.60581725   -2.1345147   -2.1345147   -1.5030314  0.038606754   -2.1345147   0.63148331   418189 
 4766000   0.60694065   -2.1350598   -2.1350598   -1.5024055  0.043651884   -2.1350598    0.6326543   418189 
 4767000   0.60467199   -2.1327096   -2.1327096     -1.50242  0.034801225   -2.1327096   0.63028953   418189 
 4768000   0.60564771   -2.1339415   -2.1339415   -1.5026349  0.041301788   -2.1339415   0.63130659   418189 
 4769000   0.60582188   -2.1332339   -2.1332339   -1.5017458  0.029692626   -2.1332339   0.63148813   418189 
 4770000   0.60625623   -2.1338141   -2.1338141   -1.5018732  0.030275927   -2.1338141   0.63194088   418189 
 4771000   0.60509069   -2.1332415   -2.1332415   -1.5025156  0.034673383   -2.1332415   0.63072597   418189 
 4772000   0.60517916   -2.1330246   -2.1330246   -1.5022064   0.03599516   -2.1330246   0.63081819   418189 
 4773000   0.60422914   -2.1325471   -2.1325471   -1.5027192  0.034282066   -2.1325471   0.62982792   418189 
 4774000   0.60535773   -2.1338287   -2.1338287   -1.5028244  0.032365617   -2.1338287   0.63100433   418189 
 4775000   0.60422427   -2.1322846   -2.1322846   -1.5024618  0.027947123   -2.1322846   0.62982285   418189 
 4776000    0.6054143   -2.1343705   -2.1343705   -1.5033072  0.028335611   -2.1343705   0.63106328   418189 
 4777000    0.6046076   -2.1340764   -2.1340764    -1.503854  0.038405801   -2.1340764   0.63022241   418189 
 4778000   0.60505542    -2.134389    -2.134389   -1.5036997  0.033131269    -2.134389   0.63068921   418189 
 4779000   0.60319301   -2.1324869   -2.1324869    -1.503739  0.043235459   -2.1324869   0.62874789   418189 
 4780000   0.60535215   -2.1346461   -2.1346461   -1.5036475   0.03177986   -2.1346461   0.63099851   418189 
 4781000   0.60420039   -2.1331343   -2.1331343   -1.5033363  0.039947577   -2.1331343   0.62979795   418189 
 4782000   0.60481152    -2.134205    -2.134205   -1.5037701   0.03826214    -2.134205   0.63043497   418189 
 4783000   0.60494735   -2.1343646   -2.1343646    -1.503788  0.037403489   -2.1343646   0.63057656   418189 
 4784000   0.60682822   -2.1355591   -2.1355591    -1.503022  0.028295095   -2.1355591   0.63253711   418189 
 4785000   0.60546893   -2.1349027   -2.1349027   -1.5037824  0.030189633   -2.1349027   0.63112023   418189 
 4786000   0.60393311   -2.1329064   -2.1329064    -1.503387  0.037721362   -2.1329064   0.62951935   418189 
 4787000   0.60594573   -2.1359313   -2.1359313    -1.504314  0.034058552   -2.1359313   0.63161723   418189 
 4788000   0.60493465   -2.1345262   -2.1345262   -1.5039629  0.037744829   -2.1345262   0.63056331   418189 
 4789000   0.60579188    -2.134342    -2.134342   -1.5028851  0.040795506    -2.134342   0.63145687   418189 
 4790000   0.60477079    -2.133293    -2.133293   -1.5029005  0.041422966    -2.133293   0.63039252   418189 
 4791000   0.60530327   -2.1339479   -2.1339479   -1.5030004  0.035214655   -2.1339479   0.63094756   418189 
 4792000    0.6050595   -2.1334028   -2.1334028   -1.5027093  0.041959384   -2.1334028   0.63069346   418189 
 4793000   0.60344603   -2.1320413   -2.1320413   -1.5030297  0.035289174   -2.1320413   0.62901163   418189 
 4794000   0.60507728   -2.1337585   -2.1337585   -1.5030465  0.037880361   -2.1337585   0.63071199   418189 
 4795000   0.60535668   -2.1340601   -2.1340601   -1.5030569  0.031381236   -2.1340601   0.63100323   418189 
 4796000   0.60468171   -2.1336646   -2.1336646    -1.503365   0.03655541   -2.1336646   0.63029966   418189 
 4797000   0.60533431   -2.1337042   -2.1337042   -1.5027242  0.028639313   -2.1337042   0.63097991   418189 
 4798000   0.60708757   -2.1354369   -2.1354369   -1.5026294  0.037641446   -2.1354369   0.63280745   418189 
 4799000   0.60616516   -2.1344752   -2.1344752   -1.5026292    0.0327813   -2.1344752   0.63184596   418189 
 4800000    0.6053606   -2.1344296   -2.1344296   -1.5034223  0.038582064   -2.1344296   0.63100732   418189 
 4801000   0.60528053   -2.1336563   -2.1336563   -1.5027325  0.042227137   -2.1336563   0.63092385   418189 
 4802000   0.60661118   -2.1352213   -2.1352213   -1.5029104   0.04302615   -2.1352213   0.63231088   418189 
 4803000   0.60621078   -2.1347155   -2.1347155    -1.502822  0.038125607   -2.1347155   0.63189351   418189 
 4804000    0.6055772   -2.1346822   -2.1346822   -1.5034491  0.037388288   -2.1346822   0.63123309   418189 
 4805000   0.60620494    -2.135739    -2.135739   -1.5038516  0.033075932    -2.135739   0.63188743   418189 
 4806000   0.60414825   -2.1340951   -2.1340951   -1.5043515  0.033107479   -2.1340951    0.6297436   418189 
 4807000   0.60508544   -2.1354542   -2.1354542   -1.5047337   0.04318879   -2.1354542   0.63072049   418189 
 4808000   0.60612079   -2.1353086   -2.1353086   -1.5035089  0.034267761   -2.1353086   0.63179971   418189 
 4809000   0.60501576   -2.1348291   -2.1348291   -1.5041812  0.036316789   -2.1348291   0.63064786   418189 
 4810000   0.60467751   -2.1344191   -2.1344191   -1.5041238  0.039060528   -2.1344191   0.63029529   418189 
 4811000   0.60552622   -2.1351992   -2.1351992   -1.5040192  0.039219839   -2.1351992   0.63117995   418189 
 4812000   0.60576991   -2.1357375   -2.1357375   -1.5043035  0.037842255   -2.1357375   0.63143396   418189 
 4813000   0.60431407   -2.1343687   -2.1343687   -1.5044523   0.04285174   -2.1343687   0.62991645   418189 
 4814000   0.60523763   -2.1354348   -2.1354348   -1.5045557  0.031655686   -2.1354348   0.63087913   418189 
 4815000   0.60680948    -2.136583    -2.136583   -1.5040654  0.029751046    -2.136583   0.63251757   418189 
 4816000   0.60489368   -2.1344803   -2.1344803   -1.5039597  0.037219728   -2.1344803   0.63052061   418189 
 4817000   0.60622086     -2.13567     -2.13567    -1.503766  0.041099972     -2.13567   0.63190402   418189 
 4818000     0.606155   -2.1351205   -2.1351205   -1.5032851  0.035667528   -2.1351205   0.63183537   418189 
 4819000   0.60568983   -2.1341309   -2.1341309   -1.5027804  0.026787145   -2.1341309   0.63135049   418189 
 4820000   0.60519906   -2.1348242   -2.1348242   -1.5039853  0.038268404   -2.1348242   0.63083893   418189 
 4821000   0.60528135   -2.1347204   -2.1347204   -1.5037957  0.037825038   -2.1347204   0.63092471   418189 
 4822000   0.60586975   -2.1350947   -2.1350947   -1.5035567  0.034878373   -2.1350947   0.63153803   418189 
 4823000   0.60522561    -2.133879    -2.133879   -1.5030123  0.036857108    -2.133879    0.6308666   418189 
 4824000   0.60661934    -2.135775    -2.135775   -1.5034556  0.025376024    -2.135775   0.63231938   418189 
 4825000    0.6065483   -2.1347511   -2.1347511   -1.5025058  0.040087497   -2.1347511   0.63224534   418189 
 4826000   0.60571585   -2.1340124   -2.1340124   -1.5026347  0.040558109   -2.1340124   0.63137761   418189 
 4827000   0.60522199   -2.1334295   -2.1334295   -1.5025666  0.040958723   -2.1334295   0.63086283   418189 
 4828000   0.60609255   -2.1343692   -2.1343692   -1.5025989   0.03192915   -2.1343692   0.63177028   418189 
 4829000   0.60620881   -2.1344712   -2.1344712   -1.5025798  0.038593265   -2.1344712   0.63189146   418189 
 4830000   0.60594825   -2.1335703   -2.1335703   -1.5019505  0.042681049   -2.1335703   0.63161986   418189 
 4831000   0.60573287   -2.1333765   -2.1333765   -1.5019811  0.040740998   -2.1333765   0.63139536   418189 
 4832000   0.60605509   -2.1333565   -2.1333565   -1.5016253  0.037839446   -2.1333565   0.63173123   418189 
 4833000   0.60487183   -2.1329755   -2.1329755   -1.5024777  0.028065369   -2.1329755   0.63049784   418189 
 4834000   0.60534773   -2.1326867   -2.1326867   -1.5016928   0.03575754   -2.1326867    0.6309939   418189 
 4835000   0.60558345   -2.1331955   -2.1331955   -1.5019559  0.034040404   -2.1331955   0.63123961   418189 
 4836000   0.60502993   -2.1322325   -2.1322325   -1.5015699  0.031544314   -2.1322325   0.63066263   418189 
 4837000   0.60661939   -2.1336473   -2.1336473   -1.5013279  0.032494838   -2.1336473   0.63231944   418189 
 4838000   0.60567611   -2.1321623   -2.1321623   -1.5008261  0.038124822   -2.1321623   0.63133619   418189 
 4839000   0.60587629   -2.1328602   -2.1328602   -1.5013153   0.03575654   -2.1328602   0.63154486   418189 
 4840000   0.60633386   -2.1328272   -2.1328272   -1.5008054  0.037007707   -2.1328272   0.63202181   418189 
 4841000   0.60535475    -2.131704    -2.131704   -1.5007028  0.033653216    -2.131704   0.63100122   418189 
 4842000   0.60627623     -2.13247     -2.13247   -1.5005082  0.039022814     -2.13247   0.63196173   418189 
 4843000   0.60563074   -2.1320376   -2.1320376   -1.5007487  0.039958764   -2.1320376   0.63128889   418189 
 4844000   0.60577845    -2.132012    -2.132012   -1.5005691  0.033003399    -2.132012   0.63144286   418189 
 4845000   0.60662865   -2.1332681   -2.1332681    -1.500939  0.038017287   -2.1332681   0.63232909   418189 
 4846000   0.60519626   -2.1322494   -2.1322494   -1.5014134  0.036612285   -2.1322494   0.63083601   418189 
 4847000    0.6048284   -2.1325157   -2.1325157   -1.5020631  0.045313362   -2.1325157   0.63045257   418189 
 4848000   0.60656208   -2.1348878   -2.1348878   -1.5026281  0.037834319   -2.1348878    0.6322597   418189 
 4849000   0.60503686   -2.1338402   -2.1338402   -1.5031703  0.038216486   -2.1338402   0.63066986   418189 
 4850000   0.60436569   -2.1333294   -2.1333294   -1.5033591   0.03389075   -2.1333294   0.62997025   418189 
 4851000   0.60421509   -2.1332375   -2.1332375   -1.5034242  0.036388971   -2.1332375   0.62981327   418189 
 4852000   0.60583645   -2.1353862   -2.1353862   -1.5038829  0.032314931   -2.1353862   0.63150332   418189 
 4853000   0.60447883   -2.1341623   -2.1341623   -1.5040741  0.039528721   -2.1341623   0.63008819   418189 
 4854000   0.60515779   -2.1344294   -2.1344294   -1.5036335  0.034392464   -2.1344294   0.63079592   418189 
 4855000   0.60588917   -2.1348181   -2.1348181   -1.5032598  0.033553284   -2.1348181   0.63155828   418189 
 4856000   0.60520765   -2.1348279   -2.1348279     -1.50398  0.040516046   -2.1348279   0.63084788   418189 
 4857000    0.6065937   -2.1352144   -2.1352144   -1.5029217  0.035626862   -2.1352144   0.63229265   418189 
 4858000   0.60573074   -2.1348235   -2.1348235   -1.5034304  0.039560281   -2.1348235   0.63139313   418189 
 4859000   0.60655432   -2.1364879   -2.1364879   -1.5042363  0.035593792   -2.1364879    0.6322516   418189 
 4860000   0.60685479   -2.1374086   -2.1374086   -1.5048437  0.035776355   -2.1374086   0.63256481   418189 
 4861000   0.60600508   -2.1365512   -2.1365512   -1.5048721  0.032568715   -2.1365512    0.6316791   418189 
 4862000   0.60635842   -2.1364638   -2.1364638   -1.5044164  0.035530111   -2.1364638   0.63204741   418189 
 4863000   0.60610321   -2.1359316   -2.1359316   -1.5041503  0.038182241   -2.1359316   0.63178138   418189 
 4864000   0.60622628   -2.1351833   -2.1351833   -1.5032736   0.03717255   -2.1351833   0.63190967   418189 
 4865000    0.6060251   -2.1350861   -2.1350861   -1.5033861  0.031545167   -2.1350861   0.63169997   418189 
 4866000     0.604992   -2.1341009   -2.1341009   -1.5034778  0.031105884   -2.1341009    0.6306231   418189 
 4867000   0.60644235   -2.1348513   -2.1348513   -1.5027164  0.045966435   -2.1348513   0.63213489   418189 
 4868000   0.60490159   -2.1335382   -2.1335382   -1.5030093  0.043792058   -2.1335382   0.63052886   418189 
 4869000   0.60515827   -2.1334734   -2.1334734   -1.5026769  0.033847749   -2.1334734   0.63079641   418189 
 4870000   0.60565514   -2.1332392   -2.1332392   -1.5019249   0.03529967   -2.1332392   0.63131433   418189 
 4871000    0.6041189   -2.1316817   -2.1316817   -1.5019686  0.037752873   -2.1316817   0.62971301   418189 
 4872000   0.60655336   -2.1340102   -2.1340102   -1.5017596  0.033489875   -2.1340102    0.6322506   418189 
 4873000   0.60487841   -2.1324432   -2.1324432   -1.5019385  0.026777284   -2.1324432    0.6305047   418189 
 4874000   0.60659682   -2.1346361   -2.1346361   -1.5023402   0.03380771   -2.1346361   0.63229591   418189 
 4875000   0.60454571   -2.1330529   -2.1330529    -1.502895  0.036334764   -2.1330529    0.6301579   418189 
 4876000   0.60474305   -2.1333117   -2.1333117   -1.5029481   0.03649154   -2.1333117    0.6303636   418189 
 4877000   0.60534381   -2.1337934   -2.1337934   -1.5028036  0.043903982   -2.1337934   0.63098982   418189 
 4878000   0.60505927   -2.1341288   -2.1341288   -1.5034356  0.033439136   -2.1341288   0.63069322   418189 
 4879000    0.6060383   -2.1352644   -2.1352644   -1.5035506   0.03048627   -2.1352644   0.63171373   418189 
 4880000   0.60644885   -2.1350332   -2.1350332   -1.5028916   0.03249148   -2.1350332   0.63214167   418189 
 4881000    0.6066356   -2.1351345   -2.1351345   -1.5027981   0.03833419   -2.1351345   0.63233633   418189 
 4882000   0.60662794   -2.1350029   -2.1350029   -1.5026745   0.04376927   -2.1350029   0.63232835   418189 
 4883000    0.6055261   -2.1335623   -2.1335623   -1.5023825  0.038531911   -2.1335623   0.63117982   418189 
 4884000   0.60589791   -2.1338123   -2.1338123   -1.5022449  0.042636978   -2.1338123   0.63156739   418189 
 4885000    0.6058964   -2.1348194   -2.1348194   -1.5032536  0.041559725   -2.1348194   0.63156581   418189 
 4886000   0.60486572   -2.1343689   -2.1343689   -1.5038774  0.030684435   -2.1343689   0.63049147   418189 
 4887000   0.60425852   -2.1347771   -2.1347771   -1.5049186  0.042583602   -2.1347771   0.62985854   418189 
 4888000   0.60650515   -2.1356758   -2.1356758   -1.5034754  0.033911666   -2.1356758   0.63220035   418189 
 4889000   0.60514187   -2.1341127   -2.1341127   -1.5033334  0.037536346   -2.1341127   0.63077932   418189 
 4890000   0.60627916   -2.1353818   -2.1353818    -1.503417  0.043462687   -2.1353818   0.63196479   418189 
 4891000   0.60515583   -2.1337854   -2.1337854   -1.5029915  0.047182682   -2.1337854   0.63079386   418189 
 4892000   0.60592862   -2.1344176   -2.1344176   -1.5028182  0.044769817   -2.1344176    0.6315994   418189 
 4893000   0.60583148   -2.1348805   -2.1348805   -1.5033823  0.035544747   -2.1348805   0.63149815   418189 
 4894000   0.60577523   -2.1356621   -2.1356621   -1.5042226   0.02501628   -2.1356621   0.63143951   418189 
 4895000   0.60430835   -2.1349866   -2.1349866   -1.5050761  0.036875108   -2.1349866   0.62991048   418189 
 4896000   0.60438671   -2.1350345   -2.1350345   -1.5050424  0.037466277   -2.1350345   0.62999217   418189 
 4897000   0.60452944   -2.1350396   -2.1350396   -1.5048987  0.032027106   -2.1350396   0.63014094   418189 
 4898000   0.60429073   -2.1353139   -2.1353139   -1.5054218  0.029247314   -2.1353139   0.62989212   418189 
 4899000   0.60403946   -2.1349028   -2.1349028   -1.5052726  0.034391545   -2.1349028    0.6296302   418189 
 4900000   0.60507927   -2.1364361   -2.1364361    -1.505722  0.043432754   -2.1364361   0.63071406   418189 
 4901000   0.60456673   -2.1351066   -2.1351066   -1.5049268  0.035621564   -2.1351066   0.63017981   418189 
 4902000   0.60510827   -2.1352784   -2.1352784   -1.5045341  0.044945924   -2.1352784    0.6307443   418189 
 4903000   0.60534279   -2.1358064   -2.1358064   -1.5048177  0.040710955   -2.1358064   0.63098875   418189 
 4904000   0.60378935   -2.1337829   -2.1337829   -1.5044134  0.032042514   -2.1337829   0.62936949   418189 
 4905000   0.60487965   -2.1344422   -2.1344422   -1.5039362  0.041049884   -2.1344422   0.63050599   418189 
 4906000   0.60471124   -2.1335296   -2.1335296   -1.5031991  0.037304928   -2.1335296   0.63033044   418189 
 4907000   0.60801231   -2.1374237   -2.1374237   -1.5036523  0.033476194   -2.1374237   0.63377137   418189 
 4908000   0.60579094   -2.1350792   -2.1350792   -1.5036233  0.046243447   -2.1350792   0.63145589   418189 
 4909000   0.60534726   -2.1349299   -2.1349299   -1.5039365  0.041304204   -2.1349299    0.6309934   418189 
 4910000   0.60536148   -2.1347565   -2.1347565   -1.5037483  0.046312346   -2.1347565   0.63100823   418189 
 4911000   0.60563055   -2.1352013   -2.1352013   -1.5039126  0.036505497   -2.1352013    0.6312887   418189 
 4912000   0.60592435   -2.1352025   -2.1352025   -1.5036075  0.030066206   -2.1352025   0.63159494   418189 
 4913000   0.60547199   -2.1353704   -2.1353704   -1.5042469  0.033671364   -2.1353704   0.63112343   418189 
 4914000   0.60522786   -2.1348271   -2.1348271   -1.5039581  0.041160949   -2.1348271   0.63086895   418189 
 4915000   0.60390074   -2.1345544   -2.1345544   -1.5050688  0.034237885   -2.1345544    0.6294856   418189 
 4916000   0.60521578   -2.1361097   -2.1361097   -1.5052534  0.037571456   -2.1361097   0.63085636   418189 
 4917000   0.60504034   -2.1347411   -2.1347411   -1.5040676  0.040389444   -2.1347411   0.63067348   418189 
 4918000   0.60530305    -2.134834    -2.134834   -1.5038866  0.038192073    -2.134834   0.63094732   418189 
 4919000   0.60468457   -2.1353434   -2.1353434   -1.5050408  0.037079308   -2.1353434   0.63030264   418189 
 4920000   0.60483451   -2.1355371   -2.1355371   -1.5050782  0.034575665   -2.1355371   0.63045893   418189 
 4921000   0.60440976   -2.1346107   -2.1346107   -1.5045945  0.026131641   -2.1346107   0.63001619   418189 
 4922000   0.60569335   -2.1358386   -2.1358386   -1.5044844  0.036811441   -2.1358386   0.63135417   418189 
 4923000   0.60513905   -2.1353225   -2.1353225   -1.5045461  0.033112899   -2.1353225   0.63077638   418189 
 4924000   0.60445547     -2.13465     -2.13465   -1.5045861  0.040864871     -2.13465   0.63006383   418189 
 4925000   0.60502923   -2.1361296   -2.1361296   -1.5054677   0.02756789   -2.1361296   0.63066191   418189 
 4926000   0.60483833   -2.1359624   -2.1359624   -1.5054995  0.039566526   -2.1359624   0.63046291   418189 
 4927000   0.60613036   -2.1366489   -2.1366489   -1.5048392   0.04461199   -2.1366489   0.63180969   418189 
 4928000   0.60516835   -2.1357929   -2.1357929   -1.5049859   0.03493856   -2.1357929   0.63080692   418189 
 4929000   0.60660482   -2.1372759   -2.1372759   -1.5049717  0.034618579   -2.1372759   0.63230425   418189 
 4930000   0.60629552   -2.1371291   -2.1371291   -1.5051473  0.038814726   -2.1371291   0.63198184   418189 
 4931000   0.60577112   -2.1366384   -2.1366384   -1.5052032  0.040006273   -2.1366384   0.63143523   418189 
 4932000   0.60514542   -2.1365332   -2.1365332   -1.5057501  0.036884461   -2.1365332   0.63078302   418189 
 4933000   0.60519659   -2.1365226   -2.1365226   -1.5056863  0.032694085   -2.1365226   0.63083636   418189 
 4934000   0.60393367   -2.1354767   -2.1354767   -1.5059568  0.036134522   -2.1354767   0.62951994   418189 
 4935000   0.60422881   -2.1360855   -2.1360855    -1.506258  0.028008917   -2.1360855   0.62982758   418189 
 4936000   0.60411095    -2.136813    -2.136813   -1.5071083  0.034671982    -2.136813   0.62970472   418189 
 4937000   0.60599268   -2.1382734   -2.1382734   -1.5066073  0.033503948   -2.1382734   0.63166617   418189 
 4938000   0.60443597   -2.1372142   -2.1372142   -1.5071707  0.038155142   -2.1372142   0.63004351   418189 
 4939000   0.60587202   -2.1382711   -2.1382711   -1.5067307  0.036672847   -2.1382711    0.6315404   418189 
 4940000   0.60465118   -2.1369146   -2.1369146   -1.5066468  0.032314078   -2.1369146   0.63026784   418189 
 4941000   0.60514575   -2.1378325   -2.1378325   -1.5070491  0.039317131   -2.1378325   0.63078337   418189 
 4942000   0.60472018    -2.137398    -2.137398   -1.5070582  0.032332114    -2.137398   0.63033976   418189 
 4943000   0.60506676   -2.1380982   -2.1380982   -1.5073972  0.043976441   -2.1380982   0.63070103   418189 
 4944000   0.60381008   -2.1364094   -2.1364094   -1.5070183  0.038554145   -2.1364094    0.6293911   418189 
 4945000   0.60552853   -2.1383395   -2.1383395   -1.5071572  0.028263244   -2.1383395   0.63118236   418189 
 4946000    0.6062914    -2.138494    -2.138494   -1.5065165  0.035538375    -2.138494   0.63197754   418189 
 4947000   0.60411043   -2.1359421   -2.1359421   -1.5062379  0.047974977   -2.1359421   0.62970418   418189 
 4948000   0.60686831   -2.1380773   -2.1380773   -1.5054984  0.033679012   -2.1380773    0.6325789   418189 
 4949000   0.60654123   -2.1379422   -2.1379422   -1.5057043  0.038517547   -2.1379422   0.63223797   418189 
 4950000   0.60440834   -2.1362335   -2.1362335   -1.5062188  0.030855504   -2.1362335   0.63001472   418189 
 4951000   0.60525209   -2.1369547   -2.1369547   -1.5060605  0.036266372   -2.1369547   0.63089421   418189 
 4952000   0.60496649    -2.136519    -2.136519   -1.5059225   0.04158333    -2.136519   0.63059651   418189 
 4953000   0.60570673   -2.1372762   -2.1372762   -1.5059081  0.028165642   -2.1372762   0.63136811   418189 
 4954000   0.60549091    -2.137212    -2.137212   -1.5060689  0.035354478    -2.137212   0.63114315   418189 
 4955000   0.60434011   -2.1354332   -2.1354332   -1.5054896  0.042044471   -2.1354332   0.62994359   418189 
 4956000   0.60634294   -2.1385398   -2.1385398   -1.5065085  0.035865204   -2.1385398   0.63203128   418189 
 4957000   0.60551656    -2.136857    -2.136857   -1.5056871  0.042181257    -2.136857   0.63116988   418189 
 4958000   0.60490986   -2.1365637   -2.1365637   -1.5060262  0.037081388   -2.1365637   0.63053747   418189 
 4959000   0.60519305   -2.1374492   -2.1374492   -1.5066165  0.030121245   -2.1374492   0.63083266   418189 
 4960000   0.60597541   -2.1375974   -2.1375974   -1.5059492  0.033465909   -2.1375974   0.63164817   418189 
 4961000   0.60510326   -2.1366417   -2.1366417   -1.5059027  0.036198181   -2.1366417   0.63073907   418189 
 4962000   0.60524262   -2.1371112   -2.1371112   -1.5062269  0.040925655   -2.1371112   0.63088434   418189 
 4963000   0.60579386   -2.1373382   -2.1373382   -1.5058793  0.040658857   -2.1373382   0.63145892   418189 
 4964000   0.60496767   -2.1366897   -2.1366897    -1.506092  0.030662068   -2.1366897   0.63059774   418189 
 4965000   0.60598767   -2.1381822   -2.1381822   -1.5065212  0.031875429   -2.1381822   0.63166095   418189 
 4966000   0.60485502   -2.1366442   -2.1366442   -1.5061638  0.031893284   -2.1366442   0.63048032   418189 
 4967000   0.60402552   -2.1362217   -2.1362217    -1.506606  0.035067242   -2.1362217   0.62961567   418189 
 4968000   0.60471928    -2.137194    -2.137194   -1.5068552  0.031341373    -2.137194   0.63033883   418189 
 4969000   0.60453824   -2.1371069   -2.1371069   -1.5069568  0.027535184   -2.1371069   0.63015011   418189 
 4970000   0.60649045   -2.1383655   -2.1383655   -1.5061805  0.038676252   -2.1383655   0.63218503   418189 
 4971000   0.60553318   -2.1375135   -2.1375135   -1.5063263  0.035422244   -2.1375135   0.63118721   418189 
 4972000   0.60626535   -2.1384491   -2.1384491   -1.5064987  0.034473597   -2.1384491    0.6319504   418189 
 4973000   0.60543501   -2.1374193   -2.1374193   -1.5063344  0.036557591   -2.1374193   0.63108488   418189 
 4974000   0.60586852   -2.1376655   -2.1376655   -1.5061288  0.038410683   -2.1376655   0.63153675   418189 
 4975000   0.60576772   -2.1370958   -2.1370958   -1.5056641  0.038117398   -2.1370958   0.63143168   418189 
 4976000   0.60582009   -2.1371694   -2.1371694   -1.5056832   0.04077413   -2.1371694   0.63148628   418189 
 4977000   0.60671414   -2.1381295   -2.1381295   -1.5057113   0.03353874   -2.1381295    0.6324182   418189 
 4978000   0.60559995   -2.1375723   -2.1375723   -1.5063155  0.043630944   -2.1375723    0.6312568   418189 
 4979000   0.60556044   -2.1374396   -2.1374396    -1.506224  0.032175997   -2.1374396   0.63121562   418189 
 4980000   0.60600219    -2.136836    -2.136836   -1.5051599  0.027178598    -2.136836   0.63167609   418189 
 4981000   0.60638518   -2.1366715   -2.1366715   -1.5045962   0.03631142   -2.1366715    0.6320753   418189 
 4982000   0.60564431   -2.1360851   -2.1360851    -1.504782  0.027421576   -2.1360851   0.63130305   418189 
 4983000   0.60608035   -2.1381654   -2.1381654   -1.5064078  0.031993337   -2.1381654   0.63175756   418189 
 4984000   0.60532303    -2.137112    -2.137112   -1.5061439  0.037645288    -2.137112   0.63096815   418189 
 4985000     0.605897   -2.1375711   -2.1375711   -1.5060047  0.039571335   -2.1375711   0.63156644   418189 
 4986000   0.60495712   -2.1359801   -2.1359801   -1.5053934  0.036990054   -2.1359801   0.63058674   418189 
 4987000   0.60419881   -2.1349444   -2.1349444   -1.5051481   0.04598719   -2.1349444   0.62979631   418189 
 4988000   0.60441727   -2.1356645   -2.1356645   -1.5056405  0.034125419   -2.1356645   0.63002402   418189 
 4989000   0.60546264   -2.1364175   -2.1364175   -1.5053038  0.044869429   -2.1364175   0.63111368   418189 
 4990000   0.60678386   -2.1377503   -2.1377503   -1.5052594  0.030828789   -2.1377503   0.63249087   418189 
 4991000   0.60672032   -2.1382047   -2.1382047   -1.5057801  0.038294234   -2.1382047   0.63242464   418189 
 4992000   0.60608113   -2.1376392   -2.1376392   -1.5058809  0.036179884   -2.1376392   0.63175837   418189 
 4993000      0.60435   -2.1369379   -2.1369379   -1.5069841  0.042950311   -2.1369379    0.6299539   418189 
 4994000   0.60544576   -2.1374128   -2.1374128   -1.5063167  0.044260082   -2.1374128   0.63109608   418189 
 4995000   0.60543157    -2.136495    -2.136495   -1.5054137  0.034002931    -2.136495   0.63108129   418189 
 4996000   0.60669567    -2.137889    -2.137889   -1.5054901  0.025373939    -2.137889   0.63239895   418189 
 4997000   0.60604319   -2.1371687   -2.1371687   -1.5054499  0.037911175   -2.1371687   0.63171882   418189 
 4998000   0.60578756   -2.1374414   -2.1374414    -1.505989  0.038698195   -2.1374414   0.63145236   418189 
 4999000   0.60666197   -2.1375974   -2.1375974   -1.5052336  0.040554244   -2.1375974   0.63236382   418189 
 5000000   0.60487689   -2.1361088   -2.1361088   -1.5056057  0.046571958   -2.1361088   0.63050311   418189 
Loop time of 18395 on 288 procs for 5000000 steps with 418189 atoms

Performance: 117423.399 tau/day, 271.813 timesteps/s
92.0% CPU use with 288 MPI tasks x 1 OpenMP threads

MPI task timing breakdown:
Section |  min time  |  avg time  |  max time  |%varavg|  %CPU | %total
-----------------------------------------------------------------------
Pair    | 388.42     | 2723.8     | 5262       |2157.2 |  95.2 | 14.81
Bond    | 3.219      | 3.4666     | 4.2607     |   7.6 | 100.0 |  0.02
Neigh   | 791.97     | 3593.9     | 6206       |2145.0 |  99.0 | 19.54
Comm    | 3845.3     | 7918.3     | 14110      |2783.9 |  90.1 | 43.05
Output  | 612.73     | 615.55     | 626.46     |  18.3 |  88.3 |  3.35
Modify  | 1109.9     | 3419.7     | 6139.8     |1698.4 |  91.0 | 18.59
Other   |            | 120.3      |            |       |       |  0.65

Nlocal:        1452.05 ave        2659 max         666 min
Histogram: 4 4 38 114 93 28 1 2 1 3
Nghost:        7770.96 ave       11750 max        2142 min
Histogram: 26 5 13 21 16 29 50 79 42 7
Neighs:        42826.6 ave       87527 max        3302 min
Histogram: 31 8 31 21 53 51 49 29 11 4

Total # of neighbors = 12334053
Ave neighs/atom = 29.493968
Ave special neighs/atom = 0.0000000
Neighbor list builds = 496185
Dangerous builds = 433703

Total wall time: 5:06:40
