LAMMPS (24 Dec 2020)
OMP_NUM_THREADS environment is not set. Defaulting to 1 thread. (src/comm.cpp:94)
  using 1 OpenMP thread(s) per MPI task
# Simple rigid body system
# needed variables: startTemp, temp

units		lj
atom_style	full
dimension 	3
boundary	p p f
pair_style	lj/cut/opt 2.5

variable 	gcmcdisplace	equal 0
variable 	sigma		equal 1.0
variable 	epsilon 	equal 1.0


read_restart	restart.dat.3000000
Reading restart file ...
  restart file = 24 Dec 2020, LAMMPS = 24 Dec 2020
WARNING: Restart file used different # of processors: 48 vs. 192 (src/read_restart.cpp:697)
  restoring atom style full from restart
  orthogonal box = (0.0000000 0.0000000 0.0000000) to (80.000000 80.000000 160.00000)
  6 by 4 by 8 MPI processor grid
  restoring pair style lj/cut/opt from restart
  439061 atoms
Finding 1-2 1-3 1-4 neighbors ...
  special bond factors lj:    0        0        0       
  special bond factors coul:  0        0        0       
     0 = max # of 1-2 neighbors
     0 = max # of 1-3 neighbors
     0 = max # of 1-4 neighbors
     1 = max # of special neighbors
  special bonds CPU = 1.385 seconds
  read_restart CPU = 1.685 seconds

mass		1 1.0
mass		2 1.0
mass		3 1.0


group		solvent type 1
439061 atoms in group solvent


neighbor 	0.4 bin

pair_coeff	1 1 1.0 1.0
pair_coeff	2 2 0.0 0.0
pair_coeff	3 3 0.0 0.0
pair_coeff	2 3 0.0 0.0
pair_coeff	1 2*3 0.0 0.0

pair_modify 	shift yes


balance 	1.05 shift z 10 1.05
Balancing ...
Neighbor list info ...
  update every 1 steps, delay 10 steps, check yes
  max neighbors/atom: 2000, page size: 100000
  master list distance cutoff = 2.9
  ghost atom cutoff = 2.9
  binsize = 1.45, bins = 56 56 111
  1 neighbor lists, perpetual/occasional/extra = 1 0 0
  (1) pair lj/cut/opt, perpetual
      attributes: half, newton on
      pair build: half/bin/newton
      stencil: half/bin/3d/newton
      bin: standard
 rebalancing time: 0.025 seconds
  iteration count = 5
  initial/final maximal load/proc = 3162.0000 2575.0000
  initial/final imbalance factor  = 1.3827327 1.1260394
  x cuts: 0.0000000 0.16666667 0.33333333 0.50000000 0.66666667 0.83333333 1.0000000
  y cuts: 0.0000000 0.25000000 0.50000000 0.75000000 1.0000000
  z cuts: 0.0000000 0.097656250 0.18359375 0.27734375 0.37890625 0.47656250 0.57031250 0.67968750 1.0000000


####################### WALLS ###########################


variable       epsilonWall equal 2*${epsilon}
variable       epsilonWall equal 2*1

variable       cutoffTop   equal   0.7147*${sigma}
variable       cutoffTop   equal   0.7147*1

variable       cutoffLow   equal   3*${sigma}
variable       cutoffLow   equal   3*1


fix            topWall all wall/lj93 zhi EDGE                ${epsilonWall} ${sigma} ${cutoffTop} units box
fix            topWall all wall/lj93 zhi EDGE                2 ${sigma} ${cutoffTop} units box
fix            topWall all wall/lj93 zhi EDGE                2 1 ${cutoffTop} units box
fix            topWall all wall/lj93 zhi EDGE                2 1 0.7147 units box

fix            lowWall all wall/lj93 zlo EDGE                ${epsilonWall} ${sigma} ${cutoffLow} units box
fix            lowWall all wall/lj93 zlo EDGE                2 ${sigma} ${cutoffLow} units box
fix            lowWall all wall/lj93 zlo EDGE                2 1 ${cutoffLow} units box
fix            lowWall all wall/lj93 zlo EDGE                2 1 3 units box


###################### COMPUTES ##########################

compute        bin1 solvent chunk/atom bin/1d z upper 1.0



######################	FIXES ############################


fix 		peclet solvent ave/chunk 1000 1 1000 bin1 density/number norm 		 none ave one file density.profile

fix 		 temp solvent ave/chunk 1000 1 1000 bin1 temp norm none ave one file temp.profile

fix 		2 solvent nve

## Thermostat


region		regthermo block EDGE EDGE EDGE EDGE 0 20

group 		thermo dynamic solvent region regthermo every 1000
dynamic group thermo defined

fix 		3 thermo langevin ${startTemp} ${temp} 10 156453
fix 		3 thermo langevin 1.0 ${temp} 10 156453
fix 		3 thermo langevin 1.0 1.0 10 156453


## Evaporation

region		regevap block EDGE EDGE EDGE EDGE 140 158
fix 		gcmc solvent gcmc 100 100 0 1 780493 ${temp} ${mu} ${gcmcdisplace} region regevap
fix 		gcmc solvent gcmc 100 100 0 1 780493 1.0 ${mu} ${gcmcdisplace} region regevap
fix 		gcmc solvent gcmc 100 100 0 1 780493 1.0 -3.9 ${gcmcdisplace} region regevap
fix 		gcmc solvent gcmc 100 100 0 1 780493 1.0 -3.9 0 region regevap


#### Load balancing

fix 		bal all balance 1000 1.05 shift z 10 1.05

############### Diagnostics and computes ###################
#compute 	com cube	  rigid/local	1 mol x y z
#compute 	quat cube	  rigid/local	1 mol quatw quati quatj quatk

thermo 		1000
thermo_style 	custom step temp epair etotal press pe ke atoms

dump		1 all custom 100000 dump.lammpstrj id mol type x y z
dump 		2 all image 10000 image.*.png type type
dump 		3 all movie 1000 movie.avi type type
#dump 		com cube local 1000 dump.*.xyz c_com[*]
#dump		quat cube      local 1000 dump.*.quat c_quat[*]


restart 	1000000 restart.dat
timestep 	0.005
timer 		full
New timer settings: style=full  mode=nosync  timeout=off


run		5000000
Per MPI rank memory allocation (min/avg/max) = 9.923 | 9.986 | 10.01 Mbytes
Step Temp E_pair TotEng Press PotEng KinEng Atoms 
 3000000     1.016004   -3.1352716   -1.6112691  0.079025997   -3.1352716    1.5240025   439061 
 3001000    1.0149739   -3.1358782   -1.6127374  0.074016376   -3.1358782    1.5231408   438864 
 3002000    1.0156431   -3.1385226   -1.6137939  0.074015532   -3.1385226    1.5247287   438696 
 3003000    1.0144687   -3.1394557   -1.6158024   0.07634554   -3.1394557    1.5236533   438498 
 3004000    1.0133525   -3.1390585   -1.6163073  0.075329033   -3.1390585    1.5227512   438275 
 3005000    1.0118279   -3.1392575   -1.6179606  0.075090372   -3.1392575    1.5212969   438034 
 3006000    1.0111013   -3.1397394   -1.6188302  0.075099339   -3.1397394    1.5209093   437831 
 3007000    1.0104539   -3.1403352   -1.6196287  0.075750026   -3.1403352    1.5207064   437609 
 3008000    1.0119964   -3.1441223   -1.6202656   0.07119037   -3.1441223    1.5238566   437371 
 3009000    1.0102233   -3.1419166   -1.6198843  0.079322971   -3.1419166    1.5220323   437128 
 3010000    1.0103223   -3.1432745   -1.6203405  0.074123593   -3.1432745    1.5229341   436912 
 3011000    1.0091035   -3.1426449   -1.6208932  0.074512431   -3.1426449    1.5217517   436724 
 3012000     1.008624   -3.1443337    -1.622448  0.075125325   -3.1443337    1.5218858   436478 
 3013000    1.0068046   -3.1441298   -1.6242929  0.071824033   -3.1441298     1.519837   436278 
 3014000    1.0069861   -3.1455798   -1.6247402  0.074764528   -3.1455798    1.5208396   436069 
 3015000    1.0054089   -3.1440097   -1.6249077  0.072931479   -3.1440097     1.519102   435884 
 3016000    1.0050286   -3.1444816   -1.6250723  0.077406363   -3.1444816    1.5194093   435631 
 3017000    1.0036634   -3.1454348   -1.6274134  0.074931464   -3.1454348    1.5180215   435437 
 3018000    1.0038241   -3.1472224    -1.628201  0.074480934   -3.1472224    1.5190214   435220 
 3019000    1.0019529   -3.1462489   -1.6293794  0.070959841   -3.1462489    1.5168695   435025 
 3020000    1.0006978   -3.1460327   -1.6303456  0.072715691   -3.1460327    1.5156872   434819 
 3021000   0.99964189   -3.1471536   -1.6322365  0.065529367   -3.1471536     1.514917   434581 
 3022000   0.99901641   -3.1476261   -1.6328832  0.070628641   -3.1476261    1.5147429   434359 
 3023000   0.99776191   -3.1475183   -1.6338865  0.067679954   -3.1475183    1.5136318   434132 
 3024000   0.99746658   -3.1475313   -1.6336012  0.063726493   -3.1475313    1.5139301   433918 
 3025000     0.996677   -3.1453391   -1.6320634    0.0646456   -3.1453391    1.5132757   433762 
 3026000   0.99800051   -3.1484301   -1.6322885  0.065940644   -3.1484301    1.5161416   433517 
 3027000   0.99576178   -3.1472983   -1.6337826    0.0691942   -3.1472983    1.5135156   433295 
 3028000   0.99733055   -3.1502785   -1.6337415  0.066783294   -3.1502785    1.5165371   433113 
 3029000   0.99530772   -3.1485683   -1.6344289  0.067613971   -3.1485683    1.5141394   432919 
 3030000   0.99750162     -3.15151   -1.6333493  0.063094501     -3.15151    1.5181607   432724 
 3031000   0.99671079   -3.1526092   -1.6348769  0.067233823   -3.1526092    1.5177323   432503 
 3032000   0.99539809   -3.1520738     -1.63559  0.072522995   -3.1520738    1.5164837   432289 
 3033000   0.99402905   -3.1527208   -1.6375237  0.066227041   -3.1527208    1.5151971   432061 
 3034000   0.99329114    -3.154014   -1.6391282  0.062285576    -3.154014    1.5148858   431829 
 3035000   0.99149227   -3.1538669   -1.6410485  0.061322825   -3.1538669    1.5128184   431636 
 3036000   0.99091292   -3.1536494   -1.6410035  0.063164543   -3.1536494    1.5126459   431433 
 3037000   0.98826107    -3.152693   -1.6432661  0.062075342    -3.152693    1.5094269   431196 
 3038000   0.99000103   -3.1564444   -1.6436372  0.064676809   -3.1564444    1.5128072   430990 
 3039000   0.98823472   -3.1547985   -1.6438981  0.068196983   -3.1547985    1.5109004   430764 
 3040000   0.98764686   -3.1566324   -1.6460416  0.063899084   -3.1566324    1.5105908   430596 
 3041000   0.98676596   -3.1571184   -1.6472788  0.061219098   -3.1571184    1.5098395   430426 
 3042000    0.9876538    -3.158782   -1.6469483  0.063373684    -3.158782    1.5118338   430245 
 3043000   0.98536892   -3.1567545   -1.6477799  0.065681053   -3.1567545    1.5089745   430063 
 3044000   0.98676706   -3.1595142   -1.6476463  0.063591406   -3.1595142    1.5118679   429849 
 3045000   0.98578173    -3.160238    -1.649152  0.060898602    -3.160238    1.5110859   429642 
 3046000   0.98380747   -3.1604195   -1.6515416  0.065868309   -3.1604195    1.5088779   429409 
 3047000   0.98421903   -3.1612922   -1.6510973  0.061749391   -3.1612922    1.5101949   429214 
 3048000   0.98240989   -3.1610411   -1.6530107  0.063027092   -3.1610411    1.5080303   429040 
 3049000    0.9824068   -3.1618931    -1.653217  0.060355914   -3.1618931    1.5086761   428855 
 3050000   0.98301173   -3.1643884   -1.6538781  0.059621642   -3.1643884    1.5105103   428598 
 3051000   0.98070903   -3.1643712    -1.656657  0.059895321   -3.1643712    1.5077142   428387 
 3052000   0.98099485   -3.1659564   -1.6569292  0.060446761   -3.1659564    1.5090272   428139 
 3053000   0.98009813   -3.1672444   -1.6587193  0.062743194   -3.1672444    1.5085251   427890 
 3054000   0.97873572   -3.1687335   -1.6616044  0.061322545   -3.1687335    1.5071291   427691 
 3055000   0.97858497   -3.1702298    -1.662522  0.056600003   -3.1702298    1.5077078   427461 
 3056000   0.97661938   -3.1691994   -1.6638121  0.062344236   -3.1691994    1.5053873   427260 
 3057000   0.97628979   -3.1699258   -1.6643947   0.06057481   -3.1699258    1.5055311   427075 
 3058000   0.97616047   -3.1720093   -1.6659265  0.061907787   -3.1720093    1.5060828   426862 
 3059000   0.97643077   -3.1745405   -1.6672568  0.057987081   -3.1745405    1.5072837   426640 
 3060000   0.97619461   -3.1748665   -1.6673467   0.05913787   -3.1748665    1.5075199   426470 
 3061000   0.97532271   -3.1748861   -1.6679212  0.061355416   -3.1748861     1.506965   426246 
 3062000    0.9727359   -3.1735091   -1.6697754   0.05963443   -3.1735091    1.5037336   426029 
 3063000   0.97233702   -3.1747373   -1.6708578  0.063155573   -3.1747373    1.5038795   425813 
 3064000    0.9726478   -3.1758519   -1.6707884  0.055037903   -3.1758519    1.5050635   425614 
 3065000   0.97389777   -3.1788082   -1.6710311  0.054806426   -3.1788082    1.5077771   425394 
 3066000   0.97350917   -3.1791768   -1.6713456  0.061575914   -3.1791768    1.5078312   425209 
 3067000   0.97229997   -3.1786825   -1.6721396  0.062450081   -3.1786825    1.5065429   425044 
 3068000   0.97273242   -3.1809682   -1.6729498  0.058411374   -3.1809682    1.5080184   424817 
 3069000   0.97115804   -3.1799673   -1.6737195   0.05653969   -3.1799673    1.5062478   424628 
 3070000   0.97107524   -3.1817285   -1.6747574   0.05879934   -3.1817285    1.5069711   424388 
 3071000   0.96993733   -3.1823717   -1.6764035  0.060425509   -3.1823717    1.5059681   424173 
 3072000   0.96785906   -3.1821259   -1.6787006  0.057597849   -3.1821259    1.5034254   423980 
 3073000   0.96715725   -3.1821716    -1.679177  0.056881775   -3.1821716    1.5029946   423794 
 3074000    0.9676328   -3.1837003   -1.6792603   0.05759578   -3.1837003    1.5044401   423595 
 3075000   0.96637423   -3.1855428   -1.6824386  0.055066255   -3.1855428    1.5031043   423420 
 3076000   0.96760786   -3.1874114     -1.68167  0.051508369   -3.1874114    1.5057414   423218 
 3077000   0.96529775   -3.1851073   -1.6823075   0.05727176   -3.1851073    1.5027999   423034 
 3078000    0.9628109   -3.1834034   -1.6837484  0.057102567   -3.1834034     1.499655   422829 
 3079000   0.96515917   -3.1888947   -1.6848351  0.051609919   -3.1888947    1.5040596   422619 
 3080000   0.96381893   -3.1874964   -1.6849636  0.055402444   -3.1874964    1.5025328   422461 
 3081000    0.9640878   -3.1900182   -1.6862369  0.052694201   -3.1900182    1.5037813   422228 
 3082000   0.96204105   -3.1881513   -1.6868655  0.055193557   -3.1881513    1.5012857   422032 
 3083000   0.96350602   -3.1899652   -1.6856555  0.055765091   -3.1899652    1.5043097   421825 
 3084000   0.96164014   -3.1904123   -1.6883606  0.055147056   -3.1904123    1.5020517   421641 
 3085000   0.96164993   -3.1917543   -1.6889709  0.050918164   -3.1917543    1.5027834   421440 
 3086000   0.96065467   -3.1928253    -1.690888  0.047382789   -3.1928253    1.5019373   421241 
 3087000   0.96014184   -3.1938733   -1.6919213  0.055900798   -3.1938733     1.501952   421012 
 3088000   0.95870739    -3.193041   -1.6926237  0.054812062    -3.193041    1.5004173   420813 
 3089000   0.95933358   -3.1941175   -1.6921027  0.052908275   -3.1941175    1.5020148   420640 
 3090000   0.95952254   -3.1966901   -1.6936791  0.053750077   -3.1966901     1.503011   420444 
 3091000   0.95667263   -3.1940451   -1.6947637  0.053843352   -3.1940451    1.4992814   420238 
 3092000   0.95679168   -3.1953202   -1.6952061  0.047866348   -3.1953202    1.5001141   420057 
 3093000   0.95682144   -3.1969501   -1.6961569  0.054052885   -3.1969501    1.5007932   419880 
 3094000    0.9557639   -3.1954729    -1.695767  0.050394359   -3.1954729    1.4997059   419720 
 3095000   0.95422134   -3.1959651    -1.697798  0.053388171   -3.1959651    1.4981671   419473 
 3096000   0.95233228   -3.1948505   -1.6987933  0.055917193   -3.1948505    1.4960571   419233 
 3097000   0.95411004   -3.1962243   -1.6965803  0.049313086   -3.1962243     1.499644   419011 
 3098000   0.95441043   -3.1994176   -1.6985851  0.054678769   -3.1994176    1.5008325   418811 
 3099000   0.95213276   -3.1984344   -1.7006113  0.052642149   -3.1984344     1.497823   418651 
 3100000     0.951688   -3.1997833   -1.7021161  0.053832832   -3.1997833    1.4976671   418499 
 3101000    0.9509971   -3.2004009   -1.7030195   0.05065513   -3.2004009    1.4973813   418275 
 3102000   0.95197679   -3.2041305   -1.7044501  0.050257419   -3.2041305    1.4996804   418064 
 3103000   0.94919642   -3.2015535   -1.7056412  0.047228461   -3.2015535    1.4959123   417893 
 3104000   0.94910808   -3.2020937   -1.7054539  0.051118171   -3.2020937    1.4966397   417651 
 3105000   0.94915337    -3.205681   -1.7081344  0.048943912    -3.205681    1.4975466   417418 
 3106000   0.94642159   -3.2026417   -1.7086787  0.051542966   -3.2026417    1.4939631   417215 
 3107000   0.94675412   -3.2044713   -1.7093741  0.048452494   -3.2044713    1.4950972   417045 
 3108000   0.94797377    -3.207493   -1.7097946  0.049563316    -3.207493    1.4976984   416857 
 3109000   0.94634555   -3.2054807   -1.7097447  0.048853029   -3.2054807    1.4957359   416687 
 3110000   0.94608789   -3.2062906   -1.7103157  0.044686202   -3.2062906    1.4959749   416507 
 3111000   0.94525612     -3.20734   -1.7119802  0.047312615     -3.20734    1.4953598   416312 
 3112000   0.94485357   -3.2082406   -1.7129214  0.054188484   -3.2082406    1.4953192   416146 
 3113000   0.94561554   -3.2104645   -1.7133314  0.052257872   -3.2104645    1.4971331   415977 
 3114000   0.94510139   -3.2115266    -1.714549  0.049870937   -3.2115266    1.4969776   415794 
 3115000   0.94422423   -3.2119875   -1.7158811  0.047224868   -3.2119875    1.4961064   415650 
 3116000   0.94504238   -3.2144153   -1.7162736  0.051048481   -3.2144153    1.4981417   415445 
 3117000   0.94289214   -3.2143604   -1.7188715  0.051267072   -3.2143604    1.4954889   415235 
 3118000    0.9416646   -3.2124209   -1.7181305  0.051064888   -3.2124209    1.4942905   415027 
 3119000   0.94290425   -3.2162304   -1.7193633  0.045927823   -3.2162304    1.4968672   414858 
 3120000   0.94039425    -3.213713   -1.7202473  0.046569237    -3.213713    1.4934657   414696 
 3121000   0.93973968    -3.215033   -1.7221101  0.046991651    -3.215033     1.492923   414558 
 3122000   0.93939927    -3.215928   -1.7228724  0.047557498    -3.215928    1.4930557   414371 
 3123000   0.93739187   -3.2166258   -1.7260448  0.043563815   -3.2166258     1.490581   414172 
 3124000   0.93725265   -3.2182731   -1.7271034  0.040040966   -3.2182731    1.4911697   413947 
 3125000   0.93613238   -3.2176247    -1.727467  0.042662083   -3.2176247    1.4901577   413733 
 3126000   0.93589083    -3.219955   -1.7294901  0.041531624    -3.219955    1.4904649   413541 
 3127000   0.93636626    -3.222399   -1.7305059  0.044230789    -3.222399    1.4918931   413355 
 3128000   0.93424783   -3.2203691   -1.7310947  0.049994084   -3.2203691    1.4892744   413145 
 3129000   0.93628294   -3.2263651   -1.7332719   0.04039107   -3.2263651    1.4930932   412986 
 3130000   0.93609688   -3.2270996   -1.7337463  0.044347259   -3.2270996    1.4933533   412832 
 3131000    0.9328832   -3.2231511   -1.7344017  0.044444987   -3.2231511    1.4887495   412687 
 3132000   0.93211898   -3.2256506   -1.7374428  0.038608486   -3.2256506    1.4882078   412499 
 3133000   0.93289885   -3.2277852   -1.7376675  0.044143232   -3.2277852    1.4901176   412315 
 3134000   0.93246784   -3.2274953   -1.7373578   0.04565136   -3.2274953    1.4901375   412119 
 3135000   0.93220548   -3.2299437    -1.739636  0.045372657   -3.2299437    1.4903077   411956 
 3136000   0.93131945   -3.2298749   -1.7403437  0.050015613   -3.2298749    1.4895312   411779 
 3137000   0.93217733   -3.2330238   -1.7416171  0.046048431   -3.2330238    1.4914067   411640 
 3138000   0.92970628   -3.2302471   -1.7423746  0.047533922   -3.2302471    1.4878725   411524 
 3139000   0.92975884   -3.2307019    -1.742134  0.047900637   -3.2307019     1.488568   411355 
 3140000   0.93031957   -3.2331269   -1.7429041  0.046183846   -3.2331269    1.4902229   411146 
 3141000   0.92967641   -3.2329579   -1.7431747   0.04871082   -3.2329579    1.4897832   410983 
 3142000   0.92753925   -3.2331091    -1.746273  0.044624738   -3.2331091     1.486836   410851 
 3143000    0.9274641   -3.2353641   -1.7479968  0.042341232   -3.2353641    1.4873672   410671 
 3144000   0.92668641   -3.2350119   -1.7484575  0.039786271   -3.2350119    1.4865544   410551 
 3145000   0.92834374   -3.2381479   -1.7483542  0.044256395   -3.2381479    1.4897937   410391 
 3146000    0.9254855   -3.2364015   -1.7505829  0.043460176   -3.2364015    1.4858186   410222 
 3147000   0.92630744   -3.2373386    -1.749787  0.046148995   -3.2373386    1.4875516   410108 
 3148000   0.92500918   -3.2391438    -1.753003  0.044636285   -3.2391438    1.4861408   409922 
 3149000   0.92405065   -3.2366996   -1.7514467  0.046962703   -3.2366996     1.485253   409742 
 3150000   0.92400402   -3.2379606   -1.7522459  0.040976382   -3.2379606    1.4857147   409594 
 3151000   0.92405621   -3.2386616   -1.7523078  0.037584688   -3.2386616    1.4863538   409441 
 3152000   0.92457632   -3.2409085   -1.7531149  0.044340597   -3.2409085    1.4877936   409275 
 3153000   0.92254272   -3.2396901   -1.7545883  0.045032229   -3.2396901    1.4851018   409115 
 3154000   0.92246484   -3.2413451   -1.7559258  0.041009702   -3.2413451    1.4854194   408993 
 3155000   0.92113094   -3.2399676   -1.7561011  0.041323876   -3.2399676    1.4838664   408829 
 3156000   0.92118013   -3.2406784   -1.7561808  0.039103599   -3.2406784    1.4844976   408677 
 3157000   0.92253398   -3.2431696   -1.7561955  0.041598559   -3.2431696    1.4869741   408596 
 3158000   0.92087339   -3.2436977   -1.7587824  0.042112273   -3.2436977    1.4849153   408426 
 3159000   0.92131867   -3.2444103   -1.7581256  0.046009794   -3.2444103    1.4862847   408247 
 3160000   0.92006332   -3.2443258    -1.759528  0.041504291   -3.2443258    1.4847978   408099 
 3161000   0.91905622   -3.2445146   -1.7608731  0.039080781   -3.2445146    1.4836415   407970 
 3162000   0.91911512   -3.2476545   -1.7633867   0.03784739   -3.2476545    1.4842678   407824 
 3163000   0.91817685   -3.2461042   -1.7628315  0.034066314   -3.2461042    1.4832727   407681 
 3164000   0.91618508   -3.2454737   -1.7648157  0.037379386   -3.2454737     1.480658   407515 
 3165000   0.91771458   -3.2476843   -1.7638044  0.040665745   -3.2476843    1.4838799   407309 
 3166000   0.91734027   -3.2481594   -1.7642654  0.040558764   -3.2481594     1.483894   407139 
 3167000   0.91688816   -3.2487147   -1.7649981  0.043755806   -3.2487147    1.4837166   406987 
 3168000   0.91699164   -3.2495656   -1.7651453   0.04158241   -3.2495656    1.4844202   406840 
 3169000   0.91542139   -3.2493376   -1.7669601  0.033402838   -3.2493376    1.4823775   406703 
 3170000   0.91506077   -3.2508002   -1.7683979  0.036213667   -3.2508002    1.4824022   406536 
 3171000   0.91608419   -3.2537591   -1.7691255  0.034084654   -3.2537591    1.4846335   406379 
 3172000   0.91430793    -3.252205   -1.7699066  0.041272761    -3.252205    1.4822983   406230 
 3173000    0.9144957   -3.2524784   -1.7695215  0.036725081   -3.2524784    1.4829569   406133 
 3174000   0.91461036   -3.2534889   -1.7699077  0.043025671   -3.2534889    1.4835812   406013 
 3175000   0.91446189   -3.2529054   -1.7690205  0.038965391   -3.2529054    1.4838849   405864 
 3176000   0.91305125   -3.2530901   -1.7709611  0.037466888   -3.2530901     1.482129   405718 
 3177000    0.9131363   -3.2521282   -1.7695176  0.037465415   -3.2521282    1.4826106   405624 
 3178000   0.91421563   -3.2549952   -1.7700245   0.03878665   -3.2549952    1.4849708   405458 
 3179000   0.91289815   -3.2552216   -1.7718128  0.036878287   -3.2552216    1.4834088   405300 
 3180000    0.9113772   -3.2547078   -1.7731527   0.04007062   -3.2547078    1.4815551   405131 
 3181000   0.91013536   -3.2542477   -1.7740647  0.042373794   -3.2542477    1.4801831   404954 
 3182000   0.91020715   -3.2561586    -1.775442  0.034636838   -3.2561586    1.4807166   404840 
 3183000   0.90905592   -3.2557647   -1.7764897  0.039256847   -3.2557647     1.479275   404722 
 3184000   0.90826744   -3.2556326   -1.7772059  0.040624975   -3.2556326    1.4784266   404603 
 3185000   0.90906487   -3.2593087   -1.7790901  0.037596915   -3.2593087    1.4802185   404468 
 3186000   0.90930389   -3.2604647   -1.7793516   0.03743722   -3.2604647    1.4811131   404330 
 3187000   0.90871125   -3.2611298   -1.7805792  0.035686384   -3.2611298    1.4805506   404220 
 3188000   0.90766679   -3.2615084   -1.7821948  0.035079957   -3.2615084    1.4793136   404093 
 3189000   0.90734148   -3.2614228   -1.7821342  0.035084545   -3.2614228    1.4792886   403955 
 3190000    0.9083775   -3.2636616   -1.7821007  0.035329049   -3.2636616    1.4815608   403796 
 3191000    0.9071459   -3.2628291   -1.7829069  0.036392203   -3.2628291    1.4799223   403695 
 3192000   0.90758411   -3.2653156   -1.7841538  0.038495684   -3.2653156    1.4811618   403552 
 3193000   0.90556939   -3.2639741   -1.7856203  0.041506056   -3.2639741    1.4783537   403421 
 3194000   0.90538492   -3.2651562   -1.7866125  0.041075542   -3.2651562    1.4785437   403287 
 3195000   0.90509061   -3.2656014   -1.7869664  0.038657971   -3.2656014     1.478635   403131 
 3196000   0.90405707    -3.266101    -1.788733  0.035174237    -3.266101     1.477368   403016 
 3197000   0.90345206   -3.2666804    -1.789854  0.037908691   -3.2666804    1.4768264   402894 
 3198000   0.90157017    -3.265628   -1.7912996   0.04090655    -3.265628    1.4743283   402736 
 3199000   0.90316008   -3.2702412   -1.7928213  0.037277974   -3.2702412    1.4774199   402602 
 3200000   0.90233694   -3.2710547   -1.7945852  0.035027677   -3.2710547    1.4764694   402494 
 3201000    0.9005764   -3.2695068   -1.7953321  0.033833814   -3.2695068    1.4741747   402334 
 3202000   0.90064146   -3.2718372   -1.7968925  0.040177948   -3.2718372    1.4749448   402153 
 3203000   0.90102135   -3.2729129   -1.7969459  0.030119295   -3.2729129    1.4759669   402044 
 3204000   0.90220988   -3.2740798   -1.7958129  0.031890934   -3.2740798    1.4782668   401948 
 3205000   0.90153571   -3.2722923   -1.7946228  0.032965819   -3.2722923    1.4776695   401810 
 3206000   0.90306092    -3.277034   -1.7964334  0.033600788    -3.277034    1.4806006   401693 
 3207000    0.9019502    -3.275212   -1.7960089  0.035790183    -3.275212     1.479203   401578 
 3208000   0.90201834   -3.2768045   -1.7970328   0.03759404   -3.2768045    1.4797717   401454 
 3209000   0.90157438   -3.2782148   -1.7986223  0.044619767   -3.2782148    1.4795925   401305 
 3210000   0.90185325   -3.2810655   -1.8003549  0.044743188   -3.2810655    1.4807106   401126 
 3211000   0.89998943   -3.2794628   -1.8014586   0.04110811   -3.2794628    1.4780042   401030 
 3212000   0.89920553   -3.2809863   -1.8036468  0.038140948   -3.2809863    1.4773395   400861 
 3213000   0.89789667   -3.2814174   -1.8058198  0.036848391   -3.2814174    1.4755977   400750 
 3214000   0.89612212   -3.2804431   -1.8072911  0.043260719   -3.2804431    1.4731519   400622 
 3215000   0.89648816   -3.2815364   -1.8073006  0.039038304   -3.2815364    1.4742357   400491 
 3216000   0.89684038   -3.2838567    -1.808574  0.036802545   -3.2838567    1.4752828   400364 
 3217000   0.89776391   -3.2851062   -1.8077175  0.035760655   -3.2851062    1.4773887   400205 
 3218000   0.89720845   -3.2861251   -1.8092704  0.037660738   -3.2861251    1.4768547   400102 
 3219000   0.89777973   -3.2893458   -1.8110963  0.038208248   -3.2893458    1.4782495   399979 
 3220000   0.89643778   -3.2898371    -1.813225  0.032959898   -3.2898371    1.4766121   399824 
 3221000   0.89479744   -3.2869131   -1.8126342   0.03796128   -3.2869131    1.4742789   399724 
 3222000   0.89429638   -3.2862269   -1.8124159  0.038593561   -3.2862269     1.473811   399627 
 3223000   0.89576482   -3.2890487   -1.8124187  0.035546798   -3.2890487      1.47663   399519 
 3224000   0.89427401   -3.2889058   -1.8142498  0.039413545   -3.2889058     1.474656   399388 
 3225000   0.89456172   -3.2890893    -1.813412  0.037837869   -3.2890893    1.4756773   399240 
 3226000   0.89459852   -3.2896042   -1.8135112  0.036107711   -3.2896042    1.4760929   399144 
 3227000   0.89572744   -3.2917112   -1.8134444  0.034734928   -3.2917112    1.4782668   399060 
 3228000   0.89473995   -3.2918592   -1.8148261   0.04026906   -3.2918592    1.4770331   398953 
 3229000   0.89506978   -3.2926338   -1.8145968  0.037623526   -3.2926338     1.478037   398829 
 3230000   0.89280742   -3.2913534   -1.8166789  0.034607386   -3.2913534    1.4746746   398728 
 3231000   0.89216219   -3.2896667   -1.8157103  0.029242185   -3.2896667    1.4739563   398634 
 3232000   0.89182155    -3.290046   -1.8162051  0.033861377    -3.290046    1.4738409   398513 
 3233000   0.89164859   -3.2929236   -1.8190172  0.033162396   -3.2929236    1.4739064   398418 
 3234000   0.89095707    -3.292007   -1.8189072  0.033222798    -3.292007    1.4730998   398327 
 3235000   0.89013421   -3.2926126   -1.8203189  0.033964765   -3.2926126    1.4722937   398177 
 3236000   0.88944406   -3.2919534   -1.8204538  0.031180604   -3.2919534    1.4714996   398083 
 3237000   0.88791083   -3.2903254   -1.8210524  0.030633648   -3.2903254     1.469273   397999 
 3238000   0.88888213   -3.2923152    -1.820995  0.030273767   -3.2923152    1.4713202   397880 
 3239000   0.88895023   -3.2914164   -1.8197653  0.036276628   -3.2914164    1.4716511   397821 
 3240000   0.88913356   -3.2918913   -1.8195444  0.031856585   -3.2918913     1.472347   397715 
 3241000   0.88810534   -3.2943385   -1.8232318  0.034000075   -3.2943385    1.4711067   397590 
 3242000    0.8887919   -3.2951109   -1.8225003  0.032029318   -3.2951109    1.4726106   397491 
 3243000   0.88737017   -3.2931373   -1.8224901  0.039671394   -3.2931373    1.4706472   397385 
 3244000   0.88833707   -3.2949046   -1.8223178  0.036173192   -3.2949046    1.4725868   397294 
 3245000   0.88785777   -3.2960477   -1.8239812  0.030844001   -3.2960477    1.4720665   397220 
 3246000   0.88806507   -3.2976451   -1.8247566  0.033389576   -3.2976451    1.4728885   397091 
 3247000    0.8868416   -3.2965933   -1.8255487  0.037474595   -3.2965933    1.4710446   397041 
 3248000   0.88747536   -3.3002804   -1.8277358  0.034412953   -3.3002804    1.4725446   396920 
 3249000    0.8873552   -3.3008758    -1.828089  0.039907536   -3.3008758    1.4727868   396801 
 3250000   0.88773887   -3.3026295   -1.8289014  0.035983352   -3.3026295    1.4737281   396719 
 3251000   0.88575175   -3.3008412   -1.8300523  0.032651508   -3.3008412    1.4707889   396622 
 3252000   0.88509258   -3.3009191    -1.830906  0.033965732   -3.3009191    1.4700131   396536 
 3253000   0.88438805   -3.3011412   -1.8318684    0.0277237   -3.3011412    1.4692728   396420 
 3254000   0.88382096   -3.3022055   -1.8334376   0.03362558   -3.3022055    1.4687679   396302 
 3255000   0.88413616   -3.3038916   -1.8341697  0.035599795   -3.3038916    1.4697219   396186 
 3256000   0.88439923   -3.3039454    -1.833493  0.033434286   -3.3039454    1.4704524   396107 
 3257000   0.88413962   -3.3049015   -1.8344019  0.035213026   -3.3049015    1.4704997   395978 
 3258000   0.88438504   -3.3072333   -1.8357272  0.033763825   -3.3072333    1.4715061   395817 
 3259000    0.8840278   -3.3078265   -1.8365021  0.039115351   -3.3078265    1.4713243   395706 
 3260000    0.8848195   -3.3097712   -1.8368798  0.038311496   -3.3097712    1.4728914   395639 
 3261000   0.88495861   -3.3109841   -1.8374924  0.036741273   -3.3109841    1.4734917   395540 
 3262000   0.88462927   -3.3120325   -1.8386496  0.032569798   -3.3120325    1.4733828   395422 
 3263000   0.88421733   -3.3126822    -1.839706  0.036475025   -3.3126822    1.4729761   395347 
 3264000   0.88342907   -3.3124077   -1.8403165  0.033961699   -3.3124077    1.4720912   395232 
 3265000   0.88254194   -3.3142151   -1.8431965  0.037812715   -3.3142151    1.4710186   395123 
 3266000   0.88006276   -3.3124862   -1.8452731  0.038601311   -3.3124862    1.4672131   395035 
 3267000    0.8802023   -3.3145852   -1.8468051  0.033320987   -3.3145852    1.4677801   394945 
 3268000   0.88036781   -3.3145617   -1.8461002   0.03823449   -3.3145617    1.4684614   394836 
 3269000     0.881644   -3.3179356   -1.8470661  0.036971749   -3.3179356    1.4708695   394761 
 3270000   0.87988309   -3.3150946   -1.8469435  0.040560419   -3.3150946    1.4681512   394702 
 3271000   0.88044229   -3.3168318   -1.8474721  0.034161246   -3.3168318    1.4693597   394628 
 3272000   0.88040774   -3.3183289   -1.8485874  0.033121092   -3.3183289    1.4697415   394510 
 3273000    0.8812443   -3.3203339   -1.8486735  0.033079754   -3.3203339    1.4716603   394370 
 3274000   0.87803609   -3.3160977   -1.8494082  0.037225666   -3.3160977    1.4666895   394266 
 3275000    0.8787502   -3.3184582   -1.8501663  0.034328393   -3.3184582     1.468292   394156 
 3276000    0.8780613   -3.3171439   -1.8498206   0.03966394   -3.3171439    1.4673233   394107 
 3277000   0.87715593   -3.3185869   -1.8523003  0.032379741   -3.3185869    1.4662866   393979 
 3278000    0.8761768   -3.3180567   -1.8530201  0.035900116   -3.3180567    1.4650366   393875 
 3279000   0.87632473   -3.3194098   -1.8537277  0.030169415   -3.3194098    1.4656821   393768 
 3280000   0.87473349   -3.3180174   -1.8545917  0.029666938   -3.3180174    1.4634258   393659 
 3281000   0.87506384   -3.3186281   -1.8542628  0.031970937   -3.3186281    1.4643653   393555 
 3282000   0.87628418   -3.3202691   -1.8536269  0.032993929   -3.3202691    1.4666423   393492 
 3283000   0.87606752   -3.3190726   -1.8523793  0.036223376   -3.3190726    1.4666934   393381 
 3284000   0.87622945   -3.3209419   -1.8535036  0.038006403   -3.3209419    1.4674382   393254 
 3285000   0.87582115   -3.3201984   -1.8531866  0.030832689   -3.3201984    1.4670118   393185 
 3286000   0.87671646    -3.321592   -1.8526957  0.038155552    -3.321592    1.4688963   393082 
 3287000    0.8762717   -3.3216473   -1.8530703  0.030413437   -3.3216473     1.468577   392968 
 3288000   0.87657998   -3.3244647   -1.8548624  0.034642501   -3.3244647    1.4696023   392832 
 3289000   0.87593305   -3.3238261   -1.8549008  0.033610853   -3.3238261    1.4689253   392723 
 3290000   0.87515434   -3.3231093   -1.8553479  0.035941999   -3.3231093    1.4677614   392685 
 3291000   0.87364446   -3.3229113   -1.8572902  0.029520085   -3.3229113     1.465621   392580 
 3292000   0.87265982   -3.3228429   -1.8583589   0.03340126   -3.3228429     1.464484   392442 
 3293000    0.8746552   -3.3249643   -1.8568249  0.026545192   -3.3249643    1.4681394   392360 
 3294000   0.87324268    -3.324171   -1.8581373  0.036391491    -3.324171    1.4660337   392289 
 3295000   0.87288046   -3.3250731   -1.8593037  0.036439518   -3.3250731    1.4657693   392197 
 3296000   0.87281731   -3.3268308   -1.8607263  0.037754559   -3.3268308    1.4661044   392079 
 3297000   0.87194479   -3.3272771   -1.8622422  0.032190187   -3.3272771    1.4650349   391973 
 3298000   0.87121613   -3.3264299   -1.8623167  0.028816959   -3.3264299    1.4641131   391892 
 3299000   0.87105335   -3.3254911   -1.8614572  0.032848915   -3.3254911    1.4640339   391840 
 3300000   0.86984915   -3.3256217    -1.863261  0.033516774   -3.3256217    1.4623607   391746 
 3301000   0.87084542   -3.3246397   -1.8604172  0.035385823   -3.3246397    1.4642225   391696 
 3302000   0.86877676    -3.323553   -1.8625961  0.034664421    -3.323553    1.4609569   391639 
 3303000   0.86937335   -3.3262552   -1.8638208  0.029895689   -3.3262552    1.4624343   391512 
 3304000     0.867758   -3.3215032   -1.8616147  0.033702452   -3.3215032    1.4598886   391466 
 3305000   0.86835931   -3.3249935   -1.8638171  0.032964883   -3.3249935    1.4611764   391392 
 3306000   0.87025661    -3.328627   -1.8638688  0.035209126    -3.328627    1.4647582   391288 
 3307000   0.86854539   -3.3255375   -1.8632185  0.034496696   -3.3255375     1.462319   391170 
 3308000   0.86866509   -3.3271808   -1.8642863   0.03604943   -3.3271808    1.4628945   391070 
 3309000   0.86909389   -3.3283483   -1.8645221  0.036845176   -3.3283483    1.4638262   391014 
 3310000   0.86798298   -3.3276464   -1.8654482  0.028383977   -3.3276464    1.4621982   390949 
 3311000    0.8685038   -3.3296857   -1.8662658  0.031509177   -3.3296857    1.4634199   390857 
 3312000   0.86798796   -3.3280914   -1.8652562  0.033791558   -3.3280914    1.4628352   390781 
 3313000   0.86666633   -3.3278675   -1.8668896  0.034441016   -3.3278675    1.4609779   390682 
 3314000    0.8680122   -3.3299445   -1.8665929  0.033463239   -3.3299445    1.4633516   390654 
 3315000   0.86866469   -3.3310126   -1.8662348  0.034084941   -3.3310126    1.4647778   390567 
 3316000   0.86799059   -3.3307056   -1.8666859  0.031914078   -3.3307056    1.4640197   390466 
 3317000    0.8674491   -3.3318659   -1.8683472  0.032335783   -3.3318659    1.4635187   390356 
 3318000   0.86571976   -3.3310028   -1.8699751  0.035438332   -3.3310028    1.4610277   390242 
 3319000   0.86597299   -3.3327583   -1.8709211  0.037556799   -3.3327583    1.4618372   390140 
 3320000   0.86574931   -3.3319284    -1.870184  0.032355536   -3.3319284    1.4617443   390064 
 3321000    0.8661432    -3.332938   -1.8701761  0.034905957    -3.332938    1.4627619   389970 
 3322000   0.86674097   -3.3342343   -1.8701401   0.03522504   -3.3342343    1.4640943   389884 
 3323000   0.86541952   -3.3346082   -1.8722397   0.03434512   -3.3346082    1.4623685   389749 
 3324000   0.86481712   -3.3337478   -1.8722023  0.031161759   -3.3337478    1.4615455   389697 
 3325000   0.86547114   -3.3344068   -1.8716997  0.032613808   -3.3344068    1.4627071   389682 
 3326000   0.86465813   -3.3339064   -1.8723183  0.030090251   -3.3339064    1.4615881   389614 
 3327000   0.86355624   -3.3334939   -1.8734198  0.033307163   -3.3334939     1.460074   389521 
 3328000   0.86399013   -3.3352759   -1.8742582   0.03401886   -3.3352759    1.4610177   389465 
 3329000   0.86229186   -3.3326197    -1.874208   0.03315639   -3.3326197    1.4584118   389394 
 3330000   0.86194944   -3.3334239   -1.8752355  0.028172912   -3.3334239    1.4581884   389299 
 3331000   0.86239016    -3.336405   -1.8771374  0.030355205    -3.336405    1.4592676   389210 
 3332000   0.86173624   -3.3371608   -1.8786737  0.030266553   -3.3371608    1.4584871   389123 
 3333000   0.86289818   -3.3387331   -1.8781068  0.034879906   -3.3387331    1.4606263   389077 
 3334000   0.86298135   -3.3391353   -1.8781766  0.035414313   -3.3391353    1.4609586   389026 
 3335000   0.86313669   -3.3392212   -1.8775939  0.032848638   -3.3392212    1.4616274   388918 
 3336000   0.86283571   -3.3384246   -1.8771792  0.034213104   -3.3384246    1.4612454   388884 
 3337000   0.86228889   -3.3384184   -1.8775656  0.030718577   -3.3384184    1.4608528   388742 
 3338000   0.86285734   -3.3386492   -1.8765363   0.03553922   -3.3386492     1.462113   388663 
 3339000   0.86423698   -3.3427315   -1.8778736  0.031454881   -3.3427315    1.4648578   388555 
 3340000   0.86276806   -3.3421472   -1.8794705  0.031386074   -3.3421472    1.4626767   388473 
 3341000   0.86156027   -3.3400685   -1.8791799  0.034573927   -3.3400685    1.4608886   388404 
 3342000    0.8612955   -3.3409491   -1.8801973  0.031999158   -3.3409491    1.4607518   388321 
 3343000   0.86175456   -3.3426184   -1.8804705  0.030845427   -3.3426184    1.4621479   388157 
 3344000   0.86309576   -3.3451516   -1.8802374  0.032094407   -3.3451516    1.4649141   388027 
 3345000   0.86140482   -3.3454005   -1.8829907  0.037859014   -3.3454005    1.4624097   387930 
 3346000   0.86116579   -3.3445167   -1.8821169  0.034546292   -3.3445167    1.4623997   387825 
 3347000   0.86005898   -3.3429714   -1.8823043  0.033985693   -3.3429714    1.4606671   387786 
 3348000   0.85933872   -3.3413042   -1.8817249   0.03396499   -3.3413042    1.4595793   387750 
 3349000    0.8593091   -3.3426277   -1.8829142   0.03551404   -3.3426277    1.4597135   387701 
 3350000    0.8600179    -3.344389   -1.8832114  0.030639412    -3.344389    1.4611776   387632 
 3351000   0.86165188   -3.3457683   -1.8817012  0.035467041   -3.3457683     1.464067   387602 
 3352000   0.85960646   -3.3452559    -1.884163  0.029175743   -3.3452559    1.4610929   387469 
 3353000   0.85851107   -3.3446374   -1.8850861    0.0304942   -3.3446374    1.4595513   387384 
 3354000   0.85816275   -3.3470407   -1.8875617  0.031111686   -3.3470407     1.459479   387246 
 3355000   0.85735223    -3.347275   -1.8889636  0.032421479    -3.347275    1.4583114   387190 
 3356000   0.85799931   -3.3473042   -1.8876169   0.02904426   -3.3473042    1.4596873   387117 
 3357000   0.85792651   -3.3481949     -1.88816  0.032763794   -3.3481949    1.4600349   386992 
 3358000   0.85572704   -3.3458212   -1.8892208    0.0346296   -3.3458212    1.4566004   386910 
 3359000   0.85736135   -3.3497525   -1.8900382  0.030696062   -3.3497525    1.4597143   386822 
 3360000   0.85499771      -3.3467    -1.890818  0.032359772      -3.3467     1.455882   386771 
 3361000   0.85588315   -3.3494215   -1.8916699   0.03158251   -3.3494215    1.4577515   386675 
 3362000   0.85693181   -3.3510011    -1.891271   0.03353216   -3.3510011    1.4597302   386624 
 3363000    0.8565909   -3.3515369    -1.892025  0.032049094   -3.3515369    1.4595119   386528 
 3364000   0.85566195   -3.3510058   -1.8928014  0.033214982   -3.3510058    1.4582045   386455 
 3365000   0.85481378   -3.3516914   -1.8945855  0.033239104   -3.3516914    1.4571059   386363 
 3366000    0.8563685   -3.3527915   -1.8927784  0.033421092   -3.3527915     1.460013   386295 
 3367000   0.85487483   -3.3505792   -1.8928825  0.030940262   -3.3505792    1.4576967   386234 
 3368000   0.85410792   -3.3503143    -1.893635  0.031034832   -3.3503143    1.4566794   386157 
 3369000   0.85600747   -3.3528683   -1.8926657  0.030962696   -3.3528683    1.4602026   386082 
 3370000   0.85487711   -3.3524868   -1.8938912  0.034147624   -3.3524868    1.4585956   385997 
 3371000   0.85479044   -3.3536058   -1.8948898  0.032324077   -3.3536058     1.458716   385926 
 3372000   0.85477657   -3.3561142   -1.8971572  0.035114717   -3.3561142     1.458957   385856 
 3373000    0.8531436   -3.3550158   -1.8986951  0.032078999   -3.3550158    1.4563207   385816 
 3374000    0.8528035   -3.3541768   -1.8983385  0.031935819   -3.3541768    1.4558383   385790 
 3375000   0.85240237   -3.3533126   -1.8979516  0.024362271   -3.3533126     1.455361   385735 
 3376000   0.85318547   -3.3561121   -1.8988285  0.031668276   -3.3561121    1.4572836   385580 
 3377000   0.85278561   -3.3550081   -1.8983206  0.026382849   -3.3550081    1.4566875   385557 
 3378000   0.85137192   -3.3562262   -1.9016215  0.032492796   -3.3562262    1.4546047   385469 
 3379000   0.85182387    -3.356932   -1.9012492  0.032703389    -3.356932    1.4556828   385388 
 3380000   0.85150114   -3.3573172   -1.9022085  0.032113955   -3.3573172    1.4551086   385394 
 3381000   0.85135662   -3.3570845   -1.9018264  0.033122857   -3.3570845    1.4552581   385289 
 3382000   0.85075961   -3.3574697   -1.9028545  0.036135841   -3.3574697    1.4546152   385189 
 3383000   0.84941123   -3.3566837   -1.9040798  0.030959833   -3.3566837    1.4526039   385111 
 3384000   0.85097428   -3.3602001   -1.9047645   0.03050277   -3.3602001    1.4554356   385069 
 3385000   0.85060569   -3.3605456   -1.9054493  0.037755597   -3.3605456    1.4550962   384992 
 3386000   0.84993425   -3.3606661   -1.9063294  0.034235406   -3.3606661    1.4543367   384889 
 3387000    0.8507891   -3.3627003   -1.9067269  0.032533282   -3.3627003    1.4559735   384843 
 3388000   0.84864568   -3.3599063   -1.9072952  0.035736011   -3.3599063    1.4526111   384762 
 3389000    0.8503932   -3.3645648   -1.9086711  0.030837707   -3.3645648    1.4558937   384685 
 3390000   0.85060688   -3.3659134   -1.9094646   0.02836791   -3.3659134    1.4564488   384635 
 3391000   0.84948123   -3.3647519   -1.9099279  0.034627833   -3.3647519     1.454824   384555 
 3392000   0.84900353   -3.3651088   -1.9107323  0.036028095   -3.3651088    1.4543765   384457 
 3393000    0.8502878   -3.3679631   -1.9113411  0.032868366   -3.3679631     1.456622   384445 
 3394000   0.84754616   -3.3648433   -1.9127632  0.030574718   -3.3648433    1.4520802   384404 
 3395000   0.84846121   -3.3663217   -1.9123826  0.031301783   -3.3663217    1.4539391   384327 
 3396000   0.84596251   -3.3641678   -1.9141596  0.035162912   -3.3641678    1.4500082   384234 
 3397000   0.84761753   -3.3667286    -1.913842   0.03379754   -3.3667286    1.4528866   384223 
 3398000   0.84803211   -3.3673342   -1.9133094  0.025105909   -3.3673342    1.4540248   384110 
 3399000   0.84773425   -3.3674828   -1.9135334  0.033952878   -3.3674828    1.4539494   383995 
 3400000   0.84749962    -3.367168    -1.913337  0.033565706    -3.367168    1.4538309   383920 
 3401000   0.84783819   -3.3703442   -1.9155422   0.03061233   -3.3703442     1.454802   383817 
 3402000   0.84723237   -3.3690631   -1.9149786  0.035842392   -3.3690631    1.4540845   383732 
 3403000   0.84642485   -3.3685622   -1.9156743  0.038250349   -3.3685622    1.4528879   383682 
 3404000   0.84649679   -3.3694084   -1.9161508  0.033923089   -3.3694084    1.4532576   383617 
 3405000   0.84665156   -3.3705994   -1.9166516  0.035982466   -3.3705994    1.4539478   383505 
 3406000   0.84505742   -3.3687939   -1.9172203   0.02716825   -3.3687939    1.4515736   383409 
 3407000   0.84501435   -3.3696095    -1.917826  0.029110971   -3.3696095    1.4517836   383334 
 3408000   0.84358639    -3.369972   -1.9202333  0.030957975    -3.369972    1.4497387   383226 
 3409000     0.844019   -3.3715721   -1.9207644   0.02243742   -3.3715721    1.4508077   383140 
 3410000   0.84351156   -3.3733022   -1.9229049  0.026361981   -3.3733022    1.4503973   383018 
 3411000   0.84283153   -3.3733845   -1.9238348   0.03237936   -3.3733845    1.4495497   382933 
 3412000   0.84224092   -3.3747218   -1.9258701  0.029777634   -3.3747218    1.4488518   382849 
 3413000   0.84227516   -3.3745008   -1.9253176    0.0317966   -3.3745008    1.4491832   382777 
 3414000   0.84199474   -3.3755803   -1.9267395  0.027564325   -3.3755803    1.4488408   382740 
 3415000     0.842696   -3.3765535   -1.9263394   0.02946447   -3.3765535    1.4502142   382696 
 3416000   0.84138078   -3.3748317   -1.9267863  0.029377718   -3.3748317    1.4480454   382671 
 3417000   0.84271988   -3.3764295   -1.9257345  0.030289424   -3.3764295     1.450695   382580 
 3418000    0.8424714   -3.3759886   -1.9254674    0.0334156   -3.3759886    1.4505213   382513 
 3419000   0.84347795   -3.3778788   -1.9252409  0.036951635   -3.3778788    1.4526378   382412 
 3420000   0.84300299   -3.3779242    -1.925698   0.03155418   -3.3779242    1.4522262   382305 
 3421000   0.84100037   -3.3757283   -1.9267587   0.03566094   -3.3757283    1.4489696   382254 
 3422000   0.84127809   -3.3774088   -1.9278659  0.027725612   -3.3774088    1.4495429   382229 
 3423000   0.84226058   -3.3788808    -1.927383  0.028189863   -3.3788808    1.4514978   382160 
 3424000   0.84198811    -3.378948    -1.927821  0.032750244    -3.378948     1.451127   382134 
 3425000   0.84144256   -3.3791709   -1.9286388  0.026821453   -3.3791709    1.4505321   382043 
 3426000   0.84214622   -3.3793947   -1.9275241  0.026888975   -3.3793947    1.4518706   382010 
 3427000   0.84082149    -3.379018   -1.9290821  0.028639487    -3.379018    1.4499359   381918 
 3428000   0.84082745   -3.3809067   -1.9306909  0.030832971   -3.3809067    1.4502158   381847 
 3429000   0.84148794   -3.3809224   -1.9291987  0.029186043   -3.3809224    1.4517238   381750 
 3430000   0.84127433   -3.3833069   -1.9316437  0.032434676   -3.3833069    1.4516632   381669 
 3431000   0.84113828   -3.3818709   -1.9301761  0.030955794   -3.3818709    1.4516947   381599 
 3432000   0.84186464   -3.3825742   -1.9292298  0.031966706   -3.3825742    1.4533444   381495 
 3433000   0.84224872   -3.3837558   -1.9294166  0.033779887   -3.3837558    1.4543391   381408 
 3434000   0.84086911   -3.3842055   -1.9319059  0.032249287   -3.3842055    1.4522996   381318 
 3435000    0.8395304   -3.3832514   -1.9328911  0.030297119   -3.3832514    1.4503602   381220 
 3436000   0.83885314    -3.385339   -1.9356772  0.031564263    -3.385339    1.4496617   381096 
 3437000   0.83777056   -3.3834743   -1.9355125  0.030372652   -3.3834743    1.4479619   381051 
 3438000   0.83597973   -3.3812737   -1.9360429  0.032328281   -3.3812737    1.4452308   380955 
 3439000    0.8362357   -3.3832835   -1.9372875  0.025582774   -3.3832835    1.4459959   380870 
 3440000   0.83603827   -3.3832449   -1.9372867  0.027415408   -3.3832449    1.4459583   380790 
 3441000    0.8358098   -3.3821954   -1.9363665  0.032362558   -3.3821954    1.4458289   380720 
 3442000   0.83843375   -3.3854421   -1.9347655  0.030065713   -3.3854421    1.4506766   380639 
 3443000   0.83620596   -3.3831758    -1.936061  0.034817119   -3.3831758    1.4471148   380562 
 3444000   0.83709723   -3.3859406   -1.9367693  0.031846182   -3.3859406    1.4491712   380427 
 3445000   0.83577648   -3.3834376   -1.9361077  0.032577655   -3.3834376    1.4473299   380310 
 3446000   0.83618537   -3.3860416   -1.9376608  0.028309033   -3.3860416    1.4483807   380220 
 3447000   0.83442757   -3.3842011   -1.9384696  0.027078408   -3.3842011    1.4457314   380116 
 3448000   0.83566041   -3.3867122   -1.9385895  0.032301337   -3.3867122    1.4481227   380049 
 3449000   0.83498429   -3.3874572   -1.9402548  0.027930237   -3.3874572    1.4472024   379983 
 3450000   0.83408484   -3.3853688   -1.9394666  0.029492591   -3.3853688    1.4459022   379915 
 3451000   0.83307876   -3.3848298   -1.9403104  0.027355311   -3.3848298    1.4445193   379820 
 3452000   0.83352107   -3.3845511   -1.9391659  0.027376531   -3.3845511    1.4453852   379794 
 3453000   0.83317966   -3.3850146   -1.9398751  0.029945237   -3.3850146    1.4451395   379703 
 3454000   0.83471345   -3.3865499   -1.9385099  0.028910459   -3.3865499    1.4480401   379640 
 3455000    0.8329571   -3.3853657   -1.9400185  0.031558152   -3.3853657    1.4453473   379547 
 3456000   0.83376379   -3.3875463   -1.9406201  0.031508778   -3.3875463    1.4469262   379500 
 3457000   0.83455242   -3.3885328   -1.9399747   0.03269298   -3.3885328    1.4485582   379431 
 3458000   0.83385721   -3.3877217   -1.9401108  0.029006592   -3.3877217    1.4476109   379363 
 3459000   0.83219863   -3.3865816   -1.9416253   0.03084575   -3.3865816    1.4449563   379304 
 3460000   0.83256876   -3.3875525   -1.9418812  0.032327191   -3.3875525    1.4456714   379285 
 3461000   0.83287478   -3.3871917    -1.940558  0.032637903   -3.3871917    1.4466337   379172 
 3462000   0.83148318   -3.3872867   -1.9428301  0.034209434   -3.3872867    1.4444566   379109 
 3463000   0.83208956   -3.3892685   -1.9435754  0.026802898   -3.3892685    1.4456931   379061 
 3464000   0.83036924   -3.3884841   -1.9455972  0.024462811   -3.3884841    1.4428869   379013 
 3465000    0.8301171   -3.3890552   -1.9463819  0.028106847   -3.3890552    1.4426733   378954 
 3466000   0.83130667   -3.3915253   -1.9462278  0.026583643   -3.3915253    1.4452975   378808 
 3467000   0.82986281   -3.3891423   -1.9459436  0.025570206   -3.3891423    1.4431987   378700 
 3468000   0.82945999   -3.3889668   -1.9462934  0.027136949   -3.3889668    1.4426734   378654 
 3469000   0.83163426   -3.3938676    -1.947061   0.02358036   -3.3938676    1.4468066   378562 
 3470000   0.83154878   -3.3936784   -1.9467682  0.028805196   -3.3936784    1.4469102   378496 
 3471000   0.83170809    -3.394839   -1.9474069  0.032673582    -3.394839    1.4474321   378432 
 3472000   0.83154649   -3.3964478   -1.9489947  0.034401904   -3.3964478     1.447453   378353 
 3473000   0.83049919   -3.3951628   -1.9492767  0.030853921   -3.3951628    1.4458861   378286 
 3474000   0.83114113   -3.3959174    -1.948688  0.029683503   -3.3959174    1.4472294   378227 
 3475000    0.8292686   -3.3942984   -1.9500241  0.031897845   -3.3942984    1.4442743   378147 
 3476000   0.83031978   -3.3972749   -1.9508255  0.029297814   -3.3972749    1.4464494   378057 
 3477000   0.82955056    -3.397636   -1.9522132  0.026007687    -3.397636    1.4454228   377975 
 3478000   0.82919364   -3.3972808   -1.9522123  0.031433758   -3.3972808    1.4450686   377905 
 3479000   0.82881223   -3.3986352   -1.9538643   0.03368863   -3.3986352    1.4447709   377809 
 3480000   0.82952656   -3.4011574   -1.9548963  0.032571703   -3.4011574    1.4462611   377745 
 3481000   0.82898415   -3.4010588   -1.9555253  0.030964093   -3.4010588    1.4455335   377688 
 3482000   0.82689125   -3.3985504   -1.9565671  0.026937451   -3.3985504    1.4419833   377662 
 3483000   0.82800735   -3.4011181   -1.9569093  0.031539671   -3.4011181    1.4442088   377589 
 3484000   0.82805029   -3.4012694   -1.9567715  0.024998572   -3.4012694    1.4444979   377533 
 3485000   0.82765362   -3.4018168    -1.957831  0.024822751   -3.4018168    1.4439857   377486 
 3486000   0.82712272   -3.4018543   -1.9583015  0.027249519   -3.4018543    1.4435528   377357 
 3487000   0.82602803     -3.40019   -1.9580433  0.032360103     -3.40019    1.4421467   377225 
 3488000   0.82661315   -3.4030249   -1.9595926  0.030039086   -3.4030249    1.4434323   377156 
 3489000   0.82806251   -3.4056241   -1.9594346  0.031145211   -3.4056241    1.4461894   377097 
 3490000   0.82771894   -3.4059521   -1.9600598  0.030928609   -3.4059521    1.4458923   377018 
 3491000   0.82664925   -3.4051812   -1.9608664  0.032390094   -3.4051812    1.4443149   376942 
 3492000   0.82621716   -3.4042007   -1.9604723  0.031564678   -3.4042007    1.4437284   376898 
 3493000   0.82718534   -3.4073709   -1.9615747   0.03181307   -3.4073709    1.4457962   376800 
 3494000   0.82610027   -3.4076834    -1.963527  0.025530061   -3.4076834    1.4441564   376733 
 3495000   0.82518897   -3.4059844   -1.9632296    0.0278695   -3.4059844    1.4427548   376683 
 3496000   0.82513652   -3.4069909   -1.9639792  0.029507212   -3.4069909    1.4430117   376592 
 3497000   0.82668542   -3.4109378   -1.9650523  0.033183882   -3.4109378    1.4458855   376549 
 3498000   0.82555214   -3.4084145   -1.9643079  0.029001794   -3.4084145    1.4441067   376496 
 3499000   0.82487959    -3.407202   -1.9639114  0.026890008    -3.407202    1.4432905   376402 
 3500000   0.82610716   -3.4085333   -1.9628798  0.027374735   -3.4085333    1.4456535   376346 
 3501000   0.82511825   -3.4088509   -1.9647783  0.029880409   -3.4088509    1.4440726   376307 
 3502000   0.82384297   -3.4089262   -1.9668786  0.031137349   -3.4089262    1.4420476   376253 
 3503000   0.82274233   -3.4088298   -1.9683489  0.028759511   -3.4088298    1.4404809   376159 
 3504000    0.8219416   -3.4059309   -1.9667104  0.028430273   -3.4059309    1.4392206   376122 
 3505000    0.8247781   -3.4084045   -1.9641058  0.032372515   -3.4084045    1.4442986   376093 
 3506000   0.82409609   -3.4083676   -1.9650867  0.036169063   -3.4083676    1.4432809   376047 
 3507000   0.82409974    -3.409441   -1.9658543  0.033610914    -3.409441    1.4435867   375969 
 3508000   0.82384997   -3.4088052   -1.9654564  0.029856522   -3.4088052    1.4433488   375917 
 3509000   0.82571284   -3.4119023   -1.9649858  0.025977828   -3.4119023    1.4469165   375838 
 3510000   0.82466842   -3.4120272   -1.9666254  0.033855993   -3.4120272    1.4454017   375756 
 3511000   0.82413041   -3.4118704   -1.9671156  0.032188151   -3.4118704    1.4447548   375679 
 3512000   0.82266216   -3.4105059   -1.9680448   0.02993672   -3.4105059    1.4424612   375606 
 3513000    0.8219572    -3.409816   -1.9682301  0.024681292    -3.409816    1.4415859   375512 
 3514000   0.82230504   -3.4116293   -1.9691069   0.03215959   -3.4116293    1.4425224   375427 
 3515000   0.82310114   -3.4138958   -1.9696229  0.028993355   -3.4138958    1.4442729   375335 
 3516000   0.82156505   -3.4128674   -1.9710363  0.030936147   -3.4128674    1.4418311   375269 
 3517000   0.82153577   -3.4131532   -1.9712044  0.027338048   -3.4131532    1.4419488   375225 
 3518000   0.82236927   -3.4157663   -1.9721814  0.028119482   -3.4157663    1.4435849   375180 
 3519000   0.82161127   -3.4145909   -1.9719214  0.028782741   -3.4145909    1.4426696   375072 
 3520000   0.81948302   -3.4119135   -1.9727814  0.026221011   -3.4119135    1.4391321   375020 
 3521000   0.82071914   -3.4122315   -1.9708901   0.03056848   -3.4122315    1.4413413   375010 
 3522000   0.82043673   -3.4123977   -1.9712564  0.028853302   -3.4123977    1.4411413   374933 
 3523000   0.81910518   -3.4120014   -1.9729688  0.023901486   -3.4120014    1.4390326   374873 
 3524000   0.81909103   -3.4120122   -1.9728317  0.027465906   -3.4120122    1.4391805   374828 
 3525000   0.81935983   -3.4138857   -1.9738871   0.02591436   -3.4138857    1.4399986   374738 
 3526000   0.82101167   -3.4162783   -1.9732688  0.031439929   -3.4162783    1.4430095   374710 
 3527000   0.81935036   -3.4138893   -1.9734922  0.029853842   -3.4138893    1.4403971   374630 
 3528000   0.81961575   -3.4128833   -1.9719351  0.031422824   -3.4128833    1.4409482   374608 
 3529000   0.81968987   -3.4143332   -1.9731316  0.031573906   -3.4143332    1.4412016   374576 
 3530000   0.81980806   -3.4153423   -1.9735942  0.030293376   -3.4153423    1.4417482   374488 
 3531000   0.81814221   -3.4125763   -1.9735311   0.03088886   -3.4125763    1.4390453   374429 
 3532000   0.81682019   -3.4122278   -1.9751893  0.028446673   -3.4122278    1.4370385   374346 
 3533000   0.81836951   -3.4153212   -1.9754339   0.02729718   -3.4153212    1.4398873   374314 
 3534000   0.81817821   -3.4150497   -1.9751604  0.031910248   -3.4150497    1.4398892   374226 
 3535000   0.81800207   -3.4172494   -1.9773854  0.029491157   -3.4172494     1.439864   374152 
 3536000   0.81818128   -3.4172082   -1.9767015  0.029809809   -3.4172082    1.4405067   374067 
 3537000   0.81669477   -3.4144314   -1.9764458  0.028599073   -3.4144314    1.4379856   374042 
 3538000   0.81732273   -3.4147737   -1.9755478  0.033876412   -3.4147737    1.4392259   374007 
 3539000   0.81783776    -3.416644   -1.9763185  0.029777877    -3.416644    1.4403254   373957 
 3540000   0.81837898   -3.4182781   -1.9768569  0.024388456   -3.4182781    1.4414212   373920 
 3541000   0.81690058   -3.4165795   -1.9776929  0.029164914   -3.4165795    1.4388865   373902 
 3542000   0.81913958   -3.4220495   -1.9789258  0.025981314   -3.4220495    1.4431236   373826 
 3543000   0.81733612   -3.4186107   -1.9784216  0.026387115   -3.4186107    1.4401891   373763 
 3544000   0.81756829   -3.4194633   -1.9787071  0.032009512   -3.4194633    1.4407562   373722 
 3545000   0.81826196     -3.42145   -1.9791973  0.030499902     -3.42145    1.4422527   373651 
 3546000   0.81866223   -3.4216286   -1.9783846  0.032681146   -3.4216286     1.443244   373577 
 3547000   0.81860326   -3.4223511    -1.979072  0.030859938   -3.4223511    1.4432791   373541 
 3548000   0.81840642   -3.4228366   -1.9797036  0.033258001   -3.4228366     1.443133   373489 
 3549000   0.81717516   -3.4202347   -1.9790722   0.03178135   -3.4202347    1.4411625   373437 
 3550000   0.81731825   -3.4206621     -1.97895  0.033257921   -3.4206621    1.4417121   373360 
 3551000   0.81742695   -3.4212513   -1.9792702  0.032086498   -3.4212513    1.4419811   373340 
 3552000   0.81773764   -3.4228171   -1.9802145  0.028997375   -3.4228171    1.4426026   373321 
 3553000   0.81624843   -3.4207175   -1.9806379  0.029298941   -3.4207175    1.4400796   373294 
 3554000   0.81569262    -3.420579   -1.9814453  0.035825077    -3.420579    1.4391336   373285 
 3555000   0.81558862   -3.4216572   -1.9824178  0.027770946   -3.4216572    1.4392393   373210 
 3556000   0.81444198   -3.4212426   -1.9836607  0.031970572   -3.4212426    1.4375818   373115 
 3557000   0.81496721   -3.4231829   -1.9842304  0.031955902   -3.4231829    1.4389524   373000 
 3558000   0.81554329     -3.42488   -1.9847869  0.029809259     -3.42488    1.4400931   372968 
 3559000   0.81527609   -3.4252188   -1.9851651  0.030501642   -3.4252188    1.4400538   372856 
 3560000   0.81564766   -3.4258954   -1.9849805  0.029704815   -3.4258954    1.4409149   372803 
 3561000   0.81502886   -3.4258804   -1.9857496  0.033032628   -3.4258804    1.4401308   372723 
 3562000   0.81393089   -3.4258613   -1.9872924  0.026441326   -3.4258613    1.4385689   372625 
 3563000   0.81578637   -3.4294225   -1.9873768  0.032953459   -3.4294225    1.4420457   372574 
 3564000   0.81362204   -3.4274698   -1.9888946  0.031541996   -3.4274698    1.4385751   372482 
 3565000   0.81372146   -3.4285655   -1.9895596  0.025261306   -3.4285655    1.4390059   372416 
 3566000   0.81346803   -3.4275594   -1.9888433  0.026620735   -3.4275594    1.4387161   372375 
 3567000   0.81397587   -3.4286297   -1.9889497  0.026587818   -3.4286297      1.43968   372358 
 3568000   0.81220461   -3.4277411   -1.9908852  0.029629521   -3.4277411    1.4368559   372278 
 3569000   0.81249126    -3.428303   -1.9906195  0.029083749    -3.428303    1.4376835   372195 
 3570000   0.81319656   -3.4286031   -1.9894396  0.027117957   -3.4286031    1.4391635   372135 
 3571000   0.81263129   -3.4292772   -1.9908937  0.028989392   -3.4292772    1.4383835   372078 
 3572000    0.8112817   -3.4287058   -1.9924564  0.031137168   -3.4287058    1.4362494   372012 
 3573000   0.81082291   -3.4274088   -1.9917015   0.02466251   -3.4274088    1.4357073   371942 
 3574000   0.81195526   -3.4285478   -1.9907542   0.03107385   -3.4285478    1.4377935   371921 
 3575000   0.81122284   -3.4273831   -1.9905967  0.031298654   -3.4273831    1.4367863   371846 
 3576000   0.81071189   -3.4280014   -1.9918767  0.029382151   -3.4280014    1.4361247   371783 
 3577000   0.81188214   -3.4298818   -1.9915487  0.029053594   -3.4298818    1.4383331   371748 
 3578000   0.81177268   -3.4287472   -1.9904107   0.03172658   -3.4287472    1.4383365   371697 
 3579000   0.81169485   -3.4304041   -1.9918533  0.030528535   -3.4304041    1.4385508   371606 
 3580000   0.81144408   -3.4328736   -1.9945002  0.028123418   -3.4328736    1.4383734   371537 
 3581000   0.81083467   -3.4324562   -1.9950392  0.028036988   -3.4324562     1.437417   371505 
 3582000   0.81116153   -3.4323537   -1.9940902  0.031073966   -3.4323537    1.4382636   371436 
 3583000   0.80949612   -3.4307093    -1.995159  0.029462137   -3.4307093    1.4355503   371374 
 3584000   0.80937121   -3.4325772   -1.9970127  0.027430975   -3.4325772    1.4355646   371313 
 3585000   0.80884572    -3.432133   -1.9973073  0.029558232    -3.432133    1.4348257   371263 
 3586000   0.81130352   -3.4361953   -1.9967188  0.025753402   -3.4361953    1.4394765   371188 
 3587000   0.80925064   -3.4334818   -1.9974156  0.030843079   -3.4334818    1.4360662   371128 
 3588000   0.80962965   -3.4355492   -1.9985355  0.032604033   -3.4355492    1.4370137   371057 
 3589000   0.81010015   -3.4356969   -1.9975845  0.034102212   -3.4356969    1.4381123   370989 
 3590000   0.80908692   -3.4343172   -1.9976512  0.026594693   -3.4343172     1.436666   370898 
 3591000   0.80948857    -3.436242   -1.9985798  0.028498548    -3.436242    1.4376622   370825 
 3592000   0.80966593   -3.4364979   -1.9983888  0.031739193   -3.4364979     1.438109   370791 
 3593000   0.80834862   -3.4362042   -2.0001754  0.030299807   -3.4362042    1.4360287   370724 
 3594000   0.80897834   -3.4381706   -2.0006121  0.029558634   -3.4381706    1.4375585   370618 
 3595000   0.80865195   -3.4379324   -2.0009229  0.030085971   -3.4379324    1.4370095   370610 
 3596000    0.8071821   -3.4351718   -2.0005884  0.033728249   -3.4351718    1.4345833   370562 
 3597000   0.80774031   -3.4369068   -2.0010718  0.030284448   -3.4369068     1.435835   370495 
 3598000    0.8068573   -3.4355525   -2.0011903  0.030118832   -3.4355525    1.4343622   370470 
 3599000   0.80781698   -3.4386741   -2.0024973  0.030536019   -3.4386741    1.4361767   370442 
 3600000   0.80700922   -3.4370111   -2.0019527  0.024790309   -3.4370111    1.4350583   370360 
 3601000   0.80733465   -3.4381367    -2.002395  0.028913072   -3.4381367    1.4357417   370333 
 3602000   0.80602863   -3.4362515   -2.0027008  0.025593643   -3.4362515    1.4335507   370299 
 3603000   0.80432563   -3.4332178   -2.0023558  0.027313517   -3.4332178    1.4308619   370211 
 3604000   0.80638866   -3.4369349   -2.0021472  0.024464271   -3.4369349    1.4347877   370145 
 3605000   0.80526725   -3.4363271   -2.0031552  0.028618621   -3.4363271    1.4331719   370047 
 3606000   0.80713211   -3.4400756   -2.0034993   0.02911497   -3.4400756    1.4365763   370025 
 3607000   0.80796961   -3.4405727   -2.0022375   0.03087829   -3.4405727    1.4383351   369956 
 3608000   0.80815157   -3.4401649   -2.0013465   0.02771447   -3.4401649    1.4388185   369915 
 3609000   0.80808252   -3.4410818   -2.0021022  0.029529835   -3.4410818    1.4389795   369842 
 3610000   0.80820979   -3.4415278   -2.0021933   0.02891537   -3.4415278    1.4393346   369809 
 3611000   0.80701572   -3.4392295   -2.0018854  0.033898841   -3.4392295    1.4373441   369774 
 3612000   0.80689394    -3.437304   -1.9998464  0.035569389    -3.437304    1.4374576   369689 
 3613000   0.80739091   -3.4392726   -2.0004898  0.029701008   -3.4392726    1.4387828   369576 
 3614000   0.80765088   -3.4411012   -2.0016059  0.032425449   -3.4411012    1.4394953   369512 
 3615000   0.80482368   -3.4369646   -2.0025005   0.02995355   -3.4369646    1.4344641   369510 
 3616000   0.80552565   -3.4396784   -2.0037494  0.023048916   -3.4396784     1.435929   369455 
 3617000   0.80377009   -3.4384684   -2.0055021  0.030419535   -3.4384684    1.4329663   369412 
 3618000   0.80357009   -3.4401338   -2.0072177  0.026181475   -3.4401338    1.4329162   369333 
 3619000   0.80312606   -3.4391601   -2.0066401  0.026435425   -3.4391601      1.43252   369231 
 3620000   0.80326351   -3.4397324   -2.0066295  0.028493134   -3.4397324    1.4331028   369144 
 3621000   0.80203427   -3.4380039   -2.0066909  0.032305743   -3.4380039     1.431313   369040 
 3622000   0.80188443   -3.4374495   -2.0063302  0.032939865   -3.4374495    1.4311193   369021 
 3623000   0.80354178   -3.4426243   -2.0082867  0.025744746   -3.4426243    1.4343376   368954 
 3624000   0.80296797   -3.4414155   -2.0078147   0.02815777   -3.4414155    1.4336008   368880 
 3625000   0.80342624   -3.4409458   -2.0065695  0.027706564   -3.4409458    1.4343762   368891 
 3626000   0.80091431     -3.43837   -2.0082845  0.025480735     -3.43837    1.4300855   368841 
 3627000   0.80305105   -3.4409836   -2.0066862  0.027097473   -3.4409836    1.4342974   368739 
 3628000   0.80230212   -3.4420082   -2.0085859  0.026810569   -3.4420082    1.4334224   368620 
 3629000   0.80302081   -3.4418188   -2.0070229  0.030059703   -3.4418188    1.4347959   368597 
 3630000   0.80268024   -3.4418736   -2.0075461  0.029249572   -3.4418736    1.4343275   368561 
 3631000   0.80322764   -3.4422069   -2.0067688  0.031636711   -3.4422069    1.4354381   368527 
 3632000   0.80208948   -3.4409842   -2.0074556  0.031856147   -3.4409842    1.4335286   368495 
 3633000   0.80336963   -3.4438882   -2.0077949  0.030136145   -3.4438882    1.4360932   368424 
 3634000    0.8008229   -3.4416313   -2.0098729  0.027020958   -3.4416313    1.4317583   368368 
 3635000   0.80126156   -3.4431885   -2.0104087  0.030560388   -3.4431885    1.4327799   368307 
 3636000   0.80118367   -3.4423815   -2.0095581  0.029990369   -3.4423815    1.4328234   368260 
 3637000    0.8013551   -3.4435776   -2.0101089  0.028813317   -3.4435776    1.4334686   368173 
 3638000   0.80086392   -3.4427025   -2.0097934  0.027469675   -3.4427025    1.4329092   368091 
 3639000   0.80099886   -3.4454014   -2.0119899  0.029293289   -3.4454014    1.4334115   368024 
 3640000   0.80199983   -3.4451728   -2.0097984  0.033844357   -3.4451728    1.4353744   367980 
 3641000   0.80134601   -3.4466252   -2.0120389  0.034800137   -3.4466252    1.4345863   367882 
 3642000   0.80148958   -3.4458413   -2.0107366  0.032047503   -3.4458413    1.4351047   367815 
 3643000   0.79949652   -3.4439265   -2.0119623    0.0289449   -3.4439265    1.4319642   367705 
 3644000   0.79945453   -3.4445696   -2.0125365  0.027149901   -3.4445696    1.4320331   367668 
 3645000   0.79952641   -3.4452979   -2.0128321  0.026703171   -3.4452979    1.4324658   367590 
 3646000   0.79993839     -3.44669   -2.0131273  0.025295089     -3.44669    1.4335627   367498 
 3647000   0.79825045   -3.4447689   -2.0140014    0.0284586   -3.4447689    1.4307675   367439 
 3648000   0.79810266   -3.4469157   -2.0161912   0.03131082   -3.4469157    1.4307245   367382 
 3649000   0.79915169   -3.4479449   -2.0151058  0.033158366   -3.4479449    1.4328391   367322 
 3650000   0.79895773   -3.4485427   -2.0157588  0.029585935   -3.4485427    1.4327838   367247 
 3651000   0.79786097   -3.4462509   -2.0152469   0.02705426   -3.4462509     1.431004   367199 
 3652000   0.79648717   -3.4461132   -2.0171567  0.030952745   -3.4461132    1.4289565   367092 
 3653000   0.79702983   -3.4484158    -2.018252  0.029487105   -3.4484158    1.4301638   367032 
 3654000   0.79687907    -3.448762     -2.01867   0.02744542    -3.448762     1.430092   366981 
 3655000   0.79549246   -3.4474064   -2.0197795  0.028570952   -3.4474064    1.4276269   366975 
 3656000   0.79647574   -3.4496869    -2.019933  0.026148431   -3.4496869    1.4297539   366882 
 3657000    0.7972225   -3.4497858   -2.0184261  0.024128558   -3.4497858    1.4313597   366814 
 3658000   0.79687779   -3.4485515   -2.0176352  0.031729964   -3.4485515    1.4309163   366769 
 3659000   0.79713304    -3.449767   -2.0182675  0.024623508    -3.449767    1.4314995   366737 
 3660000    0.7970971   -3.4494724   -2.0177993  0.033043131   -3.4494724    1.4316731   366676 
 3661000   0.79844188   -3.4504177   -2.0161102  0.029132769   -3.4504177    1.4343076   366620 
 3662000   0.79716437   -3.4500962    -2.017896  0.031115857   -3.4500962    1.4322002   366572 
 3663000    0.7980761   -3.4514298   -2.0174508  0.034156253   -3.4514298     1.433979   366536 
 3664000   0.79601708   -3.4486573   -2.0181711  0.032017793   -3.4486573    1.4304862   366483 
 3665000   0.79672457   -3.4504735   -2.0186221  0.026684697   -3.4504735    1.4318514   366459 
 3666000    0.7957707   -3.4484594   -2.0183262  0.026272531   -3.4484594    1.4301332   366460 
 3667000   0.79467268   -3.4478117   -2.0194608  0.026175227   -3.4478117    1.4283509   366411 
 3668000   0.79528101   -3.4503354   -2.0206375  0.023950718   -3.4503354    1.4296979   366346 
 3669000   0.79496319   -3.4481988   -2.0189396  0.028931517   -3.4481988    1.4292592   366312 
 3670000   0.79556323   -3.4501306   -2.0195661  0.026622948   -3.4501306    1.4305645   366254 
 3671000   0.79636187   -3.4515487   -2.0194542  0.033253152   -3.4515487    1.4320945   366230 
 3672000   0.79603847    -3.450821   -2.0193002  0.031990112    -3.450821    1.4315207   366228 
 3673000   0.79699725   -3.4513631   -2.0179616  0.031865367   -3.4513631    1.4334015   366188 
 3674000   0.79672233   -3.4519012   -2.0186302  0.030993399   -3.4519012     1.433271   366095 
 3675000    0.7957218    -3.451589   -2.0197424  0.032137411    -3.451589    1.4318466   365999 
 3676000   0.79676307   -3.4529103   -2.0190372  0.033447186   -3.4529103    1.4338731   365960 
 3677000   0.79718105   -3.4550604   -2.0203528  0.033083386   -3.4550604    1.4347076   365939 
 3678000   0.79664898   -3.4539206   -2.0197081   0.03310108   -3.4539206    1.4342125   365821 
 3679000   0.79475383   -3.4526224   -2.0218179  0.023908816   -3.4526224    1.4308046   365820 
 3680000   0.79366218   -3.4521497   -2.0231073  0.026089786   -3.4521497    1.4290424   365768 
 3681000   0.79257144   -3.4522442   -2.0248809  0.028145764   -3.4522442    1.4273633   365695 
 3682000   0.79352118   -3.4535967   -2.0244448  0.028546893   -3.4535967    1.4291519   365675 
 3683000    0.7939486   -3.4541686   -2.0240944  0.025870562   -3.4541686    1.4300742   365636 
 3684000   0.79413046   -3.4548972   -2.0243429  0.024751633   -3.4548972    1.4305544   365597 
 3685000   0.79392707   -3.4533133   -2.0229806  0.028665871   -3.4533133    1.4303327   365560 
 3686000   0.79244619   -3.4520073   -2.0242605  0.025279034   -3.4520073    1.4277468   365539 
 3687000   0.79332869   -3.4538505   -2.0242752  0.027055245   -3.4538505    1.4295754   365478 
 3688000   0.79234127   -3.4523585   -2.0244609  0.027148515   -3.4523585    1.4278976   365452 
 3689000   0.79362623   -3.4541051   -2.0236726  0.029600959   -3.4541051    1.4304325   365396 
 3690000   0.79199259   -3.4523842   -2.0247633  0.030382892   -3.4523842    1.4276208   365362 
 3691000   0.79288909   -3.4538058   -2.0243303  0.026368589   -3.4538058    1.4294755   365301 
 3692000   0.79363962   -3.4537676   -2.0226178  0.034547993   -3.4537676    1.4311498   365219 
 3693000   0.79213625   -3.4521602   -2.0235453   0.03145466   -3.4521602    1.4286149   365174 
 3694000   0.79311386   -3.4536773   -2.0231152  0.031392456   -3.4536773    1.4305621   365127 
 3695000   0.79389847   -3.4552235   -2.0231599  0.029406936   -3.4552235    1.4320636   365105 
 3696000   0.79297265   -3.4552109   -2.0245234  0.030164844   -3.4552109    1.4306875   365030 
 3697000   0.79131752   -3.4538239   -2.0257939  0.030667593   -3.4538239    1.4280299   364946 
 3698000   0.79107309   -3.4541972   -2.0262836  0.028529908   -3.4541972    1.4279136   364863 
 3699000   0.79143556   -3.4553916   -2.0267103  0.028778544   -3.4553916    1.4286814   364834 
 3700000    0.7912938   -3.4554736   -2.0268719  0.027141979   -3.4554736    1.4286017   364789 
 3701000    0.7901279   -3.4530429   -2.0262841  0.026227826   -3.4530429    1.4267588   364722 
 3702000   0.79142339   -3.4556036   -2.0261959  0.023027717   -3.4556036    1.4294078   364643 
 3703000   0.79169223   -3.4580253   -2.0277554  0.033516202   -3.4580253    1.4302699   364547 
 3704000   0.79311518   -3.4607634   -2.0277341  0.034028061   -3.4607634    1.4330292   364499 
 3705000   0.79345981   -3.4626023   -2.0286396  0.032678047   -3.4626023    1.4339627   364420 
 3706000   0.79278464   -3.4617666   -2.0288157   0.03789809   -3.4617666    1.4329509   364367 
 3707000    0.7912402   -3.4582215   -2.0279836  0.030078872   -3.4582215    1.4302379   364347 
 3708000   0.79037484   -3.4573829   -2.0284975  0.027635682   -3.4573829    1.4288854   364293 
 3709000    0.7917457   -3.4600949    -2.028519  0.028146471   -3.4600949     1.431576   364239 
 3710000   0.79099101   -3.4600429   -2.0294426  0.028517092   -3.4600429    1.4306002   364140 
 3711000    0.7904931   -3.4611606   -2.0312214  0.027795503   -3.4611606    1.4299392   364079 
 3712000   0.79038622   -3.4617747   -2.0317067  0.031984887   -3.4617747     1.430068   363997 
 3713000   0.79013549   -3.4602636   -2.0303664  0.030871808   -3.4602636    1.4298972   363925 
 3714000   0.78994812   -3.4605959    -2.030747  0.028774413   -3.4605959    1.4298488   363851 
 3715000   0.78967436   -3.4615289   -2.0319438  0.030098274   -3.4615289    1.4295851   363792 
 3716000   0.78877465   -3.4627324   -2.0346269  0.026183834   -3.4627324    1.4281055   363754 
 3717000   0.78940544   -3.4638996   -2.0344751  0.029133699   -3.4638996    1.4294244   363709 
 3718000   0.78809443   -3.4610054   -2.0337469  0.027357708   -3.4610054    1.4272585   363656 
 3719000   0.78874408   -3.4630426   -2.0343994  0.026028318   -3.4630426    1.4286432   363603 
 3720000   0.78841395   -3.4618851    -2.033663   0.02709063   -3.4618851     1.428222   363558 
 3721000   0.78901939   -3.4625536   -2.0330697  0.031285254   -3.4625536    1.4294839   363516 
 3722000   0.78670188   -3.4618199   -2.0362641   0.02812924   -3.4618199    1.4255558   363447 
 3723000   0.78731739   -3.4630771   -2.0360761  0.030755813   -3.4630771     1.427001   363363 
 3724000   0.78828973   -3.4653455   -2.0364642  0.024144973   -3.4653455    1.4288813   363333 
 3725000   0.78693798   -3.4637557   -2.0371558  0.026639113   -3.4637557    1.4265999   363290 
 3726000   0.78677934   -3.4612807   -2.0345835  0.028072671   -3.4612807    1.4266972   363192 
 3727000   0.78758614   -3.4632594   -2.0349695  0.028072929   -3.4632594      1.42829   363159 
 3728000   0.78773433   -3.4629952   -2.0342909  0.032265916   -3.4629952    1.4287043   363122 
 3729000   0.78691867   -3.4627265   -2.0352579  0.029994214   -3.4627265    1.4274687   363060 
 3730000   0.78727442   -3.4641548   -2.0359621  0.023650486   -3.4641548    1.4281926   363040 
 3731000    0.7865555   -3.4614713   -2.0346261   0.02740633   -3.4614713    1.4268452   363051 
 3732000   0.78969172   -3.4662976   -2.0335185  0.030379788   -3.4662976    1.4327791   362989 
 3733000   0.78936196   -3.4661752    -2.033651  0.030504922   -3.4661752    1.4325242   362902 
 3734000   0.78893823   -3.4672728   -2.0351663  0.026984821   -3.4672728    1.4321064   362813 
 3735000   0.78870383   -3.4639811   -2.0323317  0.028397452   -3.4639811    1.4316494   362821 
 3736000   0.78944583   -3.4645831   -2.0314407  0.027493904   -3.4645831    1.4331424   362784 
 3737000   0.78756554   -3.4637159   -2.0335573   0.02801523   -3.4637159    1.4301587   362675 
 3738000   0.78689922   -3.4639115   -2.0346279  0.023055443   -3.4639115    1.4292837   362590 
 3739000    0.7848183   -3.4608368   -2.0349593  0.031754059   -3.4608368    1.4258776   362495 
 3740000   0.78524861   -3.4622821    -2.035418  0.029341419   -3.4622821     1.426864   362443 
 3741000   0.78628677     -3.46357   -2.0344962  0.027842186     -3.46357    1.4290738   362361 
 3742000   0.78675034   -3.4639913   -2.0339448  0.029357255   -3.4639913    1.4300465   362328 
 3743000   0.78551826    -3.462787   -2.0349839  0.027671958    -3.462787    1.4278031   362329 
 3744000   0.78539684   -3.4620855   -2.0344991  0.034203065   -3.4620855    1.4275863   362328 
 3745000   0.78738164    -3.464377   -2.0329815  0.026184052    -3.464377    1.4313955   362277 
 3746000   0.78454737   -3.4605882   -2.0341719   0.03163205   -3.4605882    1.4264163   362233 
 3747000   0.78477758   -3.4635632   -2.0364368  0.028156898   -3.4635632    1.4271264   362159 
 3748000   0.78490092   -3.4627297   -2.0352608  0.026771996   -3.4627297    1.4274689   362129 
 3749000   0.78396849   -3.4609424   -2.0349094  0.020091544   -3.4609424    1.4260331   362063 
 3750000   0.78431857   -3.4621511   -2.0353236  0.023619518   -3.4621511    1.4268275   362023 
 3751000   0.78230968   -3.4604963   -2.0369302  0.026726516   -3.4604963    1.4235661   361923 
 3752000   0.78385284   -3.4622205   -2.0357241  0.028910146   -3.4622205    1.4264964   361892 
 3753000   0.78533574   -3.4646061   -2.0351226  0.033759549   -3.4646061    1.4294834   361819 
 3754000   0.78565425   -3.4653543   -2.0349946   0.03286243   -3.4653543    1.4303597   361744 
 3755000   0.78669012   -3.4656753   -2.0332951  0.033730516   -3.4656753    1.4323802   361710 
 3756000   0.78574958   -3.4645804   -2.0336516  0.030977957   -3.4645804    1.4309288   361644 
 3757000   0.78544859   -3.4655294   -2.0348955  0.028224496   -3.4655294    1.4306339   361580 
 3758000   0.78489768   -3.4661824   -2.0363899  0.025758637   -3.4661824    1.4297925   361539 
 3759000   0.78356778   -3.4640024   -2.0365614  0.029945563   -3.4640024     1.427441   361521 
 3760000   0.78307855   -3.4634583   -2.0366599  0.026264584   -3.4634583    1.4267984   361458 
 3761000   0.78462009   -3.4660844   -2.0363625  0.031375304   -3.4660844    1.4297219   361429 
 3762000   0.78264414   -3.4647674    -2.038354  0.027146897   -3.4647674    1.4264134   361355 
 3763000   0.78234336   -3.4649405   -2.0387003  0.030387708   -3.4649405    1.4262401   361260 
 3764000   0.78258504   -3.4653952    -2.038596  0.028047607   -3.4653952    1.4267992   361230 
 3765000   0.78291626    -3.466153   -2.0385089  0.031304552    -3.466153    1.4276442   361169 
 3766000   0.78412224   -3.4689128    -2.038828  0.031213824   -3.4689128    1.4300848   361108 
 3767000   0.78433006   -3.4683713   -2.0378045  0.028894369   -3.4683713    1.4305668   361082 
 3768000   0.78496854   -3.4693816    -2.037555  0.026814246   -3.4693816    1.4318265   361058 
 3769000   0.78433552   -3.4682209   -2.0372834  0.027602705   -3.4682209    1.4309374   360991 
 3770000   0.78428389    -3.469255   -2.0380827  0.027144639    -3.469255    1.4311723   360908 
 3771000   0.78287784    -3.466794   -2.0380886  0.034256758    -3.466794    1.4287055   360883 
 3772000    0.7823436   -3.4693274   -2.0414149   0.02911004   -3.4693274    1.4279125   360837 
 3773000   0.78251086   -3.4678887   -2.0394492  0.028742472   -3.4678887    1.4284395   360781 
 3774000   0.78355985   -3.4711574   -2.0404461  0.029495876   -3.4711574    1.4307113   360691 
 3775000   0.78335256    -3.469419   -2.0388919  0.032889313    -3.469419    1.4305271   360642 
 3776000   0.78312446   -3.4696998   -2.0395099  0.033515658   -3.4696998    1.4301899   360622 
 3777000   0.78174829   -3.4677596   -2.0398533  0.032542498   -3.4677596    1.4279063   360564 
 3778000   0.78285211   -3.4706943   -2.0404743  0.032521236   -3.4706943      1.43022   360489 
 3779000   0.78329409   -3.4722514   -2.0411247  0.032857795   -3.4722514    1.4311267   360464 
 3780000   0.78217112   -3.4704965   -2.0412629  0.032005961   -3.4704965    1.4292336   360424 
 3781000   0.78039351   -3.4683992   -2.0420022  0.025047235   -3.4683992     1.426397   360320 
 3782000   0.78044502   -3.4698954    -2.043234  0.025506157   -3.4698954    1.4266614   360277 
 3783000   0.78094806   -3.4707427   -2.0430033  0.025630446   -3.4707427    1.4277395   360237 
 3784000   0.78023981   -3.4687072    -2.042223  0.027777252   -3.4687072    1.4264842   360227 
 3785000   0.78114122   -3.4715059   -2.0432784   0.03025595   -3.4715059    1.4282274   360203 
 3786000   0.78222575   -3.4726723    -2.042184   0.02862303   -3.4726723    1.4304883   360133 
 3787000   0.78136374   -3.4714317   -2.0423333   0.03332856   -3.4714317    1.4290985   360086 
 3788000   0.78099753   -3.4719345   -2.0433233  0.029459908   -3.4719345    1.4286112   360040 
 3789000   0.78037703   -3.4706792     -2.04287  0.028701678   -3.4706792    1.4278093   359956 
 3790000   0.78031283   -3.4712825   -2.0430987  0.030583884   -3.4712825    1.4281838   359832 
 3791000   0.78105721   -3.4727029   -2.0429858  0.033648257   -3.4727029     1.429717   359789 
 3792000   0.78113541   -3.4742392   -2.0441127  0.029872158   -3.4742392    1.4301265   359722 
 3793000   0.78222835   -3.4741434   -2.0420159  0.035432233   -3.4741434    1.4321275   359722 
 3794000   0.78164751   -3.4741742   -2.0429988  0.028722385   -3.4741742    1.4311755   359694 
 3795000   0.78072807   -3.4735932   -2.0438468  0.031608108   -3.4735932    1.4297464   359630 
 3796000   0.78065433   -3.4736024   -2.0439672   0.03385957   -3.4736024    1.4296352   359624 
 3797000   0.77842468   -3.4731552   -2.0471909  0.028654706   -3.4731552    1.4259644   359520 
 3798000   0.77762839   -3.4717526   -2.0469932  0.026014509   -3.4717526    1.4247593   359456 
 3799000   0.77777764   -3.4729091   -2.0475988  0.030527441   -3.4729091    1.4253103   359386 
 3800000   0.77826697   -3.4727626   -2.0465833  0.022856325   -3.4727626    1.4261793   359393 
 3801000   0.77863788   -3.4723485   -2.0451719  0.026903609   -3.4723485    1.4271766   359313 
 3802000    0.7790278    -3.472843   -2.0448245  0.021625472    -3.472843    1.4280185   359281 
 3803000   0.77841245   -3.4731105   -2.0459419  0.032401743   -3.4731105    1.4271686   359211 
 3804000   0.78007897   -3.4761042    -2.045673  0.030917077   -3.4761042    1.4304311   359159 
 3805000   0.78146916   -3.4765703   -2.0433625  0.034533568   -3.4765703    1.4332078   359102 
 3806000   0.77942661   -3.4725026   -2.0428219  0.030243177   -3.4725026    1.4296807   359047 
 3807000   0.77929935   -3.4735119   -2.0439173  0.028040669   -3.4735119    1.4295946   359010 
 3808000   0.77758198   -3.4732557   -2.0464896  0.025712721   -3.4732557    1.4267661   358929 
 3809000   0.77795367    -3.475904   -2.0482014  0.028076113    -3.475904    1.4277026   358865 
 3810000   0.77797407   -3.4753002   -2.0474049  0.033171474   -3.4753002    1.4278953   358826 
 3811000   0.77745846   -3.4755822   -2.0483111  0.027176439   -3.4755822    1.4272711   358745 
 3812000   0.77599587   -3.4732539   -2.0484852  0.026658697   -3.4732539    1.4247687   358699 
 3813000   0.77523168   -3.4703334   -2.0467058  0.026258984   -3.4703334    1.4236276   358633 
 3814000   0.77493574   -3.4708965   -2.0476139  0.022201945   -3.4708965    1.4232825   358583 
 3815000   0.77711548   -3.4734625   -2.0461009   0.02937761   -3.4734625    1.4273616   358564 
 3816000    0.7756622   -3.4704713   -2.0455008  0.032967674   -3.4704713    1.4249705   358494 
 3817000   0.77542294   -3.4724522   -2.0475198  0.028468781   -3.4724522    1.4249324   358393 
 3818000   0.77449532   -3.4713782   -2.0479796  0.030215189   -3.4713782    1.4233986   358350 
 3819000   0.77559667   -3.4742338   -2.0483854  0.030262924   -3.4742338    1.4258484   358243 
 3820000    0.7761921   -3.4759172   -2.0485678  0.023412566   -3.4759172    1.4273494   358141 
 3821000   0.77511758   -3.4715277    -2.045987  0.029093409   -3.4715277    1.4255407   358099 
 3822000   0.77573545   -3.4726617   -2.0458771  0.027813111   -3.4726617    1.4267846   358072 
 3823000   0.77545151   -3.4737834   -2.0471785  0.028622102   -3.4737834     1.426605   357986 
 3824000   0.77524076   -3.4748109   -2.0485259  0.035513161   -3.4748109     1.426285   357969 
 3825000   0.77552462   -3.4745932    -2.047479  0.024958604   -3.4745932    1.4271142   357892 
 3826000   0.77463451   -3.4737763    -2.048304  0.033787023   -3.4737763    1.4254723   357893 
 3827000   0.77439542   -3.4743706   -2.0490994  0.032371329   -3.4743706    1.4252712   357833 
 3828000   0.77592793    -3.475333   -2.0469618  0.029394313    -3.475333    1.4283712   357763 
 3829000   0.77579363   -3.4759159   -2.0476082  0.032507782   -3.4759159    1.4283077   357717 
 3830000   0.77502138   -3.4753071   -2.0480622  0.032695197   -3.4753071     1.427245   357627 
 3831000   0.77360007   -3.4738793   -2.0490406  0.029947744   -3.4738793    1.4248387   357574 
 3832000    0.7733799   -3.4758815   -2.0512053  0.031305607   -3.4758815    1.4246762   357513 
 3833000   0.77372204   -3.4762488   -2.0508466  0.028009346   -3.4762488    1.4254022   357489 
 3834000   0.77365055   -3.4752926     -2.05003  0.026566553   -3.4752926    1.4252625   357491 
 3835000   0.77340378   -3.4735274   -2.0483846  0.032726109   -3.4735274    1.4251427   357407 
 3836000   0.77359463   -3.4750471   -2.0492974   0.02887994   -3.4750471    1.4257497   357343 
 3837000    0.7728657   -3.4737795   -2.0492057  0.029996215   -3.4737795    1.4245737   357301 
 3838000   0.77390372   -3.4766519   -2.0498374  0.030440778   -3.4766519    1.4268145   357219 
 3839000   0.77454918   -3.4768233   -2.0486108  0.033814064   -3.4768233    1.4282124   357167 
 3840000   0.77320258    -3.476411   -2.0505219  0.030430024    -3.476411    1.4258891   357127 
 3841000   0.77206199    -3.475948   -2.0518233  0.029341951    -3.475948    1.4241246   357042 
 3842000   0.77095795   -3.4749162   -2.0525531  0.023923936   -3.4749162     1.422363   356973 
 3843000   0.77154522   -3.4762911   -2.0526373  0.031795167   -3.4762911    1.4236539   356921 
 3844000   0.77145456   -3.4775911   -2.0538053  0.028448294   -3.4775911    1.4237858   356846 
 3845000    0.7712111   -3.4783589   -2.0546953  0.026839141   -3.4783589    1.4236636   356764 
 3846000   0.76942072   -3.4750379   -2.0546475  0.034732297   -3.4750379    1.4203904   356756 
 3847000   0.77090829   -3.4789377   -2.0557294  0.028920335   -3.4789377    1.4232083   356738 
 3848000   0.77112545    -3.478634   -2.0548212  0.027423251    -3.478634    1.4238128   356687 
 3849000   0.76896037   -3.4765916   -2.0565057  0.031746229   -3.4765916    1.4200859   356619 
 3850000   0.76952223   -3.4768962   -2.0556452  0.025598511   -3.4768962     1.421251   356587 
 3851000   0.76970531    -3.478066    -2.056126  0.025864051    -3.478066    1.4219401   356499 
 3852000   0.77001599   -3.4799175   -2.0572398  0.023222627   -3.4799175    1.4226777   356458 
 3853000    0.7703278   -3.4804595   -2.0569941  0.023160046   -3.4804595    1.4234654   356405 
 3854000   0.76907557   -3.4785998   -2.0569138  0.026876667   -3.4785998     1.421686   356271 
 3855000   0.77041511     -3.47992   -2.0557299  0.027166986     -3.47992    1.4241902   356264 
 3856000   0.76915822   -3.4797999   -2.0576138  0.033182819   -3.4797999     1.422186   356184 
 3857000   0.77010208   -3.4812414   -2.0571742  0.028608879   -3.4812414    1.4240672   356150 
 3858000    0.7708473   -3.4849815   -2.0593682  0.027597477   -3.4849815    1.4256134   356108 
 3859000   0.77120635   -3.4842268   -2.0578172  0.031705642   -3.4842268    1.4264096   356075 
 3860000    0.7699958   -3.4833359   -2.0589453  0.032035882   -3.4833359    1.4243906   356020 
 3861000   0.76951238   -3.4829496   -2.0593093  0.027068049   -3.4829496    1.4236403   355984 
 3862000   0.76919818   -3.4839989    -2.060764  0.027900071   -3.4839989    1.4232349   355940 
 3863000   0.77004764   -3.4861418    -2.061171  0.032382043   -3.4861418    1.4249708   355899 
 3864000   0.76910246   -3.4866497    -2.063188  0.029036815   -3.4866497    1.4234617   355839 
 3865000   0.76957555    -3.485929   -2.0614556  0.029129634    -3.485929    1.4244734   355805 
 3866000   0.77016391    -3.487685    -2.061866  0.031446129    -3.487685    1.4258189   355741 
 3867000   0.77242277   -3.4893918   -2.0593387   0.03420709   -3.4893918     1.430053   355728 
 3868000   0.76978231   -3.4869277   -2.0614346  0.030878195   -3.4869277    1.4254931   355646 
 3869000   0.76834065   -3.4838731   -2.0608256  0.033242269   -3.4838731    1.4230475   355590 
 3870000    0.7679265   -3.4846905    -2.062274  0.028051464   -3.4846905    1.4224165   355556 
 3871000   0.76876133   -3.4881405   -2.0639494  0.027502376   -3.4881405    1.4241911   355499 
 3872000   0.76715604   -3.4861608   -2.0647277  0.028816505   -3.4861608    1.4214331   355445 
 3873000   0.76674256    -3.485021   -2.0640062  0.028600827    -3.485021    1.4210148   355358 
 3874000   0.76786384   -3.4857344   -2.0625214  0.031277852   -3.4857344    1.4232131   355328 
 3875000   0.76773413   -3.4838666   -2.0606977  0.034338568   -3.4838666    1.4231689   355279 
 3876000   0.76917974   -3.4866656   -2.0606042  0.029796151   -3.4866656    1.4260614   355226 
 3877000   0.76786445   -3.4842291     -2.06051   0.03409649   -3.4842291     1.423719   355202 
 3878000   0.76879601   -3.4853233   -2.0596081  0.029086322   -3.4853233    1.4257152   355135 
 3879000   0.76840322   -3.4848778   -2.0597024    0.0297604   -3.4848778    1.4251754   355088 
 3880000   0.76810828   -3.4851055     -2.06014  0.023923366   -3.4851055    1.4249654   355004 
 3881000   0.76652351   -3.4825058   -2.0601678  0.029224591   -3.4825058    1.4223379   354926 
 3882000    0.7683573   -3.4871874   -2.0611333  0.030615169   -3.4871874    1.4260541   354848 
 3883000   0.76769064   -3.4844584   -2.0597661  0.030037053   -3.4844584    1.4246923   354879 
 3884000   0.76775907   -3.4837032   -2.0587755  0.026831389   -3.4837032    1.4249277   354852 
 3885000   0.76628405   -3.4821443   -2.0596135  0.034138338   -3.4821443    1.4225309   354767 
 3886000   0.76737862   -3.4840143   -2.0592547  0.024203191   -3.4840143    1.4247596   354718 
 3887000   0.76631023   -3.4814058   -2.0584654  0.031290932   -3.4814058    1.4229405   354677 
 3888000   0.76664944   -3.4829334   -2.0592185  0.021627962   -3.4829334    1.4237148   354641 
 3889000   0.76594876   -3.4811189   -2.0582881  0.031809037   -3.4811189    1.4228309   354537 
 3890000   0.76697258   -3.4834499   -2.0585242  0.031638097   -3.4834499    1.4249257   354489 
 3891000   0.76625959   -3.4831327   -2.0591863  0.031934359   -3.4831327    1.4239465   354403 
 3892000   0.76626306   -3.4820655   -2.0579317  0.026771563   -3.4820655    1.4241337   354358 
 3893000   0.76491853   -3.4803996   -2.0586002  0.029370085   -3.4803996    1.4217994   354317 
 3894000   0.76535218   -3.4809838    -2.058045  0.024683598   -3.4809838    1.4229388   354234 
 3895000   0.76309874   -3.4775037   -2.0586143  0.029215489   -3.4775037    1.4188894   354199 
 3896000   0.76619728   -3.4822732   -2.0573972  0.030126825   -3.4822732     1.424876   354143 
 3897000   0.76507057   -3.4808069   -2.0578534  0.027124615   -3.4808069    1.4229535   354100 
 3898000   0.76446938   -3.4783361     -2.05632  0.027034194   -3.4783361     1.422016   354055 
 3899000   0.76543678   -3.4798493   -2.0556838  0.029596817   -3.4798493    1.4241655   353968 
 3900000   0.76486753   -3.4784879   -2.0551363  0.036417457   -3.4784879    1.4233516   353907 
 3901000   0.76561336   -3.4807116   -2.0558191  0.029322962   -3.4807116    1.4248925   353869 
 3902000   0.76663881    -3.480079    -2.053036  0.028518866    -3.480079     1.427043   353809 
 3903000   0.76510374   -3.4782696   -2.0538988  0.027833068   -3.4782696    1.4243708   353763 
 3904000   0.76289189   -3.4769561   -2.0562774  0.032594898   -3.4769561    1.4206787   353657 
 3905000   0.76304477   -3.4761832   -2.0550028  0.025304382   -3.4761832    1.4211804   353603 
 3906000   0.76225629   -3.4763504   -2.0563413  0.026345056   -3.4763504     1.420009   353529 
 3907000   0.76268695   -3.4778384   -2.0567015  0.021172265   -3.4778384    1.4211369   353448 
 3908000   0.76065596   -3.4750331   -2.0575082  0.032293222   -3.4750331     1.417525   353405 
 3909000   0.76251718    -3.478114   -2.0569074   0.02454408    -3.478114    1.4212066   353352 
 3910000   0.76137594   -3.4769287   -2.0577447  0.025017081   -3.4769287    1.4191839   353326 
 3911000   0.75988783   -3.4750448   -2.0583139  0.027193699   -3.4750448    1.4167309   353246 
 3912000   0.76140486   -3.4764097   -2.0566012   0.02589909   -3.4764097    1.4198084   353184 
 3913000   0.76197743   -3.4753556   -2.0543266  0.024521022   -3.4753556     1.421029   353146 
 3914000   0.76316832   -3.4775415   -2.0540498  0.023191033   -3.4775415    1.4234918   353086 
 3915000   0.76092406   -3.4758361    -2.056265  0.025897986   -3.4758361    1.4195711   353020 
 3916000   0.76126725   -3.4743956    -2.053967  0.029732726   -3.4743956    1.4204286   352966 
 3917000   0.76182884   -3.4759735   -2.0541546   0.02685849   -3.4759735    1.4218188   352881 
 3918000   0.76104216   -3.4754402   -2.0549647  0.031248073   -3.4754402    1.4204754   352850 
 3919000   0.76118116   -3.4757769   -2.0549857  0.026981274   -3.4757769    1.4207913   352836 
 3920000   0.76140359   -3.4778414   -2.0564093  0.026139147   -3.4778414     1.421432   352780 
 3921000   0.76116787   -3.4772021   -2.0561215  0.021991822   -3.4772021    1.4210806   352758 
 3922000   0.76014148   -3.4748567   -2.0554267  0.026415628   -3.4748567    1.4194299   352692 
 3923000   0.76034729   -3.4761233   -2.0559789  0.028061351   -3.4761233    1.4201444   352610 
 3924000   0.76149075   -3.4795131   -2.0570393  0.025872972   -3.4795131    1.4224738   352562 
 3925000   0.76127104   -3.4778567   -2.0555311  0.030172384   -3.4778567    1.4223256   352497 
 3926000    0.7626021    -3.480869   -2.0559555  0.029880894    -3.480869    1.4249135   352472 
 3927000   0.76355748   -3.4833249   -2.0563389  0.027114504   -3.4833249    1.4269861   352401 
 3928000   0.76298652   -3.4813861   -2.0553983  0.031158535   -3.4813861    1.4259878   352384 
 3929000   0.76240396   -3.4806949   -2.0555249  0.033564656   -3.4806949      1.42517   352317 
 3930000   0.76294925   -3.4824403   -2.0559999  0.034425761   -3.4824403    1.4264404   352255 
 3931000    0.7620565   -3.4831759   -2.0582186  0.025251667   -3.4831759    1.4249573   352209 
 3932000   0.76109954     -3.48237   -2.0589718  0.030312752     -3.48237    1.4233983   352152 
 3933000   0.75952738   -3.4813717   -2.0606998  0.029020319   -3.4813717    1.4206719   352099 
 3934000   0.75969041   -3.4823804   -2.0612341  0.033967015   -3.4823804    1.4211463   352057 
 3935000   0.75917814    -3.482786   -2.0624406  0.030212736    -3.482786    1.4203453   352018 
 3936000   0.75989852   -3.4831642   -2.0612853  0.029185671   -3.4831642    1.4218789   351972 
 3937000   0.75955946   -3.4828554   -2.0613848  0.032243847   -3.4828554    1.4214706   351916 
 3938000   0.76075514   -3.4838694   -2.0600923  0.029191098   -3.4838694    1.4237771   351899 
 3939000   0.76041333   -3.4832938   -2.0599582  0.030294827   -3.4832938    1.4233356   351850 
 3940000   0.75950852   -3.4828201   -2.0608023  0.028119251   -3.4828201    1.4220178   351757 
 3941000   0.75827807   -3.4807255   -2.0609065  0.027480835   -3.4807255     1.419819   351731 
 3942000   0.75817619   -3.4813846   -2.0616756  0.028831226   -3.4813846     1.419709   351711 
 3943000    0.7574271   -3.4802965    -2.061599  0.028016888   -3.4802965    1.4186975   351614 
 3944000   0.75818935   -3.4823569    -2.061763  0.026449722   -3.4823569    1.4205939   351498 
 3945000   0.75832225   -3.4835091    -2.062464  0.028350701   -3.4835091    1.4210451   351448 
 3946000   0.75828787   -3.4821941   -2.0612701  0.027576632   -3.4821941     1.420924   351462 
 3947000   0.75825948   -3.4824206    -2.061295  0.033613745   -3.4824206    1.4211256   351399 
 3948000   0.75785198   -3.4822431   -2.0617883  0.027947716   -3.4822431    1.4204548   351376 
 3949000   0.75936063    -3.483471   -2.0600345  0.030689088    -3.483471    1.4234365   351338 
 3950000   0.76055295   -3.4860987   -2.0601147  0.026434284   -3.4860987     1.425984   351261 
 3951000   0.75903613   -3.4830998   -2.0596477  0.033014604   -3.4830998    1.4234521   351184 
 3952000   0.75966954   -3.4869823   -2.0622572  0.026028234   -3.4869823    1.4247252   351163 
 3953000   0.75956111   -3.4879954   -2.0632423   0.03243326   -3.4879954    1.4247531   351106 
 3954000   0.75869879    -3.485166   -2.0619494  0.029710583    -3.485166    1.4232166   351086 
 3955000   0.75848817   -3.4851307   -2.0620821  0.031417117   -3.4851307    1.4230485   351030 
 3956000   0.75644483   -3.4803136   -2.0608803  0.030648467   -3.4803136    1.4194332   350976 
 3957000   0.75840026    -3.485496   -2.0621339  0.024763041    -3.485496    1.4233621   350912 
 3958000   0.75737082   -3.4849658   -2.0633211  0.029058322   -3.4849658    1.4216447   350859 
 3959000   0.75827674   -3.4851975   -2.0615399   0.02714796   -3.4851975    1.4236576   350782 
 3960000   0.75743573   -3.4824225   -2.0600884  0.025685636   -3.4824225    1.4223341   350719 
 3961000    0.7578505   -3.4823595   -2.0590923  0.034082401   -3.4823595    1.4232672   350681 
 3962000   0.75692674   -3.4812078   -2.0594889  0.030796334   -3.4812078    1.4217188   350635 
 3963000    0.7566076   -3.4828684   -2.0616275  0.030864054   -3.4828684     1.421241   350605 
 3964000   0.75660775   -3.4824874    -2.061161  0.026505159   -3.4824874    1.4213264   350584 
 3965000   0.75760505   -3.4831377   -2.0598485  0.025138665   -3.4831377    1.4232892   350562 
 3966000   0.75769831    -3.482926   -2.0593966  0.028076322    -3.482926    1.4235294   350546 
 3967000   0.75632713   -3.4831544   -2.0619132  0.027725395   -3.4831544    1.4212411   350475 
 3968000    0.7559415   -3.4797579   -2.0592617  0.038529437   -3.4797579    1.4204962   350480 
 3969000   0.75722173   -3.4830264   -2.0597346  0.032165369   -3.4830264    1.4232918   350384 
 3970000   0.75731903   -3.4835426   -2.0599542  0.029533627   -3.4835426    1.4235884   350356 
 3971000   0.75702257   -3.4829893   -2.0597592  0.029974972   -3.4829893    1.4232302   350307 
 3972000   0.75608524   -3.4815986   -2.0599562   0.02487412   -3.4815986    1.4216425   350264 
 3973000   0.75761145   -3.4834995   -2.0589019  0.028605484   -3.4834995    1.4245976   350243 
 3974000   0.75694273   -3.4828389   -2.0592671  0.029046961   -3.4828389    1.4235718   350186 
 3975000   0.75619195   -3.4831116     -2.06057  0.027141961   -3.4831116    1.4225417   350092 
 3976000   0.75561417   -3.4817584   -2.0601412  0.030389141   -3.4817584    1.4216172   350052 
 3977000   0.75591864   -3.4832195   -2.0608955  0.030860164   -3.4832195    1.4223241   350019 
 3978000   0.75776784   -3.4844384    -2.058533  0.028559322   -3.4844384    1.4259054   349994 
 3979000   0.75530325   -3.4813109   -2.0597588  0.033615667   -3.4813109     1.421552   349924 
 3980000   0.75537145   -3.4815598    -2.059721  0.031488387   -3.4815598    1.4218388   349885 
 3981000    0.7563779   -3.4837737   -2.0597148  0.028013535   -3.4837737    1.4240589   349805 
 3982000   0.75503275   -3.4824359   -2.0606047  0.028411207   -3.4824359    1.4218312   349730 
 3983000   0.75475839   -3.4835817   -2.0620355  0.030263056   -3.4835817    1.4215462   349673 
 3984000   0.75433792   -3.4825267   -2.0615001  0.028456967   -3.4825267    1.4210266   349606 
 3985000   0.75387263   -3.4800077   -2.0598699  0.026973113   -3.4800077    1.4201379   349609 
 3986000   0.75441937   -3.4812615   -2.0599393  0.030119067   -3.4812615    1.4213223   349571 
 3987000   0.75494591   -3.4810268   -2.0585905  0.031166983   -3.4810268    1.4224364   349541 
 3988000   0.75559894   -3.4821663   -2.0584873  0.025126622   -3.4821663     1.423679   349538 
 3989000   0.75560302   -3.4830554   -2.0590428  0.032153842   -3.4830554    1.4240126   349458 
 3990000   0.75599777   -3.4822755    -2.057519  0.032681057   -3.4822755    1.4247565   349458 
 3991000   0.75523449   -3.4825712   -2.0592776  0.027855242   -3.4825712    1.4232936   349464 
 3992000   0.75501096   -3.4818463   -2.0586522  0.033252666   -3.4818463    1.4231941   349385 
 3993000   0.75464405   -3.4810601   -2.0584558  0.029433328   -3.4810601    1.4226043   349360 
 3994000   0.75400618    -3.479542   -2.0580303  0.023188532    -3.479542    1.4215117   349333 
 3995000   0.75335013   -3.4799892   -2.0595762  0.022236786   -3.4799892    1.4204131   349299 
 3996000   0.75356306   -3.4805463   -2.0596748  0.023580397   -3.4805463    1.4208715   349285 
 3997000   0.75347877    -3.481308   -2.0603799  0.028481764    -3.481308    1.4209282   349232 
 3998000   0.75352246   -3.4795564   -2.0585377  0.031237493   -3.4795564    1.4210187   349230 
 3999000   0.75315129   -3.4796896   -2.0592407  0.028093754   -3.4796896    1.4204489   349198 
 4000000   0.75354296   -3.4815441    -2.060153  0.032328289   -3.4815441    1.4213911   349148 
 4001000   0.75391619   -3.4812763   -2.0590508  0.030346926   -3.4812763    1.4222255   349116 
 4002000   0.75434372   -3.4836346   -2.0602438  0.028611058   -3.4836346    1.4233908   349028 
 4003000    0.7533357   -3.4818411   -2.0600835  0.030637785   -3.4818411    1.4217575   348962 
 4004000   0.75327462   -3.4808953   -2.0591797  0.032309126   -3.4808953    1.4217156   348944 
 4005000   0.75426034   -3.4819607   -2.0582704  0.028960843   -3.4819607    1.4236903   348916 
 4006000   0.75284348   -3.4796247   -2.0583603   0.03395815   -3.4796247    1.4212644   348855 
 4007000   0.75236675   -3.4785699   -2.0579041  0.029442521   -3.4785699    1.4206657   348781 
 4008000   0.75271395   -3.4794557   -2.0577104  0.029835699   -3.4794557    1.4217453   348677 
 4009000   0.75274382   -3.4809713   -2.0591206  0.028590588   -3.4809713    1.4218506   348665 
 4010000   0.75402106   -3.4817513   -2.0572307  0.025784106   -3.4817513    1.4245206   348602 
 4011000   0.75296708   -3.4802522   -2.0575351  0.030632893   -3.4802522    1.4227171   348556 
 4012000   0.75304036   -3.4819809   -2.0588191  0.033834745   -3.4819809    1.4231618   348481 
 4013000   0.75335774   -3.4812093   -2.0572515  0.031430318   -3.4812093    1.4239578   348433 
 4014000   0.75299367   -3.4790845   -2.0555861  0.029615237   -3.4790845    1.4234984   348377 
 4015000   0.75210174   -3.4784979   -2.0564979  0.029328637   -3.4784979        1.422   348331 
 4016000   0.75069008   -3.4782424   -2.0586466  0.025085142   -3.4782424    1.4195959   348266 
 4017000   0.75044899   -3.4779137   -2.0588022  0.028936054   -3.4779137    1.4191114   348273 
 4018000   0.75168523   -3.4803233   -2.0585802  0.026734679   -3.4803233    1.4217431   348201 
 4019000    0.7510015   -3.4793933   -2.0587965     0.030122   -3.4793933    1.4205968   348165 
 4020000   0.74971517   -3.4757046   -2.0574432  0.029217586   -3.4757046    1.4182613   348141 
 4021000   0.75061586   -3.4770422   -2.0567996  0.024859534   -3.4770422    1.4202426   348073 
 4022000   0.75141768   -3.4783722   -2.0562652  0.030952313   -3.4783722     1.422107   347988 
 4023000   0.75002958   -3.4757479   -2.0560313  0.026363381   -3.4757479    1.4197166   347930 
 4024000   0.75046852    -3.478199    -2.057333  0.026569462    -3.478199     1.420866   347852 
 4025000   0.75215391   -3.4796995   -2.0554338  0.030984307   -3.4796995    1.4242657   347801 
 4026000   0.75071793   -3.4763716   -2.0545593  0.032021606   -3.4763716    1.4218123   347736 
 4027000   0.75137283    -3.478986    -2.055745  0.029343043    -3.478986    1.4232409   347690 
 4028000   0.75002719   -3.4769044   -2.0560244   0.02684036   -3.4769044      1.42088   347644 
 4029000   0.74933601   -3.4771872   -2.0572858  0.030425804   -3.4771872    1.4199014   347563 
 4030000   0.74923962   -3.4771153   -2.0570738  0.026754872   -3.4771153    1.4200416   347484 
 4031000   0.74875176   -3.4748384   -2.0555581  0.029188677   -3.4748384    1.4192803   347444 
 4032000   0.74988813   -3.4769841   -2.0554352  0.025118925   -3.4769841    1.4215489   347416 
 4033000   0.74954829   -3.4767342   -2.0556946   0.02753656   -3.4767342    1.4210396   347383 
 4034000   0.74925692   -3.4766108   -2.0558373  0.026616478   -3.4766108    1.4207735   347313 
 4035000   0.74931129    -3.476142   -2.0550117  0.027208672    -3.476142    1.4211303   347251 
 4036000   0.75168248   -3.4802987    -2.054544   0.02947264   -3.4802987    1.4257547   347220 
 4037000   0.75061472   -3.4788937   -2.0549181  0.032030747   -3.4788937    1.4239755   347160 
 4038000   0.75030054   -3.4770168   -2.0535758  0.032932649   -3.4770168     1.423441   347145 
 4039000   0.75004221   -3.4783578   -2.0549969  0.027369987   -3.4783578    1.4233609   347045 
 4040000   0.74826754   -3.4774583   -2.0571623  0.030714221   -3.4774583     1.420296   346971 
 4041000   0.74760375   -3.4788469   -2.0597822  0.028456423   -3.4788469    1.4190647   346964 
 4042000   0.74871862   -3.4805174   -2.0589965   0.02548803   -3.4805174    1.4215209   346881 
 4043000   0.74631346    -3.477089   -2.0600079  0.028568781    -3.477089    1.4170811   346850 
 4044000   0.74767619   -3.4781047   -2.0582314  0.024942708   -3.4781047    1.4198733   346800 
 4045000   0.74743314   -3.4768617   -2.0573476  0.032294896   -3.4768617    1.4195141   346775 
 4046000   0.74893038   -3.4812949   -2.0584161  0.026878596   -3.4812949    1.4228787   346648 
 4047000   0.74856686   -3.4813914   -2.0589612  0.031280376   -3.4813914    1.4224302   346589 
 4048000   0.74763184   -3.4792345   -2.0583761  0.034681286   -3.4792345    1.4208584   346539 
 4049000   0.74879885   -3.4813898   -2.0577918   0.03533977   -3.4813898     1.423598   346412 
 4050000   0.74845023   -3.4801804   -2.0569247  0.028437847   -3.4801804    1.4232557   346334 
 4051000    0.7470477   -3.4786038   -2.0578224  0.032790381   -3.4786038    1.4207814   346287 
 4052000   0.74798665   -3.4810658   -2.0583384  0.027468576   -3.4810658    1.4227274   346248 
 4053000   0.74633504   -3.4779861   -2.0581008  0.030419731   -3.4779861    1.4198853   346175 
 4054000   0.74663106   -3.4800689   -2.0594563  0.027734892   -3.4800689    1.4206126   346135 
 4055000    0.7468986   -3.4788889    -2.057796  0.029522682   -3.4788889    1.4210929   346142 
 4056000   0.74779124   -3.4804127   -2.0574446  0.032028404   -3.4804127    1.4229681   346099 
 4057000   0.74660423    -3.481184   -2.0600887  0.027998046    -3.481184    1.4210953   346005 
 4058000   0.74640365   -3.4779078   -2.0572559  0.030468135   -3.4779078    1.4206519   346020 
 4059000   0.74646824   -3.4780776   -2.0570851  0.026203214   -3.4780776    1.4209925   345967 
 4060000   0.74662675   -3.4778762   -2.0564752  0.031257901   -3.4778762    1.4214011   345941 
 4061000   0.74664045   -3.4778143   -2.0562105  0.027318977   -3.4778143    1.4216039   345898 
 4062000   0.74588085   -3.4783133   -2.0579463  0.027308969   -3.4783133     1.420367   345847 
 4063000    0.7466287   -3.4800441   -2.0580885  0.028828757   -3.4800441    1.4219556   345807 
 4064000   0.74602233   -3.4796244    -2.058425  0.023144616   -3.4796244    1.4211994   345710 
 4065000   0.74811486    -3.480503   -2.0551647  0.027582875    -3.480503    1.4253383   345673 
 4066000   0.74526659   -3.4766782   -2.0566186  0.029073208   -3.4766782    1.4200596   345637 
 4067000   0.74617361   -3.4803052   -2.0582829   0.02385864   -3.4803052    1.4220223   345580 
 4068000   0.74465991   -3.4768235   -2.0576366  0.023753394   -3.4768235    1.4191869   345568 
 4069000   0.74362414   -3.4766045   -2.0592563  0.024045692   -3.4766045    1.4173482   345535 
 4070000   0.74412859   -3.4761238   -2.0575062  0.023591787   -3.4761238    1.4186176   345460 
 4071000    0.7439198   -3.4774035    -2.058839  0.022790771   -3.4774035    1.4185645   345376 
 4072000    0.7446491   -3.4790589   -2.0586513  0.031221043   -3.4790589    1.4204076   345266 
 4073000   0.74403578   -3.4791375   -2.0596902  0.030178516   -3.4791375    1.4194474   345215 
 4074000   0.74453921   -3.4790556    -2.058442  0.027159888   -3.4790556    1.4206136   345165 
 4075000   0.74529751   -3.4811918   -2.0589665  0.026870616   -3.4811918    1.4222252   345125 
 4076000   0.74510351   -3.4780357   -2.0560859  0.029216895   -3.4780357    1.4219498   345102 
 4077000    0.7473427   -3.4833496    -2.056833  0.025753313   -3.4833496    1.4265166   345031 
 4078000   0.74421428   -3.4786973   -2.0580204  0.033543339   -3.4786973    1.4206768   344999 
 4079000     0.745225   -3.4804686   -2.0576314  0.029041095   -3.4804686    1.4228372   344943 
 4080000   0.74527219   -3.4823618    -2.059352  0.028149515   -3.4823618    1.4230098   344923 
 4081000   0.74429505   -3.4823165   -2.0608427  0.026288224   -3.4823165    1.4214738   344843 
 4082000   0.74357733   -3.4825551   -2.0620401  0.026511711   -3.4825551     1.420515   344743 
 4083000   0.74306322   -3.4813604    -2.061531  0.028667762   -3.4813604    1.4198294   344671 
 4084000   0.74434288   -3.4832233    -2.060726  0.030030694   -3.4832233    1.4224974   344617 
 4085000   0.74360617   -3.4832493   -2.0619371  0.026435674   -3.4832493    1.4213122   344563 
 4086000    0.7432622   -3.4817459   -2.0608272  0.031343772   -3.4817459    1.4209186   344499 
 4087000   0.74330591   -3.4808609   -2.0596483  0.032314181   -3.4808609    1.4212126   344448 
 4088000   0.74322196   -3.4830164    -2.061659  0.028629796   -3.4830164    1.4213575   344374 
 4089000    0.7438472   -3.4864749    -2.063587  0.026049995   -3.4864749    1.4228879   344293 
 4090000   0.74291778   -3.4853235   -2.0639535  0.026448491   -3.4853235    1.4213701   344230 
 4091000   0.74269976   -3.4833673    -2.062146  0.030408126   -3.4833673    1.4212213   344165 
 4092000   0.74219857   -3.4820792   -2.0617262  0.034421788   -3.4820792     1.420353   344143 
 4093000   0.74335053   -3.4845703     -2.06193   0.02432167   -3.4845703    1.4226402   344123 
 4094000   0.74199653   -3.4834926   -2.0633694  0.026528882   -3.4834926    1.4201232   344105 
 4095000   0.74229462   -3.4841318   -2.0633555  0.029710548   -3.4841318    1.4207763   344085 
 4096000   0.74142599   -3.4817317   -2.0624736  0.033644255   -3.4817317    1.4192581   344050 
 4097000   0.74403878   -3.4870815   -2.0626356  0.029287159   -3.4870815    1.4244459   344005 
 4098000   0.74149117   -3.4831121    -2.063428    0.0307686   -3.4831121    1.4196841   343977 
 4099000   0.74109735   -3.4822508   -2.0631805  0.022688471   -3.4822508    1.4190703   343943 
 4100000   0.73993716   -3.4805578   -2.0634371  0.024415905   -3.4805578    1.4171207   343877 
 4101000   0.73917792     -3.47974   -2.0639498  0.029238012     -3.47974    1.4157901   343847 
 4102000   0.74266974   -3.4843074    -2.061763  0.026300626   -3.4843074    1.4225444   343831 
 4103000   0.74294322   -3.4839009   -2.0606216  0.029899135   -3.4839009    1.4232793   343780 
 4104000   0.74272331   -3.4819255    -2.059146  0.028845065   -3.4819255    1.4227794   343799 
 4105000   0.74085885   -3.4777063   -2.0583374  0.030973335   -3.4777063    1.4193688   343760 
 4106000   0.74138308   -3.4798596   -2.0591641   0.02425517   -3.4798596    1.4206955   343682 
 4107000   0.73936605   -3.4762258   -2.0591769  0.026880721   -3.4762258    1.4170489   343629 
 4108000   0.74014219   -3.4786062   -2.0598799  0.025772236   -3.4786062    1.4187263   343583 
 4109000   0.74168233    -3.480288   -2.0585888  0.026210342    -3.480288    1.4216992   343578 
 4110000   0.74046731   -3.4800813    -2.060426  0.026991519   -3.4800813    1.4196553   343509 
 4111000    0.7400114   -3.4803286   -2.0612789  0.027541494   -3.4803286    1.4190497   343444 
 4112000    0.7397803   -3.4787892   -2.0599596  0.032778454   -3.4787892    1.4188296   343390 
 4113000   0.73954453   -3.4792616   -2.0607768  0.028868597   -3.4792616    1.4184849   343364 
 4114000   0.73917585   -3.4781436   -2.0602213  0.026256931   -3.4781436    1.4179222   343329 
 4115000   0.73790424   -3.4757786   -2.0600812  0.032536503   -3.4757786    1.4156974   343277 
 4116000   0.73914013   -3.4779893   -2.0596234  0.027778226   -3.4779893     1.418366   343205 
 4117000   0.74014384   -3.4803568   -2.0597709  0.031975893   -3.4803568    1.4205859   343134 
 4118000   0.73936551   -3.4809506   -2.0616394  0.026674566   -3.4809506    1.4193113   343081 
 4119000   0.73926978   -3.4807595   -2.0616113  0.026829103   -3.4807595    1.4191482   343076 
 4120000   0.74112153   -3.4823735   -2.0594632  0.027542417   -3.4823735    1.4229103   343026 
 4121000    0.7390417   -3.4798631   -2.0605528   0.03120397   -3.4798631    1.4193102   342931 
 4122000   0.74048212   -3.4831199   -2.0608568  0.028115986   -3.4831199    1.4222631   342886 
 4123000   0.73898442   -3.4809934   -2.0615945  0.027675756   -3.4809934    1.4193989   342883 
 4124000   0.74000366   -3.4842168   -2.0628312  0.021936007   -3.4842168    1.4213856   342876 
 4125000   0.74036612   -3.4835773   -2.0613794   0.03007113   -3.4835773     1.422198   342848 
 4126000   0.73965871   -3.4806111   -2.0595565  0.035785306   -3.4806111    1.4210546   342796 
 4127000    0.7390522   -3.4800843   -2.0600086  0.024853115   -3.4800843    1.4200758   342751 
 4128000    0.7395841   -3.4814743   -2.0600738  0.026529631   -3.4814743    1.4214005   342678 
 4129000   0.73915591    -3.479056   -2.0585364  0.031754072    -3.479056    1.4205196   342692 
 4130000   0.73818122   -3.4785771   -2.0596492  0.026621883   -3.4785771    1.4189279   342624 
 4131000    0.7393101   -3.4806493   -2.0593274  0.025454871   -3.4806493    1.4213219   342570 
 4132000   0.73814983   -3.4798723   -2.0604868  0.035928536   -3.4798723    1.4193854   342499 
 4133000   0.73875954   -3.4813672   -2.0607554   0.03214623   -3.4813672    1.4206118   342486 
 4134000   0.73855277   -3.4805067   -2.0600893  0.029338984   -3.4805067    1.4204174   342437 
 4135000   0.73935338   -3.4831449   -2.0610922  0.028991809   -3.4831449    1.4220527   342414 
 4136000   0.73847987   -3.4803335   -2.0598489  0.030744182   -3.4803335    1.4204846   342387 
 4137000   0.73743272   -3.4774741   -2.0588338  0.027606766   -3.4774741    1.4186403   342346 
 4138000   0.73807462   -3.4778038   -2.0576673   0.02393018   -3.4778038    1.4201364   342283 
 4139000   0.73930872   -3.4817667   -2.0589439  0.026875886   -3.4817667    1.4228228   342208 
 4140000   0.73806641   -3.4816708   -2.0608735  0.033799285   -3.4816708    1.4207973   342120 
 4141000   0.73699945   -3.4804451   -2.0616147  0.028448032   -3.4804451    1.4188304   342099 
 4142000   0.73680676   -3.4798687    -2.061459  0.025831202   -3.4798687    1.4184097   342111 
 4143000   0.73648698   -3.4794606   -2.0611897  0.024774021   -3.4794606    1.4182709   341996 
 4144000   0.73558662   -3.4766843   -2.0600851  0.027333143   -3.4766843    1.4165991   341981 
 4145000   0.73635339   -3.4786935   -2.0604933  0.026365641   -3.4786935    1.4182002   341951 
 4146000   0.73677642   -3.4787532   -2.0596428  0.027287594   -3.4787532    1.4191104   341928 
 4147000   0.73582263   -3.4776031   -2.0603796  0.025273761   -3.4776031    1.4172236   341940 
 4148000   0.73621479   -3.4788385   -2.0608224  0.026555268   -3.4788385    1.4180162   341931 
 4149000    0.7373883   -3.4807265   -2.0601924  0.027958215   -3.4807265    1.4205341   341869 
 4150000   0.73742671    -3.481136    -2.060212   0.03027284    -3.481136    1.4209239   341793 
 4151000   0.73762195   -3.4824384   -2.0609261  0.027258231   -3.4824384    1.4215122   341742 
 4152000    0.7375241   -3.4804431   -2.0587825  0.032715758   -3.4804431    1.4216606   341661 
 4153000   0.73713751   -3.4805782   -2.0595754   0.02882263   -3.4805782    1.4210028   341640 
 4154000   0.73668723   -3.4806972   -2.0605043  0.025741514   -3.4806972     1.420193   341626 
 4155000   0.73892826   -3.4844469   -2.0598377  0.025931541   -3.4844469    1.4246092   341603 
 4156000   0.73617674   -3.4808625   -2.0611966  0.029950236   -3.4808625     1.419666   341516 
 4157000   0.73711794   -3.4837055   -2.0619164  0.024740752   -3.4837055    1.4217891   341442 
 4158000    0.7361498   -3.4828158   -2.0627153  0.027748489   -3.4828158    1.4201005   341399 
 4159000   0.73467837   -3.4817223   -2.0639911  0.028251451   -3.4817223    1.4177313   341286 
 4160000   0.73412971   -3.4811207    -2.064141   0.02489818   -3.4811207    1.4169797   341212 
 4161000   0.73502645    -3.480986   -2.0621049  0.026667783    -3.480986    1.4188811   341171 
 4162000   0.73637226   -3.4864995   -2.0647121  0.026572066   -3.4864995    1.4217874   341097 
 4163000   0.73688734   -3.4867162   -2.0638467  0.033938146   -3.4867162    1.4228695   341076 
 4164000   0.73647096   -3.4868649   -2.0645283  0.033868893   -3.4868649    1.4223365   341011 
 4165000    0.7372894   -3.4878277     -2.06366  0.033810384   -3.4878277    1.4241678   340951 
 4166000   0.73576422   -3.4854687   -2.0639635  0.026050788   -3.4854687    1.4215052   340883 
 4167000   0.73616924   -3.4885058   -2.0659177  0.025791807   -3.4885058    1.4225882   340811 
 4168000   0.73535921   -3.4864708   -2.0650518  0.030418366   -3.4864708    1.4214191   340716 
 4169000   0.73425469   -3.4841856   -2.0647974  0.029138537   -3.4841856    1.4193882   340691 
 4170000   0.73401789   -3.4844127   -2.0652739  0.029920057   -3.4844127    1.4191388   340641 
 4171000   0.73391073   -3.4856225   -2.0663993  0.024745559   -3.4856225    1.4192232   340571 
 4172000   0.73317316   -3.4856051   -2.0675167  0.024749694   -3.4856051    1.4180884   340501 
 4173000   0.73429233   -3.4884453   -2.0680337  0.022650291   -3.4884453    1.4204116   340463 
 4174000   0.73324546   -3.4857464   -2.0672516  0.029606811   -3.4857464    1.4184948   340437 
 4175000   0.73249754   -3.4845624   -2.0672314  0.026889919   -3.4845624     1.417331   340369 
 4176000   0.73214608   -3.4826199   -2.0657983  0.025319237   -3.4826199    1.4168217   340328 
 4177000   0.73326641    -3.484453   -2.0653382  0.030701816    -3.484453    1.4191148   340298 
 4178000   0.73283196   -3.4846729   -2.0662697    0.0294933   -3.4846729    1.4184032   340267 
 4179000   0.73437992   -3.4864171    -2.065022     0.026868   -3.4864171    1.4213951   340268 
 4180000   0.73353979   -3.4841768   -2.0641324  0.028644285   -3.4841768    1.4200445   340202 
 4181000   0.73438184   -3.4874133   -2.0653584  0.027168238   -3.4874133     1.422055   340111 
 4182000   0.73294683   -3.4831521   -2.0637882  0.030510425   -3.4831521    1.4193639   340090 
 4183000   0.73284865    -3.481389     -2.06204  0.029648979    -3.481389     1.419349   340048 
 4184000   0.73335274   -3.4845336   -2.0640036  0.025966682   -3.4845336      1.42053   339999 
 4185000   0.73219724     -3.48078   -2.0621377  0.029276096     -3.48078    1.4186422   339915 
 4186000   0.73314662   -3.4804792   -2.0597592  0.032455466   -3.4804792    1.4207199   339858 
 4187000   0.73377648   -3.4817713   -2.0596006   0.02671617   -3.4817713    1.4221706   339803 
 4188000   0.73300547   -3.4815285   -2.0606724  0.031671103   -3.4815285    1.4208561   339760 
 4189000   0.73372346   -3.4826632   -2.0602898  0.030980894   -3.4826632    1.4223735   339730 
 4190000   0.73341718   -3.4823672   -2.0604745  0.027362119   -3.4823672    1.4218927   339703 
 4191000   0.73344693   -3.4816211    -2.059453  0.031667879   -3.4816211    1.4221681   339651 
 4192000   0.73123005   -3.4785828   -2.0606214  0.027865596   -3.4785828    1.4179614   339629 
 4193000    0.7325335   -3.4814309   -2.0607872  0.023197926   -3.4814309    1.4206437   339592 
 4194000    0.7320835   -3.4796169   -2.0595699  0.029607227   -3.4796169     1.420047   339526 
 4195000   0.73224438   -3.4799877   -2.0592814  0.025875516   -3.4799877    1.4207063   339443 
 4196000   0.73155139   -3.4784814   -2.0589272  0.031316019   -3.4784814    1.4195542   339397 
 4197000   0.73191427   -3.4786143   -2.0581592  0.027705796   -3.4786143    1.4204551   339350 
 4198000   0.73216595   -3.4804662   -2.0593594  0.027642168   -3.4804662    1.4211068   339311 
 4199000   0.73102214    -3.479219   -2.0601524  0.023884422    -3.479219    1.4190665   339268 
 4200000   0.73103566   -3.4783946   -2.0591094  0.026745201   -3.4783946    1.4192852   339222 
 4201000   0.73024373   -3.4764843   -2.0585192  0.024071272   -3.4764843    1.4179651   339170 
 4202000   0.72823901   -3.4758068   -2.0617261   0.02580857   -3.4758068    1.4140807   339168 
 4203000   0.72972129   -3.4769042   -2.0598198  0.029028293   -3.4769042    1.4170843   339138 
 4204000   0.73035863   -3.4793573    -2.060755  0.029826844   -3.4793573    1.4186023   339071 
 4205000   0.73027423   -3.4790103   -2.0602121  0.026262554   -3.4790103    1.4187982   338985 
 4206000   0.73023061   -3.4793535   -2.0603805  0.028962077   -3.4793535     1.418973   338923 
 4207000   0.73036485   -3.4779792   -2.0587328  0.024360694   -3.4779792    1.4192464   338920 
 4208000   0.73169714   -3.4791736   -2.0572921  0.028599411   -3.4791736    1.4218814   338909 
 4209000   0.73160518   -3.4802211   -2.0584051  0.024982705   -3.4802211     1.421816   338882 
 4210000   0.73060314   -3.4778711   -2.0579605  0.031339189   -3.4778711    1.4199105   338872 
 4211000   0.73122635   -3.4794387   -2.0579563  0.028004126   -3.4794387    1.4214825   338786 
 4212000   0.72987136   -3.4795962   -2.0602366  0.026564624   -3.4795962    1.4193595   338664 
 4213000   0.72982453   -3.4816638   -2.0621899  0.025202191   -3.4816638    1.4194739   338615 
 4214000   0.72881488   -3.4791304   -2.0615868  0.030209115   -3.4791304    1.4175436   338607 
 4215000   0.72807699   -3.4789527   -2.0623506  0.028759352   -3.4789527    1.4166021   338489 
 4216000   0.73128609   -3.4846828   -2.0615005  0.028572123   -3.4846828    1.4231823   338409 
 4217000   0.72888349   -3.4811633   -2.0623507  0.032646832   -3.4811633    1.4188126   338336 
 4218000   0.72965348   -3.4815766   -2.0613743  0.030474599   -3.4815766    1.4202023   338362 
 4219000   0.73046079   -3.4852597    -2.063154  0.032287139   -3.4852597    1.4221057   338283 
 4220000   0.73025224   -3.4832484   -2.0614142  0.028053502   -3.4832484    1.4218341   338251 
 4221000   0.73081927   -3.4856288   -2.0625981  0.027542771   -3.4856288    1.4230307   338229 
 4222000   0.73100306   -3.4843543    -2.060772  0.031481389   -3.4843543    1.4235822   338183 
 4223000    0.7306112    -3.483629   -2.0606837  0.026997364    -3.483629    1.4229453   338153 
 4224000   0.72953543   -3.4817724   -2.0606743  0.029581059   -3.4817724    1.4210981   338094 
 4225000   0.72943771   -3.4815226   -2.0604131  0.033541655   -3.4815226    1.4211095   338046 
 4226000   0.72796851   -3.4791465   -2.0605594  0.026747376   -3.4791465    1.4185871   337965 
 4227000   0.72923843   -3.4814124   -2.0601488  0.027795291   -3.4814124    1.4212636   337917 
 4228000   0.72906245   -3.4823835   -2.0612063  0.028428882   -3.4823835    1.4211772   337856 
 4229000   0.73080643   -3.4831153   -2.0583572  0.029394578   -3.4831153    1.4247581   337813 
 4230000   0.72991489   -3.4819031   -2.0585671  0.032123736   -3.4819031     1.423336   337738 
 4231000   0.72902748   -3.4804074   -2.0585071  0.028702999   -3.4804074    1.4219002   337668 
 4232000     0.729075   -3.4805956   -2.0582994  0.025898603   -3.4805956    1.4222962   337596 
 4233000   0.72763292   -3.4785412   -2.0590288  0.029956091   -3.4785412    1.4195124   337589 
 4234000   0.72710918   -3.4784492   -2.0597652  0.028274646   -3.4784492     1.418684   337543 
 4235000   0.72846881   -3.4792824   -2.0578488  0.025607479   -3.4792824    1.4214336   337520 
 4236000   0.72711062   -3.4779624   -2.0588342  0.026215052   -3.4779624    1.4191282   337438 
 4237000   0.72744286   -3.4786951   -2.0586954  0.025678968   -3.4786951    1.4199997   337385 
 4238000   0.72765089   -3.4782483    -2.057632  0.023851384   -3.4782483    1.4206163   337335 
 4239000   0.72699714   -3.4757147   -2.0562779  0.025944846   -3.4757147    1.4194367   337312 
 4240000   0.72731592   -3.4768077   -2.0565464  0.027410028   -3.4768077    1.4202613   337264 
 4241000    0.7259454   -3.4740442   -2.0561102  0.027673242   -3.4740442    1.4179339   337181 
 4242000   0.72534362   -3.4739302   -2.0568565  0.033719118   -3.4739302    1.4170737   337106 
 4243000   0.72760231   -3.4771003   -2.0555549  0.023126243   -3.4771003    1.4215455   337092 
 4244000   0.72744316   -3.4768425   -2.0555194  0.024413243   -3.4768425    1.4213231   337071 
 4245000   0.72662478   -3.4748205   -2.0551007  0.031627412   -3.4748205    1.4197199   337072 
 4246000   0.72693171   -3.4750437   -2.0544797  0.028502736   -3.4750437     1.420564   337014 
 4247000   0.72789139   -3.4777806   -2.0550794  0.023352404   -3.4777806    1.4227011   336952 
 4248000   0.72684221   -3.4747282   -2.0539723    0.0256997   -3.4747282    1.4207559   336927 
 4249000   0.72656589   -3.4753557   -2.0549502  0.026254639   -3.4753557    1.4204055   336882 
 4250000   0.72700792   -3.4759736   -2.0545352  0.028626237   -3.4759736    1.4214384   336842 
 4251000   0.72594605   -3.4739407   -2.0544858  0.024229858   -3.4739407    1.4194549   336820 
 4252000   0.72651731   -3.4760456    -2.055229  0.028171516   -3.4760456    1.4208166   336762 
 4253000   0.72538221   -3.4734185   -2.0544678   0.02785726   -3.4734185    1.4189507   336678 
 4254000   0.72625443   -3.4756114   -2.0546802  0.025062603   -3.4756114    1.4209312   336613 
 4255000   0.72488402    -3.472858   -2.0542878  0.025710703    -3.472858    1.4185702   336537 
 4256000   0.72619136   -3.4773382   -2.0560871  0.024423544   -3.4773382    1.4212511   336508 
 4257000   0.72627593   -3.4746003    -2.053078  0.026515892   -3.4746003    1.4215222   336483 
 4258000    0.7250155   -3.4722566   -2.0529779   0.03326037   -3.4722566    1.4192788   336430 
 4259000   0.72438831   -3.4724897   -2.0544598  0.028914149   -3.4724897    1.4180299   336435 
 4260000   0.72508641   -3.4732229   -2.0535648  0.030267225   -3.4732229    1.4196581   336373 
 4261000   0.72470973   -3.4734237   -2.0540896  0.027849997   -3.4734237    1.4193341   336275 
 4262000    0.7240608   -3.4731468   -2.0548601  0.029017913   -3.4731468    1.4182867   336222 
 4263000   0.72430245   -3.4733534   -2.0544245  0.028163299   -3.4733534    1.4189289   336182 
 4264000   0.72611951   -3.4761122   -2.0534248  0.027245496   -3.4761122    1.4226875   336135 
 4265000   0.72493792   -3.4745865   -2.0539733  0.031747826   -3.4745865    1.4206133   336078 
 4266000   0.72496538   -3.4738443   -2.0531687  0.030611573   -3.4738443    1.4206755   336076 
 4267000   0.72492145   -3.4759936   -2.0553577  0.030445019   -3.4759936    1.4206359   336065 
 4268000   0.72466759   -3.4749239     -2.05446  0.027286893   -3.4749239    1.4204639   335988 
 4269000   0.72350105   -3.4744276   -2.0561025  0.028838079   -3.4744276    1.4183251   335953 
 4270000   0.72414326   -3.4737295   -2.0538074  0.022865344   -3.4737295    1.4199221   335873 
 4271000     0.723826   -3.4715394   -2.0522604  0.035283143   -3.4715394    1.4192789   335878 
 4272000   0.72211515   -3.4692681    -2.053268  0.030197465   -3.4692681    1.4160002   335860 
 4273000   0.72437193   -3.4738056   -2.0532997  0.034598918   -3.4738056    1.4205059   335841 
 4274000   0.72235221   -3.4730615   -2.0562126   0.02813476   -3.4730615    1.4168489   335769 
 4275000    0.7225891   -3.4731251   -2.0554907  0.025863695   -3.4731251    1.4176344   335693 
 4276000   0.72172547   -3.4717911   -2.0556612  0.026074044   -3.4717911    1.4161299   335648 
 4277000     0.724165   -3.4753385   -2.0542949  0.029003734   -3.4753385    1.4210436   335618 
 4278000   0.72319919   -3.4758292   -2.0564143  0.029927082   -3.4758292    1.4194149   335555 
 4279000   0.72269957   -3.4749174   -2.0562759  0.030496279   -3.4749174    1.4186414   335506 
 4280000   0.72365713   -3.4772709   -2.0566101  0.026477097   -3.4772709    1.4206608   335473 
 4281000   0.72140585   -3.4731546   -2.0568332  0.030267405   -3.4731546    1.4163214   335454 
 4282000   0.72260211   -3.4764783   -2.0574529  0.025259109   -3.4764783    1.4190253   335370 
 4283000   0.72105641   -3.4734497   -2.0571304  0.028329248   -3.4734497    1.4163193   335292 
 4284000   0.72167894   -3.4751802   -2.0574309  0.032403267   -3.4751802    1.4177493   335243 
 4285000    0.7217038   -3.4742845   -2.0562368  0.028441187   -3.4742845    1.4180477   335184 
 4286000    0.7214157    -3.471993   -2.0543083  0.033233605    -3.471993    1.4176846   335136 
 4287000   0.72235736   -3.4754737   -2.0559174  0.022397644   -3.4754737    1.4195563   335131 
 4288000    0.7213375   -3.4758336   -2.0578964   0.02779679   -3.4758336    1.4179371   335040 
 4289000   0.72159117   -3.4762109   -2.0575211  0.030877271   -3.4762109    1.4186899   334980 
 4290000   0.72070865   -3.4761672   -2.0588654  0.026430841   -3.4761672    1.4173017   334898 
 4291000   0.72041006   -3.4754585    -2.058507  0.026605635   -3.4754585    1.4169515   334842 
 4292000   0.72118734   -3.4771179   -2.0586419  0.028083665   -3.4771179     1.418476   334843 
 4293000   0.71920106   -3.4735763   -2.0588084  0.027723905   -3.4735763    1.4147679   334796 
 4294000   0.72029587   -3.4753444   -2.0582917  0.029741496   -3.4753444    1.4170527   334765 
 4295000   0.72008674   -3.4757528   -2.0589168  0.025380061   -3.4757528     1.416836   334719 
 4296000   0.72078689   -3.4761078   -2.0577841  0.026959072   -3.4761078    1.4183238   334693 
 4297000   0.71988995   -3.4764169   -2.0595659  0.028966154   -3.4764169    1.4168509   334624 
 4298000   0.72268669   -3.4809901   -2.0584732  0.026283613   -3.4809901    1.4225169   334586 
 4299000   0.72020168   -3.4764181   -2.0585427  0.028696619   -3.4764181    1.4178755   334527 
 4300000    0.7211302   -3.4769414   -2.0570299   0.02852221   -3.4769414    1.4199114   334478 
 4301000   0.71978513   -3.4747638   -2.0570982  0.035133931   -3.4747638    1.4176656   334383 
 4302000   0.71993698   -3.4766708   -2.0586255  0.033481534   -3.4766708    1.4180453   334364 
 4303000   0.72029123   -3.4768601   -2.0577902  0.031892186   -3.4768601    1.4190699   334287 
 4304000   0.72035899   -3.4773831   -2.0579589  0.031281974   -3.4773831    1.4194241   334235 
 4305000   0.72045378   -3.4773511   -2.0576553  0.025423347   -3.4773511    1.4196959   334215 
 4306000   0.72078507   -3.4769152   -2.0562732  0.026271681   -3.4769152     1.420642   334146 
 4307000   0.71911455   -3.4750945   -2.0574395  0.030067634   -3.4750945    1.4176549   334074 
 4308000   0.71876854   -3.4751528   -2.0580018  0.032750043   -3.4751528     1.417151   334032 
 4309000   0.71843526   -3.4751848   -2.0584577  0.024696317   -3.4751848    1.4167271   333977 
 4310000   0.71782671   -3.4755772   -2.0599357  0.026411887   -3.4755772    1.4156415   333950 
 4311000   0.71821507   -3.4758193   -2.0591574  0.026565911   -3.4758193     1.416662   333890 
 4312000   0.71731087   -3.4723998   -2.0573518  0.024414504   -3.4723998     1.415048   333850 
 4313000   0.71774449   -3.4719761   -2.0559624  0.026988292   -3.4719761    1.4160137   333824 
 4314000   0.71761251   -3.4727194   -2.0567158  0.021906205   -3.4727194    1.4160035   333765 
 4315000   0.71766914   -3.4741796   -2.0578479  0.027611343   -3.4741796    1.4163317   333714 
 4316000   0.71788789   -3.4739668   -2.0568891   0.02807145   -3.4739668    1.4170776   333640 
 4317000   0.71934423   -3.4753459   -2.0550274  0.030530481   -3.4753459    1.4203185   333554 
 4318000   0.71772032   -3.4741189   -2.0568963  0.028527306   -3.4741189    1.4172226   333528 
 4319000   0.71856517    -3.474315   -2.0551348  0.029904293    -3.474315    1.4191802   333460 
 4320000   0.71848302   -3.4756436   -2.0562766  0.031750901   -3.4756436     1.419367   333378 
 4321000   0.71831558   -3.4762369   -2.0571113  0.030513996   -3.4762369    1.4191256   333357 
 4322000   0.71739064   -3.4756752   -2.0582026  0.029828294   -3.4756752    1.4174726   333316 
 4323000   0.71632911   -3.4741081   -2.0585716  0.027533009   -3.4741081    1.4155365   333278 
 4324000   0.71734915   -3.4749455   -2.0570274  0.024893821   -3.4749455    1.4179181   333192 
 4325000   0.71702276   -3.4748413   -2.0573386  0.031351198   -3.4748413    1.4175027   333138 
 4326000   0.71848733   -3.4773979   -2.0568207  0.031031498   -3.4773979    1.4205772   333096 
 4327000   0.71786037    -3.477748   -2.0581164  0.031378607    -3.477748    1.4196316   333027 
 4328000    0.7159278   -3.4742293   -2.0582282  0.029206461   -3.4742293    1.4160011   332982 
 4329000   0.71745335     -3.47753   -2.0584391  0.028245039     -3.47753    1.4190909   332965 
 4330000   0.71700821   -3.4775945   -2.0591285  0.032446176   -3.4775945     1.418466   332905 
 4331000   0.71763116   -3.4765434   -2.0566573  0.030953446   -3.4765434    1.4198861   332861 
 4332000   0.71745822   -3.4758936    -2.056226  0.029428472   -3.4758936    1.4196676   332832 
 4333000   0.71729121   -3.4757272   -2.0560787   0.02800138   -3.4757272    1.4196485   332759 
 4334000   0.71709561    -3.478103   -2.0584875  0.032482688    -3.478103    1.4196155   332676 
 4335000   0.71737283   -3.4791646   -2.0590772  0.026818753   -3.4791646    1.4200874   332694 
 4336000   0.71807551   -3.4799958   -2.0583293  0.031302318   -3.4799958    1.4216665   332650 
 4337000   0.71811194   -3.4793855   -2.0576298  0.028833843   -3.4793855    1.4217557   332646 
 4338000   0.71700551   -3.4771371   -2.0572988  0.031017804   -3.4771371    1.4198383   332582 
 4339000   0.71663743   -3.4761477   -2.0568036  0.029827569   -3.4761477    1.4193441   332527 
 4340000   0.71678953   -3.4781987   -2.0582331  0.030274922   -3.4781987    1.4199656   332452 
 4341000   0.71659736   -3.4769139   -2.0570941  0.026267743   -3.4769139    1.4198198   332397 
 4342000   0.71677397   -3.4768677   -2.0562749  0.030170653   -3.4768677    1.4205929   332298 
 4343000   0.71640968   -3.4771352    -2.056854   0.03295139   -3.4771352    1.4202812   332202 
 4344000   0.71607223   -3.4755849   -2.0559599  0.031513943   -3.4755849     1.419625   332199 
 4345000   0.71505207   -3.4726267   -2.0549345  0.029354898   -3.4726267    1.4176922   332178 
 4346000   0.71527898   -3.4724033   -2.0542827  0.027486594   -3.4724033    1.4181207   332183 
 4347000   0.71524091   -3.4742159   -2.0558676  0.027014057   -3.4742159    1.4183484   332112 
 4348000   0.71601221   -3.4740867   -2.0539351  0.032984623   -3.4740867    1.4201516   332048 
 4349000   0.71489978    -3.471691   -2.0535024  0.027156632    -3.471691    1.4181886   331991 
 4350000   0.71536652   -3.4742431   -2.0548465  0.035329688   -3.4742431    1.4193967   331925 
 4351000   0.71520893   -3.4743315   -2.0549353  0.031865446   -3.4743315    1.4193962   331852 
 4352000   0.71482449   -3.4741925   -2.0552343  0.028856068   -3.4741925    1.4189582   331776 
 4353000   0.71340723   -3.4718753   -2.0555981   0.03002309   -3.4718753    1.4162772   331745 
 4354000   0.71257425   -3.4713168   -2.0566208  0.025203402   -3.4713168     1.414696   331728 
 4355000   0.71453232   -3.4719643   -2.0531671  0.028753073   -3.4719643    1.4187973   331678 
 4356000   0.71378839   -3.4704746   -2.0527869  0.027744706   -3.4704746    1.4176877   331592 
 4357000    0.7147446   -3.4725165   -2.0524971  0.030680066   -3.4725165    1.4200194   331491 
 4358000    0.7161769   -3.4743243   -2.0511716  0.031687197   -3.4743243    1.4231527   331424 
 4359000   0.71473344   -3.4728662   -2.0524234  0.029168327   -3.4728662    1.4204429   331387 
 4360000   0.71517854   -3.4742779   -2.0526501  0.025683364   -3.4742779    1.4216277   331317 
 4361000   0.71403991   -3.4715164   -2.0520749  0.032045999   -3.4715164    1.4194415   331299 
 4362000   0.71361506   -3.4716123   -2.0525699  0.029566347   -3.4716123    1.4190424   331195 
 4363000   0.71162966   -3.4697694   -2.0543117  0.027419518   -3.4697694    1.4154576   331110 
 4364000   0.71134188   -3.4701787   -2.0552037  0.026032461   -3.4701787     1.414975   331089 
 4365000     0.712071   -3.4731278   -2.0562916  0.025132159   -3.4731278    1.4168361   330993 
 4366000     0.712224   -3.4735238   -2.0560192  0.023114272   -3.4735238    1.4175046   330908 
 4367000    0.7106846   -3.4720931   -2.0574642  0.027344107   -3.4720931    1.4146289   330864 
 4368000   0.71202128   -3.4749015    -2.057462  0.028912501   -3.4749015    1.4174395   330829 
 4369000    0.7134276     -3.47443   -2.0541695  0.026745421     -3.47443    1.4202606   330824 
 4370000   0.71392419   -3.4761058   -2.0546375  0.028178516   -3.4761058    1.4214683   330773 
 4371000   0.71269927   -3.4747692   -2.0555725  0.034593401   -3.4747692    1.4191967   330734 
 4372000   0.71233399   -3.4749115    -2.056232  0.027673908   -3.4749115    1.4186795   330685 
 4373000   0.71294121   -3.4754095   -2.0554219   0.02679944   -3.4754095    1.4199876   330662 
 4374000   0.71147467   -3.4750688    -2.057865  0.028807143   -3.4750688    1.4172038   330630 
 4375000    0.7119285   -3.4748736   -2.0567443  0.028937522   -3.4748736    1.4181293   330625 
 4376000   0.70989278   -3.4729087    -2.058642  0.025240926   -3.4729087    1.4142667   330580 
 4377000   0.71041924   -3.4725792   -2.0569083   0.02590058   -3.4725792     1.415671   330497 
 4378000   0.71118405   -3.4742906    -2.056997  0.026131313   -3.4742906    1.4172936   330474 
 4379000   0.71180126   -3.4758181   -2.0570454  0.029148521   -3.4758181    1.4187727   330416 
 4380000   0.71098841   -3.4734084   -2.0559642  0.026344335   -3.4734084    1.4174442   330348 
 4381000   0.71053682   -3.4741229   -2.0573603  0.025997895   -3.4741229    1.4167626   330297 
 4382000   0.71111381   -3.4739618    -2.055645  0.026829916   -3.4739618    1.4183167   330203 
 4383000   0.71169705   -3.4750652   -2.0554218  0.028767097   -3.4750652    1.4196434   330165 
 4384000     0.710658   -3.4732976   -2.0556581  0.033426705   -3.4732976    1.4176395   330149 
 4385000   0.71107334   -3.4767001   -2.0579958  0.027000093   -3.4767001    1.4187043   330094 
 4386000   0.71099161   -3.4765621   -2.0576383  0.028219868   -3.4765621    1.4189239   330005 
 4387000   0.71133102   -3.4796635   -2.0598687  0.028565833   -3.4796635    1.4197948   329960 
 4388000   0.71164902    -3.479178   -2.0585289  0.027815481    -3.479178    1.4206491   329909 
 4389000   0.70993151   -3.4774162   -2.0598863  0.029976599   -3.4774162    1.4175299   329837 
 4390000   0.71068594   -3.4774057   -2.0582576  0.031078019   -3.4774057    1.4191481   329811 
 4391000   0.70957495   -3.4763042   -2.0592329  0.031938992   -3.4763042    1.4170714   329778 
 4392000   0.71033058   -3.4784586   -2.0595082  0.031213575   -3.4784586    1.4189505   329692 
 4393000    0.7096771   -3.4790672   -2.0611125  0.036153397   -3.4790672    1.4179547   329620 
 4394000   0.70994259   -3.4803281   -2.0616622  0.030085754   -3.4803281     1.418666   329578 
 4395000   0.71028456   -3.4787123   -2.0593673  0.032581488   -3.4787123     1.419345   329579 
 4396000   0.71099237   -3.4798962   -2.0587228  0.026293021   -3.4798962    1.4211734   329483 
 4397000   0.70936284   -3.4775795    -2.059306  0.030695562   -3.4775795    1.4182734   329400 
 4398000   0.71029384   -3.4773176   -2.0571052  0.032696693   -3.4773176    1.4202125   329382 
 4399000   0.71071856   -3.4764041   -2.0553165  0.031476795   -3.4764041    1.4210876   329376 
 4400000   0.70886492   -3.4739227   -2.0564468   0.03295263   -3.4739227    1.4174759   329354 
 4401000   0.70873635   -3.4733245   -2.0558475  0.031040298   -3.4733245     1.417477   329294 
 4402000   0.70816744   -3.4717001   -2.0552319  0.027820423   -3.4717001    1.4164682   329264 
 4403000   0.70780248   -3.4703836    -2.054611  0.023994277   -3.4703836    1.4157726   329256 
 4404000   0.70775805   -3.4692639   -2.0534984   0.02409155   -3.4692639    1.4157655   329237 
 4405000   0.70749623   -3.4709654   -2.0555646  0.023074456   -3.4709654    1.4154008   329200 
 4406000   0.70738479   -3.4686859   -2.0535812  0.028306159   -3.4686859    1.4151048   329217 
 4407000   0.70870561   -3.4697445   -2.0519286  0.027136863   -3.4697445    1.4178159   329201 
 4408000   0.70935426    -3.468384   -2.0491281  0.026484948    -3.468384    1.4192559   329168 
 4409000   0.70846108   -3.4655069   -2.0479045   0.03305453   -3.4655069    1.4176023   329137 
 4410000   0.70835076   -3.4646964   -2.0473062  0.029225873   -3.4646964    1.4173902   329135 
 4411000   0.70828159   -3.4639027   -2.0463925  0.029516933   -3.4639027    1.4175102   329075 
 4412000    0.7086391   -3.4619017   -2.0434389  0.029027511   -3.4619017    1.4184628   329020 
 4413000   0.70880224   -3.4620191     -2.04304  0.029585858   -3.4620191    1.4189791   328976 
 4414000   0.70885743   -3.4642366   -2.0449701  0.024843979   -3.4642366    1.4192665   328935 
 4415000    0.7082213   -3.4641601   -2.0459344  0.023814404   -3.4641601    1.4182256   328881 
 4416000   0.70865861   -3.4641777   -2.0450375  0.025169452   -3.4641777    1.4191402   328872 
 4417000   0.70741217   -3.4634976     -2.04647  0.025849769   -3.4634976    1.4170276   328783 
 4418000   0.70727525   -3.4620748   -2.0451706   0.02956803   -3.4620748    1.4169041   328748 
 4419000   0.70938827   -3.4664459   -2.0449281  0.025028532   -3.4664459    1.4215178   328660 
 4420000   0.70896148   -3.4679937   -2.0470675  0.030381368   -3.4679937    1.4209262   328599 
 4421000   0.70830037   -3.4673375   -2.0473041  0.027709317   -3.4673375    1.4200334   328499 
 4422000   0.70767071   -3.4663204   -2.0474284  0.031777318   -3.4663204    1.4188919   328471 
 4423000   0.70679664   -3.4649237   -2.0477238  0.033629776   -3.4649237    1.4171998   328457 
 4424000   0.70826421   -3.4682584   -2.0478521  0.029671654   -3.4682584    1.4204062   328396 
 4425000    0.7068933   -3.4657295   -2.0478697  0.030964324   -3.4657295    1.4178598   328349 
 4426000   0.70675543   -3.4655529   -2.0477407  0.031199901   -3.4655529    1.4178122   328296 
 4427000   0.70761748   -3.4678056   -2.0480392  0.027511901   -3.4678056    1.4197664   328244 
 4428000   0.70748064   -3.4692795   -2.0495757  0.027066016   -3.4692795    1.4197038   328195 
 4429000    0.7074854   -3.4689915    -2.049222  0.029672345   -3.4689915    1.4197695   328182 
 4430000   0.70929428   -3.4688717   -2.0452379  0.028292345   -3.4688717    1.4236338   328128 
 4431000   0.70806541   -3.4684593   -2.0469107  0.029593136   -3.4684593    1.4215486   328040 
 4432000   0.70735141   -3.4663241   -2.0460098  0.027613333   -3.4663241    1.4203143   327994 
 4433000   0.70607391   -3.4659818   -2.0480294  0.028386536   -3.4659818    1.4179523   327947 
 4434000   0.70794867   -3.4682869   -2.0464482  0.029658183   -3.4682869    1.4218387   327919 
 4435000   0.70715247   -3.4668183   -2.0463058  0.026238471   -3.4668183    1.4205125   327856 
 4436000   0.70766882   -3.4664393   -2.0448592  0.029016213   -3.4664393    1.4215801   327849 
 4437000   0.70753827   -3.4655161   -2.0439728   0.03054607   -3.4655161    1.4215433   327797 
 4438000    0.7069357   -3.4658766   -2.0451669  0.032571115   -3.4658766    1.4207097   327710 
 4439000   0.70564644   -3.4640386   -2.0457554  0.027191176   -3.4640386    1.4182832   327672 
 4440000   0.70662489   -3.4666914   -2.0464243  0.024670799   -3.4666914    1.4202671   327668 
 4441000   0.70689199   -3.4674809   -2.0464254  0.028592074   -3.4674809    1.4210555   327610 
 4442000   0.70576979   -3.4649557   -2.0460305  0.029026102   -3.4649557    1.4189252   327581 
 4443000   0.70651192   -3.4660139   -2.0453885   0.03081251   -3.4660139    1.4206254   327533 
 4444000   0.70585795    -3.463619   -2.0440486  0.025950076    -3.463619    1.4195704   327473 
 4445000   0.70591367   -3.4660415   -2.0460902  0.028439006   -3.4660415    1.4199513   327411 
 4446000    0.7057198   -3.4647684   -2.0450466  0.024716305   -3.4647684    1.4197218   327374 
 4447000    0.7068074   -3.4649852   -2.0429451   0.02974133   -3.4649852    1.4220401   327344 
 4448000   0.70469225   -3.4636795   -2.0457477  0.025632761   -3.4636795    1.4179318   327310 
 4449000   0.70410642   -3.4629357   -2.0456197  0.026107777   -3.4629357     1.417316   327180 
 4450000   0.70280051   -3.4630734   -2.0482174  0.023303314   -3.4630734    1.4148559   327141 
 4451000   0.70344219   -3.4644288   -2.0479303  0.026359891   -3.4644288    1.4164985   327060 
 4452000   0.70345517   -3.4650406   -2.0483168  0.025639371   -3.4650406    1.4167239   327014 
 4453000   0.70427349    -3.463732   -2.0452473  0.029922489    -3.463732    1.4184847   326988 
 4454000   0.70531473    -3.465518   -2.0446537  0.027964276    -3.465518    1.4208643   326923 
 4455000   0.70642585   -3.4666962    -2.043402  0.028685841   -3.4666962    1.4232943   326879 
 4456000   0.70579265   -3.4667381   -2.0446021  0.026766413   -3.4667381     1.422136   326852 
 4457000   0.70627106   -3.4679187   -2.0445531  0.028491757   -3.4679187    1.4233656   326791 
 4458000   0.70542273   -3.4646514    -2.042704  0.028976859   -3.4646514    1.4219474   326724 
 4459000   0.70489138   -3.4660438   -2.0447368  0.027846761   -3.4660438     1.421307   326625 
 4460000   0.70428659   -3.4648939   -2.0446324   0.02936173   -3.4648939    1.4202615   326585 
 4461000   0.70293764   -3.4636706   -2.0458992  0.026751709   -3.4636706    1.4177713   326532 
 4462000   0.70375566   -3.4646626    -2.044737  0.027400887   -3.4646626    1.4199256   326416 
 4463000   0.70344512   -3.4661003   -2.0466838  0.030662665   -3.4661003    1.4194165   326389 
 4464000   0.70326082   -3.4655211   -2.0464026  0.031495487   -3.4655211    1.4191185   326372 
 4465000   0.70160933   -3.4631667   -2.0472289  0.033663278   -3.4631667    1.4159378   326337 
 4466000   0.70191229   -3.4635572   -2.0467518  0.030568747   -3.4635572    1.4168053   326278 
 4467000   0.70225254   -3.4635287   -2.0458585  0.031005322   -3.4635287    1.4176703   326237 
 4468000   0.70167123   -3.4614782   -2.0446731  0.030263598   -3.4614782    1.4168051   326166 
 4469000   0.70247956   -3.4637677   -2.0449868  0.025740971   -3.4637677    1.4187809   326087 
 4470000   0.70330258   -3.4657402   -2.0448962  0.030058588   -3.4657402     1.420844   325995 
 4471000    0.7022538   -3.4652954   -2.0462655  0.031344219   -3.4652954    1.4190299   325925 
 4472000   0.70268889   -3.4669543   -2.0466966  0.028704783   -3.4669543    1.4202577   325845 
 4473000   0.70136166   -3.4638895   -2.0460663  0.026618982   -3.4638895    1.4178232   325788 
 4474000   0.70103261   -3.4645083   -2.0471632   0.02931417   -3.4645083    1.4173451   325745 
 4475000   0.70069949   -3.4628175   -2.0461764   0.02694432   -3.4628175    1.4166411   325752 
 4476000   0.70113005   -3.4623735   -2.0445311  0.032382696   -3.4623735    1.4178424   325676 
 4477000   0.70260427   -3.4660142   -2.0449943  0.030265731   -3.4660142    1.4210199   325631 
 4478000   0.70169437   -3.4645765   -2.0451701   0.02989287   -3.4645765    1.4194063   325579 
 4479000   0.70174851   -3.4641061   -2.0445422  0.024054097   -3.4641061    1.4195638   325568 
 4480000   0.70204871   -3.4661184   -2.0454367  0.029490789   -3.4661184    1.4206816   325451 
 4481000   0.69998287    -3.463199   -2.0465063  0.030251102    -3.463199    1.4166927   325407 
 4482000   0.70123244   -3.4654849   -2.0461105  0.028322088   -3.4654849    1.4193744   325372 
 4483000   0.70019781   -3.4653921   -2.0479246  0.033592686   -3.4653921    1.4174675   325329 
 4484000   0.70099202   -3.4651015   -2.0460655  0.027444885   -3.4651015     1.419036   325338 
 4485000   0.70041844    -3.463928   -2.0455343  0.026616215    -3.463928    1.4183937   325219 
 4486000   0.69896499   -3.4630863   -2.0474793  0.028637399   -3.4630863    1.4156071   325183 
 4487000   0.69901699   -3.4642014   -2.0482974  0.029208146   -3.4642014     1.415904   325139 
 4488000   0.69825191   -3.4626054   -2.0480946  0.029403183   -3.4626054    1.4145109   325103 
 4489000   0.69982527   -3.4657515   -2.0479094  0.028144257   -3.4657515    1.4178421   325070 
 4490000   0.70004217   -3.4652295   -2.0466643  0.030235859   -3.4652295    1.4185652   325005 
 4491000   0.69906206   -3.4625405   -2.0457914  0.022368819   -3.4625405    1.4167491   324966 
 4492000   0.69883189   -3.4628996   -2.0462246  0.028294239   -3.4628996     1.416675   324876 
 4493000   0.69979703   -3.4670741   -2.0480407  0.026198611   -3.4670741    1.4190334   324784 
 4494000   0.69962649   -3.4641445   -2.0452254  0.028975395   -3.4641445    1.4189191   324731 
 4495000   0.70021636   -3.4649934   -2.0447905  0.028874287   -3.4649934    1.4202029   324711 
 4496000   0.70076393   -3.4657067   -2.0442138   0.02677254   -3.4657067    1.4214929   324670 
 4497000   0.69996861   -3.4647615   -2.0447375  0.033421926   -3.4647615     1.420024   324637 
 4498000   0.69949738   -3.4635071   -2.0443079  0.032865528   -3.4635071    1.4191992   324607 
 4499000   0.69970054   -3.4647293   -2.0448686  0.028947611   -3.4647293    1.4198607   324550 
 4500000   0.70041172   -3.4646965   -2.0431474  0.027039513   -3.4646965    1.4215491   324494 
 4501000   0.69948568   -3.4633716   -2.0437064  0.029991262   -3.4633716    1.4196652   324495 
 4502000   0.69859444   -3.4646668   -2.0464782  0.024780123   -3.4646668    1.4181885   324419 
 4503000   0.69926017   -3.4635003   -2.0439515  0.032568748   -3.4635003    1.4195488   324417 
 4504000   0.69874971    -3.463654   -2.0448966  0.026506709    -3.463654    1.4187574   324361 
 4505000   0.69756469   -3.4622548   -2.0455409  0.030169294   -3.4622548    1.4167138   324278 
 4506000    0.6990004   -3.4618154   -2.0419668  0.026253283   -3.4618154    1.4198486   324228 
 4507000   0.69894167   -3.4637685   -2.0438684  0.028435552   -3.4637685    1.4199001   324189 
 4508000    0.6990951   -3.4639543    -2.043598  0.026816614   -3.4639543    1.4203564   324156 
 4509000   0.69823426   -3.4623119   -2.0432536  0.031341426   -3.4623119    1.4190583   324053 
 4510000    0.6985885    -3.465461   -2.0454023  0.029440102    -3.465461    1.4200587   323989 
 4511000   0.69781245   -3.4629268   -2.0442879  0.029196252   -3.4629268    1.4186388   323953 
 4512000   0.69787827    -3.461613   -2.0427834  0.032115447    -3.461613    1.4188296   323940 
 4513000    0.6979169   -3.4637233   -2.0446619  0.027970217   -3.4637233    1.4190614   323905 
 4514000   0.69846646    -3.464616    -2.044082  0.023029744    -3.464616    1.4205341   323824 
 4515000   0.69694232   -3.4627427   -2.0450588  0.029957677   -3.4627427    1.4176838   323767 
 4516000   0.69730302   -3.4604373   -2.0420635  0.028108172   -3.4604373    1.4183738   323777 
 4517000   0.69775071   -3.4639294   -2.0443688  0.027530511   -3.4639294    1.4195606   323714 
 4518000   0.69564843   -3.4596907   -2.0442804   0.03163074   -3.4596907    1.4154103   323685 
 4519000   0.69672021   -3.4629101   -2.0452227  0.027734973   -3.4629101    1.4176874   323663 
 4520000   0.69719748   -3.4636647   -2.0447694  0.027754203   -3.4636647    1.4188953   323609 
 4521000   0.69593743   -3.4612793    -2.044852   0.02937934   -3.4612793    1.4164272   323587 
 4522000    0.6956746   -3.4591577    -2.043156  0.032150964   -3.4591577    1.4160017   323562 
 4523000   0.69783776   -3.4631459   -2.0427633  0.033433743   -3.4631459    1.4203827   323567 
 4524000   0.69813711   -3.4644606   -2.0432666  0.023153247   -3.4644606     1.421194   323521 
 4525000   0.69798689   -3.4652543   -2.0440454  0.028904608   -3.4652543    1.4212089   323448 
 4526000   0.69614523   -3.4610162    -2.043167  0.027064701   -3.4610162    1.4178492   323359 
 4527000   0.69725569   -3.4624139   -2.0421977  0.026142494   -3.4624139    1.4202163   323335 
 4528000   0.69672113   -3.4612216   -2.0419054  0.031832572   -3.4612216    1.4193162   323292 
 4529000   0.69895022    -3.464785   -2.0409147  0.033943296    -3.464785    1.4238704   323289 
 4530000   0.69693661   -3.4624099   -2.0425318  0.028514239   -3.4624099    1.4198781   323264 
 4531000   0.69573179   -3.4601601    -2.042548   0.03284086   -3.4601601    1.4176121   323221 
 4532000   0.69668705   -3.4613325   -2.0415675  0.022933007   -3.4613325     1.419765   323174 
 4533000   0.69763195   -3.4624009   -2.0405036  0.025467665   -3.4624009    1.4218974   323127 
 4534000   0.69775076   -3.4629501   -2.0406346  0.027643496   -3.4629501    1.4223156   323087 
 4535000   0.69646723   -3.4606983   -2.0406826  0.031440176   -3.4606983    1.4200156   323015 
 4536000   0.69749992   -3.4617074   -2.0394805   0.03470805   -3.4617074    1.4222268   322991 
 4537000   0.69720614   -3.4612439   -2.0393475  0.031507547   -3.4612439    1.4218964   322930 
 4538000     0.697312   -3.4609571   -2.0388008  0.035911121   -3.4609571    1.4221563   322920 
 4539000   0.69680135   -3.4614194   -2.0400977  0.031502081   -3.4614194    1.4213217   322873 
 4540000   0.69626842   -3.4608696   -2.0403313  0.029464107   -3.4608696    1.4205382   322804 
 4541000   0.69577637   -3.4612975   -2.0415564  0.031102616   -3.4612975     1.419741   322757 
 4542000   0.69657642   -3.4610568   -2.0395423  0.028300348   -3.4610568    1.4215145   322725 
 4543000    0.6960014   -3.4601235   -2.0393819  0.029926695   -3.4601235    1.4207416   322634 
 4544000   0.69583735   -3.4589751   -2.0384891  0.029936522   -3.4589751     1.420486   322616 
 4545000   0.69552629   -3.4593429   -2.0393466  0.028127125   -3.4593429    1.4199963   322583 
 4546000   0.69434628   -3.4575645   -2.0396257  0.025689307   -3.4575645    1.4179388   322503 
 4547000   0.69455854   -3.4568122   -2.0381277  0.025313352   -3.4568122    1.4186846   322432 
 4548000   0.69523314   -3.4600221   -2.0396689  0.026995195   -3.4600221    1.4203532   322366 
 4549000   0.69584564   -3.4596094   -2.0379299  0.032255986   -3.4596094    1.4216795   322349 
 4550000   0.69572565   -3.4588422   -2.0370726  0.030734232   -3.4588422    1.4217696   322273 
 4551000   0.69564503    -3.459603   -2.0377026  0.026128835    -3.459603    1.4219005   322206 
 4552000   0.69360789    -3.455583   -2.0377584   0.03090345    -3.455583    1.4178245   322186 
 4553000   0.69482581   -3.4566087   -2.0360653  0.027115253   -3.4566087    1.4205434   322134 
 4554000   0.69371693   -3.4553273   -2.0369145  0.027438948   -3.4553273    1.4184128   322103 
 4555000    0.6949522    -3.458404   -2.0371698   0.02439837    -3.458404    1.4212342   322036 
 4556000    0.6933298   -3.4570609   -2.0389509  0.027553464   -3.4570609      1.41811   321992 
 4557000    0.6944759   -3.4599856   -2.0393725  0.025045672   -3.4599856     1.420613   321956 
 4558000    0.6953168   -3.4607285   -2.0380153  0.023491831   -3.4607285    1.4227132   321870 
 4559000   0.69334812   -3.4570064   -2.0380569  0.029556501   -3.4570064    1.4189495   321810 
 4560000   0.69319373   -3.4583389   -2.0394938   0.02866138   -3.4583389    1.4188452   321762 
 4561000   0.69428469   -3.4612193   -2.0399379  0.030838609   -3.4612193    1.4212814   321716 
 4562000   0.69312829   -3.4600403   -2.0411085   0.02601206   -3.4600403    1.4189317   321712 
 4563000   0.69444562   -3.4608957   -2.0390816   0.02929898   -3.4608957    1.4218141   321670 
 4564000    0.6936367   -3.4603935   -2.0400767  0.031584625   -3.4603935    1.4203169   321634 
 4565000   0.69411037   -3.4595952   -2.0382687  0.029380845   -3.4595952    1.4213265   321625 
 4566000    0.6937801   -3.4583168    -2.037291  0.034191163   -3.4583168    1.4210258   321540 
 4567000    0.6930718   -3.4570057     -2.03736  0.030656863   -3.4570057    1.4196457   321524 
 4568000   0.69334023   -3.4577253   -2.0372515  0.027169959   -3.4577253    1.4204738   321461 
 4569000   0.69292232   -3.4593296   -2.0394072  0.025593569   -3.4593296    1.4199224   321392 
 4570000   0.69225785   -3.4576703   -2.0389682  0.031956057   -3.4576703    1.4187021   321360 
 4571000   0.69268568   -3.4585572   -2.0387486  0.026723526   -3.4585572    1.4198086   321308 
 4572000   0.69196244   -3.4586973   -2.0402785  0.026706742   -3.4586973    1.4184189   321287 
 4573000   0.69238905   -3.4591936   -2.0398826  0.033422588   -3.4591936     1.419311   321283 
 4574000   0.69215575   -3.4604909   -2.0412561  0.030496876   -3.4604909    1.4192348   321192 
 4575000   0.69188356   -3.4584617   -2.0397011  0.030830814   -3.4584617    1.4187606   321173 
 4576000   0.69113278   -3.4587223   -2.0410466  0.027062588   -3.4587223    1.4176757   321070 
 4577000   0.69172257   -3.4597483   -2.0405799  0.025622238   -3.4597483    1.4191684   321006 
 4578000   0.69056745     -3.45889   -2.0417295  0.026835183     -3.45889    1.4171605   320924 
 4579000   0.69044021   -3.4589998   -2.0416941  0.030106613   -3.4589998    1.4173057   320832 
 4580000   0.69251025    -3.460947   -2.0392812  0.025929627    -3.460947    1.4216658   320807 
 4581000   0.69314051     -3.46305   -2.0398951  0.029065347     -3.46305    1.4231548   320763 
 4582000   0.69347741   -3.4634546   -2.0394616  0.035839532   -3.4634546     1.423993   320730 
 4583000   0.69222341    -3.460937   -2.0395544  0.029292378    -3.460937    1.4213826   320738 
 4584000   0.69176429   -3.4593808   -2.0388037  0.028581888   -3.4593808    1.4205772   320707 
 4585000   0.69073723   -3.4577853   -2.0390253  0.029041628   -3.4577853      1.41876   320641 
 4586000   0.69099533   -3.4598971   -2.0404475  0.029938871   -3.4598971    1.4194495   320605 
 4587000   0.69114737   -3.4598719   -2.0397601  0.029209069   -3.4598719    1.4201118   320526 
 4588000   0.68963455   -3.4578771   -2.0406659  0.030992368   -3.4578771    1.4172112   320479 
 4589000   0.68998281   -3.4608276   -2.0427193  0.026798542   -3.4608276    1.4181083   320438 
 4590000   0.68998355   -3.4623308   -2.0440971  0.028729941   -3.4623308    1.4182337   320410 
 4591000   0.69056798   -3.4606449   -2.0407756  0.031492592   -3.4606449    1.4198693   320312 
 4592000   0.68917167   -3.4601757   -2.0428101  0.029172385   -3.4601757    1.4173656   320229 
 4593000   0.68868379   -3.4584587    -2.041831  0.031299985   -3.4584587    1.4166277   320169 
 4594000   0.68885421   -3.4564205   -2.0393892  0.027141069   -3.4564205    1.4170313   320157 
 4595000   0.69093583   -3.4616072   -2.0400452  0.026453549   -3.4616072     1.421562   320101 
 4596000   0.69053384   -3.4613574   -2.0402628   0.02929624   -3.4613574    1.4210946   320020 
 4597000   0.68949706   -3.4578447   -2.0387685  0.032467881   -3.4578447    1.4190762   319994 
 4598000    0.6904794   -3.4600872   -2.0388382  0.030421166   -3.4600872     1.421249   319960 
 4599000   0.69017433   -3.4576629    -2.036953  0.026930621   -3.4576629    1.4207099   319940 
 4600000   0.68879979    -3.456803   -2.0385635  0.027129392    -3.456803    1.4182395   319859 
 4601000   0.68760759   -3.4552051   -2.0392478  0.029641161   -3.4552051    1.4159574   319820 
 4602000   0.68927779   -3.4582089   -2.0386479  0.029547526   -3.4582089    1.4195609   319783 
 4603000   0.68860709   -3.4563893    -2.037837  0.028810096   -3.4563893    1.4185523   319699 
 4604000   0.68946026   -3.4569344   -2.0363713  0.027181098   -3.4569344    1.4205631   319642 
 4605000    0.6898818   -3.4566605   -2.0351666  0.030061923   -3.4566605    1.4214939   319628 
 4606000   0.68907131   -3.4568798   -2.0368649  0.025388511   -3.4568798    1.4200149   319585 
 4607000   0.68981277   -3.4578941   -2.0361243  0.027536619   -3.4578941    1.4217698   319534 
 4608000   0.68912025   -3.4563328   -2.0357058  0.029401324   -3.4563328     1.420627   319470 
 4609000   0.68916813   -3.4565455   -2.0356642  0.032106262   -3.4565455    1.4208814   319435 
 4610000   0.68912947   -3.4550253   -2.0342592  0.029802201   -3.4550253    1.4207661   319443 
 4611000   0.68920294   -3.4557811   -2.0347702  0.031233071   -3.4557811     1.421011   319422 
 4612000   0.68846723   -3.4532411   -2.0333603  0.029595289   -3.4532411    1.4198808   319335 
 4613000   0.68692718   -3.4506273   -2.0335632  0.035332831   -3.4506273    1.4170641   319254 
 4614000   0.68731595   -3.4511466   -2.0329918  0.027089195   -3.4511466    1.4181548   319189 
 4615000   0.68970998   -3.4543772   -2.0310643   0.02448124   -3.4543772    1.4233129   319140 
 4616000   0.68955013    -3.453802   -2.0306807  0.028714855    -3.453802    1.4231213   319109 
 4617000   0.68908359   -3.4520293   -2.0295098  0.029607044   -3.4520293    1.4225195   319028 
 4618000   0.68962237   -3.4522904   -2.0285292  0.032016147   -3.4522904    1.4237612   318999 
 4619000   0.68815019   -3.4511833   -2.0299759  0.031802957   -3.4511833    1.4212074   318890 
 4620000   0.68795853   -3.4499898   -2.0288885  0.027953629   -3.4499898    1.4211013   318825 
 4621000    0.6886094   -3.4516295   -2.0288536  0.025358715   -3.4516295     1.422776   318751 
 4622000   0.68753496   -3.4498744   -2.0290375  0.026468104   -3.4498744    1.4208368   318688 
 4623000   0.68759945   -3.4505647   -2.0293894  0.031018545   -3.4505647    1.4211752   318642 
 4624000   0.68879094   -3.4523715   -2.0284834  0.027941984   -3.4523715    1.4238881   318586 
 4625000    0.6882419   -3.4481731   -2.0254288  0.031860116   -3.4481731    1.4227442   318588 
 4626000   0.68986556   -3.4519916   -2.0257119  0.032739562   -3.4519916    1.4262798   318548 
 4627000   0.68870391   -3.4499853   -2.0259553  0.027957749   -3.4499853      1.42403   318514 
 4628000   0.68771428   -3.4477825   -2.0256379  0.028781474   -3.4477825    1.4221445   318478 
 4629000   0.68730863   -3.4493159   -2.0276889  0.028602489   -3.4493159    1.4216271   318406 
 4630000   0.68911909   -3.4512494   -2.0258239   0.03050955   -3.4512494    1.4254255   318394 
 4631000   0.68688649   -3.4471847   -2.0262076  0.031798426   -3.4471847    1.4209771   318356 
 4632000   0.68707359   -3.4473135   -2.0258467   0.02693661   -3.4473135    1.4214668   318333 
 4633000   0.68684829   -3.4457023   -2.0246659  0.028916947   -3.4457023    1.4210364   318325 
 4634000   0.68597059   -3.4448854   -2.0254553  0.030049676   -3.4448854    1.4194301   318278 
 4635000   0.68653318    -3.443604   -2.0228714  0.032093851    -3.443604    1.4207326   318247 
 4636000   0.68662363   -3.4434736   -2.0223976  0.029966822   -3.4434736    1.4210761   318212 
 4637000   0.68775359   -3.4472444    -2.023521  0.034548473   -3.4472444    1.4237234   318143 
 4638000   0.68542842   -3.4428395    -2.023577  0.030818155   -3.4428395    1.4192625   318064 
 4639000   0.68607319   -3.4446545    -2.024048   0.02907026   -3.4446545    1.4206065   318062 
 4640000   0.68480991   -3.4418228     -2.02352  0.024718931   -3.4418228    1.4183028   317992 
 4641000   0.68500136   -3.4429789   -2.0241368   0.02732342   -3.4429789    1.4188421   317960 
 4642000    0.6860835   -3.4438993   -2.0226996  0.023176321   -3.4438993    1.4211998   317934 
 4643000   0.68606551     -3.44093   -2.0195842  0.028803164     -3.44093    1.4213458   317893 
 4644000   0.68600804   -3.4417344   -2.0201991  0.032281618   -3.4417344    1.4215353   317824 
 4645000    0.6876483   -3.4441818   -2.0188843  0.031153832   -3.4441818    1.4252975   317743 
 4646000   0.68785539   -3.4438962   -2.0180797  0.033987546   -3.4438962    1.4258164   317723 
 4647000   0.68594264   -3.4415287   -2.0193862  0.029569526   -3.4415287    1.4221426   317658 
 4648000   0.68561826   -3.4426584   -2.0208124  0.026692722   -3.4426584     1.421846   317574 
 4649000   0.68489638   -3.4426985    -2.022005  0.029296739   -3.4426985    1.4206934   317497 
 4650000   0.68421665   -3.4420529   -2.0227158  0.023790421   -3.4420529    1.4193371   317485 
 4651000   0.68557193   -3.4444885   -2.0221339  0.026525238   -3.4444885    1.4223546   317439 
 4652000   0.68659484   -3.4461462   -2.0213642   0.03002204   -3.4461462     1.424782   317371 
 4653000   0.68672283   -3.4444401     -2.01937  0.033439692   -3.4444401    1.4250701   317366 
 4654000   0.68670938   -3.4433256   -2.0179286  0.032177325   -3.4433256     1.425397   317287 
 4655000   0.68723475   -3.4440787   -2.0173394  0.029923988   -3.4440787    1.4267393   317231 
 4656000   0.68700032   -3.4436578   -2.0173647   0.02986671   -3.4436578    1.4262931   317222 
 4657000   0.68541412   -3.4424762   -2.0191263  0.031188391   -3.4424762    1.4233499   317144 
 4658000   0.68471368   -3.4431596   -2.0209234  0.030565008   -3.4431596    1.4222362   317068 
 4659000   0.68456535   -3.4434343   -2.0212506  0.030465306   -3.4434343    1.4221837   317011 
 4660000   0.68344352   -3.4428969   -2.0229945  0.028315962   -3.4428969    1.4199024   317000 
 4661000   0.68453394   -3.4414255   -2.0191545  0.030102734   -3.4414255     1.422271   316977 
 4662000   0.68403534   -3.4383501   -2.0172361  0.030489747   -3.4383501     1.421114   317004 
 4663000    0.6843421   -3.4410925   -2.0191079  0.024433855   -3.4410925    1.4219846   316952 
 4664000   0.68450773   -3.4404407   -2.0179593  0.032022458   -3.4404407    1.4224814   316918 
 4665000   0.68548621   -3.4410516   -2.0163211  0.028059299   -3.4410516    1.4247305   316870 
 4666000    0.6854369   -3.4415471   -2.0167347  0.031311102   -3.4415471    1.4248124   316829 
 4667000   0.68569684   -3.4415642    -2.016018  0.034255092   -3.4415642    1.4255462   316786 
 4668000   0.68522382   -3.4403948   -2.0157735  0.034709898   -3.4403948    1.4246213   316773 
 4669000   0.68558177    -3.442807    -2.017203  0.030077511    -3.442807     1.425604   316720 
 4670000    0.6834271   -3.4391576   -2.0178007  0.027500773   -3.4391576    1.4213569   316668 
 4671000   0.68216894   -3.4366423   -2.0176287  0.032178048   -3.4366423    1.4190136   316607 
 4672000   0.68416487   -3.4406505   -2.0172692  0.027713861   -3.4406505    1.4233812   316559 
 4673000   0.68436072   -3.4411496   -2.0171494  0.026917326   -3.4411496    1.4240001   316512 
 4674000    0.6834398   -3.4402014   -2.0179602  0.027837417   -3.4402014    1.4222412   316477 
 4675000   0.68253395   -3.4389738   -2.0182227  0.029954083   -3.4389738    1.4207511   316389 
 4676000   0.68314006   -3.4402137   -2.0177872  0.026061338   -3.4402137    1.4224264   316297 
 4677000   0.68431276   -3.4407699   -2.0159872  0.027186333   -3.4407699    1.4247826   316316 
 4678000    0.6845539   -3.4390077   -2.0135653  0.027425086   -3.4390077    1.4254424   316281 
 4679000   0.68467201   -3.4394627   -2.0135038  0.028852516   -3.4394627    1.4259589   316221 
 4680000    0.6849176   -3.4378514   -2.0112547  0.030250859   -3.4378514    1.4265967   316193 
 4681000   0.68448465   -3.4387769   -2.0126355  0.032887156   -3.4387769    1.4261414   316094 
 4682000   0.68277133   -3.4354374   -2.0125686  0.033100294   -3.4354374    1.4228688   316028 
 4683000   0.68305586   -3.4359873   -2.0124535   0.03094916   -3.4359873    1.4235338   316012 
 4684000   0.68296773   -3.4343417   -2.0108114  0.028240336   -3.4343417    1.4235303   315972 
 4685000   0.68249169   -3.4348752    -2.012175  0.027199588   -3.4348752    1.4227002   315936 
 4686000   0.68246483   -3.4342464   -2.0115482  0.026701027   -3.4342464    1.4226982   315924 
 4687000   0.68196491   -3.4342772    -2.012189  0.028739568   -3.4342772    1.4220882   315828 
 4688000    0.6808306   -3.4319779   -2.0121202  0.027978565   -3.4319779    1.4198577   315798 
 4689000    0.6815613   -3.4324607   -2.0109801  0.033592968   -3.4324607    1.4214806   315776 
 4690000   0.68240215   -3.4344984   -2.0110116   0.03017519   -3.4344984    1.4234867   315720 
 4691000   0.68118126   -3.4318122   -2.0107237  0.030624096   -3.4318122    1.4210885   315687 
 4692000   0.68028263   -3.4331518   -2.0134748  0.028111044   -3.4331518     1.419677   315584 
 4693000   0.67976007   -3.4331414   -2.0143347  0.025357204   -3.4331414    1.4188067   315535 
 4694000   0.67912543   -3.4324989   -2.0149628  0.023500268   -3.4324989     1.417536   315523 
 4695000   0.68053276   -3.4363435   -2.0156854  0.024998101   -3.4363435    1.4206581   315482 
 4696000   0.68086744   -3.4351571     -2.01362  0.030198222   -3.4351571     1.421537   315442 
 4697000   0.68209373   -3.4358488   -2.0114986  0.030971292   -3.4358488    1.4243502   315386 
 4698000   0.68339775   -3.4386468   -2.0114468   0.03393303   -3.4386468       1.4272   315358 
 4699000   0.68374537   -3.4384613   -2.0104266  0.028646314   -3.4384613    1.4280346   315334 
 4700000   0.68267632   -3.4387048   -2.0126407  0.023837012   -3.4387048    1.4260641   315276 
 4701000   0.68219211   -3.4379602   -2.0129256  0.028413203   -3.4379602    1.4250346   315280 
 4702000   0.68090497   -3.4364708   -2.0139309   0.02791828   -3.4364708    1.4225399   315237 
 4703000   0.68214903   -3.4386902   -2.0133885  0.032023339   -3.4386902    1.4253017   315201 
 4704000    0.6823347    -3.439222    -2.013469  0.032252704    -3.439222     1.425753   315187 
 4705000   0.68278006   -3.4391911   -2.0122268  0.035712022   -3.4391911    1.4269643   315125 
 4706000   0.68100857    -3.438198   -2.0145565  0.029113889    -3.438198    1.4236415   315041 
 4707000   0.68052878   -3.4382466   -2.0152061  0.028709776   -3.4382466    1.4230405   314952 
 4708000   0.67943428   -3.4369175   -2.0160168   0.03148712   -3.4369175    1.4209007   314919 
 4709000   0.67976955   -3.4385404   -2.0167263  0.028561973   -3.4385404     1.421814   314872 
 4710000   0.68032515   -3.4402625   -2.0169564  0.029312391   -3.4402625    1.4233061   314799 
 4711000   0.67933287     -3.43771   -2.0163218  0.031493817     -3.43771    1.4213882   314764 
 4712000   0.68019563    -3.439912   -2.0166011  0.033460285    -3.439912    1.4233109   314738 
 4713000   0.67940345    -3.437991   -2.0161795  0.030836289    -3.437991    1.4218114   314703 
 4714000   0.67995305   -3.4377406   -2.0145665  0.026501735   -3.4377406    1.4231741   314656 
 4715000   0.67953283   -3.4364032   -2.0136836  0.026152545   -3.4364032    1.4227196   314562 
 4716000   0.67875925   -3.4336694   -2.0124157   0.03147291   -3.4336694    1.4212536   314528 
 4717000    0.6789386   -3.4342834   -2.0123966  0.032099205   -3.4342834    1.4218868   314471 
 4718000   0.67973821   -3.4374508   -2.0137219  0.030175991   -3.4374508    1.4237289   314434 
 4719000   0.67919142   -3.4355679   -2.0125633  0.027298062   -3.4355679    1.4230046   314341 
 4720000   0.67759764    -3.433563   -2.0135634  0.026168555    -3.433563    1.4199997   314267 
 4721000   0.67647732   -3.4300017   -2.0122506   0.02915579   -3.4300017    1.4177511   314245 
 4722000   0.67821281   -3.4311114   -2.0095737  0.030139796   -3.4311114    1.4215376   314212 
 4723000    0.6790561    -3.432194   -2.0086442  0.030711675    -3.432194    1.4235498   314158 
 4724000   0.67948698   -3.4327374   -2.0080803  0.036817589   -3.4327374    1.4246572   314113 
 4725000   0.68042099   -3.4356528   -2.0087784  0.030728357   -3.4356528    1.4268744   314056 
 4726000   0.67990496   -3.4336925   -2.0077141  0.029552967   -3.4336925    1.4259784   314015 
 4727000   0.67980488   -3.4352044   -2.0090862  0.026610604   -3.4352044    1.4261182   313938 
 4728000   0.67750855   -3.4310302   -2.0094621  0.030737958   -3.4310302     1.421568   313879 
 4729000   0.67754591   -3.4310301   -2.0092704  0.031620458   -3.4310301    1.4217597   313854 
 4730000   0.67766705   -3.4311269   -2.0089272  0.024563272   -3.4311269    1.4221997   313813 
 4731000   0.67782829   -3.4316631   -2.0087442  0.024653083   -3.4316631    1.4229189   313729 
 4732000   0.67703461    -3.430401   -2.0089941  0.029651406    -3.430401    1.4214069   313695 
 4733000   0.67620197   -3.4294854   -2.0096094  0.032609734   -3.4294854     1.419876   313647 
 4734000   0.67757517   -3.4303546   -2.0073955  0.030332462   -3.4303546    1.4229591   313603 
 4735000   0.67687427   -3.4304522   -2.0086069  0.021201082   -3.4304522    1.4218453   313524 
 4736000   0.67606423   -3.4291173   -2.0088558  0.024182598   -3.4291173    1.4202615   313498 
 4737000   0.67565901   -3.4264919   -2.0068055  0.028168153   -3.4264919    1.4196865   313437 
 4738000   0.67676173   -3.4283808   -2.0062775  0.027061736   -3.4283808    1.4221033   313415 
 4739000   0.67667164   -3.4293034   -2.0072442  0.030959406   -3.4293034    1.4220592   313383 
 4740000   0.67619775   -3.4291918   -2.0080152  0.027883649   -3.4291918    1.4211767   313358 
 4741000   0.67635386   -3.4298828   -2.0081557  0.030828183   -3.4298828    1.4217271   313309 
 4742000   0.67664833    -3.429469    -2.006846  0.029252631    -3.429469     1.422623   313248 
 4743000   0.67726206   -3.4318489   -2.0074808  0.030321184   -3.4318489    1.4243681   313148 
 4744000   0.67684145   -3.4309894   -2.0071604  0.028710801   -3.4309894    1.4238291   313072 
 4745000    0.6771632   -3.4313298   -2.0064325  0.028244517   -3.4313298    1.4248973   312986 
 4746000   0.67640428   -3.4325081    -2.008953  0.029659794   -3.4325081    1.4235551   312930 
 4747000   0.67578191   -3.4312305   -2.0087716  0.023465884   -3.4312305    1.4224589   312883 
 4748000   0.67653944    -3.432782   -2.0085328  0.026992375    -3.432782    1.4242492   312840 
 4749000   0.67591611   -3.4334693   -2.0099909  0.027256012   -3.4334693    1.4234784   312721 
 4750000   0.67595962   -3.4321907    -2.008475  0.030491515   -3.4321907    1.4237157   312689 
 4751000   0.67630143   -3.4341278   -2.0095008  0.030790035   -3.4341278     1.424627   312647 
 4752000   0.67545626   -3.4344977   -2.0112778   0.02477819   -3.4344977    1.4232199   312565 
 4753000   0.67456263   -3.4331317   -2.0114808  0.028619283   -3.4331317    1.4216508   312496 
 4754000    0.6745557   -3.4326566   -2.0106972    0.0313161   -3.4326566    1.4219593   312425 
 4755000   0.67519319   -3.4346991   -2.0110315  0.029351349   -3.4346991    1.4236677   312345 
 4756000   0.67461769   -3.4340412   -2.0114776  0.029008177   -3.4340412    1.4225635   312321 
 4757000   0.67443273   -3.4351487   -2.0126017  0.022068935   -3.4351487     1.422547   312239 
 4758000   0.67500681   -3.4352282   -2.0111465  0.029215324   -3.4352282    1.4240817   312168 
 4759000   0.67383942   -3.4349814   -2.0131349  0.023058453   -3.4349814    1.4218466   312118 
 4760000   0.67200295    -3.433755     -2.01552  0.030306276    -3.433755     1.418235   312060 
 4761000   0.67140815   -3.4314844   -2.0142277  0.024357805   -3.4314844    1.4172568   311999 
 4762000   0.67262551   -3.4332713   -2.0133447  0.032740825   -3.4332713    1.4199266   311977 
 4763000   0.67322088   -3.4342896   -2.0128875  0.030965329   -3.4342896    1.4214021   311929 
 4764000   0.67441301   -3.4360996     -2.01187  0.028237098   -3.4360996    1.4242296   311861 
 4765000   0.67244736   -3.4331417   -2.0129311  0.023809995   -3.4331417    1.4202106   311832 
 4766000   0.67290204    -3.432573   -2.0108824  0.029377355    -3.432573    1.4216906   311718 
 4767000   0.67201674   -3.4329839   -2.0130271  0.028937995   -3.4329839    1.4199568   311688 
 4768000   0.67234828   -3.4349865    -2.014238  0.027777069   -3.4349865    1.4207485   311668 
 4769000   0.67278943   -3.4349533   -2.0130901  0.031846069   -3.4349533    1.4218632   311628 
 4770000   0.67209222   -3.4321497   -2.0118784  0.027783787   -3.4321497    1.4202713   311654 
 4771000   0.67235307   -3.4345094   -2.0132263  0.031262098   -3.4345094    1.4212831   311553 
 4772000   0.67274606   -3.4350148   -2.0127275  0.025856646   -3.4350148    1.4222873   311515 
 4773000   0.67285035    -3.435472   -2.0127725  0.029540644    -3.435472    1.4226996   311473 
 4774000    0.6714747   -3.4339333   -2.0138004  0.033344942   -3.4339333    1.4201328   311398 
 4775000   0.67055699   -3.4332477   -2.0147505  0.025088235   -3.4332477    1.4184971   311331 
 4776000   0.67155344   -3.4349688   -2.0139256   0.02716052   -3.4349688    1.4210432   311235 
 4777000   0.67193127   -3.4321199   -2.0102361  0.027615784   -3.4321199    1.4218838   311226 
 4778000   0.67341664   -3.4337008   -2.0085776   0.03314643   -3.4337008    1.4251232   311205 
 4779000   0.67343568   -3.4339891   -2.0085141  0.033467248   -3.4339891     1.425475   311137 
 4780000    0.6740668   -3.4347188   -2.0078529  0.032651906   -3.4347188    1.4268659   311125 
 4781000   0.67286009   -3.4318532   -2.0071936  0.029177938   -3.4318532    1.4246596   311049 
 4782000   0.67214649   -3.4331345   -2.0096701  0.030702355   -3.4331345    1.4234644   310980 
 4783000   0.67166103   -3.4337864   -2.0110069  0.029411573   -3.4337864    1.4227794   310905 
 4784000   0.67080353    -3.432043   -2.0109246  0.028027346    -3.432043    1.4211184   310871 
 4785000   0.66995562   -3.4301435   -2.0104378  0.031461489   -3.4301435    1.4197057   310787 
 4786000   0.66978958   -3.4315229   -2.0119041  0.027134703   -3.4315229    1.4196188   310729 
 4787000   0.66877075   -3.4294707   -2.0119429  0.025545312   -3.4294707    1.4175278   310714 
 4788000   0.66953772   -3.4293832   -2.0099328  0.029543221   -3.4293832    1.4194504   310649 
 4789000   0.67014387   -3.4327028   -2.0114595  0.028177626   -3.4327028    1.4212433   310538 
 4790000   0.66987971   -3.4323881   -2.0117325  0.030486427   -3.4323881    1.4206556   310544 
 4791000   0.67052853   -3.4290984   -2.0069569  0.025097653   -3.4290984    1.4221415   310520 
 4792000   0.67033285   -3.4286557   -2.0064483  0.028696276   -3.4286557    1.4222074   310415 
 4793000   0.67069711   -3.4296299   -2.0062966  0.031312391   -3.4296299    1.4233333   310338 
 4794000   0.67041579   -3.4304456   -2.0075763  0.026851738   -3.4304456    1.4228692   310309 
 4795000    0.6685215    -3.427239     -2.00807  0.029505057    -3.427239     1.419169   310239 
 4796000   0.67064355   -3.4306425    -2.006831  0.028510845   -3.4306425    1.4238115   310209 
 4797000   0.66922816   -3.4276489   -2.0068194  0.027903046   -3.4276489    1.4208294   310204 
 4798000   0.67040785   -3.4293419    -2.005806  0.027570911   -3.4293419    1.4235359   310160 
 4799000   0.66891698   -3.4283062   -2.0076474  0.031343001   -3.4283062    1.4206588   310097 
 4800000   0.66912974   -3.4273538   -2.0060277  0.030054255   -3.4273538    1.4213261   310050 
 4801000   0.67009119   -3.4278105   -2.0041069  0.029015387   -3.4278105    1.4237036   309977 
 4802000   0.66911994   -3.4258669   -2.0041352  0.030821061   -3.4258669    1.4217317   309957 
 4803000   0.67032561   -3.4288605   -2.0044016  0.025161482   -3.4288605    1.4244589   309921 
 4804000   0.66987373   -3.4254459    -2.001814  0.029685135   -3.4254459    1.4236319   309892 
 4805000   0.66934041   -3.4250125   -2.0020089   0.02912375   -3.4250125    1.4230036   309782 
 4806000   0.67034547   -3.4257844   -2.0007545  0.023796375   -3.4257844    1.4250299   309806 
 4807000   0.67025815    -3.427417   -2.0022875  0.024313099    -3.427417    1.4251295   309744 
 4808000   0.66982141   -3.4263771   -2.0018773  0.024486603   -3.4263771    1.4244998   309679 
 4809000   0.66895755   -3.4261671   -2.0030954  0.029876814   -3.4261671    1.4230717   309590 
 4810000   0.66954292   -3.4288452   -2.0044915   0.02244665   -3.4288452    1.4243537   309582 
 4811000   0.66967629   -3.4297232   -2.0047129  0.025989239   -3.4297232    1.4250103   309501 
 4812000    0.6677025   -3.4259157   -2.0047749  0.028847988   -3.4259157    1.4211408   309429 
 4813000    0.6674917   -3.4269262    -2.005931  0.024290817   -3.4269262    1.4209953   309363 
 4814000   0.66783104   -3.4267114    -2.004626  0.027193876   -3.4267114    1.4220854   309283 
 4815000   0.66740969   -3.4262152   -2.0046961  0.028672887   -3.4262152    1.4215191   309211 
 4816000   0.66774307   -3.4264579   -2.0040631  0.030196792   -3.4264579    1.4223948   309175 
 4817000   0.66730516   -3.4270432   -2.0053789  0.031076928   -3.4270432    1.4216643   309131 
 4818000   0.66782709   -3.4299512   -2.0069079  0.028548832   -3.4299512    1.4230432   309073 
 4819000   0.66819812   -3.4291716   -2.0051028  0.028506898   -3.4291716    1.4240688   309022 
 4820000   0.66884231   -3.4311997   -2.0056242   0.02506336   -3.4311997    1.4255755   308993 
 4821000   0.66777853   -3.4303181   -2.0065537  0.030266221   -3.4303181    1.4237643   308894 
 4822000   0.66874292   -3.4314906   -2.0055501  0.027981225   -3.4314906    1.4259405   308868 
 4823000    0.6669577    -3.426004   -2.0038102  0.029080354    -3.426004    1.4221938   308855 
 4824000   0.66568839   -3.4272481   -2.0075035  0.028295938   -3.4272481    1.4197446   308799 
 4825000    0.6672723   -3.4304799    -2.006887  0.028327171   -3.4304799    1.4235929   308697 
 4826000   0.66720266   -3.4302961   -2.0068426  0.030342734   -3.4302961    1.4234536   308695 
 4827000   0.66727094   -3.4278265   -2.0040382  0.028513556   -3.4278265    1.4237883   308654 
 4828000   0.66676826   -3.4283092   -2.0054137  0.030904938   -3.4283092    1.4228955   308615 
 4829000   0.66696161   -3.4275435   -2.0040462  0.031253832   -3.4275435    1.4234973   308574 
 4830000    0.6669277   -3.4291915   -2.0055498  0.025914327   -3.4291915    1.4236417   308527 
 4831000   0.66561346   -3.4287672   -2.0077237  0.029991002   -3.4287672    1.4210436   308482 
 4832000   0.66581903   -3.4290445    -2.007244  0.029866834   -3.4290445    1.4218005   308413 
 4833000   0.66516888   -3.4298074   -2.0089668  0.030312212   -3.4298074    1.4208406   308320 
 4834000   0.66519142    -3.429615   -2.0086064  0.027730872    -3.429615    1.4210086   308294 
 4835000   0.66460933    -3.428839   -2.0089081  0.029156446    -3.428839    1.4199309   308258 
 4836000   0.66352593   -3.4281553   -2.0103367  0.025981264   -3.4281553    1.4178186   308214 
 4837000   0.66500346   -3.4300266   -2.0089309  0.026689557   -3.4300266    1.4210957   308188 
 4838000   0.66600922   -3.4300216   -2.0064579  0.031573252   -3.4300216    1.4235637   308119 
 4839000   0.66568262   -3.4310714   -2.0079149  0.024642048   -3.4310714    1.4231566   308056 
 4840000   0.66381022   -3.4292525   -2.0097625  0.030915764   -3.4292525    1.4194899   307983 
 4841000   0.66591696   -3.4309885    -2.006975  0.031810286   -3.4309885    1.4240135   307979 
 4842000   0.66640864   -3.4322135   -2.0068848  0.030574747   -3.4322135    1.4253287   307922 
 4843000   0.66723515   -3.4317069   -2.0040773  0.030508655   -3.4317069    1.4276296   307807 
 4844000   0.66542733   -3.4288686   -2.0050931  0.030793412   -3.4288686    1.4237755   307804 
 4845000   0.66596509    -3.428187   -2.0030341  0.034285274    -3.428187     1.425153   307755 
 4846000   0.66643602   -3.4293675   -2.0030631  0.028278785   -3.4293675    1.4263044   307724 
 4847000   0.66594941   -3.4287622   -2.0034112  0.024360829   -3.4287622     1.425351   307705 
 4848000   0.66480393   -3.4255565   -2.0024862  0.029914804   -3.4255565    1.4230704   307668 
 4849000   0.66535739   -3.4255222   -2.0009846  0.028392876   -3.4255222    1.4245376   307607 
 4850000   0.66408421   -3.4246404   -2.0026438  0.027805704   -3.4246404    1.4219966   307567 
 4851000   0.66378941   -3.4243412   -2.0027818  0.030544406   -3.4243412    1.4215595   307525 
 4852000   0.66232557   -3.4216442   -2.0029567  0.030595487   -3.4216442    1.4186875   307468 
 4853000    0.6640847   -3.4231995   -2.0004849  0.027330863   -3.4231995    1.4227146   307412 
 4854000   0.66418646   -3.4229564   -1.9998525  0.027158921   -3.4229564    1.4231039   307375 
 4855000   0.66372978   -3.4219572   -1.9996143  0.026606285   -3.4219572    1.4223429   307328 
 4856000   0.66415238   -3.4226653   -1.9991204  0.031068503   -3.4226653     1.423545   307264 
 4857000   0.66304601   -3.4214553   -1.9999209  0.028232872   -3.4214553    1.4215344   307186 
 4858000   0.66323253   -3.4220285    -1.999872  0.030632663   -3.4220285    1.4221565   307138 
 4859000   0.66342259   -3.4214632   -1.9985887  0.028505071   -3.4214632    1.4228745   307071 
 4860000   0.66301176   -3.4223124   -2.0001199  0.028731396   -3.4223124    1.4221925   307028 
 4861000   0.66316013   -3.4232852   -2.0002646  0.024714362   -3.4232852    1.4230206   306918 
 4862000   0.66268051   -3.4245543   -2.0020298  0.026337454   -3.4245543    1.4225244   306803 
 4863000   0.66235877   -3.4228955   -2.0009459  0.029193094   -3.4228955    1.4219496   306778 
 4864000   0.66299223   -3.4229976   -1.9993446  0.030341289   -3.4229976    1.4236529   306704 
 4865000   0.66299586   -3.4240262   -1.9998733  0.026407561   -3.4240262    1.4241529   306598 
 4866000   0.66207113   -3.4236946    -2.001129  0.024539714   -3.4236946    1.4225656   306512 
 4867000   0.66295315   -3.4237299   -1.9993156  0.028591708   -3.4237299    1.4244143   306522 
 4868000   0.66321725   -3.4237004   -1.9985699  0.026808109   -3.4237004    1.4251305   306490 
 4869000   0.66213484   -3.4220982   -1.9990522  0.025453571   -3.4220982     1.423046   306438 
 4870000   0.66241241   -3.4232086   -1.9994034   0.02923099   -3.4232086    1.4238052   306403 
 4871000   0.66183789   -3.4228516    -2.000128  0.029564678   -3.4228516    1.4227236   306370 
 4872000   0.66161404   -3.4233281   -2.0011322  0.025833481   -3.4233281    1.4221959   306380 
 4873000   0.66131389   -3.4219162   -2.0004119  0.025912652   -3.4219162    1.4215043   306390 
 4874000   0.66241712   -3.4231039   -1.9989818  0.024995814   -3.4231039    1.4241221   306337 
 4875000   0.66272899   -3.4240282   -1.9990449  0.030556128   -3.4240282    1.4249833   306296 
 4876000   0.66369288   -3.4261656   -1.9987136  0.032464185   -3.4261656     1.427452   306211 
 4877000   0.66285791   -3.4262121   -2.0004442  0.028956452   -3.4262121    1.4257679   306187 
 4878000   0.66218273   -3.4248638   -2.0005575  0.027248285   -3.4248638    1.4243063   306189 
 4879000   0.66182376   -3.4237307   -2.0000802  0.031903393   -3.4237307    1.4236504   306164 
 4880000   0.66396242   -3.4278047   -1.9993159  0.030143233   -3.4278047    1.4284889   306113 
 4881000   0.66201612   -3.4245162   -2.0001031  0.030642737   -3.4245162    1.4244131   306089 
 4882000   0.66294879    -3.426944   -2.0004029  0.030385858    -3.426944    1.4265411   306063 
 4883000   0.66212524   -3.4246741   -1.9997841   0.03012695   -3.4246741      1.42489   306037 
 4884000   0.66311409   -3.4235628   -1.9964376  0.033503231   -3.4235628    1.4271253   306014 
 4885000   0.66239612   -3.4238471   -1.9978943  0.029376408   -3.4238471    1.4259529   305934 
 4886000   0.66290265   -3.4240775   -1.9968616  0.029046007   -3.4240775    1.4272159   305897 
 4887000   0.66267133   -3.4221176   -1.9951899  0.026754915   -3.4221176    1.4269278   305852 
 4888000   0.66212373    -3.421165   -1.9952112  0.034561153    -3.421165    1.4259538   305808 
 4889000   0.66052473   -3.4198197   -1.9969048  0.028263148   -3.4198197    1.4229149   305721 
 4890000   0.66252573   -3.4216607   -1.9942018  0.030524488   -3.4216607     1.427459   305671 
 4891000   0.66212805   -3.4209691   -1.9941756  0.028594388   -3.4209691    1.4267935   305630 
 4892000   0.66149064   -3.4198349   -1.9942936  0.032953501   -3.4198349    1.4255413   305604 
 4893000    0.6621011   -3.4193711   -1.9924769  0.031706763   -3.4193711    1.4268942   305596 
 4894000   0.66020386   -3.4158477   -1.9927907  0.027074987   -3.4158477    1.4230569   305542 
 4895000   0.65975966   -3.4152891   -1.9929569  0.026879337   -3.4152891    1.4223322   305492 
 4896000   0.65988673    -3.413693   -1.9909984  0.029754402    -3.413693    1.4226946   305473 
 4897000   0.66042683   -3.4160249   -1.9919234  0.025843094   -3.4160249    1.4241015   305421 
 4898000   0.65972379   -3.4143099   -1.9914961  0.029156705   -3.4143099    1.4228138   305372 
 4899000   0.65979518   -3.4136201   -1.9905032  0.029149455   -3.4136201    1.4231169   305340 
 4900000   0.66091748   -3.4132258   -1.9875155  0.031384254   -3.4132258    1.4257103   305303 
 4901000   0.66006935   -3.4132054   -1.9888441  0.028900144   -3.4132054    1.4243613   305200 
 4902000   0.65978057   -3.4147439   -1.9907771   0.02955406   -3.4147439    1.4239668   305151 
 4903000   0.65946003    -3.414025   -1.9904235  0.026510534    -3.414025    1.4236015   305081 
 4904000   0.65969348   -3.4129375   -1.9886873  0.032083535   -3.4129375    1.4242502   305050 
 4905000   0.65965344   -3.4158005    -1.991464  0.028185556   -3.4158005    1.4243365   305013 
 4906000   0.66048298   -3.4179432     -1.99175  0.028711789   -3.4179432    1.4261932   304999 
 4907000   0.65851021    -3.415321   -1.9931965  0.027571028    -3.415321    1.4221245   304958 
 4908000   0.65841509   -3.4140036   -1.9917394   0.02744959   -3.4140036    1.4222642   304884 
 4909000   0.65942301   -3.4156859   -1.9909174  0.028607134   -3.4156859    1.4247686   304814 
 4910000   0.65951101   -3.4147586    -1.989468  0.028121245   -3.4147586    1.4252907   304743 
 4911000   0.65914922   -3.4153521   -1.9906516  0.029464529   -3.4153521    1.4247005   304702 
 4912000   0.66006521   -3.4164421   -1.9894948  0.030298793   -3.4164421    1.4269472   304645 
 4913000   0.65962983    -3.416284   -1.9900205  0.027937282    -3.416284    1.4262635   304590 
 4914000   0.65909435   -3.4147912   -1.9891847  0.031132367   -3.4147912    1.4256065   304483 
 4915000   0.65869157   -3.4149631   -1.9901903  0.031885181   -3.4149631    1.4247727   304475 
 4916000   0.65972736   -3.4188652   -1.9915238  0.028380418   -3.4188652    1.4273414   304405 
 4917000    0.6589425   -3.4177085   -1.9919575  0.029181341   -3.4177085     1.425751   304382 
 4918000    0.6588073   -3.4172421    -1.991601  0.036237571   -3.4172421    1.4256411   304343 
 4919000   0.65866712   -3.4159178   -1.9903786  0.028839905   -3.4159178    1.4255392   304300 
 4920000   0.65822607   -3.4152266   -1.9904079  0.034004007   -3.4152266    1.4248188   304250 
 4921000   0.65816048   -3.4169425   -1.9918582  0.032176576   -3.4169425    1.4250843   304163 
 4922000    0.6577601   -3.4161495   -1.9917916  0.028152855   -3.4161495    1.4243579   304133 
 4923000   0.65693982   -3.4162994   -1.9935494  0.032763558   -3.4162994      1.42275   304097 
 4924000   0.65719279   -3.4165481   -1.9931332  0.029391682   -3.4165481    1.4234149   304072 
 4925000   0.65762389   -3.4161565   -1.9914612  0.028390765   -3.4161565    1.4246953   303998 
 4926000   0.65775413    -3.416272   -1.9909617  0.027598673    -3.416272    1.4253103   303927 
 4927000   0.65774519   -3.4182102   -1.9926425  0.030184779   -3.4182102    1.4255677   303868 
 4928000   0.65717777   -3.4162922   -1.9916167  0.032100824   -3.4162922    1.4246755   303796 
 4929000   0.65763753   -3.4180103   -1.9921128  0.024167225   -3.4180103    1.4258975   303748 
 4930000   0.65648803    -3.413937    -1.990171  0.030966535    -3.413937     1.423766   303671 
 4931000   0.65697802   -3.4156737   -1.9907699  0.030055867   -3.4156737    1.4249038   303655 
 4932000    0.6561584    -3.413923   -1.9905719   0.02561657    -3.413923    1.4233511   303607 
 4933000   0.65722037   -3.4187499   -1.9927616  0.029529751   -3.4187499    1.4259882   303536 
 4934000   0.65650127   -3.4152257     -1.99061  0.034843756   -3.4152257    1.4246157   303496 
 4935000   0.65574272   -3.4130821   -1.9899295  0.033555762   -3.4130821    1.4231525   303457 
 4936000   0.65658823   -3.4169537   -1.9917454  0.030050878   -3.4169537    1.4252083   303410 
 4937000   0.65587262   -3.4156412   -1.9917281  0.023562333   -3.4156412    1.4239131   303355 
 4938000   0.65844022   -3.4189987   -1.9891342  0.034210121   -3.4189987    1.4298645   303275 
 4939000   0.65742213   -3.4182676   -1.9903221  0.031278869   -3.4182676    1.4279455   303213 
 4940000   0.65621313   -3.4161307   -1.9904397   0.03418522   -3.4161307     1.425691   303134 
 4941000   0.65451603   -3.4151846   -1.9929039  0.028992333   -3.4151846    1.4222807   303075 
 4942000   0.65563919   -3.4179213   -1.9930448  0.031107231   -3.4179213    1.4248765   303042 
 4943000   0.65527603   -3.4181817   -1.9939252  0.032009318   -3.4181817    1.4242564   303006 
 4944000   0.65556005   -3.4185066    -1.993473  0.032845383   -3.4185066    1.4250336   302972 
 4945000   0.65496783    -3.415277   -1.9914038  0.030345741    -3.415277    1.4238732   302945 
 4946000   0.65529487   -3.4155851   -1.9906717  0.027754358   -3.4155851    1.4249134   302875 
 4947000   0.65553776   -3.4166946   -1.9909094  0.033135673   -3.4166946    1.4257852   302802 
 4948000   0.65428734   -3.4138853   -1.9905753  0.032627479   -3.4138853      1.42331   302750 
 4949000    0.6547247   -3.4152701   -1.9907358  0.029669469   -3.4152701    1.4245343   302692 
 4950000   0.65351467   -3.4138469   -1.9915977  0.031501746   -3.4138469    1.4222493   302618 
 4951000   0.65392081   -3.4159489   -1.9925194  0.023616561   -3.4159489    1.4234295   302555 
 4952000   0.65156495   -3.4125322   -1.9938839  0.026696083   -3.4125322    1.4186483   302481 
 4953000   0.65227434   -3.4137489   -1.9930863  0.025722178   -3.4137489    1.4206625   302381 
 4954000   0.65283065   -3.4154427   -1.9933804  0.025500179   -3.4154427    1.4220623   302341 
 4955000   0.65167368    -3.412302   -1.9926707  0.031902451    -3.412302    1.4196313   302322 
 4956000   0.65219064   -3.4135421    -1.992639  0.028347002   -3.4135421    1.4209031   302291 
 4957000   0.65384007   -3.4147097   -1.9899019  0.036255675   -3.4147097    1.4248078   302225 
 4958000   0.65387106   -3.4170904   -1.9919746  0.029921168   -3.4170904    1.4251158   302174 
 4959000   0.65357106   -3.4156762   -1.9907946  0.028016398   -3.4156762    1.4248816   302085 
 4960000    0.6529232   -3.4163253   -1.9923753  0.032020576   -3.4163253      1.42395   301983 
 4961000   0.65318467   -3.4187432   -1.9940295  0.020901332   -3.4187432    1.4247137   301942 
 4962000   0.65303181   -3.4165254   -1.9918903  0.031949873   -3.4165254     1.424635   301888 
 4963000   0.65374822   -3.4169215   -1.9904826  0.033069776   -3.4169215    1.4264389   301837 
 4964000    0.6534642   -3.4189297   -1.9927514  0.029435003   -3.4189297    1.4261783   301761 
 4965000   0.65403103   -3.4187563   -1.9910049  0.032750867   -3.4187563    1.4277513   301690 
 4966000   0.65326288   -3.4156858   -1.9893276  0.031920122   -3.4156858    1.4263581   301630 
 4967000    0.6529171   -3.4146365   -1.9889341  0.026124517   -3.4146365    1.4257024   301609 
 4968000   0.65280393    -3.415907   -1.9902863  0.031853341    -3.415907    1.4256207   301574 
 4969000   0.65286119    -3.416979   -1.9911008  0.031028168    -3.416979    1.4258782   301546 
 4970000   0.65195668   -3.4149778   -1.9908768  0.025345119   -3.4149778     1.424101   301504 
 4971000   0.65177175   -3.4133313   -1.9896059  0.027947042   -3.4133313    1.4237254   301498 
 4972000   0.65210038   -3.4139684   -1.9893031   0.02725901   -3.4139684    1.4246653   301451 
 4973000   0.65127125   -3.4126815   -1.9894688  0.025740832   -3.4126815    1.4232127   301375 
 4974000   0.65206625   -3.4138405    -1.988602   0.03012433   -3.4138405    1.4252385   301314 
 4975000     0.652597   -3.4143274   -1.9878104   0.02986798   -3.4143274    1.4265169   301289 
 4976000   0.65298723   -3.4147887   -1.9871344  0.030570364   -3.4147887    1.4276542   301229 
 4977000    0.6507585   -3.4111636   -1.9883444  0.025195529   -3.4111636    1.4228193   301221 
 4978000   0.65066561    -3.410586   -1.9877383  0.026059934    -3.410586    1.4228476   301172 
 4979000   0.65071909   -3.4082976   -1.9848557  0.028340832   -3.4082976    1.4234419   301071 
 4980000   0.64932714    -3.404959   -1.9844062  0.031505155    -3.404959    1.4205527   301038 
 4981000   0.65072589    -3.408144   -1.9842521  0.027772802    -3.408144    1.4238919   300979 
 4982000   0.65015872   -3.4063352   -1.9835473  0.028162335   -3.4063352    1.4227879   300950 
 4983000   0.64992672   -3.4065397   -1.9840704  0.025975481   -3.4065397    1.4224693   300910 
 4984000   0.64931078    -3.404116   -1.9826877  0.031870243    -3.404116    1.4214283   300845 
 4985000    0.6490303   -3.4066672   -1.9855269  0.027026504   -3.4066672    1.4211402   300776 
 4986000   0.65084517   -3.4118883   -1.9864661  0.025682483   -3.4118883    1.4254221   300711 
 4987000   0.64949583   -3.4117314   -1.9891083  0.025505841   -3.4117314    1.4226231   300678 
 4988000   0.64998178   -3.4101468   -1.9863078  0.025161386   -3.4101468     1.423839   300646 
 4989000   0.64952634   -3.4101228   -1.9870969  0.024335987   -3.4101228    1.4230259   300607 
 4990000   0.65017519   -3.4102037   -1.9854908  0.027995649   -3.4102037    1.4247129   300551 
 4991000   0.64873289   -3.4074296   -1.9857778  0.028223242   -3.4074296    1.4216517   300530 
 4992000   0.64990281   -3.4098388   -1.9855995  0.031716359   -3.4098388    1.4242392   300525 
 4993000   0.65118779   -3.4135941   -1.9863394  0.031850013   -3.4135941    1.4272547   300483 
 4994000   0.64954296   -3.4119703   -1.9880174  0.029576958   -3.4119703    1.4239529   300419 
 4995000   0.64856502   -3.4113024   -1.9894508  0.030243934   -3.4113024    1.4218516   300410 
 4996000   0.64788997   -3.4109279   -1.9900974  0.032225169   -3.4109279    1.4208304   300313 
 4997000   0.64844815    -3.412906   -1.9903873  0.026779997    -3.412906    1.4225188   300215 
 4998000   0.64866373   -3.4150648   -1.9915089   0.02706154   -3.4150648    1.4235559   300096 
 4999000   0.64844694   -3.4157829   -1.9926031  0.028159365   -3.4157829    1.4231798   300075 
 5000000   0.64704022   -3.4136146   -1.9932098  0.027702992   -3.4136146    1.4204048   300009 
 5001000   0.64855192   -3.4169195   -1.9927595  0.031353667   -3.4169195      1.42416   299917 
 5002000   0.64771319   -3.4170948   -1.9942261  0.030923267   -3.4170948    1.4228686   299801 
 5003000   0.64775792   -3.4172553   -1.9940178  0.031451957   -3.4172553    1.4232375   299744 
 5004000    0.6483385   -3.4181494   -1.9931989   0.02821912   -3.4181494    1.4249505   299652 
 5005000    0.6473839   -3.4173464   -1.9940523  0.028345887   -3.4173464    1.4232941   299559 
 5006000   0.64744722   -3.4188952   -1.9952528  0.025397014   -3.4188952    1.4236424   299515 
 5007000   0.64669193   -3.4177768   -1.9951159  0.031373232   -3.4177768    1.4226609   299372 
 5008000   0.64655831   -3.4166176   -1.9940131  0.028616336   -3.4166176    1.4226045   299322 
 5009000   0.64626033   -3.4170084    -1.994589  0.027467704   -3.4170084    1.4224194   299223 
 5010000    0.6467748   -3.4170035   -1.9931663  0.029299491   -3.4170035    1.4238372   299163 
 5011000   0.64665953   -3.4184286    -1.994512  0.032386193   -3.4184286    1.4239166   299093 
 5012000   0.64678003   -3.4188555   -1.9943592  0.028546215   -3.4188555    1.4244963   299027 
 5013000   0.64595604   -3.4177657   -1.9948367   0.02586991   -3.4177657     1.422929   298975 
 5014000   0.64555873   -3.4176001   -1.9955511   0.02760345   -3.4176001     1.422049   298976 
 5015000   0.64429043   -3.4132913   -1.9939935  0.024627793   -3.4132913    1.4192979   298967 
 5016000   0.64645889   -3.4169759   -1.9926057  0.027081624   -3.4169759    1.4243701   298905 
 5017000   0.64646448    -3.416978   -1.9922952  0.028295551    -3.416978    1.4246828   298842 
 5018000   0.64606396   -3.4169443   -1.9928393  0.030025199   -3.4169443    1.4241051   298778 
 5019000   0.64440799   -3.4130727   -1.9923231  0.032991599   -3.4130727    1.4207497   298716 
 5020000   0.64511522   -3.4152303   -1.9927404   0.02750619   -3.4152303    1.4224899   298678 
 5021000   0.64550509   -3.4163637    -1.992485  0.030603781   -3.4163637    1.4238787   298567 
 5022000   0.64521245   -3.4161651   -1.9926888  0.029909092   -3.4161651    1.4234763   298516 
 5023000   0.64590305   -3.4178286   -1.9927762  0.027562403   -3.4178286    1.4250525   298505 
 5024000   0.64576854   -3.4163838   -1.9911076  0.027700499   -3.4163838    1.4252762   298396 
 5025000   0.64482703   -3.4165084    -1.992752  0.030755213   -3.4165084    1.4237564   298279 
 5026000   0.64529199   -3.4164589   -1.9915469  0.032388527   -3.4164589     1.424912   298252 
 5027000   0.64481168    -3.415309   -1.9912762   0.03587089    -3.415309    1.4240328   298214 
 5028000   0.64580195   -3.4161896   -1.9897354  0.030782958   -3.4161896    1.4264542   298165 
 5029000   0.64480926   -3.4152446    -1.990878  0.029904798   -3.4152446    1.4243666   298143 
 5030000   0.64351089   -3.4147144    -1.992944  0.026291334   -3.4147144    1.4217704   298086 
 5031000   0.64358141   -3.4136524   -1.9914209  0.028949766   -3.4136524    1.4222315   298022 
 5032000   0.64436567   -3.4164563    -1.992052  0.023952715   -3.4164563    1.4244043   297930 
 5033000    0.6428651   -3.4124892   -1.9911157   0.03102651   -3.4124892    1.4213735   297870 
 5034000   0.64307835    -3.413592   -1.9914271   0.02662947    -3.413592    1.4221649   297803 
 5035000   0.64334394   -3.4146727   -1.9917245  0.029231568   -3.4146727    1.4229481   297762 
 5036000   0.64293681   -3.4146364   -1.9922448  0.025918341   -3.4146364    1.4223916   297690 
 5037000   0.64271229   -3.4144541   -1.9923252  0.028485342   -3.4144541     1.422129   297641 
 5038000   0.64261108   -3.4127774   -1.9906717  0.028276697   -3.4127774    1.4221057   297599 
 5039000   0.64162118   -3.4113608   -1.9909924  0.025608435   -3.4113608    1.4203684   297504 
 5040000   0.64307256   -3.4145601   -1.9907682  0.027931467   -3.4145601     1.423792   297460 
 5041000   0.64291007   -3.4135248   -1.9901118  0.030021636   -3.4135248    1.4234131   297464 
 5042000   0.64265325    -3.412066    -1.988858  0.029875997    -3.412066    1.4232081   297388 
 5043000   0.64255757   -3.4118342   -1.9885461  0.031785438   -3.4118342    1.4232881   297327 
 5044000   0.64193364    -3.412839   -1.9908086  0.024285331    -3.412839    1.4220304   297301 
 5045000   0.64256978   -3.4148037   -1.9909953  0.028694799   -3.4148037    1.4238084   297224 
 5046000   0.64165615   -3.4116939   -1.9897807  0.027697014   -3.4116939    1.4219131   297197 
 5047000   0.63975672   -3.4093914   -1.9911577  0.027988789   -3.4093914    1.4182337   297086 
 5048000   0.64169992   -3.4123313   -1.9895216  0.026195579   -3.4123313    1.4228097   297030 
 5049000   0.64206145   -3.4129413    -1.989191  0.029985794   -3.4129413    1.4237503   297001 
 5050000   0.64238675   -3.4141777   -1.9896246  0.029966466   -3.4141777    1.4245531   296984 
 5051000   0.64078878    -3.411414   -1.9900934  0.024012992    -3.411414    1.4213206   296919 
 5052000   0.64265063   -3.4133146   -1.9879123  0.026180794   -3.4133146    1.4254023   296929 
 5053000   0.64206907   -3.4123842   -1.9878928  0.028065747   -3.4123842    1.4244914   296850 
 5054000   0.64043287   -3.4071656   -1.9859931   0.03167638   -3.4071656    1.4211725   296785 
 5055000   0.64111123   -3.4103127   -1.9872033  0.033132463   -3.4103127    1.4231094   296695 
 5056000   0.64114547   -3.4122305   -1.9888484  0.030553818   -3.4122305    1.4233821   296654 
 5057000   0.64104187   -3.4118396   -1.9885532  0.031524515   -3.4118396    1.4232864   296626 
 5058000   0.64066422   -3.4127271   -1.9900057  0.028528595   -3.4127271    1.4227214   296569 
 5059000   0.64118152   -3.4142843   -1.9899099  0.027467317   -3.4142843    1.4243744   296464 
 5060000   0.63964047   -3.4119066   -1.9904714  0.031039035   -3.4119066    1.4214353   296363 
 5061000   0.63893284   -3.4099583   -1.9898368  0.031417326   -3.4099583    1.4201215   296309 
 5062000   0.64063854   -3.4133398   -1.9894271  0.026896003   -3.4133398    1.4239127   296309 
 5063000    0.6390872   -3.4102876   -1.9895737  0.027470256   -3.4102876    1.4207139   296257 
 5064000   0.63926119   -3.4112083    -1.989863   0.02926713   -3.4112083    1.4213454   296206 
 5065000   0.63948161   -3.4116899   -1.9893935   0.03296078   -3.4116899    1.4222964   296110 
 5066000   0.64022802   -3.4124077   -1.9883646  0.025845103   -3.4124077    1.4240431   296092 
 5067000   0.64123582   -3.4139468   -1.9874549  0.031380784   -3.4139468    1.4264919   296049 
 5068000   0.64052846   -3.4101645   -1.9850537  0.030446146   -3.4101645    1.4251108   296009 
 5069000   0.64126238   -3.4136707   -1.9864689  0.029723456   -3.4136707    1.4272018   295914 
 5070000   0.64117327   -3.4144137   -1.9869665  0.030995364   -3.4144137    1.4274473   295822 
 5071000   0.64031612   -3.4129566   -1.9870947  0.031596699   -3.4129566    1.4258619   295755 
 5072000   0.63947207   -3.4133385   -1.9890672  0.028532152   -3.4133385    1.4242713   295695 
 5073000    0.6393962   -3.4128927   -1.9885206  0.031971703   -3.4128927    1.4243721   295639 
 5074000   0.63855735   -3.4112194   -1.9885764  0.032432659   -3.4112194     1.422643   295610 
 5075000   0.63907358   -3.4111982   -1.9870293  0.028614759   -3.4111982    1.4241689   295532 
 5076000   0.63971768   -3.4123729   -1.9863633   0.02863286   -3.4123729    1.4260096   295448 
 5077000   0.63909671   -3.4111011   -1.9862491  0.029278707   -3.4111011     1.424852   295401 
 5078000   0.63978867   -3.4102765   -1.9837225  0.030805864   -3.4102765    1.4265541   295368 
 5079000   0.63875371    -3.408603   -1.9842457  0.032762239    -3.408603    1.4243573   295345 
 5080000   0.63919738   -3.4099625   -1.9841427  0.029125473   -3.4099625    1.4258198   295247 
 5081000   0.64014304   -3.4115765   -1.9835119   0.03039322   -3.4115765    1.4280646   295219 
 5082000   0.63830851   -3.4066609   -1.9823801  0.028366334   -3.4066609    1.4242808   295155 
 5083000   0.63761243   -3.4065391   -1.9836476  0.026635513   -3.4065391    1.4228915   295121 
 5084000   0.63796665   -3.4078695   -1.9837774  0.027726469   -3.4078695    1.4240922   295036 
 5085000   0.63825621   -3.4070795   -1.9822637  0.032635976   -3.4070795    1.4248158   295020 
 5086000   0.63761665   -3.4063705   -1.9827894  0.026344391   -3.4063705    1.4235811   294980 
 5087000    0.6376441    -3.405423   -1.9815441  0.028887911    -3.405423    1.4238789   294931 
 5088000   0.63917908   -3.4087238   -1.9811849  0.031246388   -3.4087238    1.4275389   294883 
 5089000   0.63742602   -3.4066708   -1.9828057  0.031984876   -3.4066708    1.4238651   294833 
 5090000   0.63774655    -3.406981   -1.9820955   0.02584593    -3.406981    1.4248855   294770 
 5091000   0.63577061   -3.4047184   -1.9841031  0.028938845   -3.4047184    1.4206153   294740 
 5092000   0.63739771   -3.4068865   -1.9824325  0.022063106   -3.4068865     1.424454   294698 
 5093000   0.63662289   -3.4052506   -1.9824895   0.02623001   -3.4052506    1.4227611   294690 
 5094000   0.63777544   -3.4064246   -1.9808845  0.030242261   -3.4064246    1.4255401   294648 
 5095000   0.63766948    -3.407057   -1.9815457  0.035739508    -3.407057    1.4255113   294605 
 5096000   0.63821525   -3.4060023   -1.9793194  0.030876352   -3.4060023    1.4266829   294615 
 5097000   0.63734617   -3.4041182   -1.9791701  0.031332808   -3.4041182    1.4249481   294572 
 5098000   0.63805731   -3.4040631   -1.9776219   0.02732037   -3.4040631    1.4264412   294592 
 5099000   0.63749191   -3.4040525   -1.9787205  0.037358183   -3.4040525     1.425332   294560 
 5100000   0.63757226    -3.404577   -1.9787265  0.030304783    -3.404577    1.4258505   294490 
 5101000   0.63725355   -3.4054256   -1.9799297  0.031619866   -3.4054256     1.425496   294416 
 5102000    0.6375033   -3.4046378   -1.9788302  0.032339429   -3.4046378    1.4258077   294467 
 5103000   0.63692686   -3.4047221   -1.9799763  0.029668782   -3.4047221    1.4247458   294420 
 5104000   0.63653899   -3.4035517   -1.9794704  0.027268917   -3.4035517    1.4240813   294378 
 5105000   0.63595034   -3.4018512   -1.9789563  0.033040723   -3.4018512    1.4228949   294351 
 5106000   0.63554778   -3.4025073   -1.9799476  0.029798927   -3.4025073    1.4225596   294234 
 5107000   0.63576703   -3.4031455   -1.9798097   0.02780196   -3.4031455    1.4233358   294175 
 5108000   0.63613652    -3.401813   -1.9774757  0.032204667    -3.401813    1.4243373   294139 
 5109000   0.63669109   -3.4012302   -1.9754185  0.033485901   -3.4012302    1.4258117   294091 
 5110000   0.63681648   -3.3993091    -1.972979  0.033538524   -3.3993091    1.4263301   294042 
 5111000   0.63613292   -3.4000413   -1.9751017  0.029870691   -3.4000413    1.4249396   294013 
 5112000   0.63507563   -3.3999895   -1.9771133  0.031213949   -3.3999895    1.4228762   293950 
 5113000   0.63563138      -3.4003   -1.9756649  0.033527164      -3.4003    1.4246351   293844 
 5114000   0.63514116    -3.400235   -1.9763207  0.024849329    -3.400235    1.4239143   293766 
 5115000   0.63517193   -3.4009777   -1.9765046  0.023934812   -3.4009777    1.4244731   293665 
 5116000   0.63436586   -3.4000678     -1.97717  0.028016221   -3.4000678    1.4228979   293617 
 5117000   0.63417015   -3.4007887   -1.9780585  0.026148339   -3.4007887    1.4227303   293561 
 5118000    0.6323387   -3.3960339   -1.9769918  0.028091042   -3.3960339     1.419042   293474 
 5119000   0.63440008   -3.3988392   -1.9751808  0.024826267   -3.3988392    1.4236583   293476 
 5120000   0.63506406   -3.3990446   -1.9736776    0.0275263   -3.3990446    1.4253669   293431 
 5121000   0.63462379   -3.3984667   -1.9738307  0.028530485   -3.3984667    1.4246361   293378 
 5122000   0.63697468   -3.4004424   -1.9702852   0.03462487   -3.4004424    1.4301572   293328 
 5123000   0.63570047   -3.3989876   -1.9715355  0.031632717   -3.3989876     1.427452   293296 
 5124000   0.63561865   -3.3984191   -1.9708539  0.031605713   -3.3984191    1.4275652   293235 
 5125000   0.63493589   -3.4002034     -1.97405  0.033223004   -3.4002034    1.4261534   293210 
 5126000   0.63380345   -3.3985649   -1.9747415   0.02400987   -3.3985649    1.4238234   293166 
 5127000   0.63162242    -3.396373   -1.9772217  0.029772304    -3.396373    1.4191513   293119 
 5128000   0.63401841   -3.3988003   -1.9739059  0.029121097   -3.3988003    1.4248944   293045 
 5129000   0.63443202   -3.3974773   -1.9714539   0.02857536   -3.3974773    1.4260235   293004 
 5130000   0.63310599   -3.3977606   -1.9744504  0.027163301   -3.3977606    1.4233101   292949 
 5131000   0.63416252   -3.3986789   -1.9727843  0.030843895   -3.3986789    1.4258946   292906 
 5132000   0.63409959   -3.3972898   -1.9713809  0.027665473   -3.3972898    1.4259089   292874 
 5133000   0.63562826   -3.3993632   -1.9700606  0.026169969   -3.3993632    1.4293025   292883 
 5134000   0.63350329   -3.3959857   -1.9711014  0.027104082   -3.3959857    1.4248842   292809 
 5135000    0.6325739   -3.3944836   -1.9715099  0.027044741   -3.3944836    1.4229737   292772 
 5136000   0.63259871   -3.3944933   -1.9712354  0.030494555   -3.3944933     1.423258   292725 
 5137000   0.63474751   -3.3981448   -1.9700475   0.02814669   -3.3981448    1.4280973   292724 
 5138000   0.63385834   -3.3955412    -1.969001  0.029882606   -3.3955412    1.4265403   292633 
 5139000   0.63447923   -3.3958279    -1.967778  0.035005909   -3.3958279    1.4280499   292610 
 5140000   0.63441045   -3.3941169   -1.9661047   0.03097139   -3.3941169    1.4280122   292586 
 5141000   0.63429432   -3.3943566    -1.966186  0.031685492   -3.3943566    1.4281706   292500 
 5142000   0.63304222   -3.3917892   -1.9662478  0.035538832   -3.3917892    1.4255414   292461 
 5143000   0.63313746   -3.3916781    -1.965732  0.030847788   -3.3916781    1.4259461   292422 
 5144000   0.63388648   -3.3925817   -1.9647973   0.03004934   -3.3925817    1.4277844   292391 
 5145000   0.63383288     -3.39193   -1.9639587  0.025002925     -3.39193    1.4279713   292328 
 5146000   0.63298861   -3.3907269   -1.9644039  0.029383663   -3.3907269     1.426323   292276 
 5147000   0.63223297   -3.3902261   -1.9653133  0.027944468   -3.3902261    1.4249128   292216 
 5148000     0.633133   -3.3904531   -1.9632725  0.029478781   -3.3904531    1.4271806   292167 
 5149000   0.63267458   -3.3874163   -1.9611568  0.032041565   -3.3874163    1.4262595   292144 
 5150000   0.63219314   -3.3868262    -1.961452  0.031069119   -3.3868262    1.4253742   292103 
 5151000   0.63335981   -3.3882099   -1.9601026  0.029639519   -3.3882099    1.4281073   292082 
 5152000   0.63222077   -3.3869711   -1.9611343  0.029818947   -3.3869711    1.4258368   292021 
 5153000   0.63162805   -3.3895261   -1.9646064  0.026510502   -3.3895261    1.4249197   291935 
 5154000   0.63115253   -3.3881924   -1.9641016  0.029240271   -3.3881924    1.4240908   291885 
 5155000   0.63136279   -3.3865017   -1.9617705  0.033676448   -3.3865017    1.4247312   291851 
 5156000   0.63304429   -3.3890146   -1.9601952  0.030090432   -3.3890146    1.4288194   291791 
 5157000   0.63014883   -3.3822058   -1.9596535   0.03134716   -3.3822058    1.4225523   291736 
 5158000   0.63179425   -3.3876037   -1.9609016  0.027607482   -3.3876037    1.4267021   291647 
 5159000   0.63216372   -3.3861208   -1.9583299  0.032404647   -3.3861208     1.427791   291595 
 5160000   0.63409577   -3.3887894   -1.9564677  0.031402937   -3.3887894    1.4323217   291561 
 5161000   0.63243078   -3.3872209   -1.9583514  0.032532544   -3.3872209    1.4288694   291498 
 5162000   0.63271039   -3.3860158    -1.956289    0.0320129   -3.3860158    1.4297268   291452 
 5163000   0.63152283   -3.3856771   -1.9583841  0.029876039   -3.3856771     1.427293   291401 
 5164000   0.63056606   -3.3867136   -1.9612992  0.025980505   -3.3867136    1.4254144   291343 
 5165000   0.63075549   -3.3861055   -1.9598321   0.02770591   -3.3861055    1.4262734   291255 
 5166000   0.63248011   -3.3877895    -1.957302    0.0324422   -3.3877895    1.4304875   291191 
 5167000   0.62991259   -3.3843147   -1.9593504  0.031827547   -3.3843147    1.4249643   291133 
 5168000   0.63081353   -3.3863974   -1.9591008  0.026111393   -3.3863974    1.4272965   291073 
 5169000   0.62950672   -3.3843343   -1.9597058  0.025358568   -3.3843343    1.4246285   291014 
 5170000    0.6299191   -3.3865255    -1.960758  0.026811938   -3.3865255    1.4257675   290972 
 5171000   0.62944136   -3.3868556   -1.9617335  0.027396999   -3.3868556    1.4251221   290883 
 5172000   0.62888349   -3.3874165   -1.9629551  0.026258603   -3.3874165    1.4244613   290760 
 5173000   0.62868093   -3.3851549   -1.9611132  0.026890005   -3.3851549    1.4240417   290752 
 5174000   0.62805686    -3.384682   -1.9618043  0.027429045    -3.384682    1.4228777   290701 
 5175000   0.62841153   -3.3863811    -1.962308  0.028009674   -3.3863811    1.4240731   290621 
 5176000   0.62857938   -3.3871144   -1.9622638  0.031221019   -3.3871144    1.4248506   290540 
 5177000   0.62978932   -3.3886543   -1.9608497  0.033202269   -3.3886543    1.4278046   290497 
 5178000   0.63020984   -3.3900961   -1.9610775  0.033650993   -3.3900961    1.4290187   290444 
 5179000   0.62849148   -3.3875022   -1.9622033  0.034641372   -3.3875022    1.4252989   290408 
 5180000   0.62850939   -3.3891866   -1.9636262  0.030607748   -3.3891866    1.4255604   290363 
 5181000   0.62817555    -3.391929   -1.9667773  0.026309361    -3.391929    1.4251517   290292 
 5182000   0.62775144   -3.3888946   -1.9644941  0.029176495   -3.3888946    1.4244005   290249 
 5183000   0.62750837    -3.387232   -1.9630984  0.030376097    -3.387232    1.4241335   290191 
 5184000   0.62796584   -3.3860223   -1.9606344  0.028362441   -3.3860223    1.4253879   290147 
 5185000    0.6273105   -3.3853873   -1.9612464  0.031148283   -3.3853873    1.4241409   290098 
 5186000   0.62708986   -3.3841978   -1.9605677  0.028309225   -3.3841978    1.4236302   290100 
 5187000    0.6263397   -3.3831017   -1.9607579  0.031812535   -3.3831017    1.4223439   290015 
 5188000   0.62680559   -3.3839666   -1.9602407  0.029676422   -3.3839666    1.4237259   289949 
 5189000   0.62719034   -3.3851834   -1.9603477  0.027026351   -3.3851834    1.4248357   289901 
 5190000   0.62725738   -3.3843325   -1.9592364  0.026310936   -3.3843325    1.4250961   289879 
 5191000   0.62667963   -3.3829889   -1.9590089  0.028614548   -3.3829889      1.42398   289839 
 5192000   0.62751503   -3.3833074   -1.9572717  0.031384316   -3.3833074    1.4260357   289807 
 5193000   0.62714343   -3.3823943   -1.9570801  0.032593616   -3.3823943    1.4253142   289782 
 5194000   0.62756285   -3.3829314   -1.9564721  0.033465299   -3.3829314    1.4264594   289743 
 5195000    0.6280994   -3.3821051     -1.95416  0.027629871   -3.3821051    1.4279451   289689 
 5196000   0.62727877   -3.3840145   -1.9573392  0.031590257   -3.3840145    1.4266753   289568 
 5197000   0.62632881   -3.3813729   -1.9568188  0.030974049   -3.3813729    1.4245541   289560 
 5198000   0.62718176   -3.3834444   -1.9567285   0.02939693   -3.3834444    1.4267158   289515 
 5199000   0.62551662   -3.3828036    -1.959438  0.032248399   -3.3828036    1.4233655   289426 
 5200000    0.6271789   -3.3859063   -1.9585215  0.031090136   -3.3859063    1.4273848   289378 
 5201000   0.62754767   -3.3865737   -1.9580584  0.030867675   -3.3865737    1.4285153   289319 
 5202000   0.62733367   -3.3853797   -1.9573614  0.029658248   -3.3853797    1.4280183   289321 
 5203000   0.62690075   -3.3845893   -1.9572062  0.030488517   -3.3845893    1.4273831   289250 
 5204000   0.62755754   -3.3858991   -1.9566945  0.027643473   -3.3858991    1.4292046   289184 
 5205000   0.62613835    -3.386222   -1.9600127  0.031227316    -3.386222    1.4262093   289136 
 5206000   0.62546283    -3.386782   -1.9617566  0.030598995    -3.386782    1.4250255   289064 
 5207000    0.6247576   -3.3851516   -1.9615113  0.030758039   -3.3851516    1.4236404   289019 
 5208000   0.62513759   -3.3859334    -1.961013  0.026632734   -3.3859334    1.4249204   288935 
 5209000   0.62528881   -3.3832136   -1.9575637  0.028188645   -3.3832136    1.4256499   288857 
 5210000   0.62505671   -3.3847894   -1.9593972  0.029750077   -3.3847894    1.4253921   288802 
 5211000   0.62576439   -3.3870102   -1.9595841  0.028758838   -3.3870102    1.4274261   288717 
 5212000   0.62460102   -3.3842868   -1.9593466  0.030972811   -3.3842868    1.4249401   288683 
 5213000   0.62629497   -3.3873684   -1.9583311  0.033628173   -3.3873684    1.4290373   288636 
 5214000   0.62590253   -3.3876553   -1.9594343  0.028745967   -3.3876553     1.428221   288620 
 5215000   0.62514952   -3.3853214    -1.958616  0.033906873   -3.3853214    1.4267054   288579 
 5216000   0.62562907    -3.386408   -1.9582073  0.028304959    -3.386408    1.4282007   288498 
 5217000   0.62483251   -3.3857772   -1.9590784  0.029727378   -3.3857772    1.4266988   288434 
 5218000    0.6244639    -3.385146   -1.9589526  0.032167556    -3.385146    1.4261934   288366 
 5219000   0.62347919   -3.3818941   -1.9580188  0.030905156   -3.3818941    1.4238753   288380 
 5220000   0.62388363   -3.3835996   -1.9583163  0.031854198   -3.3835996    1.4252833   288282 
 5221000   0.62386805   -3.3832724   -1.9578269  0.032424358   -3.3832724    1.4254455   288242 
 5222000   0.62364671   -3.3818713    -1.956437  0.032011909   -3.3818713    1.4254343   288142 
 5223000   0.62304715   -3.3827689   -1.9583144  0.034938065   -3.3827689    1.4244545   288063 
 5224000   0.62424818   -3.3846235   -1.9573737  0.029603025   -3.3846235    1.4272499   288053 
 5225000   0.62394241   -3.3817379   -1.9549592  0.032153884   -3.3817379    1.4267786   288007 
 5226000   0.62302902   -3.3796722   -1.9547992  0.030040586   -3.3796722     1.424873   287970 
 5227000   0.62384394   -3.3811809   -1.9540526  0.029119003   -3.3811809    1.4271283   287891 
 5228000   0.62307571   -3.3791847   -1.9537148  0.033636529   -3.3791847    1.4254699   287871 
 5229000   0.62323353    -3.380536   -1.9544525  0.032616276    -3.380536    1.4260836   287820 
 5230000   0.62266769   -3.3783449   -1.9531847  0.026738266   -3.3783449    1.4251602   287745 
 5231000   0.62236464    -3.378287   -1.9535481  0.027720334    -3.378287    1.4247389   287690 
 5232000   0.62079564   -3.3761508   -1.9547616   0.02668551   -3.3761508    1.4213892   287641 
 5233000   0.61978917   -3.3722624   -1.9529606  0.028912823   -3.3722624    1.4193018   287597 
 5234000   0.62075127   -3.3732209   -1.9514638   0.03008369   -3.3732209    1.4217571   287546 
 5235000   0.62207899   -3.3760769   -1.9509169  0.029130065   -3.3760769    1.4251599   287473 
 5236000   0.62224845   -3.3764606   -1.9506893  0.033839432   -3.3764606    1.4257714   287428 
 5237000    0.6237964   -3.3772576    -1.947835  0.030782148   -3.3772576    1.4294226   287407 
 5238000   0.62291557   -3.3738477   -1.9461504  0.030680707   -3.3738477    1.4276973   287348 
 5239000   0.62235015   -3.3729659   -1.9461723  0.029565886   -3.3729659    1.4267936   287269 
 5240000   0.62165251   -3.3718169   -1.9463299  0.030418065   -3.3718169     1.425487   287210 
 5241000   0.62246917   -3.3747493   -1.9470616  0.033287943   -3.3747493    1.4276878   287144 
 5242000   0.62243512   -3.3761506    -1.948158  0.028766847   -3.3761506    1.4279926   287067 
 5243000    0.6207189   -3.3717834   -1.9473312  0.032518008   -3.3717834    1.4244522   286987 
 5244000   0.61960061   -3.3720527   -1.9500132  0.030203266   -3.3720527    1.4220395   286956 
 5245000   0.61925657     -3.37047   -1.9488386  0.032206458     -3.37047    1.4216314   286879 
 5246000   0.62072704   -3.3731845     -1.94776  0.029392544   -3.3731845    1.4254245   286795 
 5247000   0.62125452    -3.372805   -1.9459105  0.025905601    -3.372805    1.4268945   286743 
 5248000   0.61936383   -3.3711228   -1.9482185  0.024502093   -3.3711228    1.4229043   286672 
 5249000   0.61933171   -3.3701848   -1.9470167  0.027774701   -3.3701848    1.4231681   286604 
 5250000   0.62013919   -3.3716124   -1.9462904  0.029820048   -3.3716124     1.425322   286544 
 5251000   0.62221451   -3.3735979   -1.9434161  0.027768375   -3.3735979    1.4301818   286526 
 5252000   0.62270082   -3.3737048   -1.9422753  0.029380218   -3.3737048    1.4314294   286500 
 5253000   0.62077805   -3.3710216   -1.9438279  0.028596164   -3.3710216    1.4271938   286463 
 5254000   0.62051276    -3.371396   -1.9443538  0.028429699    -3.371396    1.4270422   286371 
 5255000   0.61913024   -3.3705615   -1.9465744  0.028105851   -3.3705615     1.423987   286346 
 5256000   0.61872736   -3.3721274   -1.9486544  0.026744049   -3.3721274     1.423473   286263 
 5257000   0.61769086   -3.3716367   -1.9502157  0.023954251   -3.3716367    1.4214211   286196 
 5258000   0.61959893   -3.3747192   -1.9486083  0.029699937   -3.3747192    1.4261109   286136 
 5259000   0.62025621   -3.3763784   -1.9485301  0.029313065   -3.3763784    1.4278483   286091 
 5260000   0.61954888   -3.3732421   -1.9470321  0.032176998   -3.3732421      1.42621   286093 
 5261000   0.62101673   -3.3750584   -1.9451446  0.030931045   -3.3750584    1.4299139   286028 
 5262000   0.61998353   -3.3726672   -1.9448527  0.028797523   -3.3726672    1.4278144   285972 
 5263000   0.61833218   -3.3710612   -1.9467211  0.029528417   -3.3710612    1.4243401   285906 
 5264000   0.61989288   -3.3735997   -1.9455596  0.029121785   -3.3735997    1.4280401   285885 
 5265000   0.62023471   -3.3739359   -1.9450334  0.030985234   -3.3739359    1.4289026   285870 
 5266000   0.62037718   -3.3736666   -1.9442858  0.033503051   -3.3736666    1.4293808   285840 
 5267000   0.62012168   -3.3747814   -1.9455192  0.029865892   -3.3747814    1.4292621   285746 
 5268000   0.62009076    -3.373493    -1.944137  0.032430615    -3.373493    1.4293559   285713 
 5269000    0.6194307   -3.3722037   -1.9440894  0.029759568   -3.3722037    1.4281144   285657 
 5270000   0.61734531   -3.3704229   -1.9468274  0.026783026   -3.3704229    1.4235955   285599 
 5271000   0.61678868   -3.3690117    -1.946665  0.031583961   -3.3690117    1.4223468   285592 
 5272000   0.61711913   -3.3694149   -1.9461118  0.030976247   -3.3694149    1.4233032   285553 
 5273000   0.61802641   -3.3722232   -1.9466378  0.028836994   -3.3722232    1.4255854   285515 
 5274000   0.61939196   -3.3716491   -1.9426836  0.030884631   -3.3716491    1.4289655   285469 
 5275000   0.61805443   -3.3684093   -1.9423747  0.029453209   -3.3684093    1.4260346   285438 
 5276000   0.61778837    -3.370686   -1.9447707  0.032875153    -3.370686    1.4259153   285339 
 5277000   0.61802225   -3.3707186   -1.9439835   0.02995176   -3.3707186    1.4267351   285283 
 5278000   0.61840899   -3.3709216   -1.9431585  0.027773438   -3.3709216     1.427763   285256 
 5279000   0.61891406   -3.3729308   -1.9436007  0.030223802   -3.3729308      1.42933   285176 
 5280000   0.61774971   -3.3698292    -1.942933  0.028706539   -3.3698292    1.4268962   285125 
 5281000   0.61816498   -3.3714393   -1.9434236   0.02710249   -3.3714393    1.4280157   285093 
 5282000   0.61728947   -3.3700953    -1.943892  0.029302317   -3.3700953    1.4262033   285051 
 5283000   0.61730422    -3.369858   -1.9433253  0.028001521    -3.369858    1.4265326   284992 
 5284000   0.61654187   -3.3675878   -1.9426969  0.029779409   -3.3675878    1.4248909   284968 
 5285000   0.61648277   -3.3693417   -1.9441773  0.028219785   -3.3693417    1.4251644   284886 
 5286000   0.61677164   -3.3704279   -1.9442753  0.025913599   -3.3704279    1.4261526   284822 
 5287000   0.61718444   -3.3680673   -1.9407146  0.027168314   -3.3680673    1.4273527   284773 
 5288000   0.61659869   -3.3681848   -1.9419063  0.027922202   -3.3681848    1.4262785   284717 
 5289000   0.61667388   -3.3707285   -1.9440156  0.025696973   -3.3707285     1.426713   284665 
 5290000   0.61613097   -3.3673439   -1.9416315  0.032336338   -3.3673439    1.4257124   284614 
 5291000   0.61677867   -3.3692243   -1.9416721  0.030755424   -3.3692243    1.4275522   284546 
 5292000   0.61757614   -3.3689643   -1.9392498   0.03206885   -3.3689643    1.4297145   284483 
 5293000   0.61724071    -3.369699   -1.9406304  0.033103282    -3.369699    1.4290686   284457 
 5294000     0.617637   -3.3724763   -1.9422086  0.035532848   -3.3724763    1.4302677   284401 
 5295000   0.61743521   -3.3742343   -1.9440468  0.029408701   -3.3742343    1.4301876   284324 
 5296000   0.61682322   -3.3736636   -1.9445166  0.028899476   -3.3736636     1.429147   284249 
 5297000   0.61659909   -3.3734545   -1.9445001  0.029618462   -3.3734545    1.4289545   284184 
 5298000   0.61567974   -3.3707711   -1.9436258  0.028874293   -3.3707711    1.4271453   284120 
 5299000   0.61524038   -3.3692235   -1.9429511  0.028373762   -3.3692235    1.4262724   284091 
 5300000   0.61485218    -3.373055   -1.9473713  0.027879984    -3.373055    1.4256836   284029 
 5301000   0.61466922   -3.3699876   -1.9444873  0.032819186   -3.3699876    1.4255003   283981 
 5302000   0.61521243   -3.3710995   -1.9442088  0.031728871   -3.3710995    1.4268907   283955 
 5303000   0.61431113   -3.3691563   -1.9440951  0.035341055   -3.3691563    1.4250613   283903 
 5304000   0.61424915    -3.370177   -1.9448328  0.029955242    -3.370177    1.4253442   283818 
 5305000   0.61407828   -3.3693144   -1.9441357  0.035480469   -3.3693144    1.4251787   283772 
 5306000   0.61491822   -3.3696745   -1.9424156  0.033159479   -3.3696745    1.4272588   283746 
 5307000    0.6143661   -3.3689073   -1.9426736   0.03133968   -3.3689073    1.4262337   283695 
 5308000   0.61550439   -3.3715691   -1.9421689  0.027698823   -3.3715691    1.4294002   283591 
 5309000   0.61552491   -3.3725961   -1.9427499  0.030681868   -3.3725961    1.4298462   283512 
 5310000   0.61495853   -3.3693628   -1.9405954  0.032944119   -3.3693628    1.4287674   283465 
 5311000   0.61466703   -3.3697698   -1.9412765  0.030228339   -3.3697698    1.4284932   283385 
 5312000   0.61369966   -3.3686814   -1.9424212  0.027345692   -3.3686814    1.4262602   283382 
 5313000   0.61325832   -3.3690883   -1.9434212  0.027038761   -3.3690883    1.4256671   283296 
 5314000   0.61299634    -3.367804   -1.9425899  0.030221149    -3.367804    1.4252141   283265 
 5315000   0.61313418   -3.3673532   -1.9416979  0.031230228   -3.3673532    1.4256553   283241 
 5316000   0.61241725   -3.3665656   -1.9422957  0.024658995   -3.3665656    1.4242699   283185 
 5317000   0.61197865   -3.3638128    -1.940201  0.028511608   -3.3638128    1.4236119   283113 
 5318000   0.61249097   -3.3671458   -1.9421308  0.030032785   -3.3671458     1.425015   283071 
 5319000   0.61299033   -3.3678312   -1.9413672  0.025209137   -3.3678312    1.4264641   283014 
 5320000   0.61333755   -3.3681289   -1.9406299  0.030825849   -3.3681289     1.427499   282969 
 5321000   0.61299216   -3.3680306   -1.9409269  0.037809399   -3.3680306    1.4271037   282888 
 5322000   0.61285875   -3.3690485   -1.9419678  0.032360258   -3.3690485    1.4270806   282831 
 5323000   0.61271131   -3.3685355   -1.9414601  0.027541104   -3.3685355    1.4270754   282764 
 5324000   0.61107659   -3.3679763   -1.9443056   0.02801421   -3.3679763    1.4236707   282684 
 5325000   0.61059628   -3.3674685   -1.9445695  0.025652929   -3.3674685     1.422899   282615 
 5326000   0.61263354   -3.3715778   -1.9436635  0.028997319   -3.3715778    1.4279143   282562 
 5327000    0.6117098   -3.3694489   -1.9432081  0.030313642   -3.3694489    1.4262408   282467 
 5328000   0.61102207   -3.3669719   -1.9421429  0.031290639   -3.3669719     1.424829   282429 
 5329000   0.61160265   -3.3691435   -1.9427587  0.028917913   -3.3691435    1.4263848   282389 
 5330000   0.61153253    -3.366547    -1.939967  0.031219594    -3.366547      1.42658   282318 
 5331000   0.61108303   -3.3672951   -1.9413344  0.029404395   -3.3672951    1.4259607   282233 
 5332000   0.61064082   -3.3662908   -1.9410135  0.028486879   -3.3662908    1.4252773   282164 
 5333000   0.60997367   -3.3639078   -1.9398647  0.025771133   -3.3639078    1.4240431   282100 
 5334000   0.61176968   -3.3677815   -1.9393632  0.028643345   -3.3677815    1.4284184   282064 
 5335000   0.61155914   -3.3698577   -1.9416473  0.029100018   -3.3698577    1.4282103   282008 
 5336000    0.6106292   -3.3675395   -1.9410659  0.030730707   -3.3675395    1.4264736   281922 
 5337000   0.61096121   -3.3670163   -1.9396203  0.030050583   -3.3670163     1.427396   281893 
 5338000   0.61108783   -3.3661642   -1.9381634  0.034754152   -3.3661642    1.4280008   281832 
 5339000   0.61109479   -3.3662978   -1.9380425  0.028622335   -3.3662978    1.4282553   281785 
 5340000   0.61007052   -3.3642559   -1.9383439  0.030806834   -3.3642559     1.425912   281775 
 5341000   0.61027789   -3.3657108    -1.939142  0.026529532   -3.3657108    1.4265688   281741 
 5342000   0.61059479   -3.3673014   -1.9396371  0.025097929   -3.3673014    1.4276643   281671 
 5343000   0.60896078   -3.3649593   -1.9408375  0.032732296   -3.3649593    1.4241218   281616 
 5344000   0.60967298   -3.3652927   -1.9392572  0.027390388   -3.3652927    1.4260355   281567 
 5345000   0.61027412    -3.366427   -1.9386964  0.030920347    -3.366427    1.4277306   281510 
 5346000   0.61033094   -3.3687921   -1.9405278  0.031545995   -3.3687921    1.4282643   281431 
 5347000   0.60867084   -3.3672423   -1.9424274  0.031496776   -3.3672423    1.4248148   281345 
 5348000   0.60930184   -3.3682934    -1.941748  0.029088343   -3.3682934    1.4265454   281295 
 5349000   0.60928752   -3.3690442   -1.9423091   0.02725412   -3.3690442    1.4267351   281251 
 5350000   0.61027807   -3.3696544   -1.9403102  0.031223554   -3.3696544    1.4293443   281194 
 5351000   0.61035553   -3.3703029   -1.9405077  0.026196092   -3.3703029    1.4297952   281141 
 5352000      0.60938   -3.3698062   -1.9419458  0.029398603   -3.3698062    1.4278604   281072 
 5353000   0.60858282    -3.368322   -1.9423194  0.028511593    -3.368322    1.4260026   281070 
 5354000   0.60981611   -3.3717837   -1.9426625  0.028416602   -3.3717837    1.4291212   281025 
 5355000   0.60890368   -3.3719353    -1.944231  0.030874046   -3.3719353    1.4277043   280883 
 5356000   0.60804596   -3.3702347   -1.9442673  0.027899437   -3.3702347    1.4259674   280829 
 5357000   0.60814596   -3.3685762   -1.9421813  0.035714154   -3.3685762    1.4263949   280791 
 5358000   0.60817306   -3.3710791   -1.9442091  0.029112411   -3.3710791    1.4268701   280710 
 5359000   0.60842771   -3.3708522   -1.9433287  0.032647341   -3.3708522    1.4275235   280699 
 5360000   0.60797333   -3.3689107   -1.9422703  0.031092141   -3.3689107    1.4266403   280663 
 5361000   0.60824619    -3.370474   -1.9429798   0.03130738    -3.370474    1.4274942   280621 
 5362000   0.60861521   -3.3716359   -1.9426187  0.037149771   -3.3716359    1.4290172   280492 
 5363000   0.60780449   -3.3695145   -1.9422024  0.032116323   -3.3695145    1.4273121   280453 
 5364000   0.60779345   -3.3706227   -1.9431533  0.030762694   -3.3706227    1.4274694   280417 
 5365000   0.60834961   -3.3723701   -1.9433142  0.032143342   -3.3723701    1.4290559   280362 
 5366000   0.60797823    -3.368791    -1.940261  0.030892623    -3.368791      1.42853   280294 
 5367000   0.60763991   -3.3688501   -1.9407686  0.027666995   -3.3688501    1.4280815   280226 
 5368000   0.60746506   -3.3676732   -1.9398956  0.032585002   -3.3676732    1.4277776   280205 
 5369000   0.60702048   -3.3668836   -1.9399422  0.031699106   -3.3668836    1.4269414   280164 
 5370000   0.60579731    -3.364399   -1.9402973  0.030737349    -3.364399    1.4241017   280157 
 5371000   0.60697589     -3.36606   -1.9390452  0.030885027     -3.36606    1.4270149   280129 
 5372000   0.60529245   -3.3621932   -1.9389939  0.031114635   -3.3621932    1.4231993   280101 
 5373000   0.60737013   -3.3650615   -1.9366609  0.030612215   -3.3650615    1.4284007   280039 
 5374000   0.60730808   -3.3631866   -1.9346973  0.034716568   -3.3631866    1.4284894   279993 
 5375000    0.6064224    -3.360044   -1.9331843  0.033157678    -3.360044    1.4268597   279904 
 5376000   0.60517379   -3.3574243   -1.9331056  0.029089568   -3.3574243    1.4243187   279826 
 5377000   0.60539187   -3.3564576   -1.9314932  0.030273622   -3.3564576    1.4249644   279800 
 5378000   0.60589043   -3.3572781   -1.9307884  0.029074679   -3.3572781    1.4264897   279731 
 5379000   0.60597758   -3.3570629   -1.9301028  0.033415346   -3.3570629    1.4269601   279679 
 5380000   0.60585402   -3.3561898   -1.9291482  0.030042115   -3.3561898    1.4270416   279606 
 5381000    0.6059847   -3.3553037    -1.927745  0.032632725   -3.3553037    1.4275587   279565 
 5382000   0.60609283   -3.3560108   -1.9279062   0.03216566   -3.3560108    1.4281046   279508 
 5383000   0.60609276   -3.3537876   -1.9254072  0.035923292   -3.3537876    1.4283804   279454 
 5384000   0.60659182   -3.3551956   -1.9254856  0.026888191   -3.3551956    1.4297101   279424 
 5385000   0.60353763   -3.3486188   -1.9258018  0.028549301   -3.3486188     1.422817   279364 
 5386000   0.60433047   -3.3514014    -1.926343   0.02893686   -3.3514014    1.4250585   279291 
 5387000   0.60329119   -3.3499604   -1.9270673  0.026728348   -3.3499604    1.4228931   279235 
 5388000   0.60437289   -3.3530165   -1.9271637  0.027224629   -3.3530165    1.4258528   279155 
 5389000   0.60415066   -3.3520231   -1.9265057  0.027723336   -3.3520231    1.4255175   279118 
 5390000   0.60373594   -3.3524356   -1.9271716  0.023592327   -3.3524356     1.425264   278976 
 5391000   0.60467095   -3.3542234   -1.9265883  0.027764711   -3.3542234    1.4276351   278944 
 5392000   0.60451277   -3.3548403   -1.9274302  0.033155069   -3.3548403      1.42741   278915 
 5393000   0.60390739   -3.3502449   -1.9242132  0.033164727   -3.3502449    1.4260317   278905 
 5394000    0.6028104   -3.3493827   -1.9257679  0.028880821   -3.3493827    1.4236149   278871 
 5395000   0.60324339   -3.3499869   -1.9249356   0.02758304   -3.3499869    1.4250514   278790 
 5396000   0.60296722    -3.349618   -1.9248357  0.029753745    -3.349618    1.4247822   278715 
 5397000   0.60309947   -3.3492022   -1.9238262   0.03166901   -3.3492022     1.425376   278660 
 5398000   0.60320881   -3.3511989   -1.9251551  0.026967356   -3.3511989    1.4260438   278580 
 5399000   0.60271956   -3.3506646   -1.9255523  0.026330377   -3.3506646    1.4251123   278536 
 5400000   0.60190329   -3.3489974   -1.9253399   0.02933242   -3.3489974    1.4236576   278443 
 5401000   0.60322482   -3.3520235   -1.9248916  0.027882497   -3.3520235    1.4271319   278375 
 5402000   0.60233463   -3.3516836   -1.9263198  0.029958145   -3.3516836    1.4253638   278309 
 5403000   0.60194311   -3.3515348   -1.9268467  0.028533573   -3.3515348    1.4246881   278260 
 5404000   0.60434448   -3.3542609   -1.9235138  0.029300817   -3.3542609    1.4307471   278187 
 5405000   0.60204102   -3.3485867    -1.923088  0.031433973   -3.3485867    1.4254987   278147 
 5406000   0.60216309   -3.3538059   -1.9275464  0.033537347   -3.3538059    1.4262595   278055 
 5407000   0.60327525   -3.3574737   -1.9280608  0.028389148   -3.3574737    1.4294129   277954 
 5408000    0.6023726   -3.3539163   -1.9264264  0.030975154   -3.3539163    1.4274899   277912 
 5409000   0.60183145   -3.3541807   -1.9277269  0.027416229   -3.3541807    1.4264539   277864 
 5410000   0.60260915   -3.3540181   -1.9254176   0.02895609   -3.3540181    1.4286005   277805 
 5411000   0.60340533   -3.3550849   -1.9243188  0.027743529   -3.3550849    1.4307661   277751 
 5412000   0.60207229   -3.3520638   -1.9241346   0.03131655   -3.3520638    1.4279291   277688 
 5413000    0.6018477   -3.3538187   -1.9258823  0.033308728   -3.3538187    1.4279364   277583 
 5414000   0.60217127   -3.3552877    -1.926321   0.02811633   -3.3552877    1.4289667   277532 
 5415000   0.60086721   -3.3551107   -1.9290022  0.028501571   -3.3551107    1.4261085   277486 
 5416000   0.60030205   -3.3528323   -1.9277159  0.026464511   -3.3528323    1.4251163   277418 
 5417000   0.59864242   -3.3516498     -1.93033  0.028737633   -3.3516498    1.4213199   277390 
 5418000   0.59994938   -3.3518823   -1.9271153  0.025481822   -3.3518823     1.424767   277323 
 5419000   0.59924982   -3.3505451   -1.9272084  0.029442618   -3.3505451    1.4233366   277278 
 5420000   0.59990072   -3.3515438   -1.9262705  0.029137871   -3.3515438    1.4252733   277202 
 5421000    0.5995861   -3.3516025   -1.9266192  0.028131909   -3.3516025    1.4249833   277113 
 5422000   0.59989581    -3.351668   -1.9256347  0.030269781    -3.351668    1.4260333   277052 
 5423000   0.59991396   -3.3520094   -1.9257013  0.035129821   -3.3520094    1.4263081   277007 
 5424000   0.60093922   -3.3522333     -1.92324  0.028729517   -3.3522333    1.4289933   276959 
 5425000   0.59951419   -3.3516803   -1.9258543  0.030665732   -3.3516803    1.4258261   276916 
 5426000   0.60026105   -3.3534607   -1.9256264  0.030652928   -3.3534607    1.4278344   276871 
 5427000   0.59854417   -3.3517128   -1.9275149  0.029712684   -3.3517128    1.4241979   276784 
 5428000   0.59881976   -3.3521073   -1.9269498  0.025412638   -3.3521073    1.4251575   276725 
 5429000   0.59800604   -3.3520575   -1.9286617  0.025709521   -3.3520575    1.4233958   276691 
 5430000   0.59855675   -3.3527588   -1.9280316  0.029608109   -3.3527588    1.4247272   276687 
 5431000   0.59889509    -3.353517    -1.927665  0.029931209    -3.353517     1.425852   276625 
 5432000   0.59890447   -3.3540876   -1.9281102  0.032155075   -3.3540876    1.4259775   276605 
 5433000   0.59814382   -3.3540007   -1.9295459  0.030107408   -3.3540007    1.4244548   276549 
 5434000   0.59892591   -3.3555753   -1.9289382  0.029380713   -3.3555753    1.4266371   276487 
 5435000   0.59989016   -3.3558859   -1.9268331  0.031489641   -3.3558859    1.4290528   276464 
 5436000   0.59885818   -3.3532489   -1.9265615  0.035592096   -3.3532489    1.4266873   276446 
 5437000   0.59959135   -3.3570866   -1.9281512  0.027820193   -3.3570866    1.4289354   276349 
 5438000   0.59968114   -3.3574162   -1.9280392  0.024994727   -3.3574162     1.429377   276305 
 5439000   0.59854494   -3.3577361    -1.930804  0.029077898   -3.3577361    1.4269321   276254 
 5440000   0.59973026   -3.3598405   -1.9298703  0.030147529   -3.3598405    1.4299702   276213 
 5441000   0.59867919   -3.3585693   -1.9308313  0.030357827   -3.3585693     1.427738   276160 
 5442000   0.59856143   -3.3582304   -1.9303182  0.033578146   -3.3582304    1.4279122   276072 
 5443000   0.59796629   -3.3562151   -1.9295314  0.033761899   -3.3562151    1.4266836   276035 
 5444000   0.59817021   -3.3575322   -1.9300155   0.03030153   -3.3575322    1.4275167   275968 
 5445000   0.59786208   -3.3592075    -1.932209  0.032978203   -3.3592075    1.4269985   275926 
 5446000   0.59650046   -3.3547015      -1.9307  0.029322033   -3.3547015    1.4240014   275877 
 5447000   0.59769854    -3.356841   -1.9296587  0.029697368    -3.356841    1.4271823   275815 
 5448000   0.59825157   -3.3573708   -1.9286297   0.03544927   -3.3573708    1.4287411   275769 
 5449000   0.59789474   -3.3565791   -1.9283691  0.029622963   -3.3565791      1.42821   275707 
 5450000   0.59711307   -3.3567245   -1.9298538  0.036006419   -3.3567245    1.4268707   275605 
 5451000   0.59651244   -3.3560576   -1.9302031  0.031865832   -3.3560576    1.4258545   275524 
 5452000   0.59637006   -3.3544562   -1.9284711  0.032066343   -3.3544562    1.4259851   275433 
 5453000   0.59682826   -3.3562163   -1.9285913  0.030295923   -3.3562163     1.427625   275328 
 5454000   0.59648608   -3.3536507   -1.9267146  0.032561298   -3.3536507     1.426936   275303 
 5455000    0.5960642   -3.3503429   -1.9243229  0.031375207   -3.3503429      1.42602   275285 
 5456000   0.59557023   -3.3513019   -1.9262255  0.029218982   -3.3513019    1.4250764   275239 
 5457000   0.59378082   -3.3497687   -1.9285713  0.026047256   -3.3497687    1.4211975   275161 
 5458000   0.59359568   -3.3502897   -1.9290706    0.0252965   -3.3502897    1.4212192   275071 
 5459000   0.59464876   -3.3529295   -1.9289198  0.029956756   -3.3529295    1.4240097   275019 
 5460000   0.59481033   -3.3523157   -1.9275875  0.032785031   -3.3523157    1.4247282   274955 
 5461000   0.59598712   -3.3531154   -1.9253401  0.026698957   -3.3531154    1.4277754   274911 
 5462000   0.59588973   -3.3526382   -1.9248832  0.029878739   -3.3526382     1.427755   274870 
 5463000   0.59657499   -3.3536366   -1.9240785  0.029002205   -3.3536366    1.4295581   274839 
 5464000   0.59494097   -3.3519984   -1.9261017  0.032101615   -3.3519984    1.4258968   274790 
 5465000   0.59411427   -3.3503322   -1.9260332  0.030511132   -3.3503322     1.424299   274716 
 5466000   0.59573088   -3.3532542   -1.9247937  0.027539542   -3.3532542    1.4284605   274661 
 5467000   0.59452966   -3.3539676   -1.9280187  0.032255808   -3.3539676    1.4259488   274590 
 5468000   0.59559685    -3.354249   -1.9251524   0.02906818    -3.354249    1.4290965   274477 
 5469000   0.59558919   -3.3547317   -1.9253931  0.035375495   -3.3547317    1.4293385   274427 
 5470000   0.59617372   -3.3554802   -1.9242852  0.035018375   -3.3554802     1.431195   274340 
 5471000   0.59508135   -3.3542004   -1.9254403  0.032675236   -3.3542004    1.4287602   274304 
 5472000   0.59535851   -3.3560197   -1.9261927  0.029127022   -3.3560197     1.429827   274227 
 5473000   0.59580639   -3.3557777   -1.9247446  0.031237909   -3.3557777    1.4310331   274202 
 5474000   0.59479423   -3.3555624    -1.926679  0.026848118   -3.3555624    1.4288834   274148 
 5475000   0.59519153   -3.3559582   -1.9256978  0.026583061   -3.3559582    1.4302604   274067 
 5476000   0.59360618   -3.3520478   -1.9251336  0.032650106   -3.3520478    1.4269142   273978 
 5477000   0.59322057   -3.3523313   -1.9261254  0.028210546   -3.3523313    1.4262059   273936 
 5478000   0.59151609   -3.3496812   -1.9272408  0.029537975   -3.3496812    1.4224403   273872 
 5479000   0.59221724   -3.3503227    -1.925853  0.025339256   -3.3503227    1.4244697   273806 
 5480000   0.59348417   -3.3509595   -1.9231817  0.032040446   -3.3509595    1.4277778   273756 
 5481000   0.59287284   -3.3497442   -1.9231505  0.028333019   -3.3497442    1.4265937   273701 
 5482000   0.59319635   -3.3506806   -1.9229276  0.025872864   -3.3506806    1.4277529   273628 
 5483000    0.5920441   -3.3485538   -1.9232668  0.029047202   -3.3485538    1.4252869   273569 
 5484000   0.59258201   -3.3498593   -1.9230375  0.026841028   -3.3498593    1.4268218   273523 
 5485000   0.59212902   -3.3509202   -1.9245842  0.026940513   -3.3509202     1.426336   273407 
 5486000   0.59236294   -3.3478815   -1.9206479  0.027457416   -3.3478815    1.4272336   273343 
 5487000   0.59211484   -3.3475409   -1.9205919  0.028337445   -3.3475409     1.426949   273283 
 5488000    0.5930626   -3.3481109   -1.9186843  0.027101713   -3.3481109    1.4294266   273246 
 5489000   0.59129089   -3.3450946   -1.9197139  0.030559909   -3.3450946    1.4253807   273203 
 5490000   0.59143759   -3.3454191   -1.9194761  0.029329868   -3.3454191     1.425943   273163 
 5491000    0.5919744   -3.3471185   -1.9194265  0.022030844   -3.3471185     1.427692   273076 
 5492000    0.5894789   -3.3424293    -1.920433  0.028029725   -3.3424293    1.4219963   273014 
 5493000   0.59134454   -3.3434646   -1.9167222  0.031168833   -3.3434646    1.4267424   272967 
 5494000   0.59146212   -3.3463395    -1.919031  0.029500437   -3.3463395    1.4273085   272913 
 5495000   0.59208782   -3.3463377   -1.9172837  0.028173771   -3.3463377     1.429054   272868 
 5496000   0.59294887   -3.3462988    -1.914857  0.036089559   -3.3462988    1.4314418   272809 
 5497000   0.59087107    -3.341823    -1.915026  0.031675475    -3.341823    1.4267971   272738 
 5498000   0.59244733   -3.3459038   -1.9149384  0.034497102   -3.3459038    1.4309653   272669 
 5499000   0.59140919   -3.3455625   -1.9168845  0.030830471   -3.3455625    1.4286779   272627 
 5500000   0.59074772   -3.3453988   -1.9179994  0.030501485   -3.3453988    1.4273994   272566 
 5501000   0.59108705   -3.3449574   -1.9166543  0.030739134   -3.3449574    1.4283031   272550 
 5502000   0.58932048   -3.3435744   -1.9194616   0.03358108   -3.3435744    1.4241128   272535 
 5503000   0.59060755   -3.3437158   -1.9162938  0.030772184   -3.3437158     1.427422   272497 
 5504000   0.59048518   -3.3447896   -1.9173333  0.030579303   -3.3447896    1.4274563   272434 
 5505000   0.58984302   -3.3431586    -1.917061  0.034238288   -3.3431586    1.4260976   272397 
 5506000    0.5901779   -3.3428322   -1.9159458  0.031553167   -3.3428322    1.4268863   272401 
 5507000   0.58824299   -3.3392066   -1.9166223  0.028201568   -3.3392066    1.4225843   272329 
 5508000   0.58808691   -3.3403826   -1.9179303  0.027716857   -3.3403826    1.4224523   272282 
 5509000   0.58845791   -3.3420254   -1.9184143  0.025073847   -3.3420254    1.4236111   272232 
 5510000   0.59032263   -3.3439272   -1.9154009  0.030572137   -3.3439272    1.4285263   272155 
 5511000   0.59024167   -3.3458832   -1.9171328  0.028273559   -3.3458832    1.4287504   272075 
 5512000   0.58891231   -3.3431363   -1.9172946  0.028184857   -3.3431363    1.4258417   272016 
 5513000   0.58996428   -3.3443694   -1.9158966   0.02654491   -3.3443694    1.4284727   272000 
 5514000   0.59060509   -3.3438785   -1.9136124  0.026717881   -3.3438785    1.4302662   271954 
 5515000   0.58879605   -3.3417006   -1.9154745   0.03252754   -3.3417006    1.4262261   271889 
 5516000   0.58933986    -3.343112   -1.9153271  0.028941986    -3.343112    1.4277849   271843 
 5517000   0.58989329   -3.3457676   -1.9162527  0.031985425   -3.3457676    1.4295148   271769 
 5518000   0.58787237   -3.3416752   -1.9168113  0.033310701   -3.3416752    1.4248639   271722 
 5519000   0.58772662   -3.3409893   -1.9161431  0.029342971   -3.3409893    1.4248462   271658 
 5520000    0.5887717   -3.3432304   -1.9154091  0.029993644   -3.3432304    1.4278213   271574 
 5521000   0.58804836   -3.3401442   -1.9136306   0.02922487   -3.3401442    1.4265137   271489 
 5522000   0.58899187   -3.3422392   -1.9129787  0.027960647   -3.3422392    1.4292605   271402 
 5523000   0.58991132   -3.3431945    -1.911476  0.029799239   -3.3431945    1.4317185   271359 
 5524000   0.58952227   -3.3430361   -1.9120826  0.032785007   -3.3430361    1.4309536   271325 
 5525000   0.58580563   -3.3373748   -1.9151334  0.028585371   -3.3373748    1.4222414   271266 
 5526000   0.58666826   -3.3391391   -1.9145986  0.028064756   -3.3391391    1.4245405   271227 
 5527000   0.58609371   -3.3384176    -1.914784  0.026895538   -3.3384176    1.4236335   271134 
 5528000   0.58652273   -3.3412173    -1.916221  0.029737704   -3.3412173    1.4249962   271073 
 5529000   0.58755893   -3.3438383   -1.9159717  0.026987613   -3.3438383    1.4278667   271006 
 5530000   0.58750569   -3.3417655   -1.9136224  0.026674681   -3.3417655    1.4281431   270929 
 5531000    0.5860005   -3.3412913   -1.9164443  0.031674483   -3.3412913     1.424847   270860 
 5532000   0.58560978   -3.3404532   -1.9161145  0.027308564   -3.3404532    1.4243387   270776 
 5533000   0.58725383   -3.3412073   -1.9128435  0.029104925   -3.3412073    1.4283638   270771 
 5534000   0.58785928   -3.3432988   -1.9132617  0.027253923   -3.3432988    1.4300371   270733 
 5535000   0.58726569    -3.343739   -1.9147922  0.031691629    -3.343739    1.4289468   270666 
 5536000   0.58737536   -3.3430832   -1.9136688  0.028562225   -3.3430832    1.4294143   270628 
 5537000   0.58636984   -3.3413448   -1.9140505  0.030376156   -3.3413448    1.4272943   270566 
 5538000   0.58626008   -3.3397518    -1.912139  0.028009689   -3.3397518    1.4276128   270455 
 5539000   0.58693723   -3.3418742   -1.9124803  0.031718001   -3.3418742    1.4293939   270430 
 5540000   0.58611283   -3.3404393   -1.9129317  0.033991006   -3.3404393    1.4275076   270407 
 5541000   0.58632473   -3.3402233   -1.9116237  0.031582471   -3.3402233    1.4285996   270298 
 5542000   0.58508867   -3.3397854    -1.913881  0.028477181   -3.3397854    1.4259044   270238 
 5543000   0.58566018   -3.3405825   -1.9130212  0.030407713   -3.3405825    1.4275613   270188 
 5544000   0.58582659   -3.3399581   -1.9118115  0.030728853   -3.3399581    1.4281467   270154 
 5545000   0.58504119   -3.3359692   -1.9093887  0.033640123   -3.3359692    1.4265805   270088 
 5546000   0.58518112   -3.3380828   -1.9107648    0.0293375   -3.3380828    1.4273181   270013 
 5547000   0.58430057   -3.3355651   -1.9101045  0.031855581   -3.3355651    1.4254607   269958 
 5548000   0.58460011   -3.3378178   -1.9112565  0.024361243   -3.3378178    1.4265613   269888 
 5549000   0.58557126   -3.3392385   -1.9098942  0.032503668   -3.3392385    1.4293443   269810 
 5550000   0.58530793   -3.3390679   -1.9099374  0.027623365   -3.3390679    1.4291305   269729 
 5551000   0.58612342   -3.3392966   -1.9081006  0.034036749   -3.3392966     1.431196   269715 
 5552000   0.58430045    -3.337268    -1.910354  0.029110175    -3.337268     1.426914   269683 
 5553000   0.58151438   -3.3327783   -1.9123891  0.029009238   -3.3327783    1.4203893   269630 
 5554000   0.58255752   -3.3343866   -1.9110006  0.025863409   -3.3343866    1.4233859   269545 
 5555000    0.5833262   -3.3357948   -1.9102716  0.028699268   -3.3357948    1.4255232   269496 
 5556000   0.58340969   -3.3374489   -1.9113989  0.029662496   -3.3374489      1.42605   269435 
 5557000   0.58368191   -3.3367896   -1.9096345  0.029487515   -3.3367896    1.4271551   269352 
 5558000   0.58322185   -3.3379475   -1.9116737  0.029270719   -3.3379475    1.4262737   269306 
 5559000   0.58321893   -3.3377647   -1.9112757  0.028054211   -3.3377647    1.4264891   269264 
 5560000   0.58394147   -3.3411259   -1.9126308  0.027079185   -3.3411259    1.4284951   269219 
 5561000   0.58291989   -3.3368585   -1.9105817  0.030372325   -3.3368585    1.4262768   269166 
 5562000   0.58432829   -3.3418482   -1.9117535  0.034267443   -3.3418482    1.4300947   269096 
 5563000   0.58418131   -3.3414947    -1.911393  0.028563678   -3.3414947    1.4301017   269027 
 5564000   0.58320304   -3.3377651    -1.910053   0.02864011   -3.3377651    1.4277122   269026 
 5565000    0.5834729    -3.337201   -1.9087379  0.028611421    -3.337201     1.428463   269009 
 5566000   0.58349224   -3.3382287   -1.9095431  0.029788188   -3.3382287    1.4286857   268976 
 5567000   0.58364092   -3.3377864   -1.9084072  0.032274348   -3.3377864    1.4293792   268914 
 5568000   0.58377383   -3.3363302   -1.9065244  0.029183209   -3.3363302    1.4298057   268895 
 5569000   0.58403425   -3.3377046   -1.9067715  0.030476185   -3.3377046    1.4309331   268803 
 5570000   0.58260676   -3.3347471   -1.9072105  0.033234855   -3.3347471    1.4275366   268784 
 5571000    0.5819728   -3.3332085   -1.9071351  0.028312708   -3.3332085    1.4260734   268767 
 5572000   0.58137432   -3.3332817   -1.9083302  0.028194869   -3.3332817    1.4249515   268702 
 5573000   0.58208683   -3.3354131   -1.9081203  0.031115126   -3.3354131    1.4272928   268590 
 5574000   0.58202737   -3.3338728   -1.9065664  0.029664326   -3.3338728    1.4273064   268560 
 5575000   0.58211022   -3.3356397   -1.9077473  0.028189713   -3.3356397    1.4278924   268488 
 5576000   0.58230637   -3.3338512    -1.905169  0.029190988   -3.3338512    1.4286822   268430 
 5577000   0.58270111   -3.3339326   -1.9041914  0.029560543   -3.3339326    1.4297412   268413 
 5578000   0.58236262   -3.3345486   -1.9052439  0.033339637   -3.3345486    1.4293047   268339 
 5579000   0.58278749   -3.3356087   -1.9047814  0.031937911   -3.3356087    1.4308274   268249 
 5580000   0.58260958   -3.3359391   -1.9053405  0.028626181   -3.3359391    1.4305986   268210 
 5581000    0.5812425   -3.3329799   -1.9053443  0.029349766   -3.3329799    1.4276356   268136 
 5582000   0.58097026    -3.333604   -1.9063709  0.029296205    -3.333604    1.4272331   268086 
 5583000   0.58195951   -3.3341757   -1.9044378  0.030013089   -3.3341757    1.4297379   268072 
 5584000   0.58145117   -3.3342058   -1.9051676   0.03176091   -3.3342058    1.4290382   267969 
 5585000   0.58206719   -3.3345053   -1.9036541  0.029595043   -3.3345053    1.4308512   267913 
 5586000   0.58126665   -3.3325501   -1.9032881  0.026454483   -3.3325501     1.429262   267842 
 5587000   0.58135121   -3.3320868   -1.9023339  0.032563436   -3.3320868    1.4297529   267789 
 5588000   0.58138204   -3.3320467   -1.9018922  0.028842741   -3.3320467    1.4301545   267728 
 5589000   0.58359051   -3.3375172   -1.9016405  0.027579551   -3.3375172    1.4358768   267674 
 5590000   0.58114192   -3.3336111   -1.9033528  0.029622575   -3.3336111    1.4302583   267598 
 5591000   0.58116579   -3.3328602   -1.9020994  0.027487177   -3.3328602    1.4307608   267515 
 5592000   0.57990286   -3.3309291    -1.903032    0.0297411   -3.3309291    1.4278972   267469 
 5593000   0.58010886   -3.3311311   -1.9026893  0.032185263   -3.3311311    1.4284418   267462 
 5594000   0.58126644   -3.3340542   -1.9024195   0.03000497   -3.3340542    1.4316347   267398 
 5595000   0.57924569   -3.3287334   -1.9019743  0.026111361   -3.3287334    1.4267591   267379 
 5596000   0.58066485   -3.3305301    -1.899842   0.03061248   -3.3305301    1.4306881   267298 
 5597000   0.58011822   -3.3283746   -1.8988462  0.032387791   -3.3283746    1.4295284   267263 
 5598000   0.58096954   -3.3293247   -1.8973287  0.029298977   -3.3293247     1.431996   267194 
 5599000   0.58114595   -3.3310562    -1.898073  0.028729707   -3.3310562    1.4329832   267091 
 5600000   0.58027348   -3.3288433   -1.8977489  0.032988574   -3.3288433    1.4310944   267042 
 5601000   0.58059824   -3.3297251   -1.8975402   0.03068327   -3.3297251     1.432185   266988 
 5602000   0.58030682   -3.3265839    -1.894839  0.031604617   -3.3265839    1.4317449   266936 
 5603000   0.57856469   -3.3250826   -1.8972614  0.028364044   -3.3250826    1.4278212   266866 
 5604000   0.57904662   -3.3269888   -1.8980051  0.030517525   -3.3269888    1.4289837   266871 
 5605000   0.57848981   -3.3260243   -1.8980937  0.025319694   -3.3260243    1.4279306   266811 
 5606000   0.57954307   -3.3251523   -1.8942571  0.026722033   -3.3251523    1.4308952   266743 
 5607000   0.57863257   -3.3230665   -1.8942855  0.031035138   -3.3230665    1.4287811   266718 
 5608000   0.57832744   -3.3252709    -1.896772  0.030256786   -3.3252709    1.4284989   266630 
 5609000   0.57792253   -3.3245248   -1.8967101  0.029912397   -3.3245248    1.4278147   266571 
 5610000   0.57730865   -3.3244935   -1.8976334  0.027624994   -3.3244935    1.4268601   266466 
 5611000   0.57797178   -3.3247273   -1.8959601  0.026305501   -3.3247273    1.4287672   266416 
 5612000   0.57819716   -3.3249226   -1.8955178  0.025006591   -3.3249226    1.4294048   266401 
 5613000   0.57845285   -3.3257275   -1.8953524  0.030127968   -3.3257275    1.4303752   266338 
 5614000   0.57818183    -3.321882   -1.8921717  0.035945604    -3.321882    1.4297104   266337 
 5615000   0.57896979   -3.3240588   -1.8920505  0.032245776   -3.3240588    1.4320083   266272 
 5616000   0.57852895      -3.3275   -1.8958993   0.02814455      -3.3275    1.4316007   266145 
 5617000    0.5771828   -3.3231174   -1.8946492  0.031917497   -3.3231174    1.4284682   266108 
 5618000   0.57758246   -3.3263031    -1.896561  0.030905308   -3.3263031    1.4297421   266055 
 5619000   0.57761748   -3.3277407    -1.897498  0.028851829   -3.3277407    1.4302427   265978 
 5620000   0.57598715   -3.3234244   -1.8969504  0.029169743   -3.3234244     1.426474   265928 
 5621000   0.57644156   -3.3257943   -1.8978674  0.031319457   -3.3257943    1.4279269   265867 
 5622000   0.57663881   -3.3258039   -1.8968724  0.025664749   -3.3258039    1.4289315   265771 
 5623000   0.57703011   -3.3264046   -1.8963367  0.030830031   -3.3264046     1.430068   265740 
 5624000   0.57668929   -3.3265569   -1.8972314  0.030817137   -3.3265569    1.4293255   265721 
 5625000   0.57724043   -3.3278846   -1.8969939  0.034298688   -3.3278846    1.4308907   265684 
 5626000   0.57664332   -3.3271075   -1.8972933  0.028646767   -3.3271075    1.4298142   265609 
 5627000   0.57816802   -3.3298623   -1.8961595  0.029161706   -3.3298623    1.4337027   265589 
 5628000   0.57764155   -3.3284107   -1.8958624  0.028901091   -3.3284107    1.4325483   265561 
 5629000   0.57591547   -3.3271301   -1.8985935  0.030863959   -3.3271301    1.4285366   265511 
 5630000   0.57562725   -3.3266483   -1.8985631  0.032637983   -3.3266483    1.4280852   265462 
 5631000   0.57626225   -3.3255692    -1.895607   0.03073652   -3.3255692    1.4299622   265406 
 5632000   0.57531291   -3.3246261   -1.8966429  0.031230365   -3.3246261    1.4279831   265336 
 5633000    0.5756778   -3.3250272   -1.8956051  0.028055118   -3.3250272    1.4294222   265237 
 5634000   0.57581915   -3.3228961   -1.8929882  0.031110855   -3.3228961    1.4299079   265212 
 5635000   0.57571686   -3.3228989   -1.8927759  0.027069713   -3.3228989     1.430123   265125 
 5636000   0.57505641   -3.3213895   -1.8925352  0.030555616   -3.3213895    1.4288543   265056 
 5637000    0.5740024   -3.3193317   -1.8927896  0.032224437   -3.3193317    1.4265421   264999 
 5638000   0.57427544   -3.3191386    -1.891654  0.027528323   -3.3191386    1.4274847   264950 
 5639000   0.57476145   -3.3189628   -1.8898331  0.029927213   -3.3189628    1.4291297   264869 
 5640000   0.57437116   -3.3206673   -1.8921036  0.032772908   -3.3206673    1.4285637   264794 
 5641000   0.57461394   -3.3226999   -1.8929708  0.029554834   -3.3226999    1.4297291   264690 
 5642000   0.57267291   -3.3177902    -1.892643  0.028835485   -3.3177902    1.4251472   264644 
 5643000   0.57383656   -3.3252503   -1.8968024  0.029048547   -3.3252503    1.4284478   264569 
 5644000    0.5718385   -3.3202139   -1.8964384  0.029560805   -3.3202139    1.4237755   264513 
 5645000   0.57268641   -3.3217918    -1.895517  0.028273885   -3.3217918    1.4262748   264441 
 5646000   0.57288314   -3.3243248   -1.8971336  0.027118774   -3.3243248    1.4271912   264362 
 5647000   0.57335761   -3.3254767   -1.8968387  0.024203982   -3.3254767     1.428638   264313 
 5648000   0.57249637   -3.3235986   -1.8968583  0.029254244   -3.3235986    1.4267403   264267 
 5649000   0.57361899   -3.3245105   -1.8948805  0.027812967   -3.3245105      1.42963   264250 
 5650000     0.573646   -3.3234876   -1.8935522  0.030580113   -3.3234876    1.4299354   264206 
 5651000   0.57379539   -3.3255048   -1.8947476  0.032724357   -3.3255048    1.4307573   264123 
 5652000   0.57322763   -3.3286531   -1.8991329  0.029932073   -3.3286531    1.4295202   264090 
 5653000   0.57235196   -3.3264638   -1.8986516  0.029135678   -3.3264638    1.4278122   264002 
 5654000   0.57153158   -3.3272803   -1.9010608  0.025418351   -3.3272803    1.4262195   263918 
 5655000   0.57138894   -3.3273828   -1.9013896  0.026753284   -3.3273828    1.4259932   263894 
 5656000   0.57243921   -3.3297015   -1.9009302  0.028953421   -3.3297015    1.4287713   263865 
 5657000   0.57198553   -3.3296621    -1.901758  0.031248117   -3.3296621    1.4279041   263816 
 5658000   0.57110202   -3.3256497   -1.8997242  0.031410022   -3.3256497    1.4259255   263774 
 5659000   0.57351176   -3.3303885   -1.8980717   0.02758224   -3.3303885    1.4323168   263705 
 5660000   0.57336325   -3.3302944   -1.8983864  0.035195803   -3.3302944    1.4319079   263712 
 5661000   0.57358319   -3.3310453   -1.8982947  0.032977284   -3.3310453    1.4327506   263658 
 5662000   0.57155384   -3.3276962   -1.8995977  0.032032732   -3.3276962    1.4280986   263581 
 5663000   0.57092494   -3.3275621   -1.9008455   0.02746194   -3.3275621    1.4267166   263546 
 5664000   0.57045699   -3.3251751   -1.8996765  0.029530177   -3.3251751    1.4254986   263555 
 5665000   0.57101077    -3.325327   -1.8978922  0.028492683    -3.325327    1.4274348   263453 
 5666000   0.57170947   -3.3251354   -1.8957098  0.029587453   -3.3251354    1.4294256   263408 
 5667000    0.5717738   -3.3247482   -1.8949229  0.035208871   -3.3247482    1.4298253   263364 
 5668000   0.57176862   -3.3235911   -1.8933878  0.034265262   -3.3235911    1.4302033   263292 
 5669000   0.57223803   -3.3238348   -1.8921909  0.030254337   -3.3238348    1.4316439   263243 
 5670000   0.57217245   -3.3240545   -1.8921938  0.028182116   -3.3240545    1.4318606   263173 
 5671000   0.57042952   -3.3202124   -1.8923663  0.032890561   -3.3202124    1.4278462   263109 
 5672000   0.57048808   -3.3186537   -1.8905035  0.030323736   -3.3186537    1.4281502   263080 
 5673000   0.57099132    -3.320388   -1.8905323  0.029517868    -3.320388    1.4298556   262998 
 5674000   0.57074716   -3.3190451    -1.889502  0.031554036   -3.3190451    1.4295432   262943 
 5675000    0.5697117   -3.3178723    -1.890787  0.028906643   -3.3178723    1.4270854   262918 
 5676000   0.56893411   -3.3174897   -1.8919889  0.028254274   -3.3174897    1.4255008   262851 
 5677000   0.56842163   -3.3148651   -1.8903069  0.027282028   -3.3148651    1.4245582   262788 
 5678000   0.56831091   -3.3148841   -1.8902673  0.029209262   -3.3148841    1.4246168   262726 
 5679000   0.57001535   -3.3194987   -1.8900815  0.032826081   -3.3194987    1.4294172   262629 
 5680000   0.56970306   -3.3166372   -1.8878998  0.031718453   -3.3166372    1.4287374   262610 
 5681000    0.5686107   -3.3154191   -1.8891822  0.030454359   -3.3154191    1.4262369   262566 
 5682000   0.56913378   -3.3176409   -1.8893848  0.025805417   -3.3176409    1.4282561   262436 
 5683000   0.56936478   -3.3199018   -1.8908427  0.027499273   -3.3199018    1.4290591   262395 
 5684000   0.56790743   -3.3182523   -1.8924381  0.029692495   -3.3182523    1.4258142   262319 
 5685000   0.56820421    -3.316775   -1.8896989  0.026705431    -3.316775    1.4270761   262224 
 5686000   0.56833852   -3.3145007   -1.8870165  0.031210702   -3.3145007    1.4274842   262211 
 5687000   0.56874641   -3.3170976   -1.8881311  0.029814072   -3.3170976    1.4289665   262127 
 5688000   0.56891359   -3.3189582   -1.8891899  0.029229121   -3.3189582    1.4297683   262057 
 5689000   0.56862943   -3.3186014   -1.8893345   0.03522524   -3.3186014    1.4292669   262018 
 5690000   0.56884746   -3.3190101   -1.8890424  0.033627247   -3.3190101    1.4299678   261990 
 5691000   0.56859602    -3.318789   -1.8891314  0.029968116    -3.318789    1.4296576   261931 
 5692000     0.568895   -3.3208143   -1.8898586  0.027189863   -3.3208143    1.4309557   261831 
 5693000   0.56854078   -3.3206904   -1.8903307  0.031861192   -3.3206904    1.4303597   261777 
 5694000   0.56968599   -3.3238169   -1.8901269   0.02902478   -3.3238169      1.43369   261695 
 5695000   0.56756017   -3.3196717   -1.8911733  0.027639525   -3.3196717    1.4284984   261666 
 5696000   0.56813257     -3.32092   -1.8907186  0.032060962     -3.32092    1.4302014   261618 
 5697000   0.56756599   -3.3199116   -1.8904589  0.031416945   -3.3199116    1.4294526   261494 
 5698000   0.56785385   -3.3206069   -1.8900627   0.02767341   -3.3206069    1.4305442   261427 
 5699000   0.56976166   -3.3239424   -1.8884218   0.03066537   -3.3239424    1.4355206   261396 
 5700000   0.56893548   -3.3184499   -1.8844952   0.03128143   -3.3184499    1.4339547   261302 
 5701000   0.56799491    -3.315445   -1.8834664  0.033276005    -3.315445    1.4319786   261230 
 5702000   0.56626359   -3.3144078   -1.8863841   0.03149621   -3.3144078    1.4280237   261155 
 5703000   0.56652234   -3.3165587   -1.8876143  0.031187227   -3.3165587    1.4289444   261106 
 5704000   0.56534235   -3.3144015   -1.8883023  0.022893565   -3.3144015    1.4260991   261082 
 5705000   0.56523725   -3.3113369    -1.885339  0.026858364   -3.3113369    1.4259979   261052 
 5706000    0.5662074   -3.3130769   -1.8841991  0.027715282   -3.3130769    1.4288778   260973 
 5707000   0.56595452   -3.3127488   -1.8839945  0.027020348   -3.3127488    1.4287543   260879 
 5708000   0.56567002   -3.3115383   -1.8833215  0.029995166   -3.3115383    1.4282167   260846 
 5709000   0.56557537   -3.3115604   -1.8833692  0.031639745   -3.3115604    1.4281913   260807 
 5710000   0.56442616   -3.3078771   -1.8821341  0.028352943   -3.3078771     1.425743   260724 
 5711000   0.56603727   -3.3099371   -1.8798557  0.026584014   -3.3099371    1.4300815   260675 
 5712000   0.56564158   -3.3095638   -1.8801969  0.031045901   -3.3095638    1.4293669   260623 
 5713000   0.56641911   -3.3119003   -1.8803873  0.028025489   -3.3119003     1.431513   260590 
 5714000   0.56619648   -3.3082462   -1.8772025  0.029441405   -3.3082462    1.4310437   260573 
 5715000   0.56501468   -3.3075639   -1.8789206  0.027460503   -3.3075639    1.4286433   260466 
 5716000   0.56596802    -3.303611   -1.8723813  0.030389967    -3.303611    1.4312297   260434 
 5717000   0.56554546   -3.3079327   -1.8774255  0.027894064   -3.3079327    1.4305072   260371 
 5718000    0.5639919   -3.3048163   -1.8779264  0.031451527   -3.3048163    1.4268899   260314 
 5719000   0.56463385   -3.3045074   -1.8757958   0.02588549   -3.3045074    1.4287116   260278 
 5720000   0.56329346   -3.3035748   -1.8777782  0.027065063   -3.3035748    1.4257966   260191 
 5721000    0.5642636   -3.3045713   -1.8759842  0.030301244   -3.3045713    1.4285871   260130 
 5722000   0.56431087   -3.3031164   -1.8743052  0.027385748   -3.3031164    1.4288111   260111 
 5723000   0.56555914   -3.3041404   -1.8718989   0.03257373   -3.3041404    1.4322415   260062 
 5724000   0.56523439   -3.3048813   -1.8731429  0.029709848   -3.3048813    1.4317384   260004 
 5725000   0.56390244   -3.3004313   -1.8719403  0.029327492   -3.3004313     1.428491   259981 
 5726000   0.56481865   -3.3033601   -1.8720527  0.031811703   -3.3033601    1.4313074   259891 
 5727000   0.56435012   -3.3030155   -1.8727248   0.02884842   -3.3030155    1.4302907   259860 
 5728000   0.56415955   -3.3020749   -1.8719535  0.034368515   -3.3020749    1.4301214   259803 
 5729000   0.56443805   -3.3037076    -1.872456  0.030887888   -3.3037076    1.4312516   259726 
 5730000   0.56357692    -3.302995   -1.8734371  0.027150247    -3.302995    1.4295579   259637 
 5731000   0.56327773   -3.3014163   -1.8723531  0.033428175   -3.3014163    1.4290632   259589 
 5732000   0.56376238   -3.3032513   -1.8724955  0.029222084   -3.3032513    1.4307557   259505 
 5733000   0.56302879   -3.2992013   -1.8702302  0.028431502   -3.2992013    1.4289711   259491 
 5734000   0.56576872   -3.3053693   -1.8694111  0.028573776   -3.3053693    1.4359582   259485 
 5735000   0.56403906   -3.3009886   -1.8691058  0.032883798   -3.3009886    1.4318828   259428 
 5736000   0.56256143   -3.2967581    -1.868208  0.031266677   -3.2967581    1.4285501   259352 
 5737000    0.5631371   -3.2979925   -1.8675117  0.028546642   -3.2979925    1.4304808   259267 
 5738000   0.56260326   -3.2990381   -1.8693674  0.027062849   -3.2990381    1.4296706   259168 
 5739000   0.56130874   -3.2969038   -1.8701649  0.030140062   -3.2969038    1.4267389   259103 
 5740000    0.5619884   -3.2980302   -1.8693321  0.029017026   -3.2980302     1.428698   259061 
 5741000   0.56247623   -3.3001377   -1.8696086   0.02605064   -3.3001377     1.430529   258954 
 5742000   0.56103271   -3.2977971   -1.8707133  0.029022691   -3.2977971    1.4270837   258913 
 5743000   0.56068187   -3.2951029   -1.8686031  0.032525612   -3.2951029    1.4264998   258857 
 5744000   0.56106769   -3.2930073   -1.8652611  0.027462817   -3.2930073    1.4277462   258809 
 5745000   0.56125301   -3.2954902   -1.8668087   0.02922904   -3.2954902    1.4286815   258725 
 5746000   0.56178191   -3.2960246   -1.8659194  0.030004095   -3.2960246    1.4301052   258711 
 5747000   0.56135795    -3.295253   -1.8660668  0.028975055    -3.295253    1.4291862   258682 
 5748000   0.56302317   -3.2981875   -1.8644348  0.034933969   -3.2981875    1.4337527   258623 
 5749000   0.56172605   -3.2961454   -1.8653086  0.029802163   -3.2961454    1.4308368   258553 
 5750000   0.56169573   -3.2958263   -1.8648011  0.030610916   -3.2958263    1.4310253   258505 
 5751000   0.55932705   -3.2917933    -1.866527  0.025029635   -3.2917933    1.4252663   258455 
 5752000   0.55891073   -3.2932781   -1.8687475  0.024817671   -3.2932781    1.4245306   258396 
 5753000   0.56056704   -3.2956062   -1.8664613  0.029387027   -3.2956062    1.4291449   258325 
 5754000   0.56095525   -3.2956131   -1.8651297   0.02886809   -3.2956131    1.4304835   258262 
 5755000   0.55997143   -3.2965554   -1.8683263  0.031557704   -3.2965554     1.428229   258216 
 5756000   0.56043646   -3.2966672   -1.8669365  0.027718587   -3.2966672    1.4297307   258159 
 5757000   0.56111578   -3.2985771   -1.8665586  0.032531685   -3.2985771    1.4320184   258059 
 5758000   0.56212618   -3.3020806   -1.8672055  0.031279859   -3.3020806    1.4348751   258009 
 5759000   0.56100538    -3.299512   -1.8671204  0.032671035    -3.299512    1.4323916   257941 
 5760000   0.56035264   -3.2995964   -1.8685329  0.028619656   -3.2995964    1.4310635   257880 
 5761000   0.55936444   -3.2968137   -1.8679083  0.034538663   -3.2968137    1.4289054   257814 
 5762000   0.55984893   -3.2970786   -1.8666082  0.028784408   -3.2970786    1.4304704   257755 
 5763000   0.56097131     -3.29895   -1.8654783   0.03199268     -3.29895    1.4334717   257731 
 5764000   0.56169344   -3.3002384   -1.8645538  0.031638509   -3.3002384    1.4356846   257665 
 5765000   0.56042531   -3.2976401   -1.8650189  0.028187779   -3.2976401    1.4326212   257633 
 5766000   0.55944185   -3.2941531   -1.8637239  0.030183108   -3.2941531    1.4304292   257575 
 5767000   0.55930077    -3.295063   -1.8649001  0.033491336    -3.295063    1.4301629   257558 
 5768000   0.56075767   -3.3005411   -1.8661962   0.02674307   -3.3005411    1.4343449   257476 
 5769000   0.55892259   -3.2953959   -1.8651227  0.029367001   -3.2953959    1.4302732   257364 
 5770000   0.55971096   -3.2944298   -1.8618998    0.0333459   -3.2944298      1.43253   257321 
 5771000     0.559652   -3.2950867   -1.8624348  0.034005634   -3.2950867    1.4326519   257272 
 5772000   0.55845776   -3.2928005   -1.8627611  0.033031552   -3.2928005    1.4300394   257192 
 5773000    0.5580427    -3.292503   -1.8631152  0.028557415    -3.292503    1.4293878   257118 
 5774000   0.55658348   -3.2918114   -1.8657397  0.025257753   -3.2918114    1.4260717   257042 
 5775000   0.55757869   -3.2935868   -1.8646761  0.026945876   -3.2935868    1.4289107   256990 
 5776000   0.55742671   -3.2938996   -1.8649615  0.029787883   -3.2938996    1.4289382   256915 
 5777000   0.55736319   -3.2932412   -1.8642657  0.029708184   -3.2932412    1.4289756   256879 
 5778000   0.55760094   -3.2939196   -1.8640617  0.030258566   -3.2939196    1.4298579   256830 
 5779000   0.55699592   -3.2940723   -1.8654822  0.028427381   -3.2940723    1.4285901   256779 
 5780000   0.55553176   -3.2895911   -1.8645954  0.030063859   -3.2895911    1.4249958   256750 
 5781000   0.55722251   -3.2924982   -1.8627367  0.031583987   -3.2924982    1.4297615   256673 
 5782000   0.55804893   -3.2942179   -1.8617332  0.033379648   -3.2942179    1.4324847   256565 
 5783000   0.55860424   -3.2949281   -1.8606825  0.034042999   -3.2949281    1.4342456   256505 
 5784000   0.55835516   -3.2941866   -1.8604017  0.032742219   -3.2941866    1.4337849   256473 
 5785000   0.55690097   -3.2929601   -1.8622679  0.032576433   -3.2929601    1.4306923   256358 
 5786000   0.55569787   -3.2918424   -1.8639123  0.026594743   -3.2918424    1.4279301   256299 
 5787000   0.55493257    -3.292164   -1.8659834  0.023558794    -3.292164    1.4261806   256260 
 5788000   0.55696531   -3.2952013    -1.863601  0.031935566   -3.2952013    1.4316003   256225 
 5789000    0.5553207    -3.291017   -1.8633041  0.030409082    -3.291017    1.4277129   256164 
 5790000   0.55436885   -3.2883458   -1.8626626  0.028423575   -3.2883458    1.4256832   256089 
 5791000   0.55385969   -3.2876241   -1.8630167  0.029110296   -3.2876241    1.4246074   256047 
 5792000   0.55640018   -3.2915451    -1.860146  0.026707867   -3.2915451    1.4313991   256001 
 5793000   0.55545642   -3.2868926   -1.8575641  0.029430499   -3.2868926    1.4293285   255937 
 5794000   0.55560014   -3.2879072    -1.857829  0.028769942   -3.2879072    1.4300783   255869 
 5795000   0.55525809   -3.2880757   -1.8587158  0.031431676   -3.2880757    1.4293599   255840 
 5796000   0.55566164   -3.2888768   -1.8582769  0.032417617   -3.2888768       1.4306   255804 
 5797000   0.55572546   -3.2864815   -1.8551577  0.034276801   -3.2864815    1.4313238   255704 
 5798000   0.55602981   -3.2894445    -1.856911  0.029856811   -3.2894445    1.4325335   255628 
 5799000   0.55584806   -3.2870123   -1.8547678  0.029306048   -3.2870123    1.4322445   255596 
 5800000   0.55561981   -3.2876081   -1.8557557  0.027807415   -3.2876081    1.4318525   255561 
 5801000   0.55380575    -3.285943   -1.8581341  0.025335118    -3.285943    1.4278089   255448 
 5802000   0.55280351   -3.2844181   -1.8587466  0.029310615   -3.2844181    1.4256714   255368 
 5803000   0.55432321   -3.2878896   -1.8583213  0.028977331   -3.2878896    1.4295683   255372 
 5804000   0.55356603   -3.2846252   -1.8566573  0.032956672   -3.2846252    1.4279679   255309 
 5805000   0.55421878   -3.2859595    -1.856207  0.031126115   -3.2859595    1.4297525   255291 
 5806000   0.55364154   -3.2840462   -1.8555254  0.028673042   -3.2840462    1.4285208   255245 
 5807000   0.55400758   -3.2848366   -1.8549792  0.026221485   -3.2848366    1.4298574   255175 
 5808000   0.55249113   -3.2834325   -1.8571816  0.029126696   -3.2834325    1.4262509   255120 
 5809000    0.5519153   -3.2816675   -1.8567356  0.027506721   -3.2816675     1.424932   255090 
 5810000   0.55194727   -3.2825873   -1.8571817  0.029439411   -3.2825873    1.4254057   255020 
 5811000   0.55256899   -3.2853592   -1.8577546  0.033019493   -3.2853592    1.4276046   254914 
 5812000   0.55242375   -3.2842333   -1.8565447  0.027608782   -3.2842333    1.4276887   254832 
 5813000   0.55342839   -3.2871714   -1.8564653  0.028651405   -3.2871714    1.4307061   254757 
 5814000    0.5516081   -3.2854456   -1.8588461  0.028061386   -3.2854456    1.4265996   254650 
 5815000   0.55238292   -3.2870499   -1.8580649  0.025734406   -3.2870499     1.428985   254582 
 5816000   0.55215979    -3.286174   -1.8571992  0.028204592    -3.286174    1.4289747   254481 
 5817000   0.55167199   -3.2844578   -1.8563077  0.030000707   -3.2844578      1.42815   254403 
 5818000   0.55322384   -3.2882983   -1.8556804  0.031727356   -3.2882983    1.4326179   254323 
 5819000   0.55364543   -3.2909925   -1.8568881  0.030340108   -3.2909925    1.4341044   254253 
 5820000   0.55310315   -3.2905569   -1.8574739  0.028741645   -3.2905569     1.433083   254185 
 5821000   0.55357782   -3.2922309   -1.8575681  0.034140888   -3.2922309    1.4346628   254123 
 5822000   0.55211288    -3.289872   -1.8586847  0.030230507    -3.289872    1.4311873   254066 
 5823000   0.55152939     -3.28891    -1.859027  0.031837965     -3.28891     1.429883   254029 
 5824000   0.55075823   -3.2898812    -1.861604  0.028692099   -3.2898812    1.4282772   253959 
 5825000   0.55081823   -3.2884332   -1.8600904  0.032071068   -3.2884332    1.4283429   253975 
 5826000   0.55027563   -3.2874128   -1.8601004  0.032205923   -3.2874128    1.4273124   253908 
 5827000   0.55087879   -3.2868421   -1.8576444   0.02985883   -3.2868421    1.4291977   253851 
 5828000   0.54967751   -3.2847096   -1.8581396  0.029723661   -3.2847096      1.42657   253764 
 5829000   0.54925681   -3.2843538   -1.8584036  0.033246615   -3.2843538    1.4259502   253680 
 5830000   0.55141177   -3.2872995   -1.8553427  0.031234076   -3.2872995    1.4319568   253607 
 5831000   0.55142762   -3.2863434   -1.8541534  0.026077414   -3.2863434      1.43219   253573 
 5832000   0.55074723   -3.2837557   -1.8530056   0.02805171   -3.2837557    1.4307501   253515 
 5833000   0.54927314   -3.2825538   -1.8553911   0.02816213   -3.2825538    1.4271628   253472 
 5834000   0.54985695   -3.2821532   -1.8530958  0.029353456   -3.2821532    1.4290574   253405 
 5835000   0.54903332    -3.281363   -1.8542491  0.030350578    -3.281363    1.4271139   253370 
 5836000   0.54795012   -3.2795284   -1.8549208  0.026488993   -3.2795284    1.4246076   253315 
 5837000   0.54975902   -3.2817959   -1.8523161  0.031812203   -3.2817959    1.4294798   253285 
 5838000   0.54912705   -3.2793068    -1.851177  0.033233818   -3.2793068    1.4281298   253233 
 5839000    0.5499491   -3.2824384   -1.8517018  0.029166716   -3.2824384    1.4307366   253150 
 5840000   0.54986458   -3.2806253   -1.8498429  0.029844952   -3.2806253    1.4307824   253103 
 5841000   0.54953029   -3.2787821   -1.8486832  0.025879378   -3.2787821     1.430099   253070 
 5842000   0.54985646    -3.281607   -1.8500426  0.029310914    -3.281607    1.4315644   252961 
 5843000   0.54854663   -3.2810005   -1.8525018  0.028842952   -3.2810005    1.4284987   252900 
 5844000   0.54881987    -3.282845   -1.8531768  0.026707248    -3.282845    1.4296682   252819 
 5845000    0.5481859   -3.2802485   -1.8518024  0.028337162   -3.2802485    1.4284461   252743 
 5846000   0.54805249   -3.2780085    -1.849537  0.026333673   -3.2780085    1.4284715   252677 
 5847000   0.54867926   -3.2778738   -1.8473893  0.028122729   -3.2778738    1.4304844   252610 
 5848000   0.54815824   -3.2788708   -1.8494392  0.032159712   -3.2788708    1.4294316   252556 
 5849000   0.54898829   -3.2810987   -1.8490206  0.029813726   -3.2810987    1.4320781   252471 
 5850000   0.54875453    -3.280877   -1.8490627  0.032189113    -3.280877    1.4318143   252410 
 5851000     0.547755   -3.2777381    -1.848294  0.029637665   -3.2777381    1.4294442   252368 
 5852000   0.54858074   -3.2797949   -1.8480029  0.027262467   -3.2797949    1.4317919   252334 
 5853000   0.54814667   -3.2784171   -1.8474065  0.029461667   -3.2784171    1.4310106   252272 
 5854000   0.54679835   -3.2766198   -1.8487556  0.030136229   -3.2766198    1.4278642   252206 
 5855000   0.54702366   -3.2750829   -1.8464547   0.03166193   -3.2750829    1.4286282   252175 
 5856000    0.5476889   -3.2763951   -1.8456494  0.032231555   -3.2763951    1.4307457   252108 
 5857000   0.54708815   -3.2759535   -1.8463348  0.031913303   -3.2759535    1.4296186   252030 
 5858000   0.54636951   -3.2745528    -1.846421  0.027556733   -3.2745528    1.4281317   251961 
 5859000   0.54664477   -3.2740744   -1.8449623  0.031762741   -3.2740744    1.4291121   251915 
 5860000   0.54743013   -3.2756739   -1.8442529  0.031801283   -3.2756739     1.431421   251870 
 5861000   0.54709777   -3.2748284   -1.8442083  0.030755845   -3.2748284    1.4306201   251858 
 5862000   0.54880063   -3.2797219   -1.8442614  0.032495177   -3.2797219    1.4354605   251790 
 5863000   0.54720499   -3.2731649   -1.8420826  0.035062752   -3.2731649    1.4310823   251826 
 5864000   0.54748352   -3.2739243   -1.8418008  0.028571895   -3.2739243    1.4321235   251771 
 5865000   0.54666039   -3.2739545   -1.8436263  0.030054236   -3.2739545    1.4303283   251708 
 5866000   0.54711181   -3.2732755   -1.8416466  0.028462935   -3.2732755    1.4316288   251687 
 5867000   0.54656476   -3.2711856   -1.8403742  0.031806462   -3.2711856    1.4308113   251579 
 5868000   0.54655974   -3.2728683   -1.8415409  0.028390511   -3.2728683    1.4313273   251486 
 5869000   0.54654201   -3.2716196   -1.8399288  0.031040627   -3.2716196    1.4316908   251414 
 5870000   0.54599845   -3.2737109   -1.8428692   0.03274521   -3.2737109    1.4308417   251313 
 5871000   0.54622337     -3.27526     -1.84347  0.027238841     -3.27526      1.43179   251250 
 5872000   0.54558187   -3.2741654   -1.8436242  0.030340836   -3.2741654    1.4305412   251174 
 5873000   0.54482469   -3.2716121   -1.8426466  0.029809511   -3.2716121    1.4289655   251102 
 5874000    0.5450686   -3.2740811   -1.8440715  0.022834996   -3.2740811    1.4300096   251031 
 5875000   0.54457349   -3.2742519   -1.8451769  0.032501861   -3.2742519    1.4290749   250967 
 5876000   0.54328186   -3.2758319   -1.8497203   0.03028643   -3.2758319    1.4261116   250892 
 5877000   0.54518586   -3.2800192   -1.8485387  0.029056053   -3.2800192    1.4314805   250827 
 5878000    0.5444829   -3.2790623    -1.849057  0.026318172   -3.2790623    1.4300053   250762 
 5879000   0.54488834   -3.2790548   -1.8471853  0.025004523   -3.2790548    1.4318696   250622 
 5880000   0.54472721   -3.2781502    -1.846367  0.031176534   -3.2781502    1.4317832   250563 
 5881000   0.54657098    -3.282701   -1.8456529    0.0338865    -3.282701    1.4370481   250490 
 5882000   0.54486556   -3.2766451   -1.8437491  0.032301684   -3.2766451     1.432896   250432 
 5883000   0.54462241   -3.2788652   -1.8460365  0.031857205   -3.2788652    1.4328287   250332 
 5884000   0.54358545   -3.2800931   -1.8495582  0.030584806   -3.2800931    1.4305349   250256 
 5885000   0.54212529   -3.2743422   -1.8474675  0.028347695   -3.2743422    1.4268747   250224 
 5886000   0.54200666    -3.272288   -1.8452636  0.023648145    -3.272288    1.4270244   250143 
 5887000    0.5402987   -3.2706839   -1.8477923  0.024686277   -3.2706839    1.4228916   250079 
 5888000   0.54252834   -3.2732807   -1.8441171  0.027915806   -3.2732807    1.4291635   250009 
 5889000   0.54221905   -3.2709076   -1.8421302  0.031383652   -3.2709076    1.4287774   249934 
 5890000   0.54377972   -3.2738523   -1.8407848   0.03077786   -3.2738523    1.4330676   249903 
 5891000   0.54394317   -3.2745741    -1.840852  0.026525345   -3.2745741    1.4337221   249864 
 5892000   0.54252558   -3.2728937   -1.8425303  0.031784774   -3.2728937    1.4303634   249798 
 5893000   0.54277156    -3.273433   -1.8422205  0.030801666    -3.273433    1.4312125   249763 
 5894000   0.54303403   -3.2734512   -1.8409559  0.031905415   -3.2734512    1.4324953   249660 
 5895000   0.54360537   -3.2739085   -1.8393889  0.028193173   -3.2739085    1.4345196   249570 
 5896000   0.54212702   -3.2702726   -1.8392299  0.028912401   -3.2702726    1.4310427   249496 
 5897000   0.54304156   -3.2718758   -1.8383443  0.028054747   -3.2718758    1.4335315   249483 
 5898000   0.54198458   -3.2688575   -1.8378753   0.03272822   -3.2688575    1.4309822   249441 
 5899000    0.5407619   -3.2686626   -1.8405364   0.03153721   -3.2686626    1.4281261   249376 
 5900000   0.54177196   -3.2714486   -1.8401901  0.031495013   -3.2714486    1.4312585   249295 
 5901000   0.54150481   -3.2686061   -1.8375769  0.030835793   -3.2686061    1.4310292   249212 
 5902000   0.54089549    -3.267203   -1.8372561  0.031860599    -3.267203    1.4299469   249120 
 5903000   0.54263261   -3.2734151   -1.8384611  0.030264121   -3.2734151     1.434954   249048 
 5904000   0.54170589   -3.2714789   -1.8387915  0.030967891   -3.2714789    1.4326874   249016 
 5905000    0.5421874   -3.2736015   -1.8392892  0.035618993   -3.2736015    1.4343122   248955 
 5906000   0.54153828   -3.2715581    -1.838635   0.03120879   -3.2715581    1.4329231   248898 
 5907000   0.54231907     -3.27294   -1.8375241  0.030352104     -3.27294    1.4354159   248824 
 5908000   0.54157239   -3.2741482   -1.8400516  0.031594407   -3.2741482    1.4340966   248710 
 5909000   0.54055026   -3.2728256   -1.8411594  0.034809726   -3.2728256    1.4316662   248662 
 5910000   0.54057897   -3.2746367   -1.8426986  0.027681307   -3.2746367    1.4319381   248628 
 5911000   0.54144944   -3.2762179   -1.8418644  0.028429221   -3.2762179    1.4343535   248609 
 5912000   0.54017629   -3.2731178   -1.8415208  0.027526236   -3.2731178    1.4315969   248502 
 5913000   0.53870461   -3.2690535   -1.8407764  0.032055605   -3.2690535    1.4282771   248401 
 5914000    0.5396249   -3.2685265   -1.8374406  0.031591673   -3.2685265    1.4310858   248337 
 5915000   0.54051058   -3.2715317    -1.837508  0.032865819   -3.2715317    1.4340237   248235 
 5916000   0.53921975   -3.2721141   -1.8409212  0.030077285   -3.2721141    1.4311928   248132 
 5917000   0.54069821   -3.2735995   -1.8384652  0.028758018   -3.2735995    1.4351343   248129 
 5918000   0.53869723   -3.2688383   -1.8385655  0.029122026   -3.2688383    1.4302728   248051 
 5919000   0.53861733   -3.2684448   -1.8381938  0.028169793   -3.2684448     1.430251   248018 
 5920000   0.53896823   -3.2707444   -1.8391229  0.029068585   -3.2707444    1.4316214   247942 
 5921000   0.53914822   -3.2711186   -1.8385684  0.026551454   -3.2711186    1.4325502   247864 
 5922000   0.53820307   -3.2694443   -1.8387185  0.032312774   -3.2694443    1.4307258   247745 
 5923000   0.53768375   -3.2656515   -1.8360004  0.028421042   -3.2656515    1.4296511   247692 
 5924000   0.53878379   -3.2684389   -1.8355736  0.028854518   -3.2684389    1.4328653   247642 
 5925000   0.53784788   -3.2659709   -1.8354965  0.030106661   -3.2659709    1.4304744   247625 
 5926000   0.53816297   -3.2649191   -1.8332482  0.032038085   -3.2649191    1.4316709   247563 
 5927000   0.53967194   -3.2674581   -1.8316627  0.028964432   -3.2674581    1.4357954   247544 
 5928000   0.53867874   -3.2656474   -1.8322512  0.030511697   -3.2656474    1.4333962   247502 
 5929000   0.53657634   -3.2610298   -1.8327778  0.032030983   -3.2610298     1.428252   247424 
 5930000   0.53795408   -3.2644161   -1.8320221  0.026371611   -3.2644161    1.4323939   247342 
 5931000   0.53746214   -3.2650647   -1.8334887   0.02836114   -3.2650647     1.431576   247257 
 5932000   0.53634801   -3.2631857   -1.8341554  0.027693459   -3.2631857    1.4290303   247184 
 5933000   0.53644481   -3.2636077    -1.834146  0.026330141   -3.2636077    1.4294617   247154 
 5934000   0.53645994   -3.2618315    -1.831907  0.028151269   -3.2618315    1.4299244   247081 
 5935000    0.5357626   -3.2613167   -1.8329042  0.030119353   -3.2613167    1.4284125   247021 
 5936000   0.53665792   -3.2625201   -1.8314772  0.030386333   -3.2625201    1.4310429   246979 
 5937000   0.53755775   -3.2642069   -1.8303291  0.033057055   -3.2642069    1.4338778   246904 
 5938000   0.53692004   -3.2645663   -1.8320298  0.029994543   -3.2645663    1.4325365   246842 
 5939000   0.53602729   -3.2644477   -1.8337309  0.031396374   -3.2644477    1.4307168   246745 
 5940000   0.53606545   -3.2612704   -1.8300342  0.030430192   -3.2612704    1.4312363   246673 
 5941000   0.53609449   -3.2620867   -1.8302157  0.029023048   -3.2620867    1.4318711   246577 
 5942000   0.53591382   -3.2613476   -1.8300171  0.031956146   -3.2613476    1.4313305   246587 
 5943000    0.5362788   -3.2634227   -1.8308502  0.029470437   -3.2634227    1.4325725   246541 
 5944000   0.53499648   -3.2607928   -1.8310833  0.030885609   -3.2607928    1.4297095   246444 
 5945000   0.53538842   -3.2588385   -1.8276751   0.02879878   -3.2588385    1.4311634   246374 
 5946000   0.53588317   -3.2606105   -1.8279908  0.027229974   -3.2606105    1.4326197   246351 
 5947000   0.53531871    -3.261507   -1.8302627  0.029766746    -3.261507    1.4312443   246328 
 5948000   0.53574403   -3.2622208   -1.8294089  0.029781658   -3.2622208    1.4328119   246254 
 5949000    0.5359731   -3.2601225   -1.8265932  0.031209696   -3.2601225    1.4335293   246236 
 5950000   0.53490081   -3.2612415   -1.8302431   0.03238668   -3.2612415    1.4309984   246178 
 5951000   0.53413767    -3.260659   -1.8313016  0.028781128    -3.260659    1.4293574   246109 
 5952000   0.53425476   -3.2632551   -1.8332996   0.02640291   -3.2632551    1.4299555   246060 
 5953000   0.53459853   -3.2625501   -1.8313604  0.030558358   -3.2625501    1.4311897   246006 
 5954000   0.53452316   -3.2633704   -1.8318879  0.034268429   -3.2633704    1.4314825   245921 
 5955000   0.53552693   -3.2655757     -1.83102  0.034751303   -3.2655757    1.4345557   245855 
 5956000   0.53459294   -3.2642505   -1.8318996  0.031064579   -3.2642505    1.4323508   245804 
 5957000   0.53500066   -3.2633803   -1.8296745  0.034695883   -3.2633803    1.4337057   245759 
 5958000   0.53388573   -3.2635696    -1.832415  0.029346339   -3.2635696    1.4311547   245684 
 5959000    0.5329779   -3.2616826   -1.8326765  0.029279981   -3.2616826    1.4290061   245635 
 5960000   0.53368204   -3.2622729    -1.831239  0.032009993   -3.2622729    1.4310338   245611 
 5961000   0.53235876   -3.2599867   -1.8323034  0.030496065   -3.2599867    1.4276832   245577 
 5962000   0.53368362   -3.2606572   -1.8295375  0.030975129   -3.2606572    1.4311197   245597 
 5963000   0.53395389   -3.2618717   -1.8297124  0.030023954   -3.2618717    1.4321593   245543 
 5964000   0.53360248   -3.2630749   -1.8314383  0.034426771   -3.2630749    1.4316366   245471 
 5965000   0.53314152   -3.2611556   -1.8301961  0.034051746   -3.2611556    1.4309595   245375 
 5966000   0.53269681   -3.2602524   -1.8303583  0.033686396   -3.2602524     1.429894   245353 
 5967000   0.53411821   -3.2651883   -1.8312684   0.02596267   -3.2651883    1.4339198   245317 
 5968000   0.53344567   -3.2633333   -1.8309738  0.026737521   -3.2633333    1.4323595   245275 
 5969000   0.53321316    -3.263038   -1.8307714  0.029039987    -3.263038    1.4322666   245184 
 5970000    0.5340725   -3.2649878   -1.8299857  0.028544964   -3.2649878    1.4350021   245111 
 5971000   0.53308086   -3.2589356   -1.8263116  0.034769296   -3.2589356    1.4326241   245062 
 5972000   0.53368203    -3.260253   -1.8259606  0.028529302    -3.260253    1.4342924   245053 
 5973000   0.53234747   -3.2563327   -1.8251715  0.031967854   -3.2563327    1.4311612   244975 
 5974000   0.53409711   -3.2615734   -1.8251867  0.029299406   -3.2615734    1.4363868   244886 
 5975000   0.53320038   -3.2579015   -1.8238561  0.032859051   -3.2579015    1.4340454   244874 
 5976000   0.53294198   -3.2574835   -1.8238051  0.029087081   -3.2574835    1.4336783   244818 
 5977000   0.53293665   -3.2568823   -1.8229606  0.029712688   -3.2568823    1.4339217   244774 
 5978000    0.5316675   -3.2559998   -1.8250018  0.030082369   -3.2559998     1.430998   244690 
 5979000   0.53129218   -3.2524866   -1.8221422  0.033956173   -3.2524866    1.4303444   244629 
 5980000   0.53162079    -3.253452   -1.8218191  0.033323155    -3.253452    1.4316329   244560 
 5981000   0.53196162   -3.2566893   -1.8237753   0.02836058   -3.2566893     1.432914   244498 
 5982000   0.53214723   -3.2552526   -1.8215806  0.031160784   -3.2552526     1.433672   244454 
 5983000   0.53261633   -3.2552709   -1.8197362  0.030352873   -3.2552709    1.4355347   244352 
 5984000   0.53188515   -3.2531039   -1.8190997  0.027030662   -3.2531039    1.4340042   244277 
 5985000   0.53056465   -3.2513959   -1.8202488  0.031348269   -3.2513959    1.4311471   244157 
 5986000   0.53159181   -3.2534866   -1.8192752  0.030961585   -3.2534866    1.4342114   244107 
 5987000   0.53137899   -3.2514831   -1.8173817  0.029033388   -3.2514831    1.4341014   244028 
 5988000   0.53240086   -3.2527489   -1.8155599  0.030962247   -3.2527489     1.437189   243972 
 5989000   0.53118938   -3.2499827   -1.8155819  0.028882459   -3.2499827    1.4344008   243890 
 5990000   0.53126427   -3.2503329   -1.8153239  0.030553934   -3.2503329     1.435009   243821 
 5991000   0.53015428   -3.2495805   -1.8173935  0.026443709   -3.2495805     1.432187   243791 
 5992000   0.53014804     -3.24592   -1.8137322  0.029226437     -3.24592    1.4321878   243788 
 5993000   0.52967629   -3.2451814    -1.813816  0.027591061   -3.2451814    1.4313655   243711 
 5994000   0.52999784    -3.243956   -1.8114924  0.027214545    -3.243956    1.4324636   243672 
 5995000   0.52981825   -3.2437181   -1.8111873  0.028254953   -3.2437181    1.4325309   243578 
 5996000   0.53063815   -3.2448386   -1.8098198  0.030536487   -3.2448386    1.4350187   243532 
 5997000   0.53087571   -3.2467718   -1.8108335  0.035087056   -3.2467718    1.4359383   243485 
 5998000   0.52922337   -3.2443015   -1.8125503  0.031840627   -3.2443015    1.4317512   243437 
 5999000    0.5295759   -3.2446055   -1.8114531  0.031029768   -3.2446055    1.4331524   243361 
 6000000   0.52916552   -3.2441237    -1.811717   0.03116576   -3.2441237    1.4324067   243299 
 6001000   0.52953649   -3.2458181   -1.8121362  0.028921814   -3.2458181     1.433682   243253 
 6002000   0.52902664   -3.2480399   -1.8152494  0.029875431   -3.2480399    1.4327905   243170 
 6003000   0.52886204   -3.2493555   -1.8165394  0.030372148   -3.2493555     1.432816   243090 
 6004000    0.5285403   -3.2480293   -1.8156843  0.029379719   -3.2480293     1.432345   243022 
 6005000   0.52824029   -3.2477351   -1.8157553  0.031346331   -3.2477351    1.4319798   242946 
 6006000   0.52769589   -3.2452352    -1.814313  0.031497742   -3.2452352    1.4309222   242875 
 6007000   0.52883103   -3.2482939   -1.8137383  0.034381981   -3.2482939    1.4345555   242781 
 6008000   0.52911508   -3.2502006   -1.8145729   0.02991562   -3.2502006    1.4356276   242730 
 6009000   0.52879941   -3.2501597   -1.8151284  0.031260856   -3.2501597    1.4350313   242686 
 6010000   0.52890643    -3.252207   -1.8163173  0.030841749    -3.252207    1.4358897   242590 
 6011000   0.52805537   -3.2522955   -1.8182375  0.032796949   -3.2522955    1.4340581   242509 
 6012000   0.52796749   -3.2514147   -1.8175599  0.033748512   -3.2514147    1.4338549   242503 
 6013000   0.52852357   -3.2522068   -1.8164925  0.029716677   -3.2522068    1.4357144   242444 
 6014000   0.52866231   -3.2531454   -1.8164319  0.032640556   -3.2531454    1.4367135   242339 
 6015000   0.52867003    -3.253704   -1.8169696  0.032254987    -3.253704    1.4367345   242339 
 6016000   0.52715735   -3.2483923   -1.8155736  0.030904478   -3.2483923    1.4328187   242306 
 6017000   0.52794134   -3.2529528   -1.8174108  0.027531787   -3.2529528     1.435542   242206 
 6018000    0.5273735   -3.2501715   -1.8157886  0.030634373   -3.2501715    1.4343829   242141 
 6019000   0.52714487   -3.2506252   -1.8163488  0.029838043   -3.2506252    1.4342764   242054 
 6020000   0.52647116    -3.249151    -1.816465  0.033163762    -3.249151     1.432686   242013 
 6021000   0.52727819   -3.2500764   -1.8147257  0.034653259   -3.2500764    1.4353507   241934 
 6022000   0.52634976   -3.2453545   -1.8120631  0.036064108   -3.2453545    1.4332914   241855 
 6023000   0.52652379    -3.248508   -1.8145056  0.027636049    -3.248508    1.4340025   241815 
 6024000   0.52578849   -3.2426091   -1.8105559  0.033479089   -3.2426091    1.4320531   241806 
 6025000   0.52782359   -3.2456274   -1.8080077  0.029217165   -3.2456274    1.4376198   241802 
 6026000   0.52679137   -3.2433606    -1.808487  0.029047428   -3.2433606    1.4348736   241791 
 6027000   0.52712343   -3.2434029   -1.8073635  0.030146716   -3.2434029    1.4360394   241747 
 6028000   0.52572281   -3.2388273   -1.8060109  0.027817037   -3.2388273    1.4328164   241647 
 6029000   0.52539554    -3.238932    -1.806729   0.02600686    -3.238932     1.432203   241600 
 6030000   0.52518495   -3.2389358   -1.8069216  0.029540641   -3.2389358    1.4320142   241535 
 6031000   0.52661159   -3.2408698   -1.8045671  0.026375035   -3.2408698    1.4363026   241468 
 6032000   0.52501684   -3.2356125   -1.8031137   0.03417127   -3.2356125    1.4324988   241376 
 6033000   0.52397153   -3.2360644   -1.8061155  0.028804312   -3.2360644    1.4299489   241325 
 6034000   0.52394152    -3.237291    -1.806683  0.027025784    -3.237291     1.430608   241200 
 6035000   0.52361538    -3.238233    -1.808053  0.031694791    -3.238233      1.43018   241122 
 6036000   0.52401014   -3.2407798   -1.8088149    0.0315565   -3.2407798    1.4319649   241003 
 6037000   0.52475983   -3.2421114   -1.8077586  0.026823987   -3.2421114    1.4343528   240946 
 6038000   0.52393663   -3.2393578    -1.806595  0.032470384   -3.2393578    1.4327628   240835 
 6039000   0.52481936   -3.2419982   -1.8067738  0.030250333   -3.2419982    1.4352244   240827 
 6040000   0.52589658   -3.2438399   -1.8055801  0.031738687   -3.2438399    1.4382598   240812 
 6041000   0.52498737   -3.2429982   -1.8068015  0.033275785   -3.2429982    1.4361967   240741 
 6042000   0.52347503   -3.2416789   -1.8091612  0.033436646   -3.2416789    1.4325176   240664 
 6043000   0.52427121   -3.2430734    -1.808049   0.03412422   -3.2430734    1.4350244   240609 
 6044000   0.52295168   -3.2431071   -1.8113732  0.030360664   -3.2431071    1.4317339   240555 
 6045000   0.52274587    -3.244913   -1.8133141  0.032945624    -3.244913    1.4315989   240483 
 6046000   0.52406567   -3.2464126   -1.8105305  0.030678779   -3.2464126    1.4358821   240371 
 6047000   0.52294053   -3.2449593   -1.8117188  0.036067288   -3.2449593    1.4332406   240297 
 6048000   0.52254715   -3.2457021   -1.8131046  0.027037171   -3.2457021    1.4325976   240224 
 6049000   0.52199918   -3.2428964   -1.8114495   0.02606488   -3.2428964    1.4314469   240165 
 6050000   0.52165047   -3.2440022   -1.8128024  0.033246981   -3.2440022    1.4311998   240046 
 6051000   0.52317396   -3.2488893   -1.8132525  0.030316299   -3.2488893    1.4356368   240003 
 6052000   0.52227718   -3.2462466   -1.8127601  0.028540994   -3.2462466    1.4334865   239951 
 6053000   0.52260925   -3.2473884    -1.812823  0.032113543   -3.2473884    1.4345654   239923 
 6054000   0.52193889   -3.2459832   -1.8127443  0.029730161   -3.2459832     1.433239   239837 
 6055000   0.52095409   -3.2443113    -1.813532  0.029677653   -3.2443113    1.4307793   239796 
 6056000   0.52227782   -3.2485769   -1.8137551  0.031486994   -3.2485769    1.4348218   239728 
 6057000   0.52355901   -3.2497645   -1.8110929  0.033549874   -3.2497645    1.4386716   239673 
 6058000   0.52217536   -3.2470291   -1.8118722  0.032065552   -3.2470291    1.4351569   239625 
 6059000   0.52213972   -3.2487308   -1.8133304  0.032062615   -3.2487308    1.4354004   239568 
 6060000   0.52225386   -3.2467675   -1.8107117  0.030258838   -3.2467675    1.4360558   239511 
 6061000   0.52207721   -3.2477031   -1.8116893  0.031842392   -3.2477031    1.4360138   239437 
 6062000   0.52267748   -3.2469387   -1.8092558  0.031535379   -3.2469387    1.4376829   239434 
 6063000   0.52150781   -3.2452925   -1.8100836  0.031828167   -3.2452925    1.4352089   239310 
 6064000   0.52151972   -3.2464444   -1.8106208  0.029688316   -3.2464444    1.4358236   239213 
 6065000   0.51863937   -3.2397021   -1.8112352  0.027745696   -3.2397021    1.4284668   239117 
 6066000   0.51900387       -3.239   -1.8094814  0.031041045       -3.239    1.4295186   239109 
 6067000   0.51902163    -3.240603   -1.8107245  0.030232816    -3.240603    1.4298785   239057 
 6068000   0.51849598   -3.2381811    -1.809428  0.033503437   -3.2381811    1.4287531   239003 
 6069000   0.51929425   -3.2431816   -1.8117317  0.027167994   -3.2431816    1.4314499   238920 
 6070000   0.51969331   -3.2416328    -1.808819  0.031540798   -3.2416328    1.4328137   238876 
 6071000   0.51979753   -3.2387312   -1.8055581  0.031197529   -3.2387312    1.4331731   238864 
 6072000   0.52070959    -3.239341   -1.8032745  0.033953699    -3.239341    1.4360665   238801 
 6073000   0.52040738   -3.2398652   -1.8042955  0.034575567   -3.2398652    1.4355697   238745 
 6074000   0.52081445   -3.2456308   -1.8084686  0.026080763   -3.2456308    1.4371622   238667 
 6075000   0.51919903    -3.240313   -1.8072122  0.032091152    -3.240313    1.4331008   238601 
 6076000   0.51887114   -3.2391942   -1.8065361  0.029049835   -3.2391942    1.4326581   238524 
 6077000   0.51878054   -3.2396181   -1.8068738  0.033000063   -3.2396181    1.4327443   238468 
 6078000   0.51910509   -3.2395764   -1.8054546  0.025957299   -3.2395764    1.4341218   238388 
 6079000   0.51960055   -3.2392053   -1.8034678  0.029599855   -3.2392053    1.4357375   238347 
 6080000    0.5194242   -3.2395855   -1.8038232  0.032467235   -3.2395855    1.4357622   238262 
 6081000   0.51880765   -3.2368241   -1.8024711  0.029208652   -3.2368241     1.434353   238213 
 6082000   0.51810248   -3.2375848   -1.8046581  0.029588236   -3.2375848    1.4329267   238126 
 6083000   0.51851379   -3.2392843   -1.8047199  0.031200785   -3.2392843    1.4345643   238043 
 6084000   0.51841621   -3.2376008   -1.8031919  0.029935204   -3.2376008    1.4344089   238024 
 6085000   0.51781137   -3.2373599   -1.8042814  0.031802114   -3.2373599    1.4330785   237967 
 6086000   0.51721574   -3.2349118   -1.8029341  0.030173001   -3.2349118    1.4319776   237876 
 6087000   0.51723273     -3.23701   -1.8044794  0.029742804     -3.23701    1.4325305   237792 
 6088000   0.51771174   -3.2394551   -1.8053627  0.033645135   -3.2394551    1.4340924   237753 
 6089000   0.51858101   -3.2397025   -1.8027488  0.026583293   -3.2397025    1.4369536   237678 
 6090000   0.51824411   -3.2406049    -1.804198  0.032645647   -3.2406049    1.4364069   237614 
 6091000   0.51752385   -3.2376969   -1.8029663  0.029211437   -3.2376969    1.4347306   237561 
 6092000   0.51695713   -3.2345175   -1.8012374  0.029143747   -3.2345175    1.4332801   237541 
 6093000   0.51746514   -3.2379142   -1.8030625  0.032091626   -3.2379142    1.4348517   237514 
 6094000   0.51625379    -3.234623   -1.8027323  0.029125287    -3.234623    1.4318907   237448 
 6095000   0.51684253   -3.2339139   -1.8001004  0.031142056   -3.2339139    1.4338135   237400 
 6096000   0.51796654   -3.2345372   -1.7974784  0.030522287   -3.2345372    1.4370588   237379 
 6097000    0.5178449     -3.23406   -1.7966484  0.029568301     -3.23406    1.4374116   237265 
 6098000   0.51695981   -3.2317514   -1.7965183  0.034159334   -3.2317514    1.4352331   237219 
 6099000   0.51773716   -3.2316489    -1.793615  0.031944779   -3.2316489    1.4380338   237113 
 6100000   0.51629527   -3.2312728   -1.7966691  0.036742264   -3.2312728    1.4346037   237018 
 6101000   0.51568139   -3.2290214   -1.7957303  0.034616293   -3.2290214     1.433291   236953 
 6102000   0.51764349   -3.2318394   -1.7929067  0.028618472   -3.2318394    1.4389328   236922 
 6103000   0.51717429   -3.2296332   -1.7914098   0.02751191   -3.2296332    1.4382234   236824 
 6104000   0.51611605   -3.2273477   -1.7915276  0.030280678   -3.2273477    1.4358201   236735 
 6105000   0.51628893   -3.2270737   -1.7903722  0.028446413   -3.2270737    1.4367016   236669 
 6106000   0.51573338   -3.2249525   -1.7896271  0.029466477   -3.2249525    1.4353254   236641 
 6107000   0.51552244   -3.2254239   -1.7900668  0.030632835   -3.2254239     1.435357   236539 
 6108000   0.51539502   -3.2261027   -1.7907788  0.032043557   -3.2261027    1.4353239   236486 
 6109000   0.51570505   -3.2263701   -1.7898973  0.030850716   -3.2263701    1.4364728   236439 
 6110000   0.51538944   -3.2265768   -1.7903697  0.029543506   -3.2265768    1.4362072   236338 
 6111000   0.51475003   -3.2263439   -1.7915178  0.035008513   -3.2263439    1.4348261   236272 
 6112000   0.51562781   -3.2275125   -1.7901849  0.028298021   -3.2275125    1.4373276   236263 
 6113000   0.51547123   -3.2281302   -1.7909045  0.030782911   -3.2281302    1.4372257   236208 
 6114000   0.51473197   -3.2277093   -1.7921255  0.030478917   -3.2277093    1.4355838   236139 
 6115000   0.51481065   -3.2273172   -1.7910151   0.03252196   -3.2273172     1.436302   236057 
 6116000    0.5154561   -3.2278674   -1.7896001  0.033466049   -3.2278674    1.4382673   236030 
 6117000   0.51483069   -3.2268385    -1.789951  0.033174774   -3.2268385    1.4368875   235970 
 6118000   0.51384241   -3.2242447   -1.7895683  0.031987096   -3.2242447    1.4346764   235880 
 6119000   0.51402578   -3.2244102   -1.7887227  0.031817036   -3.2244102    1.4356875   235798 
 6120000   0.51360889   -3.2259448   -1.7909165  0.032351411   -3.2259448    1.4350282   235715 
 6121000    0.5130095    -3.223355   -1.7892593  0.032801548    -3.223355    1.4340958   235593 
 6122000   0.51316187   -3.2229593   -1.7879503  0.029352616   -3.2229593     1.435009   235513 
 6123000    0.5123084   -3.2221972   -1.7890942  0.030489767   -3.2221972    1.4331031   235434 
 6124000   0.51156136   -3.2216133   -1.7900162  0.035242213   -3.2216133    1.4315971   235338 
 6125000   0.51365517   -3.2246604   -1.7868128  0.030567616   -3.2246604    1.4378476   235274 
 6126000   0.51359172   -3.2244616   -1.7863821  0.030675883   -3.2244616    1.4380795   235207 
 6127000   0.51111614   -3.2195855   -1.7880116  0.032016272   -3.2195855    1.4315738   235137 
 6128000   0.51021401   -3.2155097   -1.7863349  0.032063524   -3.2155097    1.4291747   235116 
 6129000     0.510727   -3.2171263   -1.7859546  0.027775712   -3.2171263    1.4311717   235024 
 6130000    0.5112758   -3.2187584   -1.7856403  0.027808854   -3.2187584    1.4331181   234957 
 6131000   0.51072454   -3.2188241   -1.7870013  0.030716904   -3.2188241    1.4318228   234916 
 6132000   0.51047552   -3.2183411   -1.7867777  0.029227652   -3.2183411    1.4315634   234844 
 6133000    0.5103108   -3.2174959   -1.7859616  0.028832026   -3.2174959    1.4315342   234773 
 6134000   0.51074741    -3.218253   -1.7851888  0.030142751    -3.218253    1.4330642   234723 
 6135000   0.51027503   -3.2177839   -1.7855935  0.030385878   -3.2177839    1.4321903   234649 
 6136000   0.50982155   -3.2184781   -1.7868894  0.029121181   -3.2184781    1.4315887   234539 
 6137000   0.50830288   -3.2166969     -1.78891   0.02918813   -3.2166969    1.4277869   234463 
 6138000   0.50941112   -3.2186523   -1.7874534  0.030717805   -3.2186523    1.4311989   234414 
 6139000   0.51040344   -3.2221708   -1.7877801  0.028698885   -3.2221708    1.4343907   234348 
 6140000    0.5093665   -3.2192914   -1.7874116  0.031875491   -3.2192914    1.4318799   234282 
 6141000     0.510316   -3.2217291   -1.7866962  0.032381505   -3.2217291    1.4350329   234203 
 6142000   0.50997996   -3.2211606   -1.7865949  0.031076585   -3.2211606    1.4345657   234125 
 6143000   0.51057146   -3.2226571   -1.7857401  0.031002115   -3.2226571     1.436917   234013 
 6144000   0.50831684   -3.2212198   -1.7900915  0.030753062   -3.2212198    1.4311283   233922 
 6145000   0.50865611   -3.2234866   -1.7909867  0.029532328   -3.2234866    1.4324999   233854 
 6146000   0.50912497   -3.2221057   -1.7880646  0.028637546   -3.2221057    1.4340411   233818 
 6147000   0.51039294   -3.2219315   -1.7842022  0.034534176   -3.2219315    1.4377294   233799 
 6148000   0.50938143   -3.2201431   -1.7849562  0.033183902   -3.2201431    1.4351869   233749 
 6149000   0.50897368   -3.2200473   -1.7856901  0.027263969   -3.2200473    1.4343572   233697 
 6150000    0.5091031   -3.2217315   -1.7865981  0.030086956   -3.2217315    1.4351334   233630 
 6151000   0.50893893   -3.2197644   -1.7844918  0.028811595   -3.2197644    1.4352726   233532 
 6152000   0.50959378   -3.2181768   -1.7808481  0.030939191   -3.2181768    1.4373287   233498 
 6153000   0.50863235   -3.2157222   -1.7809886  0.030885106   -3.2157222    1.4347336   233479 
 6154000   0.50856977   -3.2166713   -1.7818499  0.032888158   -3.2166713    1.4348214   233436 
 6155000   0.50751582   -3.2157806   -1.7833313  0.031636029   -3.2157806    1.4324492   233338 
 6156000   0.50665688   -3.2168731    -1.786327  0.029253704   -3.2168731     1.430546   233253 
 6157000   0.50694705   -3.2148306   -1.7830908  0.026587463   -3.2148306    1.4317398   233192 
 6158000   0.50634282   -3.2110315    -1.780532  0.030211489   -3.2110315    1.4304995   233116 
 6159000    0.5079483   -3.2153675   -1.7797903  0.029879549   -3.2153675    1.4355771   233028 
 6160000   0.50860237   -3.2157988   -1.7779473  0.034280513   -3.2157988    1.4378514   232959 
 6161000   0.50836955   -3.2167394   -1.7793241  0.031642706   -3.2167394    1.4374154   232923 
 6162000   0.50542791   -3.2120995   -1.7825412  0.031494193   -3.2120995    1.4295582   232848 
 6163000   0.50837557   -3.2199591   -1.7817363  0.028189553   -3.2199591    1.4382228   232795 
 6164000   0.50655746   -3.2132857   -1.7797077  0.029769792   -3.2132857     1.433578   232714 
 6165000   0.50822629   -3.2165757   -1.7777925  0.033471883   -3.2165757    1.4387831   232636 
 6166000   0.50807263   -3.2148709   -1.7762074  0.031985669   -3.2148709    1.4386635   232585 
 6167000    0.5074889   -3.2134008   -1.7758524  0.028390311   -3.2134008    1.4375483   232498 
 6168000   0.50703599   -3.2096857   -1.7731422  0.032098274   -3.2096857    1.4365434   232453 
 6169000   0.50727511   -3.2075766    -1.770164  0.033348714   -3.2075766    1.4374126   232422 
 6170000   0.50683096   -3.2064363   -1.7697754  0.033927598   -3.2064363    1.4366609   232340 
 6171000   0.50492417   -3.2027699   -1.7712059   0.02845356   -3.2027699     1.431564   232290 
 6172000   0.50454615   -3.2035654   -1.7726974  0.030754286   -3.2035654     1.430868   232229 
 6173000   0.50455094   -3.2059337   -1.7744974  0.029085507   -3.2059337    1.4314363   232139 
 6174000   0.50294042   -3.2033969   -1.7757548  0.027028157   -3.2033969    1.4276421   232013 
 6175000   0.50509064    -3.209358   -1.7752475  0.030451035    -3.209358    1.4341104   231954 
 6176000   0.50318898   -3.2046635   -1.7755089  0.029099919   -3.2046635    1.4291546   231882 
 6177000   0.50364464   -3.2063643   -1.7754342  0.030226732   -3.2063643    1.4309301   231804 
 6178000   0.50503038   -3.2094875   -1.7742984   0.03017162   -3.2094875    1.4351891   231752 
 6179000   0.50392303   -3.2049636   -1.7725566  0.029334225   -3.2049636     1.432407   231693 
 6180000   0.50490674   -3.2095296   -1.7738617  0.028633315   -3.2095296    1.4356679   231618 
 6181000   0.50409546   -3.2074162   -1.7736837  0.029005134   -3.2074162    1.4337325   231558 
 6182000   0.50509536   -3.2081751   -1.7712947  0.033040165   -3.2081751    1.4368804   231509 
 6183000   0.50494275   -3.2092327   -1.7725072  0.030126783   -3.2092327    1.4367256   231464 
 6184000   0.50445159   -3.2080446   -1.7721583  0.033962381   -3.2080446    1.4358864   231374 
 6185000   0.50513499    -3.210183   -1.7719349  0.027218005    -3.210183    1.4382481   231307 
 6186000   0.50413266   -3.2072856   -1.7715748  0.029807314   -3.2072856    1.4357108   231256 
 6187000   0.50171404   -3.2038573   -1.7746452  0.032239068   -3.2038573    1.4292122   231193 
 6188000   0.50262716    -3.205711   -1.7736375  0.030679649    -3.205711    1.4320735   231151 
 6189000   0.50270904    -3.207551   -1.7747607  0.029478386    -3.207551    1.4327903   231073 
 6190000   0.50245066   -3.2074148     -1.77453  0.032004867   -3.2074148    1.4328848   230939 
 6191000   0.50284979   -3.2087907   -1.7743391  0.026208929   -3.2087907    1.4344516   230870 
 6192000   0.50118017   -3.2072635   -1.7770916  0.028595441   -3.2072635     1.430172   230792 
 6193000   0.50271494   -3.2106661    -1.775642  0.029013258   -3.2106661    1.4350242   230716 
 6194000   0.50269388   -3.2121142   -1.7767396  0.030412254   -3.2121142    1.4353747   230650 
 6195000   0.50271149   -3.2136004    -1.777665  0.032898003   -3.2136004    1.4359354   230568 
 6196000   0.50264025   -3.2129234   -1.7770046  0.029149846   -3.2129234    1.4359188   230538 
 6197000   0.50286893   -3.2137773   -1.7767814  0.031437878   -3.2137773    1.4369959   230470 
 6198000   0.50306393   -3.2133422   -1.7753523  0.034125274   -3.2133422    1.4379899   230400 
 6199000    0.5022165   -3.2105168   -1.7745441  0.034019718   -3.2105168    1.4359727   230335 
 6200000   0.50211315   -3.2109667   -1.7748219  0.030455302   -3.2109667    1.4361448   230260 
 6201000   0.50306084   -3.2143917   -1.7749737   0.03213979   -3.2143917     1.439418   230170 
 6202000   0.50154055   -3.2106674   -1.7753064   0.03183484   -3.2106674    1.4353611   230123 
 6203000   0.50144812   -3.2091766   -1.7736247  0.030250759   -3.2091766    1.4355519   230050 
 6204000    0.5005975   -3.2098027   -1.7763059   0.02748254   -3.2098027    1.4334969   229989 
 6205000   0.50145538   -3.2127922   -1.7765578   0.02560348   -3.2127922    1.4362345   229944 
 6206000   0.49987107   -3.2088806   -1.7767914  0.030586125   -3.2088806    1.4320892   229881 
 6207000   0.50029986   -3.2095404   -1.7758736  0.029425166   -3.2095404    1.4336668   229825 
 6208000   0.49952609   -3.2058331   -1.7737293  0.026158209   -3.2058331    1.4321038   229720 
 6209000   0.49969477   -3.2078569   -1.7744521  0.033666773   -3.2078569    1.4334048   229589 
 6210000   0.49933107   -3.2093872   -1.7764827  0.031714775   -3.2093872    1.4329045   229502 
 6211000   0.49887033   -3.2077178   -1.7759982    0.0303144   -3.2077178    1.4317196   229480 
 6212000   0.49882431   -3.2074256   -1.7755198  0.030247064   -3.2074256    1.4319057   229429 
 6213000    0.4992514   -3.2093509   -1.7758755  0.029895203   -3.2093509    1.4334754   229374 
 6214000   0.49929335   -3.2079508   -1.7742237  0.031152055   -3.2079508    1.4337271   229353 
 6215000   0.49962392   -3.2095753   -1.7747113  0.029131652   -3.2095753     1.434864   229323 
 6216000   0.49999878   -3.2082235   -1.7719573  0.029302203   -3.2082235    1.4362662   229271 
 6217000   0.49880274   -3.2059417   -1.7727235  0.034834782   -3.2059417    1.4332181   229209 
 6218000   0.49812926    -3.204942    -1.773253  0.029840694    -3.204942     1.431689   229144 
 6219000    0.4978773    -3.204816   -1.7736076  0.027712128    -3.204816    1.4312084   229105 
 6220000   0.49785002   -3.2042129   -1.7724392  0.031393555   -3.2042129    1.4317737   229002 
 6221000   0.49761189   -3.2060368   -1.7745416  0.030168836   -3.2060368    1.4314952   228937 
 6222000   0.49827522   -3.2066907   -1.7727361  0.031741594   -3.2066907    1.4339546   228849 
 6223000   0.49753969   -3.2076158   -1.7750455  0.027751765   -3.2076158    1.4325703   228732 
 6224000   0.49695207   -3.2093688   -1.7777581  0.026590858   -3.2093688    1.4316106   228615 
 6225000   0.49885705   -3.2095544   -1.7722674  0.030638455   -3.2095544    1.4372871   228585 
 6226000   0.49795392   -3.2081366   -1.7729807  0.033942712   -3.2081366    1.4351559   228510 
 6227000   0.49717286   -3.2091228   -1.7757413   0.03408369   -3.2091228    1.4333815   228434 
 6228000   0.49695585   -3.2088774   -1.7757639  0.028341306   -3.2088774    1.4331135   228377 
 6229000   0.49654354   -3.2050265   -1.7726129  0.031781256   -3.2050265    1.4324137   228299 
 6230000   0.49813817   -3.2108105   -1.7733874  0.030823016   -3.2108105    1.4374231   228234 
 6231000   0.49706399   -3.2083353   -1.7734084  0.028072382   -3.2083353     1.434927   228138 
 6232000   0.49770175     -3.20749   -1.7705519  0.032893616     -3.20749    1.4369381   228111 
 6233000   0.49693766   -3.2059838   -1.7709371  0.031832197   -3.2059838    1.4350466   228061 
 6234000    0.4966444   -3.2050781   -1.7705072  0.030991989   -3.2050781    1.4345709   228002 
 6235000   0.49652424   -3.2042596   -1.7695387  0.032292676   -3.2042596    1.4347209   227923 
 6236000   0.49666203   -3.2043506   -1.7688536  0.029851934   -3.2043506     1.435497   227863 
 6237000   0.49562085   -3.2021559   -1.7693538  0.028985873   -3.2021559    1.4328021   227813 
 6238000   0.49452707   -3.1966573   -1.7666972  0.029258879   -3.1966573    1.4299601   227762 
 6239000   0.49537738   -3.2021833   -1.7692675  0.032849923   -3.2021833    1.4329159   227683 
 6240000   0.49428476   -3.1990276   -1.7688011   0.03336363   -3.1990276    1.4302265   227608 
 6241000   0.49638951   -3.2049593   -1.7682829  0.028308948   -3.2049593    1.4366765   227551 
 6242000   0.49442276    -3.201593   -1.7703069  0.029250208    -3.201593    1.4312861   227503 
 6243000    0.4946339   -3.2018872   -1.7696247  0.030116011   -3.2018872    1.4322625   227445 
 6244000   0.49426071    -3.199937   -1.7683082  0.027618244    -3.199937    1.4316288   227374 
 6245000   0.49501998   -3.2016953   -1.7674573  0.030853838   -3.2016953     1.434238   227309 
 6246000   0.49486284   -3.2038385   -1.7694247  0.033882938   -3.2038385    1.4344138   227209 
 6247000   0.49498194   -3.2033735   -1.7680776  0.031114119   -3.2033735    1.4352959   227124 
 6248000   0.49525257   -3.2038029   -1.7674313  0.029338704   -3.2038029    1.4363716   227078 
 6249000   0.49465192   -3.2015862   -1.7666091  0.035126331   -3.2015862    1.4349771   227023 
 6250000   0.49472217   -3.2027437   -1.7671075  0.035339539   -3.2027437    1.4356362   226951 
 6251000   0.49323836    -3.201863   -1.7701416  0.029868805    -3.201863    1.4317215   226889 
 6252000   0.49231691   -3.2019944   -1.7721788  0.031833925   -3.2019944    1.4298156   226767 
 6253000    0.4931423   -3.2029437   -1.7701307   0.02678665   -3.2029437     1.432813   226672 
 6254000   0.49330666   -3.2027096   -1.7691282   0.03420596   -3.2027096    1.4335815   226626 
 6255000   0.49361938   -3.2030703   -1.7681495  0.032784847   -3.2030703    1.4349208   226558 
 6256000   0.49485236   -3.2025545    -1.763535  0.035862609   -3.2025545    1.4390195   226477 
 6257000   0.49528487   -3.2023131    -1.761686  0.032965331   -3.2023131    1.4406271   226422 
 6258000   0.49478585   -3.2013459   -1.7612353  0.038339135   -3.2013459    1.4401105   226275 
 6259000   0.49384998   -3.2030277   -1.7651454  0.028394964   -3.2030277    1.4378823   226197 
 6260000   0.49184277   -3.1995055   -1.7668276  0.031923076   -3.1995055    1.4326779   226096 
 6261000   0.49348168   -3.2037179   -1.7658782  0.030109584   -3.2037179    1.4378397   226035 
 6262000   0.49136055   -3.1972948   -1.7653629  0.029374964   -3.1972948    1.4319319   225992 
 6263000   0.49206976   -3.1985523   -1.7642363  0.029385826   -3.1985523     1.434316   225942 
 6264000   0.49234574   -3.1952063   -1.7600986  0.029108378   -3.1952063    1.4351077   225944 
 6265000   0.49229311   -3.1934998   -1.7583295  0.032729016   -3.1934998    1.4351703   225910 
 6266000   0.49240273   -3.1975532   -1.7613895  0.026929628   -3.1975532    1.4361637   225804 
 6267000   0.49136156   -3.1913053    -1.757448  0.029604246   -3.1913053    1.4338573   225689 
 6268000   0.49140658   -3.1926883   -1.7581975  0.031811693   -3.1926883    1.4344907   225610 
 6269000   0.49165047   -3.1935282    -1.757759  0.029763767   -3.1935282    1.4357691   225521 
 6270000   0.49045241   -3.1909584   -1.7585673  0.028304649   -3.1909584    1.4323911   225502 
 6271000   0.49054812   -3.1913025   -1.7582061  0.031425285   -3.1913025    1.4330964   225435 
 6272000   0.49132245   -3.1918725   -1.7561382  0.029036515   -3.1918725    1.4357343   225376 
 6273000   0.49131632   -3.1908371   -1.7549869  0.031966229   -3.1908371    1.4358502   225355 
 6274000   0.49145392   -3.1899507   -1.7535327  0.031147487   -3.1899507     1.436418   225329 
 6275000   0.49186091   -3.1911029   -1.7528059  0.031857713   -3.1911029    1.4382969   225221 
 6276000   0.49260549   -3.1916246    -1.750613  0.033498548   -3.1916246    1.4410117   225137 
 6277000    0.4915448   -3.1912988    -1.753045  0.030884085   -3.1912988    1.4382538   225083 
 6278000   0.49048186   -3.1890713   -1.7533089  0.030233398   -3.1890713    1.4357624   224986 
 6279000   0.49028098   -3.1866501   -1.7511694  0.029718808   -3.1866501    1.4354807   224938 
 6280000   0.49008195   -3.1882142   -1.7528696  0.030150216   -3.1882142    1.4353446   224868 
 6281000   0.49032548   -3.1882849   -1.7519907  0.029622354   -3.1882849    1.4362942   224831 
 6282000   0.48806118    -3.183734   -1.7535764  0.030261017    -3.183734    1.4301576   224753 
 6283000   0.48930811   -3.1866951    -1.752354  0.029270612   -3.1866951    1.4343412   224670 
 6284000   0.48940401    -3.188333   -1.7531805  0.027854576    -3.188333    1.4351525   224587 
 6285000    0.4894344   -3.1881398   -1.7526617  0.032557781   -3.1881398    1.4354781   224550 
 6286000   0.48885228    -3.185623   -1.7516543  0.031973498    -3.185623    1.4339687   224519 
 6287000   0.49059107   -3.1859363   -1.7468351  0.029162684   -3.1859363    1.4391012   224514 
 6288000   0.48950522   -3.1836206   -1.7475128  0.030417542   -3.1836206    1.4361079   224484 
 6289000   0.48945645   -3.1849153   -1.7484321   0.02986498   -3.1849153    1.4364831   224403 
 6290000   0.48875053   -3.1847928   -1.7498571  0.031733534   -3.1847928    1.4349357   224321 
 6291000   0.48840503   -3.1830522   -1.7487984  0.030785666   -3.1830522    1.4342538   224269 
 6292000   0.48774535   -3.1824625   -1.7499798  0.029804271   -3.1824625    1.4324827   224243 
 6293000    0.4890823   -3.1860061   -1.7491868  0.031150625   -3.1860061    1.4368193   224179 
 6294000   0.48895755   -3.1867839   -1.7500106  0.033566504   -3.1867839    1.4367732   224129 
 6295000   0.48804446    -3.182538   -1.7480766   0.03298371    -3.182538    1.4344614   224071 
 6296000   0.48768419   -3.1834648   -1.7494415   0.02844951   -3.1834648    1.4340233   223974 
 6297000   0.48784869   -3.1821716   -1.7474852  0.033519359   -3.1821716    1.4346864   223946 
 6298000   0.48926931   -3.1838812   -1.7445672  0.035999703   -3.1838812     1.439314   223876 
 6299000   0.48882314   -3.1832983   -1.7445513  0.029981631   -3.1832983     1.438747   223760 
 6300000   0.48854906   -3.1801225   -1.7417708  0.034578151   -3.1801225    1.4383517   223696 
 6301000   0.48934591   -3.1803542   -1.7396887  0.033985256   -3.1803542    1.4406655   223701 
 6302000   0.48978357   -3.1836103   -1.7411598  0.031767805   -3.1836103    1.4424505   223624 
 6303000   0.48846347   -3.1816117   -1.7424698   0.03223851   -3.1816117     1.439142   223534 
 6304000   0.48755456    -3.179755   -1.7430595  0.028282857    -3.179755    1.4366954   223498 
 6305000   0.48792205   -3.1782415   -1.7400836  0.030570291   -3.1782415     1.438158   223439 
 6306000   0.48670504   -3.1762391   -1.7407303  0.029368366   -3.1762391    1.4355088   223293 
 6307000   0.48737992   -3.1778198   -1.7399921  0.033234355   -3.1778198    1.4378278   223242 
 6308000   0.48617718   -3.1757405   -1.7409596  0.032336008   -3.1757405    1.4347808   223164 
 6309000   0.48611112   -3.1763132   -1.7412836  0.031893841   -3.1763132    1.4350296   223095 
 6310000   0.48758449    -3.177596   -1.7376296   0.03202934    -3.177596    1.4399664   223004 
 6311000   0.48724293   -3.1782289   -1.7389743   0.03083449   -3.1782289    1.4392546   222958 
 6312000   0.48636556    -3.173994   -1.7370152   0.03171772    -3.173994    1.4369788   222909 
 6313000   0.48724811   -3.1735473   -1.7336639  0.032400708   -3.1735473    1.4398834   222863 
 6314000   0.48722782   -3.1742065   -1.7340277   0.03247788   -3.1742065    1.4401788   222808 
 6315000    0.4874898   -3.1726965   -1.7311804  0.030455371   -3.1726965    1.4415161   222721 
 6316000   0.48554807   -3.1690128    -1.732729   0.03292291   -3.1690128    1.4362838   222642 
 6317000   0.48532257   -3.1705284   -1.7342729  0.031627985   -3.1705284    1.4362554   222543 
 6318000   0.48500852   -3.1682482   -1.7326706  0.035245292   -3.1682482    1.4355776   222504 
 6319000   0.48481629   -3.1705751    -1.734889  0.030852532   -3.1705751    1.4356861   222399 
 6320000   0.48570729   -3.1685859   -1.7295818  0.031427113   -3.1685859     1.439004   222294 
 6321000   0.48539043   -3.1683781   -1.7299569  0.030419765   -3.1683781    1.4384212   222239 
 6322000   0.48515702   -3.1660957   -1.7280751  0.031599472   -3.1660957    1.4380206   222194 
 6323000   0.48539004   -3.1699435   -1.7308435  0.025182532   -3.1699435       1.4391   222134 
 6324000   0.48457426   -3.1659668   -1.7289362  0.027957121   -3.1659668    1.4370306   222080 
 6325000   0.48540123   -3.1686036   -1.7286083  0.032311569   -3.1686036    1.4399953   222001 
 6326000   0.48546661   -3.1706914   -1.7301907  0.034293538   -3.1706914    1.4405007   221953 
 6327000   0.48441335   -3.1673376   -1.7296318  0.032093879   -3.1673376    1.4377058   221902 
 6328000   0.48454447   -3.1682103   -1.7295772  0.026559715   -3.1682103     1.438633   221819 
 6329000   0.48349497   -3.1680824    -1.732054  0.030261668   -3.1680824    1.4360285   221740 
 6330000   0.48348994   -3.1691555   -1.7323709  0.031019917   -3.1691555    1.4367846   221621 
 6331000   0.48447747    -3.173334   -1.7329583  0.029253784    -3.173334    1.4403757   221520 
 6332000   0.48341372   -3.1703539   -1.7329137  0.029094963   -3.1703539    1.4374402   221485 
 6333000   0.48430008   -3.1701067   -1.7297188  0.027457344   -3.1701067     1.440388   221437 
 6334000   0.48404082   -3.1692889   -1.7293989  0.032002078   -3.1692889      1.43989   221395 
 6335000   0.48347865   -3.1707489   -1.7316277  0.033973397   -3.1707489    1.4391212   221256 
 6336000   0.48235583   -3.1691417   -1.7330446  0.031766906   -3.1691417    1.4360971   221207 
 6337000   0.48282149   -3.1689314   -1.7308758  0.033898214   -3.1689314    1.4380555   221119 
 6338000   0.48278157    -3.171596   -1.7331259  0.027557737    -3.171596    1.4384701   221037 
 6339000   0.48197619   -3.1708885   -1.7344672  0.031709422   -3.1708885    1.4364213   220983 
 6340000   0.48237646   -3.1723506   -1.7338901  0.033608974   -3.1723506    1.4384605   220853 
 6341000   0.48282248   -3.1740796   -1.7338782  0.033333677   -3.1740796    1.4402014   220790 
 6342000   0.48248885   -3.1766387   -1.7368522  0.030531429   -3.1766387    1.4397865   220701 
 6343000   0.48263394   -3.1768092   -1.7362045  0.030575339   -3.1768092    1.4406046   220642 
 6344000    0.4825319   -3.1782792   -1.7374045  0.033799393   -3.1782792    1.4408747   220554 
 6345000   0.48077061   -3.1725481   -1.7363532  0.031455334   -3.1725481    1.4361949   220465 
 6346000   0.48180113   -3.1767269    -1.737127  0.028445751   -3.1767269    1.4395999   220415 
 6347000   0.48161045   -3.1788984    -1.739581  0.029824208   -3.1788984    1.4393174   220371 
 6348000   0.48002459   -3.1731836   -1.7384754  0.031891618   -3.1731836    1.4347082   220351 
 6349000   0.48123409   -3.1760234   -1.7373933  0.027729471   -3.1760234    1.4386301   220304 
 6350000   0.48044119   -3.1730887   -1.7364246  0.027696489   -3.1730887    1.4366641   220242 
 6351000   0.47916739   -3.1668852   -1.7337114  0.032532109   -3.1668852    1.4331739   220193 
 6352000   0.47975226   -3.1710829   -1.7355469  0.028571703   -3.1710829     1.435536   220099 
 6353000   0.48080285   -3.1716232   -1.7325839  0.032443397   -3.1716232    1.4390392   220044 
 6354000    0.4813828   -3.1732724   -1.7319537   0.03249295   -3.1732724    1.4413187   219961 
 6355000   0.48009253   -3.1721633   -1.7340606  0.030274985   -3.1721633    1.4381027   219862 
 6356000   0.47961102   -3.1706612   -1.7339224  0.033507772   -3.1706612    1.4367388   219850 
 6357000   0.47979888   -3.1678405   -1.7299372   0.03197672   -3.1678405    1.4379033   219758 
 6358000   0.48005464   -3.1725513   -1.7336655  0.031932395   -3.1725513    1.4388858   219725 
 6359000   0.47927296   -3.1704683   -1.7337358  0.029534648   -3.1704683    1.4367325   219696 
 6360000   0.47843978   -3.1679022   -1.7332886  0.031865194   -3.1679022    1.4346136   219638 
 6361000   0.47781379   -3.1686069    -1.735394  0.029174743   -3.1686069    1.4332129   219565 
 6362000   0.47832491   -3.1685927   -1.7334415  0.031052916   -3.1685927    1.4351512   219503 
 6363000   0.47988236   -3.1694286   -1.7293617  0.034829927   -3.1694286    1.4400669   219466 
 6364000   0.47982661   -3.1689363   -1.7286233   0.03522087   -3.1689363    1.4403131   219403 
 6365000   0.47977147    -3.166457   -1.7263488  0.031239356    -3.166457    1.4401082   219409 
 6366000   0.47835702   -3.1635913    -1.727002  0.031626652   -3.1635913    1.4365893   219298 
 6367000   0.47808198   -3.1631241   -1.7269155  0.033619789   -3.1631241    1.4362086   219230 
 6368000   0.47987179   -3.1661605   -1.7241476  0.031754536   -3.1661605    1.4420129   219165 
 6369000   0.47750541   -3.1612115   -1.7263095  0.033771867   -3.1612115     1.434902   219165 
 6370000   0.47829471   -3.1605661    -1.723089  0.029397217   -3.1605661    1.4374771   219134 
 6371000   0.47799766   -3.1584549   -1.7215689  0.028266354   -3.1584549     1.436886   219088 
 6372000   0.47811578   -3.1584335   -1.7204771  0.033871834   -3.1584335    1.4379565   218979 
 6373000   0.47858713   -3.1612212   -1.7211698   0.03456931   -3.1612212    1.4400514   218876 
 6374000   0.47892018   -3.1635869   -1.7220789  0.032289429   -3.1635869     1.441508   218807 
 6375000   0.47811026   -3.1580509   -1.7188425  0.035598394   -3.1580509    1.4392083   218786 
 6376000   0.47739598   -3.1585607   -1.7208585  0.033633889   -3.1585607    1.4377022   218688 
 6377000   0.47726336     -3.15802   -1.7205528  0.030160173     -3.15802    1.4374671   218663 
 6378000   0.47744614   -3.1574007   -1.7188567  0.031494556   -3.1574007    1.4385439   218583 
 6379000   0.47702352   -3.1557732   -1.7179435  0.033258996   -3.1557732    1.4378297   218498 
 6380000    0.4771959   -3.1577775   -1.7189211  0.033256669   -3.1577775    1.4388564   218421 
 6381000   0.47714351   -3.1575288    -1.718323  0.030457905   -3.1575288    1.4392058   218344 
 6382000   0.47652766   -3.1551807   -1.7177403  0.026876862   -3.1551807    1.4374404   218330 
 6383000   0.47574271   -3.1493127   -1.7139641  0.032648494   -3.1493127    1.4353487   218288 
 6384000   0.47694578   -3.1516255   -1.7121327  0.032749744   -3.1516255    1.4394928   218210 
 6385000   0.47741323   -3.1526077   -1.7114531  0.033343076   -3.1526077    1.4411546   218172 
 6386000   0.47752433   -3.1498676   -1.7079349  0.034369203   -3.1498676    1.4419328   218105 
 6387000   0.47698818   -3.1494038   -1.7084689  0.034846256   -3.1494038    1.4409349   218011 
 6388000   0.47584961   -3.1486496   -1.7106991  0.029407359   -3.1486496    1.4379505   217942 
 6389000    0.4756777   -3.1473049   -1.7093066  0.030732606   -3.1473049    1.4379984   217856 
 6390000   0.47531449   -3.1472484   -1.7099456  0.030449527   -3.1472484    1.4373028   217795 
 6391000    0.4743176   -3.1429554   -1.7082982  0.030721385   -3.1429554    1.4346572   217739 
 6392000   0.47493084   -3.1433642   -1.7063572  0.029561182   -3.1433642    1.4370071   217664 
 6393000   0.47472518   -3.1429165    -1.705964  0.028007907   -3.1429165    1.4369525   217578 
 6394000   0.47471187   -3.1425633   -1.7052679  0.028761276   -3.1425633    1.4372954   217520 
 6395000   0.47444448   -3.1400718   -1.7029848  0.032148085   -3.1400718     1.437087   217429 
 6396000   0.47600542   -3.1436331   -1.7016124  0.031738374   -3.1436331    1.4420207   217398 
 6397000   0.47457452   -3.1417834   -1.7035485  0.034321959   -3.1417834     1.438235   217315 
 6398000   0.47380003    -3.142366   -1.7061412  0.027607651    -3.142366    1.4362249   217264 
 6399000   0.47398627   -3.1411109   -1.7038253  0.031675513   -3.1411109    1.4372856   217189 
 6400000   0.47366424   -3.1419692   -1.7051904  0.033091542   -3.1419692    1.4367788   217118 
 6401000    0.4743057   -3.1447651    -1.705424  0.032445185   -3.1447651    1.4393411   217025 
 6402000   0.47552659   -3.1473778   -1.7038529  0.028347649   -3.1473778    1.4435249   216953 
 6403000   0.47413111   -3.1458251   -1.7058461  0.031578394   -3.1458251     1.439979   216849 
 6404000   0.47467353   -3.1466915   -1.7048657  0.034589495   -3.1466915    1.4418259   216819 
 6405000   0.47353086   -3.1410026   -1.7025879  0.036979339   -3.1410026    1.4384147   216810 
 6406000    0.4726535   -3.1410069   -1.7049725  0.028909258   -3.1410069    1.4360344   216767 
 6407000   0.47283458   -3.1431317   -1.7056519  0.031068201   -3.1431317    1.4374798   216632 
 6408000   0.47131766    -3.135663   -1.7024839  0.030534576    -3.135663    1.4331791   216585 
 6409000   0.47238588   -3.1376145     -1.70059  0.031746974   -3.1376145    1.4370245   216495 
 6410000   0.47357807   -3.1394106   -1.6983867  0.030875424   -3.1394106    1.4410239   216439 
 6411000   0.47472275   -3.1409858    -1.696392  0.029584619   -3.1409858    1.4445938   216426 
 6412000   0.47302906   -3.1394517   -1.6991867   0.03067061   -3.1394517     1.440265   216302 
 6413000   0.47108477   -3.1362447   -1.7009905  0.030267723   -3.1362447    1.4352542   216165 
 6414000   0.47250273    -3.138477   -1.6987029  0.031997055    -3.138477    1.4397741   216135 
 6415000   0.47229817   -3.1370472   -1.6975168  0.033165196   -3.1370472    1.4395304   216078 
 6416000   0.47287067   -3.1378748   -1.6961792  0.031167895   -3.1378748    1.4416957   216015 
 6417000   0.47097207   -3.1359931   -1.6996404  0.031379835   -3.1359931    1.4363527   215948 
 6418000   0.47217438   -3.1359974   -1.6960513  0.031083989   -3.1359974    1.4399461   215959 
 6419000   0.47262493   -3.1378438   -1.6959027  0.032211243   -3.1378438    1.4419411   215866 
 6420000   0.47238129   -3.1368931    -1.695141  0.035318432   -3.1368931    1.4417521   215783 
 6421000     0.470909   -3.1366055   -1.6988738  0.031263691   -3.1366055    1.4377316   215712 
 6422000   0.47075359    -3.134024   -1.6965604  0.031350458    -3.134024    1.4374637   215681 
 6423000   0.47288704   -3.1392278   -1.6948611  0.031486032   -3.1392278    1.4443667   215623 
 6424000   0.47228253   -3.1374015   -1.6943057   0.03494302   -3.1374015    1.4430959   215537 
 6425000   0.47244134   -3.1365437   -1.6929559  0.031917409   -3.1365437    1.4435878   215536 
 6426000   0.47334353   -3.1372434   -1.6904491  0.033207903   -3.1372434    1.4467943   215469 
 6427000   0.47267456   -3.1377882   -1.6927101  0.033091657   -3.1377882    1.4450782   215420 
 6428000   0.47128974      -3.1329   -1.6917612  0.030602772      -3.1329    1.4411388   215376 
 6429000   0.47128239   -3.1309469   -1.6895562  0.032145852   -3.1309469    1.4413907   215335 
 6430000   0.47191369   -3.1316022   -1.6882539  0.034482272   -3.1316022    1.4433483   215331 
 6431000   0.47214662   -3.1325191   -1.6881498  0.033653834   -3.1325191    1.4443693   215285 
 6432000   0.47036577   -3.1278603   -1.6884843  0.032055695   -3.1278603     1.439376   215217 
 6433000    0.4709448   -3.1284016   -1.6865837  0.033685997   -3.1284016    1.4418179   215117 
 6434000   0.46958026   -3.1273876   -1.6892861  0.032422026   -3.1273876    1.4381016   215048 
 6435000   0.46892664   -3.1252577   -1.6886235  0.030582915   -3.1252577    1.4366343   214968 
 6436000   0.46871148   -3.1242852   -1.6879159  0.028640644   -3.1242852    1.4363693   214909 
 6437000   0.46905037   -3.1222578   -1.6847965  0.035243666   -3.1222578    1.4374614   214901 
 6438000   0.46999483   -3.1247397   -1.6836463  0.034477946   -3.1247397    1.4410934   214791 
 6439000   0.46961055   -3.1218046   -1.6815072  0.032979366   -3.1218046    1.4402973   214734 
 6440000   0.46974729   -3.1246685   -1.6834282  0.029511487   -3.1246685    1.4412403   214656 
 6441000   0.46886274    -3.120879   -1.6822655  0.033794657    -3.120879    1.4386135   214643 
 6442000   0.46860303   -3.1212862   -1.6830541  0.033583615   -3.1212862     1.438232   214581 
 6443000   0.46927717    -3.125613   -1.6847143  0.029419906    -3.125613    1.4408987   214492 
 6444000   0.46785317    -3.122378   -1.6853626  0.031053545    -3.122378    1.4370155   214419 
 6445000   0.46770329   -3.1235825   -1.6864845  0.031332432   -3.1235825     1.437098   214338 
 6446000   0.46760299   -3.1272705   -1.6896758  0.026323533   -3.1272705    1.4375947   214218 
 6447000   0.46708173   -3.1270159   -1.6904672  0.032930682   -3.1270159    1.4365487   214135 
 6448000   0.46816736   -3.1285117   -1.6881667  0.033551161   -3.1285117     1.440345   214067 
 6449000   0.46814449   -3.1252893   -1.6847186  0.033399203   -3.1252893    1.4405708   214023 
 6450000    0.4690629   -3.1287236   -1.6845777  0.033478491   -3.1287236    1.4441459   213912 
 6451000   0.46788921   -3.1285387   -1.6874135   0.03491838   -3.1285387    1.4411252   213824 
 6452000   0.46680056   -3.1276724   -1.6894363  0.032154509   -3.1276724    1.4382362   213755 
 6453000   0.46792821   -3.1273132   -1.6851911  0.034993067   -3.1273132    1.4421221   213694 
 6454000   0.46869379   -3.1295194   -1.6845713  0.032063563   -3.1295194    1.4449481   213625 
 6455000   0.46766965   -3.1274284   -1.6849489     0.031026   -3.1274284    1.4424795   213523 
 6456000   0.46829928   -3.1288887   -1.6837903  0.032154082   -3.1288887    1.4450983   213423 
 6457000   0.46784093   -3.1257919    -1.681526  0.035663072   -3.1257919    1.4442659   213337 
 6458000   0.46620406    -3.122418   -1.6825843  0.031662846    -3.122418    1.4398337   213245 
 6459000   0.46718983   -3.1242243   -1.6811364  0.031781337   -3.1242243    1.4430879   213214 
 6460000   0.46621467   -3.1221868    -1.681584  0.032289383   -3.1221868    1.4406028   213136 
 6461000   0.46573543   -3.1219065   -1.6823928  0.030172487   -3.1219065    1.4395137   213078 
 6462000   0.46470293   -3.1173404   -1.6808157  0.031271299   -3.1173404    1.4365247   213048 
 6463000   0.46642748   -3.1229692    -1.680538  0.030357837   -3.1229692    1.4424312   212963 
 6464000   0.46624006   -3.1233695   -1.6806101  0.036649876   -3.1233695    1.4427594   212829 
 6465000   0.46473545   -3.1193804   -1.6807632  0.033762812   -3.1193804    1.4386172   212753 
 6466000   0.46398025   -3.1203386   -1.6834986  0.028833418   -3.1203386      1.43684   212670 
 6467000   0.46420608   -3.1220111   -1.6840594  0.033284611   -3.1220111    1.4379518   212609 
 6468000   0.46466984   -3.1219842   -1.6822437  0.030987612   -3.1219842    1.4397404   212557 
 6469000    0.4644459   -3.1223589   -1.6825198  0.035483617   -3.1223589    1.4398391   212440 
 6470000   0.46430522   -3.1226435   -1.6826712  0.034095524   -3.1226435    1.4399724   212356 
 6471000   0.46504902   -3.1245404   -1.6820031  0.030994503   -3.1245404    1.4425373   212318 
 6472000   0.46567746   -3.1269775   -1.6819123  0.031195198   -3.1269775    1.4450652   212233 
 6473000   0.46425778   -3.1210477   -1.6800078  0.034020057   -3.1210477    1.4410399   212177 
 6474000   0.46333252   -3.1177579   -1.6791763  0.037667243   -3.1177579    1.4385816   212116 
 6475000   0.46432083   -3.1233625   -1.6811277  0.033512329   -3.1233625    1.4422349   212030 
 6476000   0.46253454   -3.1224874   -1.6849263  0.029530344   -3.1224874    1.4375611   211901 
 6477000   0.46167831    -3.120878   -1.6854633  0.029408841    -3.120878    1.4354147   211825 
 6478000   0.46335313   -3.1223036   -1.6809945  0.032165202   -3.1223036    1.4413091   211724 
 6479000   0.46289974   -3.1229893   -1.6824237  0.032130387   -3.1229893    1.4405656   211626 
 6480000   0.46416132   -3.1245736   -1.6798293  0.030125903   -3.1245736    1.4447443   211589 
 6481000   0.46172158   -3.1185855   -1.6812585  0.034503767   -3.1185855     1.437327   211563 
 6482000   0.46148463   -3.1203443   -1.6830891  0.031279971   -3.1203443    1.4372552   211465 
 6483000   0.46116584   -3.1217793   -1.6849258  0.027642329   -3.1217793    1.4368535   211378 
 6484000   0.46135944   -3.1225422   -1.6845821  0.032048392   -3.1225422    1.4379601   211304 
 6485000   0.46224728   -3.1221853   -1.6809397  0.030574193   -3.1221853    1.4412457   211228 
 6486000   0.46178203   -3.1201534   -1.6797651  0.028365174   -3.1201534    1.4403883   211141 
 6487000   0.46189635   -3.1202768    -1.678897  0.030621375   -3.1202768    1.4413798   211048 
 6488000    0.4620638   -3.1228021   -1.6806333  0.034140368   -3.1228021    1.4421688   211009 
 6489000   0.46285014   -3.1225277   -1.6775279  0.031585077   -3.1225277    1.4449997   210954 
 6490000   0.46026586   -3.1180741   -1.6806586  0.031775524   -3.1180741    1.4374155   210883 
 6491000   0.46077593    -3.117828   -1.6785875  0.032035239    -3.117828    1.4392405   210849 
 6492000    0.4609981   -3.1191081   -1.6786407  0.029929529   -3.1191081    1.4404673   210771 
 6493000   0.46062101   -3.1167302   -1.6769493  0.031903288   -3.1167302    1.4397809   210699 
 6494000   0.46006611   -3.1145383    -1.675973   0.03342382   -3.1145383    1.4385653   210623 
 6495000    0.4604435   -3.1158437   -1.6753392  0.032993526   -3.1158437    1.4405045   210512 
 6496000   0.45878988   -3.1102632   -1.6746865  0.034746357   -3.1102632    1.4355766   210476 
 6497000   0.45918295   -3.1108601   -1.6738828  0.028287287   -3.1108601    1.4369773   210451 
 6498000   0.45887867   -3.1122624   -1.6756913  0.030262436   -3.1122624    1.4365711   210371 
 6499000   0.45857726   -3.1105801   -1.6742766  0.031924486   -3.1105801    1.4363035   210272 
 6500000   0.45877579   -3.1109936   -1.6735214  0.034970706   -3.1109936    1.4374722   210192 
 6501000   0.45935663   -3.1125081   -1.6730448  0.031015749   -3.1125081    1.4394633   210167 
 6502000   0.45919751   -3.1104922   -1.6711303  0.032541788   -3.1104922    1.4393619   210109 
 6503000   0.46047107   -3.1121342   -1.6683268  0.030938795   -3.1121342    1.4438074   210043 
 6504000   0.45936541   -3.1097138    -1.668845  0.029710679   -3.1097138    1.4408688   209966 
 6505000   0.45873271   -3.1079854   -1.6688132   0.03528803   -3.1079854    1.4391722   209924 
 6506000   0.45867517   -3.1077004    -1.668215   0.03377019   -3.1077004    1.4394854   209852 
 6507000   0.45829749   -3.1063776   -1.6675701  0.033061415   -3.1063776    1.4388074   209778 
 6508000   0.45834356   -3.1060881   -1.6665733   0.03060042   -3.1060881    1.4395147   209696 
 6509000   0.45847617   -3.1048282   -1.6645124  0.029481966   -3.1048282    1.4403159   209640 
 6510000   0.45932476   -3.1102086   -1.6664486  0.032608818   -3.1102086      1.44376   209527 
 6511000   0.45922889   -3.1076061   -1.6635685   0.03433961   -3.1076061    1.4440375   209443 
 6512000    0.4580926   -3.1025133   -1.6615465   0.02968557   -3.1025133    1.4409667   209370 
 6513000   0.45728155   -3.1035932   -1.6647791  0.030789733   -3.1035932    1.4388141   209312 
 6514000   0.45750063   -3.1022113   -1.6621506  0.031841125   -3.1022113    1.4400607   209231 
 6515000   0.45743214   -3.0998542   -1.6594377  0.032636158   -3.0998542    1.4404165   209148 
 6516000   0.45761819     -3.10035   -1.6586031  0.032277629     -3.10035    1.4417469   209040 
 6517000   0.45605184   -3.0991523   -1.6619072  0.031208647   -3.0991523    1.4372451   208977 
 6518000   0.45535087   -3.0976014   -1.6620021  0.029530227   -3.0976014    1.4355994   208895 
 6519000   0.45379752   -3.0967126   -1.6655584  0.030794749   -3.0967126    1.4311542   208829 
 6520000   0.45557601   -3.0996228   -1.6623229  0.032634516   -3.0996228       1.4373   208751 
 6521000   0.45609524   -3.0990784   -1.6595335  0.032959351   -3.0990784    1.4395449   208663 
 6522000   0.45704364   -3.1001949   -1.6570895  0.033450814   -3.1001949    1.4431054   208581 
 6523000   0.45591738   -3.0989024   -1.6589803  0.032397471   -3.0989024    1.4399221   208527 
 6524000   0.45663997   -3.1027416   -1.6598178  0.030124657   -3.1027416    1.4429239   208423 
 6525000   0.45534003    -3.096668   -1.6578587  0.031765554    -3.096668    1.4388093   208424 
 6526000   0.45518257   -3.0986605   -1.6597895  0.032087116   -3.0986605     1.438871   208343 
 6527000   0.45504464   -3.0975419   -1.6582158  0.031143361   -3.0975419    1.4393261   208214 
 6528000   0.45532861    -3.101852   -1.6610534  0.032390314    -3.101852    1.4407987   208131 
 6529000   0.45442281   -3.1000453   -1.6613871   0.02879368   -3.1000453    1.4386582   208026 
 6530000   0.45433338    -3.100683   -1.6622387  0.028955639    -3.100683    1.4384443   208016 
 6531000   0.45442058   -3.1016319   -1.6624342  0.032339761   -3.1016319    1.4391977   207947 
 6532000   0.45432549   -3.1024985   -1.6628265  0.032332344   -3.1024985     1.439672   207835 
 6533000   0.45438768    -3.103469   -1.6628236   0.03243416    -3.103469    1.4406454   207723 
 6534000   0.45370866   -3.1013918    -1.662442  0.032641481   -3.1013918    1.4389498   207657 
 6535000   0.45409458   -3.1030113   -1.6621437  0.033585289   -3.1030113    1.4408676   207557 
 6536000   0.45384026    -3.103117   -1.6625776  0.034831929    -3.103117    1.4405395   207488 
 6537000   0.45313332   -3.1036748   -1.6647343  0.032915431   -3.1036748    1.4389405   207395 
 6538000   0.45239925   -3.1034718    -1.666502   0.03338445   -3.1034718    1.4369698   207343 
 6539000   0.45255326   -3.1033823   -1.6653616   0.02947165   -3.1033823    1.4380207   207262 
 6540000   0.45261139   -3.1046181   -1.6657601  0.030742035   -3.1046181     1.438858   207168 
 6541000   0.45240461    -3.103853   -1.6649786  0.032353919    -3.103853    1.4388744   207071 
 6542000   0.45047552   -3.0971106   -1.6638318  0.031339443   -3.0971106    1.4332788   206993 
 6543000   0.45077166   -3.0975164    -1.662824  0.030823199   -3.0975164    1.4346923   206925 
 6544000   0.45221576   -3.1042548   -1.6639082   0.03079178   -3.1042548    1.4403466   206773 
 6545000   0.45190643   -3.1003934   -1.6603983  0.034238708   -3.1003934     1.439995   206682 
 6546000   0.45182264   -3.1015817    -1.661338  0.031840835   -3.1015817    1.4402437   206608 
 6547000   0.45202587   -3.1034181   -1.6622406  0.033599678   -3.1034181    1.4411775   206567 
 6548000    0.4496931   -3.0996976   -1.6653951  0.033657866   -3.0996976    1.4343025   206486 
 6549000   0.45081973   -3.1027935   -1.6643612  0.030764813   -3.1027935    1.4384323   206409 
 6550000   0.45028009   -3.1005958   -1.6633909  0.034225417   -3.1005958    1.4372048   206338 
 6551000   0.45099511   -3.1042075   -1.6639108  0.030884753   -3.1042075    1.4402967   206222 
 6552000   0.45056768   -3.1042655   -1.6647056   0.03058238   -3.1042655    1.4395599   206132 
 6553000   0.45046019   -3.1022255   -1.6625131   0.02591623   -3.1022255    1.4397124   206061 
 6554000   0.44940924   -3.1005629   -1.6636586  0.028851493   -3.1005629    1.4369043   205982 
 6555000   0.44950697   -3.0981424   -1.6606953  0.034201399   -3.0981424    1.4374471   205949 
 6556000    0.4502466   -3.0991431   -1.6590791  0.033538908   -3.0991431    1.4400641   205913 
 6557000   0.45066203   -3.1003838   -1.6583608  0.031835328   -3.1003838     1.442023   205823 
 6558000   0.44894675   -3.0963426   -1.6591098  0.033076235   -3.0963426    1.4372328   205723 
 6559000   0.44975139   -3.0988976   -1.6585498  0.028154072   -3.0988976    1.4403478   205646 
 6560000   0.44904313    -3.095799   -1.6576215  0.030573457    -3.095799    1.4381775   205632 
 6561000   0.44915508   -3.0945487   -1.6557538  0.031898262   -3.0945487    1.4387949   205595 
 6562000   0.44875468   -3.0926748   -1.6550016  0.029191225   -3.0926748    1.4376732   205572 
 6563000   0.44895157   -3.0928616   -1.6540328  0.033196032   -3.0928616    1.4388288   205497 
 6564000    0.4488512   -3.0942806   -1.6551992  0.033065747   -3.0942806    1.4390814   205415 
 6565000    0.4479837   -3.0922654   -1.6553987  0.031690676   -3.0922654    1.4368667   205334 
 6566000   0.44764631   -3.0911994   -1.6549392  0.031282129   -3.0911994    1.4362602   205266 
 6567000   0.44811289   -3.0922665   -1.6538226  0.034031041   -3.0922665    1.4384439   205168 
 6568000   0.44878048   -3.0927052   -1.6516407  0.031905489   -3.0927052    1.4410645   205100 
 6569000    0.4480591   -3.0926317   -1.6531115  0.033713086   -3.0926317    1.4395202   204990 
 6570000   0.44795562   -3.0959244   -1.6560132  0.029667892   -3.0959244    1.4399112   204887 
 6571000   0.44758958   -3.0971327    -1.658061  0.030880626   -3.0971327    1.4390718   204839 
 6572000   0.44860894   -3.0981432   -1.6552375   0.02972532   -3.0981432    1.4429057   204760 
 6573000   0.44798179   -3.0957837   -1.6542757  0.032383404   -3.0957837     1.441508   204672 
 6574000    0.4477861   -3.0930131   -1.6516066  0.030079185   -3.0930131    1.4414065   204597 
 6575000   0.44816328   -3.0922506   -1.6494395  0.031860156   -3.0922506     1.442811   204570 
 6576000   0.44829943   -3.0931075   -1.6493783  0.031658133   -3.0931075    1.4437293   204502 
 6577000   0.44611538    -3.085635   -1.6483912  0.032220416    -3.085635    1.4372438   204424 
 6578000   0.44711517    -3.087358   -1.6463222  0.033348713    -3.087358    1.4410358   204343 
 6579000   0.44702281   -3.0895417   -1.6479358  0.031070476   -3.0895417    1.4416059   204220 
 6580000   0.44675445   -3.0884176   -1.6472397  0.030129705   -3.0884176     1.441178   204158 
 6581000   0.44584456    -3.087064    -1.648476  0.032166441    -3.087064    1.4385881   204109 
 6582000   0.44567162   -3.0840373   -1.6455209  0.033054827   -3.0840373    1.4385163   204040 
 6583000   0.44617505   -3.0849638    -1.643968  0.033052062   -3.0849638    1.4409958   203919 
 6584000   0.44679657   -3.0881582   -1.6443054  0.032154713   -3.0881582    1.4438528   203799 
 6585000   0.44616484   -3.0824271   -1.6404814  0.031992345   -3.0824271    1.4419457   203780 
 6586000   0.44686618   -3.0838784    -1.639028  0.030720515   -3.0838784    1.4448505   203690 
 6587000   0.44679862   -3.0842279    -1.639227  0.031069529   -3.0842279     1.445001   203638 
 6588000   0.44468648     -3.08187    -1.642958  0.028975861     -3.08187     1.438912   203533 
 6589000   0.44544591    -3.081379   -1.6396626  0.030809813    -3.081379    1.4417164   203484 
 6590000   0.44557573   -3.0823813   -1.6398902  0.031092267   -3.0823813     1.442491   203434 
 6591000   0.44496429   -3.0816054   -1.6405058  0.033706004   -3.0816054    1.4410995   203351 
 6592000   0.44532046     -3.08236    -1.639809  0.031554271     -3.08236     1.442551   203309 
 6593000   0.44482372   -3.0791824   -1.6380987   0.03409894   -3.0791824    1.4410836   203289 
 6594000   0.44477907    -3.078171   -1.6366009  0.035582006    -3.078171    1.4415701   203200 
 6595000   0.44442981   -3.0788179   -1.6380253  0.033763896   -3.0788179    1.4407927   203150 
 6596000   0.44384015   -3.0762514   -1.6367468  0.032973583   -3.0762514    1.4395046   203062 
 6597000   0.44501994   -3.0803099   -1.6364385  0.033046009   -3.0803099    1.4438714   202986 
 6598000   0.44349727   -3.0757469   -1.6365819  0.031286017   -3.0757469    1.4391651   202953 
 6599000    0.4445594   -3.0781817   -1.6348161  0.033604694   -3.0781817    1.4433656   202847 
 6600000    0.4441635   -3.0766192   -1.6338064   0.03085134   -3.0766192    1.4428128   202744 
 6601000   0.44407956   -3.0782107   -1.6350869  0.031861525   -3.0782107    1.4431238   202662 
 6602000   0.44299711   -3.0744962   -1.6344423  0.032724222   -3.0744962    1.4400538   202599 
 6603000   0.44404422   -3.0766575   -1.6326795  0.033642829   -3.0766575     1.443978   202526 
 6604000    0.4435002    -3.077388   -1.6346875  0.031003579    -3.077388    1.4427004   202457 
 6605000   0.44377504   -3.0793595    -1.635223  0.029837161   -3.0793595    1.4441366   202381 
 6606000   0.44298474   -3.0774517   -1.6354309  0.029304719   -3.0774517    1.4420208   202317 
 6607000   0.44202425    -3.075307   -1.6355874  0.033211315    -3.075307    1.4397196   202201 
 6608000   0.44228184   -3.0803148   -1.6388151  0.030621437   -3.0803148    1.4414997   202069 
 6609000   0.44258405   -3.0815786   -1.6385727  0.035137931   -3.0815786    1.4430059   201996 
 6610000   0.44075742   -3.0783495   -1.6411213  0.029235374   -3.0783495    1.4372282   201971 
 6611000   0.44149231   -3.0768457   -1.6367719  0.034014826   -3.0768457    1.4400738   201908 
 6612000   0.44197436   -3.0767922   -1.6349604  0.038187517   -3.0767922    1.4418318   201882 
 6613000   0.44369318   -3.0815051   -1.6332626  0.037679839   -3.0815051    1.4482425   201770 
 6614000   0.44265243   -3.0787405   -1.6334151  0.030053032   -3.0787405    1.4453254   201703 
 6615000   0.44220406   -3.0773552   -1.6330785  0.032318251   -3.0773552    1.4442767   201645 
 6616000    0.4415625   -3.0775113    -1.634457  0.037372221   -3.0775113    1.4430544   201523 
 6617000   0.44208406   -3.0786394   -1.6334717  0.030947423   -3.0786394    1.4451676   201466 
 6618000   0.44192762    -3.077275   -1.6319731  0.033677711    -3.077275    1.4453019   201376 
 6619000   0.44057633   -3.0743522   -1.6325747  0.035880522   -3.0743522    1.4417775   201251 
 6620000   0.44080809   -3.0714143   -1.6283693  0.035857193   -3.0714143     1.443045   201180 
 6621000   0.44112185   -3.0746315   -1.6299992  0.032248575   -3.0746315    1.4446323   201102 
 6622000   0.44015739   -3.0717441   -1.6299764  0.036898073   -3.0717441    1.4417677   201061 
 6623000   0.44022782   -3.0742053   -1.6313457  0.034602083   -3.0742053    1.4428596   200941 
 6624000   0.44036303   -3.0711845   -1.6276591  0.030306333   -3.0711845    1.4435254   200910 
 6625000   0.43965997   -3.0713591   -1.6295499  0.032494274   -3.0713591    1.4418092   200828 
 6626000   0.43871193   -3.0667605   -1.6276662  0.033056935   -3.0667605    1.4390944   200773 
 6627000    0.4392883   -3.0697353   -1.6280323  0.030842632   -3.0697353    1.4417031   200673 
 6628000   0.44007991    -3.071131    -1.626434  0.032629911    -3.071131     1.444697   200618 
 6629000   0.43839148   -3.0682558   -1.6285849  0.031901279   -3.0682558    1.4396709   200546 
 6630000   0.43942637   -3.0691386   -1.6254789  0.035359404   -3.0691386    1.4436598   200464 
 6631000   0.43924652   -3.0679884   -1.6244082  0.030168805   -3.0679884    1.4435802   200393 
 6632000   0.43915644    -3.068115   -1.6246148   0.03419959    -3.068115    1.4435002   200363 
 6633000   0.43926996    -3.069416   -1.6249442  0.034821909    -3.069416    1.4444718   200280 
 6634000   0.43869559   -3.0659309   -1.6228363  0.035062677   -3.0659309    1.4430946   200209 
 6635000   0.43928784   -3.0678241   -1.6222181  0.031529742   -3.0678241     1.445606   200131 
 6636000   0.43933699   -3.0672533   -1.6210086  0.034876431   -3.0672533    1.4462447   200065 
 6637000   0.43844267    -3.063371   -1.6197527  0.033524771    -3.063371    1.4436182   200021 
 6638000   0.43747692   -3.0637263   -1.6229998  0.031607358   -3.0637263    1.4407265   199981 
 6639000   0.43735199   -3.0614597   -1.6207629   0.03379319   -3.0614597    1.4406969   199928 
 6640000   0.43709452   -3.0596587   -1.6192984  0.030225816   -3.0596587    1.4403603   199857 
 6641000   0.43690267   -3.0583186   -1.6181942  0.030213041   -3.0583186    1.4401244   199802 
 6642000   0.43761987   -3.0573132   -1.6141676   0.03449237   -3.0573132    1.4431457   199711 
 6643000   0.43879813   -3.0603199    -1.612948  0.033768197   -3.0603199    1.4473719   199664 
 6644000   0.43892879    -3.060968   -1.6123453  0.035406784    -3.060968    1.4486227   199551 
 6645000   0.43868015   -3.0592342   -1.6108079  0.033700772   -3.0592342    1.4484263   199465 
 6646000   0.43672877   -3.0525258   -1.6101447  0.032850157   -3.0525258     1.442381   199410 
 6647000   0.43654126   -3.0522531   -1.6099344  0.035214364   -3.0522531    1.4423187   199333 
 6648000   0.43662367   -3.0553982   -1.6119238  0.034448241   -3.0553982    1.4434744   199211 
 6649000   0.43652416   -3.0538534   -1.6103384  0.032503137   -3.0538534     1.443515   199160 
 6650000   0.43554177   -3.0500758   -1.6090714  0.031869448   -3.0500758    1.4410044   199058 
 6651000   0.43583837   -3.0509296   -1.6080886   0.03071301   -3.0509296     1.442841   198940 
 6652000    0.4355105   -3.0483552   -1.6061211  0.029879493   -3.0483552    1.4422341   198874 
 6653000   0.43546433   -3.0489371   -1.6062973  0.032450132   -3.0489371    1.4426398   198797 
 6654000   0.43684247   -3.0510216   -1.6033647  0.032273133   -3.0510216    1.4476568   198735 
 6655000   0.43642189   -3.0520874   -1.6050161  0.033660775   -3.0520874    1.4470713   198624 
 6656000   0.43504941   -3.0492714   -1.6060606  0.031743682   -3.0492714    1.4432108   198529 
 6657000   0.43297872   -3.0449603   -1.6082351  0.032029394   -3.0449603    1.4367251   198476 
 6658000   0.43529502   -3.0499818   -1.6048207  0.031462685   -3.0499818    1.4451611   198373 
 6659000   0.43507474   -3.0493133    -1.604155  0.028639392   -3.0493133    1.4451583   198273 
 6660000   0.43424253   -3.0459648   -1.6031996  0.033782908   -3.0459648    1.4427651   198222 
 6661000   0.43415628   -3.0452199    -1.602392  0.030032601   -3.0452199     1.442828   198174 
 6662000   0.43475505    -3.048711   -1.6031564   0.03420367    -3.048711    1.4455546   198073 
 6663000    0.4337278   -3.0463427   -1.6039489    0.0345408   -3.0463427    1.4423938   198038 
 6664000   0.43465222   -3.0461479   -1.6003002   0.03425487   -3.0461479    1.4458477   197986 
 6665000    0.4348311     -3.04951   -1.6025192  0.034757873     -3.04951    1.4469909   197911 
 6666000   0.43329205   -3.0449264   -1.6025615  0.032617046   -3.0449264     1.442365   197843 
 6667000   0.43183159    -3.039839    -1.602125  0.029820136    -3.039839     1.437714   197814 
 6668000   0.43348768   -3.0423429   -1.5981734  0.033046787   -3.0423429    1.4441695   197685 
 6669000    0.4347987    -3.045489   -1.5964973  0.035613932    -3.045489    1.4489916   197623 
 6670000   0.43378657   -3.0429712   -1.5971404   0.03277427   -3.0429712    1.4458308   197594 
 6671000   0.43291305   -3.0436008   -1.6003162  0.031559703   -3.0436008    1.4432846   197544 
 6672000   0.43316728   -3.0437487   -1.5988998  0.032572059   -3.0437487    1.4448489   197446 
 6673000   0.43308696   -3.0430404   -1.5980862   0.03097227   -3.0430404    1.4449542   197395 
 6674000   0.43333615   -3.0449836   -1.5984065  0.033706729   -3.0449836    1.4465771   197287 
 6675000   0.43221382   -3.0416494   -1.5980579  0.030286804   -3.0416494    1.4435915   197183 
 6676000   0.43335385   -3.0436012   -1.5954162  0.036028234   -3.0436012     1.448185   197076 
 6677000    0.4327844   -3.0409896   -1.5944139  0.033814717   -3.0409896    1.4465757   197036 
 6678000   0.43350082   -3.0415472   -1.5920694  0.036858178   -3.0415472    1.4494779   196967 
 6679000   0.43139691   -3.0416581   -1.5983796  0.032967933   -3.0416581    1.4432784   196853 
 6680000   0.43142854   -3.0388318   -1.5950295  0.030738793   -3.0388318    1.4438023   196796 
 6681000   0.43018098   -3.0379882   -1.5974312  0.034402974   -3.0379882    1.4405569   196669 
 6682000   0.43224632   -3.0400804   -1.5921728   0.03648588   -3.0400804    1.4479076   196610 
 6683000   0.43091967   -3.0370368   -1.5931398   0.03367755   -3.0370368    1.4438969   196551 
 6684000   0.43020973   -3.0366015   -1.5943789  0.030481727   -3.0366015    1.4422225   196455 
 6685000   0.42991442   -3.0353998   -1.5936388  0.035477149   -3.0353998    1.4417609   196383 
 6686000   0.42996541   -3.0335477   -1.5911237   0.03464271   -3.0335477    1.4424241   196316 
 6687000   0.43063296   -3.0360014   -1.5907047  0.029519776   -3.0360014    1.4452966   196230 
 6688000   0.42926497    -3.029895    -1.588455  0.027172452    -3.029895      1.44144   196130 
 6689000   0.42911059   -3.0318814   -1.5899085  0.032837175   -3.0318814    1.4419729   195987 
 6690000   0.42866489   -3.0327443   -1.5918942  0.029935222   -3.0327443    1.4408501   195936 
 6691000   0.42903907   -3.0336647   -1.5906215  0.032291577   -3.0336647    1.4430432   195809 
 6692000   0.42973379   -3.0346019   -1.5887125  0.033668472   -3.0346019    1.4458893   195740 
 6693000   0.42927982   -3.0345422   -1.5897374   0.02862371   -3.0345422    1.4448048   195680 
 6694000   0.42820744   -3.0329173   -1.5910808  0.034903449   -3.0329173    1.4418366   195593 
 6695000   0.42876303   -3.0331902   -1.5885153   0.02909437   -3.0331902    1.4446749   195462 
 6696000   0.42913524    -3.030196     -1.58386  0.034465317    -3.030196     1.446336   195407 
 6697000   0.42804251   -3.0301169   -1.5869542  0.035122783   -3.0301169    1.4431627   195338 
 6698000    0.4270786   -3.0277778   -1.5868913  0.031117266   -3.0277778    1.4408865   195206 
 6699000   0.42736486   -3.0300709   -1.5875609   0.03269523   -3.0300709      1.44251   195117 
 6700000   0.42794788   -3.0287682   -1.5835126  0.037699329   -3.0287682    1.4452557   195012 
 6701000   0.42958723    -3.034081   -1.5826787   0.03398351    -3.034081    1.4514023   194930 
 6702000   0.42730861   -3.0290061   -1.5846726  0.035784929   -3.0290061    1.4443336   194845 
 6703000   0.42601805   -3.0283043   -1.5876157  0.032356203   -3.0283043    1.4406886   194748 
 6704000   0.42613046   -3.0252559    -1.583595   0.03074095   -3.0252559     1.441661   194668 
 6705000   0.42570321    -3.023904   -1.5829483  0.034668361    -3.023904    1.4409558   194568 
 6706000   0.42612642   -3.0282784   -1.5855713  0.034339844   -3.0282784    1.4427071   194525 
 6707000   0.42629551   -3.0255937   -1.5820841  0.031840419   -3.0255937    1.4435096   194494 
 6708000   0.42601793   -3.0254842   -1.5821205   0.03160366   -3.0254842    1.4433637   194387 
 6709000   0.42695731    -3.027997   -1.5807955  0.034106424    -3.027997    1.4472015   194299 
 6710000    0.4257251    -3.026211   -1.5824207  0.032871443    -3.026211    1.4437903   194196 
 6711000   0.42638114   -3.0268821   -1.5802189  0.033674089   -3.0268821    1.4466632   194109 
 6712000   0.42618949   -3.0271457   -1.5803948  0.036398706   -3.0271457    1.4467509   194010 
 6713000   0.42624062   -3.0254198   -1.5782716   0.03556991   -3.0254198    1.4471482   193980 
 6714000   0.42656639    -3.025753   -1.5771702  0.034046639    -3.025753    1.4485828   193936 
 6715000   0.42577277   -3.0285032   -1.5817128    0.0321374   -3.0285032    1.4467904   193815 
 6716000   0.42421738   -3.0225761   -1.5807511  0.030602748   -3.0225761     1.441825   193772 
 6717000   0.42383069   -3.0226344   -1.5814915   0.02939443   -3.0226344    1.4411429   193687 
 6718000    0.4239685   -3.0195995    -1.577355  0.034856131   -3.0195995    1.4422445   193602 
 6719000   0.42414968   -3.0223405   -1.5791144  0.034743621   -3.0223405    1.4432261   193553 
 6720000   0.42377709   -3.0223205    -1.579848  0.028534524   -3.0223205    1.4424725   193484 
 6721000     0.424607   -3.0219506   -1.5759058  0.031262336   -3.0219506    1.4460448   193384 
 6722000   0.42383951   -3.0207946   -1.5762954  0.033026217   -3.0207946    1.4444992   193241 
 6723000   0.42372313   -3.0199801   -1.5755711  0.032573615   -3.0199801     1.444409   193200 
 6724000   0.42265999   -3.0175509   -1.5761468  0.031100113   -3.0175509    1.4414041   193117 
 6725000   0.42499034   -3.0214424   -1.5715054  0.034666109   -3.0214424     1.449937   193039 
 6726000    0.4241671   -3.0175496   -1.5698363  0.032300216   -3.0175496    1.4477133   192961 
 6727000   0.42266768   -3.0154829   -1.5721317  0.032320933   -3.0154829    1.4433512   192860 
 6728000   0.42334555   -3.0167065   -1.5705006  0.035627929   -3.0167065    1.4462059   192788 
 6729000   0.42266214   -3.0151364   -1.5705833  0.030944397   -3.0151364    1.4445531   192697 
 6730000   0.42155802   -3.0146225   -1.5730126  0.029622425   -3.0146225      1.44161   192586 
 6731000   0.42161896   -3.0149777   -1.5724927  0.031781794   -3.0149777     1.442485   192497 
 6732000   0.42230878   -3.0172318    -1.571275  0.031484279   -3.0172318    1.4459568   192349 
 6733000   0.42246207   -3.0167214   -1.5697283  0.036304033   -3.0167214    1.4469932   192281 
 6734000   0.42084078   -3.0135727   -1.5713676   0.03142819   -3.0135727    1.4422051   192179 
 6735000   0.42136006   -3.0155211   -1.5707922  0.033472891   -3.0155211    1.4447289   192080 
 6736000   0.42143496   -3.0151619   -1.5698827   0.03390302   -3.0151619    1.4452791   192041 
 6737000   0.42043784   -3.0128484   -1.5706133  0.031674943   -3.0128484    1.4422351   191991 
 6738000   0.42111297   -3.0145417   -1.5692228  0.030649006   -3.0145417    1.4453189   191889 
 6739000   0.42081775   -3.0115871   -1.5665812  0.036531993   -3.0115871     1.445006   191796 
 6740000   0.42101916   -3.0140902   -1.5679327  0.033211673   -3.0140902    1.4461575   191735 
 6741000   0.42089077   -3.0123353   -1.5657965  0.033187733   -3.0123353    1.4465388   191626 
 6742000   0.42156432   -3.0154236   -1.5657074   0.03187927   -3.0154236    1.4497162   191512 
 6743000    0.4211989   -3.0179991   -1.5690402   0.03291857   -3.0179991    1.4489589   191446 
 6744000    0.4199318   -3.0179901   -1.5731109  0.032241743   -3.0179901    1.4448792   191409 
 6745000   0.41965945   -3.0169989   -1.5725059  0.032720485   -3.0169989     1.444493   191336 
 6746000    0.4210669    -3.021838    -1.571644  0.036974629    -3.021838     1.450194   191223 
 6747000   0.42030895   -3.0161192   -1.5678994  0.036718755   -3.0161192    1.4482197   191139 
 6748000   0.41989557   -3.0184099   -1.5711299  0.033626839   -3.0184099      1.44728   191075 
 6749000    0.4194583   -3.0180405   -1.5715031  0.032562339   -3.0180405    1.4465375   190974 
 6750000   0.41897256   -3.0169959   -1.5715584  0.033535369   -3.0169959    1.4454376   190898 
 6751000    0.4170699   -3.0086824   -1.5693189  0.029892301   -3.0086824    1.4393636   190833 
 6752000   0.41762583   -3.0094104   -1.5674255  0.030141583   -3.0094104    1.4419849   190740 
 6753000   0.41834497   -3.0134036   -1.5681098  0.031101771   -3.0134036    1.4452938   190631 
 6754000   0.41945686   -3.0178209   -1.5679023  0.032023214   -3.0178209    1.4499186   190528 
 6755000    0.4178532   -3.0095351    -1.564811  0.036338355   -3.0095351    1.4447241   190482 
 6756000   0.41942491   -3.0132439   -1.5622706  0.033828735   -3.0132439    1.4509734   190375 
 6757000   0.41762666   -3.0092002   -1.5639771  0.033518025   -3.0092002    1.4452231   190313 
 6758000   0.41701401   -3.0069602   -1.5631593  0.032958254   -3.0069602    1.4438009   190221 
 6759000   0.41798521   -3.0100714   -1.5619259  0.033334172   -3.0100714    1.4481455   190092 
 6760000   0.41768181   -3.0085866    -1.560982  0.034116072   -3.0085866    1.4476046   190025 
 6761000   0.41776292   -3.0084887   -1.5598788   0.03374701   -3.0084887    1.4486099   189930 
 6762000   0.41734362   -3.0063197   -1.5586759  0.035544941   -3.0063197    1.4476438   189866 
 6763000   0.41619399   -3.0064281   -1.5621406  0.033262748   -3.0064281    1.4442874   189783 
 6764000   0.41595561   -3.0040419   -1.5598131    0.0343747   -3.0040419    1.4442288   189682 
 6765000   0.41572915   -3.0061738   -1.5621375  0.033200718   -3.0061738    1.4440363   189604 
 6766000   0.41664262   -3.0100371   -1.5624384  0.031496961   -3.0100371    1.4475986   189553 
 6767000   0.41724913   -3.0109116   -1.5610375  0.035064305   -3.0109116    1.4498742   189531 
 6768000   0.41597344   -3.0076536    -1.561724  0.035056454   -3.0076536    1.4459296   189467 
 6769000   0.41607977    -3.006581   -1.5594339   0.03277561    -3.006581     1.447147   189356 
 6770000    0.4158299   -3.0072712   -1.5607564  0.035510545   -3.0072712    1.4465148   189325 
 6771000   0.41621589   -3.0081531   -1.5596299  0.033375981   -3.0081531    1.4485232   189238 
 6772000   0.41544175   -3.0058941   -1.5596983  0.033206841   -3.0058941    1.4461958   189190 
 6773000   0.41530768   -3.0058487   -1.5595462  0.030875831   -3.0058487    1.4463025   189115 
 6774000   0.41468811   -3.0044489   -1.5596701  0.034837861   -3.0044489    1.4447789   189032 
 6775000   0.41400821   -3.0025715   -1.5592069  0.031151898   -3.0025715    1.4433646   188907 
 6776000   0.41516398   -3.0013974   -1.5536202  0.033179974   -3.0013974    1.4477771   188857 
 6777000   0.41460463   -3.0014821   -1.5548895  0.030770239   -3.0014821    1.4465925   188757 
 6778000    0.4144925   -2.9994662   -1.5528664  0.031876436   -2.9994662    1.4465998   188705 
 6779000   0.41409418   -2.9989429   -1.5529823  0.033797396   -2.9989429    1.4459606   188607 
 6780000    0.4140505    -2.999004   -1.5523523  0.033070987    -2.999004    1.4466518   188497 
 6781000   0.41439819   -2.9991355   -1.5505542  0.031531038   -2.9991355    1.4485813   188404 
 6782000    0.4131205   -2.9960242   -1.5513572   0.03515567   -2.9960242     1.444667   188332 
 6783000   0.41364906   -2.9951208   -1.5481983  0.032757788   -2.9951208    1.4469226   188279 
 6784000   0.41349751   -2.9919685   -1.5449765  0.034347009   -2.9919685    1.4469919   188201 
 6785000   0.41390398   -2.9932415   -1.5441266  0.035616439   -2.9932415     1.449115   188110 
 6786000   0.41342292   -2.9904113   -1.5424879  0.032238773   -2.9904113    1.4479234   188046 
 6787000   0.41221885   -2.9906322   -1.5463037   0.03268936   -2.9906322    1.4443285   187965 
 6788000   0.41273208   -2.9873497   -1.5408613  0.035554414   -2.9873497    1.4464885   187918 
 6789000   0.41247366   -2.9897438    -1.543807  0.033417545   -2.9897438    1.4459367   187872 
 6790000   0.41187904   -2.9867814    -1.542214  0.034553514   -2.9867814    1.4445674   187779 
 6791000   0.41208936   -2.9843135   -1.5389161  0.032929393   -2.9843135    1.4453974   187767 
 6792000   0.41195292   -2.9830224   -1.5372566    0.0363492   -2.9830224    1.4457658   187657 
 6793000   0.41235053    -2.984408   -1.5367454  0.031321053    -2.984408    1.4476627   187592 
 6794000   0.41171368   -2.9835208   -1.5377086  0.035214879   -2.9835208    1.4458122   187542 
 6795000   0.41171169   -2.9808041   -1.5345902  0.036131479   -2.9808041    1.4462139   187489 
 6796000   0.41115441   -2.9824562   -1.5372903  0.031279566   -2.9824562    1.4451659   187371 
 6797000   0.41064255   -2.9774519   -1.5336073  0.036267906   -2.9774519    1.4438446   187309 
 6798000   0.41122753   -2.9802158    -1.533743  0.036479217   -2.9802158    1.4464728   187235 
 6799000   0.41049617   -2.9814866   -1.5366603  0.032025352   -2.9814866    1.4448263   187115 
 6800000   0.41118662   -2.9770329   -1.5289019   0.03160365   -2.9770329     1.448131   187002 
 6801000   0.41072215   -2.9766132   -1.5297079  0.031941019   -2.9766132    1.4469053   186949 
 6802000   0.41175853   -2.9779775   -1.5268623  0.031563481   -2.9779775    1.4511152   186877 
 6803000   0.41063458   -2.9755445    -1.527848  0.033170929   -2.9755445    1.4476964   186807 
 6804000   0.41040823   -2.9764509   -1.5288628  0.035121126   -2.9764509    1.4475881   186718 
 6805000   0.40995926   -2.9763432   -1.5294553  0.031548152   -2.9763432    1.4468879   186604 
 6806000   0.41068117   -2.9750158   -1.5250439  0.035850821   -2.9750158    1.4499719   186535 
 6807000   0.41007373    -2.973808   -1.5254527  0.033640521    -2.973808    1.4483552   186467 
 6808000   0.41095992   -2.9736308    -1.521546  0.036543782   -2.9736308    1.4520848   186390 
 6809000   0.41109538   -2.9744597   -1.5215688  0.034372267   -2.9744597    1.4528909   186348 
 6810000   0.41040477   -2.9739739   -1.5229242  0.034191916   -2.9739739    1.4510497   186271 
 6811000   0.40909909   -2.9694055   -1.5222808  0.034336593   -2.9694055    1.4471247   186182 
 6812000   0.40894645   -2.9705552   -1.5235196  0.036590782   -2.9705552    1.4470355   186124 
 6813000    0.4085224   -2.9697159   -1.5233261  0.030247444   -2.9697159    1.4463899   186014 
 6814000   0.40865623   -2.9680128   -1.5204954   0.03367238   -2.9680128    1.4475174   185930 
 6815000   0.40865145   -2.9673502   -1.5192967  0.033486812   -2.9673502    1.4480534   185859 
 6816000   0.40901123   -2.9686186   -1.5189316  0.032919829   -2.9686186    1.4496871   185813 
 6817000   0.40820302   -2.9651308   -1.5175527  0.036966393   -2.9651308    1.4475782   185716 
 6818000   0.40748095   -2.9669705   -1.5212758  0.033831854   -2.9669705    1.4456948   185629 
 6819000   0.40753146   -2.9686825    -1.521881  0.034487422   -2.9686825    1.4468015   185510 
 6820000   0.40724951   -2.9674742   -1.5213151  0.031506482   -2.9674742    1.4461591   185464 
 6821000   0.40796836   -2.9701631    -1.520873  0.034743364   -2.9701631    1.4492901   185390 
 6822000   0.40793146   -2.9694705   -1.5195529  0.031721936   -2.9694705    1.4499176   185293 
 6823000   0.40716691   -2.9661056   -1.5187414  0.033890167   -2.9661056    1.4473642   185272 
 6824000   0.40655083   -2.9639397   -1.5182584  0.032850053   -2.9639397    1.4456814   185207 
 6825000   0.40699377   -2.9657936   -1.5181307   0.03495477   -2.9657936    1.4476629   185155 
 6826000   0.40694507   -2.9636652   -1.5152133  0.033400187   -2.9636652    1.4484519   185032 
 6827000    0.4071441    -2.965247   -1.5155774  0.033410115    -2.965247    1.4496696   184967 
 6828000   0.40555766   -2.9616049   -1.5168732   0.03608432   -2.9616049    1.4447317   184876 
 6829000   0.40542834   -2.9655691   -1.5205946  0.030589518   -2.9655691    1.4449745   184786 
 6830000   0.40561316   -2.9683248   -1.5220342  0.031539836   -2.9683248    1.4462906   184702 
 6831000   0.40487216    -2.962877   -1.5186109  0.033067416    -2.962877    1.4442662   184623 
 6832000   0.40559609   -2.9659709    -1.518346  0.036500637   -2.9659709    1.4476249   184524 
 6833000   0.40554002   -2.9694287   -1.5209914   0.03592407   -2.9694287    1.4484373   184395 
 6834000   0.40563009   -2.9646021   -1.5154973  0.033070635   -2.9646021    1.4491048   184351 
 6835000   0.40493548   -2.9660665   -1.5186816  0.033849744   -2.9660665    1.4473849   184254 
 6836000   0.40611056   -2.9698759   -1.5175815  0.035093938   -2.9698759    1.4522944   184164 
 6837000   0.40616434   -2.9678291   -1.5148926  0.035817081   -2.9678291    1.4529365   184107 
 6838000   0.40475024   -2.9643201   -1.5158285  0.037192252   -2.9643201    1.4484916   184029 
 6839000   0.40444386   -2.9619982    -1.513761  0.032223628   -2.9619982    1.4482372   183922 
 6840000   0.40348574    -2.960645   -1.5151628  0.032787604    -2.960645    1.4454822   183836 
 6841000   0.40307567   -2.9574644   -1.5127597   0.03250112   -2.9574644    1.4447047   183748 
 6842000   0.40390579   -2.9609342   -1.5126945  0.031521388   -2.9609342    1.4482396   183677 
 6843000    0.4029588    -2.956266   -1.5105796  0.032157576    -2.956266    1.4456863   183570 
 6844000   0.40328692   -2.9541713    -1.507158  0.032377548   -2.9541713    1.4470133   183551 
 6845000   0.40308812   -2.9565131   -1.5093537  0.034571096   -2.9565131    1.4471594   183442 
 6846000   0.40283262   -2.9588542   -1.5118549  0.032565875   -2.9588542    1.4469993   183346 
 6847000   0.40222349   -2.9569123   -1.5115334  0.030103031   -2.9569123    1.4453789   183274 
 6848000   0.40269223   -2.9554569   -1.5076827   0.03556682   -2.9554569    1.4477742   183184 
 6849000   0.40206972   -2.9552087   -1.5087802  0.035485523   -2.9552087    1.4464284   183071 
 6850000   0.40158685   -2.9565206   -1.5108421  0.035361801   -2.9565206    1.4456784   182946 
 6851000   0.40059281   -2.9525644   -1.5096679  0.032328821   -2.9525644    1.4428966   182845 
 6852000   0.39973044   -2.9512186   -1.5107901  0.030545828   -2.9512186    1.4404285   182764 
 6853000   0.40043335   -2.9513907   -1.5079001  0.037130638   -2.9513907    1.4434906   182697 
 6854000   0.40094652   -2.9543716   -1.5081683  0.035588025   -2.9543716    1.4462033   182588 
 6855000   0.40176911   -2.9548759   -1.5049511  0.033237672   -2.9548759    1.4499248   182493 
 6856000   0.40152637   -2.9536786   -1.5039308  0.035323109   -2.9536786    1.4497478   182405 
 6857000   0.40049957   -2.9471666   -1.5005551  0.034855214   -2.9471666    1.4466115   182333 
 6858000   0.39910604   -2.9427434   -1.5003109  0.033529197   -2.9427434    1.4424324   182225 
 6859000   0.39963079   -2.9443168   -1.4993376   0.03120313   -2.9443168    1.4449792   182143 
 6860000   0.39949056    -2.939834   -1.4950049  0.031893942    -2.939834    1.4448291   182098 
 6861000   0.40061702   -2.9404071   -1.4910503  0.033315549   -2.9404071    1.4493568   182041 
 6862000   0.40017659   -2.9380703    -1.489734  0.031198253   -2.9380703    1.4483363   181969 
 6863000   0.39833749   -2.9336001   -1.4913177    0.0325055   -2.9336001    1.4422825   181893 
 6864000   0.39954578   -2.9354514   -1.4881097  0.035628481   -2.9354514    1.4473417   181807 
 6865000   0.40043412   -2.9376002   -1.4862662  0.035160973   -2.9376002     1.451334   181710 
 6866000   0.39909743   -2.9346938   -1.4871768  0.034492247   -2.9346938     1.447517   181581 
 6867000   0.39928477   -2.9340417   -1.4853745  0.031870986   -2.9340417    1.4486671   181522 
 6868000   0.39844524   -2.9351998   -1.4889491   0.03437924   -2.9351998    1.4462506   181443 
 6869000   0.39904679   -2.9350741   -1.4858573  0.031127851   -2.9350741    1.4492168   181345 
 6870000   0.39880872   -2.9316752   -1.4829075  0.033297481   -2.9316752    1.4487677   181293 
 6871000   0.39925523   -2.9340443    -1.482758  0.033664996   -2.9340443    1.4512863   181181 
 6872000   0.39894126   -2.9340663   -1.4832807  0.035598361   -2.9340663    1.4507856   181101 
 6873000   0.39786336   -2.9320796   -1.4843985  0.034832515   -2.9320796    1.4476811   180999 
 6874000   0.39762009   -2.9320637     -1.48446  0.034872821   -2.9320637    1.4476037   180898 
 6875000   0.39769289   -2.9305118   -1.4823308   0.03508754   -2.9305118     1.448181   180859 
 6876000    0.3989694   -2.9342586    -1.480915  0.033904416   -2.9342586    1.4533436   180795 
 6877000   0.39723189   -2.9276797   -1.4802491  0.033290155   -2.9276797    1.4474306   180743 
 6878000   0.39675828   -2.9270621   -1.4805649  0.033790873   -2.9270621    1.4464972   180644 
 6879000   0.39690252   -2.9273975   -1.4798055  0.032963323   -2.9273975     1.447592   180573 
 6880000   0.39739281   -2.9289468   -1.4788599  0.030147229   -2.9289468    1.4500869   180485 
 6881000   0.39650923   -2.9254911   -1.4778825  0.036612488   -2.9254911    1.4476086   180392 
 6882000   0.39561998   -2.9262124    -1.480969  0.029945105   -2.9262124    1.4452433   180282 
 6883000   0.39595784   -2.9323596   -1.4851515  0.028137323   -2.9323596    1.4472081   180191 
 6884000   0.39528436   -2.9318652   -1.4867577  0.032145642   -2.9318652    1.4451074   180146 
 6885000   0.39536802   -2.9336036   -1.4872027   0.03171702   -2.9336036    1.4464009   180023 
 6886000   0.39561688   -2.9327681   -1.4846282  0.032778156   -2.9327681    1.4481399   179920 
 6887000   0.39554996   -2.9336454   -1.4850662  0.035345725   -2.9336454    1.4485793   179835 
 6888000     0.395238   -2.9320487   -1.4841046  0.034654861   -2.9320487     1.447944   179772 
 6889000   0.39592615   -2.9347156   -1.4837905  0.035876661   -2.9347156    1.4509251   179715 
 6890000   0.39509776   -2.9347279   -1.4863066   0.03433249   -2.9347279    1.4484213   179649 
 6891000   0.39456154   -2.9342241   -1.4870436  0.032109453   -2.9342241    1.4471805   179559 
 6892000   0.39393244   -2.9341495   -1.4880926  0.034247825   -2.9341495    1.4460569   179412 
 6893000   0.39436344   -2.9318172   -1.4836858  0.035139639   -2.9318172    1.4481314   179351 
 6894000   0.39471981   -2.9323626   -1.4822029  0.035361909   -2.9323626    1.4501597   179262 
 6895000   0.39348047   -2.9313251   -1.4847503  0.034759537   -2.9313251    1.4465748   179142 
 6896000   0.39330536   -2.9308088   -1.4840701  0.033767198   -2.9308088    1.4467386   179042 
 6897000   0.39333027   -2.9301151   -1.4830262  0.032724833   -2.9301151    1.4470889   179010 
 6898000   0.39317066   -2.9328392   -1.4851001  0.028747263   -2.9328392    1.4477391   178857 
 6899000   0.39316336   -2.9319941   -1.4836746  0.033184916   -2.9319941    1.4483195   178782 
 6900000   0.39340761   -2.9323249   -1.4822134  0.035192193   -2.9323249    1.4501115   178672 
 6901000   0.39329088   -2.9300318   -1.4797825  0.034005465   -2.9300318    1.4502494   178602 
 6902000   0.39220608    -2.927826   -1.4806855  0.036979506    -2.927826    1.4471405   178492 
 6903000   0.39232091   -2.9257678   -1.4778791  0.031990346   -2.9257678    1.4478887   178452 
 6904000   0.39144141   -2.9229603   -1.4775723  0.033083095   -2.9229603     1.445388   178360 
 6905000   0.39213927   -2.9216376    -1.473283  0.035038928   -2.9216376    1.4483546   178312 
 6906000   0.39109068   -2.9187946   -1.4735268  0.033467234   -2.9187946    1.4452678   178215 
 6907000   0.39183533    -2.920056   -1.4716787  0.035812051    -2.920056    1.4483773   178171 
 6908000   0.39259039   -2.9235348   -1.4714863  0.037087116   -2.9235348    1.4520485   178063 
 6909000   0.39100586   -2.9203492   -1.4733081  0.033353069   -2.9203492    1.4470412   177958 
 6910000   0.39053639    -2.921396   -1.4751495  0.027623271    -2.921396    1.4462465   177842 
 6911000   0.39071851   -2.9209908    -1.473492  0.034432055   -2.9209908    1.4474988   177771 
 6912000   0.39116135   -2.9184201   -1.4687262  0.034585854   -2.9184201    1.4496939   177703 
 6913000   0.39061485   -2.9143979   -1.4659388  0.034058207   -2.9143979    1.4484591   177606 
 6914000   0.39066916   -2.9140373   -1.4646586  0.031328977   -2.9140373    1.4493787   177518 
 6915000   0.39048126   -2.9094528   -1.4602407  0.034437193   -2.9094528    1.4492122   177453 
 6916000   0.38997935   -2.9073752   -1.4597076  0.033389579   -2.9073752    1.4476676   177414 
 6917000   0.39054359   -2.9082924   -1.4578762  0.032676453   -2.9082924    1.4504162   177334 
 6918000   0.39045214   -2.9037326   -1.4532226  0.031409197   -2.9037326    1.4505101   177281 
 6919000    0.3896396    -2.899323   -1.4511943  0.035393037    -2.899323    1.4481287   177203 
 6920000   0.39016579   -2.9024433   -1.4516058  0.030383631   -2.9024433    1.4508376   177111 
 6921000   0.38977882   -2.9041323   -1.4541034  0.028427723   -2.9041323     1.450029   177034 
 6922000   0.38882412   -2.9002015   -1.4531846  0.033972418   -2.9002015    1.4470169   176968 
 6923000   0.38901039   -2.8966986   -1.4481209  0.031631511   -2.8966986    1.4485777   176862 
 6924000   0.38932607   -2.8952842   -1.4447108  0.034166466   -2.8952842    1.4505734   176762 
 6925000   0.39001081   -2.8985809   -1.4447983  0.031761442   -2.8985809    1.4537826   176682 
 6926000   0.38939642   -2.8956256   -1.4431631  0.032972054   -2.8956256    1.4524625   176564 
 6927000   0.38987796   -2.8997161   -1.4446663  0.032677385   -2.8997161    1.4550498   176468 
 6928000   0.38740172   -2.8922431   -1.4456479  0.033154372   -2.8922431    1.4465953   176372 
 6929000   0.38787051   -2.8935923   -1.4448111  0.032673377   -2.8935923    1.4487811   176319 
 6930000   0.38838063    -2.891633   -1.4404032  0.034329185    -2.891633    1.4512298   176253 
 6931000   0.38842499   -2.8927331   -1.4408763  0.036409972   -2.8927331    1.4518568   176197 
 6932000   0.38745155   -2.8903909   -1.4414983  0.031651167   -2.8903909    1.4488926   176115 
 6933000   0.38873948   -2.8959165   -1.4413074  0.034257948   -2.8959165    1.4546091   176006 
 6934000    0.3880304   -2.8926114   -1.4400943  0.033082199   -2.8926114     1.452517   175938 
 6935000   0.38834801   -2.8961521   -1.4415864  0.034938646   -2.8961521    1.4545658   175834 
 6936000   0.38636466   -2.8949236   -1.4470948  0.028237213   -2.8949236    1.4478288   175750 
 6937000    0.3865508   -2.8949561   -1.4456794     0.034606   -2.8949561    1.4492767   175659 
 6938000   0.38666677   -2.8968143    -1.446401  0.036853513   -2.8968143    1.4504133   175574 
 6939000   0.38710824   -2.8940548    -1.441638  0.033391341   -2.8940548    1.4524167   175532 
 6940000   0.38834771   -2.8981332   -1.4405844  0.035858166   -2.8981332    1.4575488   175474 
 6941000   0.38775402   -2.8977788    -1.441346  0.034322068   -2.8977788    1.4564328   175340 
 6942000   0.38566001   -2.8938754   -1.4445806  0.034652516   -2.8938754    1.4492949   175252 
 6943000   0.38694245   -2.8976055   -1.4431593  0.036146674   -2.8976055    1.4544462   175212 
 6944000   0.38565349   -2.8914192   -1.4414125  0.032267151   -2.8914192    1.4500067   175163 
 6945000   0.38764455   -2.8963597    -1.437926  0.037246036   -2.8963597    1.4584337   175050 
 6946000   0.38648936   -2.8911921   -1.4363233  0.038503708   -2.8911921    1.4548688   174956 
 6947000   0.38528931   -2.8883845   -1.4372451  0.034430879   -2.8883845    1.4511394   174861 
 6948000   0.38465763   -2.8889418   -1.4396179  0.035313506   -2.8889418    1.4493239   174793 
 6949000   0.38393052   -2.8832444    -1.436064  0.037601773   -2.8832444    1.4471804   174721 
 6950000    0.3854543   -2.8866685   -1.4332203  0.031772006   -2.8866685    1.4534482   174658 
 6951000   0.38467935    -2.885442    -1.434351  0.034320703    -2.885442     1.451091   174590 
 6952000   0.38437073   -2.8850599   -1.4340443  0.031377416   -2.8850599    1.4510155   174459 
 6953000   0.38424254    -2.885689   -1.4345668  0.038333488    -2.885689    1.4511222   174388 
 6954000   0.38408275   -2.8851882   -1.4338789  0.036211311   -2.8851882    1.4513093   174293 
 6955000   0.38375024    -2.885477      -1.4346  0.035653859    -2.885477     1.450877   174194 
 6956000   0.38375327   -2.8829077   -1.4313025  0.033394711   -2.8829077    1.4516051   174108 
 6957000   0.38405138   -2.8918205    -1.438186  0.033577778   -2.8918205    1.4536345   174000 
 6958000   0.38299484   -2.8872182   -1.4369326  0.035899773   -2.8872182    1.4502856   173922 
 6959000   0.38240305    -2.886237   -1.4375427   0.03275692    -2.886237    1.4486944   173844 
 6960000   0.38219887   -2.8864289   -1.4378831  0.032814856   -2.8864289    1.4485458   173769 
 6961000   0.38305585   -2.8876194   -1.4350399  0.035954169   -2.8876194    1.4525795   173675 
 6962000   0.38322339   -2.8835893   -1.4297299  0.035733719   -2.8835893    1.4538595   173598 
 6963000   0.38251759    -2.884142   -1.4316131  0.035725588    -2.884142    1.4525289   173437 
 6964000   0.38070993   -2.8793481   -1.4327492  0.034710847   -2.8793481    1.4465989   173325 
 6965000   0.37984942   -2.8814036   -1.4368159  0.033263704   -2.8814036    1.4445877   173174 
 6966000   0.38106313   -2.8808617   -1.4311811  0.034089283   -2.8808617    1.4496807   173117 
 6967000   0.38157604    -2.882822   -1.4305274  0.032436794    -2.882822    1.4522947   173038 
 6968000   0.38068399    -2.881954   -1.4324933  0.031520125    -2.881954    1.4494607   172971 
 6969000   0.38061627   -2.8762896   -1.4266509  0.036741235   -2.8762896    1.4496387   172919 
 6970000   0.38120682   -2.8788899   -1.4262879  0.033487754   -2.8788899    1.4526019   172834 
 6971000   0.38146331   -2.8771176   -1.4231598  0.034909285   -2.8771176    1.4539578   172789 
 6972000   0.38185361   -2.8783724   -1.4224213  0.035414328   -2.8783724    1.4559511   172729 
 6973000   0.38054259   -2.8774105   -1.4259455  0.035782998   -2.8774105    1.4514649   172668 
 6974000   0.38078815   -2.8774588   -1.4241314  0.034424324   -2.8774588    1.4533274   172558 
 6975000   0.38049591   -2.8734546   -1.4203416  0.033025065   -2.8734546    1.4531131   172451 
 6976000   0.37950492   -2.8690118   -1.4189602  0.036840835   -2.8690118    1.4500516   172365 
 6977000   0.38048247   -2.8715274   -1.4169474  0.034955104   -2.8715274      1.45458   172271 
 6978000   0.37987445   -2.8691728   -1.4160316  0.034847155   -2.8691728    1.4531412   172166 
 6979000   0.37962066   -2.8688421   -1.4157011  0.035707966   -2.8688421    1.4531411   172051 
 6980000   0.37946236   -2.8690304   -1.4160731  0.032071615   -2.8690304    1.4529573   172001 
 6981000   0.37877408   -2.8667901   -1.4157174  0.035342759   -2.8667901    1.4510728   171912 
 6982000   0.37902576    -2.864849   -1.4118062  0.036355005    -2.864849    1.4530428   171793 
 6983000   0.37814205   -2.8637273   -1.4132871   0.03597954   -2.8637273    1.4504401   171700 
 6984000   0.37781609   -2.8607683   -1.4107086  0.033525755   -2.8607683    1.4500597   171597 
 6985000    0.3786664   -2.8664599   -1.4117633  0.033648893   -2.8664599    1.4546966   171435 
 6986000     0.377569   -2.8628772   -1.4114652  0.035541032   -2.8628772     1.451412   171325 
 6987000   0.37898747   -2.8640963   -1.4068488  0.035372613   -2.8640963    1.4572476   171280 
 6988000   0.37751952   -2.8595376    -1.407307  0.034736432   -2.8595376    1.4522306   171206 
 6989000   0.37717507   -2.8572265   -1.4053457  0.031215582   -2.8572265    1.4518808   171091 
 6990000   0.37843398   -2.8578552   -1.4003958  0.035891839   -2.8578552    1.4574594   171005 
 6991000   0.37683162    -2.851124   -1.3993774  0.036895812    -2.851124    1.4517466   170951 
 6992000   0.37704633    -2.854158   -1.4005979  0.034180027    -2.854158    1.4535601   170835 
 6993000   0.37560619   -2.8521249   -1.4037775  0.034472787   -2.8521249    1.4483473   170795 
 6994000   0.37647962   -2.8548743   -1.4019851   0.03632831   -2.8548743    1.4528892   170657 
 6995000   0.37630579   -2.8518683   -1.3989944  0.034999397   -2.8518683    1.4528739   170580 
 6996000    0.3762886   -2.8502305   -1.3969373   0.03538302   -2.8502305    1.4532931   170523 
 6997000   0.37785971   -2.8528974   -1.3932196  0.039713582   -2.8528974    1.4596778   170486 
 6998000   0.37621055   -2.8477141   -1.3934773  0.040533249   -2.8477141    1.4542368   170377 
 6999000   0.37606862   -2.8469744   -1.3926972  0.034282882   -2.8469744    1.4542771   170308 
 7000000   0.37662422   -2.8477682   -1.3902899   0.03956212   -2.8477682    1.4574783   170185 
 7001000   0.37586988   -2.8446586   -1.3896207  0.032002386   -2.8446586    1.4550379   170129 
 7002000   0.37457521   -2.8394069   -1.3889546  0.035187895   -2.8394069    1.4504524   170079 
 7003000   0.37405588   -2.8370343   -1.3876982   0.03542246   -2.8370343    1.4493361   169974 
 7004000   0.37418395   -2.8365669   -1.3860433  0.035385042   -2.8365669    1.4505236   169893 
 7005000    0.3742331   -2.8378943   -1.3864198    0.0340884   -2.8378943    1.4514745   169804 
 7006000   0.37506682    -2.837777    -1.382366  0.033340565    -2.837777     1.455411   169722 
 7007000   0.37466778   -2.8383976   -1.3835922   0.03460762   -2.8383976    1.4548054   169612 
 7008000   0.37468213   -2.8362186   -1.3802673  0.039840638   -2.8362186    1.4559513   169485 
 7009000   0.37457305   -2.8345172   -1.3780617  0.035877002   -2.8345172    1.4564555   169377 
 7010000   0.37393758   -2.8334803   -1.3785079  0.035791483   -2.8334803    1.4549725   169262 
 7011000   0.37340299   -2.8301346    -1.376306  0.037516353   -2.8301346    1.4538286   169153 
 7012000   0.37303305   -2.8277373   -1.3745243  0.036675124   -2.8277373     1.453213   169057 
 7013000   0.37168156   -2.8269437   -1.3782844   0.03311709   -2.8269437    1.4486593   168974 
 7014000   0.37238697   -2.8310168   -1.3789034   0.03490784   -2.8310168    1.4521134   168892 
 7015000   0.37257149   -2.8277977   -1.3743366  0.032715899   -2.8277977    1.4534611   168819 
 7016000   0.37266232   -2.8300293   -1.3758606  0.037178437   -2.8300293    1.4541686   168778 
 7017000   0.37135258   -2.8246029   -1.3749524  0.036327347   -2.8246029    1.4496505   168709 
 7018000   0.37206934   -2.8255475   -1.3723496  0.034911463   -2.8255475     1.453198   168622 
 7019000    0.3724546   -2.8270344   -1.3716585  0.040204388   -2.8270344    1.4553759   168544 
 7020000   0.37224419   -2.8286187   -1.3730459  0.033657862   -2.8286187    1.4555728   168426 
 7021000   0.37204987   -2.8282969   -1.3724813  0.036211993   -2.8282969    1.4558156   168310 
 7022000   0.37108338   -2.8284069   -1.3753026  0.036130314   -2.8284069    1.4531043   168186 
 7023000   0.37078054   -2.8278876   -1.3752437  0.034620926   -2.8278876     1.452644   168102 
 7024000    0.3715365   -2.8317171   -1.3751583  0.034984367   -2.8317171    1.4565588   167992 
 7025000   0.37039835   -2.8278328   -1.3750874  0.034873174   -2.8278328    1.4527454   167917 
 7026000   0.36945978    -2.825652   -1.3759057    0.0337207    -2.825652    1.4497463   167838 
 7027000    0.3695441   -2.8278375   -1.3765238  0.035025136   -2.8278375    1.4513137   167695 
 7028000   0.37006265   -2.8299641   -1.3755298  0.035780979   -2.8299641    1.4544343   167570 
 7029000   0.36983118   -2.8312046   -1.3766731  0.035046099   -2.8312046    1.4545315   167454 
 7030000   0.36940185   -2.8298805   -1.3764474  0.032568322   -2.8298805    1.4534332   167386 
 7031000   0.36797689   -2.8250686   -1.3764891  0.033697983   -2.8250686    1.4485795   167299 
 7032000   0.36869334   -2.8246809   -1.3727082  0.032085524   -2.8246809    1.4519727   167233 
 7033000    0.3690535   -2.8254861   -1.3714864  0.034280572   -2.8254861    1.4539997   167163 
 7034000   0.36932985   -2.8245974   -1.3683852  0.032843534   -2.8245974    1.4562122   167034 
 7035000   0.36867571   -2.8233322   -1.3686889  0.034837338   -2.8233322    1.4546432   166918 
 7036000   0.36781492   -2.8194759   -1.3673417    0.0367265   -2.8194759    1.4521343   166816 
 7037000   0.36786297   -2.8182734    -1.364747  0.034362313   -2.8182734    1.4535264   166678 
 7038000    0.3676366   -2.8164036   -1.3629781  0.033044529   -2.8164036    1.4534255   166587 
 7039000   0.36864838   -2.8178244   -1.3597162   0.03512414   -2.8178244    1.4581082   166509 
 7040000   0.36739783   -2.8121167   -1.3586406  0.035014507   -2.8121167    1.4534762   166473 
 7041000   0.36663596   -2.8095282   -1.3582205  0.037154084   -2.8095282    1.4513077   166376 
 7042000    0.3671583   -2.8123994     -1.35801  0.031413543   -2.8123994    1.4543894   166260 
 7043000   0.36709633    -2.809431   -1.3548321  0.035490374    -2.809431    1.4545989   166208 
 7044000    0.3678301   -2.8091995   -1.3509912  0.038540332   -2.8091995    1.4582083   166128 
 7045000   0.36667425   -2.8066673   -1.3520518  0.034621472   -2.8066673    1.4546155   166015 
 7046000   0.36620214   -2.8062258   -1.3529317  0.035033681   -2.8062258    1.4532941   165952 
 7047000    0.3659648   -2.8051543   -1.3520929  0.036027989   -2.8051543    1.4530615   165871 
 7048000    0.3655598   -2.8019684   -1.3496482  0.035669589   -2.8019684    1.4523202   165772 
 7049000   0.36642711   -2.8053193   -1.3486483  0.035569468   -2.8053193     1.456671   165669 
 7050000   0.36567535   -2.7988018   -1.3445575  0.036768205   -2.7988018    1.4542443   165605 
 7051000   0.36525329    -2.798049   -1.3443683  0.034997609    -2.798049    1.4536806   165478 
 7052000   0.36714467   -2.8008287   -1.3385513  0.036715576   -2.8008287    1.4622774   165357 
 7053000   0.36429402    -2.798294   -1.3464133  0.033699655    -2.798294    1.4518808   165248 
 7054000   0.36531601   -2.8012915   -1.3442354  0.037261543   -2.8012915    1.4570561   165123 
 7055000   0.36445036   -2.7966783   -1.3425377  0.034817684   -2.7966783    1.4541406   165062 
 7056000   0.36478675   -2.7973189   -1.3408743  0.036361554   -2.7973189    1.4564446   164953 
 7057000     0.365173   -2.7982197   -1.3394901  0.037935829   -2.7982197    1.4587296   164869 
 7058000   0.36446218   -2.7972401   -1.3405636   0.03334279   -2.7972401    1.4566764   164780 
 7059000   0.36431078    -2.790554   -1.3335189  0.034761026    -2.790554    1.4570352   164671 
 7060000   0.36433564   -2.7940756   -1.3361087  0.035906003   -2.7940756    1.4579668   164577 
 7061000   0.36398177   -2.7904751   -1.3331097  0.034499712   -2.7904751    1.4573655   164485 
 7062000   0.36286855   -2.7875132   -1.3337831  0.036353832   -2.7875132    1.4537301   164392 
 7063000   0.36237861   -2.7871299   -1.3343905  0.039933442   -2.7871299    1.4527394   164282 
 7064000   0.36203077   -2.7911451   -1.3389958  0.034774968   -2.7911451    1.4521493   164191 
 7065000   0.36291109   -2.7937852   -1.3372444  0.039280086   -2.7937852    1.4565409   164094 
 7066000   0.36330149   -2.7954763   -1.3362036  0.033593987   -2.7954763    1.4592727   163963 
 7067000   0.36404153   -2.7964382   -1.3333453  0.036918728   -2.7964382    1.4630929   163868 
 7068000   0.36322401   -2.7950991   -1.3346412  0.038890437   -2.7950991    1.4604579   163795 
 7069000   0.36207893   -2.7936641   -1.3369299  0.035316861   -2.7936641    1.4567342   163696 
 7070000   0.36268388   -2.7970809   -1.3370477  0.039300066   -2.7970809    1.4600332   163599 
 7071000   0.36303451   -2.7977692   -1.3355379  0.037378322   -2.7977692    1.4622313   163511 
 7072000   0.36294706   -2.7971044   -1.3344292   0.03724235   -2.7971044    1.4626752   163422 
 7073000   0.36085696   -2.7934385   -1.3382514  0.033744864   -2.7934385    1.4551871   163317 
 7074000   0.36045497   -2.7914884   -1.3370586  0.031697188   -2.7914884    1.4544299   163220 
 7075000   0.36106015   -2.7886544   -1.3309789  0.036811915   -2.7886544    1.4576755   163130 
 7076000    0.3614482   -2.7881458   -1.3281787   0.03990055   -2.7881458    1.4599671   163049 
 7077000   0.36076915   -2.7886286   -1.3309574  0.033920734   -2.7886286    1.4576712   162999 
 7078000   0.36038067   -2.7852288   -1.3282333  0.036877181   -2.7852288    1.4569955   162899 
 7079000   0.36137966   -2.7833533   -1.3213677  0.038567838   -2.7833533    1.4619857   162793 
 7080000   0.35913064   -2.7807919   -1.3266811  0.036224298   -2.7807919    1.4541108   162656 
 7081000   0.36033317   -2.7849291   -1.3250428  0.037283451   -2.7849291    1.4598863   162555 
 7082000   0.36058123   -2.7846211   -1.3227405  0.035814797   -2.7846211    1.4618806   162445 
 7083000   0.36017236   -2.7799477   -1.3189782  0.033598203   -2.7799477    1.4609694   162362 
 7084000   0.35821884   -2.7757569   -1.3217534   0.03788988   -2.7757569    1.4540036   162255 
 7085000   0.35821179    -2.779571   -1.3243314  0.036297141    -2.779571    1.4552395   162114 
 7086000   0.35836992   -2.7794034   -1.3225239   0.03662063   -2.7794034    1.4568795   162003 
 7087000   0.35799248    -2.776794    -1.320496  0.033235505    -2.776794    1.4562979   161897 
 7088000   0.35748507   -2.7750226   -1.3198001  0.036155327   -2.7750226    1.4552225   161787 
 7089000   0.35832659   -2.7738283   -1.3145668  0.036520137   -2.7738283    1.4592615   161719 
 7090000   0.35743416   -2.7695561   -1.3131095  0.035986723   -2.7695561    1.4564467   161628 
 7091000   0.35680394   -2.7681436    -1.313716  0.033370424   -2.7681436    1.4544276   161567 
 7092000   0.35577227    -2.761413    -1.310643  0.036521972    -2.761413      1.45077   161506 
 7093000   0.35729153   -2.7667462   -1.3088783  0.035183486   -2.7667462    1.4578679   161406 
 7094000   0.35704264   -2.7660462    -1.308372  0.035938664   -2.7660462    1.4576742   161315 
 7095000    0.3561558   -2.7623377   -1.3073552  0.034200558   -2.7623377    1.4549826   161212 
 7096000   0.35675553   -2.7631161   -1.3051499  0.036162624   -2.7631161    1.4579662   161153 
 7097000   0.35662931   -2.7664768   -1.3079675  0.032629123   -2.7664768    1.4585093   161036 
 7098000   0.35662813    -2.763754   -1.3042616  0.037249825    -2.763754    1.4594923   160927 
 7099000   0.35592256   -2.7646369   -1.3074254  0.038503341   -2.7646369    1.4572115   160860 
 7100000   0.35535713   -2.7632912   -1.3074807  0.038317826   -2.7632912    1.4558106   160759 
 7101000   0.35544567   -2.7646322   -1.3074346  0.033009079   -2.7646322    1.4571976   160646 
 7102000   0.35465905   -2.7614017   -1.3063602  0.034292687   -2.7614017    1.4550415   160528 
 7103000   0.35492992   -2.7628962   -1.3060083  0.032903883   -2.7628962    1.4568879   160447 
 7104000    0.3549196   -2.7586477   -1.3005936  0.037583778   -2.7586477    1.4580542   160314 
 7105000   0.35489212   -2.7578316    -1.298953  0.037969285   -2.7578316    1.4588786   160211 
 7106000   0.35486246   -2.7584463   -1.2988971   0.03494439   -2.7584463    1.4595493   160124 
 7107000    0.3547693    -2.759903    -1.299606  0.037140693    -2.759903     1.460297   160000 
 7108000   0.35465806     -2.76003   -1.2992323  0.036545164     -2.76003    1.4607977   159895 
 7109000   0.35400168   -2.7603199   -1.3009114  0.035776394   -2.7603199    1.4594085   159751 
 7110000   0.35336427   -2.7529167   -1.2953879  0.036154278   -2.7529167    1.4575288   159669 
 7111000   0.35404102   -2.7548263   -1.2939113  0.034248533   -2.7548263     1.460915   159604 
 7112000   0.35277668   -2.7536356   -1.2972261  0.036227408   -2.7536356    1.4564096   159526 
 7113000   0.35185952   -2.7538406   -1.3003974  0.036056214   -2.7538406    1.4534431   159436 
 7114000   0.35267129   -2.7510668   -1.2936855  0.036497869   -2.7510668    1.4573814   159372 
 7115000   0.35250312    -2.751575   -1.2938824  0.035325017    -2.751575    1.4576925   159262 
 7116000   0.35251847   -2.7479095   -1.2891642  0.035872873   -2.7479095    1.4587452   159154 
 7117000   0.35271604   -2.7460586   -1.2862206  0.037550322   -2.7460586     1.459838   159124 
 7118000    0.3517472    -2.742638   -1.2856013   0.03536157    -2.742638    1.4570367   158992 
 7119000   0.35234574   -2.7423651   -1.2821326  0.034203162   -2.7423651    1.4602325   158914 
 7120000   0.35174968   -2.7375266   -1.2785709  0.036522478   -2.7375266    1.4589557   158784 
 7121000   0.35167361   -2.7347751   -1.2752617  0.033835089   -2.7347751    1.4595134   158689 
 7122000   0.35188909   -2.7354703   -1.2743352  0.033441111   -2.7354703    1.4611351   158610 
 7123000   0.35099967   -2.7332635   -1.2748653  0.036984537   -2.7332635    1.4583982   158506 
 7124000   0.35097627   -2.7311007   -1.2720265  0.036489595   -2.7311007    1.4590742   158422 
 7125000   0.35055952   -2.7308995   -1.2727109   0.03529062   -2.7308995    1.4581885   158330 
 7126000   0.35041451     -2.73305   -1.2741654  0.034416502     -2.73305    1.4588846   158189 
 7127000   0.34988869   -2.7322663   -1.2747324  0.035475678   -2.7322663    1.4575339   158098 
 7128000   0.34950338   -2.7309986   -1.2741944  0.037674982   -2.7309986    1.4568042   158003 
 7129000   0.35084763   -2.7350727   -1.2720172   0.03956319   -2.7350727    1.4630555   157933 
 7130000   0.35023926   -2.7344469   -1.2730215  0.037164247   -2.7344469    1.4614254   157835 
 7131000   0.34949106   -2.7321491    -1.273023  0.035982533   -2.7321491    1.4591262   157746 
 7132000   0.34935106   -2.7317134    -1.271978  0.033364411   -2.7317134    1.4597354   157617 
 7133000   0.34909838   -2.7310566   -1.2711451  0.036541485   -2.7310566    1.4599115   157484 
 7134000   0.34879272   -2.7283988   -1.2687461  0.035919884   -2.7283988    1.4596528   157374 
 7135000   0.34846266   -2.7259124   -1.2666023   0.03737998   -2.7259124    1.4593101   157262 
 7136000   0.34745686   -2.7246234   -1.2689331  0.038347753   -2.7246234    1.4556904   157198 
 7137000   0.34800088   -2.7207764   -1.2625286  0.037330474   -2.7207764    1.4582479   157168 
 7138000    0.3477016   -2.7217395    -1.263716  0.033546699   -2.7217395    1.4580235   157057 
 7139000   0.34765256   -2.7234183   -1.2646159  0.036565019   -2.7234183    1.4588024   156951 
 7140000   0.34762332   -2.7222649   -1.2624132  0.035706177   -2.7222649    1.4598517   156825 
 7141000   0.34732173   -2.7205118   -1.2608749  0.035618187   -2.7205118    1.4596369   156712 
 7142000   0.34731839   -2.7199374   -1.2592519  0.037500898   -2.7199374    1.4606855   156598 
 7143000   0.34666823   -2.7195437   -1.2607356  0.031301437   -2.7195437    1.4588081   156506 
 7144000   0.34576385   -2.7155149   -1.2596195  0.035325124   -2.7155149    1.4558955   156410 
 7145000    0.3459786   -2.7162846   -1.2586461  0.032900168   -2.7162846    1.4576385   156320 
 7146000   0.34662319   -2.7161732   -1.2550712  0.039162219   -2.7161732     1.461102   156240 
 7147000   0.34604059   -2.7171926   -1.2576404  0.034566259   -2.7171926    1.4595523   156143 
 7148000   0.34624142   -2.7147629   -1.2536804  0.039060446   -2.7147629    1.4610825   156070 
 7149000   0.34706304   -2.7128085   -1.2477708  0.036351286   -2.7128085    1.4650377   156018 
 7150000   0.34553922   -2.7084538    -1.248885  0.037436705   -2.7084538    1.4595689   155915 
 7151000   0.34591885   -2.7106681    -1.248755  0.036257415   -2.7106681    1.4619131   155836 
 7152000   0.34505437   -2.7063442   -1.2470357  0.039433135   -2.7063442    1.4593085   155724 
 7153000   0.34491205   -2.7091137   -1.2493478  0.035904121   -2.7091137    1.4597659   155611 
 7154000   0.34495767    -2.708233   -1.2473728  0.033412036    -2.708233    1.4608602   155515 
 7155000   0.34565886   -2.7065213   -1.2415989   0.03487616   -2.7065213    1.4649223   155399 
 7156000   0.34423115    -2.702761   -1.2429312  0.037415426    -2.702761    1.4598298   155297 
 7157000   0.34486108   -2.7042028   -1.2406366  0.037133126   -2.7042028    1.4635662   155184 
 7158000   0.34426051    -2.701745   -1.2399551  0.035586416    -2.701745    1.4617899   155102 
 7159000   0.34334625   -2.6962709   -1.2369235  0.034927125   -2.6962709    1.4593473   154949 
 7160000   0.34304906   -2.6942965   -1.2352519  0.036077444   -2.6942965    1.4590446   154847 
 7161000   0.34290392   -2.6959269   -1.2365194  0.034973329   -2.6959269    1.4594075   154743 
 7162000   0.34205216   -2.6882142   -1.2318766  0.035336409   -2.6882142    1.4563376   154684 
 7163000   0.34337862   -2.6910312   -1.2281759  0.037375194   -2.6910312    1.4628553   154592 
 7164000   0.34326548   -2.6906618   -1.2274366  0.037701265   -2.6906618    1.4632252   154502 
 7165000   0.34186721   -2.6855881    -1.227559  0.034298906   -2.6855881    1.4580292   154421 
 7166000   0.34315407   -2.6891977   -1.2249216  0.038454975   -2.6891977    1.4642761   154341 
 7167000   0.34199462   -2.6839965   -1.2237407  0.038917006   -2.6839965    1.4602558   154243 
 7168000   0.34138335   -2.6836538   -1.2252043   0.03729178   -2.6836538    1.4584495   154158 
 7169000   0.34281798   -2.6827884   -1.2177632  0.037512423   -2.6827884    1.4650252   154111 
 7170000   0.34163512   -2.6783423   -1.2173292  0.036497742   -2.6783423    1.4610131   154001 
 7171000   0.34083523   -2.6757382   -1.2172367  0.036399464   -2.6757382    1.4585015   153905 
 7172000   0.34128131   -2.6782742   -1.2167338  0.037905757   -2.6782742    1.4615404   153786 
 7173000   0.34063008   -2.6753957   -1.2153435  0.036867273   -2.6753957    1.4600522   153649 
 7174000    0.3413954   -2.6821497   -1.2180452  0.037521165   -2.6821497    1.4641045   153568 
 7175000   0.34102786   -2.6771201   -1.2135435  0.035206508   -2.6771201    1.4635766   153458 
 7176000   0.34143134   -2.6770595   -1.2108532  0.038304501   -2.6770595    1.4662063   153364 
 7177000   0.34070796   -2.6716907   -1.2079036  0.036775294   -2.6716907    1.4637871   153292 
 7178000   0.34080342   -2.6696849   -1.2046179  0.036163719   -2.6696849     1.465067   153201 
 7179000   0.34000547    -2.668008   -1.2055504  0.035542762    -2.668008    1.4624576   153115 
 7180000   0.34023277   -2.6655612   -1.2012748  0.037051595   -2.6655612    1.4642865   153026 
 7181000   0.33915107   -2.6619003    -1.201076  0.036830323   -2.6619003    1.4608243   152901 
 7182000   0.34078405   -2.6639329   -1.1954314  0.040146418   -2.6639329    1.4685016   152834 
 7183000   0.33940409     -2.66057   -1.1971627  0.038923148     -2.66057    1.4634072   152745 
 7184000   0.34036574   -2.6591856   -1.1907668  0.038971539   -2.6591856    1.4684188   152655 
 7185000   0.33854136   -2.6612756   -1.1991281   0.03664391   -2.6612756    1.4621475   152488 
 7186000   0.33832315   -2.6574921    -1.195117  0.038624691   -2.6574921    1.4623751   152366 
 7187000   0.33691341   -2.6550162   -1.1977399  0.037214513   -2.6550162    1.4572763   152262 
 7188000   0.33783445   -2.6582383   -1.1956141   0.03548096   -2.6582383    1.4626242   152120 
 7189000   0.33754128   -2.6549982   -1.1931435  0.036728638   -2.6549982    1.4618547   152068 
 7190000   0.33785758   -2.6616277   -1.1971223  0.036754645   -2.6616277    1.4645054   151935 
 7191000   0.33661543    -2.659246   -1.1992793   0.03519992    -2.659246    1.4599667   151847 
 7192000    0.3368806   -2.6603609   -1.1979537  0.035705285   -2.6603609    1.4624073   151713 
 7193000   0.33635787   -2.6631534   -1.2019269  0.037333417   -2.6631534    1.4612264   151600 
 7194000   0.33652885   -2.6647242   -1.2014133  0.035316327   -2.6647242    1.4633109   151461 
 7195000   0.33607585   -2.6618766   -1.1997921  0.039614286   -2.6618766    1.4620845   151384 
 7196000   0.33592403   -2.6613036   -1.1989813  0.036905262   -2.6613036    1.4623223   151291 
 7197000   0.33531144   -2.6615296   -1.2005897  0.036205119   -2.6615296      1.46094   151158 
 7198000   0.33559766   -2.6615332   -1.1985235  0.035873463   -2.6615332    1.4630097   151073 
 7199000   0.33685824   -2.6626876   -1.1933558    0.0366909   -2.6626876    1.4693318   150988 
 7200000    0.3359325   -2.6612611    -1.195239   0.03716858   -2.6612611     1.466022   150913 
 7201000   0.33563944   -2.6554493   -1.1898905  0.037821434   -2.6554493    1.4655589   150829 
 7202000   0.33452093   -2.6523347   -1.1904676  0.036870496   -2.6523347    1.4618671   150706 
 7203000   0.33478493   -2.6479794   -1.1837345  0.036565025   -2.6479794     1.464245   150580 
 7204000   0.33449126    -2.648157   -1.1840978   0.03705026    -2.648157    1.4640592   150467 
 7205000   0.33447349   -2.6440007   -1.1793476  0.042102913   -2.6440007    1.4646531   150398 
 7206000   0.33436615   -2.6424878   -1.1774183  0.035771459   -2.6424878    1.4650695   150307 
 7207000   0.33367268   -2.6368128   -1.1736234  0.036358696   -2.6368128    1.4631894   150188 
 7208000   0.33422924   -2.6402397   -1.1737505   0.03815886   -2.6402397    1.4664892   150100 
 7209000   0.33335985   -2.6396612   -1.1758065  0.035116797   -2.6396612    1.4638547   149979 
 7210000   0.33411189   -2.6402601   -1.1721732  0.038443833   -2.6402601     1.468087   149884 
 7211000   0.33333207   -2.6368805   -1.1708213  0.038231634   -2.6368805    1.4660592   149741 
 7212000   0.33314838   -2.6354271   -1.1691575  0.039909683   -2.6354271    1.4662697   149637 
 7213000    0.3316609   -2.6329664   -1.1726092  0.037389121   -2.6329664    1.4603572   149572 
 7214000    0.3316054   -2.6363609   -1.1753396  0.033749496   -2.6363609    1.4610213   149479 
 7215000   0.33207141   -2.6328418   -1.1687977  0.037245815   -2.6328418    1.4640441   149380 
 7216000    0.3318296   -2.6309634   -1.1668779  0.036903076   -2.6309634    1.4640855   149267 
 7217000   0.33176545   -2.6306217   -1.1656611  0.036293565   -2.6306217    1.4649606   149149 
 7218000   0.33090761   -2.6250712   -1.1628691  0.037220278   -2.6250712    1.4622021   149044 
 7219000   0.33029188   -2.6212083   -1.1607373  0.037153303   -2.6212083     1.460471   148943 
 7220000   0.33096571   -2.6230158   -1.1587985  0.038711728   -2.6230158    1.4642173   148865 
 7221000   0.33082632   -2.6193298   -1.1546567  0.037532291   -2.6193298    1.4646731   148756 
 7222000   0.33039376   -2.6165682   -1.1528755   0.03867111   -2.6165682    1.4636927   148661 
 7223000   0.33041876   -2.6167388   -1.1516837   0.03595114   -2.6167388    1.4650551   148534 
 7224000   0.33082115   -2.6178931    -1.150125   0.03983543   -2.6178931    1.4677681   148440 
 7225000   0.32893762   -2.6114774   -1.1511905  0.038592442   -2.6114774    1.4602869   148351 
 7226000    0.3288983   -2.6120111   -1.1503124  0.039026119   -2.6120111    1.4616987   148190 
 7227000   0.32934659   -2.6113921   -1.1459606  0.040624895   -2.6113921    1.4654314   148014 
 7228000    0.3290309   -2.6106818   -1.1459029  0.037635913   -2.6106818    1.4647789   147938 
 7229000   0.32864388   -2.6097344   -1.1452133  0.039216552   -2.6097344    1.4645211   147790 
 7230000   0.32988551   -2.6090598   -1.1381498  0.035607601   -2.6090598      1.47091   147704 
 7231000   0.32778648   -2.6025234   -1.1399725   0.03758619   -2.6025234    1.4625509   147603 
 7232000   0.32746629    -2.604583   -1.1420835  0.035453888    -2.604583    1.4624995   147464 
 7233000   0.32770281   -2.6025244   -1.1381543  0.038144392   -2.6025244    1.4643701   147382 
 7234000   0.32789386   -2.6025696   -1.1362812  0.041324095   -2.6025696    1.4662884   147275 
 7235000   0.32743637   -2.6009056   -1.1355189  0.038821087   -2.6009056    1.4653868   147160 
 7236000   0.32755081   -2.5987314   -1.1320352  0.038742801   -2.5987314    1.4666963   147080 
 7237000   0.32745626   -2.5992754   -1.1318951  0.037084848   -2.5992754    1.4673803   146969 
 7238000   0.32562447   -2.5955316   -1.1353862  0.039058183   -2.5955316    1.4601455   146871 
 7239000   0.32624185   -2.5943617   -1.1306306  0.037474509   -2.5943617    1.4637311   146789 
 7240000   0.32606841   -2.5927871   -1.1284476  0.038030165   -2.5927871    1.4643395   146650 
 7241000   0.32586373   -2.5921356   -1.1276267  0.039925049   -2.5921356    1.4645089   146541 
 7242000   0.32500209   -2.5917521   -1.1302379  0.037557297   -2.5917521    1.4615141   146453 
 7243000   0.32469694   -2.5890935   -1.1275944  0.038501297   -2.5890935    1.4614991   146317 
 7244000   0.32406976   -2.5897118   -1.1295688  0.040787714   -2.5897118     1.460143   146170 
 7245000   0.32400766   -2.5867739   -1.1257012  0.037179429   -2.5867739    1.4610727   146049 
 7246000    0.3246896   -2.5882547   -1.1232141  0.041879915   -2.5882547    1.4650406   145960 
 7247000   0.32381391   -2.5810086   -1.1188474  0.039442254   -2.5810086    1.4621613   145853 
 7248000   0.32358118   -2.5793969   -1.1174045  0.036132367   -2.5793969    1.4619924   145765 
 7249000   0.32359977   -2.5807114   -1.1175609  0.038303526   -2.5807114    1.4631505   145658 
 7250000   0.32345425    -2.580029   -1.1165116  0.036255346    -2.580029    1.4635174   145556 
 7251000   0.32266164   -2.5762826   -1.1150967  0.036604006   -2.5762826    1.4611859   145431 
 7252000   0.32262489   -2.5756508   -1.1132335  0.039609971   -2.5756508    1.4624173   145292 
 7253000   0.32284793   -2.5745632   -1.1096124   0.03733479   -2.5745632    1.4649508   145141 
 7254000   0.32269453   -2.5722877   -1.1067405   0.03684354   -2.5722877    1.4655472   145013 
 7255000   0.32217434   -2.5701224   -1.1060088  0.037748946   -2.5701224    1.4641136   144921 
 7256000   0.32145392   -2.5675341   -1.1053627  0.038370498   -2.5675341    1.4621714   144789 
 7257000   0.32133472   -2.5648685   -1.1023605  0.033444381   -2.5648685     1.462508   144702 
 7258000   0.32129393   -2.5611243   -1.0983572  0.037656798   -2.5611243    1.4627671   144658 
 7259000   0.32093978   -2.5588565   -1.0967112  0.038650245   -2.5588565    1.4621453   144560 
 7260000   0.32053955   -2.5533798   -1.0921684  0.037901837   -2.5533798    1.4612115   144472 
 7261000   0.32105404   -2.5511358   -1.0863014  0.038515549   -2.5511358    1.4648344   144346 
 7262000   0.32049445    -2.550189   -1.0862649  0.038684877    -2.550189    1.4639241   144184 
 7263000    0.3210541   -2.5510096   -1.0834706  0.037703438   -2.5510096     1.467539   144080 
 7264000   0.31955711   -2.5440539   -1.0821604   0.04042254   -2.5440539    1.4618935   143962 
 7265000   0.32061506   -2.5471588   -1.0787526  0.040089176   -2.5471588    1.4684062   143798 
 7266000   0.31960186   -2.5469564   -1.0818968  0.037538753   -2.5469564    1.4650597   143671 
 7267000   0.31926428   -2.5429423   -1.0781046  0.037098653   -2.5429423    1.4648377   143541 
 7268000   0.31828613   -2.5403368   -1.0788161  0.039197527   -2.5403368    1.4615207   143426 
 7269000    0.3194514   -2.5406416   -1.0729414  0.036721263   -2.5406416    1.4677003   143345 
 7270000   0.31906529   -2.5400456   -1.0727887  0.038924788   -2.5400456     1.467257   143215 
 7271000   0.31843649   -2.5378061    -1.072653  0.040516375   -2.5378061    1.4651531   143138 
 7272000   0.31761208   -2.5351175   -1.0729608  0.038406762   -2.5351175    1.4621567   143060 
 7273000    0.3187834   -2.5406997   -1.0715179  0.039209973   -2.5406997    1.4691819   142901 
 7274000   0.31791393   -2.5381735   -1.0714489   0.03899439   -2.5381735    1.4667246   142750 
 7275000   0.31753932   -2.5356254   -1.0694377  0.038707246   -2.5356254    1.4661877   142634 
 7276000   0.31599016   -2.5291474   -1.0686792  0.039457134   -2.5291474    1.4604682   142494 
 7277000   0.31666043   -2.5293765    -1.064947  0.037444742   -2.5293765    1.4644294   142410 
 7278000   0.31541022   -2.5240585   -1.0642218  0.038270949   -2.5240585    1.4598368   142294 
 7279000    0.3164873   -2.5247784   -1.0590706  0.040418043   -2.5247784    1.4657078   142208 
 7280000   0.31770797   -2.5246414   -1.0527941  0.035595271   -2.5246414    1.4718473   142161 
 7281000   0.31541253   -2.5172091   -1.0550908  0.040637726   -2.5172091    1.4621183   142073 
 7282000   0.31560065   -2.5200438   -1.0558373  0.040625393   -2.5200438    1.4642065   141955 
 7283000   0.31525491   -2.5218802   -1.0578855  0.039949977   -2.5218802    1.4639947   141820 
 7284000   0.31479596   -2.5209738   -1.0579962  0.040410671   -2.5209738    1.4629775   141712 
 7285000   0.31478244   -2.5227244    -1.058332  0.038068553   -2.5227244    1.4643924   141569 
 7286000   0.31493982   -2.5239574   -1.0572373  0.039740065   -2.5239574    1.4667201   141415 
 7287000   0.31420681   -2.5182269   -1.0541234  0.038702282   -2.5182269    1.4641035   141338 
 7288000   0.31313077   -2.5138788   -1.0532702  0.038602645   -2.5138788    1.4606086   141191 
 7289000   0.31342267   -2.5140704   -1.0506906  0.039376458   -2.5140704    1.4633798   141055 
 7290000   0.31299673   -2.5095787   -1.0464658   0.03787616   -2.5095787    1.4631129   140889 
 7291000   0.31207565   -2.5065108   -1.0463459  0.042407066   -2.5065108     1.460165   140758 
 7292000    0.3125707   -2.5133443   -1.0494486  0.038549541   -2.5133443    1.4638957   140622 
 7293000   0.31257513   -2.5094016   -1.0447144  0.041902154   -2.5094016    1.4646872   140548 
 7294000   0.31164549    -2.505156   -1.0430877  0.039915046    -2.505156    1.4620682   140381 
 7295000   0.31249059   -2.5086544   -1.0412416   0.03854153   -2.5086544    1.4674128   140249 
 7296000   0.31112712    -2.502423   -1.0402244   0.03747573    -2.502423    1.4621986   140135 
 7297000   0.31126248   -2.5015906   -1.0370732  0.040725344   -2.5015906    1.4645174   139974 
 7298000   0.31114641   -2.4981435   -1.0323396  0.039940442   -2.4981435    1.4658039   139799 
 7299000   0.31076809   -2.4927723   -1.0277027  0.036107869   -2.4927723    1.4650696   139699 
 7300000   0.31098343   -2.4936878   -1.0271936  0.039402378   -2.4936878    1.4664942   139660 
 7301000   0.31101279   -2.4931373   -1.0255169  0.039943607   -2.4931373    1.4676204   139566 
 7302000   0.31029029   -2.4891737   -1.0240703  0.039445917   -2.4891737    1.4651034   139481 
 7303000   0.31000191   -2.4878897    -1.022814  0.041873728   -2.4878897    1.4650757   139354 
 7304000   0.30898783   -2.4834194   -1.0219617  0.036889481   -2.4834194    1.4614577   139242 
 7305000   0.30942378    -2.481453   -1.0167762  0.041652451    -2.481453    1.4646768   139132 
 7306000   0.30875718   -2.4827272   -1.0195863  0.037305627   -2.4827272    1.4631409   138978 
 7307000   0.30836214   -2.4873564   -1.0243717  0.034656212   -2.4873564    1.4629847   138815 
 7308000   0.30782107    -2.484241   -1.0219905  0.040990858    -2.484241    1.4622506   138641 
 7309000   0.30857464   -2.4838784   -1.0167995  0.036921021   -2.4838784    1.4670789   138523 
 7310000   0.30738599   -2.4797497   -1.0170761  0.038504726   -2.4797497    1.4626736   138405 
 7311000   0.30679129   -2.4782368   -1.0170945  0.037642223   -2.4782368    1.4611423   138282 
 7312000   0.30674632   -2.4753505   -1.0131006  0.039103004   -2.4753505    1.4622499   138157 
 7313000    0.3059081   -2.4725535   -1.0127567  0.037219992   -2.4725535    1.4597968   138011 
 7314000    0.3061723   -2.4691989   -1.0069017  0.039491645   -2.4691989    1.4622972   137894 
 7315000   0.30720286   -2.4664883  -0.99806571  0.037153131   -2.4664883    1.4684226   137781 
 7316000   0.30602427   -2.4620923  -0.99828339  0.039049332   -2.4620923    1.4638089   137685 
 7317000   0.30655641   -2.4616096  -0.99414686   0.03972242   -2.4616096    1.4674627   137581 
 7318000   0.30563026   -2.4599661  -0.99500952  0.038642313   -2.4599661    1.4649566   137400 
 7319000   0.30467149    -2.455392  -0.99343507  0.039085309    -2.455392     1.461957   137250 
 7320000   0.30531239   -2.4546406   -0.9881765  0.038349213   -2.4546406    1.4664641   137116 
 7321000   0.30472425   -2.4526638   -0.9872292  0.038474554   -2.4526638    1.4654346   136948 
 7322000   0.30403847   -2.4498495  -0.98681541  0.035945741   -2.4498495    1.4630341   136864 
 7323000   0.30427264   -2.4541307  -0.98903848   0.03882711   -2.4541307    1.4650922   136777 
 7324000   0.30387163   -2.4527529  -0.98817814  0.040446376   -2.4527529    1.4645747   136645 
 7325000    0.3039966   -2.4512001  -0.98537937  0.042441195   -2.4512001    1.4658207   136585 
 7326000   0.30354741   -2.4481123  -0.98305236  0.041365202   -2.4481123    1.4650599   136454 
 7327000   0.30351595   -2.4453145  -0.97884805  0.038910214   -2.4453145    1.4664664   136309 
 7328000   0.30363511   -2.4412295  -0.97297017  0.038190704   -2.4412295    1.4682593   136196 
 7329000   0.30334426   -2.4400804  -0.97198792  0.038870461   -2.4400804    1.4680925   136081 
 7330000   0.30317701   -2.4352781  -0.96644074  0.040068671   -2.4352781    1.4688374   135937 
 7331000   0.30323016    -2.432486  -0.96211482  0.040936286    -2.432486    1.4703712   135819 
 7332000   0.30179622   -2.4210336  -0.95645097  0.040935911   -2.4210336    1.4645826   135711 
 7333000   0.30144487   -2.4195625  -0.95520669  0.038896422   -2.4195625    1.4643558   135574 
 7334000   0.30224469   -2.4162929  -0.94690288  0.040280902   -2.4162929      1.46939   135468 
 7335000   0.30104743   -2.4123006  -0.94767158  0.039140369   -2.4123006     1.464629   135370 
 7336000   0.30118757   -2.4084342  -0.94193172  0.037896739   -2.4084342    1.4665025   135260 
 7337000   0.30049877   -2.4033967  -0.93907887  0.041104098   -2.4033967    1.4643179   135152 
 7338000   0.30130848   -2.4061614  -0.93681067    0.0415319   -2.4061614    1.4693507   135052 
 7339000   0.30012288     -2.40619  -0.94092842  0.038997149     -2.40619    1.4652616   134896 
 7340000    0.3000392   -2.4051504  -0.93867754  0.042865259   -2.4051504    1.4664728   134747 
 7341000   0.30043296   -2.4053964  -0.93566831   0.03877875   -2.4053964    1.4697281   134625 
 7342000   0.30108049   -2.4091258  -0.93489398  0.042407157   -2.4091258    1.4742318   134503 
 7343000   0.29926266   -2.4010953  -0.93447781  0.039551843   -2.4010953    1.4666175   134385 
 7344000   0.29963697   -2.3943838  -0.92469605  0.037904554   -2.3943838    1.4696877   134272 
 7345000   0.30036708   -2.3941635  -0.91938985  0.041264285   -2.3941635    1.4747736   134135 
 7346000   0.29971204   -2.3907166  -0.91812721   0.04144417   -2.3907166    1.4725894   134041 
 7347000   0.29898166   -2.3888436  -0.91855947  0.039916284   -2.3888436    1.4702841   133924 
 7348000   0.29849062   -2.3869169    -0.917017  0.039050042   -2.3869169    1.4698999   133739 
 7349000   0.29744987   -2.3879515  -0.92176252  0.038234228   -2.3879515     1.466189   133610 
 7350000   0.29936922   -2.3907969  -0.91373204  0.041200967   -2.3907969    1.4770649   133482 
 7351000   0.29862853   -2.3897561  -0.91488726  0.040277741   -2.3897561    1.4748689   133350 
 7352000   0.29754049   -2.3856252  -0.91483949  0.041868463   -2.3856252    1.4707857   133233 
 7353000   0.29697785   -2.3739683  -0.90502666  0.041296865   -2.3739683    1.4689417   133148 
 7354000   0.29756034   -2.3698498   -0.8968543  0.039548106   -2.3698498    1.4729955   133042 
 7355000    0.2964477   -2.3640147  -0.89473796  0.040074221   -2.3640147    1.4692767   132880 
 7356000   0.29696822   -2.3607616  -0.88809599   0.04192679   -2.3607616    1.4726656   132807 
 7357000   0.29663139   -2.3559708  -0.88326785  0.039815806   -2.3559708     1.472703   132653 
 7358000   0.29508956   -2.3543659  -0.88742681  0.042017397   -2.3543659    1.4669391   132482 
 7359000   0.29567768   -2.3592289  -0.88782227  0.041559355   -2.3592289    1.4714066   132343 
 7360000   0.29546688   -2.3583162  -0.88618997  0.038503391   -2.3583162    1.4721262   132184 
 7361000   0.29533447   -2.3516434  -0.87838249   0.04126101   -2.3516434    1.4732609   132023 
 7362000   0.29561178    -2.352481  -0.87648402  0.041610395    -2.352481     1.475997   131902 
 7363000    0.2948728   -2.3500208   -0.8760373  0.038327477   -2.3500208    1.4739835   131752 
 7364000   0.29494432   -2.3480992  -0.87252624  0.039928923   -2.3480992     1.475573   131642 
 7365000   0.29402879   -2.3439675  -0.87159905  0.040003446   -2.3439675    1.4723684   131519 
 7366000   0.29392974   -2.3415851  -0.86841339  0.041215392   -2.3415851    1.4731717   131403 
 7367000   0.29456968   -2.3403306   -0.8622642  0.042621458   -2.3403306    1.4780664   131253 
 7368000   0.29322883   -2.3352389  -0.86234068  0.040427062   -2.3352389    1.4728982   131114 
 7369000   0.29345198   -2.3349726  -0.85989598  0.041735949   -2.3349726    1.4750766   131020 
 7370000   0.29241374   -2.3312084  -0.85942973  0.040710968   -2.3312084    1.4717787   130849 
 7371000   0.29313358   -2.3331615   -0.8566652  0.040301326   -2.3331615    1.4764963   130752 
 7372000   0.29281089   -2.3320363  -0.85578798  0.043160037   -2.3320363    1.4762484   130630 
 7373000   0.29204646   -2.3258321  -0.85189191   0.04052051   -2.3258321    1.4739402   130493 
 7374000   0.29147767   -2.3271091  -0.85478718    0.0404331   -2.3271091    1.4723219   130382 
 7375000   0.29115517   -2.3254505    -0.853301  0.040296151   -2.3254505    1.4721495   130253 
 7376000   0.29133611   -2.3246904  -0.85014303  0.038424393   -2.3246904    1.4745474   130122 
 7377000     0.290903   -2.3196646  -0.84570084  0.039816063   -2.3196646    1.4739637   129980 
 7378000   0.29124081   -2.3151239  -0.83813037  0.041160595   -2.3151239    1.4769935   129864 
 7379000   0.29007806   -2.3086713  -0.83648625  0.040955382   -2.3086713    1.4721851   129768 
 7380000    0.2906093   -2.3040251  -0.82825689  0.042923579   -2.3040251    1.4757682   129690 
 7381000   0.28927887   -2.2994651   -0.8287293  0.041973907   -2.2994651    1.4707358   129538 
 7382000   0.28900781   -2.2999401  -0.82864014  0.042743058   -2.2999401    1.4712999   129367 
 7383000   0.28779214   -2.2970448  -0.82958562  0.042102181   -2.2970448    1.4674592   129160 
 7384000   0.28882775   -2.2994376  -0.82467685  0.041111721   -2.2994376    1.4747608   128983 
 7385000   0.28858075   -2.2947275  -0.81958107  0.043970134   -2.2947275    1.4751465   128839 
 7386000   0.28819304   -2.2871081  -0.81286793   0.04358135   -2.2871081    1.4742402   128745 
 7387000   0.28807209   -2.2910893    -0.816093   0.03988438   -2.2910893    1.4749963   128625 
 7388000   0.28610048   -2.2872831  -0.82071729  0.041486957   -2.2872831    1.4665659   128479 
 7389000   0.28644944   -2.2881801  -0.81801749  0.039851322   -2.2881801    1.4701626   128321 
 7390000   0.28640226   -2.2860236  -0.81464691  0.039748248   -2.2860236    1.4713767   128194 
 7391000   0.28722125   -2.2832198  -0.80598776  0.043095803   -2.2832198    1.4772321   128051 
 7392000   0.28594002   -2.2799889  -0.80817398  0.045342635   -2.2799889    1.4718149   127949 
 7393000   0.28551154   -2.2796585  -0.80873865  0.040594368   -2.2796585    1.4709199   127835 
 7394000   0.28613692   -2.2783128  -0.80260112  0.043400393   -2.2783128    1.4757117   127699 
 7395000   0.28539782   -2.2778826  -0.80454043  0.042125763   -2.2778826    1.4733422   127574 
 7396000   0.28581566   -2.2790815  -0.80242485  0.041811931   -2.2790815    1.4766567   127474 
 7397000   0.28519235   -2.2726551   -0.7972975  0.041473568   -2.2726551    1.4753576   127308 
 7398000   0.28424284   -2.2686006  -0.79673294  0.044737448   -2.2686006    1.4718677   127185 
 7399000   0.28453237   -2.2699096  -0.79498878  0.044063404   -2.2699096    1.4749209   127051 
 7400000   0.28464982    -2.269394  -0.79217843  0.043657612    -2.269394    1.4772156   126906 
 7401000    0.2839155   -2.2639398  -0.78883796  0.043896853   -2.2639398    1.4751019   126760 
 7402000   0.28328287   -2.2617778  -0.78810269  0.041622815   -2.2617778    1.4736751   126600 
 7403000   0.28284246   -2.2583291  -0.78570043  0.043441831   -2.2583291    1.4726286   126493 
 7404000   0.28266714   -2.2609866   -0.7877917  0.040551483   -2.2609866    1.4731949   126366 
 7405000   0.28389054   -2.2614132  -0.78033023  0.042473041   -2.2614132     1.481083   126237 
 7406000   0.28301299   -2.2562465  -0.77807909  0.042156251   -2.2562465    1.4781674   126095 
 7407000   0.28222857   -2.2462592  -0.77122951  0.045830803   -2.2462592    1.4750297   126013 
 7408000   0.28239708   -2.2452626  -0.76774597  0.045936327   -2.2452626    1.4775167   125876 
 7409000   0.28144908   -2.2385662  -0.76395933  0.044071573   -2.2385662    1.4746068   125701 
 7410000   0.28067282   -2.2312769  -0.75920303  0.042359877   -2.2312769    1.4720738   125570 
 7411000   0.28152001   -2.2345779  -0.75625951  0.041570999   -2.2345779    1.4783184   125417 
 7412000   0.28046145   -2.2260079  -0.75137865  0.042493314   -2.2260079    1.4746292   125258 
 7413000   0.27999959   -2.2227484  -0.74882956  0.041405088   -2.2227484    1.4739188   125112 
 7414000   0.28000221   -2.2180899  -0.74221085  0.043004972   -2.2180899     1.475879   124947 
 7415000   0.27939397   -2.2153452  -0.74104387  0.044347643   -2.2153452    1.4743013   124809 
 7416000   0.27972677   -2.2129324  -0.73573874  0.044459241   -2.2129324    1.4771936   124713 
 7417000   0.28095061   -2.2149251  -0.72935071  0.045076128   -2.2149251    1.4855744   124552 
 7418000   0.27996706   -2.2065744  -0.72466591  0.043998442   -2.2065744    1.4819085   124423 
 7419000   0.27891375   -2.2019143  -0.72392992  0.043301046   -2.2019143    1.4779844   124284 
 7420000   0.27795849   -2.1962904  -0.72156444  0.041224124   -2.1962904    1.4747259   124132 
 7421000   0.27735692    -2.193185  -0.71994166  0.040138805    -2.193185    1.4732434   123988 
 7422000   0.27685199   -2.1918074  -0.72008291  0.043175256   -2.1918074    1.4717245   123890 
 7423000    0.2781203   -2.1949399  -0.71495602  0.043498072   -2.1949399    1.4799839   123763 
 7424000   0.27683776   -2.1884474   -0.7132262  0.044579227   -2.1884474    1.4752212   123590 
 7425000   0.27597457   -2.1812303  -0.70921544  0.043853942   -2.1812303    1.4720149   123473 
 7426000   0.27723212   -2.1801239  -0.69997494  0.045147078   -2.1801239     1.480149   123354 
 7427000   0.27659211   -2.1758545  -0.69760055  0.042091843   -2.1758545    1.4782539   123227 
 7428000   0.27741225   -2.1801563  -0.69633911   0.04379876   -2.1801563    1.4838172   123129 
 7429000   0.27603749   -2.1720665  -0.69431832  0.043465975   -2.1720665    1.4777481   123022 
 7430000    0.2759816   -2.1654625  -0.68611366  0.042864808   -2.1654625    1.4793489   122864 
 7431000   0.27681806    -2.163825  -0.67836026  0.044014412    -2.163825    1.4854647   122729 
 7432000    0.2750374   -2.1572953  -0.67956774  0.042862275   -2.1572953    1.4777275   122578 
 7433000   0.27473311   -2.1529595  -0.67557732  0.043803122   -2.1529595    1.4773822   122471 
 7434000   0.27509356   -2.1530798  -0.67235675   0.04353615   -2.1530798    1.4807231   122355 
 7435000    0.2737825   -2.1493889   -0.6740468   0.04212398   -2.1493889    1.4753421   122216 
 7436000   0.27390637   -2.1465748  -0.66835178  0.043357298   -2.1465748    1.4782231   122033 
 7437000   0.27336462   -2.1447957  -0.66797157  0.042915788   -2.1447957    1.4768242   121907 
 7438000   0.27221545   -2.1398422  -0.66749923  0.044059265   -2.1398422     1.472343   121764 
 7439000   0.27258118   -2.1360006  -0.66022504  0.044606238   -2.1360006    1.4757756   121644 
 7440000   0.27287777   -2.1368261  -0.65803465  0.042973418   -2.1368261    1.4787915   121528 
 7441000   0.27199701   -2.1385448  -0.66271696  0.043091674   -2.1385448    1.4758278   121379 
 7442000   0.27295043   -2.1384937  -0.65580699  0.045253308   -2.1384937    1.4826867   121241 
 7443000   0.27180839   -2.1346537  -0.65653691  0.043898328   -2.1346537    1.4781167   121107 
 7444000   0.26989307   -2.1251215  -0.65573387  0.044577922   -2.1251215    1.4693876   120968 
 7445000   0.27072892   -2.1267257  -0.65096974  0.042131072   -2.1267257    1.4757559   120819 
 7446000   0.26955887   -2.1167818  -0.64646677  0.045469859   -2.1167818     1.470315   120742 
 7447000   0.27001578   -2.1180683  -0.64386914  0.041981407   -2.1180683    1.4741991   120628 
 7448000    0.2706457   -2.1238923   -0.6442915  0.043421101   -2.1238923    1.4796008   120468 
 7449000   0.27031223   -2.1174615  -0.63766921  0.044752601   -2.1174615    1.4797923   120304 
 7450000   0.26867516   -2.1108789  -0.63886173  0.043845491   -2.1108789    1.4720172   120207 
 7451000   0.26816625   -2.1063356  -0.63497677  0.041857981   -2.1063356    1.4713588   120033 
 7452000   0.26854918   -2.1036968  -0.62845485   0.04303569   -2.1036968    1.4752419   119888 
 7453000   0.26768925   -2.0973994  -0.62530973  0.043811294   -2.0973994    1.4720897   119760 
 7454000   0.26842023   -2.1016064  -0.62371986  0.044347281   -2.1016064    1.4778866   119616 
 7455000   0.26819433   -2.0988723  -0.62048689  0.045739528   -2.0988723    1.4783855   119475 
 7456000   0.26795064   -2.0989913  -0.62011724  0.043966203   -2.0989913    1.4788741   119327 
 7457000   0.26699888   -2.0918873   -0.6161761  0.043809476   -2.0918873    1.4757112   119158 
 7458000   0.26693708   -2.0901122  -0.61242357  0.042671536   -2.0901122    1.4776886   118971 
 7459000    0.2658769   -2.0877629  -0.61394868  0.042190859   -2.0877629    1.4738142   118810 
 7460000   0.26643607   -2.0859387  -0.60680887  0.044158807   -2.0859387    1.4791298   118632 
 7461000   0.26633855   -2.0826897  -0.60226688  0.045219633   -2.0826897    1.4804229   118485 
 7462000   0.26530139   -2.0787909  -0.60173952  0.045790278   -2.0787909    1.4770514   118293 
 7463000   0.26506387   -2.0737346  -0.59643199  0.045197896   -2.0737346    1.4773026   118167 
 7464000   0.26306774   -2.0672706  -0.59937894  0.045742929   -2.0672706    1.4678916   118029 
 7465000   0.26413335    -2.075035  -0.59902141   0.04242063    -2.075035    1.4760136   117855 
 7466000   0.26270427   -2.0682586  -0.59878454  0.044071023   -2.0682586    1.4694741   117739 
 7467000   0.26383343   -2.0684266  -0.59089207  0.044482663   -2.0684266    1.4775345   117600 
 7468000   0.26416764    -2.068514  -0.58725627   0.04310725    -2.068514    1.4812578   117453 
 7469000   0.26307862   -2.0575981  -0.58084998  0.045715054   -2.0575981    1.4767481   117326 
 7470000   0.26225306   -2.0554833  -0.58139677  0.045644327   -2.0554833    1.4740865   117169 
 7471000   0.26247122   -2.0528957   -0.5755024  0.044795141   -2.0528957    1.4773933   117004 
 7472000   0.26154479   -2.0501585  -0.57616587  0.044204699   -2.0501585    1.4739927   116860 
 7473000   0.26099438   -2.0442188  -0.57108423  0.043775858   -2.0442188    1.4731345   116682 
 7474000   0.26131723   -2.0434161  -0.56651003  0.045254473   -2.0434161    1.4769061   116528 
 7475000   0.26040579   -2.0434449  -0.56955244  0.043876045   -2.0434449    1.4738924   116359 
 7476000   0.26010663    -2.043386  -0.56941342  0.043638089    -2.043386    1.4739726   116219 
 7477000   0.25964344    -2.040268  -0.56718362  0.044303188    -2.040268    1.4730843   116082 
 7478000   0.25904378   -2.0394924  -0.56825133  0.042885933   -2.0394924    1.4712411   115959 
 7479000   0.25861903   -2.0306346  -0.55934445  0.044636176   -2.0306346    1.4712902   115765 
 7480000   0.25936724   -2.0282969  -0.55124461  0.045888971   -2.0282969    1.4770523   115647 
 7481000   0.25871866   -2.0213067  -0.54600893  0.044867558   -2.0213067    1.4752978   115495 
 7482000   0.25902969   -2.0205391  -0.54144426  0.044052185   -2.0205391    1.4790948   115337 
 7483000   0.25850651   -2.0176291  -0.54025361  0.042956301   -2.0176291    1.4773755   115238 
 7484000   0.25861139   -2.0151781  -0.53509681  0.042909764   -2.0151781    1.4800813   115074 
 7485000   0.25758619   -2.0083661  -0.53144416  0.045491865   -2.0083661     1.476922   114863 
 7486000   0.25764975   -2.0123098  -0.53332371  0.046716784   -2.0123098    1.4789861   114731 
 7487000   0.25700083    -2.005573  -0.52840649  0.047148447    -2.005573    1.4771665   114583 
 7488000   0.25758836   -2.0037588  -0.52067834  0.048246801   -2.0037588    1.4830804   114387 
 7489000   0.25680841   -1.9981972  -0.51773073   0.04449486   -1.9981972    1.4804665   114242 
 7490000    0.2562471   -1.9881957  -0.50974864  0.044918067   -1.9881957    1.4784471   114148 
 7491000   0.25581503   -1.9835942  -0.50551647  0.044799197   -1.9835942    1.4780778   113984 
 7492000   0.25493021   -1.9791041   -0.5040164   0.04533625   -1.9791041    1.4750877   113820 
 7493000   0.25448951   -1.9747257  -0.50011513  0.047079527   -1.9747257    1.4746106   113660 
 7494000   0.25396515    -1.971659  -0.49824591  0.044445277    -1.971659    1.4734131   113518 
 7495000   0.25409488   -1.9686857  -0.49226992  0.046324619   -1.9686857    1.4764158   113345 
 7496000   0.25423661   -1.9680153  -0.48917122  0.044535456   -1.9680153    1.4788441   113222 
 7497000    0.2542219   -1.9649641  -0.48440104  0.045232335   -1.9649641    1.4805631   113084 
 7498000   0.25276305   -1.9567166  -0.48244644  0.044224258   -1.9567166    1.4742702   112915 
 7499000   0.25293978   -1.9617663  -0.48437182  0.046004061   -1.9617663    1.4773944   112755 
 7500000   0.25228739   -1.9573917  -0.48204137  0.044676803   -1.9573917    1.4753503   112620 
 7501000   0.25260312   -1.9519593   -0.4724636  0.044374229   -1.9519593    1.4794957   112445 
 7502000   0.25141728   -1.9466036  -0.47241459  0.043204209   -1.9466036     1.474189   112320 
 7503000   0.25109512   -1.9438535  -0.46988694  0.044407017   -1.9438535    1.4739666   112193 
 7504000   0.25131603   -1.9450685  -0.46767187   0.04407919   -1.9450685    1.4773967   112031 
 7505000   0.25112321   -1.9380748  -0.46005699   0.04503886   -1.9380748    1.4780178   111898 
 7506000   0.25051369   -1.9376149   -0.4609411  0.045201896   -1.9376149    1.4766738   111728 
 7507000   0.25035515   -1.9364647  -0.45851637  0.046274787   -1.9364647    1.4779484   111561 
 7508000   0.24991563   -1.9326488  -0.45557387  0.043677652   -1.9326488    1.4770749   111431 
 7509000    0.2488982   -1.9249548  -0.45198972  0.046171784   -1.9249548    1.4729651   111287 
 7510000    0.2496621   -1.9277508  -0.44855042  0.044983586   -1.9277508    1.4792004   111158 
 7511000   0.25012752   -1.9235053  -0.44049333  0.045971129   -1.9235053     1.483012   111079 
 7512000   0.24903435   -1.9130918  -0.43452469  0.046148428   -1.9130918    1.4785671   110926 
 7513000   0.24868705   -1.9130433  -0.43448547  0.046601188   -1.9130433    1.4785578   110772 
 7514000   0.24861842   -1.9074137  -0.42774119  0.044215199   -1.9074137    1.4796726   110658 
 7515000   0.24831563   -1.9045412  -0.42457094   0.04650408   -1.9045412    1.4799702   110501 
 7516000   0.24799107   -1.9041293  -0.42390996  0.046276363   -1.9041293    1.4802193   110338 
 7517000   0.24747102   -1.9056754  -0.42642857  0.044723896   -1.9056754    1.4792468   110179 
 7518000   0.24703445   -1.9011831  -0.42261339   0.04426117   -1.9011831    1.4785697   110035 
 7519000   0.24693116   -1.8985693    -0.418735  0.044797433   -1.8985693    1.4798343   109895 
 7520000   0.24580474   -1.8964864  -0.42159074  0.044736542   -1.8964864    1.4748956   109760 
 7521000   0.24557694   -1.8897545    -0.414115  0.047801514   -1.8897545    1.4756395   109603 
 7522000   0.24577412   -1.8861777  -0.40715378  0.045300785   -1.8861777    1.4790239   109440 
 7523000   0.24484762   -1.8829392  -0.40707686  0.046040109   -1.8829392    1.4758623   109261 
 7524000   0.24364659   -1.8807728  -0.41048124  0.043863015   -1.8807728    1.4702915   109137 
 7525000    0.2438812   -1.8751824  -0.40178752  0.045270312   -1.8751824    1.4733949   109012 
 7526000   0.24418997   -1.8750144  -0.39780276  0.045350465   -1.8750144    1.4772116   108868 
 7527000    0.2439638   -1.8725313  -0.39447493   0.04558444   -1.8725313    1.4780564   108705 
 7528000    0.2428016   -1.8682089  -0.39574435   0.04633705   -1.8682089    1.4724646   108598 
 7529000    0.2428778   -1.8637477  -0.38885173  0.044230546   -1.8637477    1.4748959   108453 
 7530000   0.24238541   -1.8618059  -0.38746666  0.047500626   -1.8618059    1.4743393   108274 
 7531000   0.24320164   -1.8664402  -0.38535794  0.047116673   -1.8664402    1.4810823   108144 
 7532000   0.24260463   -1.8602717   -0.3810059  0.046567988   -1.8602717    1.4792658   108011 
 7533000   0.24214978   -1.8565906  -0.37805853   0.04739568   -1.8565906     1.478532   107862 
 7534000   0.24164236   -1.8552432  -0.37695866  0.047371463   -1.8552432    1.4782845   107654 
 7535000   0.24101049   -1.8441181  -0.36718853  0.047974055   -1.8441181    1.4769296   107471 
 7536000   0.24094512   -1.8377454  -0.35915268  0.046748611   -1.8377454    1.4785927   107321 
 7537000   0.24163947    -1.837221  -0.35258283  0.046731346    -1.837221    1.4846382   107192 
 7538000   0.23966059   -1.8328764  -0.35791965  0.044009574   -1.8328764    1.4749567   107012 
 7539000   0.23911529   -1.8292808  -0.35560065  0.046701115   -1.8292808    1.4736802   106861 
 7540000   0.23986891   -1.8296433  -0.34910174  0.047657605   -1.8296433    1.4805416   106701 
 7541000   0.23859384   -1.8183255  -0.34400975  0.043988036   -1.8183255    1.4743157   106582 
 7542000    0.2395326   -1.8196593  -0.33760998  0.047084641   -1.8196593    1.4820493   106443 
 7543000   0.23856215   -1.8130488  -0.33553262  0.047222377   -1.8130488    1.4775162   106337 
 7544000   0.23822067   -1.8129928  -0.33586899  0.043988225   -1.8129928    1.4771238   106213 
 7545000   0.23840373   -1.8139399  -0.33424606  0.047682407   -1.8139399    1.4796938   106110 
 7546000   0.23822501   -1.8137117  -0.33314581  0.044781649   -1.8137117    1.4805659   105968 
 7547000   0.23678041   -1.7998568  -0.32572331  0.045103218   -1.7998568    1.4741335   105785 
 7548000   0.23787936   -1.8006017  -0.31728483  0.045661757   -1.8006017    1.4833169   105618 
 7549000   0.23636055   -1.7915323  -0.31596766  0.044411253   -1.7915323    1.4755646   105495 
 7550000   0.23668333   -1.7905177  -0.31069362  0.045043669   -1.7905177    1.4798241   105335 
 7551000   0.23554606   -1.7867292  -0.31155086  0.045025384   -1.7867292    1.4751784   105159 
 7552000   0.23440803   -1.7748815   -0.3046774   0.04662386   -1.7748815    1.4702041   105005 
 7553000   0.23525909   -1.7814266  -0.30354824   0.04487714   -1.7814266    1.4778783   104839 
 7554000   0.23535051   -1.7775167  -0.29677603  0.045427676   -1.7775167    1.4807407   104677 
 7555000   0.23474276   -1.7735484  -0.29444128  0.045586989   -1.7735484    1.4791071   104522 
 7556000   0.23332918    -1.768424  -0.29642113  0.044823276    -1.768424    1.4720028   104394 
 7557000   0.23361855   -1.7722715     -0.29611  0.044970817   -1.7722715    1.4761616   104229 
 7558000   0.23287646   -1.7701859  -0.29629529  0.046086576   -1.7701859    1.4738906   104058 
 7559000   0.23228132   -1.7627462  -0.29103826  0.044621002   -1.7627462     1.471708   103946 
 7560000   0.23215779   -1.7578476   -0.2850237  0.045294741   -1.7578476    1.4728239   103812 
 7561000   0.23169457   -1.7518667   -0.2799397  0.047314255   -1.7518667     1.471927   103668 
 7562000   0.23156146   -1.7577155  -0.28371941  0.047334859   -1.7577155    1.4739961   103463 
 7563000   0.23050555   -1.7539401  -0.28466295  0.044299124   -1.7539401    1.4692771   103322 
 7564000   0.23052421   -1.7507295   -0.2796819  0.045889354   -1.7507295    1.4710476   103206 
 7565000   0.23071299   -1.7518887  -0.27782253  0.045020503   -1.7518887    1.4740662   103079 
 7566000   0.23048198   -1.7450865  -0.27056516  0.045615179   -1.7450865    1.4745214   102944 
 7567000   0.23097662   -1.7456133   -0.2654544  0.044958193   -1.7456133    1.4801589   102772 
 7568000   0.22994103   -1.7351944  -0.25930231  0.046045941   -1.7351944    1.4758921   102607 
 7569000   0.22941325   -1.7333465  -0.25829749  0.044612211   -1.7333465     1.475049   102430 
 7570000   0.22869088   -1.7262977  -0.25360728  0.046199541   -1.7262977    1.4726905   102271 
 7571000   0.22812957    -1.722101   -0.2503629  0.043938008    -1.722101    1.4717381   102086 
 7572000   0.22751286   -1.7161591  -0.24642724  0.047231755   -1.7161591    1.4697319   101949 
 7573000    0.2276877   -1.7212434  -0.24838836  0.045447242   -1.7212434     1.472855   101811 
 7574000   0.22718996   -1.7203848  -0.24871139  0.045167967   -1.7203848    1.4716734   101670 
 7575000   0.22723877   -1.7214116  -0.24782775   0.04471157   -1.7214116    1.4735839   101560 
 7576000   0.22678806   -1.7182871  -0.24529084  0.046362799   -1.7182871    1.4729962   101399 
 7577000   0.22660411    -1.710866  -0.23638885  0.047663864    -1.710866    1.4744771   101215 
 7578000   0.22611354   -1.7077812  -0.23434163  0.044950749   -1.7077812    1.4734396   101067 
 7579000   0.22612698   -1.7056293  -0.23007284  0.045719675   -1.7056293    1.4755565   100928 
 7580000   0.22526402   -1.6971974  -0.22540545  0.044656701   -1.6971974    1.4717919   100800 
 7581000   0.22415134   -1.6950106  -0.22754767   0.04500598   -1.6950106    1.4674629   100598 
 7582000   0.22447718   -1.6945317   -0.2228876  0.048080006   -1.6945317    1.4716441   100458 
 7583000    0.2241757   -1.6888996  -0.21719561  0.044454833   -1.6888996     1.471704   100319 
 7584000   0.22413563   -1.6838453  -0.21090672   0.04558588   -1.6838453    1.4729385   100217 
 7585000   0.22283879   -1.6727605  -0.20559203  0.045887457   -1.6727605    1.4671685   100029 
 7586000   0.22361174   -1.6773469  -0.20333578  0.045236441   -1.6773469    1.4740112    99910 
 7587000   0.22343863   -1.6714369  -0.19726843  0.045608576   -1.6714369    1.4741685    99822 
 7588000   0.22208579   -1.6647389   -0.1970258  0.046959337   -1.6647389    1.4677131    99654 
 7589000   0.22273017   -1.6632601  -0.18895089  0.046602307   -1.6632601    1.4743092    99496 
 7590000   0.22161819   -1.6588418  -0.18984093   0.04476078   -1.6588418    1.4690009    99357 
 7591000   0.22085325   -1.6576034  -0.19079416  0.042866014   -1.6576034    1.4668093    99162 
 7592000   0.22118517    -1.656851  -0.18558206  0.046230058    -1.656851     1.471269    99010 
 7593000   0.21983696    -1.651961  -0.18751532  0.046200854    -1.651961    1.4644457    98865 
 7594000   0.22004811    -1.648229   -0.1803426  0.044043448    -1.648229    1.4678864    98728 
 7595000   0.22027031   -1.6492026  -0.17747874  0.047843099   -1.6492026    1.4717239    98570 
 7596000   0.22044827   -1.6497644  -0.17463669  0.046553699   -1.6497644    1.4751278    98422 
 7597000   0.21841351   -1.6371115  -0.17277242  0.045843572   -1.6371115    1.4643391    98232 
 7598000   0.21942301   -1.6353559  -0.16241942  0.044671628   -1.6353559    1.4729365    98110 
 7599000   0.21808365   -1.6286686  -0.16173255  0.044916731   -1.6286686    1.4669361    97910 
 7600000    0.2187522    -1.634828  -0.16103173  0.045993948    -1.634828    1.4737963    97753 
 7601000   0.21768134   -1.6273832  -0.15817133   0.04474709   -1.6273832    1.4692118    97578 
 7602000   0.21703879   -1.6271273  -0.15998186   0.04690928   -1.6271273    1.4671454    97427 
 7603000   0.21623572   -1.6223001  -0.15834444   0.04665877   -1.6223001    1.4639557    97278 
 7604000   0.21626248   -1.6204383  -0.15397991  0.045196074   -1.6204383    1.4664584    97124 
 7605000   0.21680869   -1.6226307  -0.14987547  0.045003057   -1.6226307    1.4727552    96953 
 7606000   0.21604312   -1.6181173  -0.14708799  0.045681569   -1.6181173    1.4710293    96724 
 7607000   0.21536359    -1.613625  -0.14450378  0.046862247    -1.613625    1.4691212    96545 
 7608000   0.21579546   -1.6091515   -0.1352981  0.045294906   -1.6091515    1.4738534    96428 
 7609000    0.2156007   -1.6061302  -0.13073045  0.045456517   -1.6061302    1.4753997    96240 
 7610000   0.21494335   -1.5963765  -0.12362352  0.044170158   -1.5963765     1.472753    96119 
 7611000    0.2137327   -1.5911607  -0.12394005  0.045149774   -1.5911607    1.4672207    95938 
 7612000   0.21319053   -1.5855321   -0.1193129  0.043931762   -1.5855321    1.4662192    95760 
 7613000   0.21297354    -1.577401  -0.11034554  0.045354408    -1.577401    1.4670555    95608 
 7614000   0.21245952   -1.5724152  -0.10650868  0.045189075   -1.5724152    1.4659066    95452 
 7615000   0.21276953   -1.5751667  -0.10481045  0.044413005   -1.5751667    1.4703562    95302 
 7616000   0.21141309   -1.5658426  -0.10294137  0.046086717   -1.5658426    1.4629012    95177 
 7617000    0.2125796   -1.5684227 -0.095685691  0.044826177   -1.5684227     1.472737    95063 
 7618000   0.21199081   -1.5669657 -0.095661158     0.045881   -1.5669657    1.4713045    94892 
 7619000   0.21137626   -1.5533581 -0.084430203  0.045708695   -1.5533581    1.4689279    94770 
 7620000   0.21100812    -1.553636 -0.084491614  0.046199477    -1.553636    1.4691444    94591 
 7621000   0.21040307   -1.5479599 -0.080918844  0.046962264   -1.5479599     1.467041    94455 
 7622000   0.21080206   -1.5518615 -0.079622579  0.044104994   -1.5518615    1.4722389    94300 
 7623000   0.21035841   -1.5453036  -0.07436926  0.045922609   -1.5453036    1.4709343    94185 
 7624000   0.20969615   -1.5373031 -0.068894965   0.04509921   -1.5373031    1.4684081    94050 
 7625000   0.20920733   -1.5332824 -0.066238247   0.04532751   -1.5332824    1.4670442    93918 
 7626000   0.20893419    -1.526496 -0.059946279  0.043755063    -1.526496    1.4665498    93827 
 7627000   0.20848556   -1.5257452 -0.060282763  0.046913507   -1.5257452    1.4654625    93695 
 7628000   0.20884071   -1.5234801 -0.052915856  0.045242717   -1.5234801    1.4705642    93529 
 7629000   0.20840739   -1.5189831 -0.048908105  0.046901259   -1.5189831     1.470075    93366 
 7630000   0.20812907   -1.5121944 -0.041783232  0.045852191   -1.5121944    1.4704111    93220 
 7631000   0.20808857     -1.51253 -0.039972345  0.044821675     -1.51253    1.4725576    93066 
 7632000   0.20768218   -1.5044086 -0.032243268  0.045811683   -1.5044086    1.4721653    92909 
 7633000   0.20628065    -1.492821 -0.028304875  0.046439583    -1.492821    1.4645161    92764 
 7634000   0.20648438   -1.4917191 -0.023715175  0.044636743   -1.4917191     1.468004    92635 
 7635000   0.20704974   -1.4892991 -0.015063614   0.04622002   -1.4892991    1.4742355    92496 
 7636000   0.20614993   -1.4775877 -0.007549816  0.044848225   -1.4775877    1.4700378    92357 
 7637000   0.20597457   -1.4716115 -0.00029113073  0.044922252   -1.4716115    1.4713204    92198 
 7638000   0.20494254   -1.4632697 0.0032395165   0.04701948   -1.4632697    1.4665092    92037 
 7639000   0.20493669   -1.4628108 0.0063223231   0.04538377   -1.4628108    1.4691331    91870 
 7640000   0.20503927   -1.4530295  0.019306987  0.045521327   -1.4530295    1.4723365    91716 
 7641000   0.20434025   -1.4495345   0.02004174  0.045308518   -1.4495345    1.4695763    91575 
 7642000   0.20384302   -1.4403411  0.028851843  0.045501201   -1.4403411     1.469193    91376 
 7643000   0.20338494   -1.4379186  0.030560137  0.044739647   -1.4379186    1.4684788    91215 
 7644000   0.20275045    -1.439263  0.027110364  0.046008103    -1.439263    1.4663733    91061 
 7645000   0.20284941   -1.4352979  0.033420066  0.045049714   -1.4352979     1.468718    90960 
 7646000   0.20260892   -1.4369196  0.033160267  0.046512924   -1.4369196    1.4700798    90768 
 7647000    0.2022857   -1.4363696  0.033891978  0.045788883   -1.4363696    1.4702616    90612 
 7648000   0.20234278   -1.4326134  0.040973998  0.046004403   -1.4326134    1.4735874    90433 
 7649000   0.20147475   -1.4254933  0.044536041  0.045775083   -1.4254933    1.4700293    90263 
 7650000    0.2007863   -1.4163745  0.051005058  0.045533577   -1.4163745    1.4673796    90117 
 7651000   0.20061249   -1.4181146  0.050145515  0.046103656   -1.4181146    1.4682601    89985 
 7652000   0.20059165   -1.4144897   0.05561102  0.045927284   -1.4144897    1.4701007    89863 
 7653000   0.19997954   -1.4107246  0.057471491  0.045749347   -1.4107246    1.4681961    89705 
 7654000   0.20013021   -1.4113343  0.059738989  0.046937122   -1.4113343    1.4710733    89597 
 7655000   0.19915508   -1.4095001  0.056745595  0.046318697   -1.4095001    1.4662457    89454 
 7656000   0.19912191   -1.4111563  0.056847335  0.044110449   -1.4111563    1.4680036    89332 
 7657000   0.19853651   -1.4032777  0.063661464  0.044900271   -1.4032777    1.4669392    89134 
 7658000   0.19877269   -1.4035649  0.067545589  0.046645672   -1.4035649    1.4711105    88987 
 7659000   0.19821352   -1.3954146  0.074232926  0.044852421   -1.3954146    1.4696476    88825 
 7660000   0.19721395   -1.3889557  0.075374239  0.046162447   -1.3889557      1.46433    88698 
 7661000   0.19735138   -1.3890031  0.079227509  0.045259057   -1.3890031    1.4682306    88524 
 7662000   0.19728476    -1.389545  0.080731125  0.045453977    -1.389545    1.4702761    88371 
 7663000   0.19727715   -1.3823758  0.090376776  0.045127832   -1.3823758    1.4727525    88219 
 7664000   0.19660388   -1.3711294   0.09901331  0.044855691   -1.3711294    1.4701427    88074 
 7665000   0.19660734   -1.3686776   0.10351351  0.047615482   -1.3686776    1.4721911    87953 
 7666000   0.19711278    -1.371868   0.10614121  0.045808246    -1.371868    1.4780092    87832 
 7667000    0.1961514   -1.3650057   0.10842864  0.046071752   -1.3650057    1.4734343    87675 
 7668000   0.19551843   -1.3592584   0.11195501  0.045785284   -1.3592584    1.4712134    87524 
 7669000   0.19522352   -1.3570005   0.11525704  0.046922165   -1.3570005    1.4722576    87330 
 7670000   0.19409742   -1.3483876   0.11813174  0.046003592   -1.3483876    1.4665193    87166 
 7671000    0.1946334   -1.3552092   0.11858914  0.046551178   -1.3552092    1.4737983    86975 
 7672000   0.19398895   -1.3473588   0.12450421  0.046062013   -1.3473588     1.471863    86801 
 7673000   0.19321354   -1.3414223   0.12719683  0.045517841   -1.3414223    1.4686192    86645 
 7674000   0.19260571   -1.3431559   0.12319551  0.045091647   -1.3431559    1.4663514    86506 
 7675000   0.19330395   -1.3435522    0.1305348  0.045398222   -1.3435522     1.474087    86364 
 7676000   0.19210055   -1.3377867   0.13020007  0.046230869   -1.3377867    1.4679868    86183 
 7677000   0.19142902   -1.3350952   0.13083857  0.045925624   -1.3350952    1.4659338    86002 
 7678000   0.19142984   -1.3279382   0.14032373  0.046277655   -1.3279382    1.4682619    85866 
 7679000   0.19146109   -1.3263219   0.14492117  0.044929815   -1.3263219    1.4712431    85706 
 7680000   0.19099542   -1.3201578   0.14983955  0.044756131   -1.3201578    1.4699973    85570 
 7681000   0.19064781   -1.3131215    0.1575002  0.044215721   -1.3131215    1.4706217    85378 
 7682000   0.19045064   -1.3125981   0.16003863  0.046256967   -1.3125981    1.4726367    85173 
 7683000   0.19016025   -1.3106756   0.16166905  0.046157903   -1.3106756    1.4723447    85060 
 7684000   0.18942983   -1.3023693   0.16687637  0.044984741   -1.3023693    1.4692457    84912 
 7685000   0.18836298   -1.2949747   0.16842639  0.044074989   -1.2949747    1.4634011    84771 
 7686000   0.18843542   -1.2962704   0.17065254  0.044247622   -1.2962704     1.466923    84600 
 7687000   0.18871422   -1.2947364   0.17651343  0.047166219   -1.2947364    1.4712498    84476 
 7688000    0.1882397   -1.2912742   0.17888664  0.046484677   -1.2912742    1.4701608    84326 
 7689000   0.18773276   -1.2857585   0.18289886  0.047212517   -1.2857585    1.4686573    84185 
 7690000   0.18690016   -1.2786234    0.1855901   0.04572023   -1.2786234    1.4642135    84066 
 7691000   0.18734515   -1.2773687   0.19218398  0.045744209   -1.2773687    1.4695527    83960 
 7692000   0.18689839   -1.2724672   0.19632763  0.045924868   -1.2724672    1.4687948    83803 
 7693000   0.18676834   -1.2691942   0.20103472  0.044450328   -1.2691942    1.4702289    83663 
 7694000   0.18616981   -1.2667639   0.20201879  0.045613429   -1.2667639    1.4687827    83477 
 7695000   0.18530805    -1.268851   0.19553623  0.045007031    -1.268851    1.4643872    83340 
 7696000   0.18563549   -1.2682046    0.2013269  0.044549441   -1.2682046    1.4695315    83195 
 7697000    0.1844701   -1.2658748   0.19682228  0.045754356   -1.2658748    1.4626971    83059 
 7698000   0.18438526   -1.2552548    0.2098211  0.045317722   -1.2552548    1.4650759    82886 
 7699000   0.18473026   -1.2595392   0.21013985  0.044659605   -1.2595392     1.469679    82781 
 7700000   0.18353869   -1.2467959   0.21585923  0.045377084   -1.2467959    1.4626551    82642 
 7701000   0.18347162   -1.2376486   0.22693539   0.04598882   -1.2376486     1.464584    82503 
 7702000   0.18334158   -1.2358072   0.23035116  0.045343665   -1.2358072    1.4661583    82356 
 7703000   0.18310427   -1.2302348   0.23725095  0.045975528   -1.2302348    1.4674857    82175 
 7704000   0.18242104   -1.2270818   0.23726255  0.045467923   -1.2270818    1.4643444    82044 
 7705000   0.18264686   -1.2210493   0.24695071  0.045991325   -1.2210493    1.4680001    81941 
 7706000   0.18240266   -1.2209347   0.24818652  0.044139719   -1.2209347    1.4691212    81769 
 7707000   0.18164704    -1.213366   0.25304069  0.044662548    -1.213366    1.4664067    81581 
 7708000   0.18073797   -1.2030768   0.25884033  0.045858131   -1.2030768    1.4619172    81422 
 7709000   0.18099779    -1.202149   0.26523988  0.044691033    -1.202149    1.4673889    81235 
 7710000   0.18058019   -1.1968455   0.26966708  0.046863428   -1.1968455    1.4665126    81096 
 7711000   0.18009824   -1.1927247    0.2736169  0.044220213   -1.1927247    1.4663415    80889 
 7712000   0.18008691   -1.1869264    0.2822471  0.046786677   -1.1869264    1.4691735    80728 
 7713000   0.17921483   -1.1854897   0.27947276    0.0459609   -1.1854897    1.4649624    80568 
 7714000   0.17881422   -1.1802143   0.28461882  0.044296878   -1.1802143    1.4648331    80395 
 7715000    0.1785071   -1.1755161   0.28962588  0.046158855   -1.1755161    1.4651419    80240 
 7716000   0.17813678   -1.1694141   0.29553648  0.046050465   -1.1694141    1.4649506    80084 
 7717000   0.17686307   -1.1568904   0.29998691  0.047065679   -1.1568904    1.4568773    79952 
 7718000   0.17737777   -1.1541173   0.30919597  0.045050901   -1.1541173    1.4633133    79832 
 7719000   0.17687811   -1.1509661   0.31161446  0.045594962   -1.1509661    1.4625806    79647 
 7720000   0.17727547   -1.1502477   0.31842139  0.044462817   -1.1502477    1.4686691    79495 
 7721000   0.17684921   -1.1403089   0.32758006  0.046375839   -1.1403089     1.467889    79346 
 7722000    0.1764276   -1.1359919   0.33148629  0.044943637   -1.1359919    1.4674782    79179 
 7723000   0.17553071    -1.132004   0.33109995  0.043658391    -1.132004    1.4631039    79012 
 7724000   0.17521012   -1.1315783   0.33213235  0.044084855   -1.1315783    1.4637107    78835 
 7725000   0.17487126     -1.12737   0.33597864  0.044745103     -1.12737    1.4633486    78702 
 7726000   0.17408283   -1.1227187   0.33703692  0.044721139   -1.1227187    1.4597557    78540 
 7727000   0.17329911    -1.113443   0.34369264  0.044454524    -1.113443    1.4571356    78327 
 7728000   0.17358727   -1.1140632   0.34827711  0.045055071   -1.1140632    1.4623403    78178 
 7729000   0.17318707   -1.1101824   0.35136646  0.044565059   -1.1101824    1.4615489    78040 
 7730000   0.17323115   -1.1051907   0.35982762  0.044750448   -1.1051907    1.4650184    77875 
 7731000   0.17228696   -1.0998472   0.35996047  0.043908061   -1.0998472    1.4598077    77727 
 7732000   0.17186063   -1.0940173   0.36426053  0.044092347   -1.0940173    1.4582778    77616 
 7733000   0.17195639   -1.0949227   0.36746491  0.043912341   -1.0949227    1.4623876    77441 
 7734000   0.17230656   -1.0917881   0.37594664  0.044009823   -1.0917881    1.4677347    77316 
 7735000   0.17108759   -1.0847563   0.37663991  0.044168484   -1.0847563    1.4613963    77102 
 7736000   0.17050454   -1.0757461   0.38394512  0.044803514   -1.0757461    1.4596912    76929 
 7737000   0.17096935   -1.0751421   0.39148334  0.044368717   -1.0751421    1.4666255    76774 
 7738000   0.17018644   -1.0709597   0.39167408   0.04416837   -1.0709597    1.4626338    76631 
 7739000   0.16966458   -1.0659489   0.39475402  0.043199417   -1.0659489     1.460703    76497 
 7740000   0.16969286   -1.0610748   0.40262701  0.044101185   -1.0610748    1.4637018    76353 
 7741000   0.16935665   -1.0604826   0.40265698  0.045332638   -1.0604826    1.4631396    76231 
 7742000   0.16913778   -1.0526519   0.41084304  0.044425916   -1.0526519    1.4634949    76114 
 7743000    0.1682869   -1.0452816   0.41328456  0.043611473   -1.0452816    1.4585662    75987 
 7744000   0.16832564   -1.0429176   0.41912051  0.043737418   -1.0429176    1.4620381    75824 
 7745000   0.16893196   -1.0440895   0.42705666   0.04474001   -1.0440895    1.4711461    75626 
 7746000   0.16734287   -1.0326617   0.42821959  0.043569758   -1.0326617    1.4608812    75441 
 7747000   0.16712106   -1.0299448   0.43142137  0.045726376   -1.0299448    1.4613662    75316 
 7748000   0.16653552   -1.0238007   0.43434263  0.045815664   -1.0238007    1.4581434    75218 
 7749000   0.16684465   -1.0246581   0.43930604  0.044936753   -1.0246581    1.4639641    75058 
 7750000   0.16624827   -1.0172006   0.44478346  0.043520861   -1.0172006     1.461984    74891 
 7751000   0.16581521   -1.0125283   0.44882809  0.043649457   -1.0125283    1.4613564    74728 
 7752000   0.16565895   -1.0127226   0.45048735  0.044409131   -1.0127226      1.46321    74563 
 7753000   0.16519118   -1.0004926    0.4618807  0.045391364   -1.0004926    1.4623733    74395 
 7754000   0.16504372    -1.003442   0.45959244  0.044438971    -1.003442    1.4630344    74295 
 7755000   0.16483586  -0.99747076   0.46673642  0.044810671  -0.99747076    1.4642072    74142 
 7756000    0.1643654   -0.9935456   0.46906685  0.043956442   -0.9935456    1.4626125    74011 
 7757000   0.16393822  -0.99093613   0.47065953  0.044227452  -0.99093613    1.4615957    73870 
 7758000   0.16323931   -0.9862632   0.47194386  0.043027387   -0.9862632    1.4582071    73726 
 7759000   0.16235886  -0.98259263   0.47058774  0.043887908  -0.98259263    1.4531804    73582 
 7760000   0.16284527  -0.97999691   0.48075314   0.04516222  -0.97999691      1.46075    73420 
 7761000   0.16178123   -0.9744506   0.48087776  0.042849774   -0.9744506    1.4553284    73212 
 7762000   0.16192828  -0.97314956   0.48591303  0.044266914  -0.97314956    1.4590626    73091 
 7763000   0.16122062  -0.96345173   0.49156362  0.044517164  -0.96345173    1.4550153    72974 
 7764000   0.16164487  -0.96214814   0.49933963  0.043915013  -0.96214814    1.4614878    72842 
 7765000   0.16130255  -0.95897762    0.5018619  0.044212067  -0.95897762    1.4608395    72720 
 7766000   0.16033226  -0.94925001   0.50474149  0.043761742  -0.94925001    1.4539915    72623 
 7767000   0.16076603  -0.94207141   0.51866976  0.044272537  -0.94207141    1.4607412    72483 
 7768000   0.16044955  -0.93555063    0.5249747  0.043751837  -0.93555063    1.4605253    72351 
 7769000   0.15997765  -0.93227301   0.52597225  0.044031488  -0.93227301    1.4582453    72251 
 7770000   0.15968873  -0.92922961   0.52997705  0.043160969  -0.92922961    1.4592067    72073 
 7771000   0.15922267  -0.92274026   0.53526226  0.044250854  -0.92274026    1.4580025    71922 
 7772000   0.15872534  -0.91503683   0.54132751  0.043793405  -0.91503683    1.4563643    71778 
 7773000   0.15918152  -0.91336828   0.54968879   0.04556679  -0.91336828    1.4630571    71655 
 7774000   0.15827299  -0.91119856   0.54680439   0.04580055  -0.91119856     1.458003    71493 
 7775000   0.15786724  -0.90418335   0.55307824  0.044253335  -0.90418335    1.4572616    71346 
 7776000   0.15801713  -0.90513625   0.55676692  0.043138952  -0.90513625    1.4619032    71187 
 7777000   0.15748285  -0.90233377   0.55727145  0.043490671  -0.90233377    1.4596052    71058 
 7778000   0.15726643  -0.89545887   0.56440043  0.044005642  -0.89545887    1.4598593    70948 
 7779000   0.15713434  -0.89525941   0.56617513  0.043846768  -0.89525941    1.4614345    70812 
 7780000    0.1566073  -0.89030407   0.56797921  0.043597698  -0.89030407    1.4582833    70727 
 7781000   0.15684855   -0.8886288   0.57564824  0.044113729   -0.8886288     1.464277    70546 
 7782000   0.15641465  -0.88499675   0.57767614  0.043884016  -0.88499675    1.4626729    70428 
 7783000   0.15637439  -0.88153067   0.58342826  0.043743143  -0.88153067    1.4649589    70300 
 7784000   0.15591111  -0.87563998   0.58837325  0.043664352  -0.87563998    1.4640132    70137 
 7785000   0.15482151  -0.86624305   0.59059217  0.045083848  -0.86624305    1.4568352    69990 
 7786000   0.15468491  -0.86338157   0.59519004  0.043897367  -0.86338157    1.4585716    69845 
 7787000   0.15429854  -0.85700378    0.6006586  0.043775377  -0.85700378    1.4576624    69714 
 7788000   0.15448996  -0.85407157   0.60837803  0.044351578  -0.85407157    1.4624496    69572 
 7789000   0.15394495  -0.84450219   0.61597902  0.044665907  -0.84450219    1.4604812    69420 
 7790000   0.15350403   -0.8435736   0.61623639   0.04417006   -0.8435736      1.45981    69253 
 7791000   0.15329902  -0.83819388   0.62247162  0.045113156  -0.83819388    1.4606655    69120 
 7792000   0.15255571   -0.8319476   0.62353068  0.044379517   -0.8319476    1.4554783    69030 
 7793000   0.15326856  -0.83495599   0.63020994  0.043704523  -0.83495599    1.4651659    68894 
 7794000   0.15274086  -0.82529868   0.63766817  0.042933981  -0.82529868    1.4629668    68760 
 7795000   0.15240635  -0.81938965   0.64371397  0.043283346  -0.81938965    1.4631036    68603 
 7796000   0.15236643   -0.8138383     0.652173   0.04496637   -0.8138383    1.4660113    68449 
 7797000   0.15128268    -0.809413   0.65005145  0.043594826    -0.809413    1.4594645    68267 
 7798000   0.15184426  -0.80501779    0.6627239  0.043753299  -0.80501779    1.4677417    68134 
 7799000   0.15104581  -0.79778347   0.66520351  0.043846716  -0.79778347     1.462987    67996 
 7800000   0.15007012  -0.78988638   0.66652041  0.043801396  -0.78988638    1.4564068    67862 
 7801000   0.14994981  -0.79077682   0.66749233  0.043645007  -0.79077682    1.4582691    67721 
 7802000   0.15011076  -0.79016622   0.67132993  0.043870009  -0.79016622    1.4614961    67644 
 7803000   0.14960859  -0.78577692   0.67415378  0.043722277  -0.78577692    1.4599307    67490 
 7804000   0.14938598  -0.78159179   0.67932694  0.044205522  -0.78159179    1.4609187    67344 
 7805000    0.1489366  -0.77737277    0.6828808  0.043461398  -0.77737277    1.4602536    67172 
 7806000    0.1490313  -0.77557564   0.68909524  0.043629817  -0.77557564    1.4646709    67012 
 7807000   0.14845937  -0.77284132   0.69007267  0.042746276  -0.77284132     1.462914    66835 
 7808000   0.14752554  -0.76601926   0.69098457  0.043028144  -0.76601926    1.4570038    66684 
 7809000   0.14758694  -0.76394688   0.69633501  0.044462591  -0.76394688    1.4602819    66562 
 7810000   0.14743737  -0.76160533   0.69989734  0.042978997  -0.76160533    1.4615027    66439 
 7811000   0.14693913  -0.75593155   0.70324581  0.043478776  -0.75593155    1.4591774    66320 
 7812000   0.14696566   -0.7509408   0.71112346    0.0435644   -0.7509408    1.4620643    66201 
 7813000   0.14660454  -0.74238758   0.71862211   0.04373193  -0.74238758    1.4610097    66086 
 7814000   0.14588786  -0.73628082   0.72193349  0.043484374  -0.73628082    1.4582143    65889 
 7815000    0.1460446  -0.73303014   0.72881421  0.043891087  -0.73303014    1.4618443    65796 
 7816000     0.145179   -0.7255723   0.73032944  0.043351814   -0.7255723    1.4559017    65673 
 7817000   0.14589046   -0.7292181   0.73725729  0.043342252   -0.7292181    1.4664754    65519 
 7818000    0.1444158  -0.71771507   0.73664521  0.043925895  -0.71771507    1.4543603    65397 
 7819000   0.14495201  -0.71989284   0.74248372  0.043073361  -0.71989284    1.4623766    65280 
 7820000   0.14436331  -0.71273398   0.74672155  0.042969581  -0.71273398    1.4594555    65145 
 7821000   0.14375905   -0.7068041   0.74996398  0.043057787   -0.7068041    1.4567681    64992 
 7822000   0.14441517  -0.71043858   0.75663506  0.044075473  -0.71043858    1.4670736    64830 
 7823000   0.14372298  -0.69976449   0.76334669  0.044751514  -0.69976449    1.4631112    64694 
 7824000   0.14317141  -0.69669213   0.76407813  0.043038794  -0.69669213    1.4607703    64549 
 7825000   0.14291863  -0.69674258   0.76509472  0.043188446  -0.69674258    1.4618373    64388 
 7826000   0.14243059   -0.6891682   0.77082901  0.042928862   -0.6891682    1.4599972    64249 
 7827000   0.14242044  -0.68455567   0.77847997  0.042796147  -0.68455567    1.4630356    64111 
 7828000   0.14195596  -0.68383278   0.77791987  0.043074263  -0.68383278    1.4617527    63958 
 7829000   0.14191583  -0.68356815   0.78056414  0.042805767  -0.68356815    1.4641323    63836 
 7830000   0.14144006  -0.67946667   0.78255124  0.043436192  -0.67946667    1.4620179    63714 
 7831000    0.1408398  -0.67198847   0.78716838  0.042373427  -0.67198847    1.4591569    63568 
 7832000   0.14063337  -0.66736412   0.79316933  0.043126043  -0.66736412    1.4605334    63415 
 7833000    0.1403173  -0.66461406   0.79549201  0.042649374  -0.66461406    1.4601061    63291 
 7834000   0.13979945  -0.65786562   0.80204179  0.042956462  -0.65786562    1.4599074    63066 
 7835000   0.13973299  -0.65519181   0.80684982  0.042684376  -0.65519181    1.4620416    62944 
 7836000   0.13864726  -0.65056086   0.80372502  0.042290536  -0.65056086    1.4542859    62788 
 7837000   0.13899347  -0.65104868   0.81026654  0.042536775  -0.65104868    1.4613152    62642 
 7838000    0.1387552  -0.64983255   0.81191788  0.043900132  -0.64983255    1.4617504    62516 
 7839000    0.1385659  -0.64535467   0.81744333  0.043605288  -0.64535467     1.462798    62386 
 7840000   0.13832323  -0.63900195   0.82440097  0.042835409  -0.63900195    1.4634029    62251 
 7841000   0.13755367  -0.63501057   0.82449441  0.041984737  -0.63501057     1.459505    62070 
 7842000   0.13699924  -0.63136108   0.82552366  0.042486776  -0.63136108    1.4568847    61931 
 7843000   0.13713095  -0.63340075   0.82790494   0.04281773  -0.63340075    1.4613057    61803 
 7844000   0.13669355  -0.63202725   0.82818501  0.042362763  -0.63202725    1.4602123    61652 
 7845000   0.13564178  -0.62333147   0.82849473  0.042493596  -0.62333147    1.4518262    61531 
 7846000    0.1358728  -0.62364553   0.83366129  0.042359381  -0.62364553    1.4573068    61404 
 7847000   0.13580841  -0.62105572   0.83876994  0.042308986  -0.62105572    1.4598257    61269 
 7848000   0.13547611  -0.61676423    0.8431352   0.04200489  -0.61676423    1.4598994    61116 
 7849000   0.13516638  -0.61407878   0.84580321  0.040848753  -0.61407878     1.459882    60977 
 7850000   0.13493742  -0.61082071   0.85061486  0.042007423  -0.61082071    1.4614356    60809 
 7851000   0.13404551  -0.60063793   0.85364897  0.041494435  -0.60063793    1.4542869    60704 
 7852000   0.13364871  -0.59826873   0.85511301  0.040849603  -0.59826873    1.4533817    60562 
 7853000   0.13373953  -0.59660263   0.86017214  0.041920234  -0.59660263    1.4567748    60462 
 7854000   0.13358226   -0.5954356   0.86392243   0.04149073   -0.5954356     1.459358    60284 
 7855000   0.13296512  -0.59259925   0.86339803  0.041434196  -0.59259925    1.4559973    60144 
 7856000   0.13222307  -0.58701423   0.86462261   0.04200424  -0.58701423    1.4516368    59988 
 7857000    0.1317988  -0.58050797   0.87085008  0.041864964  -0.58050797     1.451358    59807 
 7858000   0.13185806  -0.58149739   0.87418852  0.041831605  -0.58149739    1.4556859    59656 
 7859000   0.13152297  -0.57882188   0.87594475  0.041409758  -0.57882188    1.4547666    59542 
 7860000    0.1314003  -0.57775155   0.87822573  0.041293305  -0.57775155    1.4559773    59437 
 7861000    0.1310082  -0.57405967   0.88166309  0.040918127  -0.57405967    1.4557228    59270 
 7862000   0.13000773  -0.56680097   0.88110277  0.040410193  -0.56680097    1.4479037    59135 
 7863000   0.12946502  -0.56312843    0.8818344  0.040829571  -0.56312843    1.4449628    59008 
 7864000    0.1292113  -0.56126069     0.883711  0.040508201  -0.56126069    1.4449717    58892 
 7865000    0.1296316  -0.56373475   0.88818065  0.041676065  -0.56373475    1.4519154    58801 
 7866000   0.12925547  -0.55874343   0.89375128  0.040765658  -0.55874343    1.4524947    58607 
 7867000    0.1289816    -0.557091   0.89520071  0.040879581    -0.557091    1.4522917    58491 
 7868000   0.12940571  -0.55514722   0.90399036  0.041895764  -0.55514722    1.4591376    58408 
 7869000   0.12824834  -0.54709371   0.90264242  0.040501312  -0.54709371    1.4497361    58261 
 7870000   0.12812022   -0.5505881   0.90163801  0.040724919   -0.5505881    1.4522261    58103 
 7871000   0.12745215  -0.54040772   0.90853517  0.040521725  -0.54040772    1.4489429    57931 
 7872000   0.12775448  -0.54133464   0.91285264  0.040549233  -0.54133464    1.4541873    57859 
 7873000   0.12739174  -0.53750028   0.91552142  0.041216172  -0.53750028    1.4530217    57741 
 7874000   0.12723032  -0.53538122   0.91879633  0.040411393  -0.53538122    1.4541775    57622 
 7875000   0.12689565  -0.53419323   0.92077993  0.041210508  -0.53419323    1.4549732    57439 
 7876000   0.12685482  -0.52997112   0.92755357  0.041166007  -0.52997112    1.4575247    57320 
 7877000   0.12617623  -0.52683914   0.92636202  0.040090435  -0.52683914    1.4532012    57183 
 7878000   0.12601887  -0.52528318   0.92877559  0.040695583  -0.52528318    1.4540588    57078 
 7879000   0.12567883  -0.52015927   0.93336287  0.040672455  -0.52015927    1.4535221    56945 
 7880000   0.12590599  -0.52201602    0.9373111  0.041099342  -0.52201602    1.4593271    56821 
 7881000   0.12550742  -0.51624519   0.94218394   0.04085873  -0.51624519    1.4584291    56676 
 7882000    0.1249665  -0.51474936     0.940501   0.04037616  -0.51474936    1.4552504    56555 
 7883000   0.12449669  -0.51291001   0.93977191  0.040660723  -0.51291001    1.4526819    56442 
 7884000    0.1238182  -0.50818892   0.93934591   0.04037166  -0.50818892    1.4475348    56334 
 7885000    0.1233375  -0.50819265   0.93764921  0.040152536  -0.50819265    1.4458419    56181 
 7886000   0.12327874  -0.50709272   0.94242069    0.0406711  -0.50709272    1.4495134    56012 
 7887000   0.12279544  -0.50432347   0.94369536   0.03995162  -0.50432347    1.4480188    55850 
 7888000   0.12312381  -0.50730395   0.94719128  0.040479617  -0.50730395    1.4544952    55750 
 7889000   0.12226465  -0.50048362    0.9487231  0.040146074  -0.50048362    1.4492067    55563 
 7890000   0.12169772  -0.49708532   0.94930631  0.039623328  -0.49708532    1.4463916    55413 
 7891000    0.1215115  -0.49704757   0.95086733  0.039671276  -0.49704757    1.4479149    55270 
 7892000   0.12108608    -0.495622   0.95020582  0.039416114    -0.495622    1.4458278    55156 
 7893000   0.12056013  -0.49146597   0.95224362  0.039642785  -0.49146597    1.4437096    54997 
 7894000    0.1200524  -0.48976579   0.95176918  0.039367055  -0.48976579     1.441535    54848 
 7895000   0.11978447   -0.4879221   0.95444555  0.039210472   -0.4879221    1.4423677    54694 
 7896000    0.1197676  -0.48724041   0.95796276  0.039292684  -0.48724041    1.4452032    54579 
 7897000   0.11938193  -0.48269182   0.96076681  0.039114649  -0.48269182    1.4434586    54469 
 7898000   0.11930114  -0.48053601   0.96502425  0.039105217  -0.48053601    1.4455603    54353 
 7899000   0.11890178  -0.47808183    0.9665731  0.039065911  -0.47808183    1.4446549    54205 
 7900000   0.11872618    -0.479074   0.96539272  0.038885669    -0.479074    1.4444667    54132 
 7901000   0.11832291  -0.47827162   0.96520874  0.038368449  -0.47827162    1.4434804    53985 
 7902000   0.11878148  -0.48117505    0.9707505  0.038745267  -0.48117505    1.4519256    53879 
 7903000    0.1178283   -0.4739535   0.96969689  0.039212348   -0.4739535    1.4436504    53753 
 7904000   0.11755256   -0.4692359   0.97479709  0.038490805   -0.4692359     1.444033    53613 
 7905000   0.11717088  -0.47105156   0.97109036  0.038672768  -0.47105156    1.4421419    53509 
 7906000   0.11675457  -0.46601828   0.97412163  0.038223466  -0.46601828    1.4401399    53393 
 7907000   0.11702975  -0.46888719   0.97749135  0.037931417  -0.46888719    1.4463785    53288 
 7908000   0.11661961    -0.462775    0.9827392  0.039134762    -0.462775    1.4455142    53133 
 7909000   0.11611921  -0.46137854   0.98170841  0.038178081  -0.46137854    1.4430869    52994 
 7910000   0.11579886  -0.46127213   0.98202782  0.038186748  -0.46127213    1.4432999    52840 
 7911000   0.11547037   -0.4621736    0.9801712  0.038291929   -0.4621736    1.4423448    52725 
 7912000   0.11508349  -0.46019463   0.98021356  0.038670916  -0.46019463    1.4404082    52619 
 7913000   0.11498461  -0.46112338   0.98169399    0.0382888  -0.46112338    1.4428174    52486 
 7914000   0.11443474  -0.45587608   0.98421209  0.037843889  -0.45587608    1.4400882    52334 
 7915000   0.11430995  -0.45652207   0.98447389   0.03796032  -0.45652207     1.440996    52244 
 7916000   0.11413919  -0.45256036   0.98942948  0.037596077  -0.45256036    1.4419898    52130 
 7917000   0.11365941  -0.44998556   0.98944973  0.037976617  -0.44998556    1.4394353    52003 
 7918000   0.11328304  -0.44666565   0.99037952  0.037102395  -0.44666565    1.4370452    51917 
 7919000   0.11333301  -0.44970932   0.99029967  0.037458775  -0.44970932     1.440009    51833 
 7920000    0.1128061  -0.44686704   0.99021767  0.037573022  -0.44686704    1.4370847    51697 
 7921000   0.11235201  -0.44365964   0.98994195  0.037471389  -0.44365964    1.4336016    51614 
 7922000    0.1124261  -0.44649474    0.9898332  0.037463205  -0.44649474    1.4363279    51550 
 7923000   0.11186747  -0.44132653   0.99186803   0.03784711  -0.44132653    1.4331946    51406 
 7924000   0.11200666   -0.4433011   0.99486596  0.037391908   -0.4433011    1.4381671    51292 
 7925000   0.11173926  -0.44294136   0.99555034  0.037018214  -0.44294136    1.4384917    51158 
 7926000   0.11127837  -0.43757825   0.99846084  0.037210658  -0.43757825    1.4360391    51034 
 7927000   0.11074492  -0.43594234   0.99599039  0.036862528  -0.43594234    1.4319327    50935 
 7928000   0.11047075  -0.43431559   0.99803727  0.037190809  -0.43431559    1.4323529    50794 
 7929000   0.11035833  -0.43569643   0.99906855  0.036586304  -0.43569643     1.434765    50657 
 7930000   0.11007801  -0.43242044    1.0009072  0.036560318  -0.43242044    1.4333276    50579 
 7931000   0.10971329  -0.43318101    1.0002723  0.036668016  -0.43318101    1.4334533    50407 
 7932000   0.10922984  -0.42947938    1.0013759  0.035874533  -0.42947938    1.4308553    50276 
 7933000   0.10928663  -0.43156105    1.0025483  0.036088944  -0.43156105    1.4341094    50188 
 7934000   0.10905581  -0.43172641    1.0028986  0.035867781  -0.43172641     1.434625    50064 
 7935000   0.10868173  -0.43049181    1.0031927  0.035954657  -0.43049181    1.4336845    49925 
 7936000   0.10850634  -0.42758279    1.0073232  0.036542809  -0.42758279     1.434906    49802 
 7937000    0.1083565  -0.42956555    1.0058665  0.036958534  -0.42956555    1.4354321    49715 
 7938000   0.10815252  -0.42839724     1.006613  0.036838341  -0.42839724    1.4350102    49636 
 7939000   0.10769925  -0.42485263    1.0073173  0.035953091  -0.42485263    1.4321699    49526 
 7940000   0.10757359  -0.42348399    1.0098801  0.036519019  -0.42348399    1.4333641    49427 
 7941000   0.10701349  -0.42412594    1.0062027  0.035460787  -0.42412594    1.4303286    49274 
 7942000   0.10682295  -0.42605897    1.0054708  0.036101793  -0.42605897    1.4315297    49145 
 7943000   0.10621227  -0.42276453    1.0029023  0.035368021  -0.42276453    1.4256668    49065 
 7944000   0.10594046  -0.41864435    1.0054637  0.036039035  -0.41864435    1.4241081    48993 
 7945000   0.10599038  -0.41842635    1.0092961  0.035636765  -0.41842635    1.4277225    48892 
 7946000   0.10559804    -0.419462    1.0059492  0.035670629    -0.419462    1.4254112    48790 
 7947000     0.105734  -0.41991142    1.0103544  0.035846047  -0.41991142    1.4302659    48687 
 7948000   0.10554165  -0.42010753    1.0094356   0.03548732  -0.42010753    1.4295431    48623 
 7949000   0.10540124   -0.4173741    1.0139469  0.035816319   -0.4173741     1.431321    48498 
 7950000   0.10489081  -0.41735864    1.0112726  0.034903983  -0.41735864    1.4286313    48354 
 7951000    0.1043985  -0.41130943    1.0137404  0.035112733  -0.41130943    1.4250499    48248 
 7952000   0.10429773  -0.41155287    1.0149895  0.034640832  -0.41155287    1.4265424    48151 
 7953000   0.10414623  -0.41303645    1.0147548  0.035068677  -0.41303645    1.4277913    48039 
 7954000   0.10388625  -0.41096691    1.0161418  0.034874046  -0.41096691    1.4271087    47942 
 7955000   0.10327761  -0.41015995    1.0113452   0.03469262  -0.41015995    1.4215052    47849 
 7956000   0.10343822  -0.41031929    1.0154525  0.034748351  -0.41031929    1.4257718    47780 
 7957000   0.10310519  -0.40929421     1.016273  0.035097269  -0.40929421    1.4255672    47633 
 7958000   0.10304142  -0.41269305    1.0151099  0.034756838  -0.41269305    1.4278029    47529 
 7959000   0.10230401  -0.40750673     1.012199  0.034573174  -0.40750673    1.4197057    47458 
 7960000   0.10229418   -0.4088863    1.0148832  0.034032404   -0.4088863    1.4237695    47318 
 7961000   0.10188441  -0.40413362    1.0175681  0.034302685  -0.40413362    1.4217017    47197 
 7962000   0.10170162  -0.40594139     1.014805  0.035105737  -0.40594139    1.4207464    47144 
 7963000   0.10144407  -0.40379577    1.0164558  0.034460028  -0.40379577    1.4202515    47041 
 7964000   0.10110044  -0.40503243    1.0133933  0.034712162  -0.40503243    1.4184258    46942 
 7965000    0.1005319  -0.40232215    1.0129811  0.034382072  -0.40232215    1.4153033    46781 
 7966000   0.10049075   -0.4054607    1.0118385  0.034626314   -0.4054607    1.4172992    46696 
 7967000   0.10051943  -0.40383565    1.0164228  0.033558918  -0.40383565    1.4202585    46612 
 7968000  0.099718254  -0.39929128    1.0125551  0.034046185  -0.39929128    1.4118463    46516 
 7969000  0.099430326   -0.3955493    1.0150711  0.033869076   -0.3955493    1.4106204    46422 
 7970000  0.099554568  -0.39630825    1.0200105  0.034694712  -0.39630825    1.4163187    46293 
 7971000  0.099215109  -0.39596389    1.0204823  0.033651708  -0.39596389    1.4164462    46131 
 7972000  0.098560854  -0.39436988    1.0158233  0.034150208  -0.39436988    1.4101932    46030 
 7973000  0.098831271  -0.39647516    1.0219629  0.033728241  -0.39647516    1.4184381    45888 
 7974000  0.098230884  -0.39486092    1.0181011  0.033590507  -0.39486092     1.412962    45786 
 7975000  0.097952329  -0.39037529     1.023242   0.03298828  -0.39037529    1.4136173    45635 
 7976000  0.097501007  -0.38979459    1.0213292  0.033280469  -0.38979459    1.4111238    45505 
 7977000  0.097289616  -0.38861321    1.0226455  0.032372896  -0.38861321    1.4112587    45402 
 7978000  0.097165942  -0.38687421    1.0252965  0.033712518  -0.38687421    1.4121707    45315 
 7979000   0.09714249  -0.38936639    1.0244603  0.033456091  -0.38936639    1.4138267    45251 
 7980000   0.09664634  -0.38784184     1.022129  0.032670065  -0.38784184    1.4099708    45143 
 7981000  0.096540919  -0.39018246    1.0201561  0.032920691  -0.39018246    1.4103386    45082 
 7982000  0.096201189  -0.38631302    1.0217486  0.033086187  -0.38631302    1.4080616    44996 
 7983000  0.096126288   -0.3859918    1.0226014  0.032802097   -0.3859918    1.4085932    44944 
 7984000  0.095949704  -0.38715745    1.0226122  0.032771977  -0.38715745    1.4097697    44824 
 7985000  0.095692725  -0.38453433      1.02495  0.032145028  -0.38453433    1.4094843    44713 
 7986000  0.095373281  -0.38473621    1.0237916  0.032605788  -0.38473621    1.4085278    44594 
 7987000    0.0952391  -0.38216867    1.0276021  0.032743887  -0.38216867    1.4097707    44492 
 7988000   0.09521811  -0.38695683    1.0261239  0.032008787  -0.38695683    1.4130807    44378 
 7989000  0.094376041  -0.37940337    1.0250416  0.032358677  -0.37940337     1.404445    44256 
 7990000  0.094213217  -0.38004866    1.0254986  0.032270601  -0.38004866    1.4055472    44145 
 7991000   0.09434751  -0.38176347    1.0293995  0.032510918  -0.38176347    1.4111629    44032 
 7992000  0.094089965   -0.3808977    1.0293918   0.03228451   -0.3808977    1.4102895    43939 
 7993000  0.093768793  -0.37675819    1.0317627  0.032310344  -0.37675819    1.4085209    43844 
 7994000  0.093263975  -0.37650035    1.0268061  0.032179418  -0.37650035    1.4033064    43770 
 7995000  0.093118404  -0.37733311    1.0286978  0.031828332  -0.37733311    1.4060309    43617 
 7996000  0.093076817  -0.37983295    1.0275706   0.03205925  -0.37983295    1.4074035    43555 
 7997000  0.092749424  -0.37666445    1.0301491  0.031822161  -0.37666445    1.4068135    43420 
 7998000  0.092336636  -0.37371623    1.0288066  0.031748949  -0.37371623    1.4025228    43359 
 7999000   0.09233191  -0.37570323    1.0292752  0.031517288  -0.37570323    1.4049785    43281 
 8000000  0.092293868  -0.37558723     1.030014  0.032114831  -0.37558723    1.4056012    43244 
Loop time of 7970.52 on 192 procs for 5000000 steps with 43244 atoms

Performance: 270998.481 tau/day, 627.311 timesteps/s
99.0% CPU use with 192 MPI tasks x 1 OpenMP threads

MPI task timing breakdown:
Section |  min time  |  avg time  |  max time  |%varavg|  %CPU | %total
-----------------------------------------------------------------------
Pair    | 815.64     | 1846.1     | 2163.2     | 883.8 |  99.0 | 23.16
Bond    | 3.235      | 3.3455     | 3.4506     |   2.6 | 100.0 |  0.04
Neigh   | 475.87     | 892.85     | 1016.9     | 509.6 |  99.4 | 11.20
Comm    | 1313.8     | 1683.3     | 3178.8     |1334.6 |  98.7 | 21.12
Output  | 285.19     | 290.11     | 290.15     |   2.1 |  98.8 |  3.64
Modify  | 3097.7     | 3173.1     | 3421.8     | 190.5 |  99.2 | 39.81
Other   |            | 81.69      |            |       |       |  1.02

Nlocal:        225.229 ave         275 max         178 min
Histogram: 3 6 25 23 40 46 29 9 8 3
Nghost:        298.891 ave         384 max         213 min
Histogram: 11 12 18 13 21 42 44 26 2 3
Neighs:        560.229 ave         946 max         307 min
Histogram: 10 19 31 40 41 23 14 11 1 2

Total # of neighbors = 107564
Ave neighs/atom = 2.4873740
Ave special neighs/atom = 0.0000000
Neighbor list builds = 505000
Dangerous builds = 450000

write_restart   restart_write.dat
System init for write_restart ...
write_data	data.write
System init for write_data ...
WARNING: Not all mixed pair coeffs generated from mixing. Use write_data with 'pair ij' option to store all pair coeffs. (src/write_data.cpp:312)

Total wall time: 2:12:53
