LAMMPS (24 Dec 2020)
OMP_NUM_THREADS environment is not set. Defaulting to 1 thread. (src/comm.cpp:94)
  using 1 OpenMP thread(s) per MPI task
#Read the equilibrated lj fluid and add nanocubes

units           lj
atom_style      full
atom_modify     map array first cubes
dimension       3
boundary        p p f
pair_style      lj/cut/opt 2.5

variable        sigma           equal 1.0
variable        epsilon         equal 1.0
read_data	data.lj_eqil
Reading data file ...
  orthogonal box = (0.0000000 0.0000000 0.0000000) to (160.00000 160.00000 320.00000)
  5 by 4 by 12 MPI processor grid
  reading atoms ...
  3993600 atoms
  reading velocities ...
  3993600 velocities
Finding 1-2 1-3 1-4 neighbors ...
  special bond factors lj:    0        0        0       
  special bond factors coul:  0        0        0       
     0 = max # of 1-2 neighbors
     0 = max # of 1-3 neighbors
     0 = max # of 1-4 neighbors
     1 = max # of special neighbors
  special bonds CPU = 1.895 seconds
  read_data CPU = 11.877 seconds

group		solvent type 1
3993600 atoms in group solvent

read_data	data.512seed1 group cubes add append
Reading data file ...
  orthogonal box = (0.0000000 0.0000000 0.0000000) to (160.00000 160.00000 320.00000)
  5 by 4 by 12 MPI processor grid
  reading atoms ...
  585216 atoms
  reading velocities ...
  585216 velocities
Finding 1-2 1-3 1-4 neighbors ...
  special bond factors lj:    0        0        0       
  special bond factors coul:  0        0        0       
     0 = max # of 1-2 neighbors
     0 = max # of 1-3 neighbors
     0 = max # of 1-4 neighbors
     1 = max # of special neighbors
  special bonds CPU = 0.060 seconds
  read_data CPU = 1.436 seconds

neighbor      0.4 bin
neigh_modify  exclude molecule/intra cubes


pair_modify   shift yes

pair_coeff    1 1 1.0 1.0 #solvent
pair_coeff    2 2 0.6 1.0 #np
pair_coeff    3 3 0.0 0.0 0.0 #dummy
pair_coeff    2 3 0.0 0.0 0.0 #np dummy
pair_coeff    1 2 0.8 1.0 #np solvent
pair_coeff    1 3 0.0 0.0 0.0 #dummy solvent


# delete solvent where the cubes are
delete_atoms  overlap 1.0 solvent cubes
System init for delete_atoms ...
Neighbor list info ...
  update every 1 steps, delay 10 steps, check yes
  max neighbors/atom: 2000, page size: 100000
  master list distance cutoff = 2.9
  ghost atom cutoff = 2.9
  binsize = 1.45, bins = 111 111 221
  2 neighbor lists, perpetual/occasional/extra = 1 1 0
  (1) command delete_atoms, occasional
      attributes: full, newton on
      pair build: full/bin
      stencil: full/bin/3d
      bin: standard
  (2) pair lj/cut/opt, perpetual
      attributes: half, newton on
      pair build: half/bin/newton
      stencil: half/bin/3d/newton
      bin: standard
WARNING: Delete_atoms cutoff > minimum neighbor cutoff (src/delete_atoms.cpp:307)
WARNING: Ignoring 'compress yes' for molecular system (src/delete_atoms.cpp:125)
Deleted 345403 atoms, new total = 4233413



comm_modify   mode multi cutoff/multi 1 2.5 cutoff/multi 2 2.5 cutoff/multi 3 6.95

reset_timestep 	0

balance 	1.05 shift z 10 1.05
Balancing ...
Neighbor list info ...
  update every 1 steps, delay 10 steps, check yes
  max neighbors/atom: 2000, page size: 100000
  master list distance cutoff = 2.9
  ghost atom cutoff = 6.95
  binsize = 1.45, bins = 111 111 221
  1 neighbor lists, perpetual/occasional/extra = 1 0 0
  (1) pair lj/cut/opt, perpetual
      attributes: half, newton on
      pair build: half/bin/newton
      stencil: half/bin/3d/newton
      bin: standard
 rebalancing time: 0.023 seconds
  iteration count = 5
  initial/final maximal load/proc = 29955.000 23345.000
  initial/final imbalance factor  = 1.6982043 1.3234712
  x cuts: 0.0000000 0.20000000 0.40000000 0.60000000 0.80000000 1.0000000
  y cuts: 0.0000000 0.25000000 0.50000000 0.75000000 1.0000000
  z cuts: 0.0000000 0.054687500 0.10156250 0.15104167 0.20312500 0.25520833 0.32031250 0.37239583 0.42447917 0.46875000 0.53125000 0.59375000 1.0000000

####################### WALLS ###########################

variable       epsilonWall equal 2*${epsilon}
variable       epsilonWall equal 2*1

variable       cutoffTop   equal   0.7147*${sigma}
variable       cutoffTop   equal   0.7147*1

variable       cutoffLow   equal   3*${sigma}
variable       cutoffLow   equal   3*1

region         lowWall block EDGE EDGE EDGE EDGE EDGE 2

#delete_atoms   region lowWall

fix            topWall all wall/lj93 zhi EDGE 	       ${epsilonWall} ${sigma} ${cutoffTop} units box
fix            topWall all wall/lj93 zhi EDGE 	       2 ${sigma} ${cutoffTop} units box
fix            topWall all wall/lj93 zhi EDGE 	       2 1 ${cutoffTop} units box
fix            topWall all wall/lj93 zhi EDGE 	       2 1 0.7147 units box

fix            lowWall all wall/lj93 zlo EDGE                ${epsilonWall} ${sigma} ${cutoffLow} units box
fix            lowWall all wall/lj93 zlo EDGE                2 ${sigma} ${cutoffLow} units box
fix            lowWall all wall/lj93 zlo EDGE                2 1 ${cutoffLow} units box
fix            lowWall all wall/lj93 zlo EDGE                2 1 3 units box


######################  FIXES ############################


fix             1 cubes rigid/nve/small molecule # temp 1.0 1.0 0.25
  create bodies CPU = 0.004 seconds
  512 rigid bodies with 585216 atoms
  6.9282032 = max distance from body owner to body atom

fix             2 solvent nve


## Thermostat

region          regthermo block EDGE EDGE EDGE EDGE 0 20

group           thermo dynamic solvent region regthermo every 1000
dynamic group thermo defined

fix             3 thermo langevin ${startTemp} ${temp} 0.1 156453
fix             3 thermo langevin 0.5 ${temp} 0.1 156453
fix             3 thermo langevin 0.5 0.8 0.1 156453




#### Load balancing

fix             bal all balance 1000 1.05 shift z 10 1.05

############### Diagnostics and computes ###################

compute        com cubes          rigid/local   1 mol x y z
compute        quat cubes         rigid/local   1 mol quatw quati quatj quatk
compute 	cc2 cubes chunk/atom molecule

compute 	msd cubes msd/chunk cc2

thermo          1000
thermo_style    custom step temp epair evdwl etotal press pe ke vol

dump            1 all custom 100000 dump.lammpstrj id mol type x y z
dump            2 all image 10000 image.*.png type type

dump_modify     2 pad 8


dump		image cubes image 10000 image.*.png type type

dump_modify	2 pad 8

dump            3 all movie 5000 movie.avi type type
dump           com cubes local 1000 dump.*.xyz c_com[*]
dump           quat cubes      local 1000 dump.*.quat c_quat[*]


restart         500000 restart.dat
timestep        0.0025
timer           full
New timer settings: style=full  mode=nosync  timeout=off

run            1000000
Per MPI rank memory allocation (min/avg/max) = 43.28 | 57.99 | 67.36 Mbytes
Step Temp E_pair E_vdwl TotEng Press PotEng KinEng Volume 
       0   0.77232217   -3.9085463   -3.9085463   -2.9099288 -0.011748461   -3.9085463   0.99861749      8192000 
    1000   0.74611621   -3.9239186   -3.9239186   -2.9591856  -0.10264659   -3.9239186   0.96473301      8192000 
    2000   0.74299516   -3.9264212   -3.9264212   -2.9657237  -0.11848003   -3.9264212   0.96069748      8192000 
    3000   0.74086104   -3.9286781   -3.9286781   -2.9707401  -0.12698123   -3.9286781   0.95793804      8192000 
    4000   0.73988931   -3.9318494   -3.9318494   -2.9751678  -0.13199163   -3.9318494   0.95668159      8192000 
    5000   0.73801149   -3.9336558   -3.9336558   -2.9794023  -0.13632764   -3.9336558   0.95425356      8192000 
    6000    0.7374441   -3.9367289   -3.9367289    -2.983209   -0.1371985   -3.9367289   0.95351992      8192000 
    7000   0.73701632   -3.9397429   -3.9397429   -2.9867761  -0.13427785   -3.9397429    0.9529668      8192000 
    8000   0.73637936    -3.942153    -3.942153   -2.9900098  -0.12981355    -3.942153   0.95214321      8192000 
    9000   0.73670613     -3.94581     -3.94581   -2.9932443  -0.12764634     -3.94581   0.95256572      8192000 
   10000   0.73652639   -3.9486603   -3.9486603    -2.996327  -0.12588345   -3.9486603   0.95233332      8192000 
   11000   0.73643918   -3.9514995   -3.9514995    -2.999279  -0.12455457   -3.9514995   0.95222056      8192000 
   12000    0.7367142   -3.9542609   -3.9542609   -3.0016847  -0.12212479   -3.9542609   0.95257616      8192000 
   13000   0.73636467   -3.9567001   -3.9567001   -3.0045759  -0.11812725   -3.9567001   0.95212422      8192000 
   14000   0.73649543   -3.9596647   -3.9596647   -3.0073714  -0.11730157   -3.9596647   0.95229328      8192000 
   15000   0.73673542   -3.9625396   -3.9625396    -3.009936  -0.11374894   -3.9625396    0.9526036      8192000 
   16000   0.73664988   -3.9648552   -3.9648552   -3.0123622    -0.104769   -3.9648552     0.952493      8192000 
   17000   0.73739158   -3.9681729   -3.9681729   -3.0147209 -0.099571598   -3.9681729   0.95345201      8192000 
   18000   0.73871669   -3.9725611   -3.9725611   -3.0173957 -0.092378598   -3.9725611    0.9551654      8192000 
   19000   0.74061943   -3.9772902   -3.9772902   -3.0196646 -0.086167318   -3.9772902   0.95762565      8192000 
   20000   0.74323076   -3.9827796   -3.9827796   -3.0217775 -0.068476862   -3.9827796   0.96100211      8192000 
   21000   0.74661229   -3.9891699   -3.9891699   -3.0237954 -0.056673771   -3.9891699   0.96537445      8192000 
   22000   0.74957935    -3.995219    -3.995219   -3.0260081 -0.040753746    -3.995219   0.96921088      8192000 
   23000   0.75293504   -4.0013344   -4.0013344   -3.0277846 -0.023498832   -4.0013344    0.9735498      8192000 
   24000   0.75597339   -4.0074169   -4.0074169   -3.0299384 -0.0099450501   -4.0074169   0.97747841      8192000 
   25000   0.75864256   -4.0131564   -4.0131564   -3.0322267 0.0066188995   -4.0131564   0.98092967      8192000 
   26000   0.76106212   -4.0181234   -4.0181234   -3.0340652  0.019625926   -4.0181234   0.98405817      8192000 
   27000   0.76258673   -4.0223553   -4.0223553   -3.0363258  0.030240026   -4.0223553    0.9860295      8192000 
   28000   0.76409785   -4.0260794   -4.0260794    -3.038096  0.044041667   -4.0260794   0.98798339      8192000 
   29000   0.76605386   -4.0305705   -4.0305705    -3.040058  0.051852673   -4.0305705   0.99051253      8192000 
   30000   0.76695247   -4.0333332   -4.0333332   -3.0416588  0.060524102   -4.0333332   0.99167443      8192000 
   31000   0.76800321   -4.0366372   -4.0366372   -3.0436042  0.066656747   -4.0366372   0.99303304      8192000 
   32000   0.76830432   -4.0388449   -4.0388449   -3.0454225  0.073489226   -4.0388449   0.99342238      8192000 
   33000   0.76890538   -4.0413702   -4.0413702   -3.0471707  0.082807178   -4.0413702   0.99419956      8192000 
   34000   0.76911941   -4.0437087   -4.0437087   -3.0492325  0.090119727   -4.0437087    0.9944763      8192000 
   35000   0.76920694   -4.0459359   -4.0459359   -3.0513465  0.094768803   -4.0459359   0.99458948      8192000 
   36000   0.76907247    -4.048654    -4.048654   -3.0542384   0.10152774    -4.048654    0.9944156      8192000 
   37000   0.76872858   -4.0505567   -4.0505567   -3.0565858   0.10367845   -4.0505567   0.99397095      8192000 
   38000   0.76891983   -4.0531027   -4.0531027   -3.0588844   0.10714256   -4.0531027   0.99421824      8192000 
   39000   0.76832195   -4.0547254   -4.0547254   -3.0612802    0.1102716   -4.0547254   0.99344517      8192000 
   40000   0.76791903   -4.0563917   -4.0563917   -3.0634675   0.10789551   -4.0563917    0.9929242      8192000 
   41000     0.767285   -4.0574248   -4.0574248   -3.0653204   0.10642723   -4.0574248    0.9921044      8192000 
   42000   0.76641918   -4.0578687   -4.0578687   -3.0668838    0.1071058   -4.0578687   0.99098489      8192000 
   43000   0.76611209   -4.0593092   -4.0593092   -3.0687214  0.098074875   -4.0593092   0.99058782      8192000 
   44000   0.76529713   -4.0594281   -4.0594281    -3.069894  0.096258686   -4.0594281   0.98953407      8192000 
   45000   0.76429683   -4.0594314   -4.0594314   -3.0711907  0.093889546   -4.0594314   0.98824068      8192000 
   46000   0.76377633   -4.0596789   -4.0596789   -3.0721113  0.088029002   -4.0596789   0.98756767      8192000 
   47000   0.76274186    -4.058955    -4.058955   -3.0727249  0.081989324    -4.058955   0.98623009      8192000 
   48000   0.76169144   -4.0587951   -4.0587951   -3.0739232  0.076759165   -4.0587951   0.98487188      8192000 
   49000   0.75995132   -4.0575531   -4.0575531   -3.0749312  0.069372162   -4.0575531    0.9826219      8192000 
   50000   0.75842676   -4.0563692   -4.0563692   -3.0757186  0.061701396   -4.0563692   0.98065064      8192000 
   51000    0.7563343   -4.0546619   -4.0546619   -3.0767169  0.049434296   -4.0546619   0.97794507      8192000 
   52000   0.75392562   -4.0521744   -4.0521744   -3.0773438   0.03768293   -4.0521744   0.97483063      8192000 
   53000   0.75134691   -4.0496312   -4.0496312   -3.0781349  0.027337766   -4.0496312   0.97149634      8192000 
   54000   0.74874662   -4.0472296   -4.0472296   -3.0790954  0.015144747   -4.0472296   0.96813416      8192000 
   55000   0.74579098   -4.0440747   -4.0440747   -3.0797622 0.0036961063   -4.0440747   0.96431249      8192000 
   56000   0.74329553   -4.0416763   -4.0416763   -3.0805904 -0.0069860842   -4.0416763   0.96108586      8192000 
   57000   0.74078888   -4.0388977   -4.0388977    -3.081053  -0.01892701   -4.0388977   0.95784475      8192000 
   58000   0.73867649   -4.0368681   -4.0368681   -3.0817546 -0.027041256   -4.0368681   0.95511341      8192000 
   59000   0.73683788   -4.0346948   -4.0346948   -3.0819587 -0.035591952   -4.0346948   0.95273608      8192000 
   60000   0.73521606   -4.0334266   -4.0334266   -3.0827875 -0.045113662   -4.0334266   0.95063905      8192000 
   61000   0.73368496   -4.0320254   -4.0320254   -3.0833661  -0.04953605   -4.0320254   0.94865933      8192000 
   62000   0.73213501   -4.0305697   -4.0305697   -3.0839144 -0.057321612   -4.0305697   0.94665523      8192000 
   63000   0.73102743   -4.0293373   -4.0293373   -3.0841142 -0.063604339   -4.0293373   0.94522313      8192000 
   64000   0.72975796   -4.0282278   -4.0282278   -3.0846461  -0.06463243   -4.0282278   0.94358169      8192000 
   65000   0.72922156   -4.0276598   -4.0276598   -3.0847716 -0.072723683   -4.0276598   0.94288813      8192000 
   66000   0.72852605   -4.0274123   -4.0274123   -3.0854235 -0.077951246   -4.0274123   0.94198883      8192000 
   67000   0.72745276   -4.0263511   -4.0263511     -3.08575 -0.078655868   -4.0263511   0.94060105      8192000 
   68000   0.72738246   -4.0263731   -4.0263731   -3.0858629 -0.081591664   -4.0263731   0.94051016      8192000 
   69000   0.72716859   -4.0261299   -4.0261299   -3.0858963 -0.084852995   -4.0261299   0.94023362      8192000 
   70000   0.72702003   -4.0260671   -4.0260671   -3.0860256 -0.086195011   -4.0260671   0.94004154      8192000 
   71000   0.72659697   -4.0256458   -4.0256458   -3.0861513 -0.086036724   -4.0256458   0.93949452      8192000 
   72000   0.72659815   -4.0258784   -4.0258784   -3.0863824 -0.085335163   -4.0258784   0.93949604      8192000 
   73000   0.72694191   -4.0266616   -4.0266616   -3.0867211 -0.088202155   -4.0266616   0.93994053      8192000 
   74000   0.72650919   -4.0262626   -4.0262626   -3.0868815 -0.084747828   -4.0262626   0.93938102      8192000 
   75000   0.72737735   -4.0276078   -4.0276078   -3.0871042 -0.086006347   -4.0276078   0.94050356      8192000 
   76000   0.72755451   -4.0281495   -4.0281495   -3.0874169  -0.07817553   -4.0281495   0.94073262      8192000 
   77000   0.72768992   -4.0289219   -4.0289219   -3.0880142 -0.077272393   -4.0289219    0.9409077      8192000 
   78000   0.72861888   -4.0304368   -4.0304368   -3.0883279 -0.072707226   -4.0304368   0.94210885      8192000 
   79000   0.72911047   -4.0317868   -4.0317868   -3.0890423 -0.067711315   -4.0317868   0.94274448      8192000 
   80000   0.73008843   -4.0335055   -4.0335055   -3.0894965 -0.063291811   -4.0335055     0.944009      8192000 
   81000   0.73117753   -4.0356853   -4.0356853   -3.0902681 -0.056052081   -4.0356853   0.94541721      8192000 
   82000   0.73252986   -4.0379632   -4.0379632   -3.0907974 -0.051216151   -4.0379632   0.94716578      8192000 
   83000   0.73345111   -4.0400357   -4.0400357   -3.0916787 -0.040987437   -4.0400357   0.94835697      8192000 
   84000   0.73521317   -4.0428199   -4.0428199   -3.0921846 -0.036583995   -4.0428199   0.95063532      8192000 
   85000   0.73677238   -4.0455081   -4.0455081   -3.0928567 -0.028417062   -4.0455081   0.95265138      8192000 
   86000   0.73820596   -4.0482963   -4.0482963   -3.0937913 -0.020966417   -4.0482963   0.95450501      8192000 
   87000   0.73969845   -4.0508048   -4.0508048     -3.09437 -0.011905719   -4.0508048   0.95643481      8192000 
   88000   0.74160576   -4.0537562   -4.0537562   -3.0948552 -0.0022225596   -4.0537562   0.95890098      8192000 
   89000   0.74352762   -4.0571665   -4.0571665   -3.0957806 0.0085498867   -4.0571665   0.96138595      8192000 
   90000    0.7456547   -4.0607076   -4.0607076   -3.0965714  0.016275009   -4.0607076   0.96413628      8192000 
   91000   0.74664099   -4.0626728   -4.0626728   -3.0972613  0.029275036   -4.0626728   0.96541156      8192000 
   92000    0.7485152   -4.0657296   -4.0657296   -3.0978947  0.038526028   -4.0657296   0.96783492      8192000 
   93000   0.75037913   -4.0691977   -4.0691977   -3.0989527  0.047126216   -4.0691977     0.970245      8192000 
   94000   0.75149777   -4.0714423   -4.0714423   -3.0997509  0.054546882   -4.0714423   0.97169141      8192000 
   95000   0.75285241    -4.074025    -4.074025   -3.1005821   0.05920543    -4.074025   0.97344297      8192000 
   96000   0.75368428    -4.076409    -4.076409   -3.1018904   0.06810166    -4.076409   0.97451858      8192000 
   97000    0.7541066   -4.0778608   -4.0778608   -3.1027962  0.075233178   -4.0778608   0.97506464      8192000 
   98000   0.75485636   -4.0794723   -4.0794723   -3.1034382  0.080042361   -4.0794723   0.97603409      8192000 
   99000   0.75501046   -4.0806463   -4.0806463    -3.104413  0.083941447   -4.0806463   0.97623333      8192000 
  100000   0.75541162   -4.0821114   -4.0821114   -3.1053594  0.089947345   -4.0821114   0.97675205      8192000 
  101000   0.75523356   -4.0827651   -4.0827651   -3.1062433  0.090753253   -4.0827651   0.97652181      8192000 
  102000   0.75591592   -4.0845431   -4.0845431    -3.107139  0.088905482   -4.0845431    0.9774041      8192000 
  103000   0.75498535   -4.0845052   -4.0845052   -3.1083043  0.095571344   -4.0845052   0.97620087      8192000 
  104000   0.75511762   -4.0855344   -4.0855344   -3.1091625  0.095310216   -4.0855344    0.9763719      8192000 
  105000   0.75501718   -4.0863944   -4.0863944   -3.1101524  0.091662292   -4.0863944   0.97624203      8192000 
  106000   0.75421554   -4.0862833   -4.0862833   -3.1110778  0.091825438   -4.0862833    0.9752055      8192000 
  107000    0.7539019   -4.0864775   -4.0864775   -3.1116775  0.092736988   -4.0864775   0.97479996      8192000 
  108000   0.75330291   -4.0867178   -4.0867178   -3.1126924  0.087377585   -4.0867178   0.97402546      8192000 
  109000   0.75253608   -4.0864953   -4.0864953   -3.1134613  0.083405911   -4.0864953   0.97303395      8192000 
  110000   0.75202444   -4.0863626   -4.0863626   -3.1139902  0.081235658   -4.0863626    0.9723724      8192000 
  111000   0.75086668   -4.0852102   -4.0852102   -3.1143348   0.07513992   -4.0852102   0.97087541      8192000 
  112000    0.7500756   -4.0849462   -4.0849462   -3.1150937  0.071130691   -4.0849462   0.96985254      8192000 
  113000   0.74907214   -4.0838903   -4.0838903   -3.1153352  0.063540763   -4.0838903   0.96855505      8192000 
  114000   0.74765906   -4.0824033   -4.0824033   -3.1156753  0.060413315   -4.0824033   0.96672793      8192000 
  115000   0.74643334   -4.0812951   -4.0812951   -3.1161521  0.049988981   -4.0812951   0.96514307      8192000 
  116000   0.74470032   -4.0794253   -4.0794253   -3.1165231  0.044637025   -4.0794253   0.96290226      8192000 
  117000   0.74365859     -4.07805     -4.07805   -3.1164947  0.036796277     -4.07805    0.9615553      8192000 
  118000    0.7419353   -4.0763631   -4.0763631    -3.117036  0.028405687   -4.0763631   0.95932707      8192000 
  119000   0.74021189   -4.0741716   -4.0741716   -3.1170729  0.021473919   -4.0741716   0.95709869      8192000 
  120000   0.73876539   -4.0726412   -4.0726412   -3.1174128  0.013933036   -4.0726412   0.95522836      8192000 
  121000   0.73744766   -4.0708667   -4.0708667   -3.1173421 0.0050595533   -4.0708667   0.95352452      8192000 
  122000   0.73610296   -4.0694422   -4.0694422   -3.1176564 -0.00078584327   -4.0694422   0.95178583      8192000 
  123000   0.73427181   -4.0673173   -4.0673173   -3.1178992 -0.0082270973   -4.0673173   0.94941814      8192000 
  124000   0.73322597   -4.0659729   -4.0659729    -3.117907 -0.016319541   -4.0659729   0.94806586      8192000 
  125000   0.73182826   -4.0640347   -4.0640347   -3.1177761 -0.020698834   -4.0640347    0.9462586      8192000 
  126000   0.73073943   -4.0629542   -4.0629542   -3.1181034 -0.026202921   -4.0629542   0.94485075      8192000 
  127000   0.73002845   -4.0620719   -4.0620719   -3.1181405 -0.032152876   -4.0620719   0.94393144      8192000 
  128000    0.7285729   -4.0598599   -4.0598599   -3.1178105 -0.035662797   -4.0598599   0.94204941      8192000 
  129000   0.72830712   -4.0597712   -4.0597712   -3.1180654 -0.040445457   -4.0597712   0.94170575      8192000 
  130000    0.7277138   -4.0591597   -4.0591597   -3.1182211  -0.04402331   -4.0591597   0.94093858      8192000 
  131000   0.72748477   -4.0587796   -4.0587796   -3.1181371 -0.046711528   -4.0587796   0.94064244      8192000 
  132000   0.72737685   -4.0581804   -4.0581804   -3.1176775 -0.046721627   -4.0581804    0.9405029      8192000 
  133000   0.72682725   -4.0576441   -4.0576441   -3.1178518 -0.049695223   -4.0576441   0.93979227      8192000 
  134000   0.72691555   -4.0577331   -4.0577331   -3.1178266 -0.051607345   -4.0577331   0.93990644      8192000 
  135000   0.72701938   -4.0577978   -4.0577978   -3.1177571 -0.049106153   -4.0577978   0.94004069      8192000 
  136000   0.72729844   -4.0579446   -4.0579446   -3.1175431 -0.053085479   -4.0579446   0.94040152      8192000 
  137000     0.727429   -4.0582154   -4.0582154   -3.1176451 -0.049790471   -4.0582154   0.94057034      8192000 
  138000   0.72735435    -4.057875    -4.057875   -3.1174012 -0.048188822    -4.057875   0.94047381      8192000 
  139000   0.72781713   -4.0587917   -4.0587917   -3.1177195 -0.043569004   -4.0587917   0.94107219      8192000 
  140000   0.72834327   -4.0596166   -4.0596166   -3.1178641 -0.044235409   -4.0596166   0.94175249      8192000 
  141000   0.72857193    -4.060004    -4.060004   -3.1179558 -0.042287255    -4.060004   0.94204815      8192000 
  142000    0.7291555   -4.0610363   -4.0610363   -3.1182336 -0.037848401   -4.0610363   0.94280271      8192000 
  143000   0.73014031   -4.0623313   -4.0623313   -3.1182552 -0.034857694   -4.0623313   0.94407608      8192000 
  144000   0.73087264   -4.0634783   -4.0634783   -3.1184553 -0.031941773   -4.0634783   0.94502298      8192000 
  145000   0.73135742   -4.0642267   -4.0642267   -3.1185769  -0.02305916   -4.0642267    0.9456498      8192000 
  146000   0.73203776   -4.0654514   -4.0654514   -3.1189219 -0.015286356   -4.0654514   0.94652949      8192000 
  147000   0.73336009   -4.0676396   -4.0676396   -3.1194004 -0.014870435   -4.0676396   0.94823927      8192000 
  148000   0.73426024   -4.0688591   -4.0688591    -3.119456 -0.005580138   -4.0688591   0.94940317      8192000 
  149000   0.73560113   -4.0709379   -4.0709379    -3.119801 -0.0023697722   -4.0709379   0.95113695      8192000 
  150000   0.73637916   -4.0725146   -4.0725146   -3.1203717 0.0024168852   -4.0725146   0.95214295      8192000 
  151000   0.73783767   -4.0746439   -4.0746439   -3.1206151  0.010839633   -4.0746439   0.95402881      8192000 
  152000   0.73874523   -4.0763439   -4.0763439   -3.1211416  0.016997309   -4.0763439    0.9552023      8192000 
  153000   0.74007336   -4.0785683   -4.0785683   -3.1216487  0.021946178   -4.0785683   0.95691958      8192000 
  154000   0.74094464    -4.080114    -4.080114   -3.1220678  0.029583316    -4.080114   0.95804614      8192000 
  155000   0.74187415   -4.0818265   -4.0818265   -3.1225785  0.036622953   -4.0818265   0.95924801      8192000 
  156000   0.74319485    -4.083653    -4.083653   -3.1226974  0.040919212    -4.083653   0.96095568      8192000 
  157000   0.74423294   -4.0855522   -4.0855522   -3.1232543  0.047513894   -4.0855522   0.96229793      8192000 
  158000   0.74449076   -4.0864278   -4.0864278   -3.1237965  0.055228633   -4.0864278   0.96263129      8192000 
  159000   0.74600988   -4.0891087   -4.0891087   -3.1245132  0.058942109   -4.0891087   0.96459554      8192000 
  160000   0.74636525   -4.0898637   -4.0898637   -3.1248086  0.063312185   -4.0898637   0.96505502      8192000 
  161000   0.74695511   -4.0912119   -4.0912119   -3.1253942  0.068313514   -4.0912119   0.96581771      8192000 
  162000   0.74701671   -4.0915159   -4.0915159   -3.1256185  0.073737268   -4.0915159   0.96589737      8192000 
  163000   0.74757475   -4.0929149   -4.0929149   -3.1262959  0.068833004   -4.0929149   0.96661892      8192000 
  164000   0.74754156   -4.0934975   -4.0934975   -3.1269215  0.074432024   -4.0934975     0.966576      8192000 
  165000   0.74769756   -4.0943549   -4.0943549   -3.1275772  0.072258323   -4.0943549   0.96677771      8192000 
  166000   0.74750636   -4.0945894   -4.0945894   -3.1280589  0.074223644   -4.0945894   0.96653049      8192000 
  167000   0.74710759   -4.0945588   -4.0945588   -3.1285439  0.077062374   -4.0945588   0.96601488      8192000 
  168000   0.74740207   -4.0950725   -4.0950725   -3.1286769  0.074120761   -4.0950725   0.96639565      8192000 
  169000   0.74697589   -4.0951161   -4.0951161   -3.1292715  0.075702411   -4.0951161   0.96584459      8192000 
  170000   0.74659358   -4.0946787   -4.0946787   -3.1293285   0.07358971   -4.0946787   0.96535026      8192000 
  171000   0.74575098   -4.0943455   -4.0943455   -3.1300848  0.070123726   -4.0943455   0.96426077      8192000 
  172000   0.74509897   -4.0937483   -4.0937483   -3.1303306   0.06939032   -4.0937483   0.96341772      8192000 
  173000   0.74467229   -4.0937159   -4.0937159   -3.1308499  0.063928805   -4.0937159   0.96286602      8192000 
  174000   0.74377277   -4.0928519   -4.0928519   -3.1311489  0.059630781   -4.0928519   0.96170293      8192000 
  175000   0.74313907   -4.0921104   -4.0921104   -3.1312268  0.059044015   -4.0921104   0.96088355      8192000 
  176000   0.74275123   -4.0920622   -4.0920622   -3.1316802  0.050484331   -4.0920622   0.96038208      8192000 
  177000   0.74190427   -4.0909029   -4.0909029    -3.131616  0.044139271   -4.0909029   0.95928695      8192000 
  178000    0.7408558   -4.0895188   -4.0895188   -3.1315875  0.042184066   -4.0895188   0.95793127      8192000 
  179000   0.73974464   -4.0882775   -4.0882775    -3.131783  0.038327415   -4.0882775   0.95649454      8192000 
  180000   0.73888289   -4.0874367   -4.0874367   -3.1320564   0.03151312   -4.0874367   0.95538029      8192000 
  181000   0.73806652   -4.0862775   -4.0862775   -3.1319528  0.025863248   -4.0862775   0.95432472      8192000 
  182000   0.73707183   -4.0849441   -4.0849441   -3.1319055  0.018268369   -4.0849441   0.95303857      8192000 
  183000   0.73599765   -4.0836489   -4.0836489   -3.1319993  0.013629206   -4.0836489   0.95164965      8192000 
  184000   0.73503761   -4.0824347   -4.0824347   -3.1320264 0.0098193159   -4.0824347   0.95040832      8192000 
  185000   0.73428998   -4.0811906   -4.0811906    -3.131749 0.0051983202   -4.0811906   0.94944163      8192000 
  186000   0.73275668   -4.0791844   -4.0791844   -3.1317253 0.00035509332   -4.0791844   0.94745906      8192000 
  187000   0.73216563   -4.0785645   -4.0785645   -3.1318697 -0.0057091654   -4.0785645   0.94669483      8192000 
  188000    0.7313286   -4.0775017   -4.0775017   -3.1318892 -0.0082842152   -4.0775017   0.94561255      8192000 
  189000   0.73058643   -4.0763819   -4.0763819    -3.131729 -0.012234821   -4.0763819   0.94465291      8192000 
  190000   0.73031111   -4.0759219   -4.0759219   -3.1316249 -0.017193761   -4.0759219   0.94429692      8192000 
  191000   0.72948552   -4.0744468   -4.0744468   -3.1312173 -0.018400089   -4.0744468   0.94322942      8192000 
  192000   0.72878916   -4.0738322   -4.0738322   -3.1315032 -0.022382318   -4.0738322   0.94232903      8192000 
  193000   0.72860323   -4.0734022   -4.0734022   -3.1313136 -0.022910912   -4.0734022   0.94208863      8192000 
  194000   0.72832656   -4.0729588   -4.0729588   -3.1312279  -0.02524504   -4.0729588   0.94173088      8192000 
  195000   0.72785262   -4.0722018   -4.0722018   -3.1310837 -0.026328461   -4.0722018   0.94111807      8192000 
  196000   0.72814659   -4.0722755   -4.0722755   -3.1307773 -0.023757969   -4.0722755   0.94149818      8192000 
  197000   0.72816123   -4.0723598   -4.0723598   -3.1308427 -0.023980829   -4.0723598   0.94151711      8192000 
  198000   0.72816505   -4.0724343   -4.0724343   -3.1309122 -0.026441516   -4.0724343   0.94152205      8192000 
  199000   0.72872575   -4.0731306   -4.0731306   -3.1308836 -0.029343306   -4.0731306   0.94224705      8192000 
  200000   0.72878094    -4.073065    -4.073065   -3.1307466 -0.027229543    -4.073065   0.94231841      8192000 
  201000   0.72926013    -4.073486    -4.073486    -3.130548 -0.023949827    -4.073486     0.942938      8192000 
  202000   0.72937181   -4.0735637   -4.0735637   -3.1304813 -0.020283696   -4.0735637    0.9430824      8192000 
  203000   0.72965316    -4.074176    -4.074176   -3.1307298 -0.018899971    -4.074176   0.94344619      8192000 
  204000   0.73054986   -4.0752248   -4.0752248   -3.1306191 -0.015018051   -4.0752248   0.94460562      8192000 
  205000   0.73081228   -4.0757307   -4.0757307   -3.1307858 -0.012588867   -4.0757307   0.94494494      8192000 
  206000   0.73171683   -4.0768787   -4.0768787   -3.1307642 -0.012289269   -4.0768787   0.94611452      8192000 
  207000   0.73228329   -4.0777607   -4.0777607   -3.1309137 -0.008457154   -4.0777607   0.94684697      8192000 
  208000   0.73237418   -4.0784863   -4.0784863   -3.1315218 -0.0048505934   -4.0784863   0.94696449      8192000 
  209000   0.73354181   -4.0797218   -4.0797218   -3.1312476 -0.0015904905   -4.0797218   0.94847423      8192000 
  210000   0.73399083   -4.0803365   -4.0803365   -3.1312817 0.0037121734   -4.0803365   0.94905483      8192000 
  211000   0.73481509   -4.0816992   -4.0816992   -3.1315786 0.0084743395   -4.0816992    0.9501206      8192000 
  212000   0.73567003   -4.0830122   -4.0830122   -3.1317862  0.012213263   -4.0830122   0.95122604      8192000 
  213000   0.73612996   -4.0841544   -4.0841544   -3.1323337  0.015715944   -4.0841544   0.95182073      8192000 
  214000   0.73708617   -4.0854764   -4.0854764   -3.1324193  0.020065816   -4.0854764   0.95305712      8192000 
  215000    0.7377435   -4.0863862   -4.0863862   -3.1324791  0.027279645   -4.0863862   0.95390705      8192000 
  216000   0.73857303   -4.0875784   -4.0875784   -3.1325987  0.033590328   -4.0875784   0.95497963      8192000 
  217000   0.73908322   -4.0887085   -4.0887085   -3.1330692  0.035087453   -4.0887085   0.95563932      8192000 
  218000   0.74010149   -4.0901843   -4.0901843   -3.1332284  0.043050882   -4.0901843   0.95695595      8192000 
  219000   0.74101553   -4.0916087   -4.0916087   -3.1334709  0.042095655   -4.0916087   0.95813781      8192000 
  220000   0.74105743   -4.0923528   -4.0923528   -3.1341608  0.044841907   -4.0923528   0.95819198      8192000 
  221000   0.74162146   -4.0929588   -4.0929588   -3.1340375  0.051236909   -4.0929588   0.95892127      8192000 
  222000   0.74245961   -4.0943617   -4.0943617   -3.1343567  0.052200825   -4.0943617   0.96000501      8192000 
  223000   0.74241932   -4.0947785   -4.0947785   -3.1348255  0.054091454   -4.0947785   0.95995292      8192000 
  224000    0.7425209   -4.0951291   -4.0951291   -3.1350449  0.057453082   -4.0951291   0.96008426      8192000 
  225000   0.74263488   -4.0956133   -4.0956133   -3.1353816  0.059922432   -4.0956133   0.96023163      8192000 
  226000   0.74322085   -4.0967782   -4.0967782   -3.1357889  0.059254436   -4.0967782    0.9609893      8192000 
  227000   0.74289597   -4.0967052   -4.0967052    -3.136136  0.061600452   -4.0967052   0.96056923      8192000 
  228000   0.74325914   -4.0972611   -4.0972611   -3.1362223  0.059689902   -4.0972611    0.9610388      8192000 
  229000    0.7430251   -4.0971264   -4.0971264   -3.1363902  0.062056594   -4.0971264    0.9607362      8192000 
  230000   0.74286476   -4.0971809   -4.0971809   -3.1366521  0.061117503   -4.0971809   0.96052887      8192000 
  231000   0.74265489   -4.0973096   -4.0973096   -3.1370521  0.059104517   -4.0973096    0.9602575      8192000 
  232000   0.74204007   -4.0966626   -4.0966626   -3.1372001  0.056880777   -4.0966626   0.95946255      8192000 
  233000   0.74160648   -4.0965466   -4.0965466   -3.1376447  0.056168535   -4.0965466   0.95890191      8192000 
  234000   0.74113361   -4.0960679   -4.0960679   -3.1377774  0.054696558   -4.0960679   0.95829049      8192000 
  235000   0.74119749    -4.096463    -4.096463   -3.1380899   0.04996601    -4.096463   0.95837308      8192000 
  236000   0.74056783   -4.0956599   -4.0956599   -3.1381009  0.046021131   -4.0956599   0.95755893      8192000 
  237000    0.7398858   -4.0951284   -4.0951284   -3.1384514  0.045406553   -4.0951284   0.95667706      8192000 
  238000   0.73923982   -4.0938087   -4.0938087   -3.1379669  0.042506595   -4.0938087   0.95584181      8192000 
  239000   0.73891005   -4.0933237   -4.0933237   -3.1379083  0.040300261   -4.0933237    0.9554154      8192000 
  240000   0.73776755    -4.092068    -4.092068   -3.1381298  0.035475453    -4.092068   0.95393815      8192000 
  241000   0.73736324   -4.0912211   -4.0912211   -3.1378057  0.030325975   -4.0912211   0.95341536      8192000 
  242000   0.73689898   -4.0907815   -4.0907815   -3.1379665  0.027854968   -4.0907815   0.95281508      8192000 
  243000   0.73592554   -4.0895981   -4.0895981   -3.1380416  0.027451742   -4.0895981   0.95155642      8192000 
  244000   0.73535384   -4.0886776   -4.0886776   -3.1378604  0.021741142   -4.0886776   0.95081721      8192000 
  245000   0.73514968   -4.0879452   -4.0879452   -3.1373919  0.017100662   -4.0879452   0.95055322      8192000 
  246000   0.73425145   -4.0867179   -4.0867179   -3.1373261  0.017144486   -4.0867179    0.9493918      8192000 
  247000   0.73415945   -4.0864849   -4.0864849   -3.1372121 0.0095781238   -4.0864849   0.94927286      8192000 
  248000   0.73300381    -4.084972    -4.084972   -3.1371934 0.0078573442    -4.084972    0.9477786      8192000 
  249000   0.73240348   -4.0845959   -4.0845959   -3.1375935 0.0027836443   -4.0845959   0.94700236      8192000 
  250000   0.73186588   -4.0837505   -4.0837505   -3.1374433 0.0020168566   -4.0837505   0.94630725      8192000 
  251000   0.73137087   -4.0831089   -4.0831089   -3.1374417 -0.0023294691   -4.0831089    0.9456672      8192000 
  252000   0.73119221   -4.0824201   -4.0824201   -3.1369839 -0.0043926338   -4.0824201   0.94543619      8192000 
  253000   0.73085546   -4.0817356   -4.0817356   -3.1367349 -0.0070041804   -4.0817356   0.94500076      8192000 
  254000   0.73022506   -4.0811707   -4.0811707    -3.136985 -0.0088711716   -4.0811707   0.94418566      8192000 
  255000   0.73010455   -4.0804756   -4.0804756   -3.1364458 -0.0087489742   -4.0804756   0.94402984      8192000 
  256000   0.73006379   -4.0801866   -4.0801866   -3.1362095 -0.0092285981   -4.0801866   0.94397714      8192000 
  257000   0.73036118    -4.080569    -4.080569   -3.1362073 -0.011105805    -4.080569   0.94436167      8192000 
  258000    0.7301816   -4.0800244   -4.0800244   -3.1358949 -0.0099830888   -4.0800244   0.94412947      8192000 
  259000   0.73005081   -4.0802238   -4.0802238   -3.1362635 -0.013394347   -4.0802238   0.94396035      8192000 
  260000   0.73040943   -4.0803472   -4.0803472   -3.1359231 -0.011681036   -4.0803472   0.94442406      8192000 
  261000   0.73056267   -4.0804226   -4.0804226   -3.1358004 -0.0095936451   -4.0804226   0.94462219      8192000 
  262000    0.7304874   -4.0801434   -4.0801434   -3.1356185 -0.011372926   -4.0801434   0.94452487      8192000 
  263000   0.73035166   -4.0801615   -4.0801615   -3.1358121 -0.0084808678   -4.0801615   0.94434936      8192000 
  264000   0.73132862   -4.0812376   -4.0812376    -3.135625 -0.0063943347   -4.0812376   0.94561256      8192000 
  265000   0.73136315   -4.0809902   -4.0809902    -3.135333 -0.0050017678   -4.0809902   0.94565722      8192000 
  266000    0.7316484   -4.0815708   -4.0815708   -3.1355448 -0.002598973   -4.0815708   0.94602605      8192000 
  267000   0.73234035   -4.0821959   -4.0821959   -3.1352751 0.00055121911   -4.0821959   0.94692074      8192000 
  268000   0.73279353   -4.0831173   -4.0831173   -3.1356106  0.002034665   -4.0831173   0.94750671      8192000 
  269000   0.73299879   -4.0835575   -4.0835575   -3.1357854 0.0054196086   -4.0835575   0.94777211      8192000 
  270000   0.73381125   -4.0843482   -4.0843482   -3.1355256 0.0067332276   -4.0843482   0.94882263      8192000 
  271000   0.73442953   -4.0851761   -4.0851761   -3.1355541  0.010090891   -4.0851761   0.94962207      8192000 
  272000   0.73480296   -4.0855009   -4.0855009    -3.135396  0.012496221   -4.0855009   0.95010491      8192000 
  273000   0.73537594   -4.0863774   -4.0863774   -3.1355316  0.016307489   -4.0863774   0.95084578      8192000 
  274000   0.73562811   -4.0870016   -4.0870016   -3.1358298   0.01982253   -4.0870016   0.95117183      8192000 
  275000   0.73651758   -4.0880288   -4.0880288   -3.1357069  0.023802447   -4.0880288   0.95232193      8192000 
  276000   0.73690667    -4.088878    -4.088878    -3.136053  0.026092524    -4.088878   0.95282502      8192000 
  277000   0.73735602   -4.0896903   -4.0896903   -3.1362843  0.030344376   -4.0896903   0.95340604      8192000 
  278000   0.73785424   -4.0902029   -4.0902029   -3.1361526  0.031058359   -4.0902029   0.95405024      8192000 
  279000   0.73833224   -4.0910153   -4.0910153    -3.136347  0.032397106   -4.0910153   0.95466829      8192000 
  280000   0.73856354   -4.0915895   -4.0915895   -3.1366222  0.039178765   -4.0915895   0.95496737      8192000 
  281000   0.73952282   -4.0930049   -4.0930049   -3.1367972  0.037990499   -4.0930049   0.95620772      8192000 
  282000   0.73967732   -4.0933229   -4.0933229   -3.1369154   0.04300339   -4.0933229   0.95640749      8192000 
  283000   0.73975708   -4.0936793   -4.0936793   -3.1371687  0.045015671   -4.0936793   0.95651062      8192000 
  284000   0.74000724   -4.0941644   -4.0941644   -3.1373303  0.045597324   -4.0941644   0.95683408      8192000 
  285000   0.74009158   -4.0945134   -4.0945134   -3.1375702  0.045887062   -4.0945134   0.95694314      8192000 
  286000   0.74065732   -4.0948789   -4.0948789   -3.1372042  0.049604841   -4.0948789   0.95767464      8192000 
  287000   0.74050522    -4.094841    -4.094841   -3.1373631  0.050710898    -4.094841   0.95747798      8192000 
  288000   0.74112312   -4.0957638   -4.0957638   -3.1374869  0.050120506   -4.0957638   0.95827692      8192000 
  289000   0.74075693    -4.095817    -4.095817   -3.1380136  0.050601706    -4.095817   0.95780344      8192000 
  290000   0.74026914   -4.0953269   -4.0953269   -3.1381542  0.051241606   -4.0953269   0.95717271      8192000 
  291000    0.7407448   -4.0956263   -4.0956263   -3.1378385  0.051415455   -4.0956263   0.95778775      8192000 
  292000   0.74047215   -4.0957891   -4.0957891   -3.1383539  0.047167538   -4.0957891   0.95743522      8192000 
  293000   0.73976384   -4.0949975   -4.0949975   -3.1384781  0.048540866   -4.0949975   0.95651936      8192000 
  294000   0.73964457   -4.0950951   -4.0950951     -3.13873  0.044722481   -4.0950951   0.95636514      8192000 
  295000   0.73978773   -4.0950293   -4.0950293   -3.1384791  0.043866334   -4.0950293   0.95655025      8192000 
  296000     0.738973    -4.094091    -4.094091   -3.1385943  0.045461672    -4.094091    0.9554968      8192000 
  297000    0.7387974   -4.0938396   -4.0938396   -3.1385699  0.039526216   -4.0938396   0.95526975      8192000 
  298000   0.73811151   -4.0930071   -4.0930071   -3.1386242  0.040425027   -4.0930071   0.95438289      8192000 
  299000   0.73798735   -4.0929401   -4.0929401   -3.1387177  0.033568104   -4.0929401   0.95422235      8192000 
  300000   0.73710387   -4.0915357   -4.0915357   -3.1384557  0.033898565   -4.0915357   0.95308001      8192000 
  301000   0.73711842    -4.091985    -4.091985   -3.1388862  0.030424584    -4.091985   0.95309882      8192000 
  302000   0.73682053   -4.0912583   -4.0912583   -3.1385446  0.026792942   -4.0912583   0.95271364      8192000 
  303000   0.73612795   -4.0903989   -4.0903989   -3.1385807  0.024490956   -4.0903989   0.95181813      8192000 
  304000   0.73566464   -4.0896357   -4.0896357   -3.1384166  0.023437726   -4.0896357   0.95121907      8192000 
  305000   0.73501979   -4.0891144   -4.0891144   -3.1387291  0.019666275   -4.0891144   0.95038528      8192000 
  306000   0.73469684   -4.0882969   -4.0882969   -3.1383292  0.018520242   -4.0882969    0.9499677      8192000 
  307000   0.73387112   -4.0871655   -4.0871655   -3.1382654   0.01831397   -4.0871655   0.94890003      8192000 
  308000   0.73423804   -4.0876363   -4.0876363   -3.1382618  0.013055021   -4.0876363   0.94937447      8192000 
  309000   0.73399265   -4.0866982   -4.0866982    -3.137641  0.012476521   -4.0866982   0.94905718      8192000 
  310000   0.73365423     -4.08604     -4.08604   -3.1374204  0.008461121     -4.08604   0.94861959      8192000 
  311000   0.73316856   -4.0852404   -4.0852404   -3.1372487 0.0079563555   -4.0852404   0.94799162      8192000 
  312000   0.73259074   -4.0845881   -4.0845881   -3.1373436 0.0069524286   -4.0845881    0.9472445      8192000 
  313000   0.73231297   -4.0841553   -4.0841553   -3.1372699  0.004842344   -4.0841553   0.94688533      8192000 
  314000   0.73190267   -4.0833662   -4.0833662   -3.1370114 0.0049903231   -4.0833662   0.94635482      8192000 
  315000   0.73223391   -4.0837969   -4.0837969   -3.1370138 0.00074238584   -4.0837969   0.94678311      8192000 
  316000   0.73153645   -4.0829428   -4.0829428   -3.1370615 -4.9587771e-06   -4.0829428   0.94588129      8192000 
  317000   0.73201448   -4.0831753   -4.0831753   -3.1366759 -0.0010930854   -4.0831753    0.9464994      8192000 
  318000   0.73191377   -4.0828939   -4.0828939   -3.1365248 0.0010272615   -4.0828939   0.94636918      8192000 
  319000    0.7322157   -4.0828952   -4.0828952   -3.1361356 -0.0013619073   -4.0828952   0.94675957      8192000 
  320000     0.732246    -4.082864    -4.082864   -3.1360652 0.0010486109    -4.082864   0.94679874      8192000 
  321000   0.73212625   -4.0829711   -4.0829711   -3.1363272 0.0010751461   -4.0829711    0.9466439      8192000 
  322000   0.73205607   -4.0826357   -4.0826357   -3.1360825 0.0020353342   -4.0826357   0.94655316      8192000 
  323000   0.73275032   -4.0831783   -4.0831783   -3.1357274 0.0033310323   -4.0831783   0.94745083      8192000 
  324000   0.73296678   -4.0833997   -4.0833997    -3.135669 0.0011332124   -4.0833997   0.94773072      8192000 
  325000   0.73268524   -4.0832025   -4.0832025   -3.1358358 0.0034253085   -4.0832025   0.94736669      8192000 
  326000   0.73344231   -4.0839075   -4.0839075   -3.1355619 0.0034231558   -4.0839075   0.94834558      8192000 
  327000   0.73353756   -4.0839219   -4.0839219   -3.1354532  0.005273835   -4.0839219   0.94846874      8192000 
  328000   0.73408045   -4.0846434   -4.0846434   -3.1354727 0.0089508273   -4.0846434    0.9491707      8192000 
  329000   0.73445811    -4.085087    -4.085087    -3.135428 0.0062286558    -4.085087   0.94965902      8192000 
  330000   0.73487017   -4.0858622   -4.0858622   -3.1356704  0.010559889   -4.0858622   0.95019181      8192000 
  331000   0.73449266   -4.0849433   -4.0849433   -3.1352396  0.015391876   -4.0849433   0.94970369      8192000 
  332000   0.73554784   -4.0862587   -4.0862587   -3.1351907   0.01492342   -4.0862587   0.95106804      8192000 
  333000   0.73534417   -4.0860094   -4.0860094   -3.1352047  0.019669477   -4.0860094    0.9508047      8192000 
  334000   0.73614918   -4.0872878   -4.0872878   -3.1354422    0.0179993   -4.0872878   0.95184559      8192000 
  335000   0.73640296   -4.0877317   -4.0877317   -3.1355579  0.022057287   -4.0877317   0.95217373      8192000 
  336000   0.73622492   -4.0875702   -4.0875702   -3.1356267  0.025290015   -4.0875702   0.95194351      8192000 
  337000   0.73692401   -4.0884989   -4.0884989   -3.1356515  0.027047305   -4.0884989   0.95284744      8192000 
  338000   0.73757052   -4.0891892   -4.0891892   -3.1355058  0.027760868   -4.0891892   0.95368339      8192000 
  339000   0.73752822   -4.0894885   -4.0894885   -3.1358598  0.030624393   -4.0894885   0.95362869      8192000 
  340000   0.73774674   -4.0894103   -4.0894103   -3.1354991  0.034148907   -4.0894103   0.95391124      8192000 
  341000    0.7378306   -4.0901067   -4.0901067    -3.136087  0.034528978   -4.0901067   0.95401967      8192000 
  342000   0.73803249   -4.0904997   -4.0904997    -3.136219  0.035683734   -4.0904997   0.95428072      8192000 
  343000   0.73857084   -4.0908488   -4.0908488    -3.135872  0.036808665   -4.0908488    0.9549768      8192000 
  344000   0.73843958   -4.0911523   -4.0911523   -3.1363452  0.038239493   -4.0911523   0.95480709      8192000 
  345000   0.73871637   -4.0914272   -4.0914272   -3.1362622  0.037692487   -4.0914272   0.95516497      8192000 
  346000   0.73902284   -4.0917351   -4.0917351   -3.1361739  0.042975635   -4.0917351   0.95556124      8192000 
  347000   0.73929105   -4.0920981   -4.0920981   -3.1361901  0.038978883   -4.0920981   0.95590805      8192000 
  348000   0.73877683   -4.0916993   -4.0916993   -3.1364562   0.04080187   -4.0916993   0.95524315      8192000 
  349000   0.73870777   -4.0914537   -4.0914537   -3.1362999   0.04242702   -4.0914537   0.95515386      8192000 
  350000   0.73914043   -4.0926248   -4.0926248   -3.1369115  0.035615877   -4.0926248   0.95571328      8192000 
  351000    0.7389713   -4.0922035   -4.0922035   -3.1367089  0.036990154   -4.0922035   0.95549461      8192000 
  352000   0.73887924   -4.0918422   -4.0918422   -3.1364666  0.041510951   -4.0918422   0.95537556      8192000 
  353000   0.73874578   -4.0917666   -4.0917666   -3.1365636  0.039261555   -4.0917666   0.95520301      8192000 
  354000   0.73896171   -4.0920356   -4.0920356   -3.1365534  0.038591538   -4.0920356    0.9554822      8192000 
  355000   0.73945897   -4.0925981   -4.0925981   -3.1364729   0.03663151   -4.0925981   0.95612516      8192000 
  356000   0.73828118   -4.0911231   -4.0911231   -3.1365209  0.038094008   -4.0911231   0.95460227      8192000 
  357000   0.73847549   -4.0911454   -4.0911454   -3.1362919  0.035975633   -4.0911454   0.95485352      8192000 
  358000   0.73804842   -4.0905929   -4.0905929   -3.1362916  0.035146395   -4.0905929   0.95430131      8192000 
  359000   0.73787058   -4.0903779   -4.0903779   -3.1363066  0.032790958   -4.0903779   0.95407137      8192000 
  360000   0.73768371   -4.0896648   -4.0896648   -3.1358351  0.032957921   -4.0896648   0.95382974      8192000 
  361000   0.73760332   -4.0898788   -4.0898788    -3.136153   0.03016337   -4.0898788   0.95372579      8192000 
  362000   0.73704458   -4.0888061   -4.0888061   -3.1358028  0.029275961   -4.0888061   0.95300334      8192000 
  363000   0.73724916    -4.088967    -4.088967   -3.1356991  0.026912556    -4.088967   0.95326786      8192000 
  364000   0.73672777   -4.0880919   -4.0880919   -3.1354982  0.027946088   -4.0880919   0.95259371      8192000 
  365000   0.73690225   -4.0882261   -4.0882261   -3.1354068   0.02183255   -4.0882261    0.9528193      8192000 
  366000    0.7363571   -4.0875951   -4.0875951   -3.1354806  0.019987827   -4.0875951   0.95211443      8192000 
  367000   0.73567556   -4.0866262   -4.0866262    -3.135393  0.020664346   -4.0866262   0.95123319      8192000 
  368000   0.73556106   -4.0863117   -4.0863117   -3.1352266  0.019776053   -4.0863117   0.95108514      8192000 
  369000    0.7352747   -4.0859223   -4.0859223   -3.1352074  0.019786944   -4.0859223   0.95071487      8192000 
  370000   0.73474922   -4.0846698   -4.0846698   -3.1346343  0.017638606   -4.0846698   0.95003542      8192000 
  371000   0.73521719   -4.0856784   -4.0856784   -3.1350379  0.013685883   -4.0856784   0.95064052      8192000 
  372000   0.73491362   -4.0848864   -4.0848864   -3.1346384  0.012947263   -4.0848864   0.95024799      8192000 
  373000   0.73455377   -4.0845071   -4.0845071   -3.1347244  0.011899038   -4.0845071    0.9497827      8192000 
  374000   0.73418521   -4.0836256   -4.0836256   -3.1343195  0.011332123   -4.0836256   0.94930616      8192000 
  375000   0.73391662   -4.0830105   -4.0830105   -3.1340516  0.010029044   -4.0830105   0.94895887      8192000 
  376000   0.73412498   -4.0832629   -4.0832629   -3.1340347 0.0097685857   -4.0832629   0.94922827      8192000 
  377000   0.73425189   -4.0832238   -4.0832238   -3.1338314 0.0090034523   -4.0832238   0.94939237      8192000 
  378000   0.73424299   -4.0826552   -4.0826552   -3.1332744 0.0091088237   -4.0826552   0.94938087      8192000 
  379000   0.73371483   -4.0821854   -4.0821854   -3.1334875 0.0095144822   -4.0821854   0.94869795      8192000 
  380000   0.73420831   -4.0825925   -4.0825925   -3.1332564  0.010906079   -4.0825925   0.94933603      8192000 
  381000    0.7341514   -4.0825162   -4.0825162   -3.1332537 0.0093985595   -4.0825162   0.94926244      8192000 
  382000   0.73426894   -4.0824751   -4.0824751   -3.1330607 0.0095672395   -4.0824751   0.94941442      8192000 
  383000   0.73414318    -4.082433    -4.082433   -3.1331812  0.011341567    -4.082433   0.94925182      8192000 
  384000   0.73409476   -4.0820839   -4.0820839   -3.1328947 0.0092257219   -4.0820839   0.94918921      8192000 
  385000   0.73474157   -4.0827839   -4.0827839   -3.1327584 0.0085365884   -4.0827839   0.95002554      8192000 
  386000   0.73484493   -4.0824874   -4.0824874   -3.1323282 0.0092722145   -4.0824874   0.95015918      8192000 
  387000   0.73460643   -4.0825336   -4.0825336   -3.1326828  0.011804509   -4.0825336    0.9498508      8192000 
  388000   0.73524587   -4.0832139   -4.0832139   -3.1325363 0.0095854115   -4.0832139    0.9506776      8192000 
  389000   0.73518067   -4.0829601   -4.0829601   -3.1323668  0.013100192   -4.0829601   0.95059329      8192000 
  390000   0.73525864   -4.0827484   -4.0827484   -3.1320543  0.015202812   -4.0827484   0.95069411      8192000 
  391000   0.73554567   -4.0833636   -4.0833636   -3.1322984  0.012653327   -4.0833636   0.95106524      8192000 
  392000   0.73578768   -4.0833262   -4.0833262    -3.131948  0.019339145   -4.0833262   0.95137817      8192000 
  393000   0.73614336   -4.0838558   -4.0838558   -3.1320178  0.016500246   -4.0838558   0.95183806      8192000 
  394000    0.7370017   -4.0845952   -4.0845952   -3.1316473  0.018134741   -4.0845952    0.9529479      8192000 
  395000   0.73681059   -4.0846529   -4.0846529   -3.1319522  0.019555827   -4.0846529   0.95270078      8192000 
  396000   0.73707824   -4.0849956   -4.0849956   -3.1319488   0.02252862   -4.0849956   0.95304686      8192000 
  397000   0.73735314   -4.0850878   -4.0850878   -3.1316855  0.026678735   -4.0850878   0.95340231      8192000 
  398000   0.73781341   -4.0857686   -4.0857686   -3.1317711  0.025288317   -4.0857686   0.95399744      8192000 
  399000   0.73807517   -4.0858253   -4.0858253   -3.1314894  0.026147029   -4.0858253    0.9543359      8192000 
  400000   0.73782447   -4.0856468   -4.0856468   -3.1316351  0.029889531   -4.0856468   0.95401174      8192000 
  401000   0.73825976   -4.0863159   -4.0863159   -3.1317413  0.028792817   -4.0863159   0.95457458      8192000 
  402000   0.73827559   -4.0862096   -4.0862096   -3.1316146  0.029418935   -4.0862096   0.95459504      8192000 
  403000   0.73885247   -4.0867744   -4.0867744   -3.1314334  0.029288493   -4.0867744   0.95534095      8192000 
  404000    0.7386285   -4.0866849   -4.0866849   -3.1316336  0.033990049   -4.0866849   0.95505135      8192000 
  405000   0.73904523   -4.0872393   -4.0872393   -3.1316491  0.029940299   -4.0872393   0.95559019      8192000 
  406000   0.73932972   -4.0875401   -4.0875401   -3.1315821  0.031149778   -4.0875401   0.95595804      8192000 
  407000   0.73895059   -4.0870675   -4.0870675   -3.1315997  0.034636712   -4.0870675   0.95546782      8192000 
  408000   0.73935206   -4.0871983   -4.0871983   -3.1312113  0.035513578   -4.0871983   0.95598693      8192000 
  409000   0.73943097   -4.0876453   -4.0876453   -3.1315564  0.034062561   -4.0876453   0.95608895      8192000 
  410000   0.73946387   -4.0876021   -4.0876021   -3.1314706   0.03557633   -4.0876021    0.9561315      8192000 
  411000   0.73900526   -4.0869779   -4.0869779   -3.1314394  0.036118649   -4.0869779   0.95553852      8192000 
  412000   0.73956981    -4.087682    -4.087682   -3.1314135  0.033220971    -4.087682   0.95626848      8192000 
  413000   0.73943304     -4.08743     -4.08743   -3.1313384   0.03414065     -4.08743   0.95609164      8192000 
  414000   0.73912126   -4.0869857   -4.0869857   -3.1312972  0.032308528   -4.0869857    0.9556885      8192000 
  415000   0.73915201   -4.0870718   -4.0870718   -3.1313435  0.033301374   -4.0870718   0.95572826      8192000 
  416000   0.73916781   -4.0869111   -4.0869111   -3.1311624   0.03393973   -4.0869111   0.95574869      8192000 
  417000   0.73865726   -4.0862311   -4.0862311   -3.1311425  0.031066912   -4.0862311   0.95508854      8192000 
  418000   0.73874616   -4.0861147   -4.0861147   -3.1309112   0.03074165   -4.0861147   0.95520349      8192000 
  419000   0.73835253   -4.0856404   -4.0856404   -3.1309459   0.03146448   -4.0856404   0.95469453      8192000 
  420000    0.7382727   -4.0855524   -4.0855524   -3.1309611   0.02819474   -4.0855524   0.95459131      8192000 
  421000   0.73835667   -4.0854013   -4.0854013   -3.1307014  0.030555972   -4.0854013   0.95469988      8192000 
  422000   0.73859415   -4.0856374   -4.0856374   -3.1306305  0.025848026   -4.0856374   0.95500694      8192000 
  423000   0.73825953   -4.0850597   -4.0850597   -3.1304854  0.023565668   -4.0850597   0.95457428      8192000 
  424000    0.7377966   -4.0840859   -4.0840859   -3.1301102   0.02739937   -4.0840859   0.95397571      8192000 
  425000   0.73790842   -4.0842472   -4.0842472   -3.1301269  0.021799474   -4.0842472   0.95412029      8192000 
  426000   0.73760149   -4.0839544   -4.0839544   -3.1302309  0.020190568   -4.0839544   0.95372343      8192000 
  427000   0.73744278   -4.0837584   -4.0837584   -3.1302402  0.021483792   -4.0837584   0.95351821      8192000 
  428000   0.73689687   -4.0830068   -4.0830068   -3.1301944  0.022714493   -4.0830068   0.95281235      8192000 
  429000    0.7364703   -4.0822022   -4.0822022   -3.1299414  0.020715498   -4.0822022   0.95226079      8192000 
  430000   0.73635932   -4.0818174   -4.0818174   -3.1297001  0.021150763   -4.0818174   0.95211729      8192000 
  431000    0.7369481   -4.0821297   -4.0821297   -3.1292511  0.019077408   -4.0821297    0.9528786      8192000 
  432000   0.73661136   -4.0815284   -4.0815284   -3.1290853  0.017066392   -4.0815284   0.95244318      8192000 
  433000   0.73660445   -4.0812616   -4.0812616   -3.1288274  0.017273122   -4.0812616   0.95243425      8192000 
  434000    0.7367158   -4.0812942   -4.0812942    -3.128716  0.018237051   -4.0812942   0.95257822      8192000 
  435000    0.7363181   -4.0806598   -4.0806598   -3.1285958   0.01829249   -4.0806598   0.95206399      8192000 
  436000   0.73666298   -4.0810596   -4.0810596   -3.1285497  0.014067649   -4.0810596   0.95250993      8192000 
  437000   0.73634074   -4.0804575   -4.0804575   -3.1283643  0.016588618   -4.0804575   0.95209327      8192000 
  438000    0.7361953   -4.0800086   -4.0800086   -3.1281033   0.01545891   -4.0800086   0.95190522      8192000 
  439000   0.73668716   -4.0806654   -4.0806654   -3.1281242  0.013479448   -4.0806654   0.95254119      8192000 
  440000   0.73626198   -4.0798895   -4.0798895   -3.1278981  0.014768781   -4.0798895   0.95199144      8192000 
  441000   0.73658568   -4.0799842   -4.0799842   -3.1275743  0.014503314   -4.0799842   0.95240998      8192000 
  442000   0.73681907   -4.0804184   -4.0804184   -3.1277067  0.014490469   -4.0804184   0.95271175      8192000 
  443000   0.73675395   -4.0801298   -4.0801298   -3.1275022  0.015015089   -4.0801298   0.95262755      8192000 
  444000   0.73660537   -4.0796275   -4.0796275   -3.1271921  0.015139826   -4.0796275   0.95243544      8192000 
  445000   0.73688819   -4.0798858   -4.0798858   -3.1270846  0.017308043   -4.0798858   0.95280113      8192000 
  446000   0.73677002   -4.0798322   -4.0798322   -3.1271838  0.015701666   -4.0798322   0.95264833      8192000 
  447000   0.73677021   -4.0794126   -4.0794126    -3.126764  0.017350268   -4.0794126   0.95264858      8192000 
  448000   0.73723426   -4.0799407   -4.0799407   -3.1266921  0.015755312   -4.0799407   0.95324859      8192000 
  449000   0.73729672   -4.0797072   -4.0797072   -3.1263778   0.01970541   -4.0797072   0.95332936      8192000 
  450000    0.7375075   -4.0799823   -4.0799823   -3.1263803  0.018963299   -4.0799823    0.9536019      8192000 
  451000   0.73724915   -4.0797798   -4.0797798    -3.126512  0.019975726   -4.0797798   0.95326785      8192000 
  452000   0.73781562   -4.0799382   -4.0799382   -3.1259379  0.019639921   -4.0799382    0.9540003      8192000 
  453000   0.73815631   -4.0801719   -4.0801719   -3.1257311  0.022991366   -4.0801719   0.95444082      8192000 
  454000   0.73853799   -4.0803517   -4.0803517   -3.1254174  0.022668086   -4.0803517   0.95493433      8192000 
  455000   0.73874212   -4.0806033   -4.0806033    -3.125405  0.023854931   -4.0806033   0.95519827      8192000 
  456000   0.73879563   -4.0803776   -4.0803776   -3.1251101  0.026340145   -4.0803776   0.95526746      8192000 
  457000   0.73897219   -4.0810498   -4.0810498   -3.1255541  0.023523687   -4.0810498   0.95549575      8192000 
  458000   0.73925256   -4.0807487   -4.0807487   -3.1248904  0.024887292   -4.0807487   0.95585827      8192000 
  459000   0.73931783   -4.0808196   -4.0808196   -3.1248769  0.025517734   -4.0808196   0.95594267      8192000 
  460000   0.73910795   -4.0809237   -4.0809237   -3.1252524  0.027366572   -4.0809237    0.9556713      8192000 
  461000   0.73944672   -4.0810263   -4.0810263    -3.124917  0.029448373   -4.0810263   0.95610933      8192000 
  462000   0.73990292   -4.0811456   -4.0811456   -3.1244464  0.027233961   -4.0811456   0.95669919      8192000 
  463000   0.73956944   -4.0810235   -4.0810235   -3.1247555  0.027978448   -4.0810235     0.956268      8192000 
  464000   0.73979752   -4.0814776   -4.0814776   -3.1249146  0.030522494   -4.0814776   0.95656291      8192000 
  465000   0.73983941   -4.0815667   -4.0815667   -3.1249496  0.028252048   -4.0815667   0.95661707      8192000 
  466000   0.73981451    -4.081197    -4.081197   -3.1246121   0.03115777    -4.081197   0.95658487      8192000 
  467000   0.74004225   -4.0814214   -4.0814214    -3.124542  0.032714113   -4.0814214   0.95687935      8192000 
  468000   0.73997672    -4.081399    -4.081399   -3.1246044  0.031295979    -4.081399   0.95679462      8192000 
  469000   0.73990368   -4.0811118   -4.0811118   -3.1244116  0.031997655   -4.0811118   0.95670017      8192000 
  470000   0.74017622   -4.0811805   -4.0811805   -3.1241279  0.031338876   -4.0811805   0.95705257      8192000 
  471000   0.73980467   -4.0813269   -4.0813269   -3.1247547  0.028707667   -4.0813269   0.95657216      8192000 
  472000   0.73974143   -4.0810174   -4.0810174    -3.124527  0.028547553   -4.0810174   0.95649038      8192000 
  473000   0.73982447   -4.0808879   -4.0808879   -3.1242901  0.030221278   -4.0808879   0.95659776      8192000 
  474000   0.74003161   -4.0809126   -4.0809126    -3.124047  0.030285722   -4.0809126   0.95686559      8192000 
  475000   0.73975353   -4.0805944   -4.0805944   -3.1240884  0.030646019   -4.0805944   0.95650603      8192000 
  476000   0.73965112   -4.0801303   -4.0801303   -3.1237566  0.028443759   -4.0801303   0.95637361      8192000 
  477000   0.73998237   -4.0801972   -4.0801972   -3.1233953  0.027152488   -4.0801972   0.95680192      8192000 
  478000   0.73970914   -4.0798591   -4.0798591   -3.1234105  0.030218128   -4.0798591   0.95644864      8192000 
  479000    0.7399854   -4.0802548   -4.0802548   -3.1234489  0.025727099   -4.0802548   0.95680584      8192000 
  480000   0.73969276   -4.0798114   -4.0798114    -3.123384  0.028354223   -4.0798114   0.95642745      8192000 
  481000    0.7394663   -4.0791943   -4.0791943   -3.1230596  0.026217825   -4.0791943   0.95613464      8192000 
  482000   0.73972644   -4.0790841   -4.0790841   -3.1226131  0.027865562   -4.0790841     0.956471      8192000 
  483000   0.73965723   -4.0790114   -4.0790114   -3.1226299   0.02858262   -4.0790114   0.95638151      8192000 
  484000   0.73947569   -4.0787511   -4.0787511   -3.1226044  0.025896094   -4.0787511   0.95614678      8192000 
  485000   0.73953098   -4.0784629   -4.0784629   -3.1222446  0.026119099   -4.0784629   0.95621828      8192000 
  486000   0.73955556   -4.0783369   -4.0783369   -3.1220868  0.025886195   -4.0783369   0.95625005      8192000 
  487000   0.73925964   -4.0779326   -4.0779326   -3.1220652  0.024145603   -4.0779326   0.95586743      8192000 
  488000   0.73948764   -4.0777828   -4.0777828   -3.1216206  0.023369001   -4.0777828   0.95616223      8192000 
  489000   0.73926456   -4.0776478   -4.0776478    -3.121774  0.021741656   -4.0776478   0.95587379      8192000 
  490000   0.73912336   -4.0769749   -4.0769749   -3.1212837  0.020279508   -4.0769749   0.95569122      8192000 
  491000   0.73883971   -4.0767387   -4.0767387   -3.1214142   0.01963154   -4.0767387   0.95532446      8192000 
  492000   0.73853861   -4.0760845   -4.0760845   -3.1211494  0.021868202   -4.0760845   0.95493513      8192000 
  493000    0.7392387    -4.076379    -4.076379   -3.1205386  0.019246837    -4.076379   0.95584035      8192000 
  494000   0.73880682   -4.0761081   -4.0761081   -3.1208262  0.019001027   -4.0761081   0.95528193      8192000 
  495000   0.73846191    -4.075865    -4.075865    -3.121029  0.015219609    -4.075865   0.95483596      8192000 
  496000    0.7385908   -4.0755172   -4.0755172   -3.1205145  0.017178208   -4.0755172   0.95500261      8192000 
  497000   0.73824295   -4.0751327   -4.0751327   -3.1205798  0.019270918   -4.0751327   0.95455284      8192000 
  498000   0.73862269   -4.0751048   -4.0751048   -3.1200609   0.02102606   -4.0751048   0.95504385      8192000 
  499000    0.7385776   -4.0748238   -4.0748238   -3.1198382  0.016540246   -4.0748238   0.95498555      8192000 
  500000   0.73897265    -4.075225    -4.075225   -3.1197287  0.018935876    -4.075225   0.95549635      8192000 
  501000   0.73921797   -4.0752187   -4.0752187   -3.1194051   0.01742549   -4.0752187   0.95581355      8192000 
  502000    0.7385675   -4.0746863   -4.0746863   -3.1197138  0.019263754   -4.0746863   0.95497248      8192000 
  503000   0.73863812   -4.0746817   -4.0746817   -3.1196179  0.018871502   -4.0746817    0.9550638      8192000 
  504000   0.73884248   -4.0746328   -4.0746328   -3.1193047  0.019668083   -4.0746328   0.95532804      8192000 
  505000    0.7387604    -4.074461    -4.074461   -3.1192391  0.020174638    -4.074461   0.95522191      8192000 
  506000   0.73935961   -4.0744567   -4.0744567     -3.11846  0.021731814   -4.0744567   0.95599669      8192000 
  507000   0.73909374   -4.0745435   -4.0745435   -3.1188906  0.018402014   -4.0745435   0.95565292      8192000 
  508000   0.73960366    -4.074826    -4.074826   -3.1185138  0.019764652    -4.074826   0.95631225      8192000 
  509000   0.73935503   -4.0741701   -4.0741701   -3.1181793   0.01969601   -4.0741701   0.95599076      8192000 
  510000   0.73966689   -4.0746537   -4.0746537   -3.1182597  0.020169714   -4.0746537     0.956394      8192000 
  511000     0.739979   -4.0746889   -4.0746889   -3.1178914  0.022860946   -4.0746889   0.95679757      8192000 
  512000   0.73990193   -4.0748627   -4.0748627   -3.1181648  0.021552772   -4.0748627   0.95669791      8192000 
  513000   0.74001832   -4.0747278   -4.0747278   -3.1178794  0.023251969   -4.0747278   0.95684841      8192000 
  514000   0.73995928   -4.0740582   -4.0740582   -3.1172861  0.022378891   -4.0740582   0.95677206      8192000 
  515000   0.74039295   -4.0746276   -4.0746276   -3.1172948  0.025071158   -4.0746276   0.95733281      8192000 
  516000   0.74047658    -4.074677    -4.074677    -3.117236  0.025563294    -4.074677   0.95744094      8192000 
  517000   0.74049494    -4.074749    -4.074749   -3.1172843  0.025088476    -4.074749   0.95746468      8192000 
  518000   0.74053543   -4.0743937   -4.0743937   -3.1168767   0.02690862   -4.0743937   0.95751704      8192000 
  519000   0.74093197   -4.0752541   -4.0752541   -3.1172244  0.022954587   -4.0752541   0.95802976      8192000 
  520000   0.74073495   -4.0747537   -4.0747537   -3.1169787  0.026270283   -4.0747537   0.95777501      8192000 
  521000   0.74093762   -4.0748896   -4.0748896   -3.1168525  0.025212627   -4.0748896   0.95803707      8192000 
  522000   0.74092665   -4.0746093   -4.0746093   -3.1165864  0.028651691   -4.0746093   0.95802289      8192000 
  523000   0.74108522   -4.0744759   -4.0744759    -3.116248  0.030986652   -4.0744759   0.95822792      8192000 
  524000   0.74138235   -4.0748749   -4.0748749   -3.1162627  0.028097059   -4.0748749   0.95861211      8192000 
  525000   0.74140084   -4.0748163   -4.0748163   -3.1161802  0.029353265   -4.0748163   0.95863602      8192000 
  526000   0.74122888   -4.0745274   -4.0745274   -3.1161137  0.029554186   -4.0745274   0.95841367      8192000 
  527000    0.7412361   -4.0743253   -4.0743253   -3.1159023  0.027762142   -4.0743253   0.95842301      8192000 
  528000   0.74112379   -4.0739523   -4.0739523   -3.1156745  0.030101188   -4.0739523   0.95827779      8192000 
  529000   0.74130264   -4.0738816   -4.0738816   -3.1153726  0.030114845   -4.0738816   0.95850904      8192000 
  530000   0.74136292    -4.074138    -4.074138    -3.115551  0.030812197    -4.074138   0.95858699      8192000 
  531000   0.74142437   -4.0742798   -4.0742798   -3.1156134  0.029866556   -4.0742798   0.95866644      8192000 
  532000   0.74191994   -4.0746461   -4.0746461   -3.1153389  0.025702475   -4.0746461   0.95930721      8192000 
  533000   0.74180274   -4.0739458   -4.0739458   -3.1147901   0.03025912   -4.0739458   0.95915567      8192000 
  534000   0.74121819   -4.0732032   -4.0732032   -3.1148034  0.027850601   -4.0732032   0.95839985      8192000 
  535000   0.74140725   -4.0735771   -4.0735771   -3.1149328  0.027579706   -4.0735771    0.9586443      8192000 
  536000   0.74158333   -4.0732771   -4.0732771   -3.1144052  0.028154424   -4.0732771   0.95887198      8192000 
  537000   0.74160117   -4.0732195   -4.0732195   -3.1143244  0.029095866   -4.0732195   0.95889504      8192000 
  538000   0.74110618    -4.072746    -4.072746    -3.114491  0.026993439    -4.072746   0.95825502      8192000 
  539000   0.74107801   -4.0721174   -4.0721174   -3.1138988  0.027472525   -4.0721174   0.95821859      8192000 
  540000   0.74120992   -4.0724236   -4.0724236   -3.1140345  0.028326514   -4.0724236   0.95838915      8192000 
  541000   0.74148476   -4.0725413   -4.0725413   -3.1137968  0.028813732   -4.0725413   0.95874452      8192000 
  542000   0.74132586   -4.0720969   -4.0720969   -3.1135578  0.028628061   -4.0720969   0.95853907      8192000 
  543000   0.74137886   -4.0719523   -4.0719523   -3.1133447  0.027039582   -4.0719523   0.95860759      8192000 
  544000   0.74161789    -4.072147    -4.072147   -3.1132303  0.025246578    -4.072147   0.95891666      8192000 
  545000   0.74125309   -4.0714401   -4.0714401   -3.1129951  0.027474512   -4.0714401   0.95844498      8192000 
  546000   0.74134838    -4.071352    -4.071352   -3.1127838   0.02500776    -4.071352   0.95856819      8192000 
  547000   0.74130341   -4.0713207   -4.0713207   -3.1128106  0.022222745   -4.0713207   0.95851003      8192000 
  548000   0.74119706   -4.0707033   -4.0707033   -3.1123308  0.024533348   -4.0707033   0.95837253      8192000 
  549000   0.74133481   -4.0703781   -4.0703781   -3.1118275  0.026835461   -4.0703781   0.95855063      8192000 
  550000   0.74114751   -4.0702006   -4.0702006   -3.1118921  0.024012504   -4.0702006   0.95830846      8192000 
  551000   0.74160346   -4.0704355   -4.0704355   -3.1115375  0.025341389   -4.0704355     0.958898      8192000 
  552000   0.74090771   -4.0696306   -4.0696306   -3.1116322  0.024084906   -4.0696306   0.95799839      8192000 
  553000   0.74135942   -4.0700394   -4.0700394    -3.111457  0.020599198   -4.0700394   0.95858246      8192000 
  554000   0.74146885   -4.0699299   -4.0699299    -3.111206  0.022591039   -4.0699299   0.95872396      8192000 
  555000   0.74153028   -4.0696577   -4.0696577   -3.1108543  0.023707392   -4.0696577   0.95880339      8192000 
  556000    0.7412608   -4.0695726   -4.0695726   -3.1111176  0.021027816   -4.0695726   0.95845494      8192000 
  557000   0.74108498    -4.068891    -4.068891   -3.1106634  0.023130279    -4.068891   0.95822761      8192000 
  558000   0.74141069   -4.0688556   -4.0688556   -3.1102069  0.022470149   -4.0688556   0.95864874      8192000 
  559000    0.7414613   -4.0688027   -4.0688027   -3.1100885  0.022873759   -4.0688027   0.95871419      8192000 
  560000   0.74138858   -4.0684861   -4.0684861   -3.1098659  0.019715064   -4.0684861   0.95862016      8192000 
  561000   0.74144388   -4.0684801   -4.0684801   -3.1097884  0.019812682   -4.0684801   0.95869166      8192000 
  562000   0.74113138   -4.0678909   -4.0678909   -3.1096033  0.023281758   -4.0678909   0.95828759      8192000 
  563000   0.74175009   -4.0683915   -4.0683915   -3.1093039  0.020972299   -4.0683915   0.95908759      8192000 
  564000   0.74196372    -4.068411    -4.068411   -3.1090472  0.022393674    -4.068411   0.95936382      8192000 
  565000   0.74176041   -4.0676448   -4.0676448   -3.1085439  0.022270448   -4.0676448   0.95910094      8192000 
  566000     0.741492   -4.0679349   -4.0679349    -3.109181  0.023899065   -4.0679349   0.95875388      8192000 
  567000   0.74205562   -4.0678771   -4.0678771   -3.1083944  0.020395439   -4.0678771   0.95948265      8192000 
  568000   0.74192892   -4.0678141   -4.0678141   -3.1084953  0.025189081   -4.0678141   0.95931883      8192000 
  569000    0.7417556   -4.0673263   -4.0673263   -3.1082316  0.024690589   -4.0673263   0.95909471      8192000 
  570000   0.74223042   -4.0679162   -4.0679162   -3.1082075  0.022108317   -4.0679162   0.95970867      8192000 
  571000    0.7424461   -4.0678188   -4.0678188   -3.1078312  0.022186345   -4.0678188   0.95998753      8192000 
  572000   0.74203251   -4.0672959   -4.0672959   -3.1078431  0.023189996   -4.0672959   0.95945276      8192000 
  573000   0.74227097   -4.0674037   -4.0674037   -3.1076426  0.022689831   -4.0674037    0.9597611      8192000 
  574000   0.74212483   -4.0671153   -4.0671153   -3.1075431  0.023293678   -4.0671153   0.95957214      8192000 
  575000   0.74239464   -4.0670027   -4.0670027   -3.1070817  0.025998262   -4.0670027     0.959921      8192000 
  576000   0.74245969   -4.0670296   -4.0670296   -3.1070245  0.024118561   -4.0670296   0.96000511      8192000 
  577000   0.74302028   -4.0673414   -4.0673414   -3.1066114  0.024988495   -4.0673414   0.96072996      8192000 
  578000   0.74298675   -4.0671535   -4.0671535   -3.1064669  0.026293952   -4.0671535   0.96068661      8192000 
  579000   0.74256658   -4.0666423   -4.0666423    -3.106499  0.027753682   -4.0666423   0.96014333      8192000 
  580000    0.7432283   -4.0669638   -4.0669638   -3.1059649  0.025837069   -4.0669638   0.96099893      8192000 
  581000   0.74296638   -4.0667718   -4.0667718   -3.1061115  0.026258194   -4.0667718   0.96066026      8192000 
  582000   0.74304908   -4.0668388   -4.0668388   -3.1060716  0.028594429   -4.0668388    0.9607672      8192000 
  583000   0.74294681   -4.0665372   -4.0665372   -3.1059022  0.026724684   -4.0665372   0.96063496      8192000 
  584000   0.74303778   -4.0663019   -4.0663019   -3.1055493   0.02772678   -4.0663019   0.96075259      8192000 
  585000   0.74333294   -4.0663464   -4.0663464   -3.1052122  0.025869021   -4.0663464   0.96113423      8192000 
  586000    0.7436254   -4.0666906   -4.0666906   -3.1051783  0.025340943   -4.0666906   0.96151238      8192000 
  587000   0.74310012   -4.0659584   -4.0659584   -3.1051252  0.028868703   -4.0659584   0.96083319      8192000 
  588000   0.74385097   -4.0665651   -4.0665651    -3.104761  0.026741466   -4.0665651   0.96180404      8192000 
  589000   0.74373106   -4.0665679   -4.0665679   -3.1049189  0.026480716   -4.0665679   0.96164901      8192000 
  590000   0.74371654   -4.0659007   -4.0659007   -3.1042705  0.026080194   -4.0659007   0.96163023      8192000 
  591000   0.74375755   -4.0662578   -4.0662578   -3.1045746  0.025635353   -4.0662578   0.96168325      8192000 
  592000   0.74396873   -4.0663683   -4.0663683    -3.104412  0.027380951   -4.0663683   0.96195632      8192000 
  593000   0.74373778   -4.0659387   -4.0659387    -3.104281  0.026493507   -4.0659387   0.96165769      8192000 
  594000   0.74401476    -4.066132    -4.066132   -3.1041161  0.027521832    -4.066132   0.96201583      8192000 
  595000     0.743406   -4.0655237   -4.0655237    -3.104295  0.026955229   -4.0655237   0.96122869      8192000 
  596000     0.743883   -4.0654589   -4.0654589   -3.1036135  0.025385349   -4.0654589   0.96184546      8192000 
  597000   0.74356215   -4.0652075   -4.0652075   -3.1037769  0.026834717   -4.0652075   0.96143059      8192000 
  598000   0.74364253   -4.0649087   -4.0649087   -3.1033741  0.026022864   -4.0649087   0.96153453      8192000 
  599000   0.74344411   -4.0645889   -4.0645889   -3.1033109  0.028144628   -4.0645889   0.96127798      8192000 
  600000   0.74377822   -4.0647041   -4.0647041   -3.1029941  0.027969603   -4.0647041   0.96170998      8192000 
  601000   0.74354668    -4.064078    -4.064078   -3.1026675  0.026092084    -4.064078   0.96141059      8192000 
  602000    0.7433951   -4.0637689   -4.0637689   -3.1025543  0.026485017   -4.0637689   0.96121461      8192000 
  603000   0.74379532   -4.0642442   -4.0642442   -3.1025121  0.026318369   -4.0642442   0.96173209      8192000 
  604000   0.74352221   -4.0639378   -4.0639378   -3.1025588  0.024186974   -4.0639378   0.96137896      8192000 
  605000   0.74333512   -4.0634089   -4.0634089   -3.1022719  0.027189791   -4.0634089   0.96113705      8192000 
  606000   0.74378911   -4.0636599   -4.0636599   -3.1019358  0.024756762   -4.0636599   0.96172406      8192000 
  607000   0.74362604   -4.0632861   -4.0632861   -3.1017729  0.025988995   -4.0632861   0.96151321      8192000 
  608000   0.74422045   -4.0638587   -4.0638587   -3.1015769  0.024259451   -4.0638587   0.96228179      8192000 
  609000   0.74419516   -4.0632155   -4.0632155   -3.1009664  0.024166305   -4.0632155   0.96224909      8192000 
  610000   0.74387257   -4.0627224   -4.0627224   -3.1008905   0.02436755   -4.0627224   0.96183197      8192000 
  611000   0.74399353    -4.062598    -4.062598   -3.1006096   0.02856044    -4.062598   0.96198838      8192000 
  612000   0.74396544   -4.0622312   -4.0622312   -3.1002791  0.026919015   -4.0622312   0.96195206      8192000 
  613000   0.74372806   -4.0623813   -4.0623813   -3.1007361  0.026843553   -4.0623813   0.96164512      8192000 
  614000   0.74418879   -4.0624483   -4.0624483   -3.1002074  0.024733194   -4.0624483   0.96224085      8192000 
  615000   0.74399245   -4.0618569   -4.0618569   -3.0998699  0.026199557   -4.0618569   0.96198698      8192000 
  616000   0.74409009   -4.0620829   -4.0620829   -3.0999697  0.023624645   -4.0620829   0.96211323      8192000 
  617000   0.74414017   -4.0618105   -4.0618105   -3.0996325  0.023200416   -4.0618105   0.96217799      8192000 
  618000   0.74405182   -4.0614735   -4.0614735   -3.0994097   0.02469363   -4.0614735   0.96206375      8192000 
  619000   0.74403123    -4.061186    -4.061186   -3.0991488  0.024434248    -4.061186   0.96203713      8192000 
  620000   0.74386486   -4.0612101   -4.0612101   -3.0993881  0.021796282   -4.0612101   0.96182201      8192000 
  621000   0.74404871   -4.0609797   -4.0609797     -3.09892  0.023679287   -4.0609797   0.96205973      8192000 
  622000   0.74382721   -4.0604683   -4.0604683    -3.098695  0.023465342   -4.0604683   0.96177333      8192000 
  623000   0.74420654   -4.0604653   -4.0604653   -3.0982015  0.024362081   -4.0604653    0.9622638      8192000 
  624000   0.74418397   -4.0606289   -4.0606289   -3.0983943  0.023581798   -4.0606289   0.96223462      8192000 
  625000   0.74439689   -4.0604139   -4.0604139    -3.097904  0.025467799   -4.0604139   0.96250993      8192000 
  626000   0.74437042   -4.0600766   -4.0600766   -3.0976009  0.027089208   -4.0600766   0.96247569      8192000 
  627000   0.74453033    -4.060302    -4.060302   -3.0976195  0.025422028    -4.060302   0.96268246      8192000 
  628000   0.74461719   -4.0600532   -4.0600532   -3.0972584  0.025189832   -4.0600532   0.96279478      8192000 
  629000    0.7446469   -4.0600862   -4.0600862    -3.097253  0.024872585   -4.0600862   0.96283319      8192000 
  630000   0.74443533   -4.0591911   -4.0591911   -3.0966315  0.024933699   -4.0591911   0.96255963      8192000 
  631000    0.7446288   -4.0595653   -4.0595653   -3.0967555  0.025030437   -4.0595653   0.96280978      8192000 
  632000   0.74499129   -4.0596126   -4.0596126   -3.0963341  0.025725813   -4.0596126   0.96327849      8192000 
  633000   0.74467842   -4.0589762   -4.0589762   -3.0961022  0.026210775   -4.0589762   0.96287394      8192000 
  634000   0.74501407   -4.0591849   -4.0591849    -3.095877  0.026492073   -4.0591849   0.96330794      8192000 
  635000   0.74571062   -4.0596245   -4.0596245   -3.0954159  0.025791966   -4.0596245   0.96420859      8192000 
  636000   0.74544048   -4.0590903   -4.0590903    -3.095231  0.027391268   -4.0590903    0.9638593      8192000 
  637000   0.74550426   -4.0586246   -4.0586246   -3.0946828  0.026368685   -4.0586246   0.96394177      8192000 
  638000   0.74523875   -4.0582729   -4.0582729   -3.0946744  0.028981421   -4.0582729   0.96359846      8192000 
  639000   0.74579501   -4.0588959   -4.0588959   -3.0945782  0.025777043   -4.0588959    0.9643177      8192000 
  640000   0.74526761   -4.0582106   -4.0582106   -3.0945748  0.027288279   -4.0582106   0.96363577      8192000 
  641000   0.74548752   -4.0580887   -4.0580887   -3.0941685  0.026333643   -4.0580887   0.96392012      8192000 
  642000   0.74567892   -4.0583203   -4.0583203   -3.0941527  0.023514481   -4.0583203    0.9641676      8192000 
  643000   0.74530716   -4.0575844   -4.0575844   -3.0938975  0.028540282   -4.0575844   0.96368691      8192000 
  644000   0.74643226   -4.0585422   -4.0585422   -3.0934006  0.026433741   -4.0585422   0.96514167      8192000 
  645000    0.7459543   -4.0576937   -4.0576937     -3.09317  0.029125422   -4.0576937   0.96452366      8192000 
  646000   0.74582017    -4.057361    -4.057361   -3.0930108  0.026026614    -4.057361   0.96435023      8192000 
  647000   0.74580179   -4.0573513   -4.0573513   -3.0930248  0.027212197   -4.0573513   0.96432647      8192000 
  648000    0.7455577   -4.0567505   -4.0567505   -3.0927397  0.030185083   -4.0567505   0.96401086      8192000 
  649000   0.74549218     -4.05651     -4.05651   -3.0925839  0.026522982     -4.05651   0.96392614      8192000 
  650000   0.74591952   -4.0565874   -4.0565874   -3.0921087  0.028143602   -4.0565874    0.9644787      8192000 
  651000   0.74615084   -4.0565225   -4.0565225   -3.0917447  0.026217297   -4.0565225    0.9647778      8192000 
  652000   0.74582864   -4.0562124   -4.0562124   -3.0918512   0.02750293   -4.0562124   0.96436119      8192000 
  653000   0.74564032    -4.055725    -4.055725   -3.0916073  0.028235982    -4.055725   0.96411769      8192000 
  654000   0.74592309   -4.0563232   -4.0563232   -3.0918399  0.025772835   -4.0563232   0.96448331      8192000 
  655000   0.74636704   -4.0563951   -4.0563951   -3.0913378  0.024689469   -4.0563951   0.96505735      8192000 
  656000   0.74629722   -4.0560658   -4.0560658   -3.0910988  0.026396774   -4.0560658   0.96496706      8192000 
  657000   0.74606561   -4.0558698   -4.0558698   -3.0912022  0.022229224   -4.0558698   0.96466759      8192000 
  658000   0.74644357   -4.0558025   -4.0558025   -3.0906462  0.024928093   -4.0558025   0.96515629      8192000 
  659000   0.74623331   -4.0555169   -4.0555169   -3.0906325  0.026545696   -4.0555169   0.96488443      8192000 
  660000   0.74654748   -4.0554522   -4.0554522   -3.0901615   0.02681086   -4.0554522   0.96529065      8192000 
  661000   0.74608833   -4.0546974   -4.0546974   -3.0900005  0.026798607   -4.0546974   0.96469697      8192000 
  662000   0.74628591   -4.0545046   -4.0545046   -3.0895522  0.027698903   -4.0545046   0.96495244      8192000 
  663000   0.74622853   -4.0540995   -4.0540995   -3.0892213  0.027159802   -4.0540995   0.96487824      8192000 
  664000   0.74661076   -4.0540437   -4.0540437   -3.0886712  0.025926648   -4.0540437   0.96537247      8192000 
  665000   0.74648994   -4.0543874   -4.0543874   -3.0891712  0.023603987   -4.0543874   0.96521625      8192000 
  666000   0.74656426   -4.0537932   -4.0537932   -3.0884809  0.024550123   -4.0537932   0.96531235      8192000 
  667000   0.74675272   -4.0540664   -4.0540664   -3.0885104  0.025658315   -4.0540664   0.96555602      8192000 
  668000   0.74676287   -4.0538437   -4.0538437   -3.0882745   0.02622961   -4.0538437   0.96556915      8192000 
  669000   0.74701627   -4.0538902   -4.0538902   -3.0879934  0.026165981   -4.0538902    0.9658968      8192000 
  670000    0.7470462   -4.0540781   -4.0540781   -3.0881426  0.024661869   -4.0540781    0.9659355      8192000 
  671000   0.74699327   -4.0534453   -4.0534453   -3.0875783  0.024931974   -4.0534453   0.96586706      8192000 
  672000   0.74663076   -4.0528741   -4.0528741   -3.0874758  0.026121324   -4.0528741   0.96539833      8192000 
  673000   0.74638419   -4.0522779   -4.0522779   -3.0871984   0.02595232   -4.0522779   0.96507951      8192000 
  674000   0.74666702   -4.0526002   -4.0526002    -3.087155  0.023785479   -4.0526002   0.96544522      8192000 
  675000   0.74728406   -4.0526539   -4.0526539   -3.0864108  0.025648518   -4.0526539   0.96624305      8192000 
  676000   0.74685749   -4.0520538   -4.0520538   -3.0863624  0.027613043   -4.0520538   0.96569149      8192000 
  677000   0.74706131   -4.0519674   -4.0519674   -3.0860123  0.024467666   -4.0519674   0.96595504      8192000 
  678000   0.74675658   -4.0513577   -4.0513577   -3.0857967  0.024159566   -4.0513577   0.96556102      8192000 
  679000   0.74723728   -4.0518548   -4.0518548   -3.0856722  0.028631752   -4.0518548   0.96618257      8192000 
  680000   0.74713065   -4.0516297   -4.0516297    -3.085585  0.025458809   -4.0516297   0.96604469      8192000 
  681000   0.74706231   -4.0515817   -4.0515817   -3.0856253  0.027465302   -4.0515817   0.96595633      8192000 
  682000    0.7476291   -4.0517004   -4.0517004   -3.0850112  0.023600985   -4.0517004   0.96668919      8192000 
  683000   0.74727766   -4.0509982   -4.0509982   -3.0847634  0.025468497   -4.0509982   0.96623478      8192000 
  684000    0.7475289   -4.0511074   -4.0511074   -3.0845477   0.02593144   -4.0511074   0.96655964      8192000 
  685000   0.74755242   -4.0512969   -4.0512969   -3.0847069  0.025373411   -4.0512969   0.96659004      8192000 
  686000   0.74775092   -4.0510883   -4.0510883   -3.0842416  0.024740664   -4.0510883   0.96684671      8192000 
  687000   0.74795435   -4.0509226   -4.0509226   -3.0838128  0.027146657   -4.0509226   0.96710975      8192000 
  688000    0.7481382   -4.0507192   -4.0507192   -3.0833717  0.025715703   -4.0507192   0.96734746      8192000 
  689000   0.74771513   -4.0499412   -4.0499412   -3.0831408  0.027010718   -4.0499412   0.96680043      8192000 
  690000   0.74780181   -4.0499669   -4.0499669   -3.0830544  0.024571298   -4.0499669   0.96691251      8192000 
  691000   0.74792271   -4.0499407   -4.0499407   -3.0828718  0.028385914   -4.0499407   0.96706883      8192000 
  692000   0.74825647   -4.0503956   -4.0503956   -3.0828952  0.027185817   -4.0503956   0.96750038      8192000 
  693000   0.74843655   -4.0503075   -4.0503075   -3.0825743  0.025543827   -4.0503075   0.96773323      8192000 
  694000   0.74800454   -4.0495229   -4.0495229   -3.0823482  0.026513677   -4.0495229   0.96717464      8192000 
  695000   0.74828294   -4.0495326   -4.0495326    -3.081998  0.025222114   -4.0495326   0.96753462      8192000 
  696000   0.74858789   -4.0497261   -4.0497261   -3.0817972  0.026547599   -4.0497261   0.96792892      8192000 
  697000    0.7486163   -4.0494269   -4.0494269   -3.0814612  0.027978096   -4.0494269   0.96796565      8192000 
  698000   0.74861079   -4.0491408   -4.0491408   -3.0811823  0.027016233   -4.0491408   0.96795852      8192000 
  699000   0.74893058   -4.0492099   -4.0492099   -3.0808379  0.025771709   -4.0492099   0.96837201      8192000 
  700000   0.74847457   -4.0482739   -4.0482739   -3.0804915   0.02753854   -4.0482739    0.9677824      8192000 
  701000   0.74858051   -4.0483665   -4.0483665   -3.0804471  0.027563312   -4.0483665   0.96791938      8192000 
  702000   0.74841235   -4.0478576   -4.0478576   -3.0801557  0.028106829   -4.0478576   0.96770194      8192000 
  703000   0.74919456   -4.0481504   -4.0481504   -3.0794371  0.024892822   -4.0481504   0.96871334      8192000 
  704000   0.74892335   -4.0480701   -4.0480701   -3.0797074  0.025677522   -4.0480701   0.96836266      8192000 
  705000   0.74848643   -4.0473074   -4.0473074   -3.0795097   0.02913633   -4.0473074   0.96779773      8192000 
  706000    0.7489962   -4.0475972   -4.0475972   -3.0791403  0.026581891   -4.0475972   0.96845687      8192000 
  707000   0.74833652   -4.0468347   -4.0468347   -3.0792308  0.028791692   -4.0468347   0.96760389      8192000 
  708000   0.74857066   -4.0470717   -4.0470717   -3.0791651  0.026566714   -4.0470717   0.96790664      8192000 
  709000   0.74870115   -4.0470323   -4.0470323    -3.078957  0.025571873   -4.0470323   0.96807535      8192000 
  710000    0.7487841   -4.0466422   -4.0466422   -3.0784596   0.02421088   -4.0466422   0.96818262      8192000 
  711000   0.74881891    -4.046372    -4.046372   -3.0781444  0.029783727    -4.046372   0.96822763      8192000 
  712000   0.74899017   -4.0466253   -4.0466253   -3.0781762  0.027460734   -4.0466253   0.96844907      8192000 
  713000   0.74885858   -4.0460648   -4.0460648   -3.0777859   0.02693082   -4.0460648   0.96827892      8192000 
  714000    0.7490076   -4.0460673   -4.0460673   -3.0775957  0.027987836   -4.0460673    0.9684716      8192000 
  715000   0.74939602   -4.0457092   -4.0457092   -3.0767354  0.024694916   -4.0457092   0.96897383      8192000 
  716000   0.74899757    -4.045454    -4.045454   -3.0769954  0.023844365    -4.045454   0.96845864      8192000 
  717000    0.7493853   -4.0456997   -4.0456997   -3.0767397  0.026146441   -4.0456997   0.96895998      8192000 
  718000    0.7490705   -4.0449297   -4.0449297   -3.0763767  0.028123348   -4.0449297   0.96855293      8192000 
  719000   0.74923515   -4.0447936   -4.0447936   -3.0760278  0.024462132   -4.0447936   0.96876583      8192000 
  720000   0.74958594   -4.0451712   -4.0451712   -3.0759518  0.025399519   -4.0451712    0.9692194      8192000 
  721000   0.74975704   -4.0450176   -4.0450176    -3.075577  0.024875275   -4.0450176   0.96944064      8192000 
  722000    0.7498461   -4.0447087   -4.0447087   -3.0751529  0.024262679   -4.0447087   0.96955579      8192000 
  723000   0.74968535   -4.0443179   -4.0443179     -3.07497  0.027335131   -4.0443179   0.96934793      8192000 
  724000   0.74968147   -4.0440353   -4.0440353   -3.0746923  0.026840055   -4.0440353   0.96934292      8192000 
  725000   0.74973714   -4.0439823   -4.0439823   -3.0745674  0.027697242   -4.0439823    0.9694149      8192000 
  726000   0.74956252   -4.0436961   -4.0436961    -3.074507  0.026479717   -4.0436961   0.96918912      8192000 
  727000   0.74959652   -4.0432469   -4.0432469   -3.0740138   0.02631671   -4.0432469   0.96923308      8192000 
  728000   0.74992321   -4.0434163   -4.0434163   -3.0737608  0.025811484   -4.0434163   0.96965549      8192000 
  729000   0.74988974   -4.0434937   -4.0434937   -3.0738815  0.024983394   -4.0434937   0.96961221      8192000 
  730000    0.7497196   -4.0430707   -4.0430707   -3.0736785   0.02587276   -4.0430707   0.96939222      8192000 
  731000   0.75010829   -4.0430562   -4.0430562   -3.0731614   0.02381888   -4.0430562    0.9698948      8192000 
  732000   0.74989791   -4.0424399   -4.0424399   -3.0728171  0.024924512   -4.0424399   0.96962278      8192000 
  733000   0.74990902   -4.0422662   -4.0422662    -3.072629  0.027213329   -4.0422662   0.96963715      8192000 
  734000   0.74991121   -4.0420472   -4.0420472   -3.0724072  0.027896547   -4.0420472   0.96963997      8192000 
  735000   0.74979893   -4.0416475   -4.0416475   -3.0721527  0.026722765   -4.0416475    0.9694948      8192000 
  736000   0.74981615   -4.0416568   -4.0416568   -3.0721397   0.02751134   -4.0416568   0.96951707      8192000 
  737000   0.75033204   -4.0419157   -4.0419157   -3.0717316  0.022347986   -4.0419157   0.97018411      8192000 
  738000   0.75026494   -4.0413149   -4.0413149   -3.0712176  0.025609618   -4.0413149   0.97009736      8192000 
  739000   0.75015634   -4.0415396   -4.0415396   -3.0715826  0.025755126   -4.0415396   0.96995693      8192000 
  740000   0.75021942   -4.0407311   -4.0407311   -3.0706926   0.02665753   -4.0407311   0.97003849      8192000 
  741000   0.75029363   -4.0409728   -4.0409728   -3.0708384  0.024139421   -4.0409728   0.97013445      8192000 
  742000   0.75025323    -4.040557    -4.040557   -3.0704747  0.024816878    -4.040557   0.97008221      8192000 
  743000   0.75070079   -4.0407979   -4.0407979    -3.070137  0.025590965   -4.0407979    0.9706609      8192000 
  744000   0.75057513   -4.0407594   -4.0407594    -3.070261  0.022520007   -4.0407594   0.97049842      8192000 
  745000   0.75018927   -4.0399317   -4.0399317   -3.0699322  0.026504025   -4.0399317   0.96999951      8192000 
  746000   0.75098497   -4.0404754   -4.0404754   -3.0694471  0.027006684   -4.0404754   0.97102836      8192000 
  747000    0.7510668   -4.0404057   -4.0404057   -3.0692715  0.026433036   -4.0404057   0.97113416      8192000 
  748000   0.75097377   -4.0404742   -4.0404742   -3.0694603  0.025668219   -4.0404742   0.97101388      8192000 
  749000   0.75098609   -4.0396359   -4.0396359    -3.068606  0.027170958   -4.0396359    0.9710298      8192000 
  750000   0.75083918   -4.0396627   -4.0396627   -3.0688228  0.029205505   -4.0396627   0.97083985      8192000 
  751000   0.75085001   -4.0396336   -4.0396336   -3.0687798  0.027076926   -4.0396336   0.97085385      8192000 
  752000   0.75121788   -4.0395863   -4.0395863   -3.0682568  0.026249194   -4.0395863   0.97132951      8192000 
  753000   0.75122755   -4.0393802   -4.0393802   -3.0680382  0.026599131   -4.0393802   0.97134201      8192000 
  754000   0.75109814   -4.0392432   -4.0392432   -3.0680685  0.027799184   -4.0392432   0.97117469      8192000 
  755000   0.75157054   -4.0389966   -4.0389966   -3.0672111  0.026790144   -4.0389966    0.9717855      8192000 
  756000   0.75133003   -4.0388078   -4.0388078   -3.0673333  0.024389885   -4.0388078   0.97147452      8192000 
  757000   0.75185645   -4.0388083   -4.0388083   -3.0666532  0.025956991   -4.0388083   0.97215518      8192000 
  758000   0.75126045   -4.0381531   -4.0381531   -3.0667685  0.026775246   -4.0381531   0.97138455      8192000 
  759000    0.7511553   -4.0380295   -4.0380295    -3.066781  0.027318619   -4.0380295   0.97124859      8192000 
  760000   0.75117638   -4.0380577   -4.0380577   -3.0667818  0.027053378   -4.0380577   0.97127585      8192000 
  761000   0.75138864   -4.0379007   -4.0379007   -3.0663504  0.029316629   -4.0379007   0.97155031      8192000 
  762000   0.75157909    -4.037821    -4.037821   -3.0660244  0.026035416    -4.037821   0.97179655      8192000 
  763000    0.7517756    -4.037818    -4.037818   -3.0657674  0.027298081    -4.037818   0.97205064      8192000 
  764000   0.75174722   -4.0374919   -4.0374919   -3.0654779  0.027738842   -4.0374919   0.97201395      8192000 
  765000   0.75191003   -4.0374228   -4.0374228   -3.0651983   0.03056426   -4.0374228   0.97222447      8192000 
  766000   0.75189666   -4.0371875   -4.0371875   -3.0649803  0.028101899   -4.0371875   0.97220718      8192000 
  767000   0.75181355     -4.03713     -4.03713   -3.0650303  0.027323233     -4.03713   0.97209971      8192000 
  768000    0.7520954   -4.0368517   -4.0368517   -3.0643876  0.028290909   -4.0368517   0.97246415      8192000 
  769000    0.7521023   -4.0366173   -4.0366173   -3.0641443  0.027949197   -4.0366173   0.97247307      8192000 
  770000     0.752239   -4.0367456   -4.0367456   -3.0640958  0.026835115   -4.0367456   0.97264982      8192000 
  771000   0.75188527   -4.0359363   -4.0359363   -3.0637438  0.028508077   -4.0359363   0.97219245      8192000 
  772000   0.75174808   -4.0358383   -4.0358383   -3.0638232  0.028094922   -4.0358383   0.97201506      8192000 
  773000   0.75223314   -4.0358691   -4.0358691   -3.0632269  0.029519587   -4.0358691   0.97264225      8192000 
  774000   0.75249315   -4.0359679   -4.0359679   -3.0629895  0.029610366   -4.0359679   0.97297844      8192000 
  775000   0.75269162   -4.0357929   -4.0357929   -3.0625578  0.027816794   -4.0357929   0.97323506      8192000 
  776000   0.75266098   -4.0354571   -4.0354571   -3.0622616  0.028303958   -4.0354571   0.97319545      8192000 
  777000    0.7524495   -4.0352558   -4.0352558   -3.0623338  0.028190313   -4.0352558     0.972922      8192000 
  778000   0.75263405   -4.0348798   -4.0348798   -3.0617192    0.0285718   -4.0348798   0.97316063      8192000 
  779000   0.75278749   -4.0350649   -4.0350649   -3.0617058  0.024733687   -4.0350649   0.97335903      8192000 
  780000   0.75253949   -4.0343789   -4.0343789   -3.0613405  0.028499424   -4.0343789   0.97303836      8192000 
  781000   0.75283473   -4.0345361   -4.0345361    -3.061116  0.028431084   -4.0345361   0.97342011      8192000 
  782000   0.75301475   -4.0343106   -4.0343106   -3.0606577  0.029869778   -4.0343106   0.97365287      8192000 
  783000   0.75308428   -4.0343216   -4.0343216   -3.0605788   0.02978798   -4.0343216   0.97374277      8192000 
  784000   0.75293593   -4.0339905   -4.0339905   -3.0604395  0.027334765   -4.0339905   0.97355096      8192000 
  785000   0.75301757   -4.0337497   -4.0337497   -3.0600932  0.029411509   -4.0337497   0.97365652      8192000 
  786000   0.75295802   -4.0331309   -4.0331309   -3.0595514  0.030310637   -4.0331309   0.97357952      8192000 
  787000   0.75347498   -4.0334198   -4.0334198   -3.0591718  0.028540251   -4.0334198   0.97424795      8192000 
  788000   0.75303891   -4.0330555   -4.0330555   -3.0593714  0.029556794   -4.0330555   0.97368412      8192000 
  789000   0.75357167   -4.0333513   -4.0333513   -3.0589784  0.028494678   -4.0333513   0.97437297      8192000 
  790000   0.75368755   -4.0329601   -4.0329601   -3.0584373  0.027138474   -4.0329601    0.9745228      8192000 
  791000    0.7535157   -4.0323365   -4.0323365   -3.0580359  0.028424785   -4.0323365   0.97430061      8192000 
  792000   0.75337315   -4.0324522   -4.0324522   -3.0583359  0.030174408   -4.0324522   0.97411629      8192000 
  793000   0.75367825   -4.0319435   -4.0319435   -3.0574327  0.028620827   -4.0319435   0.97451079      8192000 
  794000   0.75342448   -4.0316128   -4.0316128   -3.0574301  0.027672359   -4.0316128   0.97418266      8192000 
  795000   0.75382355    -4.031743    -4.031743   -3.0570443  0.026522487    -4.031743   0.97469865      8192000 
  796000   0.75352383   -4.0312984   -4.0312984   -3.0569873   0.02751546   -4.0312984   0.97431112      8192000 
  797000   0.75407905   -4.0313493   -4.0313493   -3.0563203  0.029106133   -4.0313493   0.97502902      8192000 
  798000   0.75371126   -4.0307236   -4.0307236   -3.0561701  0.027330516   -4.0307236   0.97455346      8192000 
  799000    0.7539516   -4.0311788   -4.0311788   -3.0563146  0.025533788   -4.0311788   0.97486422      8192000 
  800000    0.7541461   -4.0309185   -4.0309185   -3.0558028  0.026404285   -4.0309185   0.97511572      8192000 
  801000   0.75393377   -4.0304899   -4.0304899   -3.0556487  0.026714018   -4.0304899   0.97484117      8192000 
  802000   0.75434153   -4.0306709   -4.0306709   -3.0553024  0.027477391   -4.0306709   0.97536841      8192000 
  803000   0.75464514   -4.0303684   -4.0303684   -3.0546074  0.028346363   -4.0303684   0.97576098      8192000 
  804000   0.75429037   -4.0301958   -4.0301958   -3.0548935  0.025097153   -4.0301958   0.97530226      8192000 
  805000   0.75461642   -4.0300514   -4.0300514   -3.0543275  0.029190171   -4.0300514   0.97572384      8192000 
  806000   0.75454658   -4.0297415   -4.0297415    -3.054108  0.029264353   -4.0297415   0.97563354      8192000 
  807000    0.7545739   -4.0291965   -4.0291965   -3.0535276  0.029905631   -4.0291965   0.97566886      8192000 
  808000   0.75477836   -4.0291154   -4.0291154   -3.0531822  0.027094205   -4.0291154   0.97593323      8192000 
  809000   0.75433034   -4.0284971   -4.0284971   -3.0531432  0.027651079   -4.0284971   0.97535394      8192000 
  810000   0.75415949   -4.0281901   -4.0281901    -3.053057  0.027961222   -4.0281901   0.97513302      8192000 
  811000   0.75450068   -4.0281904   -4.0281904   -3.0526162  0.029153081   -4.0281904   0.97557419      8192000 
  812000   0.75499004   -4.0282012   -4.0282012   -3.0519943  0.026725802   -4.0282012   0.97620693      8192000 
  813000   0.75482646   -4.0277372   -4.0277372   -3.0517418  0.028614035   -4.0277372   0.97599542      8192000 
  814000   0.75471363    -4.027508    -4.027508   -3.0516584  0.024731411    -4.027508   0.97584954      8192000 
  815000   0.75450553   -4.0268821   -4.0268821   -3.0513016    0.0262196   -4.0268821   0.97558046      8192000 
  816000   0.75487774   -4.0271871   -4.0271871   -3.0511254  0.026568423   -4.0271871   0.97606173      8192000 
  817000   0.75447738   -4.0264979   -4.0264979   -3.0509539  0.027523974   -4.0264979   0.97554406      8192000 
  818000   0.75504749   -4.0270789   -4.0270789   -3.0507977  0.024572584   -4.0270789   0.97628122      8192000 
  819000   0.75484869   -4.0262336   -4.0262336   -3.0502094   0.02840642   -4.0262336   0.97602417      8192000 
  820000   0.75450436   -4.0256785   -4.0256785   -3.0500995  0.027607006   -4.0256785   0.97557894      8192000 
  821000   0.75504066   -4.0256448   -4.0256448   -3.0493724  0.027950447   -4.0256448   0.97627239      8192000 
  822000   0.75498386   -4.0256166   -4.0256166   -3.0494176  0.028561637   -4.0256166   0.97619895      8192000 
  823000   0.75538514   -4.0258838   -4.0258838    -3.049166  0.030310408   -4.0258838    0.9767178      8192000 
  824000   0.75492514   -4.0250855   -4.0250855   -3.0489625  0.028501302   -4.0250855   0.97612302      8192000 
  825000    0.7554383   -4.0252709   -4.0252709   -3.0484844   0.02765238   -4.0252709   0.97678654      8192000 
  826000   0.75541214   -4.0249023   -4.0249023   -3.0481496   0.02992595   -4.0249023   0.97675272      8192000 
  827000   0.75523024   -4.0241475   -4.0241475     -3.04763  0.031218393   -4.0241475   0.97651752      8192000 
  828000   0.75555668   -4.0242931   -4.0242931   -3.0473535  0.029152425   -4.0242931   0.97693961      8192000 
  829000    0.7555682   -4.0243392   -4.0243392   -3.0473847   0.02653939   -4.0243392    0.9769545      8192000 
  830000   0.75586189   -4.0240691   -4.0240691   -3.0467348   0.02799194   -4.0240691   0.97733425      8192000 
  831000   0.75600224   -4.0237817   -4.0237817    -3.046266  0.030313178   -4.0237817   0.97751572      8192000 
  832000   0.75578378   -4.0237568   -4.0237568   -3.0465236  0.028691435   -4.0237568   0.97723325      8192000 
  833000   0.75569743   -4.0233479   -4.0233479   -3.0462263  0.026705654   -4.0233479    0.9771216      8192000 
  834000   0.75621885   -4.0235266   -4.0235266   -3.0457308  0.028358634   -4.0235266   0.97779579      8192000 
  835000   0.75662264   -4.0237793   -4.0237793   -3.0454614  0.027803162   -4.0237793    0.9783179      8192000 
  836000   0.75626033   -4.0228443   -4.0228443   -3.0449948  0.029766866   -4.0228443   0.97784943      8192000 
  837000   0.75612287    -4.022892    -4.022892   -3.0452203  0.028415342    -4.022892   0.97767169      8192000 
  838000   0.75631311    -4.022659    -4.022659   -3.0447413   0.02610576    -4.022659   0.97791768      8192000 
  839000   0.75649568   -4.0224967   -4.0224967    -3.044343  0.027142935   -4.0224967   0.97815374      8192000 
  840000   0.75662357   -4.0223755   -4.0223755   -3.0440564  0.026669389   -4.0223755    0.9783191      8192000 
  841000   0.75644171   -4.0222341   -4.0222341   -3.0441501  0.026330261   -4.0222341   0.97808395      8192000 
  842000   0.75642382   -4.0218944   -4.0218944   -3.0438335  0.026552919   -4.0218944   0.97806082      8192000 
  843000   0.75616315   -4.0211293   -4.0211293   -3.0434055  0.025630795   -4.0211293   0.97772378      8192000 
  844000    0.7566208   -4.0217662   -4.0217662   -3.0434506  0.025887486   -4.0217662   0.97831551      8192000 
  845000   0.75668402   -4.0215005   -4.0215005   -3.0431033  0.026569511   -4.0215005   0.97839726      8192000 
  846000   0.75658804   -4.0210832   -4.0210832     -3.04281  0.026475124   -4.0210832   0.97827317      8192000 
  847000   0.75666715    -4.020764    -4.020764   -3.0423886  0.027185733    -4.020764   0.97837544      8192000 
  848000   0.75663135   -4.0201732   -4.0201732    -3.041844   0.02900791   -4.0201732   0.97832916      8192000 
  849000   0.75702594   -4.0203831   -4.0203831   -3.0415437  0.028557595   -4.0203831   0.97883937      8192000 
  850000   0.75705271   -4.0204801   -4.0204801   -3.0416062  0.027895799   -4.0204801   0.97887398      8192000 
  851000   0.75710375   -4.0200525   -4.0200525   -3.0411125  0.026604628   -4.0200525   0.97893998      8192000 
  852000   0.75667226   -4.0192916   -4.0192916   -3.0409095  0.028405231   -4.0192916   0.97838206      8192000 
  853000   0.75701227   -4.0193421   -4.0193421   -3.0405204  0.028224759   -4.0193421   0.97882169      8192000 
  854000   0.75723237   -4.0192752   -4.0192752    -3.040169  0.028712468   -4.0192752   0.97910628      8192000 
  855000   0.75709783   -4.0189712   -4.0189712   -3.0400389  0.027933698   -4.0189712   0.97893233      8192000 
  856000   0.75742073   -4.0191445   -4.0191445   -3.0397947  0.027724375   -4.0191445   0.97934983      8192000 
  857000   0.75745143   -4.0186703   -4.0186703   -3.0392808  0.029604848   -4.0186703   0.97938953      8192000 
  858000   0.75745555   -4.0185711   -4.0185711   -3.0391762  0.029778308   -4.0185711   0.97939486      8192000 
  859000   0.75718372   -4.0181839   -4.0181839   -3.0391405  0.027030962   -4.0181839   0.97904338      8192000 
  860000   0.75724418   -4.0178805   -4.0178805   -3.0387589   0.02929263   -4.0178805   0.97912156      8192000 
  861000   0.75777172    -4.017957    -4.017957   -3.0381533  0.027684055    -4.017957   0.97980367      8192000 
  862000   0.75757846   -4.0176612   -4.0176612   -3.0381075  0.028595737   -4.0176612   0.97955378      8192000 
  863000   0.75793918   -4.0174467   -4.0174467   -3.0374265  0.030327525   -4.0174467   0.98002019      8192000 
  864000   0.75823785   -4.0177513   -4.0177513   -3.0373449  0.028388764   -4.0177513   0.98040637      8192000 
  865000   0.75819634   -4.0173249   -4.0173249   -3.0369722  0.027625989   -4.0173249    0.9803527      8192000 
  866000   0.75820617   -4.0173093   -4.0173093   -3.0369439  0.028185021   -4.0173093   0.98036542      8192000 
  867000   0.75778662   -4.0164427   -4.0164427   -3.0366197  0.028485939   -4.0164427   0.97982293      8192000 
  868000    0.7582188   -4.0165795   -4.0165795   -3.0361978  0.027494286   -4.0165795   0.98038175      8192000 
  869000   0.75780132   -4.0158834   -4.0158834   -3.0360415  0.027512206   -4.0158834   0.97984194      8192000 
  870000    0.7583804   -4.0161273   -4.0161273   -3.0355366  0.029202938   -4.0161273   0.98059069      8192000 
  871000   0.75825379   -4.0159984   -4.0159984   -3.0355714  0.025966945   -4.0159984   0.98042699      8192000 
  872000    0.7583457   -4.0156384   -4.0156384   -3.0350926  0.026662167   -4.0156384   0.98054582      8192000 
  873000   0.75851675   -4.0156284   -4.0156284   -3.0348614  0.028141831   -4.0156284     0.980767      8192000 
  874000   0.75837997   -4.0153726   -4.0153726   -3.0347824  0.025842844   -4.0153726   0.98059014      8192000 
  875000   0.75857064   -4.0151102   -4.0151102   -3.0342735  0.027864034   -4.0151102   0.98083668      8192000 
  876000   0.75846551   -4.0148092   -4.0148092   -3.0341084  0.026657278   -4.0148092   0.98070073      8192000 
  877000   0.75896408   -4.0149802   -4.0149802   -3.0336348  0.027839196   -4.0149802    0.9813454      8192000 
  878000   0.75854552   -4.0141828   -4.0141828   -3.0333786  0.029233875   -4.0141828   0.98080419      8192000 
  879000   0.75922093   -4.0145145   -4.0145145    -3.032837  0.027107456   -4.0145145    0.9816775      8192000 
  880000   0.75887037   -4.0139191   -4.0139191   -3.0326948  0.029012931   -4.0139191   0.98122422      8192000 
  881000    0.7587479   -4.0135625   -4.0135625   -3.0324966  0.029203148   -4.0135625   0.98106587      8192000 
  882000   0.75886036   -4.0134031   -4.0134031   -3.0321918  0.030024612   -4.0134031   0.98121129      8192000 
  883000   0.75954001   -4.0135815   -4.0135815   -3.0314914  0.026760869   -4.0135815   0.98209007      8192000 
  884000   0.75933492   -4.0136878   -4.0136878   -3.0318629  0.026089251   -4.0136878   0.98182489      8192000 
  885000   0.75945507   -4.0132708   -4.0132708   -3.0312906  0.027866097   -4.0132708   0.98198025      8192000 
  886000   0.75947878   -4.0130609   -4.0130609     -3.03105  0.029676191   -4.0130609    0.9820109      8192000 
  887000   0.75964893   -4.0126995   -4.0126995   -3.0304685  0.028932663   -4.0126995   0.98223091      8192000 
  888000   0.75933742   -4.0119497   -4.0119497   -3.0301215  0.030074693   -4.0119497   0.98182812      8192000 
  889000    0.7597626   -4.0121443   -4.0121443   -3.0297664  0.029584544   -4.0121443   0.98237789      8192000 
  890000   0.75961999   -4.0119419   -4.0119419   -3.0297484  0.028795776   -4.0119419   0.98219349      8192000 
  891000   0.75951906   -4.0118014   -4.0118014   -3.0297384  0.026944356   -4.0118014   0.98206299      8192000 
  892000    0.7596241   -4.0113603   -4.0113603   -3.0291615  0.027527721   -4.0113603    0.9821988      8192000 
  893000   0.75940859   -4.0106065   -4.0106065   -3.0286864  0.029943447   -4.0106065   0.98192015      8192000 
  894000   0.75939224   -4.0108249   -4.0108249   -3.0289259  0.031083561   -4.0108249   0.98189901      8192000 
  895000   0.75958361   -4.0104217   -4.0104217   -3.0282753  0.029474617   -4.0104217   0.98214646      8192000 
  896000    0.7597883   -4.0105461   -4.0105461    -3.028135  0.028401635   -4.0105461   0.98241111      8192000 
  897000   0.75974881    -4.010245    -4.010245    -3.027885  0.027626155    -4.010245   0.98236006      8192000 
  898000   0.75992529   -4.0101836   -4.0101836   -3.0275953  0.027696782   -4.0101836   0.98258824      8192000 
  899000   0.76033569   -4.0102336   -4.0102336   -3.0271147    0.0297542   -4.0102336    0.9831189      8192000 
  900000   0.76062602   -4.0102355   -4.0102355   -3.0267412  0.030452887   -4.0102355   0.98349429      8192000 
  901000   0.76020696   -4.0097618   -4.0097618   -3.0268093  0.031202419   -4.0097618   0.98295245      8192000 
  902000   0.76038953   -4.0097239   -4.0097239   -3.0265354  0.029132433   -4.0097239   0.98318851      8192000 
  903000   0.76014662   -4.0091835   -4.0091835   -3.0263091  0.027677993   -4.0091835   0.98287442      8192000 
  904000   0.76044598   -4.0092364   -4.0092364   -3.0259749  0.028964011   -4.0092364    0.9832615      8192000 
  905000   0.76066831    -4.009098    -4.009098   -3.0255491  0.027928119    -4.009098   0.98354898      8192000 
  906000   0.76031482   -4.0084717   -4.0084717   -3.0253798  0.028724485   -4.0084717   0.98309191      8192000 
  907000   0.76032929   -4.0084429   -4.0084429   -3.0253323  0.028764098   -4.0084429   0.98311061      8192000 
  908000   0.76048114   -4.0081041   -4.0081041   -3.0247971  0.028760126   -4.0081041   0.98330696      8192000 
  909000   0.76099093   -4.0079932   -4.0079932    -3.024027  0.028714898   -4.0079932   0.98396613      8192000 
  910000   0.76098702   -4.0076621   -4.0076621    -3.023701  0.030760444   -4.0076621   0.98396107      8192000 
  911000   0.76077476   -4.0070153   -4.0070153   -3.0233287  0.027245394   -4.0070153   0.98368662      8192000 
  912000   0.76047782   -4.0067352   -4.0067352   -3.0234325  0.029924241   -4.0067352   0.98330266      8192000 
  913000   0.76086518   -4.0072398   -4.0072398   -3.0234363  0.030745341   -4.0072398   0.98380352      8192000 
  914000   0.76135351   -4.0072356   -4.0072356   -3.0228006  0.026252989   -4.0072356   0.98443494      8192000 
  915000   0.76142255   -4.0068503   -4.0068503   -3.0223261  0.027309183   -4.0068503   0.98452421      8192000 
  916000   0.76118889   -4.0065494   -4.0065494   -3.0223273  0.027224829   -4.0065494   0.98422209      8192000 
  917000   0.76129864   -4.0065714   -4.0065714   -3.0222074  0.029031209   -4.0065714     0.984364      8192000 
  918000   0.76126523   -4.0062643   -4.0062643   -3.0219435   0.02945318   -4.0062643    0.9843208      8192000 
  919000   0.76105403   -4.0058081   -4.0058081   -3.0217604  0.029915336   -4.0058081   0.98404771      8192000 
  920000   0.76154561   -4.0056625   -4.0056625   -3.0209792  0.030819774   -4.0056625   0.98468332      8192000 
  921000   0.76160524   -4.0056021   -4.0056021   -3.0208417  0.029970554   -4.0056021   0.98476043      8192000 
  922000     0.761852   -4.0055186   -4.0055186   -3.0204391  0.029088122   -4.0055186    0.9850795      8192000 
  923000   0.76154665   -4.0050848   -4.0050848   -3.0204001  0.029714347   -4.0050848   0.98468468      8192000 
  924000   0.76203998   -4.0052051   -4.0052051   -3.0198825  0.029709719   -4.0052051   0.98532255      8192000 
  925000   0.76225105   -4.0050908   -4.0050908   -3.0194954  0.027384935   -4.0050908   0.98559546      8192000 
  926000   0.76198244   -4.0042175   -4.0042175   -3.0189693  0.028244583   -4.0042175   0.98524816      8192000 
  927000   0.76200118   -4.0041833   -4.0041833   -3.0189109  0.031181602   -4.0041833   0.98527239      8192000 
  928000   0.76237827   -4.0043398   -4.0043398   -3.0185799  0.027720375   -4.0043398   0.98575996      8192000 
  929000   0.76209535   -4.0034761   -4.0034761    -3.018082  0.030996569   -4.0034761   0.98539415      8192000 
  930000   0.76241663   -4.0036508   -4.0036508   -3.0178413  0.028707453   -4.0036508   0.98580956      8192000 
  931000   0.76232574   -4.0036245   -4.0036245   -3.0179324  0.029110852   -4.0036245   0.98569204      8192000 
  932000     0.762104   -4.0030194   -4.0030194   -3.0176141   0.02728053   -4.0030194   0.98540533      8192000 
  933000   0.76212993   -4.0028282   -4.0028282   -3.0173893  0.026356202   -4.0028282   0.98543886      8192000 
  934000   0.76205359   -4.0025645   -4.0025645   -3.0172244  0.031700933   -4.0025645   0.98534015      8192000 
  935000   0.76241707   -4.0025424   -4.0025424   -3.0167323  0.030500772   -4.0025424   0.98581014      8192000 
  936000    0.7621377   -4.0019283   -4.0019283   -3.0164793   0.02928083   -4.0019283   0.98544891      8192000 
  937000   0.76268842   -4.0020609   -4.0020609   -3.0158999  0.026749175   -4.0020609     0.986161      8192000 
  938000   0.76245801   -4.0016858   -4.0016858   -3.0158227  0.027892222   -4.0016858   0.98586307      8192000 
  939000   0.76275106   -4.0017812   -4.0017812   -3.0155392  0.028773923   -4.0017812   0.98624198      8192000 
  940000   0.76257469   -4.0011328   -4.0011328   -3.0151189  0.029582551   -4.0011328   0.98601394      8192000 
  941000   0.76298093   -4.0013098   -4.0013098   -3.0147706  0.026958172   -4.0013098   0.98653921      8192000 
  942000   0.76265638   -4.0005458   -4.0005458   -3.0144263  0.031235372   -4.0005458   0.98611956      8192000 
  943000   0.76312369   -4.0007027   -4.0007027   -3.0139789  0.028304527   -4.0007027    0.9867238      8192000 
  944000   0.76297744   -4.0004209   -4.0004209   -3.0138862  0.030065948   -4.0004209   0.98653469      8192000 
  945000   0.76298111   -4.0002872   -4.0002872   -3.0137478  0.029312739   -4.0002872   0.98653944      8192000 
  946000   0.76325883   -4.0004216   -4.0004216   -3.0135231  0.026676046   -4.0004216   0.98689853      8192000 
  947000   0.76324714   -4.0000456   -4.0000456   -3.0131622  0.029623243   -4.0000456   0.98688341      8192000 
  948000   0.76321533     -3.99937     -3.99937   -3.0125278  0.027405549     -3.99937   0.98684228      8192000 
  949000   0.76326619   -3.9995638   -3.9995638   -3.0126557   0.02763888   -3.9995638   0.98690805      8192000 
  950000   0.76372745   -3.9994618   -3.9994618   -3.0119573  0.026703259   -3.9994618   0.98750447      8192000 
  951000   0.76328527   -3.9988792   -3.9988792   -3.0119465  0.029911953   -3.9988792   0.98693272      8192000 
  952000    0.7632556   -3.9984178   -3.9984178   -3.0115235  0.028186675   -3.9984178   0.98689435      8192000 
  953000   0.76355817   -3.9985308   -3.9985308   -3.0112452  0.027656848   -3.9985308   0.98728558      8192000 
  954000   0.76383594   -3.9980183   -3.9980183   -3.0103735  0.029390991   -3.9980183   0.98764474      8192000 
  955000   0.76355719   -3.9977343   -3.9977343     -3.01045  0.028813214   -3.9977343   0.98728432      8192000 
  956000   0.76403502   -3.9978412   -3.9978412    -3.009939  0.027143935   -3.9978412   0.98790215      8192000 
  957000   0.76404696   -3.9976381   -3.9976381   -3.0097205  0.027895248   -3.9976381   0.98791759      8192000 
  958000   0.76359381   -3.9968237   -3.9968237    -3.009492  0.029940764   -3.9968237   0.98733167      8192000 
  959000   0.76425935   -3.9975721   -3.9975721   -3.0093799  0.028509498   -3.9975721   0.98819222      8192000 
  960000   0.76430935   -3.9974354   -3.9974354   -3.0091785  0.029230891   -3.9974354   0.98825686      8192000 
  961000   0.76395656   -3.9964471   -3.9964471   -3.0086464  0.031186229   -3.9964471    0.9878007      8192000 
  962000   0.76426846   -3.9966896   -3.9966896   -3.0084856  0.026886921   -3.9966896   0.98820399      8192000 
  963000   0.76420832   -3.9962881   -3.9962881   -3.0081619  0.030239066   -3.9962881   0.98812623      8192000 
  964000   0.76472163   -3.9967441   -3.9967441   -3.0079542   0.02974392   -3.9967441   0.98878995      8192000 
  965000   0.76435575   -3.9954329   -3.9954329   -3.0071161  0.032576599   -3.9954329   0.98831686      8192000 
  966000   0.76415961   -3.9953562   -3.9953562    -3.007293  0.030349926   -3.9953562   0.98806324      8192000 
  967000   0.76424609   -3.9953381   -3.9953381    -3.007163  0.031868286   -3.9953381   0.98817506      8192000 
  968000   0.76485134   -3.9954149   -3.9954149   -3.0064572  0.029968388   -3.9954149   0.98895766      8192000 
  969000   0.76463215   -3.9947622   -3.9947622   -3.0060879  0.032758234   -3.9947622   0.98867425      8192000 
  970000   0.76500262   -3.9947311   -3.9947311   -3.0055778  0.032646722   -3.9947311   0.98915326      8192000 
  971000   0.76492376   -3.9945178   -3.9945178   -3.0054665   0.03133768   -3.9945178    0.9890513      8192000 
  972000   0.76467365   -3.9943056   -3.9943056   -3.0055777  0.029527267   -3.9943056    0.9887279      8192000 
  973000   0.76546762   -3.9943078   -3.9943078   -3.0045533  0.029735242   -3.9943078   0.98975451      8192000 
  974000   0.76522514   -3.9942471   -3.9942471   -3.0048061  0.029709053   -3.9942471   0.98944098      8192000 
  975000   0.76479573   -3.9934726   -3.9934726   -3.0045868  0.031482709   -3.9934726   0.98888575      8192000 
  976000   0.76522402   -3.9936346   -3.9936346   -3.0041951  0.028945628   -3.9936346   0.98943954      8192000 
  977000   0.76524038    -3.993199    -3.993199   -3.0037383  0.029756621    -3.993199   0.98946069      8192000 
  978000   0.76509216   -3.9927573   -3.9927573   -3.0034883  0.028248818   -3.9927573   0.98926904      8192000 
  979000    0.7653671   -3.9927437   -3.9927437   -3.0031192  0.030490043   -3.9927437   0.98962454      8192000 
  980000   0.76583675   -3.9926162   -3.9926162   -3.0023844  0.030166424   -3.9926162   0.99023181      8192000 
  981000   0.76570232   -3.9921762   -3.9921762   -3.0021183  0.027611808   -3.9921762   0.99005798      8192000 
  982000    0.7652259   -3.9917528   -3.9917528   -3.0023108  0.029205374   -3.9917528   0.98944197      8192000 
  983000   0.76574227   -3.9920009   -3.9920009   -3.0018912   0.02848147   -3.9920009   0.99010963      8192000 
  984000   0.76591932   -3.9916067   -3.9916067   -3.0012681   0.02888427   -3.9916067   0.99033857      8192000 
  985000   0.76565749   -3.9913378   -3.9913378   -3.0013378   0.02908018   -3.9913378   0.99000002      8192000 
  986000   0.76618387   -3.9912758   -3.9912758   -3.0005952  0.029384936   -3.9912758   0.99068063      8192000 
  987000    0.7663856   -3.9914105   -3.9914105   -3.0004691  0.029519812   -3.9914105   0.99094147      8192000 
  988000   0.76654166   -3.9911748   -3.9911748   -3.0000315  0.029218801   -3.9911748   0.99114325      8192000 
  989000   0.76592345   -3.9902867   -3.9902867   -2.9999428  0.028767572   -3.9902867    0.9903439      8192000 
  990000   0.76617976   -3.9902063   -3.9902063    -2.999531  0.030067462   -3.9902063   0.99067532      8192000 
  991000   0.76630983   -3.9900541   -3.9900541   -2.9992106  0.029164976   -3.9900541    0.9908435      8192000 
  992000   0.76663157    -3.990008    -3.990008   -2.9987484  0.029037105    -3.990008   0.99125951      8192000 
  993000   0.76648721   -3.9896032   -3.9896032   -2.9985304  0.027154504   -3.9896032   0.99107285      8192000 
  994000   0.76626095   -3.9889003   -3.9889003     -2.99812  0.031588833   -3.9889003   0.99078029      8192000 
  995000   0.76625329   -3.9884844   -3.9884844    -2.997714  0.028945037   -3.9884844    0.9907704      8192000 
  996000   0.76649699    -3.988867    -3.988867   -2.9977815  0.030555911    -3.988867   0.99108549      8192000 
  997000   0.76682887   -3.9885587   -3.9885587   -2.9970441   0.02943635   -3.9885587   0.99151461      8192000 
  998000   0.76651131   -3.9878755   -3.9878755   -2.9967715  0.031270076   -3.9878755   0.99110402      8192000 
  999000    0.7667336   -3.9878059   -3.9878059   -2.9964145  0.029666344   -3.9878059   0.99139143      8192000 
 1000000   0.76711984   -3.9880483   -3.9880483   -2.9961574  0.029932153   -3.9880483   0.99189084      8192000 
Loop time of 16895.3 on 240 procs for 1000000 steps with 4233413 atoms

Performance: 12784.613 tau/day, 59.188 timesteps/s
97.6% CPU use with 240 MPI tasks x 1 OpenMP threads

MPI task timing breakdown:
Section |  min time  |  avg time  |  max time  |%varavg|  %CPU | %total
-----------------------------------------------------------------------
Pair    | 6669.6     | 7800.3     | 9015.1     | 640.9 |  99.5 | 46.17
Bond    | 0.80111    | 0.91124    | 1.0371     |   4.3 | 100.0 |  0.01
Neigh   | 2776.2     | 3820.2     | 4917.1     | 647.0 |  99.6 | 22.61
Comm    | 1722.3     | 3095.3     | 5664       |1451.5 |  93.6 | 18.32
Output  | 96.226     | 98.953     | 107.73     |  41.6 |  91.3 |  0.59
Modify  | 1000.9     | 1659.1     | 2202.5     | 666.3 |  94.3 |  9.82
Other   |            | 420.6      |            |       |       |  2.49

Nlocal:        17639.2 ave       19325 max       15980 min
Histogram: 3 10 17 39 42 62 43 14 5 5
Nghost:        16412.9 ave       21062 max        9576 min
Histogram: 20 5 11 24 5 27 31 74 31 12
Neighs:        583730.0 ave      659222 max      480842 min
Histogram: 2 8 6 9 55 83 28 9 14 26

Total # of neighbors = 1.400952e+08
Ave neighs/atom = 33.092731
Ave special neighs/atom = 0.0000000
Neighbor list builds = 62030
Dangerous builds = 0
Total wall time: 4:41:50
