LAMMPS (24 Dec 2020)
OMP_NUM_THREADS environment is not set. Defaulting to 1 thread. (src/comm.cpp:94)
  using 1 OpenMP thread(s) per MPI task
#Read the equilibrated lj fluid and add nanocubes

units           lj
atom_style      full
atom_modify     map array first cubes
dimension       3
boundary        p p f
pair_style      lj/cut/opt 2.0

variable        sigma           equal 1.0
variable        epsilon         equal 1.0
read_restart	restart.dat.5000000
Reading restart file ...
  restart file = 24 Dec 2020, LAMMPS = 24 Dec 2020
WARNING: Restart file used different # of processors: 192 vs. 288 (src/read_restart.cpp:697)
  restoring atom style full from restart
  orthogonal box = (0.0000000 0.0000000 0.0000000) to (80.000000 80.000000 160.00000)
  6 by 4 by 12 MPI processor grid
  restoring pair style lj/smooth/linear from restart
  439061 atoms
Finding 1-2 1-3 1-4 neighbors ...
  special bond factors lj:    0        0        0       
  special bond factors coul:  0        0        0       
     0 = max # of 1-2 neighbors
     0 = max # of 1-3 neighbors
     0 = max # of 1-4 neighbors
     1 = max # of special neighbors
  special bonds CPU = 2.447 seconds
  read_restart CPU = 2.851 seconds

group		solvent type 1
439061 atoms in group solvent

read_data	data_96.cubes group cubes add append
Reading data file ...
  orthogonal box = (0.0000000 0.0000000 0.0000000) to (80.000000 80.000000 160.00000)
  6 by 4 by 12 MPI processor grid
WARNING: Pair style in data file differs from currently defined pair style (src/read_data.cpp:588)
  reading atoms ...
  109728 atoms
  reading velocities ...
  109728 velocities
Finding 1-2 1-3 1-4 neighbors ...
  special bond factors lj:    0        0        0       
  special bond factors coul:  0        0        0       
     0 = max # of 1-2 neighbors
     0 = max # of 1-3 neighbors
     0 = max # of 1-4 neighbors
     1 = max # of special neighbors
  special bonds CPU = 0.054 seconds
  read_data CPU = 0.334 seconds

group 		hull  type 2
42816 atoms in group hull
group 		dummy type 3
66912 atoms in group dummy

neighbor      0.4 bin
neigh_modify  exclude molecule/intra cubes


pair_modify   shift yes

pair_coeff    1 1 1.0 1.0 #solvent
pair_coeff    2 2 1.0 1.0 1.12 #np
pair_coeff    3 3 0.0 0.0 0.0 #dummy
pair_coeff    2 3 0.0 0.0 0.0 #np dummy
pair_coeff    1 2 ${eps} ${sig} ${nscut} #np solvent
pair_coeff    1 2 1.0 ${sig} ${nscut} 
pair_coeff    1 2 1.0 2.0 ${nscut} 
pair_coeff    1 2 1.0 2.0 4.0 
pair_coeff    1 3 0.0 0.0 2.5 #dummy solvent

# delete solvent where the cubes are
delete_atoms  overlap 2.0 solvent cubes
System init for delete_atoms ...
Neighbor list info ...
  update every 1 steps, delay 10 steps, check yes
  max neighbors/atom: 2000, page size: 100000
  master list distance cutoff = 4.4
  ghost atom cutoff = 4.4
  binsize = 2.2, bins = 37 37 73
  2 neighbor lists, perpetual/occasional/extra = 1 1 0
  (1) command delete_atoms, occasional
      attributes: full, newton on
      pair build: full/bin
      stencil: full/bin/3d
      bin: standard
  (2) pair lj/smooth/linear, perpetual
      attributes: half, newton on
      pair build: half/bin/newton
      stencil: half/bin/3d/newton
      bin: standard
WARNING: Delete_atoms cutoff > minimum neighbor cutoff (src/delete_atoms.cpp:307)
WARNING: Ignoring 'compress yes' for molecular system (src/delete_atoms.cpp:125)
Deleted 127776 atoms, new total = 421013



pair_coeff    1 1 1.0 1.0 #solvent
pair_coeff    2 2 1.0 1.0 1.12 #np
pair_coeff    3 3 0.0 0.0 0.0 #dummy
pair_coeff    2 3 0.0 0.0 0.0 #np dummy
pair_coeff    1 2 ${eps} ${sig} ${nscut} #np solvent
pair_coeff    1 2 1.0 ${sig} ${nscut} 
pair_coeff    1 2 1.0 2.0 ${nscut} 
pair_coeff    1 2 1.0 2.0 4.0 
pair_coeff    1 3 0.0 0.0 0.0 #dummy solvent


comm_modify   mode multi cutoff/multi 1 2.0 cutoff/multi 2 2.0 cutoff/multi 3 6.95

reset_timestep 	0

balance 	1.05 shift z 10 1.05
Balancing ...
Neighbor list info ...
  update every 1 steps, delay 10 steps, check yes
  max neighbors/atom: 2000, page size: 100000
  master list distance cutoff = 4.4
  ghost atom cutoff = 6.95
  binsize = 2.2, bins = 37 37 73
  1 neighbor lists, perpetual/occasional/extra = 1 0 0
  (1) pair lj/smooth/linear, perpetual
      attributes: half, newton on
      pair build: half/bin/newton
      stencil: half/bin/3d/newton
      bin: standard
 rebalancing time: 0.005 seconds
  iteration count = 4
  initial/final maximal load/proc = 2236.0000 2123.0000
  initial/final imbalance factor  = 1.5295680 1.4522687
  x cuts: 0.0000000 0.16666667 0.33333333 0.50000000 0.66666667 0.83333333 1.0000000
  y cuts: 0.0000000 0.25000000 0.50000000 0.75000000 1.0000000
  z cuts: 0.0000000 0.057291667 0.11979167 0.17187500 0.23958333 0.30208333 0.34375000 0.41145833 0.46354167 0.51562500 0.59895833 0.64583333 1.0000000

####################### WALLS ###########################

variable       epsilonWall equal 2*${epsilon}
variable       epsilonWall equal 2*1
variable       repulsive   equal   0.7147*${sigma}
variable       repulsive   equal   0.7147*1
variable       full	   equal   3*${sigma}
variable       full	   equal   3*1
region         lowWall block EDGE EDGE EDGE EDGE EDGE 2

fix            topWall all wall/lj93 zhi EDGE 	       ${epsilonWall} ${sigma} ${repulsive} units box
fix            topWall all wall/lj93 zhi EDGE 	       2 ${sigma} ${repulsive} units box
fix            topWall all wall/lj93 zhi EDGE 	       2 1 ${repulsive} units box
fix            topWall all wall/lj93 zhi EDGE 	       2 1 0.7147 units box
fix            lowSol solvent wall/lj93 zlo EDGE                ${epsilonWall} ${sigma} ${full} units box
fix            lowSol solvent wall/lj93 zlo EDGE                2 ${sigma} ${full} units box
fix            lowSol solvent wall/lj93 zlo EDGE                2 1 ${full} units box
fix            lowSol solvent wall/lj93 zlo EDGE                2 1 3 units box
fix 	       lowCub cubes wall/lj93 zlo EDGE                ${epsilonWall} ${sigma} ${repulsive} units box
fix 	       lowCub cubes wall/lj93 zlo EDGE                2 ${sigma} ${repulsive} units box
fix 	       lowCub cubes wall/lj93 zlo EDGE                2 1 ${repulsive} units box
fix 	       lowCub cubes wall/lj93 zlo EDGE                2 1 0.7147 units box


###################### COMPUTES ##########################

compute        bin1 solvent chunk/atom bin/1d z lower 1.0 units box


######################  FIXES ############################


fix             peclet solvent ave/chunk 10 10 10000 bin1 density/number norm                  none ave one file density.profile

fix              temp solvent ave/chunk 10 10 10000 bin1 temp norm                  none ave one file temp.profile

fix             1 cubes rigid/nve/small molecule
  create bodies CPU = 0.027 seconds
  96 rigid bodies with 109728 atoms
  6.9282032 = max distance from body owner to body atom

fix             2 solvent nve# temp ${temp} ${temp} 10


## Thermostat
region          regthermo block EDGE EDGE EDGE EDGE 0 15
group           thermo dynamic solvent region regthermo every 1000
dynamic group thermo defined
fix             3 thermo langevin ${temp} ${temp} 10 156453
fix             3 thermo langevin 0.6 ${temp} 10 156453
fix             3 thermo langevin 0.6 0.6 10 156453


#### Load balancing

fix             bal all balance 1000 1.05 shift z 10 1.05

############### Diagnostics and computes ###################

compute        	com cubes          rigid/local   1 mol x y z
compute        	quat cubes         rigid/local   1 mol quatw quati quatj quatk

compute 	cc2 cubes 	   chunk/atom 	 molecule
compute 	msd cubes 	   msd/chunk 	 cc2

fix 		msd all ave/time  1 1 10000 c_msd[*] file dump.msd ave one mode vector

dump            1 all custom 500000 dump.lammpstrj id mol type x y z
dump		cubetrj hull custom 500000 cubes.lammpstrj id mol type x y z
dump            com cubes local 10000 dump.*.xyz c_com[*]
dump	        xyz hull xyz 100000 cubes.xyz
dump            quat cubes      local 10000 dump.*.quat c_quat[*]
#dump		mol cubes molfile 10000 mol.xyz xyz


dump            2 all image 10000 image.*.png type type zoom 1.5 size 1280 720
dump_modify     2 pad 8
dump		image cubes image 10000 image_cubes.*.png type type zoom 1.5 size 1280 720
dump_modify	image pad 8
dump            3 all movie 5000 movie.avi type type zoom 1.5 size 1280 720
dump		4 cubes movie 5000 movie_cubes.avi type type size 1280 720


thermo          1000
thermo_style    custom step temp epair evdwl etotal press pe ke atoms

restart         1000000 restart.dat
timestep        0.005
timer           full
New timer settings: style=full  mode=nosync  timeout=off

run 		5000000
Per MPI rank memory allocation (min/avg/max) = 14.08 | 20.23 | 22.96 Mbytes
Step Temp E_pair E_vdwl TotEng Press PotEng KinEng Atoms 
       0   0.61274527   -1.9599706   -1.9599706   -1.2799841  -0.57836341   -1.9599706   0.67998653   421013 
    1000   0.78873906   -2.1675396   -2.1675396   -1.2922461   0.14838159   -2.1675396   0.87529348   421013 
    2000   0.80360667   -2.1972077   -2.1972077   -1.3054151   0.17561983   -2.1972077   0.89179262   421013 
    3000    0.8010898   -2.2076357   -2.2076357   -1.3186362   0.16616291   -2.2076357   0.88899955   421013 
    4000   0.79325481    -2.212135    -2.212135   -1.3318302   0.14062186    -2.212135   0.88030477   421013 
    5000   0.78276477   -2.2138223   -2.2138223   -1.3451588   0.13877225   -2.2138223   0.86866358   421013 
    6000   0.77207868   -2.2133198   -2.2133198    -1.356515   0.12913531   -2.2133198   0.85680483   421013 
    7000   0.76507392   -2.2150859   -2.2150859   -1.3660546   0.11392945   -2.2150859   0.84903137   421013 
    8000   0.76032996   -2.2181742   -2.2181742   -1.3744074   0.11587872   -2.2181742   0.84376683   421013 
    9000    0.7527659   -2.2162994   -2.2162994   -1.3809267   0.11154564   -2.2162994    0.8353727   421013 
   10000   0.74791191   -2.2156793   -2.2156793   -1.3856932   0.10541988   -2.2156793   0.82998605   421013 
   11000   0.74309658   -2.2138313   -2.2138313    -1.389189  0.091462853   -2.2138313    0.8246423   421013 
   12000   0.74017548   -2.2128877   -2.2128877   -1.3914871  0.088731686   -2.2128877   0.82140064   421013 
   13000   0.73835788    -2.212752    -2.212752   -1.3933685  0.083582474    -2.212752   0.81938358   421013 
   14000   0.73466119   -2.2106405   -2.2106405   -1.3953593  0.091083276   -2.2106405   0.81528122   421013 
   15000   0.73261746   -2.2104652   -2.2104652    -1.397452  0.078617082   -2.2104652   0.81301322   421013 
   16000   0.73055673   -2.2097006   -2.2097006   -1.3989743  0.090155753   -2.2097006   0.81072635   421013 
   17000   0.73030037   -2.2108738   -2.2108738   -1.4004319  0.076400005   -2.2108738   0.81044186   421013 
   18000   0.72853949   -2.2102322   -2.2102322   -1.4017444  0.078576359   -2.2102322   0.80848774   421013 
   19000   0.72962515   -2.2126485   -2.2126485   -1.4029559   0.07695192   -2.2126485   0.80969253   421013 
   20000   0.72928082   -2.2132934   -2.2132934   -1.4039829  0.072568059   -2.2132934   0.80931042   421013 
   21000   0.72761234   -2.2126897   -2.2126897   -1.4052309  0.084905549   -2.2126897   0.80745885   421013 
   22000   0.72796352   -2.2139332   -2.2139332   -1.4060846  0.074067811   -2.2139332   0.80784857   421013 
   23000   0.72834923   -2.2147612   -2.2147612   -1.4064846  0.082442747   -2.2147612    0.8082766   421013 
   24000   0.72826303   -2.2158092   -2.2158092   -1.4076283  0.078911687   -2.2158092   0.80818094   421013 
   25000   0.72779981   -2.2168277   -2.2168277   -1.4091608  0.091337477   -2.2168277   0.80766689   421013 
   26000   0.72831344    -2.218126    -2.218126   -1.4098892  0.079177245    -2.218126   0.80823689   421013 
   27000   0.72809665    -2.219383    -2.219383   -1.4113867  0.093209982    -2.219383    0.8079963   421013 
   28000   0.72892766   -2.2209299   -2.2209299   -1.4120114  0.090651058   -2.2209299    0.8089185   421013 
   29000   0.72913524   -2.2227356   -2.2227356   -1.4135867  0.088186112   -2.2227356   0.80914887   421013 
   30000   0.72723412   -2.2214746   -2.2214746   -1.4144355  0.090041929   -2.2214746   0.80703913   421013 
   31000   0.72756911   -2.2225196   -2.2225196   -1.4151087  0.091736525   -2.2225196   0.80741087   421013 
   32000   0.72904055   -2.2247214   -2.2247214   -1.4156776  0.088361955   -2.2247214   0.80904379   421013 
   33000    0.7280463   -2.2240498   -2.2240498   -1.4161093  0.090001845   -2.2240498   0.80794043   421013 
   34000   0.72704103   -2.2247157   -2.2247157   -1.4178909  0.086976923   -2.2247157   0.80682484   421013 
   35000   0.72564975    -2.225072    -2.225072   -1.4197911  0.096969347    -2.225072   0.80528089   421013 
   36000   0.72475974   -2.2249515   -2.2249515   -1.4206583  0.088236001   -2.2249515   0.80429321   421013 
   37000    0.7240715    -2.225772    -2.225772   -1.4222426  0.090412993    -2.225772   0.80352945   421013 
   38000   0.72511708    -2.227646    -2.227646   -1.4229562  0.079279904    -2.227646   0.80468976   421013 
   39000   0.72504357   -2.2283262   -2.2283262   -1.4237181  0.089254258   -2.2283262   0.80460818   421013 
   40000   0.72269744   -2.2274165   -2.2274165   -1.4254119  0.084576557   -2.2274165    0.8020046   421013 
   41000   0.72297992   -2.2286845   -2.2286845   -1.4263664  0.081869563   -2.2286845   0.80231807   421013 
   42000   0.72205831   -2.2287976   -2.2287976   -1.4275023  0.086021111   -2.2287976   0.80129534   421013 
   43000    0.7218878   -2.2295515   -2.2295515   -1.4284454  0.089154155   -2.2295515   0.80110611   421013 
   44000   0.72108848   -2.2294536   -2.2294536   -1.4292345  0.088877211   -2.2294536   0.80021908   421013 
   45000   0.72239684   -2.2313452   -2.2313452   -1.4296742  0.080665244   -2.2313452   0.80167101   421013 
   46000   0.72041598   -2.2302828   -2.2302828   -1.4308101  0.086493632   -2.2302828   0.79947278   421013 
   47000   0.72041804   -2.2308434   -2.2308434   -1.4313683  0.092623125   -2.2308434   0.79947506   421013 
   48000   0.72069486   -2.2323604   -2.2323604   -1.4325782  0.082787875   -2.2323604   0.79978226   421013 
   49000   0.71998563   -2.2334341   -2.2334341   -1.4344389  0.092478296   -2.2334341    0.7989952   421013 
   50000   0.71965338   -2.2349762   -2.2349762   -1.4363497  0.094713265   -2.2349762   0.79862649   421013 
   51000   0.72024061   -2.2374542   -2.2374542    -1.438176   0.10106007   -2.2374542   0.79927816   421013 
   52000   0.71874103   -2.2381164   -2.2381164   -1.4405024  0.086740201   -2.2381164   0.79761402   421013 
   53000    0.7185911   -2.2391755   -2.2391755   -1.4417279  0.095030608   -2.2391755   0.79744764   421013 
   54000    0.7192155   -2.2417387   -2.2417387   -1.4435981   0.10050465   -2.2417387   0.79814056   421013 
   55000   0.71868048   -2.2438985   -2.2438985   -1.4463517   0.10382153   -2.2438985   0.79754683   421013 
   56000   0.71869247   -2.2468268   -2.2468268   -1.4492667   0.09096807   -2.2468268   0.79756013   421013 
   57000   0.71810449   -2.2477639   -2.2477639   -1.4508563   0.10099489   -2.2477639   0.79690763   421013 
   58000   0.71866348   -2.2492284   -2.2492284   -1.4517004  0.094743699   -2.2492284   0.79752796   421013 
   59000   0.71923299   -2.2518428   -2.2518428   -1.4536828   0.10307134   -2.2518428   0.79815996   421013 
   60000   0.71787626   -2.2522494   -2.2522494   -1.4555951    0.1030472   -2.2522494   0.79665435   421013 
   61000   0.71900371    -2.255387    -2.255387   -1.4574815  0.097946093    -2.255387   0.79790552   421013 
   62000   0.71929042   -2.2572935   -2.2572935   -1.4590697  0.098100234   -2.2572935    0.7982237   421013 
   63000   0.71817194   -2.2579897   -2.2579897   -1.4610072   0.10346873   -2.2579897   0.79698247   421013 
   64000   0.71799509   -2.2589351   -2.2589351   -1.4621489  0.099471783   -2.2589351   0.79678622   421013 
   65000   0.71583962   -2.2579377   -2.2579377   -1.4635435   0.10457529   -2.2579377   0.79439422   421013 
   66000   0.71660601    -2.259634    -2.259634   -1.4643893   0.11257271    -2.259634   0.79524471   421013 
   67000   0.71812606   -2.2625758   -2.2625758   -1.4656442  0.096243213   -2.2625758   0.79693157   421013 
   68000   0.71530307   -2.2606175   -2.2606175   -1.4668187   0.10503933   -2.2606175   0.79379879   421013 
   69000   0.71505865   -2.2617131   -2.2617131   -1.4681855   0.09808408   -2.2617131   0.79352754   421013 
   70000   0.71444343   -2.2613254   -2.2613254   -1.4684806  0.093752454   -2.2613254   0.79284481   421013 
   71000   0.71500409   -2.2636417   -2.2636417   -1.4701747  0.092927102   -2.2636417   0.79346699   421013 
   72000   0.71221077   -2.2619911   -2.2619911   -1.4716239  0.093101518   -2.2619911   0.79036715   421013 
   73000   0.71229886   -2.2629073   -2.2629073   -1.4724424  0.097617055   -2.2629073    0.7904649   421013 
   74000   0.71231512   -2.2644495   -2.2644495   -1.4739665   0.08291579   -2.2644495   0.79048295   421013 
   75000   0.71050945    -2.263241    -2.263241   -1.4747619  0.092754478    -2.263241   0.78847913   421013 
   76000    0.7098848   -2.2634858   -2.2634858   -1.4756999  0.098071739   -2.2634858   0.78778592   421013 
   77000   0.70886105   -2.2634038   -2.2634038   -1.4767539  0.086988418   -2.2634038   0.78664983   421013 
   78000   0.70913798   -2.2647659   -2.2647659   -1.4778088  0.090676996   -2.2647659   0.78695716   421013 
   79000   0.70690055   -2.2628135   -2.2628135   -1.4783393  0.089914164   -2.2628135   0.78447419   421013 
   80000   0.70658921   -2.2636747   -2.2636747    -1.479546  0.082587504   -2.2636747   0.78412869   421013 
   81000   0.70710147   -2.2653511   -2.2653511    -1.480654  0.087443758   -2.2653511   0.78469716   421013 
   82000   0.70616294   -2.2650887   -2.2650887    -1.481433    0.0744566   -2.2650887   0.78365564   421013 
   83000   0.70496611   -2.2646465   -2.2646465   -1.4823191  0.082700127   -2.2646465   0.78232747   421013 
   84000    0.7034363    -2.263592    -2.263592   -1.4829622  0.088154566    -2.263592   0.78062978   421013 
   85000   0.70477441   -2.2662941   -2.2662941   -1.4841794  0.082635616   -2.2662941   0.78211473   421013 
   86000   0.70422748    -2.267454    -2.267454   -1.4859462  0.082025953    -2.267454   0.78150778   421013 
   87000   0.70210576   -2.2664601   -2.2664601   -1.4873069  0.077313614   -2.2664601   0.77915323   421013 
   88000   0.70342087   -2.2680119   -2.2680119   -1.4873992  0.075825092   -2.2680119   0.78061267   421013 
   89000   0.70130686   -2.2665388   -2.2665388   -1.4882721  0.069406341   -2.2665388   0.77826667   421013 
   90000   0.70273309   -2.2684697   -2.2684697   -1.4886203  0.072183324   -2.2684697   0.77984941   421013 
   91000   0.70290192   -2.2687613   -2.2687613   -1.4887246  0.079372536   -2.2687613   0.78003676   421013 
   92000   0.70115407   -2.2679304   -2.2679304   -1.4898333  0.081231173   -2.2679304    0.7780971   421013 
   93000   0.70232255   -2.2692197   -2.2692197   -1.4898259  0.084884946   -2.2692197   0.77939381   421013 
   94000   0.70027213   -2.2682539   -2.2682539   -1.4911355  0.078233424   -2.2682539   0.77711839   421013 
   95000   0.70237717   -2.2711157   -2.2711157   -1.4916612  0.068332005   -2.2711157   0.77945443   421013 
   96000   0.70081782   -2.2702027   -2.2702027   -1.4924788  0.083292597   -2.2702027   0.77772396   421013 
   97000   0.70184974   -2.2718215   -2.2718215   -1.4929523  0.081159232   -2.2718215   0.77886912   421013 
   98000    0.7003724    -2.270801    -2.270801   -1.4935713  0.078873973    -2.270801   0.77722966   421013 
   99000   0.70037774    -2.271817    -2.271817   -1.4945815  0.083024539    -2.271817   0.77723558   421013 
  100000   0.70112432   -2.2730551   -2.2730551    -1.494991  0.068463735   -2.2730551    0.7780641   421013 
  101000    0.6986803   -2.2715469   -2.2715469    -1.496195  0.078160281   -2.2715469   0.77535187   421013 
  102000   0.70090408   -2.2740585   -2.2740585   -1.4962388  0.078184514   -2.2740585   0.77781968   421013 
  103000   0.70082987   -2.2749113   -2.2749113   -1.4971739  0.088929826   -2.2749113   0.77773733   421013 
  104000   0.70158298   -2.2763893   -2.2763893   -1.4978162  0.077436724   -2.2763893   0.77857308   421013 
  105000   0.70067036   -2.2762171   -2.2762171   -1.4986568   0.07837189   -2.2762171   0.77756032   421013 
  106000   0.70105046   -2.2769237   -2.2769237   -1.4989416  0.086662106   -2.2769237   0.77798213   421013 
  107000   0.69956759   -2.2761255   -2.2761255    -1.499789  0.083958134   -2.2761255   0.77633653   421013 
  108000   0.70070979   -2.2781234   -2.2781234   -1.5005193  0.075892853   -2.2781234   0.77760407   421013 
  109000   0.70165065    -2.279696    -2.279696   -1.5010478  0.071330399    -2.279696   0.77864819   421013 
  110000   0.70052888   -2.2789715   -2.2789715   -1.5015682  0.089846832   -2.2789715   0.77740331   421013 
  111000   0.69998514   -2.2793779   -2.2793779    -1.502578  0.082631225   -2.2793779    0.7767999   421013 
  112000    0.6996355   -2.2797515   -2.2797515   -1.5033396  0.078623764   -2.2797515    0.7764119   421013 
  113000   0.69868626   -2.2800617   -2.2800617   -1.5047032  0.083205058   -2.2800617   0.77535849   421013 
  114000   0.69990388   -2.2828684   -2.2828684   -1.5061587  0.089484804   -2.2828684   0.77670973   421013 
  115000   0.69931474   -2.2833157   -2.2833157   -1.5072598  0.084130892   -2.2833157   0.77605593   421013 
  116000   0.69999523   -2.2852421   -2.2852421    -1.508431  0.086639765   -2.2852421    0.7768111   421013 
  117000    0.6996486   -2.2852628   -2.2852628   -1.5088364  0.088623366   -2.2852628   0.77642643   421013 
  118000   0.69909336    -2.285809    -2.285809   -1.5099987  0.083551791    -2.285809   0.77581026   421013 
  119000   0.69909411   -2.2860728   -2.2860728   -1.5102617  0.091618075   -2.2860728   0.77581109   421013 
  120000   0.70005741   -2.2887071   -2.2887071    -1.511827  0.079277143   -2.2887071    0.7768801   421013 
  121000   0.69846257   -2.2881973   -2.2881973   -1.5130871  0.084753525   -2.2881973   0.77511025   421013 
  122000   0.70009003   -2.2905822   -2.2905822   -1.5136659  0.081064551   -2.2905822    0.7769163   421013 
  123000    0.6984533   -2.2888008   -2.2888008   -1.5137009  0.090542862   -2.2888008   0.77509996   421013 
  124000   0.69828742   -2.2897864   -2.2897864   -1.5148705  0.086000748   -2.2897864   0.77491587   421013 
  125000   0.69851819   -2.2911624   -2.2911624   -1.5159904  0.090178593   -2.2911624   0.77517198   421013 
  126000   0.69821918   -2.2915704   -2.2915704   -1.5167303  0.082952536   -2.2915704   0.77484015   421013 
  127000   0.69842225   -2.2923472   -2.2923472   -1.5172817  0.082368841   -2.2923472    0.7750655   421013 
  128000   0.69782702   -2.2918562   -2.2918562   -1.5174512  0.080821049   -2.2918562   0.77440495   421013 
  129000   0.69894121   -2.2947499   -2.2947499   -1.5191085  0.088279595   -2.2947499   0.77564141   421013 
  130000   0.69723227   -2.2926344   -2.2926344   -1.5188895  0.094516848   -2.2926344   0.77374494   421013 
  131000    0.6964554   -2.2926592   -2.2926592   -1.5197763  0.087026074   -2.2926592   0.77288282   421013 
  132000   0.69809711   -2.2947511   -2.2947511   -1.5200464  0.085586954   -2.2947511   0.77470469   421013 
  133000   0.69847194   -2.2960792   -2.2960792   -1.5209586  0.083427582   -2.2960792   0.77512065   421013 
  134000   0.69723073   -2.2949134   -2.2949134   -1.5211701  0.079891038   -2.2949134   0.77374323   421013 
  135000   0.69722796   -2.2968147   -2.2968147   -1.5230745  0.081774867   -2.2968147   0.77374016   421013 
  136000   0.69695872   -2.2974183   -2.2974183    -1.523977  0.077488812   -2.2974183   0.77344137   421013 
  137000   0.69848837   -2.2994039   -2.2994039    -1.524265   0.08325811   -2.2994039   0.77513888   421013 
  138000   0.69603315   -2.2975431   -2.2975431   -1.5251289  0.088886431   -2.2975431   0.77241423   421013 
  139000   0.69521069   -2.2976123   -2.2976123   -1.5261107  0.088194303   -2.2976123   0.77150152   421013 
  140000   0.69447778   -2.2978771   -2.2978771   -1.5271889  0.079174911   -2.2978771   0.77068818   421013 
  141000   0.69546081   -2.2998555   -2.2998555   -1.5280764  0.080018134   -2.2998555   0.77177909   421013 
  142000   0.69613625    -2.301928    -2.301928   -1.5293994  0.080258629    -2.301928   0.77252865   421013 
  143000    0.6959345   -2.3017489   -2.3017489   -1.5294441  0.083510841   -2.3017489   0.77230475   421013 
  144000   0.69674954   -2.3037056   -2.3037056   -1.5304963  0.084189399   -2.3037056   0.77320924   421013 
  145000   0.69449487   -2.3018098   -2.3018098   -1.5311027  0.082618973   -2.3018098   0.77070715   421013 
  146000   0.69424973   -2.3016325   -2.3016325   -1.5311974  0.080560511   -2.3016325   0.77043511   421013 
  147000   0.69411297   -2.3023667   -2.3023667   -1.5320834  0.085223284   -2.3023667   0.77028333   421013 
  148000   0.69473934   -2.3030973   -2.3030973   -1.5321189  0.078033837   -2.3030973   0.77097844   421013 
  149000   0.69331402   -2.3023334   -2.3023334   -1.5329367  0.090019848   -2.3023334   0.76939671   421013 
  150000   0.69240028   -2.3012613   -2.3012613   -1.5328786  0.090744428   -2.3012613    0.7683827   421013 
  151000   0.69240926   -2.3015184   -2.3015184   -1.5331257  0.082774427   -2.3015184   0.76839266   421013 
  152000   0.69216238   -2.3026236   -2.3026236   -1.5345049  0.078005216   -2.3026236   0.76811869   421013 
  153000   0.69317425   -2.3039625   -2.3039625   -1.5347209  0.068595101   -2.3039625    0.7692416   421013 
  154000   0.69187087   -2.3027031   -2.3027031   -1.5349079  0.080259049   -2.3027031   0.76779519   421013 
  155000   0.69137461   -2.3038755   -2.3038755    -1.536631  0.082426103   -2.3038755   0.76724447   421013 
  156000   0.69174512   -2.3043129   -2.3043129   -1.5366572  0.089703625   -2.3043129   0.76765564   421013 
  157000    0.6918121   -2.3052253   -2.3052253   -1.5374953  0.088537587   -2.3052253   0.76772997   421013 
  158000   0.69098125   -2.3047286   -2.3047286   -1.5379207  0.081909796   -2.3047286   0.76680795   421013 
  159000   0.69184132   -2.3054781   -2.3054781   -1.5377157  0.086566459   -2.3054781   0.76776239   421013 
  160000      0.69279   -2.3064722   -2.3064722    -1.537657  0.069846947   -2.3064722   0.76881519   421013 
  161000   0.69164597     -2.30558     -2.30558   -1.5380344  0.080126506     -2.30558   0.76754561   421013 
  162000   0.69239612   -2.3067098   -2.3067098   -1.5383317  0.066151683   -2.3067098   0.76837809   421013 
  163000   0.69203997   -2.3069899   -2.3069899    -1.539007  0.083410366   -2.3069899   0.76798284   421013 
  164000   0.69100244   -2.3063122   -2.3063122   -1.5394807  0.082567117   -2.3063122   0.76683146   421013 
  165000   0.69080683   -2.3067919   -2.3067919   -1.5401775  0.071394753   -2.3067919   0.76661439   421013 
  166000   0.69088174   -2.3077259   -2.3077259   -1.5410284  0.073049192   -2.3077259   0.76669751   421013 
  167000   0.69105393   -2.3088773   -2.3088773   -1.5419887  0.081674059   -2.3088773    0.7668886   421013 
  168000   0.69076267   -2.3083157   -2.3083157   -1.5417504  0.067530033   -2.3083157   0.76656538   421013 
  169000   0.69097027   -2.3092856   -2.3092856   -1.5424898  0.071676446   -2.3092856   0.76679576   421013 
  170000   0.69026119   -2.3097566   -2.3097566   -1.5437477  0.080058559   -2.3097566   0.76600887   421013 
  171000    0.6915351   -2.3109807   -2.3109807   -1.5435581  0.085034813   -2.3109807   0.76742257   421013 
  172000   0.68935601   -2.3094325   -2.3094325   -1.5444282  0.087474688   -2.3094325   0.76500435   421013 
  173000   0.68990931   -2.3100349   -2.3100349   -1.5444165  0.086721306   -2.3100349   0.76561838   421013 
  174000   0.69021027   -2.3115152   -2.3115152   -1.5455628  0.077746938   -2.3115152   0.76595237   421013 
  175000   0.69071958   -2.3130629   -2.3130629   -1.5465454  0.079445152   -2.3130629   0.76651756   421013 
  176000   0.69041354   -2.3135768   -2.3135768   -1.5473988   0.07174176   -2.3135768   0.76617794   421013 
  177000   0.68983628   -2.3134546   -2.3134546   -1.5479173  0.086044368   -2.3134546   0.76553732   421013 
  178000   0.68980182   -2.3141622   -2.3141622   -1.5486631  0.077144883   -2.3141622   0.76549909   421013 
  179000   0.68862061   -2.3132679   -2.3132679   -1.5490796   0.08253016   -2.3132679   0.76418825   421013 
  180000   0.68912923   -2.3139947   -2.3139947    -1.549242  0.073350532   -2.3139947   0.76475269   421013 
  181000   0.68816394   -2.3137083   -2.3137083   -1.5500268  0.075325463   -2.3137083   0.76368147   421013 
  182000   0.68824469   -2.3145532   -2.3145532   -1.5507821  0.075997306   -2.3145532   0.76377108   421013 
  183000    0.6876205   -2.3155602   -2.3155602   -1.5524818  0.074063605   -2.3155602   0.76307839   421013 
  184000    0.6885754   -2.3165805   -2.3165805   -1.5524424  0.069782496   -2.3165805   0.76413809   421013 
  185000   0.68961155   -2.3178738   -2.3178738   -1.5525859  0.073160343   -2.3178738   0.76528794   421013 
  186000   0.68917226   -2.3180328   -2.3180328   -1.5532324  0.079303777   -2.3180328   0.76480044   421013 
  187000   0.68922653   -2.3186857   -2.3186857   -1.5538251  0.077709226   -2.3186857   0.76486066   421013 
  188000   0.68790143   -2.3176089   -2.3176089   -1.5542187  0.075132631   -2.3176089   0.76339016   421013 
  189000   0.68782411   -2.3186148   -2.3186148   -1.5553104  0.073420991   -2.3186148   0.76330435   421013 
  190000   0.68913689   -2.3209037   -2.3209037   -1.5561425  0.080766739   -2.3209037   0.76476119   421013 
  191000   0.68861675   -2.3207541   -2.3207541   -1.5565702  0.097314855   -2.3207541   0.76418397   421013 
  192000   0.68697231    -2.319811    -2.319811    -1.557452  0.084882534    -2.319811   0.76235907   421013 
  193000   0.68668185   -2.3197545   -2.3197545   -1.5577178   0.07826731   -2.3197545   0.76203674   421013 
  194000   0.68691895   -2.3206558   -2.3206558   -1.5583559  0.074670157   -2.3206558   0.76229986   421013 
  195000   0.68642509   -2.3207844   -2.3207844   -1.5590326  0.082059897   -2.3207844    0.7617518   421013 
  196000    0.6882131   -2.3224026   -2.3224026   -1.5586665  0.075399007   -2.3224026   0.76373602   421013 
  197000   0.68824519   -2.3227646   -2.3227646   -1.5589929  0.074199753   -2.3227646   0.76377164   421013 
  198000   0.68899923   -2.3240718   -2.3240718   -1.5594634  0.076974826   -2.3240718   0.76460843   421013 
  199000   0.68655973   -2.3216088   -2.3216088   -1.5597076  0.079101426   -2.3216088   0.76190122   421013 
  200000    0.6869755   -2.3229921   -2.3229921   -1.5606295  0.068903425   -2.3229921   0.76236262   421013 
  201000   0.68806333   -2.3251948   -2.3251948    -1.561625  0.079208404   -2.3251948   0.76356982   421013 
  202000   0.68729045   -2.3248498   -2.3248498   -1.5621377  0.077473321   -2.3248498   0.76271213   421013 
  203000    0.6859771   -2.3249327   -2.3249327   -1.5636781  0.074526309   -2.3249327   0.76125465   421013 
  204000    0.6857531   -2.3250571   -2.3250571   -1.5640511  0.082286329   -2.3250571   0.76100607   421013 
  205000   0.68557131   -2.3243894   -2.3243894   -1.5635851  0.081413278   -2.3243894   0.76080433   421013 
  206000   0.68614572   -2.3252074   -2.3252074   -1.5637657  0.072136116   -2.3252074   0.76144178   421013 
  207000   0.68736166   -2.3274308   -2.3274308   -1.5646397  0.069933842   -2.3274308   0.76279116   421013 
  208000   0.68618408   -2.3272057   -2.3272057   -1.5657214  0.081436225   -2.3272057   0.76148434   421013 
  209000   0.68702338   -2.3274179   -2.3274179   -1.5650021    0.0672034   -2.3274179   0.76241575   421013 
  210000   0.68621511   -2.3268855   -2.3268855   -1.5653668   0.07134853   -2.3268855   0.76151879   421013 
  211000   0.68503414    -2.325522    -2.325522   -1.5653138  0.073645732    -2.325522   0.76020822   421013 
  212000   0.68610616   -2.3275624   -2.3275624   -1.5661646  0.070011739   -2.3275624   0.76139787   421013 
  213000   0.68694129   -2.3286874   -2.3286874   -1.5663628  0.073828065   -2.3286874   0.76232465   421013 
  214000   0.68540558   -2.3287801   -2.3287801   -1.5681596  0.080256021   -2.3287801   0.76062042   421013 
  215000   0.68510976   -2.3287453   -2.3287453   -1.5684531  0.074610903   -2.3287453   0.76029213   421013 
  216000   0.68572405   -2.3297885   -2.3297885   -1.5688147  0.086155269   -2.3297885   0.76097383   421013 
  217000   0.68497678   -2.3306364   -2.3306364   -1.5704918  0.082032237   -2.3306364   0.76014455   421013 
  218000   0.68569284   -2.3321589   -2.3321589   -1.5712197  0.071265398   -2.3321589   0.76093919   421013 
  219000   0.68551324   -2.3321926   -2.3321926   -1.5714527  0.081392134   -2.3321926   0.76073989   421013 
  220000   0.68470923   -2.3320177   -2.3320177     -1.57217  0.075014165   -2.3320177   0.75984764   421013 
  221000   0.68409505    -2.331758    -2.331758   -1.5725919  0.079774144    -2.331758   0.75916607   421013 
  222000   0.68498275   -2.3339508   -2.3339508   -1.5737996  0.066665222   -2.3339508   0.76015118   421013 
  223000   0.68520373   -2.3345576   -2.3345576   -1.5741612  0.075014759   -2.3345576   0.76039641   421013 
  224000   0.68460672   -2.3339109   -2.3339109    -1.574177  0.070754771   -2.3339109   0.75973389   421013 
  225000   0.68267493   -2.3326773   -2.3326773   -1.5750872  0.076329857   -2.3326773   0.75759011   421013 
  226000    0.6827354   -2.3326208   -2.3326208   -1.5749635  0.081085923   -2.3326208   0.75765722   421013 
  227000   0.68377375   -2.3339777   -2.3339777   -1.5751681  0.066832289   -2.3339777   0.75880951   421013 
  228000    0.6835948   -2.3347487   -2.3347487   -1.5761378  0.074682339   -2.3347487   0.75861092   421013 
  229000   0.68335974   -2.3344628   -2.3344628   -1.5761127  0.078062471   -2.3344628   0.75835007   421013 
  230000   0.68491172   -2.3360763   -2.3360763   -1.5760039  0.069591668   -2.3360763   0.76007236   421013 
  231000   0.68271948   -2.3342105   -2.3342105    -1.576571  0.074135096   -2.3342105   0.75763955   421013 
  232000   0.68267938    -2.334596    -2.334596    -1.577001  0.077827509    -2.334596   0.75759505   421013 
  233000   0.68294026   -2.3350161   -2.3350161   -1.5771315  0.067911114   -2.3350161   0.75788455   421013 
  234000   0.68289845   -2.3358325   -2.3358325   -1.5779943  0.073520665   -2.3358325   0.75783816   421013 
  235000   0.68366367   -2.3366134   -2.3366134    -1.577926  0.072004766   -2.3366134   0.75868735   421013 
  236000   0.68530539   -2.3388361   -2.3388361   -1.5783268  0.075792117   -2.3388361   0.76050923   421013 
  237000   0.68288439   -2.3374837   -2.3374837   -1.5796611  0.064141097   -2.3374837   0.75782255   421013 
  238000   0.68402556   -2.3385304   -2.3385304   -1.5794414   0.07517774   -2.3385304   0.75908896   421013 
  239000    0.6835898   -2.3390073   -2.3390073   -1.5804019  0.080859163   -2.3390073   0.75860537   421013 
  240000   0.68239843   -2.3379003   -2.3379003    -1.580617  0.074288271   -2.3379003   0.75728326   421013 
  241000   0.68245982   -2.3392206   -2.3392206   -1.5818692  0.075396251   -2.3392206   0.75735139   421013 
  242000   0.68264755    -2.340078    -2.340078   -1.5825183  0.076767219    -2.340078   0.75755972   421013 
  243000   0.68282274   -2.3406259   -2.3406259   -1.5828718  0.075413867   -2.3406259   0.75775414   421013 
  244000   0.68342357   -2.3419221   -2.3419221   -1.5835012  0.071879591   -2.3419221    0.7584209   421013 
  245000   0.68292448   -2.3416957   -2.3416957   -1.5838287  0.077711634   -2.3416957   0.75786704   421013 
  246000   0.68102231   -2.3400234   -2.3400234   -1.5842673  0.076584423   -2.3400234   0.75575614   421013 
  247000   0.68083472   -2.3408983   -2.3408983   -1.5853503  0.074990711   -2.3408983   0.75554796   421013 
  248000   0.68328183   -2.3442372   -2.3442372   -1.5859736  0.072687122   -2.3442372   0.75826361   421013 
  249000   0.68178005   -2.3421787   -2.3421787   -1.5855817  0.081493696   -2.3421787   0.75659702   421013 
  250000   0.68179594   -2.3420461   -2.3420461   -1.5854314  0.077055468   -2.3420461   0.75661467   421013 
  251000   0.68116887   -2.3418026   -2.3418026   -1.5858838  0.068713911   -2.3418026   0.75591878   421013 
  252000   0.68116322   -2.3428141   -2.3428141   -1.5869016  0.066877803   -2.3428141   0.75591251   421013 
  253000   0.68048803   -2.3435748   -2.3435748   -1.5884116  0.069523479   -2.3435748   0.75516322   421013 
  254000   0.68057495   -2.3438405   -2.3438405   -1.5885808  0.067526436   -2.3438405   0.75525968   421013 
  255000   0.67967447   -2.3432739   -2.3432739   -1.5890135  0.077583349   -2.3432739   0.75426038   421013 
  256000   0.67997945   -2.3440843   -2.3440843   -1.5894854  0.077182624   -2.3440843   0.75459883   421013 
  257000   0.67969771   -2.3451558   -2.3451558   -1.5908696  0.074694205   -2.3451558   0.75428617   421013 
  258000   0.67930625   -2.3452373   -2.3452373   -1.5913856  0.081499226   -2.3452373   0.75385176   421013 
  259000   0.68125264   -2.3472777   -2.3472777    -1.591266   0.06762546   -2.3472777   0.75601174   421013 
  260000   0.68083008   -2.3473622   -2.3473622   -1.5918194  0.082135524   -2.3473622   0.75554281   421013 
  261000   0.68046674   -2.3477038   -2.3477038   -1.5925642  0.074583047   -2.3477038    0.7551396   421013 
  262000   0.68026132   -2.3468037   -2.3468037    -1.591892  0.074843786   -2.3468037   0.75491163   421013 
  263000   0.68037407   -2.3477189   -2.3477189   -1.5926821  0.073400196   -2.3477189   0.75503676   421013 
  264000   0.67946946   -2.3482004   -2.3482004   -1.5941675  0.068297613   -2.3482004   0.75403288   421013 
  265000   0.67889429   -2.3480378   -2.3480378   -1.5946432  0.073405214   -2.3480378   0.75339459   421013 
  266000   0.68067176   -2.3502685   -2.3502685   -1.5949014  0.071789762   -2.3502685   0.75536711   421013 
  267000   0.67958445    -2.349687    -2.349687   -1.5955266  0.067633762    -2.349687   0.75416049   421013 
  268000   0.68058458   -2.3518906   -2.3518906   -1.5966203  0.076765115   -2.3518906   0.75527036   421013 
  269000   0.67967947   -2.3510174   -2.3510174   -1.5967515  0.072225658   -2.3510174   0.75426594   421013 
  270000   0.68114726   -2.3529866   -2.3529866   -1.5970918  0.068442254   -2.3529866    0.7558948   421013 
  271000   0.67997138   -2.3526844   -2.3526844   -1.5980945  0.060065171   -2.3526844   0.75458987   421013 
  272000   0.67995661   -2.3534139   -2.3534139   -1.5988404  0.076138571   -2.3534139   0.75457349   421013 
  273000   0.67914865   -2.3526455   -2.3526455   -1.5989686  0.068110048   -2.3526455   0.75367687   421013 
  274000   0.67930748     -2.35313     -2.35313   -1.5992769  0.066678377     -2.35313   0.75385312   421013 
  275000   0.67930488   -2.3541268   -2.3541268   -1.6002766   0.07642422   -2.3541268   0.75385024   421013 
  276000    0.6787829   -2.3546709   -2.3546709   -1.6013999   0.07788252   -2.3546709   0.75327098   421013 
  277000   0.67928394   -2.3550681   -2.3550681   -1.6012411  0.080151113   -2.3550681     0.753827   421013 
  278000   0.67712867   -2.3533088   -2.3533088   -1.6018736  0.073110968   -2.3533088   0.75143521   421013 
  279000   0.67920908   -2.3556423   -2.3556423   -1.6018984  0.070440579   -2.3556423   0.75374392   421013 
  280000   0.67814679   -2.3544231   -2.3544231    -1.601858  0.069914268   -2.3544231   0.75256506   421013 
  281000   0.67961967     -2.35526     -2.35526   -1.6010604  0.073996696     -2.35526   0.75419958   421013 
  282000   0.67865406   -2.3542359   -2.3542359   -1.6011079  0.066025386   -2.3542359     0.753128   421013 
  283000   0.67809108   -2.3543937   -2.3543937   -1.6018904  0.069715247   -2.3543937   0.75250324   421013 
  284000   0.67908525   -2.3561474   -2.3561474   -1.6025409  0.072118352   -2.3561474    0.7536065   421013 
  285000    0.6788063   -2.3569139   -2.3569139    -1.603617  0.079055499   -2.3569139   0.75329694   421013 
  286000   0.67814974    -2.356968    -2.356968   -1.6043997  0.071428659    -2.356968   0.75256834   421013 
  287000   0.67959925   -2.3584949   -2.3584949    -1.604318   0.06403835   -2.3584949   0.75417691   421013 
  288000   0.67677059   -2.3562727   -2.3562727   -1.6052348  0.067107591   -2.3562727   0.75103784   421013 
  289000   0.67899335   -2.3592955   -2.3592955   -1.6057909  0.073230149   -2.3592955   0.75350452   421013 
  290000   0.67717149   -2.3575496   -2.3575496   -1.6060668  0.078433204   -2.3575496   0.75148274   421013 
  291000   0.67916561   -2.3599785   -2.3599785   -1.6062828  0.067342626   -2.3599785   0.75369569   421013 
  292000   0.67869977   -2.3595983   -2.3595983   -1.6064196  0.075483056   -2.3595983   0.75317872   421013 
  293000   0.67798735   -2.3595354   -2.3595354   -1.6071473  0.066457362   -2.3595354   0.75238813   421013 
  294000   0.67514361   -2.3569746   -2.3569746   -1.6077423  0.076586189   -2.3569746   0.74923231   421013 
  295000   0.67835753   -2.3614075   -2.3614075   -1.6086086  0.074611364   -2.3614075   0.75279893   421013 
  296000     0.678021   -2.3610313   -2.3610313   -1.6086058  0.071740891   -2.3610313   0.75242546   421013 
  297000   0.67795696   -2.3621458   -2.3621458   -1.6097914  0.073535126   -2.3621458    0.7523544   421013 
  298000   0.67774835    -2.361852    -2.361852   -1.6097291  0.069794119    -2.361852   0.75212289   421013 
  299000   0.67714601   -2.3614202   -2.3614202   -1.6099658  0.071368785   -2.3614202   0.75145446   421013 
  300000    0.6774599   -2.3611758   -2.3611758    -1.609373  0.067495852   -2.3611758    0.7518028   421013 
  301000   0.67631416    -2.360792    -2.360792   -1.6102607  0.061925153    -2.360792   0.75053132   421013 
  302000   0.67738776   -2.3611393   -2.3611393   -1.6094165  0.074729063   -2.3611393   0.75172274   421013 
  303000   0.67687403   -2.3616732   -2.3616732   -1.6105205  0.060763734   -2.3616732   0.75115264   421013 
  304000   0.67727331   -2.3618327   -2.3618327   -1.6102369  0.073140945   -2.3618327   0.75159573   421013 
  305000   0.67703598   -2.3621327   -2.3621327   -1.6108004  0.073125048   -2.3621327   0.75133236   421013 
  306000   0.67675187   -2.3616258   -2.3616258   -1.6106088  0.075508852   -2.3616258   0.75101706   421013 
  307000   0.67636813   -2.3622649   -2.3622649   -1.6116737  0.073887523   -2.3622649   0.75059122   421013 
  308000    0.6759219   -2.3631071   -2.3631071   -1.6130111  0.073665926   -2.3631071   0.75009602   421013 
  309000    0.6766424   -2.3644013   -2.3644013   -1.6135057  0.065237955   -2.3644013   0.75089558   421013 
  310000   0.67614677   -2.3638822   -2.3638822   -1.6135367  0.069050508   -2.3638822   0.75034556   421013 
  311000   0.67599673    -2.364587    -2.364587   -1.6144079  0.076958424    -2.364587   0.75017906   421013 
  312000   0.67554269   -2.3655481   -2.3655481   -1.6158729  0.069368501   -2.3655481   0.74967519   421013 
  313000    0.6755555   -2.3653032   -2.3653032   -1.6156138  0.074250121   -2.3653032   0.74968941   421013 
  314000   0.67500426   -2.3646726   -2.3646726   -1.6155949  0.063493333   -2.3646726   0.74907768   421013 
  315000   0.67580983    -2.365772    -2.365772   -1.6158004  0.071590185    -2.365772   0.74997164   421013 
  316000   0.67595144   -2.3661903   -2.3661903   -1.6160615  0.069412015   -2.3661903   0.75012879   421013 
  317000   0.67686468   -2.3676644   -2.3676644   -1.6165221   0.06307914   -2.3676644   0.75114226   421013 
  318000   0.67492486    -2.366216    -2.366216   -1.6172265  0.069607265    -2.366216   0.74898956   421013 
  319000   0.67524776    -2.367119    -2.367119   -1.6177711   0.08241147    -2.367119   0.74934789   421013 
  320000   0.67524753   -2.3679399   -2.3679399   -1.6185923  0.070115353   -2.3679399   0.74934764   421013 
  321000   0.67613052   -2.3686258   -2.3686258   -1.6182982  0.063666804   -2.3686258   0.75032753   421013 
  322000   0.67558761   -2.3679459   -2.3679459   -1.6182209  0.064038722   -2.3679459   0.74972504   421013 
  323000   0.67512722   -2.3682662   -2.3682662   -1.6190521  0.070285303   -2.3682662   0.74921413   421013 
  324000   0.67601008    -2.370093    -2.370093   -1.6198991  0.081708582    -2.370093   0.75019387   421013 
  325000    0.6745967   -2.3687996   -2.3687996   -1.6201742  0.062513038   -2.3687996   0.74862539   421013 
  326000   0.67352174   -2.3682579   -2.3682579   -1.6208254  0.077227109   -2.3682579   0.74743246   421013 
  327000   0.67619874   -2.3704672   -2.3704672    -1.620064  0.069557498   -2.3704672   0.75040324   421013 
  328000   0.67442872   -2.3693075   -2.3693075   -1.6208685   0.07452672   -2.3693075   0.74843898   421013 
  329000   0.67611358   -2.3720256   -2.3720256   -1.6217169  0.060283793   -2.3720256   0.75030873   421013 
  330000   0.67464996   -2.3709579   -2.3709579   -1.6222734   0.07353682   -2.3709579    0.7486845   421013 
  331000    0.6733107   -2.3693822   -2.3693822   -1.6221839  0.068147373   -2.3693822   0.74719827   421013 
  332000   0.67500802   -2.3714885   -2.3714885   -1.6224067  0.074417659   -2.3714885   0.74908185   421013 
  333000   0.67422082   -2.3716691   -2.3716691   -1.6234608  0.079477169   -2.3716691   0.74820827   421013 
  334000   0.67171287    -2.369351    -2.369351   -1.6239259  0.073965769    -2.369351    0.7454251   421013 
  335000   0.67419367   -2.3719219   -2.3719219   -1.6237437  0.075910913   -2.3719219   0.74817813   421013 
  336000   0.67495147   -2.3723237   -2.3723237   -1.6233046  0.074116056   -2.3723237    0.7490191   421013 
  337000   0.67340694   -2.3713371   -2.3713371    -1.624032  0.081616337   -2.3713371   0.74730508   421013 
  338000   0.67335201   -2.3712423   -2.3712423   -1.6239982   0.07884037   -2.3712423   0.74724412   421013 
  339000    0.6741864   -2.3724302   -2.3724302   -1.6242601  0.066360552   -2.3724302   0.74817007   421013 
  340000   0.67433395   -2.3725345   -2.3725345   -1.6242007  0.070048762   -2.3725345   0.74833381   421013 
  341000   0.67503587   -2.3741413   -2.3741413   -1.6250286  0.073363438   -2.3741413   0.74911276   421013 
  342000    0.6737003   -2.3733032   -2.3733032   -1.6256725   0.07160817   -2.3733032   0.74763062   421013 
  343000   0.67284939   -2.3722959   -2.3722959   -1.6256096  0.065555091   -2.3722959   0.74668634   421013 
  344000   0.67372855   -2.3738944   -2.3738944   -1.6262324  0.075960464   -2.3738944   0.74766197   421013 
  345000   0.67295695    -2.374264    -2.374264   -1.6274583  0.067142824    -2.374264    0.7468057   421013 
  346000   0.67342069   -2.3753533   -2.3753533    -1.628033   0.05736339   -2.3753533   0.74732033   421013 
  347000   0.67320726   -2.3751115   -2.3751115    -1.628028  0.063300905   -2.3751115   0.74708348   421013 
  348000   0.67235499   -2.3751106   -2.3751106    -1.628973  0.073550679   -2.3751106   0.74613768   421013 
  349000   0.67262439   -2.3761573   -2.3761573   -1.6297207  0.067742185   -2.3761573   0.74643665   421013 
  350000   0.67388353   -2.3775663   -2.3775663   -1.6297323  0.060931744   -2.3775663   0.74783397   421013 
  351000   0.67245382   -2.3761927   -2.3761927   -1.6299453  0.069186468   -2.3761927   0.74624736   421013 
  352000   0.67263599   -2.3780237   -2.3780237   -1.6315742  0.071196008   -2.3780237   0.74644952   421013 
  353000   0.67107814   -2.3765166   -2.3765166   -1.6317959   0.07077803   -2.3765166   0.74472072   421013 
  354000    0.6715165   -2.3782875   -2.3782875   -1.6330803  0.054762474   -2.3782875   0.74520718   421013 
  355000   0.67029949   -2.3774609   -2.3774609   -1.6336043  0.068954033   -2.3774609   0.74385661   421013 
  356000   0.67163208   -2.3786358   -2.3786358   -1.6333004    0.0710622   -2.3786358   0.74533544   421013 
  357000   0.67145335   -2.3786196   -2.3786196   -1.6334825  0.073057363   -2.3786196   0.74513709   421013 
  358000   0.67070622   -2.3783289   -2.3783289   -1.6340209  0.065477756   -2.3783289   0.74430798   421013 
  359000   0.67146823   -2.3802447   -2.3802447   -1.6350911  0.082922249   -2.3802447   0.74515361   421013 
  360000   0.66992173   -2.3789434   -2.3789434    -1.635506  0.070904814   -2.3789434    0.7434374   421013 
  361000   0.67121693   -2.3802834   -2.3802834   -1.6354087  0.074565016   -2.3802834   0.74487473   421013 
  362000   0.67015818   -2.3797947   -2.3797947   -1.6360949   0.06921644   -2.3797947    0.7436998   421013 
  363000   0.67122884   -2.3807311   -2.3807311   -1.6358431  0.070003495   -2.3807311   0.74488795   421013 
  364000   0.67097008   -2.3820941   -2.3820941   -1.6374933   0.06706586   -2.3820941    0.7446008   421013 
  365000   0.67010749     -2.38253     -2.38253   -1.6388865  0.069910221     -2.38253   0.74364354   421013 
  366000   0.67013086   -2.3823631   -2.3823631   -1.6386936  0.065107041   -2.3823631   0.74366948   421013 
  367000   0.67027006   -2.3824669   -2.3824669   -1.6386429  0.070139925   -2.3824669   0.74382395   421013 
  368000   0.67170993    -2.384631    -2.384631   -1.6392091  0.066883843    -2.384631   0.74542183   421013 
  369000   0.67094036    -2.383667    -2.383667   -1.6390991  0.074534472    -2.383667   0.74456782   421013 
  370000   0.67109721   -2.3829834   -2.3829834   -1.6382415   0.07343256   -2.3829834   0.74474188   421013 
  371000   0.67135424   -2.3838701   -2.3838701    -1.638843   0.07488683   -2.3838701   0.74502711   421013 
  372000   0.67170453   -2.3850658   -2.3850658     -1.63965  0.064848512   -2.3850658   0.74541584   421013 
  373000     0.670767   -2.3839501   -2.3839501   -1.6395747  0.077344362   -2.3839501   0.74437543   421013 
  374000   0.67127788   -2.3848928   -2.3848928   -1.6399504  0.058544742   -2.3848928   0.74494237   421013 
  375000   0.67020168   -2.3838031   -2.3838031    -1.640055  0.070405424   -2.3838031   0.74374807   421013 
  376000   0.67041003   -2.3848123   -2.3848123    -1.640833  0.060379598   -2.3848123   0.74397929   421013 
  377000   0.66994354   -2.3850485   -2.3850485   -1.6415869    0.0749429   -2.3850485   0.74346161   421013 
  378000   0.66928191   -2.3848181   -2.3848181   -1.6420908  0.069312141   -2.3848181   0.74272737   421013 
  379000   0.67074607   -2.3868772   -2.3868772    -1.642525  0.072476102   -2.3868772   0.74435221   421013 
  380000   0.67062261   -2.3864249   -2.3864249   -1.6422097   0.06138595   -2.3864249   0.74421519   421013 
  381000   0.66985844   -2.3865689   -2.3865689   -1.6432017   0.06941519   -2.3865689   0.74336717   421013 
  382000   0.66934323   -2.3856391   -2.3856391   -1.6428437  0.059533679   -2.3856391   0.74279542   421013 
  383000   0.66976556   -2.3870018   -2.3870018   -1.6437377  0.067147754   -2.3870018    0.7432641   421013 
  384000   0.66899646   -2.3859414   -2.3859414   -1.6435308  0.075488893   -2.3859414   0.74241059   421013 
  385000   0.67096726    -2.387971    -2.387971   -1.6433734  0.069010256    -2.387971   0.74459767   421013 
  386000   0.67004583   -2.3879587   -2.3879587   -1.6443836  0.071609164   -2.3879587   0.74357512   421013 
  387000    0.6696933   -2.3882977   -2.3882977   -1.6451138  0.078422458   -2.3882977   0.74318391   421013 
  388000   0.67000195   -2.3895898   -2.3895898   -1.6460634  0.069902377   -2.3895898   0.74352642   421013 
  389000   0.67019491   -2.3904926   -2.3904926   -1.6467521  0.074341663   -2.3904926   0.74374056   421013 
  390000   0.66981009   -2.3906757   -2.3906757   -1.6473621  0.062092615   -2.3906757   0.74331352   421013 
  391000   0.66988018    -2.390773    -2.390773   -1.6473817  0.075038797    -2.390773    0.7433913   421013 
  392000   0.66802219   -2.3889901   -2.3889901   -1.6476606  0.061645842   -2.3889901   0.74132942   421013 
  393000    0.6688514   -2.3903823   -2.3903823   -1.6481327  0.071660582   -2.3903823   0.74224962   421013 
  394000   0.66983666   -2.3913359   -2.3913359   -1.6479929  0.072036405   -2.3913359   0.74334299   421013 
  395000   0.66788273    -2.390166    -2.390166   -1.6489914  0.075712588    -2.390166   0.74117465   421013 
  396000   0.66859922   -2.3908677   -2.3908677   -1.6488979  0.064024179   -2.3908677   0.74196977   421013 
  397000   0.66858766   -2.3913889   -2.3913889    -1.649432  0.062168481   -2.3913889   0.74195694   421013 
  398000   0.66951347   -2.3932496   -2.3932496   -1.6502653  0.066770361   -2.3932496   0.74298434   421013 
  399000   0.66928048    -2.392701    -2.392701   -1.6499752  0.077408825    -2.392701   0.74272578   421013 
  400000   0.66739384   -2.3907002   -2.3907002   -1.6500681  0.077653039   -2.3907002   0.74063211   421013 
  401000   0.66861109   -2.3927103   -2.3927103   -1.6507274  0.070714287   -2.3927103   0.74198293   421013 
  402000   0.66962252   -2.3937877   -2.3937877   -1.6506823  0.070192066   -2.3937877   0.74310536   421013 
  403000   0.66864357   -2.3926087   -2.3926087   -1.6505897  0.077962002   -2.3926087   0.74201898   421013 
  404000   0.66820497    -2.393176    -2.393176   -1.6516437  0.065107678    -2.393176   0.74153225   421013 
  405000   0.66687483    -2.391683    -2.391683   -1.6516269  0.068615193    -2.391683   0.74005614   421013 
  406000   0.66718845   -2.3927778   -2.3927778   -1.6523736  0.063720468   -2.3927778   0.74040418   421013 
  407000   0.66797619   -2.3937667   -2.3937667   -1.6524884  0.070087783   -2.3937667   0.74127837   421013 
  408000   0.66781041   -2.3944591   -2.3944591   -1.6533647  0.071393656   -2.3944591   0.74109439   421013 
  409000   0.66718869   -2.3927882   -2.3927882   -1.6523838  0.067773476   -2.3927882   0.74040444   421013 
  410000   0.66579403    -2.392793    -2.392793   -1.6539363  0.058040114    -2.392793   0.73885674   421013 
  411000   0.66558146   -2.3929487   -2.3929487   -1.6543278  0.067751728   -2.3929487   0.73862085   421013 
  412000   0.66667528   -2.3944558   -2.3944558   -1.6546211  0.068172431   -2.3944558    0.7398347   421013 
  413000   0.66598386    -2.393638    -2.393638   -1.6545706  0.073314388    -2.393638    0.7390674   421013 
  414000   0.66602142   -2.3941061   -2.3941061   -1.6549971  0.055650084   -2.3941061   0.73910908   421013 
  415000   0.66801703   -2.3964624   -2.3964624   -1.6551387   0.05706574   -2.3964624   0.74132368   421013 
  416000   0.66708051   -2.3948909   -2.3948909   -1.6546065  0.071872484   -2.3948909    0.7402844   421013 
  417000   0.66804055   -2.3954975   -2.3954975   -1.6541477  0.062817704   -2.3954975   0.74134979   421013 
  418000   0.66883242    -2.396581    -2.396581   -1.6543524   0.07156927    -2.396581   0.74222856   421013 
  419000   0.66755213   -2.3955815   -2.3955815   -1.6547738  0.061229768   -2.3955815   0.74080777   421013 
  420000   0.66830589   -2.3968233   -2.3968233   -1.6551791  0.075898753   -2.3968233   0.74164425   421013 
  421000   0.66814662     -2.39682     -2.39682   -1.6553525  0.061586126     -2.39682    0.7414675   421013 
  422000   0.66850542   -2.3982553   -2.3982553   -1.6563896  0.075802908   -2.3982553   0.74186567   421013 
  423000   0.66624644   -2.3956971   -2.3956971   -1.6563383  0.061673149   -2.3956971    0.7393588   421013 
  424000   0.66809249   -2.3981001   -2.3981001   -1.6566927  0.068589145   -2.3981001   0.74140743   421013 
  425000   0.66688158   -2.3972917   -2.3972917   -1.6572281  0.079436556   -2.3972917   0.74006364   421013 
  426000   0.66630547   -2.3970415   -2.3970415   -1.6576172  0.074444619   -2.3970415   0.73942431   421013 
  427000   0.66607925   -2.3973713   -2.3973713    -1.658198  0.078179006   -2.3973713   0.73917325   421013 
  428000   0.66828083   -2.3998767   -2.3998767   -1.6582603  0.067029676   -2.3998767   0.74161644   421013 
  429000   0.66712774   -2.3989827   -2.3989827   -1.6586459  0.061197687   -2.3989827    0.7403368   421013 
  430000   0.66666833   -2.3995725   -2.3995725   -1.6597455  0.072189622   -2.3995725   0.73982698   421013 
  431000   0.66756457   -2.4004426   -2.4004426    -1.659621  0.066700842   -2.4004426   0.74082157   421013 
  432000   0.66581894   -2.3997369   -2.3997369   -1.6608525  0.065396354   -2.3997369   0.73888438   421013 
  433000   0.66727445   -2.4010429   -2.4010429   -1.6605433  0.067197023   -2.4010429   0.74049962   421013 
  434000   0.66797776   -2.4019787   -2.4019787   -1.6606986  0.064085315   -2.4019787   0.74128011   421013 
  435000   0.66793095   -2.4024596   -2.4024596   -1.6612315  0.063485773   -2.4024596   0.74122816   421013 
  436000   0.66663102   -2.4014077   -2.4014077   -1.6616221  0.068926086   -2.4014077   0.73978558   421013 
  437000   0.66623857   -2.4006519   -2.4006519   -1.6613019  0.069317731   -2.4006519   0.73935007   421013 
  438000     0.666085   -2.4016584   -2.4016584   -1.6624787  0.068280104   -2.4016584   0.73917964   421013 
  439000   0.66571122   -2.4011942   -2.4011942   -1.6624294  0.073402232   -2.4011942   0.73876484   421013 
  440000   0.66603959   -2.4016687   -2.4016687   -1.6625394  0.061786363   -2.4016687   0.73912924   421013 
  441000   0.66630875   -2.4018918   -2.4018918   -1.6624639  0.062864775   -2.4018918   0.73942794   421013 
  442000   0.66575907   -2.4022111   -2.4022111   -1.6633932  0.062763578   -2.4022111   0.73881794   421013 
  443000   0.66506454   -2.4024666   -2.4024666   -1.6644194   0.06386423   -2.4024666    0.7380472   421013 
  444000   0.66540752   -2.4026591   -2.4026591   -1.6642313  0.062992649   -2.4026591   0.73842781   421013 
  445000   0.66506319   -2.4025904   -2.4025904   -1.6645447  0.061187871   -2.4025904   0.73804569   421013 
  446000   0.66483641   -2.4024217   -2.4024217   -1.6646277  0.057030879   -2.4024217   0.73779403   421013 
  447000   0.66402857   -2.4023151   -2.4023151   -1.6654176  0.065129903   -2.4023151   0.73689754   421013 
  448000    0.6655519   -2.4046737   -2.4046737   -1.6660857  0.068363352   -2.4046737   0.73858803   421013 
  449000   0.66505449   -2.4036142   -2.4036142   -1.6655782  0.063804131   -2.4036142   0.73803604   421013 
  450000   0.66467924   -2.4037773   -2.4037773   -1.6661577  0.064689168   -2.4037773   0.73761961   421013 
  451000   0.66539712   -2.4047293   -2.4047293    -1.666313  0.063702208   -2.4047293   0.73841627   421013 
  452000   0.66573912   -2.4054105   -2.4054105   -1.6666147  0.069081865   -2.4054105    0.7387958   421013 
  453000   0.66557454   -2.4058449   -2.4058449   -1.6672317   0.05864393   -2.4058449   0.73861316   421013 
  454000   0.66487322   -2.4057146   -2.4057146   -1.6678798  0.070188658   -2.4057146   0.73783488   421013 
  455000   0.66481022   -2.4061649   -2.4061649      -1.6684  0.058459517   -2.4061649   0.73776497   421013 
  456000   0.66408698   -2.4051764   -2.4051764   -1.6682141  0.064866137   -2.4051764   0.73696236   421013 
  457000   0.66464429   -2.4062757   -2.4062757   -1.6686948  0.059229688   -2.4062757   0.73758083   421013 
  458000   0.66566193   -2.4071969   -2.4071969   -1.6684868  0.067601437   -2.4071969   0.73871015   421013 
  459000   0.66294673   -2.4053545   -2.4053545   -1.6696575  0.059762038   -2.4053545   0.73569698   421013 
  460000   0.66367436   -2.4058014   -2.4058014   -1.6692969  0.065240006   -2.4058014   0.73650446   421013 
  461000   0.66297892   -2.4056826   -2.4056826   -1.6699499  0.071083353   -2.4056826    0.7357327   421013 
  462000   0.66380182   -2.4066787   -2.4066787   -1.6700328  0.072309284   -2.4066787    0.7366459   421013 
  463000   0.66360097   -2.4077015   -2.4077015   -1.6712785  0.068324132   -2.4077015   0.73642302   421013 
  464000   0.66466786   -2.4087647   -2.4087647   -1.6711577  0.058396073   -2.4087647   0.73760698   421013 
  465000   0.66309256   -2.4071412   -2.4071412   -1.6712824  0.066054068   -2.4071412   0.73585881   421013 
  466000   0.66343436   -2.4080248   -2.4080248   -1.6717867  0.069340552   -2.4080248   0.73623813   421013 
  467000    0.6631596   -2.4089751   -2.4089751   -1.6730419  0.063802555   -2.4089751   0.73593321   421013 
  468000   0.66319072   -2.4091075   -2.4091075   -1.6731398  0.067355339   -2.4091075   0.73596774   421013 
  469000   0.66322023   -2.4095092   -2.4095092   -1.6735087  0.075649647   -2.4095092   0.73600049   421013 
  470000   0.66313204    -2.410426    -2.410426   -1.6745233  0.073047238    -2.410426   0.73590263   421013 
  471000     0.663366   -2.4095953   -2.4095953   -1.6734331  0.060287695   -2.4095953   0.73616226   421013 
  472000   0.66162686   -2.4087395   -2.4087395   -1.6745072  0.072597116   -2.4087395   0.73423227   421013 
  473000   0.66352341   -2.4106189   -2.4106189    -1.674282  0.063577576   -2.4106189   0.73633695   421013 
  474000   0.66231709   -2.4102785   -2.4102785   -1.6752802  0.057937361   -2.4102785   0.73499825   421013 
  475000   0.66257963   -2.4110807   -2.4110807   -1.6757911  0.070841934   -2.4110807    0.7352896   421013 
  476000   0.66111228   -2.4106026   -2.4106026   -1.6769413  0.059320544   -2.4106026   0.73366123   421013 
  477000   0.66234107   -2.4121236   -2.4121236   -1.6770987  0.058691852   -2.4121236   0.73502485   421013 
  478000   0.66216954   -2.4126185   -2.4126185   -1.6777839  0.065170674   -2.4126185    0.7348345   421013 
  479000   0.66270323   -2.4133509   -2.4133509   -1.6779242  0.066720037   -2.4133509   0.73542676   421013 
  480000   0.66185129   -2.4130611   -2.4130611   -1.6785798  0.064239788   -2.4130611   0.73448133   421013 
  481000   0.66379268   -2.4151552   -2.4151552   -1.6785195  0.067445801   -2.4151552   0.73663577   421013 
  482000   0.66318658   -2.4147953   -2.4147953   -1.6788322  0.059364635   -2.4147953   0.73596315   421013 
  483000   0.66283621   -2.4160373   -2.4160373    -1.680463  0.068071168   -2.4160373   0.73557433   421013 
  484000   0.66180995   -2.4150854   -2.4150854     -1.68065  0.060583509   -2.4150854   0.73443545   421013 
  485000   0.66182072   -2.4148326   -2.4148326   -1.6803852  0.059462299   -2.4148326    0.7344474   421013 
  486000   0.66118011   -2.4138201   -2.4138201   -1.6800836  0.061729785   -2.4138201   0.73373649   421013 
  487000   0.66293436   -2.4161811   -2.4161811   -1.6804979  0.063425967   -2.4161811   0.73568326   421013 
  488000   0.66421321   -2.4176077   -2.4176077   -1.6805052  0.059939299   -2.4176077   0.73710244   421013 
  489000   0.66255893    -2.416103    -2.416103   -1.6808363  0.071673569    -2.416103   0.73526662   421013 
  490000   0.66328579   -2.4173511   -2.4173511   -1.6812778  0.060167093   -2.4173511   0.73607325   421013 
  491000     0.662364   -2.4172438   -2.4172438   -1.6821934  0.057182776   -2.4172438   0.73505031   421013 
  492000   0.66088773   -2.4158503   -2.4158503   -1.6824383  0.062386026   -2.4158503   0.73341203   421013 
  493000   0.66061821   -2.4156857   -2.4156857   -1.6825728  0.060580355   -2.4156857   0.73311293   421013 
  494000   0.66071399   -2.4159318   -2.4159318   -1.6827125    0.0651075   -2.4159318   0.73321922   421013 
  495000   0.66239103   -2.4176328   -2.4176328   -1.6825525  0.063593536   -2.4176328    0.7350803   421013 
  496000   0.66010454   -2.4152575   -2.4152575   -1.6827146  0.062900393   -2.4152575    0.7325429   421013 
  497000    0.6615212   -2.4173815   -2.4173815   -1.6832665  0.050336115   -2.4173815   0.73411501   421013 
  498000   0.66070265   -2.4170893   -2.4170893   -1.6838827  0.071038551   -2.4170893   0.73320664   421013 
  499000   0.65951399   -2.4166138   -2.4166138   -1.6847263  0.067249347   -2.4166138   0.73188755   421013 
  500000   0.66053842   -2.4179628   -2.4179628   -1.6849384  0.065924823   -2.4179628   0.73302439   421013 
  501000   0.66024106   -2.4174504   -2.4174504    -1.684756  0.063802032   -2.4174504    0.7326944   421013 
  502000   0.66098932   -2.4186199   -2.4186199   -1.6850952  0.059813263   -2.4186199   0.73352477   421013 
  503000   0.66033258   -2.4183823   -2.4183823   -1.6855863  0.066792055   -2.4183823   0.73279596   421013 
  504000   0.66037777   -2.4183759   -2.4183759   -1.6855298  0.064189175   -2.4183759   0.73284611   421013 
  505000   0.66087579   -2.4183536   -2.4183536   -1.6849548  0.064114165   -2.4183536   0.73339878   421013 
  506000   0.65926034   -2.4177052   -2.4177052   -1.6860992  0.065450951   -2.4177052   0.73160606   421013 
  507000   0.65934229   -2.4178678   -2.4178678   -1.6861708  0.069520769   -2.4178678     0.731697   421013 
  508000   0.66031706   -2.4194712   -2.4194712   -1.6866925  0.066995217   -2.4194712   0.73277874   421013 
  509000   0.66077368   -2.4199488   -2.4199488   -1.6866634  0.059376659   -2.4199488   0.73328547   421013 
  510000   0.65952499    -2.418825    -2.418825   -1.6869252  0.065202421    -2.418825   0.73189975   421013 
  511000   0.65909703   -2.4184595   -2.4184595   -1.6870347  0.055787999   -2.4184595   0.73142483   421013 
  512000   0.66006098   -2.4197748   -2.4197748   -1.6872802  0.058215667   -2.4197748   0.73249455   421013 
  513000   0.65998148   -2.4201977   -2.4201977   -1.6877914  0.064907196   -2.4201977   0.73240634   421013 
  514000      0.66046   -2.4207863   -2.4207863    -1.687849  0.062951227   -2.4207863   0.73293736   421013 
  515000   0.66085359   -2.4216139   -2.4216139   -1.6882398  0.057620853   -2.4216139   0.73337415   421013 
  516000   0.66002974   -2.4203867   -2.4203867   -1.6879268     0.072658   -2.4203867   0.73245989   421013 
  517000   0.66101914   -2.4215977   -2.4215977   -1.6880398  0.056127696   -2.4215977   0.73355787   421013 
  518000   0.66125206   -2.4214442   -2.4214442   -1.6876278  0.059930125   -2.4214442   0.73381635   421013 
  519000    0.6615065   -2.4222689   -2.4222689   -1.6881702  0.064296787   -2.4222689    0.7340987   421013 
  520000   0.66012504   -2.4209808   -2.4209808   -1.6884151  0.066553755   -2.4209808   0.73256564   421013 
  521000   0.66119776   -2.4224003   -2.4224003   -1.6886443   0.05854314   -2.4224003   0.73375608   421013 
  522000   0.65994824   -2.4215188   -2.4215188   -1.6891494  0.066002528   -2.4215188   0.73236944   421013 
  523000   0.65919961   -2.4213654   -2.4213654   -1.6898267  0.063091848   -2.4213654   0.73153866   421013 
  524000   0.65860464   -2.4209137   -2.4209137   -1.6900352  0.060972835   -2.4209137   0.73087841   421013 
  525000   0.66024264   -2.4230793   -2.4230793   -1.6903832  0.059574967   -2.4230793   0.73269615   421013 
  526000   0.65910861   -2.4218713   -2.4218713   -1.6904336   0.05966081   -2.4218713   0.73143768   421013 
  527000   0.66008949   -2.4236757   -2.4236757   -1.6911495  0.070135344   -2.4236757    0.7325262   421013 
  528000   0.65810535   -2.4219115   -2.4219115   -1.6915872  0.055843595   -2.4219115   0.73032432   421013 
  529000   0.65960008   -2.4235629   -2.4235629   -1.6915799  0.060809632   -2.4235629   0.73198308   421013 
  530000     0.657686   -2.4217526   -2.4217526   -1.6918937  0.058213512   -2.4217526   0.72985895   421013 
  531000   0.66012898   -2.4249491   -2.4249491    -1.692379  0.064632305   -2.4249491   0.73257002   421013 
  532000   0.65932504   -2.4246418   -2.4246418    -1.692964  0.062820021   -2.4246418   0.73167786   421013 
  533000   0.65923353   -2.4252774   -2.4252774   -1.6937011  0.060511797   -2.4252774   0.73157631   421013 
  534000   0.65859918   -2.4253865   -2.4253865   -1.6945142  0.059196594   -2.4253865   0.73087234   421013 
  535000   0.65946582   -2.4262597   -2.4262597   -1.6944256  0.056782665   -2.4262597   0.73183409   421013 
  536000   0.65884746   -2.4254758   -2.4254758   -1.6943279  0.070218405   -2.4254758   0.73114787   421013 
  537000   0.65836608   -2.4251607   -2.4251607    -1.694547  0.064612495   -2.4251607   0.73061366   421013 
  538000   0.65820357    -2.425481    -2.425481   -1.6950477  0.071464746    -2.425481   0.73043331   421013 
  539000    0.6597482   -2.4270377   -2.4270377   -1.6948902  0.060218666   -2.4270377   0.73214746   421013 
  540000   0.65978457   -2.4269303   -2.4269303   -1.6947424  0.065920424   -2.4269303   0.73218782   421013 
  541000   0.66009342   -2.4273155   -2.4273155    -1.694785  0.070880116   -2.4273155   0.73253056   421013 
  542000   0.65784076   -2.4256079   -2.4256079   -1.6955772  0.063737186   -2.4256079   0.73003069   421013 
  543000   0.65811596   -2.4260088   -2.4260088   -1.6956727  0.063065916   -2.4260088   0.73033609   421013 
  544000   0.65930539   -2.4276557   -2.4276557   -1.6959996  0.065909407   -2.4276557   0.73165605   421013 
  545000   0.65944432   -2.4283008   -2.4283008   -1.6964906   0.06064677   -2.4283008   0.73181023   421013 
  546000   0.65936125   -2.4292666   -2.4292666   -1.6975486  0.060927197   -2.4292666   0.73171804   421013 
  547000   0.65965517   -2.4294276   -2.4294276   -1.6973834  0.069942481   -2.4294276   0.73204421   421013 
  548000   0.65845043   -2.4278099   -2.4278099   -1.6971026  0.068472057   -2.4278099   0.73070727   421013 
  549000   0.65688574   -2.4266891   -2.4266891   -1.6977183  0.056360648   -2.4266891   0.72897087   421013 
  550000   0.65717391   -2.4279473   -2.4279473   -1.6986567  0.053796143   -2.4279473   0.72929066   421013 
  551000   0.65633483   -2.4279701   -2.4279701   -1.6996106  0.059484123   -2.4279701   0.72835951   421013 
  552000   0.65709844   -2.4287994   -2.4287994   -1.6995925   0.06536703   -2.4287994   0.72920691   421013 
  553000   0.65782426   -2.4293896   -2.4293896   -1.6993772  0.057807733   -2.4293896   0.73001239   421013 
  554000   0.65753506   -2.4294524   -2.4294524    -1.699761  0.065480945   -2.4294524   0.72969145   421013 
  555000   0.65791988   -2.4297604   -2.4297604   -1.6996419  0.062790543   -2.4297604   0.73011849   421013 
  556000   0.65739627     -2.42886     -2.42886   -1.6993226  0.064167026     -2.42886   0.72953743   421013 
  557000   0.65762169   -2.4304257   -2.4304257   -1.7006381   0.06654437   -2.4304257   0.72978758   421013 
  558000    0.6567413   -2.4297797   -2.4297797   -1.7009692  0.057530368   -2.4297797   0.72881058   421013 
  559000   0.65807686   -2.4316391   -2.4316391   -1.7013464  0.061757783   -2.4316391    0.7302927   421013 
  560000   0.65871964   -2.4327349   -2.4327349   -1.7017289  0.055292292   -2.4327349   0.73100602   421013 
  561000   0.65702248   -2.4319128   -2.4319128   -1.7027902  0.056333588   -2.4319128   0.72912262   421013 
  562000   0.65751713   -2.4330207   -2.4330207   -1.7033491  0.068761329   -2.4330207   0.72967155   421013 
  563000   0.65711143   -2.4330044   -2.4330044    -1.703783  0.059518562   -2.4330044   0.72922133   421013 
  564000    0.6572212   -2.4336734   -2.4336734   -1.7043303  0.072381899   -2.4336734   0.72934314   421013 
  565000   0.65647668    -2.432726    -2.432726   -1.7042091  0.053006227    -2.432726   0.72851692   421013 
  566000   0.65651273   -2.4329057   -2.4329057   -1.7043488   0.05774132   -2.4329057   0.72855693   421013 
  567000    0.6560821   -2.4324842   -2.4324842   -1.7044051  0.067425869   -2.4324842   0.72807904   421013 
  568000    0.6566654   -2.4335001   -2.4335001   -1.7047737  0.062615359   -2.4335001   0.72872635   421013 
  569000   0.65703154   -2.4347455   -2.4347455   -1.7056128  0.061052171   -2.4347455   0.72913267   421013 
  570000   0.65648299    -2.434305    -2.434305   -1.7057811  0.063003981    -2.434305   0.72852392   421013 
  571000   0.65775205   -2.4352066   -2.4352066   -1.7052744  0.057686633   -2.4352066   0.72993225   421013 
  572000   0.65696265   -2.4339323   -2.4339323   -1.7048761  0.066428265   -2.4339323   0.72905622   421013 
  573000   0.65595872   -2.4337509   -2.4337509   -1.7058088  0.067101008   -2.4337509   0.72794213   421013 
  574000   0.65917576   -2.4373543   -2.4373543   -1.7058421  0.060677616   -2.4373543    0.7315122   421013 
  575000   0.65773349   -2.4365339   -2.4365339   -1.7066222  0.057710753   -2.4365339   0.72991166   421013 
  576000   0.65693001   -2.4359068   -2.4359068   -1.7068868  0.063528409   -2.4359068      0.72902   421013 
  577000   0.65718124   -2.4361735   -2.4361735   -1.7068747  0.064288614   -2.4361735    0.7292988   421013 
  578000   0.65661191   -2.4354641   -2.4354641   -1.7067971  0.067229511   -2.4354641   0.72866699   421013 
  579000   0.65748958   -2.4368433   -2.4368433   -1.7072024  0.061715905   -2.4368433   0.72964097   421013 
  580000   0.65875774   -2.4387439   -2.4387439   -1.7076956  0.064195034   -2.4387439    0.7310483   421013 
  581000   0.65574457   -2.4351095   -2.4351095    -1.707405  0.067064509   -2.4351095   0.72770447   421013 
  582000   0.65684238   -2.4365358   -2.4365358    -1.707613  0.058414406   -2.4365358   0.72892275   421013 
  583000    0.6557641   -2.4364558   -2.4364558   -1.7087296  0.056956685   -2.4364558   0.72772615   421013 
  584000   0.65520473   -2.4360192   -2.4360192   -1.7089138  0.059509032   -2.4360192    0.7271054   421013 
  585000   0.65484098     -2.43659     -2.43659   -1.7098883  0.053650702     -2.43659   0.72670172   421013 
  586000   0.65586717   -2.4377519   -2.4377519   -1.7099114  0.067574525   -2.4377519   0.72784053   421013 
  587000   0.65601905   -2.4362192   -2.4362192   -1.7082101  0.063346111   -2.4362192   0.72800907   421013 
  588000    0.6553152   -2.4366263   -2.4366263   -1.7093983  0.071403728   -2.4366263   0.72722799   421013 
  589000   0.65534863   -2.4374236   -2.4374236   -1.7101585  0.070892176   -2.4374236   0.72726509   421013 
  590000   0.65633671   -2.4392705   -2.4392705   -1.7109089  0.056658858   -2.4392705   0.72836159   421013 
  591000   0.65455348   -2.4378466   -2.4378466   -1.7114639  0.046828081   -2.4378466   0.72638268   421013 
  592000   0.65595134   -2.4396197   -2.4396197   -1.7116857  0.061144629   -2.4396197   0.72793394   421013 
  593000   0.65450282    -2.438564    -2.438564   -1.7122376  0.053471918    -2.438564   0.72632646   421013 
  594000   0.65519424   -2.4392613   -2.4392613   -1.7121676  0.068425843   -2.4392613   0.72709376   421013 
  595000   0.65540713   -2.4397364   -2.4397364   -1.7124064  0.051734551   -2.4397364      0.72733   421013 
  596000   0.65477404   -2.4393109   -2.4393109   -1.7126835  0.064823869   -2.4393109   0.72662744   421013 
  597000   0.65624771    -2.441015    -2.441015   -1.7127522   0.07602287    -2.441015   0.72826282   421013 
  598000   0.65625491   -2.4411095   -2.4411095   -1.7128387  0.058006503   -2.4411095   0.72827082   421013 
  599000   0.65684513   -2.4425329   -2.4425329   -1.7136071  0.063451121   -2.4425329    0.7289258   421013 
  600000   0.65653866   -2.4427682   -2.4427682   -1.7141825  0.069690836   -2.4427682    0.7285857   421013 
  601000   0.65571219   -2.4428386   -2.4428386   -1.7151701  0.059957466   -2.4428386   0.72766854   421013 
  602000   0.65511714   -2.4429566   -2.4429566   -1.7159484  0.058250241   -2.4429566   0.72700819   421013 
  603000   0.65365321   -2.4409413   -2.4409413   -1.7155577  0.062427489   -2.4409413   0.72538362   421013 
  604000   0.65496874   -2.4429375   -2.4429375    -1.716094  0.049624276   -2.4429375    0.7268435   421013 
  605000   0.65487663   -2.4423977   -2.4423977   -1.7156564  0.067881572   -2.4423977   0.72674129   421013 
  606000   0.65450375   -2.4429017   -2.4429017   -1.7165742  0.050268507   -2.4429017   0.72632749   421013 
  607000   0.65571867   -2.4442457   -2.4442457     -1.71657  0.047289807   -2.4442457   0.72767574   421013 
  608000   0.65396084   -2.4418572   -2.4418572   -1.7161322  0.059304921   -2.4418572     0.725725   421013 
  609000   0.65449116   -2.4425672   -2.4425672   -1.7162537  0.058938115   -2.4425672   0.72631351   421013 
  610000   0.65538249   -2.4429497   -2.4429497    -1.715647  0.067048437   -2.4429497   0.72730266   421013 
  611000    0.6539971    -2.442115    -2.442115   -1.7163498  0.057901018    -2.442115   0.72576524   421013 
  612000   0.65398217   -2.4423338   -2.4423338   -1.7165851  0.063218585   -2.4423338   0.72574867   421013 
  613000   0.65451569   -2.4438653   -2.4438653   -1.7175245  0.054810733   -2.4438653   0.72634074   421013 
  614000   0.65496825   -2.4449532   -2.4449532   -1.7181102  0.067079001   -2.4449532   0.72684296   421013 
  615000   0.65395124   -2.4441922   -2.4441922   -1.7184779  0.060892709   -2.4441922   0.72571434   421013 
  616000   0.65291833   -2.4435839   -2.4435839   -1.7190158  0.062812721   -2.4435839   0.72456809   421013 
  617000   0.65426854   -2.4447707   -2.4447707   -1.7187042  0.064273034   -2.4447707   0.72606647   421013 
  618000   0.65425827   -2.4449324   -2.4449324   -1.7188774  0.060825388   -2.4449324   0.72605507   421013 
  619000     0.654403   -2.4453683   -2.4453683   -1.7191526  0.059507059   -2.4453683   0.72621568   421013 
  620000   0.65331834   -2.4439103   -2.4439103   -1.7188983  0.060733419   -2.4439103     0.725012   421013 
  621000   0.65337689   -2.4446678   -2.4446678   -1.7195908  0.064031133   -2.4446678   0.72507697   421013 
  622000   0.65360019   -2.4461188   -2.4461188    -1.720794  0.050852529   -2.4461188   0.72532477   421013 
  623000   0.65334315   -2.4462446   -2.4462446    -1.721205  0.062652722   -2.4462446   0.72503953   421013 
  624000   0.65363204   -2.4468914   -2.4468914   -1.7215313  0.065177907   -2.4468914   0.72536011   421013 
  625000   0.65385392   -2.4468598   -2.4468598   -1.7212535  0.070887327   -2.4468598   0.72560635   421013 
  626000   0.65235685   -2.4458269   -2.4458269   -1.7218819  0.058174533   -2.4458269   0.72394499   421013 
  627000   0.65312586   -2.4468911   -2.4468911   -1.7220927  0.063531434   -2.4468911   0.72479839   421013 
  628000   0.65290314    -2.446485    -2.446485   -1.7219338  0.060352415    -2.446485   0.72455123   421013 
  629000   0.65213739   -2.4463956   -2.4463956   -1.7226942  0.053448211   -2.4463956   0.72370145   421013 
  630000   0.65284758    -2.447893    -2.447893   -1.7234034  0.054580937    -2.447893   0.72448958   421013 
  631000   0.65173119    -2.446609    -2.446609   -1.7233583   0.06089272    -2.446609   0.72325068   421013 
  632000   0.65224434   -2.4473866   -2.4473866   -1.7235664  0.057069377   -2.4473866   0.72382014   421013 
  633000    0.6511999   -2.4457086   -2.4457086   -1.7230475  0.052197446   -2.4457086   0.72266108   421013 
  634000   0.65290324   -2.4481187   -2.4481187   -1.7235673  0.052586234   -2.4481187   0.72455134   421013 
  635000   0.65202119    -2.446993    -2.446993   -1.7234205  0.059937416    -2.446993    0.7235725   421013 
  636000   0.65209253   -2.4471433   -2.4471433   -1.7234916  0.062360803   -2.4471433   0.72365167   421013 
  637000   0.65253298   -2.4481525   -2.4481525   -1.7240121  0.057721071   -2.4481525   0.72414045   421013 
  638000   0.65399919   -2.4493767   -2.4493767   -1.7236092  0.063777006   -2.4493767   0.72576756   421013 
  639000   0.65234095   -2.4477018   -2.4477018   -1.7237745  0.068437948   -2.4477018   0.72392734   421013 
  640000   0.65309926   -2.4496816   -2.4496816   -1.7249127  0.057367221   -2.4496816   0.72476888   421013 
  641000    0.6535267   -2.4500243   -2.4500243    -1.724781  0.065347217   -2.4500243   0.72524322   421013 
  642000   0.65226116   -2.4495932   -2.4495932   -1.7257544  0.053542417   -2.4495932   0.72383881   421013 
  643000   0.65160004   -2.4493022   -2.4493022    -1.726197   0.05533485   -2.4493022   0.72310514   421013 
  644000   0.65230051   -2.4499831   -2.4499831   -1.7261006  0.063984702   -2.4499831   0.72388247   421013 
  645000   0.65267534   -2.4508522   -2.4508522   -1.7265537  0.064924302   -2.4508522   0.72429843   421013 
  646000   0.65268024   -2.4511944   -2.4511944   -1.7268905  0.061839605   -2.4511944   0.72430387   421013 
  647000   0.65302713   -2.4521185   -2.4521185   -1.7274296  0.055810418   -2.4521185   0.72468883   421013 
  648000   0.65312444   -2.4521598   -2.4521598    -1.727363  0.063515515   -2.4521598   0.72479682   421013 
  649000   0.65219852   -2.4510197   -2.4510197   -1.7272505  0.066442508   -2.4510197   0.72376929   421013 
  650000   0.65351109   -2.4524848   -2.4524848   -1.7272589  0.061666692   -2.4524848    0.7252259   421013 
  651000   0.65308156   -2.4521376   -2.4521376   -1.7273884  0.064856694   -2.4521376   0.72474923   421013 
  652000   0.65168215   -2.4501195   -2.4501195   -1.7269233  0.051603047   -2.4501195   0.72319625   421013 
  653000    0.6532185   -2.4521243   -2.4521243   -1.7272231  0.067433618   -2.4521243    0.7249012   421013 
  654000   0.65278406   -2.4521511   -2.4521511    -1.727732   0.05680257   -2.4521511   0.72441909   421013 
  655000   0.65267039   -2.4525559   -2.4525559   -1.7282629  0.056462842   -2.4525559   0.72429294   421013 
  656000   0.65239211   -2.4521498   -2.4521498   -1.7281656  0.055592257   -2.4521498   0.72398412   421013 
  657000   0.65295406   -2.4533071   -2.4533071   -1.7286993  0.056773873   -2.4533071   0.72460774   421013 
  658000   0.65286864   -2.4533173   -2.4533173   -1.7288044   0.05667951   -2.4533173   0.72451295   421013 
  659000   0.65248468   -2.4535802   -2.4535802   -1.7294933  0.057568789   -2.4535802   0.72408685   421013 
  660000   0.65141375    -2.453469    -2.453469   -1.7305706  0.051610384    -2.453469    0.7228984   421013 
  661000   0.65142978   -2.4544799   -2.4544799   -1.7315637  0.058420111   -2.4544799   0.72291618   421013 
  662000   0.65057061   -2.4531461   -2.4531461   -1.7311834  0.053884493   -2.4531461   0.72196273   421013 
  663000   0.65041183   -2.4533886   -2.4533886   -1.7316021  0.061227629   -2.4533886   0.72178653   421013 
  664000   0.65093939   -2.4532531   -2.4532531   -1.7308811  0.061182326   -2.4532531   0.72237199   421013 
  665000   0.65249498   -2.4555961   -2.4555961   -1.7314978  0.055430999   -2.4555961   0.72409828   421013 
  666000   0.65096029   -2.4548534   -2.4548534   -1.7324583  0.048107192   -2.4548534   0.72239517   421013 
  667000   0.64924032   -2.4534219   -2.4534219   -1.7329354  0.050206523   -2.4534219   0.72048646   421013 
  668000   0.65195122   -2.4560572   -2.4560572   -1.7325623  0.043530213   -2.4560572   0.72349485   421013 
  669000   0.65070787   -2.4544799   -2.4544799   -1.7323648  0.059128116   -2.4544799   0.72211506   421013 
  670000   0.65049669   -2.4540525   -2.4540525   -1.7321718  0.056260723   -2.4540525    0.7218807   421013 
  671000   0.65129167   -2.4561258   -2.4561258   -1.7333629  0.065337131   -2.4561258   0.72276293   421013 
  672000   0.65059513   -2.4558436   -2.4558436   -1.7338536   0.06464417   -2.4558436   0.72198995   421013 
  673000   0.65209406    -2.456964    -2.456964   -1.7333106  0.054568544    -2.456964   0.72365337   421013 
  674000   0.65069741   -2.4551795   -2.4551795   -1.7330761  0.066732706   -2.4551795   0.72210345   421013 
  675000   0.65166763   -2.4570793   -2.4570793   -1.7338992   0.05273108   -2.4570793   0.72318014   421013 
  676000   0.65258995   -2.4582074   -2.4582074   -1.7340038  0.057676797   -2.4582074   0.72420368   421013 
  677000    0.6513812   -2.4571419   -2.4571419   -1.7342796  0.067490185   -2.4571419   0.72286227   421013 
  678000   0.65089165   -2.4573387   -2.4573387   -1.7350197  0.057344416   -2.4573387   0.72231901   421013 
  679000   0.65239151   -2.4597323   -2.4597323   -1.7357489  0.063818467   -2.4597323   0.72398345   421013 
  680000   0.64954609   -2.4567066   -2.4567066   -1.7358808  0.062289348   -2.4567066   0.72082578   421013 
  681000   0.65046066   -2.4578697   -2.4578697   -1.7360289  0.063183464   -2.4578697   0.72184072   421013 
  682000   0.64969001   -2.4579702   -2.4579702   -1.7369847  0.058907507   -2.4579702    0.7209855   421013 
  683000   0.64998915   -2.4581622   -2.4581622   -1.7368448  0.053529589   -2.4581622   0.72131747   421013 
  684000   0.65081276   -2.4596365   -2.4596365    -1.737405  0.057865251   -2.4596365   0.72223146   421013 
  685000   0.65191149   -2.4612944   -2.4612944   -1.7378437  0.053304534   -2.4612944   0.72345076   421013 
  686000   0.65051566   -2.4601627   -2.4601627    -1.738261  0.057355336   -2.4601627   0.72190176   421013 
  687000   0.65024932   -2.4592497   -2.4592497   -1.7376435  0.062515463   -2.4592497   0.72160619   421013 
  688000   0.65052389   -2.4589032   -2.4589032   -1.7369923  0.063562346   -2.4589032   0.72191089   421013 
  689000   0.64927729   -2.4577028   -2.4577028   -1.7371754  0.058559466   -2.4577028   0.72052748   421013 
  690000   0.65035045   -2.4588875   -2.4588875   -1.7371691  0.054219856   -2.4588875   0.72171841   421013 
  691000   0.65038078   -2.4591808   -2.4591808   -1.7374288  0.058137185   -2.4591808   0.72175208   421013 
  692000   0.65074056   -2.4596491   -2.4596491   -1.7374978  0.062530747   -2.4596491   0.72215134   421013 
  693000   0.65022792   -2.4591918   -2.4591918   -1.7376093  0.056529071   -2.4591918   0.72158244   421013 
  694000   0.64983319   -2.4598026   -2.4598026   -1.7386582  0.061887724   -2.4598026    0.7211444   421013 
  695000   0.65051674   -2.4604851   -2.4604851   -1.7385822   0.06150584   -2.4604851   0.72190296   421013 
  696000   0.64974017   -2.4601043   -2.4601043   -1.7390631  0.065886107   -2.4601043   0.72104116   421013 
  697000   0.65050207   -2.4606412   -2.4606412   -1.7387545  0.058141131   -2.4606412   0.72188667   421013 
  698000   0.64958437   -2.4597241   -2.4597241   -1.7388559  0.060206157   -2.4597241   0.72086827   421013 
  699000   0.65087434   -2.4618717   -2.4618717   -1.7395719  0.054277434   -2.4618717    0.7222998   421013 
  700000   0.64854649   -2.4598695   -2.4598695    -1.740153   0.05433095   -2.4598695    0.7197165   421013 
  701000   0.64892492    -2.460824    -2.460824   -1.7406876  0.057057108    -2.460824   0.72013645   421013 
  702000    0.6493734   -2.4611173   -2.4611173   -1.7404831  0.053605802   -2.4611173   0.72063415   421013 
  703000   0.65059265   -2.4625959   -2.4625959   -1.7406087  0.060125749   -2.4625959   0.72198719   421013 
  704000   0.65043137   -2.4627189   -2.4627189   -1.7409107  0.058304194   -2.4627189   0.72180822   421013 
  705000   0.64961989    -2.461953    -2.461953   -1.7410453  0.045469496    -2.461953   0.72090769   421013 
  706000   0.64939995   -2.4617607   -2.4617607   -1.7410971  0.050216366   -2.4617607    0.7206636   421013 
  707000   0.64883515   -2.4609797   -2.4609797   -1.7409429    0.0592124   -2.4609797   0.72003683   421013 
  708000   0.64998461    -2.462926    -2.462926   -1.7416135  0.049202156    -2.462926   0.72131242   421013 
  709000   0.65080007   -2.4642171   -2.4642171   -1.7419997  0.058880025   -2.4642171   0.72221738   421013 
  710000    0.6488358   -2.4613746   -2.4613746   -1.7413371  0.055602917   -2.4613746   0.72003755   421013 
  711000   0.64863789   -2.4622233   -2.4622233   -1.7424054  0.055410314   -2.4622233   0.71981792   421013 
  712000   0.64932603   -2.4628146   -2.4628146    -1.742233  0.048897167   -2.4628146   0.72058158   421013 
  713000   0.64907915   -2.4625416   -2.4625416    -1.742234  0.058701999   -2.4625416    0.7203076   421013 
  714000   0.64863182   -2.4626137   -2.4626137   -1.7428025   0.06207745   -2.4626137   0.71981119   421013 
  715000   0.64860722   -2.4617693   -2.4617693   -1.7419854  0.061200712   -2.4617693   0.71978389   421013 
  716000   0.64963814   -2.4637366   -2.4637366   -1.7428087  0.068365641   -2.4637366   0.72092794   421013 
  717000   0.64870995   -2.4633224   -2.4633224   -1.7434245  0.064997814   -2.4633224   0.71989789   421013 
  718000   0.64789167   -2.4636282   -2.4636282   -1.7446384  0.053266463   -2.4636282   0.71898981   421013 
  719000   0.64839258    -2.463721    -2.463721   -1.7441753  0.051636695    -2.463721   0.71954569   421013 
  720000   0.64754487   -2.4636808   -2.4636808   -1.7450758  0.052609143   -2.4636808   0.71860496   421013 
  721000   0.64771613   -2.4647175   -2.4647175   -1.7459225  0.060701984   -2.4647175   0.71879502   421013 
  722000   0.64707864   -2.4635537   -2.4635537   -1.7454661  0.045174191   -2.4635537   0.71808756   421013 
  723000   0.64808068   -2.4653454   -2.4653454   -1.7461458  0.062035447   -2.4653454   0.71919957   421013 
  724000   0.64705524   -2.4648912   -2.4648912   -1.7468296  0.052732008   -2.4648912    0.7180616   421013 
  725000   0.64760393   -2.4656822   -2.4656822   -1.7470117  0.059268222   -2.4656822    0.7186705   421013 
  726000   0.64779987    -2.465865    -2.465865    -1.746977  0.052294003    -2.465865   0.71888794   421013 
  727000   0.64832841   -2.4664703   -2.4664703   -1.7469958  0.060001317   -2.4664703   0.71947448   421013 
  728000   0.64771418   -2.4659966   -2.4659966   -1.7472038  0.059946911   -2.4659966   0.71879284   421013 
  729000   0.64779043   -2.4658352   -2.4658352   -1.7469577  0.059872836   -2.4658352   0.71887747   421013 
  730000   0.64803917   -2.4664208   -2.4664208   -1.7472673  0.058319079   -2.4664208    0.7191535   421013 
  731000   0.64673592   -2.4657653   -2.4657653   -1.7480581  0.059642631   -2.4657653   0.71770724   421013 
  732000   0.64854517   -2.4678889   -2.4678889   -1.7481739  0.061057799   -2.4678889   0.71971502   421013 
  733000   0.64750719   -2.4669981   -2.4669981   -1.7484349  0.056256203   -2.4669981   0.71856314   421013 
  734000   0.64822421   -2.4678574   -2.4678574   -1.7484985  0.060275083   -2.4678574   0.71935885   421013 
  735000   0.64911026   -2.4684613   -2.4684613   -1.7481192   0.06156519   -2.4684613   0.72034213   421013 
  736000   0.64842347   -2.4678795   -2.4678795   -1.7482995  0.062404967   -2.4678795   0.71957998   421013 
  737000   0.64856773   -2.4671524   -2.4671524   -1.7474124  0.064784999   -2.4671524   0.71974006   421013 
  738000     0.648726   -2.4677081   -2.4677081   -1.7477924  0.066099906   -2.4677081    0.7199157   421013 
  739000   0.65007579   -2.4698926   -2.4698926    -1.748479  0.060348309   -2.4698926   0.72141361   421013 
  740000   0.64830703    -2.468526    -2.468526   -1.7490753  0.054924081    -2.468526   0.71945075   421013 
  741000   0.64702389   -2.4675173   -2.4675173   -1.7494905  0.061842698   -2.4675173   0.71802681   421013 
  742000   0.64729355   -2.4680181   -2.4680181   -1.7496921  0.055545169   -2.4680181   0.71832606   421013 
  743000    0.6461032    -2.466773    -2.466773   -1.7497679   0.06561179    -2.466773   0.71700508   421013 
  744000   0.64675053   -2.4679727   -2.4679727   -1.7502493  0.042858658   -2.4679727   0.71772344   421013 
  745000   0.64830679   -2.4686211   -2.4686211   -1.7491706  0.051133395   -2.4686211   0.71945049   421013 
  746000   0.64632522   -2.4659614   -2.4659614   -1.7487099  0.062179937   -2.4659614   0.71725146   421013 
  747000   0.64784955   -2.4672537   -2.4672537   -1.7483107  0.057863001   -2.4672537   0.71894307   421013 
  748000   0.64676962   -2.4663995   -2.4663995   -1.7486549  0.058602492   -2.4663995   0.71774463   421013 
  749000   0.64667297   -2.4666084   -2.4666084    -1.748971   0.05520022   -2.4666084   0.71763738   421013 
  750000    0.6463774   -2.4664492   -2.4664492   -1.7491398   0.04390759   -2.4664492   0.71730938   421013 
  751000   0.64546706   -2.4654303   -2.4654303   -1.7491312  0.060722947   -2.4654303   0.71629913   421013 
  752000   0.64696175   -2.4676586   -2.4676586   -1.7497007  0.062594813   -2.4676586   0.71795785   421013 
  753000   0.64568036   -2.4664133   -2.4664133   -1.7498774  0.060297729   -2.4664133   0.71653584   421013 
  754000   0.64511802   -2.4662223   -2.4662223   -1.7503105  0.062289707   -2.4662223   0.71591179   421013 
  755000   0.64619702   -2.4681125   -2.4681125   -1.7510033   0.05160929   -2.4681125   0.71710919   421013 
  756000   0.64592896   -2.4678565   -2.4678565   -1.7510448  0.063549458   -2.4678565   0.71681172   421013 
  757000   0.64528208   -2.4664612   -2.4664612   -1.7503674  0.051652021   -2.4664612   0.71609385   421013 
  758000   0.64682825   -2.4688744   -2.4688744   -1.7510648   0.05994339   -2.4688744   0.71780969   421013 
  759000   0.64581596    -2.468429    -2.468429   -1.7517427  0.063998486    -2.468429   0.71668632   421013 
  760000   0.64662316   -2.4692592   -2.4692592   -1.7516771  0.060606322   -2.4692592    0.7175821   421013 
  761000   0.64642189   -2.4691902   -2.4691902   -1.7518315  0.052784592   -2.4691902   0.71735874   421013 
  762000   0.64548278   -2.4685922   -2.4685922   -1.7522757  0.060882014   -2.4685922   0.71631658   421013 
  763000   0.64471617    -2.467859    -2.467859   -1.7523932  0.053896564    -2.467859   0.71546584   421013 
  764000   0.64575977    -2.469677    -2.469677   -1.7530531  0.053983974    -2.469677   0.71662397   421013 
  765000   0.64600135   -2.4700753   -2.4700753   -1.7531832  0.064435366   -2.4700753   0.71689206   421013 
  766000   0.64445534   -2.4692541   -2.4692541   -1.7540777  0.056892156   -2.4692541   0.71517639   421013 
  767000   0.64553774   -2.4704786   -2.4704786   -1.7541011  0.050444743   -2.4704786   0.71637757   421013 
  768000   0.64542536   -2.4701673   -2.4701673   -1.7539145  0.051437129   -2.4701673   0.71625285   421013 
  769000   0.64689791   -2.4721424   -2.4721424   -1.7542554  0.048005881   -2.4721424     0.717887   421013 
  770000   0.64662629    -2.472496    -2.472496   -1.7549104  0.049946222    -2.472496   0.71758557   421013 
  771000   0.64631472    -2.472688    -2.472688   -1.7554481  0.063803333    -2.472688   0.71723981   421013 
  772000   0.64656816   -2.4726803   -2.4726803   -1.7551593  0.054747069   -2.4726803   0.71752107   421013 
  773000   0.64615973   -2.4728436   -2.4728436   -1.7557758  0.056165683   -2.4728436   0.71706782   421013 
  774000   0.64678054   -2.4740017   -2.4740017    -1.756245  0.058341442   -2.4740017   0.71775675   421013 
  775000   0.64657676   -2.4737626   -2.4737626    -1.756232  0.058024844   -2.4737626   0.71753061   421013 
  776000   0.64696278   -2.4744036   -2.4744036   -1.7564446  0.064872472   -2.4744036   0.71795898   421013 
  777000   0.64792743   -2.4759372   -2.4759372   -1.7569077  0.061351539   -2.4759372    0.7190295   421013 
  778000   0.64605527   -2.4740389   -2.4740389    -1.757087  0.062578618   -2.4740389   0.71695189   421013 
  779000   0.64574489   -2.4745324   -2.4745324    -1.757925  0.051243449   -2.4745324   0.71660745   421013 
  780000   0.64536775   -2.4739927   -2.4739927   -1.7578037  0.056383982   -2.4739927   0.71618893   421013 
  781000   0.64490758   -2.4733065   -2.4733065   -1.7576282  0.057599647   -2.4733065   0.71567826   421013 
  782000   0.64533667    -2.474638    -2.474638   -1.7584836    0.0537801    -2.474638   0.71615444   421013 
  783000   0.64638731   -2.4758628   -2.4758628   -1.7585425  0.052748424   -2.4758628   0.71732037   421013 
  784000   0.64556991   -2.4754431   -2.4754431   -1.7590299  0.064374193   -2.4754431   0.71641327   421013 
  785000   0.64660398   -2.4770965   -2.4770965   -1.7595357  0.056034465   -2.4770965   0.71756081   421013 
  786000   0.64579616   -2.4762821   -2.4762821   -1.7596178  0.056191326   -2.4762821   0.71666435   421013 
  787000   0.64487521   -2.4756929   -2.4756929   -1.7600506  0.056122292   -2.4756929   0.71564234   421013 
  788000   0.64563491   -2.4768664   -2.4768664    -1.760381   0.06162757   -2.4768664   0.71648541   421013 
  789000   0.64487833   -2.4761536   -2.4761536   -1.7605078  0.046686009   -2.4761536   0.71564579   421013 
  790000   0.64462142   -2.4762784   -2.4762784   -1.7609177  0.047293573   -2.4762784   0.71536069   421013 
  791000    0.6436518   -2.4752689   -2.4752689   -1.7609842  0.056796651   -2.4752689   0.71428467   421013 
  792000   0.64401652   -2.4757331   -2.4757331   -1.7610437  0.056465088   -2.4757331   0.71468941   421013 
  793000   0.64397843   -2.4755379   -2.4755379   -1.7608907  0.048980044   -2.4755379   0.71464715   421013 
  794000   0.64533247   -2.4777214   -2.4777214   -1.7615717   0.04309697   -2.4777214   0.71614977   421013 
  795000   0.64292247   -2.4757366   -2.4757366   -1.7622613  0.049049547   -2.4757366    0.7134753   421013 
  796000   0.64469167   -2.4780186   -2.4780186   -1.7625799  0.053019994   -2.4780186   0.71543866   421013 
  797000   0.64236111   -2.4755064   -2.4755064   -1.7626541  0.038426444   -2.4755064   0.71285234   421013 
  798000   0.64360543   -2.4767852   -2.4767852    -1.762552  0.051741125   -2.4767852   0.71423321   421013 
  799000   0.64520343   -2.4782415   -2.4782415   -1.7622349  0.055931196   -2.4782415   0.71600657   421013 
  800000   0.64323958   -2.4766074   -2.4766074   -1.7627802  0.062895349   -2.4766074   0.71382721   421013 
  801000   0.64373375   -2.4767471   -2.4767471   -1.7623715  0.066381173   -2.4767471   0.71437562   421013 
  802000    0.6447554   -2.4782141   -2.4782141   -1.7627047   0.06636158   -2.4782141   0.71550938   421013 
  803000   0.64360701   -2.4768865   -2.4768865   -1.7626515  0.053022606   -2.4768865   0.71423497   421013 
  804000   0.64530994   -2.4791685   -2.4791685   -1.7630437  0.048013507   -2.4791685   0.71612477   421013 
  805000   0.64545186   -2.4791047   -2.4791047   -1.7628224  0.057252492   -2.4791047   0.71628226   421013 
  806000   0.64544023   -2.4799981   -2.4799981   -1.7637288  0.051698875   -2.4799981   0.71626936   421013 
  807000   0.64462127   -2.4790081   -2.4790081   -1.7636475  0.076619683   -2.4790081   0.71536053   421013 
  808000   0.64476545    -2.479261    -2.479261   -1.7637405  0.062140401    -2.479261   0.71552053   421013 
  809000   0.64578388   -2.4808119   -2.4808119   -1.7641612  0.059236842   -2.4808119   0.71665072   421013 
  810000   0.64523682    -2.479356    -2.479356   -1.7633123  0.057620308    -2.479356   0.71604363   421013 
  811000   0.64407467   -2.4781093   -2.4781093   -1.7633554  0.053632812   -2.4781093   0.71475395   421013 
  812000   0.64490328   -2.4790418   -2.4790418   -1.7633683  0.057512292   -2.4790418   0.71567349   421013 
  813000   0.64456372   -2.4795023   -2.4795023   -1.7642057  0.059072228   -2.4795023   0.71529666   421013 
  814000   0.64536173   -2.4815657   -2.4815657   -1.7653835  0.053266515   -2.4815657   0.71618225   421013 
  815000   0.64493256   -2.4811159   -2.4811159   -1.7654099  0.055448747   -2.4811159   0.71570598   421013 
  816000    0.6447593   -2.4804994   -2.4804994   -1.7649857   0.04761455   -2.4804994    0.7155137   421013 
  817000   0.64326987   -2.4796057   -2.4796057   -1.7657448  0.057722808   -2.4796057   0.71386083   421013 
  818000   0.64453658   -2.4813905   -2.4813905    -1.766124  0.057155446   -2.4813905   0.71526654   421013 
  819000   0.64321906   -2.4805398   -2.4805398   -1.7667353  0.057080925   -2.4805398   0.71380445   421013 
  820000   0.64261508   -2.4799347   -2.4799347   -1.7668005  0.049255522   -2.4799347   0.71313418   421013 
  821000   0.64389078   -2.4815666   -2.4815666   -1.7670167  0.052621057   -2.4815666   0.71454988   421013 
  822000   0.64198381   -2.4797889   -2.4797889   -1.7673552  0.051089037   -2.4797889   0.71243364   421013 
  823000   0.64293163   -2.4818079   -2.4818079   -1.7683224   0.05502218   -2.4818079   0.71348548   421013 
  824000   0.64259938   -2.4814127   -2.4814127   -1.7682959  0.060070349   -2.4814127   0.71311676   421013 
  825000   0.64328473   -2.4827992   -2.4827992   -1.7689219  0.050777761   -2.4827992   0.71387732   421013 
  826000   0.64367946   -2.4829915   -2.4829915   -1.7686761   0.04692643   -2.4829915   0.71431536   421013 
  827000   0.64232622   -2.4809883   -2.4809883   -1.7681747  0.061047283   -2.4809883   0.71281363   421013 
  828000   0.64313264   -2.4824986   -2.4824986   -1.7687901   0.04560576   -2.4824986   0.71370854   421013 
  829000   0.64270453   -2.4825157   -2.4825157   -1.7692823   0.05169719   -2.4825157   0.71323344   421013 
  830000   0.64294441   -2.4824919   -2.4824919   -1.7689922  0.045157867   -2.4824919   0.71349965   421013 
  831000   0.64172645    -2.481789    -2.481789   -1.7696409  0.043712964    -2.481789   0.71214804   421013 
  832000   0.64162553   -2.4819478   -2.4819478   -1.7699118  0.056161249   -2.4819478   0.71203604   421013 
  833000    0.6420015   -2.4824854   -2.4824854   -1.7700321  0.055530413   -2.4824854   0.71245327   421013 
  834000   0.64179108   -2.4826151   -2.4826151   -1.7703953  0.057543208   -2.4826151   0.71221976   421013 
  835000   0.64203685   -2.4833491   -2.4833491   -1.7708566  0.059073406   -2.4833491    0.7124925   421013 
  836000   0.64315289   -2.4843897   -2.4843897   -1.7706587  0.053287479   -2.4843897   0.71373101   421013 
  837000   0.64217837   -2.4836197   -2.4836197   -1.7709702  0.059554016   -2.4836197   0.71264955   421013 
  838000    0.6425501   -2.4845327   -2.4845327   -1.7714706  0.036777993   -2.4845327   0.71306208   421013 
  839000   0.64251342   -2.4840861   -2.4840861   -1.7710647  0.061764969   -2.4840861   0.71302136   421013 
  840000   0.64281736     -2.48377     -2.48377   -1.7704113  0.053918315     -2.48377   0.71335867   421013 
  841000   0.64174673   -2.4833071   -2.4833071   -1.7711365  0.048333661   -2.4833071   0.71217055   421013 
  842000   0.64166055   -2.4840315   -2.4840315   -1.7719566  0.050348201   -2.4840315    0.7120749   421013 
  843000   0.64171966   -2.4843361   -2.4843361   -1.7721956  0.059537818   -2.4843361    0.7121405   421013 
  844000   0.64377619   -2.4859783   -2.4859783   -1.7715556  0.051215283   -2.4859783   0.71442272   421013 
  845000   0.64294679   -2.4851325   -2.4851325   -1.7716302  0.057433129   -2.4851325   0.71350229   421013 
  846000   0.64372864   -2.4855016   -2.4855016   -1.7711317  0.061665851   -2.4855016   0.71436995   421013 
  847000   0.64354424   -2.4853945   -2.4853945   -1.7712292  0.058541769   -2.4853945   0.71416531   421013 
  848000   0.64387422    -2.486436    -2.486436   -1.7719045  0.057710042    -2.486436    0.7145315   421013 
  849000   0.64171135   -2.4844419   -2.4844419   -1.7723106  0.059288614   -2.4844419   0.71213128   421013 
  850000   0.64194785   -2.4854433   -2.4854433   -1.7730496  0.053523762   -2.4854433   0.71239373   421013 
  851000   0.64222658   -2.4853361   -2.4853361   -1.7726331   0.06264842   -2.4853361   0.71270305   421013 
  852000   0.64081166   -2.4842272   -2.4842272   -1.7730944  0.045891587   -2.4842272   0.71113286   421013 
  853000   0.64122408   -2.4848444   -2.4848444   -1.7732539  0.056090979   -2.4848444   0.71159054   421013 
  854000   0.64189277   -2.4859568   -2.4859568   -1.7736241  0.058109401   -2.4859568   0.71233261   421013 
  855000   0.64066795   -2.4847304   -2.4847304    -1.773757  0.053281641   -2.4847304   0.71097338   421013 
  856000   0.64136088    -2.485806    -2.485806   -1.7740636  0.050425341    -2.485806   0.71174236   421013 
  857000   0.64216261   -2.4869063   -2.4869063   -1.7742742  0.053882033   -2.4869063   0.71263206   421013 
  858000   0.64270978   -2.4874893   -2.4874893     -1.77425  0.056577969   -2.4874893   0.71323927   421013 
  859000   0.64230159   -2.4873082   -2.4873082   -1.7745219  0.061305535   -2.4873082    0.7127863   421013 
  860000   0.64155219    -2.487406    -2.487406   -1.7754513  0.057384655    -2.487406   0.71195466   421013 
  861000   0.64145961    -2.487063    -2.487063   -1.7752111  0.052742148    -2.487063   0.71185192   421013 
  862000   0.64120931   -2.4873885   -2.4873885   -1.7758143  0.062849463   -2.4873885   0.71157415   421013 
  863000   0.64150163   -2.4885555   -2.4885555    -1.776657  0.051929739   -2.4885555   0.71189854   421013 
  864000   0.64128548   -2.4889123   -2.4889123   -1.7772537  0.047621266   -2.4889123   0.71165868   421013 
  865000   0.64223193   -2.4901448   -2.4901448   -1.7774359  0.057192317   -2.4901448   0.71270899   421013 
  866000   0.64151906    -2.489005    -2.489005   -1.7770871  0.053381841    -2.489005   0.71191789   421013 
  867000   0.64263038   -2.4903042   -2.4903042    -1.777153  0.063519375   -2.4903042   0.71315116   421013 
  868000   0.64145346   -2.4888071   -2.4888071    -1.776962  0.064155112   -2.4888071   0.71184508   421013 
  869000   0.64301711     -2.49015     -2.49015   -1.7765697  0.054425956     -2.49015   0.71358033   421013 
  870000   0.64281346   -2.4892435   -2.4892435   -1.7758892  0.059680474   -2.4892435   0.71335433   421013 
  871000   0.64161882   -2.4887283   -2.4887283   -1.7766997  0.044258721   -2.4887283    0.7120286   421013 
  872000   0.64143972    -2.489268    -2.489268   -1.7774382  0.050117367    -2.489268   0.71182984   421013 
  873000   0.64122295   -2.4889231   -2.4889231   -1.7773338   0.05622653   -2.4889231   0.71158928   421013 
  874000   0.64077378   -2.4887725   -2.4887725   -1.7776817  0.045721181   -2.4887725   0.71109082   421013 
  875000   0.64125875   -2.4895527   -2.4895527   -1.7779236  0.054329978   -2.4895527   0.71162901   421013 
  876000   0.64166325   -2.4901457   -2.4901457   -1.7780678  0.051340006   -2.4901457   0.71207791   421013 
  877000   0.64012698   -2.4888896   -2.4888896   -1.7785165    0.0481027   -2.4888896   0.71037305   421013 
  878000    0.6406145   -2.4898389   -2.4898389   -1.7789249  0.047956026   -2.4898389   0.71091407   421013 
  879000   0.64152174   -2.4904829   -2.4904829    -1.778562  0.060334247   -2.4904829   0.71192086   421013 
  880000   0.64061598   -2.4896333   -2.4896333   -1.7787176  0.047279015   -2.4896333    0.7109157   421013 
  881000   0.63995959   -2.4894765   -2.4894765   -1.7792892  0.053294153   -2.4894765   0.71018728   421013 
  882000    0.6398078   -2.4897467   -2.4897467   -1.7797279  0.054869599   -2.4897467   0.71001884   421013 
  883000   0.64053855   -2.4907581   -2.4907581   -1.7799283  0.044387516   -2.4907581   0.71082978   421013 
  884000   0.64082956   -2.4911288   -2.4911288   -1.7799761  0.051982326   -2.4911288   0.71115273   421013 
  885000   0.63957301   -2.4900978   -2.4900978   -1.7803395  0.057173369   -2.4900978   0.70975828   421013 
  886000   0.63956951   -2.4894454   -2.4894454    -1.779691  0.054569949   -2.4894454    0.7097544   421013 
  887000   0.64058867   -2.4916551   -2.4916551   -1.7807697  0.068025798   -2.4916551    0.7108854   421013 
  888000   0.64060065   -2.4917514   -2.4917514   -1.7808527  0.051269518   -2.4917514    0.7108987   421013 
  889000    0.6403578   -2.4907269   -2.4907269   -1.7800977  0.051691857   -2.4907269   0.71062919   421013 
  890000   0.64004547   -2.4916789   -2.4916789   -1.7813964  0.047712066   -2.4916789   0.71028259   421013 
  891000     0.640965   -2.4925544   -2.4925544   -1.7812514   0.05902515   -2.4925544   0.71130303   421013 
  892000   0.64056316   -2.4924501   -2.4924501    -1.781593  0.048101101   -2.4924501    0.7108571   421013 
  893000   0.63910625   -2.4905631   -2.4905631   -1.7813228  0.051833004   -2.4905631    0.7092403   421013 
  894000   0.63963177   -2.4905428   -2.4905428   -1.7807193  0.050703738   -2.4905428   0.70982349   421013 
  895000   0.63893929   -2.4906844   -2.4906844   -1.7816294  0.055052782   -2.4906844   0.70905502   421013 
  896000   0.64038065   -2.4923901   -2.4923901   -1.7817355  0.054716593   -2.4923901   0.71065456   421013 
  897000   0.63962389   -2.4916997   -2.4916997   -1.7818849  0.054553744   -2.4916997   0.70981474   421013 
  898000   0.63910025   -2.4913097   -2.4913097   -1.7820761  0.049771522   -2.4913097   0.70923364   421013 
  899000   0.63870356   -2.4913833   -2.4913833   -1.7825899  0.047012827   -2.4913833   0.70879343   421013 
  900000   0.63965234   -2.4919694   -2.4919694   -1.7821231  0.052222209   -2.4919694   0.70984632   421013 
  901000   0.63934401   -2.4921485   -2.4921485   -1.7826444  0.057089928   -2.4921485   0.70950416   421013 
  902000   0.64008496   -2.4930567   -2.4930567   -1.7827303  0.045365014   -2.4930567   0.71032642   421013 
  903000   0.64032952   -2.4933878   -2.4933878     -1.78279  0.054887697   -2.4933878   0.71059782   421013 
  904000   0.63967085   -2.4932754   -2.4932754   -1.7834086  0.055638902   -2.4932754   0.70986686   421013 
  905000   0.64072065   -2.4947028   -2.4947028    -1.783671  0.055484074   -2.4947028   0.71103186   421013 
  906000   0.64086111   -2.4954446   -2.4954446   -1.7842569  0.057030013   -2.4954446   0.71118773   421013 
  907000   0.64140019   -2.4962571   -2.4962571   -1.7844712  0.059734814   -2.4962571   0.71178597   421013 
  908000    0.6382471   -2.4929029   -2.4929029    -1.784616  0.056883494   -2.4929029   0.70828687   421013 
  909000   0.63980429   -2.4951293   -2.4951293   -1.7851144  0.045479799   -2.4951293   0.71001494   421013 
  910000   0.63998985   -2.4953045   -2.4953045   -1.7850836  0.054063791   -2.4953045   0.71022087   421013 
  911000   0.64065453   -2.4962915   -2.4962915    -1.785333  0.059868719   -2.4962915   0.71095849   421013 
  912000   0.63868173   -2.4950064   -2.4950064   -1.7862372  0.043555161   -2.4950064    0.7087692   421013 
  913000   0.63904003   -2.4958353   -2.4958353   -1.7866685  0.052838689   -2.4958353   0.70916681   421013 
  914000   0.63941512   -2.4961527   -2.4961527   -1.7865697  0.058067838   -2.4961527   0.70958307   421013 
  915000   0.64150895   -2.4989119   -2.4989119   -1.7870052   0.05271599   -2.4989119   0.71190666   421013 
  916000   0.63923551   -2.4965794   -2.4965794   -1.7871956  0.043982686   -2.4965794   0.70938374   421013 
  917000   0.63842749   -2.4962375   -2.4962375   -1.7877505  0.052186401   -2.4962375   0.70848706   421013 
  918000   0.63843406    -2.495791    -2.495791   -1.7872967  0.058842655    -2.495791   0.70849435   421013 
  919000   0.63878701   -2.4962449   -2.4962449   -1.7873589  0.058131684   -2.4962449   0.70888602   421013 
  920000   0.63835829   -2.4955559   -2.4955559   -1.7871456  0.051458054   -2.4955559   0.70841026   421013 
  921000   0.63876896   -2.4957822   -2.4957822   -1.7869162  0.041752249   -2.4957822     0.708866   421013 
  922000   0.63968312   -2.4971824   -2.4971824    -1.787302  0.054626576   -2.4971824   0.70988047   421013 
  923000   0.63791354   -2.4958317   -2.4958317    -1.787915  0.052046254   -2.4958317   0.70791671   421013 
  924000   0.63812528   -2.4958475   -2.4958475   -1.7876958  0.047898306   -2.4958475   0.70815168   421013 
  925000   0.63787244   -2.4957441   -2.4957441    -1.787873  0.051774416   -2.4957441    0.7078711   421013 
  926000   0.63843425   -2.4964338   -2.4964338   -1.7879392  0.050986604   -2.4964338   0.70849456   421013 
  927000   0.63861548   -2.4970499   -2.4970499   -1.7883542  0.056432879   -2.4970499   0.70869568   421013 
  928000   0.63849463   -2.4963375   -2.4963375   -1.7877759  0.042732567   -2.4963375   0.70856157   421013 
  929000   0.63839881   -2.4962361   -2.4962361   -1.7877808  0.049321851   -2.4962361   0.70845523   421013 
  930000   0.63774563   -2.4962693   -2.4962693   -1.7885389  0.056996772   -2.4962693   0.70773037   421013 
  931000   0.63893033   -2.4976941   -2.4976941    -1.788649  0.055332647   -2.4976941   0.70904508   421013 
  932000   0.63915853    -2.497975    -2.497975   -1.7886767  0.049250899    -2.497975   0.70929831   421013 
  933000   0.63824911   -2.4975911   -2.4975911    -1.789302  0.045724238   -2.4975911    0.7082891   421013 
  934000   0.63872194   -2.4977766   -2.4977766   -1.7889628  0.053628734   -2.4977766   0.70881382   421013 
  935000   0.63779403   -2.4976121   -2.4976121    -1.789828   0.06356847   -2.4976121   0.70778408   421013 
  936000   0.63864567   -2.4986665   -2.4986665   -1.7899373  0.050763653   -2.4986665   0.70872918   421013 
  937000   0.63744643   -2.4981456   -2.4981456   -1.7907473  0.038275994   -2.4981456   0.70739834   421013 
  938000   0.63839681   -2.4987679   -2.4987679   -1.7903149  0.051800309   -2.4987679   0.70845301   421013 
  939000   0.63835827   -2.4989773   -2.4989773   -1.7905671  0.049832918   -2.4989773   0.70841025   421013 
  940000   0.63676117   -2.4975099   -2.4975099   -1.7908721  0.046092175   -2.4975099   0.70663788   421013 
  941000    0.6366662   -2.4979166   -2.4979166   -1.7913842  0.041880626   -2.4979166   0.70653249   421013 
  942000    0.6381212   -2.4993691   -2.4993691    -1.791222  0.046295396   -2.4993691   0.70814715   421013 
  943000   0.63691378   -2.4977908   -2.4977908   -1.7909836   0.05332913   -2.4977908   0.70680723   421013 
  944000   0.63876165   -2.4992646   -2.4992646   -1.7904067  0.050880754   -2.4992646   0.70885789   421013 
  945000   0.63686524   -2.4974668   -2.4974668   -1.7907134  0.057041473   -2.4974668   0.70675336   421013 
  946000   0.63807498   -2.4988324   -2.4988324   -1.7907366  0.050924795   -2.4988324   0.70809587   421013 
  947000   0.63744956   -2.4986299   -2.4986299    -1.791228  0.053163568   -2.4986299   0.70740182   421013 
  948000    0.6380907   -2.4998526   -2.4998526   -1.7917393  0.049384409   -2.4998526   0.70811331   421013 
  949000   0.63754488   -2.4994744   -2.4994744   -1.7919668  0.045967761   -2.4994744   0.70750759   421013 
  950000    0.6374411   -2.4990219   -2.4990219   -1.7916295   0.05059222   -2.4990219   0.70739242   421013 
  951000   0.63608327    -2.498797    -2.498797   -1.7929114  0.053666123    -2.498797   0.70588559   421013 
  952000   0.63593241   -2.4983465   -2.4983465   -1.7926283  0.059011148   -2.4983465   0.70571817   421013 
  953000   0.63817132   -2.5004516   -2.5004516   -1.7922488    0.0472199   -2.5004516   0.70820277   421013 
  954000    0.6377662   -2.4999902   -2.4999902    -1.792237  0.050240736   -2.4999902    0.7077532   421013 
  955000   0.63600982   -2.4981367   -2.4981367   -1.7923326  0.053747364   -2.4981367   0.70580407   421013 
  956000    0.6388113   -2.5015145   -2.5015145   -1.7926015  0.051826584   -2.5015145   0.70891298   421013 
  957000   0.63784475   -2.5001789   -2.5001789   -1.7923385  0.051427077   -2.5001789   0.70784036   421013 
  958000   0.63691291   -2.4995309   -2.4995309   -1.7927246  0.061264151   -2.4995309   0.70680627   421013 
  959000   0.63640723    -2.498889    -2.498889   -1.7926439  0.054005123    -2.498889    0.7062451   421013 
  960000   0.63765971   -2.5005501   -2.5005501   -1.7929151  0.060101921   -2.5005501   0.70763502   421013 
  961000   0.63788262   -2.5007216   -2.5007216   -1.7928392  0.047068469   -2.5007216    0.7078824   421013 
  962000   0.63756852   -2.5010625   -2.5010625   -1.7935287  0.050828224   -2.5010625   0.70753382   421013 
  963000   0.63709606   -2.5007329   -2.5007329   -1.7937234  0.050031267   -2.5007329   0.70700951   421013 
  964000   0.63736459   -2.5014389   -2.5014389   -1.7941314  0.052089248   -2.5014389   0.70730752   421013 
  965000   0.63564058   -2.4992874   -2.4992874   -1.7938931  0.046848885   -2.4992874   0.70539432   421013 
  966000   0.63649272   -2.5013615   -2.5013615   -1.7950216  0.052858651   -2.5013615   0.70633997   421013 
  967000   0.63545617   -2.5008244   -2.5008244   -1.7956347  0.055805984   -2.5008244   0.70518967   421013 
  968000   0.63647885   -2.5025571   -2.5025571   -1.7962325  0.059614958   -2.5025571   0.70632458   421013 
  969000   0.63704565    -2.503154    -2.503154   -1.7962005  0.052502747    -2.503154   0.70695358   421013 
  970000   0.63740691   -2.5032936   -2.5032936   -1.7959391  0.056395849   -2.5032936   0.70735449   421013 
  971000   0.63702886   -2.5033972   -2.5033972   -1.7964623   0.06014111   -2.5033972   0.70693495   421013 
  972000   0.63794131   -2.5044074   -2.5044074   -1.7964599  0.052301757   -2.5044074   0.70794753   421013 
  973000    0.6377904   -2.5034581   -2.5034581    -1.795678  0.052085921   -2.5034581   0.70778005   421013 
  974000   0.63765398   -2.5035268   -2.5035268   -1.7958981  0.048532648   -2.5035268   0.70762867   421013 
  975000   0.63634813   -2.5023342   -2.5023342   -1.7961547  0.044784896   -2.5023342   0.70617951   421013 
  976000   0.63769634    -2.503632    -2.503632   -1.7959564  0.046880245    -2.503632   0.70767567   421013 
  977000   0.63654638   -2.5029906   -2.5029906    -1.796591  0.052145311   -2.5029906   0.70639952   421013 
  978000    0.6367507   -2.5031274   -2.5031274   -1.7965011    0.0544826   -2.5031274   0.70662626   421013 
  979000   0.63529946   -2.5020719   -2.5020719   -1.7970561  0.056759295   -2.5020719   0.70501577   421013 
  980000   0.63601172   -2.5037357   -2.5037357   -1.7979295  0.043783753   -2.5037357   0.70580619   421013 
  981000   0.63650572    -2.503835    -2.503835   -1.7974806  0.052829354    -2.503835    0.7063544   421013 
  982000   0.63710445   -2.5042714   -2.5042714   -1.7972526  0.055016223   -2.5042714   0.70701883   421013 
  983000   0.63677066   -2.5042881   -2.5042881   -1.7976397  0.059768404   -2.5042881   0.70664841   421013 
  984000   0.63721059   -2.5048524   -2.5048524   -1.7977158  0.051395047   -2.5048524   0.70713661   421013 
  985000    0.6355733   -2.5035643   -2.5035643   -1.7982446  0.048266063   -2.5035643   0.70531965   421013 
  986000   0.63635399   -2.5045343   -2.5045343   -1.7983482  0.051015971   -2.5045343   0.70618601   421013 
  987000   0.63591699   -2.5033686   -2.5033686   -1.7976675  0.053155569   -2.5033686   0.70570106   421013 
  988000   0.63546234   -2.5036741   -2.5036741   -1.7984776  0.053230059   -2.5036741   0.70519652   421013 
  989000   0.63626159   -2.5042362   -2.5042362   -1.7981527  0.050266102   -2.5042362   0.70608348   421013 
  990000   0.63487749   -2.5035843   -2.5035843   -1.7990368  0.055032626   -2.5035843   0.70454749   421013 
  991000   0.63810543   -2.5070107   -2.5070107    -1.798881  0.058183769   -2.5070107   0.70812966   421013 
  992000   0.63486986   -2.5044039   -2.5044039   -1.7998649  0.053838287   -2.5044039   0.70453902   421013 
  993000   0.63552519   -2.5062856   -2.5062856   -1.8010193  0.038470525   -2.5062856   0.70526626   421013 
  994000   0.63434368   -2.5053517   -2.5053517   -1.8013966  0.052781033   -2.5053517    0.7039551   421013 
  995000   0.63567414   -2.5061042   -2.5061042   -1.8006726  0.048723063   -2.5061042   0.70543156   421013 
  996000    0.6360094   -2.5066695   -2.5066695   -1.8008659   0.05351078   -2.5066695   0.70580361   421013 
  997000   0.63522339   -2.5063628   -2.5063628   -1.8014314  0.054975892   -2.5063628   0.70493134   421013 
  998000   0.63585834   -2.5074124   -2.5074124   -1.8017765  0.033374887   -2.5074124   0.70563597   421013 
  999000   0.63618834   -2.5084268   -2.5084268   -1.8024246  0.043172376   -2.5084268   0.70600218   421013 
 1000000    0.6373516   -2.5081172   -2.5081172   -1.8008241  0.061895398   -2.5081172    0.7072931   421013 
 1001000   0.63710282   -2.5082825   -2.5082825   -1.8012655  0.049288573   -2.5082825   0.70701702   421013 
 1002000   0.63716921    -2.508862    -2.508862   -1.8017713  0.057370205    -2.508862    0.7070907   421013 
 1003000   0.63570769   -2.5070567   -2.5070567    -1.801588  0.047926487   -2.5070567   0.70546879   421013 
 1004000   0.63773852   -2.5089684   -2.5089684   -1.8012459  0.050582003   -2.5089684   0.70772248   421013 
 1005000   0.63598843    -2.507715    -2.507715   -1.8019346  0.040041141    -2.507715   0.70578034   421013 
 1006000   0.63688047   -2.5086405   -2.5086405   -1.8018702  0.051107282   -2.5086405   0.70677027   421013 
 1007000   0.63576353   -2.5076688   -2.5076688    -1.802138  0.054088789   -2.5076688   0.70553076   421013 
 1008000    0.6367795   -2.5085394   -2.5085394   -1.8018812  0.058118693   -2.5085394   0.70665822   421013 
 1009000   0.63602622   -2.5072882   -2.5072882   -1.8014659  0.050594214   -2.5072882   0.70582228   421013 
 1010000   0.63679606   -2.5083293   -2.5083293   -1.8016527  0.047784819   -2.5083293   0.70667659   421013 
 1011000   0.63626779   -2.5076208   -2.5076208   -1.8015305  0.059254009   -2.5076208   0.70609036   421013 
 1012000   0.63623656   -2.5080522   -2.5080522   -1.8019965  0.050061529   -2.5080522   0.70605569   421013 
 1013000     0.634712   -2.5077706   -2.5077706   -1.8034067  0.041570029   -2.5077706   0.70436384   421013 
 1014000   0.63560231   -2.5083747   -2.5083747   -1.8030228  0.046872575   -2.5083747   0.70535185   421013 
 1015000   0.63512343   -2.5087024   -2.5087024    -1.803882  0.052892321   -2.5087024   0.70482042   421013 
 1016000   0.63557561    -2.508975    -2.508975   -1.8036527  0.049111981    -2.508975   0.70532222   421013 
 1017000   0.63624712   -2.5101518   -2.5101518   -1.8040844  0.052635352   -2.5101518   0.70606742   421013 
 1018000   0.63666228   -2.5104679   -2.5104679   -1.8039398  0.041338686   -2.5104679   0.70652814   421013 
 1019000   0.63644578   -2.5102255   -2.5102255   -1.8039376  0.044114925   -2.5102255   0.70628787   421013 
 1020000   0.63525941   -2.5097986   -2.5097986   -1.8048273  0.054861125   -2.5097986   0.70497132   421013 
 1021000   0.63476981   -2.5092293   -2.5092293   -1.8048013  0.048744261   -2.5092293     0.704428   421013 
 1022000   0.63397997   -2.5084712   -2.5084712   -1.8049197   0.05076211   -2.5084712   0.70355148   421013 
 1023000   0.63538178   -2.5105716   -2.5105716   -1.8054645  0.047592747   -2.5105716   0.70510712   421013 
 1024000   0.63589488   -2.5114931   -2.5114931   -1.8058166  0.056540383   -2.5114931   0.70567652   421013 
 1025000   0.63491378   -2.5106646   -2.5106646   -1.8060769  0.048287011   -2.5106646   0.70458776   421013 
 1026000   0.63539328   -2.5110219   -2.5110219    -1.805902  0.042231405   -2.5110219   0.70511988   421013 
 1027000   0.63502184   -2.5109539   -2.5109539   -1.8062463  0.049785062   -2.5109539   0.70470768   421013 
 1028000   0.63632778   -2.5121327   -2.5121327   -1.8059757  0.053165841   -2.5121327   0.70615693   421013 
 1029000   0.63502951   -2.5114135   -2.5114135   -1.8066973  0.052621403   -2.5114135   0.70471619   421013 
 1030000   0.63596162   -2.5125624   -2.5125624   -1.8068118  0.058969902   -2.5125624   0.70575058   421013 
 1031000   0.63325308   -2.5103919   -2.5103919   -1.8076471  0.041869524   -2.5103919   0.70274482   421013 
 1032000   0.63501373   -2.5124685   -2.5124685   -1.8077698  0.050493176   -2.5124685   0.70469868   421013 
 1033000   0.63482659   -2.5127376   -2.5127376   -1.8082466   0.04145237   -2.5127376     0.704491   421013 
 1034000   0.63449648   -2.5121974   -2.5121974   -1.8080727  0.054586875   -2.5121974   0.70412467   421013 
 1035000   0.63640346    -2.514451    -2.514451   -1.8082101  0.050492867    -2.514451   0.70624092   421013 
 1036000   0.63541567   -2.5133988   -2.5133988   -1.8082541   0.06684071   -2.5133988   0.70514472   421013 
 1037000   0.63304173   -2.5111456   -2.5111456   -1.8086354  0.052539443   -2.5111456   0.70251027   421013 
 1038000   0.63461119   -2.5129566   -2.5129566   -1.8087046  0.051843689   -2.5129566   0.70425196   421013 
 1039000   0.63448329   -2.5124204   -2.5124204   -1.8083104  0.052223996   -2.5124204   0.70411003   421013 
 1040000   0.63537634   -2.5127346   -2.5127346   -1.8076336  0.056521665   -2.5127346   0.70510108   421013 
 1041000   0.63459895   -2.5122557   -2.5122557   -1.8080174  0.050061255   -2.5122557   0.70423838   421013 
 1042000   0.63520031   -2.5126685   -2.5126685   -1.8077628  0.056662124   -2.5126685   0.70490573   421013 
 1043000   0.63312668   -2.5112059   -2.5112059   -1.8086013   0.04448151   -2.5112059   0.70260455   421013 
 1044000   0.63503676    -2.513052    -2.513052   -1.8083277  0.049989713    -2.513052   0.70472423   421013 
 1045000   0.63483828   -2.5135227   -2.5135227   -1.8090187  0.056848878   -2.5135227   0.70450398   421013 
 1046000   0.63473765   -2.5136081   -2.5136081   -1.8092158  0.047268853   -2.5136081    0.7043923   421013 
 1047000   0.63487286   -2.5131101   -2.5131101   -1.8085677  0.047037239   -2.5131101   0.70454235   421013 
 1048000   0.63492274   -2.5134248   -2.5134248   -1.8088271  0.048093237   -2.5134248    0.7045977   421013 
 1049000   0.63392652   -2.5124489   -2.5124489   -1.8089568    0.0494721   -2.5124489   0.70349216   421013 
 1050000    0.6336958   -2.5124819   -2.5124819   -1.8092458  0.049775042   -2.5124819   0.70323612   421013 
 1051000   0.63453007   -2.5133251   -2.5133251   -1.8091632  0.051265781   -2.5133251   0.70416194   421013 
 1052000   0.63439448   -2.5131487   -2.5131487   -1.8091372  0.057731553   -2.5131487   0.70401148   421013 
 1053000   0.63331414   -2.5117343   -2.5117343   -1.8089217  0.046447225   -2.5117343   0.70281258   421013 
 1054000   0.63469436   -2.5134501   -2.5134501   -1.8091058  0.049282592   -2.5134501   0.70434426   421013 
 1055000   0.63505357   -2.5144395   -2.5144395   -1.8096967  0.048513009   -2.5144395   0.70474289   421013 
 1056000   0.63422863   -2.5143406   -2.5143406   -1.8105132  0.059846227   -2.5143406   0.70382743   421013 
 1057000   0.63500988   -2.5153979   -2.5153979   -1.8107035  0.049608091   -2.5153979   0.70469441   421013 
 1058000   0.63291525   -2.5134137   -2.5134137   -1.8110438   0.05600668   -2.5134137   0.70236991   421013 
 1059000   0.63301684   -2.5134361   -2.5134361   -1.8109535  0.051939098   -2.5134361   0.70248265   421013 
 1060000   0.63337169   -2.5135295   -2.5135295   -1.8106531  0.049451815   -2.5135295   0.70287645   421013 
 1061000   0.63243054   -2.5136542   -2.5136542   -1.8118222  0.045637752   -2.5136542   0.70183201   421013 
 1062000   0.63436782   -2.5151241   -2.5151241   -1.8111422  0.046181024   -2.5151241   0.70398189   421013 
 1063000   0.63291224   -2.5135423   -2.5135423   -1.8111757  0.052774086   -2.5135423   0.70236657   421013 
 1064000    0.6331495   -2.5141854   -2.5141854   -1.8115555    0.0354827   -2.5141854   0.70262987   421013 
 1065000   0.63382923   -2.5145515   -2.5145515   -1.8111673  0.056662882   -2.5145515   0.70338419   421013 
 1066000   0.63308509   -2.5141058   -2.5141058   -1.8115474  0.047484245   -2.5141058   0.70255839   421013 
 1067000   0.63318061   -2.5143121   -2.5143121   -1.8116477  0.051139931   -2.5143121   0.70266439   421013 
 1068000   0.63262544   -2.5151225   -2.5151225   -1.8130742  0.046408357   -2.5151225   0.70204831   421013 
 1069000   0.63257003   -2.5152089   -2.5152089    -1.813222  0.054495222   -2.5152089   0.70198681   421013 
 1070000   0.63330584   -2.5161748   -2.5161748   -1.8133714  0.048242817   -2.5161748   0.70280337   421013 
 1071000   0.63306433   -2.5163924   -2.5163924    -1.813857   0.04870538   -2.5163924   0.70253535   421013 
 1072000     0.633633   -2.5170238   -2.5170238   -1.8138574  0.049273096   -2.5170238   0.70316643   421013 
 1073000   0.63153444   -2.5143775   -2.5143775   -1.8135399  0.042110365   -2.5143775   0.70083758   421013 
 1074000   0.63311843   -2.5161312   -2.5161312   -1.8135358  0.039997091   -2.5161312    0.7025954   421013 
 1075000   0.63317503   -2.5157811   -2.5157811   -1.8131228  0.046921159   -2.5157811   0.70265821   421013 
 1076000   0.63447192   -2.5171425   -2.5171425   -1.8130451  0.047723023   -2.5171425   0.70409741   421013 
 1077000   0.63453506    -2.518137    -2.518137   -1.8139695  0.046075608    -2.518137   0.70416748   421013 
 1078000   0.63429271   -2.5188305   -2.5188305    -1.814932  0.051620996   -2.5188305   0.70389854   421013 
 1079000   0.63339385   -2.5186527   -2.5186527   -1.8157517  0.055664845   -2.5186527   0.70290104   421013 
 1080000   0.63421477   -2.5196736   -2.5196736   -1.8158615  0.064343454   -2.5196736   0.70381204   421013 
 1081000   0.63426371   -2.5194204   -2.5194204    -1.815554  0.050230306   -2.5194204   0.70386636   421013 
 1082000   0.63344249   -2.5182884   -2.5182884   -1.8153334  0.061250862   -2.5182884   0.70295502   421013 
 1083000   0.63334299   -2.5181041   -2.5181041   -1.8152595  0.042580937   -2.5181041   0.70284459   421013 
 1084000   0.63230122   -2.5172782   -2.5172782   -1.8155897  0.050779424   -2.5172782   0.70168851   421013 
 1085000   0.63352847   -2.5184787   -2.5184787   -1.8154283  0.065062134   -2.5184787   0.70305043   421013 
 1086000   0.63266974   -2.5175373   -2.5175373   -1.8154399  0.049009725   -2.5175373   0.70209746   421013 
 1087000   0.63422272   -2.5191668   -2.5191668   -1.8153459  0.047802452   -2.5191668   0.70382086   421013 
 1088000   0.63329041   -2.5190175   -2.5190175   -1.8162312  0.042770971   -2.5190175   0.70278625   421013 
 1089000   0.63238378   -2.5183558   -2.5183558   -1.8165757  0.044321897   -2.5183558   0.70178012   421013 
 1090000   0.63342014   -2.5195782   -2.5195782    -1.816648  0.055544805   -2.5195782   0.70293021   421013 
 1091000   0.63329125   -2.5188646   -2.5188646   -1.8160775   0.05118322   -2.5188646   0.70278717   421013 
 1092000   0.63406276   -2.5200572   -2.5200572   -1.8164138  0.052314542   -2.5200572   0.70364335   421013 
 1093000   0.63377179   -2.5205418   -2.5205418   -1.8172213  0.046781737   -2.5205418   0.70332045   421013 
 1094000    0.6320242   -2.5186471   -2.5186471    -1.817266  0.055179133   -2.5186471   0.70138109   421013 
 1095000   0.63284964   -2.5194991   -2.5194991    -1.817202  0.045587989   -2.5194991    0.7022971   421013 
 1096000   0.63343582   -2.5203715   -2.5203715   -1.8174238  0.064318477   -2.5203715   0.70294761   421013 
 1097000   0.63351431   -2.5207427   -2.5207427   -1.8177079  0.050001669   -2.5207427   0.70303472   421013 
 1098000   0.63314951   -2.5201746   -2.5201746   -1.8175447  0.061312849   -2.5201746   0.70262989   421013 
 1099000   0.63371772    -2.520698    -2.520698   -1.8174376  0.056860215    -2.520698   0.70326044   421013 
 1100000   0.63372456   -2.5209864   -2.5209864   -1.8177183  0.050233659   -2.5209864   0.70326803   421013 
 1101000   0.63283226   -2.5206974   -2.5206974   -1.8184196  0.044930021   -2.5206974   0.70227782   421013 
 1102000   0.63337372   -2.5208209   -2.5208209   -1.8179422  0.049147117   -2.5208209    0.7028787   421013 
 1103000   0.63232631   -2.5205054   -2.5205054   -1.8187891  0.049634868   -2.5205054   0.70171635   421013 
 1104000   0.63091251   -2.5188664   -2.5188664    -1.818719  0.043569643   -2.5188664    0.7001474   421013 
 1105000    0.6328663   -2.5212495   -2.5212495   -1.8189339  0.054232785   -2.5212495    0.7023156   421013 
 1106000   0.63347566   -2.5220112   -2.5220112   -1.8190193  0.044923041   -2.5220112   0.70299183   421013 
 1107000   0.63261739   -2.5207523   -2.5207523   -1.8187129  0.058591584   -2.5207523   0.70203937   421013 
 1108000   0.63333713    -2.521514    -2.521514   -1.8186759  0.045811166    -2.521514   0.70283809   421013 
 1109000    0.6337293   -2.5210108   -2.5210108   -1.8177375  0.055514336   -2.5210108    0.7032733   421013 
 1110000   0.63288024    -2.520322    -2.520322   -1.8179909  0.052888295    -2.520322   0.70233107   421013 
 1111000   0.63241505   -2.5198047   -2.5198047   -1.8179899   0.05529523   -2.5198047   0.70181483   421013 
 1112000   0.63403044   -2.5220184   -2.5220184   -1.8184109  0.045986525   -2.5220184   0.70360748   421013 
 1113000   0.63279407   -2.5209796   -2.5209796   -1.8187442  0.054930557   -2.5209796   0.70223544   421013 
 1114000   0.63182958   -2.5204752   -2.5204752   -1.8193101  0.044535053   -2.5204752   0.70116511   421013 
 1115000   0.63221691   -2.5207278   -2.5207278   -1.8191329  0.055787378   -2.5207278   0.70159495   421013 
 1116000   0.63255346   -2.5219455   -2.5219455   -1.8199771  0.056264356   -2.5219455   0.70196842   421013 
 1117000   0.63176359   -2.5222311   -2.5222311   -1.8211393  0.042528211   -2.5222311   0.70109187   421013 
 1118000   0.63094007   -2.5206793   -2.5206793   -1.8205013  0.057389918   -2.5206793   0.70017798   421013 
 1119000   0.63164202   -2.5225047   -2.5225047   -1.8215478  0.050321886   -2.5225047   0.70095696   421013 
 1120000   0.63204023   -2.5227096   -2.5227096   -1.8213107  0.057716455   -2.5227096   0.70139888   421013 
 1121000   0.63036047   -2.5218767   -2.5218767   -1.8223419  0.054726509   -2.5218767   0.69953479   421013 
 1122000   0.63190473   -2.5242234   -2.5242234   -1.8229749  0.048158583   -2.5242234    0.7012485   421013 
 1123000   0.63148615   -2.5239828   -2.5239828   -1.8231988  0.048535503   -2.5239828   0.70078399   421013 
 1124000   0.63133525   -2.5237497   -2.5237497   -1.8231331  0.056164103   -2.5237497   0.70061654   421013 
 1125000   0.63279234   -2.5255564   -2.5255564   -1.8233229  0.054704373   -2.5255564   0.70223352   421013 
 1126000   0.63317414   -2.5260875   -2.5260875   -1.8234303  0.047750286   -2.5260875   0.70265721   421013 
 1127000   0.63222431   -2.5263467   -2.5263467   -1.8247436  0.047157783   -2.5263467   0.70160316   421013 
 1128000   0.63314279   -2.5269943   -2.5269943   -1.8243719  0.052116516   -2.5269943   0.70262242   421013 
 1129000   0.63140842   -2.5251815   -2.5251815   -1.8244837  0.066818907   -2.5251815   0.70069773   421013 
 1130000      0.63253   -2.5262595   -2.5262595   -1.8243171  0.046739862   -2.5262595   0.70194239   421013 
 1131000   0.63080676   -2.5261215   -2.5261215   -1.8260914  0.044695766   -2.5261215   0.70003005   421013 
 1132000   0.63090218   -2.5259121   -2.5259121   -1.8257762  0.043093149   -2.5259121   0.70013593   421013 
 1133000   0.63084299   -2.5266751   -2.5266751   -1.8266048  0.062595682   -2.5266751   0.70007025   421013 
 1134000   0.63095425   -2.5259379   -2.5259379   -1.8257442  0.050668455   -2.5259379   0.70019373   421013 
 1135000   0.63100282    -2.525787    -2.525787   -1.8255394  0.048682361    -2.525787   0.70024762   421013 
 1136000   0.62963703   -2.5245897   -2.5245897   -1.8258577  0.054970308   -2.5245897   0.69873195   421013 
 1137000   0.62993251   -2.5257341   -2.5257341   -1.8266742  0.043111018   -2.5257341   0.69905986   421013 
 1138000   0.63084699   -2.5266345   -2.5266345   -1.8265599  0.051899232   -2.5266345   0.70007469   421013 
 1139000   0.63102832    -2.526163    -2.526163   -1.8258871  0.045446321    -2.526163   0.70027592   421013 
 1140000   0.63200977   -2.5268328   -2.5268328   -1.8254677  0.055133322   -2.5268328   0.70136507   421013 
 1141000   0.63269596   -2.5274018   -2.5274018   -1.8252752  0.045036119   -2.5274018   0.70212657   421013 
 1142000   0.63175656   -2.5266571   -2.5266571   -1.8255731  0.051111255   -2.5266571   0.70108408   421013 
 1143000   0.63097236   -2.5258033   -2.5258033   -1.8255895  0.044072669   -2.5258033   0.70021381   421013 
 1144000   0.63081847   -2.5255235   -2.5255235   -1.8254805  0.051743655   -2.5255235   0.70004304   421013 
 1145000   0.63206713   -2.5269139   -2.5269139   -1.8254852  0.039136164   -2.5269139   0.70142873   421013 
 1146000   0.63301692   -2.5276857   -2.5276857    -1.825203  0.053210124   -2.5276857   0.70248274   421013 
 1147000   0.63094278   -2.5263935   -2.5263935   -1.8262125  0.050404887   -2.5263935   0.70018099   421013 
 1148000   0.63148838    -2.527147    -2.527147   -1.8263605  0.050515733    -2.527147   0.70078646   421013 
 1149000   0.63131829   -2.5266057   -2.5266057    -1.826008  0.045865175   -2.5266057    0.7005977   421013 
 1150000   0.63172338    -2.527567    -2.527567   -1.8265197  0.056898095    -2.527567   0.70104725   421013 
 1151000   0.63120977   -2.5271022   -2.5271022   -1.8266249  0.043282582   -2.5271022   0.70047728   421013 
 1152000   0.63071749   -2.5265146   -2.5265146   -1.8265836  0.050046906   -2.5265146   0.69993098   421013 
 1153000   0.63093427   -2.5268622   -2.5268622   -1.8266907  0.044683539   -2.5268622   0.70017154   421013 
 1154000   0.63083755   -2.5266323   -2.5266323   -1.8265681  0.049631117   -2.5266323   0.70006422   421013 
 1155000   0.63048976   -2.5274573   -2.5274573    -1.827779  0.045872004   -2.5274573   0.69967826   421013 
 1156000   0.63124887   -2.5280372   -2.5280372   -1.8275165  0.048127046   -2.5280372   0.70052067   421013 
 1157000    0.6302159   -2.5272073   -2.5272073    -1.827833  0.054374662   -2.5272073   0.69937435   421013 
 1158000   0.63164575   -2.5285502   -2.5285502   -1.8275891  0.056673145   -2.5285502    0.7009611   421013 
 1159000   0.63092914   -2.5282318   -2.5282318    -1.828066  0.049527576   -2.5282318   0.70016585   421013 
 1160000   0.62986202   -2.5267407   -2.5267407    -1.827759  0.054082813   -2.5267407   0.69898163   421013 
 1161000   0.63138889   -2.5284172   -2.5284172   -1.8277411  0.053086004   -2.5284172   0.70067606   421013 
 1162000   0.63218671   -2.5292133   -2.5292133   -1.8276518  0.046419703   -2.5292133   0.70156143   421013 
 1163000   0.63202607    -2.528554    -2.528554   -1.8271708  0.060795932    -2.528554   0.70138316   421013 
 1164000   0.63305689   -2.5304442   -2.5304442   -1.8279171  0.056188228   -2.5304442    0.7025271   421013 
 1165000   0.63000144   -2.5273341   -2.5273341   -1.8281978  0.054550463   -2.5273341   0.69913635   421013 
 1166000   0.63159687   -2.5298758   -2.5298758    -1.828969  0.048997723   -2.5298758   0.70090686   421013 
 1167000   0.63141002     -2.53026     -2.53026   -1.8295605   0.04287577     -2.53026   0.70069951   421013 
 1168000   0.63157396   -2.5300274   -2.5300274    -1.829146  0.042708992   -2.5300274   0.70088144   421013 
 1169000   0.63056491   -2.5284924   -2.5284924   -1.8287308   0.04473632   -2.5284924   0.69976166   421013 
 1170000    0.6304859   -2.5285832   -2.5285832   -1.8289092  0.052053244   -2.5285832   0.69967397   421013 
 1171000    0.6317743    -2.529762    -2.529762   -1.8286583  0.048691897    -2.529762   0.70110376   421013 
 1172000   0.63178912   -2.5299762   -2.5299762    -1.828856  0.055872948   -2.5299762    0.7011202   421013 
 1173000   0.63173416   -2.5293388   -2.5293388   -1.8282796  0.046617384   -2.5293388   0.70105921   421013 
 1174000   0.62995445   -2.5275178   -2.5275178   -1.8284336  0.042715518   -2.5275178   0.69908421   421013 
 1175000   0.63118884   -2.5289961   -2.5289961    -1.828542  0.042939042   -2.5289961   0.70045406   421013 
 1176000   0.63046358   -2.5293997   -2.5293997   -1.8297504  0.047245598   -2.5293997   0.69964921   421013 
 1177000   0.62998765   -2.5290058   -2.5290058   -1.8298848  0.053197924   -2.5290058   0.69912105   421013 
 1178000   0.63035315   -2.5298036   -2.5298036   -1.8302769  0.043452532   -2.5298036   0.69952666   421013 
 1179000   0.63082612   -2.5302889   -2.5302889   -1.8302374  0.054416586   -2.5302889   0.70005153   421013 
 1180000    0.6312547   -2.5305926   -2.5305926   -1.8300655  0.053200586   -2.5305926   0.70052714   421013 
 1181000   0.63058047   -2.5307925   -2.5307925   -1.8310136  0.045950011   -2.5307925   0.69977892   421013 
 1182000   0.63169796   -2.5319557   -2.5319557   -1.8309367  0.044317234   -2.5319557   0.70101904   421013 
 1183000   0.63043465   -2.5307039   -2.5307039   -1.8310868  0.046969492   -2.5307039    0.6996171   421013 
 1184000    0.6291882   -2.5292982   -2.5292982   -1.8310644  0.051693398   -2.5292982   0.69823387   421013 
 1185000   0.63049183   -2.5304149   -2.5304149   -1.8307343  0.050751027   -2.5304149   0.69968056   421013 
 1186000    0.6299307    -2.529915    -2.529915   -1.8308571  0.052125968    -2.529915   0.69905785   421013 
 1187000   0.62964031   -2.5296744   -2.5296744   -1.8309388  0.046414796   -2.5296744   0.69873559   421013 
 1188000   0.63016132   -2.5308696   -2.5308696   -1.8315558  0.053570379   -2.5308696   0.69931377   421013 
 1189000   0.63000206   -2.5305805   -2.5305805   -1.8314435  0.045795841   -2.5305805   0.69913704   421013 
 1190000   0.63059006   -2.5314028   -2.5314028   -1.8316132  0.048755648   -2.5314028   0.69978957   421013 
 1191000   0.62862339   -2.5298851   -2.5298851   -1.8322781   0.04651059   -2.5298851   0.69760708   421013 
 1192000   0.63071966   -2.5318574   -2.5318574    -1.831924  0.039650183   -2.5318574   0.69993339   421013 
 1193000   0.63044385   -2.5313129   -2.5313129   -1.8316856   0.04402845   -2.5313129   0.69962731   421013 
 1194000   0.63014616   -2.5315734   -2.5315734   -1.8322764  0.041407938   -2.5315734   0.69929695   421013 
 1195000   0.63052579   -2.5319528   -2.5319528   -1.8322345  0.033724065   -2.5319528   0.69971824   421013 
 1196000   0.63122866   -2.5323064   -2.5323064   -1.8318081  0.046766627   -2.5323064   0.70049824   421013 
 1197000    0.6320317   -2.5330848   -2.5330848   -1.8316954  0.051232968   -2.5330848    0.7013894   421013 
 1198000   0.63076631   -2.5322328   -2.5322328   -1.8322477   0.04944037   -2.5322328   0.69998516   421013 
 1199000   0.63143557   -2.5339064   -2.5339064   -1.8331786  0.044404049   -2.5339064   0.70072786   421013 
 1200000   0.62950782   -2.5324727   -2.5324727   -1.8338841  0.046302572   -2.5324727   0.69858856   421013 
 1201000   0.63015409   -2.5333051   -2.5333051   -1.8339993  0.044739018   -2.5333051   0.69930575   421013 
 1202000    0.6306579   -2.5342839   -2.5342839    -1.834419  0.046777921   -2.5342839   0.69986485   421013 
 1203000   0.63043731   -2.5337224   -2.5337224   -1.8341023  0.037413961   -2.5337224   0.69962005   421013 
 1204000   0.63049122   -2.5335337   -2.5335337   -1.8338538  0.056159971   -2.5335337   0.69967988   421013 
 1205000   0.63003326   -2.5332883   -2.5332883   -1.8341167  0.045414678   -2.5332883   0.69917166   421013 
 1206000   0.62890803   -2.5322057   -2.5322057   -1.8342828  0.035300387   -2.5322057   0.69792295   421013 
 1207000   0.62911336   -2.5325509   -2.5325509   -1.8344001  0.044321191   -2.5325509   0.69815081   421013 
 1208000   0.63050742   -2.5343601   -2.5343601   -1.8346623  0.042036345   -2.5343601   0.69969785   421013 
 1209000   0.63049029   -2.5343145   -2.5343145   -1.8346356  0.048877211   -2.5343145   0.69967885   421013 
 1210000   0.62987539   -2.5339329   -2.5339329   -1.8349364  0.046417663   -2.5339329   0.69899647   421013 
 1211000   0.63022821   -2.5350294   -2.5350294   -1.8356414  0.045932091   -2.5350294   0.69938801   421013 
 1212000   0.62997146   -2.5352245   -2.5352245   -1.8361215   0.05080314   -2.5352245   0.69910308   421013 
 1213000   0.62931043   -2.5352548   -2.5352548   -1.8368853  0.044419433   -2.5352548   0.69836952   421013 
 1214000   0.62952699   -2.5354587   -2.5354587   -1.8368488   0.04838507   -2.5354587   0.69860983   421013 
 1215000   0.62910355    -2.535395    -2.535395   -1.8372551  0.040728218    -2.535395   0.69813993   421013 
 1216000   0.63022617   -2.5366867   -2.5366867   -1.8373009  0.049180368   -2.5366867   0.69938574   421013 
 1217000   0.63034038   -2.5371031   -2.5371031   -1.8375906  0.051403416   -2.5371031   0.69951248   421013 
 1218000   0.63013377    -2.537015    -2.537015   -1.8377318  0.053340638    -2.537015    0.6992832   421013 
 1219000   0.63058674   -2.5376724   -2.5376724   -1.8378865  0.052995749   -2.5376724   0.69978589   421013 
 1220000   0.63180917   -2.5396333   -2.5396333   -1.8384908  0.046740748   -2.5396333   0.70114246   421013 
 1221000   0.63035954   -2.5375563   -2.5375563   -1.8380226  0.052995617   -2.5375563   0.69953375   421013 
 1222000   0.62878778   -2.5366048   -2.5366048   -1.8388153  0.042983955   -2.5366048   0.69778951   421013 
 1223000   0.62954438   -2.5372669   -2.5372669   -1.8386377  0.044390433   -2.5372669   0.69862914   421013 
 1224000    0.6298748   -2.5382802   -2.5382802   -1.8392844  0.039658258   -2.5382802   0.69899582   421013 
 1225000   0.62922467   -2.5372448   -2.5372448   -1.8389705   0.04739019   -2.5372448   0.69827435   421013 
 1226000   0.62916397   -2.5372287   -2.5372287   -1.8390217  0.038191924   -2.5372287   0.69820698   421013 
 1227000   0.62908813   -2.5373249   -2.5373249   -1.8392021  0.046315883   -2.5373249   0.69812282   421013 
 1228000   0.62995193   -2.5380556   -2.5380556   -1.8389742  0.043654695   -2.5380556   0.69908141   421013 
 1229000   0.62963608   -2.5383622   -2.5383622   -1.8396313  0.053344838   -2.5383622   0.69873089   421013 
 1230000   0.62952515   -2.5385821   -2.5385821   -1.8399743   0.04071157   -2.5385821   0.69860779   421013 
 1231000   0.62954179    -2.538817    -2.538817   -1.8401908  0.040520341    -2.538817   0.69862627   421013 
 1232000   0.62732955   -2.5364196   -2.5364196   -1.8402484  0.040098327   -2.5364196   0.69617126   421013 
 1233000   0.62828729   -2.5385929   -2.5385929   -1.8413588  0.045354817   -2.5385929    0.6972341   421013 
 1234000   0.62811474   -2.5389599   -2.5389599   -1.8419173  0.048208973   -2.5389599   0.69704261   421013 
 1235000   0.62938043   -2.5413458   -2.5413458   -1.8428986  0.048466133   -2.5413458    0.6984472   421013 
 1236000   0.62861636   -2.5405515   -2.5405515   -1.8429523  0.042683034   -2.5405515   0.69759928   421013 
 1237000   0.62893042   -2.5409657   -2.5409657   -1.8430179  0.052968578   -2.5409657    0.6979478   421013 
 1238000   0.62883273   -2.5412705   -2.5412705   -1.8434311  0.048910099   -2.5412705   0.69783938   421013 
 1239000   0.62932372   -2.5420588   -2.5420588   -1.8436745  0.056883895   -2.5420588   0.69838426   421013 
 1240000    0.6292297   -2.5421556   -2.5421556   -1.8438757  0.047513395   -2.5421556   0.69827993   421013 
 1241000   0.62921045   -2.5421454   -2.5421454   -1.8438869  0.055698304   -2.5421454   0.69825856   421013 
 1242000   0.62691749   -2.5394202   -2.5394202   -1.8437062  0.051907629   -2.5394202   0.69571397   421013 
 1243000   0.62888529   -2.5414103   -2.5414103   -1.8435126  0.048285596   -2.5414103   0.69789772   421013 
 1244000   0.62853528   -2.5408916   -2.5408916   -1.8433823  0.052269825   -2.5408916    0.6975093   421013 
 1245000   0.62930913   -2.5412233   -2.5412233   -1.8428553  0.047903443   -2.5412233   0.69836807   421013 
 1246000   0.63010316   -2.5430669   -2.5430669   -1.8438177  0.047702039   -2.5430669   0.69924923   421013 
 1247000   0.62967738   -2.5423358   -2.5423358    -1.843559  0.061901361   -2.5423358   0.69877673   421013 
 1248000   0.62896381   -2.5420226   -2.5420226   -1.8440378  0.049386834   -2.5420226   0.69798486   421013 
 1249000   0.62854957   -2.5415531   -2.5415531    -1.844028   0.04548264   -2.5415531   0.69752516   421013 
 1250000   0.62833552   -2.5406873   -2.5406873   -1.8433997  0.044849455   -2.5406873   0.69728762   421013 
 1251000   0.62762174   -2.5399371   -2.5399371   -1.8434416  0.042538125   -2.5399371   0.69649551   421013 
 1252000   0.62813497   -2.5400558   -2.5400558   -1.8429908    0.0479973   -2.5400558   0.69706505   421013 
 1253000   0.62993641   -2.5420787   -2.5420787   -1.8430146   0.04827876   -2.5420787   0.69906418   421013 
 1254000   0.62840941   -2.5411294   -2.5411294   -1.8437598  0.049390101   -2.5411294   0.69736962   421013 
 1255000    0.6287521   -2.5412818   -2.5412818   -1.8435319  0.049666414   -2.5412818   0.69774991   421013 
 1256000   0.62867337   -2.5423774   -2.5423774   -1.8447149  0.057845395   -2.5423774   0.69766254   421013 
 1257000   0.62771449   -2.5411826   -2.5411826   -1.8445841  0.039600479   -2.5411826   0.69659844   421013 
 1258000   0.62932483   -2.5424567   -2.5424567   -1.8440712  0.048660839   -2.5424567    0.6983855   421013 
 1259000   0.62889319   -2.5418587   -2.5418587   -1.8439522  0.046481237   -2.5418587   0.69790649   421013 
 1260000   0.62827568   -2.5412082   -2.5412082    -1.843987  0.045953255   -2.5412082   0.69722121   421013 
 1261000   0.62821424   -2.5412515   -2.5412515   -1.8440985  0.052633103   -2.5412515   0.69715303   421013 
 1262000   0.62901766   -2.5418755   -2.5418755   -1.8438309  0.055460363   -2.5418755   0.69804461   421013 
 1263000   0.62739072   -2.5408396   -2.5408396   -1.8446004  0.047319093   -2.5408396   0.69623914   421013 
 1264000   0.62803408   -2.5415531   -2.5415531      -1.8446  0.046412571   -2.5415531    0.6969531   421013 
 1265000   0.62790151   -2.5416363   -2.5416363   -1.8448304  0.056391134   -2.5416363   0.69680599   421013 
 1266000   0.62852319   -2.5423137   -2.5423137   -1.8448179  0.052610973   -2.5423137   0.69749588   421013 
 1267000    0.6280043   -2.5410388   -2.5410388   -1.8441188  0.051298449   -2.5410388   0.69692005   421013 
 1268000   0.62777782   -2.5409388   -2.5409388     -1.84427  0.044773468   -2.5409388   0.69666872   421013 
 1269000   0.62829405   -2.5412221   -2.5412221   -1.8439805  0.052200991   -2.5412221    0.6972416   421013 
 1270000   0.62924139   -2.5424818   -2.5424818   -1.8441889  0.046630307   -2.5424818    0.6982929   421013 
 1271000   0.62795672   -2.5416275   -2.5416275   -1.8447603   0.04982967   -2.5416275   0.69686725   421013 
 1272000   0.62706055   -2.5403978   -2.5403978   -1.8445251  0.039216883   -2.5403978   0.69587274   421013 
 1273000   0.62813432   -2.5422263   -2.5422263   -1.8451619  0.041025129   -2.5422263   0.69706434   421013 
 1274000    0.6274665   -2.5414342   -2.5414342    -1.845111  0.049080308   -2.5414342   0.69632324   421013 
 1275000   0.62725251   -2.5417343   -2.5417343   -1.8456485  0.038080538   -2.5417343   0.69608576   421013 
 1276000   0.62582167   -2.5401084   -2.5401084   -1.8456105  0.037800299   -2.5401084    0.6944979   421013 
 1277000   0.62762808   -2.5423557   -2.5423557   -1.8458531   0.04172245   -2.5423557   0.69650254   421013 
 1278000   0.62903111   -2.5440819   -2.5440819   -1.8460224  0.048344249   -2.5440819   0.69805954   421013 
 1279000   0.62953438    -2.544385    -2.544385    -1.845767  0.053905236    -2.544385   0.69861804   421013 
 1280000   0.62848127   -2.5434602   -2.5434602   -1.8460108  0.052282499   -2.5434602   0.69744936   421013 
 1281000   0.62866046   -2.5438357   -2.5438357   -1.8461875  0.041552488   -2.5438357   0.69764822   421013 
 1282000   0.62881735   -2.5442816   -2.5442816   -1.8464593  0.049461914   -2.5442816   0.69782233   421013 
 1283000   0.62854095    -2.544041    -2.544041   -1.8465254  0.043895387    -2.544041   0.69751559   421013 
 1284000   0.62757447   -2.5440567   -2.5440567   -1.8476136  0.052916258   -2.5440567   0.69644306   421013 
 1285000   0.62957625   -2.5455389   -2.5455389   -1.8468744  0.046538454   -2.5455389    0.6986645   421013 
 1286000   0.62714134   -2.5430916   -2.5430916   -1.8471292  0.044387882   -2.5430916   0.69596239   421013 
 1287000   0.62720741   -2.5438529   -2.5438529   -1.8478172  0.047339784   -2.5438529   0.69603571   421013 
 1288000    0.6268965    -2.543747    -2.543747   -1.8480564  0.044191194    -2.543747   0.69569068   421013 
 1289000   0.62874562   -2.5459313   -2.5459313   -1.8481885  0.048936716   -2.5459313   0.69774272   421013 
 1290000   0.62869507   -2.5461198   -2.5461198   -1.8484332  0.043539223   -2.5461198   0.69768663   421013 
 1291000   0.62891577   -2.5465807   -2.5465807   -1.8486491  0.050026041   -2.5465807   0.69793154   421013 
 1292000   0.62839801   -2.5461365   -2.5461365   -1.8487796  0.048722703   -2.5461365   0.69735697   421013 
 1293000   0.62835531   -2.5466887   -2.5466887   -1.8493791  0.048715159   -2.5466887   0.69730958   421013 
 1294000   0.62685442   -2.5449386   -2.5449386   -1.8492946  0.045969249   -2.5449386   0.69564399   421013 
 1295000   0.62710685   -2.5453151   -2.5453151    -1.849391  0.044409618   -2.5453151   0.69592412   421013 
 1296000   0.62796439   -2.5465488   -2.5465488    -1.849673  0.047552959   -2.5465488   0.69687576   421013 
 1297000   0.62802446   -2.5463251   -2.5463251   -1.8493827  0.043822269   -2.5463251   0.69694242   421013 
 1298000   0.62821215   -2.5468132   -2.5468132   -1.8496624  0.046475455   -2.5468132   0.69715071   421013 
 1299000   0.62706982   -2.5456464   -2.5456464   -1.8497634  0.048312986   -2.5456464   0.69588302   421013 
 1300000   0.62779078   -2.5466816   -2.5466816   -1.8499985   0.04493578   -2.5466816   0.69668309   421013 
 1301000   0.62731056   -2.5452487   -2.5452487   -1.8490985  0.040577576   -2.5452487   0.69615018   421013 
 1302000   0.62761724   -2.5466793   -2.5466793   -1.8501888  0.044035897   -2.5466793   0.69649052   421013 
 1303000   0.62775562   -2.5475589   -2.5475589   -1.8509148  0.042503855   -2.5475589   0.69664408   421013 
 1304000   0.62768833    -2.548122    -2.548122   -1.8515526  0.048758732    -2.548122   0.69656941   421013 
 1305000   0.62721372   -2.5483273   -2.5483273   -1.8522846  0.049852329   -2.5483273   0.69604272   421013 
 1306000   0.62831804   -2.5497815   -2.5497815   -1.8525133  0.054508131   -2.5497815   0.69726822   421013 
 1307000   0.62712313   -2.5483245   -2.5483245   -1.8523824  0.054272703   -2.5483245   0.69594218   421013 
 1308000   0.62734541   -2.5484012   -2.5484012   -1.8522124  0.052411086   -2.5484012   0.69618886   421013 
 1309000   0.62841069   -2.5499183   -2.5499183   -1.8525473  0.050523706   -2.5499183   0.69737103   421013 
 1310000   0.62707291    -2.548393    -2.548393   -1.8525065   0.04705734    -2.548393   0.69588645   421013 
 1311000   0.62725094   -2.5487843   -2.5487843   -1.8527002  0.049257616   -2.5487843   0.69608402   421013 
 1312000   0.62587339   -2.5488201   -2.5488201   -1.8542648  0.040653711   -2.5488201    0.6945553   421013 
 1313000   0.62638439    -2.549776    -2.549776   -1.8546536   0.05007472    -2.549776   0.69512238   421013 
 1314000   0.62714398   -2.5505457   -2.5505457   -1.8545804  0.045195061   -2.5505457   0.69596532   421013 
 1315000   0.62751062   -2.5504944   -2.5504944   -1.8541222  0.042849177   -2.5504944    0.6963722   421013 
 1316000   0.62709944   -2.5502065   -2.5502065   -1.8542906  0.049877336   -2.5502065    0.6959159   421013 
 1317000   0.62618611   -2.5480931   -2.5480931   -1.8531907  0.048649754   -2.5480931   0.69490233   421013 
 1318000   0.62643076   -2.5485734   -2.5485734   -1.8533996  0.054290805   -2.5485734   0.69517383   421013 
 1319000   0.62894726    -2.550921    -2.550921   -1.8529545  0.051039122    -2.550921   0.69796649   421013 
 1320000    0.6286993   -2.5507542   -2.5507542   -1.8530629  0.051835933   -2.5507542   0.69769131   421013 
 1321000   0.62802682   -2.5504454   -2.5504454   -1.8535004  0.052152955   -2.5504454   0.69694504   421013 
 1322000   0.62870172   -2.5509573   -2.5509573   -1.8532633  0.047579086   -2.5509573     0.697694   421013 
 1323000   0.62761562   -2.5498704   -2.5498704   -1.8533817  0.052907748   -2.5498704   0.69648871   421013 
 1324000    0.6279146   -2.5505566   -2.5505566   -1.8537361  0.043062301   -2.5505566    0.6968205   421013 
 1325000   0.62743532   -2.5503536   -2.5503536   -1.8540649  0.059472397   -2.5503536   0.69628863   421013 
 1326000   0.62755366   -2.5506356   -2.5506356   -1.8542156  0.046444557   -2.5506356   0.69641996   421013 
 1327000   0.62708204   -2.5501591   -2.5501591   -1.8542625  0.045337297   -2.5501591   0.69589658   421013 
 1328000   0.62748029   -2.5502422   -2.5502422   -1.8539037  0.049912324   -2.5502422   0.69633853   421013 
 1329000   0.62708805   -2.5505204   -2.5505204   -1.8546171  0.044354609   -2.5505204   0.69590325   421013 
 1330000   0.62696566   -2.5503444   -2.5503444    -1.854577  0.041463505   -2.5503444   0.69576743   421013 
 1331000     0.627206     -2.55102     -2.55102   -1.8549859  0.047540196     -2.55102   0.69603414   421013 
 1332000   0.62728581   -2.5509639   -2.5509639   -1.8548411  0.049135133   -2.5509639   0.69612272   421013 
 1333000   0.62643622   -2.5507795   -2.5507795   -1.8555996  0.049499461   -2.5507795    0.6951799   421013 
 1334000    0.6276433   -2.5522143   -2.5522143   -1.8556948  0.050998686   -2.5522143   0.69651944   421013 
 1335000   0.62738852   -2.5519062   -2.5519062   -1.8556695  0.046262495   -2.5519062    0.6962367   421013 
 1336000   0.62788299   -2.5518054   -2.5518054   -1.8550199  0.060123676   -2.5518054   0.69678543   421013 
 1337000   0.62718089   -2.5502996   -2.5502996   -1.8542933   0.04971855   -2.5502996   0.69600629   421013 
 1338000   0.62722011   -2.5511679   -2.5511679   -1.8551181  0.051401424   -2.5511679   0.69604981   421013 
 1339000   0.62648998   -2.5511411   -2.5511411   -1.8559016  0.035529801   -2.5511411   0.69523955   421013 
 1340000   0.62678058    -2.551469    -2.551469    -1.855907  0.049018186    -2.551469   0.69556204   421013 
 1341000   0.62727926   -2.5526229   -2.5526229   -1.8565074  0.043863461   -2.5526229   0.69611544   421013 
 1342000   0.62731446   -2.5525389   -2.5525389   -1.8563844  0.042187153   -2.5525389   0.69615451   421013 
 1343000   0.62756573   -2.5531906   -2.5531906   -1.8567572  0.048150095   -2.5531906   0.69643335   421013 
 1344000   0.62645802     -2.55126     -2.55126   -1.8560559  0.039766995     -2.55126   0.69520409   421013 
 1345000   0.62811948   -2.5531392   -2.5531392   -1.8560913  0.057192659   -2.5531392   0.69704787   421013 
 1346000   0.62629113   -2.5515836   -2.5515836   -1.8565647   0.04885582   -2.5515836   0.69501888   421013 
 1347000   0.62707888   -2.5525905   -2.5525905   -1.8566974  0.050607526   -2.5525905   0.69589307   421013 
 1348000   0.62631477   -2.5514837   -2.5514837   -1.8564385  0.033849421   -2.5514837   0.69504512   421013 
 1349000   0.62653725   -2.5520992   -2.5520992   -1.8568072  0.042674879   -2.5520992   0.69529201   421013 
 1350000   0.62672044   -2.5510825   -2.5510825   -1.8555872  0.043554695   -2.5510825    0.6954953   421013 
 1351000   0.62578096   -2.5493703   -2.5493703   -1.8549175  0.040939991   -2.5493703   0.69445273   421013 
 1352000   0.62581605   -2.5500449   -2.5500449   -1.8555532   0.04975308   -2.5500449   0.69449167   421013 
 1353000   0.62621219   -2.5507801   -2.5507801   -1.8558488  0.043776938   -2.5507801   0.69493128   421013 
 1354000   0.62687725   -2.5509477   -2.5509477   -1.8552783  0.043762976   -2.5509477   0.69566932   421013 
 1355000   0.62838156   -2.5527333   -2.5527333   -1.8553946  0.046120202   -2.5527333   0.69733871   421013 
 1356000   0.62647457   -2.5512211   -2.5512211   -1.8559987  0.046794376   -2.5512211   0.69522245   421013 
 1357000   0.62761461   -2.5525592   -2.5525592   -1.8560716  0.038970376   -2.5525592   0.69648759   421013 
 1358000   0.62738743   -2.5523696   -2.5523696   -1.8561341   0.04237112   -2.5523696   0.69623548   421013 
 1359000   0.62753998   -2.5525847   -2.5525847   -1.8561799  0.049517761   -2.5525847   0.69640478   421013 
 1360000   0.62794694   -2.5532782   -2.5532782   -1.8564218    0.0409772   -2.5532782   0.69685639   421013 
 1361000   0.62617088   -2.5516448   -2.5516448   -1.8567594  0.046041319   -2.5516448   0.69488543   421013 
 1362000    0.6261751   -2.5514788   -2.5514788   -1.8565886  0.043169654   -2.5514788   0.69489012   421013 
 1363000   0.62671422   -2.5525971   -2.5525971   -1.8571087  0.056749812   -2.5525971    0.6954884   421013 
 1364000   0.62703437   -2.5539826   -2.5539826   -1.8581389  0.051896404   -2.5539826   0.69584368   421013 
 1365000   0.62580292   -2.5526139   -2.5526139   -1.8581368  0.048556052   -2.5526139    0.6944771   421013 
 1366000   0.62656514   -2.5532125   -2.5532125   -1.8578895  0.048533113   -2.5532125   0.69532296   421013 
 1367000   0.62760206   -2.5544062   -2.5544062   -1.8579325  0.050907223   -2.5544062   0.69647367   421013 
 1368000   0.62675833    -2.553222    -2.553222   -1.8576847  0.050086058    -2.553222   0.69553735   421013 
 1369000   0.62681833   -2.5533503   -2.5533503   -1.8577464  0.047294807   -2.5533503   0.69560394   421013 
 1370000   0.62699561   -2.5538801   -2.5538801   -1.8580795  0.052416472   -2.5538801   0.69580067   421013 
 1371000   0.62784244   -2.5549506   -2.5549506   -1.8582101  0.048569901   -2.5549506   0.69674043   421013 
 1372000   0.62728014   -2.5541839   -2.5541839   -1.8580675  0.048454057   -2.5541839   0.69611642   421013 
 1373000    0.6277774   -2.5537369   -2.5537369   -1.8570686   0.04967405   -2.5537369   0.69666825   421013 
 1374000   0.62707628   -2.5537894   -2.5537894   -1.8578992  0.048114514   -2.5537894   0.69589019   421013 
 1375000   0.62688933   -2.5541547   -2.5541547    -1.858472  0.046352147   -2.5541547   0.69568272   421013 
 1376000   0.62720374   -2.5543643   -2.5543643   -1.8583326   0.04283932   -2.5543643   0.69603163   421013 
 1377000   0.62612217   -2.5539542   -2.5539542   -1.8591228  0.052223357   -2.5539542   0.69483138   421013 
 1378000   0.62735496   -2.5553487   -2.5553487   -1.8591492  0.048515186   -2.5553487   0.69619945   421013 
 1379000   0.62576653   -2.5542093   -2.5542093   -1.8597726  0.050500585   -2.5542093   0.69443671   421013 
 1380000    0.6271892   -2.5555815   -2.5555815    -1.859566  0.044770748   -2.5555815    0.6960155   421013 
 1381000    0.6271815   -2.5560443   -2.5560443   -1.8600373   0.04598588   -2.5560443   0.69600695   421013 
 1382000   0.62613985   -2.5543285   -2.5543285   -1.8594775  0.039277755   -2.5543285     0.694851   421013 
 1383000   0.62641058   -2.5551537   -2.5551537   -1.8600023  0.047936094   -2.5551537   0.69515144   421013 
 1384000   0.62653659   -2.5558097   -2.5558097   -1.8605185  0.034281366   -2.5558097   0.69529127   421013 
 1385000   0.62638571   -2.5558055   -2.5558055   -1.8606817  0.045003744   -2.5558055   0.69512383   421013 
 1386000   0.62610857   -2.5560476   -2.5560476   -1.8612313  0.046904903   -2.5560476   0.69481629   421013 
 1387000   0.62494976   -2.5546534   -2.5546534    -1.861123  0.039706876   -2.5546534   0.69353031   421013 
 1388000    0.6248199   -2.5553611   -2.5553611   -1.8619749  0.055655048   -2.5553611    0.6933862   421013 
 1389000   0.62574269   -2.5559807   -2.5559807   -1.8615705  0.055319396   -2.5559807   0.69441025   421013 
 1390000   0.62354787   -2.5535428   -2.5535428   -1.8615682  0.044402206   -2.5535428   0.69197458   421013 
 1391000   0.62613934   -2.5563974   -2.5563974    -1.861547  0.044809931   -2.5563974   0.69485043   421013 
 1392000   0.62508235   -2.5553282   -2.5553282   -1.8616507   0.03847897   -2.5553282   0.69367745   421013 
 1393000   0.62567012   -2.5555277   -2.5555277    -1.861198  0.043457426   -2.5555277   0.69432972   421013 
 1394000   0.62468651   -2.5552131   -2.5552131   -1.8619749  0.042467429   -2.5552131   0.69323817   421013 
 1395000     0.626763   -2.5578324   -2.5578324   -1.8622898   0.04315552   -2.5578324   0.69554253   421013 
 1396000   0.62606388   -2.5571156   -2.5571156   -1.8623489  0.051813818   -2.5571156    0.6947667   421013 
 1397000   0.62602775   -2.5570573   -2.5570573   -1.8623307    0.0541654   -2.5570573    0.6947266   421013 
 1398000   0.62675534   -2.5584915   -2.5584915   -1.8629575  0.052652762   -2.5584915   0.69553404   421013 
 1399000   0.62611684   -2.5575673   -2.5575673   -1.8627418  0.044638645   -2.5575673   0.69482547   421013 
 1400000   0.62596106   -2.5570651   -2.5570651   -1.8624125  0.043190298   -2.5570651   0.69465258   421013 
 1401000   0.62584469   -2.5573884   -2.5573884   -1.8628649  0.043484448   -2.5573884   0.69452345   421013 
 1402000   0.62656588   -2.5588309   -2.5588309   -1.8635071  0.041078273   -2.5588309   0.69532378   421013 
 1403000   0.62697723   -2.5595605   -2.5595605   -1.8637802  0.046184834   -2.5595605   0.69578027   421013 
 1404000   0.62650042    -2.558957    -2.558957   -1.8637058  0.041835499    -2.558957   0.69525113   421013 
 1405000   0.62688719   -2.5598533   -2.5598533    -1.864173  0.055702763   -2.5598533   0.69568035   421013 
 1406000   0.62748022   -2.5605699   -2.5605699   -1.8642314  0.053603337   -2.5605699   0.69633846   421013 
 1407000   0.62736649   -2.5600578   -2.5600578   -1.8638455  0.039612648   -2.5600578   0.69621225   421013 
 1408000   0.62724717   -2.5596933   -2.5596933   -1.8636135  0.047090194   -2.5596933   0.69607983   421013 
 1409000   0.62522051   -2.5586614   -2.5586614   -1.8648306  0.045939677   -2.5586614   0.69383078   421013 
 1410000   0.62555899   -2.5586573   -2.5586573   -1.8644509  0.044560204   -2.5586573   0.69420639   421013 
 1411000   0.62606591   -2.5599314   -2.5599314   -1.8651625  0.048154935   -2.5599314   0.69476895   421013 
 1412000   0.62576001   -2.5596209   -2.5596209   -1.8651914  0.043698503   -2.5596209   0.69442948   421013 
 1413000   0.62570732   -2.5591094   -2.5591094   -1.8647384  0.049457103   -2.5591094     0.694371   421013 
 1414000   0.62607185   -2.5593957   -2.5593957   -1.8646201  0.048244777   -2.5593957   0.69477553   421013 
 1415000   0.62592429   -2.5601474   -2.5601474   -1.8655357  0.046701057   -2.5601474   0.69461178   421013 
 1416000   0.62553987   -2.5589107   -2.5589107   -1.8647255  0.037711381   -2.5589107   0.69418518   421013 
 1417000   0.62495353   -2.5595411   -2.5595411   -1.8660066   0.05178765   -2.5595411   0.69353449   421013 
 1418000   0.62581629   -2.5600811   -2.5600811   -1.8655892  0.053411501   -2.5600811   0.69449193   421013 
 1419000   0.62534254   -2.5598513   -2.5598513   -1.8658851  0.043898447   -2.5598513    0.6939662   421013 
 1420000    0.6256886   -2.5603655   -2.5603655   -1.8660152  0.051223157   -2.5603655   0.69435023   421013 
 1421000   0.62634002   -2.5612073   -2.5612073   -1.8661342  0.035242536   -2.5612073   0.69507314   421013 
 1422000   0.62552818   -2.5607927   -2.5607927   -1.8666205  0.044882625   -2.5607927   0.69417221   421013 
 1423000   0.62553616   -2.5607446   -2.5607446   -1.8665635  0.048529314   -2.5607446   0.69418106   421013 
 1424000    0.6258326   -2.5612628   -2.5612628   -1.8667528   0.05046982   -2.5612628   0.69451004   421013 
 1425000   0.62516239   -2.5611142   -2.5611142   -1.8673479  0.052023859   -2.5611142   0.69376628   421013 
 1426000   0.62425157   -2.5602004   -2.5602004   -1.8674449   0.04785498   -2.5602004   0.69275551   421013 
 1427000   0.62623588   -2.5623323   -2.5623323   -1.8673748   0.05044413   -2.5623323   0.69495757   421013 
 1428000   0.62495213   -2.5615652   -2.5615652   -1.8680322  0.039345331   -2.5615652   0.69353294   421013 
 1429000    0.6265085    -2.562908    -2.562908   -1.8676479   0.05020769    -2.562908    0.6952601   421013 
 1430000   0.62593767   -2.5625099   -2.5625099   -1.8678833  0.053764457   -2.5625099   0.69462663   421013 
 1431000   0.62482747   -2.5609368   -2.5609368   -1.8675422  0.049394346   -2.5609368    0.6933946   421013 
 1432000   0.62629136   -2.5619227   -2.5619227   -1.8669035   0.05064648   -2.5619227   0.69501914   421013 
 1433000   0.62545323   -2.5610921   -2.5610921    -1.867003  0.043889778   -2.5610921   0.69408904   421013 
 1434000   0.62445165   -2.5598237   -2.5598237   -1.8668461   0.04284664   -2.5598237   0.69297754   421013 
 1435000   0.62550686   -2.5612669   -2.5612669   -1.8671183  0.055291863   -2.5612669   0.69414854   421013 
 1436000   0.62657713   -2.5632163   -2.5632163   -1.8678801  0.050953985   -2.5632163   0.69533626   421013 
 1437000    0.6259719   -2.5635737   -2.5635737   -1.8689091  0.050004518   -2.5635737   0.69466462   421013 
 1438000   0.62630697   -2.5633579   -2.5633579   -1.8683214  0.050597645   -2.5633579   0.69503646   421013 
 1439000   0.62601918   -2.5631196   -2.5631196   -1.8684025  0.044971776   -2.5631196   0.69471708   421013 
 1440000   0.62598958   -2.5630125   -2.5630125   -1.8683282  0.045585483   -2.5630125   0.69468424   421013 
 1441000   0.62563813   -2.5630482   -2.5630482    -1.868754  0.040545665   -2.5630482   0.69429422   421013 
 1442000   0.62675737   -2.5643186   -2.5643186   -1.8687823   0.04695268   -2.5643186   0.69553629   421013 
 1443000   0.62430358   -2.5615162   -2.5615162    -1.868703  0.045107204   -2.5615162   0.69281322   421013 
 1444000   0.62552447   -2.5632068   -2.5632068   -1.8690388   0.03565589   -2.5632068   0.69416809   421013 
 1445000   0.62473649   -2.5619454   -2.5619454   -1.8686518  0.043923912   -2.5619454   0.69329364   421013 
 1446000   0.62371693   -2.5609269   -2.5609269   -1.8687648  0.039645148   -2.5609269    0.6921622   421013 
 1447000   0.62369003   -2.5608715   -2.5608715   -1.8687392  0.045212901   -2.5608715   0.69213234   421013 
 1448000   0.62449563   -2.5615129   -2.5615129   -1.8684866  0.045383834   -2.5615129   0.69302634   421013 
 1449000   0.62444007   -2.5621209   -2.5621209   -1.8691562  0.039980592   -2.5621209   0.69296469   421013 
 1450000   0.62600961   -2.5636597   -2.5636597   -1.8689532  0.046719974   -2.5636597   0.69470646   421013 
 1451000   0.62492859   -2.5628982   -2.5628982   -1.8693914  0.045438318   -2.5628982   0.69350682   421013 
 1452000   0.62619509   -2.5640594   -2.5640594   -1.8691472  0.043423905   -2.5640594    0.6949123   421013 
 1453000   0.62728982   -2.5651632   -2.5651632   -1.8690361  0.053494288   -2.5651632   0.69612716   421013 
 1454000   0.62693786   -2.5648344   -2.5648344   -1.8690978  0.052700468   -2.5648344   0.69573658   421013 
 1455000   0.62688237   -2.5645433   -2.5645433   -1.8688683  0.047796867   -2.5645433     0.695675   421013 
 1456000   0.62520368   -2.5631621   -2.5631621     -1.86935  0.039338799   -2.5631621   0.69381209   421013 
 1457000    0.6258197   -2.5644645   -2.5644645   -1.8699688   0.04851998   -2.5644645   0.69449572   421013 
 1458000   0.62662878   -2.5647755   -2.5647755   -1.8693819  0.057449858   -2.5647755   0.69539359   421013 
 1459000   0.62475852   -2.5633392   -2.5633392   -1.8700211  0.044926617   -2.5633392   0.69331809   421013 
 1460000   0.62654732   -2.5652358   -2.5652358   -1.8699327  0.042677929   -2.5652358   0.69530319   421013 
 1461000   0.62431994   -2.5632786   -2.5632786   -1.8704472  0.044467179   -2.5632786   0.69283138   421013 
 1462000   0.62497778    -2.564018    -2.564018   -1.8704566  0.045105621    -2.564018   0.69356141   421013 
 1463000   0.62556921   -2.5653377   -2.5653377     -1.87112   0.03016072   -2.5653377   0.69421774   421013 
 1464000   0.62554662   -2.5655218   -2.5655218   -1.8713291  0.039010591   -2.5655218   0.69419267   421013 
 1465000   0.62451551   -2.5638106   -2.5638106   -1.8707622  0.047817325   -2.5638106   0.69304841   421013 
 1466000   0.62524163   -2.5643798   -2.5643798   -1.8705256  0.042135207   -2.5643798   0.69385421   421013 
 1467000   0.62541406   -2.5653665   -2.5653665   -1.8713209  0.049755805   -2.5653665   0.69404557   421013 
 1468000   0.62602291   -2.5656787   -2.5656787   -1.8709575  0.050773917   -2.5656787   0.69472122   421013 
 1469000   0.62581026    -2.566332    -2.566332   -1.8718468  0.039265923    -2.566332   0.69448525   421013 
 1470000   0.62559745   -2.5659145   -2.5659145   -1.8716654  0.049969451   -2.5659145   0.69424908   421013 
 1471000   0.62714761   -2.5685509   -2.5685509   -1.8725815  0.041872728   -2.5685509   0.69596935   421013 
 1472000   0.62577809   -2.5664614   -2.5664614   -1.8720118  0.056202714   -2.5664614   0.69444954   421013 
 1473000   0.62512324   -2.5654424   -2.5654424   -1.8717196  0.045246631   -2.5654424   0.69372283   421013 
 1474000   0.62560137   -2.5659612   -2.5659612   -1.8717078  0.047528428   -2.5659612   0.69425343   421013 
 1475000   0.62431834   -2.5653843   -2.5653843   -1.8725547  0.046813512   -2.5653843   0.69282961   421013 
 1476000   0.62490557   -2.5660834   -2.5660834   -1.8726022  0.052686123   -2.5660834   0.69348127   421013 
 1477000   0.62499696    -2.565699    -2.565699   -1.8721163  0.044685718    -2.565699   0.69358269   421013 
 1478000   0.62468312   -2.5660145   -2.5660145   -1.8727801  0.040757866   -2.5660145   0.69323442   421013 
 1479000   0.62402884   -2.5656908   -2.5656908   -1.8731825  0.038898882   -2.5656908   0.69250833   421013 
 1480000   0.62616385   -2.5681645   -2.5681645   -1.8732868  0.042174472   -2.5681645   0.69487763   421013 
 1481000   0.62494576   -2.5665558   -2.5665558   -1.8730299   0.05000158   -2.5665558   0.69352588   421013 
 1482000   0.62399478    -2.565215    -2.565215   -1.8727444  0.043412715    -2.565215   0.69247053   421013 
 1483000   0.62409124   -2.5659574   -2.5659574   -1.8733798  0.046932437   -2.5659574   0.69257758   421013 
 1484000   0.62417067    -2.566101    -2.566101   -1.8734352  0.038915069    -2.566101   0.69266573   421013 
 1485000   0.62499373   -2.5665587   -2.5665587   -1.8729796  0.046495249   -2.5665587    0.6935791   421013 
 1486000   0.62515814   -2.5674958   -2.5674958   -1.8737343  0.049357221   -2.5674958   0.69376156   421013 
 1487000    0.6259327   -2.5683913   -2.5683913   -1.8737701  0.042893026   -2.5683913   0.69462111   421013 
 1488000   0.62516374   -2.5679455   -2.5679455   -1.8741777  0.050702317   -2.5679455   0.69376778   421013 
 1489000   0.62460739    -2.567563    -2.567563   -1.8744126  0.047636054    -2.567563   0.69315038   421013 
 1490000   0.62488494   -2.5684654   -2.5684654    -1.875007  0.043427471   -2.5684654   0.69345837   421013 
 1491000   0.62459491   -2.5678251   -2.5678251   -1.8746886  0.048734868   -2.5678251   0.69313652   421013 
 1492000   0.62552358   -2.5691376   -2.5691376   -1.8749705  0.051389241   -2.5691376   0.69416711   421013 
 1493000   0.62470234   -2.5680095   -2.5680095   -1.8747538  0.053396374   -2.5680095   0.69325574   421013 
 1494000    0.6252284   -2.5683036   -2.5683036   -1.8744641  0.048897512   -2.5683036   0.69383953   421013 
 1495000   0.62576497   -2.5700664   -2.5700664   -1.8756314  0.050175017   -2.5700664   0.69443498   421013 
 1496000   0.62569729   -2.5699633   -2.5699633   -1.8756034  0.052786612   -2.5699633   0.69435988   421013 
 1497000   0.62608955   -2.5703073   -2.5703073   -1.8755121  0.042432759   -2.5703073   0.69479518   421013 
 1498000   0.62461664   -2.5682857   -2.5682857    -1.875125  0.048991319   -2.5682857   0.69316064   421013 
 1499000   0.62309251   -2.5668278   -2.5668278   -1.8753586  0.056687011   -2.5668278   0.69146925   421013 
 1500000   0.62488273   -2.5690206   -2.5690206   -1.8755647  0.057521466   -2.5690206   0.69345593   421013 
 1501000   0.62452357   -2.5692946   -2.5692946   -1.8762373   0.03976788   -2.5692946   0.69305735   421013 
 1502000   0.62475946    -2.568625    -2.568625   -1.8753059  0.045992647    -2.568625   0.69331913   421013 
 1503000   0.62570599   -2.5700133   -2.5700133   -1.8756438  0.057101043   -2.5700133   0.69436953   421013 
 1504000   0.62389148   -2.5683592   -2.5683592   -1.8760033  0.051677888   -2.5683592   0.69235589   421013 
 1505000    0.6244961   -2.5689449   -2.5689449    -1.875918  0.051665639   -2.5689449   0.69302687   421013 
 1506000   0.62396323   -2.5685069   -2.5685069   -1.8760714  0.046130434   -2.5685069   0.69243552   421013 
 1507000   0.62360899   -2.5686437   -2.5686437   -1.8766013  0.062591389   -2.5686437    0.6920424   421013 
 1508000     0.624681   -2.5691204   -2.5691204   -1.8758883  0.043955781   -2.5691204   0.69323206   421013 
 1509000   0.62553053   -2.5695954   -2.5695954   -1.8754206  0.044592019   -2.5695954   0.69417481   421013 
 1510000   0.62408278   -2.5685452   -2.5685452    -1.875977  0.038510705   -2.5685452    0.6925682   421013 
 1511000   0.62474676    -2.569473    -2.569473    -1.876168  0.055937399    -2.569473   0.69330503   421013 
 1512000   0.62555532   -2.5700699   -2.5700699   -1.8758675  0.045932826   -2.5700699   0.69420233   421013 
 1513000   0.62592836   -2.5704826   -2.5704826   -1.8758663  0.047857189   -2.5704826    0.6946163   421013 
 1514000   0.62453047   -2.5693583   -2.5693583   -1.8762933  0.049942605   -2.5693583   0.69306501   421013 
 1515000    0.6241919    -2.569323    -2.569323   -1.8766338  0.050313051    -2.569323   0.69268928   421013 
 1516000   0.62468619   -2.5709134   -2.5709134   -1.8776756  0.045128536   -2.5709134   0.69323782   421013 
 1517000   0.62457509   -2.5713511   -2.5713511   -1.8782366  0.047216276   -2.5713511   0.69311453   421013 
 1518000   0.62453512   -2.5713248   -2.5713248   -1.8782546  0.048090465   -2.5713248   0.69307017   421013 
 1519000   0.62374478   -2.5705653   -2.5705653   -1.8783722  0.044149478   -2.5705653    0.6921931   421013 
 1520000   0.62453166   -2.5715866   -2.5715866   -1.8785203  0.044785228   -2.5715866   0.69306634   421013 
 1521000   0.62464934   -2.5714617   -2.5714617   -1.8782647  0.048864906   -2.5714617   0.69319692   421013 
 1522000   0.62599482   -2.5731104   -2.5731104   -1.8784204   0.05160679   -2.5731104   0.69469005   421013 
 1523000   0.62521784   -2.5725602   -2.5725602   -1.8787324  0.037806479   -2.5725602   0.69382781   421013 
 1524000   0.62636014   -2.5737145   -2.5737145   -1.8786191  0.044243965   -2.5737145   0.69509547   421013 
 1525000   0.62437525   -2.5715308   -2.5715308   -1.8786381  0.055641527   -2.5715308   0.69289275   421013 
 1526000   0.62575852   -2.5736571   -2.5736571   -1.8792292    0.0471165   -2.5736571   0.69442783   421013 
 1527000   0.62476843   -2.5722726   -2.5722726   -1.8789435  0.053531484   -2.5722726   0.69332908   421013 
 1528000   0.62462815   -2.5723522   -2.5723522   -1.8791788  0.046619511   -2.5723522    0.6931734   421013 
 1529000   0.62495927   -2.5728625   -2.5728625   -1.8793216  0.051745296   -2.5728625   0.69354086   421013 
 1530000   0.62460256   -2.5726712   -2.5726712   -1.8795262  0.053579076   -2.5726712   0.69314501   421013 
 1531000    0.6253997   -2.5729677   -2.5729677   -1.8789381  0.048834592   -2.5729677   0.69402963   421013 
 1532000   0.62433063    -2.572124    -2.572124   -1.8792807  0.043998579    -2.572124   0.69284324   421013 
 1533000   0.62513278   -2.5734115   -2.5734115   -1.8796781  0.052415283   -2.5734115   0.69373341   421013 
 1534000   0.62384097   -2.5723409   -2.5723409    -1.880041   0.03737505   -2.5723409   0.69229985   421013 
 1535000   0.62435276    -2.573679    -2.573679   -1.8808112  0.047430553    -2.573679   0.69286779   421013 
 1536000   0.62376602   -2.5732194   -2.5732194   -1.8810028  0.035090873   -2.5732194   0.69221667   421013 
 1537000   0.62390003   -2.5726573   -2.5726573   -1.8802919  0.049617432   -2.5726573   0.69236539   421013 
 1538000   0.62514575   -2.5745118   -2.5745118    -1.880764  0.050762612   -2.5745118   0.69374781   421013 
 1539000   0.62343754   -2.5726057   -2.5726057   -1.8807536  0.046823236   -2.5726057   0.69185214   421013 
 1540000   0.62371754   -2.5731509   -2.5731509    -1.880988  0.033803397   -2.5731509   0.69216287   421013 
 1541000   0.62350709   -2.5736346   -2.5736346   -1.8817053  0.043456164   -2.5736346   0.69192933   421013 
 1542000   0.62262481   -2.5725291   -2.5725291   -1.8815788  0.041883314   -2.5725291   0.69095022   421013 
 1543000   0.62369344   -2.5747912   -2.5747912    -1.882655  0.036977444   -2.5747912   0.69213612   421013 
 1544000   0.62410884   -2.5748749   -2.5748749   -1.8822778  0.050089053   -2.5748749   0.69259711   421013 
 1545000   0.62550113   -2.5764424   -2.5764424   -1.8823002  0.050519367   -2.5764424   0.69414219   421013 
 1546000   0.62431997   -2.5757036   -2.5757036   -1.8828722  0.044314651   -2.5757036   0.69283141   421013 
 1547000    0.6228863   -2.5740752   -2.5740752   -1.8828348  0.055877662   -2.5740752   0.69124041   421013 
 1548000   0.62381724   -2.5752016   -2.5752016   -1.8829281  0.045665313   -2.5752016   0.69227351   421013 
 1549000   0.62293142   -2.5745292   -2.5745292   -1.8832387  0.052258113   -2.5745292   0.69129049   421013 
 1550000   0.62357625   -2.5749042   -2.5749042   -1.8828982  0.047912091   -2.5749042   0.69200607   421013 
 1551000   0.62341209   -2.5746427   -2.5746427   -1.8828188  0.050278291   -2.5746427    0.6918239   421013 
 1552000   0.62370976   -2.5759613   -2.5759613    -1.883807  0.037821439   -2.5759613   0.69215424   421013 
 1553000   0.62381924   -2.5758851   -2.5758851   -1.8836093  0.042648667   -2.5758851   0.69227573   421013 
 1554000   0.62298376   -2.5752423   -2.5752423   -1.8838937  0.050838017   -2.5752423   0.69134857   421013 
 1555000   0.62380934   -2.5763638   -2.5763638    -1.884099  0.043326737   -2.5763638   0.69226475   421013 
 1556000    0.6238865   -2.5759613   -2.5759613   -1.8836109  0.045219661   -2.5759613   0.69235037   421013 
 1557000   0.62372058   -2.5763901   -2.5763901   -1.8842238  0.052537174   -2.5763901   0.69216624   421013 
 1558000   0.62405785   -2.5769697   -2.5769697   -1.8844291   0.04999203   -2.5769697   0.69254052   421013 
 1559000   0.62300796   -2.5757778   -2.5757778   -1.8844024  0.053607846   -2.5757778   0.69137542   421013 
 1560000   0.62419281    -2.577112    -2.577112   -1.8844217  0.047264124    -2.577112   0.69269029   421013 
 1561000   0.62361535   -2.5764641   -2.5764641   -1.8844146  0.046456427   -2.5764641   0.69204947   421013 
 1562000   0.62391314    -2.577354    -2.577354   -1.8849741  0.043944044    -2.577354   0.69237994   421013 
 1563000   0.62337171   -2.5761876   -2.5761876   -1.8844085  0.049512803   -2.5761876   0.69177909   421013 
 1564000   0.62470492   -2.5778559   -2.5778559   -1.8845973  0.050240492   -2.5778559    0.6932586   421013 
 1565000   0.62517278    -2.578291    -2.578291   -1.8845132  0.048759046    -2.578291    0.6937778   421013 
 1566000   0.62385813   -2.5773736   -2.5773736   -1.8850548  0.052406295   -2.5773736   0.69231889   421013 
 1567000   0.62479502   -2.5784874   -2.5784874   -1.8851289  0.047756003   -2.5784874   0.69335859   421013 
 1568000   0.62488868   -2.5788467   -2.5788467   -1.8853842  0.040021061   -2.5788467   0.69346252   421013 
 1569000   0.62384209   -2.5782339   -2.5782339   -1.8859328  0.053786713   -2.5782339   0.69230109   421013 
 1570000   0.62422336   -2.5790833   -2.5790833   -1.8863591  0.047123685   -2.5790833    0.6927242   421013 
 1571000   0.62376351   -2.5786794   -2.5786794   -1.8864655  0.042892984   -2.5786794   0.69221389   421013 
 1572000   0.62302211   -2.5780426   -2.5780426   -1.8866515  0.056618275   -2.5780426   0.69139112   421013 
 1573000   0.62295719   -2.5785483   -2.5785483   -1.8872292  0.045287024   -2.5785483   0.69131908   421013 
 1574000   0.62349395   -2.5796792   -2.5796792   -1.8877644  0.042320576   -2.5796792   0.69191474   421013 
 1575000   0.62226589   -2.5781451   -2.5781451   -1.8875932   0.04187028   -2.5781451   0.69055192   421013 
 1576000   0.62306774   -2.5788219   -2.5788219   -1.8873802  0.047569101   -2.5788219   0.69144176   421013 
 1577000   0.62356014   -2.5792857   -2.5792857   -1.8872975  0.050695298   -2.5792857    0.6919882   421013 
 1578000   0.62283416   -2.5790669   -2.5790669   -1.8878843  0.049397275   -2.5790669   0.69118256   421013 
 1579000   0.62354033   -2.5795848   -2.5795848   -1.8876186   0.04375545   -2.5795848   0.69196621   421013 
 1580000   0.62220607   -2.5782416   -2.5782416   -1.8877561  0.046611647   -2.5782416   0.69048554   421013 
 1581000   0.62293403   -2.5794485   -2.5794485   -1.8881551  0.041990799   -2.5794485   0.69129338   421013 
 1582000   0.62426931   -2.5801865   -2.5801865   -1.8874113  0.039146205   -2.5801865   0.69277519   421013 
 1583000   0.62229491   -2.5779801   -2.5779801    -1.887396  0.049179083   -2.5779801   0.69058413   421013 
 1584000   0.62408853   -2.5801315   -2.5801315   -1.8875569  0.045171679   -2.5801315   0.69257457   421013 
 1585000    0.6245922   -2.5809728   -2.5809728   -1.8878393  0.044538793   -2.5809728   0.69313352   421013 
 1586000   0.62405471   -2.5803522   -2.5803522   -1.8878151   0.04422476   -2.5803522   0.69253704   421013 
 1587000   0.62359506   -2.5798391   -2.5798391   -1.8878121  0.048841727   -2.5798391   0.69202695   421013 
 1588000   0.62183496   -2.5783806   -2.5783806   -1.8883069  0.047383975   -2.5783806    0.6900737   421013 
 1589000   0.62289689    -2.579713    -2.579713   -1.8884609  0.049528374    -2.579713   0.69125216   421013 
 1590000   0.62250122   -2.5800198   -2.5800198   -1.8892067  0.041775305   -2.5800198   0.69081307   421013 
 1591000   0.62264522   -2.5796851   -2.5796851   -1.8887122  0.042243116   -2.5796851   0.69097287   421013 
 1592000   0.62208926   -2.5787489   -2.5787489    -1.888393  0.043620171   -2.5787489   0.69035591   421013 
 1593000   0.62337142    -2.580705    -2.580705   -1.8889263  0.040390738    -2.580705   0.69177877   421013 
 1594000   0.62362017   -2.5803665   -2.5803665   -1.8883117  0.046087567   -2.5803665   0.69205482   421013 
 1595000   0.62258125   -2.5797889   -2.5797889    -1.888887  0.052676682   -2.5797889   0.69090188   421013 
 1596000   0.62232679   -2.5802101   -2.5802101   -1.8895906   0.04507098   -2.5802101    0.6906195   421013 
 1597000   0.62207946   -2.5802325   -2.5802325   -1.8898874  0.049370457   -2.5802325   0.69034503   421013 
 1598000   0.62322957   -2.5815287   -2.5815287   -1.8899073  0.041264829   -2.5815287   0.69162135   421013 
 1599000   0.62449419   -2.5830888   -2.5830888   -1.8900641  0.049529314   -2.5830888   0.69302475   421013 
 1600000   0.62220089   -2.5807002   -2.5807002   -1.8902205  0.047728595   -2.5807002   0.69047979   421013 
 1601000   0.62295835   -2.5813045   -2.5813045   -1.8899841  0.046016386   -2.5813045   0.69132037   421013 
 1602000   0.62261775   -2.5810628   -2.5810628   -1.8901204  0.044554307   -2.5810628    0.6909424   421013 
 1603000   0.62206469   -2.5805132   -2.5805132   -1.8901846  0.052014092   -2.5805132   0.69032865   421013 
 1604000   0.62212969   -2.5802102   -2.5802102   -1.8898094  0.046931484   -2.5802102   0.69040077   421013 
 1605000   0.62177031   -2.5795478   -2.5795478   -1.8895458  0.046486643   -2.5795478   0.69000196   421013 
 1606000   0.62195247   -2.5797434   -2.5797434   -1.8895393  0.041920677   -2.5797434   0.69020411   421013 
 1607000   0.62205516   -2.5796885   -2.5796885   -1.8893705  0.040746645   -2.5796885   0.69031806   421013 
 1608000   0.62282428   -2.5801024   -2.5801024   -1.8889308  0.051478937   -2.5801024   0.69117158   421013 
 1609000   0.62235542   -2.5806178   -2.5806178   -1.8899665  0.046766198   -2.5806178   0.69065127   421013 
 1610000   0.62331494   -2.5814811   -2.5814811    -1.889765  0.056101504   -2.5814811   0.69171609   421013 
 1611000   0.62053325    -2.578932    -2.578932   -1.8903029   0.04339633    -2.578932   0.68862915   421013 
 1612000   0.62335707   -2.5817746   -2.5817746   -1.8900118  0.037826708   -2.5817746   0.69176284   421013 
 1613000   0.62289044   -2.5815526   -2.5815526   -1.8903076  0.044080562   -2.5815526     0.691245   421013 
 1614000   0.62196727   -2.5801715   -2.5801715   -1.8899509  0.049739871   -2.5801715   0.69022053   421013 
 1615000   0.62199428   -2.5807244   -2.5807244   -1.8904739  0.054059758   -2.5807244    0.6902505   421013 
 1616000   0.62353675   -2.5824614   -2.5824614   -1.8904992  0.052575294   -2.5824614   0.69196224   421013 
 1617000   0.62266228   -2.5818204   -2.5818204   -1.8908286  0.048609919   -2.5818204   0.69099181   421013 
 1618000   0.62139289   -2.5806951   -2.5806951   -1.8911119    0.0451715   -2.5806951   0.68958312   421013 
 1619000   0.62278771   -2.5826837   -2.5826837   -1.8915527  0.049011255   -2.5826837     0.691131   421013 
 1620000   0.62320079    -2.582585    -2.582585   -1.8909956  0.055751971    -2.582585   0.69158941   421013 
 1621000   0.62219399   -2.5823839   -2.5823839   -1.8919118  0.045276798   -2.5823839   0.69047213   421013 
 1622000   0.62124027    -2.581618    -2.581618   -1.8922042  0.050730425    -2.581618   0.68941376   421013 
 1623000   0.62241399   -2.5836333   -2.5836333    -1.892917  0.050246603   -2.5836333   0.69071627   421013 
 1624000   0.62147743   -2.5820386   -2.5820386   -1.8923616  0.045712396   -2.5820386   0.68967694   421013 
 1625000   0.62170584   -2.5829768   -2.5829768   -1.8930464  0.047363639   -2.5829768   0.68993041   421013 
 1626000   0.62278152   -2.5832996   -2.5832996   -1.8921755  0.044738889   -2.5832996   0.69112413   421013 
 1627000   0.62198071   -2.5828539   -2.5828539   -1.8926184  0.042630081   -2.5828539   0.69023544   421013 
 1628000   0.62248739   -2.5833705   -2.5833705   -1.8925728  0.046470904   -2.5833705   0.69079772   421013 
 1629000   0.62254376   -2.5842049   -2.5842049   -1.8933447  0.051101074   -2.5842049   0.69086028   421013 
 1630000   0.62248168    -2.583558    -2.583558   -1.8927666  0.048629007    -2.583558   0.69079139   421013 
 1631000   0.62369005   -2.5846511   -2.5846511   -1.8925187  0.041527712   -2.5846511   0.69213236   421013 
 1632000   0.62368298    -2.585201    -2.585201   -1.8930765  0.046362018    -2.585201   0.69212452   421013 
 1633000   0.62241667   -2.5841624   -2.5841624   -1.8934432  0.045093096   -2.5841624   0.69071925   421013 
 1634000   0.62140269   -2.5833267   -2.5833267   -1.8937327  0.044300837   -2.5833267   0.68959399   421013 
 1635000    0.6217444   -2.5841962   -2.5841962    -1.894223   0.04561529   -2.5841962   0.68997321   421013 
 1636000   0.62148162   -2.5835212   -2.5835212   -1.8938396  0.045636431   -2.5835212   0.68968159   421013 
 1637000   0.62229847   -2.5845615   -2.5845615   -1.8939734  0.044051811   -2.5845615   0.69058808   421013 
 1638000   0.62232996   -2.5842153   -2.5842153   -1.8935922  0.049652127   -2.5842153   0.69062303   421013 
 1639000   0.62262184   -2.5842478   -2.5842478   -1.8933009  0.039711828   -2.5842478   0.69094693   421013 
 1640000   0.62307892   -2.5850064   -2.5850064   -1.8935523  0.041559838   -2.5850064   0.69145417   421013 
 1641000   0.62153865   -2.5833604   -2.5833604   -1.8936155  0.036196029   -2.5833604   0.68974487   421013 
 1642000   0.62210287   -2.5840876   -2.5840876   -1.8937165  0.043730675   -2.5840876   0.69037101   421013 
 1643000    0.6219133   -2.5840002   -2.5840002   -1.8938395  0.044769615   -2.5840002   0.69016064   421013 
 1644000   0.62312198   -2.5854041   -2.5854041   -1.8939021  0.046249174   -2.5854041   0.69150195   421013 
 1645000   0.62149303   -2.5846328   -2.5846328   -1.8949386  0.041110954   -2.5846328   0.68969425   421013 
 1646000   0.62186459   -2.5847415   -2.5847415   -1.8946349  0.045095595   -2.5847415   0.69010659   421013 
 1647000   0.62239782   -2.5846353   -2.5846353    -1.893937  0.048916867   -2.5846353   0.69069833   421013 
 1648000   0.62275395   -2.5852954   -2.5852954   -1.8942018  0.045097884   -2.5852954   0.69109354   421013 
 1649000   0.62194958   -2.5845677   -2.5845677   -1.8943668  0.043033352   -2.5845677    0.6902009   421013 
 1650000   0.62279488   -2.5852525   -2.5852525   -1.8941135  0.042286116   -2.5852525   0.69113896   421013 
 1651000   0.62283447   -2.5858453   -2.5858453   -1.8946624  0.055462474   -2.5858453    0.6911829   421013 
 1652000   0.62380541   -2.5877968   -2.5877968   -1.8955364   0.04444546   -2.5877968   0.69226038   421013 
 1653000   0.62153416   -2.5857028   -2.5857028   -1.8959629  0.046234698   -2.5857028   0.68973989   421013 
 1654000   0.62231261   -2.5866651   -2.5866651   -1.8960614  0.046186593   -2.5866651   0.69060377   421013 
 1655000   0.62205344   -2.5864202   -2.5864202    -1.896104  0.059732176   -2.5864202   0.69031616   421013 
 1656000   0.62193089   -2.5857075   -2.5857075   -1.8955274  0.045742368   -2.5857075   0.69018015   421013 
 1657000   0.62336575   -2.5872056   -2.5872056   -1.8954331  0.054248101   -2.5872056   0.69177248   421013 
 1658000   0.62311041   -2.5875805   -2.5875805   -1.8960914  0.043919487   -2.5875805   0.69148912   421013 
 1659000   0.62242528   -2.5870264   -2.5870264   -1.8962976  0.038134869   -2.5870264    0.6907288   421013 
 1660000   0.62234834   -2.5867564   -2.5867564    -1.896113   0.03954441   -2.5867564   0.69064342   421013 
 1661000   0.62208924   -2.5868238   -2.5868238   -1.8964679  0.050605311   -2.5868238   0.69035588   421013 
 1662000   0.62265442   -2.5875383   -2.5875383   -1.8965552   0.04139864   -2.5875383   0.69098308   421013 
 1663000   0.62262141    -2.587074    -2.587074   -1.8961275  0.036004771    -2.587074   0.69094645   421013 
 1664000   0.62218328   -2.5866193   -2.5866193    -1.896159   0.04908255   -2.5866193   0.69046025   421013 
 1665000    0.6224725   -2.5876843   -2.5876843   -1.8969031   0.04096773   -2.5876843    0.6907812   421013 
 1666000   0.62225626   -2.5871633   -2.5871633   -1.8966221  0.039110283   -2.5871633   0.69054124   421013 
 1667000   0.62175479   -2.5867655   -2.5867655   -1.8967808   0.05228582   -2.5867655   0.68998474   421013 
 1668000    0.6214966   -2.5871816   -2.5871816   -1.8974834  0.047093745   -2.5871816   0.68969821   421013 
 1669000   0.62283363   -2.5880586   -2.5880586   -1.8968767  0.048481791   -2.5880586   0.69118196   421013 
 1670000    0.6221197   -2.5864477   -2.5864477   -1.8960581  0.045231549   -2.5864477   0.69038969   421013 
 1671000   0.62171101   -2.5860389   -2.5860389   -1.8961028   0.04128285   -2.5860389   0.68993614   421013 
 1672000   0.62286992   -2.5878834   -2.5878834   -1.8966612  0.053370447   -2.5878834   0.69122223   421013 
 1673000   0.62187418   -2.5868317   -2.5868317   -1.8967145  0.053733903   -2.5868317   0.69011722   421013 
 1674000   0.62299159   -2.5885046   -2.5885046   -1.8971473  0.045731286   -2.5885046   0.69135725   421013 
 1675000   0.62272494    -2.588347    -2.588347   -1.8972856  0.043597987    -2.588347   0.69106134   421013 
 1676000   0.62107172   -2.5864899   -2.5864899   -1.8972632  0.040475593   -2.5864899    0.6892267   421013 
 1677000   0.62173312   -2.5871848   -2.5871848   -1.8972242  0.037931197   -2.5871848   0.68996069   421013 
 1678000   0.62117986   -2.5866423   -2.5866423   -1.8972956  0.039896947   -2.5866423   0.68934671   421013 
 1679000   0.62149548   -2.5876659   -2.5876659   -1.8979689  0.042850615   -2.5876659   0.68969696   421013 
 1680000   0.62159404   -2.5874104   -2.5874104    -1.897604  0.043443972   -2.5874104   0.68980635   421013 
 1681000   0.62037987   -2.5874222   -2.5874222   -1.8989632  0.038393752   -2.5874222   0.68845893   421013 
 1682000   0.62173049   -2.5890492   -2.5890492   -1.8990914  0.039609728   -2.5890492   0.68995776   421013 
 1683000    0.6207851   -2.5880838   -2.5880838   -1.8991751  0.040890171   -2.5880838   0.68890863   421013 
 1684000   0.62131893   -2.5880659   -2.5880659   -1.8985648  0.047414534   -2.5880659   0.68950104   421013 
 1685000   0.62310141   -2.5903327   -2.5903327   -1.8988536  0.028118095   -2.5903327   0.69147913   421013 
 1686000   0.62204787   -2.5888004   -2.5888004   -1.8984904   0.04804614   -2.5888004   0.69030997   421013 
 1687000   0.62257491   -2.5889716   -2.5889716   -1.8980768  0.046717628   -2.5889716   0.69089485   421013 
 1688000   0.62155481   -2.5874498   -2.5874498   -1.8976869  0.040989366   -2.5874498   0.68976281   421013 
 1689000   0.62021042   -2.5872494   -2.5872494   -1.8989785  0.044423118   -2.5872494   0.68827089   421013 
 1690000   0.62176151   -2.5885182   -2.5885182    -1.898526  0.043888323   -2.5885182   0.68999219   421013 
 1691000   0.62108819   -2.5878498   -2.5878498   -1.8986048  0.043104226   -2.5878498   0.68924498   421013 
 1692000   0.62085731   -2.5875595   -2.5875595   -1.8985707  0.037839837   -2.5875595   0.68898877   421013 
 1693000   0.62178954   -2.5885538   -2.5885538   -1.8985305  0.028730137   -2.5885538    0.6900233   421013 
 1694000    0.6221816   -2.5886176   -2.5886176   -1.8981592  0.039320316   -2.5886176   0.69045838   421013 
 1695000   0.62119764    -2.587794    -2.587794   -1.8984276  0.051447681    -2.587794   0.68936644   421013 
 1696000   0.62203514   -2.5886002   -2.5886002   -1.8983043  0.033720458   -2.5886002   0.69029585   421013 
 1697000   0.62249372   -2.5894596   -2.5894596   -1.8986548  0.046543679   -2.5894596   0.69080476   421013 
 1698000   0.62171748   -2.5889488   -2.5889488   -1.8990055   0.03702933   -2.5889488   0.68994332   421013 
 1699000   0.62111813   -2.5884199   -2.5884199   -1.8991417  0.033208316   -2.5884199   0.68927821   421013 
 1700000   0.62033366   -2.5878887   -2.5878887   -1.8994811  0.039871505   -2.5878887   0.68840766   421013 
 1701000   0.62043809   -2.5878352   -2.5878352   -1.8993116  0.040904768   -2.5878352   0.68852354   421013 
 1702000   0.62238241   -2.5906224   -2.5906224   -1.8999412  0.041186293   -2.5906224   0.69068122   421013 
 1703000   0.62067256   -2.5889885   -2.5889885   -1.9002048  0.035259577   -2.5889885   0.68878374   421013 
 1704000   0.62201676   -2.5906356   -2.5906356   -1.9003601  0.043956207   -2.5906356   0.69027545   421013 
 1705000   0.62153968   -2.5904156   -2.5904156   -1.9006696   0.04103645   -2.5904156   0.68974602   421013 
 1706000   0.62090567     -2.58959     -2.58959   -1.9005476  0.039730995     -2.58959   0.68904243   421013 
 1707000   0.62104288   -2.5897445   -2.5897445   -1.9005498  0.043164643   -2.5897445    0.6891947   421013 
 1708000   0.62143768   -2.5904685   -2.5904685   -1.9008356  0.043235973   -2.5904685   0.68963283   421013 
 1709000   0.62074116   -2.5895447   -2.5895447   -1.9006848  0.043502489   -2.5895447   0.68885987   421013 
 1710000   0.62144442   -2.5907805   -2.5907805   -1.9011402  0.034363941   -2.5907805   0.68964031   421013 
 1711000   0.62159838   -2.5916742   -2.5916742    -1.901863   0.04238572   -2.5916742   0.68981116   421013 
 1712000   0.62167382   -2.5920509   -2.5920509    -1.902156  0.053930975   -2.5920509   0.68989488   421013 
 1713000   0.62152998   -2.5920018   -2.5920018   -1.9022665  0.056655235   -2.5920018   0.68973525   421013 
 1714000   0.62215732   -2.5937298   -2.5937298   -1.9032984  0.044946835   -2.5937298   0.69043143   421013 
 1715000   0.62202944   -2.5933069   -2.5933069   -1.9030174  0.046518064   -2.5933069   0.69028952   421013 
 1716000   0.62054704   -2.5919178   -2.5919178   -1.9032733   0.04791658   -2.5919178   0.68864445   421013 
 1717000   0.62149788    -2.593289    -2.593289   -1.9035894  0.043008583    -2.593289   0.68969963   421013 
 1718000    0.6202521   -2.5917726   -2.5917726   -1.9034555  0.045910722   -2.5917726   0.68831714   421013 
 1719000   0.62152736   -2.5933457   -2.5933457   -1.9036133  0.053958177   -2.5933457   0.68973235   421013 
 1720000   0.62055276   -2.5929136   -2.5929136   -1.9042628  0.038760143   -2.5929136   0.68865079   421013 
 1721000   0.62002863   -2.5926488   -2.5926488   -1.9045797  0.051663272   -2.5926488   0.68806915   421013 
 1722000   0.62004171   -2.5928233   -2.5928233   -1.9047397  0.047927398   -2.5928233   0.68808367   421013 
 1723000   0.62083314   -2.5931917   -2.5931917   -1.9042297   0.04150774   -2.5931917   0.68896194   421013 
 1724000   0.62055723   -2.5928624   -2.5928624   -1.9042066  0.040989928   -2.5928624   0.68865575   421013 
 1725000   0.62070106   -2.5933309   -2.5933309   -1.9045155  0.043992627   -2.5933309   0.68881537   421013 
 1726000   0.61986192   -2.5921141   -2.5921141     -1.90423  0.042577197   -2.5921141   0.68788414   421013 
 1727000   0.62151498   -2.5935323   -2.5935323   -1.9038137  0.045185997   -2.5935323   0.68971861   421013 
 1728000   0.62144827   -2.5929899   -2.5929899   -1.9033453  0.049318197   -2.5929899   0.68964457   421013 
 1729000   0.62150925   -2.5936345   -2.5936345   -1.9039223   0.04093245   -2.5936345   0.68971224   421013 
 1730000   0.62015249   -2.5924505   -2.5924505   -1.9042439   0.04206233   -2.5924505    0.6882066   421013 
 1731000   0.62046208    -2.592326    -2.592326   -1.9037758  0.038887122    -2.592326   0.68855017   421013 
 1732000   0.62085343   -2.5941975   -2.5941975    -1.905213  0.037942412   -2.5941975   0.68898446   421013 
 1733000    0.6196476   -2.5924142   -2.5924142   -1.9047679  0.037504916   -2.5924142    0.6876463   421013 
 1734000   0.62061632   -2.5935738   -2.5935738   -1.9048525  0.039658442   -2.5935738   0.68872133   421013 
 1735000   0.62098237   -2.5934488   -2.5934488   -1.9043212  0.046368105   -2.5934488   0.68912755   421013 
 1736000   0.62094999   -2.5928406   -2.5928406    -1.903749  0.037164245   -2.5928406   0.68909161   421013 
 1737000   0.61955597   -2.5923511   -2.5923511   -1.9048065  0.038097634   -2.5923511   0.68754462   421013 
 1738000   0.62053868   -2.5937407   -2.5937407   -1.9051056  0.038905823   -2.5937407   0.68863517   421013 
 1739000   0.62086909   -2.5938012   -2.5938012   -1.9047993  0.041891592   -2.5938012   0.68900184   421013 
 1740000   0.61970794   -2.5916831   -2.5916831   -1.9039698  0.050378777   -2.5916831   0.68771327   421013 
 1741000   0.61999908   -2.5927083   -2.5927083    -1.904672  0.046981335   -2.5927083   0.68803636   421013 
 1742000   0.62130611   -2.5939184   -2.5939184   -1.9044316  0.028323529   -2.5939184   0.68948682   421013 
 1743000    0.6206091   -2.5931374   -2.5931374   -1.9044241  0.049809591   -2.5931374   0.68871332   421013 
 1744000   0.62174591   -2.5943146   -2.5943146   -1.9043397  0.047957326   -2.5943146   0.68997488   421013 
 1745000   0.62161159   -2.5940345   -2.5940345   -1.9042087  0.051191765   -2.5940345   0.68982581   421013 
 1746000   0.62174763   -2.5944104   -2.5944104   -1.9044336  0.050666951   -2.5944104   0.68997679   421013 
 1747000   0.62098096   -2.5930621   -2.5930621   -1.9039361  0.045222099   -2.5930621   0.68912598   421013 
 1748000   0.62221436   -2.5946396   -2.5946396   -1.9041449  0.039340423   -2.5946396   0.69049473   421013 
 1749000   0.62141009   -2.5941393   -2.5941393   -1.9045371  0.039259272   -2.5941393    0.6896022   421013 
 1750000   0.62091646   -2.5938778   -2.5938778   -1.9048234    0.0425127   -2.5938778    0.6890544   421013 
 1751000   0.61936385   -2.5919374   -2.5919374   -1.9046059  0.048862082   -2.5919374   0.68733142   421013 
 1752000   0.62063807   -2.5935404   -2.5935404    -1.904795  0.039126953   -2.5935404   0.68874547   421013 
 1753000    0.6215613   -2.5946757   -2.5946757   -1.9049057  0.045133548   -2.5946757   0.68977001   421013 
 1754000   0.62016106   -2.5929972   -2.5929972   -1.9047811  0.050214866   -2.5929972   0.68821611   421013 
 1755000    0.6218721   -2.5945131   -2.5945131   -1.9043982  0.038192871   -2.5945131   0.69011491   421013 
 1756000    0.6209361   -2.5932738   -2.5932738   -1.9041976  0.043447401   -2.5932738   0.68907621   421013 
 1757000   0.62118879   -2.5935979   -2.5935979   -1.9042413  0.042180656   -2.5935979   0.68935662   421013 
 1758000   0.62075829   -2.5926608   -2.5926608   -1.9037819  0.051534993   -2.5926608   0.68887888   421013 
 1759000    0.6203855    -2.592788    -2.592788   -1.9043228  0.041577764    -2.592788   0.68846518   421013 
 1760000   0.62106551   -2.5949001   -2.5949001   -1.9056803   0.04111831   -2.5949001   0.68921981   421013 
 1761000   0.62040645   -2.5942789   -2.5942789   -1.9057905  0.035948685   -2.5942789   0.68848843   421013 
 1762000   0.62019453   -2.5932538   -2.5932538   -1.9050005  0.041759357   -2.5932538   0.68825326   421013 
 1763000   0.62050421   -2.5937197   -2.5937197   -1.9051228  0.030688295   -2.5937197   0.68859692   421013 
 1764000   0.62190456   -2.5950215   -2.5950215   -1.9048706  0.043373468   -2.5950215   0.69015094   421013 
 1765000   0.62016437   -2.5930533   -2.5930533   -1.9048335  0.046514459   -2.5930533   0.68821978   421013 
 1766000   0.62107938   -2.5947952   -2.5947952     -1.90556  0.036803273   -2.5947952   0.68923521   421013 
 1767000   0.62048467   -2.5947443   -2.5947443   -1.9061691   0.04671122   -2.5947443   0.68857523   421013 
 1768000   0.62057297   -2.5945971   -2.5945971   -1.9059239  0.044636821   -2.5945971   0.68867322   421013 
 1769000    0.6215562   -2.5954125   -2.5954125   -1.9056481  0.046241572   -2.5954125   0.68976435   421013 
 1770000   0.62053413   -2.5945996   -2.5945996   -1.9059695  0.040646839   -2.5945996   0.68863013   421013 
 1771000   0.62065557    -2.594926    -2.594926   -1.9061611  0.045807095    -2.594926   0.68876489   421013 
 1772000   0.62034802   -2.5941681   -2.5941681   -1.9057445  0.051349008   -2.5941681   0.68842359   421013 
 1773000   0.62129232   -2.5959122   -2.5959122   -1.9064407  0.046532954   -2.5959122   0.68947151   421013 
 1774000   0.62079622   -2.5956668   -2.5956668   -1.9067458  0.035191658   -2.5956668   0.68892097   421013 
 1775000   0.62205217   -2.5966851   -2.5966851   -1.9063704  0.042171479   -2.5966851   0.69031475   421013 
 1776000   0.62053338   -2.5957049   -2.5957049   -1.9070757  0.043240422   -2.5957049   0.68862929   421013 
 1777000   0.61994723   -2.5950602   -2.5950602   -1.9070813  0.050679005   -2.5950602   0.68797882   421013 
 1778000   0.61918437   -2.5945425   -2.5945425   -1.9074103  0.043813653   -2.5945425   0.68713224   421013 
 1779000   0.62090937   -2.5962236   -2.5962236   -1.9071771  0.048462867   -2.5962236   0.68904654   421013 
 1780000   0.61869889   -2.5940233   -2.5940233   -1.9074299  0.042339303   -2.5940233   0.68659349   421013 
 1781000   0.61957982   -2.5950332   -2.5950332   -1.9074621  0.048745143   -2.5950332   0.68757109   421013 
 1782000    0.6192845   -2.5946555   -2.5946555   -1.9074122   0.04961649   -2.5946555   0.68724336   421013 
 1783000   0.61947989   -2.5948391   -2.5948391   -1.9073789  0.048715903   -2.5948391   0.68746019   421013 
 1784000   0.62023981   -2.5951301   -2.5951301   -1.9068266  0.039405004   -2.5951301    0.6883035   421013 
 1785000   0.62004019   -2.5948835   -2.5948835   -1.9068016  0.043444534   -2.5948835   0.68808197   421013 
 1786000   0.62102328   -2.5959361   -2.5959361   -1.9067631   0.04843422   -2.5959361   0.68917295   421013 
 1787000   0.61988649   -2.5954577   -2.5954577   -1.9075463  0.035997705   -2.5954577   0.68791141   421013 
 1788000   0.62070804   -2.5962025   -2.5962025   -1.9073794   0.03899827   -2.5962025   0.68882311   421013 
 1789000   0.62000073   -2.5955432   -2.5955432   -1.9075051  0.040977596   -2.5955432   0.68803819   421013 
 1790000   0.61938961   -2.5951264   -2.5951264   -1.9077664  0.045384545   -2.5951264      0.68736   421013 
 1791000   0.61979552   -2.5950446   -2.5950446   -1.9072341   0.04269945   -2.5950446   0.68781046   421013 
 1792000   0.61980446   -2.5953836   -2.5953836   -1.9075632  0.045074226   -2.5953836   0.68782038   421013 
 1793000   0.61970276    -2.595613    -2.595613   -1.9079055  0.047246523    -2.595613   0.68770752   421013 
 1794000   0.61955934   -2.5955359   -2.5955359   -1.9079876  0.048009277   -2.5955359   0.68754836   421013 
 1795000   0.61970582   -2.5957055   -2.5957055   -1.9079946  0.041609722   -2.5957055   0.68771091   421013 
 1796000   0.62023196   -2.5962285   -2.5962285   -1.9079337  0.038075198   -2.5962285   0.68829479   421013 
 1797000    0.6198651   -2.5955339   -2.5955339   -1.9076463   0.05103613   -2.5955339   0.68788767   421013 
 1798000    0.6199336   -2.5957252   -2.5957252   -1.9077615  0.047736304   -2.5957252   0.68796369   421013 
 1799000    0.6186251   -2.5948066   -2.5948066    -1.908295   0.04502926   -2.5948066   0.68651159   421013 
 1800000   0.62069903    -2.596631    -2.596631   -1.9078178  0.043918531    -2.596631   0.68881312   421013 
 1801000   0.61977251   -2.5957742   -2.5957742   -1.9079893  0.041541963   -2.5957742   0.68778492   421013 
 1802000   0.62042924   -2.5968394   -2.5968394   -1.9083256  0.037265026   -2.5968394   0.68851372   421013 
 1803000   0.61935668   -2.5966812   -2.5966812   -1.9093578  0.036551205   -2.5966812   0.68732346   421013 
 1804000   0.61966888   -2.5965133   -2.5965133   -1.9088434  0.044684088   -2.5965133   0.68766992   421013 
 1805000   0.61987356   -2.5961582   -2.5961582   -1.9082611  0.051586382   -2.5961582   0.68789706   421013 
 1806000   0.62090992    -2.597565    -2.597565   -1.9085179  0.038454019    -2.597565   0.68904715   421013 
 1807000    0.6191672   -2.5954874   -2.5954874   -1.9083742  0.040262405   -2.5954874   0.68711319   421013 
 1808000   0.62047436   -2.5966626   -2.5966626   -1.9080989  0.039603521   -2.5966626   0.68856379   421013 
 1809000   0.61945042   -2.5949559   -2.5949559   -1.9075284  0.039128469   -2.5949559   0.68742748   421013 
 1810000   0.62086162   -2.5971156   -2.5971156   -1.9081221   0.04519602   -2.5971156   0.68899355   421013 
 1811000   0.61986238    -2.595614    -2.595614   -1.9077293  0.037785462    -2.595614   0.68788465   421013 
 1812000   0.62139379   -2.5973589   -2.5973589   -1.9077748  0.038260457   -2.5973589   0.68958411   421013 
 1813000    0.6200387   -2.5964904   -2.5964904   -1.9084101  0.033189127   -2.5964904   0.68808032   421013 
 1814000   0.62000509   -2.5966389   -2.5966389   -1.9085959  0.036926154   -2.5966389   0.68804303   421013 
 1815000    0.6190594   -2.5963287   -2.5963287   -1.9093351  0.035355108   -2.5963287   0.68699356   421013 
 1816000   0.62028526   -2.5973933   -2.5973933   -1.9090393  0.039465166   -2.5973933   0.68835394   421013 
 1817000   0.61982327   -2.5968901   -2.5968901   -1.9090489  0.037717529   -2.5968901   0.68784125   421013 
 1818000   0.62102225    -2.597619    -2.597619   -1.9084472  0.051860741    -2.597619   0.68917181   421013 
 1819000   0.62018186   -2.5968623   -2.5968623   -1.9086231    0.0470791   -2.5968623   0.68823919   421013 
 1820000   0.62046331   -2.5975603   -2.5975603   -1.9090088  0.040096268   -2.5975603   0.68855153   421013 
 1821000   0.62089328   -2.5986381   -2.5986381   -1.9096094  0.042465909   -2.5986381   0.68902869   421013 
 1822000   0.62037304   -2.5983809   -2.5983809   -1.9099296  0.046291871   -2.5983809   0.68845135   421013 
 1823000    0.6203078   -2.5984205   -2.5984205   -1.9100416  0.043582818   -2.5984205   0.68837896   421013 
 1824000   0.61875621   -2.5972219   -2.5972219   -1.9105648  0.038118744   -2.5972219   0.68665709   421013 
 1825000   0.61839818   -2.5973096   -2.5973096   -1.9110499  0.045676777   -2.5973096   0.68625978   421013 
 1826000   0.61958164   -2.5993061   -2.5993061    -1.911733  0.047042296   -2.5993061    0.6875731   421013 
 1827000   0.61881565   -2.5979812   -2.5979812   -1.9112581  0.042817791   -2.5979812   0.68672306   421013 
 1828000   0.62027602    -2.599603    -2.599603   -1.9112593  0.045905026    -2.599603   0.68834368   421013 
 1829000   0.61926988   -2.5989885   -2.5989885   -1.9117613  0.038651074   -2.5989885   0.68722713   421013 
 1830000   0.61977279   -2.5995698   -2.5995698   -1.9117846  0.042893072   -2.5995698   0.68778523   421013 
 1831000   0.61903035   -2.5992799   -2.5992799   -1.9123186  0.035975982   -2.5992799   0.68696132   421013 
 1832000   0.61911414   -2.5989185   -2.5989185   -1.9118642  0.053898711   -2.5989185    0.6870543   421013 
 1833000   0.62085464   -2.6016258   -2.6016258     -1.91264  0.050615024   -2.6016258    0.6889858   421013 
 1834000   0.61895314   -2.5997652   -2.5997652   -1.9128896  0.047746368   -2.5997652   0.68687564   421013 
 1835000   0.61850567   -2.5997153   -2.5997153   -1.9133363  0.035425131   -2.5997153   0.68637906   421013 
 1836000   0.61879265   -2.6003394   -2.6003394   -1.9136418  0.048286815   -2.6003394   0.68669753   421013 
 1837000   0.62014024   -2.6017743   -2.6017743   -1.9135813  0.046288493   -2.6017743   0.68819301   421013 
 1838000   0.61978389   -2.6014589   -2.6014589   -1.9136614  0.044183859   -2.6014589   0.68779755   421013 
 1839000   0.61969038   -2.6018671   -2.6018671   -1.9141733  0.047338401   -2.6018671   0.68769378   421013 
 1840000   0.61903398    -2.600947    -2.600947   -1.9139817  0.046903343    -2.600947   0.68696535   421013 
 1841000    0.6195483   -2.6010961   -2.6010961     -1.91356  0.042225425   -2.6010961    0.6875361   421013 
 1842000   0.61997456     -2.60142     -2.60142   -1.9134108  0.048139133     -2.60142   0.68800915   421013 
 1843000   0.61995311   -2.6022411   -2.6022411   -1.9142557  0.043911161   -2.6022411   0.68798535   421013 
 1844000   0.61982649   -2.6023751   -2.6023751   -1.9145303  0.045733962   -2.6023751   0.68784482   421013 
 1845000   0.61869076     -2.60106     -2.60106   -1.9144756  0.033823051     -2.60106   0.68658446   421013 
 1846000   0.62011027   -2.6024933   -2.6024933   -1.9143336  0.037461043   -2.6024933   0.68815974   421013 
 1847000   0.62018818   -2.6030806   -2.6030806   -1.9148344  0.043134028   -2.6030806   0.68824621   421013 
 1848000   0.61904793   -2.6015323   -2.6015323   -1.9145515  0.049714317   -2.6015323   0.68698083   421013 
 1849000   0.62003636   -2.6030044   -2.6030044   -1.9149266  0.045672081   -2.6030044   0.68807773   421013 
 1850000   0.62059354   -2.6035649   -2.6035649   -1.9148689  0.034782894   -2.6035649   0.68869605   421013 
 1851000    0.6190916   -2.6014303   -2.6014303    -1.914401  0.050015372   -2.6014303   0.68702929   421013 
 1852000   0.61949199   -2.6023231   -2.6023231   -1.9148495  0.042183171   -2.6023231   0.68747362   421013 
 1853000   0.61935817   -2.6026031   -2.6026031    -1.915278  0.043715676   -2.6026031   0.68732511   421013 
 1854000    0.6172072   -2.6003539   -2.6003539   -1.9154158  0.039620577   -2.6003539    0.6849381   421013 
 1855000    0.6192129   -2.6019741   -2.6019741   -1.9148102  0.034186203   -2.6019741    0.6871639   421013 
 1856000   0.61811089   -2.6012138   -2.6012138   -1.9152729   0.03771556   -2.6012138   0.68594096   421013 
 1857000   0.61843098   -2.6021105   -2.6021105   -1.9158143  0.045184353   -2.6021105   0.68629618   421013 
 1858000   0.61919013   -2.6025555   -2.6025555   -1.9154168  0.040168312   -2.6025555   0.68713863   421013 
 1859000   0.61860132   -2.6025124   -2.6025124   -1.9160272  0.038329577   -2.6025124    0.6864852   421013 
 1860000   0.61916292   -2.6032577   -2.6032577   -1.9161492  0.044260398   -2.6032577   0.68710844   421013 
 1861000   0.61759389   -2.6012362   -2.6012362   -1.9158689  0.054549428   -2.6012362   0.68536723   421013 
 1862000   0.61958948    -2.603733    -2.603733   -1.9161512  0.038842573    -2.603733   0.68758181   421013 
 1863000   0.62010072   -2.6034862   -2.6034862    -1.915337  0.042907778   -2.6034862   0.68814914   421013 
 1864000   0.61897238   -2.6026831   -2.6026831   -1.9157861  0.041876351   -2.6026831   0.68689699   421013 
 1865000   0.61887554    -2.603594    -2.603594   -1.9168045  0.039484975    -2.603594   0.68678952   421013 
 1866000   0.61934805   -2.6044225   -2.6044225   -1.9171086  0.044819351   -2.6044225   0.68731388   421013 
 1867000   0.61974838   -2.6050213   -2.6050213   -1.9172632  0.049852296   -2.6050213   0.68775815   421013 
 1868000   0.62060027   -2.6066687   -2.6066687   -1.9179652  0.029098372   -2.6066687   0.68870352   421013 
 1869000   0.61765548   -2.6038336   -2.6038336   -1.9183981  0.048685506   -2.6038336   0.68543558   421013 
 1870000   0.61851097   -2.6050348   -2.6050348   -1.9186499  0.044868571   -2.6050348   0.68638495   421013 
 1871000   0.61740772   -2.6039299   -2.6039299   -1.9187693  0.047772377   -2.6039299   0.68516063   421013 
 1872000    0.6182196   -2.6047227   -2.6047227   -1.9186611  0.049302271   -2.6047227    0.6860616   421013 
 1873000   0.61820506   -2.6050387   -2.6050387   -1.9189932  0.032342407   -2.6050387   0.68604547   421013 
 1874000   0.61979258   -2.6061562   -2.6061562    -1.918349  0.042002248   -2.6061562   0.68780719   421013 
 1875000   0.62045142   -2.6076004   -2.6076004   -1.9190621  0.039638942   -2.6076004   0.68853834   421013 
 1876000   0.61835994    -2.605101    -2.605101   -1.9188837  0.045984999    -2.605101   0.68621734   421013 
 1877000   0.61897177   -2.6066033   -2.6066033   -1.9197069  0.040987613   -2.6066033   0.68689631   421013 
 1878000   0.61855768   -2.6057836   -2.6057836   -1.9193468  0.045322623   -2.6057836   0.68643678   421013 
 1879000   0.61913137   -2.6058792   -2.6058792   -1.9188057  0.037661443   -2.6058792   0.68707342   421013 
 1880000   0.61734395   -2.6032723   -2.6032723   -1.9181824  0.055452682   -2.6032723   0.68508986   421013 
 1881000   0.61804393   -2.6040421   -2.6040421   -1.9181755  0.046552036   -2.6040421   0.68586665   421013 
 1882000   0.61995676   -2.6053523   -2.6053523    -1.917363  0.044088844   -2.6053523   0.68798939   421013 
 1883000   0.61934354   -2.6049717   -2.6049717   -1.9176628    0.0488035   -2.6049717   0.68730888   421013 
 1884000   0.62013347   -2.6050534   -2.6050534    -1.916868  0.042928881   -2.6050534   0.68818549   421013 
 1885000    0.6206785    -2.605739    -2.605739   -1.9169487  0.041240722    -2.605739   0.68879033   421013 
 1886000   0.61821511   -2.6029847   -2.6029847   -1.9169281  0.042478509   -2.6029847   0.68605661   421013 
 1887000   0.61916482   -2.6043193   -2.6043193   -1.9172087  0.043379237   -2.6043193   0.68711054   421013 
 1888000   0.61925044   -2.6044339   -2.6044339   -1.9172284   0.04288682   -2.6044339   0.68720556   421013 
 1889000   0.61793535   -2.6029321   -2.6029321   -1.9171859  0.036376604   -2.6029321   0.68574616   421013 
 1890000   0.61896192   -2.6047033   -2.6047033   -1.9178179  0.044535373   -2.6047033   0.68688538   421013 
 1891000   0.61772224   -2.6039324   -2.6039324   -1.9184227  0.040567161   -2.6039324   0.68550966   421013 
 1892000   0.61720258   -2.6035943   -2.6035943   -1.9186613  0.040395894   -2.6035943   0.68493297   421013 
 1893000   0.61945938   -2.6057344   -2.6057344   -1.9182969  0.048464185   -2.6057344   0.68743743   421013 
 1894000   0.61800556   -2.6042321   -2.6042321    -1.918408  0.042391038   -2.6042321   0.68582407   421013 
 1895000   0.61749825   -2.6045429   -2.6045429   -1.9192818  0.046412487   -2.6045429   0.68526109   421013 
 1896000     0.617807     -2.60469     -2.60469   -1.9190863   0.04123069     -2.60469   0.68560372   421013 
 1897000   0.61946752   -2.6051574   -2.6051574   -1.9177109  0.049370014   -2.6051574   0.68744647   421013 
 1898000   0.62116999   -2.6075617   -2.6075617   -1.9182259  0.051005075   -2.6075617   0.68933576   421013 
 1899000    0.6202171   -2.6057744   -2.6057744   -1.9174961   0.05323443   -2.6057744    0.6882783   421013 
 1900000   0.62064547   -2.6067011   -2.6067011   -1.9179474  0.045965688   -2.6067011   0.68875368   421013 
 1901000   0.61914532   -2.6052493   -2.6052493   -1.9181604    0.0415322   -2.6052493   0.68708891   421013 
 1902000   0.61923105   -2.6056172   -2.6056172   -1.9184332   0.03831839   -2.6056172   0.68718404   421013 
 1903000   0.61990363   -2.6056565   -2.6056565   -1.9177261  0.041608148   -2.6056565   0.68793043   421013 
 1904000    0.6192742   -2.6051241   -2.6051241   -1.9178922  0.041096343   -2.6051241   0.68723193   421013 
 1905000   0.61959296    -2.606589    -2.606589   -1.9190034  0.039379963    -2.606589   0.68758567   421013 
 1906000   0.61971165   -2.6062229   -2.6062229   -1.9185055  0.047308662   -2.6062229   0.68771738   421013 
 1907000   0.61840698    -2.605082    -2.605082   -1.9188124  0.040891928    -2.605082   0.68626954   421013 
 1908000   0.61830163   -2.6046811   -2.6046811   -1.9185285  0.035205396   -2.6046811   0.68615263   421013 
 1909000   0.61754942    -2.604075    -2.604075   -1.9187571   0.02914803    -2.604075   0.68531788   421013 
 1910000   0.61785886   -2.6048772   -2.6048772   -1.9192159  0.034552094   -2.6048772   0.68566127   421013 
 1911000   0.61741399   -2.6041242   -2.6041242   -1.9189566   0.04052108   -2.6041242   0.68516759   421013 
 1912000   0.61913691   -2.6066126   -2.6066126   -1.9195331  0.043435472   -2.6066126   0.68707957   421013 
 1913000   0.61938577   -2.6070552   -2.6070552   -1.9196995  0.030442652   -2.6070552   0.68735574   421013 
 1914000   0.61910343   -2.6060246   -2.6060246   -1.9189822  0.046323164   -2.6060246   0.68704242   421013 
 1915000   0.61790196   -2.6050505   -2.6050505   -1.9193414  0.041144011   -2.6050505   0.68570911   421013 
 1916000   0.61686596   -2.6036655   -2.6036655   -1.9191061  0.045538778   -2.6036655   0.68455942   421013 
 1917000    0.6194913    -2.607398    -2.607398   -1.9199252  0.051175575    -2.607398   0.68747286   421013 
 1918000   0.61970116   -2.6074047   -2.6074047    -1.919699   0.04148419   -2.6074047   0.68770575   421013 
 1919000   0.61844847   -2.6062465   -2.6062465   -1.9199309  0.046988191   -2.6062465   0.68631559   421013 
 1920000   0.61858204   -2.6061927   -2.6061927   -1.9197289   0.04157862   -2.6061927   0.68646381   421013 
 1921000   0.61941672   -2.6072537   -2.6072537   -1.9198636  0.042397176   -2.6072537   0.68739009   421013 
 1922000   0.61898758   -2.6067431   -2.6067431   -1.9198292  0.041099052   -2.6067431   0.68691385   421013 
 1923000   0.61837178   -2.6059277   -2.6059277   -1.9196972  0.051112651   -2.6059277   0.68623048   421013 
 1924000   0.61942398   -2.6079263   -2.6079263   -1.9205281  0.044418728   -2.6079263   0.68739815   421013 
 1925000   0.61951039   -2.6077592   -2.6077592   -1.9202652  0.039211406   -2.6077592   0.68749403   421013 
 1926000   0.61909805   -2.6079807   -2.6079807   -1.9209443  0.046585007   -2.6079807   0.68703645   421013 
 1927000   0.61835013   -2.6078245   -2.6078245   -1.9216181  0.040743038   -2.6078245   0.68620645   421013 
 1928000   0.61886123   -2.6082035   -2.6082035   -1.9214299  0.051458178   -2.6082035   0.68677364   421013 
 1929000   0.61770887   -2.6074891   -2.6074891   -1.9219943   0.04648513   -2.6074891   0.68549482   421013 
 1930000   0.61803255   -2.6077184   -2.6077184   -1.9218643  0.043902105   -2.6077184   0.68585402   421013 
 1931000   0.61803683   -2.6079839   -2.6079839   -1.9221252   0.04691391   -2.6079839   0.68585878   421013 
 1932000   0.61703537   -2.6076777   -2.6076777   -1.9229303   0.04385904   -2.6076777   0.68474742   421013 
 1933000    0.6192154   -2.6103467   -2.6103467     -1.92318  0.037680884   -2.6103467   0.68716668   421013 
 1934000   0.61884191     -2.60947     -2.60947   -1.9227178  0.049951941     -2.60947    0.6867522   421013 
 1935000   0.61806793   -2.6085915   -2.6085915   -1.9226982  0.038317969   -2.6085915   0.68589329   421013 
 1936000   0.61770967   -2.6080639   -2.6080639   -1.9225682  0.045938048   -2.6080639   0.68549571   421013 
 1937000   0.61906608   -2.6096495   -2.6096495   -1.9226485  0.043672179   -2.6096495   0.68700098   421013 
 1938000   0.61763393   -2.6086021   -2.6086021   -1.9231905  0.041931335   -2.6086021   0.68541166   421013 
 1939000   0.61916308   -2.6102943   -2.6102943   -1.9231857  0.051433275   -2.6102943   0.68710861   421013 
 1940000   0.61759096   -2.6078203   -2.6078203   -1.9224564  0.044181741   -2.6078203   0.68536397   421013 
 1941000   0.61947219   -2.6096576   -2.6096576   -1.9222059   0.05050161   -2.6096576   0.68745164   421013 
 1942000   0.61878562   -2.6086841   -2.6086841   -1.9219944  0.044892679   -2.6086841   0.68668973   421013 
 1943000   0.61885614   -2.6098068   -2.6098068   -1.9230388  0.049814942   -2.6098068   0.68676799   421013 
 1944000   0.61788215   -2.6092361   -2.6092361    -1.923549  0.039552009   -2.6092361   0.68568711   421013 
 1945000   0.61653992   -2.6083467   -2.6083467   -1.9241491  0.043563597   -2.6083467    0.6841976   421013 
 1946000   0.61810589   -2.6098282   -2.6098282   -1.9238927  0.048152483   -2.6098282   0.68593541   421013 
 1947000   0.61859104   -2.6103934   -2.6103934   -1.9239196  0.035495797   -2.6103934    0.6864738   421013 
 1948000    0.6182006   -2.6097842   -2.6097842   -1.9237437  0.036750894   -2.6097842   0.68604051   421013 
 1949000   0.61819608   -2.6094604   -2.6094604   -1.9234249  0.045406216   -2.6094604    0.6860355   421013 
 1950000   0.61811262    -2.609087    -2.609087   -1.9231441   0.05050058    -2.609087   0.68594288   421013 
 1951000   0.61827256   -2.6095523   -2.6095523   -1.9234319  0.047139726   -2.6095523   0.68612037   421013 
 1952000   0.61992118   -2.6111051   -2.6111051   -1.9231552  0.051576566   -2.6111051   0.68794991   421013 
 1953000   0.61959618   -2.6108621   -2.6108621   -1.9232728  0.054149688   -2.6108621   0.68758924   421013 
 1954000   0.61901994   -2.6100154   -2.6100154   -1.9230656  0.044917929   -2.6100154   0.68694976   421013 
 1955000   0.61786465   -2.6086936   -2.6086936   -1.9230259  0.048291283   -2.6086936   0.68566769   421013 
 1956000   0.61809844   -2.6082168   -2.6082168   -1.9222896  0.038616741   -2.6082168   0.68592714   421013 
 1957000   0.61695309   -2.6077215   -2.6077215   -1.9230654  0.046926446   -2.6077215   0.68465611   421013 
 1958000    0.6174742   -2.6078866   -2.6078866   -1.9226522  0.035914634   -2.6078866    0.6852344   421013 
 1959000   0.61740464   -2.6067718   -2.6067718   -1.9216146  0.039791501   -2.6067718   0.68515721   421013 
 1960000   0.61706764   -2.6069172   -2.6069172    -1.922134  0.041390689   -2.6069172   0.68478323   421013 
 1961000   0.61774339   -2.6073162   -2.6073162   -1.9217831  0.039788244   -2.6073162   0.68553313   421013 
 1962000   0.61845738   -2.6079517   -2.6079517   -1.9216262  0.043827689   -2.6079517   0.68632547   421013 
 1963000   0.61701219   -2.6068404   -2.6068404   -1.9221187  0.040378732   -2.6068404   0.68472169   421013 
 1964000   0.61820054   -2.6074642   -2.6074642   -1.9214238  0.041214503   -2.6074642   0.68604045   421013 
 1965000   0.61821322   -2.6074504   -2.6074504   -1.9213959  0.050965068   -2.6074504   0.68605452   421013 
 1966000   0.61820491   -2.6078817   -2.6078817   -1.9218364  0.039674135   -2.6078817   0.68604529   421013 
 1967000   0.61845508   -2.6078399   -2.6078399    -1.921517  0.046824253   -2.6078399   0.68632292   421013 
 1968000   0.61851545   -2.6080697   -2.6080697   -1.9216798   0.04498648   -2.6080697   0.68638991   421013 
 1969000   0.61767127   -2.6077859   -2.6077859   -1.9223328  0.045207882   -2.6077859    0.6854531   421013 
 1970000   0.61765454   -2.6081334   -2.6081334   -1.9226989  0.041930577   -2.6081334   0.68543453   421013 
 1971000   0.61772859   -2.6090651   -2.6090651   -1.9235484  0.041923467   -2.6090651   0.68551671   421013 
 1972000   0.61909214   -2.6097661   -2.6097661   -1.9227362  0.042269235   -2.6097661   0.68702989   421013 
 1973000   0.61832112   -2.6093186   -2.6093186   -1.9231443  0.044515762   -2.6093186   0.68617426   421013 
 1974000   0.61790757   -2.6091649   -2.6091649   -1.9234496  0.028103221   -2.6091649   0.68571533   421013 
 1975000   0.61845173   -2.6098187   -2.6098187   -1.9234995   0.04127967   -2.6098187    0.6863192   421013 
 1976000   0.61902324    -2.610079    -2.610079   -1.9231256  0.044924189    -2.610079   0.68695343   421013 
 1977000   0.62036491   -2.6125967   -2.6125967   -1.9241544  0.036487256   -2.6125967   0.68844233   421013 
 1978000   0.61844756   -2.6110026   -2.6110026   -1.9246881  0.044103599   -2.6110026   0.68631457   421013 
 1979000     0.617806   -2.6107908   -2.6107908   -1.9251882  0.052263534   -2.6107908   0.68560262   421013 
 1980000   0.61876104   -2.6118476   -2.6118476   -1.9251851  0.036040932   -2.6118476   0.68666246   421013 
 1981000   0.61914538   -2.6124787   -2.6124787   -1.9253898  0.047391109   -2.6124787   0.68708897   421013 
 1982000   0.61954358   -2.6129918   -2.6129918    -1.925461  0.039649511   -2.6129918   0.68753087   421013 
 1983000   0.61751719   -2.6110299   -2.6110299   -1.9257477  0.044860452   -2.6110299   0.68528211   421013 
 1984000   0.61833006   -2.6120331   -2.6120331   -1.9258489  0.045940359   -2.6120331   0.68618418   421013 
 1985000   0.61815967     -2.61259     -2.61259   -1.9265949  0.039645745     -2.61259   0.68599509   421013 
 1986000   0.61764722     -2.61258     -2.61258   -1.9271536  0.035470091     -2.61258   0.68542641   421013 
 1987000   0.61643452    -2.611213    -2.611213   -1.9271324  0.044048209    -2.611213   0.68408063   421013 
 1988000    0.6171933   -2.6116067   -2.6116067    -1.926684  0.052432309   -2.6116067   0.68492267   421013 
 1989000   0.61890935   -2.6131527   -2.6131527   -1.9263257  0.038585547   -2.6131527   0.68682704   421013 
 1990000   0.61784421   -2.6115524   -2.6115524   -1.9259074  0.047006544   -2.6115524   0.68564502   421013 
 1991000   0.61765269   -2.6108468   -2.6108468   -1.9254143   0.04000746   -2.6108468   0.68543248   421013 
 1992000   0.61762475   -2.6106749   -2.6106749   -1.9252735  0.043014857   -2.6106749   0.68540147   421013 
 1993000   0.61821152   -2.6104849   -2.6104849   -1.9244323  0.040636017   -2.6104849   0.68605263   421013 
 1994000   0.61816855   -2.6111492   -2.6111492   -1.9251443  0.041288941   -2.6111492   0.68600495   421013 
 1995000   0.61844363     -2.61122     -2.61122   -1.9249098  0.042296835     -2.61122   0.68631021   421013 
 1996000   0.61877103   -2.6111082   -2.6111082   -1.9244347  0.041633305   -2.6111082   0.68667355   421013 
 1997000   0.61916112   -2.6113643   -2.6113643   -1.9242579  0.029937974   -2.6113643   0.68710644   421013 
 1998000   0.61890346   -2.6115507   -2.6115507   -1.9247302  0.037935787   -2.6115507   0.68682051   421013 
 1999000   0.61763863    -2.610589    -2.610589   -1.9251721  0.038263057    -2.610589   0.68541687   421013 
 2000000   0.61796151   -2.6107191   -2.6107191   -1.9249439  0.050773781   -2.6107191   0.68577519   421013 
 2001000   0.62020876    -2.612631    -2.612631    -1.924362   0.04544794    -2.612631   0.68826904   421013 
 2002000   0.61845408   -2.6108206   -2.6108206   -1.9244988  0.052561921   -2.6108206   0.68632181   421013 
 2003000   0.61797223   -2.6100071   -2.6100071   -1.9242201  0.038962563   -2.6100071   0.68578709   421013 
 2004000   0.61877438   -2.6116301   -2.6116301   -1.9249528  0.049822326   -2.6116301   0.68667726   421013 
 2005000   0.61772602   -2.6105726   -2.6105726   -1.9250588  0.041216952   -2.6105726   0.68551385   421013 
 2006000   0.61753752   -2.6106859   -2.6106859   -1.9253812  0.043756804   -2.6106859   0.68530466   421013 
 2007000    0.6176881   -2.6102838   -2.6102838    -1.924812  0.040754659   -2.6102838   0.68547177   421013 
 2008000    0.6176264   -2.6101902   -2.6101902   -1.9247869  0.042522685   -2.6101902    0.6854033   421013 
 2009000   0.61798414   -2.6104396   -2.6104396   -1.9246393  0.045107099   -2.6104396   0.68580031   421013 
 2010000   0.61821617   -2.6104729   -2.6104729   -1.9244151  0.040962625   -2.6104729    0.6860578   421013 
 2011000   0.61796255   -2.6105154   -2.6105154   -1.9247391   0.04385322   -2.6105154   0.68577634   421013 
 2012000   0.61767032   -2.6101913   -2.6101913   -1.9247393  0.036632131   -2.6101913   0.68545204   421013 
 2013000    0.6186484   -2.6121591   -2.6121591   -1.9256216  0.043340647   -2.6121591   0.68653746   421013 
 2014000   0.61781395   -2.6105902   -2.6105902   -1.9249788  0.049594969   -2.6105902   0.68561144   421013 
 2015000   0.61783971   -2.6105981   -2.6105981   -1.9249581  0.041622886   -2.6105981   0.68564003   421013 
 2016000   0.61764977   -2.6107699   -2.6107699   -1.9253407   0.03639652   -2.6107699   0.68542924   421013 
 2017000   0.61788221   -2.6117381   -2.6117381    -1.926051  0.047216389   -2.6117381   0.68568719   421013 
 2018000   0.61712784   -2.6108326   -2.6108326   -1.9259826  0.035292808   -2.6108326   0.68485003   421013 
 2019000   0.61794045   -2.6121148   -2.6121148    -1.926363  0.026201265   -2.6121148   0.68575182   421013 
 2020000   0.62004246   -2.6135494   -2.6135494   -1.9254649  0.041871324   -2.6135494    0.6880845   421013 
 2021000    0.6195759    -2.612999    -2.612999   -1.9254323  0.055216356    -2.612999   0.68756674   421013 
 2022000    0.6183489   -2.6128565   -2.6128565   -1.9266515  0.039802991   -2.6128565   0.68620509   421013 
 2023000   0.61778085   -2.6119386   -2.6119386   -1.9263639  0.043600389   -2.6119386    0.6855747   421013 
 2024000   0.61898807    -2.612878    -2.612878   -1.9259636  0.039683831    -2.612878    0.6869144   421013 
 2025000   0.62011862   -2.6144232   -2.6144232   -1.9262542  0.040658237   -2.6144232   0.68816901   421013 
 2026000   0.61992001   -2.6134345   -2.6134345   -1.9254858  0.038655374   -2.6134345   0.68794861   421013 
 2027000    0.6191073   -2.6126953   -2.6126953   -1.9256486  0.044469487   -2.6126953   0.68704672   421013 
 2028000   0.61926207   -2.6131979   -2.6131979   -1.9259794  0.046650975   -2.6131979   0.68721846   421013 
 2029000   0.61906658   -2.6141391   -2.6141391   -1.9271376  0.043956721   -2.6141391   0.68700153   421013 
 2030000   0.61772887    -2.611997    -2.611997   -1.9264799  0.048198876    -2.611997   0.68551702   421013 
 2031000   0.61737153   -2.6116244   -2.6116244   -1.9265039  0.042256266   -2.6116244   0.68512047   421013 
 2032000   0.61792795   -2.6127068   -2.6127068   -1.9269688  0.043221538   -2.6127068   0.68573794   421013 
 2033000   0.61686111   -2.6121959   -2.6121959   -1.9276419  0.028777627   -2.6121959   0.68455403   421013 
 2034000   0.61762084   -2.6126024   -2.6126024   -1.9272052  0.046769301   -2.6126024   0.68539714   421013 
 2035000   0.61693759    -2.611334    -2.611334   -1.9266951  0.037495475    -2.611334    0.6846389   421013 
 2036000    0.6183014   -2.6125815   -2.6125815   -1.9264292  0.042167155   -2.6125815   0.68615238   421013 
 2037000   0.61726654   -2.6122201   -2.6122201   -1.9272161   0.04044601   -2.6122201   0.68500395   421013 
 2038000   0.61718764   -2.6125776   -2.6125776   -1.9276612  0.047893318   -2.6125776   0.68491639   421013 
 2039000   0.61685633    -2.611921    -2.611921   -1.9273723  0.039259428    -2.611921   0.68454873   421013 
 2040000   0.61785757   -2.6133284   -2.6133284   -1.9276685  0.048409078   -2.6133284   0.68565984   421013 
 2041000   0.61732248   -2.6130302   -2.6130302   -1.9279641  0.038806945   -2.6130302   0.68506604   421013 
 2042000   0.61887699   -2.6148582   -2.6148582   -1.9280671  0.043800316   -2.6148582   0.68679113   421013 
 2043000    0.6189321   -2.6142725   -2.6142725   -1.9274202  0.044277418   -2.6142725   0.68685229   421013 
 2044000   0.61950878   -2.6149088   -2.6149088   -1.9274166  0.059084653   -2.6149088   0.68749226   421013 
 2045000   0.61762593   -2.6127901   -2.6127901   -1.9273873  0.051179776   -2.6127901   0.68540278   421013 
 2046000   0.61803191   -2.6131178   -2.6131178   -1.9272645  0.046379975   -2.6131178   0.68585331   421013 
 2047000   0.61752116   -2.6131088   -2.6131088   -1.9278223  0.037337496   -2.6131088   0.68528651   421013 
 2048000    0.6172176     -2.61351     -2.61351   -1.9285604  0.040097269     -2.61351   0.68494965   421013 
 2049000   0.61803847   -2.6141464   -2.6141464   -1.9282858  0.049152307   -2.6141464    0.6858606   421013 
 2050000   0.61777512    -2.613972    -2.613972   -1.9284037  0.039132975    -2.613972   0.68556834   421013 
 2051000    0.6177748    -2.614674    -2.614674    -1.929106  0.034882651    -2.614674   0.68556799   421013 
 2052000   0.61739927   -2.6138803   -2.6138803    -1.928729  0.049939291   -2.6138803   0.68515124   421013 
 2053000   0.61730402    -2.614292    -2.614292   -1.9292464  0.045206944    -2.614292   0.68504555   421013 
 2054000   0.61642528   -2.6132122   -2.6132122   -1.9291418  0.045830805   -2.6132122   0.68407037   421013 
 2055000   0.61742012   -2.6146372   -2.6146372   -1.9294628  0.046134399   -2.6146372   0.68517439   421013 
 2056000   0.61764885   -2.6156129   -2.6156129   -1.9301847  0.044518201   -2.6156129   0.68542822   421013 
 2057000    0.6177769    -2.615993    -2.615993   -1.9304227   0.04839118    -2.615993   0.68557032   421013 
 2058000   0.61730722   -2.6156015   -2.6156015   -1.9305524  0.043731085   -2.6156015    0.6850491   421013 
 2059000   0.61717013   -2.6153306   -2.6153306   -1.9304336  0.044073187   -2.6153306   0.68489696   421013 
 2060000   0.61804146   -2.6157064   -2.6157064   -1.9298425  0.046197525   -2.6157064   0.68586391   421013 
 2061000   0.61694442    -2.614769    -2.614769   -1.9301225  0.034740654    -2.614769   0.68464649   421013 
 2062000    0.6166257   -2.6144993   -2.6144993   -1.9302065  0.032889863   -2.6144993   0.68429279   421013 
 2063000   0.61714102    -2.615134    -2.615134   -1.9302693  0.041921506    -2.615134   0.68486466   421013 
 2064000   0.61722316   -2.6152931   -2.6152931   -1.9303373  0.042255582   -2.6152931   0.68495582   421013 
 2065000    0.6151332    -2.613581    -2.613581   -1.9309445  0.042711099    -2.613581   0.68263651   421013 
 2066000   0.61606568   -2.6150836   -2.6150836   -1.9314123  0.038827079   -2.6150836   0.68367132   421013 
 2067000   0.61672354   -2.6160682   -2.6160682   -1.9316668  0.052812458   -2.6160682   0.68440137   421013 
 2068000   0.61616839   -2.6158928   -2.6158928   -1.9321075  0.039819699   -2.6158928    0.6837853   421013 
 2069000   0.61701037   -2.6164699   -2.6164699   -1.9317503  0.046373312   -2.6164699   0.68471967   421013 
 2070000   0.61881131   -2.6180458   -2.6180458   -1.9313275  0.036717322   -2.6180458   0.68671824   421013 
 2071000   0.61744428   -2.6165166   -2.6165166   -1.9313154  0.037446404   -2.6165166    0.6852012   421013 
 2072000   0.61719742   -2.6165169   -2.6165169   -1.9315896  0.056434635   -2.6165169   0.68492724   421013 
 2073000   0.61765626   -2.6171169   -2.6171169   -1.9316805  0.034011244   -2.6171169   0.68543644   421013 
 2074000    0.6167435   -2.6165063   -2.6165063   -1.9320828  0.039064823   -2.6165063   0.68442352   421013 
 2075000   0.61744689   -2.6171903   -2.6171903   -1.9319863  0.028409468   -2.6171903   0.68520409   421013 
 2076000   0.61804863   -2.6183694   -2.6183694   -1.9324976  0.041085174   -2.6183694   0.68587186   421013 
 2077000   0.61782609     -2.61733     -2.61733   -1.9317051   0.04069401     -2.61733   0.68562491   421013 
 2078000   0.61769526   -2.6177852   -2.6177852   -1.9323055  0.039409569   -2.6177852   0.68547972   421013 
 2079000    0.6168403   -2.6166804   -2.6166804   -1.9321495  0.045923535   -2.6166804   0.68453094   421013 
 2080000   0.61703326   -2.6164685   -2.6164685   -1.9317234   0.04036095   -2.6164685   0.68474508   421013 
 2081000   0.61750244   -2.6170573   -2.6170573   -1.9317916  0.040013614   -2.6170573   0.68526574   421013 
 2082000   0.61708495   -2.6167229   -2.6167229   -1.9319205  0.044383145   -2.6167229   0.68480243   421013 
 2083000   0.61739477   -2.6173746   -2.6173746   -1.9322284  0.045869943   -2.6173746   0.68514625   421013 
 2084000   0.61796961   -2.6174646   -2.6174646   -1.9316804  0.049384647   -2.6174646   0.68578418   421013 
 2085000   0.61706873   -2.6166852   -2.6166852   -1.9319008  0.041904067   -2.6166852   0.68478443   421013 
 2086000    0.6172821   -2.6170383   -2.6170383   -1.9320171  0.041383426   -2.6170383   0.68502122   421013 
 2087000   0.61568783   -2.6159439   -2.6159439   -1.9326919  0.037109293   -2.6159439     0.683252   421013 
 2088000   0.61582279    -2.616488    -2.616488   -1.9330862  0.033732082    -2.616488   0.68340177   421013 
 2089000   0.61546166    -2.615906    -2.615906    -1.932905  0.043055894    -2.615906   0.68300101   421013 
 2090000   0.61773651   -2.6178008   -2.6178008   -1.9322753  0.039932604   -2.6178008   0.68552549   421013 
 2091000   0.61731857   -2.6172067   -2.6172067    -1.932145  0.034303306   -2.6172067    0.6850617   421013 
 2092000    0.6173659   -2.6177963   -2.6177963   -1.9326821  0.043222704   -2.6177963   0.68511421   421013 
 2093000   0.61772708    -2.617748    -2.617748   -1.9322329  0.034018814    -2.617748   0.68551504   421013 
 2094000   0.61717416   -2.6173404   -2.6173404    -1.932439  0.042045247   -2.6173404   0.68490143   421013 
 2095000   0.61551907   -2.6161639   -2.6161639   -1.9330991  0.038557854   -2.6161639   0.68306472   421013 
 2096000   0.61659956   -2.6172747   -2.6172747   -1.9330109  0.042859885   -2.6172747   0.68426378   421013 
 2097000   0.61642212   -2.6174628   -2.6174628    -1.933396  0.038050017   -2.6174628   0.68406687   421013 
 2098000   0.61792431   -2.6186082   -2.6186082   -1.9328743  0.049763644   -2.6186082    0.6857339   421013 
 2099000    0.6175187   -2.6188384   -2.6188384   -1.9335546  0.038813172   -2.6188384   0.68528379   421013 
 2100000   0.61658965   -2.6178993   -2.6178993   -1.9336466   0.04137908   -2.6178993   0.68425278   421013 
 2101000    0.6158985   -2.6168993   -2.6168993   -1.9334135   0.04068211   -2.6168993   0.68348579   421013 
 2102000   0.61691364   -2.6183919   -2.6183919   -1.9337796  0.043082377   -2.6183919   0.68461233   421013 
 2103000   0.61633225   -2.6174464   -2.6174464   -1.9334793  0.043402313   -2.6174464   0.68396713   421013 
 2104000   0.61662514   -2.6179747   -2.6179747   -1.9336825   0.04162117   -2.6179747   0.68429216   421013 
 2105000   0.61726016   -2.6191144   -2.6191144   -1.9341176  0.047364271   -2.6191144   0.68499687   421013 
 2106000    0.6163962   -2.6170297   -2.6170297   -1.9329916  0.037291207   -2.6170297    0.6840381   421013 
 2107000   0.61630354   -2.6178846   -2.6178846   -1.9339494  0.036413798   -2.6178846   0.68393527   421013 
 2108000   0.61772249    -2.619078    -2.619078   -1.9335681  0.039903643    -2.619078   0.68550994   421013 
 2109000   0.61623454   -2.6178306   -2.6178306   -1.9339719  0.043465317   -2.6178306   0.68385871   421013 
 2110000   0.61622937   -2.6180174   -2.6180174   -1.9341645  0.053066066   -2.6180174   0.68385296   421013 
 2111000    0.6157556   -2.6176975   -2.6176975   -1.9343703  0.039285454   -2.6176975    0.6833272   421013 
 2112000   0.61684198   -2.6187448   -2.6187448    -1.934212  0.049045218   -2.6187448   0.68453281   421013 
 2113000   0.61604453   -2.6180305   -2.6180305   -1.9343827  0.042574668   -2.6180305   0.68364785   421013 
 2114000   0.61787993   -2.6198073   -2.6198073   -1.9341226  0.037654526   -2.6198073   0.68568466   421013 
 2115000   0.61738457   -2.6193143   -2.6193143   -1.9341793  0.037454395   -2.6193143   0.68513493   421013 
 2116000   0.61645431   -2.6180224   -2.6180224   -1.9339199  0.038758566   -2.6180224   0.68410259   421013 
 2117000   0.61645103   -2.6186629   -2.6186629   -1.9345639  0.039723158   -2.6186629   0.68409896   421013 
 2118000   0.61786285   -2.6197825   -2.6197825   -1.9341168  0.037292285   -2.6197825    0.6856657   421013 
 2119000   0.61778372   -2.6200502   -2.6200502   -1.9344723  0.043515796   -2.6200502   0.68557789   421013 
 2120000   0.61667349   -2.6195094   -2.6195094   -1.9351636  0.036014311   -2.6195094   0.68434582   421013 
 2121000   0.61656425   -2.6193766   -2.6193766    -1.935152  0.043632782   -2.6193766   0.68422459   421013 
 2122000   0.61753451   -2.6202454   -2.6202454    -1.934944  0.045922043   -2.6202454   0.68530132   421013 
 2123000    0.6164786    -2.619841    -2.619841   -1.9357115   0.03999374    -2.619841   0.68412954   421013 
 2124000   0.61590108   -2.6197822   -2.6197822   -1.9362935  0.034160196   -2.6197822   0.68348865   421013 
 2125000   0.61716021   -2.6214384   -2.6214384   -1.9365524  0.037809546   -2.6214384   0.68488596   421013 
 2126000   0.61790009   -2.6218122   -2.6218122   -1.9361051   0.04159051   -2.6218122   0.68570702   421013 
 2127000   0.61714364   -2.6204002   -2.6204002   -1.9355326  0.046829544   -2.6204002   0.68486757   421013 
 2128000   0.61731192   -2.6199901   -2.6199901   -1.9349358  0.046083249   -2.6199901   0.68505431   421013 
 2129000   0.61718119   -2.6204441   -2.6204441   -1.9355349  0.045996212   -2.6204441   0.68490924   421013 
 2130000   0.61746666   -2.6211456   -2.6211456   -1.9359195  0.042964732   -2.6211456   0.68522604   421013 
 2131000   0.61786198   -2.6218734   -2.6218734   -1.9362087  0.048888972   -2.6218734   0.68566474   421013 
 2132000   0.61724064   -2.6212453   -2.6212453   -1.9362701  0.041123419   -2.6212453   0.68497521   421013 
 2133000   0.61621186   -2.6204574   -2.6204574   -1.9366238  0.036442185   -2.6204574   0.68383353   421013 
 2134000   0.61651346   -2.6209879   -2.6209879   -1.9368197  0.038216299   -2.6209879   0.68416823   421013 
 2135000   0.61593793   -2.6202732   -2.6202732   -1.9367436  0.046329964   -2.6202732   0.68352954   421013 
 2136000    0.6157741   -2.6199645   -2.6199645   -1.9366168  0.036823124   -2.6199645   0.68334774   421013 
 2137000   0.61657364   -2.6202162   -2.6202162   -1.9359812   0.04233861   -2.6202162   0.68423501   421013 
 2138000   0.61765086    -2.620873    -2.620873   -1.9354425  0.043545387    -2.620873   0.68543045   421013 
 2139000   0.61602411   -2.6194414   -2.6194414   -1.9358162  0.039051576   -2.6194414   0.68362518   421013 
 2140000   0.61672017    -2.620813    -2.620813   -1.9364154  0.037253716    -2.620813   0.68439763   421013 
 2141000   0.61598332      -2.6201      -2.6201   -1.9365201  0.046662419      -2.6201   0.68357992   421013 
 2142000   0.61679747   -2.6216298   -2.6216298   -1.9371464  0.042396563   -2.6216298    0.6844834   421013 
 2143000   0.61695552   -2.6217322   -2.6217322   -1.9370734  0.034034382   -2.6217322    0.6846588   421013 
 2144000   0.61671282   -2.6212749   -2.6212749   -1.9368854  0.042565161   -2.6212749   0.68438947   421013 
 2145000   0.61699413    -2.621625    -2.621625   -1.9369234  0.046701258    -2.621625   0.68470165   421013 
 2146000   0.61554017   -2.6201991   -2.6201991    -1.937111  0.033465947   -2.6201991   0.68308813   421013 
 2147000    0.6175216    -2.623134    -2.623134    -1.937847  0.042068439    -2.623134     0.685287   421013 
 2148000    0.6170655   -2.6223045   -2.6223045   -1.9375236  0.052379471   -2.6223045   0.68478086   421013 
 2149000   0.61685782    -2.622644    -2.622644   -1.9380936  0.050101845    -2.622644   0.68455038   421013 
 2150000   0.61708399   -2.6227586   -2.6227586   -1.9379572  0.046423357   -2.6227586   0.68480137   421013 
 2151000   0.61649013   -2.6220837   -2.6220837   -1.9379413  0.039003387   -2.6220837   0.68414234   421013 
 2152000   0.61600052   -2.6219219   -2.6219219   -1.9383229  0.039312818   -2.6219219   0.68359901   421013 
 2153000   0.61711485   -2.6229746   -2.6229746   -1.9381389  0.042451028   -2.6229746   0.68483562   421013 
 2154000   0.61683645   -2.6226713   -2.6226713   -1.9381446  0.044458612   -2.6226713   0.68452666   421013 
 2155000   0.61711745    -2.622895    -2.622895   -1.9380565  0.038452813    -2.622895   0.68483851   421013 
 2156000    0.6170929   -2.6228849   -2.6228849   -1.9380737  0.036445786   -2.6228849   0.68481125   421013 
 2157000   0.61664527   -2.6220291   -2.6220291   -1.9377146  0.048482557   -2.6220291   0.68431451   421013 
 2158000   0.61687069   -2.6229133   -2.6229133   -1.9383486  0.036229016   -2.6229133   0.68456466   421013 
 2159000   0.61636509   -2.6223815   -2.6223815   -1.9383779   0.03818369   -2.6223815   0.68400358   421013 
 2160000   0.61698763    -2.623046    -2.623046   -1.9383515  0.037709728    -2.623046   0.68469444   421013 
 2161000   0.61656764   -2.6220166   -2.6220166   -1.9377883   0.04815537   -2.6220166   0.68422836   421013 
 2162000   0.61599785   -2.6220885   -2.6220885   -1.9384925  0.041384813   -2.6220885   0.68359604   421013 
 2163000    0.6180852   -2.6239071   -2.6239071   -1.9379946  0.039245634   -2.6239071   0.68591245   421013 
 2164000   0.61618532   -2.6218756   -2.6218756   -1.9380715  0.038519564   -2.6218756   0.68380409   421013 
 2165000    0.6166724   -2.6223482   -2.6223482   -1.9380036  0.040277624   -2.6223482   0.68434461   421013 
 2166000   0.61816074   -2.6245407   -2.6245407   -1.9385444  0.043261423   -2.6245407   0.68599628   421013 
 2167000   0.61757425   -2.6241709   -2.6241709   -1.9388254  0.040031119   -2.6241709   0.68534543   421013 
 2168000   0.61477068   -2.6212985   -2.6212985   -1.9390643  0.025212766   -2.6212985    0.6822342   421013 
 2169000   0.61692955   -2.6235517   -2.6235517   -1.9389218  0.043863647   -2.6235517   0.68462998   421013 
 2170000     0.615303   -2.6214376   -2.6214376   -1.9386127  0.031141676   -2.6214376   0.68282493   421013 
 2171000   0.61613531    -2.622228    -2.622228   -1.9384794  0.040361471    -2.622228   0.68374859   421013 
 2172000   0.61611611   -2.6218681   -2.6218681   -1.9381409  0.045372587   -2.6218681   0.68372728   421013 
 2173000   0.61559053   -2.6212158   -2.6212158   -1.9380718  0.046319667   -2.6212158   0.68314402   421013 
 2174000   0.61585956   -2.6216723   -2.6216723   -1.9382298  0.041459149   -2.6216723   0.68344258   421013 
 2175000   0.61663404   -2.6221404   -2.6221404   -1.9378384  0.054613895   -2.6221404   0.68430205   421013 
 2176000    0.6155465   -2.6208612   -2.6208612    -1.937766  0.043857181   -2.6208612   0.68309515   421013 
 2177000   0.61738927   -2.6235616   -2.6235616   -1.9384215  0.042040821   -2.6235616   0.68514016   421013 
 2178000   0.61724734   -2.6236194   -2.6236194   -1.9386367  0.041892967   -2.6236194   0.68498265   421013 
 2179000   0.61643976   -2.6229733   -2.6229733   -1.9388869  0.040356933   -2.6229733   0.68408644   421013 
 2180000   0.61667753   -2.6231482   -2.6231482   -1.9387979  0.040596727   -2.6231482   0.68435031   421013 
 2181000   0.61606032    -2.622666    -2.622666   -1.9390006  0.043892561    -2.622666   0.68366537   421013 
 2182000   0.61555746   -2.6220779   -2.6220779   -1.9389706  0.034026656   -2.6220779   0.68310732   421013 
 2183000   0.61587857   -2.6228862   -2.6228862   -1.9394225  0.041134023   -2.6228862   0.68346367   421013 
 2184000   0.61625853   -2.6236923   -2.6236923   -1.9398069  0.042139845   -2.6236923   0.68388532   421013 
 2185000   0.61576516   -2.6228516   -2.6228516   -1.9395138  0.046788501   -2.6228516   0.68333782   421013 
 2186000   0.61680257   -2.6233191   -2.6233191   -1.9388301  0.037801876   -2.6233191   0.68448906   421013 
 2187000   0.61565718   -2.6221443   -2.6221443   -1.9389263   0.05033103   -2.6221443   0.68321798   421013 
 2188000   0.61640319   -2.6234296   -2.6234296   -1.9393837    0.0401409   -2.6234296   0.68404587   421013 
 2189000   0.61730751   -2.6246577   -2.6246577   -1.9396083  0.032525306   -2.6246577   0.68504942   421013 
 2190000    0.6172094   -2.6241971   -2.6241971   -1.9392565  0.042842221   -2.6241971   0.68494054   421013 
 2191000   0.61548788   -2.6226054   -2.6226054   -1.9395753  0.036785174   -2.6226054   0.68303011   421013 
 2192000   0.61720527   -2.6243441   -2.6243441   -1.9394081  0.055770985   -2.6243441   0.68493596   421013 
 2193000   0.61653402   -2.6237196   -2.6237196   -1.9395285   0.03749514   -2.6237196   0.68419105   421013 
 2194000   0.61740407   -2.6248593   -2.6248593   -1.9397027   0.04088003   -2.6248593   0.68515657   421013 
 2195000   0.61586282   -2.6235173   -2.6235173   -1.9400711  0.044766727   -2.6235173   0.68344619   421013 
 2196000   0.61717979   -2.6246559   -2.6246559   -1.9397482  0.043275141   -2.6246559   0.68490768   421013 
 2197000   0.61527118   -2.6225714   -2.6225714   -1.9397818  0.048252988   -2.6225714   0.68278963   421013 
 2198000   0.61543819   -2.6225677   -2.6225677   -1.9395927  0.038723564   -2.6225677   0.68297496   421013 
 2199000   0.61575297   -2.6223908   -2.6223908   -1.9390665  0.036516589   -2.6223908   0.68332429   421013 
 2200000   0.61550553   -2.6225212   -2.6225212   -1.9394715   0.04528191   -2.6225212   0.68304969   421013 
 2201000   0.61581864   -2.6218984   -2.6218984   -1.9385013  0.039148775   -2.6218984   0.68339716   421013 
 2202000   0.61514417   -2.6208715   -2.6208715   -1.9382228  0.038817173   -2.6208715   0.68264868   421013 
 2203000   0.61590191   -2.6214572   -2.6214572   -1.9379677   0.03422838   -2.6214572   0.68348957   421013 
 2204000   0.61695214   -2.6223353   -2.6223353   -1.9376803     0.036466   -2.6223353   0.68465505   421013 
 2205000   0.61625678   -2.6224275   -2.6224275   -1.9385442  0.039711306   -2.6224275   0.68388339   421013 
 2206000   0.61593482   -2.6216804   -2.6216804   -1.9381543  0.038819481   -2.6216804   0.68352609   421013 
 2207000   0.61621362   -2.6219959   -2.6219959   -1.9381604  0.037798231   -2.6219959   0.68383549   421013 
 2208000   0.61521995   -2.6217876   -2.6217876   -1.9390548  0.043970894   -2.6217876   0.68273278   421013 
 2209000    0.6154916   -2.6216994   -2.6216994   -1.9386652  0.036926784   -2.6216994   0.68303423   421013 
 2210000   0.61613675   -2.6221403   -2.6221403   -1.9383902   0.04125665   -2.6221403   0.68375018   421013 
 2211000   0.61566235   -2.6220863   -2.6220863   -1.9388625  0.035863048   -2.6220863   0.68322373   421013 
 2212000    0.6148736   -2.6221352   -2.6221352   -1.9397867  0.041477301   -2.6221352   0.68234842   421013 
 2213000   0.61560679   -2.6227428   -2.6227428   -1.9395807   0.03592658   -2.6227428   0.68316206   421013 
 2214000   0.61492573   -2.6218615   -2.6218615   -1.9394552  0.036831067   -2.6218615   0.68240627   421013 
 2215000   0.61475905   -2.6222307   -2.6222307   -1.9400094  0.043896553   -2.6222307    0.6822213   421013 
 2216000   0.61515774   -2.6229197   -2.6229197    -1.940256  0.042013766   -2.6229197   0.68266374   421013 
 2217000    0.6158331   -2.6240799   -2.6240799   -1.9406667  0.047882759   -2.6240799   0.68341321   421013 
 2218000   0.61609785    -2.624945    -2.624945   -1.9412379  0.046004944    -2.624945   0.68370702   421013 
 2219000   0.61632757   -2.6250931   -2.6250931   -1.9411312  0.042954813   -2.6250931   0.68396194   421013 
 2220000   0.61685914   -2.6256434   -2.6256434   -1.9410915  0.045837593   -2.6256434   0.68455184   421013 
 2221000   0.61653893   -2.6251163   -2.6251163   -1.9409198  0.044845832   -2.6251163   0.68419649   421013 
 2222000   0.61646437   -2.6255271   -2.6255271   -1.9414133  0.047409272   -2.6255271   0.68411375   421013 
 2223000   0.61569658   -2.6247934   -2.6247934   -1.9415317  0.046485184   -2.6247934   0.68326171   421013 
 2224000   0.61552502   -2.6260522   -2.6260522   -1.9429808  0.040483666   -2.6260522   0.68307132   421013 
 2225000   0.61523637   -2.6261034   -2.6261034   -1.9433524  0.041893378   -2.6261034     0.682751   421013 
 2226000   0.61533092   -2.6258455   -2.6258455   -1.9429895  0.035688567   -2.6258455   0.68285592   421013 
 2227000   0.61581442   -2.6263405   -2.6263405    -1.942948   0.03774271   -2.6263405   0.68339249   421013 
 2228000   0.61592198   -2.6260611   -2.6260611   -1.9425492  0.049400055   -2.6260611   0.68351184   421013 
 2229000   0.61632677   -2.6264424   -2.6264424   -1.9424813  0.050089962   -2.6264424   0.68396105   421013 
 2230000   0.61398596   -2.6240701   -2.6240701   -1.9427067  0.043606581   -2.6240701   0.68136337   421013 
 2231000   0.61592179   -2.6262959   -2.6262959   -1.9427842  0.043428368   -2.6262959   0.68351164   421013 
 2232000   0.61583417   -2.6261685   -2.6261685   -1.9427541  0.047119456   -2.6261685    0.6834144   421013 
 2233000    0.6147178   -2.6242628   -2.6242628   -1.9420873  0.039614605   -2.6242628   0.68217552   421013 
 2234000   0.61676824   -2.6270522   -2.6270522   -1.9426013   0.03294963   -2.6270522   0.68445097   421013 
 2235000   0.61567057   -2.6254341   -2.6254341   -1.9422012  0.048036789   -2.6254341   0.68323285   421013 
 2236000   0.61634464   -2.6259437   -2.6259437   -1.9419628  0.033057049   -2.6259437   0.68398089   421013 
 2237000    0.6162019   -2.6258602   -2.6258602   -1.9420377  0.037440911   -2.6258602   0.68382248   421013 
 2238000   0.61585552    -2.624976    -2.624976   -1.9415379  0.033912402    -2.624976   0.68343809   421013 
 2239000   0.61735678   -2.6264277   -2.6264277   -1.9413236  0.041397256   -2.6264277    0.6851041   421013 
 2240000   0.61596254   -2.6247704   -2.6247704   -1.9412136  0.047762085   -2.6247704   0.68355685   421013 
 2241000   0.61623015   -2.6254664   -2.6254664   -1.9416126  0.038729743   -2.6254664   0.68385383   421013 
 2242000    0.6155229   -2.6251182   -2.6251182   -1.9420493  0.037519308   -2.6251182   0.68306897   421013 
 2243000   0.61601888   -2.6262129   -2.6262129   -1.9425936  0.037421535   -2.6262129   0.68361937   421013 
 2244000   0.61553024   -2.6263491   -2.6263491    -1.943272   0.03515096   -2.6263491   0.68307711   421013 
 2245000   0.61548123    -2.626015    -2.626015   -1.9429923  0.036706035    -2.626015   0.68302272   421013 
 2246000   0.61574403   -2.6262299   -2.6262299   -1.9429155  0.043066026   -2.6262299   0.68331437   421013 
 2247000   0.61635851   -2.6259438   -2.6259438   -1.9419475  0.047845455   -2.6259438   0.68399628   421013 
 2248000   0.61605165   -2.6257477   -2.6257477   -1.9420919  0.045743286   -2.6257477   0.68365575   421013 
 2249000   0.61622059    -2.626695    -2.626695   -1.9428518   0.04177536    -2.626695   0.68384322   421013 
 2250000   0.61538122   -2.6256453   -2.6256453   -1.9427336   0.03933961   -2.6256453   0.68291174   421013 
 2251000    0.6149786   -2.6247553   -2.6247553   -1.9422904  0.047055683   -2.6247553   0.68246494   421013 
 2252000   0.61602245   -2.6260433   -2.6260433     -1.94242  0.034952958   -2.6260433   0.68362334   421013 
 2253000    0.6155273   -2.6256782   -2.6256782   -1.9426043   0.04480326   -2.6256782   0.68307385   421013 
 2254000   0.61547253   -2.6256129   -2.6256129   -1.9425999   0.03978658   -2.6256129   0.68301307   421013 
 2255000   0.61721376   -2.6268921   -2.6268921   -1.9419467  0.033957384   -2.6268921   0.68494538   421013 
 2256000    0.6161074   -2.6258191   -2.6258191   -1.9421014  0.042341031   -2.6258191   0.68371761   421013 
 2257000   0.61513089   -2.6252844   -2.6252844   -1.9426505  0.045435747   -2.6252844   0.68263394   421013 
 2258000   0.61526094   -2.6257554   -2.6257554   -1.9429771  0.043164592   -2.6257554   0.68277826   421013 
 2259000   0.61601801   -2.6262537   -2.6262537   -1.9426353  0.040257927   -2.6262537   0.68361841   421013 
 2260000   0.61470863   -2.6246485   -2.6246485   -1.9424832  0.043561524   -2.6246485   0.68216534   421013 
 2261000   0.61521913   -2.6255372   -2.6255372   -1.9428053  0.047549565   -2.6255372   0.68273186   421013 
 2262000   0.61543883   -2.6255355   -2.6255355   -1.9425598  0.036398138   -2.6255355   0.68297567   421013 
 2263000   0.61566004   -2.6254649   -2.6254649   -1.9422437  0.038287183   -2.6254649   0.68322115   421013 
 2264000   0.61465498   -2.6247444   -2.6247444   -1.9426386  0.035734928   -2.6247444   0.68210581   421013 
 2265000   0.61448867   -2.6255652   -2.6255652   -1.9436439  0.039790277   -2.6255652   0.68192125   421013 
 2266000   0.61548975   -2.6259509   -2.6259509   -1.9429187  0.037898816   -2.6259509   0.68303218   421013 
 2267000    0.6138824   -2.6243451   -2.6243451   -1.9430966  0.049258237   -2.6243451   0.68124845   421013 
 2268000   0.61523999   -2.6259277   -2.6259277   -1.9431727  0.036403752   -2.6259277   0.68275502   421013 
 2269000   0.61507688   -2.6254858   -2.6254858   -1.9429118  0.040977686   -2.6254858   0.68257401   421013 
 2270000   0.61516262   -2.6257911   -2.6257911    -1.943122  0.031201523   -2.6257911   0.68266915   421013 
 2271000   0.61656955   -2.6273757   -2.6273757   -1.9431452  0.044841295   -2.6273757   0.68423047   421013 
 2272000   0.61573712   -2.6267274   -2.6267274   -1.9434207  0.034639983   -2.6267274    0.6833067   421013 
 2273000   0.61436204   -2.6261271   -2.6261271   -1.9443464  0.044465855   -2.6261271   0.68178072   421013 
 2274000   0.61540078   -2.6268398   -2.6268398   -1.9439064  0.031528553   -2.6268398   0.68293345   421013 
 2275000   0.61494373   -2.6264529   -2.6264529   -1.9440267  0.041579215   -2.6264529   0.68242625   421013 
 2276000   0.61477253   -2.6268362   -2.6268362   -1.9445999  0.046227756   -2.6268362   0.68223625   421013 
 2277000   0.61453099   -2.6262396   -2.6262396   -1.9442714  0.039623397   -2.6262396   0.68196821   421013 
 2278000   0.61474015   -2.6261603   -2.6261603     -1.94396  0.042086989   -2.6261603   0.68220032   421013 
 2279000   0.61459019   -2.6260075   -2.6260075   -1.9439736   0.03269523   -2.6260075   0.68203391   421013 
 2280000   0.61560933   -2.6270616   -2.6270616   -1.9438968  0.038550197   -2.6270616   0.68316488   421013 
 2281000   0.61435805   -2.6255396   -2.6255396   -1.9437633  0.039277657   -2.6255396   0.68177629   421013 
 2282000   0.61395356   -2.6246383   -2.6246383   -1.9433109  0.052843881   -2.6246383   0.68132741   421013 
 2283000   0.61553054   -2.6265261   -2.6265261   -1.9434486  0.031747576   -2.6265261   0.68307744   421013 
 2284000   0.61528601   -2.6262557   -2.6262557   -1.9434496  0.043443181   -2.6262557   0.68280608   421013 
 2285000   0.61482621   -2.6260674   -2.6260674   -1.9437715  0.030485606   -2.6260674   0.68229582   421013 
 2286000    0.6144364   -2.6262102   -2.6262102    -1.944347  0.037880717   -2.6262102   0.68186324   421013 
 2287000   0.61489492   -2.6264487   -2.6264487   -1.9440766  0.036500219   -2.6264487   0.68237208   421013 
 2288000   0.61460379   -2.6257343   -2.6257343   -1.9436853  0.044490096   -2.6257343     0.682049   421013 
 2289000   0.61554441    -2.627357    -2.627357   -1.9442641  0.038293958    -2.627357   0.68309284   421013 
 2290000   0.61451956   -2.6273375   -2.6273375   -1.9453819  0.044045568   -2.6273375   0.68195552   421013 
 2291000   0.61466565   -2.6270775   -2.6270775   -1.9449598  0.037470177   -2.6270775   0.68211765   421013 
 2292000   0.61317184   -2.6255158   -2.6255158   -1.9450559  0.045052295   -2.6255158   0.68045991   421013 
 2293000   0.61510481   -2.6281721   -2.6281721   -1.9455671  0.033923051   -2.6281721     0.682605   421013 
 2294000   0.61589043   -2.6293517   -2.6293517   -1.9458748  0.042107263   -2.6293517   0.68347684   421013 
 2295000   0.61492047   -2.6287992   -2.6287992   -1.9463988  0.045267634   -2.6287992   0.68240043   421013 
 2296000   0.61528227   -2.6286697   -2.6286697   -1.9458678  0.040000653   -2.6286697   0.68280194   421013 
 2297000   0.61633214   -2.6300294   -2.6300294   -1.9460624  0.043282844   -2.6300294   0.68396701   421013 
 2298000   0.61535605   -2.6294036   -2.6294036   -1.9465198  0.034437961   -2.6294036   0.68288381   421013 
 2299000   0.61630725   -2.6303808   -2.6303808   -1.9464414  0.039588745   -2.6303808   0.68393939   421013 
 2300000   0.61551303   -2.6295816   -2.6295816   -1.9465236  0.040163978   -2.6295816   0.68305802   421013 
 2301000   0.61559268   -2.6292549   -2.6292549   -1.9461085  0.039488104   -2.6292549    0.6831464   421013 
 2302000   0.61505483   -2.6291217   -2.6291217   -1.9465722  0.042597963   -2.6291217   0.68254954   421013 
 2303000   0.61527908   -2.6301441   -2.6301441   -1.9473458  0.039409473   -2.6301441   0.68279839   421013 
 2304000   0.61535862   -2.6294654   -2.6294654   -1.9465787  0.041593141   -2.6294654   0.68288666   421013 
 2305000    0.6142977   -2.6283043   -2.6283043    -1.946595  0.031706715   -2.6283043   0.68170932   421013 
 2306000   0.61576842   -2.6298118   -2.6298118   -1.9464703  0.043046564   -2.6298118   0.68334144   421013 
 2307000   0.61507125    -2.628508    -2.628508   -1.9459402  0.040874652    -2.628508   0.68256776   421013 
 2308000   0.61456972   -2.6282651   -2.6282651   -1.9462539  0.035573013   -2.6282651   0.68201119   421013 
 2309000   0.61494649   -2.6284245   -2.6284245   -1.9459952  0.037700961   -2.6284245    0.6824293   421013 
 2310000   0.61366504   -2.6272344   -2.6272344   -1.9462271   0.03025123   -2.6272344   0.68100723   421013 
 2311000    0.6156932   -2.6294015   -2.6294015   -1.9461435  0.042073639   -2.6294015   0.68325796   421013 
 2312000   0.61429522    -2.627889    -2.627889   -1.9461825  0.043123435    -2.627889   0.68170657   421013 
 2313000   0.61307205   -2.6269737   -2.6269737   -1.9466245  0.046170992   -2.6269737   0.68034917   421013 
 2314000   0.61530713    -2.628897    -2.628897   -1.9460675  0.044158351    -2.628897   0.68282953   421013 
 2315000   0.61459509    -2.628674    -2.628674   -1.9466346  0.043115075    -2.628674   0.68203935   421013 
 2316000    0.6141538   -2.6279527   -2.6279527   -1.9464031  0.039836565   -2.6279527   0.68154963   421013 
 2317000    0.6141336   -2.6277799   -2.6277799   -1.9462526  0.043093668   -2.6277799   0.68152721   421013 
 2318000    0.6141832   -2.6281764   -2.6281764   -1.9465942   0.04029256   -2.6281764   0.68158226   421013 
 2319000   0.61566239   -2.6292438   -2.6292438     -1.94602  0.041027398   -2.6292438   0.68322377   421013 
 2320000   0.61640508   -2.6299057   -2.6299057   -1.9458577     0.040916   -2.6299057   0.68404796   421013 
 2321000   0.61577601   -2.6298724   -2.6298724   -1.9465226  0.043807524   -2.6298724   0.68334985   421013 
 2322000   0.61617549   -2.6300791   -2.6300791    -1.946286  0.044562652   -2.6300791   0.68379317   421013 
 2323000   0.61595706   -2.6302845   -2.6302845   -1.9467338  0.044979373   -2.6302845   0.68355077   421013 
 2324000   0.61598394   -2.6298925   -2.6298925   -1.9463119  0.040104385   -2.6298925    0.6835806   421013 
 2325000   0.61512746   -2.6290366   -2.6290366   -1.9464065  0.043367633   -2.6290366   0.68263014   421013 
 2326000   0.61595765   -2.6303402   -2.6303402   -1.9467888  0.049735938   -2.6303402   0.68355143   421013 
 2327000   0.61509204   -2.6291855   -2.6291855   -1.9465947  0.046227273   -2.6291855   0.68259083   421013 
 2328000    0.6151373   -2.6287598   -2.6287598   -1.9461187  0.036550281   -2.6287598   0.68264106   421013 
 2329000   0.61471427   -2.6285939   -2.6285939   -1.9464222  0.044200481   -2.6285939   0.68217161   421013 
 2330000   0.61437675   -2.6287817   -2.6287817   -1.9469846   0.03460155   -2.6287817   0.68179704   421013 
 2331000   0.61456353   -2.6289105   -2.6289105   -1.9469062   0.02928682   -2.6289105   0.68200432   421013 
 2332000   0.61450049   -2.6294241   -2.6294241   -1.9474897  0.036588364   -2.6294241   0.68193437   421013 
 2333000    0.6153227   -2.6298224   -2.6298224   -1.9469756  0.050542938   -2.6298224    0.6828468   421013 
 2334000   0.61509235   -2.6290444   -2.6290444   -1.9464533  0.034971825   -2.6290444   0.68259117   421013 
 2335000   0.61460484   -2.6292196   -2.6292196   -1.9471695   0.03505137   -2.6292196   0.68205017   421013 
 2336000   0.61556768   -2.6301046   -2.6301046   -1.9469859  0.038837825   -2.6301046   0.68311867   421013 
 2337000   0.61641593   -2.6307761   -2.6307761   -1.9467161  0.045790369   -2.6307761      0.68406   421013 
 2338000   0.61538698   -2.6298501   -2.6298501    -1.946932  0.042711419   -2.6298501   0.68291813   421013 
 2339000   0.61585122    -2.630166    -2.630166   -1.9467327  0.048370518    -2.630166   0.68343332   421013 
 2340000   0.61472635   -2.6285809   -2.6285809   -1.9463959  0.039174897   -2.6285809   0.68218501   421013 
 2341000   0.61545963   -2.6293856   -2.6293856   -1.9463869  0.032804264   -2.6293856   0.68299876   421013 
 2342000   0.61553527    -2.629924    -2.629924   -1.9468413  0.033861576    -2.629924    0.6830827   421013 
 2343000   0.61511755   -2.6296061   -2.6296061    -1.946987  0.034998168   -2.6296061   0.68261914   421013 
 2344000   0.61405011   -2.6287838   -2.6287838   -1.9473493  0.041404827   -2.6287838   0.68143456   421013 
 2345000   0.61581099   -2.6300162   -2.6300162   -1.9466276  0.032833171   -2.6300162   0.68338868   421013 
 2346000   0.61478759   -2.6289784   -2.6289784   -1.9467254  0.036696858   -2.6289784   0.68225297   421013 
 2347000   0.61458391    -2.629304    -2.629304   -1.9472771  0.038433057    -2.629304   0.68202693   421013 
 2348000   0.61406463   -2.6289959   -2.6289959   -1.9475452  0.028032056   -2.6289959   0.68145068   421013 
 2349000   0.61559216   -2.6299358   -2.6299358   -1.9467899  0.047808357   -2.6299358   0.68314583   421013 
 2350000   0.61677526   -2.6313938   -2.6313938   -1.9469351  0.043315364   -2.6313938   0.68445876   421013 
 2351000   0.61575669   -2.6307848   -2.6307848   -1.9474564  0.040867778   -2.6307848   0.68332842   421013 
 2352000   0.61638912   -2.6312277   -2.6312277   -1.9471975  0.041258175   -2.6312277   0.68403024   421013 
 2353000   0.61504214   -2.6304974   -2.6304974    -1.947962  0.039742555   -2.6304974   0.68253545   421013 
 2354000   0.61527456   -2.6303245   -2.6303245   -1.9475312   0.04654773   -2.6303245   0.68279338   421013 
 2355000   0.61527044   -2.6301983   -2.6301983   -1.9474095   0.04827028   -2.6301983   0.68278881   421013 
 2356000   0.61519024   -2.6310991   -2.6310991   -1.9483993   0.03975122   -2.6310991   0.68269981   421013 
 2357000   0.61558716   -2.6312965   -2.6312965   -1.9481562  0.041968943   -2.6312965   0.68314028   421013 
 2358000   0.61622799   -2.6319964   -2.6319964   -1.9481449  0.043925454   -2.6319964   0.68385143   421013 
 2359000   0.61587706   -2.6320434   -2.6320434   -1.9485814  0.049648856   -2.6320434     0.683462   421013 
 2360000   0.61564758   -2.6320323   -2.6320323    -1.948825  0.041061121   -2.6320323   0.68320733   421013 
 2361000   0.61576616   -2.6326579   -2.6326579    -1.949319   0.04605462   -2.6326579   0.68333893   421013 
 2362000   0.61540274   -2.6318516   -2.6318516    -1.948916  0.045026192   -2.6318516   0.68293562   421013 
 2363000   0.61491033   -2.6318318   -2.6318318   -1.9494426  0.038727981   -2.6318318   0.68238918   421013 
 2364000   0.61343576   -2.6299636   -2.6299636   -1.9492109  0.042576072   -2.6299636   0.68075279   421013 
 2365000   0.61536703   -2.6316626   -2.6316626   -1.9487666  0.047348987   -2.6316626   0.68289599   421013 
 2366000   0.61656441   -2.6331005   -2.6331005   -1.9488757  0.036508757   -2.6331005   0.68422477   421013 
 2367000   0.61586026   -2.6325139   -2.6325139   -1.9490705  0.036023337   -2.6325139   0.68344335   421013 
 2368000   0.61505361   -2.6319408   -2.6319408   -1.9493926  0.051385258   -2.6319408   0.68254818   421013 
 2369000   0.61567811   -2.6326585   -2.6326585   -1.9494173  0.034156136   -2.6326585   0.68324121   421013 
 2370000   0.61555692   -2.6321693   -2.6321693   -1.9490626  0.048618914   -2.6321693   0.68310672   421013 
 2371000    0.6147556   -2.6312596   -2.6312596   -1.9490421  0.036289232   -2.6312596   0.68221746   421013 
 2372000   0.61409032   -2.6300599   -2.6300599   -1.9485807  0.039650504   -2.6300599   0.68147918   421013 
 2373000   0.61503896   -2.6323211   -2.6323211   -1.9497892  0.041601197   -2.6323211   0.68253192   421013 
 2374000    0.6150439    -2.632605    -2.632605   -1.9500676  0.039556316    -2.632605    0.6825374   421013 
 2375000    0.6144473   -2.6323844   -2.6323844   -1.9505091  0.032699131   -2.6323844   0.68187533   421013 
 2376000   0.61484215   -2.6331509   -2.6331509   -1.9508374  0.034988579   -2.6331509   0.68231352   421013 
 2377000   0.61475691   -2.6336368   -2.6336368   -1.9514179  0.044367435   -2.6336368   0.68221892   421013 
 2378000   0.61583698    -2.633505    -2.633505   -1.9500875  0.040550716    -2.633505   0.68341752   421013 
 2379000   0.61573191    -2.633533    -2.633533   -1.9502321  0.042915053    -2.633533   0.68330092   421013 
 2380000   0.61578785   -2.6330185   -2.6330185   -1.9496555  0.043058531   -2.6330185   0.68336299   421013 
 2381000   0.61571791   -2.6325844   -2.6325844    -1.949299  0.038926502   -2.6325844   0.68328538   421013 
 2382000    0.6170842   -2.6342581   -2.6342581   -1.9494565  0.044673599   -2.6342581    0.6848016   421013 
 2383000   0.61544914   -2.6326868   -2.6326868   -1.9496997  0.037353255   -2.6326868   0.68298712   421013 
 2384000   0.61573002   -2.6332032   -2.6332032   -1.9499044  0.046266589   -2.6332032   0.68329882   421013 
 2385000   0.61648476   -2.6341393   -2.6341393   -1.9500029   0.04419561   -2.6341393   0.68413639   421013 
 2386000   0.61527434   -2.6332467   -2.6332467   -1.9504535  0.036871197   -2.6332467   0.68279313   421013 
 2387000   0.61498954   -2.6334063   -2.6334063   -1.9509292  0.035749361   -2.6334063   0.68247708   421013 
 2388000     0.615128   -2.6332565   -2.6332565   -1.9506258  0.042494366   -2.6332565   0.68263074   421013 
 2389000   0.61557441   -2.6343674   -2.6343674   -1.9512413  0.032992319   -2.6343674   0.68312613   421013 
 2390000   0.61625794   -2.6351922   -2.6351922   -1.9513075  0.040098468   -2.6351922   0.68388468   421013 
 2391000   0.61438535   -2.6336211   -2.6336211   -1.9518145  0.045473243   -2.6336211   0.68180659   421013 
 2392000   0.61549163   -2.6344327   -2.6344327   -1.9513984  0.055381281   -2.6344327   0.68303427   421013 
 2393000   0.61612715   -2.6348712   -2.6348712   -1.9511317  0.044738747   -2.6348712   0.68373953   421013 
 2394000   0.61477181   -2.6335741   -2.6335741   -1.9513386  0.047210328   -2.6335741   0.68223545   421013 
 2395000   0.61546411   -2.6345018   -2.6345018   -1.9514981   0.04105272   -2.6345018   0.68300372   421013 
 2396000   0.61491486   -2.6338755   -2.6338755   -1.9514813  0.047871042   -2.6338755    0.6823942   421013 
 2397000   0.61328861   -2.6324491   -2.6324491   -1.9518596  0.043720905   -2.6324491    0.6805895   421013 
 2398000    0.6140203   -2.6327421   -2.6327421   -1.9513406  0.037806458   -2.6327421   0.68140148   421013 
 2399000   0.61408831   -2.6330959   -2.6330959    -1.951619  0.037950119   -2.6330959   0.68147696   421013 
 2400000    0.6125477   -2.6315621   -2.6315621   -1.9517949  0.028335237   -2.6315621   0.67976727   421013 
 2401000   0.61442513   -2.6337773   -2.6337773   -1.9519266   0.04042231   -2.6337773   0.68185073   421013 
 2402000   0.61382037   -2.6330127   -2.6330127   -1.9518331  0.038412143   -2.6330127   0.68117961   421013 
 2403000    0.6143831   -2.6338577   -2.6338577   -1.9520537  0.032791672   -2.6338577   0.68180409   421013 
 2404000   0.61177355   -2.6316131   -2.6316131   -1.9527049  0.046131785   -2.6316131   0.67890818   421013 
 2405000   0.61306035   -2.6324132   -2.6324132    -1.952077  0.040101345   -2.6324132   0.68033619   421013 
 2406000   0.61367594   -2.6334238   -2.6334238   -1.9524044  0.040811501   -2.6334238   0.68101933   421013 
 2407000   0.61361587   -2.6326793   -2.6326793   -1.9517266  0.043268534   -2.6326793   0.68095266   421013 
 2408000   0.61507999   -2.6346732   -2.6346732   -1.9520958  0.041393926   -2.6346732   0.68257745   421013 
 2409000   0.61506139   -2.6350398   -2.6350398    -1.952483  0.040666869   -2.6350398   0.68255682   421013 
 2410000   0.61468422   -2.6347441   -2.6347441   -1.9526059  0.044728877   -2.6347441   0.68213825   421013 
 2411000    0.6145106   -2.6350778   -2.6350778   -1.9531323  0.041271926   -2.6350778   0.68194559   421013 
 2412000   0.61507382   -2.6371398   -2.6371398   -1.9545692  0.039454278   -2.6371398   0.68257061   421013 
 2413000   0.61297274   -2.6341806   -2.6341806   -1.9539417   0.04873005   -2.6341806   0.68023896   421013 
 2414000   0.61425503   -2.6361437   -2.6361437   -1.9544818  0.038825926   -2.6361437   0.68166196   421013 
 2415000   0.61301474   -2.6344679   -2.6344679   -1.9541823  0.036218332   -2.6344679   0.68028557   421013 
 2416000   0.61435967   -2.6358643   -2.6358643   -1.9540862  0.043692297   -2.6358643   0.68177809   421013 
 2417000   0.61398503   -2.6345294   -2.6345294    -1.953167  0.044908881   -2.6345294   0.68136234   421013 
 2418000   0.61446641   -2.6349777   -2.6349777   -1.9530812   0.04506099   -2.6349777   0.68189655   421013 
 2419000   0.61435481   -2.6345852   -2.6345852   -1.9528125  0.042662682   -2.6345852    0.6817727   421013 
 2420000   0.61502344   -2.6351773   -2.6351773   -1.9526626  0.036483717   -2.6351773    0.6825147   421013 
 2421000   0.61451266    -2.634191    -2.634191   -1.9522431  0.046172176    -2.634191   0.68194787   421013 
 2422000   0.61679118   -2.6363801   -2.6363801   -1.9519037  0.041158657   -2.6363801   0.68447642   421013 
 2423000    0.6140441   -2.6335329   -2.6335329    -1.952105  0.047500089   -2.6335329   0.68142789   421013 
 2424000   0.61600316   -2.6358692   -2.6358692   -1.9522673  0.038599486   -2.6358692   0.68360194   421013 
 2425000   0.61474918   -2.6348216   -2.6348216   -1.9526113  0.043981677   -2.6348216   0.68221034   421013 
 2426000   0.61404404   -2.6342521   -2.6342521   -1.9528243  0.043770326   -2.6342521   0.68142782   421013 
 2427000   0.61366592   -2.6334876   -2.6334876   -1.9524794   0.03768128   -2.6334876   0.68100821   421013 
 2428000   0.61400299   -2.6341939   -2.6341939   -1.9528117  0.044428663   -2.6341939   0.68138226   421013 
 2429000    0.6143613   -2.6341845   -2.6341845   -1.9524046  0.029684573   -2.6341845    0.6817799   421013 
 2430000   0.61400534   -2.6343475   -2.6343475   -1.9529627  0.041555209   -2.6343475   0.68138487   421013 
 2431000    0.6126102   -2.6337689   -2.6337689   -1.9539322  0.037767752   -2.6337689   0.67983664   421013 
 2432000   0.61318277   -2.6346104   -2.6346104   -1.9541384  0.029684828   -2.6346104   0.68047204   421013 
 2433000   0.61542023   -2.6365982   -2.6365982   -1.9536431  0.035232909   -2.6365982   0.68295503   421013 
 2434000   0.61528084    -2.636939    -2.636939   -1.9541387  0.037532464    -2.636939   0.68280035   421013 
 2435000   0.61525665   -2.6364776   -2.6364776   -1.9537041  0.039328594   -2.6364776   0.68277351   421013 
 2436000   0.61422334   -2.6351097   -2.6351097   -1.9534829  0.042123959   -2.6351097    0.6816268   421013 
 2437000   0.61479452   -2.6362772   -2.6362772   -1.9540165  0.039654728   -2.6362772   0.68226066   421013 
 2438000   0.61504313   -2.6365184   -2.6365184   -1.9539818  0.044602099   -2.6365184   0.68253656   421013 
 2439000   0.61485335   -2.6363516   -2.6363516   -1.9540256  0.033619288   -2.6363516   0.68232594   421013 
 2440000   0.61603455   -2.6375753   -2.6375753   -1.9539385   0.04746257   -2.6375753   0.68363676   421013 
 2441000   0.61509288   -2.6370953   -2.6370953   -1.9545036  0.034428128   -2.6370953   0.68259176   421013 
 2442000   0.61483839   -2.6371977   -2.6371977   -1.9548883  0.038001656   -2.6371977   0.68230934   421013 
 2443000   0.61378486   -2.6366997   -2.6366997   -1.9555595  0.039919568   -2.6366997    0.6811402   421013 
 2444000   0.61353965   -2.6366477   -2.6366477   -1.9557796  0.036738648   -2.6366477   0.68086808   421013 
 2445000   0.61487927   -2.6373193   -2.6373193   -1.9549646  0.035677592   -2.6373193   0.68235471   421013 
 2446000   0.61458575   -2.6361967   -2.6361967   -1.9541677  0.032758649   -2.6361967   0.68202898   421013 
 2447000   0.61421542   -2.6357884   -2.6357884   -1.9541704  0.046804006   -2.6357884   0.68161801   421013 
 2448000   0.61346608   -2.6345149   -2.6345149   -1.9537284  0.036788249   -2.6345149   0.68078644   421013 
 2449000    0.6139646   -2.6353385   -2.6353385   -1.9539989  0.034381717   -2.6353385   0.68133966   421013 
 2450000   0.61406104   -2.6353273   -2.6353273   -1.9538806  0.043206699   -2.6353273   0.68144669   421013 
 2451000   0.61356294   -2.6346029   -2.6346029    -1.953709  0.049020973   -2.6346029   0.68089393   421013 
 2452000   0.61357887   -2.6339445   -2.6339445   -1.9530329  0.039236182   -2.6339445    0.6809116   421013 
 2453000   0.61436389   -2.6347384   -2.6347384   -1.9529557  0.039281799   -2.6347384   0.68178277   421013 
 2454000   0.61386624   -2.6349826   -2.6349826   -1.9537521  0.042421701   -2.6349826   0.68123051   421013 
 2455000   0.61346966   -2.6352561   -2.6352561   -1.9544657   0.04499605   -2.6352561   0.68079041   421013 
 2456000   0.61480221   -2.6360584   -2.6360584   -1.9537892  0.045886301   -2.6360584   0.68226919   421013 
 2457000   0.61353402    -2.635194    -2.635194   -1.9543322   0.03842764    -2.635194   0.68086183   421013 
 2458000    0.6120468   -2.6344209   -2.6344209   -1.9552095  0.043459842   -2.6344209   0.67921141   421013 
 2459000   0.61416602   -2.6361287   -2.6361287   -1.9545655  0.044259672   -2.6361287   0.68156319   421013 
 2460000    0.6135574   -2.6360183   -2.6360183   -1.9551305  0.040258487   -2.6360183   0.68088778   421013 
 2461000   0.61351346   -2.6354831   -2.6354831   -1.9546441  0.048226778   -2.6354831   0.68083902   421013 
 2462000   0.61343535   -2.6357488   -2.6357488   -1.9549965    0.0513016   -2.6357488   0.68075233   421013 
 2463000   0.61322721   -2.6358039   -2.6358039   -1.9552825  0.048091015   -2.6358039   0.68052135   421013 
 2464000   0.61497156   -2.6376351   -2.6376351    -1.955178  0.046736557   -2.6376351   0.68245713   421013 
 2465000   0.61616932   -2.6386275   -2.6386275   -1.9548411  0.042981463   -2.6386275   0.68378633   421013 
 2466000   0.61584504   -2.6381463   -2.6381463   -1.9547198  0.042041671   -2.6381463   0.68342646   421013 
 2467000   0.61432984   -2.6369338   -2.6369338   -1.9551888  0.040424954   -2.6369338   0.68174498   421013 
 2468000   0.61382442   -2.6363975   -2.6363975   -1.9552134  0.047489441   -2.6363975   0.68118411   421013 
 2469000   0.61442784   -2.6377614   -2.6377614   -1.9559076  0.029665021   -2.6377614   0.68185374   421013 
 2470000   0.61411501   -2.6372907   -2.6372907   -1.9557841  0.033538498   -2.6372907   0.68150658   421013 
 2471000   0.61398542   -2.6367854   -2.6367854   -1.9554226   0.04126384   -2.6367854   0.68136277   421013 
 2472000   0.61528261   -2.6375435   -2.6375435   -1.9547412  0.038707402   -2.6375435   0.68280232   421013 
 2473000    0.6143909   -2.6371784   -2.6371784   -1.9553656  0.051534812   -2.6371784   0.68181275   421013 
 2474000   0.61390994   -2.6368986   -2.6368986   -1.9556196  0.041070264   -2.6368986   0.68127901   421013 
 2475000   0.61317089   -2.6369397   -2.6369397   -1.9564808   0.04547318   -2.6369397   0.68045886   421013 
 2476000   0.61429454   -2.6377987   -2.6377987   -1.9560929   0.04072523   -2.6377987   0.68170581   421013 
 2477000   0.61417719    -2.637611    -2.637611   -1.9560354  0.055454416    -2.637611   0.68157558   421013 
 2478000   0.61384693   -2.6369807   -2.6369807   -1.9557717  0.044072744   -2.6369807   0.68120908   421013 
 2479000    0.6137442   -2.6365277   -2.6365277   -1.9554327  0.042070802   -2.6365277   0.68109508   421013 
 2480000   0.61332689   -2.6361146   -2.6361146   -1.9554826  0.040704725   -2.6361146   0.68063198   421013 
 2481000   0.61376066   -2.6374433   -2.6374433     -1.95633  0.047136212   -2.6374433   0.68111334   421013 
 2482000   0.61260464   -2.6355186   -2.6355186   -1.9556882  0.041029581   -2.6355186   0.67983047   421013 
 2483000   0.61390635   -2.6371796   -2.6371796   -1.9559045   0.03262114   -2.6371796   0.68127503   421013 
 2484000   0.61332204    -2.636072    -2.636072   -1.9554454  0.033893284    -2.636072   0.68062659   421013 
 2485000   0.61297734   -2.6360408   -2.6360408   -1.9557967  0.035948086   -2.6360408   0.68024406   421013 
 2486000   0.61425937   -2.6368882   -2.6368882   -1.9552215  0.044952861   -2.6368882   0.68166678   421013 
 2487000   0.61371395   -2.6364492   -2.6364492   -1.9553877  0.045070295   -2.6364492   0.68106151   421013 
 2488000   0.61465553    -2.637381    -2.637381   -1.9552745  0.034838653    -2.637381   0.68210642   421013 
 2489000   0.61426996   -2.6371908   -2.6371908   -1.9555123  0.038064533   -2.6371908   0.68167853   421013 
 2490000   0.61390884   -2.6369556   -2.6369556   -1.9556778  0.034697731   -2.6369556   0.68127778   421013 
 2491000   0.61384028   -2.6370982   -2.6370982   -1.9558965  0.033575799   -2.6370982   0.68120171   421013 
 2492000   0.61308815   -2.6357828   -2.6357828   -1.9554157  0.037104155   -2.6357828   0.68036704   421013 
 2493000   0.61369446   -2.6361354   -2.6361354   -1.9550955  0.030852358   -2.6361354   0.68103988   421013 
 2494000    0.6152564   -2.6374016   -2.6374016   -1.9546284  0.044127051   -2.6374016   0.68277322   421013 
 2495000   0.61295493   -2.6355513   -2.6355513   -1.9553321  0.038029484   -2.6355513   0.68021919   421013 
 2496000    0.6136846   -2.6362274   -2.6362274   -1.9551985  0.043228836   -2.6362274   0.68102894   421013 
 2497000   0.61506197   -2.6375193   -2.6375193   -1.9549618  0.036095826   -2.6375193   0.68255746   421013 
 2498000   0.61312228   -2.6355967   -2.6355967   -1.9551918  0.047830903   -2.6355967   0.68040491   421013 
 2499000   0.61455913   -2.6376662   -2.6376662   -1.9556668  0.042638757   -2.6376662   0.68199944   421013 
 2500000   0.61404746   -2.6372768   -2.6372768   -1.9558452   0.03004601   -2.6372768   0.68143161   421013 
 2501000   0.61435762   -2.6369851   -2.6369851   -1.9552093  0.036471382   -2.6369851   0.68177581   421013 
 2502000   0.61335796   -2.6356872   -2.6356872   -1.9550208   0.03447674   -2.6356872   0.68066645   421013 
 2503000   0.61405821   -2.6367737   -2.6367737   -1.9553302  0.037987433   -2.6367737   0.68144355   421013 
 2504000   0.61403511   -2.6370673   -2.6370673   -1.9556494   0.03088098   -2.6370673   0.68141791   421013 
 2505000   0.61512002   -2.6381938   -2.6381938   -1.9555719  0.043021876   -2.6381938   0.68262188   421013 
 2506000   0.61482614   -2.6374266   -2.6374266   -1.9551308  0.037343214   -2.6374266   0.68229574   421013 
 2507000   0.61466925    -2.637095    -2.637095   -1.9549733  0.039147578    -2.637095   0.68212164   421013 
 2508000    0.6148524   -2.6381258   -2.6381258   -1.9558009  0.038315353   -2.6381258   0.68232489   421013 
 2509000   0.61466125   -2.6379795   -2.6379795   -1.9558668  0.043809284   -2.6379795   0.68211276   421013 
 2510000   0.61470573   -2.6379459   -2.6379459   -1.9557838  0.040328161   -2.6379459   0.68216213   421013 
 2511000   0.61511776   -2.6389491   -2.6389491   -1.9563297  0.038936198   -2.6389491   0.68261937   421013 
 2512000   0.61450233   -2.6378359   -2.6378359   -1.9558995  0.044157826   -2.6378359    0.6819364   421013 
 2513000      0.61374   -2.6371274   -2.6371274    -1.956037   0.03673505   -2.6371274   0.68109041   421013 
 2514000   0.61387643   -2.6369459   -2.6369459   -1.9557041  0.043302809   -2.6369459   0.68124182   421013 
 2515000   0.61528325   -2.6390611   -2.6390611   -1.9562581  0.038370527   -2.6390611   0.68280302   421013 
 2516000   0.61362814   -2.6375597   -2.6375597   -1.9565934  0.043683604   -2.6375597   0.68096628   421013 
 2517000   0.61502172   -2.6387162   -2.6387162   -1.9562035   0.03595892   -2.6387162   0.68251279   421013 
 2518000   0.61479371   -2.6390536   -2.6390536   -1.9567939  0.042128682   -2.6390536   0.68225976   421013 
 2519000    0.6138931   -2.6380638   -2.6380638   -1.9568035  0.034890994   -2.6380638   0.68126032   421013 
 2520000   0.61425994   -2.6382373   -2.6382373   -1.9565699  0.031134142   -2.6382373   0.68166742   421013 
 2521000   0.61482418   -2.6384771   -2.6384771   -1.9561835  0.041264501   -2.6384771   0.68229358   421013 
 2522000   0.61280496   -2.6374148   -2.6374148    -1.957362  0.042481088   -2.6374148   0.68005277   421013 
 2523000    0.6137838   -2.6384132   -2.6384132   -1.9572742  0.042466568   -2.6384132   0.68113902   421013 
 2524000   0.61317395   -2.6376553   -2.6376553   -1.9571931   0.03397659   -2.6376553   0.68046225   421013 
 2525000    0.6152297   -2.6395233   -2.6395233   -1.9567797   0.04692521   -2.6395233    0.6827436   421013 
 2526000   0.61471773   -2.6393097   -2.6393097   -1.9571343  0.045276778   -2.6393097   0.68217544   421013 
 2527000    0.6160176   -2.6409338   -2.6409338   -1.9573158  0.043594478   -2.6409338   0.68361795   421013 
 2528000   0.61474838   -2.6394775   -2.6394775    -1.957268  0.045666033   -2.6394775   0.68220946   421013 
 2529000   0.61474198    -2.640105    -2.640105   -1.9579026  0.037757231    -2.640105   0.68220235   421013 
 2530000   0.61319561    -2.638736    -2.638736   -1.9582497  0.040941008    -2.638736   0.68048629   421013 
 2531000   0.61521436   -2.6414538   -2.6414538   -1.9587272  0.039140106   -2.6414538   0.68272657   421013 
 2532000   0.61521803   -2.6416507   -2.6416507     -1.95892  0.048026857   -2.6416507   0.68273064   421013 
 2533000   0.61426021   -2.6406021   -2.6406021   -1.9589344  0.046363013   -2.6406021   0.68166772   421013 
 2534000   0.61531875   -2.6409166   -2.6409166   -1.9580741  0.030176682   -2.6409166   0.68284242   421013 
 2535000   0.61445871   -2.6402537   -2.6402537   -1.9583657  0.032357954   -2.6402537     0.681888   421013 
 2536000   0.61293166   -2.6387248   -2.6387248   -1.9585314  0.043209582   -2.6387248   0.68019337   421013 
 2537000   0.61421974   -2.6396413   -2.6396413   -1.9580185  0.039430168   -2.6396413    0.6816228   421013 
 2538000   0.61508605   -2.6411912   -2.6411912    -1.958607  0.047843794   -2.6411912   0.68258418   421013 
 2539000    0.6147201   -2.6410213   -2.6410213   -1.9588433   0.03971109   -2.6410213   0.68217807   421013 
 2540000   0.61486671    -2.641412    -2.641412   -1.9590712  0.045226679    -2.641412   0.68234077   421013 
 2541000   0.61376366   -2.6402091   -2.6402091   -1.9590924  0.044358008   -2.6402091   0.68111668   421013 
 2542000   0.61367471   -2.6397234   -2.6397234   -1.9587054  0.047257419   -2.6397234   0.68101797   421013 
 2543000   0.61415794   -2.6407848   -2.6407848   -1.9592306  0.040767835   -2.6407848   0.68155422   421013 
 2544000   0.61479056   -2.6411958   -2.6411958   -1.9589395  0.051208871   -2.6411958   0.68225627   421013 
 2545000   0.61381862   -2.6401738   -2.6401738   -1.9589962  0.041618503   -2.6401738   0.68117766   421013 
 2546000   0.61306588    -2.639282    -2.639282   -1.9589397  0.042450922    -2.639282   0.68034232   421013 
 2547000   0.61303559   -2.6391521   -2.6391521   -1.9588434  0.042661562   -2.6391521    0.6803087   421013 
 2548000   0.61399276   -2.6407411   -2.6407411   -1.9593702  0.041156482   -2.6407411   0.68137091   421013 
 2549000   0.61420819    -2.640511    -2.640511   -1.9589011  0.052138532    -2.640511   0.68160998   421013 
 2550000   0.61333495    -2.639686    -2.639686   -1.9590451  0.037812436    -2.639686   0.68064092   421013 
 2551000   0.61423331   -2.6404094   -2.6404094   -1.9587715  0.037960836   -2.6404094   0.68163787   421013 
 2552000   0.61259859    -2.639381    -2.639381   -1.9595572  0.048229329    -2.639381   0.67982376   421013 
 2553000   0.61409786   -2.6402743   -2.6402743   -1.9587868  0.030776763   -2.6402743   0.68148755   421013 
 2554000   0.61517886   -2.6407487   -2.6407487   -1.9580616  0.034447049   -2.6407487   0.68268718   421013 
 2555000   0.61439779   -2.6405941   -2.6405941   -1.9587737  0.032202479   -2.6405941   0.68182039   421013 
 2556000   0.61396404   -2.6400815   -2.6400815   -1.9587425   0.03382117   -2.6400815   0.68133905   421013 
 2557000   0.61319171   -2.6386647   -2.6386647   -1.9581827  0.045797333   -2.6386647   0.68048196   421013 
 2558000   0.61413843   -2.6403853   -2.6403853   -1.9588527  0.037857664   -2.6403853   0.68153257   421013 
 2559000   0.61332455   -2.6394551   -2.6394551   -1.9588257  0.039145632   -2.6394551   0.68062938   421013 
 2560000   0.61336696     -2.63923     -2.63923   -1.9585536  0.042530593     -2.63923   0.68067644   421013 
 2561000   0.61447145   -2.6397498   -2.6397498   -1.9578477    0.0408202   -2.6397498   0.68190214   421013 
 2562000    0.6137275   -2.6388144   -2.6388144   -1.9577378  0.043953819   -2.6388144   0.68107654   421013 
 2563000   0.61305089   -2.6389961   -2.6389961   -1.9586704  0.042102452   -2.6389961   0.68032568   421013 
 2564000   0.61350116    -2.639652    -2.639652   -1.9588266  0.036953007    -2.639652   0.68082537   421013 
 2565000   0.61339515   -2.6398162   -2.6398162   -1.9591085  0.042729576   -2.6398162   0.68070773   421013 
 2566000   0.61463957   -2.6405879   -2.6405879   -1.9584992  0.026289612   -2.6405879    0.6820887   421013 
 2567000    0.6132269   -2.6381413   -2.6381413   -1.9576203  0.037557222   -2.6381413   0.68052101   421013 
 2568000   0.61394526    -2.640244    -2.640244   -1.9589258  0.047721898    -2.640244   0.68131821   421013 
 2569000   0.61384005   -2.6395155   -2.6395155    -1.958314  0.037995903   -2.6395155   0.68120144   421013 
 2570000   0.61525945   -2.6409449   -2.6409449   -1.9581683  0.037074584   -2.6409449   0.68277661   421013 
 2571000   0.61283897    -2.638312    -2.638312   -1.9582215  0.037603829    -2.638312   0.68009052   421013 
 2572000    0.6147096   -2.6399992   -2.6399992   -1.9578327   0.04493638   -2.6399992   0.68216642   421013 
 2573000   0.61355972   -2.6396995   -2.6396995   -1.9588092  0.046848842   -2.6396995   0.68089036   421013 
 2574000   0.61339571    -2.640145    -2.640145   -1.9594366  0.036101083    -2.640145   0.68070835   421013 
 2575000    0.6132793   -2.6392153   -2.6392153   -1.9586362  0.044280651   -2.6392153   0.68057916   421013 
 2576000   0.61343369   -2.6390447   -2.6390447   -1.9582943  0.040777741   -2.6390447   0.68075049   421013 
 2577000   0.61405692   -2.6394125   -2.6394125   -1.9579704  0.048071956   -2.6394125   0.68144212   421013 
 2578000   0.61545023    -2.641409    -2.641409   -1.9584207  0.041332218    -2.641409   0.68298832   421013 
 2579000   0.61309608    -2.638701    -2.638701   -1.9583252  0.034488234    -2.638701   0.68037584   421013 
 2580000   0.61414639    -2.640437    -2.640437   -1.9588956   0.04520468    -2.640437    0.6815414   421013 
 2581000   0.61308028   -2.6393733   -2.6393733    -1.959015  0.038082036   -2.6393733    0.6803583   421013 
 2582000   0.61420258   -2.6402244   -2.6402244   -1.9586206  0.041836088   -2.6402244   0.68160376   421013 
 2583000    0.6148482     -2.64058     -2.64058   -1.9582598  0.037678485     -2.64058   0.68232023   421013 
 2584000   0.61392569   -2.6392818   -2.6392818   -1.9579853  0.043995765   -2.6392818   0.68129649   421013 
 2585000   0.61442519   -2.6402901   -2.6402901   -1.9584393  0.033850668   -2.6402901    0.6818508   421013 
 2586000   0.61461528   -2.6410793   -2.6410793   -1.9590175  0.032842228   -2.6410793   0.68206175   421013 
 2587000   0.61409479   -2.6406826   -2.6406826   -1.9591984  0.041175489   -2.6406826   0.68148414   421013 
 2588000   0.61387203   -2.6408141   -2.6408141   -1.9595771  0.040538759   -2.6408141   0.68123694   421013 
 2589000   0.61524744   -2.6425365   -2.6425365   -1.9597732  0.043138458   -2.6425365   0.68276328   421013 
 2590000   0.61381428   -2.6414173   -2.6414173   -1.9602445  0.038301005   -2.6414173   0.68117285   421013 
 2591000   0.61384428   -2.6412334   -2.6412334   -1.9600272  0.047327149   -2.6412334   0.68120614   421013 
 2592000   0.61463585   -2.6429292   -2.6429292   -1.9608446   0.04565924   -2.6429292   0.68208457   421013 
 2593000   0.61347109   -2.6410866   -2.6410866   -1.9602946  0.045507532   -2.6410866     0.680792   421013 
 2594000   0.61332931   -2.6406924   -2.6406924   -1.9600578  0.032093019   -2.6406924   0.68063466   421013 
 2595000    0.6134406    -2.640566    -2.640566   -1.9598078  0.046365227    -2.640566   0.68075816   421013 
 2596000   0.61349547   -2.6414094   -2.6414094   -1.9605903   0.04092207   -2.6414094   0.68081905   421013 
 2597000   0.61402369   -2.6420191   -2.6420191   -1.9606139  0.046780283   -2.6420191   0.68140524   421013 
 2598000   0.61391372   -2.6415014   -2.6415014   -1.9602182  0.046641167   -2.6415014    0.6812832   421013 
 2599000    0.6139805    -2.642077    -2.642077   -1.9607197  0.044845827    -2.642077   0.68135732   421013 
 2600000   0.61329159    -2.641489    -2.641489   -1.9608962  0.044438545    -2.641489    0.6805928   421013 
 2601000   0.61400745   -2.6423121   -2.6423121   -1.9609249  0.038408182   -2.6423121   0.68138722   421013 
 2602000   0.61400036   -2.6425358   -2.6425358   -1.9611565  0.041266577   -2.6425358   0.68137935   421013 
 2603000     0.612739   -2.6412632   -2.6412632   -1.9612837  0.037401921   -2.6412632   0.67997957   421013 
 2604000   0.61463573   -2.6435199   -2.6435199   -1.9614354  0.037605095   -2.6435199   0.68208444   421013 
 2605000   0.61294702   -2.6414323   -2.6414323   -1.9612219  0.033039611   -2.6414323   0.68021042   421013 
 2606000   0.61297119    -2.641441    -2.641441   -1.9612037  0.041032133    -2.641441   0.68023724   421013 
 2607000   0.61242049   -2.6409612   -2.6409612   -1.9613351  0.036228496   -2.6409612   0.67962611   421013 
 2608000   0.61253588    -2.640735    -2.640735   -1.9609808  0.032896136    -2.640735   0.67975416   421013 
 2609000   0.61341407   -2.6413931   -2.6413931   -1.9606644   0.03972493   -2.6413931   0.68072872   421013 
 2610000   0.61295515   -2.6413514   -2.6413514    -1.961132  0.041402439   -2.6413514   0.68021944   421013 
 2611000   0.61318728   -2.6419768   -2.6419768   -1.9614998  0.039711175   -2.6419768   0.68047704   421013 
 2612000    0.6135844   -2.6419816   -2.6419816   -1.9610639  0.044909382   -2.6419816   0.68091774   421013 
 2613000   0.61320456   -2.6416481   -2.6416481   -1.9611519  0.030933076   -2.6416481   0.68049623   421013 
 2614000   0.61279436   -2.6417469   -2.6417469   -1.9617059  0.040638579   -2.6417469   0.68004101   421013 
 2615000   0.61268686   -2.6412966   -2.6412966   -1.9613749  0.042105448   -2.6412966   0.67992171   421013 
 2616000    0.6141533   -2.6428958   -2.6428958   -1.9613468    0.0401932   -2.6428958   0.68154907   421013 
 2617000   0.61435523   -2.6424223   -2.6424223   -1.9606491  0.036568728   -2.6424223   0.68177316   421013 
 2618000   0.61507312   -2.6433535   -2.6433535   -1.9607837   0.04107634   -2.6433535   0.68256983   421013 
 2619000   0.61358143   -2.6422108   -2.6422108   -1.9612963  0.042185044   -2.6422108   0.68091445   421013 
 2620000   0.61399381    -2.642625    -2.642625   -1.9612529  0.036606571    -2.642625   0.68137208   421013 
 2621000   0.61321339    -2.641905    -2.641905    -1.961399  0.037173877    -2.641905   0.68050602   421013 
 2622000   0.61337806   -2.6419709   -2.6419709   -1.9612821  0.030892752   -2.6419709   0.68068876   421013 
 2623000   0.61235783   -2.6412736   -2.6412736    -1.961717  0.044303519   -2.6412736   0.67955657   421013 
 2624000    0.6136294   -2.6423943   -2.6423943   -1.9614266  0.041199112   -2.6423943   0.68096769   421013 
 2625000   0.61375638   -2.6428271   -2.6428271   -1.9617185  0.033506248   -2.6428271   0.68110859   421013 
 2626000   0.61402349   -2.6426158   -2.6426158   -1.9612108  0.047636592   -2.6426158   0.68140502   421013 
 2627000   0.61560574   -2.6441004   -2.6441004   -1.9609395  0.051448921   -2.6441004    0.6831609   421013 
 2628000   0.61425703    -2.643376    -2.643376   -1.9617118  0.035502645    -2.643376   0.68166419   421013 
 2629000   0.61329454   -2.6425723   -2.6425723   -1.9619762  0.040994702   -2.6425723   0.68059608   421013 
 2630000   0.61379239   -2.6423556   -2.6423556   -1.9612071  0.045025078   -2.6423556   0.68114855   421013 
 2631000   0.61352132   -2.6426639   -2.6426639   -1.9618161  0.031943464   -2.6426639   0.68084774   421013 
 2632000   0.61336889   -2.6427622   -2.6427622   -1.9620836  0.040702885   -2.6427622   0.68067858   421013 
 2633000   0.61204087   -2.6418399   -2.6418399   -1.9626351  0.036788888   -2.6418399   0.67920483   421013 
 2634000   0.61264568   -2.6416065   -2.6416065   -1.9617305  0.043683326   -2.6416065   0.67987602   421013 
 2635000   0.61361269   -2.6422982   -2.6422982   -1.9613491  0.050930702   -2.6422982   0.68094914   421013 
 2636000   0.61338084   -2.6422391   -2.6422391   -1.9615473  0.037124768   -2.6422391   0.68069184   421013 
 2637000   0.61314168   -2.6424701   -2.6424701   -1.9620436  0.035936213   -2.6424701   0.68042644   421013 
 2638000   0.61376884    -2.643202    -2.643202   -1.9620795  0.035320759    -2.643202   0.68112242   421013 
 2639000   0.61390834   -2.6436511   -2.6436511   -1.9623738  0.038601207   -2.6436511   0.68127723   421013 
 2640000   0.61392388   -2.6434081   -2.6434081   -1.9621137  0.044596024   -2.6434081   0.68129448   421013 
 2641000   0.61448438   -2.6438487   -2.6438487   -1.9619322  0.050931966   -2.6438487   0.68191649   421013 
 2642000   0.61398227   -2.6432465   -2.6432465   -1.9618872  0.038030029   -2.6432465   0.68135928   421013 
 2643000   0.61366873   -2.6432986   -2.6432986   -1.9622872  0.044173448   -2.6432986   0.68101132   421013 
 2644000   0.61338571   -2.6429229   -2.6429229   -1.9622256  0.043697445   -2.6429229   0.68069725   421013 
 2645000   0.61464823   -2.6447093   -2.6447093    -1.962611  0.033421969   -2.6447093   0.68209832   421013 
 2646000    0.6129682    -2.643389    -2.643389   -1.9631551  0.033122711    -2.643389   0.68023392   421013 
 2647000   0.61204467   -2.6419006   -2.6419006   -1.9626915  0.038128301   -2.6419006   0.67920905   421013 
 2648000   0.61239768   -2.6424156   -2.6424156   -1.9628148  0.034294114   -2.6424156   0.67960079   421013 
 2649000   0.61261341   -2.6421161   -2.6421161   -1.9622759  0.030134898   -2.6421161    0.6798402   421013 
 2650000   0.61286199   -2.6427158   -2.6427158   -1.9625997  0.034971645   -2.6427158   0.68011605   421013 
 2651000   0.61220667   -2.6417991   -2.6417991   -1.9624103  0.033616375   -2.6417991   0.67938883   421013 
 2652000   0.61282983   -2.6420949   -2.6420949   -1.9620145  0.039479352   -2.6420949   0.68008036   421013 
 2653000   0.61363887   -2.6430603   -2.6430603   -1.9620821  0.045650783   -2.6430603   0.68097819   421013 
 2654000   0.61430381   -2.6438859   -2.6438859   -1.9621698  0.039449986   -2.6438859    0.6817161   421013 
 2655000   0.61415186   -2.6442319   -2.6442319   -1.9626845   0.03992381   -2.6442319   0.68154747   421013 
 2656000   0.61475141   -2.6441974   -2.6441974   -1.9619846  0.040169507   -2.6441974   0.68221282   421013 
 2657000   0.61398898   -2.6440837   -2.6440837    -1.962717  0.043624317   -2.6440837   0.68136672   421013 
 2658000   0.61428526   -2.6449627   -2.6449627   -1.9632672  0.046329027   -2.6449627   0.68169552   421013 
 2659000   0.61367435   -2.6437404   -2.6437404   -1.9627228  0.044073364   -2.6437404   0.68101756   421013 
 2660000   0.61302605   -2.6429524   -2.6429524   -1.9626543  0.045898475   -2.6429524   0.68029812   421013 
 2661000   0.61390675   -2.6444322   -2.6444322   -1.9631568  0.035499432   -2.6444322   0.68127547   421013 
 2662000   0.61353688   -2.6445764   -2.6445764   -1.9637114  0.043371831   -2.6445764     0.680865   421013 
 2663000   0.61223023   -2.6431053   -2.6431053   -1.9636903   0.03950866   -2.6431053   0.67941497   421013 
 2664000   0.61335826   -2.6442298   -2.6442298    -1.963563  0.037405927   -2.6442298   0.68066678   421013 
 2665000   0.61208961   -2.6433008   -2.6433008   -1.9640418  0.035370887   -2.6433008   0.67925892   421013 
 2666000   0.61322987   -2.6443387   -2.6443387   -1.9638144  0.038067332   -2.6443387    0.6805243   421013 
 2667000   0.61385655   -2.6448392   -2.6448392   -1.9636194  0.038442427   -2.6448392   0.68121976   421013 
 2668000   0.61241135   -2.6431369   -2.6431369   -1.9635209  0.037047754   -2.6431369   0.67961597   421013 
 2669000   0.61056284   -2.6413319   -2.6413319   -1.9637673  0.038119354   -2.6413319    0.6775646   421013 
 2670000   0.61208716   -2.6430777   -2.6430777   -1.9638215  0.042023961   -2.6430777    0.6792562   421013 
 2671000    0.6131605   -2.6439016   -2.6439016   -1.9634543  0.045173279   -2.6439016   0.68044732   421013 
 2672000   0.61300793    -2.644094    -2.644094    -1.963816  0.040283839    -2.644094   0.68027801   421013 
 2673000   0.61287414   -2.6432176   -2.6432176   -1.9630881  0.040560088   -2.6432176   0.68012954   421013 
 2674000   0.61324291   -2.6444309   -2.6444309   -1.9638921  0.035947489   -2.6444309   0.68053878   421013 
 2675000   0.61310385   -2.6448478   -2.6448478   -1.9644634  0.039214044   -2.6448478   0.68038446   421013 
 2676000   0.61250068    -2.643857    -2.643857   -1.9641419   0.03644474    -2.643857    0.6797151   421013 
 2677000    0.6120326   -2.6446005   -2.6446005   -1.9654049  0.034465459   -2.6446005   0.67919565   421013 
 2678000   0.61320197    -2.645173    -2.645173   -1.9646797  0.044503029    -2.645173   0.68049335   421013 
 2679000    0.6138119   -2.6456205   -2.6456205   -1.9644503  0.036213287   -2.6456205   0.68117021   421013 
 2680000   0.61184259   -2.6433302   -2.6433302   -1.9643454  0.033160454   -2.6433302   0.67898479   421013 
 2681000   0.61251843   -2.6442473   -2.6442473   -1.9645126  0.035141872   -2.6442473   0.67973479   421013 
 2682000   0.61333421    -2.644983    -2.644983   -1.9643429  0.039245819    -2.644983    0.6806401   421013 
 2683000   0.61422288   -2.6463832   -2.6463832   -1.9647569  0.032994827   -2.6463832   0.68162628   421013 
 2684000   0.61333086   -2.6464177   -2.6464177   -1.9657813  0.039056602   -2.6464177   0.68063638   421013 
 2685000   0.61385787   -2.6469004   -2.6469004   -1.9656791  0.041511597   -2.6469004   0.68122123   421013 
 2686000   0.61347475    -2.646441    -2.646441   -1.9656449  0.044287585    -2.646441   0.68079606   421013 
 2687000   0.61337419   -2.6469345   -2.6469345     -1.96625   0.04815795   -2.6469345   0.68068447   421013 
 2688000   0.61360128   -2.6475844   -2.6475844   -1.9666479  0.041228545   -2.6475844   0.68093648   421013 
 2689000   0.61408691   -2.6467457   -2.6467457   -1.9652703  0.043627496   -2.6467457    0.6814754   421013 
 2690000   0.61402425   -2.6474618   -2.6474618   -1.9660559  0.037303712   -2.6474618   0.68140586   421013 
 2691000   0.61255969   -2.6463159   -2.6463159   -1.9665353  0.037119223   -2.6463159   0.67978058   421013 
 2692000   0.61231854   -2.6457564   -2.6457564   -1.9662434  0.033760014   -2.6457564   0.67951297   421013 
 2693000   0.61272135    -2.646357    -2.646357    -1.966397  0.040257254    -2.646357   0.67995998   421013 
 2694000   0.61233988   -2.6459559   -2.6459559   -1.9664193  0.037386577   -2.6459559   0.67953665   421013 
 2695000   0.61161269   -2.6448165   -2.6448165   -1.9660868  0.037865271   -2.6448165   0.67872966   421013 
 2696000   0.61209336   -2.6453049   -2.6453049   -1.9660418  0.041886361   -2.6453049   0.67926308   421013 
 2697000   0.61353262   -2.6461233   -2.6461233    -1.965263  0.042743379   -2.6461233   0.68086028   421013 
 2698000    0.6118473   -2.6443525   -2.6443525   -1.9653625  0.036991035   -2.6443525   0.67899002   421013 
 2699000   0.61303241   -2.6463796   -2.6463796   -1.9660744   0.03284645   -2.6463796   0.68030518   421013 
 2700000   0.61241284   -2.6461067   -2.6461067   -1.9664891  0.032295347   -2.6461067   0.67961762   421013 
 2701000    0.6132778   -2.6463156   -2.6463156   -1.9657381  0.028511055   -2.6463156   0.68057749   421013 
 2702000   0.61237243   -2.6457866   -2.6457866   -1.9662138  0.050622926   -2.6457866   0.67957277   421013 
 2703000    0.6126693   -2.6460141   -2.6460141   -1.9661119  0.036248541   -2.6460141   0.67990222   421013 
 2704000   0.61319564   -2.6466963   -2.6466963     -1.96621  0.029339087   -2.6466963   0.68048632   421013 
 2705000   0.61312021   -2.6463353   -2.6463353   -1.9659327  0.036693155   -2.6463353   0.68040262   421013 
 2706000   0.61459175   -2.6487123   -2.6487123   -1.9666766    0.0374412   -2.6487123   0.68203564   421013 
 2707000   0.61344223   -2.6474821   -2.6474821   -1.9667222   0.03587912   -2.6474821   0.68075997   421013 
 2708000   0.61321366    -2.647576    -2.647576   -1.9670697   0.04539424    -2.647576   0.68050632   421013 
 2709000   0.61350352   -2.6473639   -2.6473639   -1.9665359  0.043915622   -2.6473639   0.68082798   421013 
 2710000   0.61328906    -2.648128    -2.648128    -1.967538  0.038447637    -2.648128   0.68058999   421013 
 2711000   0.61307319   -2.6478376   -2.6478376   -1.9674872  0.036211873   -2.6478376   0.68035043   421013 
 2712000   0.61345056   -2.6487331   -2.6487331   -1.9679638  0.047770687   -2.6487331   0.68076922   421013 
 2713000   0.61386329   -2.6487075   -2.6487075   -1.9674803  0.041864415   -2.6487075   0.68122724   421013 
 2714000   0.61238298    -2.647817    -2.647817   -1.9682326   0.04032659    -2.647817   0.67958448   421013 
 2715000    0.6122826   -2.6477544   -2.6477544   -1.9682813  0.044300135   -2.6477544   0.67947309   421013 
 2716000   0.61234064    -2.648458    -2.648458   -1.9689205  0.045391657    -2.648458   0.67953749   421013 
 2717000   0.61269693   -2.6487256   -2.6487256   -1.9687928  0.048953894   -2.6487256   0.67993289   421013 
 2718000   0.61122418    -2.647051    -2.647051   -1.9687525  0.051430999    -2.647051   0.67829851   421013 
 2719000   0.61252372   -2.6488014   -2.6488014   -1.9690607  0.050812224   -2.6488014   0.67974067   421013 
 2720000   0.61337785   -2.6496326   -2.6496326   -1.9689441  0.040768769   -2.6496326   0.68068853   421013 
 2721000   0.61203772   -2.6484342   -2.6484342   -1.9692328  0.022606654   -2.6484342   0.67920133   421013 
 2722000   0.61344457   -2.6496251   -2.6496251   -1.9688625  0.046372344   -2.6496251   0.68076257   421013 
 2723000   0.61271642   -2.6495503   -2.6495503   -1.9695957   0.03149048   -2.6495503   0.67995451   421013 
 2724000   0.61264818   -2.6496987   -2.6496987   -1.9698199  0.043298391   -2.6496987   0.67987878   421013 
 2725000   0.61143431   -2.6481748   -2.6481748   -1.9696431  0.047009242   -2.6481748   0.67853171   421013 
 2726000   0.61325262   -2.6492494   -2.6492494   -1.9686998  0.041188179   -2.6492494   0.68054956   421013 
 2727000   0.61257093   -2.6494779   -2.6494779   -1.9696849  0.042038788   -2.6494779   0.67979306   421013 
 2728000   0.61259176   -2.6494909   -2.6494909   -1.9696747  0.033906758   -2.6494909   0.67981618   421013 
 2729000   0.61173348   -2.6493654   -2.6493654   -1.9705017  0.048797855   -2.6493654   0.67886371   421013 
 2730000   0.61280384   -2.6508944   -2.6508944   -1.9708429   0.03872624   -2.6508944   0.68005152   421013 
 2731000   0.61143818   -2.6501429   -2.6501429   -1.9716069   0.03480076   -2.6501429   0.67853601   421013 
 2732000   0.61138033   -2.6498621   -2.6498621   -1.9713903  0.050727174   -2.6498621    0.6784718   421013 
 2733000   0.61311388    -2.651324    -2.651324   -1.9709284  0.047266743    -2.651324   0.68039559   421013 
 2734000   0.61222626    -2.650488    -2.650488   -1.9710775  0.048543241    -2.650488   0.67941056   421013 
 2735000   0.61333872   -2.6515942   -2.6515942   -1.9709491  0.044601157   -2.6515942    0.6806451   421013 
 2736000    0.6124618   -2.6507657   -2.6507657   -1.9710937  0.033999883   -2.6507657   0.67967195   421013 
 2737000   0.61287953   -2.6511935   -2.6511935    -1.971058  0.044544277   -2.6511935   0.68013553   421013 
 2738000   0.61277668   -2.6505642   -2.6505642   -1.9705428  0.044169766   -2.6505642   0.68002138   421013 
 2739000   0.61342287   -2.6511457   -2.6511457   -1.9704073  0.033010278   -2.6511457   0.68073849   421013 
 2740000   0.61299328   -2.6505077   -2.6505077    -1.970246  0.045233859   -2.6505077   0.68026175   421013 
 2741000   0.61262633   -2.6503469   -2.6503469   -1.9704923  0.038924232   -2.6503469   0.67985454   421013 
 2742000   0.61383655   -2.6517966   -2.6517966   -1.9705991  0.034065933   -2.6517966   0.68119757   421013 
 2743000   0.61236879   -2.6499607   -2.6499607    -1.970392  0.038885637   -2.6499607   0.67956873   421013 
 2744000   0.61314114   -2.6500324   -2.6500324   -1.9696066   0.04376187   -2.6500324   0.68042584   421013 
 2745000   0.61187299   -2.6487743   -2.6487743   -1.9697558  0.039910781   -2.6487743   0.67901852   421013 
 2746000   0.61237045   -2.6499759   -2.6499759   -1.9704053  0.037430934   -2.6499759   0.67957058   421013 
 2747000   0.61157339   -2.6487825   -2.6487825   -1.9700964  0.038724191   -2.6487825   0.67868605   421013 
 2748000   0.61134987   -2.6488128   -2.6488128   -1.9703748  0.037711016   -2.6488128     0.678438   421013 
 2749000   0.61259877   -2.6501904   -2.6501904   -1.9703664  0.039347753   -2.6501904   0.67982395   421013 
 2750000   0.61340252   -2.6510204   -2.6510204   -1.9703045  0.038027406   -2.6510204   0.68071591   421013 
 2751000   0.61172748   -2.6493081   -2.6493081   -1.9704511  0.037424649   -2.6493081   0.67885705   421013 
 2752000   0.61132793   -2.6489556   -2.6489556    -1.970542   0.04710578   -2.6489556   0.67841365   421013 
 2753000   0.61334231   -2.6514013   -2.6514013   -1.9707522  0.040477531   -2.6514013   0.68064908   421013 
 2754000   0.61388035   -2.6519636   -2.6519636   -1.9707174  0.045339145   -2.6519636   0.68124617   421013 
 2755000   0.61434698   -2.6520937   -2.6520937   -1.9703297  0.038114495   -2.6520937     0.681764   421013 
 2756000    0.6136004   -2.6511726   -2.6511726   -1.9702371  0.046302638   -2.6511726    0.6809355   421013 
 2757000   0.61257325   -2.6501799   -2.6501799   -1.9703843  0.042789205   -2.6501799   0.67979563   421013 
 2758000   0.61237613   -2.6498738   -2.6498738   -1.9702969   0.03869354   -2.6498738   0.67957688   421013 
 2759000   0.61178277   -2.6489242   -2.6489242   -1.9700057  0.037827611   -2.6489242   0.67891841   421013 
 2760000   0.61184975   -2.6497316   -2.6497316   -1.9707389   0.04589415   -2.6497316   0.67899273   421013 
 2761000   0.61270979   -2.6505353   -2.6505353   -1.9705882  0.038894314   -2.6505353   0.67994716   421013 
 2762000    0.6132095   -2.6515588   -2.6515588   -1.9710571  0.035989912   -2.6515588    0.6805017   421013 
 2763000   0.61261289   -2.6509881   -2.6509881   -1.9711485  0.036331002   -2.6509881   0.67983962   421013 
 2764000   0.61276593   -2.6508158   -2.6508158   -1.9708064  0.036175314   -2.6508158   0.68000946   421013 
 2765000   0.61313268    -2.651806    -2.651806   -1.9713896  0.039923468    -2.651806   0.68041645   421013 
 2766000   0.61258235   -2.6512454   -2.6512454   -1.9714396  0.038403581   -2.6512454   0.67980573   421013 
 2767000    0.6118162   -2.6503559   -2.6503559   -1.9714004  0.034658991   -2.6503559    0.6789555   421013 
 2768000   0.61284837   -2.6512055   -2.6512055   -1.9711045  0.038071326   -2.6512055   0.68010094   421013 
 2769000   0.61233605   -2.6500385   -2.6500385   -1.9705061  0.038163478   -2.6500385    0.6795324   421013 
 2770000   0.61167383   -2.6501873   -2.6501873   -1.9713898  0.040289735   -2.6501873   0.67879752   421013 
 2771000   0.61177724   -2.6498297   -2.6498297   -1.9709174  0.027903282   -2.6498297   0.67891227   421013 
 2772000   0.61272244   -2.6511768   -2.6511768   -1.9712156  0.040661964   -2.6511768   0.67996119   421013 
 2773000   0.61208929   -2.6507331   -2.6507331   -1.9714745  0.037676066   -2.6507331   0.67925856   421013 
 2774000   0.61328585    -2.651283    -2.651283   -1.9706966  0.031158679    -2.651283   0.68058643   421013 
 2775000   0.61162867   -2.6494505   -2.6494505   -1.9707031  0.049741933   -2.6494505    0.6787474   421013 
 2776000   0.61248568   -2.6498404   -2.6498404   -1.9701419  0.036356112   -2.6498404   0.67969845   421013 
 2777000   0.61144236   -2.6488241   -2.6488241   -1.9702835  0.041242514   -2.6488241   0.67854064   421013 
 2778000   0.61234789   -2.6495335   -2.6495335    -1.969988  0.029607651   -2.6495335   0.67954555   421013 
 2779000   0.61238084    -2.649758    -2.649758   -1.9701759  0.044215022    -2.649758   0.67958211   421013 
 2780000   0.61118779   -2.6488286   -2.6488286   -1.9705705  0.047911216   -2.6488286   0.67825814   421013 
 2781000   0.61207917   -2.6493805   -2.6493805   -1.9701332  0.045540605   -2.6493805   0.67924734   421013 
 2782000   0.61074408   -2.6479216   -2.6479216   -1.9701559  0.024018553   -2.6479216   0.67776573   421013 
 2783000   0.61214468   -2.6505335   -2.6505335   -1.9712134  0.035365401   -2.6505335   0.67932003   421013 
 2784000   0.61272085   -2.6509257   -2.6509257   -1.9709663  0.033517269   -2.6509257   0.67995943   421013 
 2785000   0.61153905    -2.649729    -2.649729    -1.971081  0.049736914    -2.649729   0.67864794   421013 
 2786000   0.61095308   -2.6492103   -2.6492103   -1.9712127  0.041245877   -2.6492103   0.67799767   421013 
 2787000   0.61237404   -2.6507306   -2.6507306    -1.971156  0.041476959   -2.6507306   0.67957456   421013 
 2788000   0.61305748   -2.6520363   -2.6520363   -1.9717033  0.040453139   -2.6520363     0.680333   421013 
 2789000   0.61139678   -2.6498199   -2.6498199   -1.9713298  0.033288707   -2.6498199   0.67849005   421013 
 2790000   0.61216143   -2.6507087   -2.6507087   -1.9713701  0.037320764   -2.6507087   0.67933862   421013 
 2791000   0.61300454   -2.6515365   -2.6515365   -1.9712623  0.043628477   -2.6515365   0.68027425   421013 
 2792000   0.61119203   -2.6503644   -2.6503644   -1.9721016  0.048926396   -2.6503644   0.67826284   421013 
 2793000   0.61201508   -2.6511024   -2.6511024   -1.9719262  0.048297151   -2.6511024   0.67917621   421013 
 2794000   0.61492835   -2.6530649   -2.6530649   -1.9706557  0.045010816   -2.6530649   0.68240918   421013 
 2795000   0.61338286   -2.6521384   -2.6521384   -1.9714443  0.036356425   -2.6521384   0.68069409   421013 
 2796000   0.61255319   -2.6514951   -2.6514951   -1.9717217  0.040845434   -2.6514951   0.67977338   421013 
 2797000   0.61324707   -2.6526114   -2.6526114    -1.972068  0.037541679   -2.6526114   0.68054339   421013 
 2798000   0.61120292   -2.6511097   -2.6511097   -1.9728348  0.035569854   -2.6511097   0.67827493   421013 
 2799000   0.61160708   -2.6514009   -2.6514009   -1.9726774  0.042926149   -2.6514009   0.67872343   421013 
 2800000    0.6105876   -2.6508285   -2.6508285   -1.9732364  0.042466448   -2.6508285   0.67759208   421013 
 2801000   0.61105096   -2.6514801   -2.6514801   -1.9733738  0.042072633   -2.6514801   0.67810629   421013 
 2802000   0.61229561    -2.651843    -2.651843   -1.9723555  0.042310127    -2.651843   0.67948752   421013 
 2803000   0.61173996   -2.6519205   -2.6519205   -1.9730496   0.03330758   -2.6519205    0.6788709   421013 
 2804000   0.61170193   -2.6512704   -2.6512704   -1.9724417  0.034871408   -2.6512704    0.6788287   421013 
 2805000   0.61205183   -2.6518946   -2.6518946   -1.9726776  0.043106106   -2.6518946     0.679217   421013 
 2806000   0.61290281   -2.6530189   -2.6530189   -1.9728575  0.037816828   -2.6530189   0.68016136   421013 
 2807000   0.61247464   -2.6528749   -2.6528749   -1.9731887  0.044172215   -2.6528749    0.6796862   421013 
 2808000   0.61109762   -2.6511898   -2.6511898   -1.9730317  0.047765325   -2.6511898   0.67815807   421013 
 2809000    0.6133078   -2.6532251   -2.6532251   -1.9726143  0.043575207   -2.6532251   0.68061079   421013 
 2810000   0.61296416   -2.6527057   -2.6527057   -1.9724763   0.03855047   -2.6527057   0.68022944   421013 
 2811000   0.61092393   -2.6510225   -2.6510225   -1.9730572  0.037358113   -2.6510225   0.67796532   421013 
 2812000   0.61156267   -2.6519953   -2.6519953   -1.9733212  0.047536568   -2.6519953   0.67867415   421013 
 2813000   0.61269425   -2.6532783   -2.6532783   -1.9733483  0.042059142   -2.6532783   0.67992991   421013 
 2814000   0.61242765   -2.6525508   -2.6525508   -1.9729167  0.038162349   -2.6525508   0.67963406   421013 
 2815000   0.61101831   -2.6507577   -2.6507577   -1.9726877  0.037615485   -2.6507577   0.67807006   421013 
 2816000   0.61159093   -2.6516929   -2.6516929   -1.9729874  0.044978844   -2.6516929   0.67870551   421013 
 2817000   0.61120938   -2.6509356   -2.6509356   -1.9726535  0.033422901   -2.6509356   0.67828209   421013 
 2818000   0.61238695   -2.6517963   -2.6517963   -1.9722074  0.035667342   -2.6517963   0.67958889   421013 
 2819000   0.61217102   -2.6514292   -2.6514292     -1.97208  0.051409199   -2.6514292   0.67934926   421013 
 2820000   0.61186348   -2.6516623   -2.6516623   -1.9726544  0.033514889   -2.6516623   0.67900798   421013 
 2821000   0.61141611   -2.6512035   -2.6512035   -1.9726919  0.028190172   -2.6512035   0.67851151   421013 
 2822000   0.61279788    -2.653416    -2.653416   -1.9733711  0.026552836    -2.653416   0.68004491   421013 
 2823000    0.6121562   -2.6522979   -2.6522979   -1.9729651  0.039292826   -2.6522979   0.67933282   421013 
 2824000    0.6127516   -2.6531565   -2.6531565    -1.973163  0.050460388   -2.6531565   0.67999355   421013 
 2825000   0.61315572   -2.6540774   -2.6540774   -1.9736354  0.028686383   -2.6540774   0.68044202   421013 
 2826000   0.61258143   -2.6525469   -2.6525469   -1.9727422  0.040545474   -2.6525469   0.67980471   421013 
 2827000   0.61295117   -2.6519478   -2.6519478   -1.9717328  0.042039588   -2.6519478   0.68021502   421013 
 2828000   0.61160162    -2.651213    -2.651213   -1.9724956  0.036460622    -2.651213   0.67871738   421013 
 2829000   0.61181745     -2.65185     -2.65185   -1.9728931  0.034849158     -2.65185   0.67895689   421013 
 2830000   0.61348235    -2.652882    -2.652882   -1.9720775  0.039620698    -2.652882   0.68080449   421013 
 2831000   0.61310276   -2.6515343   -2.6515343   -1.9711511  0.045404954   -2.6515343   0.68038325   421013 
 2832000   0.61230047   -2.6511735   -2.6511735   -1.9716806  0.038632627   -2.6511735   0.67949291   421013 
 2833000   0.61206769    -2.651049    -2.651049   -1.9718144  0.041761038    -2.651049   0.67923459   421013 
 2834000   0.61240891   -2.6516049   -2.6516049   -1.9719917  0.045569513   -2.6516049   0.67961325   421013 
 2835000   0.61281149   -2.6523059   -2.6523059   -1.9722459  0.031956253   -2.6523059   0.68006002   421013 
 2836000   0.61173401   -2.6510841   -2.6510841   -1.9722198  0.040432152   -2.6510841    0.6788643   421013 
 2837000    0.6127544   -2.6515336   -2.6515336    -1.971537  0.044899582   -2.6515336   0.67999666   421013 
 2838000   0.61257288   -2.6506651   -2.6506651   -1.9708699   0.03892552   -2.6506651   0.67979522   421013 
 2839000   0.61303638   -2.6510804   -2.6510804   -1.9707708  0.044250431   -2.6510804   0.68030958   421013 
 2840000   0.61262398   -2.6507484   -2.6507484   -1.9708964  0.036971328   -2.6507484   0.67985193   421013 
 2841000   0.61342481   -2.6520593   -2.6520593   -1.9713187  0.041261055   -2.6520593   0.68074064   421013 
 2842000   0.61201575   -2.6503353   -2.6503353   -1.9711584  0.042792507   -2.6503353   0.67917695   421013 
 2843000   0.61341285   -2.6518645   -2.6518645   -1.9711372  0.038563736   -2.6518645   0.68072737   421013 
 2844000    0.6136123   -2.6514845   -2.6514845   -1.9705358  0.047543838   -2.6514845    0.6809487   421013 
 2845000   0.61372636    -2.652347    -2.652347   -1.9712717  0.033617436    -2.652347   0.68107528   421013 
 2846000   0.61324643   -2.6517808   -2.6517808   -1.9712381  0.043566398   -2.6517808   0.68054268   421013 
 2847000   0.61164415   -2.6500262   -2.6500262   -1.9712616  0.046351529   -2.6500262   0.67876457   421013 
 2848000   0.61186965    -2.651022    -2.651022   -1.9720072  0.043280205    -2.651022   0.67901482   421013 
 2849000   0.61362728   -2.6531056   -2.6531056   -1.9721402  0.034617608   -2.6531056   0.68096533   421013 
 2850000   0.61302504   -2.6525576   -2.6525576   -1.9722606  0.052159167   -2.6525576   0.68029701   421013 
 2851000   0.61279594   -2.6523208   -2.6523208    -1.972278  0.043164551   -2.6523208   0.68004276   421013 
 2852000     0.613773   -2.6536831   -2.6536831   -1.9725561  0.039485938   -2.6536831   0.68112704   421013 
 2853000   0.61284177   -2.6528053   -2.6528053   -1.9727117    0.0397817   -2.6528053   0.68009362   421013 
 2854000   0.61281709   -2.6526507   -2.6526507   -1.9725845  0.035967707   -2.6526507   0.68006623   421013 
 2855000   0.61297677   -2.6531279   -2.6531279   -1.9728844  0.029483858   -2.6531279   0.68024343   421013 
 2856000   0.61265699   -2.6531314   -2.6531314   -1.9732429  0.041283312   -2.6531314   0.67988857   421013 
 2857000    0.6134095   -2.6534595   -2.6534595   -1.9727359  0.035441096   -2.6534595   0.68072365   421013 
 2858000    0.6134022   -2.6533291   -2.6533291   -1.9726136   0.03326849   -2.6533291   0.68071554   421013 
 2859000   0.61212461   -2.6517632   -2.6517632   -1.9724655  0.047951154   -2.6517632   0.67929776   421013 
 2860000   0.61201963    -2.651562    -2.651562   -1.9723808  0.044108949    -2.651562   0.67918126   421013 
 2861000   0.61285664   -2.6527901   -2.6527901     -1.97268  0.037210939   -2.6527901   0.68011012   421013 
 2862000   0.61222156   -2.6523338   -2.6523338   -1.9729284  0.036646113   -2.6523338   0.67940535   421013 
 2863000   0.61196097   -2.6525362   -2.6525362     -1.97342  0.037870136   -2.6525362   0.67911616   421013 
 2864000   0.61228261   -2.6525761   -2.6525761    -1.973103  0.037269989   -2.6525761    0.6794731   421013 
 2865000   0.61202643   -2.6522224   -2.6522224   -1.9730336  0.031355012   -2.6522224    0.6791888   421013 
 2866000   0.61046557   -2.6506124   -2.6506124   -1.9731557   0.03570935   -2.6506124   0.67745665   421013 
 2867000    0.6104103   -2.6507121   -2.6507121   -1.9733167  0.036972351   -2.6507121   0.67739533   421013 
 2868000   0.61128891   -2.6518997   -2.6518997   -1.9735293  0.038181746   -2.6518997   0.67837035   421013 
 2869000   0.61121285   -2.6518095   -2.6518095   -1.9735235  0.032144648   -2.6518095   0.67828595   421013 
 2870000   0.61088408   -2.6517537   -2.6517537   -1.9738326  0.040826017   -2.6517537    0.6779211   421013 
 2871000   0.61160471    -2.651615    -2.651615   -1.9728942  0.045050574    -2.651615    0.6787208   421013 
 2872000   0.61167539   -2.6522243   -2.6522243    -1.973425  0.038818935   -2.6522243   0.67879924   421013 
 2873000   0.61230425    -2.652709    -2.652709   -1.9732119  0.048518385    -2.652709   0.67949711   421013 
 2874000   0.61333583   -2.6541682   -2.6541682   -1.9735264    0.0386038   -2.6541682    0.6806419   421013 
 2875000   0.61222881   -2.6533211   -2.6533211   -1.9739077   0.03914748   -2.6533211    0.6794134   421013 
 2876000   0.61176379   -2.6526639   -2.6526639   -1.9737665  0.040279725   -2.6526639   0.67889735   421013 
 2877000   0.61144775   -2.6521777   -2.6521777    -1.973631  0.030942358   -2.6521777   0.67854663   421013 
 2878000   0.61251648   -2.6531609   -2.6531609   -1.9734282  0.041811198   -2.6531609   0.67973263   421013 
 2879000   0.61090938   -2.6517252   -2.6517252   -1.9737761  0.040384405   -2.6517252   0.67794918   421013 
 2880000   0.61258066   -2.6541832   -2.6541832   -1.9743794  0.036144887   -2.6541832   0.67980386   421013 
 2881000   0.61324641   -2.6550449   -2.6550449   -1.9745023  0.037716348   -2.6550449   0.68054267   421013 
 2882000   0.61100556   -2.6532519   -2.6532519    -1.975196  0.039620147   -2.6532519   0.67805591   421013 
 2883000   0.61184439   -2.6538292   -2.6538292   -1.9748424  0.046579816   -2.6538292   0.67898679   421013 
 2884000   0.61205571     -2.65393     -2.65393   -1.9747087  0.043008029     -2.65393    0.6792213   421013 
 2885000   0.61260496   -2.6542456   -2.6542456   -1.9744148  0.037738932   -2.6542456   0.67983082   421013 
 2886000   0.61213463   -2.6539203   -2.6539203   -1.9746114  0.044682359   -2.6539203   0.67930888   421013 
 2887000    0.6115493   -2.6540655   -2.6540655   -1.9754061  0.032677017   -2.6540655   0.67865932   421013 
 2888000   0.61164837   -2.6541049   -2.6541049   -1.9753356  0.032221136   -2.6541049   0.67876926   421013 
 2889000   0.61331037   -2.6548599   -2.6548599   -1.9742463  0.040554755   -2.6548599   0.68061365   421013 
 2890000   0.61086944   -2.6525079   -2.6525079    -1.974603  0.039425696   -2.6525079   0.67790486   421013 
 2891000   0.61261525   -2.6544337   -2.6544337   -1.9745915  0.039311018   -2.6544337   0.67984224   421013 
 2892000   0.61081851    -2.652522    -2.652522   -1.9746736  0.033567402    -2.652522   0.67784834   421013 
 2893000   0.61083007   -2.6522444   -2.6522444   -1.9743833  0.047523357   -2.6522444   0.67786115   421013 
 2894000   0.61245041   -2.6542489   -2.6542489   -1.9745896  0.038010019   -2.6542489   0.67965931   421013 
 2895000     0.612075   -2.6536673   -2.6536673   -1.9744246  0.031424568   -2.6536673    0.6792427   421013 
 2896000   0.61191176   -2.6535764   -2.6535764   -1.9745149  0.031706757   -2.6535764   0.67906155   421013 
 2897000   0.61064735   -2.6524806   -2.6524806   -1.9748222  0.034645632   -2.6524806   0.67765839   421013 
 2898000   0.61114379   -2.6527623   -2.6527623    -1.974553  0.031339111   -2.6527623    0.6782093   421013 
 2899000   0.61107548   -2.6528799   -2.6528799   -1.9747464  0.044802904   -2.6528799    0.6781335   421013 
 2900000   0.61235195   -2.6543837   -2.6543837   -1.9748336  0.037825961   -2.6543837   0.67955005   421013 
 2901000   0.61231634   -2.6546988   -2.6546988   -1.9751883  0.037920506   -2.6546988   0.67951053   421013 
 2902000   0.61324536   -2.6564752   -2.6564752   -1.9759337  0.046805819   -2.6564752    0.6805415   421013 
 2903000   0.61311492    -2.656652    -2.656652   -1.9762553  0.035325546    -2.656652   0.68039674   421013 
 2904000   0.61301575   -2.6571819   -2.6571819   -1.9768952   0.03638187   -2.6571819   0.68028669   421013 
 2905000   0.61294698   -2.6570275   -2.6570275   -1.9768172  0.048439318   -2.6570275   0.68021037   421013 
 2906000   0.61205593   -2.6551419   -2.6551419   -1.9759203  0.047503663   -2.6551419   0.67922154   421013 
 2907000    0.6132113   -2.6562595   -2.6562595   -1.9757558  0.041840871   -2.6562595    0.6805037   421013 
 2908000   0.61251734   -2.6556473   -2.6556473   -1.9759137  0.036060117   -2.6556473   0.67973358   421013 
 2909000    0.6139043   -2.6566694   -2.6566694   -1.9753967  0.034333053   -2.6566694   0.68127275   421013 
 2910000   0.61311769   -2.6553553   -2.6553553   -1.9749555  0.033953889   -2.6553553   0.68039981   421013 
 2911000   0.61315604   -2.6557194   -2.6557194    -1.975277  0.045873973   -2.6557194   0.68044238   421013 
 2912000   0.61247424   -2.6549272   -2.6549272   -1.9752414  0.035064096   -2.6549272   0.67968576   421013 
 2913000   0.61183942   -2.6544066   -2.6544066   -1.9754253  0.045832929   -2.6544066   0.67898127   421013 
 2914000    0.6115521   -2.6544479   -2.6544479   -1.9757855  0.037740971   -2.6544479   0.67866242   421013 
 2915000   0.61135857   -2.6541127   -2.6541127    -1.975665  0.042602413   -2.6541127   0.67844766   421013 
 2916000    0.6122565   -2.6555239   -2.6555239   -1.9760798  0.033855415   -2.6555239   0.67944412   421013 
 2917000   0.61143081   -2.6542992   -2.6542992   -1.9757713  0.034353138   -2.6542992   0.67852782   421013 
 2918000   0.61225309   -2.6551147   -2.6551147   -1.9756744  0.038061891   -2.6551147   0.67944034   421013 
 2919000   0.61245961   -2.6563916   -2.6563916    -1.976722   0.03972203   -2.6563916   0.67966953   421013 
 2920000   0.61207617   -2.6557328   -2.6557328   -1.9764888  0.040241162   -2.6557328     0.679244   421013 
 2921000   0.61253844    -2.657017    -2.657017     -1.97726  0.052053704    -2.657017   0.67975701   421013 
 2922000   0.61126454   -2.6551223   -2.6551223    -1.976779   0.03487726   -2.6551223   0.67834331   421013 
 2923000   0.61225695   -2.6551707   -2.6551707   -1.9757261  0.044338861   -2.6551707   0.67944462   421013 
 2924000   0.61207544   -2.6554133   -2.6554133   -1.9761702  0.037993427   -2.6554133   0.67924319   421013 
 2925000    0.6120459   -2.6559701   -2.6559701   -1.9767597  0.038753815   -2.6559701   0.67921041   421013 
 2926000   0.61198629   -2.6554393   -2.6554393    -1.976295  0.043058387   -2.6554393   0.67914427   421013 
 2927000   0.61224672    -2.655429    -2.655429   -1.9759957  0.047262404    -2.655429   0.67943327   421013 
 2928000   0.61249602   -2.6562254   -2.6562254   -1.9765155  0.050010831   -2.6562254   0.67970992   421013 
 2929000   0.61290236   -2.6569218   -2.6569218    -1.976761  0.031200995   -2.6569218   0.68016086   421013 
 2930000   0.61208531   -2.6556778   -2.6556778   -1.9764236  0.042844298   -2.6556778   0.67925414   421013 
 2931000   0.61160595   -2.6560007   -2.6560007   -1.9772785  0.044101786   -2.6560007   0.67872218   421013 
 2932000   0.61245017   -2.6565022   -2.6565022   -1.9768431  0.041723185   -2.6565022   0.67965904   421013 
 2933000   0.61266131   -2.6564171   -2.6564171   -1.9765238  0.041007512   -2.6564171   0.67989336   421013 
 2934000   0.61298588   -2.6562351   -2.6562351   -1.9759815  0.039620819   -2.6562351   0.68025354   421013 
 2935000   0.61145698   -2.6554929   -2.6554929    -1.976936  0.039090146   -2.6554929   0.67855686   421013 
 2936000   0.61294571    -2.657037    -2.657037   -1.9768281  0.039419345    -2.657037   0.68020897   421013 
 2937000   0.61214348    -2.656595    -2.656595   -1.9772763   0.04583189    -2.656595    0.6793187   421013 
 2938000   0.61247335   -2.6576239   -2.6576239   -1.9779391  0.030122401   -2.6576239   0.67968477   421013 
 2939000   0.61153847   -2.6567601   -2.6567601   -1.9781128  0.049227773   -2.6567601    0.6786473   421013 
 2940000   0.61028557   -2.6559657   -2.6559657   -1.9787088  0.027831938   -2.6559657   0.67725691   421013 
 2941000   0.61041135   -2.6555642   -2.6555642   -1.9781677  0.033337712   -2.6555642   0.67739649   421013 
 2942000   0.61162136   -2.6572616   -2.6572616   -1.9785223   0.04456132   -2.6572616   0.67873928   421013 
 2943000   0.61157026   -2.6566595   -2.6566595   -1.9779769  0.031691901   -2.6566595   0.67868258   421013 
 2944000   0.61245164   -2.6573962   -2.6573962   -1.9777355  0.042138988   -2.6573962   0.67966068   421013 
 2945000   0.61308945   -2.6577536   -2.6577536   -1.9773852  0.043238564   -2.6577536   0.68036848   421013 
 2946000    0.6129871   -2.6576633   -2.6576633   -1.9774084  0.040782826   -2.6576633   0.68025489   421013 
 2947000   0.61298392   -2.6572942   -2.6572942   -1.9770428  0.044882784   -2.6572942   0.68025137   421013 
 2948000   0.61283032   -2.6563324   -2.6563324   -1.9762515  0.041196719   -2.6563324   0.68008092   421013 
 2949000   0.61358525   -2.6575933   -2.6575933   -1.9766746  0.042338549   -2.6575933   0.68091869   421013 
 2950000   0.61310974   -2.6567598   -2.6567598   -1.9763688  0.034833894   -2.6567598   0.68039099   421013 
 2951000   0.61244941   -2.6565254   -2.6565254   -1.9768672   0.04234176   -2.6565254   0.67965821   421013 
 2952000   0.61329038   -2.6572244   -2.6572244    -1.976633  0.033018465   -2.6572244   0.68059146   421013 
 2953000   0.61297339   -2.6571051   -2.6571051   -1.9768655  0.034832942   -2.6571051   0.68023968   421013 
 2954000   0.61195453   -2.6563857   -2.6563857   -1.9772767  0.034464858   -2.6563857   0.67910901   421013 
 2955000    0.6119962   -2.6561449   -2.6561449   -1.9769897   0.03424706   -2.6561449   0.67915526   421013 
 2956000    0.6122469   -2.6562812   -2.6562812   -1.9768477  0.041176291   -2.6562812   0.67943347   421013 
 2957000   0.61258711    -2.656077    -2.656077    -1.976266  0.047030289    -2.656077   0.67981101   421013 
 2958000   0.61203033   -2.6564731   -2.6564731     -1.97728  0.022581599   -2.6564731   0.67919313   421013 
 2959000   0.61145281   -2.6565623   -2.6565623   -1.9780101  0.040424163   -2.6565623   0.67855224   421013 
 2960000   0.61088596   -2.6566542   -2.6566542    -1.978731  0.043270975   -2.6566542   0.67792318   421013 
 2961000   0.61250632   -2.6580464   -2.6580464    -1.978325  0.038316282   -2.6580464   0.67972136   421013 
 2962000   0.61213225   -2.6575254   -2.6575254   -1.9782192  0.041424173   -2.6575254   0.67930624   421013 
 2963000   0.61243697   -2.6575737   -2.6575737   -1.9779293  0.046213857   -2.6575737    0.6796444   421013 
 2964000   0.61189462   -2.6565121   -2.6565121   -1.9774696   0.05039388   -2.6565121   0.67904253   421013 
 2965000   0.61393221    -2.657972    -2.657972   -1.9766683  0.039346712    -2.657972   0.68130372   421013 
 2966000   0.61301265    -2.657766    -2.657766   -1.9774828  0.044045738    -2.657766   0.68028325   421013 
 2967000   0.61114295   -2.6557388   -2.6557388   -1.9775304  0.038941863   -2.6557388   0.67820837   421013 
 2968000    0.6125325   -2.6581711   -2.6581711   -1.9784206  0.040265832   -2.6581711   0.67975041   421013 
 2969000   0.61286395   -2.6582447   -2.6582447   -1.9781265  0.037039832   -2.6582447   0.68011823   421013 
 2970000   0.61206956   -2.6580085   -2.6580085   -1.9787719   0.03964217   -2.6580085   0.67923667   421013 
 2971000   0.61232723   -2.6576654   -2.6576654   -1.9781428  0.041681426   -2.6576654   0.67952261   421013 
 2972000   0.61319351   -2.6581455   -2.6581455   -1.9776616  0.040315664   -2.6581455   0.68048395   421013 
 2973000     0.612904   -2.6585142   -2.6585142   -1.9783515  0.041729757   -2.6585142   0.68016267   421013 
 2974000   0.61208343   -2.6577451   -2.6577451    -1.978493  0.035003743   -2.6577451   0.67925206   421013 
 2975000    0.6118982   -2.6572886   -2.6572886   -1.9782421  0.036504089   -2.6572886   0.67904651   421013 
 2976000   0.61110274   -2.6565513   -2.6565513   -1.9783876  0.045488652   -2.6565513   0.67816375   421013 
 2977000   0.61151286   -2.6572061   -2.6572061   -1.9785872  0.030339755   -2.6572061   0.67861888   421013 
 2978000   0.61165644   -2.6572422   -2.6572422    -1.978464   0.03103694   -2.6572422   0.67877821   421013 
 2979000   0.61143649   -2.6582729   -2.6582729   -1.9797388  0.038081239   -2.6582729   0.67853412   421013 
 2980000   0.61166701   -2.6583838   -2.6583838   -1.9795939  0.029167266   -2.6583838   0.67878994   421013 
 2981000   0.61219053   -2.6588203   -2.6588203   -1.9794494  0.043849186   -2.6588203   0.67937091   421013 
 2982000   0.61118748   -2.6587403   -2.6587403   -1.9804826   0.04493897   -2.6587403   0.67825779   421013 
 2983000   0.61230512   -2.6589871   -2.6589871    -1.979489  0.032432242   -2.6589871   0.67949808   421013 
 2984000   0.61207937   -2.6582986   -2.6582986    -1.979051   0.04203682   -2.6582986   0.67924756   421013 
 2985000   0.61166365   -2.6582996   -2.6582996   -1.9795134  0.044301448   -2.6582996   0.67878621   421013 
 2986000    0.6118901   -2.6590146   -2.6590146    -1.979977  0.039700618   -2.6590146   0.67903751   421013 
 2987000   0.61146792   -2.6580551   -2.6580551   -1.9794861  0.040281714   -2.6580551   0.67856901   421013 
 2988000   0.61137731   -2.6586394   -2.6586394   -1.9801709  0.045889297   -2.6586394   0.67846846   421013 
 2989000   0.61040929   -2.6572649   -2.6572649   -1.9798707  0.032109349   -2.6572649    0.6773942   421013 
 2990000   0.61225451   -2.6591077   -2.6591077   -1.9796658  0.040578974   -2.6591077   0.67944192   421013 
 2991000   0.61240195   -2.6588721   -2.6588721   -1.9792666  0.044448226   -2.6588721   0.67960553   421013 
 2992000   0.61108121   -2.6574291   -2.6574291   -1.9792893  0.038783887   -2.6574291   0.67813986   421013 
 2993000   0.61166746   -2.6581888   -2.6581888   -1.9793984  0.029662512   -2.6581888   0.67879044   421013 
 2994000   0.61090794   -2.6576673   -2.6576673   -1.9797197  0.035302749   -2.6576673   0.67794758   421013 
 2995000   0.61112898   -2.6580113   -2.6580113   -1.9798185  0.038349902   -2.6580113   0.67819288   421013 
 2996000   0.61091573   -2.6574857   -2.6574857   -1.9795294  0.039576991   -2.6574857   0.67795622   421013 
 2997000   0.60997016   -2.6570326   -2.6570326   -1.9801257  0.041661011   -2.6570326   0.67690689   421013 
 2998000   0.61127577   -2.6585906   -2.6585906   -1.9802349  0.039369557   -2.6585906   0.67835576   421013 
 2999000   0.60962773   -2.6559277   -2.6559277   -1.9794008  0.046989228   -2.6559277   0.67652688   421013 
 3000000      0.61093   -2.6573264   -2.6573264   -1.9793543  0.047571125   -2.6573264   0.67797206   421013 
 3001000   0.61141228   -2.6577844   -2.6577844   -1.9792771  0.036437008   -2.6577844   0.67850726   421013 
 3002000   0.61198514    -2.658405    -2.658405    -1.979262  0.031587807    -2.658405   0.67914299   421013 
 3003000   0.61065527   -2.6573444   -2.6573444   -1.9796772  0.034218334   -2.6573444   0.67766718   421013 
 3004000    0.6133953   -2.6605906   -2.6605906   -1.9798827  0.033541936   -2.6605906   0.68070789   421013 
 3005000   0.61253305   -2.6605097   -2.6605097   -1.9807587  0.034653475   -2.6605097   0.67975103   421013 
 3006000   0.61234467   -2.6598778   -2.6598778   -1.9803358  0.035770316   -2.6598778   0.67954197   421013 
 3007000   0.61158503   -2.6588953   -2.6588953   -1.9801963  0.034098201   -2.6588953   0.67869897   421013 
 3008000   0.61108892   -2.6581692   -2.6581692   -1.9800208  0.038764376   -2.6581692   0.67814841   421013 
 3009000   0.61177094   -2.6590561   -2.6590561   -1.9801508  0.036962209   -2.6590561   0.67890528   421013 
 3010000   0.61212658   -2.6590775   -2.6590775   -1.9797775  0.032592463   -2.6590775   0.67929995   421013 
 3011000    0.6111295   -2.6589932   -2.6589932   -1.9807998  0.036900274   -2.6589932   0.67819345   421013 
 3012000   0.61110556   -2.6596041   -2.6596041   -1.9814372  0.038044069   -2.6596041   0.67816689   421013 
 3013000   0.61245081   -2.6605566   -2.6605566   -1.9808968  0.041656158   -2.6605566   0.67965976   421013 
 3014000    0.6109764   -2.6591928   -2.6591928   -1.9811693  0.037628684   -2.6591928   0.67802355   421013 
 3015000   0.61203042   -2.6603605   -2.6603605   -1.9811673  0.030760183   -2.6603605   0.67919323   421013 
 3016000    0.6112204   -2.6596489   -2.6596489   -1.9813545  0.048014039   -2.6596489   0.67829432   421013 
 3017000   0.61278799   -2.6611011   -2.6611011   -1.9810671  0.048966838   -2.6611011   0.68003394   421013 
 3018000   0.61285602   -2.6613358   -2.6613358   -1.9812263   0.03408372   -2.6613358   0.68010944   421013 
 3019000   0.61154034   -2.6602521   -2.6602521   -1.9816027  0.041741649   -2.6602521   0.67864937   421013 
 3020000    0.6109466   -2.6597045   -2.6597045    -1.981714  0.049283015   -2.6597045   0.67799048   421013 
 3021000   0.61102595   -2.6599872   -2.6599872   -1.9819086  0.037639186   -2.6599872   0.67807853   421013 
 3022000   0.61225138   -2.6604954   -2.6604954   -1.9810569  0.042499583   -2.6604954   0.67943844   421013 
 3023000   0.61154382   -2.6592196   -2.6592196   -1.9805664  0.048588559   -2.6592196   0.67865323   421013 
 3024000   0.61186386   -2.6599835   -2.6599835   -1.9809751  0.035041498   -2.6599835    0.6790084   421013 
 3025000    0.6110301   -2.6586916   -2.6586916   -1.9806085  0.043978676   -2.6586916   0.67808314   421013 
 3026000   0.61150752   -2.6595962   -2.6595962   -1.9809832  0.039133609   -2.6595962   0.67861296   421013 
 3027000   0.61041574    -2.658546    -2.658546   -1.9811446  0.035373351    -2.658546   0.67740137   421013 
 3028000   0.61007941   -2.6585161   -2.6585161    -1.981488  0.037948109   -2.6585161   0.67702812   421013 
 3029000   0.61153573   -2.6594492   -2.6594492    -1.980805  0.030803259   -2.6594492   0.67864425   421013 
 3030000   0.61069676   -2.6588963   -2.6588963   -1.9811831  0.046868402   -2.6588963   0.67771322   421013 
 3031000   0.61137663   -2.6596051   -2.6596051   -1.9811374  0.036986226   -2.6596051   0.67846769   421013 
 3032000   0.61035025   -2.6580752   -2.6580752   -1.9807465  0.047758952   -2.6580752   0.67732869   421013 
 3033000   0.60995405   -2.6580905   -2.6580905   -1.9812015  0.044992787   -2.6580905     0.676889   421013 
 3034000   0.61210207   -2.6607722   -2.6607722   -1.9814994  0.042784396   -2.6607722   0.67927275   421013 
 3035000   0.61121959   -2.6595053   -2.6595053   -1.9812119  0.038780126   -2.6595053   0.67829342   421013 
 3036000   0.61270264   -2.6609251   -2.6609251   -1.9809858  0.036948796   -2.6609251   0.67993922   421013 
 3037000   0.61221257   -2.6602044   -2.6602044    -1.980809  0.039141228   -2.6602044   0.67939537   421013 
 3038000   0.61090057   -2.6593774   -2.6593774    -1.981438   0.03438026   -2.6593774    0.6779394   421013 
 3039000    0.6110845    -2.659051    -2.659051   -1.9809075  0.041836741    -2.659051   0.67814352   421013 
 3040000   0.61031692   -2.6590147   -2.6590147    -1.981723  0.034533848   -2.6590147    0.6772917   421013 
 3041000   0.61035103   -2.6588812   -2.6588812   -1.9815516  0.031321506   -2.6588812   0.67732955   421013 
 3042000    0.6112775   -2.6605792   -2.6605792   -1.9822215  0.037195043   -2.6605792   0.67835769   421013 
 3043000   0.61194208   -2.6612477   -2.6612477   -1.9821525  0.033448181   -2.6612477    0.6790952   421013 
 3044000   0.61023925   -2.6598118   -2.6598118   -1.9826063  0.039608764   -2.6598118    0.6772055   421013 
 3045000      0.61085   -2.6599939   -2.6599939   -1.9821106  0.031179788   -2.6599939   0.67788328   421013 
 3046000   0.61216907    -2.661315    -2.661315   -1.9819679  0.045091781    -2.661315    0.6793471   421013 
 3047000   0.61162385   -2.6610593   -2.6610593   -1.9823173  0.044332582   -2.6610593   0.67874204   421013 
 3048000   0.61296142   -2.6633761   -2.6633761   -1.9831497  0.041184163   -2.6633761    0.6802264   421013 
 3049000   0.61260939   -2.6629893   -2.6629893   -1.9831536  0.037052385   -2.6629893   0.67983574   421013 
 3050000   0.61209221   -2.6619882   -2.6619882   -1.9827264  0.039778511   -2.6619882    0.6792618   421013 
 3051000   0.61274432   -2.6622262   -2.6622262   -1.9822407  0.036167835   -2.6622262   0.67998548   421013 
 3052000   0.61250794    -2.661906    -2.661906   -1.9821828  0.043053213    -2.661906   0.67972315   421013 
 3053000   0.61225768   -2.6615378   -2.6615378   -1.9820924  0.041675493   -2.6615378   0.67944543   421013 
 3054000   0.61308067   -2.6629619   -2.6629619   -1.9826031  0.043648991   -2.6629619   0.68035873   421013 
 3055000   0.61296792     -2.66171     -2.66171   -1.9814764  0.042293005     -2.66171   0.68023362   421013 
 3056000   0.61152703   -2.6605594   -2.6605594   -1.9819248   0.03874824   -2.6605594    0.6786346   421013 
 3057000   0.61194213   -2.6606341   -2.6606341   -1.9815388  0.027847398   -2.6606341   0.67909525   421013 
 3058000   0.61163078   -2.6594911   -2.6594911   -1.9807414  0.044650577   -2.6594911   0.67874974   421013 
 3059000   0.61122932   -2.6586331   -2.6586331   -1.9803289  0.051190166   -2.6586331   0.67830422   421013 
 3060000   0.61230236   -2.6601173   -2.6601173   -1.9806223   0.04570927   -2.6601173   0.67949501   421013 
 3061000    0.6120446   -2.6598791   -2.6598791   -1.9806702   0.03865095   -2.6598791   0.67920897   421013 
 3062000   0.61155889   -2.6596279   -2.6596279    -1.980958  0.042945306   -2.6596279   0.67866995   421013 
 3063000   0.61025761   -2.6586723   -2.6586723   -1.9814465  0.043060454   -2.6586723   0.67722588   421013 
 3064000   0.61089696   -2.6596391   -2.6596391   -1.9817037  0.029974845   -2.6596391   0.67793539   421013 
 3065000   0.61194329   -2.6609306   -2.6609306   -1.9818341  0.038310584   -2.6609306   0.67909654   421013 
 3066000   0.61183869   -2.6601367   -2.6601367   -1.9811562  0.045660079   -2.6601367   0.67898046   421013 
 3067000   0.61108631   -2.6599007   -2.6599007   -1.9817552  0.031008869   -2.6599007   0.67814552   421013 
 3068000   0.61032892   -2.6584457   -2.6584457   -1.9811407  0.039893999   -2.6584457   0.67730501   421013 
 3069000   0.61072221   -2.6584175   -2.6584175   -1.9806761  0.033405171   -2.6584175   0.67774146   421013 
 3070000   0.61148856    -2.659742    -2.659742   -1.9811501  0.042125745    -2.659742   0.67859191   421013 
 3071000   0.61240058   -2.6618596   -2.6618596   -1.9822556  0.037666466   -2.6618596   0.67960402   421013 
 3072000   0.61230218   -2.6619864   -2.6619864   -1.9824915  0.037004988   -2.6619864   0.67949481   421013 
 3073000   0.61156938   -2.6608266   -2.6608266    -1.982145  0.045143797   -2.6608266    0.6786816   421013 
 3074000   0.61161379   -2.6605901   -2.6605901   -1.9818592  0.031068902   -2.6605901   0.67873088   421013 
 3075000   0.61199788   -2.6607465   -2.6607465   -1.9815894  0.031497278   -2.6607465   0.67915712   421013 
 3076000   0.61163487   -2.6608593   -2.6608593    -1.982105  0.030576805   -2.6608593   0.67875427   421013 
 3077000    0.6127957   -2.6618703   -2.6618703   -1.9818278  0.038708346   -2.6618703    0.6800425   421013 
 3078000   0.61328474    -2.661403    -2.661403   -1.9808178  0.041077723    -2.661403    0.6805852   421013 
 3079000   0.61204296   -2.6605796   -2.6605796   -1.9813724  0.039851813   -2.6605796   0.67920715   421013 
 3080000   0.61185876   -2.6608164   -2.6608164   -1.9818136  0.036064602   -2.6608164   0.67900274   421013 
 3081000    0.6126006   -2.6616495   -2.6616495   -1.9818235  0.037317354   -2.6616495   0.67982598   421013 
 3082000   0.61275053   -2.6616288   -2.6616288   -1.9816364  0.035520246   -2.6616288   0.67999236   421013 
 3083000   0.61242203   -2.6614011   -2.6614011   -1.9817733  0.043365692   -2.6614011   0.67962782   421013 
 3084000   0.61152138   -2.6608881   -2.6608881   -1.9822598  0.045113599   -2.6608881   0.67862833   421013 
 3085000   0.61158766   -2.6611286   -2.6611286   -1.9824267  0.035144958   -2.6611286   0.67870189   421013 
 3086000   0.61060712   -2.6601069   -2.6601069   -1.9824931  0.043300634   -2.6601069   0.67761375   421013 
 3087000   0.61176797   -2.6608354   -2.6608354   -1.9819335  0.037862138   -2.6608354   0.67890199   421013 
 3088000   0.61204092    -2.661404    -2.661404   -1.9821991  0.039027523    -2.661404   0.67920489   421013 
 3089000   0.61097046   -2.6587488   -2.6587488   -1.9807318  0.036675601   -2.6587488   0.67801696   421013 
 3090000   0.61105649   -2.6595891   -2.6595891   -1.9814766  0.046889942   -2.6595891   0.67811243   421013 
 3091000   0.61205946   -2.6606405   -2.6606405    -1.981415  0.038540597   -2.6606405   0.67922546   421013 
 3092000   0.61181753   -2.6604948   -2.6604948   -1.9815378   0.04202318   -2.6604948   0.67895698   421013 
 3093000   0.61176654   -2.6603863   -2.6603863   -1.9814859  0.038411772   -2.6603863   0.67890039   421013 
 3094000   0.61281808   -2.6617301   -2.6617301   -1.9816628  0.039119365   -2.6617301   0.68006733   421013 
 3095000   0.61185711    -2.660461    -2.660461   -1.9814601   0.03701415    -2.660461   0.67900091   421013 
 3096000   0.61133408   -2.6593822   -2.6593822   -1.9809617  0.037286801   -2.6593822   0.67842048   421013 
 3097000   0.61210436    -2.660494    -2.660494   -1.9812187  0.045440172    -2.660494   0.67927529   421013 
 3098000   0.61364441   -2.6613765   -2.6613765   -1.9803922  0.043515796   -2.6613765   0.68098434   421013 
 3099000   0.61114679   -2.6604381   -2.6604381   -1.9822254   0.03281624   -2.6604381   0.67821264   421013 
 3100000   0.61177428   -2.6613814   -2.6613814   -1.9824724  0.026681889   -2.6613814   0.67890898   421013 
 3101000   0.61079632   -2.6593475   -2.6593475   -1.9815238  0.037108874   -2.6593475   0.67782371   421013 
 3102000   0.61160959   -2.6600895   -2.6600895   -1.9813633  0.037983772   -2.6600895   0.67872622   421013 
 3103000   0.61233263   -2.6618829   -2.6618829   -1.9823543  0.029347493   -2.6618829    0.6795286   421013 
 3104000   0.61013341   -2.6594093   -2.6594093   -1.9823213  0.037854892   -2.6594093   0.67708805   421013 
 3105000   0.61086932   -2.6603681   -2.6603681   -1.9824634  0.042603997   -2.6603681   0.67790472   421013 
 3106000   0.61290388   -2.6633885   -2.6633885    -1.983226  0.036483649   -2.6633885   0.68016255   421013 
 3107000    0.6114715   -2.6617623   -2.6617623   -1.9831893  0.041110906   -2.6617623   0.67857298   421013 
 3108000   0.61115156   -2.6613974   -2.6613974   -1.9831794  0.041415516   -2.6613974   0.67821793   421013 
 3109000   0.61083102   -2.6611896   -2.6611896   -1.9833274  0.037337777   -2.6611896   0.67786221   421013 
 3110000   0.61123345   -2.6615382   -2.6615382   -1.9832294  0.029855376   -2.6615382   0.67830881   421013 
 3111000   0.61175593   -2.6618092   -2.6618092   -1.9829206   0.04783332   -2.6618092   0.67888862   421013 
 3112000   0.61155059   -2.6614597   -2.6614597    -1.982799  0.040605245   -2.6614597   0.67866075   421013 
 3113000   0.61057819   -2.6610348   -2.6610348   -1.9834532  0.040027398   -2.6610348   0.67758164   421013 
 3114000   0.61172949   -2.6607057   -2.6607057   -1.9818464  0.044272277   -2.6607057   0.67885928   421013 
 3115000   0.61209625   -2.6610833   -2.6610833    -1.981817  0.037652965   -2.6610833   0.67926629   421013 
 3116000   0.61085125   -2.6594015   -2.6594015   -1.9815168  0.038281387   -2.6594015   0.67788467   421013 
 3117000   0.61069151   -2.6597286   -2.6597286   -1.9820212   0.04754216   -2.6597286   0.67770739   421013 
 3118000   0.61046573   -2.6597699   -2.6597699    -1.982313  0.033892794   -2.6597699   0.67745684   421013 
 3119000   0.61075953   -2.6597248   -2.6597248   -1.9819419  0.039008514   -2.6597248   0.67778288   421013 
 3120000   0.61134455   -2.6598137   -2.6598137   -1.9813816  0.041568635   -2.6598137   0.67843209   421013 
 3121000   0.61168782   -2.6602276   -2.6602276   -1.9814146  0.041079047   -2.6602276   0.67881304   421013 
 3122000   0.61107297   -2.6604297   -2.6604297    -1.982299  0.042813892   -2.6604297   0.67813072   421013 
 3123000   0.61239286    -2.660856    -2.660856   -1.9812606  0.034339902    -2.660856   0.67959545   421013 
 3124000   0.61117408    -2.660337    -2.660337   -1.9820941  0.039188676    -2.660337   0.67824292   421013 
 3125000   0.61253362   -2.6614296   -2.6614296   -1.9816779  0.041296559   -2.6614296   0.67975165   421013 
 3126000   0.61170403   -2.6608748   -2.6608748   -1.9820438    0.0413483   -2.6608748   0.67883102   421013 
 3127000   0.61286217   -2.6621148   -2.6621148   -1.9819985  0.036786071   -2.6621148   0.68011626   421013 
 3128000   0.61094324   -2.6603031   -2.6603031   -1.9823164  0.034930626   -2.6603031   0.67798675   421013 
 3129000   0.61125839   -2.6605716   -2.6605716   -1.9822351  0.040334694   -2.6605716   0.67833648   421013 
 3130000   0.61059013    -2.660045    -2.660045   -1.9824501  0.033808331    -2.660045   0.67759489   421013 
 3131000   0.61222681   -2.6612196   -2.6612196   -1.9818085  0.044161383   -2.6612196   0.67941118   421013 
 3132000   0.61245042    -2.661059    -2.661059   -1.9813997  0.041032333    -2.661059   0.67965932   421013 
 3133000   0.61081296   -2.6587965   -2.6587965   -1.9809543  0.039587664   -2.6587965   0.67784217   421013 
 3134000   0.61124884   -2.6598463   -2.6598463   -1.9815204  0.038649682   -2.6598463   0.67832588   421013 
 3135000   0.61106446   -2.6606397   -2.6606397   -1.9825185  0.030563556   -2.6606397   0.67812127   421013 
 3136000   0.61174207   -2.6614591   -2.6614591   -1.9825859  0.047091683   -2.6614591   0.67887324   421013 
 3137000   0.61150751   -2.6609233   -2.6609233   -1.9823104  0.034465733   -2.6609233   0.67861294   421013 
 3138000   0.61189163   -2.6613252   -2.6613252    -1.982286  0.039139708   -2.6613252   0.67903921   421013 
 3139000   0.61090028   -2.6605643   -2.6605643   -1.9826252  0.041591067   -2.6605643   0.67793908   421013 
 3140000   0.61065824   -2.6603642   -2.6603642   -1.9826937  0.041765218   -2.6603642   0.67767048   421013 
 3141000   0.61079479   -2.6606477   -2.6606477   -1.9828256  0.037037694   -2.6606477   0.67782201   421013 
 3142000   0.61208405   -2.6617959   -2.6617959   -1.9825431  0.030494219   -2.6617959   0.67925275   421013 
 3143000   0.61136601   -2.6612101   -2.6612101   -1.9827542  0.039781557   -2.6612101   0.67845591   421013 
 3144000   0.61123961      -2.6611      -2.6611   -1.9827844  0.039773622      -2.6611   0.67831564   421013 
 3145000   0.61169034    -2.661203    -2.661203   -1.9823872  0.041379373    -2.661203   0.67881583   421013 
 3146000   0.61063027   -2.6605696   -2.6605696   -1.9829301   0.04634972   -2.6605696   0.67763944   421013 
 3147000   0.61039011   -2.6610655   -2.6610655   -1.9836926  0.037943663   -2.6610655   0.67737292   421013 
 3148000   0.61148002   -2.6622952   -2.6622952   -1.9837128  0.038530437   -2.6622952   0.67858243   421013 
 3149000   0.61027589   -2.6614886   -2.6614886   -1.9842425  0.040048213   -2.6614886   0.67724617   421013 
 3150000   0.61020875   -2.6613092   -2.6613092   -1.9841375  0.026945124   -2.6613092   0.67717165   421013 
 3151000   0.61199586   -2.6635622   -2.6635622   -1.9844073   0.03291905   -2.6635622   0.67915488   421013 
 3152000   0.61067274   -2.6623917   -2.6623917   -1.9847051  0.046294322   -2.6623917   0.67768656   421013 
 3153000   0.61042088   -2.6616786   -2.6616786   -1.9842715  0.044722298   -2.6616786   0.67740706   421013 
 3154000   0.61162385   -2.6632315   -2.6632315   -1.9844895  0.035643364   -2.6632315   0.67874205   421013 
 3155000   0.61164752   -2.6637127   -2.6637127   -1.9849444  0.038987506   -2.6637127   0.67876831   421013 
 3156000   0.61002642   -2.6625141   -2.6625141   -1.9855448   0.04307527   -2.6625141   0.67696931   421013 
 3157000   0.61001018     -2.66267     -2.66267   -1.9857187  0.031580925     -2.66267    0.6769513   421013 
 3158000   0.61170774   -2.6648049   -2.6648049   -1.9859698  0.035978016   -2.6648049   0.67883514   421013 
 3159000   0.61091163   -2.6633601   -2.6633601   -1.9854084  0.038384775   -2.6633601   0.67795167   421013 
 3160000   0.61038546   -2.6626222   -2.6626222   -1.9852544  0.036972743   -2.6626222   0.67736775   421013 
 3161000   0.61212259    -2.664377    -2.664377   -1.9850815  0.043150574    -2.664377   0.67929552   421013 
 3162000   0.61252811   -2.6653744   -2.6653744   -1.9856288  0.037678035   -2.6653744   0.67974554   421013 
 3163000   0.61043636   -2.6638669   -2.6638669   -1.9864426  0.042430546   -2.6638669   0.67742425   421013 
 3164000   0.61070667   -2.6639081   -2.6639081   -1.9861839  0.042378677   -2.6639081   0.67772422   421013 
 3165000   0.61250691   -2.6657313   -2.6657313   -1.9860093  0.034323656   -2.6657313   0.67972201   421013 
 3166000   0.61124371   -2.6647409   -2.6647409   -1.9864207  0.045397421   -2.6647409    0.6783202   421013 
 3167000   0.61109963   -2.6650831   -2.6650831   -1.9869228  0.038329117   -2.6650831    0.6781603   421013 
 3168000   0.61076012   -2.6645483   -2.6645483   -1.9867648  0.044925943   -2.6645483   0.67778353   421013 
 3169000   0.61166827    -2.665088    -2.665088   -1.9862966  0.035584237    -2.665088   0.67879134   421013 
 3170000   0.61136306   -2.6646816   -2.6646816   -1.9862289  0.043712239   -2.6646816   0.67845264   421013 
 3171000   0.60970272   -2.6637078   -2.6637078   -1.9870976  0.046692633   -2.6637078    0.6766101   421013 
 3172000   0.61069126   -2.6646725   -2.6646725   -1.9869654  0.040932963   -2.6646725   0.67770712   421013 
 3173000   0.61042981   -2.6644282   -2.6644282   -1.9870112  0.022422988   -2.6644282   0.67741697   421013 
 3174000   0.61099119   -2.6656033   -2.6656033   -1.9875634  0.035024539   -2.6656033   0.67803996   421013 
 3175000   0.61012322   -2.6648646   -2.6648646   -1.9877879  0.040846773   -2.6648646   0.67707674   421013 
 3176000   0.60942884   -2.6640778   -2.6640778   -1.9877716  0.033866995   -2.6640778   0.67630616   421013 
 3177000   0.61001069   -2.6650168   -2.6650168    -1.988065  0.036131278   -2.6650168   0.67695186   421013 
 3178000    0.6104838   -2.6651474   -2.6651474   -1.9876705   0.03735957   -2.6651474   0.67747689   421013 
 3179000   0.61044165   -2.6644254   -2.6644254   -1.9869953  0.033206291   -2.6644254   0.67743011   421013 
 3180000   0.61152477   -2.6658894   -2.6658894   -1.9872573  0.042115787   -2.6658894   0.67863209   421013 
 3181000   0.61122237   -2.6648193   -2.6648193   -1.9865227  0.045401504   -2.6648193    0.6782965   421013 
 3182000   0.61109802   -2.6649547   -2.6649547   -1.9867962  0.037618997   -2.6649547   0.67815851   421013 
 3183000   0.61047329   -2.6643632   -2.6643632    -1.986898  0.038695281   -2.6643632   0.67746522   421013 
 3184000   0.61013253   -2.6643766   -2.6643766   -1.9872895  0.045340858   -2.6643766   0.67708708   421013 
 3185000   0.60948403   -2.6629607   -2.6629607   -1.9865933  0.035803017   -2.6629607   0.67636741   421013 
 3186000   0.60967259   -2.6628848   -2.6628848   -1.9863082  0.039069004   -2.6628848   0.67657666   421013 
 3187000   0.61024307   -2.6638722   -2.6638722   -1.9866624  0.045488397   -2.6638722   0.67720975   421013 
 3188000   0.61110873   -2.6650086   -2.6650086   -1.9868383  0.032982063   -2.6650086   0.67817039   421013 
 3189000   0.61035975   -2.6645383   -2.6645383   -1.9871991  0.039637122   -2.6645383   0.67733922   421013 
 3190000   0.60975692   -2.6636595   -2.6636595   -1.9869893  0.041165961   -2.6636595   0.67667024   421013 
 3191000   0.60944268   -2.6632166   -2.6632166   -1.9868951  0.044484395   -2.6632166   0.67632152   421013 
 3192000   0.61213201   -2.6657013   -2.6657013   -1.9863953  0.038338364   -2.6657013   0.67930598   421013 
 3193000   0.61070191   -2.6644972   -2.6644972   -1.9867783  0.045450081   -2.6644972   0.67771893   421013 
 3194000   0.61090277   -2.6654979   -2.6654979    -1.987556  0.049386636   -2.6654979   0.67794184   421013 
 3195000   0.61073447   -2.6654314   -2.6654314   -1.9876763  0.048957196   -2.6654314   0.67775507   421013 
 3196000   0.60976148   -2.6642431   -2.6642431   -1.9875678  0.044182717   -2.6642431    0.6766753   421013 
 3197000    0.6110336   -2.6655697   -2.6655697   -1.9874827   0.03538169   -2.6655697   0.67808703   421013 
 3198000   0.60973777   -2.6636253   -2.6636253   -1.9869763  0.038735415   -2.6636253     0.676649   421013 
 3199000   0.61079866   -2.6654898   -2.6654898   -1.9876635  0.038779539   -2.6654898   0.67782631   421013 
 3200000    0.6104085   -2.6653627   -2.6653627   -1.9879693  0.035066942   -2.6653627   0.67739333   421013 
 3201000   0.61055201   -2.6652591   -2.6652591   -1.9877065  0.043297603   -2.6652591   0.67755259   421013 
 3202000   0.60928075   -2.6638061   -2.6638061   -1.9876643  0.042606087   -2.6638061   0.67614182   421013 
 3203000   0.61100635   -2.6659756   -2.6659756   -1.9879189  0.036922124   -2.6659756   0.67805679   421013 
 3204000   0.61096536    -2.666152    -2.666152   -1.9881407   0.03496331    -2.666152    0.6780113   421013 
 3205000   0.61043208   -2.6648384   -2.6648384   -1.9874189  0.041359458   -2.6648384   0.67741949   421013 
 3206000   0.61062306   -2.6647193   -2.6647193   -1.9870879  0.036210965   -2.6647193   0.67763143   421013 
 3207000   0.61061865   -2.6657878   -2.6657878   -1.9881613  0.040061462   -2.6657878   0.67762654   421013 
 3208000   0.61122656   -2.6662771   -2.6662771   -1.9879759  0.040547267   -2.6662771   0.67830116   421013 
 3209000   0.61037557   -2.6653753   -2.6653753   -1.9880185  0.040847252   -2.6653753   0.67735679   421013 
 3210000   0.61077329   -2.6664309   -2.6664309   -1.9886327  0.041566431   -2.6664309   0.67779815   421013 
 3211000   0.60957154   -2.6657426   -2.6657426   -1.9892781  0.039934993   -2.6657426   0.67646452   421013 
 3212000   0.61217101   -2.6682934   -2.6682934   -1.9889441  0.037091371   -2.6682934   0.67934925   421013 
 3213000   0.61098141   -2.6670141   -2.6670141    -1.988985  0.042111096   -2.6670141   0.67802911   421013 
 3214000   0.61006894   -2.6665425   -2.6665425    -1.989526  0.041806658   -2.6665425    0.6770165   421013 
 3215000   0.61158046   -2.6678792   -2.6678792   -1.9891853  0.032959623   -2.6678792    0.6786939   421013 
 3216000   0.61145193   -2.6672633   -2.6672633    -1.988712  0.038672311   -2.6672633   0.67855126   421013 
 3217000    0.6107573   -2.6663637   -2.6663637   -1.9885833  0.033375262   -2.6663637   0.67778041   421013 
 3218000   0.60981531   -2.6654548   -2.6654548   -1.9887198  0.045140223   -2.6654548   0.67673504   421013 
 3219000   0.61023281    -2.666097    -2.666097   -1.9888986  0.050041591    -2.666097   0.67719836   421013 
 3220000   0.61058314   -2.6660369   -2.6660369   -1.9884498  0.036148806   -2.6660369   0.67758713   421013 
 3221000   0.60920636   -2.6651308   -2.6651308   -1.9890715  0.032748505   -2.6651308   0.67605927   421013 
 3222000   0.60986009   -2.6660335   -2.6660335   -1.9892488  0.041759762   -2.6660335   0.67678474   421013 
 3223000   0.60944491   -2.6652495   -2.6652495   -1.9889255  0.034910959   -2.6652495     0.676324   421013 
 3224000   0.60953326   -2.6648737   -2.6648737   -1.9884517  0.030869598   -2.6648737   0.67642204   421013 
 3225000   0.60948885   -2.6652535   -2.6652535   -1.9888807   0.03506973   -2.6652535   0.67637276   421013 
 3226000   0.61062302   -2.6663844   -2.6663844    -1.988753  0.030246512   -2.6663844   0.67763138   421013 
 3227000   0.61010472    -2.665867    -2.665867   -1.9888108   0.03800113    -2.665867   0.67705622   421013 
 3228000   0.61062998   -2.6658417   -2.6658417   -1.9882026  0.049421655   -2.6658417   0.67763912   421013 
 3229000   0.60940587   -2.6640485   -2.6640485   -1.9877678  0.035275762   -2.6640485   0.67628068   421013 
 3230000    0.6093986   -2.6644585   -2.6644585   -1.9881859  0.037502847   -2.6644585    0.6762726   421013 
 3231000   0.61081846   -2.6656514   -2.6656514   -1.9878031  0.035184262   -2.6656514   0.67784827   421013 
 3232000    0.6095979   -2.6639595   -2.6639595   -1.9874657  0.036889242   -2.6639595   0.67649377   421013 
 3233000   0.61008008   -2.6650791   -2.6650791   -1.9880502  0.037177319   -2.6650791   0.67702887   421013 
 3234000    0.6090793     -2.66466     -2.66466   -1.9887417  0.031452736     -2.66466   0.67591826   421013 
 3235000   0.61058389   -2.6662758   -2.6662758   -1.9886878  0.036129232   -2.6662758   0.67758796   421013 
 3236000   0.61004036   -2.6656889   -2.6656889   -1.9887041  0.042780959   -2.6656889   0.67698479   421013 
 3237000    0.6097921   -2.6650844   -2.6650844   -1.9883751  0.046480092   -2.6650844   0.67670929   421013 
 3238000   0.61182657   -2.6671991   -2.6671991   -1.9882321    0.0377514   -2.6671991   0.67896702   421013 
 3239000   0.61035155   -2.6654349   -2.6654349   -1.9881048  0.041848827   -2.6654349   0.67733013   421013 
 3240000   0.61030373   -2.6654143   -2.6654143   -1.9881373  0.034793137   -2.6654143   0.67727706   421013 
 3241000   0.61017507   -2.6653258   -2.6653258   -1.9881915   0.03812437   -2.6653258   0.67713428   421013 
 3242000   0.61013965   -2.6655485   -2.6655485   -1.9884535  0.035124425   -2.6655485   0.67709497   421013 
 3243000   0.61014563    -2.665657    -2.665657   -1.9885553  0.040776605    -2.665657   0.67710161   421013 
 3244000   0.60937836   -2.6651285   -2.6651285   -1.9888783  0.041509064   -2.6651285   0.67625014   421013 
 3245000   0.61018629   -2.6658085   -2.6658085   -1.9886618  0.031717558   -2.6658085   0.67714673   421013 
 3246000    0.6089563   -2.6642357   -2.6642357   -1.9884539  0.025453908   -2.6642357   0.67578176   421013 
 3247000   0.60887577   -2.6642452   -2.6642452   -1.9885528  0.039684646   -2.6642452    0.6756924   421013 
 3248000   0.60952081   -2.6649182   -2.6649182     -1.98851  0.037033431   -2.6649182   0.67640822   421013 
 3249000    0.6108167   -2.6657971   -2.6657971   -1.9879508  0.040863205   -2.6657971   0.67784632   421013 
 3250000   0.61091104   -2.6658623   -2.6658623   -1.9879113  0.027167034   -2.6658623   0.67795102   421013 
 3251000   0.61106028   -2.6667721   -2.6667721   -1.9886555   0.04184262   -2.6667721   0.67811663   421013 
 3252000    0.6104086   -2.6654858   -2.6654858   -1.9880923  0.040914872   -2.6654858   0.67739344   421013 
 3253000   0.61053326   -2.6660137   -2.6660137   -1.9884819  0.039966397   -2.6660137   0.67753177   421013 
 3254000   0.61003193   -2.6661522   -2.6661522   -1.9891767   0.04466391   -2.6661522   0.67697544   421013 
 3255000   0.61040711   -2.6662874   -2.6662874   -1.9888956  0.037488388   -2.6662874   0.67739179   421013 
 3256000   0.61087589   -2.6674545   -2.6674545   -1.9895425  0.042054523   -2.6674545   0.67791201   421013 
 3257000   0.61034925   -2.6665053   -2.6665053   -1.9891778  0.039207074   -2.6665053   0.67732757   421013 
 3258000   0.61031447    -2.666222    -2.666222    -1.988933  0.040397305    -2.666222   0.67728898   421013 
 3259000   0.61076658   -2.6674528   -2.6674528   -1.9896621  0.046427487   -2.6674528   0.67779071   421013 
 3260000    0.6112887   -2.6666094   -2.6666094   -1.9882393  0.038223973   -2.6666094   0.67837011   421013 
 3261000   0.61162143     -2.66731     -2.66731   -1.9885707   0.03375619     -2.66731   0.67873936   421013 
 3262000   0.60919925   -2.6650975   -2.6650975   -1.9890462  0.039247537   -2.6650975   0.67605138   421013 
 3263000   0.61059585   -2.6667521   -2.6667521   -1.9891508  0.042990084   -2.6667521   0.67760124   421013 
 3264000   0.61046525   -2.6666096   -2.6666096   -1.9891533  0.038028556   -2.6666096    0.6774563   421013 
 3265000   0.61030888   -2.6669165   -2.6669165   -1.9896337  0.037678323   -2.6669165   0.67728277   421013 
 3266000   0.60970353   -2.6663363   -2.6663363   -1.9897253  0.043148125   -2.6663363     0.676611   421013 
 3267000   0.61049883   -2.6677614   -2.6677614   -1.9902679  0.028891861   -2.6677614   0.67749357   421013 
 3268000   0.60978151   -2.6678186   -2.6678186   -1.9911211  0.040464367   -2.6678186   0.67669753   421013 
 3269000    0.6094602    -2.667059    -2.667059   -1.9907181  0.025403322    -2.667059   0.67634097   421013 
 3270000   0.60936022   -2.6664128   -2.6664128   -1.9901827  0.038235131   -2.6664128   0.67623001   421013 
 3271000   0.60969251   -2.6671479   -2.6671479   -1.9905492  0.037672369   -2.6671479   0.67659876   421013 
 3272000   0.60938662   -2.6661051   -2.6661051   -1.9898458  0.030743472   -2.6661051   0.67625931   421013 
 3273000   0.60975244    -2.667025    -2.667025   -1.9903598  0.040751802    -2.667025   0.67666527   421013 
 3274000   0.61005302   -2.6668538   -2.6668538   -1.9898549  0.037307515   -2.6668538   0.67699884   421013 
 3275000   0.60943159   -2.6666151   -2.6666151   -1.9903059  0.043602603   -2.6666151   0.67630921   421013 
 3276000   0.60918291   -2.6671863   -2.6671863    -1.991153   0.04382456   -2.6671863   0.67603324   421013 
 3277000   0.60986737   -2.6681719   -2.6681719   -1.9913791  0.039370362   -2.6681719   0.67679281   421013 
 3278000   0.60956753   -2.6678176   -2.6678176   -1.9913575  0.032313673   -2.6678176   0.67646008   421013 
 3279000   0.60922772   -2.6677677   -2.6677677   -1.9916848  0.032186181   -2.6677677   0.67608297   421013 
 3280000   0.60992058   -2.6680301   -2.6680301   -1.9911782  0.040252091   -2.6680301   0.67685186   421013 
 3281000   0.60939488   -2.6675758   -2.6675758   -1.9913074  0.038591282   -2.6675758   0.67626848   421013 
 3282000   0.61013576   -2.6683481   -2.6683481   -1.9912575  0.043817037   -2.6683481   0.67709066   421013 
 3283000   0.60942741   -2.6675218   -2.6675218   -1.9912172  0.047663081   -2.6675218   0.67630458   421013 
 3284000   0.60980499   -2.6679183   -2.6679183   -1.9911947  0.036713819   -2.6679183   0.67672359   421013 
 3285000   0.60915959   -2.6674188   -2.6674188   -1.9914115  0.044734333   -2.6674188   0.67600737   421013 
 3286000   0.60932481   -2.6671722   -2.6671722   -1.9909814  0.048897907   -2.6671722   0.67619071   421013 
 3287000   0.61043678   -2.6684697   -2.6684697    -1.991045  0.032212808   -2.6684697   0.67742471   421013 
 3288000   0.61027436   -2.6680241   -2.6680241   -1.9907796  0.043177316   -2.6680241   0.67724447   421013 
 3289000   0.60955467   -2.6671559   -2.6671559   -1.9907101  0.044300758   -2.6671559    0.6764458   421013 
 3290000   0.61003783   -2.6672581   -2.6672581   -1.9902761  0.039606562   -2.6672581   0.67698198   421013 
 3291000   0.60934847   -2.6661004   -2.6661004   -1.9898835  0.026964784   -2.6661004   0.67621697   421013 
 3292000   0.61074918   -2.6670172   -2.6670172   -1.9892458  0.033133878   -2.6670172   0.67777139   421013 
 3293000   0.60958592   -2.6660539   -2.6660539   -1.9895734  0.034897101   -2.6660539   0.67648047   421013 
 3294000   0.60959968   -2.6658871   -2.6658871   -1.9893914  0.052502895   -2.6658871   0.67649575   421013 
 3295000   0.60963662   -2.6658752   -2.6658752   -1.9893384  0.041090183   -2.6658752   0.67653675   421013 
 3296000   0.61048377    -2.666425    -2.666425   -1.9889481  0.043558476    -2.666425   0.67747685   421013 
 3297000   0.60998126   -2.6659352   -2.6659352    -1.989016  0.036560177   -2.6659352    0.6769192   421013 
 3298000   0.60990323   -2.6659139   -2.6659139   -1.9890813  0.035227938   -2.6659139   0.67683261   421013 
 3299000   0.60994798   -2.6670794   -2.6670794   -1.9901972  0.038940329   -2.6670794   0.67688227   421013 
 3300000   0.61054893      -2.6671      -2.6671   -1.9895508  0.040005357      -2.6671   0.67754916   421013 
 3301000   0.61018739   -2.6666179   -2.6666179   -1.9894699  0.038111448   -2.6666179   0.67714795   421013 
 3302000   0.61072552   -2.6675038   -2.6675038   -1.9897587   0.04341136   -2.6675038   0.67774514   421013 
 3303000    0.6098639   -2.6671369   -2.6671369   -1.9903479  0.040248476   -2.6671369   0.67678897   421013 
 3304000   0.61097194   -2.6677822   -2.6677822   -1.9897636  0.041908947   -2.6677822   0.67801859   421013 
 3305000   0.61026369   -2.6675003   -2.6675003   -1.9902677  0.041638766   -2.6675003   0.67723262   421013 
 3306000    0.6090022   -2.6666257   -2.6666257   -1.9907929  0.053066181   -2.6666257   0.67583271   421013 
 3307000   0.61128217   -2.6684799   -2.6684799    -1.990117  0.041123719   -2.6684799   0.67836287   421013 
 3308000   0.60919022   -2.6661118   -2.6661118   -1.9900704  0.029241664   -2.6661118   0.67604136   421013 
 3309000   0.61073562    -2.667885    -2.667885   -1.9901287  0.030766875    -2.667885   0.67775635   421013 
 3310000   0.61029484    -2.666822    -2.666822   -1.9895548  0.041117461    -2.666822    0.6772672   421013 
 3311000   0.61019601   -2.6672854   -2.6672854   -1.9901279  0.050762917   -2.6672854   0.67715752   421013 
 3312000   0.61012642   -2.6677594   -2.6677594   -1.9906791  0.037670817   -2.6677594   0.67708029   421013 
 3313000   0.60931221   -2.6678236   -2.6678236   -1.9916469  0.024100301   -2.6678236   0.67617673   421013 
 3314000   0.60963393    -2.668245    -2.668245   -1.9917112  0.038357617    -2.668245   0.67653376   421013 
 3315000   0.61065914   -2.6691368   -2.6691368   -1.9914653  0.041589032   -2.6691368   0.67767147   421013 
 3316000   0.60957029   -2.6690149   -2.6690149   -1.9925517  0.036481371   -2.6690149   0.67646313   421013 
 3317000    0.6099265    -2.668482    -2.668482   -1.9916235  0.032201332    -2.668482   0.67685843   421013 
 3318000   0.60964517   -2.6680533   -2.6680533   -1.9915071  0.038958284   -2.6680533   0.67654623   421013 
 3319000   0.60970549   -2.6679882   -2.6679882   -1.9913751  0.045028627   -2.6679882   0.67661317   421013 
 3320000   0.61077435   -2.6692771   -2.6692771   -1.9914778  0.031330448   -2.6692771   0.67779933   421013 
 3321000   0.60897366   -2.6670473   -2.6670473   -1.9912463  0.042317211   -2.6670473   0.67580103   421013 
 3322000    0.6093845   -2.6680666   -2.6680666   -1.9918096   0.03893783   -2.6680666   0.67625696   421013 
 3323000   0.61061264   -2.6702487   -2.6702487   -1.9926288  0.025399713   -2.6702487   0.67761987   421013 
 3324000   0.60884194   -2.6681092   -2.6681092   -1.9924544  0.040925009   -2.6681092   0.67565486   421013 
 3325000   0.60924493   -2.6685332   -2.6685332   -1.9924312  0.039829952   -2.6685332   0.67610207   421013 
 3326000   0.61008042   -2.6689613   -2.6689613   -1.9919321  0.033791162   -2.6689613   0.67702925   421013 
 3327000   0.61017565    -2.668457    -2.668457    -1.991322  0.039619738    -2.668457   0.67713492   421013 
 3328000   0.61018712   -2.6692096   -2.6692096   -1.9920619   0.04584768   -2.6692096   0.67714765   421013 
 3329000   0.60989225   -2.6689867   -2.6689867   -1.9921662  0.033735255   -2.6689867   0.67682043   421013 
 3330000   0.60908702   -2.6686448   -2.6686448   -1.9927179  0.044344704   -2.6686448   0.67592683   421013 
 3331000   0.60956568   -2.6693674   -2.6693674   -1.9929094  0.039233193   -2.6693674   0.67645802   421013 
 3332000    0.6101574   -2.6695378   -2.6695378   -1.9924231  0.037704346   -2.6695378   0.67711467   421013 
 3333000     0.610393   -2.6697423   -2.6697423   -1.9923662  0.029515493   -2.6697423   0.67737613   421013 
 3334000    0.6081917   -2.6676292   -2.6676292   -1.9926959   0.03339582   -2.6676292   0.67493326   421013 
 3335000   0.61032412   -2.6706927   -2.6706927   -1.9933931  0.029306072   -2.6706927   0.67729969   421013 
 3336000   0.60941037   -2.6691988   -2.6691988   -1.9929131  0.037673627   -2.6691988   0.67628566   421013 
 3337000   0.60932405   -2.6691333   -2.6691333   -1.9929434  0.035444946   -2.6691333   0.67618988   421013 
 3338000   0.60903116   -2.6691909   -2.6691909   -1.9933261  0.038950955   -2.6691909   0.67586485   421013 
 3339000   0.61011342   -2.6704465   -2.6704465   -1.9933806  0.040077156   -2.6704465   0.67706586   421013 
 3340000     0.610274   -2.6700151   -2.6700151    -1.992771  0.044512159   -2.6700151   0.67724406   421013 
 3341000   0.61066201   -2.6713876   -2.6713876   -1.9937129  0.040421481   -2.6713876   0.67767465   421013 
 3342000   0.61054717   -2.6709118   -2.6709118   -1.9933646  0.039827897   -2.6709118   0.67754722   421013 
 3343000   0.61114781   -2.6712156   -2.6712156   -1.9930018  0.046924683   -2.6712156   0.67821376   421013 
 3344000   0.61082457   -2.6708401   -2.6708401   -1.9929851  0.034040673   -2.6708401   0.67785505   421013 
 3345000   0.61059864   -2.6710037   -2.6710037   -1.9933994  0.033279968   -2.6710037   0.67760433   421013 
 3346000   0.61053933     -2.67114     -2.67114   -1.9936015  0.029744788     -2.67114   0.67753852   421013 
 3347000   0.61084396   -2.6719663   -2.6719663   -1.9940897  0.028308947   -2.6719663   0.67787657   421013 
 3348000    0.6095061   -2.6700769   -2.6700769    -1.993685  0.044432049   -2.6700769    0.6763919   421013 
 3349000   0.60916629   -2.6700404   -2.6700404   -1.9940256  0.031565222   -2.6700404    0.6760148   421013 
 3350000   0.60914525   -2.6698474   -2.6698474    -1.993856  0.047667639   -2.6698474   0.67599146   421013 
 3351000   0.61013733   -2.6718693   -2.6718693   -1.9947769  0.033419577   -2.6718693    0.6770924   421013 
 3352000   0.60876572   -2.6707647   -2.6707647   -1.9951944  0.042328859   -2.6707647   0.67557027   421013 
 3353000   0.60876737   -2.6701239   -2.6701239   -1.9945518  0.034357057   -2.6701239   0.67557211   421013 
 3354000   0.60973226   -2.6711207   -2.6711207   -1.9944778  0.039116843   -2.6711207   0.67664288   421013 
 3355000   0.60917361   -2.6710425   -2.6710425   -1.9950196   0.04374147   -2.6710425   0.67602292   421013 
 3356000   0.60934033   -2.6705104   -2.6705104   -1.9943025   0.04710904   -2.6705104   0.67620793   421013 
 3357000   0.60959876    -2.670796    -2.670796   -1.9943013  0.051866238    -2.670796   0.67649472   421013 
 3358000   0.60945125   -2.6711724   -2.6711724   -1.9948413  0.050283062   -2.6711724   0.67633103   421013 
 3359000   0.60861873   -2.6701625   -2.6701625   -1.9947554  0.038962876   -2.6701625   0.67540715   421013 
 3360000   0.60830046   -2.6697193   -2.6697193   -1.9946654  0.036597175   -2.6697193   0.67505395   421013 
 3361000   0.60897155   -2.6705002   -2.6705002   -1.9947015  0.037755531   -2.6705002   0.67579869   421013 
 3362000   0.60869218   -2.6702948   -2.6702948   -1.9948062  0.041377775   -2.6702948   0.67548866   421013 
 3363000   0.60839366   -2.6704777   -2.6704777   -1.9953203  0.036264181   -2.6704777   0.67515738   421013 
 3364000   0.60866432   -2.6701982   -2.6701982   -1.9947405  0.042641786   -2.6701982   0.67545774   421013 
 3365000   0.60863754   -2.6699363   -2.6699363   -1.9945083  0.040843624   -2.6699363   0.67542803   421013 
 3366000   0.60989285   -2.6711113   -2.6711113   -1.9942902  0.039662683   -2.6711113   0.67682109   421013 
 3367000   0.60886156   -2.6695222   -2.6695222   -1.9938456  0.034749027   -2.6695222   0.67567663   421013 
 3368000   0.60994316   -2.6706756   -2.6706756   -1.9937987  0.037807299   -2.6706756   0.67687692   421013 
 3369000   0.60949243   -2.6696751   -2.6696751   -1.9932984  0.039415713   -2.6696751   0.67637673   421013 
 3370000   0.60990497   -2.6705539   -2.6705539   -1.9937193  0.040990956   -2.6705539   0.67683454   421013 
 3371000   0.61096567   -2.6715932   -2.6715932   -1.9935815  0.040149407   -2.6715932   0.67801164   421013 
 3372000   0.60923498   -2.6701351   -2.6701351   -1.9940441  0.033452443   -2.6701351   0.67609103   421013 
 3373000   0.60973331   -2.6710364   -2.6710364   -1.9943923   0.04392785   -2.6710364   0.67664405   421013 
 3374000   0.61055693    -2.671957    -2.671957    -1.994399  0.040347623    -2.671957   0.67755804   421013 
 3375000   0.60979453   -2.6712032   -2.6712032   -1.9944912  0.036090471   -2.6712032   0.67671199   421013 
 3376000   0.60846591   -2.6702617   -2.6702617   -1.9950241   0.03213757   -2.6702617   0.67523756   421013 
 3377000   0.60772903   -2.6699758   -2.6699758    -1.995556  0.039925931   -2.6699758   0.67441982   421013 
 3378000   0.60917797   -2.6712711   -2.6712711   -1.9952433  0.049708194   -2.6712711   0.67602776   421013 
 3379000   0.60983868   -2.6722984   -2.6722984   -1.9955375  0.031955525   -2.6722984   0.67676097   421013 
 3380000   0.61058334   -2.6735446   -2.6735446   -1.9959573  0.033694865   -2.6735446   0.67758736   421013 
 3381000   0.61062796   -2.6731439   -2.6731439    -1.995507   0.03754672   -2.6731439   0.67763687   421013 
 3382000   0.61069309   -2.6731517   -2.6731517   -1.9954426  0.037137456   -2.6731517   0.67770915   421013 
 3383000   0.60997718    -2.671894    -2.671894   -1.9949793  0.038384005    -2.671894   0.67691467   421013 
 3384000   0.61022284   -2.6719599   -2.6719599   -1.9947726  0.035056243   -2.6719599   0.67718729   421013 
 3385000   0.60975888   -2.6721982   -2.6721982   -1.9955258  0.035128616   -2.6721982   0.67667242   421013 
 3386000   0.61017407   -2.6730453   -2.6730453   -1.9959121  0.038748175   -2.6730453   0.67713317   421013 
 3387000   0.60925268   -2.6714222   -2.6714222   -1.9953115  0.034209715   -2.6714222   0.67611067   421013 
 3388000   0.60854365   -2.6713692   -2.6713692   -1.9960454  0.034571589   -2.6713692   0.67532383   421013 
 3389000   0.60874907   -2.6718705   -2.6718705   -1.9963187  0.035288197   -2.6718705    0.6755518   421013 
 3390000   0.60991346   -2.6729472   -2.6729472   -1.9961032  0.030821228   -2.6729472   0.67684397   421013 
 3391000   0.60981168   -2.6722154   -2.6722154   -1.9954844  0.039548404   -2.6722154   0.67673101   421013 
 3392000   0.61001204   -2.6717377   -2.6717377   -1.9947844  0.035225296   -2.6717377   0.67695336   421013 
 3393000    0.6097049   -2.6707493   -2.6707493   -1.9941368  0.033871353   -2.6707493   0.67661252   421013 
 3394000   0.61137198   -2.6727151   -2.6727151   -1.9942526  0.039275581   -2.6727151   0.67846253   421013 
 3395000   0.60975149   -2.6700799   -2.6700799   -1.9934157  0.032019918   -2.6700799   0.67666422   421013 
 3396000   0.61029951   -2.6718996   -2.6718996   -1.9946272  0.040515635   -2.6718996   0.67727238   421013 
 3397000   0.60895271   -2.6702572   -2.6702572   -1.9944794  0.037172921   -2.6702572   0.67577778   421013 
 3398000   0.61078585   -2.6722512   -2.6722512   -1.9944391  0.044582413   -2.6722512   0.67781208   421013 
 3399000   0.61025574   -2.6717892   -2.6717892   -1.9945654  0.035847946   -2.6717892    0.6772238   421013 
 3400000   0.60930622   -2.6703618   -2.6703618   -1.9941917  0.036404174   -2.6703618   0.67617009   421013 
 3401000   0.60938842     -2.67023     -2.67023   -1.9939687  0.043706325     -2.67023   0.67626131   421013 
 3402000   0.61106467   -2.6724061   -2.6724061   -1.9942846  0.029144878   -2.6724061    0.6781215   421013 
 3403000   0.60918876     -2.67106     -2.67106   -1.9950203  0.040041621     -2.67106   0.67603974   421013 
 3404000   0.60943525   -2.6712344   -2.6712344   -1.9949212  0.039466528   -2.6712344   0.67631328   421013 
 3405000   0.60861321   -2.6712431   -2.6712431   -1.9958421  0.041186342   -2.6712431   0.67540103   421013 
 3406000   0.60979584   -2.6718471   -2.6718471   -1.9951336  0.038516516   -2.6718471   0.67671344   421013 
 3407000   0.60912646   -2.6719151   -2.6719151   -1.9959445  0.039922349   -2.6719151    0.6759706   421013 
 3408000   0.60976338   -2.6719621   -2.6719621   -1.9952846   0.03951769   -2.6719621   0.67667741   421013 
 3409000   0.61103971   -2.6726552   -2.6726552   -1.9945614  0.040782702   -2.6726552   0.67809381   421013 
 3410000   0.61056959    -2.672718    -2.672718    -1.995146   0.03692385    -2.672718   0.67757209   421013 
 3411000   0.60951897   -2.6720003   -2.6720003   -1.9955941  0.036473296   -2.6720003   0.67640618   421013 
 3412000   0.60850941   -2.6715504   -2.6715504   -1.9962646  0.028726848   -2.6715504   0.67528583   421013 
 3413000   0.60905554   -2.6720817   -2.6720817   -1.9961898  0.027368239   -2.6720817   0.67589189   421013 
 3414000   0.60821083   -2.6705032   -2.6705032   -1.9955487  0.039989122   -2.6705032   0.67495449   421013 
 3415000   0.60908535   -2.6720624   -2.6720624   -1.9961375  0.032406928   -2.6720624   0.67592498   421013 
 3416000   0.61012271   -2.6726058   -2.6726058   -1.9955297  0.033071112   -2.6726058   0.67707617   421013 
 3417000   0.60835692   -2.6709451   -2.6709451   -1.9958285  0.037848087   -2.6709451   0.67511661   421013 
 3418000   0.60827425   -2.6706996   -2.6706996   -1.9956747  0.034375342   -2.6706996   0.67502487   421013 
 3419000   0.60914873   -2.6721577   -2.6721577   -1.9961623  0.042466564   -2.6721577   0.67599531   421013 
 3420000   0.60931693   -2.6723631   -2.6723631   -1.9961812  0.034834577   -2.6723631   0.67618198   421013 
 3421000   0.60881656   -2.6718111   -2.6718111   -1.9961844  0.038488642   -2.6718111   0.67562669   421013 
 3422000   0.60949622   -2.6715371   -2.6715371   -1.9951561  0.036657286   -2.6715371   0.67638094   421013 
 3423000   0.60866928   -2.6709055   -2.6709055   -1.9954423  0.038431444   -2.6709055   0.67546325   421013 
 3424000   0.60961624   -2.6724341   -2.6724341     -1.99592  0.042870968   -2.6724341   0.67651412   421013 
 3425000   0.61001097   -2.6721027   -2.6721027   -1.9951505  0.047177225   -2.6721027   0.67695217   421013 
 3426000   0.60941967   -2.6715052   -2.6715052   -1.9952092  0.044653796   -2.6715052   0.67629599   421013 
 3427000   0.60908219   -2.6713917   -2.6713917   -1.9954702  0.035484508   -2.6713917   0.67592147   421013 
 3428000   0.60884155   -2.6708125   -2.6708125   -1.9951581  0.042131275   -2.6708125   0.67565442   421013 
 3429000   0.61016053   -2.6724652   -2.6724652   -1.9953471  0.040037743   -2.6724652   0.67711814   421013 
 3430000   0.60910281   -2.6713918   -2.6713918   -1.9954474   0.03229081   -2.6713918   0.67594435   421013 
 3431000   0.60922308   -2.6720403   -2.6720403   -1.9959625  0.029811604   -2.6720403   0.67607782   421013 
 3432000   0.60791199   -2.6708993   -2.6708993   -1.9962765  0.033124036   -2.6708993   0.67462286   421013 
 3433000   0.60986234    -2.672863    -2.672863   -1.9960757  0.035655695    -2.672863   0.67678723   421013 
 3434000   0.60910526   -2.6718204   -2.6718204   -1.9958733  0.029005336   -2.6718204   0.67594707   421013 
 3435000   0.60822268   -2.6707863   -2.6707863   -1.9958186  0.036256687   -2.6707863   0.67496764   421013 
 3436000   0.60741161   -2.6695835   -2.6695835    -1.995516  0.036421763   -2.6695835   0.67406756   421013 
 3437000   0.60950964   -2.6721351   -2.6721351   -1.9957393  0.032756634   -2.6721351   0.67639583   421013 
 3438000   0.60863709   -2.6709067   -2.6709067   -1.9954791  0.038374823   -2.6709067   0.67542752   421013 
 3439000   0.60957021   -2.6714511   -2.6714511   -1.9949881  0.047299971   -2.6714511   0.67646305   421013 
 3440000   0.60958484   -2.6716713   -2.6716713    -1.995192  0.046238779   -2.6716713   0.67647928   421013 
 3441000   0.60969597   -2.6713641   -2.6713641   -1.9947615  0.049496449   -2.6713641   0.67660261   421013 
 3442000   0.60878268   -2.6703911   -2.6703911    -1.994802  0.042011741   -2.6703911    0.6755891   421013 
 3443000   0.60900503   -2.6698305   -2.6698305   -1.9939947  0.043164245   -2.6698305   0.67583584   421013 
 3444000   0.60879832   -2.6695236   -2.6695236   -1.9939172  0.040504242   -2.6695236   0.67560645   421013 
 3445000   0.60875944   -2.6700775   -2.6700775   -1.9945142  0.037471152   -2.6700775    0.6755633   421013 
 3446000   0.61001721   -2.6710943   -2.6710943   -1.9941352  0.038429729   -2.6710943    0.6769591   421013 
 3447000   0.60969645   -2.6707568   -2.6707568   -1.9941537  0.032603947   -2.6707568   0.67660314   421013 
 3448000   0.60849246   -2.6698354   -2.6698354   -1.9945684  0.038500001   -2.6698354   0.67526703   421013 
 3449000   0.60836842   -2.6703352   -2.6703352   -1.9952058   0.03524311   -2.6703352   0.67512937   421013 
 3450000   0.60817136   -2.6704933   -2.6704933   -1.9955826  0.027586775   -2.6704933   0.67491069   421013 
 3451000   0.60894253   -2.6709027   -2.6709027   -1.9951362   0.03124543   -2.6709027   0.67576649   421013 
 3452000   0.60999756   -2.6711963   -2.6711963    -1.994259  0.033698547   -2.6711963    0.6769373   421013 
 3453000   0.60850916   -2.6697326   -2.6697326   -1.9944471  0.036109178   -2.6697326   0.67528555   421013 
 3454000   0.61014015   -2.6705814   -2.6705814   -1.9934859  0.037857598   -2.6705814   0.67709553   421013 
 3455000   0.60871283   -2.6696657   -2.6696657   -1.9941541  0.041857817   -2.6696657   0.67551158   421013 
 3456000   0.60870033   -2.6703343   -2.6703343   -1.9948366  0.041141733   -2.6703343   0.67549771   421013 
 3457000   0.60830075   -2.6698478   -2.6698478   -1.9947936  0.032590629   -2.6698478   0.67505428   421013 
 3458000   0.61054791   -2.6714703   -2.6714703   -1.9939222  0.048649083   -2.6714703   0.67754804   421013 
 3459000   0.60901131   -2.6702452   -2.6702452   -1.9944024  0.042368071   -2.6702452   0.67584281   421013 
 3460000   0.60901118    -2.670394    -2.670394   -1.9945514  0.037439305    -2.670394   0.67584267   421013 
 3461000   0.60915512   -2.6706169   -2.6706169   -1.9946145  0.047122527   -2.6706169    0.6760024   421013 
 3462000   0.61001251   -2.6716653   -2.6716653   -1.9947115  0.033255577   -2.6716653   0.67695388   421013 
 3463000   0.61017811   -2.6719014   -2.6719014   -1.9947637  0.035932955   -2.6719014   0.67713765   421013 
 3464000   0.60999812    -2.671408    -2.671408   -1.9944701  0.041685121    -2.671408   0.67693791   421013 
 3465000   0.60870323   -2.6701765   -2.6701765   -1.9946756  0.044338175   -2.6701765   0.67550092   421013 
 3466000    0.6079727   -2.6692673   -2.6692673    -1.994577  0.043893497   -2.6692673   0.67469023   421013 
 3467000   0.60832125    -2.670368    -2.670368    -1.995291   0.03113209    -2.670368   0.67507703   421013 
 3468000   0.60877419   -2.6713404   -2.6713404   -1.9957608  0.028677042   -2.6713404   0.67557967   421013 
 3469000   0.60838628   -2.6710802   -2.6710802    -1.995931  0.041567551   -2.6710802   0.67514919   421013 
 3470000   0.60813654   -2.6706762   -2.6706762   -1.9958042  0.035810537   -2.6706762   0.67487205   421013 
 3471000   0.60809706   -2.6711533   -2.6711533   -1.9963251  0.034460924   -2.6711533   0.67482823   421013 
 3472000   0.60838395   -2.6715287   -2.6715287    -1.996382   0.04111793   -2.6715287   0.67514661   421013 
 3473000   0.60878861   -2.6716938   -2.6716938   -1.9960981  0.035799536   -2.6716938   0.67559568   421013 
 3474000    0.6091618    -2.672473    -2.672473   -1.9964632  0.033638983    -2.672473   0.67600982   421013 
 3475000   0.60933805   -2.6716516   -2.6716516   -1.9954462   0.03475325   -2.6716516   0.67620541   421013 
 3476000   0.60961155   -2.6719957   -2.6719957   -1.9954868  0.035325158   -2.6719957   0.67650892   421013 
 3477000   0.60955435   -2.6719043   -2.6719043   -1.9954589  0.037669627   -2.6719043   0.67644544   421013 
 3478000    0.6093337   -2.6717468   -2.6717468   -1.9955462  0.035719923   -2.6717468   0.67620058   421013 
 3479000   0.60929328   -2.6716079   -2.6716079   -1.9954522  0.040711531   -2.6716079   0.67615573   421013 
 3480000   0.60855481   -2.6710294   -2.6710294   -1.9956932  0.041828416   -2.6710294   0.67533622   421013 
 3481000   0.60866166   -2.6710376   -2.6710376   -1.9955828  0.038806993   -2.6710376   0.67545479   421013 
 3482000   0.60896536   -2.6715273   -2.6715273   -1.9957355  0.036020194   -2.6715273   0.67579182   421013 
 3483000   0.60856121   -2.6712427   -2.6712427   -1.9958993  0.044039802   -2.6712427   0.67534332   421013 
 3484000   0.60913577   -2.6719863   -2.6719863   -1.9960053  0.025811233   -2.6719863   0.67598093   421013 
 3485000   0.60760605   -2.6703004   -2.6703004   -1.9960171  0.033116409   -2.6703004   0.67428334   421013 
 3486000   0.60819265   -2.6705754   -2.6705754   -1.9956411  0.028588086   -2.6705754   0.67493431   421013 
 3487000   0.60876812   -2.6711904   -2.6711904   -1.9956175  0.034058457   -2.6711904   0.67557294   421013 
 3488000   0.60875667   -2.6705595   -2.6705595   -1.9949993  0.037129861   -2.6705595   0.67556023   421013 
 3489000   0.60938287   -2.6714109   -2.6714109   -1.9951558  0.044106893   -2.6714109   0.67625514   421013 
 3490000   0.60725163   -2.6694241   -2.6694241    -1.995534  0.035240545   -2.6694241   0.67389003   421013 
 3491000   0.60843122   -2.6716493   -2.6716493   -1.9964502  0.042224525   -2.6716493   0.67519907   421013 
 3492000   0.60788498   -2.6702188   -2.6702188   -1.9956259  0.034029286   -2.6702188   0.67459289   421013 
 3493000   0.60823329   -2.6712439   -2.6712439   -1.9962644  0.031504765   -2.6712439   0.67497941   421013 
 3494000   0.60885604   -2.6723856   -2.6723856   -1.9967151  0.040784013   -2.6723856    0.6756705   421013 
 3495000   0.60865577   -2.6721473   -2.6721473   -1.9966991  0.037641953   -2.6721473   0.67544826   421013 
 3496000   0.60973388   -2.6730624   -2.6730624   -1.9964177  0.023793397   -2.6730624   0.67664468   421013 
 3497000   0.60915257   -2.6723725   -2.6723725    -1.996373  0.038025769   -2.6723725   0.67599958   421013 
 3498000   0.60810337   -2.6714046   -2.6714046   -1.9965694  0.043477104   -2.6714046   0.67483524   421013 
 3499000   0.60939238   -2.6727628   -2.6727628   -1.9964971  0.035384849   -2.6727628    0.6762657   421013 
 3500000    0.6087464   -2.6717632   -2.6717632   -1.9962144  0.036881689   -2.6717632   0.67554883   421013 
 3501000   0.60880262   -2.6727005   -2.6727005   -1.9970892  0.035254683   -2.6727005   0.67561122   421013 
 3502000   0.61076744   -2.6748171   -2.6748171   -1.9970255  0.042312552   -2.6748171   0.67779166   421013 
 3503000   0.60927543   -2.6740138   -2.6740138   -1.9978779  0.038359668   -2.6740138   0.67613592   421013 
 3504000   0.60828567   -2.6733381   -2.6733381   -1.9983006  0.040639088   -2.6733381   0.67503754   421013 
 3505000   0.60940464   -2.6736654   -2.6736654   -1.9973861  0.042951027   -2.6736654    0.6762793   421013 
 3506000   0.60870528   -2.6734196   -2.6734196   -1.9979164  0.032207593   -2.6734196    0.6755032   421013 
 3507000   0.60850568   -2.6730483   -2.6730483   -1.9977666  0.044544684   -2.6730483    0.6752817   421013 
 3508000   0.60869357   -2.6726726   -2.6726726   -1.9971824  0.039318945   -2.6726726    0.6754902   421013 
 3509000   0.60848761   -2.6729964   -2.6729964   -1.9977347  0.039208828   -2.6729964   0.67526164   421013 
 3510000   0.60913627   -2.6730608   -2.6730608   -1.9970793  0.038037905   -2.6730608   0.67598149   421013 
 3511000   0.60949617   -2.6733387   -2.6733387   -1.9969579  0.041208489   -2.6733387   0.67638088   421013 
 3512000   0.60859498   -2.6714067   -2.6714067   -1.9960259  0.032765697   -2.6714067   0.67538079   421013 
 3513000   0.60921651   -2.6725203   -2.6725203   -1.9964498  0.037625006   -2.6725203   0.67607053   421013 
 3514000   0.60954412   -2.6727603   -2.6727603   -1.9963262  0.036573101   -2.6727603   0.67643409   421013 
 3515000   0.60954313   -2.6726598   -2.6726598   -1.9962268  0.031479287   -2.6726598     0.676433   421013 
 3516000   0.60931936   -2.6718447   -2.6718447   -1.9956601  0.032465228   -2.6718447   0.67618467   421013 
 3517000   0.60949799   -2.6728442   -2.6728442   -1.9964613  0.030646713   -2.6728442    0.6763829   421013 
 3518000   0.60932414   -2.6727406   -2.6727406   -1.9965506  0.043695409   -2.6727406   0.67618998   421013 
 3519000   0.61046201   -2.6739164   -2.6739164   -1.9964637  0.040421989   -2.6739164   0.67745271   421013 
 3520000   0.61095663   -2.6749214   -2.6749214   -1.9969198  0.039639581   -2.6749214   0.67800161   421013 
 3521000   0.61005969   -2.6739091   -2.6739091   -1.9969029  0.042328609   -2.6739091   0.67700624   421013 
 3522000   0.61030614   -2.6743508   -2.6743508    -1.997071  0.043558476   -2.6743508   0.67727973   421013 
 3523000   0.61024239   -2.6746528   -2.6746528   -1.9974438  0.035196678   -2.6746528   0.67720899   421013 
 3524000   0.60892281   -2.6730075   -2.6730075   -1.9972629  0.031003193   -2.6730075    0.6757446   421013 
 3525000   0.60941337   -2.6737797   -2.6737797   -1.9974907  0.043565617   -2.6737797   0.67628899   421013 
 3526000    0.6093723   -2.6740362   -2.6740362   -1.9977928  0.044752447   -2.6740362   0.67624341   421013 
 3527000   0.61019126   -2.6742282   -2.6742282   -1.9970759  0.031576838   -2.6742282   0.67715225   421013 
 3528000   0.60985575   -2.6735997   -2.6735997   -1.9968198  0.042213579   -2.6735997   0.67677992   421013 
 3529000   0.60976587   -2.6732496   -2.6732496   -1.9965695  0.035055033   -2.6732496   0.67668018   421013 
 3530000   0.60909089    -2.673142    -2.673142   -1.9972108  0.034968876    -2.673142   0.67593113   421013 
 3531000   0.60894317   -2.6733059   -2.6733059   -1.9975387  0.031631017   -2.6733059    0.6757672   421013 
 3532000   0.60936603   -2.6731533   -2.6731533   -1.9969168  0.034823636   -2.6731533   0.67623646   421013 
 3533000   0.60942584   -2.6729939   -2.6729939   -1.9966911  0.026550186   -2.6729939   0.67630283   421013 
 3534000   0.60831205   -2.6720822   -2.6720822   -1.9970154  0.033923328   -2.6720822   0.67506682   421013 
 3535000   0.60946586   -2.6733602   -2.6733602    -1.997013  0.034817488   -2.6733602   0.67634724   421013 
 3536000   0.60934792   -2.6733521   -2.6733521   -1.9971357  0.036695829   -2.6733521   0.67621636   421013 
 3537000   0.60900508   -2.6733734   -2.6733734   -1.9975375  0.028584927   -2.6733734   0.67583589   421013 
 3538000   0.60954544   -2.6734497   -2.6734497   -1.9970142  0.037141214   -2.6734497   0.67643556   421013 
 3539000   0.60957152   -2.6736011   -2.6736011   -1.9971366  0.038089813   -2.6736011    0.6764645   421013 
 3540000   0.60902055   -2.6731892   -2.6731892   -1.9973362   0.03926081   -2.6731892   0.67585307   421013 
 3541000   0.60929508   -2.6734136   -2.6734136   -1.9972559  0.034687678   -2.6734136   0.67615772   421013 
 3542000   0.60862345   -2.6731679   -2.6731679   -1.9977555   0.04128369   -2.6731679   0.67541239   421013 
 3543000   0.60829967   -2.6728953   -2.6728953   -1.9978423  0.035994924   -2.6728953   0.67505308   421013 
 3544000   0.61028489   -2.6745021   -2.6745021    -1.997246  0.035835889   -2.6745021   0.67725616   421013 
 3545000   0.60920575   -2.6736115   -2.6736115   -1.9975529  0.038592218   -2.6736115    0.6760586   421013 
 3546000   0.60826657    -2.672539    -2.672539   -1.9975227  0.033177194    -2.672539   0.67501634   421013 
 3547000   0.60916963   -2.6736758   -2.6736758   -1.9976573  0.033971589   -2.6736758   0.67601851   421013 
 3548000   0.60914816   -2.6736648   -2.6736648   -1.9976702  0.040358059   -2.6736648   0.67599468   421013 
 3549000   0.60893528   -2.6733282   -2.6733282   -1.9975698  0.037625916   -2.6733282   0.67575844   421013 
 3550000   0.60918404   -2.6735707   -2.6735707   -1.9975362  0.039628247   -2.6735707    0.6760345   421013 
 3551000   0.60733698   -2.6718101   -2.6718101   -1.9978254  0.038745319   -2.6718101   0.67398475   421013 
 3552000    0.6081768   -2.6728838   -2.6728838    -1.997967  0.036461329   -2.6728838   0.67491672   421013 
 3553000   0.61078843   -2.6755021   -2.6755021   -1.9976871  0.031311678   -2.6755021   0.67781495   421013 
 3554000   0.61040948   -2.6746518   -2.6746518   -1.9972574  0.036423035   -2.6746518   0.67739442   421013 
 3555000   0.61082076   -2.6750429   -2.6750429    -1.997192  0.036887704   -2.6750429   0.67785083   421013 
 3556000    0.6101707   -2.6748381   -2.6748381   -1.9977087  0.045394042   -2.6748381   0.67712944   421013 
 3557000   0.60996009   -2.6748804   -2.6748804   -1.9979847   0.03868122   -2.6748804   0.67689571   421013 
 3558000   0.60937524   -2.6751465   -2.6751465   -1.9988999  0.034175328   -2.6751465   0.67624668   421013 
 3559000   0.60962993    -2.675621    -2.675621   -1.9990917  0.038153832    -2.675621   0.67652931   421013 
 3560000   0.60831403   -2.6743336   -2.6743336   -1.9992645  0.037962583   -2.6743336   0.67506902   421013 
 3561000   0.60932375   -2.6749903   -2.6749903   -1.9988008  0.041145945   -2.6749903   0.67618954   421013 
 3562000    0.6074899   -2.6732422   -2.6732422   -1.9990877  0.045087138   -2.6732422   0.67415445   421013 
 3563000    0.6089657   -2.6745799   -2.6745799   -1.9987877  0.038144287   -2.6745799    0.6757922   421013 
 3564000   0.60858835   -2.6745627   -2.6745627   -1.9991893   0.03885164   -2.6745627   0.67537343   421013 
 3565000   0.60885949    -2.674676    -2.674676   -1.9990017  0.042629065    -2.674676   0.67567433   421013 
 3566000   0.60899915   -2.6749473   -2.6749473    -1.999118  0.038273708   -2.6749473   0.67582932   421013 
 3567000   0.60927676    -2.675173    -2.675173   -1.9990356  0.038003569    -2.675173   0.67613739   421013 
 3568000   0.60787222   -2.6737069   -2.6737069   -1.9991282  0.036843393   -2.6737069   0.67457872   421013 
 3569000   0.60994281   -2.6759013   -2.6759013   -1.9990248    0.0341542   -2.6759013   0.67687654   421013 
 3570000    0.6090139   -2.6750821   -2.6750821   -1.9992364  0.039567719   -2.6750821   0.67584569   421013 
 3571000   0.60805673   -2.6742367   -2.6742367   -1.9994532  0.034784261   -2.6742367   0.67478348   421013 
 3572000   0.60711359   -2.6728588   -2.6728588    -1.999122   0.03373125   -2.6728588   0.67373684   421013 
 3573000   0.60883769   -2.6743912   -2.6743912   -1.9987411  0.035103121   -2.6743912   0.67565014   421013 
 3574000   0.60853169   -2.6736317   -2.6736317   -1.9983211  0.037483819   -2.6736317   0.67531056   421013 
 3575000    0.6099997   -2.6753083   -2.6753083   -1.9983687  0.029928093   -2.6753083   0.67693967   421013 
 3576000   0.60905094   -2.6742581   -2.6742581   -1.9983713  0.037240745   -2.6742581    0.6758868   421013 
 3577000   0.60988635   -2.6751429   -2.6751429    -1.998329  0.049443278   -2.6751429   0.67681388   421013 
 3578000   0.61020035   -2.6752787   -2.6752787   -1.9981164  0.038701027   -2.6752787   0.67716234   421013 
 3579000   0.60929043   -2.6743478   -2.6743478   -1.9981952  0.041309722   -2.6743478   0.67615256   421013 
 3580000   0.60931959   -2.6749885   -2.6749885   -1.9988036  0.038242671   -2.6749885   0.67618492   421013 
 3581000   0.60903378    -2.674824    -2.674824   -1.9989562  0.048521116    -2.674824   0.67586775   421013 
 3582000   0.60976216     -2.67584     -2.67584   -1.9991639  0.028498793     -2.67584   0.67667606   421013 
 3583000   0.61001599   -2.6760466   -2.6760466   -1.9990888  0.039331075   -2.6760466   0.67695774   421013 
 3584000   0.60797183   -2.6741194   -2.6741194   -1.9994302  0.036693978   -2.6741194   0.67468926   421013 
 3585000   0.60898913   -2.6753673   -2.6753673   -1.9995491  0.027560059   -2.6753673    0.6758182   421013 
 3586000   0.61024693   -2.6759134   -2.6759134   -1.9986994  0.036843279   -2.6759134   0.67721403   421013 
 3587000   0.60931464   -2.6751185   -2.6751185   -1.9989391   0.03077376   -2.6751185   0.67617943   421013 
 3588000   0.61000058   -2.6765701   -2.6765701   -1.9996295  0.037599023   -2.6765701   0.67694065   421013 
 3589000   0.60907609   -2.6761349   -2.6761349   -2.0002202  0.042235505   -2.6761349    0.6759147   421013 
 3590000   0.60962512   -2.6768614   -2.6768614   -2.0003374  0.034934268   -2.6768614   0.67652398   421013 
 3591000   0.60799514   -2.6755418   -2.6755418   -2.0008267  0.037556791   -2.6755418   0.67471513   421013 
 3592000   0.60780161   -2.6748312   -2.6748312   -2.0003308  0.036829142   -2.6748312   0.67450037   421013 
 3593000   0.60863682   -2.6749746   -2.6749746   -1.9995474  0.036556413   -2.6749746   0.67542723   421013 
 3594000    0.6098901   -2.6758888   -2.6758888   -1.9990707  0.033186186   -2.6758888   0.67681804   421013 
 3595000   0.60932178   -2.6758469   -2.6758469   -1.9996596  0.035703207   -2.6758469   0.67618736   421013 
 3596000    0.6092104   -2.6766114   -2.6766114   -2.0005477  0.043013382   -2.6766114   0.67606375   421013 
 3597000   0.60834153   -2.6755299   -2.6755299   -2.0004304  0.044402261   -2.6755299   0.67509953   421013 
 3598000   0.61008946   -2.6775098   -2.6775098   -2.0004705    0.0387666   -2.6775098   0.67703928   421013 
 3599000   0.60958501   -2.6775568   -2.6775568   -2.0010774  0.032070928   -2.6775568   0.67647947   421013 
 3600000   0.60911044   -2.6773994   -2.6773994   -2.0014466  0.037521208   -2.6773994   0.67595283   421013 
 3601000   0.60801536    -2.676188    -2.676188   -2.0014504  0.040766957    -2.676188   0.67473757   421013 
 3602000   0.60791269   -2.6760373   -2.6760373   -2.0014137  0.036267785   -2.6760373   0.67462363   421013 
 3603000   0.60973969   -2.6772314   -2.6772314   -2.0005803  0.036720465   -2.6772314   0.67665113   421013 
 3604000    0.6088856   -2.6776073   -2.6776073    -2.001904  0.036004688   -2.6776073    0.6757033   421013 
 3605000   0.60806331   -2.6765419   -2.6765419   -2.0017511  0.048986771   -2.6765419   0.67479078   421013 
 3606000   0.60873925   -2.6771682   -2.6771682   -2.0016273  0.043150276   -2.6771682    0.6755409   421013 
 3607000   0.61009659   -2.6783303   -2.6783303   -2.0012831  0.039289795   -2.6783303   0.67704718   421013 
 3608000   0.60974041   -2.6776913   -2.6776913   -2.0010394  0.036201143   -2.6776913   0.67665193   421013 
 3609000   0.60803392   -2.6765007   -2.6765007   -2.0017426  0.037372069   -2.6765007   0.67475817   421013 
 3610000   0.60858045    -2.676181    -2.676181   -2.0008163  0.033967025    -2.676181   0.67536468   421013 
 3611000   0.60966889   -2.6770623   -2.6770623   -2.0004897   0.04221976   -2.6770623   0.67657255   421013 
 3612000   0.60751823   -2.6756642   -2.6756642   -2.0014783  0.043893381   -2.6756642   0.67418588   421013 
 3613000   0.60919923   -2.6770119   -2.6770119   -2.0009605  0.039651247   -2.6770119   0.67605135   421013 
 3614000   0.60843979   -2.6764296   -2.6764296    -2.001221   0.02557079   -2.6764296   0.67520857   421013 
 3615000   0.60793503   -2.6763099   -2.6763099   -2.0016615  0.036090052   -2.6763099   0.67464842   421013 
 3616000   0.60832424   -2.6773887   -2.6773887   -2.0023083  0.037207129   -2.6773887   0.67508035   421013 
 3617000   0.60882405   -2.6775197   -2.6775197   -2.0018847  0.043530932   -2.6775197     0.675635   421013 
 3618000   0.60901363    -2.678317    -2.678317   -2.0024716  0.048636981    -2.678317   0.67584539   421013 
 3619000   0.60913611   -2.6782895   -2.6782895   -2.0023082  0.033442436   -2.6782895   0.67598131   421013 
 3620000   0.60836002    -2.678098    -2.678098    -2.002978  0.037466345    -2.678098   0.67512006   421013 
 3621000    0.6077292   -2.6773041   -2.6773041   -2.0028841  0.032630642   -2.6773041   0.67442001   421013 
 3622000   0.60773528   -2.6767393   -2.6767393   -2.0023125  0.029069478   -2.6767393   0.67442675   421013 
 3623000   0.60924681   -2.6787216   -2.6787216   -2.0026174  0.042801019   -2.6787216   0.67610416   421013 
 3624000   0.60845437   -2.6781372   -2.6781372   -2.0029124  0.039466192   -2.6781372   0.67522475   421013 
 3625000    0.6082039   -2.6776853   -2.6776853   -2.0027385  0.035318845   -2.6776853    0.6749468   421013 
 3626000   0.60931986   -2.6786223   -2.6786223   -2.0024371   0.02834168   -2.6786223   0.67618522   421013 
 3627000   0.60830329   -2.6782226   -2.6782226   -2.0031655   0.02537989   -2.6782226   0.67505709   421013 
 3628000   0.60913614   -2.6786503   -2.6786503   -2.0026689  0.035563066   -2.6786503   0.67598134   421013 
 3629000    0.6083871   -2.6782802   -2.6782802   -2.0031301  0.032742359   -2.6782802   0.67515011   421013 
 3630000   0.60822882   -2.6777698   -2.6777698   -2.0027953  0.036274097   -2.6777698   0.67497446   421013 
 3631000    0.6088528   -2.6784325   -2.6784325   -2.0027656  0.033871631   -2.6784325   0.67566691   421013 
 3632000   0.60908507   -2.6780159   -2.6780159   -2.0020913  0.041792755   -2.6780159   0.67592466   421013 
 3633000   0.60702001   -2.6752281   -2.6752281   -2.0015951  0.032371576   -2.6752281     0.673633   421013 
 3634000   0.60745412   -2.6758871   -2.6758871   -2.0017724  0.039580528   -2.6758871   0.67411474   421013 
 3635000   0.60706815   -2.6758895   -2.6758895   -2.0022031  0.043149768   -2.6758895   0.67368641   421013 
 3636000   0.60890545   -2.6775836   -2.6775836   -2.0018583  0.033462785   -2.6775836   0.67572533   421013 
 3637000   0.60837942   -2.6769762   -2.6769762   -2.0018347  0.035673113   -2.6769762   0.67514158   421013 
 3638000   0.60976636   -2.6783664   -2.6783664   -2.0016857  0.037579947   -2.6783664   0.67668073   421013 
 3639000   0.60911418   -2.6775111   -2.6775111   -2.0015541  0.035735651   -2.6775111   0.67595697   421013 
 3640000   0.60904746   -2.6776671   -2.6776671   -2.0017842  0.044728184   -2.6776671   0.67588293   421013 
 3641000   0.60852334   -2.6773265   -2.6773265   -2.0020252  0.044478514   -2.6773265   0.67530129   421013 
 3642000    0.6086185   -2.6771758   -2.6771758   -2.0017689  0.041356405   -2.6771758   0.67540689   421013 
 3643000   0.60880684   -2.6780651   -2.6780651   -2.0024492  0.032287091   -2.6780651   0.67561591   421013 
 3644000   0.60924449   -2.6774493   -2.6774493   -2.0013477  0.038350535   -2.6774493   0.67610158   421013 
 3645000   0.60789475   -2.6761146   -2.6761146   -2.0015109  0.035670452   -2.6761146   0.67460372   421013 
 3646000   0.60641926   -2.6752847   -2.6752847   -2.0023184  0.037405702   -2.6752847   0.67296631   421013 
 3647000    0.6076462    -2.677185    -2.677185   -2.0028571  0.037433344    -2.677185   0.67432789   421013 
 3648000    0.6066224   -2.6762569   -2.6762569   -2.0030651  0.031470694   -2.6762569   0.67319175   421013 
 3649000   0.60742328   -2.6768945   -2.6768945   -2.0028139  0.036527287   -2.6768945   0.67408052   421013 
 3650000   0.60692812   -2.6764171   -2.6764171    -2.002886  0.030076366   -2.6764171   0.67353102   421013 
 3651000   0.60677401   -2.6751036   -2.6751036   -2.0017436  0.035687465   -2.6751036      0.67336   421013 
 3652000   0.60806591    -2.676846    -2.676846   -2.0020523  0.041873464    -2.676846   0.67479366   421013 
 3653000   0.60912502   -2.6778811   -2.6778811   -2.0019121  0.031422769   -2.6778811     0.675969   421013 
 3654000    0.6093703   -2.6776192   -2.6776192   -2.0013781  0.042540366   -2.6776192   0.67624119   421013 
 3655000    0.6098319   -2.6780806   -2.6780806   -2.0013272  0.031120769   -2.6780806   0.67675346   421013 
 3656000    0.6092749   -2.6767464   -2.6767464   -2.0006111  0.039897795   -2.6767464   0.67613533   421013 
 3657000    0.6088215   -2.6778067   -2.6778067   -2.0021746  0.047930756   -2.6778067   0.67563217   421013 
 3658000   0.61020824    -2.679514    -2.679514   -2.0023429  0.031082992    -2.679514   0.67717109   421013 
 3659000   0.60935828   -2.6792698   -2.6792698   -2.0030419  0.039272954   -2.6792698   0.67622786   421013 
 3660000   0.60928864    -2.679588    -2.679588   -2.0034375  0.040508861    -2.679588   0.67615058   421013 
 3661000   0.60863318   -2.6775467   -2.6775467   -2.0021236  0.035657649   -2.6775467   0.67542318   421013 
 3662000   0.60900347   -2.6787968   -2.6787968   -2.0029627  0.038784802   -2.6787968   0.67583411   421013 
 3663000   0.60915171   -2.6796709   -2.6796709   -2.0036722  0.038477694   -2.6796709   0.67599862   421013 
 3664000   0.60854224   -2.6790572   -2.6790572    -2.003735  0.035654827   -2.6790572   0.67532227   421013 
 3665000   0.60873169   -2.6798887   -2.6798887   -2.0043562    0.0315295   -2.6798887   0.67553251   421013 
 3666000   0.60862601   -2.6798236   -2.6798236   -2.0044084  0.029597989   -2.6798236   0.67541523   421013 
 3667000   0.60818582    -2.679009    -2.679009   -2.0040823  0.034999506    -2.679009   0.67492673   421013 
 3668000    0.6085217   -2.6792629   -2.6792629   -2.0039634  0.044789652   -2.6792629   0.67529948   421013 
 3669000   0.60786065    -2.679317    -2.679317   -2.0047512  0.028522725    -2.679317   0.67456588   421013 
 3670000   0.60850295   -2.6805297   -2.6805297   -2.0052511  0.034532355   -2.6805297   0.67527867   421013 
 3671000   0.60667027   -2.6784717   -2.6784717   -2.0052268  0.040118133   -2.6784717   0.67324487   421013 
 3672000   0.60699277   -2.6789232   -2.6789232   -2.0053205  0.035671743   -2.6789232   0.67360276   421013 
 3673000   0.60756166   -2.6793873   -2.6793873   -2.0051532  0.034879142   -2.6793873   0.67423408   421013 
 3674000    0.6093628   -2.6811945   -2.6811945   -2.0049616  0.032294698   -2.6811945   0.67623287   421013 
 3675000   0.60850604   -2.6798552   -2.6798552   -2.0045731  0.047804034   -2.6798552    0.6752821   421013 
 3676000   0.60854495   -2.6806693   -2.6806693    -2.005344  0.040526467   -2.6806693   0.67532527   421013 
 3677000   0.60885944   -2.6810317   -2.6810317   -2.0053575  0.040996292   -2.6810317   0.67567428   421013 
 3678000   0.60768984   -2.6799911   -2.6799911   -2.0056148  0.040957438   -2.6799911   0.67437632   421013 
 3679000   0.60773052   -2.6799361   -2.6799361   -2.0055147  0.040560556   -2.6799361   0.67442147   421013 
 3680000   0.60710627   -2.6795638   -2.6795638   -2.0058351  0.035804705   -2.6795638   0.67372872   421013 
 3681000   0.60869921   -2.6807814   -2.6807814   -2.0052849   0.03302348   -2.6807814   0.67549647   421013 
 3682000   0.60896656   -2.6803262   -2.6803262    -2.004533  0.033429463   -2.6803262   0.67579315   421013 
 3683000   0.60909657   -2.6806201   -2.6806201   -2.0046827  0.034562475   -2.6806201   0.67593743   421013 
 3684000    0.6089889   -2.6804622   -2.6804622   -2.0046442  0.040234832   -2.6804622   0.67581795   421013 
 3685000   0.60928965   -2.6809243   -2.6809243   -2.0047726   0.03164252   -2.6809243    0.6761517   421013 
 3686000   0.60724451   -2.6798678   -2.6798678   -2.0059857  0.042111981   -2.6798678   0.67388213   421013 
 3687000   0.60772805   -2.6798652   -2.6798652   -2.0054465  0.032806785   -2.6798652   0.67441873   421013 
 3688000   0.60608463   -2.6776345   -2.6776345   -2.0050395  0.034840955   -2.6776345   0.67259497   421013 
 3689000   0.60798041   -2.6802847   -2.6802847   -2.0055859  0.030963939   -2.6802847   0.67469878   421013 
 3690000   0.60650671   -2.6790841   -2.6790841   -2.0060208  0.046022984   -2.6790841   0.67306336   421013 
 3691000   0.60846827   -2.6803179   -2.6803179   -2.0050778   0.03646994   -2.6803179   0.67524018   421013 
 3692000   0.60887171   -2.6804672   -2.6804672   -2.0047793  0.048272477   -2.6804672   0.67568789   421013 
 3693000   0.60733344   -2.6792385   -2.6792385   -2.0052577  0.038902347   -2.6792385   0.67398081   421013 
 3694000   0.60801167   -2.6801118   -2.6801118   -2.0053783  0.035173353   -2.6801118   0.67473348   421013 
 3695000   0.60869377   -2.6813403   -2.6813403   -2.0058499  0.032809303   -2.6813403   0.67549043   421013 
 3696000   0.60854027     -2.68096     -2.68096   -2.0056399  0.028374606     -2.68096   0.67532008   421013 
 3697000   0.60787127   -2.6805264   -2.6805264   -2.0059488  0.040603321   -2.6805264   0.67457767   421013 
 3698000   0.60808857   -2.6806892   -2.6806892   -2.0058704  0.043535011   -2.6806892   0.67481882   421013 
 3699000    0.6082799   -2.6810664   -2.6810664   -2.0060353   0.04619169   -2.6810664   0.67503114   421013 
 3700000   0.60858276   -2.6805658   -2.6805658   -2.0051986  0.047133056   -2.6805658   0.67536723   421013 
 3701000   0.60783935   -2.6794653   -2.6794653    -2.004923  0.036162278   -2.6794653   0.67454224   421013 
 3702000   0.60898393   -2.6810899   -2.6810899   -2.0052774  0.035522081   -2.6810899   0.67581242   421013 
 3703000   0.60916402   -2.6812519   -2.6812519   -2.0052396    0.0412563   -2.6812519   0.67601229   421013 
 3704000   0.60792923   -2.6801594   -2.6801594   -2.0055174  0.043300432   -2.6801594   0.67464198   421013 
 3705000   0.60814192   -2.6804731   -2.6804731   -2.0055951  0.036682267   -2.6804731   0.67487802   421013 
 3706000   0.60867088   -2.6820482   -2.6820482   -2.0065831  0.030440458   -2.6820482   0.67546503   421013 
 3707000   0.60741297   -2.6814022   -2.6814022   -2.0073331  0.029676038   -2.6814022   0.67406908   421013 
 3708000   0.60742654   -2.6804937   -2.6804937   -2.0064095  0.027028912   -2.6804937   0.67408413   421013 
 3709000   0.60676856   -2.6801882   -2.6801882   -2.0068343  0.033137024   -2.6801882   0.67335395   421013 
 3710000   0.60893801   -2.6820672   -2.6820672   -2.0063057   0.04349553   -2.6820672   0.67576147   421013 
 3711000   0.60806888   -2.6820322   -2.6820322   -2.0072353  0.030902654   -2.6820322   0.67479697   421013 
 3712000    0.6086084    -2.681971    -2.681971   -2.0065753  0.037235113    -2.681971   0.67539569   421013 
 3713000   0.60815585   -2.6814663   -2.6814663   -2.0065728  0.038622969   -2.6814663   0.67489347   421013 
 3714000   0.60842362   -2.6821531   -2.6821531   -2.0069625  0.035837664   -2.6821531   0.67519063   421013 
 3715000   0.60750822   -2.6809823   -2.6809823   -2.0068076  0.039426729   -2.6809823   0.67417478   421013 
 3716000    0.6080982   -2.6825789   -2.6825789   -2.0077494  0.040771117   -2.6825789    0.6748295   421013 
 3717000   0.60838047   -2.6828705   -2.6828705   -2.0077278  0.039745784   -2.6828705   0.67514275   421013 
 3718000   0.60898144   -2.6830211   -2.6830211   -2.0072114  0.045488429   -2.6830211   0.67580966   421013 
 3719000   0.60922721   -2.6830912   -2.6830912   -2.0070088  0.040450711   -2.6830912   0.67608241   421013 
 3720000   0.60813876   -2.6814347   -2.6814347   -2.0065602  0.034321753   -2.6814347   0.67487451   421013 
 3721000   0.60740914   -2.6817319   -2.6817319   -2.0076671  0.032033639   -2.6817319   0.67406482   421013 
 3722000   0.60749884   -2.6819361   -2.6819361   -2.0077717  0.037402128   -2.6819361   0.67416437   421013 
 3723000   0.60810017   -2.6826375   -2.6826375   -2.0078058   0.03283553   -2.6826375   0.67483169   421013 
 3724000   0.60746637   -2.6824144   -2.6824144    -2.008286  0.030202588   -2.6824144   0.67412833   421013 
 3725000   0.60761018   -2.6819038   -2.6819038   -2.0076159  0.039201138   -2.6819038   0.67428793   421013 
 3726000    0.6090716   -2.6835986   -2.6835986   -2.0076889   0.03459152   -2.6835986   0.67590972   421013 
 3727000   0.60810307   -2.6821144   -2.6821144   -2.0072795  0.029093268   -2.6821144   0.67483491   421013 
 3728000   0.60672422   -2.6805098   -2.6805098    -2.007205  0.039129025   -2.6805098   0.67330474   421013 
 3729000   0.60794422   -2.6814328   -2.6814328   -2.0067742  0.034877335   -2.6814328   0.67465863   421013 
 3730000   0.60778493   -2.6811464   -2.6811464   -2.0066646  0.031995124   -2.6811464   0.67448185   421013 
 3731000   0.60818374   -2.6816003   -2.6816003   -2.0066759  0.035934182   -2.6816003   0.67492443   421013 
 3732000   0.60785275     -2.68142     -2.68142   -2.0068629  0.029906647     -2.68142   0.67455711   421013 
 3733000   0.60690877    -2.680938    -2.680938   -2.0074285  0.045517958    -2.680938   0.67350954   421013 
 3734000   0.60796568   -2.6815377   -2.6815377   -2.0068552  0.036470891   -2.6815377   0.67468244   421013 
 3735000   0.60820332   -2.6823226   -2.6823226   -2.0073765  0.035653777   -2.6823226   0.67494615   421013 
 3736000   0.60807717   -2.6814323   -2.6814323   -2.0066262  0.031126656   -2.6814323   0.67480616   421013 
 3737000   0.60663815   -2.6803093   -2.6803093   -2.0071001  0.029600803   -2.6803093   0.67320923   421013 
 3738000   0.60649418   -2.6807021   -2.6807021   -2.0076526  0.033473983   -2.6807021   0.67304946   421013 
 3739000   0.60873115   -2.6829128   -2.6829128   -2.0073809   0.03888751   -2.6829128   0.67553191   421013 
 3740000   0.60895749   -2.6831645   -2.6831645   -2.0073814   0.04077799   -2.6831645   0.67578309   421013 
 3741000   0.60763352   -2.6815168   -2.6815168    -2.007203  0.040224291   -2.6815168   0.67431383   421013 
 3742000   0.60861961   -2.6828445   -2.6828445   -2.0074364  0.038480004   -2.6828445   0.67540813   421013 
 3743000   0.60857786   -2.6825684   -2.6825684   -2.0072066  0.037895867   -2.6825684   0.67536179   421013 
 3744000   0.60728926   -2.6814836   -2.6814836   -2.0075518  0.043423777   -2.6814836   0.67393178   421013 
 3745000   0.60842107   -2.6823653   -2.6823653   -2.0071775  0.038085251   -2.6823653    0.6751878   421013 
 3746000   0.60789978   -2.6820125   -2.6820125   -2.0074032  0.036053315   -2.6820125    0.6746093   421013 
 3747000   0.60791946   -2.6816083   -2.6816083   -2.0069771  0.029106602   -2.6816083   0.67463115   421013 
 3748000   0.60834496   -2.6822155   -2.6822155   -2.0071121  0.033800942   -2.6822155   0.67510334   421013 
 3749000   0.60867008   -2.6824354   -2.6824354   -2.0069713   0.03294126   -2.6824354   0.67546413   421013 
 3750000   0.60838211   -2.6818048   -2.6818048   -2.0066602  0.037461973   -2.6818048   0.67514457   421013 
 3751000   0.60673244   -2.6810262   -2.6810262   -2.0077123    0.0387666   -2.6810262   0.67331386   421013 
 3752000   0.60758598   -2.6819539   -2.6819539   -2.0076928  0.037557506   -2.6819539   0.67426107   421013 
 3753000   0.60708934   -2.6817897   -2.6817897   -2.0080798  0.037940149   -2.6817897   0.67370993   421013 
 3754000   0.60738213   -2.6821007   -2.6821007   -2.0080658  0.039442823   -2.6821007   0.67403485   421013 
 3755000   0.60874977   -2.6831636   -2.6831636    -2.007611  0.033696407   -2.6831636   0.67555258   421013 
 3756000   0.60903414   -2.6838618   -2.6838618   -2.0079937  0.033701841   -2.6838618   0.67586815   421013 
 3757000    0.6081099   -2.6833504   -2.6833504   -2.0085079  0.040690016   -2.6833504   0.67484249   421013 
 3758000   0.60865446    -2.684316    -2.684316   -2.0088692  0.039826652    -2.684316    0.6754468   421013 
 3759000   0.60739719    -2.682653    -2.682653   -2.0086014  0.030302652    -2.682653   0.67405156   421013 
 3760000   0.60770616   -2.6823063   -2.6823063   -2.0079119  0.037560213   -2.6823063   0.67439444   421013 
 3761000   0.60770741   -2.6827944   -2.6827944   -2.0083986  0.043677729   -2.6827944   0.67439583   421013 
 3762000   0.60704386   -2.6821091   -2.6821091   -2.0084496  0.042948185   -2.6821091   0.67365946   421013 
 3763000   0.60767049    -2.683385    -2.683385   -2.0090302  0.038571698    -2.683385   0.67435486   421013 
 3764000    0.6069215   -2.6836277   -2.6836277    -2.010104  0.031614208   -2.6836277   0.67352367   421013 
 3765000   0.60707194   -2.6831334   -2.6831334   -2.0094427   0.04780419   -2.6831334   0.67369062   421013 
 3766000   0.60859095   -2.6852815   -2.6852815   -2.0099052  0.032655195   -2.6852815   0.67537632   421013 
 3767000   0.60779509   -2.6841401   -2.6841401    -2.009647  0.041015136   -2.6841401   0.67449313   421013 
 3768000   0.60880547   -2.6854508   -2.6854508   -2.0098364  0.032870313   -2.6854508   0.67561438   421013 
 3769000   0.60838912   -2.6846568   -2.6846568   -2.0095044  0.043008001   -2.6846568   0.67515234   421013 
 3770000   0.60930109   -2.6859747   -2.6859747   -2.0098104  0.038199138   -2.6859747   0.67616439   421013 
 3771000   0.60887167   -2.6862643   -2.6862643   -2.0105764  0.035155408   -2.6862643   0.67568785   421013 
 3772000   0.60686534   -2.6837737   -2.6837737   -2.0103124  0.042053078   -2.6837737   0.67346135   421013 
 3773000   0.60688291   -2.6826574   -2.6826574   -2.0091765  0.043527188   -2.6826574   0.67348085   421013 
 3774000   0.60790438   -2.6837688   -2.6837688   -2.0091544  0.042211383   -2.6837688   0.67461441   421013 
 3775000    0.6063776   -2.6825347   -2.6825347   -2.0096146  0.041080578   -2.6825347   0.67292009   421013 
 3776000   0.60759066    -2.683259    -2.683259   -2.0089927  0.033870456    -2.683259   0.67426626   421013 
 3777000   0.60716983   -2.6827098   -2.6827098   -2.0089105  0.035156499   -2.6827098   0.67379926   421013 
 3778000    0.6087773   -2.6841613   -2.6841613   -2.0085782  0.035099987   -2.6841613   0.67558313   421013 
 3779000   0.60767563   -2.6831319   -2.6831319   -2.0087714  0.037718044   -2.6831319   0.67436056   421013 
 3780000   0.60787113   -2.6829661   -2.6829661   -2.0083886  0.035403075   -2.6829661   0.67457751   421013 
 3781000   0.60804468   -2.6830289   -2.6830289   -2.0082588   0.03548058   -2.6830289    0.6747701   421013 
 3782000   0.60628822   -2.6811766   -2.6811766   -2.0083557  0.033262747   -2.6811766    0.6728209   421013 
 3783000   0.60800441   -2.6835635   -2.6835635   -2.0088381  0.037991309   -2.6835635   0.67472542   421013 
 3784000   0.60747062    -2.683088    -2.683088   -2.0089549  0.034030139    -2.683088   0.67413306   421013 
 3785000   0.60683382   -2.6828281   -2.6828281   -2.0094017  0.036833358   -2.6828281   0.67342637   421013 
 3786000   0.60799611    -2.684223    -2.684223   -2.0095068  0.042508184    -2.684223   0.67471621   421013 
 3787000   0.60814856   -2.6841605   -2.6841605   -2.0092752  0.041209726   -2.6841605   0.67488539   421013 
 3788000   0.60691596   -2.6829656   -2.6829656   -2.0094481  0.037836261   -2.6829656   0.67351753   421013 
 3789000   0.60714967   -2.6830455   -2.6830455   -2.0092686  0.033059281   -2.6830455   0.67377688   421013 
 3790000    0.6069756   -2.6836104   -2.6836104   -2.0100266  0.040301392   -2.6836104    0.6735837   421013 
 3791000   0.60816354   -2.6850394   -2.6850394   -2.0101374   0.03355625   -2.6850394   0.67490201   421013 
 3792000   0.60739685   -2.6838999   -2.6838999   -2.0098487  0.045367732   -2.6838999   0.67405118   421013 
 3793000   0.60852134   -2.6848247   -2.6848247   -2.0095256  0.034800807   -2.6848247   0.67529907   421013 
 3794000   0.60825658   -2.6840815   -2.6840815   -2.0090762  0.037437409   -2.6840815   0.67500527   421013 
 3795000   0.60784239   -2.6829288   -2.6829288   -2.0083832  0.029218042   -2.6829288   0.67454562   421013 
 3796000    0.6076699   -2.6830027   -2.6830027   -2.0086485  0.043524736   -2.6830027    0.6743542   421013 
 3797000   0.60977465   -2.6857409   -2.6857409    -2.009051  0.030518204   -2.6857409   0.67668992   421013 
 3798000    0.6073296   -2.6832904   -2.6832904   -2.0093139  0.032820933   -2.6832904   0.67397656   421013 
 3799000   0.60735556   -2.6834405   -2.6834405   -2.0094352  0.032652995   -2.6834405   0.67400537   421013 
 3800000    0.6072118   -2.6833716   -2.6833716   -2.0095257  0.030769866   -2.6833716   0.67384582   421013 
 3801000   0.60736357   -2.6835989   -2.6835989   -2.0095847  0.032842605   -2.6835989   0.67401425   421013 
 3802000   0.60683727   -2.6827425   -2.6827425   -2.0093123  0.031306555   -2.6827425   0.67343019   421013 
 3803000    0.6076452   -2.6837243   -2.6837243   -2.0093975  0.045865923   -2.6837243   0.67432678   421013 
 3804000   0.60717774   -2.6835558   -2.6835558   -2.0097478  0.031625862   -2.6835558   0.67380803   421013 
 3805000   0.60760066   -2.6837899   -2.6837899   -2.0095126  0.032812375   -2.6837899   0.67427736   421013 
 3806000   0.60806566   -2.6840362   -2.6840362   -2.0092429  0.043182678   -2.6840362   0.67479339   421013 
 3807000   0.60790148    -2.684209    -2.684209   -2.0095978   0.03866612    -2.684209   0.67461119   421013 
 3808000    0.6077625   -2.6846489   -2.6846489   -2.0101919  0.034234095   -2.6846489   0.67445696   421013 
 3809000   0.60774693   -2.6852463   -2.6852463   -2.0108066  0.046322964   -2.6852463   0.67443969   421013 
 3810000   0.60843288   -2.6856996   -2.6856996   -2.0104987  0.038887914   -2.6856996   0.67520091   421013 
 3811000   0.60779814   -2.6851271   -2.6851271   -2.0106306  0.037789302   -2.6851271   0.67449651   421013 
 3812000   0.60839062   -2.6850954   -2.6850954   -2.0099414  0.031597675   -2.6850954   0.67515401   421013 
 3813000   0.60843788   -2.6856806   -2.6856806   -2.0104741  0.030683538   -2.6856806   0.67520646   421013 
 3814000    0.6077458   -2.6849067   -2.6849067   -2.0104683  0.036526883   -2.6849067   0.67443843   421013 
 3815000   0.60579684   -2.6829437   -2.6829437   -2.0106681  0.029958312   -2.6829437   0.67227559   421013 
 3816000   0.60683057     -2.68361     -2.68361   -2.0101872  0.033287665     -2.68361   0.67342277   421013 
 3817000   0.60718797   -2.6840922   -2.6840922   -2.0102728  0.030964365   -2.6840922   0.67381939   421013 
 3818000   0.60541954   -2.6821134   -2.6821134   -2.0102565  0.040155094   -2.6821134   0.67185689   421013 
 3819000   0.60556308   -2.6824534   -2.6824534   -2.0104372  0.033387425   -2.6824534   0.67201618   421013 
 3820000   0.60708593   -2.6839383   -2.6839383   -2.0102321  0.040005108   -2.6839383   0.67370614   421013 
 3821000   0.60681805   -2.6843952   -2.6843952   -2.0109863  0.036771738   -2.6843952   0.67340886   421013 
 3822000   0.60652808   -2.6840431   -2.6840431   -2.0109561  0.034463362   -2.6840431   0.67308707   421013 
 3823000   0.60617692   -2.6843355   -2.6843355   -2.0116381   0.03711607   -2.6843355   0.67269739   421013 
 3824000   0.60566556   -2.6838397   -2.6838397   -2.0117098  0.042701783   -2.6838397   0.67212991   421013 
 3825000   0.60728934   -2.6860477   -2.6860477   -2.0121158  0.032977469   -2.6860477   0.67393188   421013 
 3826000   0.60754568   -2.6865052   -2.6865052   -2.0122889  0.037771223   -2.6865052   0.67421635   421013 
 3827000   0.60774076   -2.6869174   -2.6869174   -2.0124846  0.044146224   -2.6869174   0.67443283   421013 
 3828000   0.60758773   -2.6870007   -2.6870007   -2.0127377  0.037097428   -2.6870007   0.67426301   421013 
 3829000   0.60661656   -2.6858402   -2.6858402   -2.0126549   0.03836411   -2.6858402   0.67318527   421013 
 3830000   0.60755017   -2.6863137   -2.6863137   -2.0120923  0.042380954   -2.6863137   0.67422133   421013 
 3831000   0.60660678   -2.6847726   -2.6847726   -2.0115982   0.03772503   -2.6847726   0.67317441   421013 
 3832000   0.60761177   -2.6861811   -2.6861811   -2.0118914  0.041730864   -2.6861811   0.67428969   421013 
 3833000   0.60879779   -2.6876012   -2.6876012   -2.0119953  0.036394337   -2.6876012   0.67560587   421013 
 3834000   0.60657209   -2.6856134   -2.6856134   -2.0124774  0.041676757   -2.6856134   0.67313592   421013 
 3835000   0.60758523   -2.6868445   -2.6868445   -2.0125842  0.037216428   -2.6868445   0.67426024   421013 
 3836000   0.60822165   -2.6877186   -2.6877186   -2.0127521  0.032136736   -2.6877186    0.6749665   421013 
 3837000   0.60846021   -2.6871714   -2.6871714   -2.0119402  0.044964868   -2.6871714   0.67523124   421013 
 3838000   0.60696469    -2.685815    -2.685815   -2.0122434  0.038765852    -2.685815    0.6735716   421013 
 3839000   0.60780011   -2.6860828   -2.6860828   -2.0115841  0.037418192   -2.6860828    0.6744987   421013 
 3840000   0.60689065    -2.684285    -2.684285   -2.0107955  0.039550282    -2.684285   0.67348944   421013 
 3841000   0.60703249   -2.6841828   -2.6841828   -2.0105359  0.027486841   -2.6841828   0.67364684   421013 
 3842000   0.60673237   -2.6847631   -2.6847631   -2.0114493  0.033061089   -2.6847631   0.67331379   421013 
 3843000    0.6053383   -2.6829292   -2.6829292   -2.0111624  0.036174747   -2.6829292   0.67176674   421013 
 3844000   0.60543907   -2.6823115   -2.6823115   -2.0104329  0.044399243   -2.6823115   0.67187857   421013 
 3845000   0.60616219   -2.6829032   -2.6829032   -2.0102222  0.044436568   -2.6829032   0.67268103   421013 
 3846000   0.60715532   -2.6844673   -2.6844673   -2.0106841  0.024152844   -2.6844673   0.67378315   421013 
 3847000   0.60658789   -2.6833987   -2.6833987   -2.0102452  0.034061061   -2.6833987   0.67315346   421013 
 3848000   0.60683005   -2.6841072   -2.6841072   -2.0106851  0.023007979   -2.6841072   0.67342218   421013 
 3849000   0.60784078   -2.6851211   -2.6851211   -2.0105773   0.03709741   -2.6851211   0.67454384   421013 
 3850000   0.60703196    -2.684487    -2.684487   -2.0108408  0.026568647    -2.684487   0.67364626   421013 
 3851000   0.60788453   -2.6851186   -2.6851186   -2.0105262  0.042059613   -2.6851186   0.67459238   421013 
 3852000   0.60832539   -2.6853937   -2.6853937   -2.0103121  0.030086352   -2.6853937   0.67508162   421013 
 3853000   0.60849692   -2.6859069   -2.6859069   -2.0106349  0.044556479   -2.6859069   0.67527198   421013 
 3854000    0.6080431   -2.6849502   -2.6849502   -2.0101819  0.034345747   -2.6849502   0.67476835   421013 
 3855000   0.60631687   -2.6837873   -2.6837873   -2.0109346  0.034048924   -2.6837873   0.67285269   421013 
 3856000   0.60662921   -2.6837743   -2.6837743    -2.010575  0.048167698   -2.6837743    0.6731993   421013 
 3857000   0.60908011   -2.6866289   -2.6866289   -2.0107098  0.030145185   -2.6866289   0.67591917   421013 
 3858000   0.60767822   -2.6853504   -2.6853504    -2.010987   0.04332723   -2.6853504   0.67436344   421013 
 3859000   0.60797868   -2.6859146   -2.6859146   -2.0112177  0.048079815   -2.6859146   0.67469687   421013 
 3860000   0.60638853   -2.6845144   -2.6845144   -2.0115821  0.032070887   -2.6845144   0.67293221   421013 
 3861000   0.60725032   -2.6848655   -2.6848655   -2.0109769  0.034526214   -2.6848655   0.67388857   421013 
 3862000   0.60676174   -2.6845783   -2.6845783   -2.0112319   0.03647453   -2.6845783   0.67334638   421013 
 3863000   0.60736907    -2.685233    -2.685233   -2.0112126  0.043769193    -2.685233   0.67402035   421013 
 3864000   0.60652087    -2.683576    -2.683576   -2.0104969  0.045114928    -2.683576   0.67307908   421013 
 3865000   0.60746836   -2.6846891   -2.6846891   -2.0105585  0.040658488   -2.6846891   0.67413054   421013 
 3866000   0.60792509   -2.6857727   -2.6857727   -2.0111353   0.03142159   -2.6857727   0.67463739   421013 
 3867000   0.60686871   -2.6848549   -2.6848549   -2.0113899   0.04334107   -2.6848549   0.67346509   421013 
 3868000    0.6074127   -2.6850896   -2.6850896   -2.0110208  0.042772944   -2.6850896   0.67406877   421013 
 3869000   0.60746658    -2.685334    -2.685334   -2.0112054  0.039235915    -2.685334   0.67412857   421013 
 3870000   0.60794943   -2.6860059   -2.6860059   -2.0113415  0.033700856   -2.6860059    0.6746644   421013 
 3871000   0.60739574   -2.6844886   -2.6844886   -2.0104387  0.035552737   -2.6844886   0.67404996   421013 
 3872000   0.60622076   -2.6836853   -2.6836853   -2.0109392  0.035883412   -2.6836853   0.67274604   421013 
 3873000   0.60694755   -2.6841361   -2.6841361   -2.0105835  0.040396124   -2.6841361   0.67355258   421013 
 3874000   0.60771721   -2.6846198   -2.6846198    -2.010213  0.043678942   -2.6846198    0.6744067   421013 
 3875000   0.60677025   -2.6839383   -2.6839383   -2.0105825  0.033462672   -2.6839383   0.67335583   421013 
 3876000   0.60679481   -2.6838659   -2.6838659   -2.0104828  0.047969914   -2.6838659   0.67338308   421013 
 3877000   0.60839234   -2.6860613   -2.6860613   -2.0109054  0.038906366   -2.6860613   0.67515592   421013 
 3878000   0.60692035   -2.6843194   -2.6843194    -2.010797  0.040373649   -2.6843194    0.6735224   421013 
 3879000   0.60810849   -2.6857431   -2.6857431   -2.0109021  0.037999194   -2.6857431   0.67484092   421013 
 3880000   0.60612475   -2.6830336   -2.6830336   -2.0103942  0.030529446   -2.6830336   0.67263949   421013 
 3881000   0.60658134   -2.6841333   -2.6841333   -2.0109871  0.034118334   -2.6841333   0.67314618   421013 
 3882000   0.60698717    -2.684901    -2.684901   -2.0113044  0.039737137    -2.684901   0.67359655   421013 
 3883000    0.6073414   -2.6850141   -2.6850141   -2.0110245  0.040491721   -2.6850141   0.67398965   421013 
 3884000   0.60676238   -2.6843022   -2.6843022   -2.0109551  0.031741905   -2.6843022   0.67334709   421013 
 3885000   0.60813084   -2.6856537   -2.6856537    -2.010788   0.03934143   -2.6856537   0.67486572   421013 
 3886000   0.60695715   -2.6848838   -2.6848838   -2.0113205  0.039870744   -2.6848838   0.67356324   421013 
 3887000   0.60636218   -2.6838426   -2.6838426   -2.0109396  0.039303166   -2.6838426   0.67290298   421013 
 3888000     0.608574   -2.6857396   -2.6857396   -2.0103821  0.032657477   -2.6857396   0.67535752   421013 
 3889000   0.60761031   -2.6853883   -2.6853883   -2.0111002  0.034799482   -2.6853883   0.67428807   421013 
 3890000   0.60737159     -2.68496     -2.68496   -2.0109368  0.036757807     -2.68496   0.67402316   421013 
 3891000   0.60741292   -2.6851291   -2.6851291   -2.0110601   0.04509156   -2.6851291   0.67406902   421013 
 3892000   0.60797911   -2.6858914   -2.6858914   -2.0111941   0.04778435   -2.6858914   0.67469734   421013 
 3893000    0.6082832   -2.6864132   -2.6864132   -2.0113784  0.035141509   -2.6864132    0.6750348   421013 
 3894000   0.60753268   -2.6852406   -2.6852406   -2.0110387  0.040676224   -2.6852406   0.67420193   421013 
 3895000   0.60723444   -2.6851301   -2.6851301   -2.0112591  0.040865039   -2.6851301   0.67387096   421013 
 3896000   0.60689649    -2.685343    -2.685343   -2.0118471  0.038090102    -2.685343   0.67349591   421013 
 3897000   0.60732305   -2.6854941   -2.6854941   -2.0115248  0.038408576   -2.6854941   0.67396929   421013 
 3898000   0.60799354   -2.6859335   -2.6859335   -2.0112201  0.034811028   -2.6859335   0.67471335   421013 
 3899000   0.60756014   -2.6860969   -2.6860969   -2.0118645  0.038340504   -2.6860969   0.67423239   421013 
 3900000    0.6073802   -2.6857058   -2.6857058   -2.0116731  0.032020065   -2.6857058    0.6740327   421013 
 3901000    0.6074326   -2.6849934   -2.6849934   -2.0109025  0.032900216   -2.6849934   0.67409086   421013 
 3902000   0.60700409   -2.6842098   -2.6842098   -2.0105945  0.032348215   -2.6842098   0.67361532   421013 
 3903000    0.6067804   -2.6829531   -2.6829531    -2.009586  0.040461523   -2.6829531   0.67336708   421013 
 3904000   0.60862968   -2.6847348   -2.6847348   -2.0093155  0.038436977   -2.6847348    0.6754193   421013 
 3905000   0.60779641   -2.6843254   -2.6843254   -2.0098308  0.038740258   -2.6843254   0.67449459   421013 
 3906000   0.60728441   -2.6839597   -2.6839597   -2.0100333  0.033209768   -2.6839597    0.6739264   421013 
 3907000   0.60636646   -2.6828202   -2.6828202   -2.0099125  0.039709516   -2.6828202   0.67290773   421013 
 3908000   0.60764913   -2.6845186   -2.6845186   -2.0101874  0.034564254   -2.6845186   0.67433115   421013 
 3909000   0.60853815   -2.6847754   -2.6847754   -2.0094576  0.038051885   -2.6847754   0.67531773   421013 
 3910000   0.60831932   -2.6848593   -2.6848593   -2.0097844  0.036975991   -2.6848593   0.67507489   421013 
 3911000   0.60800801   -2.6851009   -2.6851009   -2.0103715  0.035958429   -2.6851009   0.67472942   421013 
 3912000   0.60724811   -2.6847146   -2.6847146   -2.0108285  0.042156875   -2.6847146   0.67388612   421013 
 3913000   0.60684776   -2.6845968   -2.6845968   -2.0111549  0.037986398   -2.6845968   0.67344184   421013 
 3914000   0.60762553   -2.6850201   -2.6850201   -2.0107151  0.033586866   -2.6850201   0.67430496   421013 
 3915000    0.6066387   -2.6839357   -2.6839357   -2.0107258  0.046730662   -2.6839357   0.67320983   421013 
 3916000   0.60821821   -2.6851051   -2.6851051   -2.0101424  0.034552083   -2.6851051   0.67496268   421013 
 3917000   0.60806264   -2.6849641   -2.6849641   -2.0101741  0.050530346   -2.6849641   0.67479004   421013 
 3918000   0.60795555   -2.6854437   -2.6854437   -2.0107725  0.033202989   -2.6854437   0.67467119   421013 
 3919000   0.60880718   -2.6866679   -2.6866679   -2.0110516  0.029874031   -2.6866679   0.67561629   421013 
 3920000   0.60818275   -2.6859283   -2.6859283    -2.011005  0.032324099   -2.6859283   0.67492333   421013 
 3921000   0.60834707    -2.685265    -2.685265   -2.0101593  0.029073948    -2.685265   0.67510568   421013 
 3922000   0.60820128   -2.6845766   -2.6845766   -2.0096327  0.033161804   -2.6845766   0.67494389   421013 
 3923000   0.60865943   -2.6853509   -2.6853509   -2.0098985   0.03364044   -2.6853509   0.67545232   421013 
 3924000   0.60752393   -2.6841972   -2.6841972    -2.010005  0.034547099   -2.6841972   0.67419221   421013 
 3925000    0.6078042   -2.6843769   -2.6843769   -2.0098736   0.03939089   -2.6843769   0.67450324   421013 
 3926000   0.60756465    -2.683956    -2.683956   -2.0097186  0.036090367    -2.683956    0.6742374   421013 
 3927000   0.60800018   -2.6849164   -2.6849164   -2.0101957  0.036562992   -2.6849164   0.67472073   421013 
 3928000   0.60808468   -2.6845808   -2.6845808   -2.0097663  0.035218992   -2.6845808   0.67481449   421013 
 3929000   0.60710939   -2.6836558   -2.6836558   -2.0099237  0.032176989   -2.6836558   0.67373218   421013 
 3930000   0.60804455   -2.6853285   -2.6853285   -2.0105586  0.032713947   -2.6853285   0.67476996   421013 
 3931000   0.60784178   -2.6847624   -2.6847624   -2.0102174  0.038177022   -2.6847624   0.67454494   421013 
 3932000   0.60701535   -2.6840347   -2.6840347   -2.0104069  0.032520712   -2.6840347   0.67362782   421013 
 3933000   0.60748041   -2.6843509   -2.6843509    -2.010207  0.037828287   -2.6843509   0.67414392   421013 
 3934000   0.60598995   -2.6838681   -2.6838681   -2.0113782   0.04012582   -2.6838681    0.6724899   421013 
 3935000   0.60702612    -2.684115    -2.684115   -2.0104753  0.032649295    -2.684115   0.67363977   421013 
 3936000   0.60604379   -2.6832062   -2.6832062   -2.0106566  0.034625952   -2.6832062   0.67254965   421013 
 3937000   0.60777635   -2.6858254   -2.6858254    -2.011353  0.033533949   -2.6858254   0.67447233   421013 
 3938000   0.60641145   -2.6841323   -2.6841323   -2.0111746  0.029927545   -2.6841323   0.67295765   421013 
 3939000   0.60645795   -2.6846162   -2.6846162    -2.011607   0.03375444   -2.6846162   0.67300926   421013 
 3940000    0.6079507   -2.6857245   -2.6857245   -2.0110587  0.038163495   -2.6857245   0.67466581   421013 
 3941000   0.60750575   -2.6854685   -2.6854685   -2.0112964  0.036076297   -2.6854685   0.67417203   421013 
 3942000   0.60909237   -2.6870392   -2.6870392   -2.0111065  0.026057767   -2.6870392   0.67593277   421013 
 3943000   0.60773204   -2.6855725   -2.6855725   -2.0111493  0.040255055   -2.6855725   0.67442316   421013 
 3944000   0.60744366   -2.6852939   -2.6852939   -2.0111907  0.039163687   -2.6852939   0.67410313   421013 
 3945000    0.6066529   -2.6855124   -2.6855124   -2.0122868  0.033509303   -2.6855124   0.67322559   421013 
 3946000   0.60707002   -2.6856811   -2.6856811   -2.0119926  0.043295564   -2.6856811   0.67368849   421013 
 3947000   0.60734928   -2.6864963   -2.6864963   -2.0124979  0.027885743   -2.6864963    0.6739984   421013 
 3948000   0.60646931   -2.6853994   -2.6853994   -2.0123775  0.036896297   -2.6853994   0.67302186   421013 
 3949000   0.60758147    -2.686999    -2.686999   -2.0127429  0.042890332    -2.686999   0.67425606   421013 
 3950000   0.60813253   -2.6872073   -2.6872073   -2.0123397   0.04103891   -2.6872073   0.67486759   421013 
 3951000    0.6080222   -2.6869313   -2.6869313   -2.0121862  0.045859897   -2.6869313   0.67474516   421013 
 3952000   0.60776296   -2.6861639   -2.6861639   -2.0117065  0.042688102   -2.6861639   0.67445747   421013 
 3953000   0.60840453   -2.6864264   -2.6864264    -2.011257  0.034907389   -2.6864264   0.67516945   421013 
 3954000   0.60789595   -2.6855542   -2.6855542   -2.0109491  0.034564838   -2.6855542   0.67460505   421013 
 3955000   0.60857183   -2.6863201   -2.6863201    -2.010965  0.030047285   -2.6863201   0.67535511   421013 
 3956000    0.6077567   -2.6851555   -2.6851555    -2.010705  0.032128681   -2.6851555   0.67445053   421013 
 3957000   0.60711306   -2.6847348   -2.6847348   -2.0109986  0.034727751   -2.6847348   0.67373625   421013 
 3958000   0.60777536    -2.684552    -2.684552   -2.0100808  0.032510319    -2.684552   0.67447123   421013 
 3959000   0.60740828   -2.6851965   -2.6851965   -2.0111326  0.038767296   -2.6851965   0.67406387   421013 
 3960000   0.60790279   -2.6851116   -2.6851116    -2.010499  0.028009795   -2.6851116   0.67461265   421013 
 3961000   0.60557457    -2.682875    -2.682875    -2.010846  0.045180331    -2.682875   0.67202893   421013 
 3962000   0.60590834   -2.6833852   -2.6833852   -2.0109859  0.028116196   -2.6833852   0.67239933   421013 
 3963000    0.6064017   -2.6837423   -2.6837423   -2.0107955  0.035558736   -2.6837423   0.67294683   421013 
 3964000   0.60659997   -2.6840437   -2.6840437   -2.0108768  0.045080745   -2.6840437   0.67316686   421013 
 3965000   0.60694368   -2.6846704   -2.6846704   -2.0111221  0.039708401   -2.6846704   0.67354828   421013 
 3966000    0.6070984    -2.684117    -2.684117   -2.0103971  0.039163933    -2.684117   0.67371999   421013 
 3967000   0.60809094   -2.6857064   -2.6857064    -2.010885  0.032631831   -2.6857064   0.67482145   421013 
 3968000     0.608037   -2.6853321   -2.6853321   -2.0105705  0.043166531   -2.6853321   0.67476158   421013 
 3969000   0.60815983   -2.6857337   -2.6857337   -2.0108359  0.035292719   -2.6857337    0.6748979   421013 
 3970000   0.60839348   -2.6866771   -2.6866771   -2.0115199  0.023576393   -2.6866771   0.67515719   421013 
 3971000   0.60745966   -2.6849032   -2.6849032   -2.0107824  0.040898899   -2.6849032   0.67412089   421013 
 3972000   0.60874799   -2.6865932   -2.6865932   -2.0110427  0.035894429   -2.6865932   0.67555059   421013 
 3973000   0.60779401   -2.6855641   -2.6855641   -2.0110722  0.033054759   -2.6855641   0.67449193   421013 
 3974000   0.60737168   -2.6847583   -2.6847583    -2.010735  0.038961364   -2.6847583   0.67402325   421013 
 3975000    0.6083294    -2.685173    -2.685173    -2.010087  0.041180642    -2.685173   0.67508607   421013 
 3976000   0.60901312   -2.6855314   -2.6855314   -2.0096866  0.042721501   -2.6855314   0.67584483   421013 
 3977000   0.60776059   -2.6848641   -2.6848641   -2.0104093  0.030513279   -2.6848641   0.67445484   421013 
 3978000   0.60860123   -2.6856967   -2.6856967   -2.0103089  0.039350025   -2.6856967   0.67538773   421013 
 3979000    0.6080636     -2.68539     -2.68539   -2.0105989  0.039254735     -2.68539    0.6747911   421013 
 3980000   0.60784937   -2.6838003   -2.6838003   -2.0092469  0.035688482   -2.6838003   0.67455336   421013 
 3981000   0.60814315   -2.6838044   -2.6838044    -2.008925  0.037871306   -2.6838044   0.67487938   421013 
 3982000   0.60779643   -2.6843877   -2.6843877   -2.0098931    0.0328881   -2.6843877   0.67449462   421013 
 3983000   0.60659109   -2.6830834   -2.6830834   -2.0099264  0.035331033   -2.6830834   0.67315701   421013 
 3984000   0.60815093   -2.6842003   -2.6842003   -2.0093122  0.030315045   -2.6842003   0.67488802   421013 
 3985000   0.60695621   -2.6834741   -2.6834741   -2.0099119  0.032270523   -2.6834741   0.67356219   421013 
 3986000   0.60713482   -2.6842635   -2.6842635   -2.0105031  0.036753834   -2.6842635    0.6737604   421013 
 3987000   0.60878229   -2.6854079   -2.6854079   -2.0098193  0.040324796   -2.6854079   0.67558866   421013 
 3988000   0.60721718   -2.6842061   -2.6842061   -2.0103543  0.035880595   -2.6842061   0.67385179   421013 
 3989000   0.60845464   -2.6852214   -2.6852214   -2.0099964  0.039614398   -2.6852214   0.67522506   421013 
 3990000   0.60807961   -2.6844584   -2.6844584   -2.0096495  0.036812312   -2.6844584   0.67480887   421013 
 3991000   0.60795692     -2.68543     -2.68543   -2.0107573  0.036843505     -2.68543   0.67467272   421013 
 3992000   0.60666992   -2.6839222   -2.6839222   -2.0106777  0.047934615   -2.6839222   0.67324448   421013 
 3993000   0.60711335   -2.6842337   -2.6842337   -2.0104971  0.036303266   -2.6842337   0.67373658   421013 
 3994000   0.60701048   -2.6847404   -2.6847404    -2.011118   0.05028793   -2.6847404   0.67362242   421013 
 3995000   0.60853596   -2.6866287   -2.6866287   -2.0113134  0.027039906   -2.6866287    0.6753153   421013 
 3996000   0.60641459   -2.6845036   -2.6845036   -2.0115425  0.034685134   -2.6845036   0.67296113   421013 
 3997000   0.60710543   -2.6849279   -2.6849279   -2.0112001  0.041846385   -2.6849279   0.67372778   421013 
 3998000   0.60754892   -2.6864533   -2.6864533   -2.0122333  0.031847791   -2.6864533   0.67421994   421013 
 3999000   0.60674423    -2.685671    -2.685671    -2.012344  0.035788093    -2.685671   0.67332695   421013 
 4000000   0.60706317   -2.6856184   -2.6856184   -2.0119375  0.043984064   -2.6856184   0.67368089   421013 
 4001000   0.60677112   -2.6851763   -2.6851763   -2.0118195  0.029889361   -2.6851763   0.67335679   421013 
 4002000   0.60777992   -2.6853895   -2.6853895   -2.0109132  0.039086223   -2.6853895    0.6744763   421013 
 4003000   0.60699164   -2.6848177   -2.6848177   -2.0112162  0.043383649   -2.6848177   0.67360151   421013 
 4004000    0.6077463    -2.685469    -2.685469   -2.0110301  0.038472307    -2.685469   0.67443898   421013 
 4005000    0.6076249   -2.6846495   -2.6846495   -2.0103453  0.033625484   -2.6846495   0.67430426   421013 
 4006000    0.6064803   -2.6848828   -2.6848828   -2.0118488  0.042766821   -2.6848828   0.67303406   421013 
 4007000   0.60611699   -2.6840794   -2.6840794   -2.0114485  0.046182439   -2.6840794   0.67263088   421013 
 4008000   0.60779454   -2.6854473   -2.6854473   -2.0109548  0.028677611   -2.6854473   0.67449251   421013 
 4009000   0.60882755   -2.6867406   -2.6867406   -2.0111018   0.04200246   -2.6867406   0.67563889   421013 
 4010000   0.60746033    -2.684627    -2.684627   -2.0105054   0.03840777    -2.684627   0.67412163   421013 
 4011000   0.60735372   -2.6848292   -2.6848292   -2.0108259  0.044003647   -2.6848292   0.67400333   421013 
 4012000    0.6074142   -2.6850156   -2.6850156   -2.0109452  0.041057221   -2.6850156   0.67407044   421013 
 4013000   0.60736399   -2.6847844   -2.6847844   -2.0107697  0.033452194   -2.6847844   0.67401472   421013 
 4014000   0.60747923   -2.6845798   -2.6845798   -2.0104372  0.035415532   -2.6845798   0.67414261   421013 
 4015000   0.60619479   -2.6826921   -2.6826921   -2.0099748  0.046184426   -2.6826921   0.67271722   421013 
 4016000   0.60903695   -2.6854649   -2.6854649   -2.0095936  0.031749034   -2.6854649   0.67587126   421013 
 4017000   0.60671215   -2.6838801   -2.6838801   -2.0105887  0.033666458   -2.6838801   0.67329135   421013 
 4018000    0.6072447   -2.6852728   -2.6852728   -2.0113905  0.028449152   -2.6852728   0.67388234   421013 
 4019000   0.60764934   -2.6848017   -2.6848017   -2.0104703  0.035912953   -2.6848017   0.67433139   421013 
 4020000   0.60704347    -2.684031    -2.684031    -2.010372  0.042706062    -2.684031   0.67365902   421013 
 4021000   0.60827321   -2.6852293   -2.6852293   -2.0102056  0.037617349   -2.6852293   0.67502371   421013 
 4022000   0.60903994   -2.6857989   -2.6857989   -2.0099243   0.02873818   -2.6857989   0.67587458   421013 
 4023000   0.60848479   -2.6847406   -2.6847406   -2.0094821  0.043537849   -2.6847406   0.67525851   421013 
 4024000   0.60778849   -2.6847823   -2.6847823   -2.0102965  0.032995488   -2.6847823   0.67448581   421013 
 4025000   0.60861227   -2.6859941   -2.6859941   -2.0105942  0.030838501   -2.6859941   0.67539999   421013 
 4026000   0.60591993   -2.6840068   -2.6840068   -2.0115946  0.043968099   -2.6840068   0.67241219   421013 
 4027000   0.60751401   -2.6851891   -2.6851891   -2.0110079  0.027900705   -2.6851891    0.6741812   421013 
 4028000   0.60804784   -2.6857985   -2.6857985   -2.0110249  0.036388649   -2.6857985   0.67477362   421013 
 4029000   0.60776131   -2.6858285   -2.6858285   -2.0113729  0.035485049   -2.6858285   0.67445565   421013 
 4030000   0.60723296   -2.6850706   -2.6850706   -2.0112012  0.043223276   -2.6850706   0.67386931   421013 
 4031000   0.60844555   -2.6859834   -2.6859834   -2.0107684  0.038871267   -2.6859834   0.67521497   421013 
 4032000   0.60799072   -2.6860147   -2.6860147   -2.0113044  0.041493454   -2.6860147   0.67471023   421013 
 4033000   0.60881553   -2.6868929   -2.6868929   -2.0112673  0.028470306   -2.6868929   0.67562555   421013 
 4034000   0.60875527   -2.6866799   -2.6866799   -2.0111213  0.039424016   -2.6866799   0.67555867   421013 
 4035000   0.61009847   -2.6876711   -2.6876711   -2.0106218  0.043584491   -2.6876711   0.67704927   421013 
 4036000   0.60854602   -2.6854899   -2.6854899   -2.0101634  0.040012306   -2.6854899   0.67532646   421013 
 4037000   0.60807766   -2.6850881   -2.6850881   -2.0102813  0.042908031   -2.6850881    0.6748067   421013 
 4038000   0.60792005   -2.6841948   -2.6841948    -2.009563  0.030943243   -2.6841948    0.6746318   421013 
 4039000   0.60711189   -2.6835359   -2.6835359   -2.0098009   0.03826984   -2.6835359   0.67373496   421013 
 4040000   0.60838945   -2.6852461   -2.6852461   -2.0100934  0.031725125   -2.6852461   0.67515271   421013 
 4041000   0.60752037   -2.6837683   -2.6837683     -2.00958  0.023158737   -2.6837683   0.67418826   421013 
 4042000   0.60679266   -2.6829366   -2.6829366   -2.0095559  0.029554992   -2.6829366   0.67338069   421013 
 4043000   0.60830686   -2.6847143   -2.6847143   -2.0096533  0.030120133   -2.6847143   0.67506106   421013 
 4044000   0.60687856   -2.6831935   -2.6831935   -2.0097175  0.026842586   -2.6831935   0.67347602   421013 
 4045000   0.60746353    -2.683326    -2.683326   -2.0092008  0.032637671    -2.683326   0.67412519   421013 
 4046000   0.60750601   -2.6837636   -2.6837636   -2.0095912   0.03528976   -2.6837636   0.67417233   421013 
 4047000   0.60786268   -2.6842548   -2.6842548   -2.0096867  0.043498365   -2.6842548   0.67456814   421013 
 4048000    0.6080884   -2.6846825   -2.6846825   -2.0098638  0.036000002   -2.6846825   0.67481863   421013 
 4049000   0.60815175   -2.6848757   -2.6848757   -2.0099868  0.033402658   -2.6848757   0.67488893   421013 
 4050000   0.60787264   -2.6848556   -2.6848556   -2.0102764  0.040818267   -2.6848556   0.67457919   421013 
 4051000   0.60730939   -2.6839304   -2.6839304   -2.0099762  0.044830944   -2.6839304   0.67395413   421013 
 4052000   0.60909073   -2.6860116   -2.6860116   -2.0100807  0.029532272   -2.6860116   0.67593095   421013 
 4053000   0.60971973   -2.6864068   -2.6864068   -2.0097778  0.042006045   -2.6864068   0.67662898   421013 
 4054000   0.60907145   -2.6859844   -2.6859844   -2.0100748  0.037346745   -2.6859844   0.67590955   421013 
 4055000   0.60921938   -2.6864527   -2.6864527    -2.010379  0.039513866   -2.6864527   0.67607371   421013 
 4056000   0.60788318   -2.6848389   -2.6848389    -2.010248  0.033875567   -2.6848389   0.67459088   421013 
 4057000   0.60687077   -2.6834257   -2.6834257   -2.0099584  0.035656117   -2.6834257   0.67346738   421013 
 4058000   0.60680945   -2.6836201   -2.6836201   -2.0102208   0.03709752   -2.6836201   0.67339933   421013 
 4059000   0.60805671   -2.6850571   -2.6850571   -2.0102737  0.033700525   -2.6850571   0.67478346   421013 
 4060000   0.60696859   -2.6846473   -2.6846473   -2.0110714  0.031415823   -2.6846473   0.67357593   421013 
 4061000   0.60740967   -2.6846011   -2.6846011   -2.0105357  0.037793041   -2.6846011   0.67406541   421013 
 4062000   0.60829005   -2.6850408   -2.6850408   -2.0099984  0.032669522   -2.6850408    0.6750424   421013 
 4063000   0.60763975   -2.6838457   -2.6838457   -2.0095249  0.031235622   -2.6838457   0.67432074   421013 
 4064000   0.60850795    -2.685562    -2.685562   -2.0102778  0.033480649    -2.685562   0.67528421   421013 
 4065000   0.60847304   -2.6849159   -2.6849159   -2.0096704  0.038651054   -2.6849159   0.67524547   421013 
 4066000   0.60984703   -2.6861791   -2.6861791   -2.0094089  0.039754775   -2.6861791   0.67677024   421013 
 4067000   0.60786639   -2.6849732   -2.6849732   -2.0104009  0.042802848   -2.6849732   0.67457225   421013 
 4068000   0.60890105   -2.6862148   -2.6862148   -2.0104943   0.04133566   -2.6862148   0.67572045   421013 
 4069000   0.60756592   -2.6853378   -2.6853378    -2.011099  0.032500941   -2.6853378   0.67423881   421013 
 4070000   0.60775534    -2.686667    -2.686667   -2.0122179  0.032788497    -2.686667   0.67444902   421013 
 4071000   0.60834857   -2.6869809   -2.6869809   -2.0118736  0.035254206   -2.6869809   0.67510735   421013 
 4072000   0.60708973   -2.6854326   -2.6854326   -2.0117222  0.036237686   -2.6854326   0.67371037   421013 
 4073000   0.60687694   -2.6854924   -2.6854924   -2.0120182  0.031873568   -2.6854924   0.67347422   421013 
 4074000   0.60645938   -2.6848155   -2.6848155   -2.0118047  0.035991356   -2.6848155   0.67301084   421013 
 4075000   0.60742323   -2.6859342   -2.6859342   -2.0118538  0.032972391   -2.6859342   0.67408046   421013 
 4076000   0.60713499   -2.6859964   -2.6859964   -2.0122358  0.040692261   -2.6859964   0.67376058   421013 
 4077000   0.60757204   -2.6865557   -2.6865557   -2.0123101  0.039838471   -2.6865557    0.6742456   421013 
 4078000   0.60885278   -2.6880818   -2.6880818   -2.0124149  0.031050445   -2.6880818   0.67566688   421013 
 4079000   0.60749479   -2.6856212   -2.6856212   -2.0114613  0.038366542   -2.6856212   0.67415987   421013 
 4080000   0.60782535   -2.6863721   -2.6863721   -2.0118454  0.032029406   -2.6863721   0.67452671   421013 
 4081000   0.60807761   -2.6869599   -2.6869599   -2.0121532    0.0350635   -2.6869599   0.67480665   421013 
 4082000   0.60659636    -2.684657    -2.684657   -2.0114941  0.036446501    -2.684657   0.67316285   421013 
 4083000   0.60743337   -2.6856517   -2.6856517     -2.01156  0.037168387   -2.6856517   0.67409172   421013 
 4084000   0.60723744   -2.6859818   -2.6859818   -2.0121075  0.031228646   -2.6859818   0.67387428   421013 
 4085000   0.60904632   -2.6869875   -2.6869875   -2.0111058  0.039719131   -2.6869875   0.67588167   421013 
 4086000    0.6075386   -2.6854147   -2.6854147   -2.0112062  0.041570914   -2.6854147   0.67420849   421013 
 4087000   0.60722873    -2.684966    -2.684966   -2.0111014   0.04032205    -2.684966   0.67386462   421013 
 4088000   0.60856386   -2.6862994   -2.6862994   -2.0109532  0.037537097   -2.6862994   0.67534626   421013 
 4089000   0.60756849   -2.6857765   -2.6857765   -2.0115349  0.037636003   -2.6857765   0.67424166   421013 
 4090000   0.60812198    -2.685942    -2.685942   -2.0110861  0.039641924    -2.685942   0.67485589   421013 
 4091000   0.60751453   -2.6850954   -2.6850954   -2.0109136  0.033509109   -2.6850954   0.67418178   421013 
 4092000   0.60821887   -2.6858342   -2.6858342   -2.0108708  0.049723033   -2.6858342   0.67496342   421013 
 4093000   0.60721734   -2.6852702   -2.6852702   -2.0114182  0.033152762   -2.6852702   0.67385198   421013 
 4094000   0.60781559   -2.6861367   -2.6861367   -2.0116208  0.038193853   -2.6861367   0.67451588   421013 
 4095000    0.6074329   -2.6857149   -2.6857149   -2.0116238   0.03907478   -2.6857149   0.67409119   421013 
 4096000   0.60632551   -2.6845624   -2.6845624   -2.0117001  0.034465699   -2.6845624   0.67286228   421013 
 4097000   0.60701266     -2.68466     -2.68466   -2.0110352    0.0313069     -2.68466   0.67362484   421013 
 4098000   0.60655387   -2.6839465   -2.6839465   -2.0108308  0.035691915   -2.6839465    0.6731157   421013 
 4099000   0.60769769   -2.6859737   -2.6859737   -2.0115887  0.027219969   -2.6859737   0.67438503   421013 
 4100000   0.60680952   -2.6844719   -2.6844719   -2.0110725  0.037426818   -2.6844719   0.67339941   421013 
 4101000   0.60690736   -2.6847569   -2.6847569   -2.0112489  0.040773656   -2.6847569   0.67350798   421013 
 4102000   0.60719041   -2.6856514   -2.6856514   -2.0118293  0.041746277   -2.6856514   0.67382209   421013 
 4103000   0.60742356   -2.6849467   -2.6849467   -2.0108659  0.037961487   -2.6849467   0.67408082   421013 
 4104000   0.60656609   -2.6847038   -2.6847038   -2.0115745  0.038063173   -2.6847038   0.67312926   421013 
 4105000   0.60802073   -2.6862226   -2.6862226   -2.0114791  0.033350891   -2.6862226   0.67474353   421013 
 4106000   0.60776989   -2.6865608   -2.6865608   -2.0120956  0.032497074   -2.6865608   0.67446516   421013 
 4107000   0.60754228   -2.6861091   -2.6861091   -2.0118965  0.037464462   -2.6861091   0.67421257   421013 
 4108000   0.60755421   -2.6862037   -2.6862037   -2.0119779  0.042724321   -2.6862037   0.67422581   421013 
 4109000   0.60741013   -2.6860528   -2.6860528   -2.0119869  0.047967569   -2.6860528   0.67406593   421013 
 4110000   0.60817485   -2.6867744   -2.6867744   -2.0118599  0.032751083   -2.6867744   0.67491457   421013 
 4111000   0.60802783   -2.6867528   -2.6867528   -2.0120014  0.034191851   -2.6867528   0.67475141   421013 
 4112000   0.60861818   -2.6875721   -2.6875721   -2.0121656  0.039836261   -2.6875721   0.67540655   421013 
 4113000   0.60712442   -2.6865091   -2.6865091   -2.0127603  0.039907535   -2.6865091   0.67374886   421013 
 4114000   0.60767063   -2.6864854   -2.6864854   -2.0121304  0.040511788   -2.6864854   0.67435501   421013 
 4115000   0.60766638   -2.6870477   -2.6870477   -2.0126974  0.042449639   -2.6870477    0.6743503   421013 
 4116000   0.60829102   -2.6875574   -2.6875574   -2.0125139  0.037228489   -2.6875574   0.67504348   421013 
 4117000   0.60779696    -2.687095    -2.687095   -2.0125998    0.0347876    -2.687095   0.67449521   421013 
 4118000   0.60905905   -2.6887465   -2.6887465   -2.0128507  0.038103813   -2.6887465   0.67589579   421013 
 4119000   0.60757848   -2.6875391   -2.6875391   -2.0132863  0.037222973   -2.6875391   0.67425275   421013 
 4120000   0.60831067   -2.6874261   -2.6874261   -2.0123608  0.039401995   -2.6874261   0.67506528   421013 
 4121000    0.6093754   -2.6886755   -2.6886755   -2.0124286  0.044688846   -2.6886755   0.67624686   421013 
 4122000    0.6069888   -2.6873156   -2.6873156   -2.0137173  0.041695525   -2.6873156   0.67359836   421013 
 4123000   0.60632255   -2.6860992   -2.6860992   -2.0132402  0.040002598   -2.6860992   0.67285899   421013 
 4124000   0.60734804   -2.6872137   -2.6872137   -2.0132166  0.039026234   -2.6872137   0.67399702   421013 
 4125000   0.60699509   -2.6858583   -2.6858583   -2.0122529  0.039768831   -2.6858583   0.67360534   421013 
 4126000   0.60837214   -2.6870198   -2.6870198   -2.0118863  0.033239565   -2.6870198    0.6751335   421013 
 4127000   0.60741758   -2.6865761   -2.6865761   -2.0125019  0.033455272   -2.6865761   0.67407419   421013 
 4128000   0.60748341   -2.6864341   -2.6864341   -2.0122868   0.02649185   -2.6864341   0.67414725   421013 
 4129000   0.60637098    -2.685615    -2.685615   -2.0127023  0.035393466    -2.685615   0.67291274   421013 
 4130000   0.60870084   -2.6880104   -2.6880104   -2.0125121  0.029436796   -2.6880104   0.67549827   421013 
 4131000    0.6078343   -2.6866292   -2.6866292   -2.0120926  0.034542378   -2.6866292   0.67453664   421013 
 4132000   0.60617666   -2.6858635   -2.6858635   -2.0131664   0.03373287   -2.6858635    0.6726971   421013 
 4133000   0.60788026   -2.6881078   -2.6881078   -2.0135201  0.031985459   -2.6881078   0.67458765   421013 
 4134000   0.60760209    -2.687866    -2.687866    -2.013587  0.032640384    -2.687866   0.67427895   421013 
 4135000   0.60646742   -2.6865329   -2.6865329   -2.0135131  0.038140629   -2.6865329   0.67301977   421013 
 4136000   0.60619401    -2.686222    -2.686222   -2.0135056  0.037693088    -2.686222   0.67271634   421013 
 4137000   0.60738717   -2.6878412   -2.6878412   -2.0138007  0.037280105   -2.6878412   0.67404044   421013 
 4138000   0.60732934   -2.6881817   -2.6881817   -2.0142054  0.033251029   -2.6881817   0.67397627   421013 
 4139000   0.60723881   -2.6879385   -2.6879385   -2.0140627  0.032599274   -2.6879385    0.6738758   421013 
 4140000   0.60644901    -2.687043    -2.687043   -2.0140437  0.046959994    -2.687043   0.67299934   421013 
 4141000   0.60762676   -2.6879921   -2.6879921   -2.0136858  0.036626355   -2.6879921   0.67430633   421013 
 4142000   0.60750289   -2.6874832   -2.6874832   -2.0133143  0.034260855   -2.6874832   0.67416887   421013 
 4143000   0.60611136   -2.6861602   -2.6861602   -2.0135355   0.03589617   -2.6861602   0.67262463   421013 
 4144000   0.60892624   -2.6884329   -2.6884329   -2.0126845   0.03773751   -2.6884329   0.67574841   421013 
 4145000   0.60882558   -2.6890082   -2.6890082   -2.0133715  0.055246683   -2.6890082    0.6756367   421013 
 4146000   0.60701989   -2.6869596   -2.6869596   -2.0133268  0.036395831   -2.6869596   0.67363286   421013 
 4147000   0.60823068   -2.6877276   -2.6877276   -2.0127511  0.032013589   -2.6877276   0.67497652   421013 
 4148000   0.60780304   -2.6877358   -2.6877358   -2.0132339  0.037137916   -2.6877358   0.67450195   421013 
 4149000   0.60846744   -2.6884276   -2.6884276   -2.0131883  0.042997059   -2.6884276   0.67523926   421013 
 4150000   0.60742346   -2.6878186   -2.6878186   -2.0137379  0.038554522   -2.6878186   0.67408072   421013 
 4151000   0.60821182   -2.6882206   -2.6882206    -2.013265  0.035892304   -2.6882206   0.67495559   421013 
 4152000   0.60715461    -2.687866    -2.687866   -2.0140837   0.03259675    -2.687866   0.67378236   421013 
 4153000    0.6076448   -2.6885567   -2.6885567   -2.0142304  0.031133721   -2.6885567   0.67432635   421013 
 4154000   0.60792571   -2.6890908   -2.6890908   -2.0144527  0.036596072   -2.6890908   0.67463808   421013 
 4155000   0.60803368   -2.6888404   -2.6888404   -2.0140825    0.0349229   -2.6888404    0.6747579   421013 
 4156000   0.60782381   -2.6884049   -2.6884049   -2.0138799  0.033920054   -2.6884049     0.674525   421013 
 4157000   0.60744032   -2.6879427   -2.6879427   -2.0138433  0.041024921   -2.6879427   0.67409942   421013 
 4158000    0.6086308   -2.6895119   -2.6895119   -2.0140914  0.038349872   -2.6895119   0.67542054   421013 
 4159000   0.60713924   -2.6879919   -2.6879919   -2.0142266   0.03861832   -2.6879919   0.67376531   421013 
 4160000   0.60734805   -2.6880912   -2.6880912   -2.0140942  0.038789573   -2.6880912   0.67399703   421013 
 4161000   0.60783548   -2.6881243   -2.6881243   -2.0135863  0.038158526   -2.6881243   0.67453795   421013 
 4162000   0.60725434   -2.6877821   -2.6877821   -2.0138891  0.031767585   -2.6877821   0.67389304   421013 
 4163000    0.6063562   -2.6866107   -2.6866107   -2.0137144  0.027253681   -2.6866107   0.67289634   421013 
 4164000   0.60705313    -2.686874    -2.686874   -2.0132042  0.041412391    -2.686874   0.67366974   421013 
 4165000   0.60723681   -2.6876473   -2.6876473   -2.0137737  0.036115478   -2.6876473   0.67387359   421013 
 4166000   0.60801631   -2.6880685   -2.6880685   -2.0133299  0.038031324   -2.6880685   0.67473862   421013 
 4167000   0.60675517   -2.6864905   -2.6864905   -2.0131514  0.038584244   -2.6864905   0.67333909   421013 
 4168000   0.60682845   -2.6859572   -2.6859572   -2.0125368  0.044642271   -2.6859572   0.67342042   421013 
 4169000   0.60804776   -2.6877861   -2.6877861   -2.0130125  0.042097092   -2.6877861   0.67477353   421013 
 4170000   0.60747145   -2.6875913   -2.6875913   -2.0134574  0.036783192   -2.6875913   0.67413397   421013 
 4171000   0.60738811   -2.6862834   -2.6862834   -2.0122419  0.041406691   -2.6862834   0.67404148   421013 
 4172000   0.60809621   -2.6870643   -2.6870643    -2.012237  0.030507468   -2.6870643   0.67482729   421013 
 4173000   0.60714346    -2.686208    -2.686208   -2.0124381  0.032037598    -2.686208   0.67376998   421013 
 4174000   0.60802589   -2.6869905   -2.6869905   -2.0122412  0.033767872   -2.6869905   0.67474925   421013 
 4175000    0.6076159   -2.6864314   -2.6864314   -2.0121371  0.037543697   -2.6864314   0.67429427   421013 
 4176000   0.60807692   -2.6870587   -2.6870587   -2.0122528   0.03905106   -2.6870587   0.67480589   421013 
 4177000   0.60827534   -2.6875546   -2.6875546   -2.0125285  0.040197029   -2.6875546   0.67502608   421013 
 4178000   0.60754948   -2.6870103   -2.6870103   -2.0127897  0.038079653   -2.6870103   0.67422057   421013 
 4179000   0.60844065   -2.6880237   -2.6880237   -2.0128142  0.039092524   -2.6880237   0.67520954   421013 
 4180000   0.60890472   -2.6883591   -2.6883591   -2.0126346   0.04006315   -2.6883591   0.67572453   421013 
 4181000   0.60776455   -2.6871658   -2.6871658   -2.0127065   0.03806936   -2.6871658   0.67445924   421013 
 4182000   0.60680785   -2.6859201   -2.6859201   -2.0125226  0.042616027   -2.6859201   0.67339755   421013 
 4183000   0.60776542   -2.6859764   -2.6859764   -2.0115162  0.046955882   -2.6859764   0.67446021   421013 
 4184000   0.60702592   -2.6855149   -2.6855149   -2.0118753   0.03879335   -2.6855149   0.67363955   421013 
 4185000   0.60817923   -2.6873823   -2.6873823   -2.0124629  0.033514461   -2.6873823   0.67491943   421013 
 4186000   0.60665902   -2.6854572   -2.6854572   -2.0122248  0.038668141   -2.6854572   0.67323239   421013 
 4187000   0.60806432   -2.6875346   -2.6875346   -2.0127427  0.030831796   -2.6875346    0.6747919   421013 
 4188000   0.60718184   -2.6871043   -2.6871043   -2.0132917  0.036948634   -2.6871043   0.67381258   421013 
 4189000   0.60750721   -2.6865723   -2.6865723   -2.0123987  0.038462971   -2.6865723   0.67417366   421013 
 4190000   0.60697271   -2.6869144   -2.6869144   -2.0133339  0.031619366   -2.6869144    0.6735805   421013 
 4191000   0.60760759   -2.6869263   -2.6869263   -2.0126412  0.042067375   -2.6869263   0.67428505   421013 
 4192000     0.607085   -2.6862448   -2.6862448   -2.0125397  0.023601028   -2.6862448   0.67370512   421013 
 4193000   0.60662998     -2.68576     -2.68576   -2.0125598  0.037367755     -2.68576   0.67320017   421013 
 4194000   0.60735216    -2.686065    -2.686065   -2.0120634  0.035026019    -2.686065   0.67400159   421013 
 4195000   0.60766277   -2.6864726   -2.6864726   -2.0121263  0.038139492   -2.6864726   0.67434629   421013 
 4196000   0.60759945   -2.6864472   -2.6864472   -2.0121712   0.03237742   -2.6864472   0.67427602   421013 
 4197000    0.6059562   -2.6853684   -2.6853684    -2.012916  0.035715899   -2.6853684   0.67245244   421013 
 4198000   0.60760331   -2.6864538   -2.6864538   -2.0121735  0.034384008   -2.6864538    0.6742803   421013 
 4199000   0.60664196    -2.685561    -2.685561   -2.0123475   0.04411546    -2.685561   0.67321345   421013 
 4200000   0.60750809   -2.6863201   -2.6863201   -2.0121454  0.033939827   -2.6863201   0.67417464   421013 
 4201000   0.60829946   -2.6872787   -2.6872787   -2.0122259  0.037554551   -2.6872787   0.67505284   421013 
 4202000   0.60736973   -2.6866803   -2.6866803   -2.0126592  0.033538836   -2.6866803   0.67402109   421013 
 4203000   0.60754909   -2.6862785   -2.6862785   -2.0120583  0.039341605   -2.6862785   0.67422014   421013 
 4204000   0.60933508   -2.6881227   -2.6881227   -2.0119206  0.033655764   -2.6881227   0.67620211   421013 
 4205000   0.60855109   -2.6873048   -2.6873048   -2.0119728  0.037580565   -2.6873048   0.67533209   421013 
 4206000   0.60872603   -2.6875929   -2.6875929   -2.0120666  0.031985306   -2.6875929   0.67552622   421013 
 4207000   0.60717745   -2.6861827   -2.6861827    -2.012375  0.035786533   -2.6861827   0.67380771   421013 
 4208000   0.60755123   -2.6863346   -2.6863346   -2.0121121  0.028883147   -2.6863346   0.67422251   421013 
 4209000   0.60768873   -2.6874634   -2.6874634   -2.0130883  0.029241143   -2.6874634    0.6743751   421013 
 4210000   0.60662404   -2.6865858   -2.6865858   -2.0133922   0.03315986   -2.6865858   0.67319357   421013 
 4211000   0.60637558   -2.6854276   -2.6854276   -2.0125098  0.040095104   -2.6854276   0.67291784   421013 
 4212000   0.60628148   -2.6850241   -2.6850241   -2.0122107  0.040545515   -2.6850241   0.67281342   421013 
 4213000   0.60862871   -2.6880947   -2.6880947   -2.0126765  0.032378364   -2.6880947   0.67541822   421013 
 4214000   0.60779803   -2.6870819   -2.6870819   -2.0125855  0.027444036   -2.6870819   0.67449639   421013 
 4215000   0.60791443   -2.6872174   -2.6872174   -2.0125919   0.03614834   -2.6872174   0.67462556   421013 
 4216000   0.60774516   -2.6864709   -2.6864709   -2.0120332  0.037777357   -2.6864709   0.67443772   421013 
 4217000   0.60869432    -2.687892    -2.687892   -2.0124009  0.038395489    -2.687892   0.67549104   421013 
 4218000   0.60837945   -2.6873351   -2.6873351   -2.0121935  0.045978814   -2.6873351   0.67514162   421013 
 4219000   0.60732488   -2.6858074   -2.6858074   -2.0118361  0.047913033   -2.6858074   0.67397131   421013 
 4220000   0.60881219   -2.6867782   -2.6867782   -2.0111563  0.039256276   -2.6867782   0.67562184   421013 
 4221000   0.60876264   -2.6874902   -2.6874902   -2.0119234  0.034469577   -2.6874902   0.67556686   421013 
 4222000     0.608033   -2.6871799   -2.6871799   -2.0124227  0.041669331   -2.6871799   0.67475715   421013 
 4223000   0.60832938   -2.6873675   -2.6873675   -2.0122814  0.029953269   -2.6873675   0.67508605   421013 
 4224000    0.6077898   -2.6865947   -2.6865947   -2.0121074   0.04682833   -2.6865947   0.67448726   421013 
 4225000   0.60949482   -2.6878181   -2.6878181   -2.0114387  0.044017136   -2.6878181   0.67637938   421013 
 4226000    0.6082258   -2.6862871   -2.6862871    -2.011316  0.035593342   -2.6862871   0.67497111   421013 
 4227000   0.60790483   -2.6868851   -2.6868851   -2.0122702  0.035918009   -2.6868851   0.67461491   421013 
 4228000   0.60712683   -2.6864573   -2.6864573   -2.0127058   0.03560016   -2.6864573   0.67375153   421013 
 4229000   0.60831289   -2.6874785   -2.6874785   -2.0124107  0.037027931   -2.6874785   0.67506775   421013 
 4230000   0.60773509   -2.6862446   -2.6862446    -2.011818  0.036321036   -2.6862446   0.67442654   421013 
 4231000   0.60664524   -2.6856123   -2.6856123   -2.0123952  0.035076161   -2.6856123   0.67321709   421013 
 4232000   0.60707935   -2.6862059   -2.6862059   -2.0125071  0.035992287   -2.6862059   0.67369885   421013 
 4233000    0.6068136   -2.6859926   -2.6859926   -2.0125887  0.034965038   -2.6859926   0.67340393   421013 
 4234000   0.60725113   -2.6859539   -2.6859539   -2.0120645  0.032749812   -2.6859539   0.67388947   421013 
 4235000   0.60859873   -2.6880794   -2.6880794   -2.0126945  0.032891359   -2.6880794   0.67538496   421013 
 4236000   0.60813122   -2.6874765   -2.6874765   -2.0126103  0.040603335   -2.6874765   0.67486614   421013 
 4237000   0.60824433   -2.6879081   -2.6879081   -2.0129164  0.036573652   -2.6879081   0.67499167   421013 
 4238000   0.60804206   -2.6875959   -2.6875959   -2.0128287  0.034965205   -2.6875959    0.6747672   421013 
 4239000   0.60761937   -2.6865537   -2.6865537   -2.0122556  0.042138347   -2.6865537   0.67429812   421013 
 4240000   0.60816115   -2.6871734   -2.6871734    -2.012274  0.036615586   -2.6871734   0.67489936   421013 
 4241000   0.60981979   -2.6883474   -2.6883474   -2.0116074  0.038435185   -2.6883474   0.67674002   421013 
 4242000   0.60808014   -2.6869952   -2.6869952   -2.0121857  0.038239123   -2.6869952   0.67480946   421013 
 4243000   0.60825765   -2.6880661   -2.6880661   -2.0130596  0.034220582   -2.6880661   0.67500644   421013 
 4244000   0.60811288   -2.6872504   -2.6872504   -2.0124046   0.03757227   -2.6872504   0.67484579   421013 
 4245000   0.60722912   -2.6866631   -2.6866631    -2.012798   0.03757374   -2.6866631   0.67386504   421013 
 4246000   0.60808844   -2.6879587   -2.6879587     -2.01314  0.039411825   -2.6879587   0.67481867   421013 
 4247000   0.60869355   -2.6889983   -2.6889983   -2.0135081  0.028669226   -2.6889983   0.67549019   421013 
 4248000   0.60830943    -2.688634    -2.688634     -2.01357  0.035145479    -2.688634   0.67506391   421013 
 4249000   0.60674784   -2.6870301   -2.6870301   -2.0136991  0.042489331   -2.6870301   0.67333096   421013 
 4250000   0.60846715   -2.6882628   -2.6882628   -2.0130238  0.030343795   -2.6882628   0.67523894   421013 
 4251000   0.60736827   -2.6871171   -2.6871171   -2.0130976  0.041586924   -2.6871171   0.67401947   421013 
 4252000   0.60831378   -2.6888869   -2.6888869   -2.0138181  0.036309548   -2.6888869   0.67506874   421013 
 4253000    0.6082164   -2.6886011   -2.6886011   -2.0136404  0.041566549   -2.6886011   0.67496067   421013 
 4254000   0.60695894   -2.6876356   -2.6876356   -2.0140704  0.041898186   -2.6876356   0.67356523   421013 
 4255000   0.60802725   -2.6884417   -2.6884417    -2.013691  0.034848117   -2.6884417   0.67475077   421013 
 4256000   0.60739597   -2.6873818   -2.6873818   -2.0133316  0.031294147   -2.6873818   0.67405021   421013 
 4257000   0.60754063   -2.6878543   -2.6878543   -2.0136436   0.04166754   -2.6878543   0.67421074   421013 
 4258000   0.60741676   -2.6872134   -2.6872134   -2.0131401  0.039781547   -2.6872134   0.67407328   421013 
 4259000   0.60844834   -2.6880484   -2.6880484   -2.0128303  0.045881005   -2.6880484   0.67521807   421013 
 4260000    0.6075636    -2.688405    -2.688405   -2.0141687  0.038671712    -2.688405   0.67423624   421013 
 4261000   0.60741463    -2.687648    -2.687648   -2.0135771  0.031562853    -2.687648   0.67407092   421013 
 4262000   0.60817433   -2.6881088   -2.6881088   -2.0131948  0.036609445   -2.6881088   0.67491398   421013 
 4263000   0.60750808   -2.6872475   -2.6872475   -2.0130729  0.034187194   -2.6872475   0.67417463   421013 
 4264000   0.60699795   -2.6871421   -2.6871421   -2.0135336   0.04139067   -2.6871421   0.67360851   421013 
 4265000   0.60607476    -2.686179    -2.686179    -2.013595  0.034333047    -2.686179   0.67258402   421013 
 4266000   0.60581784   -2.6866391   -2.6866391   -2.0143402  0.017803795   -2.6866391   0.67229889   421013 
 4267000    0.6061302   -2.6869522   -2.6869522   -2.0143067  0.030120285   -2.6869522   0.67264554   421013 
 4268000   0.60787713   -2.6882938   -2.6882938   -2.0137097  0.032808183   -2.6882938   0.67458417   421013 
 4269000   0.60809979   -2.6875757   -2.6875757   -2.0127445   0.04262017   -2.6875757   0.67483126   421013 
 4270000   0.60793891   -2.6878785   -2.6878785   -2.0132258  0.038568067   -2.6878785   0.67465273   421013 
 4271000   0.60805312   -2.6879055   -2.6879055    -2.013126  0.030440256   -2.6879055   0.67477948   421013 
 4272000   0.60858268   -2.6887935   -2.6887935   -2.0134264  0.047528534   -2.6887935   0.67536715   421013 
 4273000    0.6096498    -2.689892    -2.689892   -2.0133406  0.039169695    -2.689892   0.67655137   421013 
 4274000    0.6089873   -2.6892635   -2.6892635   -2.0134473  0.035242002   -2.6892635   0.67581617   421013 
 4275000   0.60782411   -2.6885249   -2.6885249   -2.0139995   0.04341799   -2.6885249   0.67452533   421013 
 4276000   0.60683037   -2.6881354   -2.6881354   -2.0147129  0.046682273   -2.6881354   0.67342254   421013 
 4277000   0.60798637   -2.6897933   -2.6897933    -2.015088  0.043498403   -2.6897933    0.6747054   421013 
 4278000   0.60827374   -2.6905895   -2.6905895   -2.0155652  0.034904298   -2.6905895    0.6750243   421013 
 4279000   0.60655798   -2.6887768   -2.6887768   -2.0156565  0.037877723   -2.6887768   0.67312026   421013 
 4280000   0.60759501   -2.6898506   -2.6898506   -2.0155795   0.03854542   -2.6898506   0.67427109   421013 
 4281000   0.60727547   -2.6892986   -2.6892986   -2.0153821  0.039287556   -2.6892986   0.67391649   421013 
 4282000   0.60666188   -2.6889419   -2.6889419   -2.0157064  0.032323868   -2.6889419   0.67323556   421013 
 4283000   0.60671917   -2.6888111   -2.6888111    -2.015512  0.033382622   -2.6888111   0.67329913   421013 
 4284000   0.60723471   -2.6893569   -2.6893569   -2.0154856  0.039123265   -2.6893569   0.67387125   421013 
 4285000   0.60768478   -2.6898345   -2.6898345   -2.0154638    0.0441636   -2.6898345   0.67437071   421013 
 4286000   0.60803251     -2.68991     -2.68991   -2.0151534  0.039235002     -2.68991   0.67475661   421013 
 4287000   0.60722739   -2.6892622   -2.6892622    -2.015399  0.041479351   -2.6892622   0.67386313   421013 
 4288000   0.60830576   -2.6895514   -2.6895514   -2.0144916  0.031622381   -2.6895514   0.67505984   421013 
 4289000   0.60706943   -2.6892876   -2.6892876   -2.0155997  0.040402337   -2.6892876   0.67368783   421013 
 4290000   0.60795706   -2.6905917   -2.6905917   -2.0159188  0.028749643   -2.6905917   0.67467287   421013 
 4291000   0.60864402   -2.6908168   -2.6908168   -2.0153816   0.03962708   -2.6908168   0.67543522   421013 
 4292000   0.60783687   -2.6891081   -2.6891081   -2.0145686  0.041120421   -2.6891081   0.67453949   421013 
 4293000   0.60690274   -2.6889777   -2.6889777   -2.0154749  0.028994045   -2.6889777   0.67350285   421013 
 4294000   0.60912561   -2.6915149   -2.6915149   -2.0155453  0.036151476   -2.6915149   0.67596966   421013 
 4295000   0.60783079   -2.6897966   -2.6897966   -2.0152639  0.036144414   -2.6897966   0.67453274   421013 
 4296000   0.60822333   -2.6906654   -2.6906654   -2.0156971  0.036335544   -2.6906654   0.67496836   421013 
 4297000   0.60875798   -2.6909558   -2.6909558   -2.0153941  0.034634855   -2.6909558   0.67556168   421013 
 4298000   0.60763788   -2.6899066   -2.6899066   -2.0155879  0.033489235   -2.6899066   0.67431867   421013 
 4299000   0.60882262   -2.6914632   -2.6914632   -2.0158298  0.038148546   -2.6914632   0.67563342   421013 
 4300000   0.60757299   -2.6896282   -2.6896282   -2.0153816  0.038921376   -2.6896282   0.67424666   421013 
 4301000    0.6078379   -2.6908835   -2.6908835   -2.0163428  0.034222792   -2.6908835   0.67454063   421013 
 4302000   0.60779279   -2.6899869   -2.6899869   -2.0154963  0.035650138   -2.6899869   0.67449058   421013 
 4303000   0.60813413   -2.6907331   -2.6907331   -2.0158637  0.043631948   -2.6907331   0.67486938   421013 
 4304000   0.60834663   -2.6910012   -2.6910012    -2.015896   0.03876786   -2.6910012   0.67510519   421013 
 4305000   0.60830058   -2.6903473   -2.6903473   -2.0152933  0.035648873   -2.6903473   0.67505409   421013 
 4306000    0.6071025   -2.6891531   -2.6891531   -2.0154285  0.036830669   -2.6891531   0.67372454   421013 
 4307000    0.6086399   -2.6915985   -2.6915985   -2.0161679  0.037755952   -2.6915985   0.67543065   421013 
 4308000   0.60792179   -2.6902058   -2.6902058   -2.0155721  0.036974972   -2.6902058   0.67463373   421013 
 4309000   0.60717779   -2.6901784   -2.6901784   -2.0163703  0.029675816   -2.6901784   0.67380809   421013 
 4310000   0.60700063   -2.6902241   -2.6902241   -2.0166126  0.033757583   -2.6902241   0.67361149   421013 
 4311000    0.6065633   -2.6898591   -2.6898591   -2.0167329  0.035686764   -2.6898591   0.67312616   421013 
 4312000   0.60740831   -2.6911184   -2.6911184   -2.0170544  0.040118514   -2.6911184   0.67406391   421013 
 4313000   0.60719426   -2.6907608   -2.6907608   -2.0169344  0.029587622   -2.6907608   0.67382637   421013 
 4314000   0.60751409   -2.6912184   -2.6912184   -2.0170371  0.028237284   -2.6912184   0.67418129   421013 
 4315000   0.60649681   -2.6900014   -2.6900014    -2.016949  0.044869497   -2.6900014   0.67305238   421013 
 4316000   0.60764887   -2.6915052   -2.6915052   -2.0171743  0.045383865   -2.6915052   0.67433086   421013 
 4317000   0.60824718   -2.6928739   -2.6928739   -2.0178791  0.036076767   -2.6928739   0.67499483   421013 
 4318000   0.60732858   -2.6914294   -2.6914294   -2.0174539  0.036701367   -2.6914294   0.67397543   421013 
 4319000   0.60768272   -2.6919755   -2.6919755   -2.0176071  0.036813372   -2.6919755   0.67436843   421013 
 4320000   0.60719594   -2.6906466   -2.6906466   -2.0168184  0.033761249   -2.6906466   0.67382823   421013 
 4321000   0.60764481    -2.691815    -2.691815   -2.0174886  0.038003347    -2.691815   0.67432636   421013 
 4322000   0.60758948   -2.6913611   -2.6913611   -2.0170962   0.03344219   -2.6913611   0.67426495   421013 
 4323000   0.60619303   -2.6900271   -2.6900271   -2.0173118  0.027029328   -2.6900271   0.67271526   421013 
 4324000   0.60651303   -2.6903376   -2.6903376   -2.0172672  0.039651613   -2.6903376   0.67307038   421013 
 4325000   0.60699711    -2.690676    -2.690676   -2.0170684  0.046631273    -2.690676   0.67360758   421013 
 4326000   0.60677204   -2.6908755   -2.6908755   -2.0175177   0.03643855   -2.6908755   0.67335781   421013 
 4327000   0.60715761   -2.6916593   -2.6916593   -2.0178736  0.035316196   -2.6916593    0.6737857   421013 
 4328000   0.60750229   -2.6914266   -2.6914266   -2.0172584  0.032976889   -2.6914266   0.67416819   421013 
 4329000   0.60826348   -2.6923409   -2.6923409    -2.017328  0.041271522   -2.6923409   0.67501292   421013 
 4330000   0.60681764   -2.6907295   -2.6907295   -2.0173211  0.032431886   -2.6907295   0.67340842   421013 
 4331000   0.60793915   -2.6911576   -2.6911576   -2.0165046  0.035046821   -2.6911576     0.674653   421013 
 4332000   0.60653549    -2.689645    -2.689645   -2.0165497   0.04375978    -2.689645   0.67309531   421013 
 4333000   0.60805687    -2.691663    -2.691663   -2.0168793  0.031285454    -2.691663   0.67478363   421013 
 4334000   0.60631938   -2.6894721   -2.6894721   -2.0166166  0.041131144   -2.6894721   0.67285547   421013 
 4335000   0.60765366   -2.6907888   -2.6907888   -2.0164526  0.039575313   -2.6907888   0.67433618   421013 
 4336000    0.6080503   -2.6916464   -2.6916464     -2.01687  0.038751122   -2.6916464   0.67477634   421013 
 4337000   0.60784904   -2.6912017   -2.6912017   -2.0166487  0.037468986   -2.6912017     0.674553   421013 
 4338000    0.6084633   -2.6926057   -2.6926057    -2.017371  0.033388727   -2.6926057   0.67523467   421013 
 4339000   0.60830327   -2.6918268   -2.6918268   -2.0167697  0.038827035   -2.6918268   0.67505707   421013 
 4340000   0.60859806   -2.6923638   -2.6923638   -2.0169796  0.044085435   -2.6923638   0.67538422   421013 
 4341000     0.608299   -2.6926396   -2.6926396   -2.0175873   0.02963049   -2.6926396   0.67505233   421013 
 4342000   0.60763222   -2.6918075   -2.6918075   -2.0174951  0.038093291   -2.6918075   0.67431238   421013 
 4343000   0.60734201   -2.6916036   -2.6916036   -2.0176133   0.03281086   -2.6916036   0.67399033   421013 
 4344000   0.60694702   -2.6911527   -2.6911527   -2.0176007  0.038725288   -2.6911527   0.67355199   421013 
 4345000   0.60737488    -2.691164    -2.691164   -2.0171372  0.042226472    -2.691164    0.6740268   421013 
 4346000   0.60795387   -2.6917948   -2.6917948   -2.0171255  0.040257625   -2.6917948   0.67466933   421013 
 4347000   0.60702298   -2.6906694   -2.6906694   -2.0170331   0.03230093   -2.6906694   0.67363629   421013 
 4348000   0.60821958   -2.6921496   -2.6921496   -2.0171854  0.040044595   -2.6921496    0.6749642   421013 
 4349000    0.6068606   -2.6910923   -2.6910923   -2.0176362  0.046456751   -2.6910923   0.67345609   421013 
 4350000   0.60733766   -2.6916749   -2.6916749   -2.0176894  0.036316979   -2.6916749    0.6739855   421013 
 4351000   0.60769777   -2.6921166   -2.6921166   -2.0177315  0.039070648   -2.6921166   0.67438513   421013 
 4352000    0.6069043    -2.691535    -2.691535   -2.0180304  0.036919433    -2.691535   0.67350458   421013 
 4353000   0.60803684   -2.6922743   -2.6922743   -2.0175129  0.040072255   -2.6922743   0.67476141   421013 
 4354000   0.60821894   -2.6925611   -2.6925611   -2.0175977  0.037859606   -2.6925611   0.67496349   421013 
 4355000   0.60868652   -2.6932469   -2.6932469   -2.0177645  0.028815613   -2.6932469   0.67548238   421013 
 4356000    0.6072865   -2.6928658   -2.6928658    -2.018937  0.039257409   -2.6928658   0.67392873   421013 
 4357000   0.60730268   -2.6921555   -2.6921555   -2.0182088  0.045438835   -2.6921555   0.67394668   421013 
 4358000   0.60754875   -2.6927266   -2.6927266   -2.0185069  0.036824419   -2.6927266   0.67421975   421013 
 4359000   0.60705489   -2.6914283   -2.6914283   -2.0177566  0.026085645   -2.6914283    0.6736717   421013 
 4360000   0.60758295   -2.6922502   -2.6922502   -2.0179925  0.033960341   -2.6922502   0.67425771   421013 
 4361000   0.60777498   -2.6920672   -2.6920672   -2.0175963  0.036682455   -2.6920672   0.67447081   421013 
 4362000   0.60820222     -2.69245     -2.69245    -2.017505  0.034230613     -2.69245   0.67494494   421013 
 4363000    0.6076146    -2.691883    -2.691883   -2.0175901  0.030591312    -2.691883   0.67429283   421013 
 4364000   0.60731437   -2.6914525   -2.6914525   -2.0174928  0.030747103   -2.6914525   0.67395965   421013 
 4365000   0.60697543   -2.6904169   -2.6904169   -2.0168334  0.044959093   -2.6904169   0.67358352   421013 
 4366000    0.6086844    -2.692158    -2.692158    -2.016678  0.035029456    -2.692158   0.67548003   421013 
 4367000   0.60744194   -2.6904584   -2.6904584   -2.0163572  0.040449154   -2.6904584   0.67410123   421013 
 4368000   0.60717146    -2.690242    -2.690242    -2.016441  0.028994398    -2.690242   0.67380106   421013 
 4369000   0.60608951   -2.6901218   -2.6901218   -2.0175214  0.032219012   -2.6901218   0.67260038   421013 
 4370000   0.60659157   -2.6914857   -2.6914857   -2.0183281  0.035344519   -2.6914857   0.67315753   421013 
 4371000   0.60628573    -2.690258    -2.690258   -2.0174399  0.029233549    -2.690258   0.67281814   421013 
 4372000   0.60585652   -2.6900597   -2.6900597   -2.0177178  0.032291891   -2.6900597   0.67234182   421013 
 4373000   0.60679056   -2.6912067   -2.6912067   -2.0178284   0.03766614   -2.6912067   0.67337837   421013 
 4374000    0.6064918   -2.6910393   -2.6910393   -2.0179925   0.03580797   -2.6910393   0.67304681   421013 
 4375000   0.60822333   -2.6926978   -2.6926978   -2.0177294  0.037613717   -2.6926978   0.67496836   421013 
 4376000   0.60870399   -2.6927507   -2.6927507   -2.0172489  0.038253388   -2.6927507   0.67550177   421013 
 4377000   0.60849773   -2.6924776   -2.6924776   -2.0172047  0.032149944   -2.6924776   0.67527287   421013 
 4378000   0.60918616   -2.6934005   -2.6934005   -2.0173636  0.039598227   -2.6934005   0.67603685   421013 
 4379000   0.60797272   -2.6921519   -2.6921519   -2.0174617  0.038658757   -2.6921519   0.67469026   421013 
 4380000   0.60818942   -2.6926716   -2.6926716   -2.0177408  0.042111651   -2.6926716   0.67493073   421013 
 4381000   0.60834578   -2.6925987   -2.6925987   -2.0174944  0.032367276   -2.6925987   0.67510425   421013 
 4382000   0.60760622   -2.6912342   -2.6912342   -2.0169506  0.046093161   -2.6912342   0.67428353   421013 
 4383000   0.60817687   -2.6917477   -2.6917477   -2.0168308  0.032032836   -2.6917477   0.67491681   421013 
 4384000   0.60829009   -2.6920806   -2.6920806   -2.0170381  0.031912724   -2.6920806   0.67504245   421013 
 4385000   0.60726898   -2.6911625   -2.6911625   -2.0172533  0.036912245   -2.6911625   0.67390928   421013 
 4386000   0.60676961   -2.6915982   -2.6915982   -2.0182431  0.041169171   -2.6915982   0.67335511   421013 
 4387000   0.60716649   -2.6914832   -2.6914832   -2.0176876  0.028157843   -2.6914832   0.67379554   421013 
 4388000   0.60711809   -2.6913376   -2.6913376   -2.0175957  0.043182834   -2.6913376   0.67374183   421013 
 4389000   0.60598935   -2.6900433   -2.6900433    -2.017554  0.046155782   -2.6900433   0.67248923   421013 
 4390000   0.60577157    -2.690173    -2.690173   -2.0179255  0.024942728    -2.690173   0.67224755   421013 
 4391000   0.60653873   -2.6911192   -2.6911192   -2.0180203  0.040345099   -2.6911192   0.67309889   421013 
 4392000   0.60678741   -2.6908075   -2.6908075   -2.0174326  0.038057777   -2.6908075   0.67337486   421013 
 4393000   0.60725794   -2.6911722   -2.6911722   -2.0172752   0.03529389   -2.6911722   0.67389703   421013 
 4394000   0.60651376   -2.6903146   -2.6903146   -2.0172434  0.026652205   -2.6903146   0.67307119   421013 
 4395000   0.60685492   -2.6907882   -2.6907882   -2.0173385  0.038506914   -2.6907882   0.67344978   421013 
 4396000   0.60770921   -2.6916681   -2.6916681   -2.0172703   0.03859271   -2.6916681   0.67439782   421013 
 4397000   0.60747728   -2.6921295   -2.6921295    -2.017989  0.031566889   -2.6921295   0.67414044   421013 
 4398000   0.60678976   -2.6912075   -2.6912075     -2.01783  0.032611435   -2.6912075   0.67337748   421013 
 4399000   0.60806288    -2.692387    -2.692387   -2.0175967  0.039066115    -2.692387   0.67479031   421013 
 4400000   0.60787628   -2.6924808   -2.6924808   -2.0178976  0.034325448   -2.6924808   0.67458323   421013 
 4401000   0.60732544   -2.6916611   -2.6916611   -2.0176892   0.03250959   -2.6916611   0.67397194   421013 
 4402000   0.60721281   -2.6916381   -2.6916381   -2.0177912  0.030331793   -2.6916381   0.67384695   421013 
 4403000   0.60768572   -2.6920195   -2.6920195   -2.0176477  0.036557732   -2.6920195   0.67437175   421013 
 4404000   0.60771063   -2.6918093   -2.6918093   -2.0174099  0.037436273   -2.6918093    0.6743994   421013 
 4405000   0.60709747   -2.6911573   -2.6911573   -2.0174384  0.037621141   -2.6911573   0.67371895   421013 
 4406000   0.60785816   -2.6922677   -2.6922677   -2.0177046  0.031702885   -2.6922677   0.67456312   421013 
 4407000   0.60867648   -2.6924561   -2.6924561   -2.0169849  0.040025385   -2.6924561   0.67547124   421013 
 4408000   0.60810555   -2.6913935   -2.6913935   -2.0165558  0.035955509   -2.6913935   0.67483765   421013 
 4409000   0.60750079   -2.6902085   -2.6902085    -2.016042  0.037140752   -2.6902085   0.67416653   421013 
 4410000   0.60673982   -2.6894773   -2.6894773   -2.0161553  0.045463712   -2.6894773   0.67332205   421013 
 4411000   0.60730006   -2.6908921   -2.6908921   -2.0169483  0.029314271   -2.6908921   0.67394378   421013 
 4412000   0.60696156   -2.6901864   -2.6901864   -2.0166183  0.028917741   -2.6901864   0.67356813   421013 
 4413000   0.60712431   -2.6907005   -2.6907005   -2.0169517  0.027876698   -2.6907005   0.67374874   421013 
 4414000   0.60720215   -2.6904504   -2.6904504   -2.0166153   0.02773516   -2.6904504   0.67383511   421013 
 4415000   0.60861821   -2.6917906   -2.6917906    -2.016384  0.041005695   -2.6917906   0.67540658   421013 
 4416000   0.60779174   -2.6909694   -2.6909694     -2.01648  0.037901799   -2.6909694   0.67448941   421013 
 4417000   0.60694576   -2.6903681   -2.6903681   -2.0168175  0.041488675   -2.6903681   0.67355059   421013 
 4418000   0.60748198   -2.6911605   -2.6911605   -2.0170148  0.036576943   -2.6911605   0.67414566   421013 
 4419000   0.60764779   -2.6914507   -2.6914507   -2.0171211  0.038449801   -2.6914507   0.67432966   421013 
 4420000   0.60805384   -2.6921516   -2.6921516   -2.0173713  0.042915752   -2.6921516   0.67478027   421013 
 4421000   0.60842605   -2.6929216   -2.6929216   -2.0177283  0.025868024   -2.6929216   0.67519332   421013 
 4422000   0.60828423   -2.6932483   -2.6932483   -2.0182123  0.027133504   -2.6932483   0.67503595   421013 
 4423000   0.60833914   -2.6936653   -2.6936653   -2.0185684  0.052379199   -2.6936653   0.67509688   421013 
 4424000   0.60731635   -2.6930178   -2.6930178   -2.0190559  0.034904044   -2.6930178   0.67396185   421013 
 4425000   0.60862571   -2.6940722   -2.6940722   -2.0186573  0.040691956   -2.6940722   0.67541489   421013 
 4426000   0.60775767    -2.693739    -2.693739   -2.0192874   0.04356853    -2.693739   0.67445161   421013 
 4427000   0.60767644   -2.6942319   -2.6942319   -2.0198704  0.034285711   -2.6942319   0.67436145   421013 
 4428000   0.60625943   -2.6926391   -2.6926391   -2.0198501  0.026129808   -2.6926391   0.67278895   421013 
 4429000   0.60750211   -2.6942428   -2.6942428   -2.0200748  0.034015491   -2.6942428     0.674168   421013 
 4430000   0.60660282   -2.6937509   -2.6937509   -2.0205809  0.028303604   -2.6937509   0.67317002   421013 
 4431000    0.6072316   -2.6935795   -2.6935795   -2.0197117  0.028023944   -2.6935795   0.67386781   421013 
 4432000   0.60804646   -2.6946295   -2.6946295   -2.0198574   0.03556134   -2.6946295   0.67477208   421013 
 4433000   0.60660256   -2.6928992   -2.6928992   -2.0197295  0.034953967   -2.6928992   0.67316973   421013 
 4434000   0.60570305   -2.6923706   -2.6923706   -2.0201991  0.033577555   -2.6923706   0.67217151   421013 
 4435000   0.60513922   -2.6912576   -2.6912576   -2.0197118  0.040393121   -2.6912576   0.67154581   421013 
 4436000   0.60618254   -2.6924432   -2.6924432   -2.0197396  0.039127051   -2.6924432   0.67270362   421013 
 4437000    0.6064666   -2.6925846   -2.6925846   -2.0195658  0.032253272   -2.6925846   0.67301885   421013 
 4438000   0.60732392   -2.6939946   -2.6939946   -2.0200243  0.043665802   -2.6939946   0.67397025   421013 
 4439000   0.60642721   -2.6922671   -2.6922671   -2.0192919  0.045225005   -2.6922671   0.67297514   421013 
 4440000   0.60759654   -2.6940611   -2.6940611   -2.0197883  0.033507494   -2.6940611   0.67427279   421013 
 4441000   0.60730463   -2.6934046   -2.6934046   -2.0194557  0.029029847   -2.6934046   0.67394885   421013 
 4442000   0.60832107   -2.6939132   -2.6939132   -2.0188364  0.043112368   -2.6939132   0.67507683   421013 
 4443000   0.60761236   -2.6933248   -2.6933248   -2.0190344  0.045229853   -2.6933248   0.67429035   421013 
 4444000   0.60650199   -2.6929331   -2.6929331    -2.019875  0.037063375   -2.6929331   0.67305813   421013 
 4445000   0.60535525   -2.6919729   -2.6919729   -2.0201873  0.038046381   -2.6919729   0.67178555   421013 
 4446000   0.60567573   -2.6925633   -2.6925633   -2.0204221  0.032252709   -2.6925633   0.67214119   421013 
 4447000   0.60650055   -2.6931186   -2.6931186   -2.0200621    0.0319738   -2.6931186   0.67305652   421013 
 4448000   0.60733957   -2.6930761   -2.6930761   -2.0190885   0.03359123   -2.6930761   0.67398762   421013 
 4449000   0.60574931   -2.6915085   -2.6915085   -2.0192857  0.032121307   -2.6915085   0.67222285   421013 
 4450000   0.60677642   -2.6921841   -2.6921841   -2.0188215  0.022564467   -2.6921841   0.67336267   421013 
 4451000   0.60647081   -2.6921487   -2.6921487   -2.0191252  0.032051691   -2.6921487   0.67302352   421013 
 4452000   0.60575886   -2.6913889   -2.6913889   -2.0191555  0.032833917   -2.6913889   0.67223345   421013 
 4453000   0.60646713   -2.6927275   -2.6927275    -2.019708  0.033042895   -2.6927275   0.67301944   421013 
 4454000   0.60672669   -2.6927243   -2.6927243   -2.0194168  0.037274165   -2.6927243   0.67330748   421013 
 4455000   0.60758418   -2.6939396   -2.6939396   -2.0196806  0.040682963   -2.6939396   0.67425908   421013 
 4456000   0.60629857   -2.6923838   -2.6923838   -2.0195515  0.029141032   -2.6923838   0.67283238   421013 
 4457000   0.60659157   -2.6927001   -2.6927001   -2.0195426  0.038349262   -2.6927001   0.67315753   421013 
 4458000   0.60688457   -2.6923496   -2.6923496    -2.018867  0.036900832   -2.6923496   0.67348269   421013 
 4459000   0.60529291   -2.6904669   -2.6904669   -2.0187505  0.033430699   -2.6904669   0.67171636   421013 
 4460000    0.6075494   -2.6934728   -2.6934728   -2.0192523  0.035917516   -2.6934728   0.67422048   421013 
 4461000   0.60790835   -2.6937905   -2.6937905   -2.0191717  0.035950417   -2.6937905   0.67461882   421013 
 4462000   0.60769569     -2.69342     -2.69342   -2.0190372  0.036675896     -2.69342   0.67438282   421013 
 4463000   0.60786394   -2.6936729   -2.6936729   -2.0191034  0.037720006   -2.6936729   0.67456953   421013 
 4464000   0.60817979   -2.6935383   -2.6935383   -2.0186182  0.031052521   -2.6935383   0.67492004   421013 
 4465000   0.60750453   -2.6933237   -2.6933237    -2.019153  0.038780364   -2.6933237   0.67417068   421013 
 4466000   0.60650197   -2.6926622   -2.6926622   -2.0196041  0.034849814   -2.6926622    0.6730581   421013 
 4467000   0.60798565   -2.6937292   -2.6937292   -2.0190246  0.033928752   -2.6937292    0.6747046   421013 
 4468000   0.60817888   -2.6934415   -2.6934415   -2.0185225  0.032022928   -2.6934415   0.67491903   421013 
 4469000   0.60659543   -2.6920043   -2.6920043   -2.0188425  0.031312901   -2.6920043   0.67316182   421013 
 4470000   0.60563745   -2.6920075   -2.6920075   -2.0199088   0.03756862   -2.6920075   0.67209871   421013 
 4471000   0.60561773   -2.6918268   -2.6918268     -2.01975  0.028771505   -2.6918268   0.67207683   421013 
 4472000   0.60705803   -2.6925848   -2.6925848   -2.0189096  0.027403945   -2.6925848   0.67367518   421013 
 4473000   0.60808451   -2.6942752   -2.6942752   -2.0194609  0.033965822   -2.6942752    0.6748143   421013 
 4474000   0.60691778   -2.6931973   -2.6931973   -2.0196777  0.037421805   -2.6931973   0.67351954   421013 
 4475000   0.60620018   -2.6925357   -2.6925357   -2.0198125  0.046293901   -2.6925357   0.67272319   421013 
 4476000   0.60781431    -2.693783    -2.693783   -2.0192686  0.032663863    -2.693783   0.67451445   421013 
 4477000   0.60671853    -2.693046    -2.693046   -2.0197476  0.043065683    -2.693046   0.67329843   421013 
 4478000   0.60812968   -2.6946882   -2.6946882   -2.0198237  0.037940266   -2.6946882   0.67486443   421013 
 4479000   0.60737539   -2.6945941   -2.6945941   -2.0205667  0.034353305   -2.6945941   0.67402737   421013 
 4480000    0.6076569   -2.6947801   -2.6947801   -2.0204403  0.034476387   -2.6947801   0.67433977   421013 
 4481000   0.60789492   -2.6948903   -2.6948903   -2.0202864  0.038401058   -2.6948903   0.67460392   421013 
 4482000   0.60725603   -2.6938712   -2.6938712   -2.0199763  0.036858494   -2.6938712   0.67389492   421013 
 4483000   0.60654306    -2.693265    -2.693265   -2.0201613  0.036198917    -2.693265    0.6731037   421013 
 4484000   0.60711692   -2.6939432   -2.6939432   -2.0202027  0.032526794   -2.6939432   0.67374054   421013 
 4485000   0.60604081   -2.6938187   -2.6938187   -2.0212724  0.036411016   -2.6938187   0.67254634   421013 
 4486000   0.60598442   -2.6930173   -2.6930173   -2.0205336  0.033013125   -2.6930173   0.67248376   421013 
 4487000   0.60670115   -2.6945967   -2.6945967   -2.0213175   0.03403438   -2.6945967   0.67327914   421013 
 4488000   0.60624141   -2.6943143   -2.6943143   -2.0215453  0.031073511   -2.6943143   0.67276895   421013 
 4489000   0.60524503   -2.6921243   -2.6921243    -2.020461  0.038003892   -2.6921243   0.67166323   421013 
 4490000   0.60760872   -2.6950775   -2.6950775   -2.0207912  0.033662383   -2.6950775    0.6742863   421013 
 4491000   0.60596463   -2.6930248   -2.6930248    -2.020563  0.042541863   -2.6930248    0.6724618   421013 
 4492000   0.60639437   -2.6929328   -2.6929328   -2.0199941  0.039215348   -2.6929328    0.6729387   421013 
 4493000   0.60723262   -2.6934226   -2.6934226   -2.0195537  0.036548212   -2.6934226   0.67386894   421013 
 4494000    0.6072711   -2.6942311   -2.6942311   -2.0203195  0.040277495   -2.6942311   0.67391164   421013 
 4495000   0.60600846   -2.6927003   -2.6927003   -2.0201899  0.037352239   -2.6927003   0.67251044   421013 
 4496000   0.60588347   -2.6927316   -2.6927316   -2.0203599  0.029291296   -2.6927316   0.67237173   421013 
 4497000   0.60639302   -2.6929441   -2.6929441   -2.0200069  0.032534742   -2.6929441    0.6729372   421013 
 4498000   0.60543201   -2.6919283   -2.6919283   -2.0200576  0.035107566   -2.6919283   0.67187073   421013 
 4499000   0.60666858   -2.6937554   -2.6937554   -2.0205124   0.02952036   -2.6937554     0.673243   421013 
 4500000   0.60609463   -2.6924782   -2.6924782   -2.0198721  0.039561823   -2.6924782   0.67260606   421013 
 4501000   0.60685661   -2.6934113   -2.6934113   -2.0199597  0.036432891   -2.6934113   0.67345166   421013 
 4502000   0.60656192   -2.6923798   -2.6923798   -2.0192552  0.041259758   -2.6923798   0.67312463   421013 
 4503000   0.60706046   -2.6932469   -2.6932469   -2.0195691  0.035673254   -2.6932469   0.67367788   421013 
 4504000   0.60676643    -2.692896    -2.692896   -2.0195444  0.033609119    -2.692896   0.67335159   421013 
 4505000   0.60716717   -2.6937665   -2.6937665   -2.0199702  0.032496046   -2.6937665    0.6737963   421013 
 4506000   0.60693783   -2.6933579   -2.6933579   -2.0198161  0.036986517   -2.6933579    0.6735418   421013 
 4507000   0.60625455   -2.6943374   -2.6943374   -2.0215539  0.039815237   -2.6943374   0.67278353   421013 
 4508000   0.60739598   -2.6950736   -2.6950736   -2.0210234  0.032395157   -2.6950736   0.67405022   421013 
 4509000   0.60641813    -2.693933    -2.693933    -2.020968  0.036605138    -2.693933   0.67296506   421013 
 4510000   0.60658671   -2.6935581   -2.6935581   -2.0204059  0.036691711   -2.6935581   0.67315214   421013 
 4511000   0.60765253   -2.6937289   -2.6937289   -2.0193939  0.031825635   -2.6937289   0.67433492   421013 
 4512000   0.60683638   -2.6934135   -2.6934135   -2.0199843  0.039617355   -2.6934135   0.67342921   421013 
 4513000   0.60787133   -2.6941475   -2.6941475   -2.0195698  0.042278438   -2.6941475   0.67457773   421013 
 4514000   0.60663249   -2.6928657   -2.6928657   -2.0196628  0.037307265   -2.6928657   0.67320294   421013 
 4515000   0.60535841   -2.6918517   -2.6918517   -2.0200626  0.036305518   -2.6918517   0.67178905   421013 
 4516000   0.60525512   -2.6916672   -2.6916672   -2.0199928  0.039443173   -2.6916672   0.67167442   421013 
 4517000   0.60487426   -2.6921854   -2.6921854   -2.0209337  0.039417854   -2.6921854   0.67125177   421013 
 4518000   0.60576212    -2.693206    -2.693206   -2.0209689  0.034807721    -2.693206   0.67223707   421013 
 4519000   0.60572804   -2.6922621   -2.6922621   -2.0200628  0.025061584   -2.6922621   0.67219925   421013 
 4520000   0.60564456   -2.6917767   -2.6917767   -2.0196701   0.04119881   -2.6917767   0.67210661   421013 
 4521000   0.60650552   -2.6929914   -2.6929914   -2.0199293  0.035052468   -2.6929914   0.67306204   421013 
 4522000    0.6052254   -2.6916574   -2.6916574    -2.020016   0.03610598   -2.6916574   0.67164145   421013 
 4523000   0.60702224   -2.6929863   -2.6929863   -2.0193508  0.040578626   -2.6929863   0.67363547   421013 
 4524000   0.60642974   -2.6924727   -2.6924727   -2.0194948  0.036690279   -2.6924727   0.67297794   421013 
 4525000   0.60685154   -2.6934592   -2.6934592   -2.0200131  0.035202033   -2.6934592   0.67344603   421013 
 4526000   0.60639753   -2.6919104   -2.6919104   -2.0189682  0.035062408   -2.6919104    0.6729422   421013 
 4527000   0.60804154   -2.6935328   -2.6935328   -2.0187662  0.038833935   -2.6935328   0.67476663   421013 
 4528000   0.60664261   -2.6925533   -2.6925533   -2.0193391  0.042247477   -2.6925533   0.67321418   421013 
 4529000    0.6069193   -2.6922453   -2.6922453   -2.0187241  0.035797993   -2.6922453   0.67352123   421013 
 4530000   0.60580809   -2.6907544   -2.6907544   -2.0184664   0.03066472   -2.6907544   0.67228808   421013 
 4531000   0.60739443   -2.6932383   -2.6932383   -2.0191898   0.04273272   -2.6932383    0.6740485   421013 
 4532000    0.6080645   -2.6944826   -2.6944826   -2.0196905  0.031480744   -2.6944826    0.6747921   421013 
 4533000   0.60783741   -2.6941429   -2.6941429   -2.0196028  0.035909443   -2.6941429   0.67454009   421013 
 4534000   0.60695635   -2.6934767   -2.6934767   -2.0199144  0.041025036   -2.6934767   0.67356235   421013 
 4535000   0.60755238   -2.6941152   -2.6941152   -2.0198914  0.032212555   -2.6941152   0.67422379   421013 
 4536000   0.60661747   -2.6931035   -2.6931035   -2.0199172  0.034105391   -2.6931035   0.67318628   421013 
 4537000   0.60642918   -2.6935527   -2.6935527   -2.0205753  0.040140768   -2.6935527   0.67297732   421013 
 4538000   0.60707412   -2.6944315   -2.6944315   -2.0207385   0.03870397   -2.6944315   0.67369304   421013 
 4539000   0.60662412   -2.6936889   -2.6936889   -2.0204952  0.037248174   -2.6936889   0.67319366   421013 
 4540000   0.60587259   -2.6932893   -2.6932893   -2.0209296  0.041992345   -2.6932893   0.67235966   421013 
 4541000   0.60641499   -2.6941228   -2.6941228   -2.0211612  0.031940038   -2.6941228   0.67296158   421013 
 4542000   0.60659247   -2.6942211   -2.6942211   -2.0210626  0.037003348   -2.6942211   0.67315853   421013 
 4543000   0.60675234   -2.6944853   -2.6944853   -2.0211493  0.042367105   -2.6944853   0.67333595   421013 
 4544000   0.60679438   -2.6936153   -2.6936153   -2.0202327  0.029757852   -2.6936153    0.6733826   421013 
 4545000    0.6064252   -2.6938726   -2.6938726   -2.0208997  0.041255501   -2.6938726   0.67297291   421013 
 4546000   0.60674223   -2.6939972   -2.6939972   -2.0206724  0.041312115   -2.6939972   0.67332473   421013 
 4547000   0.60833687   -2.6953511   -2.6953511   -2.0202567  0.023990266   -2.6953511   0.67509436   421013 
 4548000   0.60643404   -2.6944241   -2.6944241   -2.0214414  0.036171769   -2.6944241   0.67298272   421013 
 4549000   0.60631716   -2.6940976   -2.6940976   -2.0212446  0.045349698   -2.6940976   0.67285301   421013 
 4550000   0.60766442    -2.695571    -2.695571   -2.0212229  0.037823465    -2.695571   0.67434812   421013 
 4551000   0.60608724   -2.6937331   -2.6937331   -2.0211353  0.037454658   -2.6937331   0.67259787   421013 
 4552000   0.60471212   -2.6928842   -2.6928842   -2.0218123  0.033236119   -2.6928842   0.67107184   421013 
 4553000   0.60678493   -2.6952146   -2.6952146   -2.0218425  0.043594852   -2.6952146   0.67337211   421013 
 4554000   0.60693176   -2.6951065   -2.6951065   -2.0215714  0.034949082   -2.6951065   0.67353506   421013 
 4555000   0.60634742   -2.6951937   -2.6951937   -2.0223071   0.03237975   -2.6951937   0.67288659   421013 
 4556000   0.60550887   -2.6939537   -2.6939537   -2.0219977  0.034512833   -2.6939537   0.67195602   421013 
 4557000   0.60692857    -2.694851    -2.694851   -2.0213195  0.025938909    -2.694851   0.67353152   421013 
 4558000   0.60742168   -2.6956876   -2.6956876   -2.0216088  0.036054248   -2.6956876   0.67407874   421013 
 4559000   0.60619538   -2.6939708   -2.6939708   -2.0212529  0.032405588   -2.6939708   0.67271787   421013 
 4560000   0.60784337   -2.6952847   -2.6952847    -2.020738  0.034306483   -2.6952847    0.6745467   421013 
 4561000   0.60703544   -2.6944838   -2.6944838   -2.0208337  0.040111063   -2.6944838   0.67365012   421013 
 4562000   0.60665362   -2.6941467   -2.6941467   -2.0209203  0.036994656   -2.6941467    0.6732264   421013 
 4563000    0.6060956   -2.6936895   -2.6936895   -2.0210824  0.034177314   -2.6936895   0.67260714   421013 
 4564000    0.6079046   -2.6957442   -2.6957442   -2.0211295  0.042100089   -2.6957442   0.67461465   421013 
 4565000   0.60704411   -2.6946386   -2.6946386   -2.0209789  0.039607597   -2.6946386   0.67365973   421013 
 4566000   0.60737825   -2.6947901   -2.6947901   -2.0207596  0.042305953   -2.6947901   0.67403054   421013 
 4567000   0.60515579   -2.6933209   -2.6933209   -2.0217567  0.032065039   -2.6933209    0.6715642   421013 
 4568000   0.60597971   -2.6942466   -2.6942466   -2.0217681   0.04191361   -2.6942466   0.67247853   421013 
 4569000   0.60556385   -2.6933916   -2.6933916   -2.0213746  0.045584456   -2.6933916   0.67201703   421013 
 4570000   0.60564141    -2.694267    -2.694267   -2.0221639  0.025373925    -2.694267    0.6721031   421013 
 4571000   0.60612318   -2.6937886   -2.6937886   -2.0211509  0.036387046   -2.6937886   0.67263774   421013 
 4572000   0.60456652   -2.6931647   -2.6931647   -2.0222544  0.036507779   -2.6931647   0.67091027   421013 
 4573000   0.60633987     -2.69416     -2.69416   -2.0212818  0.032910809     -2.69416   0.67287822   421013 
 4574000   0.60635441   -2.6949055   -2.6949055   -2.0220111  0.037680904   -2.6949055   0.67289435   421013 
 4575000   0.60655344   -2.6942919   -2.6942919   -2.0211767  0.029096799   -2.6942919   0.67311522   421013 
 4576000   0.60628369   -2.6947637   -2.6947637   -2.0219478    0.0379359   -2.6947637   0.67281587   421013 
 4577000   0.60670811   -2.6951166   -2.6951166   -2.0218297  0.040620833   -2.6951166   0.67328687   421013 
 4578000   0.60675449    -2.694817    -2.694817   -2.0214787  0.024306986    -2.694817   0.67333834   421013 
 4579000   0.60483422   -2.6924827   -2.6924827   -2.0212753  0.026476159   -2.6924827   0.67120734   421013 
 4580000     0.606836   -2.6944327   -2.6944327   -2.0210039  0.045429632   -2.6944327   0.67342879   421013 
 4581000   0.60627882   -2.6939782   -2.6939782   -2.0211677  0.027524211   -2.6939782   0.67281046   421013 
 4582000   0.60581806    -2.693164    -2.693164   -2.0208649  0.033528235    -2.693164   0.67229914   421013 
 4583000   0.60627932   -2.6939586   -2.6939586   -2.0211476  0.036338371   -2.6939586   0.67281102   421013 
 4584000   0.60567048    -2.694145    -2.694145   -2.0220096  0.037558392    -2.694145   0.67213536   421013 
 4585000   0.60700456    -2.695054    -2.695054   -2.0214381  0.030979792    -2.695054   0.67361585   421013 
 4586000   0.60664867   -2.6942674   -2.6942674   -2.0210465  0.038170226   -2.6942674    0.6732209   421013 
 4587000   0.60631195   -2.6939566   -2.6939566   -2.0211094  0.025167606   -2.6939566   0.67284723   421013 
 4588000   0.60596631   -2.6929298   -2.6929298   -2.0204662  0.035826362   -2.6929298   0.67246366   421013 
 4589000   0.60713465   -2.6944174   -2.6944174   -2.0206572  0.034151432   -2.6944174   0.67376021   421013 
 4590000   0.60494478   -2.6921566   -2.6921566   -2.0208265  0.034382194   -2.6921566   0.67133003   421013 
 4591000   0.60685982   -2.6945286   -2.6945286   -2.0210734  0.035590916   -2.6945286   0.67345523   421013 
 4592000   0.60611783     -2.69375     -2.69375   -2.0211181  0.034012766     -2.69375   0.67263181   421013 
 4593000   0.60458547   -2.6921627   -2.6921627   -2.0212314  0.034734159   -2.6921627   0.67093129   421013 
 4594000   0.60650062   -2.6942765   -2.6942765   -2.0212199  0.041677637   -2.6942765    0.6730566   421013 
 4595000   0.60573439   -2.6930024   -2.6930024   -2.0207961  0.035790866   -2.6930024   0.67220629   421013 
 4596000   0.60635972   -2.6933417   -2.6933417   -2.0204414  0.038633714   -2.6933417   0.67290024   421013 
 4597000   0.60726343     -2.69465     -2.69465   -2.0207469  0.027945454     -2.69465   0.67390312   421013 
 4598000   0.60739463   -2.6942265   -2.6942265   -2.0201778  0.036558071   -2.6942265   0.67404872   421013 
 4599000   0.60716136   -2.6941816   -2.6941816   -2.0203917  0.032359945   -2.6941816   0.67378986   421013 
 4600000   0.60625565   -2.6932125   -2.6932125   -2.0204278  0.033385979   -2.6932125   0.67278475   421013 
 4601000   0.60648338   -2.6939866   -2.6939866   -2.0209491  0.035303425   -2.6939866   0.67303747   421013 
 4602000   0.60625863   -2.6935725   -2.6935725   -2.0207844  0.034547351   -2.6935725   0.67278806   421013 
 4603000   0.60509175   -2.6926177   -2.6926177   -2.0211246  0.056583931   -2.6926177   0.67149313   421013 
 4604000   0.60739543   -2.6960316   -2.6960316    -2.021982  0.038847304   -2.6960316   0.67404961   421013 
 4605000   0.60555808   -2.6928837   -2.6928837    -2.020873  0.043738877   -2.6928837   0.67201064   421013 
 4606000   0.60722452   -2.6941394   -2.6941394   -2.0202794  0.039721479   -2.6941394   0.67385995   421013 
 4607000   0.60640477   -2.6941508   -2.6941508   -2.0212006  0.038902231   -2.6941508   0.67295024   421013 
 4608000   0.60708678   -2.6950096   -2.6950096   -2.0213025  0.044462687   -2.6950096   0.67370709   421013 
 4609000   0.60630287   -2.6943015   -2.6943015   -2.0214643  0.046168128   -2.6943015   0.67283715   421013 
 4610000   0.60644121    -2.694912    -2.694912   -2.0219213  0.032300216    -2.694912   0.67299068   421013 
 4611000   0.60604168    -2.694095    -2.694095   -2.0215477  0.038111257    -2.694095    0.6725473   421013 
 4612000   0.60480511   -2.6927204   -2.6927204   -2.0215453  0.040575975   -2.6927204   0.67117504   421013 
 4613000   0.60495187   -2.6928563   -2.6928563   -2.0215184  0.034945454   -2.6928563    0.6713379   421013 
 4614000   0.60682539   -2.6957265   -2.6957265   -2.0223095  0.031134757   -2.6957265   0.67341702   421013 
 4615000   0.60522498   -2.6942502   -2.6942502   -2.0226092  0.028632487   -2.6942502   0.67164098   421013 
 4616000   0.60536545   -2.6944876   -2.6944876   -2.0226908   0.02990244   -2.6944876   0.67179687   421013 
 4617000    0.6050061   -2.6945568   -2.6945568   -2.0231588  0.033323411   -2.6945568   0.67139809   421013 
 4618000   0.60487006   -2.6944303   -2.6944303   -2.0231832  0.029039346   -2.6944303   0.67124712   421013 
 4619000   0.60467604   -2.6940477   -2.6940477   -2.0230159  0.041255198   -2.6940477   0.67103181   421013 
 4620000    0.6048201    -2.694488    -2.694488   -2.0232963  0.030140174    -2.694488   0.67119167   421013 
 4621000   0.60553883   -2.6949143   -2.6949143   -2.0229251   0.03895328   -2.6949143   0.67198927   421013 
 4622000   0.60814448   -2.6974723   -2.6974723   -2.0225914  0.036142934   -2.6974723   0.67488086   421013 
 4623000   0.60681695   -2.6965223   -2.6965223   -2.0231147  0.029839106   -2.6965223   0.67340765   421013 
 4624000   0.60698932   -2.6959435   -2.6959435   -2.0223445  0.035200252   -2.6959435   0.67359893   421013 
 4625000   0.60789663      -2.6972      -2.6972   -2.0225942  0.035607823      -2.6972   0.67460581   421013 
 4626000   0.60773145    -2.697308    -2.697308   -2.0228855  0.036698725    -2.697308    0.6744225   421013 
 4627000   0.60741549   -2.6979078   -2.6979078   -2.0238359  0.035904955   -2.6979078   0.67407188   421013 
 4628000   0.60577958   -2.6968122   -2.6968122   -2.0245558   0.04457589   -2.6968122   0.67225644   421013 
 4629000   0.60514135   -2.6963785   -2.6963785   -2.0248303   0.04001902   -2.6963785   0.67154817   421013 
 4630000   0.60730047   -2.6982671   -2.6982671   -2.0243229  0.037838394   -2.6982671   0.67394423   421013 
 4631000   0.60733403   -2.6985882   -2.6985882   -2.0246068  0.042216864   -2.6985882   0.67398147   421013 
 4632000   0.60681991   -2.6978417   -2.6978417   -2.0244307  0.039862555   -2.6978417   0.67341093   421013 
 4633000   0.60645442   -2.6977787   -2.6977787   -2.0247733  0.036896094   -2.6977787   0.67300534   421013 
 4634000   0.60720341   -2.6980386   -2.6980386   -2.0242021   0.04478801   -2.6980386   0.67383652   421013 
 4635000   0.60576719   -2.6963831   -2.6963831   -2.0241404  0.037521313   -2.6963831   0.67224269   421013 
 4636000   0.60736553   -2.6979853   -2.6979853   -2.0239689  0.043055145   -2.6979853   0.67401642   421013 
 4637000   0.60604086   -2.6975371   -2.6975371   -2.0249908  0.033467889   -2.6975371   0.67254639   421013 
 4638000   0.60670397   -2.6980477   -2.6980477   -2.0247654  0.029677475   -2.6980477   0.67328227   421013 
 4639000   0.60584743   -2.6974117   -2.6974117     -2.02508  0.035144848   -2.6974117   0.67233174   421013 
 4640000   0.60592694     -2.69712     -2.69712      -2.0247  0.036088145     -2.69712   0.67241997   421013 
 4641000   0.60580896   -2.6964885   -2.6964885   -2.0241995  0.034817276   -2.6964885   0.67228904   421013 
 4642000   0.60630385   -2.6971307   -2.6971307   -2.0242925  0.035248973   -2.6971307   0.67283824   421013 
 4643000   0.60581326   -2.6970062   -2.6970062   -2.0247124  0.020932078   -2.6970062   0.67229381   421013 
 4644000   0.60596654   -2.6965595   -2.6965595   -2.0240956  0.031662571   -2.6965595   0.67246392   421013 
 4645000   0.60552184   -2.6958722   -2.6958722   -2.0239018    0.0437462   -2.6958722   0.67197042   421013 
 4646000   0.60682247   -2.6972075   -2.6972075   -2.0237937  0.043795738   -2.6972075   0.67341377   421013 
 4647000   0.60756866   -2.6979526   -2.6979526   -2.0237107  0.039862262   -2.6979526   0.67424184   421013 
 4648000   0.60645229   -2.6969862   -2.6969862   -2.0239832  0.045367013   -2.6969862   0.67300297   421013 
 4649000   0.60686211   -2.6978259   -2.6978259   -2.0243681  0.037430079   -2.6978259   0.67345777   421013 
 4650000   0.60692074    -2.697592    -2.697592   -2.0240692  0.036191991    -2.697592   0.67352283   421013 
 4651000   0.60710907   -2.6973742   -2.6973742   -2.0236424  0.041517029   -2.6973742   0.67373182   421013 
 4652000   0.60711902    -2.696745    -2.696745   -2.0230022  0.034234442    -2.696745   0.67374287   421013 
 4653000   0.60526426   -2.6956269   -2.6956269   -2.0239423  0.034336263   -2.6956269   0.67168457   421013 
 4654000   0.60571442   -2.6954565   -2.6954565   -2.0232724  0.037788863   -2.6954565   0.67218413   421013 
 4655000    0.6053107   -2.6945328   -2.6945328   -2.0227967  0.034423002   -2.6945328   0.67173611   421013 
 4656000   0.60506443    -2.694063    -2.694063   -2.0226002  0.029324235    -2.694063   0.67146281   421013 
 4657000   0.60772895   -2.6968203   -2.6968203   -2.0224006   0.03079208   -2.6968203   0.67441973   421013 
 4658000   0.60784649    -2.697079    -2.697079   -2.0225289  0.040234822    -2.697079   0.67455016   421013 
 4659000   0.60708937   -2.6964007   -2.6964007   -2.0226908  0.030257254   -2.6964007   0.67370996   421013 
 4660000   0.60572591   -2.6958552   -2.6958552   -2.0236583  0.035944621   -2.6958552   0.67219688   421013 
 4661000   0.60564693    -2.695256    -2.695256   -2.0231468  0.042189492    -2.695256   0.67210924   421013 
 4662000   0.60589868   -2.6957175   -2.6957175   -2.0233289  0.035830188   -2.6957175   0.67238861   421013 
 4663000   0.60503737   -2.6947194   -2.6947194   -2.0232866   0.03188067   -2.6947194   0.67143278   421013 
 4664000   0.60724631   -2.6966707   -2.6966707   -2.0227866  0.037382447   -2.6966707   0.67388413   421013 
 4665000   0.60662512   -2.6963713   -2.6963713   -2.0231765   0.04039693   -2.6963713   0.67319477   421013 
 4666000   0.60621884   -2.6953654   -2.6953654   -2.0226215  0.036585329   -2.6953654    0.6727439   421013 
 4667000   0.60720354   -2.6975526   -2.6975526   -2.0237159  0.029673094   -2.6975526   0.67383666   421013 
 4668000   0.60645666   -2.6962794   -2.6962794   -2.0232715  0.026164538   -2.6962794   0.67300782   421013 
 4669000   0.60510854   -2.6949684   -2.6949684   -2.0234567  0.028361485   -2.6949684   0.67151177   421013 
 4670000   0.60680449   -2.6968664   -2.6968664   -2.0234725  0.034494798   -2.6968664   0.67339382   421013 
 4671000   0.60586187   -2.6960354   -2.6960354   -2.0236876  0.031619557   -2.6960354   0.67234776   421013 
 4672000   0.60529851   -2.6971341   -2.6971341   -2.0254115  0.032198902   -2.6971341   0.67172258   421013 
 4673000   0.60532071   -2.6961653   -2.6961653   -2.0244181  0.037023584   -2.6961653   0.67174721   421013 
 4674000   0.60661875   -2.6971737   -2.6971737    -2.023986  0.038860576   -2.6971737    0.6731877   421013 
 4675000   0.60676034   -2.6978016   -2.6978016   -2.0244567  0.038083506   -2.6978016   0.67334483   421013 
 4676000   0.60674439   -2.6966572   -2.6966572   -2.0233301  0.037820389   -2.6966572   0.67332713   421013 
 4677000   0.60559943   -2.6968374   -2.6968374   -2.0247809  0.042833183   -2.6968374   0.67205652   421013 
 4678000   0.60588091   -2.6972894   -2.6972894   -2.0249205  0.036390359   -2.6972894   0.67236889   421013 
 4679000   0.60513552   -2.6964527   -2.6964527    -2.024911  0.024544161   -2.6964527    0.6715417   421013 
 4680000   0.60737471   -2.6983393   -2.6983393   -2.0243127   0.03440786   -2.6983393   0.67402661   421013 
 4681000   0.60593118   -2.6971635   -2.6971635   -2.0247388  0.038564301   -2.6971635   0.67242468   421013 
 4682000    0.6054194   -2.6971268   -2.6971268   -2.0252701  0.038771097   -2.6971268   0.67185673   421013 
 4683000   0.60728491   -2.6981247   -2.6981247   -2.0241977  0.043295043   -2.6981247   0.67392697   421013 
 4684000   0.60578653   -2.6964195   -2.6964195   -2.0241553  0.028850038   -2.6964195   0.67226416   421013 
 4685000   0.60662007   -2.6971459   -2.6971459   -2.0239568  0.032197605   -2.6971459   0.67318916   421013 
 4686000   0.60636126   -2.6974243   -2.6974243   -2.0245223  0.036244553   -2.6974243   0.67290196   421013 
 4687000   0.60556459   -2.6962693   -2.6962693   -2.0242515  0.041323683   -2.6962693   0.67201786   421013 
 4688000    0.6056604   -2.6968245   -2.6968245   -2.0247004  0.038226797   -2.6968245   0.67212419   421013 
 4689000   0.60570722   -2.6964605   -2.6964605   -2.0242844  0.041660653   -2.6964605   0.67217614   421013 
 4690000   0.60637355   -2.6966837   -2.6966837   -2.0237681  0.033149818   -2.6966837   0.67291559   421013 
 4691000   0.60491961   -2.6959881   -2.6959881    -2.024686  0.034811214   -2.6959881    0.6713021   421013 
 4692000   0.60516884   -2.6954429   -2.6954429   -2.0238642  0.043296218   -2.6954429   0.67157868   421013 
 4693000   0.60306037   -2.6929594   -2.6929594   -2.0237206  0.035252798   -2.6929594   0.66923884   421013 
 4694000   0.60484804   -2.6954414   -2.6954414   -2.0242187  0.035724097   -2.6954414   0.67122268   421013 
 4695000   0.60620065   -2.6967085   -2.6967085   -2.0239848  0.028963795   -2.6967085   0.67272371   421013 
 4696000   0.60416785   -2.6939472   -2.6939472   -2.0234794  0.035661899   -2.6939472   0.67046785   421013 
 4697000    0.6054745   -2.6947493   -2.6947493   -2.0228314  0.043304231   -2.6947493   0.67191789   421013 
 4698000   0.60653784   -2.6963305   -2.6963305   -2.0232326  0.033765353   -2.6963305   0.67309791   421013 
 4699000   0.60524501   -2.6957132   -2.6957132     -2.02405  0.034386357   -2.6957132    0.6716632   421013 
 4700000   0.60585771   -2.6961798   -2.6961798   -2.0238367  0.036978898   -2.6961798   0.67234315   421013 
 4701000   0.60689441   -2.6970009   -2.6970009   -2.0235073  0.027245785   -2.6970009   0.67349361   421013 
 4702000   0.60654358     -2.69633     -2.69633   -2.0232257  0.038818822     -2.69633   0.67310429   421013 
 4703000   0.60729229   -2.6968079   -2.6968079   -2.0228728  0.034881611   -2.6968079   0.67393515   421013 
 4704000   0.60577532   -2.6962016   -2.6962016   -2.0239499  0.038379791   -2.6962016   0.67225171   421013 
 4705000   0.60490378   -2.6951058   -2.6951058   -2.0238212  0.033028111   -2.6951058   0.67128453   421013 
 4706000   0.60752528   -2.6970654   -2.6970654   -2.0228717  0.041179275   -2.6970654   0.67419371   421013 
 4707000   0.60733217   -2.6966642   -2.6966642   -2.0226848    0.0323671   -2.6966642   0.67397941   421013 
 4708000   0.60553601    -2.695179    -2.695179   -2.0231929  0.036666226    -2.695179   0.67198614   421013 
 4709000   0.60677737   -2.6972632   -2.6972632   -2.0238994  0.032977289   -2.6972632   0.67336373   421013 
 4710000   0.60532699   -2.6957477   -2.6957477   -2.0239935  0.036683713   -2.6957477   0.67175419   421013 
 4711000   0.60580743    -2.696037    -2.696037   -2.0237496  0.033735658    -2.696037   0.67228734   421013 
 4712000   0.60608177   -2.6973753   -2.6973753   -2.0247835  0.023401014   -2.6973753   0.67259179   421013 
 4713000   0.60622068   -2.6964596   -2.6964596   -2.0237137   0.03795408   -2.6964596   0.67274595   421013 
 4714000    0.6074821   -2.6975371   -2.6975371   -2.0233913  0.041231544   -2.6975371   0.67414579   421013 
 4715000   0.60638562   -2.6974543   -2.6974543   -2.0245253  0.031066784   -2.6974543   0.67292899   421013 
 4716000   0.60572258   -2.6965038   -2.6965038   -2.0243106   0.04934909   -2.6965038   0.67219319   421013 
 4717000   0.60735693    -2.697626    -2.697626   -2.0236191   0.03112241    -2.697626   0.67400688   421013 
 4718000   0.60580799   -2.6962326   -2.6962326   -2.0239446  0.037199186   -2.6962326   0.67228797   421013 
 4719000   0.60576779   -2.6963872   -2.6963872   -2.0241439  0.029792602   -2.6963872   0.67224335   421013 
 4720000    0.6057136   -2.6965429   -2.6965429   -2.0243597  0.039166907   -2.6965429   0.67218322   421013 
 4721000   0.60594534   -2.6973094   -2.6973094    -2.024869  0.030922952   -2.6973094   0.67244039   421013 
 4722000   0.60591183   -2.6971564   -2.6971564   -2.0247532  0.037055073   -2.6971564    0.6724032   421013 
 4723000   0.60551068   -2.6969524   -2.6969524   -2.0249944  0.036763762   -2.6969524   0.67195803   421013 
 4724000   0.60586565   -2.6970253   -2.6970253   -2.0246733  0.036380887   -2.6970253   0.67235195   421013 
 4725000   0.60589087   -2.6971777   -2.6971777   -2.0247978  0.032562832   -2.6971777   0.67237994   421013 
 4726000   0.60556438   -2.6964683   -2.6964683   -2.0244507  0.037941429   -2.6964683   0.67201763   421013 
 4727000   0.60568147   -2.6967645   -2.6967645   -2.0246169  0.033754472   -2.6967645   0.67214756   421013 
 4728000   0.60607117   -2.6962689   -2.6962689   -2.0236889  0.031949286   -2.6962689   0.67258003   421013 
 4729000   0.60573966   -2.6958495   -2.6958495   -2.0236374  0.024148179   -2.6958495   0.67221214   421013 
 4730000   0.60502113   -2.6954115   -2.6954115   -2.0239967   0.03484374   -2.6954115   0.67141476   421013 
 4731000     0.605801   -2.6966671   -2.6966671   -2.0243869  0.031121563   -2.6966671   0.67228021   421013 
 4732000   0.60498976   -2.6951735   -2.6951735   -2.0237935  0.038068726   -2.6951735   0.67137995   421013 
 4733000    0.6048702   -2.6953695   -2.6953695   -2.0241222  0.034951316   -2.6953695   0.67124726   421013 
 4734000   0.60557563   -2.6963312   -2.6963312   -2.0243011  0.026174338   -2.6963312   0.67203011   421013 
 4735000   0.60576924   -2.6965367   -2.6965367   -2.0242918  0.035765142   -2.6965367   0.67224496   421013 
 4736000   0.60557048   -2.6953053   -2.6953053   -2.0232809  0.032760958   -2.6953053    0.6720244   421013 
 4737000   0.60605199   -2.6960503   -2.6960503   -2.0234915  0.031275719   -2.6960503   0.67255874   421013 
 4738000   0.60610376   -2.6963413   -2.6963413   -2.0237251  0.038769842   -2.6963413   0.67261619   421013 
 4739000   0.60666127   -2.6971438   -2.6971438   -2.0239089  0.039399418   -2.6971438   0.67323488   421013 
 4740000   0.60650079   -2.6977513   -2.6977513   -2.0246945  0.041568852   -2.6977513   0.67305679   421013 
 4741000   0.60629118    -2.697923    -2.697923   -2.0250988  0.041774322    -2.697923   0.67282418   421013 
 4742000   0.60479628   -2.6955537   -2.6955537   -2.0243884  0.042374721   -2.6955537   0.67116523   421013 
 4743000   0.60604875   -2.6975164   -2.6975164   -2.0249613  0.037359153   -2.6975164   0.67255515   421013 
 4744000   0.60455367   -2.6966485   -2.6966485   -2.0257525  0.030482468   -2.6966485     0.670896   421013 
 4745000   0.60552728   -2.6968564   -2.6968564     -2.02488  0.040845606   -2.6968564   0.67197645   421013 
 4746000   0.60520692   -2.6969291   -2.6969291   -2.0253081  0.033575313   -2.6969291   0.67162094   421013 
 4747000   0.60422882   -2.6958759   -2.6958759   -2.0253404  0.045811592   -2.6958759   0.67053551   421013 
 4748000   0.60452295   -2.6964357   -2.6964357   -2.0255738  0.037955944   -2.6964357   0.67086191   421013 
 4749000    0.6046056    -2.696782    -2.696782   -2.0258284   0.02915224    -2.696782   0.67095364   421013 
 4750000    0.6053711   -2.6975752   -2.6975752    -2.025772  0.034651901   -2.6975752   0.67180314   421013 
 4751000    0.6054947   -2.6975894   -2.6975894   -2.0256491  0.031476405   -2.6975894    0.6719403   421013 
 4752000   0.60569737   -2.6971985   -2.6971985   -2.0250333  0.027504723   -2.6971985   0.67216521   421013 
 4753000   0.60691297   -2.6982527   -2.6982527   -2.0247385  0.037319466   -2.6982527    0.6735142   421013 
 4754000   0.60533167   -2.6963157   -2.6963157   -2.0245563   0.03048793   -2.6963157   0.67175938   421013 
 4755000   0.60542144   -2.6967062   -2.6967062   -2.0248472   0.04062581   -2.6967062     0.671859   421013 
 4756000   0.60409777   -2.6957071   -2.6957071   -2.0253171  0.035524157   -2.6957071   0.67039007   421013 
 4757000   0.60562506   -2.6970122   -2.6970122   -2.0249272  0.030833914   -2.6970122   0.67208496   421013 
 4758000   0.60564409   -2.6972224   -2.6972224   -2.0251164  0.030588316   -2.6972224   0.67210608   421013 
 4759000   0.60581148   -2.6975153   -2.6975153   -2.0252235  0.041892084   -2.6975153   0.67229184   421013 
 4760000   0.60590304   -2.6977019   -2.6977019   -2.0253084  0.043130361   -2.6977019   0.67239345   421013 
 4761000    0.6059691   -2.6978038   -2.6978038    -2.025337  0.034533666   -2.6978038   0.67246676   421013 
 4762000   0.60646734   -2.6982185   -2.6982185   -2.0251988  0.036615909   -2.6982185   0.67301968   421013 
 4763000   0.60578384   -2.6977549   -2.6977549   -2.0254938    0.0362149   -2.6977549   0.67226117   421013 
 4764000   0.60474571   -2.6965927   -2.6965927   -2.0254836  0.042767573   -2.6965927   0.67110911   421013 
 4765000   0.60515305   -2.6961207   -2.6961207   -2.0245596  0.023961178   -2.6961207   0.67156116   421013 
 4766000   0.60494882   -2.6960006   -2.6960006   -2.0246661  0.033262785   -2.6960006   0.67133452   421013 
 4767000   0.60534351   -2.6970577   -2.6970577   -2.0252852  0.043609724   -2.6970577   0.67177252   421013 
 4768000   0.60391992   -2.6959901   -2.6959901   -2.0257974  0.038173293   -2.6959901   0.67019271   421013 
 4769000   0.60327637   -2.6953977   -2.6953977   -2.0259191  0.032351372   -2.6953977   0.66947854   421013 
 4770000   0.60480298    -2.697319    -2.697319   -2.0261463  0.034793601    -2.697319   0.67117267   421013 
 4771000   0.60416941   -2.6961196   -2.6961196     -2.02565  0.030601523   -2.6961196   0.67046958   421013 
 4772000   0.60582008   -2.6981061   -2.6981061   -2.0258047  0.036241385   -2.6981061   0.67230138   421013 
 4773000    0.6057183   -2.6966571   -2.6966571   -2.0244686  0.031766398   -2.6966571   0.67218843   421013 
 4774000   0.60613922   -2.6965988   -2.6965988   -2.0239433  0.031453183   -2.6965988   0.67265554   421013 
 4775000   0.60467782   -2.6956433   -2.6956433   -2.0246096  0.034763729   -2.6956433   0.67103378   421013 
 4776000   0.60570408   -2.6966967   -2.6966967    -2.024524  0.028049522   -2.6966967   0.67217266   421013 
 4777000    0.6054339   -2.6962693   -2.6962693   -2.0243965  0.048627708   -2.6962693   0.67187282   421013 
 4778000   0.60483239   -2.6967273   -2.6967273    -2.025522  0.032400979   -2.6967273   0.67120531   421013 
 4779000   0.60525097   -2.6968406   -2.6968406   -2.0251708  0.033360417   -2.6968406   0.67166982   421013 
 4780000   0.60538879   -2.6972277   -2.6972277    -2.025405  0.035373262   -2.6972277   0.67182277   421013 
 4781000   0.60536245   -2.6971409   -2.6971409   -2.0253473  0.034529741   -2.6971409   0.67179353   421013 
 4782000   0.60528567     -2.69518     -2.69518   -2.0234717  0.044308026     -2.69518   0.67170833   421013 
 4783000   0.60569965   -2.6961944   -2.6961944   -2.0240267  0.038383609   -2.6961944   0.67216774   421013 
 4784000   0.60536331   -2.6959825   -2.6959825    -2.024188  0.055336534   -2.6959825   0.67179449   421013 
 4785000    0.6051123   -2.6957008   -2.6957008   -2.0241849  0.045602993   -2.6957008   0.67151593   421013 
 4786000   0.60631031   -2.6970709   -2.6970709   -2.0242255  0.034666217   -2.6970709   0.67284541   421013 
 4787000   0.60735755   -2.6985552   -2.6985552   -2.0245477  0.034554947   -2.6985552   0.67400757   421013 
 4788000   0.60604921   -2.6970646   -2.6970646   -2.0245089  0.039041689   -2.6970646   0.67255566   421013 
 4789000   0.60676887   -2.6982535   -2.6982535   -2.0248992  0.030984498   -2.6982535   0.67335429   421013 
 4790000   0.60585274   -2.6969756   -2.6969756   -2.0246379  0.040051006   -2.6969756   0.67233763   421013 
 4791000   0.60524636   -2.6968427   -2.6968427    -2.025178  0.031483509   -2.6968427   0.67166471   421013 
 4792000   0.60465526   -2.6957189   -2.6957189   -2.0247102   0.03924494   -2.6957189   0.67100873   421013 
 4793000   0.60550202   -2.6971461   -2.6971461   -2.0251977  0.036556327   -2.6971461   0.67194842   421013 
 4794000   0.60554603   -2.6975719   -2.6975719   -2.0255747  0.030829875   -2.6975719   0.67199726   421013 
 4795000   0.60535736   -2.6973348   -2.6973348    -2.025547  0.034173697   -2.6973348   0.67178789   421013 
 4796000   0.60552797   -2.6977322   -2.6977322    -2.025755  0.027357316   -2.6977322   0.67197722   421013 
 4797000   0.60705566   -2.6990476   -2.6990476   -2.0253751  0.036338076   -2.6990476   0.67367256   421013 
 4798000   0.60700214   -2.6990412   -2.6990412    -2.025428  0.035465931   -2.6990412   0.67361316   421013 
 4799000   0.60827471   -2.6991052   -2.6991052   -2.0240799  0.031388901   -2.6991052   0.67502538   421013 
 4800000   0.60652179   -2.6972981   -2.6972981    -2.024218  0.038070561   -2.6972981   0.67308009   421013 
 4801000   0.60665002   -2.6977364   -2.6977364    -2.024514  0.034025337   -2.6977364    0.6732224   421013 
 4802000   0.60511067   -2.6961916   -2.6961916   -2.0246775  0.040866166   -2.6961916   0.67151413   421013 
 4803000   0.60541645   -2.6968537   -2.6968537   -2.0250003  0.033699066   -2.6968537   0.67185347   421013 
 4804000   0.60663279   -2.6978574   -2.6978574   -2.0246541  0.030880151   -2.6978574   0.67320328   421013 
 4805000   0.60558975   -2.6971469   -2.6971469   -2.0251011  0.026686147   -2.6971469   0.67204578   421013 
 4806000   0.60660316   -2.6979162   -2.6979162   -2.0247458  0.032801229   -2.6979162    0.6731704   421013 
 4807000   0.60566757   -2.6973732   -2.6973732    -2.025241  0.028726415   -2.6973732   0.67213214   421013 
 4808000   0.60465082   -2.6968749   -2.6968749   -2.0258711  0.043827637   -2.6968749   0.67100381   421013 
 4809000   0.60599415   -2.6979399   -2.6979399   -2.0254454  0.029978177   -2.6979399   0.67249455   421013 
 4810000   0.60623351   -2.6985558   -2.6985558   -2.0257956  0.030587352   -2.6985558   0.67276019   421013 
 4811000    0.6069285   -2.6986039   -2.6986039   -2.0250725   0.04015436   -2.6986039   0.67353144   421013 
 4812000   0.60666699   -2.6977871   -2.6977871   -2.0245459  0.033442457   -2.6977871   0.67324123   421013 
 4813000   0.60603815   -2.6973063   -2.6973063   -2.0247629  0.035179731   -2.6973063   0.67254339   421013 
 4814000   0.60640279   -2.6984178   -2.6984178   -2.0254697   0.03551248   -2.6984178   0.67294804   421013 
 4815000   0.60561627   -2.6975324   -2.6975324   -2.0254572  0.040011376   -2.6975324   0.67207521   421013 
 4816000   0.60659731   -2.6983228   -2.6983228   -2.0251588  0.040084348   -2.6983228    0.6731639   421013 
 4817000   0.60534569   -2.6974114   -2.6974114   -2.0256364  0.025989914   -2.6974114   0.67177494   421013 
 4818000   0.60654931   -2.6982552   -2.6982552   -2.0251446   0.03522164   -2.6982552   0.67311064   421013 
 4819000   0.60541249    -2.697773    -2.697773    -2.025924  0.046340165    -2.697773   0.67184907   421013 
 4820000   0.60567084   -2.6973728   -2.6973728   -2.0252371  0.048612641   -2.6973728   0.67213577   421013 
 4821000   0.60721129   -2.6994938   -2.6994938   -2.0256486  0.034168956   -2.6994938   0.67384526   421013 
 4822000   0.60650533   -2.6981175   -2.6981175   -2.0250557  0.034816817   -2.6981175   0.67306184   421013 
 4823000   0.60502294   -2.6975096   -2.6975096   -2.0260928  0.035082984   -2.6975096   0.67141677   421013 
 4824000   0.60517639   -2.6974766   -2.6974766   -2.0258895   0.03483807   -2.6974766   0.67158706   421013 
 4825000   0.60570084   -2.6979011   -2.6979011   -2.0257321  0.030899288   -2.6979011   0.67216906   421013 
 4826000   0.60568183   -2.6977443   -2.6977443   -2.0255963  0.038319487   -2.6977443   0.67214797   421013 
 4827000   0.60515758   -2.6977861   -2.6977861   -2.0262199  0.034458942   -2.6977861   0.67156618   421013 
 4828000    0.6056533   -2.6983054   -2.6983054   -2.0261891  0.032558047   -2.6983054    0.6721163   421013 
 4829000    0.6053819   -2.6982582   -2.6982582   -2.0264431  0.033276819   -2.6982582   0.67181512   421013 
 4830000   0.60641988   -2.6987482   -2.6987482   -2.0257812  0.042567522   -2.6987482   0.67296701   421013 
 4831000   0.60587779    -2.697707    -2.697707   -2.0253416  0.039018074    -2.697707   0.67236543   421013 
 4832000   0.60588261   -2.6974113   -2.6974113   -2.0250405  0.032682989   -2.6974113   0.67237077   421013 
 4833000   0.60669728   -2.6987993   -2.6987993   -2.0255245  0.033270071   -2.6987993   0.67327485   421013 
 4834000   0.60551582   -2.6967342   -2.6967342   -2.0247705  0.046472712   -2.6967342   0.67196373   421013 
 4835000   0.60614996   -2.6979918   -2.6979918   -2.0253244  0.044178829   -2.6979918   0.67266746   421013 
 4836000   0.60630259   -2.6981264   -2.6981264   -2.0252896  0.033876712   -2.6981264   0.67283685   421013 
 4837000   0.60596072   -2.6982013   -2.6982013   -2.0257438  0.028111911   -2.6982013   0.67245746   421013 
 4838000   0.60439702   -2.6964848   -2.6964848   -2.0257627  0.032839388   -2.6964848   0.67072216   421013 
 4839000   0.60563195   -2.6976014   -2.6976014   -2.0255088  0.038233485   -2.6976014   0.67209261   421013 
 4840000   0.60548304   -2.6973238   -2.6973238   -2.0253964  0.034228215   -2.6973238   0.67192736   421013 
 4841000   0.60595911   -2.6976562   -2.6976562   -2.0252005  0.038517085   -2.6976562   0.67245567   421013 
 4842000   0.60665082    -2.698444    -2.698444   -2.0252207  0.024554047    -2.698444   0.67322329   421013 
 4843000   0.60559231   -2.6971416   -2.6971416    -2.025093  0.034776863   -2.6971416   0.67204862   421013 
 4844000   0.60727419   -2.6993018   -2.6993018   -2.0253868  0.036431108   -2.6993018   0.67391506   421013 
 4845000   0.60711446   -2.6987456   -2.6987456   -2.0250078  0.034832136   -2.6987456   0.67373781   421013 
 4846000   0.60662323   -2.6982029   -2.6982029   -2.0250102  0.038540333   -2.6982029   0.67319267   421013 
 4847000   0.60553495   -2.6965462   -2.6965462   -2.0245613  0.035418021   -2.6965462   0.67198497   421013 
 4848000   0.60620631   -2.6972343   -2.6972343   -2.0245043  0.032059615   -2.6972343      0.67273   421013 
 4849000   0.60614577   -2.6966992   -2.6966992   -2.0240364  0.037728261   -2.6966992   0.67266282   421013 
 4850000   0.60564101   -2.6964925   -2.6964925   -2.0243899  0.022739022   -2.6964925   0.67210266   421013 
 4851000   0.60533924   -2.6961015   -2.6961015   -2.0243338  0.032291715   -2.6961015   0.67176778   421013 
 4852000   0.60587541   -2.6963315   -2.6963315   -2.0239687  0.033487738   -2.6963315   0.67236279   421013 
 4853000   0.60565425   -2.6959009   -2.6959009   -2.0237835  0.034970972   -2.6959009   0.67211736   421013 
 4854000   0.60575614   -2.6957986   -2.6957986   -2.0235681  0.037489614   -2.6957986   0.67223043   421013 
 4855000   0.60605078   -2.6958471   -2.6958471   -2.0232897  0.034410269   -2.6958471    0.6725574   421013 
 4856000    0.6045149   -2.6941221   -2.6941221   -2.0232691  0.037335614   -2.6941221   0.67085298   421013 
 4857000   0.60642051   -2.6968593   -2.6968593   -2.0238916  0.036597024   -2.6968593   0.67296771   421013 
 4858000   0.60551603   -2.6956811   -2.6956811   -2.0237171  0.032116543   -2.6956811   0.67196396   421013 
 4859000   0.60566178   -2.6963297   -2.6963297    -2.024204  0.042480339   -2.6963297   0.67212571   421013 
 4860000   0.60588849   -2.6969358   -2.6969358   -2.0245585  0.040311761   -2.6969358    0.6723773   421013 
 4861000   0.60530951   -2.6970072   -2.6970072   -2.0252724  0.042388966   -2.6970072   0.67173478   421013 
 4862000   0.60569607   -2.6984132   -2.6984132   -2.0262494  0.030588207   -2.6984132   0.67216376   421013 
 4863000   0.60648737   -2.6996092   -2.6996092   -2.0265673  0.031950236   -2.6996092    0.6730419   421013 
 4864000   0.60720122   -2.6997256   -2.6997256   -2.0258915  0.038709104   -2.6997256   0.67383409   421013 
 4865000   0.60652148   -2.6993665   -2.6993665   -2.0262867  0.035714545   -2.6993665   0.67307976   421013 
 4866000   0.60649767   -2.6989457   -2.6989457   -2.0258924  0.033409521   -2.6989457   0.67305333   421013 
 4867000   0.60624757   -2.6984087   -2.6984087   -2.0256329  0.032867917   -2.6984087   0.67277579   421013 
 4868000   0.60596339   -2.6988584   -2.6988584    -2.026398   0.02787622   -2.6988584   0.67246042   421013 
 4869000   0.60596709   -2.6995283   -2.6995283   -2.0270637  0.036622937   -2.6995283   0.67246453   421013 
 4870000   0.60511222   -2.6979636   -2.6979636   -2.0264477   0.03997006   -2.6979636   0.67151584   421013 
 4871000     0.603643   -2.6971885   -2.6971885   -2.0273031  0.038267507   -2.6971885    0.6698854   421013 
 4872000   0.60564488   -2.6986397   -2.6986397   -2.0265327  0.028643234   -2.6986397   0.67210696   421013 
 4873000   0.60696492   -2.7002311   -2.7002311   -2.0266593  0.035199956   -2.7002311   0.67357185   421013 
 4874000   0.60696305   -2.7000289   -2.7000289   -2.0264591  0.035437567   -2.7000289   0.67356978   421013 
 4875000   0.60522539   -2.6980265   -2.6980265   -2.0263851  0.039177481   -2.6980265   0.67164143   421013 
 4876000    0.6065761   -2.6995166   -2.6995166   -2.0263763  0.038206665   -2.6995166   0.67314037   421013 
 4877000   0.60644013    -2.699324    -2.699324   -2.0263345  0.033534777    -2.699324   0.67298948   421013 
 4878000   0.60667097   -2.7001338   -2.7001338   -2.0268882  0.042331075   -2.7001338   0.67324564   421013 
 4879000   0.60615904   -2.6994269   -2.6994269   -2.0267494  0.032148231   -2.6994269   0.67267754   421013 
 4880000   0.60644521   -2.6995228   -2.6995228   -2.0265277  0.040282969   -2.6995228   0.67299511   421013 
 4881000   0.60497604   -2.6979208   -2.6979208   -2.0265561  0.034806049   -2.6979208   0.67136472   421013 
 4882000   0.60474193   -2.6974427   -2.6974427   -2.0263378   0.02967579   -2.6974427   0.67110492   421013 
 4883000   0.60487064   -2.6970482   -2.6970482   -2.0258004  0.025694258   -2.6970482   0.67124776   421013 
 4884000   0.60490104   -2.6971871   -2.6971871   -2.0259056  0.019642971   -2.6971871   0.67128149   421013 
 4885000   0.60480929   -2.6972829   -2.6972829   -2.0261033  0.035292184   -2.6972829   0.67117967   421013 
 4886000   0.60512335   -2.6976752   -2.6976752    -2.026147  0.038033983   -2.6976752   0.67152819   421013 
 4887000   0.60587047   -2.6976707   -2.6976707   -2.0253134  0.021539893   -2.6976707   0.67235731   421013 
 4888000   0.60500878   -2.6968109   -2.6968109   -2.0254098  0.034593611   -2.6968109   0.67140106   421013 
 4889000   0.60622251   -2.6983948   -2.6983948   -2.0256468  0.034475051   -2.6983948   0.67274797   421013 
 4890000   0.60739194   -2.6999024   -2.6999024   -2.0258566  0.030891276   -2.6999024   0.67404574   421013 
 4891000   0.60695122   -2.6995574   -2.6995574   -2.0260008  0.030992895   -2.6995574   0.67355666   421013 
 4892000   0.60545688   -2.6980843   -2.6980843   -2.0261859  0.048539704   -2.6980843   0.67189833   421013 
 4893000   0.60685653   -2.6998891   -2.6998891   -2.0264376  0.030137841   -2.6998891   0.67345157   421013 
 4894000   0.60689261   -2.7001657   -2.7001657   -2.0266741   0.03913294   -2.7001657   0.67349161   421013 
 4895000   0.60661315   -2.6999573   -2.6999573   -2.0267758  0.035245768   -2.6999573   0.67318148   421013 
 4896000   0.60559536   -2.6991772   -2.6991772   -2.0271252  0.040155503   -2.6991772   0.67205201   421013 
 4897000   0.60667281   -2.6997885   -2.6997885   -2.0265408   0.03899026   -2.6997885   0.67324769   421013 
 4898000   0.60587252   -2.6995597   -2.6995597   -2.0272001   0.03757963   -2.6995597   0.67235958   421013 
 4899000   0.60707125   -2.7009654   -2.7009654   -2.0272756    0.0376506   -2.7009654   0.67368986   421013 
 4900000   0.60585868   -2.6993844   -2.6993844   -2.0270402   0.04190844   -2.6993844   0.67234422   421013 
 4901000   0.60626692   -2.7003271   -2.7003271   -2.0275299  0.034685301   -2.7003271   0.67279726   421013 
 4902000   0.60608607   -2.6993928   -2.6993928   -2.0267962  0.033915983   -2.6993928   0.67259656   421013 
 4903000   0.60653866   -2.7000873   -2.7000873   -2.0269885  0.030664846   -2.7000873   0.67309882   421013 
 4904000   0.60615663   -2.6988224   -2.6988224   -2.0261475  0.037588145   -2.6988224   0.67267486   421013 
 4905000   0.60647348   -2.6982642   -2.6982642   -2.0252377  0.035731423   -2.6982642   0.67302648   421013 
 4906000    0.6055469   -2.6980106   -2.6980106   -2.0260123  0.030887319   -2.6980106   0.67199823   421013 
 4907000   0.60494514    -2.697905    -2.697905   -2.0265746  0.035057663    -2.697905   0.67133043   421013 
 4908000   0.60674414   -2.6986962   -2.6986962   -2.0253694  0.040469353   -2.6986962   0.67332685   421013 
 4909000   0.60606558   -2.6985556   -2.6985556   -2.0259818  0.033584114   -2.6985556   0.67257383   421013 
 4910000   0.60553121   -2.6974459   -2.6974459   -2.0254651  0.038409736   -2.6974459   0.67198081   421013 
 4911000   0.60521262   -2.6972986   -2.6972986   -2.0256713  0.045132336   -2.6972986   0.67162727   421013 
 4912000   0.60469262   -2.6969266   -2.6969266   -2.0258763  0.036968734   -2.6969266   0.67105021   421013 
 4913000     0.605144   -2.6973023   -2.6973023   -2.0257512  0.043940838   -2.6973023   0.67155111   421013 
 4914000   0.60506816   -2.6969657   -2.6969657   -2.0254987  0.038693288   -2.6969657   0.67146695   421013 
 4915000    0.6042853   -2.6959832   -2.6959832    -2.025385  0.036369258   -2.6959832   0.67059818   421013 
 4916000   0.60498673   -2.6967287   -2.6967287   -2.0253521  0.044403338   -2.6967287   0.67137658   421013 
 4917000   0.60584443   -2.6977292   -2.6977292   -2.0254008  0.033326925   -2.6977292   0.67232841   421013 
 4918000   0.60522925   -2.6974808   -2.6974808   -2.0258351  0.038843194   -2.6974808   0.67164572   421013 
 4919000   0.60617674   -2.6984417   -2.6984417   -2.0257445  0.035711517   -2.6984417   0.67269718   421013 
 4920000   0.60565607   -2.6971251   -2.6971251   -2.0250057  0.029470877   -2.6971251   0.67211938   421013 
 4921000   0.60612884   -2.6971727   -2.6971727   -2.0245287  0.031863504   -2.6971727   0.67264403   421013 
 4922000   0.60625242   -2.6980208   -2.6980208   -2.0252396  0.030324419   -2.6980208   0.67278117   421013 
 4923000   0.60695228   -2.6993897   -2.6993897   -2.0258318  0.028966993   -2.6993897   0.67355783   421013 
 4924000   0.60693086    -2.699099    -2.699099   -2.0255649  0.036879546    -2.699099   0.67353406   421013 
 4925000   0.60656549   -2.6988319   -2.6988319   -2.0257033  0.035241865   -2.6988319    0.6731286   421013 
 4926000   0.60697543   -2.6987027   -2.6987027   -2.0251191  0.036985715   -2.6987027   0.67358352   421013 
 4927000    0.6066535   -2.6981069   -2.6981069   -2.0248807    0.0337113   -2.6981069   0.67322626   421013 
 4928000   0.60650673   -2.6979521   -2.6979521   -2.0248888  0.036013857   -2.6979521   0.67306339   421013 
 4929000    0.6069934   -2.6987921   -2.6987921   -2.0251887  0.035814941   -2.6987921   0.67360346   421013 
 4930000   0.60690318   -2.6992891   -2.6992891   -2.0257857  0.038116569   -2.6992891   0.67350334   421013 
 4931000   0.60695257    -2.699544    -2.699544   -2.0259858  0.035747473    -2.699544   0.67355815   421013 
 4932000    0.6068114   -2.6993621   -2.6993621   -2.0259606  0.039098777   -2.6993621   0.67340149   421013 
 4933000   0.60604347   -2.6984733   -2.6984733    -2.025924  0.031575634   -2.6984733   0.67254929   421013 
 4934000   0.60669303   -2.6988393   -2.6988393   -2.0255691  0.034155983   -2.6988393   0.67327013   421013 
 4935000   0.60494065   -2.6976892   -2.6976892   -2.0263638  0.039468708   -2.6976892   0.67132544   421013 
 4936000   0.60608124   -2.6987249   -2.6987249   -2.0261337  0.026611353   -2.6987249    0.6725912   421013 
 4937000   0.60631091   -2.6992619   -2.6992619   -2.0264158   0.03461016   -2.6992619   0.67284608   421013 
 4938000   0.60628771   -2.6990336   -2.6990336   -2.0262132  0.037618298   -2.6990336   0.67282033   421013 
 4939000   0.60659664   -2.6989101   -2.6989101   -2.0257469  0.038995634   -2.6989101   0.67316316   421013 
 4940000   0.60642414   -2.6987233   -2.6987233   -2.0257516  0.024289998   -2.6987233   0.67297173   421013 
 4941000   0.60660626   -2.6993672   -2.6993672   -2.0261933  0.036435389   -2.6993672   0.67317384   421013 
 4942000   0.60677911   -2.6996053   -2.6996053   -2.0262396  0.031954024   -2.6996053   0.67336565   421013 
 4943000   0.60631289   -2.6998368   -2.6998368   -2.0269885  0.033038478   -2.6998368   0.67284827   421013 
 4944000   0.60741836   -2.7005183   -2.7005183   -2.0264432  0.033209603   -2.7005183   0.67407506   421013 
 4945000   0.60652787   -2.6996823   -2.6996823   -2.0265954  0.039623528   -2.6996823   0.67308684   421013 
 4946000   0.60621775    -2.699403    -2.699403   -2.0266603  0.040339961    -2.699403   0.67274269   421013 
 4947000   0.60543605   -2.6991747   -2.6991747   -2.0272995  0.036145343   -2.6991747   0.67187521   421013 
 4948000   0.60716854    -2.700551    -2.700551   -2.0267532  0.033987171    -2.700551   0.67379783   421013 
 4949000   0.60504746   -2.6978775   -2.6978775   -2.0264335  0.040378983   -2.6978775   0.67144398   421013 
 4950000   0.60568181   -2.6991874   -2.6991874   -2.0270395  0.036083171   -2.6991874   0.67214794   421013 
 4951000   0.60656134   -2.6993701   -2.6993701   -2.0262461  0.034637191   -2.6993701   0.67312399   421013 
 4952000   0.60421931   -2.6965279   -2.6965279   -2.0260029  0.033470427   -2.6965279   0.67052495   421013 
 4953000   0.60576727   -2.6977037   -2.6977037   -2.0254609  0.034486181   -2.6977037   0.67224278   421013 
 4954000   0.60387094   -2.6955304   -2.6955304    -2.025392  0.034865259   -2.6955304   0.67013835   421013 
 4955000   0.60564596   -2.6974784   -2.6974784   -2.0253702  0.044663909   -2.6974784   0.67210816   421013 
 4956000   0.60548691   -2.6972551   -2.6972551   -2.0253234  0.034998093   -2.6972551   0.67193165   421013 
 4957000   0.60497445   -2.6966937   -2.6966937   -2.0253308  0.042146963   -2.6966937   0.67136296   421013 
 4958000   0.60502951   -2.6966199   -2.6966199   -2.0251958  0.028859887   -2.6966199   0.67142406   421013 
 4959000   0.60532491   -2.6971931   -2.6971931   -2.0254412  0.037671082   -2.6971931   0.67175187   421013 
 4960000   0.60632542   -2.6977358   -2.6977358   -2.0248736  0.031739049   -2.6977358   0.67286217   421013 
 4961000   0.60574026   -2.6973568   -2.6973568    -2.025144   0.03819178   -2.6973568    0.6722128   421013 
 4962000    0.6065413   -2.6974425   -2.6974425   -2.0243407  0.047815574   -2.6974425   0.67310175   421013 
 4963000   0.60672123   -2.6978482   -2.6978482   -2.0245468  0.037674244   -2.6978482   0.67330142   421013 
 4964000   0.60712217    -2.698657    -2.698657   -2.0249107   0.04029887    -2.698657   0.67374637   421013 
 4965000   0.60669968   -2.6983981   -2.6983981   -2.0251206  0.027112998   -2.6983981   0.67327751   421013 
 4966000   0.60555666   -2.6976408   -2.6976408   -2.0256318  0.033425395   -2.6976408   0.67200906   421013 
 4967000   0.60535403   -2.6970925   -2.6970925   -2.0253083  0.044844379   -2.6970925   0.67178419   421013 
 4968000   0.60544169   -2.6979366   -2.6979366   -2.0260551  0.038914884   -2.6979366   0.67188147   421013 
 4969000   0.60649358   -2.6992814   -2.6992814   -2.0262326  0.028662864   -2.6992814    0.6730488   421013 
 4970000   0.60550763   -2.6982505   -2.6982505   -2.0262958  0.039833724   -2.6982505   0.67195464   421013 
 4971000   0.60624969   -2.7000869   -2.7000869   -2.0273087  0.028866162   -2.7000869   0.67277814   421013 
 4972000   0.60549246   -2.6992836   -2.6992836   -2.0273458  0.032742283   -2.6992836   0.67193782   421013 
 4973000   0.60607293   -2.6998377   -2.6998377   -2.0272558  0.028984565   -2.6998377   0.67258198   421013 
 4974000    0.6062552   -2.7006442   -2.7006442     -2.02786  0.041236057   -2.7006442   0.67278425   421013 
 4975000   0.60401356   -2.6986131   -2.6986131   -2.0283165  0.039388682   -2.6986131   0.67029662   421013 
 4976000   0.60631269   -2.7004326   -2.7004326   -2.0275846  0.034294023   -2.7004326   0.67284805   421013 
 4977000   0.60642781   -2.7007103   -2.7007103   -2.0277345  0.031047753   -2.7007103   0.67297581   421013 
 4978000   0.60618972   -2.7010324   -2.7010324   -2.0283208  0.034892826   -2.7010324   0.67271159   421013 
 4979000   0.60556061   -2.7005696   -2.7005696   -2.0285561  0.034540109   -2.7005696   0.67201345   421013 
 4980000   0.60651753   -2.7018855   -2.7018855   -2.0288102  0.028387604   -2.7018855   0.67307537   421013 
 4981000   0.60634123    -2.701416    -2.701416   -2.0285363  0.035700082    -2.701416   0.67287973   421013 
 4982000   0.60573023   -2.7001851   -2.7001851   -2.0279834  0.041509493   -2.7001851   0.67220168   421013 
 4983000   0.60549104   -2.6997879   -2.6997879   -2.0278517  0.036415309   -2.6997879   0.67193624   421013 
 4984000   0.60422402    -2.699125    -2.699125   -2.0285948  0.038078002    -2.699125   0.67053018   421013 
 4985000   0.60555629   -2.7003562   -2.7003562   -2.0283476  0.032118799   -2.7003562   0.67200865   421013 
 4986000   0.60688258      -2.7006      -2.7006   -2.0271195  0.041382072      -2.7006   0.67348048   421013 
 4987000   0.60536336   -2.6991149   -2.6991149   -2.0273204  0.036493453   -2.6991149   0.67179455   421013 
 4988000   0.60615561   -2.6996775   -2.6996775   -2.0270038   0.04856981   -2.6996775   0.67267373   421013 
 4989000   0.60606932   -2.6996814   -2.6996814   -2.0271034  0.029340261   -2.6996814   0.67257798   421013 
 4990000   0.60512005   -2.6990971   -2.6990971   -2.0275725  0.028654232   -2.6990971   0.67152454   421013 
 4991000   0.60410872   -2.6981174   -2.6981174   -2.0277152  0.031319483   -2.6981174   0.67040222   421013 
 4992000   0.60459444   -2.6977626   -2.6977626   -2.0268214    0.0387626   -2.6977626   0.67094125   421013 
 4993000   0.60538861   -2.6988662   -2.6988662   -2.0270436  0.030157935   -2.6988662   0.67182257   421013 
 4994000   0.60530378   -2.6980385   -2.6980385   -2.0263101  0.033994053   -2.6980385   0.67172843   421013 
 4995000   0.60616662   -2.6993908   -2.6993908   -2.0267049  0.032966485   -2.6993908   0.67268595   421013 
 4996000    0.6064468   -2.6993285   -2.6993285   -2.0263317  0.035330188   -2.6993285   0.67299688   421013 
 4997000   0.60664352      -2.6997      -2.6997   -2.0264848  0.038128119      -2.6997   0.67321519   421013 
 4998000   0.60662146   -2.7000756   -2.7000756   -2.0268849  0.039506536   -2.7000756   0.67319071   421013 
 4999000   0.60646483    -2.699676    -2.699676   -2.0266591  0.034618149    -2.699676   0.67301689   421013 
 5000000   0.60628991   -2.6997552   -2.6997552   -2.0269324  0.031273426   -2.6997552   0.67282277   421013 
Loop time of 12114.2 on 288 procs for 5000000 steps with 421013 atoms

Performance: 178303.320 tau/day, 412.739 timesteps/s
93.1% CPU use with 288 MPI tasks x 1 OpenMP threads

MPI task timing breakdown:
Section |  min time  |  avg time  |  max time  |%varavg|  %CPU | %total
-----------------------------------------------------------------------
Pair    | 424.84     | 2041.6     | 3022.7     |1385.2 |  94.8 | 16.85
Bond    | 3.2624     | 3.4255     | 3.7323     |   4.2 | 100.0 |  0.03
Neigh   | 915.44     | 3117.3     | 4562.9     |1506.8 |  99.1 | 25.73
Comm    | 2566.6     | 4272.4     | 8420.9     |2071.6 |  91.4 | 35.27
Output  | 692        | 696.26     | 700.99     |  13.8 |  88.2 |  5.75
Modify  | 883.75     | 1874       | 4211.7     |1163.8 |  91.6 | 15.47
Other   |            | 109.3      |            |       |       |  0.90

Nlocal:        1461.85 ave        2160 max         663 min
Histogram: 1 0 1 6 85 153 34 3 3 2
Nghost:        6237.07 ave        8462 max        2091 min
Histogram: 12 6 7 17 21 8 61 94 54 8
Neighs:        31487.4 ave       49047 max        3102 min
Histogram: 20 3 5 7 18 36 84 76 38 1

Total # of neighbors = 9068382
Ave neighs/atom = 21.539435
Ave special neighs/atom = 0.0000000
Neighbor list builds = 497002
Dangerous builds = 444136

Total wall time: 3:21:59
