LAMMPS (24 Dec 2020)
OMP_NUM_THREADS environment is not set. Defaulting to 1 thread. (src/comm.cpp:94)
  using 1 OpenMP thread(s) per MPI task
# Simple rigid body system
# needed variables: startTemp, temp

units		lj
atom_style	full
dimension 	3
boundary	p p f
pair_style	lj/cut/opt 2.5

variable 	gcmcdisplace	equal 0
variable 	sigma		equal 1.0
variable 	epsilon 	equal 1.0


read_restart	restart.dat.3000000
Reading restart file ...
  restart file = 24 Dec 2020, LAMMPS = 24 Dec 2020
WARNING: Restart file used different # of processors: 48 vs. 192 (src/read_restart.cpp:697)
  restoring atom style full from restart
  orthogonal box = (0.0000000 0.0000000 0.0000000) to (80.000000 80.000000 160.00000)
  6 by 4 by 8 MPI processor grid
  restoring pair style lj/cut/opt from restart
  439061 atoms
Finding 1-2 1-3 1-4 neighbors ...
  special bond factors lj:    0        0        0       
  special bond factors coul:  0        0        0       
     0 = max # of 1-2 neighbors
     0 = max # of 1-3 neighbors
     0 = max # of 1-4 neighbors
     1 = max # of special neighbors
  special bonds CPU = 1.415 seconds
  read_restart CPU = 1.731 seconds

mass		1 1.0
mass		2 1.0
mass		3 1.0


group		solvent type 1
439061 atoms in group solvent


neighbor 	0.4 bin

pair_coeff	1 1 1.0 1.0
pair_coeff	2 2 0.0 0.0
pair_coeff	3 3 0.0 0.0
pair_coeff	2 3 0.0 0.0
pair_coeff	1 2*3 0.0 0.0

pair_modify 	shift yes


balance 	1.05 shift z 10 1.05
Balancing ...
Neighbor list info ...
  update every 1 steps, delay 10 steps, check yes
  max neighbors/atom: 2000, page size: 100000
  master list distance cutoff = 2.9
  ghost atom cutoff = 2.9
  binsize = 1.45, bins = 56 56 111
  1 neighbor lists, perpetual/occasional/extra = 1 0 0
  (1) pair lj/cut/opt, perpetual
      attributes: half, newton on
      pair build: half/bin/newton
      stencil: half/bin/3d/newton
      bin: standard
 rebalancing time: 0.040 seconds
  iteration count = 5
  initial/final maximal load/proc = 3162.0000 2575.0000
  initial/final imbalance factor  = 1.3827327 1.1260394
  x cuts: 0.0000000 0.16666667 0.33333333 0.50000000 0.66666667 0.83333333 1.0000000
  y cuts: 0.0000000 0.25000000 0.50000000 0.75000000 1.0000000
  z cuts: 0.0000000 0.097656250 0.18359375 0.27734375 0.37890625 0.47656250 0.57031250 0.67968750 1.0000000


####################### WALLS ###########################


variable       epsilonWall equal 2*${epsilon}
variable       epsilonWall equal 2*1

variable       cutoffTop   equal   0.7147*${sigma}
variable       cutoffTop   equal   0.7147*1

variable       cutoffLow   equal   3*${sigma}
variable       cutoffLow   equal   3*1


fix            topWall all wall/lj93 zhi EDGE                ${epsilonWall} ${sigma} ${cutoffTop} units box
fix            topWall all wall/lj93 zhi EDGE                2 ${sigma} ${cutoffTop} units box
fix            topWall all wall/lj93 zhi EDGE                2 1 ${cutoffTop} units box
fix            topWall all wall/lj93 zhi EDGE                2 1 0.7147 units box

fix            lowWall all wall/lj93 zlo EDGE                ${epsilonWall} ${sigma} ${cutoffLow} units box
fix            lowWall all wall/lj93 zlo EDGE                2 ${sigma} ${cutoffLow} units box
fix            lowWall all wall/lj93 zlo EDGE                2 1 ${cutoffLow} units box
fix            lowWall all wall/lj93 zlo EDGE                2 1 3 units box


###################### COMPUTES ##########################

compute        bin1 solvent chunk/atom bin/1d z upper 1.0



######################	FIXES ############################


fix 		peclet solvent ave/chunk 1000 1 1000 bin1 density/number norm 		 none ave one file density.profile

fix 		 temp solvent ave/chunk 1000 1 1000 bin1 temp norm none ave one file temp.profile

fix 		2 solvent nve

## Thermostat


region		regthermo block EDGE EDGE EDGE EDGE 0 20

group 		thermo dynamic solvent region regthermo every 1000
dynamic group thermo defined

fix 		3 thermo langevin ${startTemp} ${temp} 10 156453
fix 		3 thermo langevin 1.0 ${temp} 10 156453
fix 		3 thermo langevin 1.0 1.0 10 156453


## Evaporation

region		regevap block EDGE EDGE EDGE EDGE 140 158
fix 		gcmc solvent gcmc 100 100 0 1 780493 ${temp} ${mu} ${gcmcdisplace} region regevap
fix 		gcmc solvent gcmc 100 100 0 1 780493 1.0 ${mu} ${gcmcdisplace} region regevap
fix 		gcmc solvent gcmc 100 100 0 1 780493 1.0 -2.2 ${gcmcdisplace} region regevap
fix 		gcmc solvent gcmc 100 100 0 1 780493 1.0 -2.2 0 region regevap


#### Load balancing

fix 		bal all balance 1000 1.05 shift z 10 1.05

############### Diagnostics and computes ###################
#compute 	com cube	  rigid/local	1 mol x y z
#compute 	quat cube	  rigid/local	1 mol quatw quati quatj quatk

thermo 		1000
thermo_style 	custom step temp epair etotal press pe ke atoms

dump		1 all custom 100000 dump.lammpstrj id mol type x y z
dump 		2 all image 10000 image.*.png type type
dump 		3 all movie 1000 movie.avi type type
#dump 		com cube local 1000 dump.*.xyz c_com[*]
#dump		quat cube      local 1000 dump.*.quat c_quat[*]


restart 	1000000 restart.dat
timestep 	0.005
timer 		full
New timer settings: style=full  mode=nosync  timeout=off


run		5000000
Per MPI rank memory allocation (min/avg/max) = 9.923 | 9.986 | 10.01 Mbytes
Step Temp E_pair TotEng Press PotEng KinEng Atoms 
 3000000     1.016004   -3.1352716   -1.6112691  0.079025997   -3.1352716    1.5240025   439061 
 3001000    1.0156454    -3.134064   -1.6111856  0.074213261    -3.134064    1.5228784   439230 
 3002000    1.0169985   -3.1352517   -1.6108997  0.074952803   -3.1352517     1.524352   439390 
 3003000    1.0171316   -3.1335656   -1.6095412  0.072251731   -3.1335656    1.5240244   439542 
 3004000    1.0164724   -3.1306142   -1.6082668  0.075250894   -3.1306142    1.5223474   439741 
 3005000     1.018008   -3.1319834   -1.6079634  0.075273477   -3.1319834      1.52402   439922 
 3006000    1.0187745   -3.1319743   -1.6073302  0.075102405   -3.1319743    1.5246441   440073 
 3007000    1.0174461   -3.1297361   -1.6075262  0.080465109   -3.1297361    1.5222098   440202 
 3008000    1.0178966   -3.1290838   -1.6067221  0.079900519   -3.1290838    1.5223617   440353 
 3009000    1.0199156   -3.1321111   -1.6072078  0.073869561   -3.1321111    1.5249034   440491 
 3010000    1.0217189   -3.1316885   -1.6046609  0.080227006   -3.1316885    1.5270276   440656 
 3011000    1.0208058   -3.1286572   -1.6035515  0.077693831   -3.1286572    1.5251057   440817 
 3012000    1.0223785   -3.1311497   -1.6042175  0.077062938   -3.1311497    1.5269322   440968 
 3013000    1.0228574   -3.1301163   -1.6030574  0.080133798   -3.1301163    1.5270588   441138 
 3014000    1.0230636   -3.1283763   -1.6016464  0.076462982   -3.1283763    1.5267299   441322 
 3015000     1.024618   -3.1302153   -1.6018378  0.079909527   -3.1302153    1.5283776   441516 
 3016000    1.0248944   -3.1278166   -1.5994213  0.082513796   -3.1278166    1.5283953   441630 
 3017000    1.0262202   -3.1279519   -1.5981303  0.083639917   -3.1279519    1.5298216   441789 
 3018000    1.0279575   -3.1285216   -1.5967274  0.084280208   -3.1285216    1.5317942   441967 
 3019000    1.0272734   -3.1273581   -1.5972341  0.086828478   -3.1273581     1.530124   442155 
 3020000    1.0284858   -3.1286827   -1.5972931  0.083794726   -3.1286827    1.5313896   442311 
 3021000    1.0279649   -3.1278075   -1.5976881  0.085867525   -3.1278075    1.5301194   442454 
 3022000    1.0262496   -3.1251615   -1.5982063  0.080312068   -3.1251615    1.5269552   442631 
 3023000    1.0274004   -3.1275811   -1.5994212  0.082548488   -3.1275811      1.52816   442778 
 3024000    1.0276963   -3.1271213   -1.5990389   0.08363936   -3.1271213    1.5280825   442928 
 3025000    1.0272767   -3.1269471   -1.6001365  0.076759937   -3.1269471    1.5268106   443116 
 3026000    1.0295509   -3.1299245   -1.6002241  0.080646835   -3.1299245    1.5297004   443258 
 3027000    1.0293215   -3.1290079   -1.6000589  0.079618874   -3.1290079     1.528949   443377 
 3028000    1.0308023   -3.1294143   -1.5988353  0.078866119   -3.1294143     1.530579   443542 
 3029000    1.0312103    -3.129174   -1.5984895  0.084125562    -3.129174    1.5306845   443687 
 3030000    1.0312163   -3.1284098   -1.5981958  0.079606568   -3.1284098     1.530214   443826 
 3031000    1.0306488   -3.1265613   -1.5976407  0.089044979   -3.1265613    1.5289206   443957 
 3032000    1.0339382   -3.1298774   -1.5966954  0.086314912   -3.1298774     1.533182   444136 
 3033000    1.0338853   -3.1290287   -1.5964221  0.086823727   -3.1290287    1.5326067   444280 
 3034000    1.0341223   -3.1274593   -1.5951255  0.091426832   -3.1274593    1.5323338   444461 
 3035000    1.0363771   -3.1286495   -1.5935687  0.082917375   -3.1286495    1.5350808   444633 
 3036000    1.0373021   -3.1287935   -1.5928641  0.082467419   -3.1287935    1.5359293   444784 
 3037000    1.0356145   -3.1264791   -1.5934829  0.091900434   -3.1264791    1.5329962   444910 
 3038000    1.0376842   -3.1287256    -1.593104   0.08161147   -3.1287256    1.5356216   445037 
 3039000    1.0373299   -3.1272812   -1.5927597  0.083087876   -3.1272812    1.5345214   445204 
 3040000    1.0352786   -3.1233596   -1.5924022  0.085755571   -3.1233596    1.5309574   445358 
 3041000    1.0379839    -3.127133   -1.5928571  0.083885048    -3.127133    1.5342758   445556 
 3042000    1.0387322   -3.1266867   -1.5919316   0.08186756   -3.1266867    1.5347551   445738 
 3043000    1.0389389   -3.1255559   -1.5911392  0.088159794   -3.1255559    1.5344167   445925 
 3044000    1.0381023   -3.1225694   -1.5898935  0.089218861   -3.1225694    1.5326759   446072 
 3045000    1.0396855   -3.1243552    -1.589772  0.088689803   -3.1243552    1.5345833   446197 
 3046000     1.041206   -3.1269642   -1.5905636  0.086148958   -3.1269642    1.5364006   446321 
 3047000    1.0404137   -3.1258153   -1.5910824  0.083076567   -3.1258153    1.5347329   446466 
 3048000    1.0419291   -3.1280902   -1.5915624  0.088165967   -3.1280902    1.5365278   446594 
 3049000       1.0404   -3.1251244   -1.5914457  0.088326526   -3.1251244    1.5336788   446767 
 3050000    1.0423886   -3.1264881   -1.5903215  0.089808481   -3.1264881    1.5361666   446896 
 3051000    1.0416346   -3.1238075   -1.5891641  0.083130466   -3.1238075    1.5346434   447016 
 3052000    1.0446303   -3.1255853   -1.5870996  0.088944806   -3.1255853    1.5384856   447182 
 3053000    1.0439799   -3.1242037   -1.5870507  0.088424239   -3.1242037     1.537153   447291 
 3054000    1.0446895   -3.1242266   -1.5865204  0.092754255   -3.1242266    1.5377062   447434 
 3055000    1.0450883   -3.1233122   -1.5854898  0.092898369   -3.1233122    1.5378224   447571 
 3056000    1.0459114    -3.123563    -1.585052  0.089577895    -3.123563     1.538511   447723 
 3057000    1.0458912   -3.1225813    -1.584622  0.088563906   -3.1225813    1.5379593   447875 
 3058000    1.0463059   -3.1227026   -1.5846384  0.090634812   -3.1227026    1.5380642   448022 
 3059000     1.046662    -3.121501   -1.5833837  0.093099498    -3.121501    1.5381173   448159 
 3060000    1.0475026   -3.1233412   -1.5844453  0.084646926   -3.1233412    1.5388959   448292 
 3061000     1.048381   -3.1227381   -1.5830223  0.090848115   -3.1227381    1.5397158   448429 
 3062000     1.049865    -3.124777   -1.5834178   0.08839093    -3.124777    1.5413592   448585 
 3063000    1.0484723   -3.1221559   -1.5833491  0.095138534   -3.1221559    1.5388068   448733 
 3064000    1.0490292   -3.1237361   -1.5845511  0.082920563   -3.1237361     1.539185   448861 
 3065000    1.0484749   -3.1212023   -1.5832622  0.089264524   -3.1212023      1.53794   448987 
 3066000    1.0490814   -3.1211278   -1.5828668  0.087317858   -3.1211278     1.538261   449153 
 3067000    1.0481381   -3.1194705   -1.5832049  0.091188028   -3.1194705    1.5362656   449332 
 3068000    1.0483319    -3.120609   -1.5845414  0.085856839    -3.120609    1.5360676   449473 
 3069000    1.0499174   -3.1216195   -1.5837043  0.092635321   -3.1216195    1.5379152   449612 
 3070000    1.0494385   -3.1199768   -1.5829889  0.090578864   -3.1199768     1.536988   449678 
 3071000     1.050795   -3.1216253   -1.5830988  0.088180601   -3.1216253    1.5385265   449809 
 3072000    1.0501062   -3.1199372    -1.582836  0.091557921   -3.1199372    1.5371012   449931 
 3073000    1.0511788   -3.1212726   -1.5830971  0.086855981   -3.1212726    1.5381755   450076 
 3074000    1.0505676   -3.1185059   -1.5817473  0.090279724   -3.1185059    1.5367587   450229 
 3075000    1.0524865   -3.1204465   -1.5814175  0.092406176   -3.1204465     1.539029   450386 
 3076000    1.0533656   -3.1210483   -1.5812297   0.08520322   -3.1210483    1.5398186   450531 
 3077000    1.0537546   -3.1206946   -1.5807995  0.092521387   -3.1206946    1.5398951   450675 
 3078000    1.0550154   -3.1226912   -1.5814494  0.092492737   -3.1226912    1.5412418   450820 
 3079000     1.055244   -3.1221987   -1.5811425   0.09391774   -3.1221987    1.5410561   450972 
 3080000    1.0565143   -3.1231897   -1.5807778  0.093182863   -3.1231897    1.5424119   451118 
 3081000    1.0556838   -3.1204152    -1.579711  0.093698696   -3.1204152    1.5407042   451263 
 3082000    1.0561572   -3.1216844   -1.5807333  0.091958668   -3.1216844    1.5409511   451393 
 3083000    1.0563138   -3.1213252   -1.5806575  0.092333799   -3.1213252    1.5406677   451543 
 3084000    1.0570839   -3.1237044   -1.5824016  0.093581347   -3.1237044    1.5413028   451686 
 3085000    1.0579302    -3.123129   -1.5811283  0.089726458    -3.123129    1.5420007   451843 
 3086000     1.057398    -3.122504   -1.5818415  0.095419187    -3.122504    1.5406625   452008 
 3087000    1.0575859    -3.122097   -1.5816039  0.088464724    -3.122097    1.5404931   452138 
 3088000    1.0592857   -3.1228314   -1.5802308   0.09257023   -3.1228314    1.5426006   452246 
 3089000     1.059038   -3.1208477   -1.5790713  0.093026911   -3.1208477    1.5417763   452382 
 3090000    1.0590203   -3.1213187   -1.5800043  0.095573245   -3.1213187    1.5413145   452510 
 3091000    1.0599176   -3.1206694   -1.5784785  0.093278985   -3.1206694     1.542191   452636 
 3092000    1.0612276   -3.1214114   -1.5777611   0.09551088   -3.1214114    1.5436503   452767 
 3093000    1.0613817   -3.1207772   -1.5772813  0.093061704   -3.1207772    1.5434959   452878 
 3094000    1.0622877   -3.1202117   -1.5759028  0.093593863   -3.1202117    1.5443089   453026 
 3095000    1.0633475   -3.1204866   -1.5749988  0.099166474   -3.1204866    1.5454879   453132 
 3096000    1.0633485   -3.1205037   -1.5753929  0.098926234   -3.1205037    1.5451108   453243 
 3097000    1.0631557   -3.1194043     -1.57502  0.097396107   -3.1194043    1.5443843   453374 
 3098000    1.0624868   -3.1182248    -1.575224  0.097053127   -3.1182248    1.5430008   453495 
 3099000    1.0631656   -3.1182884   -1.5747987  0.097681616   -3.1182884    1.5434898   453641 
 3100000    1.0615788   -3.1161293   -1.5755138     0.093878   -3.1161293    1.5406156   453809 
 3101000    1.0626586    -3.115527   -1.5737386  0.089951985    -3.115527    1.5417884   453925 
 3102000    1.0641674   -3.1164717    -1.572892  0.095589044   -3.1164717    1.5435797   454042 
 3103000    1.0634746     -3.11393   -1.5718409  0.095582756     -3.11393    1.5420892   454185 
 3104000    1.0637037   -3.1139998   -1.5719146  0.093209686   -3.1139998    1.5420852   454284 
 3105000    1.0646833   -3.1160125   -1.5728537  0.089707741   -3.1160125    1.5431588   454386 
 3106000    1.0646813   -3.1154855    -1.572754   0.08846074   -3.1154855    1.5427315   454511 
 3107000    1.0654956   -3.1140022   -1.5705151  0.093526621   -3.1140022     1.543487   454636 
 3108000    1.0649974   -3.1135208   -1.5710642  0.092469766   -3.1135208    1.5424565   454727 
 3109000    1.0638448     -3.11089   -1.5705839  0.096261448     -3.11089    1.5403062   454869 
 3110000    1.0659705   -3.1127852   -1.5697948  0.095593299   -3.1127852    1.5429904   454985 
 3111000    1.0666317   -3.1136776   -1.5701168  0.093991764   -3.1136776    1.5435608   455099 
 3112000    1.0673591   -3.1132959   -1.5692185  0.097191685   -3.1132959    1.5440773   455257 
 3113000    1.0670783   -3.1122618   -1.5690245  0.091895728   -3.1122618    1.5432373   455385 
 3114000    1.0689957   -3.1129785   -1.5674808  0.096742742   -3.1129785    1.5454978   455536 
 3115000     1.067817    -3.110695   -1.5672639  0.097072533    -3.110695    1.5434311   455643 
 3116000    1.0699461   -3.1139925   -1.5677622  0.094823734   -3.1139925    1.5462303   455725 
 3117000     1.068605   -3.1117847   -1.5678313  0.089745216   -3.1117847    1.5439534   455825 
 3118000    1.0712203   -3.1143171   -1.5670195  0.095056416   -3.1143171    1.5472976   455953 
 3119000    1.0673446   -3.1090861   -1.5678328   0.10171211   -3.1090861    1.5412533   456085 
 3120000    1.0711814   -3.1129543   -1.5667404  0.099156354   -3.1129543    1.5462138   456256 
 3121000    1.0689263   -3.1096565    -1.567242  0.091435268   -3.1096565    1.5424144   456417 
 3122000    1.0704278   -3.1111243   -1.5669052  0.092233131   -3.1111243    1.5442191   456524 
 3123000    1.0709632   -3.1109657   -1.5665088  0.095574046   -3.1109657    1.5444569   456682 
 3124000     1.072751   -3.1135317   -1.5667473   0.09141279   -3.1135317    1.5467844   456756 
 3125000    1.0718225   -3.1123887   -1.5674266  0.091098377   -3.1123887     1.544962   456899 
 3126000    1.0717022   -3.1113771   -1.5670617  0.094436963   -3.1113771    1.5443154   457039 
 3127000    1.0722924   -3.1122439    -1.567487  0.099354164   -3.1122439    1.5447569   457160 
 3128000    1.0738657   -3.1148434   -1.5681583  0.097671576   -3.1148434    1.5466851   457260 
 3129000    1.0714757   -3.1104453   -1.5676377  0.096394921   -3.1104453    1.5428076   457389 
 3130000    1.0731797   -3.1115242   -1.5667224  0.098473723   -3.1115242    1.5448018   457525 
 3131000    1.0718951   -3.1106161   -1.5681421  0.094532091   -3.1106161    1.5424739   457667 
 3132000     1.073699    -3.112428   -1.5677903  0.097595695    -3.112428    1.5446377   457795 
 3133000     1.073952   -3.1131268   -1.5684861  0.098529509   -3.1131268    1.5446407   457902 
 3134000     1.074211   -3.1124188   -1.5678104  0.099930555   -3.1124188    1.5446083   458022 
 3135000    1.0731562   -3.1109626   -1.5683525  0.096856696   -3.1109626    1.5426101   458165 
 3136000    1.0742248   -3.1118744   -1.5681124   0.09087316   -3.1118744     1.543762   458279 
 3137000    1.0751281   -3.1130698   -1.5683973  0.095330492   -3.1130698    1.5446725   458394 
 3138000       1.0768   -3.1144123   -1.5677494   0.10120256   -3.1144123     1.546663   458516 
 3139000    1.0778229   -3.1153184   -1.5675844  0.099482598   -3.1153184     1.547734   458634 
 3140000    1.0771674   -3.1151336   -1.5686377  0.098531197   -3.1151336    1.5464959   458722 
 3141000      1.07683   -3.1146764   -1.5690456  0.099303805   -3.1146764    1.5456308   458835 
 3142000    1.0769862   -3.1160435   -1.5706263  0.096761753   -3.1160435    1.5454171   458965 
 3143000    1.0786131   -3.1162963   -1.5689628  0.097074046   -3.1162963    1.5473335   459089 
 3144000    1.0773043   -3.1135464    -1.568565  0.092952572   -3.1135464    1.5449814   459230 
 3145000    1.0780029    -3.112511   -1.5669113   0.10023765    -3.112511    1.5455997   459344 
 3146000    1.0795474   -3.1131517   -1.5656914   0.09713107   -3.1131517    1.5474603   459449 
 3147000    1.0790234   -3.1119337   -1.5657057  0.093983921   -3.1119337     1.546228   459592 
 3148000    1.0797227   -3.1119734   -1.5650766  0.098410164   -3.1119734    1.5468968   459691 
 3149000    1.0803597    -3.112213   -1.5648613  0.094840072    -3.112213    1.5473517   459827 
 3150000    1.0805761   -3.1113676   -1.5640491   0.10178673   -3.1113676    1.5473185   459929 
 3151000    1.0808601   -3.1118268   -1.5644618   0.09488208   -3.1118268    1.5473651   460036 
 3152000    1.0793035    -3.108798   -1.5641112  0.098411061    -3.108798    1.5446868   460170 
 3153000    1.0828083   -3.1119936   -1.5626747  0.098906364   -3.1119936    1.5493189   460284 
 3154000    1.0814843    -3.109828   -1.5627967  0.097806367    -3.109828    1.5470313   460401 
 3155000    1.0817195   -3.1092469   -1.5622487  0.096925769   -3.1092469    1.5469982   460511 
 3156000    1.0817534   -3.1090158   -1.5623789  0.097522103   -3.1090158    1.5466369   460633 
 3157000    1.0811158   -3.1078334   -1.5626616  0.094542562   -3.1078334    1.5451718   460798 
 3158000    1.0815124   -3.1076222   -1.5622056  0.096839912   -3.1076222    1.5454166   460894 
 3159000    1.0823443   -3.1075809   -1.5614116   0.09633623   -3.1075809    1.5461693   461024 
 3160000    1.0826805    -3.108424   -1.5622139    0.0940053    -3.108424    1.5462101   461155 
 3161000    1.0851852   -3.1102916   -1.5608807  0.095283569   -3.1102916     1.549411   461267 
 3162000    1.0835006   -3.1078885   -1.5613053  0.091749819   -3.1078885    1.5465832   461393 
 3163000    1.0846207   -3.1091282   -1.5612818  0.093462455   -3.1091282    1.5478465   461493 
 3164000    1.0836134   -3.1073955   -1.5613181  0.093304279   -3.1073955    1.5460774   461592 
 3165000     1.083274   -3.1054637   -1.5602187   0.10065344   -3.1054637     1.545245   461696 
 3166000    1.0852165     -3.10785   -1.5601862  0.098723919     -3.10785    1.5476639   461801 
 3167000    1.0863132   -3.1091206   -1.5603186   0.09445942   -3.1091206     1.548802   461928 
 3168000    1.0855202   -3.1070573   -1.5598014   0.10207503   -3.1070573     1.547256   462052 
 3169000    1.0868325   -3.1084047   -1.5596972   0.10186259   -3.1084047    1.5487075   462177 
 3170000     1.087676   -3.1100632   -1.5604454   0.09747453   -3.1100632    1.5496178   462264 
 3171000    1.0869156   -3.1091773   -1.5610647   0.10335948   -3.1091773    1.5481126   462390 
 3172000    1.0874055   -3.1092587   -1.5608972   0.10048252   -3.1092587    1.5483615   462524 
 3173000    1.0899808   -3.1114767   -1.5598508   0.10019324   -3.1114767    1.5516259   462644 
 3174000    1.0885227   -3.1086389   -1.5594937    0.1006758   -3.1086389    1.5491452   462765 
 3175000    1.0888437   -3.1087622   -1.5594984   0.10291673   -3.1087622    1.5492638   462866 
 3176000    1.0886226   -3.1091377   -1.5605598  0.098272829   -3.1091377    1.5485779   462977 
 3177000    1.0904618   -3.1105892   -1.5598573  0.097573425   -3.1105892     1.550732   463115 
 3178000    1.0888543   -3.1093584   -1.5613469   0.10326095   -3.1093584    1.5480115   463245 
 3179000     1.087823   -3.1070326   -1.5608112   0.10117441   -3.1070326    1.5462214   463342 
 3180000    1.0884747   -3.1064647   -1.5597141  0.096079336   -3.1064647    1.5467506   463461 
 3181000    1.0918822   -3.1102391   -1.5589878   0.10228611   -3.1102391    1.5512513   463563 
 3182000    1.0888726   -3.1054702    -1.558855   0.10514167   -3.1054702    1.5466152   463671 
 3183000    1.0901659   -3.1082636   -1.5602054   0.10152798   -3.1082636    1.5480582   463789 
 3184000    1.0910568   -3.1071566   -1.5582741   0.10224389   -3.1071566    1.5488825   463921 
 3185000    1.0918261    -3.109405   -1.5598545  0.097336891    -3.109405    1.5495504   464048 
 3186000    1.0919787   -3.1091459   -1.5597697   0.10185043   -3.1091459    1.5493762   464165 
 3187000    1.0919446   -3.1089636   -1.5600861  0.097048044   -3.1089636    1.5488774   464300 
 3188000    1.0925466   -3.1100751   -1.5606642   0.09361777   -3.1100751    1.5494109   464396 
 3189000     1.092548    -3.109323   -1.5602737  0.094996824    -3.109323    1.5490493   464505 
 3190000    1.0939596   -3.1115536   -1.5609134  0.097558019   -3.1115536    1.5506402   464628 
 3191000     1.093614    -3.109998   -1.5602846  0.094948811    -3.109998    1.5497133   464759 
 3192000    1.0925578   -3.1068404   -1.5589968  0.099017053   -3.1068404    1.5478437   464871 
 3193000    1.0934272   -3.1079321   -1.5592266  0.099461599   -3.1079321    1.5487055   464982 
 3194000    1.0944959   -3.1090905   -1.5592312   0.10516416   -3.1090905    1.5498593   465090 
 3195000    1.0970511   -3.1110035   -1.5578598  0.099724019   -3.1110035    1.5531437   465190 
 3196000     1.096773   -3.1089049   -1.5565422   0.10210579   -3.1089049    1.5523628   465306 
 3197000    1.0979016   -3.1106731   -1.5570735   0.10080677   -3.1106731    1.5535997   465414 
 3198000    1.0971338   -3.1079714   -1.5557818   0.10626927   -3.1079714    1.5521896   465511 
 3199000     1.097764   -3.1083799   -1.5556789  0.099872184   -3.1083799     1.552701   465625 
 3200000    1.0990588   -3.1098568    -1.555695   0.10133555   -3.1098568    1.5541619   465736 
 3201000    1.0980978   -3.1082907    -1.555901   0.10185036   -3.1082907    1.5523897   465860 
 3202000    1.0984845   -3.1073066   -1.5547137    0.1033873   -3.1073066     1.552593   465963 
 3203000    1.0976892   -3.1066919   -1.5555558   0.10325883   -3.1066919    1.5511361   466063 
 3204000    1.0978228   -3.1061404   -1.5552315  0.099615344   -3.1061404    1.5509089   466188 
 3205000    1.0990015   -3.1060167   -1.5537989   0.10354669   -3.1060167    1.5522178   466295 
 3206000    1.0990071   -3.1069714   -1.5550519  0.098994477   -3.1069714    1.5519195   466387 
 3207000    1.0991005   -3.1068246   -1.5550926  0.096258835   -3.1068246     1.551732   466483 
 3208000    1.0998672   -3.1061635   -1.5536919   0.10821449   -3.1061635    1.5524716   466586 
 3209000    1.1000552   -3.1064857   -1.5540813   0.10147868   -3.1064857    1.5524044   466686 
 3210000    1.0988539   -3.1047488   -1.5543089   0.10415179   -3.1047488    1.5504399   466767 
 3211000    1.0999597   -3.1049326   -1.5533513   0.10355028   -3.1049326    1.5515813   466893 
 3212000    1.1000819   -3.1058429   -1.5544713   0.10580198   -3.1058429    1.5513716   467008 
 3213000    1.1005572   -3.1049901   -1.5533537  0.095212679   -3.1049901    1.5516365   467130 
 3214000    1.1010295   -3.1053021   -1.5533684  0.096843932   -3.1053021    1.5519337   467241 
 3215000    1.1012115   -3.1051622   -1.5533407  0.098803238   -3.1051622    1.5518215   467352 
 3216000    1.0994875   -3.1035014   -1.5544673    0.1058725   -3.1035014    1.5490341   467460 
 3217000    1.1002555   -3.1029731   -1.5531356  0.098474325   -3.1029731    1.5498375   467544 
 3218000    1.1009964    -3.105008   -1.5545413  0.097174358    -3.105008    1.5504668   467669 
 3219000    1.1010958   -3.1052615   -1.5549564   0.10107749   -3.1052615    1.5503051   467760 
 3220000    1.1013411   -3.1035067   -1.5531744  0.094091997   -3.1035067    1.5503323   467856 
 3221000    1.1018254   -3.1037417   -1.5531587  0.096284429   -3.1037417    1.5505831   467986 
 3222000     1.103416   -3.1052555   -1.5527988   0.10491344   -3.1052555    1.5524566   468096 
 3223000    1.1031831   -3.1035831   -1.5517955   0.10762384   -3.1035831    1.5517876   468199 
 3224000    1.1055119   -3.1074813   -1.5527634   0.11161213   -3.1074813     1.554718   468303 
 3225000    1.1046432   -3.1066489   -1.5534678   0.10149901   -3.1066489    1.5531812   468398 
 3226000    1.1065667   -3.1078124   -1.5522488   0.10175625   -3.1078124    1.5555636   468495 
 3227000     1.105769   -3.1054172   -1.5514394  0.099357711   -3.1054172    1.5539778   468635 
 3228000    1.1058711   -3.1044575   -1.5506909   0.10342949   -3.1044575    1.5537666   468742 
 3229000    1.1084655   -3.1073804   -1.5503075  0.099060214   -3.1073804    1.5570729   468844 
 3230000    1.1082054   -3.1065968   -1.5502643   0.10401996   -3.1065968    1.5563324   468957 
 3231000    1.1071532   -3.1045083   -1.5499718  0.099434178   -3.1045083    1.5545365   469053 
 3232000    1.1089731   -3.1092943    -1.552594    0.1006524   -3.1092943    1.5567002   469171 
 3233000     1.108448   -3.1074204   -1.5518817   0.10139122   -3.1074204    1.5555387   469299 
 3234000    1.1096305   -3.1086597   -1.5518861   0.10502593   -3.1086597    1.5567736   469427 
 3235000    1.1065419   -3.1042591    -1.552113   0.10624252   -3.1042591    1.5521461   469516 
 3236000    1.1086621   -3.1065355   -1.5516604   0.10452743   -3.1065355     1.554875   469590 
 3237000    1.1091846   -3.1062165   -1.5510558   0.10807468   -3.1062165    1.5551607   469725 
 3238000    1.1098062   -3.1059585   -1.5502276   0.10457774   -3.1059585    1.5557309   469816 
 3239000    1.1084523   -3.1036846   -1.5502417   0.10634689   -3.1036846    1.5534429   469934 
 3240000    1.1105161   -3.1063926   -1.5504018   0.10573694   -3.1063926    1.5559908   470038 
 3241000    1.1103388   -3.1069124   -1.5513753  0.099601968   -3.1069124    1.5555372   470100 
 3242000    1.1099962   -3.1057639   -1.5510837   0.10135921   -3.1057639    1.5546802   470214 
 3243000    1.1095965   -3.1046633     -1.55089   0.10301784   -3.1046633    1.5537734   470319 
 3244000     1.109177   -3.1023658   -1.5495297   0.10176163   -3.1023658     1.552836   470425 
 3245000    1.1092693   -3.1020579   -1.5495415   0.10054536   -3.1020579    1.5525164   470561 
 3246000    1.1095725   -3.1011748   -1.5485013    0.1042072   -3.1011748    1.5526735   470642 
 3247000    1.1118071   -3.1021967   -1.5468919  0.099629894   -3.1021967    1.5553048   470792 
 3248000    1.1116993   -3.1015563   -1.5467525   0.10847433   -3.1015563    1.5548039   470898 
 3249000    1.1112846   -3.1012748   -1.5473016   0.10332651   -3.1012748    1.5539732   470974 
 3250000    1.1132779   -3.1037866   -1.5474325   0.10753432   -3.1037866     1.556354   471097 
 3251000    1.1128042   -3.1025558   -1.5472602   0.10271782   -3.1025558    1.5552955   471217 
 3252000    1.1108057   -3.0999314    -1.547854   0.10628758   -3.0999314    1.5520775   471346 
 3253000    1.1138379   -3.1046146   -1.5485744   0.10290129   -3.1046146    1.5560403   471429 
 3254000    1.1119684   -3.1008261   -1.5478093   0.10737646   -3.1008261    1.5530167   471554 
 3255000    1.1138649   -3.1027787   -1.5474628   0.10191624   -3.1027787    1.5553159   471660 
 3256000    1.1128497   -3.1003474   -1.5468641   0.10199615   -3.1003474    1.5534833   471786 
 3257000    1.1132786   -3.1007789   -1.5470427   0.10499711   -3.1007789    1.5537363   471891 
 3258000    1.1136664   -3.1017593   -1.5477848   0.10049504   -3.1017593    1.5539745   471983 
 3259000    1.1154387   -3.1044033   -1.5482525  0.099145607   -3.1044033    1.5561507   472073 
 3260000     1.115357    -3.103069   -1.5474145   0.10032416    -3.103069    1.5556545   472189 
 3261000    1.1163093   -3.1043912   -1.5478007   0.10407652   -3.1043912    1.5565905   472308 
 3262000    1.1186765   -3.1063204   -1.5468088  0.099876084   -3.1063204    1.5595116   472423 
 3263000    1.1175147   -3.1048798   -1.5473735   0.10504832   -3.1048798    1.5575063   472540 
 3264000    1.1179542   -3.1044671   -1.5466384   0.10436259   -3.1044671    1.5578287   472628 
 3265000    1.1202901   -3.1073095   -1.5465792   0.10700484   -3.1073095    1.5607304   472735 
 3266000    1.1198846   -3.1064375   -1.5466416   0.10876384   -3.1064375    1.5597959   472847 
 3267000    1.1212142   -3.1083049   -1.5470302   0.11118524   -3.1083049    1.5612747   472960 
 3268000     1.121794   -3.1086832   -1.5468753   0.10507669   -3.1086832    1.5618079   473043 
 3269000    1.1203962   -3.1057776   -1.5461959   0.11094986   -3.1057776    1.5595816   473128 
 3270000     1.121216   -3.1058538    -1.545474   0.10774347   -3.1058538    1.5603798   473232 
 3271000     1.123433   -3.1090681   -1.5460555   0.10072733   -3.1090681    1.5630126   473369 
 3272000    1.1213524   -3.1059482   -1.5460873   0.10645495   -3.1059482    1.5598609   473447 
 3273000    1.1208696   -3.1060071   -1.5470416   0.10184322   -3.1060071    1.5589655   473515 
 3274000    1.1195063     -3.10387   -1.5471722   0.10616427     -3.10387    1.5566978   473628 
 3275000    1.1192189   -3.1028872    -1.546888   0.10590935   -3.1028872    1.5559992   473719 
 3276000    1.1210293   -3.1051582   -1.5470466    0.1084967   -3.1051582    1.5581116   473842 
 3277000    1.1214324   -3.1058554   -1.5474928   0.10586032   -3.1058554    1.5583627   473936 
 3278000    1.1226784   -3.1048599   -1.5451442   0.10424945   -3.1048599    1.5597157   474051 
 3279000    1.1222776   -3.1032667   -1.5444498   0.10616007   -3.1032667    1.5588169   474155 
 3280000    1.1227865   -3.1022306   -1.5430949   0.11157285   -3.1022306    1.5591357   474273 
 3281000    1.1221734   -3.1008396   -1.5429199   0.10668894   -3.1008396    1.5579196   474384 
 3282000    1.1241955   -3.1027786   -1.5424331   0.10406234   -3.1027786    1.5603455   474500 
 3283000    1.1230012   -3.1008074   -1.5424612   0.10701834   -3.1008074    1.5583462   474604 
 3284000     1.123091   -3.1004674   -1.5423051   0.10827758   -3.1004674    1.5581622   474698 
 3285000    1.1244193   -3.1019175    -1.542231    0.1036006   -3.1019175    1.5596864   474795 
 3286000    1.1222374   -3.0990359   -1.5426677   0.10634948   -3.0990359    1.5563682   474884 
 3287000    1.1243336   -3.1015033   -1.5424842     0.098093   -3.1015033    1.5590191   474962 
 3288000    1.1241594   -3.1000945   -1.5417336   0.10213901   -3.1000945    1.5583609   475089 
 3289000    1.1222772   -3.0983343   -1.5428838   0.10467147   -3.0983343    1.5554505   475181 
 3290000    1.1247576    -3.100875   -1.5424623   0.10461842    -3.100875    1.5584127   475326 
 3291000    1.1245771   -3.1008528   -1.5430998   0.10199246   -3.1008528    1.5577531   475451 
 3292000    1.1231744   -3.0994959   -1.5439541   0.10333062   -3.0994959    1.5555418   475533 
 3293000    1.1255558   -3.1004098     -1.54196   0.10222443   -3.1004098    1.5584498   475652 
 3294000    1.1250959   -3.1006585   -1.5431009   0.10655013   -3.1006585    1.5575577   475730 
 3295000    1.1261352   -3.1015091    -1.542873   0.10294277   -3.1015091    1.5586361   475840 
 3296000    1.1264887   -3.1006969   -1.5418075   0.10833869   -3.1006969    1.5588894   475912 
 3297000     1.126275   -3.1007896    -1.542507   0.10626389   -3.1007896    1.5582826   476007 
 3298000    1.1282709   -3.1036153   -1.5429252   0.10172792   -3.1036153    1.5606901   476115 
 3299000    1.1270735   -3.1011437   -1.5425127   0.10966096   -3.1011437     1.558631   476238 
 3300000    1.1302374   -3.1043046   -1.5416166   0.10777416   -3.1043046    1.5626881   476335 
 3301000    1.1289741   -3.1015591   -1.5410075   0.10870543   -3.1015591    1.5605516   476454 
 3302000    1.1310628   -3.1040159    -1.540997   0.10821382   -3.1040159    1.5630189   476582 
 3303000    1.1329333   -3.1060371   -1.5407619     0.117001   -3.1060371    1.5652753   476682 
 3304000    1.1312618   -3.1041977   -1.5416088   0.11316945   -3.1041977    1.5625889   476797 
 3305000    1.1328016   -3.1061007   -1.5417393   0.11029296   -3.1061007    1.5643614   476905 
 3306000    1.1303421   -3.1027252   -1.5421267   0.11368622   -3.1027252    1.5605984   477017 
 3307000    1.1310725   -3.1041826   -1.5427983   0.10993971   -3.1041826    1.5613844   477085 
 3308000    1.1330702   -3.1057008     -1.54188   0.10573653   -3.1057008    1.5638208   477183 
 3309000    1.1321783   -3.1031643   -1.5409182    0.1119063   -3.1031643    1.5622461   477288 
 3310000    1.1338695   -3.1061664   -1.5419275   0.10982101   -3.1061664    1.5642389   477392 
 3311000    1.1333049   -3.1047385   -1.5415798   0.10680676   -3.1047385    1.5631587   477484 
 3312000    1.1317465   -3.1028698   -1.5422398   0.11017969   -3.1028698    1.5606301   477600 
 3313000    1.1312179   -3.1013246   -1.5417826   0.11150352   -3.1013246     1.559542   477710 
 3314000    1.1341077   -3.1035954   -1.5404752   0.10966494   -3.1035954    1.5631203   477834 
 3315000     1.133251   -3.1024832   -1.5408999   0.10643801   -3.1024832    1.5615832   477943 
 3316000    1.1337771   -3.1048638     -1.54284   0.10768333   -3.1048638    1.5620238   478030 
 3317000    1.1346028   -3.1033556   -1.5404949   0.10564077   -3.1033556    1.5628607   478122 
 3318000    1.1354302   -3.1049156   -1.5412227   0.10228391   -3.1049156    1.5636929   478216 
 3319000    1.1333691   -3.1020986   -1.5415378   0.10708898   -3.1020986    1.5605608   478306 
 3320000    1.1335785    -3.100703   -1.5401574   0.10954876    -3.100703    1.5605456   478399 
 3321000    1.1333953    -3.100654    -1.540667   0.11303468    -3.100654     1.559987   478493 
 3322000    1.1346842   -3.1020331   -1.5405299   0.10799234   -3.1020331    1.5615032   478572 
 3323000    1.1348584   -3.1011231   -1.5396869    0.1111047   -3.1011231    1.5614362   478666 
 3324000     1.134845   -3.1005694   -1.5395658    0.1078924   -3.1005694    1.5610035   478793 
 3325000    1.1352064   -3.1006363   -1.5395954   0.11263645   -3.1006363    1.5610409   478934 
 3326000    1.1371894   -3.1019089   -1.5384545   0.10808944   -3.1019089    1.5634544   479030 
 3327000    1.1367665   -3.1020188    -1.539485   0.11058182   -3.1020188    1.5625338   479134 
 3328000    1.1350465   -3.0993424   -1.5394788   0.11063385   -3.0993424    1.5598636   479228 
 3329000     1.136997   -3.1026344   -1.5404098   0.11185554   -3.1026344    1.5622246   479326 
 3330000    1.1376372   -3.1024155   -1.5396667    0.1048264   -3.1024155    1.5627488   479435 
 3331000    1.1381776   -3.1040414   -1.5407687   0.11142168   -3.1040414    1.5632727   479502 
 3332000    1.1360909   -3.1015752   -1.5414289   0.10885382   -3.1015752    1.5601463   479582 
 3333000    1.1360564   -3.1035442   -1.5436892   0.11235951   -3.1035442    1.5598551   479657 
 3334000    1.1377765   -3.1032437   -1.5413201   0.11333825   -3.1032437    1.5619237   479747 
 3335000    1.1374469   -3.1037123   -1.5425274   0.11044388   -3.1037123    1.5611849   479835 
 3336000    1.1398673   -3.1058719    -1.541743    0.1049959   -3.1058719    1.5641288   479951 
 3337000    1.1384661   -3.1035928   -1.5416178   0.10470864   -3.1035928    1.5619751   480022 
 3338000    1.1384651   -3.1031976   -1.5414939   0.11611257   -3.1031976    1.5617036   480105 
 3339000    1.1386967   -3.1052397   -1.5435242   0.10914364   -3.1052397    1.5617155   480199 
 3340000    1.1397706   -3.1059375    -1.543029   0.10951807   -3.1059375    1.5629085   480285 
 3341000    1.1409529   -3.1070632    -1.542934   0.10676018   -3.1070632    1.5641292   480408 
 3342000    1.1400535   -3.1055278   -1.5429569   0.10959169   -3.1055278    1.5625709   480508 
 3343000    1.1405529   -3.1055879   -1.5425147   0.11064427   -3.1055879    1.5630733   480564 
 3344000    1.1393397    -3.104848   -1.5436843   0.11170352    -3.104848    1.5611637   480640 
 3345000    1.1421114   -3.1064807   -1.5418414   0.11212418   -3.1064807    1.5646393   480739 
 3346000    1.1442013   -3.1078001   -1.5405715    0.1099537   -3.1078001    1.5672286   480823 
 3347000    1.1429083   -3.1054133   -1.5403334   0.11311105   -3.1054133    1.5650799   480939 
 3348000    1.1438724   -3.1065827   -1.5404495   0.11659492   -3.1065827    1.5661332   481021 
 3349000    1.1441444   -3.1060059   -1.5398129   0.11202926   -3.1060059     1.566193   481117 
 3350000    1.1432419    -3.104883   -1.5401564   0.11502553    -3.104883    1.5647267   481188 
 3351000    1.1445146   -3.1057176   -1.5396233   0.11379622   -3.1057176    1.5660943   481303 
 3352000     1.143991   -3.1050678   -1.5399665   0.11437162   -3.1050678    1.5651014   481388 
 3353000    1.1436275   -3.1059321    -1.541588   0.11038102   -3.1059321    1.5643441   481468 
 3354000    1.1442434   -3.1047783   -1.5398421   0.10951761   -3.1047783    1.5649363   481545 
 3355000    1.1453507   -3.1065442   -1.5404642   0.11042199   -3.1065442      1.56608   481659 
 3356000    1.1466316   -3.1069179   -1.5393761   0.10742675   -3.1069179    1.5675418   481748 
 3357000    1.1466987    -3.106536   -1.5392149   0.11113562    -3.106536    1.5673212   481844 
 3358000    1.1463415   -3.1061745   -1.5396212   0.10872172   -3.1061745    1.5665533   481930 
 3359000    1.1460559   -3.1044039   -1.5385949   0.11206605   -3.1044039    1.5658089   482039 
 3360000    1.1451519    -3.103592   -1.5392551   0.10856365    -3.103592    1.5643368   482112 
 3361000      1.14599   -3.1052642    -1.540172   0.10903696   -3.1052642    1.5650922   482232 
 3362000    1.1456298   -3.1036487   -1.5393826    0.1080122   -3.1036487    1.5642661   482335 
 3363000    1.1459634   -3.1047376   -1.5403662   0.10430251   -3.1047376    1.5643714   482443 
 3364000    1.1465093   -3.1038205   -1.5389926   0.11098004   -3.1038205    1.5648279   482532 
 3365000    1.1468607   -3.1035281   -1.5384605    0.1134223   -3.1035281    1.5650676   482606 
 3366000    1.1477212   -3.1038639   -1.5378557   0.11426323   -3.1038639    1.5660082   482678 
 3367000    1.1479864   -3.1031483   -1.5370703   0.11378464   -3.1031483     1.566078   482768 
 3368000    1.1467619    -3.101774   -1.5376256   0.11595977    -3.101774    1.5641484   482848 
 3369000    1.1498026   -3.1041233   -1.5361717    0.1164843   -3.1041233    1.5679516   482954 
 3370000    1.1486612    -3.103054   -1.5369929   0.11452672    -3.103054    1.5660611   483057 
 3371000    1.1504507   -3.1037896   -1.5355387   0.11176184   -3.1037896    1.5682509   483134 
 3372000    1.1499033   -3.1027957   -1.5355958   0.11158152   -3.1027957    1.5671998   483228 
 3373000    1.1513233   -3.1039121   -1.5351341   0.11457206   -3.1039121     1.568778   483338 
 3374000    1.1514055    -3.104157   -1.5356694   0.11429288    -3.104157    1.5684875   483462 
 3375000    1.1504634   -3.1022208   -1.5353763   0.11263432   -3.1022208    1.5668445   483573 
 3376000    1.1512648   -3.1031109   -1.5355024   0.11742628   -3.1031109    1.5676085   483674 
 3377000    1.1519286   -3.1034135   -1.5352383   0.11042074   -3.1034135    1.5681752   483778 
 3378000    1.1530266   -3.1053271   -1.5359848   0.11191953   -3.1053271    1.5693423   483879 
 3379000    1.1540941   -3.1044953   -1.5339727   0.11189829   -3.1044953    1.5705226   483963 
 3380000    1.1513248   -3.1015772   -1.5352082   0.11568632   -3.1015772     1.566369   484082 
 3381000    1.1522343   -3.1015045   -1.5341507   0.11155577   -3.1015045    1.5673538   484160 
 3382000    1.1547451   -3.1051408   -1.5346766   0.10565093   -3.1051408    1.5704642   484254 
 3383000    1.1538253   -3.1032128   -1.5342782     0.116112   -3.1032128    1.5689346   484340 
 3384000    1.1539518   -3.1030989   -1.5342675   0.11131485   -3.1030989    1.5688314   484425 
 3385000    1.1540287   -3.1028366   -1.5341922    0.1096856   -3.1028366    1.5686444   484515 
 3386000    1.1538237   -3.1027315   -1.5346343   0.11742512   -3.1027315    1.5680972   484598 
 3387000    1.1540932   -3.1032789   -1.5351035   0.11441314   -3.1032789    1.5681754   484687 
 3388000    1.1539379   -3.1032431   -1.5355923   0.10913678   -3.1032431    1.5676507   484784 
 3389000     1.154427   -3.1031094   -1.5351016   0.11633784   -3.1031094    1.5680078   484879 
 3390000    1.1542693   -3.1026372    -1.535128   0.11299033   -3.1026372    1.5675092   484967 
 3391000    1.1543419   -3.1025242   -1.5352526   0.11090023   -3.1025242    1.5672716   485071 
 3392000    1.1557973   -3.1033483   -1.5343627   0.10555098   -3.1033483    1.5689856   485152 
 3393000    1.1555649   -3.1038945   -1.5356347    0.1184569   -3.1038945    1.5682597   485279 
 3394000     1.154299   -3.1019314   -1.5357609   0.11510304   -3.1019314    1.5661705   485394 
 3395000    1.1536505   -3.1021803   -1.5372217   0.11369074   -3.1021803    1.5649585   485497 
 3396000    1.1559566   -3.1040254   -1.5362291   0.11466702   -3.1040254    1.5677962   485587 
 3397000    1.1573685   -3.1049483   -1.5354893   0.11182288   -3.1049483     1.569459   485665 
 3398000     1.154872   -3.1027724   -1.5369567   0.10976608   -3.1027724    1.5658157   485745 
 3399000    1.1559603   -3.1038581   -1.5368539   0.11429871   -3.1038581    1.5670041   485834 
 3400000    1.1579778    -3.104858   -1.5353483   0.11532101    -3.104858    1.5695097   485905 
 3401000    1.1582235   -3.1061081   -1.5366239   0.11690098   -3.1061081    1.5694842   486016 
 3402000    1.1580955   -3.1054938   -1.5364284   0.11509696   -3.1054938    1.5690654   486092 
 3403000    1.1595159   -3.1063532   -1.5356058   0.10981685   -3.1063532    1.5707474   486167 
 3404000    1.1584522   -3.1061745   -1.5371553   0.11197736   -3.1061745    1.5690192   486256 
 3405000    1.1580298    -3.105982   -1.5378735   0.11398892    -3.105982    1.5681086   486361 
 3406000    1.1588246    -3.108493   -1.5396372   0.10879753    -3.108493    1.5688558   486463 
 3407000    1.1603444   -3.1095677   -1.5388417   0.10943117   -3.1095677    1.5707261   486521 
 3408000    1.1579317   -3.1069869   -1.5398844   0.11519046   -3.1069869    1.5671025   486632 
 3409000    1.1607372   -3.1093682    -1.538727    0.1129197   -3.1093682    1.5706412   486712 
 3410000    1.1596826   -3.1079275   -1.5390356    0.1151178   -3.1079275    1.5688918   486812 
 3411000    1.1598616   -3.1083515   -1.5395462   0.10826924   -3.1083515    1.5688053   486914 
 3412000    1.1606912   -3.1086562   -1.5390092   0.11507652   -3.1086562     1.569647   487001 
 3413000    1.1596277   -3.1089817   -1.5410627   0.11458361   -3.1089817     1.567919   487091 
 3414000    1.1610085   -3.1088979   -1.5394116   0.11856015   -3.1088979    1.5694862   487184 
 3415000    1.1621409   -3.1104888    -1.539749   0.11423543   -3.1104888    1.5707398   487270 
 3416000    1.1621352   -3.1108282   -1.5404507   0.11781871   -3.1108282    1.5703776   487380 
 3417000    1.1621842   -3.1093888   -1.5391995    0.1214659   -3.1093888    1.5701893   487459 
 3418000    1.1627309   -3.1104941   -1.5398561   0.11630077   -3.1104941    1.5706379   487549 
 3419000    1.1634973   -3.1114805   -1.5400459   0.11743444   -3.1114805    1.5714347   487623 
 3420000    1.1623889   -3.1097436    -1.540115   0.11619655   -3.1097436    1.5696286   487719 
 3421000    1.1630825   -3.1110157   -1.5407788   0.11374613   -3.1110157    1.5702369   487821 
 3422000    1.1628016   -3.1106176   -1.5411172   0.11196972   -3.1106176    1.5695005   487932 
 3423000    1.1639203   -3.1108941   -1.5401348   0.11618905   -3.1108941    1.5707593   488010 
 3424000    1.1648275   -3.1119564   -1.5404268   0.11156308   -3.1119564    1.5715296   488151 
 3425000    1.1641517   -3.1099997   -1.5396488   0.11785121   -3.1099997    1.5703509   488234 
 3426000    1.1653898   -3.1128241   -1.5411283   0.11152261   -3.1128241    1.5716958   488335 
 3427000    1.1636441   -3.1100953   -1.5410333   0.11933804   -3.1100953     1.569062   488422 
 3428000    1.1647585   -3.1127104   -1.5423935   0.10565531   -3.1127104     1.570317   488499 
 3429000    1.1650537   -3.1106414   -1.5402029   0.11711679   -3.1106414    1.5704385   488585 
 3430000    1.1641469   -3.1090213   -1.5400716    0.1203366   -3.1090213    1.5689497   488668 
 3431000    1.1650332   -3.1095054   -1.5397114   0.11097577   -3.1095054     1.569794   488777 
 3432000    1.1653035   -3.1111373   -1.5412393   0.11317818   -3.1111373    1.5698981   488858 
 3433000    1.1662204   -3.1113115   -1.5403613   0.11537643   -3.1113115    1.5709502   488915 
 3434000     1.164397   -3.1088172   -1.5405541   0.11601352   -3.1088172     1.568263   488987 
 3435000    1.1659608   -3.1112336   -1.5410699   0.11369512   -3.1112336    1.5701638   489051 
 3436000    1.1675139   -3.1132842   -1.5412155    0.1115812   -3.1132842    1.5720687   489109 
 3437000    1.1673334   -3.1125121   -1.5409241   0.11479126   -3.1125121    1.5715879   489183 
 3438000    1.1663935   -3.1109955   -1.5408752   0.11827624   -3.1109955    1.5701203   489246 
 3439000    1.1655182   -3.1121516   -1.5434564   0.11668261   -3.1121516    1.5686952   489323 
 3440000    1.1652572   -3.1101901   -1.5420897   0.11586959   -3.1101901    1.5681004   489399 
 3441000    1.1666967   -3.1119196   -1.5420906   0.11552683   -3.1119196     1.569829   489464 
 3442000    1.1676725   -3.1129308   -1.5420456   0.11352753   -3.1129308    1.5708852   489544 
 3443000    1.1663653   -3.1110273   -1.5422084   0.11650491   -3.1110273     1.568819   489640 
 3444000    1.1673462   -3.1111129   -1.5412375   0.11794576   -3.1111129    1.5698754   489722 
 3445000     1.166504   -3.1109718   -1.5424531   0.11861506   -3.1109718    1.5685187   489792 
 3446000     1.167119   -3.1116171   -1.5425023   0.11803653   -3.1116171    1.5691149   489864 
 3447000    1.1684027   -3.1126173   -1.5420266   0.11575412   -3.1126173    1.5705907   489942 
 3448000    1.1681928   -3.1136482   -1.5436025   0.11404858   -3.1136482    1.5700457   490024 
 3449000    1.1684932    -3.112197   -1.5421353   0.11836348    -3.112197    1.5700618   490145 
 3450000    1.1701351   -3.1131959    -1.541239   0.12016487   -3.1131959    1.5719569   490242 
 3451000    1.1688152   -3.1130354   -1.5430887   0.11482441   -3.1130354    1.5699467   490316 
 3452000    1.1689214   -3.1127097   -1.5429789   0.11605427   -3.1127097    1.5697308   490428 
 3453000     1.169167   -3.1127863   -1.5430264   0.11248567   -3.1127863    1.5697598   490522 
 3454000    1.1691754   -3.1119449   -1.5424843   0.11444711   -3.1119449    1.5694606   490619 
 3455000     1.170936   -3.1128344    -1.541209   0.11344927   -3.1128344    1.5716254   490681 
 3456000    1.1700295   -3.1109945   -1.5409282   0.11650322   -3.1109945    1.5700663   490788 
 3457000    1.1700036   -3.1111084   -1.5413806   0.11611668   -3.1111084    1.5697278   490883 
 3458000    1.1679734     -3.10852   -1.5418448   0.11505345     -3.10852    1.5666752   490986 
 3459000    1.1699205   -3.1095282   -1.5405958   0.11508176   -3.1095282    1.5689324   491097 
 3460000    1.1696583   -3.1099394   -1.5416367   0.11337324   -3.1099394    1.5683028   491184 
 3461000    1.1708667   -3.1114065   -1.5416912    0.1126003   -3.1114065    1.5697154   491249 
 3462000    1.1703369   -3.1103876    -1.541721   0.10700023   -3.1103876    1.5686666   491355 
 3463000    1.1721445   -3.1119369    -1.541132   0.11170376   -3.1119369     1.570805   491444 
 3464000    1.1719355   -3.1106414   -1.5404265   0.11195219   -3.1106414    1.5702149   491541 
 3465000    1.1711207    -3.109403   -1.5405256   0.10997344    -3.109403    1.5688774   491618 
 3466000    1.1727436   -3.1122334   -1.5414662    0.1160863   -3.1122334    1.5707672   491707 
 3467000    1.1704161   -3.1090949   -1.5416269   0.11780777   -3.1090949     1.567468   491764 
 3468000    1.1731049   -3.1128745   -1.5420835   0.11838145   -3.1128745     1.570791   491851 
 3469000    1.1735085   -3.1120658   -1.5410186   0.11505434   -3.1120658    1.5710472   491940 
 3470000    1.1731228   -3.1132644   -1.5430815   0.11329233   -3.1132644    1.5701829   492049 
 3471000    1.1741263   -3.1119735   -1.5407635   0.11893697   -3.1119735      1.57121   492148 
 3472000    1.1747967   -3.1113256   -1.5395187   0.11792007   -3.1113256    1.5718068   492242 
 3473000     1.176568    -3.113532   -1.5395791   0.12227782    -3.113532    1.5739529   492312 
 3474000    1.1757058   -3.1128562   -1.5403346   0.11843855   -3.1128562    1.5725216   492399 
 3475000    1.1741451   -3.1108469   -1.5406933   0.11745383   -3.1108469    1.5701536   492487 
 3476000    1.1753137    -3.111644   -1.5401926   0.11318246    -3.111644    1.5714514   492570 
 3477000     1.175688    -3.111144   -1.5394155   0.11942491    -3.111144    1.5717285   492640 
 3478000     1.178005   -3.1131613   -1.5385973   0.11914479   -3.1131613     1.574564   492722 
 3479000    1.1783454   -3.1144301   -1.5396636     0.117639   -3.1144301    1.5747665   492801 
 3480000    1.1781355   -3.1140361   -1.5398153   0.11949692   -3.1140361    1.5742208   492884 
 3481000    1.1775698   -3.1136698   -1.5404475   0.11673371   -3.1136698    1.5732223   492960 
 3482000    1.1772452   -3.1130663     -1.54052   0.11784365   -3.1130663    1.5725463   493036 
 3483000    1.1790893   -3.1145138   -1.5397182    0.1179847   -3.1145138    1.5747956   493103 
 3484000    1.1781925   -3.1137021   -1.5403531   0.12080283   -3.1137021     1.573349   493181 
 3485000    1.1802597   -3.1160792   -1.5403213   0.12138496   -3.1160792    1.5757579   493291 
 3486000    1.1794189   -3.1147459   -1.5403658    0.1147196   -3.1147459    1.5743801   493371 
 3487000    1.1804139   -3.1163729   -1.5409265   0.11686802   -3.1163729    1.5754464   493453 
 3488000    1.1779039   -3.1132228   -1.5413525   0.11181851   -3.1132228    1.5718704   493524 
 3489000    1.1787478   -3.1144777   -1.5417584    0.1156885   -3.1144777    1.5727193   493611 
 3490000    1.1786853   -3.1154529   -1.5431643   0.11690859   -3.1154529    1.5722886   493720 
 3491000    1.1791531   -3.1155195   -1.5428426   0.11503622   -3.1155195    1.5726769   493794 
 3492000    1.1773145   -3.1122381   -1.5422518   0.12002129   -3.1122381    1.5699863   493869 
 3493000    1.1787217   -3.1141473   -1.5425168   0.11837185   -3.1141473    1.5716305   493942 
 3494000    1.1780675   -3.1125779   -1.5420549    0.1205776   -3.1125779     1.570523   494016 
 3495000    1.1799077   -3.1145338   -1.5417614   0.11671323   -3.1145338    1.5727724   494080 
 3496000    1.1804175   -3.1136975   -1.5404811    0.1188305   -3.1136975    1.5732163   494154 
 3497000    1.1822527   -3.1153995   -1.5398966   0.12181114   -3.1153995    1.5755029   494204 
 3498000    1.1811161   -3.1148802   -1.5411499   0.11701445   -3.1148802    1.5737303   494285 
 3499000    1.1824297   -3.1155114   -1.5402604   0.11933886   -3.1155114     1.575251   494357 
 3500000    1.1815827   -3.1148082   -1.5409658   0.11532806   -3.1148082    1.5738424   494445 
 3501000    1.1816538   -3.1149886   -1.5412518   0.11649154   -3.1149886    1.5737367   494508 
 3502000    1.1812819   -3.1141044   -1.5411303   0.11876736   -3.1141044    1.5729741   494592 
 3503000    1.1823885   -3.1143285    -1.540164   0.11855675   -3.1143285    1.5741645   494681 
 3504000    1.1833014   -3.1156619   -1.5405464   0.12230324   -3.1156619    1.5751155   494764 
 3505000    1.1827221   -3.1135766   -1.5394772   0.11988796   -3.1135766    1.5740994   494841 
 3506000    1.1811107   -3.1120973   -1.5404282   0.12087451   -3.1120973     1.571669   494931 
 3507000    1.1841186   -3.1159401   -1.5405232   0.11744431   -3.1159401    1.5754168   495011 
 3508000    1.1835391   -3.1158607   -1.5414948   0.11625265   -3.1158607     1.574366   495099 
 3509000    1.1821144   -3.1138447   -1.5416312   0.11604478   -3.1138447    1.5722136   495180 
 3510000    1.1831054   -3.1142034   -1.5409196    0.1177192   -3.1142034    1.5732838   495258 
 3511000    1.1835957   -3.1140909   -1.5404474    0.1241826   -3.1140909    1.5736435   495350 
 3512000    1.1856326      -3.1165   -1.5403234   0.11181969      -3.1165    1.5761766   495405 
 3513000    1.1843604   -3.1157704   -1.5415043    0.1159853   -3.1157704    1.5742661   495474 
 3514000    1.1859079   -3.1173257   -1.5412349   0.11585701   -3.1173257    1.5760908   495547 
 3515000    1.1853446   -3.1171709    -1.542102   0.11789575   -3.1171709    1.5750689   495633 
 3516000     1.184796   -3.1173123   -1.5432202   0.11679835   -3.1173123    1.5740921   495711 
 3517000    1.1845414   -3.1164708   -1.5429391    0.1174474   -3.1164708    1.5735317   495781 
 3518000     1.183494     -3.11372   -1.5418714   0.11574327     -3.11372    1.5718487   495873 
 3519000    1.1853309   -3.1153942   -1.5413376   0.11139524   -3.1153942    1.5740566   495946 
 3520000    1.1862272    -3.116474   -1.5415955   0.11840647    -3.116474    1.5748785   496062 
 3521000    1.1863457   -3.1153495   -1.5405899    0.1182128   -3.1153495    1.5747596   496149 
 3522000    1.1867273   -3.1159467   -1.5410297   0.11210671   -3.1159467     1.574917   496259 
 3523000    1.1874901    -3.117466   -1.5417462   0.11631634    -3.117466    1.5757198   496325 
 3524000    1.1858769   -3.1162126   -1.5429472   0.11897544   -3.1162126    1.5732654   496424 
 3525000    1.1870201   -3.1161827   -1.5416639   0.11972063   -3.1161827    1.5745187   496507 
 3526000    1.1875091   -3.1170917   -1.5420829   0.11495038   -3.1170917    1.5750088   496557 
 3527000     1.187426   -3.1167428   -1.5421105   0.11840001   -3.1167428    1.5746322   496641 
 3528000    1.1869008   -3.1152467   -1.5415804   0.11996333   -3.1152467    1.5736663   496726 
 3529000    1.1868059   -3.1149203   -1.5416141   0.11618561   -3.1149203    1.5733062   496800 
 3530000    1.1867447   -3.1166206   -1.5436109   0.11328862   -3.1166206    1.5730097   496868 
 3531000     1.185699   -3.1136273   -1.5422061    0.1236827   -3.1136273    1.5714212   496932 
 3532000    1.1859524   -3.1161431   -1.5445062   0.11784467   -3.1161431    1.5716369   496970 
 3533000    1.1874355   -3.1182487    -1.544849   0.11276392   -3.1182487    1.5733997   497034 
 3534000     1.186216   -3.1157538   -1.5442451   0.11855687   -3.1157538    1.5715087   497121 
 3535000    1.1868864   -3.1165169   -1.5443698   0.12058255   -3.1165169    1.5721471   497200 
 3536000    1.1877314   -3.1180414   -1.5449776   0.11363535   -3.1180414    1.5730638   497264 
 3537000      1.18858   -3.1180961   -1.5441426   0.11146059   -3.1180961    1.5739535   497338 
 3538000    1.1878161   -3.1174943   -1.5448401   0.11822541   -3.1174943    1.5726542   497429 
 3539000    1.1891337   -3.1177111   -1.5435941   0.11959198   -3.1177111     1.574117   497518 
 3540000    1.1894665   -3.1181242   -1.5438705   0.11775383   -3.1181242    1.5742538   497614 
 3541000    1.1911588   -3.1189464   -1.5427188   0.12311934   -3.1189464    1.5762275   497698 
 3542000    1.1911716   -3.1186172   -1.5425976   0.11994883   -3.1186172    1.5760196   497769 
 3543000    1.1904812   -3.1177777   -1.5429121   0.12001322   -3.1177777    1.5748657   497845 
 3544000    1.1912012   -3.1187292   -1.5431768   0.12062694   -3.1187292    1.5755523   497929 
 3545000     1.191204   -3.1180782   -1.5427657   0.12314457   -3.1180782    1.5753125   498006 
 3546000    1.1898136    -3.117282   -1.5440768    0.1216615    -3.117282    1.5732052   498091 
 3547000    1.1919474   -3.1195916   -1.5438023   0.12269841   -3.1195916    1.5757893   498166 
 3548000    1.1899017   -3.1176685   -1.5448774   0.12161457   -3.1176685    1.5727911   498259 
 3549000    1.1900139    -3.118039   -1.5453773   0.11673228    -3.118039    1.5726617   498347 
 3550000    1.1894832   -3.1170377   -1.5453202   0.11609986   -3.1170377    1.5717175   498424 
 3551000    1.1897156   -3.1167718   -1.5450468   0.11932317   -3.1167718     1.571725   498519 
 3552000    1.1908444   -3.1173873   -1.5444455   0.11924224   -3.1173873    1.5729418   498606 
 3553000    1.1917763   -3.1187958   -1.5449229   0.11802754   -3.1187958    1.5738729   498701 
 3554000    1.1917416   -3.1193442    -1.545836   0.11289653   -3.1193442    1.5735083   498802 
 3555000    1.1916144   -3.1183876   -1.5452049   0.11406653   -3.1183876    1.5731827   498852 
 3556000    1.1912725   -3.1190052   -1.5464095   0.11237355   -3.1190052    1.5725957   498895 
 3557000    1.1916133   -3.1185817   -1.5456842   0.11706915   -3.1185817    1.5728975   498942 
 3558000    1.1913697   -3.1185001   -1.5462551    0.1071326   -3.1185001     1.572245   499047 
 3559000    1.1921376   -3.1186957   -1.5456737   0.11554553   -3.1186957     1.573022   499122 
 3560000    1.1912844   -3.1175677   -1.5458951   0.11325203   -3.1175677    1.5716726   499193 
 3561000    1.1911832   -3.1168808   -1.5455336   0.11707424   -3.1168808    1.5713472   499254 
 3562000    1.1922557    -3.117569   -1.5449835   0.12015567    -3.117569    1.5725855   499310 
 3563000    1.1924313   -3.1187738   -1.5461961   0.10772273   -3.1187738    1.5725777   499386 
 3564000    1.1926761   -3.1179924   -1.5452241   0.11182326   -3.1179924    1.5727684   499428 
 3565000     1.193746   -3.1177211   -1.5438224   0.11674845   -3.1177211    1.5738987   499517 
 3566000    1.1925378   -3.1174046   -1.5453317   0.11969022   -3.1174046    1.5720729   499591 
 3567000    1.1955236   -3.1202029   -1.5444968   0.11627388   -3.1202029    1.5757062   499687 
 3568000    1.1938687   -3.1174259   -1.5441874   0.12314723   -3.1174259    1.5732384   499778 
 3569000    1.1939397   -3.1189591   -1.5458379   0.11592727   -3.1189591    1.5731212   499845 
 3570000    1.1956158   -3.1210457   -1.5459178   0.11767405   -3.1210457    1.5751279   499909 
 3571000    1.1967695   -3.1223874   -1.5459919   0.11760847   -3.1223874    1.5763955   499989 
 3572000    1.1961038   -3.1211683   -1.5459363   0.12160033   -3.1211683     1.575232   500080 
 3573000    1.1944815   -3.1197256    -1.546885   0.12191169   -3.1197256    1.5728406   500161 
 3574000    1.1963421   -3.1225177   -1.5475104   0.12181942   -3.1225177    1.5750073   500251 
 3575000    1.1969358   -3.1232727   -1.5477326   0.11412951   -3.1232727      1.57554   500330 
 3576000    1.1955502   -3.1216379   -1.5482361   0.11900159   -3.1216379    1.5734017   500430 
 3577000    1.1954431    -3.120289   -1.5472797   0.11604916    -3.120289    1.5730093   500510 
 3578000    1.1955483   -3.1202471   -1.5473885   0.11793004   -3.1202471    1.5728585   500602 
 3579000    1.1979356   -3.1224685   -1.5467683    0.1207072   -3.1224685    1.5757002   500697 
 3580000    1.1978645   -3.1209779   -1.5456511   0.11602951   -3.1209779    1.5753268   500786 
 3581000    1.1989252   -3.1220412   -1.5455587   0.12125534   -3.1220412    1.5764825   500862 
 3582000      1.19987   -3.1229925   -1.5455197   0.11955296   -3.1229925    1.5774728   500942 
 3583000    1.1998935   -3.1220937   -1.5448198   0.11848573   -3.1220937    1.5772739   501015 
 3584000    1.1985102   -3.1210502   -1.5457801   0.11968984   -3.1210502      1.57527   501074 
 3585000    1.1989474   -3.1228901   -1.5472436   0.11935953   -3.1228901    1.5756465   501137 
 3586000    1.2002107   -3.1234293   -1.5463303   0.11774542   -3.1234293     1.577099   501203 
 3587000    1.1986993   -3.1228722   -1.5479822   0.11846653   -3.1228722    1.5748899   501274 
 3588000    1.1978345   -3.1209898   -1.5474527   0.11813269   -3.1209898    1.5735371   501343 
 3589000    1.1989561   -3.1219302   -1.5471082   0.11420213   -3.1219302     1.574822   501403 
 3590000    1.2006678   -3.1247919   -1.5479511   0.11286854   -3.1247919    1.5768408   501476 
 3591000    1.1996826   -3.1223086   -1.5469628   0.11932537   -3.1223086    1.5753458   501540 
 3592000    1.2011011   -3.1245008   -1.5475123   0.11451597   -3.1245008    1.5769885   501610 
 3593000    1.1988417   -3.1204559   -1.5466692   0.12124993   -3.1204559    1.5737867   501685 
 3594000    1.2016711   -3.1230868   -1.5458122   0.11858302   -3.1230868    1.5772746   501757 
 3595000    1.2014749   -3.1224953   -1.5458176   0.11275986   -3.1224953    1.5766777   501865 
 3596000    1.2012914   -3.1204242   -1.5442762   0.12229081   -3.1204242    1.5761479   501957 
 3597000    1.2024575   -3.1223346    -1.544905   0.12145305   -3.1223346    1.5774296   502036 
 3598000    1.2026359   -3.1209685   -1.5435342   0.12267101   -3.1209685    1.5774343   502109 
 3599000    1.2015007   -3.1208358   -1.5451132   0.11981345   -3.1208358    1.5757226   502180 
 3600000    1.2024686   -3.1228088   -1.5460963   0.11938766   -3.1228088    1.5767125   502269 
 3601000    1.2022072   -3.1217966   -1.5456276   0.11979517   -3.1217966    1.5761689   502333 
 3602000    1.2033268   -3.1235014   -1.5461127   0.11692349   -3.1235014    1.5773887   502412 
 3603000    1.2030808   -3.1220153   -1.5451751   0.12052274   -3.1220153    1.5768402   502484 
 3604000    1.2032998   -3.1234134   -1.5464525   0.12124984   -3.1234134    1.5769609   502537 
 3605000    1.2038444   -3.1245633   -1.5470927   0.11918161   -3.1245633    1.5774706   502602 
 3606000    1.2031224    -3.123238   -1.5469832     0.118678    -3.123238    1.5762548   502688 
 3607000    1.2042206   -3.1246804   -1.5472252   0.11775848   -3.1246804    1.5774551   502764 
 3608000    1.2025993   -3.1217596    -1.546657   0.11975303   -3.1217596    1.5751026   502837 
 3609000    1.2036885   -3.1229713   -1.5466616   0.11806638   -3.1229713    1.5763097   502907 
 3610000    1.2050027   -3.1242929   -1.5464786   0.12064324   -3.1242929    1.5778144   502976 
 3611000    1.2043826   -3.1243385   -1.5475838   0.11671533   -3.1243385    1.5767547   503055 
 3612000    1.2046955   -3.1255681   -1.5486076   0.11398285   -3.1255681    1.5769605   503120 
 3613000    1.2070021   -3.1268511   -1.5470753   0.11891582   -3.1268511    1.5797759   503185 
 3614000     1.203394   -3.1223959   -1.5475209   0.11936255   -3.1223959     1.574875   503242 
 3615000    1.2036043   -3.1219976   -1.5470695   0.11794673   -3.1219976    1.5749281   503313 
 3616000     1.205325   -3.1249051   -1.5479386   0.12024522   -3.1249051    1.5769666   503381 
 3617000    1.2041728   -3.1247809   -1.5495002   0.11743305   -3.1247809    1.5752807   503438 
 3618000    1.2062411   -3.1266589   -1.5488856   0.11942815   -3.1266589    1.5777733   503506 
 3619000     1.204596   -3.1248015   -1.5493677   0.12330713   -3.1248015    1.5754338   503566 
 3620000    1.2037369   -3.1243889   -1.5502787   0.11752167   -3.1243889    1.5741102   503630 
 3621000    1.2067279   -3.1268543   -1.5490239   0.11791327   -3.1268543    1.5778303   503691 
 3622000    1.2060011   -3.1244964   -1.5477792   0.11984416   -3.1244964    1.5767172   503743 
 3623000    1.2062517   -3.1253364   -1.5484951   0.11974263   -3.1253364    1.5768413   503808 
 3624000    1.2072986   -3.1264991   -1.5485428   0.11787254   -3.1264991    1.5779562   503889 
 3625000    1.2064468   -3.1263111   -1.5497374   0.11602861   -3.1263111    1.5765738   503975 
 3626000    1.2071472   -3.1269293   -1.5497594   0.12041534   -3.1269293    1.5771699   504077 
 3627000    1.2068688   -3.1263043   -1.5496326   0.12038779   -3.1263043    1.5766717   504120 
 3628000    1.2085336   -3.1268951   -1.5482677   0.11934809   -3.1268951    1.5786274   504190 
 3629000    1.2088396   -3.1273443    -1.548596   0.12556911   -3.1273443    1.5787484   504279 
 3630000    1.2073594   -3.1271402   -1.5504813   0.12295323   -3.1271402     1.576659   504329 
 3631000    1.2079433   -3.1266122   -1.5494753   0.11782372   -3.1266122    1.5771369   504420 
 3632000     1.208534   -3.1251048   -1.5474595   0.12766993   -3.1251048    1.5776454   504504 
 3633000    1.2089074   -3.1266691   -1.5487708   0.12203949   -3.1266691    1.5778983   504579 
 3634000    1.2083743   -3.1258892   -1.5489305   0.12315049   -3.1258892    1.5769587   504657 
 3635000    1.2084267   -3.1281806   -1.5513628   0.12234027   -3.1281806    1.5768177   504724 
 3636000    1.2081675   -3.1286497   -1.5524576   0.11827946   -3.1286497    1.5761921   504816 
 3637000    1.2092437   -3.1301866   -1.5528903   0.11926783   -3.1301866    1.5772963   504912 
 3638000    1.2090236   -3.1300053   -1.5532584   0.11809601   -3.1300053    1.5767469   504996 
 3639000    1.2080115   -3.1282678   -1.5530778   0.11855959   -3.1282678    1.5751899   505072 
 3640000    1.2096062   -3.1293342   -1.5523179   0.12215793   -3.1293342    1.5770163   505153 
 3641000    1.2086325   -3.1284162   -1.5528969   0.12139065   -3.1284162    1.5755193   505226 
 3642000    1.2100047   -3.1295698    -1.552521   0.12322353   -3.1295698    1.5770488   505309 
 3643000    1.2098211   -3.1303009   -1.5536599   0.11887783   -3.1303009    1.5766411   505363 
 3644000    1.2105052   -3.1311655   -1.5539075   0.12006191   -3.1311655     1.577258   505451 
 3645000    1.2103332   -3.1304003   -1.5536316   0.11569884   -3.1304003    1.5767687   505536 
 3646000     1.211122   -3.1304794   -1.5528673    0.1242734   -3.1304794    1.5776122   505595 
 3647000     1.213695   -3.1325926   -1.5518507   0.12270104   -3.1325926    1.5807419   505666 
 3648000    1.2109687   -3.1302915   -1.5532532   0.12373573   -3.1302915    1.5770382   505715 
 3649000    1.2123596   -3.1308128   -1.5521662   0.12440183   -3.1308128    1.5786467   505780 
 3650000    1.2126794   -3.1315107   -1.5527566   0.12631464   -3.1315107    1.5787541   505879 
 3651000      1.21336   -3.1324357    -1.553036   0.12085895   -3.1324357    1.5793997   505956 
 3652000    1.2126836   -3.1312382   -1.5529311   0.12356457   -3.1312382    1.5783071   506024 
 3653000    1.2136686   -3.1331628   -1.5538265   0.12511082   -3.1331628    1.5793363   506105 
 3654000    1.2122665   -3.1305773   -1.5533803   0.12552244   -3.1305773     1.577197   506206 
 3655000    1.2118806   -3.1301163   -1.5537421   0.12161369   -3.1301163    1.5763742   506309 
 3656000     1.212065   -3.1305308    -1.554085   0.12433952   -3.1305308    1.5764459   506363 
 3657000     1.212527    -3.130874   -1.5540639   0.12537055    -3.130874    1.5768101   506439 
 3658000    1.2141029   -3.1332505   -1.5545655    0.1192622   -3.1332505    1.5786849   506495 
 3659000    1.2133321   -3.1309019   -1.5534124   0.11897484   -3.1309019    1.5774895   506557 
 3660000     1.212493   -3.1304982   -1.5543422   0.11398168   -3.1304982     1.576156   506635 
 3661000    1.2116767   -3.1305503   -1.5557352   0.12273737   -3.1305503    1.5748151   506725 
 3662000    1.2112478   -3.1300268   -1.5559649   0.12090748   -3.1300268    1.5740619   506788 
 3663000    1.2121832   -3.1303844   -1.5552996    0.1230555   -3.1303844    1.5750849   506850 
 3664000    1.2144344    -3.132664    -1.554872   0.11898224    -3.132664    1.5777921   506920 
 3665000    1.2148938   -3.1327984   -1.5546119   0.12399732   -3.1327984    1.5781865   506985 
 3666000    1.2159006   -3.1339825   -1.5546998   0.11588156   -3.1339825    1.5792827   507053 
 3667000    1.2169045   -3.1344619    -1.554187   0.12270595   -3.1344619    1.5802749   507153 
 3668000    1.2148975   -3.1314715   -1.5539709    0.1226585   -3.1314715    1.5775006   507207 
 3669000    1.2153883   -3.1305588   -1.5526262   0.12112139   -3.1305588    1.5779326   507273 
 3670000    1.2154573   -3.1322044   -1.5544435   0.11876564   -3.1322044    1.5777608   507357 
 3671000    1.2148485   -3.1309879   -1.5543125   0.12227244   -3.1309879    1.5766754   507452 
 3672000    1.2157266   -3.1320826   -1.5545163   0.11557437   -3.1320826    1.5775663   507532 
 3673000    1.2167898   -3.1326833   -1.5540266   0.12369424   -3.1326833    1.5786567   507625 
 3674000    1.2169889   -3.1326517   -1.5540135   0.11174448   -3.1326517    1.5786381   507714 
 3675000    1.2164585   -3.1333144   -1.5555692   0.11778401   -3.1333144    1.5777452   507780 
 3676000    1.2160669    -3.134305   -1.5573318   0.11386734    -3.134305    1.5769732   507865 
 3677000    1.2156743   -3.1337216    -1.557574   0.12179981   -3.1337216    1.5761475   507967 
 3678000    1.2178328   -3.1352468   -1.5564811    0.1146879   -3.1352468    1.5787658   508025 
 3679000    1.2167237   -3.1332564   -1.5562854   0.11706039   -3.1332564     1.576971   508140 
 3680000    1.2175196   -3.1343417   -1.5565192   0.11651448   -3.1343417    1.5778225   508198 
 3681000    1.2187591    -3.135457   -1.5562116    0.1166583    -3.135457    1.5792455   508257 
 3682000    1.2178055   -3.1348884   -1.5571829   0.11873847   -3.1348884    1.5777055   508355 
 3683000    1.2195842    -3.135183   -1.5553999   0.12264837    -3.135183    1.5797831   508428 
 3684000    1.2192284   -3.1351965    -1.556042   0.12314641   -3.1351965    1.5791545   508482 
 3685000    1.2184069   -3.1350956   -1.5572503   0.12288288   -3.1350956    1.5778453   508561 
 3686000      1.21974   -3.1351117   -1.5558071   0.12268174   -3.1351117    1.5793046   508647 
 3687000    1.2204636   -3.1351084   -1.5550563   0.12122023   -3.1351084     1.580052   508708 
 3688000    1.2197263   -3.1346318   -1.5558259   0.12670226   -3.1346318    1.5788058   508802 
 3689000    1.2215435   -3.1369855   -1.5561258    0.1239306   -3.1369855    1.5808597   508898 
 3690000    1.2219999   -3.1365933   -1.5553543   0.12492537   -3.1365933     1.581239   508966 
 3691000    1.2225001   -3.1392049   -1.5575454   0.12538645   -3.1392049    1.5816594   509039 
 3692000    1.2211929    -3.136625    -1.556871   0.12283767    -3.136625     1.579754   509108 
 3693000    1.2194765   -3.1344539   -1.5571278    0.1269382   -3.1344539    1.5773261   509175 
 3694000    1.2207609   -3.1364089   -1.5576633   0.12652513   -3.1364089    1.5787456   509253 
 3695000    1.2202566   -3.1367617   -1.5589255   0.12585622   -3.1367617    1.5778362   509336 
 3696000    1.2207745   -3.1374903   -1.5591642    0.1186131   -3.1374903    1.5783261   509394 
 3697000    1.2212492   -3.1363506   -1.5575873   0.12273044   -3.1363506    1.5787633   509451 
 3698000    1.2218683   -3.1361308   -1.5568338   0.12255805   -3.1361308     1.579297   509537 
 3699000    1.2194315   -3.1337286   -1.5577699   0.12735503   -3.1337286    1.5759587   509598 
 3700000    1.2214292   -3.1354677   -1.5571441   0.12369697   -3.1354677    1.5783236   509668 
 3701000    1.2214277       -3.136   -1.5578579   0.12554057       -3.136    1.5781421   509726 
 3702000    1.2212404   -3.1358998   -1.5582597   0.12109975   -3.1358998    1.5776401   509810 
 3703000    1.2225269   -3.1364703   -1.5573758   0.11683174   -3.1364703    1.5790945   509877 
 3704000    1.2228402   -3.1363614   -1.5570511   0.12683204   -3.1363614    1.5793103   509938 
 3705000    1.2238592   -3.1380378   -1.5575541    0.1238305   -3.1380378    1.5804837   509984 
 3706000    1.2232694   -3.1375787    -1.558092   0.12053373   -3.1375787    1.5794867   510060 
 3707000    1.2234607   -3.1364448   -1.5569341    0.1213207   -3.1364448    1.5795108   510132 
 3708000    1.2241306   -3.1378057    -1.557678   0.12218375   -3.1378057    1.5801278   510212 
 3709000    1.2242455   -3.1381756   -1.5581287   0.11725226   -3.1381756    1.5800469   510286 
 3710000    1.2233376   -3.1372693   -1.5586509   0.12050273   -3.1372693    1.5786184   510369 
 3711000    1.2236415   -3.1386263   -1.5597859   0.12251977   -3.1386263    1.5788404   510424 
 3712000    1.2245818   -3.1394902   -1.5596129   0.12245006   -3.1394902    1.5798773   510481 
 3713000    1.2252367    -3.139453    -1.558994   0.12471097    -3.139453     1.580459   510566 
 3714000    1.2254099   -3.1391405    -1.558715   0.12323104   -3.1391405    1.5804255   510649 
 3715000    1.2260297   -3.1386179   -1.5576221   0.12989207   -3.1386179    1.5809957   510723 
 3716000    1.2265454   -3.1383854   -1.5569693   0.12858668   -3.1383854    1.5814161   510802 
 3717000    1.2260941   -3.1380906    -1.557507   0.12314879   -3.1380906    1.5805836   510883 
 3718000    1.2292695   -3.1414027   -1.5569582   0.12628803   -3.1414027    1.5844445   510958 
 3719000    1.2265016   -3.1386849   -1.5580091   0.12433842   -3.1386849    1.5806759   511023 
 3720000    1.2264191   -3.1392818   -1.5589504   0.13054403   -3.1392818    1.5803313   511100 
 3721000    1.2282734   -3.1415404   -1.5590178   0.12474197   -3.1415404    1.5825226   511164 
 3722000    1.2293446   -3.1420419   -1.5582911     0.128963   -3.1420419    1.5837509   511213 
 3723000      1.22832   -3.1398738   -1.5576008   0.12220809   -3.1398738    1.5822731   511264 
 3724000    1.2290558   -3.1426802   -1.5596636   0.12518288   -3.1426802    1.5830166   511330 
 3725000    1.2290213    -3.142349   -1.5596432   0.12378936    -3.142349    1.5827059   511416 
 3726000     1.230336   -3.1437909   -1.5595653    0.1202506   -3.1437909    1.5842256   511472 
 3727000    1.2276283   -3.1402497    -1.559758   0.12395323   -3.1402497    1.5804917   511552 
 3728000    1.2274515   -3.1408813   -1.5607592   0.12725154   -3.1408813    1.5801221   511598 
 3729000    1.2271024   -3.1403634   -1.5608327     0.121758   -3.1403634    1.5795306   511644 
 3730000    1.2280073   -3.1410408   -1.5605555   0.12144806   -3.1410408    1.5804853   511712 
 3731000    1.2277777   -3.1414705    -1.561506   0.11702184   -3.1414705    1.5799645   511785 
 3732000    1.2290526   -3.1412882   -1.5598932   0.12696298   -3.1412882     1.581395   511853 
 3733000    1.2289675   -3.1404586    -1.559414   0.12399049   -3.1404586    1.5810445   511931 
 3734000    1.2290764   -3.1415255   -1.5605386   0.12450394   -3.1415255     1.580987   511995 
 3735000     1.226994   -3.1396327   -1.5615401   0.12458219   -3.1396327    1.5780926   512065 
 3736000     1.227262   -3.1388513    -1.560636   0.12298538   -3.1388513    1.5782154   512137 
 3737000    1.2298267    -3.143159   -1.5617907   0.12173857    -3.143159    1.5813683   512184 
 3738000    1.2274941   -3.1398832   -1.5616898   0.12788303   -3.1398832    1.5781934   512241 
 3739000    1.2288233   -3.1414768   -1.5616732    0.1202527   -3.1414768    1.5798036   512273 
 3740000    1.2285707   -3.1414068   -1.5620481   0.12390755   -3.1414068    1.5793587   512312 
 3741000    1.2285948   -3.1412734   -1.5621519   0.12462124   -3.1412734    1.5791215   512399 
 3742000    1.2294657   -3.1423745   -1.5623495   0.12468706   -3.1423745     1.580025   512469 
 3743000    1.2281903   -3.1430725   -1.5648283   0.12547438   -3.1430725    1.5782442   512515 
 3744000    1.2294374   -3.1444571   -1.5648693   0.11956761   -3.1444571    1.5795878   512599 
 3745000    1.2304837   -3.1449358   -1.5642318   0.11926038   -3.1449358     1.580704   512673 
 3746000     1.229193   -3.1425056   -1.5636661   0.12041777   -3.1425056    1.5788396   512740 
 3747000     1.231003   -3.1447449   -1.5637808   0.13003994   -3.1447449    1.5809641   512805 
 3748000    1.2305955   -3.1448213   -1.5645747   0.12443308   -3.1448213    1.5802466   512868 
 3749000    1.2318756   -3.1447064   -1.5630842   0.12544804   -3.1447064    1.5816221   512955 
 3750000    1.2325112   -3.1462281   -1.5639504   0.13245709   -3.1462281    1.5822777   513007 
 3751000    1.2324304   -3.1449965   -1.5630229   0.12783644   -3.1449965    1.5819736   513072 
 3752000    1.2335453   -3.1456609   -1.5624445   0.13059168   -3.1456609    1.5832164   513133 
 3753000    1.2334486   -3.1468585    -1.563939   0.13104866   -3.1468585    1.5829195   513189 
 3754000    1.2356348   -3.1496743   -1.5642025   0.12784036   -3.1496743    1.5854718   513271 
 3755000    1.2324669   -3.1461739    -1.564924   0.12812472   -3.1461739      1.58125   513322 
 3756000    1.2337754   -3.1472969   -1.5645625   0.12874507   -3.1472969    1.5827344   513385 
 3757000    1.2337595   -3.1458252   -1.5633114   0.12896656   -3.1458252    1.5825138   513450 
 3758000    1.2340763   -3.1475338   -1.5647525   0.12676393   -3.1475338    1.5827813   513495 
 3759000    1.2348806   -3.1474367   -1.5638952   0.12756581   -3.1474367    1.5835415   513583 
 3760000    1.2341348   -3.1457911   -1.5634185   0.13033337   -3.1457911    1.5823726   513652 
 3761000    1.2356349   -3.1479925   -1.5638631   0.12529045   -3.1479925    1.5841294   513706 
 3762000    1.2333819    -3.144046    -1.563002   0.12312354    -3.144046     1.581044   513770 
 3763000     1.234192   -3.1461715   -1.5642768   0.12386535   -3.1461715    1.5818947   513831 
 3764000    1.2326998   -3.1446123   -1.5648025   0.12635667   -3.1446123    1.5798099   513887 
 3765000    1.2342759   -3.1468411   -1.5652083   0.12478207   -3.1468411    1.5816329   513951 
 3766000    1.2344618   -3.1461618   -1.5645308   0.12940742   -3.1461618     1.581631   514029 
 3767000    1.2341776   -3.1449293   -1.5639423   0.12727713   -3.1449293     1.580987   514120 
 3768000    1.2348456   -3.1448183   -1.5631879   0.12553368   -3.1448183    1.5816304   514189 
 3769000    1.2343468   -3.1438909   -1.5630223   0.12531104   -3.1438909    1.5808685   514229 
 3770000     1.234875     -3.14445   -1.5630126   0.12228649     -3.14445    1.5814375   514264 
 3771000    1.2346241   -3.1431311   -1.5622978   0.13241286   -3.1431311    1.5808333   514356 
 3772000    1.2348139   -3.1427792   -1.5619149   0.11968644   -3.1427792    1.5808643   514425 
 3773000    1.2366808   -3.1449157   -1.5617753   0.12471203   -3.1449157    1.5831404   514462 
 3774000    1.2366244   -3.1445343   -1.5616106   0.12208235   -3.1445343    1.5829237   514509 
 3775000    1.2384987   -3.1466038   -1.5614844   0.11914555   -3.1466038    1.5851195   514575 
 3776000     1.236648   -3.1450729   -1.5625189   0.12279828   -3.1450729     1.582554   514639 
 3777000    1.2363341   -3.1445313   -1.5625296    0.1249383   -3.1445313    1.5820017   514688 
 3778000    1.2357444    -3.144092   -1.5629984   0.13144203    -3.144092    1.5810935   514738 
 3779000    1.2373395   -3.1461088   -1.5631682   0.12669942   -3.1461088    1.5829406   514801 
 3780000    1.2360458   -3.1455285   -1.5644148   0.12342395   -3.1455285    1.5811137   514857 
 3781000    1.2391266   -3.1502017   -1.5652057   0.11804722   -3.1502017     1.584996   514876 
 3782000    1.2359045   -3.1461622   -1.5654259   0.12612245   -3.1461622    1.5807363   514921 
 3783000    1.2361626   -3.1467222   -1.5657631   0.11938871   -3.1467222     1.580959   514956 
 3784000    1.2379147   -3.1488275   -1.5657998   0.12048781   -3.1488275    1.5830277   515012 
 3785000    1.2381115    -3.149154   -1.5660837   0.12346423    -3.149154    1.5830703   515080 
 3786000    1.2378472   -3.1494649     -1.56688   0.11967923   -3.1494649    1.5825849   515128 
 3787000     1.238079   -3.1496911   -1.5669911   0.12927916   -3.1496911       1.5827   515187 
 3788000    1.2391466   -3.1508767   -1.5670025   0.12186741   -3.1508767    1.5838741   515249 
 3789000    1.2385883   -3.1512566   -1.5682281   0.12250349   -3.1512566    1.5830284   515292 
 3790000    1.2373488   -3.1510238   -1.5697361   0.12145998   -3.1510238    1.5812877   515343 
 3791000    1.2379471   -3.1511899    -1.569331   0.12140781   -3.1511899    1.5818589   515406 
 3792000    1.2388463    -3.152197   -1.5693334   0.11705916    -3.152197    1.5828635   515453 
 3793000    1.2407399   -3.1539639    -1.568933   0.12575935   -3.1539639    1.5850309   515535 
 3794000    1.2384294   -3.1522467   -1.5702841   0.12974143   -3.1522467    1.5819626   515573 
 3795000    1.2374952   -3.1506835   -1.5700889   0.12609953   -3.1506835    1.5805946   515630 
 3796000    1.2379816   -3.1518464   -1.5708606   0.12938949   -3.1518464    1.5809858   515705 
 3797000    1.2385273   -3.1531711   -1.5715896   0.12571005   -3.1531711    1.5815815   515738 
 3798000     1.238082   -3.1532497   -1.5723778   0.12847421   -3.1532497    1.5808719   515784 
 3799000    1.2390992   -3.1538601   -1.5719286   0.12740791   -3.1538601    1.5819315   515862 
 3800000    1.2382034   -3.1539739   -1.5734251   0.11919665   -3.1539739    1.5805488   515940 
 3801000    1.2393179   -3.1556214   -1.5738461   0.12610759   -3.1556214    1.5817753   516004 
 3802000    1.2397713   -3.1560261   -1.5738744   0.12326376   -3.1560261    1.5821517   516070 
 3803000    1.2385406   -3.1528105   -1.5724561   0.12832727   -3.1528105    1.5803544   516144 
 3804000    1.2397783   -3.1539114   -1.5721952   0.12707837   -3.1539114    1.5817162   516215 
 3805000    1.2392096   -3.1536835   -1.5728552   0.12149217   -3.1536835    1.5808283   516268 
 3806000    1.2400207   -3.1546856   -1.5730432   0.12518472   -3.1546856    1.5816425   516340 
 3807000    1.2412996   -3.1550605   -1.5719677   0.12388864   -3.1550605    1.5830927   516399 
 3808000    1.2422998   -3.1537812   -1.5696092   0.13415966   -3.1537812     1.584172   516463 
 3809000    1.2391686   -3.1509225   -1.5709177   0.12864971   -3.1509225    1.5800047   516520 
 3810000    1.2395768    -3.151702   -1.5713879   0.12087481    -3.151702    1.5803141   516589 
 3811000    1.2397885   -3.1523874   -1.5719563   0.12314522   -3.1523874     1.580431   516639 
 3812000    1.2406865   -3.1537667   -1.5723685   0.12597473   -3.1537667    1.5813982   516697 
 3813000     1.241026   -3.1530516   -1.5714472   0.12104719   -3.1530516    1.5816044   516771 
 3814000    1.2412055   -3.1531747   -1.5715681   0.12430329   -3.1531747    1.5816067   516845 
 3815000    1.2419444   -3.1543807   -1.5720497    0.1249675   -3.1543807     1.582331   516916 
 3816000    1.2407957   -3.1529502   -1.5722754    0.1265049   -3.1529502    1.5806748   516979 
 3817000    1.2413779   -3.1533722   -1.5721087   0.12895189   -3.1533722    1.5812634   517029 
 3818000    1.2422166   -3.1545677   -1.5723889   0.12822409   -3.1545677    1.5821788   517079 
 3819000    1.2416039   -3.1527716   -1.5715995   0.13544842   -3.1527716    1.5811722   517153 
 3820000    1.2430184   -3.1550634   -1.5722307   0.12605544   -3.1550634    1.5828327   517199 
 3821000    1.2421111    -3.154206   -1.5727701   0.12771359    -3.154206    1.5814359   517278 
 3822000    1.2437594   -3.1556626   -1.5723057   0.12846117   -3.1556626    1.5833569   517336 
 3823000    1.2424401   -3.1547792   -1.5732762   0.12204469   -3.1547792     1.581503   517393 
 3824000    1.2419645   -3.1545831   -1.5738076   0.12496701   -3.1545831    1.5807755   517433 
 3825000    1.2453323   -3.1579476   -1.5730386   0.12418939   -3.1579476    1.5849089   517483 
 3826000    1.2434241   -3.1549518   -1.5726274   0.12631026   -3.1549518    1.5823244   517534 
 3827000    1.2420498   -3.1558714   -1.5755005   0.13026458   -3.1558714    1.5803709   517601 
 3828000    1.2429859   -3.1580794   -1.5766244    0.1251153   -3.1580794    1.5814551   517636 
 3829000    1.2429868   -3.1574533   -1.5761895   0.12578334   -3.1574533    1.5812638   517699 
 3830000     1.243718   -3.1588851   -1.5768317   0.12489154   -3.1588851    1.5820534   517745 
 3831000    1.2415199   -3.1565195   -1.5773964   0.12665153   -3.1565195    1.5791231   517789 
 3832000      1.24355   -3.1588486   -1.5773021   0.12114224   -3.1588486    1.5815465   517841 
 3833000    1.2436653    -3.159073    -1.577615   0.12330156    -3.159073    1.5814579   517918 
 3834000    1.2432696   -3.1585771   -1.5778605   0.12669236   -3.1585771    1.5807166   517996 
 3835000     1.243521   -3.1584135   -1.5774841   0.12809296   -3.1584135    1.5809295   518031 
 3836000    1.2435931   -3.1578831   -1.5769962   0.13039995   -3.1578831    1.5808869   518075 
 3837000    1.2447399   -3.1589334   -1.5767566   0.13046346   -3.1589334    1.5821767   518130 
 3838000    1.2439407   -3.1581914    -1.577241   0.12744755   -3.1581914    1.5809504   518199 
 3839000    1.2458364   -3.1604242   -1.5772234   0.12623603   -3.1604242    1.5832007   518251 
 3840000    1.2439162   -3.1588936   -1.5783374   0.12767743   -3.1588936    1.5805562   518318 
 3841000    1.2450258   -3.1596786   -1.5778956   0.12829092   -3.1596786     1.581783   518378 
 3842000    1.2452617   -3.1595863   -1.5776805    0.1229547   -3.1595863    1.5819057   518436 
 3843000     1.246848   -3.1605928   -1.5768582   0.13476239   -3.1605928    1.5837346   518497 
 3844000    1.2446421   -3.1586198   -1.5778122   0.12737178   -3.1586198    1.5808076   518538 
 3845000     1.244793   -3.1585339   -1.5777571   0.12619558   -3.1585339    1.5807768   518611 
 3846000     1.247422   -3.1608532   -1.5769638   0.12307602   -3.1608532    1.5838894   518685 
 3847000    1.2469688   -3.1604144   -1.5773446    0.1277858   -3.1604144    1.5830698   518765 
 3848000    1.2466369   -3.1600345   -1.5775996   0.12687168   -3.1600345    1.5824349   518835 
 3849000    1.2457856   -3.1593715   -1.5781635   0.12095291   -3.1593715    1.5812079   518883 
 3850000    1.2452418   -3.1579348   -1.5776303   0.12847183   -3.1579348    1.5803045   518953 
 3851000    1.2462895   -3.1591259   -1.5776715     0.122072   -3.1591259    1.5814544   519012 
 3852000     1.246253   -3.1596989   -1.5784218   0.12927782   -3.1596989    1.5812771   519055 
 3853000     1.246209   -3.1597135   -1.5786781   0.12505222   -3.1597135    1.5810354   519116 
 3854000    1.2468901   -3.1602464   -1.5784596   0.12010271   -3.1602464    1.5817868   519153 
 3855000    1.2458832   -3.1591975   -1.5789133   0.12643419   -3.1591975    1.5802842   519227 
 3856000    1.2471159   -3.1599598   -1.5782917   0.12776359   -3.1599598    1.5816681   519286 
 3857000    1.2469759   -3.1597823   -1.5784746   0.13115767   -3.1597823    1.5813077   519346 
 3858000       1.2472   -3.1591844     -1.57776   0.13060903   -3.1591844    1.5814244   519401 
 3859000    1.2481345   -3.1608736   -1.5784714   0.12712277   -3.1608736    1.5824022   519469 
 3860000    1.2483758   -3.1610717   -1.5785129   0.13222782   -3.1610717    1.5825588   519518 
 3861000    1.2457396    -3.158553   -1.5795458   0.13621701    -3.158553    1.5790072   519587 
 3862000    1.2499194   -3.1631486   -1.5790202   0.12310473   -3.1631486    1.5841284   519645 
 3863000    1.2482454   -3.1621088   -1.5803212   0.12920326   -3.1621088    1.5817876   519717 
 3864000    1.2483345   -3.1615414   -1.5798418    0.1267984   -3.1615414    1.5816997   519783 
 3865000    1.2490724   -3.1623747   -1.5799257   0.12635001   -3.1623747    1.5824489   519844 
 3866000    1.2499435   -3.1649356   -1.5815171   0.12995608   -3.1649356    1.5834185   519888 
 3867000    1.2479416   -3.1621434    -1.581498   0.12516782   -3.1621434    1.5806454   519966 
 3868000    1.2479027   -3.1633184   -1.5829076   0.12560442   -3.1633184    1.5804108   520027 
 3869000      1.24853   -3.1649868   -1.5839459   0.12518513   -3.1649868    1.5810409   520081 
 3870000    1.2482219   -3.1642231   -1.5837515   0.12531133   -3.1642231    1.5804716   520140 
 3871000     1.249815   -3.1642873   -1.5819781   0.12813892   -3.1642873    1.5823092   520199 
 3872000    1.2496455   -3.1646775   -1.5828049   0.12946844   -3.1646775    1.5818726   520272 
 3873000    1.2504374   -3.1657538   -1.5830309   0.12585763   -3.1657538    1.5827229   520322 
 3874000    1.2501591   -3.1651726     -1.58296   0.12696766   -3.1651726    1.5822126   520374 
 3875000    1.2506507   -3.1657329   -1.5831141   0.12765036   -3.1657329    1.5826188   520445 
 3876000    1.2513986   -3.1675559   -1.5841975   0.12718965   -3.1675559    1.5833584   520513 
 3877000    1.2496654   -3.1670125   -1.5860536   0.12203189   -3.1670125    1.5809588   520581 
 3878000    1.2500358   -3.1661339   -1.5848978   0.13036611   -3.1661339    1.5812361   520644 
 3879000    1.2512313   -3.1677346   -1.5851899   0.12457527   -3.1677346    1.5825447   520711 
 3880000    1.2504285   -3.1672581   -1.5859141   0.12734385   -3.1672581     1.581344   520772 
 3881000    1.2506956   -3.1672636   -1.5857701   0.13111688   -3.1672636    1.5814935   520834 
 3882000    1.2489801   -3.1650732   -1.5859217   0.12444109   -3.1650732    1.5791514   520891 
 3883000    1.2508656   -3.1667953   -1.5855239   0.12754858   -3.1667953    1.5812714   520978 
 3884000    1.2498718   -3.1660477    -1.586245    0.1308173   -3.1660477    1.5798027   521048 
 3885000    1.2512212   -3.1672849   -1.5859799    0.1323062   -3.1672849     1.581305   521115 
 3886000    1.2520086   -3.1674097   -1.5853008   0.12467256   -3.1674097    1.5821089   521178 
 3887000    1.2522065   -3.1671866   -1.5849886   0.13359682   -3.1671866    1.5821981   521231 
 3888000    1.2513528   -3.1661748   -1.5852587   0.12490508   -3.1661748    1.5809161   521298 
 3889000    1.2511278   -3.1666508   -1.5861764   0.12776147   -3.1666508    1.5804743   521350 
 3890000    1.2522284   -3.1673954   -1.5856916   0.12619037   -3.1673954    1.5817038   521403 
 3891000    1.2519829   -3.1668062   -1.5855793   0.12609113   -3.1668062    1.5812269   521458 
 3892000    1.2522926   -3.1664507   -1.5850146   0.13084562   -3.1664507    1.5814361   521518 
 3893000    1.2548492    -3.169194   -1.5847238   0.12738014    -3.169194    1.5844702   521582 
 3894000    1.2507682   -3.1639524   -1.5848532   0.13093656   -3.1639524    1.5790992   521654 
 3895000    1.2527888   -3.1660808    -1.584567   0.12714339   -3.1660808    1.5815138   521699 
 3896000    1.2531232   -3.1681789   -1.5863247    0.1250815   -3.1681789    1.5818541   521726 
 3897000    1.2521077   -3.1671841   -1.5867755   0.12338669   -3.1671841    1.5804086   521780 
 3898000    1.2520873   -3.1665927   -1.5864521   0.12241614   -3.1665927    1.5801406   521860 
 3899000    1.2537561   -3.1668253   -1.5847606    0.1249899   -3.1668253    1.5820647   521920 
 3900000    1.2540969   -3.1672985   -1.5849493   0.11794988   -3.1672985    1.5823492   521968 
 3901000    1.2546081   -3.1685234    -1.585711   0.12659935   -3.1685234    1.5828124   522028 
 3902000     1.254524   -3.1670951   -1.5845344   0.12443229   -3.1670951    1.5825607   522076 
 3903000    1.2548541   -3.1668236    -1.584089   0.12466544   -3.1668236    1.5827346   522156 
 3904000     1.253836    -3.165642   -1.5843793    0.1324517    -3.165642    1.5812627   522218 
 3905000    1.2546813   -3.1667358   -1.5845494   0.12581321   -3.1667358    1.5821864   522265 
 3906000    1.2562197   -3.1691774   -1.5851845   0.12667337   -3.1691774    1.5839929   522309 
 3907000     1.254037   -3.1664911   -1.5853715   0.12617077   -3.1664911    1.5811196   522349 
 3908000    1.2553161   -3.1669717   -1.5843788   0.12999926   -3.1669717    1.5825929   522395 
 3909000    1.2558652    -3.167927   -1.5848389   0.13240023    -3.167927    1.5830882   522460 
 3910000    1.2569674   -3.1693256   -1.5849996   0.12678815   -3.1693256     1.584326   522510 
 3911000    1.2576405   -3.1694817   -1.5845044   0.12516277   -3.1694817    1.5849772   522575 
 3912000    1.2575106   -3.1697033   -1.5850536   0.12335888   -3.1697033    1.5846497   522629 
 3913000    1.2585619   -3.1703729   -1.5845531   0.12764394   -3.1703729    1.5858197   522680 
 3914000    1.2560821     -3.16878   -1.5862513   0.13081425     -3.16878    1.5825286   522735 
 3915000    1.2553372   -3.1690951   -1.5876442   0.12192187   -3.1690951    1.5814509   522781 
 3916000     1.256994   -3.1701141   -1.5867092   0.12667493   -3.1701141    1.5834049   522825 
 3917000    1.2587019   -3.1720831   -1.5866966   0.12384675   -3.1720831    1.5853865   522881 
 3918000    1.2570427   -3.1709943    -1.587846   0.12368327   -3.1709943    1.5831483   522930 
 3919000    1.2559451   -3.1696369   -1.5880342   0.12861345   -3.1696369    1.5816026   522984 
 3920000    1.2565374   -3.1713193   -1.5891553   0.12811961   -3.1713193    1.5821639   523045 
 3921000    1.2563799   -3.1712728   -1.5894583   0.12974156   -3.1712728    1.5818145   523095 
 3922000    1.2568789    -3.172507   -1.5902488   0.12448053    -3.172507    1.5822582   523156 
 3923000    1.2560457    -3.171238   -1.5901979   0.12193538    -3.171238    1.5810401   523212 
 3924000    1.2562141   -3.1710078   -1.5898736   0.12408166   -3.1710078    1.5811342   523251 
 3925000    1.2564364   -3.1713545   -1.5901007   0.12409175   -3.1713545    1.5812539   523304 
 3926000     1.259832   -3.1749361   -1.5896118   0.12751158   -3.1749361    1.5853243   523371 
 3927000    1.2563526   -3.1709937   -1.5901263   0.13067024   -3.1709937    1.5808674   523397 
 3928000    1.2580208    -3.173155   -1.5903458   0.12626116    -3.173155    1.5828093   523449 
 3929000    1.2590189   -3.1737985   -1.5898243   0.12255901   -3.1737985    1.5839742   523479 
 3930000    1.2587649   -3.1723267   -1.5888535   0.13554385   -3.1723267    1.5834732   523539 
 3931000    1.2580825   -3.1723069   -1.5898131   0.12072174   -3.1723069    1.5824939   523579 
 3932000    1.2595536   -3.1731498   -1.5889085   0.12687727   -3.1731498    1.5842414   523613 
 3933000     1.257642   -3.1700161   -1.5883301   0.13741544   -3.1700161     1.581686   523663 
 3934000    1.2584886   -3.1727423   -1.5901154   0.13213053   -3.1727423    1.5826269   523704 
 3935000    1.2581177   -3.1727521    -1.590791   0.12407584   -3.1727521     1.581961   523770 
 3936000    1.2602736   -3.1744441   -1.5899325   0.12517677   -3.1744441    1.5845116   523823 
 3937000    1.2581273   -3.1741259   -1.5925001   0.12599047   -3.1741259    1.5816258   523885 
 3938000     1.259054    -3.175217   -1.5926255   0.12900127    -3.175217    1.5825915   523951 
 3939000    1.2599083   -3.1754512   -1.5919522   0.12306793   -3.1754512     1.583499   524006 
 3940000    1.2584753   -3.1744934   -1.5929192   0.12915393   -3.1744934    1.5815742   524047 
 3941000     1.258523   -3.1739672   -1.5924869    0.1327642   -3.1739672    1.5814802   524098 
 3942000    1.2593918   -3.1748623   -1.5924412   0.13014764   -3.1748623    1.5824211   524148 
 3943000    1.2581447   -3.1742304    -1.593518   0.12545718   -3.1742304    1.5807124   524195 
 3944000    1.2584002   -3.1738116   -1.5929049   0.12651846   -3.1738116    1.5809067   524237 
 3945000     1.259472   -3.1753902   -1.5933241   0.12522134   -3.1753902    1.5820661   524299 
 3946000     1.258395   -3.1737492   -1.5932048   0.13126876   -3.1737492    1.5805444   524355 
 3947000    1.2595334   -3.1740444   -1.5922512   0.12741073   -3.1740444    1.5817932   524415 
 3948000    1.2610029   -3.1767608   -1.5933123   0.12337504   -3.1767608    1.5834485   524478 
 3949000    1.2598797   -3.1766694   -1.5947248   0.12143393   -3.1766694    1.5819445   524509 
 3950000    1.2604387   -3.1778931   -1.5953704    0.1234353   -3.1778931    1.5825227   524550 
 3951000    1.2590399   -3.1753945   -1.5947335   0.13636069   -3.1753945     1.580661   524585 
 3952000    1.2616994   -3.1774772   -1.5936464    0.1241472   -3.1774772    1.5838308   524641 
 3953000    1.2598943   -3.1760893    -1.594642   0.13015617   -3.1760893    1.5814473   524680 
 3954000    1.2594312   -3.1760969   -1.5953664   0.12833265   -3.1760969    1.5807305   524725 
 3955000    1.2589961   -3.1754297   -1.5953898   0.12831618   -3.1754297    1.5800399   524773 
 3956000    1.2605897   -3.1769604   -1.5950744   0.13489197   -3.1769604    1.5818861   524824 
 3957000    1.2612316   -3.1779635   -1.5953563   0.12041048   -3.1779635    1.5826071   524852 
 3958000    1.2601185   -3.1779021   -1.5968694   0.12284769   -3.1779021    1.5810327   524911 
 3959000    1.2598957   -3.1776504   -1.5970147   0.12862053   -3.1776504    1.5806357   524950 
 3960000    1.2606339   -3.1786799   -1.5972808   0.12691411   -3.1786799    1.5813991   525004 
 3961000    1.2603348   -3.1765652   -1.5956978   0.12834098   -3.1765652    1.5808674   525056 
 3962000    1.2602177   -3.1767498   -1.5961226   0.12516564   -3.1767498    1.5806271   525087 
 3963000     1.261774   -3.1787266   -1.5963373   0.12777832   -3.1787266    1.5823893   525150 
 3964000    1.2621485   -3.1787687   -1.5960122   0.12186334   -3.1787687    1.5827564   525184 
 3965000    1.2613523   -3.1782959   -1.5966854   0.12990589   -3.1782959    1.5816105   525233 
 3966000    1.2605838   -3.1778786   -1.5974093   0.13066356   -3.1778786    1.5804693   525292 
 3967000    1.2611008   -3.1789195   -1.5979193   0.12904521   -3.1789195    1.5810002   525331 
 3968000    1.2604729   -3.1778044   -1.5977749   0.12712313   -3.1778044    1.5800295   525392 
 3969000    1.2633383   -3.1806985   -1.5972429   0.12379002   -3.1806985    1.5834556   525447 
 3970000    1.2613279   -3.1794807   -1.5987466   0.13357584   -3.1794807    1.5807341   525514 
 3971000    1.2622304   -3.1809166   -1.5991448   0.12766298   -3.1809166    1.5817719   525545 
 3972000    1.2624027     -3.18203   -1.6001777   0.12618429     -3.18203    1.5818523   525590 
 3973000    1.2638823   -3.1835925   -1.6000788   0.12586965   -3.1835925    1.5835136   525654 
 3974000    1.2616101   -3.1821735   -1.6016631    0.1249758   -3.1821735    1.5805104   525706 
 3975000    1.2615266   -3.1824328   -1.6021353   0.12407975   -3.1824328    1.5802975   525742 
 3976000    1.2632404   -3.1832631   -1.6009842   0.12746394   -3.1832631    1.5822789   525797 
 3977000    1.2616076   -3.1822722   -1.6021587   0.12799701   -3.1822722    1.5801135   525837 
 3978000    1.2614287   -3.1820397   -1.6023546   0.13093658   -3.1820397    1.5796852   525905 
 3979000    1.2624785    -3.182608   -1.6017404   0.13088993    -3.182608    1.5808676   525949 
 3980000    1.2640625   -3.1839947   -1.6012911   0.12329331   -3.1839947    1.5827036   525998 
 3981000    1.2623749   -3.1832633   -1.6028018   0.12451214   -3.1832633    1.5804614   526041 
 3982000    1.2623796   -3.1830658   -1.6027096   0.12869615   -3.1830658    1.5803561   526078 
 3983000    1.2625216   -3.1837444   -1.6033757   0.13264195   -3.1837444    1.5803687   526133 
 3984000    1.2637738   -3.1849624   -1.6031586   0.12896181   -3.1849624    1.5818038   526177 
 3985000    1.2620859   -3.1833774   -1.6038723   0.13053045   -3.1833774    1.5795051   526239 
 3986000    1.2633244   -3.1845623   -1.6037325   0.12809421   -3.1845623    1.5808298   526314 
 3987000    1.2634583   -3.1866278   -1.6058168   0.12598941   -3.1866278     1.580811   526376 
 3988000    1.2638106   -3.1865774   -1.6054607   0.12870338   -3.1865774    1.5811167   526421 
 3989000     1.261774   -3.1839945   -1.6055457   0.13209982   -3.1839945    1.5784488   526461 
 3990000    1.2625972    -3.184575   -1.6052493   0.12724498    -3.184575    1.5793256   526512 
 3991000    1.2650312   -3.1856489   -1.6035101   0.12720655   -3.1856489    1.5821388   526589 
 3992000    1.2634423    -3.184541   -1.6045364   0.12872251    -3.184541    1.5800046   526638 
 3993000     1.265114   -3.1856151   -1.6036761   0.13481045   -3.1856151     1.581939   526690 
 3994000    1.2668218   -3.1883605   -1.6044155    0.1286812   -3.1883605    1.5839451   526733 
 3995000    1.2627706   -3.1837588   -1.6050589   0.13064915   -3.1837588       1.5787   526793 
 3996000    1.2639927   -3.1849982   -1.6049444   0.12895017   -3.1849982    1.5800538   526851 
 3997000    1.2645311   -3.1849492   -1.6044114   0.13328195   -3.1849492    1.5805379   526914 
 3998000    1.2665385   -3.1872525   -1.6044188   0.13127439   -3.1872525    1.5828337   526985 
 3999000    1.2658682   -3.1869364   -1.6050756   0.12738606   -3.1869364    1.5818608   527030 
 4000000    1.2668634   -3.1887392   -1.6057789   0.12645619   -3.1887392    1.5829603   527078 
 4001000    1.2647141   -3.1851297   -1.6050678   0.13113991   -3.1851297    1.5800619   527149 
 4002000    1.2664472   -3.1871874   -1.6051043   0.13163844   -3.1871874    1.5820831   527197 
 4003000    1.2670304   -3.1885834   -1.6059369   0.12648049   -3.1885834    1.5826465   527252 
 4004000    1.2662498   -3.1882959   -1.6067595     0.130991   -3.1882959    1.5815365   527297 
 4005000    1.2662932   -3.1873547   -1.6059319   0.13141186   -3.1873547    1.5814228   527353 
 4006000    1.2673698    -3.189103   -1.6064497   0.13074848    -3.189103    1.5826533   527391 
 4007000    1.2656764   -3.1877114   -1.6072777    0.1297562   -3.1877114    1.5804337   527426 
 4008000    1.2678427   -3.1889033   -1.6058606   0.13118813   -3.1889033    1.5830427   527458 
 4009000    1.2695766    -3.191276   -1.6062727   0.12690537    -3.191276    1.5850033   527526 
 4010000    1.2680807   -3.1901111   -1.6071073   0.12607937   -3.1901111    1.5830038   527570 
 4011000    1.2661611   -3.1866602   -1.6061905   0.13066706   -3.1866602    1.5804696   527616 
 4012000    1.2677869   -3.1897607   -1.6074416   0.13438573   -3.1897607    1.5823191   527676 
 4013000    1.2664297   -3.1883189   -1.6078615   0.12967717   -3.1883189    1.5804574   527732 
 4014000    1.2666954   -3.1882163   -1.6075412   0.12857874   -3.1882163    1.5806752   527770 
 4015000    1.2660219   -3.1885737   -1.6088946   0.12974395   -3.1885737     1.579679   527822 
 4016000    1.2676645   -3.1893168   -1.6078158   0.12616323   -3.1893168     1.581501   527898 
 4017000    1.2678043   -3.1897152   -1.6081896   0.12423088   -3.1897152    1.5815256   527948 
 4018000    1.2670306    -3.189108   -1.6087662   0.12565338    -3.189108    1.5803419   528021 
 4019000    1.2689959   -3.1906535   -1.6080463   0.12469379   -3.1906535    1.5826072   528083 
 4020000    1.2691693   -3.1902594   -1.6076008   0.12776695   -3.1902594    1.5826587   528138 
 4021000    1.2700821   -3.1909778   -1.6073907   0.12737799   -3.1909778    1.5835871   528208 
 4022000    1.2700101   -3.1906574   -1.6072889   0.13244407   -3.1906574    1.5833684   528251 
 4023000     1.267455   -3.1883572   -1.6082341   0.12977686   -3.1883572    1.5801231   528271 
 4024000    1.2687922   -3.1891094     -1.60743   0.12711932   -3.1891094    1.5816794   528308 
 4025000    1.2679589   -3.1891066   -1.6086217    0.1288147   -3.1891066     1.580485   528360 
 4026000    1.2697808   -3.1896015   -1.6069983   0.12801887   -3.1896015    1.5826032   528411 
 4027000    1.2707718    -3.190609   -1.6069325    0.1321233    -3.190609    1.5836765   528465 
 4028000    1.2700949   -3.1891364   -1.6063813   0.13139124   -3.1891364    1.5827551   528491 
 4029000    1.2708644   -3.1896499   -1.6060647   0.13633285   -3.1896499    1.5835852   528534 
 4030000    1.2712464   -3.1914834   -1.6075271   0.12544666   -3.1914834    1.5839563   528569 
 4031000     1.270644   -3.1905605   -1.6074806   0.13499867   -3.1905605    1.5830799   528611 
 4032000    1.2699685   -3.1920848   -1.6100231   0.12469966   -3.1920848    1.5820617   528670 
 4033000     1.271267   -3.1921835   -1.6086391   0.13161627   -3.1921835    1.5835444   528715 
 4034000    1.2717807   -3.1935763   -1.6094578   0.12468343   -3.1935763    1.5841184   528737 
 4035000    1.2680138   -3.1894584   -1.6101843   0.12786229   -3.1894584    1.5792741   528788 
 4036000    1.2687565   -3.1898723   -1.6098285   0.13029635   -3.1898723    1.5800437   528840 
 4037000    1.2695847   -3.1914464   -1.6104729   0.12831873   -3.1914464    1.5809735   528874 
 4038000    1.2712783   -3.1937444   -1.6108475   0.12430674   -3.1937444     1.582897   528936 
 4039000    1.2717574   -3.1941206   -1.6107798   0.12397799   -3.1941206    1.5833408   528987 
 4040000    1.2714601   -3.1937061   -1.6108431   0.13426902   -3.1937061     1.582863   529023 
 4041000    1.2703367    -3.191805   -1.6105558   0.12855889    -3.191805    1.5812492   529095 
 4042000    1.2714482    -3.193627   -1.6111079   0.12824735    -3.193627    1.5825191   529133 
 4043000    1.2707864   -3.1918379    -1.610298   0.13104015   -3.1918379    1.5815399   529185 
 4044000    1.2723572   -3.1943149   -1.6109666   0.12963777   -3.1943149    1.5833483   529234 
 4045000    1.2715311   -3.1932295   -1.6110647   0.12649831   -3.1932295    1.5821648   529286 
 4046000    1.2705119   -3.1926618   -1.6119743   0.12926539   -3.1926618    1.5806876   529356 
 4047000    1.2707025    -3.194213   -1.6134198    0.1328488    -3.194213    1.5807932   529400 
 4048000    1.2705415   -3.1933231   -1.6128854   0.13216799   -3.1933231    1.5804377   529452 
 4049000    1.2712135   -3.1929049   -1.6118044   0.13557043   -3.1929049    1.5811005   529510 
 4050000     1.272926   -3.1957282   -1.6125845   0.12894629   -3.1957282    1.5831437   529539 
 4051000    1.2705104   -3.1932294   -1.6132003   0.13147068   -3.1932294    1.5800291   529576 
 4052000    1.2728662    -3.195527   -1.6126968   0.12719767    -3.195527    1.5828302   529619 
 4053000    1.2724761   -3.1950256   -1.6128269    0.1261051   -3.1950256    1.5821987   529668 
 4054000    1.2729805     -3.19575   -1.6130616   0.12609413     -3.19575    1.5826884   529714 
 4055000    1.2720515   -3.1954567   -1.6140755   0.13122785   -3.1954567    1.5813812   529765 
 4056000    1.2723865   -3.1954945    -1.613864   0.12476847   -3.1954945    1.5816305   529821 
 4057000    1.2720578   -3.1937386   -1.6126481   0.13071171   -3.1937386    1.5810905   529865 
 4058000    1.2742224   -3.1965644   -1.6129238   0.13452565   -3.1965644    1.5836406   529912 
 4059000    1.2725541   -3.1942471   -1.6128381   0.13120095   -3.1942471     1.581409   529965 
 4060000    1.2722391   -3.1942194    -1.613357   0.12905507   -3.1942194    1.5808624   530017 
 4061000    1.2741776   -3.1970761   -1.6139931    0.1274803   -3.1970761     1.583083   530080 
 4062000    1.2732458    -3.195569   -1.6137988   0.13485557    -3.195569    1.5817702   530132 
 4063000    1.2729152   -3.1941956   -1.6129824   0.13469336   -3.1941956    1.5812133   530181 
 4064000    1.2739559   -3.1967619   -1.6143812   0.12788557   -3.1967619    1.5823807   530223 
 4065000    1.2733984   -3.1962611   -1.6146951   0.12803208   -3.1962611    1.5815659   530264 
 4066000    1.2753334   -3.1967486   -1.6129466   0.12875352   -3.1967486     1.583802   530320 
 4067000    1.2751396   -3.1964703   -1.6130314   0.13108376   -3.1964703    1.5834389   530361 
 4068000    1.2759215   -3.1980926   -1.6138771   0.12798929   -3.1980926    1.5842155   530426 
 4069000    1.2751309   -3.1965898   -1.6135677   0.12881149   -3.1965898    1.5830221   530497 
 4070000    1.2743662   -3.1955148   -1.6135495   0.13137267   -3.1955148    1.5819654   530533 
 4071000    1.2753091   -3.1967864   -1.6137282   0.13290361   -3.1967864    1.5830582   530559 
 4072000    1.2749001   -3.1969494    -1.614533   0.13077217   -3.1969494    1.5824164   530604 
 4073000    1.2747196   -3.1955421   -1.6134869   0.13525292   -3.1955421    1.5820552   530650 
 4074000    1.2742491   -3.1960935   -1.6147504   0.12622611   -3.1960935    1.5813431   530693 
 4075000     1.275319   -3.1960534   -1.6135197   0.13412713   -3.1960534    1.5825337   530739 
 4076000    1.2757893   -3.1965213   -1.6135829   0.13392076   -3.1965213    1.5829383   530799 
 4077000    1.2760336   -3.1980351   -1.6149219   0.12941027   -3.1980351    1.5831132   530842 
 4078000    1.2754507   -3.1961064   -1.6138923   0.13470948   -3.1961064    1.5822141   530901 
 4079000    1.2757059     -3.19731   -1.6148836   0.13496831     -3.19731    1.5824264   530936 
 4080000    1.2754527   -3.1976066   -1.6156164   0.13055301   -3.1976066    1.5819902   530977 
 4081000    1.2757666     -3.19762   -1.6153925   0.13024547     -3.19762    1.5822275   531028 
 4082000    1.2753682   -3.1967653   -1.6150945   0.13015927   -3.1967653    1.5816708   531049 
 4083000    1.2762081   -3.1986312   -1.6160498   0.12638689   -3.1986312    1.5825814   531093 
 4084000    1.2759923   -3.1983536   -1.6161619   0.12986052   -3.1983536    1.5821917   531134 
 4085000    1.2760778   -3.1981001   -1.6159782   0.13204892   -3.1981001    1.5821219   531193 
 4086000    1.2754175   -3.1979116   -1.6167006   0.12528446   -3.1979116     1.581211   531224 
 4087000    1.2747848   -3.1979738   -1.6176097   0.12557756   -3.1979738    1.5803641   531245 
 4088000    1.2754856   -3.1992297   -1.6181754   0.12829456   -3.1992297    1.5810543   531305 
 4089000    1.2758651   -3.1994529   -1.6180592   0.12744644   -3.1994529    1.5813937   531349 
 4090000    1.2749136   -3.1977387   -1.6176432   0.13099578   -3.1977387    1.5800955   531389 
 4091000    1.2751746   -3.1978678   -1.6175648   0.13492131   -3.1978678     1.580303   531428 
 4092000     1.276743   -3.1993634   -1.6172537   0.12896112   -3.1993634    1.5821096   531474 
 4093000    1.2762953    -3.198748    -1.617324   0.13251078    -3.198748     1.581424   531518 
 4094000    1.2767947   -3.1997336   -1.6178545   0.12827645   -3.1997336    1.5818791   531573 
 4095000    1.2768303   -3.1993913   -1.6176257   0.12771544   -3.1993913    1.5817655   531626 
 4096000    1.2761744   -3.1996197   -1.6188036   0.13418024   -3.1996197    1.5808161   531672 
 4097000    1.2781395   -3.2012105   -1.6180852   0.12755888   -3.2012105    1.5831253   531714 
 4098000    1.2775299   -3.2003571   -1.6181417   0.12906445   -3.2003571    1.5822155   531766 
 4099000    1.2778391   -3.2009357   -1.6185276   0.13500071   -3.2009357    1.5824081   531830 
 4100000     1.277279    -3.200059   -1.6185171   0.12962937    -3.200059     1.581542   531888 
 4101000    1.2762304   -3.1979156   -1.6178058   0.13633198   -3.1979156    1.5801099   531933 
 4102000    1.2791283   -3.2014393   -1.6178784   0.13401064   -3.2014393    1.5835608   531979 
 4103000    1.2794398   -3.2019028   -1.6181291   0.13072451   -3.2019028    1.5837737   532037 
 4104000    1.2777584   -3.2009438   -1.6194148    0.1397359   -3.2009438     1.581529   532092 
 4105000    1.2790337    -3.202304   -1.6193751   0.13463006    -3.202304    1.5829289   532152 
 4106000     1.278547    -3.201127   -1.6189669   0.13240699    -3.201127    1.5821601   532208 
 4107000    1.2802534   -3.2031027   -1.6190244   0.13597582   -3.2031027    1.5840783   532273 
 4108000    1.2804985   -3.2032098   -1.6189622   0.13475198   -3.2032098    1.5842475   532318 
 4109000    1.2804504   -3.2023964   -1.6183215   0.13162924   -3.2023964     1.584075   532356 
 4110000    1.2807094   -3.2028673   -1.6186474   0.13244527   -3.2028673    1.5842198   532415 
 4111000    1.2804297   -3.2038388   -1.6200988   0.13384832   -3.2038388      1.58374   532460 
 4112000    1.2801389   -3.2039453   -1.6206899    0.1260366   -3.2039453    1.5832554   532502 
 4113000    1.2795929   -3.2030931   -1.6206704   0.13001947   -3.2030931    1.5824227   532555 
 4114000    1.2793194   -3.2041684   -1.6222236   0.13189043   -3.2041684    1.5819448   532602 
 4115000    1.2808866   -3.2053072   -1.6215077   0.12613072   -3.2053072    1.5837995   532630 
 4116000    1.2810912   -3.2052029   -1.6212784   0.13080744   -3.2052029    1.5839245   532673 
 4117000    1.2797871   -3.2041197   -1.6219501   0.13096994   -3.2041197    1.5821696   532721 
 4118000    1.2796682   -3.2043659   -1.6224888   0.13288323   -3.2043659    1.5818771   532770 
 4119000    1.2803726     -3.20557   -1.6229796   0.13267816     -3.20557    1.5825904   532823 
 4120000    1.2806151   -3.2046168    -1.621887   0.13215417   -3.2046168    1.5827298   532877 
 4121000    1.2813471   -3.2042809   -1.6207534   0.13277409   -3.2042809    1.5835275   532913 
 4122000    1.2822094   -3.2056584   -1.6212258   0.13374309   -3.2056584    1.5844326   532967 
 4123000    1.2812878   -3.2041132   -1.6210065   0.13343854   -3.2041132    1.5831067   533030 
 4124000    1.2804689   -3.2044659   -1.6224719   0.13027625   -3.2044659    1.5819939   533064 
 4125000    1.2810238   -3.2053242   -1.6227753   0.13093426   -3.2053242    1.5825489   533108 
 4126000    1.2811243   -3.2056098    -1.623103   0.13116105   -3.2056098    1.5825068   533164 
 4127000    1.2820915   -3.2061384   -1.6226062   0.13351297   -3.2061384    1.5835322   533221 
 4128000    1.2829826   -3.2067344   -1.6222144   0.13008585   -3.2067344      1.58452   533259 
 4129000    1.2827719   -3.2068182   -1.6227248   0.12797102   -3.2068182    1.5840934   533315 
 4130000    1.2811132   -3.2049546   -1.6230253   0.12358453   -3.2049546    1.5819293   533354 
 4131000     1.281035   -3.2059381   -1.6242685   0.12574521   -3.2059381    1.5816696   533409 
 4132000    1.2809456   -3.2053772   -1.6239217   0.13301569   -3.2053772    1.5814555   533444 
 4133000    1.2832109   -3.2077931   -1.6237131   0.12829046   -3.2077931      1.58408   533502 
 4134000    1.2813442   -3.2045095   -1.6229028   0.13591565   -3.2045095    1.5816067   533559 
 4135000     1.283573   -3.2066614   -1.6224402   0.13014356   -3.2066614    1.5842212   533605 
 4136000    1.2822405   -3.2057739   -1.6233574   0.13368145   -3.2057739    1.5824165   533659 
 4137000    1.2828208   -3.2072796   -1.6242746   0.13255238   -3.2072796     1.583005   533702 
 4138000    1.2834497   -3.2082602   -1.6245978   0.12695493   -3.2082602    1.5836624   533742 
 4139000    1.2825301   -3.2068522   -1.6244283   0.12260202   -3.2068522    1.5824239   533777 
 4140000    1.2828056   -3.2082237   -1.6255577   0.12452911   -3.2082237     1.582666   533810 
 4141000    1.2832155   -3.2082059   -1.6251855   0.13295416   -3.2082059    1.5830204   533861 
 4142000    1.2855416   -3.2093402   -1.6235809   0.13238394   -3.2093402    1.5857594   533905 
 4143000    1.2834176   -3.2068786   -1.6238461    0.1353571   -3.2068786    1.5830325   533941 
 4144000    1.2848683   -3.2086689   -1.6239925   0.13500815   -3.2086689    1.5846765   533990 
 4145000    1.2843869   -3.2084979   -1.6245159   0.13645847   -3.2084979     1.583982   534024 
 4146000    1.2848196   -3.2090976   -1.6246828   0.13733348   -3.2090976    1.5844147   534058 
 4147000    1.2856224   -3.2111714   -1.6258973   0.12876148   -3.2111714    1.5852741   534102 
 4148000     1.285201   -3.2097797   -1.6251943   0.13057108   -3.2097797    1.5845854   534159 
 4149000    1.2825151   -3.2069318   -1.6257943   0.13527004   -3.2069318    1.5811376   534205 
 4150000    1.2852599   -3.2109389   -1.6265597   0.13292851   -3.2109389    1.5843792   534253 
 4151000    1.2849394   -3.2105837   -1.6267538   0.12863369   -3.2105837      1.58383   534305 
 4152000    1.2858874   -3.2126217   -1.6277924   0.12850801   -3.2126217    1.5848293   534362 
 4153000    1.2842327   -3.2102318   -1.6276402   0.13190691   -3.2102318    1.5825916   534429 
 4154000    1.2830596   -3.2086701   -1.6276692   0.13673871   -3.2086701    1.5810009   534478 
 4155000    1.2845943   -3.2093803   -1.6266542   0.12999413   -3.2093803    1.5827262   534534 
 4156000    1.2838343   -3.2090967   -1.6274548   0.13569151   -3.2090967    1.5816419   534584 
 4157000    1.2848385   -3.2107991   -1.6280563   0.12576934   -3.2107991    1.5827428   534630 
 4158000    1.2848399   -3.2108479   -1.6282366   0.12893543   -3.2108479    1.5826113   534675 
 4159000    1.2847175    -3.210751   -1.6283673   0.12938818    -3.210751    1.5823837   534701 
 4160000     1.282776   -3.2086744   -1.6287973    0.1288172   -3.2086744    1.5798771   534740 
 4161000     1.285511   -3.2109694    -1.627869   0.13531668   -3.2109694    1.5831004   534789 
 4162000    1.2840464   -3.2089688   -1.6277104   0.13058712   -3.2089688    1.5812584   534802 
 4163000    1.2849124   -3.2098689   -1.6276653   0.13162543   -3.2098689    1.5822035   534843 
 4164000    1.2848378   -3.2104327   -1.6284837   0.13681022   -3.2104327     1.581949   534898 
 4165000    1.2842771   -3.2113933   -1.6302619    0.1311342   -3.2113933    1.5811314   534941 
 4166000    1.2842923   -3.2113653   -1.6303334   0.12894215   -3.2113653    1.5810319   534981 
 4167000    1.2852181   -3.2123262   -1.6302905   0.12602212   -3.2123262    1.5820357   535027 
 4168000    1.2847709   -3.2113172   -1.6299414   0.12386702   -3.2113172    1.5813759   535064 
 4169000    1.2837819   -3.2108729   -1.6308503    0.1272514   -3.2108729    1.5800226   535110 
 4170000    1.2862786   -3.2133889   -1.6304206   0.12807284   -3.2133889    1.5829683   535153 
 4171000    1.2848423   -3.2119587   -1.6309057   0.12931426   -3.2119587    1.5810529   535203 
 4172000    1.2857576    -3.212419   -1.6303432   0.12924394    -3.212419    1.5820758   535238 
 4173000    1.2838552   -3.2110561   -1.6314687   0.13350141   -3.2110561    1.5795874   535288 
 4174000    1.2855626   -3.2121937   -1.6306237   0.13129529   -3.2121937      1.58157   535328 
 4175000    1.2865645   -3.2139487   -1.6313295   0.13360766   -3.2139487    1.5826192   535390 
 4176000    1.2846506   -3.2121107   -1.6320288   0.12957535   -3.2121107    1.5800819   535452 
 4177000    1.2865177   -3.2140108   -1.6317713   0.13168916   -3.2140108    1.5822395   535499 
 4178000    1.2873971   -3.2140748   -1.6309192   0.13577048   -3.2140748    1.5831556   535555 
 4179000    1.2873112   -3.2139135    -1.631041   0.13582289   -3.2139135    1.5828725   535615 
 4180000    1.2878431   -3.2145718   -1.6311517   0.13533368   -3.2145718    1.5834201   535651 
 4181000    1.2868301    -3.213438    -1.631349   0.14042201    -3.213438     1.582089   535680 
 4182000    1.2865897   -3.2135329    -1.631899   0.13252607   -3.2135329     1.581634   535734 
 4183000    1.2864588    -3.214073   -1.6327002   0.13452276    -3.214073    1.5813728   535768 
 4184000    1.2867504   -3.2140244   -1.6323906    0.1321228   -3.2140244    1.5816338   535801 
 4185000    1.2870855   -3.2140028   -1.6320664   0.13273597   -3.2140028    1.5819364   535838 
 4186000    1.2886509   -3.2158009   -1.6320233   0.13352479   -3.2158009    1.5837777   535866 
 4187000    1.2881985   -3.2153661   -1.6322331   0.13510312   -3.2153661     1.583133   535896 
 4188000    1.2870225   -3.2141457   -1.6325877   0.13160457   -3.2141457     1.581558   535940 
 4189000    1.2866917   -3.2137256   -1.6326627   0.13027851   -3.2137256    1.5810629   535970 
 4190000     1.286604   -3.2152837   -1.6344435   0.13142374   -3.2152837    1.5808402   536009 
 4191000    1.2868516   -3.2140076    -1.632996   0.12791852   -3.2140076    1.5810116   536054 
 4192000    1.2893012   -3.2163131    -1.632354   0.13252767   -3.2163131    1.5839591   536075 
 4193000     1.287663   -3.2145366   -1.6327259   0.13153739   -3.2145366    1.5818107   536121 
 4194000    1.2875421   -3.2137503   -1.6321766   0.13679525   -3.2137503    1.5815737   536151 
 4195000    1.2890368   -3.2162212    -1.632897   0.12973091   -3.2162212    1.5833242   536180 
 4196000    1.2884969   -3.2157812   -1.6332501   0.12967811   -3.2157812    1.5825311   536224 
 4197000    1.2894025   -3.2161458   -1.6326855   0.12816073   -3.2161458    1.5834603   536286 
 4198000    1.2872693   -3.2141106   -1.6334056   0.13836932   -3.2141106     1.580705   536332 
 4199000    1.2895075   -3.2191218   -1.6357924   0.13245752   -3.2191218    1.5833294   536374 
 4200000    1.2875825   -3.2153061   -1.6344287   0.13676056   -3.2153061    1.5808774   536404 
 4201000    1.2888502   -3.2167381    -1.634437   0.13177181   -3.2167381    1.5823011   536449 
 4202000    1.2891707    -3.217251   -1.6347718   0.12706843    -3.217251    1.5824793   536522 
 4203000     1.290396   -3.2188292    -1.634967    0.1344435   -3.2188292    1.5838623   536563 
 4204000    1.2895393   -3.2177257   -1.6350565   0.13092166   -3.2177257    1.5826692   536611 
 4205000    1.2915852   -3.2206142   -1.6355463   0.12622911   -3.2206142    1.5850679   536649 
 4206000    1.2888241   -3.2181736    -1.636562   0.13222334   -3.2181736    1.5816117   536672 
 4207000    1.2898568   -3.2193262    -1.636577   0.13007606   -3.2193262    1.5827491   536716 
 4208000    1.2896524   -3.2196486   -1.6372771   0.13035531   -3.2196486    1.5823715   536759 
 4209000    1.2893827   -3.2190113   -1.6370885   0.13140891   -3.2190113    1.5819227   536799 
 4210000    1.2900289   -3.2191428   -1.6365953   0.13011454   -3.2191428    1.5825475   536856 
 4211000    1.2901086   -3.2192611    -1.636719   0.13362878   -3.2192611    1.5825421   536891 
 4212000    1.2906237   -3.2202132   -1.6370804   0.13440406   -3.2202132    1.5831327   536905 
 4213000    1.2913395   -3.2205662   -1.6367236   0.13172926   -3.2205662    1.5838426   536962 
 4214000    1.2900297   -3.2187005   -1.6365764    0.1428292   -3.2187005    1.5821241   537000 
 4215000    1.2903463   -3.2202877   -1.6378755   0.13419136   -3.2202877    1.5824122   537034 
 4216000    1.2906352   -3.2193239   -1.6366753   0.13393964   -3.2193239    1.5826486   537074 
 4217000    1.2922508   -3.2204907   -1.6359908   0.13876929   -3.2204907    1.5844999   537118 
 4218000    1.2909937   -3.2194482   -1.6366546   0.13092719   -3.2194482    1.5827936   537174 
 4219000    1.2894394   -3.2179194   -1.6371522   0.13532671   -3.2179194    1.5807672   537215 
 4220000     1.289948    -3.218799   -1.6375142   0.13397429    -3.218799    1.5812848   537251 
 4221000    1.2899938   -3.2203002   -1.6391623   0.13198885   -3.2203002    1.5811379   537320 
 4222000    1.2920111   -3.2218422   -1.6383643   0.13279989   -3.2218422    1.5834778   537365 
 4223000    1.2900793   -3.2203134   -1.6393767   0.13298387   -3.2203134    1.5809367   537424 
 4224000    1.2896196   -3.2211702   -1.6408762   0.13358314   -3.2211702     1.580294   537451 
 4225000    1.2895632   -3.2213909   -1.6412836   0.13576635   -3.2213909    1.5801073   537491 
 4226000     1.291985    -3.223332   -1.6403604    0.1314858    -3.223332    1.5829716   537526 
 4227000    1.2888851   -3.2197625   -1.6406918   0.13712498   -3.2197625    1.5790707   537561 
 4228000     1.288551   -3.2200367   -1.6415045    0.1336217   -3.2200367    1.5785322   537605 
 4229000     1.290811   -3.2219001    -1.640764   0.13107916   -3.2219001    1.5811361   537661 
 4230000     1.292045   -3.2237944   -1.6412468   0.13033916   -3.2237944    1.5825476   537695 
 4231000    1.2904015   -3.2199233   -1.6394416   0.13690303   -3.2199233    1.5804817   537713 
 4232000    1.2917779   -3.2223757    -1.640376   0.13179923   -3.2223757    1.5819997   537770 
 4233000    1.2912018   -3.2225007   -1.6413123   0.13690115   -3.2225007    1.5811884   537806 
 4234000     1.291484   -3.2234556   -1.6420452   0.13821748   -3.2234556    1.5814104   537848 
 4235000    1.2920273   -3.2242585   -1.6423094     0.137007   -3.2242585    1.5819492   537891 
 4236000    1.2916641   -3.2253956   -1.6439969   0.13175386   -3.2253956    1.5813987   537927 
 4237000    1.2909614   -3.2241607   -1.6437193   0.13342371   -3.2241607    1.5804414   537960 
 4238000     1.290785    -3.224124   -1.6439955   0.13005631    -3.224124    1.5801285   537993 
 4239000    1.2919405   -3.2259209   -1.6445219   0.13387303   -3.2259209     1.581399   538042 
 4240000    1.2925873   -3.2264866   -1.6444635    0.1341116   -3.2264866    1.5820231   538099 
 4241000    1.2915959   -3.2259719   -1.6452444   0.13122754   -3.2259719    1.5807275   538127 
 4242000    1.2910721   -3.2244201   -1.6444275   0.13767426   -3.2244201    1.5799925   538159 
 4243000    1.2905866   -3.2237111   -1.6444038   0.13215526   -3.2237111    1.5793073   538190 
 4244000    1.2911674   -3.2243484   -1.6445563   0.13155342   -3.2243484    1.5797921   538267 
 4245000     1.293026   -3.2260629   -1.6441378   0.12751173   -3.2260629    1.5819251   538315 
 4246000    1.2932697   -3.2264675   -1.6443441   0.13406868   -3.2264675    1.5821233   538349 
 4247000    1.2929804   -3.2253155   -1.6437019   0.12893792   -3.2253155    1.5816137   538402 
 4248000    1.2924821   -3.2264462   -1.6455684   0.12943283   -3.2264462    1.5808778   538445 
 4249000    1.2906187   -3.2243024   -1.6458005   0.13214968   -3.2243024     1.578502   538478 
 4250000    1.2930782   -3.2263752   -1.6449327   0.12983293   -3.2263752    1.5814425   538501 
 4251000    1.2914131   -3.2241303   -1.6448796   0.13545427   -3.2241303    1.5792507   538554 
 4252000    1.2943761   -3.2269692   -1.6442098   0.12937533   -3.2269692    1.5827595   538593 
 4253000    1.2933477   -3.2258065   -1.6443868   0.13170717   -3.2258065    1.5814197   538621 
 4254000    1.2939596   -3.2263979   -1.6443739   0.12812641   -3.2263979     1.582024   538670 
 4255000    1.2928237   -3.2246339    -1.644075   0.13443787   -3.2246339    1.5805589   538696 
 4256000    1.2946447   -3.2271529   -1.6444794   0.12859462   -3.2271529    1.5826735   538734 
 4257000    1.2925833   -3.2255387   -1.6455817   0.12762362   -3.2255387     1.579957   538801 
 4258000    1.2928939   -3.2257901   -1.6455503   0.13122743   -3.2257901    1.5802399   538834 
 4259000    1.2930075   -3.2260276   -1.6457515   0.13326165   -3.2260276    1.5802761   538869 
 4260000    1.2909981   -3.2240082   -1.6462581   0.13438706   -3.2240082      1.57775   538893 
 4261000    1.2921644   -3.2247731   -1.6457179   0.13317796   -3.2247731    1.5790552   538934 
 4262000    1.2929662    -3.225273   -1.6453611   0.12963861    -3.225273    1.5799119   538976 
 4263000    1.2929686   -3.2253498   -1.6455933   0.13201679   -3.2253498    1.5797565   539030 
 4264000    1.2957204   -3.2288802   -1.6458819   0.12488069   -3.2288802    1.5829983   539071 
 4265000    1.2920718   -3.2248553   -1.6464228   0.13218012   -3.2248553    1.5784325   539108 
 4266000    1.2943734   -3.2256424   -1.6445362   0.12994137   -3.2256424    1.5811063   539155 
 4267000    1.2937903   -3.2264861   -1.6462005    0.1308422   -3.2264861    1.5802856   539192 
 4268000    1.2946321    -3.226587   -1.6453758   0.13599325    -3.226587    1.5812112   539227 
 4269000    1.2963698   -3.2289028   -1.6456691   0.13158485   -3.2289028    1.5832337   539261 
 4270000     1.294229    -3.225496   -1.6449707   0.13776132    -3.225496    1.5805253   539293 
 4271000    1.2954481   -3.2263297   -1.6445062   0.13410183   -3.2263297    1.5818235   539358 
 4272000    1.2942266   -3.2258901   -1.6456694   0.13537628   -3.2258901    1.5802207   539396 
 4273000    1.2962678   -3.2282038   -1.6456581   0.13418984   -3.2282038    1.5825457   539453 
 4274000    1.2971374   -3.2298357    -1.646337   0.13491167   -3.2298357    1.5834987   539490 
 4275000    1.2951295   -3.2284351   -1.6474696   0.12639941   -3.2284351    1.5809655   539518 
 4276000    1.2950234   -3.2280575   -1.6473182   0.13295834   -3.2280575    1.5807393   539551 
 4277000    1.2941948   -3.2274795    -1.647898   0.13740824   -3.2274795    1.5795815   539601 
 4278000    1.2964725   -3.2292086   -1.6469939   0.13158733   -3.2292086    1.5822148   539651 
 4279000     1.296514   -3.2291534   -1.6469407   0.13309382   -3.2291534    1.5822127   539669 
 4280000    1.2961577   -3.2280712    -1.646431   0.14165022   -3.2280712    1.5816402   539716 
 4281000    1.2979932   -3.2309897   -1.6472124   0.13530891   -3.2309897    1.5837773   539751 
 4282000    1.2968609   -3.2308011   -1.6484846   0.13503893   -3.2308011    1.5823165   539778 
 4283000     1.294988   -3.2290991    -1.649179   0.13515891   -3.2290991      1.57992   539816 
 4284000    1.2947939   -3.2288176   -1.6492573     0.135637   -3.2288176    1.5795603   539858 
 4285000    1.2958913   -3.2302118   -1.6494239   0.12983889   -3.2302118    1.5807879   539896 
 4286000     1.295242   -3.2293179   -1.6494187    0.1303471   -3.2293179    1.5798992   539929 
 4287000    1.2972024   -3.2308238   -1.6486446   0.13061979   -3.2308238    1.5821792   539967 
 4288000    1.2968289    -3.231414   -1.6498076    0.1325663    -3.231414    1.5816064   540007 
 4289000    1.2954121   -3.2292547   -1.6495078   0.13376597   -3.2292547    1.5797469   540052 
 4290000     1.297137    -3.230723   -1.6489663   0.13856787    -3.230723    1.5817566   540084 
 4291000    1.2973918   -3.2326121   -1.6506268   0.13294248   -3.2326121    1.5819853   540112 
 4292000     1.296019   -3.2307616   -1.6505644   0.13830254   -3.2307616    1.5801973   540151 
 4293000    1.2958567   -3.2293315   -1.6494812   0.13266585   -3.2293315    1.5798503   540202 
 4294000    1.2940158   -3.2277554   -1.6502955   0.14148872   -3.2277554      1.57746   540252 
 4295000    1.2967437   -3.2310725   -1.6503896   0.13293593   -3.2310725    1.5806829   540287 
 4296000    1.2967981     -3.23107   -1.6504436   0.13224004     -3.23107    1.5806263   540329 
 4297000     1.296514   -3.2313292   -1.6511866   0.13442562   -3.2313292    1.5801426   540376 
 4298000     1.296494   -3.2315467   -1.6515103   0.13259155   -3.2315467    1.5800363   540404 
 4299000    1.2971093    -3.232805   -1.6521766   0.12692144    -3.232805    1.5806283   540458 
 4300000    1.2962229   -3.2303838   -1.6509964   0.12994445   -3.2303838    1.5793874   540513 
 4301000    1.2966073   -3.2310535   -1.6513175   0.12846822   -3.2310535     1.579736   540554 
 4302000    1.2961495   -3.2305659   -1.6515074   0.13326037   -3.2305659    1.5790584   540595 
 4303000    1.2953401   -3.2308044   -1.6528604   0.13526161   -3.2308044    1.5779439   540639 
 4304000     1.296142   -3.2321316   -1.6532809   0.13539813   -3.2321316    1.5788507   540663 
 4305000    1.2970684   -3.2331632   -1.6533359   0.13242163   -3.2331632    1.5798272   540715 
 4306000    1.2969488   -3.2336127   -1.6540452   0.13178186   -3.2336127    1.5795676   540754 
 4307000    1.2966695   -3.2340926   -1.6550141   0.13340097   -3.2340926    1.5790785   540805 
 4308000    1.2950935   -3.2322125   -1.6551961   0.12769705   -3.2322125    1.5770165   540854 
 4309000    1.2985994   -3.2359633   -1.6548211   0.13919706   -3.2359633    1.5811422   540903 
 4310000    1.2978028   -3.2355895   -1.6555311   0.13385891   -3.2355895    1.5800584   540942 
 4311000    1.2977816   -3.2343184    -1.654388   0.13535805   -3.2343184    1.5799304   540977 
 4312000    1.2983585   -3.2362373   -1.6557477   0.12806588   -3.2362373    1.5804896   541026 
 4313000    1.2997753   -3.2364582   -1.6543521   0.13091975   -3.2364582     1.582106   541063 
 4314000    1.2990246   -3.2352386   -1.6541603   0.14216249   -3.2352386    1.5810783   541102 
 4315000    1.3003622    -3.236465    -1.653829   0.13330386    -3.236465     1.582636   541126 
 4316000    1.2987981   -3.2354456     -1.65483   0.12953908   -3.2354456    1.5806156   541166 
 4317000    1.2968441   -3.2340889    -1.655962   0.13373306   -3.2340889    1.5781269   541204 
 4318000    1.2982219   -3.2361733   -1.6565041   0.12948373   -3.2361733    1.5796692   541250 
 4319000    1.2982245   -3.2360353    -1.656465   0.13822536   -3.2360353    1.5795702   541285 
 4320000    1.2982026   -3.2363758   -1.6569547   0.12943525   -3.2363758    1.5794211   541327 
 4321000    1.2968435   -3.2351794   -1.6575139   0.12957464   -3.2351794    1.5776655   541362 
 4322000    1.2982031   -3.2354947   -1.6562802   0.12529884   -3.2354947    1.5792145   541398 
 4323000    1.2984101   -3.2353544    -1.655961    0.1330364   -3.2353544    1.5793934   541423 
 4324000    1.2988288   -3.2357751   -1.6560095   0.13257079   -3.2357751    1.5797655   541470 
 4325000     1.298401   -3.2350738   -1.6559744   0.13641039   -3.2350738    1.5790994   541520 
 4326000    1.2971905    -3.234259   -1.6567075   0.12995712    -3.234259    1.5775515   541546 
 4327000    1.2974138   -3.2346661   -1.6570149   0.13384754   -3.2346661    1.5776512   541605 
 4328000    1.2990985   -3.2378527    -1.658325   0.12805481   -3.2378527    1.5795277   541664 
 4329000    1.2979878   -3.2369036   -1.6588487   0.13275878   -3.2369036    1.5780549   541706 
 4330000    1.2986789   -3.2385889   -1.6597812   0.12815407   -3.2385889    1.5788077   541736 
 4331000    1.3001201   -3.2396541    -1.659211   0.12693102   -3.2396541     1.580443   541776 
 4332000    1.2985305   -3.2377055   -1.6593289   0.13037399   -3.2377055    1.5783766   541822 
 4333000    1.2977477    -3.236366   -1.6590107   0.13103935    -3.236366    1.5773554   541846 
 4334000    1.2972013   -3.2370404   -1.6603928   0.13018524   -3.2370404    1.5766476   541861 
 4335000    1.2983181   -3.2378507   -1.6599535   0.13109639   -3.2378507    1.5778972   541898 
 4336000    1.2978149   -3.2375589   -1.6603781   0.13174714   -3.2375589    1.5771808   541934 
 4337000    1.2982197   -3.2389371   -1.6613894   0.13597094   -3.2389371    1.5775476   541977 
 4338000    1.2987922   -3.2395929   -1.6614748   0.12864365   -3.2395929     1.578118   542020 
 4339000    1.2985254   -3.2388788    -1.661146   0.12927058   -3.2388788    1.5777327   542041 
 4340000    1.2999371   -3.2406944   -1.6613339   0.12833718   -3.2406944    1.5793605   542071 
 4341000    1.2985921   -3.2393678   -1.6617287   0.12965292   -3.2393678    1.5776391   542101 
 4342000    1.3000076   -3.2418081   -1.6625774   0.13757433   -3.2418081    1.5792307   542145 
 4343000    1.2984627    -3.240745    -1.663522    0.1358092    -3.240745     1.577223   542190 
 4344000     1.298559   -3.2397333   -1.6625387   0.13660382   -3.2397333    1.5771945   542240 
 4345000    1.2989729   -3.2407321   -1.6631513   0.13574131   -3.2407321    1.5775808   542280 
 4346000    1.3008112   -3.2428442   -1.6631239   0.13207232   -3.2428442    1.5797203   542312 
 4347000    1.3007692   -3.2429571   -1.6633898   0.12861446   -3.2429571    1.5795673   542347 
 4348000    1.2993655    -3.241095   -1.6633341   0.13599508    -3.241095     1.577761   542382 
 4349000    1.3014471   -3.2439614   -1.6638011   0.13553025   -3.2439614    1.5801603   542426 
 4350000    1.2993017   -3.2409344   -1.6635039    0.1353594   -3.2409344    1.5774305   542469 
 4351000    1.3011161   -3.2439817   -1.6644271   0.13028705   -3.2439817    1.5795546   542496 
 4352000    1.2995009   -3.2419483   -1.6644214   0.13339492   -3.2419483    1.5775269   542519 
 4353000    1.3004668   -3.2428886    -1.664326   0.13664231   -3.2428886    1.5785626   542566 
 4354000    1.3004619   -3.2429819   -1.6645328   0.13526988   -3.2429819    1.5784491   542603 
 4355000    1.2996084   -3.2423656   -1.6650717   0.12919124   -3.2423656     1.577294   542644 
 4356000     1.300466   -3.2423249   -1.6641036   0.13070854   -3.2423249    1.5782213   542683 
 4357000    1.3025945   -3.2451776    -1.664513    0.1275695   -3.2451776    1.5806647   542731 
 4358000     1.299502   -3.2418665   -1.6650591   0.13132544   -3.2418665    1.5768074   542767 
 4359000    1.3005408   -3.2432269   -1.6652607   0.13182849   -3.2432269    1.5779662   542802 
 4360000    1.3015576   -3.2444932   -1.6653545   0.13327624   -3.2444932    1.5791388   542823 
 4361000     1.300508   -3.2424546   -1.6647463   0.13149721   -3.2424546    1.5777083   542877 
 4362000    1.3006998   -3.2431578   -1.6653301   0.13333349   -3.2431578    1.5778277   542916 
 4363000    1.2999415   -3.2406172   -1.6638024   0.13675865   -3.2406172    1.5768149   542948 
 4364000    1.3013676   -3.2430917   -1.6646458   0.12896807   -3.2430917    1.5784459   542982 
 4365000    1.3023119   -3.2439776   -1.6644649   0.13640607   -3.2439776    1.5795127   543009 
 4366000    1.3021657   -3.2438482   -1.6645943   0.12811999   -3.2438482     1.579254   543037 
 4367000    1.3002736   -3.2426358   -1.6657492   0.13792119   -3.2426358    1.5768866   543062 
 4368000    1.3001041   -3.2415974   -1.6650237   0.12930823   -3.2415974    1.5765736   543099 
 4369000     1.301979   -3.2435058   -1.6647633   0.13153762   -3.2435058    1.5787425   543135 
 4370000    1.3022416   -3.2438032   -1.6648266   0.13208523   -3.2438032    1.5789766   543164 
 4371000    1.3029379   -3.2449019   -1.6651711   0.13045786   -3.2449019    1.5797308   543195 
 4372000    1.3012169   -3.2425864   -1.6650642   0.13448612   -3.2425864    1.5775222   543237 
 4373000    1.3035785   -3.2444602   -1.6641971   0.13500075   -3.2444602    1.5802631   543279 
 4374000    1.3009188   -3.2427506   -1.6658569    0.1316393   -3.2427506    1.5768937   543329 
 4375000    1.3034856   -3.2456108   -1.6656726   0.13099374   -3.2456108    1.5799382   543352 
 4376000    1.3017282   -3.2425422   -1.6648647   0.13771286   -3.2425422    1.5776775   543397 
 4377000    1.3028438   -3.2448677   -1.6658876   0.13483203   -3.2448677    1.5789801   543414 
 4378000    1.3038133   -3.2453759   -1.6653341   0.13037004   -3.2453759    1.5800418   543453 
 4379000    1.3015309   -3.2430175   -1.6658376   0.14041538   -3.2430175    1.5771799   543486 
 4380000    1.3020237   -3.2436906   -1.6659628   0.13549074   -3.2436906    1.5777278   543503 
 4381000    1.3018115   -3.2432867   -1.6659437    0.1319455   -3.2432867     1.577343   543547 
 4382000    1.3044355   -3.2460786   -1.6656552   0.12997242   -3.2460786    1.5804235   543581 
 4383000    1.3039051   -3.2470283   -1.6673288   0.13156178   -3.2470283    1.5796995   543609 
 4384000    1.3026881   -3.2464973   -1.6684231   0.12941024   -3.2464973    1.5780741   543661 
 4385000    1.3020406   -3.2456894   -1.6684635   0.13191485   -3.2456894     1.577226   543683 
 4386000    1.3024565   -3.2454269   -1.6678277   0.13365879   -3.2454269    1.5775992   543728 
 4387000    1.3017221   -3.2447924   -1.6681901   0.13234684   -3.2447924    1.5766023   543765 
 4388000    1.3023238   -3.2463538   -1.6690546   0.13877831   -3.2463538    1.5772992   543776 
 4389000    1.3036188   -3.2475379   -1.6687923    0.1342738   -3.2475379    1.5787456   543818 
 4390000    1.3035088   -3.2464218   -1.6679081    0.1347581   -3.2464218    1.5785137   543852 
 4391000    1.3027619   -3.2459119   -1.6684302   0.13995714   -3.2459119    1.5774817   543896 
 4392000    1.3050229   -3.2474468   -1.6673117   0.13232923   -3.2474468    1.5801351   543925 
 4393000    1.3027604   -3.2450515   -1.6677805   0.14034615   -3.2450515     1.577271   543968 
 4394000    1.3053239   -3.2486569   -1.6683925   0.12930418   -3.2486569    1.5802644   544006 
 4395000    1.3036556   -3.2464287    -1.668303   0.13086472   -3.2464287    1.5781257   544047 
 4396000    1.3055672   -3.2484395   -1.6681654   0.12943013   -3.2484395    1.5802742   544104 
 4397000    1.3035072   -3.2456076   -1.6679429   0.13457353   -3.2456076    1.5776647   544144 
 4398000    1.3041905   -3.2458577   -1.6674936   0.13214733   -3.2458577    1.5783641   544188 
 4399000    1.3029505   -3.2450256   -1.6682665   0.13457165   -3.2450256    1.5767591   544224 
 4400000    1.3030523   -3.2452873   -1.6685296    0.1344245   -3.2452873    1.5767578   544267 
 4401000    1.3042324    -3.246698   -1.6686369    0.1313158    -3.246698    1.5780611   544310 
 4402000    1.3042921   -3.2461913   -1.6681653   0.13599912   -3.2461913     1.578026   544347 
 4403000    1.3039844   -3.2471534   -1.6695692   0.13419325   -3.2471534    1.5775842   544371 
 4404000    1.3032748   -3.2477963   -1.6711344   0.13040643   -3.2477963    1.5766619   544393 
 4405000    1.3028389   -3.2467478   -1.6706884   0.13482536   -3.2467478    1.5760594   544419 
 4406000    1.3034925   -3.2480494   -1.6713268    0.1301684   -3.2480494    1.5767226   544463 
 4407000    1.3039804   -3.2490029   -1.6718176    0.1300933   -3.2490029    1.5771854   544507 
 4408000    1.3037667   -3.2491773   -1.6723286   0.13211311   -3.2491773    1.5768487   544534 
 4409000    1.3024489   -3.2487544   -1.6735864   0.12929646   -3.2487544     1.575168   544564 
 4410000     1.303976   -3.2497579   -1.6728675   0.13280519   -3.2497579    1.5768904   544607 
 4411000    1.3041878   -3.2495138   -1.6724425    0.1241372   -3.2495138    1.5770713   544633 
 4412000    1.3034343   -3.2498089   -1.6737616   0.13034496   -3.2498089    1.5760473   544672 
 4413000    1.3044936   -3.2507083   -1.6734642   0.13058727   -3.2507083    1.5772441   544701 
 4414000    1.3049971   -3.2508487   -1.6731116   0.13336604   -3.2508487    1.5777371   544741 
 4415000    1.3040468   -3.2498894   -1.6734199   0.12985572   -3.2498894    1.5764694   544782 
 4416000    1.3052543   -3.2512164   -1.6734146    0.1311063   -3.2512164    1.5778018   544826 
 4417000    1.3073515   -3.2537124   -1.6734538   0.13333588   -3.2537124    1.5802586   544853 
 4418000    1.3048979   -3.2506235   -1.6734552   0.13140626   -3.2506235    1.5771683   544896 
 4419000    1.3063723   -3.2525313   -1.6736534   0.13174197   -3.2525313    1.5788779   544921 
 4420000    1.3067419   -3.2536126   -1.6743865   0.13476236   -3.2536126    1.5792261   544955 
 4421000    1.3069826   -3.2531823    -1.673758   0.13405677   -3.2531823    1.5794243   544987 
 4422000    1.3066187   -3.2520513   -1.6731421   0.13426802   -3.2520513    1.5789092   545013 
 4423000    1.3058794   -3.2517241   -1.6737865   0.13924892   -3.2517241    1.5779376   545040 
 4424000    1.3071877   -3.2530735    -1.673665    0.1317049   -3.2530735    1.5794084   545078 
 4425000    1.3057394   -3.2512968    -1.673754   0.13221785   -3.2512968    1.5775427   545118 
 4426000    1.3060775   -3.2509156     -1.67306    0.1364413   -3.2509156    1.5778556   545151 
 4427000    1.3052466   -3.2510846   -1.6743109   0.13123822   -3.2510846    1.5767737   545178 
 4428000    1.3050662   -3.2520828   -1.6756369   0.13006314   -3.2520828    1.5764459   545216 
 4429000    1.3028657   -3.2490019   -1.6753266   0.13986878   -3.2490019    1.5736753   545255 
 4430000    1.3045624    -3.250822    -1.675236   0.13113563    -3.250822    1.5755859   545303 
 4431000    1.3053077    -3.251359    -1.674977   0.12953134    -3.251359     1.576382   545339 
 4432000    1.3062095   -3.2527791   -1.6754468   0.13024975   -3.2527791    1.5773323   545387 
 4433000      1.30458   -3.2509556   -1.6756633   0.13027223   -3.2509556    1.5752923   545412 
 4434000    1.3064952   -3.2526652   -1.6751239   0.12847234   -3.2526652    1.5775413   545434 
 4435000    1.3059209   -3.2525025   -1.6757384   0.13431902   -3.2525025    1.5767641   545463 
 4436000    1.3060995   -3.2524743   -1.6756478   0.13029409   -3.2524743    1.5768265   545516 
 4437000    1.3068369   -3.2521754   -1.6745714   0.13857096   -3.2521754     1.577604   545555 
 4438000    1.3065499   -3.2522578   -1.6750639   0.12963767   -3.2522578    1.5771939   545577 
 4439000    1.3083189   -3.2533816   -1.6741767    0.1335309   -3.2533816    1.5792048   545620 
 4440000    1.3079192   -3.2534269   -1.6748347   0.13190083   -3.2534269    1.5785922   545665 
 4441000    1.3074999   -3.2527665   -1.6748019   0.12936042   -3.2527665    1.5779647   545707 
 4442000    1.3083145   -3.2544699   -1.6756089    0.1353905   -3.2544699     1.578861   545737 
 4443000    1.3065645   -3.2527466   -1.6760986   0.13167119   -3.2527466     1.576648   545772 
 4444000    1.3072146   -3.2548825   -1.6775715   0.13222499   -3.2548825     1.577311   545814 
 4445000    1.3068098   -3.2537706    -1.677052   0.13547257   -3.2537706    1.5767186   545850 
 4446000     1.306917   -3.2548879   -1.6781785   0.13680048   -3.2548879    1.5767094   545898 
 4447000    1.3066798   -3.2549941   -1.6786344   0.13253206   -3.2549941    1.5763597   545920 
 4448000    1.3067293   -3.2551854   -1.6788671   0.13603974   -3.2551854    1.5763183   545955 
 4449000    1.3058101   -3.2545522    -1.679412   0.13019682   -3.2545522    1.5751402   545979 
 4450000    1.3069265   -3.2564155   -1.6800181   0.12915043   -3.2564155    1.5763974   546010 
 4451000    1.3073248   -3.2565265   -1.6797469   0.13417831   -3.2565265    1.5767796   546044 
 4452000    1.3063553   -3.2549093   -1.6793914   0.13318777   -3.2549093     1.575518   546076 
 4453000     1.307794   -3.2571636   -1.6800693   0.13420775   -3.2571636    1.5770943   546131 
 4454000    1.3084089    -3.257487   -1.6797611   0.13678757    -3.257487    1.5777259   546169 
 4455000     1.307805   -3.2571131   -1.6802193     0.132759   -3.2571131    1.5768938   546205 
 4456000    1.3071496   -3.2567237   -1.6807298   0.12969596   -3.2567237    1.5759939   546243 
 4457000    1.3070322    -3.256795   -1.6810436   0.13107981    -3.256795    1.5757514   546278 
 4458000    1.3061663   -3.2561277   -1.6815442    0.1330567   -3.2561277    1.5745835   546321 
 4459000    1.3062424   -3.2568296   -1.6822149   0.13817641   -3.2568296    1.5746147   546342 
 4460000    1.3083929   -3.2598141   -1.6827744   0.13242713   -3.2598141    1.5770397   546400 
 4461000    1.3068945   -3.2573428   -1.6822186   0.12935379   -3.2573428    1.5751241   546438 
 4462000    1.3068818   -3.2579979   -1.6829613   0.12964026   -3.2579979    1.5750367   546463 
 4463000    1.3070575   -3.2582378   -1.6830642   0.13188772   -3.2582378    1.5751736   546489 
 4464000    1.3058815   -3.2567414   -1.6831089   0.13299607   -3.2567414    1.5736324   546532 
 4465000    1.3077969   -3.2572878   -1.6814338   0.13435008   -3.2572878    1.5758541   546562 
 4466000    1.3086672   -3.2587788   -1.6820087   0.13379477   -3.2587788    1.5767701   546608 
 4467000    1.3089658   -3.2598612   -1.6828266   0.12871712   -3.2598612    1.5770346   546641 
 4468000    1.3091721   -3.2602558   -1.6830967   0.12912766   -3.2602558    1.5771591   546684 
 4469000    1.3088545   -3.2598514   -1.6831614   0.13247555   -3.2598514      1.57669   546714 
 4470000    1.3077077   -3.2576156   -1.6824223   0.13432241   -3.2576156    1.5751933   546754 
 4471000    1.3081363   -3.2582866   -1.6826779   0.13312777   -3.2582866    1.5756087   546789 
 4472000    1.3088628   -3.2593436   -1.6829607   0.13191311   -3.2593436    1.5763829   546824 
 4473000    1.3097818   -3.2599403    -1.682517   0.13265234   -3.2599403    1.5774233   546847 
 4474000    1.3099278   -3.2596334    -1.682141   0.13222977   -3.2596334    1.5774924   546884 
 4475000    1.3088366    -3.258616   -1.6825385   0.13611573    -3.258616    1.5760775   546919 
 4476000    1.3076435   -3.2577758   -1.6831811   0.12856781   -3.2577758    1.5745947   546935 
 4477000    1.3093668   -3.2585449   -1.6820106   0.13232108   -3.2585449    1.5765343   546982 
 4478000    1.3111761    -3.260398   -1.6817978   0.13207476    -3.260398    1.5786002   547021 
 4479000     1.310597   -3.2599781   -1.6822048   0.13442516   -3.2599781    1.5777733   547066 
 4480000    1.3084578   -3.2571108   -1.6819993   0.13609098   -3.2571108    1.5751115   547096 
 4481000    1.3092952   -3.2587018   -1.6826744   0.13401052   -3.2587018    1.5760274   547128 
 4482000    1.3103135    -3.259224   -1.6820372   0.13517694    -3.259224    1.5771868   547151 
 4483000    1.3107672   -3.2584582   -1.6808232   0.12974169   -3.2584582     1.577635   547185 
 4484000    1.3088737   -3.2581362    -1.682907   0.13383338   -3.2581362    1.5752293   547229 
 4485000    1.3090328   -3.2588785   -1.6835355    0.1266872   -3.2588785     1.575343   547256 
 4486000      1.31148   -3.2606761   -1.6824545   0.13558634   -3.2606761    1.5782217   547279 
 4487000    1.3091375   -3.2593393   -1.6840948   0.12831028   -3.2593393    1.5752445   547334 
 4488000    1.3097496   -3.2585503   -1.6826471   0.13599098   -3.2585503    1.5759033   547361 
 4489000    1.3097555   -3.2586532   -1.6828953   0.13164993   -3.2586532    1.5757578   547414 
 4490000    1.3096113   -3.2578439   -1.6823776   0.13312261   -3.2578439    1.5754664   547455 
 4491000    1.3114395     -3.26028   -1.6827181   0.12959063     -3.26028    1.5775619   547491 
 4492000    1.3121277   -3.2617027   -1.6833734   0.12802334   -3.2617027    1.5783292   547512 
 4493000    1.3115639   -3.2613368   -1.6837837   0.13371532   -3.2613368    1.5775531   547546 
 4494000    1.3116161   -3.2616871   -1.6841433   0.13517851   -3.2616871    1.5775438   547571 
 4495000    1.3114365   -3.2613601   -1.6841071   0.13987989   -3.2613601    1.5772529   547597 
 4496000    1.3122911   -3.2616952   -1.6835528   0.13264759   -3.2616952    1.5781424   547645 
 4497000    1.3112182   -3.2613715   -1.6846173   0.13410748   -3.2613715    1.5767542   547679 
 4498000     1.310355   -3.2617721   -1.6861795   0.13444212   -3.2617721    1.5755926   547722 
 4499000    1.3087029   -3.2611422   -1.6876338   0.12973911   -3.2611422    1.5735084   547756 
 4500000    1.3111794   -3.2637075   -1.6873654    0.1193322   -3.2637075    1.5763421   547806 
 4501000    1.3085669   -3.2609189   -1.6878096   0.12499499   -3.2609189    1.5731093   547838 
 4502000    1.3108416   -3.2632071   -1.6874955   0.12888658   -3.2632071    1.5757116   547884 
 4503000    1.3104063   -3.2643619   -1.6893288   0.13097232   -3.2643619    1.5750331   547938 
 4504000    1.3100363   -3.2625825    -1.688132   0.13346334   -3.2625825    1.5744505   547986 
 4505000    1.3119133   -3.2658617   -1.6892561     0.127822   -3.2658617    1.5766056   548021 
 4506000    1.3107068   -3.2648425   -1.6898076   0.13103103   -3.2648425     1.575035   548063 
 4507000    1.3109312    -3.264843   -1.6896475   0.13253872    -3.264843    1.5751954   548101 
 4508000     1.310691   -3.2644488    -1.689677   0.13253726   -3.2644488    1.5747718   548148 
 4509000    1.3115987   -3.2655641   -1.6897851   0.12705032   -3.2655641     1.575779   548177 
 4510000    1.3130104   -3.2659555   -1.6885841   0.13160848   -3.2659555    1.5773714   548213 
 4511000     1.312911   -3.2663683   -1.6892142   0.13570047   -3.2663683    1.5771542   548247 
 4512000    1.3126749   -3.2654506   -1.6887209   0.12997608   -3.2654506    1.5767297   548296 
 4513000     1.314037   -3.2662291   -1.6879958   0.13735115   -3.2662291    1.5782333   548342 
 4514000     1.313906   -3.2667014   -1.6887146   0.13195345   -3.2667014    1.5779868   548373 
 4515000    1.3135555    -3.266443   -1.6890238   0.13686249    -3.266443    1.5774191   548424 
 4516000    1.3126563   -3.2662992   -1.6900777   0.13319853   -3.2662992    1.5762215   548465 
 4517000    1.3117562   -3.2653307   -1.6902848   0.13246677   -3.2653307    1.5750459   548498 
 4518000    1.3125139   -3.2661885   -1.6903276   0.13675235   -3.2661885    1.5758608   548531 
 4519000    1.3134769   -3.2667193   -1.6898287   0.13002296   -3.2667193    1.5768906   548575 
 4520000    1.3125871   -3.2652712   -1.6895034   0.13230551   -3.2652712    1.5757678   548594 
 4521000     1.313002   -3.2679973   -1.6918177   0.12647393   -3.2679973    1.5761796   548624 
 4522000    1.3102977   -3.2654907   -1.6926406   0.13220448   -3.2654907    1.5728502   548653 
 4523000    1.3104904   -3.2661641     -1.69314   0.13110948   -3.2661641    1.5730241   548673 
 4524000     1.311616     -3.26689    -1.692641   0.13542916     -3.26689     1.574249   548717 
 4525000    1.3113923    -3.266246   -1.6923602   0.13025246    -3.266246    1.5738858   548750 
 4526000    1.3135085   -3.2674322   -1.6910755   0.12819997   -3.2674322    1.5763567   548774 
 4527000    1.3128429   -3.2667751   -1.6913664   0.13409592   -3.2667751    1.5754087   548826 
 4528000    1.3125101   -3.2672467   -1.6923609   0.13690976   -3.2672467    1.5748858   548869 
 4529000    1.3136392   -3.2682193   -1.6920791   0.12632864   -3.2682193    1.5761402   548904 
 4530000     1.312939   -3.2678043   -1.6926133   0.13498782   -3.2678043     1.575191   548942 
 4531000     1.313412   -3.2678217   -1.6921408   0.13113293   -3.2678217    1.5756809   548969 
 4532000    1.3126691   -3.2661329   -1.6914062   0.13225932   -3.2661329    1.5747267   548991 
 4533000    1.3133216   -3.2674214   -1.6920096   0.13338973   -3.2674214    1.5754119   549025 
 4534000    1.3146157   -3.2690492   -1.6921798   0.13028631   -3.2690492    1.5768693   549058 
 4535000    1.3125405   -3.2674384   -1.6931958   0.13525636   -3.2674384    1.5742426   549106 
 4536000    1.3126536   -3.2669709   -1.6927188   0.13246391   -3.2669709    1.5742521   549150 
 4537000    1.3142797   -3.2699063   -1.6938045   0.12676744   -3.2699063    1.5761018   549185 
 4538000    1.3132212   -3.2683571    -1.693585   0.13549462   -3.2683571    1.5747722   549206 
 4539000    1.3123426   -3.2678975   -1.6942849   0.13436977   -3.2678975    1.5736126   549243 
 4540000     1.313481    -3.268964   -1.6940752    0.1342252    -3.268964    1.5748888   549274 
 4541000    1.3158709   -3.2716552   -1.6939842   0.13101517   -3.2716552     1.577671   549303 
 4542000    1.3137385   -3.2686748   -1.6936694   0.13133601   -3.2686748    1.5750054   549341 
 4543000    1.3151127   -3.2697471   -1.6931918   0.13604478   -3.2697471    1.5765553   549375 
 4544000    1.3154483   -3.2696304    -1.692736    0.1333403   -3.2696304    1.5768944   549397 
 4545000    1.3145758   -3.2702499   -1.6944616   0.13613629   -3.2702499    1.5757883   549418 
 4546000    1.3147486   -3.2698493   -1.6939313   0.13171093   -3.2698493     1.575918   549445 
 4547000     1.313575   -3.2700372   -1.6956262   0.13651276   -3.2700372     1.574411   549480 
 4548000    1.3156205   -3.2714417   -1.6946939   0.12926946   -3.2714417    1.5767479   549520 
 4549000    1.3149424   -3.2712123   -1.6953974   0.13128592   -3.2712123    1.5758148   549562 
 4550000    1.3144309   -3.2700071   -1.6948856   0.13498528   -3.2700071    1.5751215   549590 
 4551000    1.3130857   -3.2692157   -1.6958207   0.13390621   -3.2692157     1.573395   549630 
 4552000    1.3133934   -3.2707574   -1.6971397   0.13419707   -3.2707574    1.5736177   549681 
 4553000    1.3141172   -3.2723147   -1.6979559   0.12578456   -3.2723147    1.5743589   549725 
 4554000    1.3123742   -3.2693375   -1.6972012   0.13401612   -3.2693375    1.5721363   549772 
 4555000    1.3145161   -3.2724758    -1.697891   0.12883888   -3.2724758    1.5745848   549813 
 4556000    1.3139774   -3.2712475   -1.6973882   0.13385333   -3.2712475    1.5738593   549841 
 4557000    1.3151764   -3.2715111    -1.696313   0.13210234   -3.2715111    1.5751981   549875 
 4558000    1.3125355   -3.2696592   -1.6977071   0.13408219   -3.2696592    1.5719521   549904 
 4559000    1.3149674   -3.2721036    -1.697322   0.13044297   -3.2721036    1.5747816   549933 
 4560000    1.3142631   -3.2710868   -1.6972603   0.12915458   -3.2710868    1.5738265   549972 
 4561000     1.315899   -3.2728088   -1.6970948   0.13255531   -3.2728088    1.5757139   549997 
 4562000    1.3142547   -3.2726406   -1.6990302   0.13152427   -3.2726406    1.5736105   550044 
 4563000    1.3172046   -3.2754188   -1.6983709   0.13475799   -3.2754188    1.5770478   550077 
 4564000    1.3168814   -3.2745918   -1.6979882   0.13248634   -3.2745918    1.5766036   550097 
 4565000     1.314917   -3.2737296   -1.6995837   0.13667879   -3.2737296    1.5741459   550134 
 4566000    1.3149367    -3.273124   -1.6990203    0.1335432    -3.273124    1.5741037   550157 
 4567000    1.3148875   -3.2731917   -1.6992757   0.13490526   -3.2731917     1.573916   550202 
 4568000    1.3145835   -3.2744863     -1.70106   0.13930686   -3.2744863    1.5734263   550246 
 4569000    1.3162058   -3.2762219   -1.7009998   0.13144097   -3.2762219    1.5752221   550297 
 4570000    1.3146745   -3.2752952   -1.7020373   0.13059332   -3.2752952    1.5732579   550343 
 4571000    1.3163316   -3.2775965   -1.7024871   0.12787177   -3.2775965    1.5751093   550389 
 4572000    1.3145881   -3.2742512   -1.7013425   0.13356858   -3.2742512    1.5729087   550429 
 4573000    1.3160868   -3.2754246   -1.7008028   0.12877325   -3.2754246    1.5746219   550457 
 4574000    1.3159266   -3.2759603   -1.7016216   0.13221646   -3.2759603    1.5743387   550489 
 4575000    1.3158864     -3.27631   -1.7021281   0.13065581     -3.27631    1.5741819   550527 
 4576000     1.315614   -3.2761335   -1.7023404   0.13986201   -3.2761335    1.5737931   550549 
 4577000    1.3156848   -3.2775539   -1.7037532   0.12780472   -3.2775539    1.5738006   550576 
 4578000    1.3156488   -3.2764299    -1.702721   0.13342924   -3.2764299    1.5737089   550593 
 4579000    1.3163813   -3.2756279   -1.7011801   0.13722675   -3.2756279    1.5744478   550641 
 4580000    1.3159074   -3.2758062   -1.7020081   0.13540129   -3.2758062    1.5737982   550670 
 4581000    1.3161611   -3.2760802   -1.7020473   0.13197313   -3.2760802     1.574033   550694 
 4582000    1.3166343   -3.2760528   -1.7015081   0.13149843   -3.2760528    1.5745446   550713 
 4583000    1.3163114   -3.2765802   -1.7025818   0.12963589   -3.2765802    1.5739983   550769 
 4584000    1.3139887   -3.2738204   -1.7027449   0.13480451   -3.2738204    1.5710755   550820 
 4585000    1.3158472   -3.2748628   -1.7016309   0.13398158   -3.2748628    1.5732319   550843 
 4586000    1.3184292   -3.2781714   -1.7019468   0.13053563   -3.2781714    1.5762246   550876 
 4587000    1.3175475   -3.2772859   -1.7021669   0.13212879   -3.2772859    1.5751189   550894 
 4588000    1.3171986   -3.2768362   -1.7022573   0.12568661   -3.2768362     1.574579   550937 
 4589000    1.3184243   -3.2783457   -1.7024074   0.13274532   -3.2783457    1.5759384   550974 
 4590000    1.3155894   -3.2760174   -1.7035561   0.13548588   -3.2760174    1.5724613   551005 
 4591000    1.3176855   -3.2780945   -1.7032165    0.1338721   -3.2780945     1.574878   551036 
 4592000    1.3176857   -3.2776229   -1.7028076   0.13383652   -3.2776229    1.5748153   551058 
 4593000    1.3143389   -3.2741963   -1.7034947   0.13005474   -3.2741963    1.5707016   551098 
 4594000    1.3155874   -3.2756486   -1.7035663   0.13139173   -3.2756486    1.5720823   551137 
 4595000    1.3167991   -3.2771913   -1.7037581   0.13399387   -3.2771913    1.5734331   551171 
 4596000    1.3176533   -3.2789407   -1.7045525   0.12456988   -3.2789407    1.5743882   551194 
 4597000    1.3179466   -3.2792833   -1.7046247   0.12971301   -3.2792833    1.5746586   551222 
 4598000    1.3176302   -3.2786939   -1.7044733   0.13179071   -3.2786939    1.5742206   551243 
 4599000    1.3190064   -3.2804409   -1.7046847   0.13260724   -3.2804409    1.5757562   551281 
 4600000    1.3183933    -3.279132   -1.7042455   0.12972357    -3.279132    1.5748866   551329 
 4601000    1.3157571   -3.2764127   -1.7047835   0.13941025   -3.2764127    1.5716292   551367 
 4602000    1.3160461   -3.2779317     -1.70602   0.13817051   -3.2779317    1.5719116   551389 
 4603000    1.3167876   -3.2788922   -1.7061747   0.13395448   -3.2788922    1.5727175   551417 
 4604000    1.3192333   -3.2815578    -1.706025   0.12623419   -3.2815578    1.5755328   551454 
 4605000    1.3193816   -3.2809372   -1.7053244   0.13165048   -3.2809372    1.5756127   551488 
 4606000    1.3177768   -3.2791549   -1.7055984    0.1344025   -3.2791549    1.5735565   551537 
 4607000    1.3170429   -3.2792736    -1.706679   0.13368645   -3.2792736    1.5725946   551567 
 4608000     1.318494    -3.281061   -1.7068393   0.13084352    -3.281061    1.5742217   551604 
 4609000    1.3170315   -3.2790312   -1.7066441   0.13596471   -3.2790312    1.5723871   551635 
 4610000    1.3173293   -3.2794829   -1.7068542   0.13569864   -3.2794829    1.5726287   551675 
 4611000    1.3157898   -3.2787228   -1.7081142   0.13308069   -3.2787228    1.5706085   551739 
 4612000    1.3168706   -3.2800813   -1.7082595   0.13168502   -3.2800813    1.5718218   551766 
 4613000    1.3178713   -3.2805054    -1.707586   0.12547183   -3.2805054    1.5729193   551800 
 4614000    1.3172037   -3.2790631   -1.7071116   0.13387586   -3.2790631    1.5719516   551860 
 4615000    1.3186806   -3.2804595   -1.7068509   0.13148443   -3.2804595    1.5736086   551897 
 4616000    1.3190329   -3.2803927   -1.7064665   0.13339019   -3.2803927    1.5739263   551933 
 4617000    1.3192718   -3.2804877   -1.7064047   0.13257978   -3.2804877    1.5740831   551978 
 4618000    1.3191715   -3.2797052   -1.7058302   0.13639824   -3.2797052     1.573875   552009 
 4619000    1.3183972   -3.2788371   -1.7059515    0.1388598   -3.2788371    1.5728856   552032 
 4620000     1.319958   -3.2809544   -1.7063037   0.12986309   -3.2809544    1.5746507   552066 
 4621000    1.3190096   -3.2810793   -1.7076283   0.13095154   -3.2810793    1.5734509   552090 
 4622000    1.3195248   -3.2804588   -1.7064674   0.13235956   -3.2804588    1.5739914   552116 
 4623000    1.3220298   -3.2830683   -1.7061487   0.13108825   -3.2830683    1.5769195   552137 
 4624000    1.3206141   -3.2816494   -1.7065384   0.12967666   -3.2816494     1.575111   552179 
 4625000     1.320577   -3.2814845   -1.7065574   0.13320229   -3.2814845     1.574927   552228 
 4626000    1.3209201   -3.2818185   -1.7065678   0.13529364   -3.2818185    1.5752507   552258 
 4627000    1.3212712   -3.2815955   -1.7060202   0.13279352   -3.2815955    1.5755752   552291 
 4628000    1.3218139   -3.2830955   -1.7069787   0.13808792   -3.2830955    1.5761168   552328 
 4629000    1.3205267   -3.2826219   -1.7081226   0.13071742   -3.2826219    1.5744992   552357 
 4630000    1.3202683   -3.2818307   -1.7077563    0.1350585   -3.2818307    1.5740743   552398 
 4631000    1.3207413   -3.2828483    -1.708304   0.13272714   -3.2828483    1.5745442   552431 
 4632000    1.3199621   -3.2822062   -1.7087106   0.13464188   -3.2822062    1.5734956   552473 
 4633000    1.3208898   -3.2841222   -1.7096233   0.12920334   -3.2841222    1.5744989   552509 
 4634000    1.3196173   -3.2825825   -1.7096659   0.13419275   -3.2825825    1.5729166   552532 
 4635000    1.3194553   -3.2832688   -1.7106847    0.1320035   -3.2832688    1.5725841   552581 
 4636000    1.3206564   -3.2841027   -1.7101555   0.13337677   -3.2841027    1.5739472   552605 
 4637000    1.3207411   -3.2838726   -1.7099298   0.13338351   -3.2838726    1.5739427   552642 
 4638000    1.3202287   -3.2845333   -1.7112666   0.13270193   -3.2845333    1.5732667   552665 
 4639000    1.3225056   -3.2867293   -1.7108549   0.13251733   -3.2867293    1.5758744   552702 
 4640000    1.3223468   -3.2865509   -1.7109285    0.1267924   -3.2865509    1.5756225   552724 
 4641000    1.3203898   -3.2851728   -1.7119646    0.1338685   -3.2851728    1.5732081   552753 
 4642000    1.3203991   -3.2845442   -1.7114844   0.13545546   -3.2845442    1.5730598   552809 
 4643000    1.3205673    -3.284568   -1.7114158   0.13457656    -3.284568    1.5731522   552847 
 4644000    1.3217589   -3.2859418   -1.7114756   0.13441161   -3.2859418    1.5744662   552884 
 4645000    1.3218448   -3.2852359   -1.7107641   0.13496388   -3.2852359    1.5744718   552918 
 4646000    1.3225228   -3.2861616   -1.7109848   0.13269442   -3.2861616    1.5751768   552954 
 4647000    1.3201596   -3.2843881   -1.7121624   0.12794845   -3.2843881    1.5722257   553002 
 4648000    1.3205466   -3.2854566   -1.7128923   0.14019773   -3.2854566    1.5725643   553045 
 4649000    1.3206016   -3.2863191   -1.7137604   0.13034595   -3.2863191    1.5725587   553070 
 4650000    1.3197487   -3.2850308    -1.713573   0.13085458   -3.2850308    1.5714578   553100 
 4651000    1.3208587   -3.2863572   -1.7137284   0.13325166   -3.2863572    1.5726288   553153 
 4652000    1.3226008   -3.2876983   -1.7130522   0.12607297   -3.2876983     1.574646   553173 
 4653000    1.3225803   -3.2886235   -1.7140902   0.12943863   -3.2886235    1.5745334   553204 
 4654000    1.3205634   -3.2861728   -1.7141486   0.13196067   -3.2861728    1.5720243   553242 
 4655000    1.3218291   -3.2877593   -1.7142938   0.13261126   -3.2877593    1.5734655   553265 
 4656000    1.3221634   -3.2881293   -1.7143852    0.1365388   -3.2881293     1.573744   553307 
 4657000     1.323158   -3.2875983   -1.7127387   0.13633123   -3.2875983    1.5748596   553331 
 4658000    1.3230511   -3.2877253   -1.7130811   0.13128618   -3.2877253    1.5746441   553362 
 4659000    1.3226772   -3.2871707   -1.7130171    0.1371528   -3.2871707    1.5741537   553378 
 4660000    1.3242006   -3.2885124   -1.7125913   0.13137121   -3.2885124    1.5759211   553394 
 4661000    1.3237146   -3.2879591   -1.7127103   0.13630826   -3.2879591    1.5752488   553427 
 4662000    1.3234956   -3.2876599    -1.712814   0.13778546   -3.2876599    1.5748459   553477 
 4663000    1.3240144   -3.2902739   -1.7148192   0.13843945   -3.2902739    1.5754546   553480 
 4664000    1.3232185   -3.2898644   -1.7154563   0.13436659   -3.2898644    1.5744081   553515 
 4665000    1.3242851   -3.2911109   -1.7155334   0.13019592   -3.2911109    1.5755774   553550 
 4666000    1.3228778   -3.2895185   -1.7157092   0.12717406   -3.2895185    1.5738093   553583 
 4667000    1.3236486    -3.289958   -1.7153142   0.13269512    -3.289958    1.5746438   553612 
 4668000    1.3208089   -3.2878565   -1.7167072   0.13827628   -3.2878565    1.5711494   553653 
 4669000    1.3200804   -3.2880602   -1.7178597   0.13285049   -3.2880602    1.5702005   553682 
 4670000     1.320019     -3.28736   -1.7173233     0.131955     -3.28736    1.5700367   553714 
 4671000    1.3245252    -3.291263   -1.7159833   0.13137977    -3.291263    1.5752797   553755 
 4672000    1.3233114   -3.2885584   -1.7147904   0.13611691   -3.2885584     1.573768   553779 
 4673000    1.3228274   -3.2883249   -1.7152291   0.13987186   -3.2883249    1.5730958   553813 
 4674000    1.3237445    -3.289594    -1.715527   0.13409979    -3.289594     1.574067   553855 
 4675000    1.3230093   -3.2896351   -1.7165304   0.13308423   -3.2896351    1.5731048   553886 
 4676000    1.3227597   -3.2892904    -1.716579   0.12897253   -3.2892904    1.5727114   553920 
 4677000    1.3231322   -3.2892309   -1.7161533   0.13699337   -3.2892309    1.5730776   553947 
 4678000    1.3235123   -3.2903032   -1.7168844   0.12939635   -3.2903032    1.5734188   553986 
 4679000    1.3249447    -3.291807   -1.7167991   0.13019307    -3.291807    1.5750079   554026 
 4680000    1.3231465   -3.2892285   -1.7164831   0.13981264   -3.2892285    1.5727454   554070 
 4681000     1.323712   -3.2896865   -1.7163371   0.13424701   -3.2896865    1.5733494   554094 
 4682000    1.3230613   -3.2897949   -1.7173238   0.13813255   -3.2897949     1.572471   554131 
 4683000    1.3227984   -3.2889184   -1.7168506   0.13867985   -3.2889184    1.5720678   554163 
 4684000    1.3230035   -3.2898887   -1.7176198   0.13183411   -3.2898887    1.5722689   554178 
 4685000    1.3246415   -3.2923432   -1.7182156   0.12848434   -3.2923432    1.5741276   554209 
 4686000    1.3245311   -3.2914394   -1.7175083   0.13342703   -3.2914394    1.5739311   554232 
 4687000    1.3237601   -3.2910776   -1.7181251   0.13136362   -3.2910776    1.5729524   554254 
 4688000    1.3221129    -3.290301   -1.7193966   0.13506684    -3.290301    1.5709044   554286 
 4689000     1.322326   -3.2903666   -1.7193336   0.13805747   -3.2903666    1.5710329   554330 
 4690000    1.3244146   -3.2925068   -1.7190691   0.13104491   -3.2925068    1.5734377   554357 
 4691000    1.3221115   -3.2910702   -1.7204679   0.13450764   -3.2910702    1.5706024   554392 
 4692000    1.3245365   -3.2924278   -1.7190042   0.13573863   -3.2924278    1.5734236   554413 
 4693000    1.3233345   -3.2915064   -1.7196184   0.13352072   -3.2915064     1.571888   554451 
 4694000    1.3232824   -3.2923768   -1.7206273   0.13542096   -3.2923768    1.5717496   554478 
 4695000    1.3247455   -3.2938632   -1.7204723   0.13152303   -3.2938632    1.5733909   554512 
 4696000    1.3241409   -3.2932476   -1.7206826   0.13244119   -3.2932476     1.572565   554550 
 4697000    1.3240345   -3.2936415   -1.7213021   0.13588711   -3.2936415    1.5723394   554585 
 4698000    1.3253551   -3.2945197    -1.720717   0.13763593   -3.2945197    1.5738027   554622 
 4699000    1.3246442   -3.2944588   -1.7215427   0.13260673   -3.2944588    1.5729161   554637 
 4700000    1.3242389   -3.2928774   -1.7205447   0.13796645   -3.2928774    1.5723327   554673 
 4701000     1.324868    -3.294692   -1.7216946   0.13002819    -3.294692    1.5729974   554702 
 4702000    1.3248762   -3.2948235   -1.7219723   0.13747549   -3.2948235    1.5728512   554757 
 4703000    1.3250653   -3.2961853   -1.7232088   0.12464968   -3.2961853    1.5729764   554792 
 4704000    1.3250958   -3.2955796   -1.7226463   0.13180829   -3.2955796    1.5729333   554820 
 4705000    1.3256727   -3.2963619   -1.7227864   0.13822379   -3.2963619    1.5735755   554835 
 4706000    1.3239771   -3.2950453   -1.7235504   0.13655999   -3.2950453    1.5714949   554859 
 4707000    1.3241602   -3.2955352   -1.7239193   0.13250084   -3.2955352    1.5716159   554893 
 4708000    1.3254997   -3.2961393   -1.7230441   0.12994358   -3.2961393    1.5730952   554932 
 4709000    1.3258813    -3.296523     -1.72306    0.1327298    -3.296523     1.573463   554962 
 4710000    1.3236395   -3.2955121   -1.7247775   0.13189795   -3.2955121    1.5707347   554986 
 4711000    1.3225315   -3.2951668   -1.7258686   0.13403316   -3.2951668    1.5692982   555029 
 4712000    1.3237563   -3.2961104   -1.7254607   0.13394835   -3.2961104    1.5706497   555065 
 4713000    1.3219659   -3.2946129   -1.7261949   0.13675909   -3.2946129     1.568418   555103 
 4714000     1.323264   -3.2963527   -1.7264879    0.1259009   -3.2963527    1.5698648   555136 
 4715000    1.3230432   -3.2957787   -1.7262467   0.13189174   -3.2957787    1.5695321   555161 
 4716000    1.3231781   -3.2968482   -1.7272748   0.13308238   -3.2968482    1.5695734   555203 
 4717000    1.3222164   -3.2957892   -1.7274582   0.13443284   -3.2957892     1.568331   555239 
 4718000    1.3217903   -3.2971009   -1.7293544   0.12904499   -3.2971009    1.5677464   555267 
 4719000    1.3222273   -3.2970912   -1.7289281    0.1311973   -3.2970912    1.5681631   555303 
 4720000     1.323339   -3.2968217   -1.7274361   0.12998812   -3.2968217    1.5693855   555337 
 4721000     1.325253   -3.2976122   -1.7261039   0.13447183   -3.2976122    1.5715082   555389 
 4722000    1.3251259   -3.2980327   -1.7267686   0.13372122   -3.2980327    1.5712641   555422 
 4723000    1.3252168   -3.2978777   -1.7266444   0.13416949   -3.2978777    1.5712333   555471 
 4724000    1.3281037   -3.3002343   -1.7256575    0.1257272   -3.3002343    1.5745768   555499 
 4725000    1.3268966   -3.2990481   -1.7259591   0.13582265   -3.2990481     1.573089   555519 
 4726000     1.325563   -3.2974868    -1.726041   0.13828109   -3.2974868    1.5714458   555541 
 4727000    1.3256053   -3.2975968   -1.7261575   0.13264394   -3.2975968    1.5714393   555561 
 4728000    1.3257964   -3.2970125    -1.725457   0.13338567   -3.2970125    1.5715555   555600 
 4729000    1.3256055   -3.2978971    -1.726664   0.13475705   -3.2978971    1.5712331   555634 
 4730000    1.3265066   -3.2984372   -1.7262719   0.13114181   -3.2984372    1.5721654   555682 
 4731000    1.3256723    -3.296722   -1.7256586    0.1420267    -3.296722    1.5710634   555722 
 4732000    1.3267373    -3.298473   -1.7262182    0.1316712    -3.298473    1.5722548   555747 
 4733000    1.3273516   -3.2985911   -1.7256988   0.14150462   -3.2985911    1.5728923   555779 
 4734000    1.3266934   -3.2983791   -1.7263545   0.13041488   -3.2983791    1.5720247   555810 
 4735000    1.3248528   -3.2970025   -1.7272352   0.13204425   -3.2970025    1.5697674   555837 
 4736000    1.3262499    -3.299037   -1.7277358   0.13312855    -3.299037    1.5713012   555880 
 4737000    1.3259208   -3.2981051   -1.7272616   0.13476589   -3.2981051    1.5708435   555904 
 4738000    1.3242669   -3.2969583   -1.7281504   0.13821867   -3.2969583    1.5688079   555931 
 4739000    1.3260456   -3.2985718   -1.7277613   0.13541557   -3.2985718    1.5708106   555968 
 4740000    1.3249742   -3.2975894   -1.7281102   0.13283974   -3.2975894    1.5694793   555990 
 4741000    1.3265522   -3.2992455   -1.7279904   0.13193445   -3.2992455    1.5712551   556023 
 4742000    1.3269415   -3.3008924   -1.7292836   0.13594752   -3.3008924    1.5716089   556061 
 4743000    1.3257107    -3.299492   -1.7293945   0.13414632    -3.299492    1.5700975   556080 
 4744000    1.3257635   -3.3000396   -1.7299841   0.13639278   -3.3000396    1.5700555   556117 
 4745000     1.326435   -3.3002642   -1.7294784   0.13394441   -3.3002642    1.5707859   556140 
 4746000    1.3274599   -3.3006492   -1.7287062   0.12899016   -3.3006492    1.5719431   556160 
 4747000    1.3287122   -3.3018995   -1.7285471   0.13474172   -3.3018995    1.5733523   556186 
 4748000    1.3270226   -3.2997218   -1.7284379   0.12890008   -3.2997218    1.5712839   556210 
 4749000    1.3269244   -3.3004569   -1.7293316   0.14316753   -3.3004569    1.5711253   556225 
 4750000    1.3268537   -3.3010144   -1.7301141   0.13484796   -3.3010144    1.5709003   556275 
 4751000    1.3275279   -3.3029027   -1.7312578   0.12788427   -3.3029027    1.5716449   556294 
 4752000    1.3251895   -3.3007145   -1.7318973   0.13237126   -3.3007145    1.5688172   556315 
 4753000     1.324932   -3.3015696    -1.733139   0.13105965   -3.3015696    1.5684306   556344 
 4754000    1.3251845    -3.302913   -1.7342906   0.12568147    -3.302913    1.5686224   556382 
 4755000    1.3268257   -3.3046406   -1.7341123   0.13417715   -3.3046406    1.5705283   556395 
 4756000    1.3258593     -3.30331   -1.7340129   0.13443666     -3.30331    1.5692971   556426 
 4757000    1.3252826   -3.3032806   -1.7347367   0.12893912   -3.3032806     1.568544   556451 
 4758000    1.3243184   -3.3019753   -1.7346317   0.13744969   -3.3019753    1.5673436   556472 
 4759000    1.3261213   -3.3040006   -1.7346276   0.13267832   -3.3040006    1.5693731   556509 
 4760000    1.3258635   -3.3025646   -1.7335813   0.12930327   -3.3025646    1.5689833   556539 
 4761000    1.3265873   -3.3032761   -1.7335547   0.13163107   -3.3032761    1.5697214   556581 
 4762000    1.3277879   -3.3041018   -1.7330161   0.12961824   -3.3041018    1.5710857   556601 
 4763000    1.3289439   -3.3049624   -1.7325965   0.13259945   -3.3049624    1.5723659   556632 
 4764000    1.3284141   -3.3036107    -1.731962   0.13812984   -3.3036107    1.5716487   556664 
 4765000    1.3288972   -3.3048954    -1.732743   0.13002015   -3.3048954    1.5721524   556688 
 4766000    1.3268289   -3.3032008   -1.7335546   0.13634904   -3.3032008    1.5696463   556709 
 4767000    1.3254207    -3.302121   -1.7342109   0.13189455    -3.302121    1.5679101   556734 
 4768000    1.3278273   -3.3034088   -1.7327873   0.13028488   -3.3034088    1.5706215   556782 
 4769000    1.3278411   -3.3039996   -1.7334633   0.12715386   -3.3039996    1.5705362   556818 
 4770000    1.3275461   -3.3039268   -1.7338522   0.13500785   -3.3039268    1.5700746   556858 
 4771000    1.3270144   -3.3038353   -1.7344431   0.13323615   -3.3038353    1.5693922   556877 
 4772000    1.3266181   -3.3031602   -1.7342959   0.13055732   -3.3031602    1.5688643   556898 
 4773000    1.3263643   -3.3022825   -1.7337971   0.13651268   -3.3022825    1.5684854   556926 
 4774000    1.3277193   -3.3049691   -1.7349744   0.12833741   -3.3049691    1.5699946   556959 
 4775000    1.3276513   -3.3040513   -1.7341962   0.12694682   -3.3040513     1.569855   556980 
 4776000    1.3252771   -3.3008336   -1.7338252   0.13562144   -3.3008336    1.5670083   556994 
 4777000    1.3269954   -3.3025243   -1.7335828   0.13527695   -3.3025243    1.5689415   557029 
 4778000    1.3270017   -3.3021914     -1.73331   0.13593506   -3.3021914    1.5688814   557053 
 4779000    1.3291723   -3.3050675   -1.7336961   0.13462366   -3.3050675    1.5713714   557080 
 4780000    1.3304262   -3.3053982   -1.7326714   0.13173571   -3.3053982    1.5727268   557125 
 4781000    1.3305239   -3.3051146   -1.7323542   0.13537669   -3.3051146    1.5727604   557154 
 4782000    1.3291858   -3.3043593   -1.7332597   0.13738974   -3.3043593    1.5710997   557182 
 4783000    1.3298796   -3.3040112   -1.7321732   0.14164991   -3.3040112     1.571838   557211 
 4784000    1.3302525   -3.3033928    -1.731162   0.13455434   -3.3033928    1.5722308   557228 
 4785000    1.3309623   -3.3041563   -1.7311685   0.13515003   -3.3041563    1.5729878   557257 
 4786000    1.3309282   -3.3041881   -1.7312716   0.13307969   -3.3041881    1.5729165   557268 
 4787000    1.3298212   -3.3038428   -1.7323503   0.13760343   -3.3038428    1.5714925   557309 
 4788000    1.3314544   -3.3057523   -1.7324482   0.13639664   -3.3057523     1.573304   557351 
 4789000    1.3304218   -3.3055222   -1.7335117   0.12989771   -3.3055222    1.5720105   557377 
 4790000    1.3286793   -3.3049106   -1.7350463   0.13210309   -3.3049106    1.5698643   557408 
 4791000    1.3295019   -3.3070748   -1.7363373   0.13158865   -3.3070748    1.5707375   557443 
 4792000    1.3278721   -3.3052117   -1.7364588   0.13649459   -3.3052117    1.5687529   557464 
 4793000    1.3285548   -3.3071337   -1.7376333   0.12990924   -3.3071337    1.5695004   557485 
 4794000     1.327766   -3.3069625   -1.7384897    0.1334721   -3.3069625    1.5684728   557519 
 4795000    1.3276891   -3.3062073   -1.7379097   0.13499529   -3.3062073    1.5682976   557549 
 4796000    1.3298695   -3.3077278   -1.7369392   0.13057299   -3.3077278    1.5707886   557579 
 4797000    1.3278941   -3.3055753   -1.7371762   0.12945862   -3.3055753    1.5683992   557599 
 4798000    1.3289636    -3.305668   -1.7360676   0.13738881    -3.305668    1.5696004   557621 
 4799000    1.3304649   -3.3071605   -1.7358602   0.12996673   -3.3071605    1.5713003   557647 
 4800000    1.3294042   -3.3071818   -1.7372497   0.14012701   -3.3071818    1.5699322   557688 
 4801000     1.330404   -3.3083435   -1.7373095    0.1362782   -3.3083435     1.571034   557716 
 4802000    1.3320712   -3.3096224   -1.7367015   0.13064223   -3.3096224    1.5729209   557745 
 4803000    1.3304409   -3.3083004   -1.7374032   0.13727164   -3.3083004    1.5708972   557780 
 4804000    1.3295057   -3.3074345   -1.7377287   0.13095597   -3.3074345    1.5697058   557811 
 4805000    1.3304157   -3.3082447   -1.7375716   0.13196541   -3.3082447    1.5706731   557849 
 4806000    1.3293094   -3.3079362   -1.7386844   0.13378124   -3.3079362    1.5692518   557890 
 4807000    1.3303454    -3.308959   -1.7385574    0.1346566    -3.308959    1.5704016   557916 
 4808000    1.3305115   -3.3089742   -1.7384834   0.13319368   -3.3089742    1.5704908   557954 
 4809000    1.3303352   -3.3085074   -1.7382895   0.13620943   -3.3085074    1.5702178   557977 
 4810000    1.3301452   -3.3082846   -1.7383641   0.13856187   -3.3082846    1.5699204   558003 
 4811000     1.331277   -3.3102295   -1.7390211   0.13396547   -3.3102295    1.5712084   558020 
 4812000    1.3317436   -3.3098813   -1.7382181   0.13524266   -3.3098813    1.5716633   558054 
 4813000    1.3309863   -3.3100712   -1.7393551   0.13592178   -3.3100712    1.5707161   558073 
 4814000      1.33186   -3.3106458    -1.738969   0.12912706   -3.3106458    1.5716769   558098 
 4815000    1.3312005   -3.3101976   -1.7393413   0.13194073   -3.3101976    1.5708563   558113 
 4816000      1.33251   -3.3106125   -1.7383237   0.13280255   -3.3106125    1.5722889   558153 
 4817000    1.3326807   -3.3111465   -1.7387632    0.1408633   -3.3111465    1.5723833   558191 
 4818000    1.3325977   -3.3119261   -1.7397027   0.14086205   -3.3119261    1.5722233   558213 
 4819000    1.3308834   -3.3101818   -1.7400963   0.13732549   -3.3101818    1.5700855   558254 
 4820000    1.3323596   -3.3122647   -1.7405305   0.13651809   -3.3122647    1.5717341   558287 
 4821000    1.3326913   -3.3122015   -1.7401606   0.13648003   -3.3122015    1.5720409   558317 
 4822000    1.3322605   -3.3110471   -1.7396072    0.1349944   -3.3110471    1.5714398   558350 
 4823000    1.3313859   -3.3101768   -1.7398979   0.13973375   -3.3101768    1.5702789   558396 
 4824000    1.3324751   -3.3107684   -1.7392443   0.12803576   -3.3107684    1.5715242   558410 
 4825000     1.332565   -3.3113685   -1.7397863   0.13889034   -3.3113685    1.5715823   558427 
 4826000    1.3316852   -3.3099722   -1.7395569   0.13509368   -3.3099722    1.5704153   558473 
 4827000    1.3308396   -3.3096597   -1.7403034   0.13346804   -3.3096597    1.5693563   558495 
 4828000    1.3316125   -3.3105851   -1.7404185   0.13796152   -3.3105851    1.5701665   558531 
 4829000    1.3321558   -3.3104262   -1.7396697   0.13464287   -3.3104262    1.5707565   558549 
 4830000    1.3328359   -3.3110177   -1.7395296   0.13261638   -3.3110177    1.5714881   558574 
 4831000    1.3333158   -3.3105345   -1.7386353    0.1341532   -3.3105345    1.5718992   558629 
 4832000    1.3327315   -3.3099974   -1.7388716   0.14000104   -3.3099974    1.5711259   558659 
 4833000    1.3326035   -3.3100509   -1.7391265   0.13809063   -3.3100509    1.5709244   558677 
 4834000    1.3324787   -3.3109197   -1.7402126   0.13969656   -3.3109197    1.5707071   558702 
 4835000    1.3322243    -3.310444   -1.7401634   0.13143678    -3.310444    1.5702806   558747 
 4836000    1.3342148   -3.3130234   -1.7405063   0.13017021   -3.3130234    1.5725171   558786 
 4837000    1.3335704   -3.3125391   -1.7409193   0.13257358   -3.3125391    1.5716198   558835 
 4838000    1.3320925   -3.3120773   -1.7422471   0.13393416   -3.3120773    1.5698302   558852 
 4839000    1.3323578   -3.3117581   -1.7416967   0.13486638   -3.3117581    1.5700615   558881 
 4840000    1.3313131   -3.3115491   -1.7428142   0.13941792   -3.3115491    1.5687349   558915 
 4841000    1.3327627   -3.3137873   -1.7434425   0.13026656   -3.3137873    1.5703448   558950 
 4842000    1.3334298   -3.3136542   -1.7426331   0.12668017   -3.3136542    1.5710211   558989 
 4843000    1.3330661   -3.3145823   -1.7440319   0.13338634   -3.3145823    1.5705504   559004 
 4844000    1.3313735   -3.3122626   -1.7437736   0.13556835   -3.3122626     1.568489   559028 
 4845000    1.3332106   -3.3155271   -1.7449216   0.13510413   -3.3155271    1.5706055   559045 
 4846000    1.3332152   -3.3149633   -1.7444338   0.13461343   -3.3149633    1.5705295   559074 
 4847000    1.3326949   -3.3152525   -1.7454707   0.13561485   -3.3152525    1.5697818   559122 
 4848000    1.3349607   -3.3168465   -1.7444689   0.13617306   -3.3168465    1.5723776   559148 
 4849000    1.3328897   -3.3144659   -1.7446118   0.13449269   -3.3144659     1.569854   559178 
 4850000    1.3326767   -3.3156707   -1.7461714   0.13407809   -3.3156707    1.5694993   559215 
 4851000    1.3330488    -3.315746   -1.7459124   0.13254606    -3.315746    1.5698336   559252 
 4852000     1.333071   -3.3152993   -1.7455153   0.13581271   -3.3152993     1.569784   559279 
 4853000    1.3319657    -3.314741   -1.7463034   0.14157375    -3.314741    1.5684376   559295 
 4854000    1.3314437   -3.3146897   -1.7469789   0.14122989   -3.3146897    1.5677108   559335 
 4855000    1.3321942    -3.315762   -1.7472462   0.13675035    -3.315762    1.5685159   559363 
 4856000    1.3317398   -3.3162271   -1.7483386   0.13322617   -3.3162271    1.5678884   559396 
 4857000    1.3317737   -3.3158718   -1.7479995   0.13618518   -3.3158718    1.5678723   559416 
 4858000    1.3330001   -3.3177751   -1.7485628   0.13368747   -3.3177751    1.5692123   559453 
 4859000    1.3322126     -3.31645   -1.7482544   0.13039883     -3.31645    1.5681956   559485 
 4860000    1.3329872    -3.317206   -1.7481827   0.13175257    -3.317206    1.5690233   559515 
 4861000    1.3327997   -3.3176099   -1.7488915   0.13337376   -3.3176099    1.5687184   559545 
 4862000    1.3307608   -3.3164397   -1.7501994   0.12896684   -3.3164397    1.5662402   559573 
 4863000    1.3326091   -3.3178929   -1.7495866   0.12834624   -3.3178929    1.5683063   559612 
 4864000    1.3335159   -3.3165515   -1.7472958   0.13978538   -3.3165515    1.5692557   559654 
 4865000     1.333399    -3.316324   -1.7472647   0.13887937    -3.316324    1.5690593   559675 
 4866000    1.3318744   -3.3140178   -1.7468171   0.13689706   -3.3140178    1.5672008   559698 
 4867000    1.3346754   -3.3181322   -1.7477505   0.13477949   -3.3181322    1.5703817   559739 
 4868000     1.334201   -3.3168544   -1.7471262    0.1316255   -3.3168544    1.5697282   559773 
 4869000      1.33481   -3.3178011   -1.7474181   0.13338504   -3.3178011     1.570383   559795 
 4870000    1.3320669   -3.3146841   -1.7476068   0.13546506   -3.3146841    1.5670774   559823 
 4871000    1.3337521   -3.3164342   -1.7475314   0.12913194   -3.3164342    1.5689029   559879 
 4872000    1.3358003   -3.3183781    -1.747153   0.12905054   -3.3183781    1.5712252   559910 
 4873000     1.335265   -3.3174244   -1.7469466   0.13220771   -3.3174244    1.5704778   559952 
 4874000    1.3339449   -3.3158548   -1.7470306   0.13996649   -3.3158548    1.5688243   559988 
 4875000    1.3335628   -3.3163027    -1.748023   0.13556565   -3.3163027    1.5682797   560022 
 4876000    1.3328773   -3.3166398   -1.7492615   0.13651738   -3.3166398    1.5673783   560056 
 4877000    1.3341955   -3.3183484   -1.7495628   0.13290233   -3.3183484    1.5687856   560107 
 4878000    1.3348829   -3.3181093   -1.7486051   0.13455183   -3.3181093    1.5695043   560139 
 4879000    1.3339817    -3.316543   -1.7482104   0.13892327    -3.316543    1.5683326   560179 
 4880000    1.3359909   -3.3186524   -1.7481315   0.13679327   -3.3186524     1.570521   560241 
 4881000    1.3361771   -3.3183387   -1.7477082   0.13145308   -3.3183387    1.5706305   560280 
 4882000     1.338031   -3.3208505   -1.7481643   0.13631418   -3.3208505    1.5726862   560324 
 4883000    1.3363734   -3.3193977   -1.7487523    0.1333216   -3.3193977    1.5706454   560357 
 4884000     1.336295   -3.3191432   -1.7486515   0.13522095   -3.3191432    1.5704917   560379 
 4885000    1.3375942   -3.3212312   -1.7493165   0.14001445   -3.3212312    1.5719147   560416 
 4886000    1.3355322   -3.3192366   -1.7497927   0.14236217   -3.3192366    1.5694439   560433 
 4887000    1.3367159    -3.320406   -1.7496608   0.13303864    -3.320406    1.5707452   560465 
 4888000    1.3366764   -3.3219729    -1.751347   0.13221762   -3.3219729     1.570626   560491 
 4889000    1.3351891    -3.319483   -1.7506691   0.13979058    -3.319483    1.5688139   560514 
 4890000    1.3344195   -3.3194662    -1.751604   0.13651279   -3.3194662    1.5678622   560531 
 4891000    1.3366361   -3.3215973   -1.7512203   0.13527644   -3.3215973    1.5703769   560563 
 4892000     1.334887    -3.320377   -1.7521083   0.13512937    -3.320377    1.5682687   560582 
 4893000    1.3352782   -3.3202957   -1.7516317   0.13685715   -3.3202957     1.568664   560605 
 4894000    1.3360155   -3.3201288   -1.7506547   0.13629804   -3.3201288    1.5694741   560625 
 4895000    1.3352228   -3.3194662   -1.7509903   0.14005782   -3.3194662    1.5684758   560649 
 4896000    1.3373714    -3.320808    -1.749912   0.14036846    -3.320808     1.570896   560686 
 4897000    1.3365843   -3.3214266   -1.7515222   0.13883081   -3.3214266    1.5699043   560710 
 4898000    1.3360876   -3.3213296   -1.7521122   0.13744226   -3.3213296    1.5692174   560747 
 4899000    1.3351521   -3.3206113   -1.7525682   0.14055836   -3.3206113    1.5680431   560774 
 4900000    1.3366014   -3.3230107   -1.7533522   0.13711466   -3.3230107    1.5696585   560805 
 4901000    1.3348379   -3.3209571   -1.7534647   0.13600423   -3.3209571    1.5674924   560839 
 4902000    1.3350039   -3.3209864   -1.7533856   0.13341742   -3.3209864    1.5676008   560870 
 4903000    1.3355993   -3.3218554   -1.7536729   0.13255653   -3.3218554    1.5681825   560912 
 4904000    1.3353363   -3.3210275    -1.753274    0.1409348   -3.3210275    1.5677535   560955 
 4905000    1.3353496   -3.3213696   -1.7536872    0.1360126   -3.3213696    1.5676824   560986 
 4906000    1.3357218   -3.3216143   -1.7536151   0.14001817   -3.3216143    1.5679991   561029 
 4907000    1.3351778   -3.3210868   -1.7537736   0.13413784   -3.3210868    1.5673131   561046 
 4908000    1.3369787   -3.3230513   -1.7537082   0.13506452   -3.3230513    1.5693431   561076 
 4909000    1.3356847   -3.3229101   -1.7551305    0.1298056   -3.3229101    1.5677796   561092 
 4910000    1.3362629   -3.3239048   -1.7555723   0.13880115   -3.3239048    1.5683325   561137 
 4911000    1.3355611   -3.3221317   -1.7547178   0.13191171   -3.3221317    1.5674139   561171 
 4912000    1.3364758   -3.3235865   -1.7551635    0.1328606   -3.3235865    1.5684231   561194 
 4913000    1.3365027   -3.3225599   -1.7541807   0.13900651   -3.3225599    1.5683792   561221 
 4914000    1.3368332   -3.3226814   -1.7539619    0.1349766   -3.3226814    1.5687195   561238 
 4915000    1.3375472   -3.3230735   -1.7535693   0.13697669   -3.3230735    1.5695042   561257 
 4916000    1.3373222   -3.3223995   -1.7532599   0.13584235   -3.3223995    1.5691395   561293 
 4917000    1.3369979   -3.3224314   -1.7537479    0.1422353   -3.3224314    1.5686835   561320 
 4918000    1.3389922   -3.3254117   -1.7544526   0.13421487   -3.3254117    1.5709591   561343 
 4919000    1.3366044   -3.3240117   -1.7559463   0.13655105   -3.3240117    1.5680654   561376 
 4920000    1.3373891   -3.3246135    -1.755703   0.13612204   -3.3246135    1.5689105   561403 
 4921000    1.3392225    -3.326385   -1.7553908   0.13155025    -3.326385    1.5709942   561427 
 4922000      1.33891   -3.3252797     -1.75475   0.13332154   -3.3252797    1.5705297   561462 
 4923000    1.3371284   -3.3247388   -1.7563967   0.13773525   -3.3247388    1.5683421   561497 
 4924000    1.3374527   -3.3247832   -1.7561249   0.13578001   -3.3247832    1.5686583   561520 
 4925000    1.3382199   -3.3264412   -1.7569614   0.13459841   -3.3264412    1.5694798   561548 
 4926000     1.335747   -3.3242743   -1.7577533   0.13702265   -3.3242743     1.566521   561569 
 4927000    1.3378138   -3.3264718   -1.7576248   0.13061526   -3.3264718     1.568847   561604 
 4928000    1.3372456   -3.3266686   -1.7585604   0.13173378   -3.3266686    1.5681082   561630 
 4929000    1.3366473   -3.3273758   -1.7600417   0.13585873   -3.3273758     1.567334   561656 
 4930000    1.3357269   -3.3273095   -1.7611161   0.13257279   -3.3273095    1.5661934   561678 
 4931000    1.3363961   -3.3277318   -1.7608542   0.13368976   -3.3277318    1.5668776   561714 
 4932000    1.3386379   -3.3295595   -1.7601372   0.14034537   -3.3295595    1.5694223   561744 
 4933000     1.337347   -3.3274185   -1.7596046   0.13658254   -3.3274185     1.567814   561778 
 4934000    1.3368209   -3.3270998   -1.7600115   0.13590246   -3.3270998    1.5670883   561817 
 4935000    1.3377714   -3.3282237   -1.7600575   0.13388984   -3.3282237    1.5681663   561830 
 4936000    1.3366291   -3.3269808   -1.7601982    0.1378712   -3.3269808    1.5667826   561846 
 4937000    1.3368131   -3.3267747   -1.7598433   0.13502553   -3.3267747    1.5669314   561870 
 4938000    1.3376754   -3.3280635   -1.7601715   0.13471538   -3.3280635    1.5678919   561888 
 4939000    1.3377878    -3.327918    -1.760006   0.13514452    -3.327918     1.567912   561928 
 4940000    1.3356241    -3.327679   -1.7623864   0.13271649    -3.327679    1.5652925   561958 
 4941000    1.3371208   -3.3296453   -1.7626378   0.13212603   -3.3296453    1.5670076   561972 
 4942000    1.3373282   -3.3299612   -1.7628583   0.13145353   -3.3299612    1.5671029   562025 
 4943000    1.3372796   -3.3289638   -1.7620099    0.1347136   -3.3289638    1.5669539   562058 
 4944000    1.3368909   -3.3290316   -1.7626056   0.12949056   -3.3290316     1.566426   562084 
 4945000    1.3373832   -3.3297133   -1.7627829   0.13244035   -3.3297133    1.5669304   562110 
 4946000     1.337894   -3.3293903   -1.7619563    0.1378675   -3.3293903     1.567434   562144 
 4947000    1.3380265   -3.3279866   -1.7604755   0.13746973   -3.3279866    1.5675111   562172 
 4948000    1.3386203    -3.328302    -1.760165   0.13332293    -3.328302     1.568137   562197 
 4949000     1.337709   -3.3272426   -1.7602289   0.14137937   -3.3272426    1.5670137   562217 
 4950000    1.3374323    -3.328494   -1.7619381   0.13738261    -3.328494    1.5665559   562265 
 4951000    1.3389232   -3.3293541   -1.7611217   0.13700094   -3.3293541    1.5682324   562290 
 4952000    1.3385965    -3.328304   -1.7605406   0.14130908    -3.328304    1.5677633   562321 
 4953000    1.3399147   -3.3291453   -1.7599189   0.13597672   -3.3291453    1.5692263   562350 
 4954000    1.3412858    -3.328875   -1.7580932   0.13723049    -3.328875    1.5707818   562368 
 4955000    1.3399976   -3.3264857   -1.7573018   0.14086987   -3.3264857    1.5691839   562400 
 4956000    1.3425149   -3.3299634    -1.757949    0.1344478   -3.3299634    1.5720144   562442 
 4957000    1.3389942   -3.3280433   -1.7602574   0.13239204   -3.3280433    1.5677858   562480 
 4958000    1.3397847   -3.3287178   -1.7600983   0.13796584   -3.3287178    1.5686194   562513 
 4959000    1.3401914   -3.3284389   -1.7594243   0.13277565   -3.3284389    1.5690147   562542 
 4960000    1.3400584   -3.3286112   -1.7598163   0.13672558   -3.3286112    1.5687949   562565 
 4961000    1.3404797   -3.3291167   -1.7599151     0.143718   -3.3291167    1.5692016   562596 
 4962000    1.3409408   -3.3303992   -1.7607248   0.13318262   -3.3303992    1.5696744   562620 
 4963000    1.3402264   -3.3294883   -1.7607086   0.13188017   -3.3294883    1.5687796   562641 
 4964000    1.3389055   -3.3289366   -1.7617784   0.13733824   -3.3289366    1.5671582   562668 
 4965000    1.3404646   -3.3299101    -1.761019   0.13893864   -3.3299101    1.5688911   562701 
 4966000    1.3395313   -3.3288147   -1.7611246   0.13210448   -3.3288147    1.5676901   562740 
 4967000    1.3397181   -3.3294768     -1.76166   0.14037434   -3.3294768    1.5678167   562773 
 4968000    1.3400744   -3.3294379   -1.7613016   0.13746634   -3.3294379    1.5681362   562808 
 4969000    1.3408258   -3.3309799   -1.7620648    0.1321088   -3.3309799    1.5689151   562844 
 4970000    1.3394789    -3.329777   -1.7624964    0.1381022    -3.329777    1.5672806   562865 
 4971000    1.3403139   -3.3307355   -1.7626032   0.13440934   -3.3307355    1.5681323   562910 
 4972000    1.3394177   -3.3306875     -1.76369   0.13125491   -3.3306875    1.5669975   562941 
 4973000    1.3404963   -3.3318256   -1.7636499    0.1332789   -3.3318256    1.5681757   562971 
 4974000    1.3397068   -3.3303679    -1.763227   0.13648793   -3.3303679    1.5671408   563011 
 4975000     1.341042    -3.331816   -1.7631802   0.13103149    -3.331816    1.5686358   563035 
 4976000    1.3382842   -3.3295522    -1.764184   0.13825021   -3.3295522    1.5653682   563050 
 4977000     1.340794   -3.3319391   -1.7637104    0.1363467   -3.3319391    1.5682287   563077 
 4978000    1.3401907   -3.3323791   -1.7649312   0.13865613   -3.3323791    1.5674479   563104 
 4979000    1.3399751   -3.3323313   -1.7651939    0.1335978   -3.3323313    1.5671373   563125 
 4980000      1.34141   -3.3331296   -1.7644339   0.13795499   -3.3331296    1.5686957   563168 
 4981000    1.3414155   -3.3336503   -1.7650485   0.14027923   -3.3336503    1.5686018   563204 
 4982000    1.3410122   -3.3326327   -1.7645971   0.13992168   -3.3326327    1.5680356   563238 
 4983000     1.340527    -3.332972   -1.7655428   0.13644454    -3.332972    1.5674292   563252 
 4984000    1.3424592   -3.3340031   -1.7644316   0.13077015   -3.3340031    1.5695715   563294 
 4985000    1.3407932    -3.332311    -1.764807   0.13946389    -3.332311    1.5675039   563337 
 4986000    1.3403749   -3.3320196   -1.7650826   0.14425526   -3.3320196    1.5669371   563365 
 4987000    1.3410897   -3.3323559   -1.7646332   0.13454817   -3.3323559    1.5677226   563383 
 4988000    1.3414412   -3.3330539   -1.7650206   0.14216324   -3.3330539    1.5680334   563419 
 4989000    1.3413749   -3.3332975   -1.7654085   0.13825075   -3.3332975     1.567889   563443 
 4990000    1.3402494   -3.3316543   -1.7652032   0.14337222   -3.3316543    1.5664511   563487 
 4991000    1.3403849   -3.3312303   -1.7647013   0.14181275   -3.3312303    1.5665289   563516 
 4992000    1.3414717   -3.3343521   -1.7665698   0.13694405   -3.3343521    1.5677823   563522 
 4993000    1.3414257   -3.3349579   -1.7673322   0.13562042   -3.3349579    1.5676257   563559 
 4994000    1.3402475   -3.3327909   -1.7666172     0.139715   -3.3327909    1.5661737   563586 
 4995000    1.3416008   -3.3350084   -1.7673477    0.1336443   -3.3350084    1.5676607   563620 
 4996000    1.3410065   -3.3335055   -1.7666145   0.13971825   -3.3335055    1.5668911   563647 
 4997000    1.3417785   -3.3335352   -1.7658088   0.13943108   -3.3335352    1.5677264   563671 
 4998000    1.3418632   -3.3336255   -1.7658614   0.13976346   -3.3336255    1.5677641   563693 
 4999000    1.3416338   -3.3344634   -1.7670507   0.13903406   -3.3344634    1.5674127   563723 
 5000000    1.3406953   -3.3329704   -1.7667319   0.13628384   -3.3329704    1.5662385   563751 
 5001000    1.3406697   -3.3326804   -1.7665467   0.14380398   -3.3326804    1.5661336   563778 
 5002000    1.3416531   -3.3337033   -1.7664793   0.13453335   -3.3337033     1.567224   563799 
 5003000    1.3423141   -3.3342525   -1.7663565   0.13480891   -3.3342525     1.567896   563835 
 5004000     1.340866   -3.3334206   -1.7673327   0.14151304   -3.3334206    1.5660879   563877 
 5005000    1.3396556   -3.3324197   -1.7677511   0.14088482   -3.3324197    1.5646687   563879 
 5006000    1.3420334   -3.3352702   -1.7678967   0.13316662   -3.3352702    1.5673735   563905 
 5007000     1.341816   -3.3348108   -1.7677245     0.134353   -3.3348108    1.5670863   563917 
 5008000    1.3423105   -3.3364597   -1.7688571   0.13630273   -3.3364597    1.5676026   563939 
 5009000    1.3415752   -3.3349968      -1.7683   0.13902655   -3.3349968    1.5666968   563956 
 5010000    1.3407504   -3.3348741   -1.7692017   0.13613516   -3.3348741    1.5656724   563978 
 5011000    1.3423968   -3.3360858    -1.768563   0.13211035   -3.3360858    1.5675228   564004 
 5012000     1.341179   -3.3349055   -1.7688853   0.14187005   -3.3349055    1.5660202   564033 
 5013000    1.3434393   -3.3366747   -1.7681293   0.13331021   -3.3366747    1.5685454   564074 
 5014000    1.3406243   -3.3348544   -1.7696706   0.13872932   -3.3348544    1.5651838   564101 
 5015000    1.3412813   -3.3366986   -1.7708504   0.13591574   -3.3366986    1.5658481   564138 
 5016000     1.341066   -3.3361613   -1.7706366   0.13763784   -3.3361613    1.5655247   564164 
 5017000    1.3419963    -3.336979   -1.7704516   0.13982837    -3.336979    1.5665274   564194 
 5018000     1.342377   -3.3374836   -1.7706062   0.14206535   -3.3374836    1.5668774   564228 
 5019000    1.3416259    -3.336705   -1.7707737   0.13411847    -3.336705    1.5659313   564253 
 5020000    1.3419417   -3.3379528   -1.7717278   0.13257334   -3.3379528    1.5662249   564280 
 5021000    1.3433508   -3.3391025   -1.7712941   0.14200344   -3.3391025    1.5678084   564302 
 5022000    1.3425438   -3.3381535   -1.7713148   0.13506126   -3.3381535    1.5668388   564312 
 5023000    1.3425264   -3.3387278   -1.7720148    0.1374046   -3.3387278     1.566713   564350 
 5024000    1.3434845   -3.3400552   -1.7722909   0.12904016   -3.3400552    1.5677644   564374 
 5025000    1.3416565   -3.3384569   -1.7729227   0.13274376   -3.3384569    1.5655341   564409 
 5026000    1.3420997   -3.3392427   -1.7732775   0.13619633   -3.3392427    1.5659652   564440 
 5027000    1.3415079   -3.3389753   -1.7738086   0.13443759   -3.3389753    1.5651667   564479 
 5028000    1.3420769   -3.3398873   -1.7741096   0.13489698   -3.3398873    1.5657777   564498 
 5029000    1.3406057   -3.3387175   -1.7747171   0.13923609   -3.3387175    1.5640004   564520 
 5030000     1.339756   -3.3370443   -1.7741044   0.13735708   -3.3370443    1.5629399   564545 
 5031000    1.3426342   -3.3402939   -1.7740851   0.13128566   -3.3402939    1.5662088   564577 
 5032000    1.3426649   -3.3401299   -1.7739435   0.13375634   -3.3401299    1.5661863   564598 
 5033000    1.3410875   -3.3389754   -1.7747122   0.13555208   -3.3389754    1.5642632   564628 
 5034000    1.3423698   -3.3399819   -1.7743116   0.13401406   -3.3399819    1.5656702   564660 
 5035000    1.3445585    -3.341963   -1.7737928   0.13126359    -3.341963    1.5681702   564679 
 5036000    1.3427568   -3.3401925   -1.7742207   0.13174007   -3.3401925    1.5659718   564714 
 5037000    1.3415473   -3.3390141   -1.7745637   0.13676797   -3.3390141    1.5644504   564754 
 5038000    1.3430968   -3.3394764   -1.7733078    0.1399318   -3.3394764    1.5661686   564786 
 5039000    1.3459152   -3.3425299   -1.7731358   0.13185246   -3.3425299    1.5693941   564808 
 5040000    1.3430646   -3.3409278    -1.774952   0.13830594   -3.3409278    1.5659758   564842 
 5041000     1.343472   -3.3412324   -1.7747926   0.13491476   -3.3412324    1.5664398   564846 
 5042000    1.3426188   -3.3396978   -1.7743084   0.13981452   -3.3396978    1.5653895   564866 
 5043000    1.3432887   -3.3412731   -1.7751857    0.1403642   -3.3412731    1.5660874   564896 
 5044000    1.3427406   -3.3416136   -1.7762457   0.12878078   -3.3416136     1.565368   564925 
 5045000    1.3413771    -3.340447   -1.7767516   0.13917746    -3.340447    1.5636954   564955 
 5046000    1.3418622   -3.3413565   -1.7771813   0.12738644   -3.3413565    1.5641751   564986 
 5047000    1.3416128   -3.3397795   -1.7759726   0.13263915   -3.3397795    1.5638069   565014 
 5048000    1.3419409   -3.3398882    -1.775757   0.13613047   -3.3398882    1.5641311   565035 
 5049000    1.3421749   -3.3398665   -1.7755539   0.13499116   -3.3398665    1.5643126   565068 
 5050000    1.3428415    -3.341146   -1.7761313   0.13457772    -3.341146    1.5650147   565095 
 5051000    1.3434641    -3.340741   -1.7750422   0.13534824    -3.340741    1.5656988   565110 
 5052000    1.3420257    -3.339723   -1.7757754    0.1391062    -3.339723    1.5639476   565137 
 5053000    1.3438761   -3.3418816   -1.7758523   0.13594253   -3.3418816    1.5660293   565164 
 5054000    1.3447413   -3.3424566   -1.7754911   0.13570519   -3.3424566    1.5669655   565190 
 5055000    1.3443038   -3.3421254   -1.7756919   0.13358331   -3.3421254    1.5664335   565198 
 5056000    1.3435203   -3.3432588   -1.7777826   0.13468617   -3.3432588    1.5654762   565214 
 5057000    1.3440975   -3.3444685   -1.7783808   0.13107437   -3.3444685    1.5660878   565236 
 5058000    1.3428157    -3.342131   -1.7775976    0.1338402    -3.342131    1.5645333   565258 
 5059000    1.3422826   -3.3419469   -1.7780679    0.1315625   -3.3419469     1.563879   565270 
 5060000    1.3439889   -3.3434845   -1.7777393   0.13255585   -3.3434845    1.5657452   565314 
 5061000    1.3421768   -3.3410122   -1.7774777   0.13538245   -3.3410122    1.5635345   565350 
 5062000    1.3436368   -3.3435005   -1.7783344   0.13792472   -3.3435005    1.5651661   565375 
 5063000    1.3419418   -3.3424119   -1.7792728   0.13587231   -3.3424119    1.5631391   565394 
 5064000    1.3433984   -3.3432293   -1.7784573   0.13203936   -3.3432293    1.5647721   565417 
 5065000     1.341455    -3.341397   -1.7789935   0.13889598    -3.341397    1.5624035   565455 
 5066000    1.3417045    -3.343127   -1.7804993   0.13286089    -3.343127    1.5626277   565479 
 5067000    1.3430484   -3.3438515   -1.7797278   0.13516383   -3.3438515    1.5641238   565504 
 5068000    1.3432269   -3.3435005   -1.7792103   0.13559394   -3.3435005    1.5642901   565519 
 5069000    1.3435236   -3.3448032   -1.7802312   0.13845719   -3.3448032     1.564572   565542 
 5070000    1.3439159   -3.3438063   -1.7788577   0.13988182   -3.3438063    1.5649486   565571 
 5071000    1.3441592   -3.3447863   -1.7796013   0.14188758   -3.3447863     1.565185   565588 
 5072000    1.3447678   -3.3451161   -1.7793056   0.14087831   -3.3451161    1.5658105   565618 
 5073000    1.3431378   -3.3440222   -1.7801677   0.13582231   -3.3440222    1.5638546   565639 
 5074000    1.3466628   -3.3468054   -1.7789325   0.13898016   -3.3468054    1.5678728   565670 
 5075000    1.3443817   -3.3445516   -1.7793899   0.13852931   -3.3445516    1.5651617   565690 
 5076000    1.3430945   -3.3442397   -1.7806347   0.14039368   -3.3442397    1.5636051   565711 
 5077000      1.34644   -3.3470482   -1.7796342    0.1358204   -3.3470482    1.5674139   565742 
 5078000    1.3439089   -3.3452241   -1.7808423   0.13766409   -3.3452241    1.5643818   565773 
 5079000    1.3450059   -3.3466424   -1.7810805   0.13940568   -3.3466424    1.5655618   565808 
 5080000    1.3436654   -3.3456294   -1.7816637   0.13469879   -3.3456294    1.5639656   565821 
 5081000    1.3450658   -3.3479009   -1.7823882   0.12927124   -3.3479009    1.5655126   565851 
 5082000    1.3431419   -3.3450754   -1.7818738   0.13666294   -3.3450754    1.5632016   565877 
 5083000    1.3434425   -3.3464399   -1.7829409   0.13635756   -3.3464399     1.563499   565896 
 5084000    1.3452345   -3.3487818   -1.7832222   0.13391074   -3.3487818    1.5655596   565905 
 5085000    1.3447414   -3.3471842   -1.7822786   0.13555621   -3.3471842    1.5649055   565934 
 5086000    1.3436846   -3.3461637   -1.7825489   0.13224917   -3.3461637    1.5636149   565956 
 5087000    1.3459388   -3.3480315   -1.7818764   0.12591617   -3.3480315    1.5661551   565986 
 5088000     1.345156   -3.3456288   -1.7804428    0.1404084   -3.3456288    1.5651861   566007 
 5089000    1.3441671   -3.3449279   -1.7809698   0.13263503   -3.3449279    1.5639581   566035 
 5090000    1.3470475   -3.3481804   -1.7809845   0.13569417   -3.3481804    1.5671959   566076 
 5091000    1.3430381   -3.3457116   -1.7832465   0.13593993   -3.3457116     1.562465   566100 
 5092000    1.3438075   -3.3472373   -1.7839047    0.1320409   -3.3472373    1.5633326   566110 
 5093000    1.3427368    -3.346392   -1.7843934    0.1290957    -3.346392    1.5619987   566142 
 5094000    1.3440144   -3.3472293   -1.7838273   0.13378662   -3.3472293     1.563402   566172 
 5095000    1.3431752   -3.3458615   -1.7834743   0.13724605   -3.3458615    1.5623872   566186 
 5096000    1.3437144    -3.347124   -1.7841896    0.1324941    -3.347124    1.5629344   566215 
 5097000    1.3450008   -3.3480968   -1.7837463   0.13221258   -3.3480968    1.5643504   566244 
 5098000    1.3450214   -3.3469806   -1.7826863    0.1355228   -3.3469806    1.5642943   566273 
 5099000    1.3458663   -3.3474406   -1.7822134    0.1363672   -3.3474406    1.5652272   566291 
 5100000     1.346587   -3.3482865   -1.7823235   0.13355358   -3.3482865     1.565963   566328 
 5101000    1.3455102    -3.347549   -1.7828824   0.13722633    -3.347549    1.5646667   566344 
 5102000    1.3461345   -3.3486502   -1.7833321   0.13412583   -3.3486502     1.565318   566371 
 5103000    1.3441074   -3.3462084   -1.7833248   0.14695308   -3.3462084    1.5628836   566399 
 5104000    1.3451771   -3.3469457   -1.7829067   0.13962009   -3.3469457     1.564039   566431 
 5105000      1.34532   -3.3463715   -1.7822547   0.14013752   -3.3463715    1.5641169   566463 
 5106000     1.347499   -3.3492458   -1.7826454   0.12967409   -3.3492458    1.5666004   566481 
 5107000    1.3484078   -3.3496254    -1.782068   0.13003837   -3.3496254    1.5675574   566517 
 5108000     1.346696   -3.3478979   -1.7824135   0.13458109   -3.3478979    1.5654844   566547 
 5109000    1.3475965    -3.349669   -1.7831987   0.13597124    -3.349669    1.5664704   566569 
 5110000    1.3468626   -3.3482403   -1.7827252   0.13635384   -3.3482403    1.5655151   566606 
 5111000    1.3454632   -3.3477178   -1.7838735    0.1346562   -3.3477178    1.5638443   566622 
 5112000    1.3454791   -3.3476555   -1.7838313   0.14068049   -3.3476555    1.5638242   566636 
 5113000    1.3452809   -3.3487191   -1.7851997   0.13597855   -3.3487191    1.5635193   566663 
 5114000    1.3458134   -3.3493507   -1.7852842   0.13168462   -3.3493507    1.5640665   566689 
 5115000    1.3448906   -3.3476462   -1.7846992   0.13477737   -3.3476462    1.5629471   566706 
 5116000    1.3460159   -3.3492975   -1.7851254   0.13481093   -3.3492975    1.5641721   566736 
 5117000    1.3446419   -3.3492032   -1.7867134    0.1320973   -3.3492032    1.5624898   566767 
 5118000    1.3458562   -3.3498062   -1.7859909   0.13840683   -3.3498062    1.5638154   566798 
 5119000     1.345181   -3.3494748   -1.7865156   0.14095848   -3.3494748    1.5629592   566824 
 5120000    1.3464818   -3.3501345   -1.7857578   0.13599499   -3.3501345    1.5643767   566858 
 5121000    1.3461488   -3.3500684   -1.7861366   0.14188963   -3.3500684    1.5639318   566879 
 5122000    1.3461579   -3.3498983   -1.7860441   0.13349538   -3.3498983    1.5638542   566911 
 5123000    1.3450115   -3.3489642   -1.7865217   0.13906591   -3.3489642    1.5624425   566940 
 5124000    1.3475615   -3.3515213   -1.7862105    0.1354274   -3.3515213    1.5653108   566974 
 5125000    1.3482768   -3.3525684   -1.7865124   0.12945295   -3.3525684     1.566056   567005 
 5126000    1.3473941   -3.3520636   -1.7871073   0.13762949   -3.3520636    1.5649563   567032 
 5127000    1.3470699   -3.3518008   -1.7873039   0.13617545   -3.3518008    1.5644969   567062 
 5128000    1.3461669   -3.3507928   -1.7874246   0.13821356   -3.3507928    1.5633682   567091 
 5129000    1.3473409   -3.3530524    -1.788409   0.13682967   -3.3530524    1.5646434   567123 
 5130000    1.3469577    -3.353782   -1.7896636   0.13393324    -3.353782    1.5641184   567152 
 5131000    1.3472441   -3.3521412   -1.7877758   0.13545969   -3.3521412    1.5643654   567183 
 5132000    1.3472339   -3.3523957   -1.7880972   0.13102033   -3.3523957    1.5642985   567203 
 5133000    1.3457288   -3.3517531   -1.7892876   0.13472301   -3.3517531    1.5624655   567234 
 5134000    1.3456255   -3.3504952   -1.7882241    0.1392291   -3.3504952    1.5622711   567261 
 5135000    1.3472032   -3.3517138   -1.7876826   0.13787769   -3.3517138    1.5640312   567287 
 5136000    1.3460205   -3.3512468   -1.7886603   0.13926321   -3.3512468    1.5625865   567313 
 5137000    1.3458778   -3.3513204   -1.7890042   0.13828214   -3.3513204    1.5623162   567351 
 5138000    1.3460177   -3.3512848   -1.7888448    0.1391629   -3.3512848      1.56244   567365 
 5139000    1.3479638   -3.3529971   -1.7883863   0.13628053   -3.3529971    1.5646108   567397 
 5140000    1.3481442   -3.3535481   -1.7888245   0.14298647   -3.3535481    1.5647237   567432 
 5141000    1.3481674   -3.3531501   -1.7884711   0.13770227   -3.3531501    1.5646789   567458 
 5142000    1.3466215   -3.3520975   -1.7892596   0.13706469   -3.3520975    1.5628379   567475 
 5143000    1.3479117   -3.3539775   -1.7897277    0.1326969   -3.3539775    1.5642498   567506 
 5144000    1.3471541   -3.3535461   -1.7902471   0.14001896   -3.3535461     1.563299   567532 
 5145000    1.3473891   -3.3534136   -1.7899025   0.13824129   -3.3534136    1.5635112   567554 
 5146000     1.348175   -3.3546868   -1.7902968   0.13390545   -3.3546868      1.56439   567566 
 5147000    1.3491694   -3.3555883   -1.7900996   0.13594887   -3.3555883    1.5654887   567586 
 5148000    1.3469287   -3.3529921    -1.790175    0.1427095   -3.3529921    1.5628171   567612 
 5149000     1.349121   -3.3553649   -1.7900924   0.13363773   -3.3553649    1.5652726   567644 
 5150000    1.3478516   -3.3551259   -1.7914004   0.13691698   -3.3551259    1.5637255   567671 
 5151000    1.3480463   -3.3563028   -1.7924424   0.13760186   -3.3563028    1.5638604   567704 
 5152000    1.3490159   -3.3567056   -1.7918279   0.13597583   -3.3567056    1.5648777   567743 
 5153000    1.3484034   -3.3555548   -1.7914344   0.13744509   -3.3555548    1.5641204   567760 
 5154000    1.3481599   -3.3545268   -1.7907963   0.13948316   -3.3545268    1.5637305   567799 
 5155000     1.347708    -3.354707   -1.7915557   0.13585666    -3.354707    1.5631513   567819 
 5156000     1.350354   -3.3572447   -1.7911126   0.13404598   -3.3572447     1.566132   567851 
 5157000    1.3508029   -3.3576962    -1.791129   0.13599111   -3.3576962    1.5665672   567882 
 5158000    1.3485668   -3.3559439   -1.7920499   0.13836139   -3.3559439     1.563894   567911 
 5159000    1.3483429   -3.3557995   -1.7922449   0.14307074   -3.3557995    1.5635546   567940 
 5160000    1.3487565   -3.3565231   -1.7925633   0.13438126   -3.3565231    1.5639598   567967 
 5161000    1.3478895   -3.3559343   -1.7930568   0.13179476   -3.3559343    1.5628774   567995 
 5162000    1.3475788   -3.3549973   -1.7925324   0.13599294   -3.3549973    1.5624649   568014 
 5163000    1.3487712   -3.3565771   -1.7927682   0.13512409   -3.3565771    1.5638089   568028 
 5164000    1.3486675   -3.3554533   -1.7918692   0.13715836   -3.3554533    1.5635841   568066 
 5165000    1.3495896   -3.3561341   -1.7915334   0.13953941   -3.3561341    1.5646007   568085 
 5166000    1.3478466   -3.3549252   -1.7924056   0.14257813   -3.3549252    1.5625195   568107 
 5167000    1.3476001   -3.3540814   -1.7918806   0.14371151   -3.3540814    1.5622008   568119 
 5168000    1.3501113   -3.3591181   -1.7941192   0.13197001   -3.3591181    1.5649989   568160 
 5169000    1.3503545   -3.3584688   -1.7932705   0.13128416   -3.3584688    1.5651983   568190 
 5170000    1.3475116   -3.3552271   -1.7934203   0.13936356   -3.3552271    1.5618068   568225 
 5171000    1.3489149   -3.3572721   -1.7938774   0.13505533   -3.3572721    1.5633947   568239 
 5172000    1.3483715   -3.3559504   -1.7932598   0.13777928   -3.3559504    1.5626906   568266 
 5173000    1.3484433   -3.3562069   -1.7935237    0.1388664   -3.3562069    1.5626831   568299 
 5174000    1.3498496   -3.3563414   -1.7921057   0.13625172   -3.3563414    1.5642358   568327 
 5175000    1.3508962   -3.3592712   -1.7938529   0.13164152   -3.3592712    1.5654183   568338 
 5176000    1.3499242   -3.3583164   -1.7940904   0.13908647   -3.3583164    1.5642259   568362 
 5177000    1.3487848   -3.3577495   -1.7949374   0.14009144   -3.3577495    1.5628121   568396 
 5178000    1.3480447   -3.3573253   -1.7954422   0.13901457   -3.3573253    1.5618831   568422 
 5179000    1.3494351    -3.358779   -1.7953289   0.13488261    -3.358779    1.5634501   568438 
 5180000    1.3488354   -3.3588116   -1.7961332   0.13468394   -3.3588116    1.5626783   568466 
 5181000    1.3494673    -3.358643   -1.7953453   0.14295163    -3.358643    1.5632977   568507 
 5182000    1.3495471   -3.3593563   -1.7960294   0.14279577   -3.3593563    1.5633269   568530 
 5183000    1.3493968   -3.3585801   -1.7955153    0.1426033   -3.3585801    1.5630648   568562 
 5184000    1.3507261   -3.3612262   -1.7967235   0.13836145   -3.3612262    1.5645028   568599 
 5185000    1.3498067   -3.3598246   -1.7964748   0.13742025   -3.3598246    1.5633498   568631 
 5186000    1.3495092   -3.3596152   -1.7966621   0.14247086   -3.3596152    1.5629531   568650 
 5187000    1.3482186   -3.3594291   -1.7980559   0.13554374   -3.3594291    1.5613732   568681 
 5188000    1.3492647   -3.3608552   -1.7983034    0.1355767   -3.3608552    1.5625518   568693 
 5189000    1.3504554   -3.3610193   -1.7971574   0.14180337   -3.3610193    1.5638619   568718 
 5190000     1.349194   -3.3590332   -1.7967035    0.1405744   -3.3590332    1.5623297   568744 
 5191000    1.3482812   -3.3594055    -1.798226   0.14038666   -3.3594055    1.5611794   568778 
 5192000     1.348556   -3.3607565   -1.7993412   0.14011984   -3.3607565    1.5614152   568808 
 5193000    1.3494216   -3.3605599   -1.7982331   0.12959476   -3.3605599    1.5623268   568841 
 5194000    1.3490948   -3.3585312   -1.7966294   0.13815287   -3.3585312    1.5619018   568858 
 5195000    1.3511007   -3.3611101   -1.7969356   0.13858059   -3.3611101    1.5641746   568876 
 5196000     1.350297   -3.3608797    -1.797674   0.13447024   -3.3608797    1.5632057   568890 
 5197000    1.3502729   -3.3602282   -1.7971163   0.13830476   -3.3602282    1.5631119   568914 
 5198000    1.3513987    -3.360515   -1.7961933   0.13733224    -3.360515    1.5643217   568948 
 5199000    1.3514473   -3.3603292   -1.7959761   0.13676044   -3.3603292    1.5643531   568957 
 5200000    1.3524299   -3.3621149   -1.7966904    0.1327609   -3.3621149    1.5654245   568981 
 5201000    1.3503405   -3.3594359   -1.7965123   0.14046924   -3.3594359    1.5629236   569011 
 5202000    1.3496072   -3.3591667   -1.7971659   0.13826676   -3.3591667    1.5620008   569038 
 5203000    1.3512163   -3.3611942   -1.7973998   0.13064603   -3.3611942    1.5637944   569063 
 5204000    1.3505013   -3.3598999   -1.7969933   0.14333665   -3.3598999    1.5629065   569085 
 5205000    1.3495207   -3.3584431   -1.7967374   0.13941117   -3.3584431    1.5617058   569109 
 5206000     1.350678   -3.3598563    -1.796921   0.14197148   -3.3598563    1.5629353   569149 
 5207000    1.3519384   -3.3612228   -1.7969116   0.13701387   -3.3612228    1.5643112   569179 
 5208000    1.3511585   -3.3610537   -1.7977108   0.13664733   -3.3610537    1.5633429   569203 
 5209000    1.3506687   -3.3606017   -1.7979079   0.13713377   -3.3606017    1.5626939   569233 
 5210000    1.3509949   -3.3610656    -1.798085   0.14116789   -3.3610656    1.5629806   569266 
 5211000    1.3515609   -3.3608481   -1.7972978   0.13615987   -3.3608481    1.5635503   569297 
 5212000    1.3521042   -3.3615538   -1.7974354   0.13993501   -3.3615538    1.5641184   569319 
 5213000    1.3507195   -3.3606195   -1.7981853   0.13551191   -3.3606195    1.5624342   569349 
 5214000     1.351206    -3.360601   -1.7976342   0.14113107    -3.360601    1.5629668   569360 
 5215000    1.3521964   -3.3628033   -1.7987568   0.13700955   -3.3628033    1.5640464   569384 
 5216000     1.352707   -3.3633666   -1.7988478   0.13507611   -3.3633666    1.5645189   569427 
 5217000    1.3525061   -3.3628769    -1.798648   0.13631867   -3.3628769    1.5642289   569448 
 5218000    1.3513549   -3.3634315   -1.8006219   0.13599377   -3.3634315    1.5628096   569480 
 5219000    1.3512916   -3.3630321   -1.8003698   0.14231482   -3.3630321    1.5626623   569507 
 5220000    1.3507931   -3.3625362   -1.8005491   0.13728589   -3.3625362    1.5619871   569543 
 5221000    1.3516021   -3.3642001   -1.8013159    0.1354017   -3.3642001    1.5628842   569557 
 5222000    1.3516174   -3.3631971   -1.8003392   0.14299558   -3.3631971     1.562858   569573 
 5223000    1.3505773   -3.3623747   -1.8007358    0.1387417   -3.3623747    1.5616389   569579 
 5224000    1.3512967   -3.3627119   -1.8002879    0.1413314   -3.3627119     1.562424   569596 
 5225000    1.3527767   -3.3643668   -1.8003249   0.13412203   -3.3643668    1.5640419   569630 
 5226000    1.3526972   -3.3643711   -1.8005199   0.12927846   -3.3643711    1.5638512   569666 
 5227000    1.3522014    -3.363549    -1.800282   0.13477175    -3.363549     1.563267   569670 
 5228000    1.3518984    -3.364236   -1.8013906   0.13600403    -3.364236    1.5628454   569696 
 5229000    1.3507698   -3.3632867   -1.8018474    0.1396795   -3.3632867    1.5614393   569733 
 5230000    1.3527015   -3.3659219   -1.8023018   0.14427193   -3.3659219    1.5636201   569752 
 5231000    1.3511913   -3.3637955   -1.8019787   0.14197394   -3.3637955    1.5618168   569773 
 5232000    1.3524787   -3.3642082   -1.8009307   0.14151576   -3.3642082    1.5632775   569783 
 5233000    1.3547128     -3.36683   -1.8010747   0.13542623     -3.36683    1.5657554   569821 
 5234000    1.3522901   -3.3646264   -1.8017369   0.13865668   -3.3646264    1.5628895   569845 
 5235000    1.3523122   -3.3645428   -1.8016964   0.14554406   -3.3645428    1.5628464   569870 
 5236000    1.3533221   -3.3659331   -1.8019964   0.14034206   -3.3659331    1.5639367   569898 
 5237000    1.3525817    -3.365447   -1.8024234   0.13664857    -3.365447    1.5630235   569919 
 5238000    1.3516309   -3.3640429   -1.8021455   0.14205073   -3.3640429    1.5618973   569929 
 5239000    1.3513696   -3.3649139   -1.8033815   0.14228137   -3.3649139    1.5615324   569952 
 5240000     1.352344   -3.3662087   -1.8036464   0.13317571   -3.3662087    1.5625624   569987 
 5241000    1.3503185     -3.36339   -1.8032118   0.13721446     -3.36339    1.5601782   570003 
 5242000    1.3508051   -3.3639522   -1.8032556   0.13496345   -3.3639522    1.5606966   570019 
 5243000    1.3525525   -3.3650623   -1.8024208   0.13737494   -3.3650623    1.5626415   570046 
 5244000    1.3535088   -3.3660871   -1.8024093   0.13835281   -3.3660871    1.5636778   570071 
 5245000    1.3535677   -3.3658337   -1.8021318   0.14331955   -3.3658337    1.5637019   570087 
 5246000    1.3544203   -3.3670747   -1.8024179   0.13736726   -3.3670747    1.5646567   570098 
 5247000     1.352656   -3.3651765   -1.8026566   0.14256136   -3.3651765    1.5625198   570134 
 5248000     1.353256   -3.3657866   -1.8026394   0.13984406   -3.3657866    1.5631472   570158 
 5249000    1.3527267   -3.3647732   -1.8022539   0.13605675   -3.3647732    1.5625193   570164 
 5250000    1.3548957    -3.367148   -1.8022249   0.14261092    -3.367148    1.5649231   570201 
 5251000    1.3539316   -3.3660328   -1.8022999   0.13360613   -3.3660328    1.5637329   570229 
 5252000    1.3531102   -3.3659614   -1.8032567   0.13479598   -3.3659614    1.5627047   570258 
 5253000    1.3516526   -3.3647154   -1.8037844   0.13580703   -3.3647154     1.560931   570291 
 5254000     1.353613   -3.3675193   -1.8043792   0.13313655   -3.3675193      1.56314   570311 
 5255000    1.3526517   -3.3659961   -1.8040291   0.13689054   -3.3659961     1.561967   570334 
 5256000    1.3524993   -3.3659181   -1.8042174   0.13652992   -3.3659181    1.5617007   570367 
 5257000    1.3523653   -3.3655536   -1.8040734   0.13590419   -3.3655536    1.5614802   570391 
 5258000    1.3525772   -3.3662911   -1.8045935   0.14043826   -3.3662911    1.5616975   570401 
 5259000    1.3519816   -3.3675248   -1.8066052   0.13960148   -3.3675248    1.5609195   570434 
 5260000    1.3543702   -3.3699632   -1.8063626   0.13502938   -3.3699632    1.5636005   570462 
 5261000    1.3533064   -3.3695429   -1.8072335   0.13791925   -3.3695429    1.5623094   570485 
 5262000    1.3525372   -3.3675857   -1.8062299   0.13385938   -3.3675857    1.5613557   570509 
 5263000    1.3535387   -3.3686937   -1.8062558   0.13565231   -3.3686937    1.5624378   570536 
 5264000    1.3530324   -3.3686453   -1.8068357   0.13337004   -3.3686453    1.5618096   570552 
 5265000    1.3531265   -3.3684818   -1.8066402   0.13625853   -3.3684818    1.5618416   570580 
 5266000    1.3524358   -3.3673673   -1.8063968   0.13982881   -3.3673673    1.5609705   570607 
 5267000    1.3532772   -3.3671846   -1.8053032   0.14439756   -3.3671846    1.5618815   570629 
 5268000    1.3548253   -3.3703142   -1.8067338    0.1426946   -3.3703142    1.5635805   570661 
 5269000    1.3534579   -3.3697437   -1.8077933   0.13355186   -3.3697437    1.5619504   570680 
 5270000     1.354734   -3.3705591   -1.8072346   0.13395667   -3.3705591    1.5633245   570716 
 5271000    1.3543852   -3.3705629   -1.8077094   0.13672516   -3.3705629    1.5628534   570741 
 5272000    1.3549498   -3.3709125   -1.8074952   0.13486762   -3.3709125    1.5634173   570773 
 5273000    1.3533858   -3.3701789   -1.8086537   0.13390059   -3.3701789    1.5615252   570805 
 5274000    1.3537095    -3.370595   -1.8087566   0.13540288    -3.370595    1.5618384   570827 
 5275000    1.3527611   -3.3689748   -1.8082879   0.14250626   -3.3689748    1.5606868   570848 
 5276000    1.3536579   -3.3705377   -1.8088983   0.13605554   -3.3705377    1.5616394   570878 
 5277000    1.3539275   -3.3694419   -1.8075162   0.13848807   -3.3694419    1.5619257   570887 
 5278000    1.3521706    -3.367977   -1.8081327   0.13715786    -3.367977    1.5598443   570907 
 5279000    1.3540495   -3.3704673    -1.808543   0.13859199   -3.3704673    1.5619243   570939 
 5280000    1.3540409   -3.3698528   -1.8079768    0.1364474   -3.3698528     1.561876   570953 
 5281000    1.3550212   -3.3708462   -1.8079189   0.13437647   -3.3708462    1.5629274   570982 
 5282000    1.3536078   -3.3690525   -1.8078128   0.14265698   -3.3690525    1.5612397   571003 
 5283000    1.3557986    -3.371668   -1.8079836   0.13426951    -3.371668    1.5636845   571033 
 5284000    1.3548689   -3.3696215   -1.8070914   0.14401784   -3.3696215    1.5625301   571063 
 5285000    1.3549757   -3.3698198   -1.8072185   0.13793548   -3.3698198    1.5626012   571082 
 5286000    1.3537447   -3.3691939   -1.8080232   0.13736459   -3.3691939    1.5611707   571086 
 5287000    1.3559513    -3.371873   -1.8081905   0.13546828    -3.371873    1.5636825   571098 
 5288000    1.3558601   -3.3706632   -1.8071132   0.13574585   -3.3706632      1.56355   571108 
 5289000    1.3565051   -3.3708455   -1.8065956   0.13922852   -3.3708455    1.5642499   571124 
 5290000    1.3553096   -3.3693177   -1.8064818   0.14055889   -3.3693177    1.5628358   571137 
 5291000    1.3565592   -3.3706452   -1.8063794   0.13930331   -3.3706452    1.5642658   571141 
 5292000    1.3572697   -3.3718776   -1.8068255   0.13357967   -3.3718776    1.5650522   571153 
 5293000    1.3548136    -3.368566    -1.806428   0.13935816    -3.368566     1.562138   571183 
 5294000    1.3529537    -3.368047   -1.8081191   0.14348059    -3.368047    1.5599279   571207 
 5295000    1.3568043   -3.3716029   -1.8072983   0.13125804   -3.3716029    1.5643047   571230 
 5296000    1.3545001   -3.3691705   -1.8075799   0.13805698   -3.3691705    1.5615906   571251 
 5297000    1.3553014   -3.3696267   -1.8071888   0.14068546   -3.3696267    1.5624379   571279 
 5298000    1.3559558   -3.3707383   -1.8076034   0.13883753   -3.3707383    1.5631349   571300 
 5299000    1.3548121   -3.3707922   -1.8090195   0.13151563   -3.3707922    1.5617727   571316 
 5300000    1.3543398   -3.3701405   -1.8089615   0.14207515   -3.3701405     1.561179   571334 
 5301000    1.3544229   -3.3708519   -1.8096536   0.14114032   -3.3708519    1.5611983   571362 
 5302000    1.3553115   -3.3718066   -1.8096825   0.13581705   -3.3718066    1.5621241   571398 
 5303000    1.3552712   -3.3718448   -1.8098491   0.13629455   -3.3718448    1.5619957   571428 
 5304000    1.3552478   -3.3720509   -1.8101232   0.13944452   -3.3720509    1.5619277   571443 
 5305000    1.3557379   -3.3735087   -1.8110489   0.13841712   -3.3735087    1.5624598   571455 
 5306000    1.3562285   -3.3738494   -1.8108899    0.1402637   -3.3738494    1.5629595   571479 
 5307000    1.3568989    -3.374975    -1.811295   0.13213404    -3.374975      1.56368   571498 
 5308000    1.3562185   -3.3733432   -1.8105046   0.13462178   -3.3733432    1.5628385   571519 
 5309000    1.3549885   -3.3720464    -1.810688   0.14284369   -3.3720464    1.5613583   571542 
 5310000    1.3538096   -3.3707454   -1.8108219   0.13980091   -3.3707454    1.5599234   571570 
 5311000    1.3563326   -3.3740473   -1.8112824   0.13818052   -3.3740473     1.562765   571594 
 5312000    1.3556152   -3.3737191   -1.8118518   0.14476347   -3.3737191    1.5618674   571620 
 5313000    1.3546878   -3.3733859   -1.8126416   0.13750837   -3.3733859    1.5607443   571640 
 5314000     1.356726   -3.3747151   -1.8117102   0.14114071   -3.3747151    1.5630049   571672 
 5315000    1.3560902   -3.3738014   -1.8116108    0.1376085   -3.3738014    1.5621906   571702 
 5316000    1.3564074   -3.3759056   -1.8134015    0.1384768   -3.3759056     1.562504   571721 
 5317000     1.355668   -3.3765762   -1.8149759   0.12792502   -3.3765762    1.5616004   571740 
 5318000    1.3538252   -3.3749983   -1.8156025    0.1372454   -3.3749983    1.5593958   571770 
 5319000    1.3532849   -3.3740938   -1.8153857   0.13463215   -3.3740938    1.5587081   571794 
 5320000    1.3544929   -3.3745661   -1.8145295   0.12949409   -3.3745661    1.5600366   571817 
 5321000    1.3555316   -3.3755828   -1.8144208   0.14265876   -3.3755828     1.561162   571843 
 5322000    1.3537953    -3.374367   -1.8152428   0.13558624    -3.374367    1.5591241   571857 
 5323000    1.3550025   -3.3751856   -1.8147121   0.13573656   -3.3751856    1.5604734   571872 
 5324000    1.3547276   -3.3757155   -1.8156049   0.13224651   -3.3757155    1.5601106   571889 
 5325000    1.3546755   -3.3750886   -1.8151199   0.13674445   -3.3750886    1.5599687   571919 
 5326000    1.3557941    -3.375505   -1.8143082   0.13683799    -3.375505    1.5611968   571941 
 5327000    1.3552152   -3.3738178   -1.8132958   0.14051322   -3.3738178     1.560522   571944 
 5328000    1.3547439   -3.3740912    -1.814202   0.13951341   -3.3740912    1.5598892   571977 
 5329000    1.3573994   -3.3762583   -1.8133688   0.13262995   -3.3762583    1.5628896   571998 
 5330000    1.3567891   -3.3769994   -1.8149054   0.13704614   -3.3769994     1.562094   572032 
 5331000    1.3545955   -3.3752386    -1.815733   0.13595649   -3.3752386    1.5595057   572055 
 5332000    1.3553237   -3.3769299   -1.8166649   0.13907624   -3.3769299     1.560265   572084 
 5333000    1.3552588   -3.3759717   -1.8158196   0.14129192   -3.3759717    1.5601521   572098 
 5334000    1.3551341   -3.3770936   -1.8171532   0.13635408   -3.3770936    1.5599404   572123 
 5335000    1.3565211   -3.3783506   -1.8168846   0.13950521   -3.3783506     1.561466   572149 
 5336000     1.354651   -3.3759426   -1.8166973   0.14716623   -3.3759426    1.5592453   572174 
 5337000    1.3554411   -3.3773907   -1.8172933    0.1418066   -3.3773907    1.5600974   572195 
 5338000    1.3544721   -3.3764573   -1.8175624   0.14442303   -3.3764573    1.5588949   572227 
 5339000    1.3567902   -3.3780867   -1.8166166   0.13320378   -3.3780867    1.5614701   572261 
 5340000    1.3533069   -3.3759074   -1.8185413   0.13681394   -3.3759074    1.5573661   572296 
 5341000    1.3539375   -3.3750457   -1.8170383   0.13702393   -3.3750457    1.5580074   572327 
 5342000    1.3549075   -3.3761041   -1.8170786   0.14044792   -3.3761041    1.5590255   572363 
 5343000    1.3565351   -3.3778786   -1.8170512   0.13475668   -3.3778786    1.5608275   572389 
 5344000    1.3590162   -3.3804395   -1.8168338    0.1343879   -3.3804395    1.5636057   572417 
 5345000    1.3557611   -3.3769597   -1.8171619    0.1439884   -3.3769597    1.5597979   572440 
 5346000    1.3567825   -3.3782603   -1.8173091   0.13855797   -3.3782603    1.5609512   572448 
 5347000    1.3575227    -3.378375   -1.8166214   0.13735392    -3.378375    1.5617536   572466 
 5348000    1.3567527   -3.3775988   -1.8167855   0.13614015   -3.3775988    1.5608133   572486 
 5349000    1.3571609    -3.377331   -1.8161408   0.13274709    -3.377331    1.5611902   572520 
 5350000    1.3574542    -3.377702    -1.816218   0.13832839    -3.377702    1.5614839   572536 
 5351000    1.3581493   -3.3778794   -1.8156423   0.13740592   -3.3778794    1.5622371   572553 
 5352000    1.3565484   -3.3761721   -1.8158445   0.13858391   -3.3761721    1.5603275   572578 
 5353000    1.3580194   -3.3785436   -1.8166114   0.14248956   -3.3785436    1.5619322   572610 
 5354000    1.3566583   -3.3767943   -1.8165148    0.1393825   -3.3767943    1.5602795   572642 
 5355000    1.3568636   -3.3773225   -1.8168695   0.13664557   -3.3773225     1.560453   572665 
 5356000    1.3589071   -3.3794326   -1.8166923   0.13383177   -3.3794326    1.5627403   572688 
 5357000    1.3557692   -3.3767351   -1.8176931   0.13714779   -3.3767351    1.5590419   572721 
 5358000    1.3580514    -3.379213   -1.8176176   0.13036229    -3.379213    1.5615954   572747 
 5359000    1.3581267   -3.3797423   -1.8181585   0.13190401   -3.3797423    1.5615838   572783 
 5360000    1.3585454   -3.3791123   -1.8171071   0.13513561   -3.3791123    1.5620052   572805 
 5361000    1.3572162   -3.3776487   -1.8171989   0.13885918   -3.3776487    1.5604498   572815 
 5362000    1.3573964   -3.3766691    -1.816064   0.13801147   -3.3766691    1.5606051   572834 
 5363000    1.3583778   -3.3767962   -1.8151227   0.14264805   -3.3767962    1.5616735   572856 
 5364000    1.3580403   -3.3768706   -1.8156859   0.13785556   -3.3768706    1.5611847   572893 
 5365000    1.3572216   -3.3762569   -1.8160951   0.14355622   -3.3762569    1.5601618   572923 
 5366000    1.3586087   -3.3787254   -1.8170181   0.14107652   -3.3787254    1.5617073   572941 
 5367000    1.3579841   -3.3777575   -1.8168309   0.14467046   -3.3777575    1.5609266   572964 
 5368000    1.3590112   -3.3791213   -1.8171068   0.13579763   -3.3791213    1.5620145   572998 
 5369000    1.3589242   -3.3785526   -1.8166844    0.1433496   -3.3785526    1.5618682   573015 
 5370000    1.3578417   -3.3783064   -1.8177477   0.13611473   -3.3783064    1.5605587   573039 
 5371000     1.358759   -3.3784792   -1.8169426   0.13730698   -3.3784792    1.5615366   573067 
 5372000    1.3591526   -3.3791298   -1.8172389   0.14520463   -3.3791298    1.5618909   573103 
 5373000    1.3602912   -3.3811665   -1.8179863   0.13872766   -3.3811665    1.5631802   573110 
 5374000    1.3603134   -3.3814966   -1.8183346   0.13782013   -3.3814966     1.563162   573126 
 5375000    1.3592429   -3.3804791   -1.8186208   0.14306044   -3.3804791    1.5618583   573153 
 5376000    1.3581093   -3.3802428   -1.8197469   0.13657248   -3.3802428    1.5604959   573175 
 5377000    1.3579519   -3.3804469    -1.820219     0.136846   -3.3804469    1.5602279   573207 
 5378000    1.3591418   -3.3817598   -1.8202874   0.13881029   -3.3817598    1.5614724   573252 
 5379000    1.3594766   -3.3803822    -1.818615   0.14114952   -3.3803822    1.5617672   573285 
 5380000    1.3580221   -3.3790338   -1.8190001   0.14072869   -3.3790338    1.5600337   573308 
 5381000    1.3579548   -3.3794253   -1.8195233    0.1403221   -3.3794253     1.559902   573328 
 5382000    1.3593629   -3.3812713   -1.8197955   0.13755981   -3.3812713    1.5614758   573344 
 5383000    1.3586709   -3.3799064   -1.8193044   0.14100551   -3.3799064     1.560602   573373 
 5384000    1.3596676   -3.3805797   -1.8188927   0.14303382   -3.3805797    1.5616869   573395 
 5385000    1.3589174   -3.3804204   -1.8196441   0.13580696   -3.3804204    1.5607763   573413 
 5386000    1.3589654   -3.3824729   -1.8216878   0.13347774   -3.3824729    1.5607851   573430 
 5387000    1.3592677   -3.3816137   -1.8205358   0.13947867   -3.3816137    1.5610779   573450 
 5388000    1.3606671   -3.3827208   -1.8201066   0.13694486   -3.3827208    1.5626142   573476 
 5389000    1.3599064   -3.3821897   -1.8205526   0.13191832   -3.3821897    1.5616371   573514 
 5390000    1.3580242   -3.3798593   -1.8204678   0.13881143   -3.3798593    1.5593915   573545 
 5391000    1.3587009   -3.3808085    -1.820689   0.13958688   -3.3808085    1.5601195   573563 
 5392000     1.360644    -3.382953   -1.8206459   0.14022085    -3.382953    1.5623071   573579 
 5393000    1.3595203   -3.3817519   -1.8208059   0.13875414   -3.3817519    1.5609461   573605 
 5394000    1.3580659   -3.3804846   -1.8212682   0.13926197   -3.3804846    1.5592164   573627 
 5395000     1.360251   -3.3828283   -1.8211684   0.13964629   -3.3828283    1.5616598   573651 
 5396000    1.3593668    -3.382657   -1.8220749   0.13991088    -3.382657    1.5605821   573674 
 5397000    1.3593123   -3.3813365   -1.8208604   0.14007313   -3.3813365    1.5604761   573690 
 5398000    1.3605011   -3.3831072   -1.8213127   0.13665678   -3.3831072    1.5617945   573707 
 5399000    1.3595154   -3.3825311   -1.8219117    0.1399996   -3.3825311    1.5606194   573723 
 5400000    1.3594269   -3.3806189   -1.8201582   0.14439014   -3.3806189    1.5604607   573744 
 5401000    1.3591753   -3.3814719   -1.8213544    0.1364359   -3.3814719    1.5601175   573764 
 5402000    1.3592824   -3.3826625    -1.822441   0.14008516   -3.3826625    1.5602215   573771 
 5403000     1.359931   -3.3833441   -1.8224462   0.14212292   -3.3833441    1.5608979   573796 
 5404000    1.3586822   -3.3815693   -1.8221428   0.13915132   -3.3815693    1.5594265   573810 
 5405000      1.35956   -3.3824495   -1.8220836   0.13941881   -3.3824495    1.5603659   573835 
 5406000     1.358291    -3.381191   -1.8223683   0.13942012    -3.381191    1.5588227   573867 
 5407000    1.3593622   -3.3825223   -1.8225465   0.14178187   -3.3825223    1.5599759   573895 
 5408000    1.3580446   -3.3815869    -1.823161   0.14386501   -3.3815869    1.5584258   573909 
 5409000    1.3594124    -3.383398   -1.8234706   0.13371385    -3.383398    1.5599274   573934 
 5410000    1.3599382   -3.3840181   -1.8235607   0.13996478   -3.3840181    1.5604574   573961 
 5411000    1.3584078   -3.3825673   -1.8239257   0.14162952   -3.3825673    1.5586416   573983 
 5412000    1.3602064    -3.385591   -1.8249129   0.13240669    -3.385591    1.5606782   573993 
 5413000    1.3587986   -3.3834779   -1.8244449   0.14253609   -3.3834779     1.559033   574004 
 5414000    1.3618192   -3.3869346   -1.8245121   0.13776003   -3.3869346    1.5624224   574032 
 5415000    1.3591921    -3.384469   -1.8251176   0.14322512    -3.384469    1.5593514   574053 
 5416000    1.3596856    -3.384534   -1.8246789   0.14088494    -3.384534    1.5598551   574076 
 5417000    1.3596238   -3.3850592   -1.8253131   0.14352658   -3.3850592    1.5597461   574090 
 5418000    1.3583089   -3.3845736   -1.8263713   0.14543475   -3.3845736    1.5582023   574103 
 5419000    1.3589081   -3.3863862   -1.8275887   0.13263841   -3.3863862    1.5587975   574137 
 5420000    1.3598168   -3.3880869   -1.8282743   0.13872511   -3.3880869    1.5598126   574147 
 5421000    1.3588448   -3.3871296    -1.828527   0.13665567   -3.3871296    1.5586026   574182 
 5422000    1.3588007   -3.3871348   -1.8286261   0.14156658   -3.3871348    1.5585087   574198 
 5423000    1.3592662   -3.3873704   -1.8283984   0.13328203   -3.3873704     1.558972   574224 
 5424000    1.3602968   -3.3882538   -1.8281487    0.1382333   -3.3882538    1.5601051   574242 
 5425000    1.3578501    -3.385079   -1.8278261   0.14290531    -3.385079    1.5572529   574259 
 5426000    1.3601906   -3.3876523   -1.8277859   0.13873618   -3.3876523    1.5598664   574285 
 5427000    1.3590334   -3.3875217   -1.8290555   0.14006947   -3.3875217    1.5584662   574312 
 5428000    1.3607682   -3.3899153    -1.829544   0.13286975   -3.3899153    1.5603712   574343 
 5429000    1.3597322   -3.3867656   -1.8276746   0.14395965   -3.3867656     1.559091   574377 
 5430000    1.3610203   -3.3876756      -1.8272   0.14465854   -3.3876756    1.5604756   574411 
 5431000    1.3591312   -3.3861793   -1.8279239   0.14367567   -3.3861793    1.5582554   574431 
 5432000    1.3607534   -3.3880139   -1.8280045   0.13988485   -3.3880139    1.5600094   574470 
 5433000    1.3596436   -3.3876364   -1.8289237   0.13878371   -3.3876364    1.5587126   574479 
 5434000    1.3615137   -3.3879553   -1.8271667   0.14308246   -3.3879553    1.5607886   574504 
 5435000    1.3603625   -3.3874155   -1.8279873   0.13822549   -3.3874155    1.5594282   574519 
 5436000      1.35977   -3.3869065   -1.8282389   0.14185463   -3.3869065    1.5586676   574549 
 5437000    1.3593857   -3.3873966   -1.8292021   0.14260048   -3.3873966    1.5581945   574561 
 5438000    1.3599729   -3.3880236   -1.8292455    0.1341537   -3.3880236    1.5587781   574594 
 5439000     1.359327   -3.3878361   -1.8298932   0.13956622   -3.3878361    1.5579428   574629 
 5440000    1.3614572   -3.3886137   -1.8283325   0.12994291   -3.3886137    1.5602812   574667 
 5441000    1.3609078   -3.3875771   -1.8280123   0.13995814   -3.3875771    1.5595647   574699 
 5442000    1.3613404   -3.3869699     -1.82698   0.13968378   -3.3869699    1.5599899   574725 
 5443000     1.360764   -3.3868471   -1.8275639    0.1446492   -3.3868471    1.5592832   574742 
 5444000    1.3642936   -3.3892173   -1.8259685    0.1435008   -3.3892173    1.5632488   574771 
 5445000    1.3641916   -3.3886644   -1.8255786   0.13954253   -3.3886644    1.5630858   574788 
 5446000    1.3639301   -3.3881358    -1.825404   0.14731159   -3.3881358    1.5627318   574808 
 5447000     1.363657   -3.3875481   -1.8251918   0.14146153   -3.3875481    1.5623563   574831 
 5448000    1.3621999   -3.3868417   -1.8262526    0.1431569   -3.3868417    1.5605892   574867 
 5449000    1.3632883   -3.3880617   -1.8263179   0.14325547   -3.3880617    1.5617438   574901 
 5450000    1.3617914   -3.3860201   -1.8260699   0.14104021   -3.3860201    1.5599502   574930 
 5451000    1.3624277   -3.3877198   -1.8270923   0.14204924   -3.3877198    1.5606275   574949 
 5452000    1.3641131   -3.3899116   -1.8273889   0.13969394   -3.3899116    1.5625228   574962 
 5453000    1.3622061   -3.3874518   -1.8271595   0.14507109   -3.3874518    1.5602923   574979 
 5454000    1.3617151   -3.3880333   -1.8283793   0.14003571   -3.3880333     1.559654   575007 
 5455000     1.363429   -3.3907954   -1.8292436   0.13564027   -3.3907954    1.5615518   575031 
 5456000    1.3635438   -3.3892786   -1.8276604    0.1383599   -3.3892786    1.5616181   575055 
 5457000    1.3628768    -3.388786   -1.8279698   0.14091376    -3.388786    1.5608162   575069 
 5458000    1.3612796     -3.38697    -1.828029   0.14362069     -3.38697    1.5589409   575086 
 5459000    1.3613655    -3.388489   -1.8294903   0.13739713    -3.388489    1.5589986   575101 
 5460000    1.3619569   -3.3886927   -1.8290711   0.13916264   -3.3886927    1.5596217   575121 
 5461000    1.3625064   -3.3896333   -1.8294989   0.14094438   -3.3896333    1.5601343   575164 
 5462000    1.3641017   -3.3900531   -1.8281138   0.14013718   -3.3900531    1.5619393   575172 
 5463000    1.3633298   -3.3894682   -1.8284643   0.13278989   -3.3894682    1.5610039   575191 
 5464000    1.3638487   -3.3898899   -1.8283842   0.13894057   -3.3898899    1.5615057   575225 
 5465000    1.3631688   -3.3894775   -1.8288344   0.13986919   -3.3894775    1.5606431   575256 
 5466000    1.3614046   -3.3884597   -1.8299014   0.13594985   -3.3884597    1.5585583   575280 
 5467000    1.3623635   -3.3903784   -1.8307683   0.13635493   -3.3903784    1.5596101   575297 
 5468000    1.3608775   -3.3892368   -1.8313766   0.14397506   -3.3892368    1.5578601   575315 
 5469000    1.3621392    -3.391377    -1.832143   0.14046744    -3.391377     1.559234   575341 
 5470000    1.3615634   -3.3898079   -1.8312845   0.14144071   -3.3898079    1.5585234   575360 
 5471000    1.3610706   -3.3907134   -1.8328245   0.13696372   -3.3907134    1.5578889   575386 
 5472000    1.3614978   -3.3911771   -1.8328371   0.14130217   -3.3911771      1.55834   575400 
 5473000    1.3616142   -3.3909034   -1.8325168   0.13862336   -3.3909034    1.5583866   575432 
 5474000     1.363045   -3.3919818   -1.8320146   0.13759114   -3.3919818    1.5599672   575453 
 5475000    1.3626481   -3.3916831   -1.8322242   0.13485416   -3.3916831    1.5594588   575473 
 5476000    1.3625907   -3.3911503   -1.8317627   0.14083259   -3.3911503    1.5593876   575475 
 5477000    1.3632559   -3.3912258   -1.8311256   0.13838472   -3.3912258    1.5601002   575493 
 5478000    1.3635167     -3.39196   -1.8316238   0.13779543     -3.39196    1.5603362   575516 
 5479000    1.3646525   -3.3930919   -1.8314776   0.13988458   -3.3930919    1.5616143   575524 
 5480000    1.3639646   -3.3920548   -1.8313172   0.14534406   -3.3920548    1.5607376   575557 
 5481000     1.364085   -3.3923243   -1.8315032   0.13904482   -3.3923243    1.5608211   575577 
 5482000    1.3645571   -3.3922162   -1.8309308   0.13927008   -3.3922162    1.5612853   575605 
 5483000    1.3638814   -3.3897079   -1.8292471   0.14593317   -3.3897079    1.5604608   575624 
 5484000     1.366151   -3.3925523     -1.82956   0.13632826   -3.3925523    1.5629923   575648 
 5485000    1.3626561   -3.3897289   -1.8308028   0.14411355   -3.3897289    1.5589261   575673 
 5486000    1.3645254   -3.3920715   -1.8310638   0.13660545   -3.3920715    1.5610078   575694 
 5487000    1.3627764   -3.3911676   -1.8322365   0.14292837   -3.3911676    1.5589311   575722 
 5488000    1.3652082   -3.3936701   -1.8320441   0.14015952   -3.3936701     1.561626   575754 
 5489000    1.3622748   -3.3906779   -1.8324831   0.14025271   -3.3906779    1.5581948   575782 
 5490000    1.3638019   -3.3928616   -1.8329795    0.1351207   -3.3928616     1.559882   575804 
 5491000    1.3623716   -3.3909182   -1.8327316   0.14095593   -3.3909182    1.5581866   575826 
 5492000    1.3626535    -3.391226   -1.8327442   0.13844339    -3.391226    1.5584818   575836 
 5493000    1.3632903   -3.3929149    -1.833767   0.13943328   -3.3929149    1.5591479   575859 
 5494000    1.3629352   -3.3927954     -1.83417   0.13181814   -3.3927954    1.5586255   575902 
 5495000    1.3626601   -3.3923035    -1.834063   0.13920641   -3.3923035    1.5582405   575928 
 5496000    1.3634426   -3.3935778   -1.8345021   0.14103772   -3.3935778    1.5590757   575950 
 5497000    1.3625617   -3.3924616   -1.8344284   0.13987685   -3.3924616    1.5580332   575963 
 5498000    1.3630129   -3.3919892   -1.8334888    0.1428617   -3.3919892    1.5585005   575981 
 5499000    1.3651073   -3.3950804   -1.8342447   0.13835145   -3.3950804    1.5608357   576003 
 5500000    1.3640923   -3.3951954   -1.8355718   0.14102176   -3.3951954    1.5596237   576022 
 5501000     1.363977   -3.3951026    -1.835646   0.13755042   -3.3951026    1.5594566   576035 
 5502000    1.3647034   -3.3962599   -1.8360079   0.13644651   -3.3962599    1.5602519   576048 
 5503000    1.3649342   -3.3956806   -1.8352568   0.14834511   -3.3956806    1.5604238   576082 
 5504000    1.3654497   -3.3964577   -1.8354609    0.1462104   -3.3964577    1.5609967   576088 
 5505000    1.3656208   -3.3954119     -1.83429   0.14334399   -3.3954119    1.5611219   576114 
 5506000    1.3650255   -3.3952181   -1.8348606   0.14191662   -3.3952181    1.5603575   576145 
 5507000    1.3627297   -3.3927644   -1.8350799   0.14961316   -3.3927644    1.5576845   576163 
 5508000    1.3651172   -3.3951787   -1.8348545   0.14333332   -3.3951787    1.5603241   576196 
 5509000    1.3649491   -3.3954633   -1.8353908   0.13931355   -3.3954633    1.5600725   576218 
 5510000    1.3641507   -3.3954005   -1.8363163   0.13640972   -3.3954005    1.5590841   576246 
 5511000    1.3639021   -3.3949129   -1.8361535    0.1417991   -3.3949129    1.5587594   576261 
 5512000     1.365109   -3.3960124   -1.8359196   0.13731756   -3.3960124    1.5600928   576278 
 5513000    1.3643809   -3.3945619   -1.8354094   0.14699926   -3.3945619    1.5591525   576318 
 5514000    1.3638846   -3.3946539   -1.8361173   0.13966615   -3.3946539    1.5585366   576336 
 5515000    1.3648695   -3.3958823   -1.8362716   0.13940708   -3.3958823    1.5596107   576355 
 5516000    1.3636861   -3.3938716   -1.8356781   0.13977613   -3.3938716    1.5581935   576379 
 5517000    1.3639407   -3.3934626   -1.8350403   0.14686416   -3.3934626    1.5584223   576402 
 5518000    1.3681628   -3.3976997   -1.8345373   0.13841025   -3.3976997    1.5631623   576433 
 5519000    1.3656557   -3.3953526    -1.835117     0.141396   -3.3953526    1.5602356   576456 
 5520000    1.3652185   -3.3938732   -1.8341587   0.14264415   -3.3938732    1.5597145   576464 
 5521000    1.3675473   -3.3951806   -1.8328489   0.14265463   -3.3951806    1.5623317   576480 
 5522000     1.365731   -3.3942671    -1.834024   0.14324352   -3.3942671    1.5602431   576485 
 5523000    1.3658263   -3.3939128   -1.8336339   0.13944272   -3.3939128    1.5602789   576512 
 5524000    1.3662634   -3.3943617   -1.8336673   0.14811908   -3.3943617    1.5606943   576543 
 5525000    1.3677894   -3.3962933   -1.8339073   0.14286992   -3.3962933     1.562386   576562 
 5526000     1.367331   -3.3969727   -1.8352023   0.13936919   -3.3969727    1.5617703   576596 
 5527000    1.3669108   -3.3963337   -1.8350893   0.14103765   -3.3963337    1.5612444   576613 
 5528000    1.3640883   -3.3944511   -1.8364658   0.13584315   -3.3944511    1.5579854   576626 
 5529000    1.3651164   -3.3962262   -1.8371368   0.13977801   -3.3962262    1.5590894   576652 
 5530000    1.3664292   -3.3969255   -1.8363639   0.13747001   -3.3969255    1.5605616   576662 
 5531000    1.3665409   -3.3964834   -1.8358726     0.138947   -3.3964834    1.5606108   576691 
 5532000    1.3674421   -3.3966473   -1.8350832   0.14457583   -3.3966473    1.5615641   576719 
 5533000    1.3666096   -3.3972063   -1.8366658   0.13963651   -3.3972063    1.5605404   576746 
 5534000     1.365788   -3.3963619   -1.8367868   0.13831211   -3.3963619    1.5595751   576756 
 5535000    1.3666634   -3.3965887   -1.8360816   0.14562271   -3.3965887    1.5605071   576781 
 5536000    1.3681654   -3.3991161   -1.8369508   0.14324944   -3.3991161    1.5621653   576802 
 5537000    1.3649402    -3.395389   -1.8369495     0.151325    -3.395389    1.5584395   576818 
 5538000     1.367959   -3.3995415    -1.837712   0.14614999   -3.3995415    1.5618295   576839 
 5539000    1.3656584   -3.3972703   -1.8381459   0.14623424   -3.3972703    1.5591244   576868 
 5540000    1.3671952   -3.3987655   -1.8379677   0.14886727   -3.3987655    1.5607977   576898 
 5541000    1.3669453   -3.3990238   -1.8385519   0.14208224   -3.3990238    1.5604718   576913 
 5542000    1.3659313   -3.3976356   -1.8384024   0.14562848   -3.3976356    1.5592332   576943 
 5543000    1.3673915   -3.3990853   -1.8382718   0.13997212   -3.3990853    1.5608135   576975 
 5544000    1.3661839   -3.3976249   -1.8382438   0.14749585   -3.3976249    1.5593811   576995 
 5545000    1.3660622   -3.3976029   -1.8383879   0.14073382   -3.3976029     1.559215   577005 
 5546000    1.3671851   -3.3984425    -1.838035   0.14870633   -3.3984425    1.5604075   577038 
 5547000    1.3690006   -3.4013795   -1.8389648   0.13649749   -3.4013795    1.5624147   577062 
 5548000     1.364141   -3.3971214   -1.8403258   0.14660427   -3.3971214    1.5567956   577089 
 5549000    1.3662465   -3.3991485   -1.8399933   0.13860574   -3.3991485    1.5591552   577105 
 5550000    1.3657391   -3.3986839   -1.8401968   0.14406247   -3.3986839    1.5584871   577138 
 5551000    1.3652828   -3.3975882   -1.8396893   0.14447309   -3.3975882    1.5578989   577163 
 5552000    1.3670324   -3.3991016   -1.8392685   0.14704207   -3.3991016    1.5598331   577186 
 5553000    1.3672144   -3.3994431   -1.8394915   0.14890882   -3.3994431    1.5599517   577219 
 5554000    1.3664766   -3.3989812   -1.8399416   0.13974921   -3.3989812    1.5590396   577245 
 5555000    1.3664685   -3.3996642   -1.8406797    0.1419316   -3.3996642    1.5589844   577262 
 5556000    1.3674156   -3.4007422   -1.8407096   0.14295481   -3.4007422    1.5600325   577274 
 5557000    1.3675025   -3.4006112   -1.8405255   0.13957824   -3.4006112    1.5600857   577291 
 5558000    1.3654312   -3.3986728    -1.841031    0.1396595   -3.3986728    1.5576418   577321 
 5559000    1.3666143   -3.3994128   -1.8404754   0.14063865   -3.3994128    1.5589374   577341 
 5560000    1.3655253   -3.3987266   -1.8410907   0.14094165   -3.3987266    1.5576359   577363 
 5561000    1.3670291   -3.4007823   -1.8415094   0.13912207   -3.4007823    1.5592729   577392 
 5562000    1.3672474   -3.4020915   -1.8426101   0.13671333   -3.4020915    1.5594814   577407 
 5563000    1.3658686   -3.4004363   -1.8425519   0.14122132   -3.4004363    1.5578845   577416 
 5564000    1.3660581   -3.3995034   -1.8414675   0.14444522   -3.3995034    1.5580358   577440 
 5565000    1.3681078   -3.4011008   -1.8407813   0.13763758   -3.4011008    1.5603195   577460 
 5566000     1.367444   -3.3991685   -1.8396843   0.14762337   -3.3991685    1.5594841   577489 
 5567000    1.3687167   -3.4010327   -1.8401538   0.14532423   -3.4010327    1.5608788   577510 
 5568000    1.3696888    -3.403408   -1.8414801   0.13975576    -3.403408    1.5619279   577532 
 5569000    1.3692584   -3.4025417   -1.8411479   0.14079153   -3.4025417    1.5613939   577548 
 5570000    1.3690486   -3.4014166   -1.8403404   0.14899413   -3.4014166    1.5610762   577577 
 5571000    1.3691028   -3.4031211   -1.8420399   0.13949587   -3.4031211    1.5610812   577598 
 5572000    1.3683776    -3.402387    -1.842184   0.13654455    -3.402387     1.560203   577617 
 5573000    1.3690139    -3.404685   -1.8438348   0.13653621    -3.404685    1.5608502   577646 
 5574000    1.3677368   -3.4024518   -1.8431144   0.13509854   -3.4024518    1.5593374   577667 
 5575000    1.3670832   -3.4022463   -1.8436971   0.14429409   -3.4022463    1.5585492   577683 
 5576000    1.3660976   -3.4009607   -1.8435891   0.15125176   -3.4009607    1.5573716   577703 
 5577000    1.3682786   -3.4036775   -1.8438709   0.14323619   -3.4036775    1.5598066   577722 
 5578000    1.3673226   -3.4031684   -1.8445217   0.13873588   -3.4031684    1.5586467   577748 
 5579000    1.3665573     -3.40186   -1.8441261   0.14720719     -3.40186    1.5577338   577763 
 5580000    1.3675502   -3.4028623   -1.8440318   0.14481255   -3.4028623    1.5588305   577776 
 5581000    1.3664681   -3.4013337   -1.8437986   0.14631898   -3.4013337    1.5575352   577799 
 5582000    1.3688227   -3.4040569   -1.8438865   0.14045769   -3.4040569    1.5601704   577817 
 5583000    1.3680302   -3.4032087   -1.8440226   0.14373048   -3.4032087    1.5591861   577847 
 5584000    1.3672655   -3.4016388   -1.8433809   0.14370062   -3.4016388     1.558258   577868 
 5585000    1.3688683   -3.4039311   -1.8439113   0.14051534   -3.4039311    1.5600198   577892 
 5586000    1.3691489   -3.4042244   -1.8439442   0.14289838   -3.4042244    1.5602802   577914 
 5587000    1.3678696   -3.4022659   -1.8435299   0.14863899   -3.4022659     1.558736   577946 
 5588000    1.3677136     -3.40223   -1.8437338   0.14659732     -3.40223    1.5584962   577969 
 5589000    1.3675553   -3.4014505   -1.8432155   0.14806291   -3.4014505     1.558235   577999 
 5590000    1.3699096   -3.4041952   -1.8433317   0.14049339   -3.4041952    1.5608635   578019 
 5591000    1.3669458   -3.4012463   -1.8437974   0.14463743   -3.4012463    1.5574489   578033 
 5592000    1.3683581   -3.4026605   -1.8436376   0.13982469   -3.4026605     1.559023   578046 
 5593000    1.3674435   -3.4028475   -1.8449125   0.14810531   -3.4028475     1.557935   578063 
 5594000    1.3669707   -3.4026362   -1.8453179   0.14676691   -3.4026362    1.5573183   578092 
 5595000    1.3691869   -3.4054264   -1.8456373   0.14393459   -3.4054264    1.5597891   578112 
 5596000    1.3679745    -3.404026   -1.8456936   0.14820625    -3.404026    1.5583324   578140 
 5597000    1.3688291   -3.4043366   -1.8451277   0.14404348   -3.4043366    1.5592089   578176 
 5598000    1.3665354   -3.4028785   -1.8463334   0.14100633   -3.4028785    1.5565451   578195 
 5599000    1.3650393   -3.4013404   -1.8465318   0.14201768   -3.4013404    1.5548086   578207 
 5600000    1.3651311   -3.4013716   -1.8465338   0.14629343   -3.4013716    1.5548378   578235 
 5601000     1.368975   -3.4065701   -1.8473811   0.13687789   -3.4065701     1.559189   578245 
 5602000    1.3677232   -3.4045797   -1.8468622   0.14010007   -3.4045797    1.5577175   578262 
 5603000    1.3683463   -3.4053861   -1.8470317   0.13938042   -3.4053861    1.5583544   578289 
 5604000    1.3684361   -3.4052145   -1.8468576   0.14287355   -3.4052145    1.5583569   578326 
 5605000    1.3690605   -3.4057797   -1.8467252   0.14261081   -3.4057797    1.5590545   578331 
 5606000    1.3689327   -3.4058667   -1.8470224   0.14675182   -3.4058667    1.5588443   578355 
 5607000    1.3674311    -3.404857   -1.8477764   0.14402411    -3.404857    1.5570806   578375 
 5608000    1.3678417   -3.4057855   -1.8482939   0.13792067   -3.4057855    1.5574915   578396 
 5609000    1.3687914    -3.406157   -1.8475868   0.14292751    -3.406157    1.5585702   578397 
 5610000    1.3697349   -3.4067496   -1.8471455   0.13839586   -3.4067496    1.5596041   578412 
 5611000    1.3673131   -3.4049111   -1.8481049   0.14541504   -3.4049111    1.5568062   578427 
 5612000    1.3665046   -3.4038709   -1.8480498   0.14726181   -3.4038709    1.5558211   578451 
 5613000    1.3687571   -3.4064997   -1.8481598   0.14346417   -3.4064997    1.5583398   578468 
 5614000    1.3678025   -3.4051502   -1.8479672    0.1418186   -3.4051502    1.5571831   578494 
 5615000     1.370132   -3.4071599   -1.8473922   0.13996915   -3.4071599    1.5597677   578519 
 5616000    1.3686967   -3.4057535   -1.8476629   0.14484917   -3.4057535    1.5580906   578535 
 5617000     1.368456   -3.4063096   -1.8485738   0.14353329   -3.4063096    1.5577358   578565 
 5618000    1.3674413   -3.4054582   -1.8488936    0.1416936   -3.4054582    1.5565646   578571 
 5619000    1.3690802   -3.4066008   -1.8482433   0.14272034   -3.4066008    1.5583575   578598 
 5620000    1.3704486   -3.4088738    -1.849045   0.13855365   -3.4088738    1.5598288   578630 
 5621000    1.3694531   -3.4074688   -1.8488243   0.14174235   -3.4074688    1.5586445   578649 
 5622000    1.3708294   -3.4093274   -1.8491758   0.14117113   -3.4093274    1.5601517   578671 
 5623000    1.3688711   -3.4062558   -1.8484325   0.14687655   -3.4062558    1.5578233   578708 
 5624000    1.3696552   -3.4079221   -1.8492927   0.14687935   -3.4079221    1.5586294   578740 
 5625000    1.3701641   -3.4090267   -1.8498909    0.1378414   -3.4090267    1.5591358   578767 
 5626000    1.3699986   -3.4082926   -1.8493909   0.13985789   -3.4082926    1.5589017   578784 
 5627000    1.3682447   -3.4072568    -1.850402   0.13906197   -3.4072568    1.5568549   578803 
 5628000    1.3679902   -3.4074841   -1.8509941   0.14508403   -3.4074841      1.55649   578831 
 5629000    1.3691942   -3.4089142   -1.8511296   0.14007272   -3.4089142    1.5577846   578859 
 5630000     1.371299   -3.4096727   -1.8495446   0.14448439   -3.4096727    1.5601281   578878 
 5631000    1.3681168   -3.4075775   -1.8511424   0.14276262   -3.4075775    1.5564351   578905 
 5632000    1.3690066   -3.4079007   -1.8505098   0.14119361   -3.4079007    1.5573909   578926 
 5633000    1.3695534   -3.4083556   -1.8503885   0.14306388   -3.4083556    1.5579671   578943 
 5634000     1.370142   -3.4098476   -1.8512755   0.14371918   -3.4098476    1.5585721   578967 
 5635000    1.3705116   -3.4094848   -1.8505596   0.14196857   -3.4094848    1.5589253   578992 
 5636000    1.3685641    -3.407518   -1.8508564   0.14796048    -3.407518    1.5566616   579010 
 5637000      1.36844   -3.4079253   -1.8514667     0.141723   -3.4079253    1.5564586   579033 
 5638000    1.3679148   -3.4081918   -1.8523359   0.13987047   -3.4081918    1.5558559   579035 
 5639000    1.3677647   -3.4081986   -1.8525618   0.13906647   -3.4081986    1.5556368   579053 
 5640000    1.3688284   -3.4095788   -1.8527967   0.13569745   -3.4095788    1.5567821   579077 
 5641000    1.3670366   -3.4075654   -1.8528588   0.14327843   -3.4075654    1.5547067   579091 
 5642000    1.3695423   -3.4107779     -1.85327   0.13752793   -3.4107779    1.5575079   579109 
 5643000    1.3676321   -3.4079335   -1.8526301   0.13865673   -3.4079335    1.5553033   579121 
 5644000    1.3677728   -3.4090485     -1.85362   0.13998342   -3.4090485    1.5554285   579134 
 5645000    1.3688134   -3.4102291   -1.8536362   0.14225043   -3.4102291    1.5565929   579141 
 5646000    1.3698326   -3.4105366   -1.8528061   0.13473593   -3.4105366    1.5577305   579149 
 5647000    1.3691697   -3.4108637    -1.853922   0.13559328   -3.4108637    1.5569417   579162 
 5648000    1.3674471   -3.4093236   -1.8543783   0.14506666   -3.4093236    1.5549453   579176 
 5649000    1.3692021    -3.411753   -1.8548524   0.13585159    -3.411753    1.5569005   579191 
 5650000    1.3688737    -3.410801   -1.8543571   0.14211847    -3.410801    1.5564439   579222 
 5651000    1.3673316    -3.410094    -1.855468   0.14258128    -3.410094     1.554626   579246 
 5652000    1.3675603   -3.4107259   -1.8559337    0.1435832   -3.4107259    1.5547922   579281 
 5653000    1.3680352   -3.4108219   -1.8555623   0.14580358   -3.4108219    1.5552596   579308 
 5654000     1.367015   -3.4102074   -1.8561559   0.14005076   -3.4102074    1.5540515   579326 
 5655000    1.3696189   -3.4129806   -1.8560093   0.14178968   -3.4129806    1.5569713   579341 
 5656000    1.3686905   -3.4117478   -1.8559312   0.14141895   -3.4117478    1.5558166   579378 
 5657000    1.3677329   -3.4107493   -1.8560938   0.14886853   -3.4107493    1.5546556   579405 
 5658000    1.3696044   -3.4131226    -1.856372   0.13491345   -3.4131226    1.5567506   579417 
 5659000    1.3693248   -3.4126125   -1.8562335   0.14512485   -3.4126125     1.556379   579437 
 5660000    1.3689779   -3.4132963   -1.8573841   0.14628748   -3.4132963    1.5559123   579464 
 5661000    1.3682957   -3.4124646   -1.8573652    0.1415617   -3.4124646    1.5550994   579478 
 5662000    1.3713518   -3.4151614   -1.8566586   0.14336511   -3.4151614    1.5585028   579504 
 5663000     1.368263   -3.4120879   -1.8571518   0.14130715   -3.4120879    1.5549361   579525 
 5664000    1.3689753   -3.4118467   -1.8561442   0.14804665   -3.4118467    1.5557025   579541 
 5665000    1.3705822    -3.413429   -1.8559594   0.14201518    -3.413429    1.5574696   579563 
 5666000    1.3709769   -3.4133839   -1.8555277   0.13533213   -3.4133839    1.5578562   579586 
 5667000    1.3700284   -3.4117308   -1.8550167   0.14338857   -3.4117308    1.5567141   579610 
 5668000    1.3674832    -3.410206   -1.8564564   0.14196797    -3.410206    1.5537496   579637 
 5669000    1.3690294   -3.4124423   -1.8569976   0.13879202   -3.4124423    1.5554447   579660 
 5670000    1.3699099   -3.4124769   -1.8560722   0.14502939   -3.4124769    1.5564048   579675 
 5671000    1.3694959   -3.4117503   -1.8558909   0.14457534   -3.4117503    1.5558593   579703 
 5672000    1.3695524   -3.4116503   -1.8558019   0.14326365   -3.4116503    1.5558483   579731 
 5673000    1.3699959   -3.4126558   -1.8563385   0.14606565   -3.4126558    1.5563173   579744 
 5674000    1.3698295    -3.412787   -1.8567151   0.14115218    -3.412787    1.5560719   579765 
 5675000    1.3690724   -3.4119922   -1.8568528   0.13836518   -3.4119922    1.5551394   579792 
 5676000    1.3720906   -3.4141736   -1.8556622   0.13969449   -3.4141736    1.5585114   579813 
 5677000    1.3719512   -3.4129797   -1.8547153    0.1362194   -3.4129797    1.5582644   579846 
 5678000    1.3695195   -3.4103863   -1.8549268   0.14906929   -3.4103863    1.5554595   579862 
 5679000    1.3723813   -3.4137593   -1.8551113   0.14359029   -3.4137593     1.558648   579885 
 5680000    1.3712785   -3.4123128   -1.8549818   0.14889538   -3.4123128     1.557331   579909 
 5681000    1.3718851   -3.4137202   -1.8557594    0.1450335   -3.4137202    1.5579608   579931 
 5682000    1.3711068   -3.4136579   -1.8566265   0.13868874   -3.4136579    1.5570314   579948 
 5683000    1.3717484   -3.4146112   -1.8569157   0.14439301   -3.4146112    1.5576955   579972 
 5684000    1.3703933   -3.4131524    -1.857044   0.14482318   -3.4131524    1.5561084   579990 
 5685000    1.3720226   -3.4148365   -1.8569452   0.14342339   -3.4148365    1.5578913   580015 
 5686000    1.3714053   -3.4139656   -1.8568289   0.14538864   -3.4139656    1.5571367   580035 
 5687000    1.3730014   -3.4158089   -1.8569056   0.13707563   -3.4158089    1.5589033   580052 
 5688000    1.3720892   -3.4153849   -1.8575494   0.13804364   -3.4153849    1.5578354   580064 
 5689000    1.3725835   -3.4140146   -1.8557147   0.14821784   -3.4140146    1.5582999   580100 
 5690000    1.3710466   -3.4139228    -1.857416   0.14928301   -3.4139228    1.5565067   580118 
 5691000    1.3708335   -3.4146273   -1.8584054   0.14191324   -3.4146273    1.5562219   580134 
 5692000    1.3717615   -3.4153439    -1.858141   0.14000328   -3.4153439    1.5572029   580161 
 5693000    1.3727883   -3.4162174    -1.857916   0.14221284   -3.4162174    1.5583014   580186 
 5694000    1.3716773   -3.4159968    -1.858978    0.1442172   -3.4159968    1.5570188   580194 
 5695000    1.3699769   -3.4140708   -1.8590358   0.14097183   -3.4140708     1.555035   580214 
 5696000    1.3688432   -3.4138001   -1.8600947   0.14335734   -3.4138001    1.5537053   580230 
 5697000    1.3680584   -3.4138719   -1.8611135   0.14057316   -3.4138719    1.5527584   580251 
 5698000    1.3687444   -3.4145636   -1.8610828   0.14186586   -3.4145636    1.5534807   580272 
 5699000    1.3700279   -3.4160695   -1.8611347   0.13878664   -3.4160695    1.5549348   580273 
 5700000    1.3700134   -3.4157336   -1.8608795   0.14207239   -3.4157336    1.5548541   580297 
 5701000    1.3705765   -3.4154992   -1.8600355   0.13906565   -3.4154992    1.5554636   580308 
 5702000    1.3682488   -3.4137786   -1.8610021   0.14484215   -3.4137786    1.5527764   580325 
 5703000    1.3713417   -3.4175634   -1.8613573   0.13686351   -3.4175634     1.556206   580355 
 5704000    1.3702565   -3.4157242    -1.860814   0.14240504   -3.4157242    1.5549102   580379 
 5705000    1.3708834   -3.4179386   -1.8624001   0.13622872   -3.4179386    1.5555385   580410 
 5706000     1.371123   -3.4175143   -1.8617897   0.13919988   -3.4175143    1.5557246   580442 
 5707000    1.3715729   -3.4184503   -1.8622876   0.13786103   -3.4184503    1.5561627   580469 
 5708000    1.3714173   -3.4177384   -1.8618273     0.139265   -3.4177384    1.5559111   580497 
 5709000    1.3715549   -3.4189767   -1.8629792   0.14232949   -3.4189767    1.5559975   580523 
 5710000    1.3725128    -3.419203   -1.8621831   0.13770239    -3.419203    1.5570199   580547 
 5711000    1.3697987   -3.4172294   -1.8633661   0.14186128   -3.4172294    1.5538633   580576 
 5712000    1.3709998   -3.4173355    -1.862158   0.14034032   -3.4173355    1.5551776   580594 
 5713000    1.3713475   -3.4186906   -1.8631937   0.14177039   -3.4186906    1.5554969   580622 
 5714000    1.3695324   -3.4168046   -1.8634173    0.1463241   -3.4168046    1.5533873   580641 
 5715000    1.3718553   -3.4191887   -1.8631962   0.14042259   -3.4191887    1.5559926   580652 
 5716000    1.3705749   -3.4183283   -1.8638924   0.13945482   -3.4183283    1.5544359   580691 
 5717000     1.369108   -3.4163782   -1.8636782   0.14367963   -3.4163782       1.5527   580718 
 5718000    1.3715539   -3.4194174   -1.8640185   0.14219161   -3.4194174    1.5553989   580746 
 5719000    1.3703686    -3.418946   -1.8649422   0.14090535    -3.418946    1.5540039   580765 
 5720000    1.3711879   -3.4189945   -1.8641017   0.14413351   -3.4189945    1.5548927   580780 
 5721000    1.3716947   -3.4187864   -1.8633617   0.14269651   -3.4187864    1.5554246   580796 
 5722000    1.3708577    -3.418245    -1.863831   0.14549984    -3.418245     1.554414   580819 
 5723000    1.3716787   -3.4189203   -1.8636503   0.14079631   -3.4189203      1.55527   580847 
 5724000    1.3720304    -3.419049    -1.863399   0.14459165    -3.419049    1.5556499   580854 
 5725000     1.371708   -3.4202903   -1.8650487   0.13890839   -3.4202903    1.5552416   580870 
 5726000    1.3698249   -3.4176744   -1.8646321   0.14150911   -3.4176744    1.5530423   580894 
 5727000    1.3709514   -3.4179747   -1.8637113   0.14326307   -3.4179747    1.5542634   580915 
 5728000    1.3726687   -3.4199525   -1.8638039   0.13773855   -3.4199525    1.5561486   580938 
 5729000     1.372381   -3.4206607   -1.8649078   0.14317497   -3.4206607    1.5557528   580964 
 5730000    1.3719761   -3.4214369   -1.8661966   0.13911208   -3.4214369    1.5552403   580984 
 5731000     1.371052   -3.4202819   -1.8661266   0.14035841   -3.4202819    1.5541553   580998 
 5732000    1.3722873   -3.4199232   -1.8644372   0.14267771   -3.4199232     1.555486   581024 
 5733000     1.372627   -3.4200458   -1.8642443   0.14274616   -3.4200458    1.5558014   581050 
 5734000     1.371898   -3.4207818   -1.8659003   0.14200892   -3.4207818    1.5548815   581085 
 5735000    1.3723482   -3.4192174   -1.8638818   0.14431859   -3.4192174    1.5553356   581106 
 5736000    1.3728421   -3.4204588   -1.8646626   0.14505447   -3.4204588    1.5557962   581143 
 5737000    1.3723828   -3.4207556   -1.8655468   0.14377304   -3.4207556    1.5552088   581168 
 5738000    1.3747721   -3.4228343   -1.8649662   0.14246982   -3.4228343    1.5578681   581186 
 5739000     1.373294   -3.4215318   -1.8653708     0.140496   -3.4215318     1.556161   581198 
 5740000    1.3724522   -3.4208611   -1.8656994   0.14421423   -3.4208611    1.5551616   581215 
 5741000    1.3706522   -3.4187593   -1.8657094   0.14241811   -3.4187593    1.5530499   581242 
 5742000    1.3713293   -3.4199931   -1.8662107   0.13882358   -3.4199931    1.5537824   581255 
 5743000    1.3717128   -3.4212626   -1.8670938   0.13596468   -3.4212626    1.5541688   581273 
 5744000    1.3712404   -3.4205042   -1.8669536   0.14354414   -3.4205042    1.5535506   581304 
 5745000    1.3719676   -3.4215148   -1.8671937   0.14416159   -3.4215148     1.554321   581324 
 5746000    1.3719707   -3.4212092   -1.8669489   0.14257116   -3.4212092    1.5542604   581348 
 5747000    1.3718579    -3.421893   -1.8678219   0.13743688    -3.421893    1.5540711   581371 
 5748000    1.3724181    -3.423138   -1.8684991   0.13666465    -3.423138    1.5546389   581396 
 5749000     1.370272   -3.4203273   -1.8681595   0.14313474   -3.4203273    1.5521678   581411 
 5750000    1.3718347   -3.4222918    -1.868402    0.1392219   -3.4222918    1.5538898   581429 
 5751000    1.3723438   -3.4219409   -1.8675253    0.1441876   -3.4219409    1.5544157   581448 
 5752000    1.3725649    -3.422862   -1.8682414   0.13998305    -3.422862    1.5546207   581465 
 5753000    1.3718734   -3.4216003   -1.8678003   0.14150227   -3.4216003       1.5538   581479 
 5754000    1.3715693   -3.4216665   -1.8682831   0.14241644   -3.4216665    1.5533835   581506 
 5755000    1.3715508   -3.4213705   -1.8680695   0.14486788   -3.4213705    1.5533011   581529 
 5756000    1.3712221   -3.4217645   -1.8688891   0.14529854   -3.4217645    1.5528754   581549 
 5757000    1.3711913   -3.4223781   -1.8695776   0.14321741   -3.4223781    1.5528005   581564 
 5758000    1.3722069   -3.4222602   -1.8683657   0.14501243   -3.4222602    1.5538945   581585 
 5759000    1.3719639   -3.4238094   -1.8702114    0.1457107   -3.4238094     1.553598   581593 
 5760000    1.3726343   -3.4236859   -1.8693662    0.1428814   -3.4236859    1.5543197   581607 
 5761000    1.3731779   -3.4241119   -1.8692328   0.13983173   -3.4241119    1.5548792   581628 
 5762000    1.3728862   -3.4238004   -1.8692836   0.14353026   -3.4238004    1.5545168   581640 
 5763000    1.3727756   -3.4233963   -1.8690582   0.13720238   -3.4233963    1.5543381   581660 
 5764000    1.3733508    -3.423671   -1.8687698   0.14255669    -3.423671    1.5549012   581693 
 5765000    1.3730897   -3.4247065   -1.8701465   0.14182433   -3.4247065    1.5545601   581710 
 5766000    1.3728468   -3.4232032   -1.8689796   0.14746867   -3.4232032    1.5542236   581733 
 5767000    1.3726498   -3.4234315    -1.869487   0.14272245   -3.4234315    1.5539445   581754 
 5768000    1.3714299   -3.4237872   -1.8712665   0.14100198   -3.4237872    1.5525207   581770 
 5769000    1.3706179   -3.4219718   -1.8704209     0.146181   -3.4219718    1.5515509   581789 
 5770000    1.3740908   -3.4251049   -1.8696493   0.14026904   -3.4251049    1.5554556   581799 
 5771000    1.3728849    -3.424723   -1.8706886   0.13741866    -3.424723    1.5540344   581820 
 5772000     1.373686    -3.425703   -1.8708286    0.1410007    -3.425703    1.5548743   581845 
 5773000    1.3734136   -3.4256543   -1.8711123   0.13685229   -3.4256543     1.554542   581854 
 5774000    1.3751306   -3.4272598   -1.8708412    0.1396508   -3.4272598    1.5564186   581879 
 5775000    1.3722848   -3.4237508   -1.8706067   0.14451312   -3.4237508    1.5531441   581899 
 5776000    1.3732654   -3.4242526    -1.870044   0.14350199   -3.4242526    1.5542086   581916 
 5777000    1.3715051   -3.4238094   -1.8716677   0.14195242   -3.4238094    1.5521417   581944 
 5778000    1.3736905   -3.4242544   -1.8696796   0.14277941   -3.4242544    1.5545748   581959 
 5779000    1.3734269   -3.4239885   -1.8697412   0.14402277   -3.4239885    1.5542472   581970 
 5780000     1.374947   -3.4264855   -1.8705903   0.13868097   -3.4264855    1.5558952   581997 
 5781000    1.3736457   -3.4252734   -1.8709176   0.14298531   -3.4252734    1.5543559   582022 
 5782000    1.3732771   -3.4244107   -1.8705066   0.14073791   -3.4244107    1.5539041   582035 
 5783000    1.3730848   -3.4234629   -1.8698271   0.14679112   -3.4234629    1.5536358   582054 
 5784000     1.373952   -3.4251324   -1.8705581   0.14248959   -3.4251324    1.5545743   582070 
 5785000    1.3728074   -3.4240018   -1.8707653   0.14851319   -3.4240018    1.5532365   582086 
 5786000    1.3735545   -3.4248906   -1.8708595   0.14371585   -3.4248906    1.5540311   582105 
 5787000    1.3752656   -3.4271783   -1.8712861   0.14357042   -3.4271783    1.5558922   582133 
 5788000    1.3742406    -3.426096   -1.8714169   0.14024275    -3.426096    1.5546791   582153 
 5789000    1.3722647   -3.4249839   -1.8725988   0.14153063   -3.4249839    1.5523851   582175 
 5790000    1.3737147   -3.4262633   -1.8722778   0.14323694   -3.4262633    1.5539855   582190 
 5791000    1.3738292   -3.4270416   -1.8729694   0.14270311   -3.4270416    1.5540722   582206 
 5792000    1.3727812   -3.4263267   -1.8734906   0.14637916   -3.4263267    1.5528361   582225 
 5793000    1.3722349   -3.4259483   -1.8738128   0.14459651   -3.4259483    1.5521355   582256 
 5794000    1.3730757   -3.4267364   -1.8737006   0.13835086   -3.4267364    1.5530358   582275 
 5795000    1.3715858   -3.4263284    -1.875023   0.14564846   -3.4263284    1.5513054   582292 
 5796000    1.3732006   -3.4278038   -1.8747201   0.14524511   -3.4278038    1.5530837   582310 
 5797000    1.3735967   -3.4276541   -1.8741544   0.14336757   -3.4276541    1.5534998   582322 
 5798000    1.3740191   -3.4274468   -1.8735041   0.14209331   -3.4274468    1.5539427   582335 
 5799000    1.3747937   -3.4290031    -1.874227   0.14289121   -3.4290031     1.554776   582351 
 5800000    1.3738113   -3.4270767   -1.8734971     0.146238   -3.4270767    1.5535796   582383 
 5801000    1.3743274    -3.427251   -1.8731705   0.14267174    -3.427251    1.5540805   582414 
 5802000     1.373978   -3.4272904   -1.8736743   0.14512115   -3.4272904    1.5536161   582440 
 5803000    1.3739906   -3.4277446   -1.8741943   0.13855066   -3.4277446    1.5535503   582470 
 5804000    1.3740488   -3.4281862   -1.8746553   0.13765788   -3.4281862    1.5535308   582502 
 5805000    1.3741549   -3.4280132   -1.8744077   0.14312916   -3.4280132    1.5536054   582519 
 5806000    1.3747405   -3.4297281   -1.8755059   0.14213071   -3.4297281    1.5542221   582536 
 5807000    1.3737872   -3.4283145   -1.8752181   0.13970401   -3.4283145    1.5530964   582554 
 5808000    1.3724638    -3.427421   -1.8758953   0.14871585    -3.427421    1.5515257   582582 
 5809000    1.3727932   -3.4287098   -1.8768543   0.14398739   -3.4287098    1.5518554   582598 
 5810000    1.3727879   -3.4284691   -1.8766889   0.14042653   -3.4284691    1.5517802   582624 
 5811000    1.3748241   -3.4295238   -1.8754472   0.13808695   -3.4295238    1.5540766   582626 
 5812000    1.3740758    -3.428257    -1.875085   0.13793197    -3.428257     1.553172   582648 
 5813000    1.3750361   -3.4290913   -1.8748712   0.14071769   -3.4290913    1.5542201   582662 
 5814000    1.3716574   -3.4264494     -1.87612   0.14808758   -3.4264494    1.5503294   582689 
 5815000    1.3758805   -3.4292273   -1.8741995   0.14754082   -3.4292273    1.5550278   582717 
 5816000    1.3759176   -3.4286673   -1.8736696   0.14574219   -3.4286673    1.5549977   582744 
 5817000    1.3777867    -3.431269   -1.8742285   0.13927513    -3.431269    1.5570405   582770 
 5818000    1.3759401   -3.4289928   -1.8740631   0.14134958   -3.4289928    1.5549297   582779 
 5819000    1.3752869    -3.428079   -1.8739594   0.14151035    -3.428079    1.5541196   582806 
 5820000    1.3746135   -3.4273598   -1.8740706   0.14911689   -3.4273598    1.5532892   582832 
 5821000    1.3763008   -3.4291643   -1.8740164   0.14380082   -3.4291643    1.5551479   582850 
 5822000    1.3770964   -3.4304381   -1.8744686    0.1372287   -3.4304381    1.5559695   582879 
 5823000    1.3759473   -3.4293431   -1.8747361   0.14127697   -3.4293431    1.5546071   582903 
 5824000     1.376497   -3.4297438   -1.8745983   0.13911708   -3.4297438    1.5551454   582934 
 5825000    1.3747022   -3.4278529   -1.8747699   0.14613884   -3.4278529     1.553083   582947 
 5826000    1.3744491   -3.4287581   -1.8759982   0.14995391   -3.4287581    1.5527599   582961 
 5827000    1.3753854   -3.4294633    -1.875707   0.13924301   -3.4294633    1.5537563   582984 
 5828000    1.3746746   -3.4287148   -1.8758334   0.14609327   -3.4287148    1.5528814   583011 
 5829000    1.3759021    -3.430967   -1.8767603   0.14197198    -3.430967    1.5542067   583034 
 5830000    1.3746925   -3.4303803   -1.8776012    0.1421736   -3.4303803    1.5527791   583057 
 5831000    1.3756284   -3.4303371   -1.8765595   0.14255166   -3.4303371    1.5537776   583079 
 5832000    1.3758224   -3.4300064   -1.8760789   0.14217346   -3.4300064    1.5539275   583105 
 5833000    1.3748883   -3.4291675   -1.8763349   0.14726393   -3.4291675    1.5528325   583120 
 5834000    1.3751762   -3.4301517   -1.8770713   0.14474218   -3.4301517    1.5530805   583149 
 5835000     1.375639   -3.4298289   -1.8762552   0.14495595   -3.4298289    1.5535737   583160 
 5836000       1.3751   -3.4297963   -1.8769005    0.1441882   -3.4297963    1.5528958   583186 
 5837000    1.3764709   -3.4313933   -1.8770453   0.13832128   -3.4313933     1.554348   583222 
 5838000    1.3755581   -3.4314081   -1.8781548   0.14550751   -3.4314081    1.5532533   583246 
 5839000    1.3765056   -3.4319977   -1.8777357   0.14201991   -3.4319977     1.554262   583269 
 5840000    1.3752369   -3.4308064   -1.8780355   0.14269209   -3.4308064    1.5527709   583291 
 5841000    1.3767205   -3.4319756   -1.8775536   0.14391864   -3.4319756     1.554422   583300 
 5842000    1.3768762    -3.432435   -1.8778399   0.14484591    -3.432435    1.5545951   583301 
 5843000    1.3776414   -3.4338067   -1.8784142   0.13525703   -3.4338067    1.5553925   583326 
 5844000    1.3746158   -3.4314197   -1.8794698   0.15082688   -3.4314197    1.5519499   583336 
 5845000    1.3748517   -3.4317495   -1.8795572   0.14063187   -3.4317495    1.5521923   583345 
 5846000    1.3762932   -3.4330834   -1.8793223   0.14488782   -3.4330834    1.5537611   583367 
 5847000    1.3760807   -3.4326791   -1.8791979   0.14373309   -3.4326791    1.5534812   583382 
 5848000    1.3760491   -3.4328539   -1.8794696   0.14257389   -3.4328539    1.5533843   583405 
 5849000    1.3752453   -3.4320693    -1.879635   0.14483383   -3.4320693    1.5524343   583421 
 5850000    1.3739669   -3.4313463   -1.8804188   0.13859903   -3.4313463    1.5509274   583445 
 5851000    1.3733921   -3.4313954   -1.8811832   0.14261164   -3.4313954    1.5502121   583470 
 5852000    1.3751259   -3.4328968   -1.8807887   0.14306877   -3.4328968    1.5521081   583493 
 5853000    1.3756294   -3.4327373   -1.8801089   0.14598753   -3.4327373    1.5526284   583511 
 5854000    1.3759978   -3.4331471   -1.8801401    0.1417979   -3.4331471    1.5530069   583525 
 5855000    1.3762615   -3.4332628   -1.8800195    0.1432196   -3.4332628    1.5532433   583548 
 5856000    1.3773582   -3.4335714   -1.8791462   0.13665923   -3.4335714    1.5544252   583569 
 5857000    1.3758962   -3.4309786   -1.8782645   0.14769566   -3.4309786     1.552714   583592 
 5858000    1.3769997   -3.4319507   -1.8780287    0.1448469   -3.4319507    1.5539221   583606 
 5859000    1.3775165   -3.4323449   -1.8778903   0.14737907   -3.4323449    1.5544546   583625 
 5860000    1.3786009   -3.4338756   -1.8782532   0.14532626   -3.4338756    1.5556223   583646 
 5861000    1.3782188   -3.4336461   -1.8785055   0.14926442   -3.4336461    1.5551406   583665 
 5862000    1.3760093   -3.4315619    -1.878957   0.14828081   -3.4315619    1.5526049   583681 
 5863000    1.3773473   -3.4330273    -1.878926   0.14259122   -3.4330273    1.5541013   583686 
 5864000    1.3768515   -3.4329027   -1.8793768   0.15037037   -3.4329027    1.5535258   583692 
 5865000    1.3756518   -3.4317087   -1.8796029   0.14522267   -3.4317087    1.5521058   583717 
 5866000    1.3770821   -3.4328286    -1.879157    0.1420011   -3.4328286    1.5536716   583735 
 5867000     1.376443   -3.4333493   -1.8804786   0.14411552   -3.4333493    1.5528707   583765 
 5868000    1.3771182   -3.4340598   -1.8804619   0.14345719   -3.4340598    1.5535978   583778 
 5869000    1.3760504   -3.4333484   -1.8810323   0.14228506   -3.4333484    1.5523161   583807 
 5870000    1.3760867   -3.4332932   -1.8809759   0.14291395   -3.4332932    1.5523173   583822 
 5871000    1.3758962   -3.4334199   -1.8813708   0.13531839   -3.4334199    1.5520491   583842 
 5872000    1.3752659   -3.4329509   -1.8816526   0.14431433   -3.4329509    1.5512983   583857 
 5873000    1.3764407   -3.4340961   -1.8815125   0.14423156   -3.4340961    1.5525836   583872 
 5874000    1.3763769   -3.4335067   -1.8810482    0.1425683   -3.4335067    1.5524585   583892 
 5875000     1.377416      -3.4341   -1.8805174   0.14084597      -3.4341    1.5535826   583910 
 5876000    1.3773124   -3.4335321   -1.8801408   0.14898863   -3.4335321    1.5533913   583938 
 5877000    1.3779976   -3.4350045    -1.880883   0.14053311   -3.4350045    1.5541215   583954 
 5878000    1.3771846   -3.4348262   -1.8816669   0.14293751   -3.4348262    1.5531593   583971 
 5879000     1.376948   -3.4340832   -1.8812465   0.14681515   -3.4340832    1.5528367   583992 
 5880000    1.3776668   -3.4353807   -1.8817866   0.13888189   -3.4353807    1.5535941   584012 
 5881000    1.3779176   -3.4354614   -1.8816616   0.14592262   -3.4354614    1.5537998   584041 
 5882000    1.3786242   -3.4353049   -1.8807883   0.13670605   -3.4353049    1.5545166   584071 
 5883000    1.3773449   -3.4350844   -1.8820581   0.14306361   -3.4350844    1.5530263   584089 
 5884000     1.378171   -3.4358941   -1.8819789   0.14834446   -3.4358941    1.5539152   584105 
 5885000    1.3783296    -3.435917   -1.8818868   0.14658653    -3.435917    1.5540302   584129 
 5886000    1.3775468    -3.434647    -1.881542   0.14771126    -3.434647     1.553105   584145 
 5887000    1.3771462   -3.4345722   -1.8820013    0.1489806   -3.4345722     1.552571   584176 
 5888000    1.3778751   -3.4352522   -1.8818913   0.13982292   -3.4352522    1.5533609   584188 
 5889000    1.3775127   -3.4353658   -1.8824454    0.1491969   -3.4353658    1.5529204   584200 
 5890000    1.3770146    -3.435788   -1.8834875   0.14789433    -3.435788    1.5523004   584222 
 5891000    1.3781483   -3.4367752   -1.8832366   0.14442356   -3.4367752    1.5535386   584237 
 5892000    1.3782878   -3.4367712   -1.8831313   0.13768772   -3.4367712    1.5536399   584258 
 5893000    1.3773904   -3.4357456   -1.8832022   0.14565838   -3.4357456    1.5525434   584290 
 5894000      1.37739    -3.435666   -1.8831603   0.13988219    -3.435666    1.5525057   584304 
 5895000    1.3775901   -3.4366067   -1.8838888   0.13746071   -3.4366067    1.5527179   584309 
 5896000    1.3777891   -3.4368172    -1.883891   0.14167619   -3.4368172    1.5529263   584315 
 5897000    1.3788092   -3.4378155   -1.8837979   0.14307653   -3.4378155    1.5540176   584337 
 5898000    1.3762156   -3.4352943   -1.8842424   0.14564028   -3.4352943    1.5510519   584353 
 5899000    1.3764015   -3.4352744   -1.8840714   0.14223172   -3.4352744     1.551203   584375 
 5900000    1.3770459    -3.436488   -1.8846411   0.14609722    -3.436488    1.5518469   584406 
 5901000    1.3773423   -3.4363723   -1.8842392    0.1460999   -3.4363723    1.5521332   584424 
 5902000    1.3778108   -3.4384788   -1.8858496   0.13787334   -3.4384788    1.5526293   584436 
 5903000    1.3762031   -3.4375022   -1.8867351   0.14062853   -3.4375022    1.5507671   584455 
 5904000    1.3767394   -3.4373357   -1.8860227   0.14591773   -3.4373357     1.551313   584477 
 5905000    1.3779652   -3.4383787   -1.8857588   0.13979255   -3.4383787    1.5526199   584505 
 5906000    1.3781286   -3.4382525   -1.8854751   0.14219263   -3.4382525    1.5527774   584515 
 5907000    1.3761582   -3.4383047    -1.887795    0.1444802   -3.4383047    1.5505096   584533 
 5908000    1.3763771   -3.4385084   -1.8877947   0.14096932   -3.4385084    1.5507138   584549 
 5909000    1.3770621   -3.4399595   -1.8885164   0.13775799   -3.4399595    1.5514431   584565 
 5910000    1.3772108   -3.4396279   -1.8880703   0.14650141   -3.4396279    1.5515575   584585 
 5911000     1.376818   -3.4396215   -1.8885383   0.14445678   -3.4396215    1.5510832   584597 
 5912000    1.3776791   -3.4411807    -1.889146   0.14327781   -3.4411807    1.5520347   584604 
 5913000    1.3781031   -3.4400449   -1.8875856   0.14772029   -3.4400449    1.5524593   584624 
 5914000    1.3762767   -3.4385019   -1.8881558   0.14915187   -3.4385019    1.5503461   584645 
 5915000    1.3755609   -3.4385118   -1.8890171   0.14495693   -3.4385118    1.5494946   584662 
 5916000    1.3780507   -3.4399738   -1.8877329   0.14577096   -3.4399738    1.5522409   584684 
 5917000    1.3761807   -3.4380749   -1.8880014   0.14884532   -3.4380749    1.5500736   584707 
 5918000    1.3784615   -3.4406041   -1.8880067   0.14936224   -3.4406041    1.5525974   584724 
 5919000    1.3775455    -3.439105   -1.8875898   0.15197515    -3.439105    1.5515152   584743 
 5920000    1.3773719    -3.438762   -1.8875086   0.14892362    -3.438762    1.5512534   584768 
 5921000    1.3794035   -3.4414649   -1.8879526   0.14681215   -3.4414649    1.5535123   584779 
 5922000    1.3773875   -3.4382307   -1.8870526   0.14883053   -3.4382307    1.5511781   584803 
 5923000    1.3773131   -3.4383438   -1.8873051   0.14705771   -3.4383438    1.5510386   584824 
 5924000    1.3794449   -3.4407465   -1.8873391    0.1334126   -3.4407465    1.5534074   584836 
 5925000    1.3779507   -3.4400071   -1.8883353   0.14265427   -3.4400071    1.5516718   584856 
 5926000    1.3777423   -3.4399964   -1.8886229   0.14246115   -3.4399964    1.5513734   584880 
 5927000    1.3785199   -3.4409538   -1.8887605   0.14055459   -3.4409538    1.5521933   584901 
 5928000    1.3775583    -3.439456   -1.8884064    0.1438084    -3.439456    1.5510495   584924 
 5929000    1.3794276   -3.4410229   -1.8878952   0.13583305   -3.4410229    1.5531277   584934 
 5930000    1.3791535   -3.4413788   -1.8885862   0.14397189   -3.4413788    1.5527926   584944 
 5931000    1.3789784    -3.440293   -1.8877586   0.14619258    -3.440293    1.5525344   584967 
 5932000    1.3783008   -3.4399582   -1.8882583   0.14295269   -3.4399582    1.5516999   584994 
 5933000    1.3778727   -3.4394076   -1.8882586   0.14217923   -3.4394076    1.5511489   585020 
 5934000    1.3796754   -3.4408018   -1.8876897   0.14453468   -3.4408018     1.553112   585045 
 5935000    1.3810418   -3.4418073   -1.8872315   0.14322349   -3.4418073    1.5545758   585073 
 5936000    1.3803896   -3.4416453   -1.8878462   0.14277249   -3.4416453    1.5537991   585089 
 5937000    1.3793358   -3.4411016   -1.8885683   0.14606557   -3.4411016    1.5525333   585119 
 5938000    1.3806119    -3.444014   -1.8900895   0.13952818    -3.444014    1.5539245   585136 
 5939000    1.3783223   -3.4419761   -1.8906764    0.1451885   -3.4419761    1.5512998   585154 
 5940000    1.3792372   -3.4428621   -1.8905936   0.14569004   -3.4428621    1.5522685   585177 
 5941000    1.3779205   -3.4409721   -1.8902359   0.14555499   -3.4409721    1.5507362   585196 
 5942000    1.3800124   -3.4432995   -1.8902806   0.14779573   -3.4432995    1.5530189   585223 
 5943000    1.3785469   -3.4422449   -1.8909176   0.13863654   -3.4422449    1.5513273   585239 
 5944000    1.3791639   -3.4429369   -1.8909445    0.1437066   -3.4429369    1.5519925   585250 
 5945000    1.3783967   -3.4420842   -1.8910479   0.13897852   -3.4420842    1.5510362   585285 
 5946000    1.3791615    -3.442481   -1.8906636   0.14852978    -3.442481    1.5518173   585315 
 5947000    1.3777099   -3.4407626    -1.890613   0.14950503   -3.4407626    1.5501496   585328 
 5948000    1.3793058   -3.4421481    -1.890248   0.14662205   -3.4421481    1.5519001   585345 
 5949000    1.3798098   -3.4432448   -1.8908412   0.14447153   -3.4432448    1.5524036   585369 
 5950000    1.3790709   -3.4414261   -1.8899228   0.14783535   -3.4414261    1.5515033   585395 
 5951000    1.3808171   -3.4429286   -1.8895165   0.14049532   -3.4429286    1.5534122   585416 
 5952000    1.3793844   -3.4417696   -1.8900064   0.14187116   -3.4417696    1.5517632   585430 
 5953000    1.3791139   -3.4411929   -1.8898002   0.14902035   -3.4411929    1.5513927   585455 
 5954000    1.3798281   -3.4434789   -1.8913384   0.14509965   -3.4434789    1.5521404   585476 
 5955000    1.3800693    -3.443155   -1.8907936   0.14080187    -3.443155    1.5523614   585495 
 5956000    1.3776989    -3.441312   -1.8916751   0.14275294    -3.441312    1.5496369   585517 
 5957000    1.3793526   -3.4422192   -1.8907674   0.14036923   -3.4422192    1.5514519   585534 
 5958000    1.3796199   -3.4422615   -1.8905699   0.14397587   -3.4422615    1.5516915   585557 
 5959000    1.3797082   -3.4424234   -1.8907119   0.14648283   -3.4424234    1.5517114   585587 
 5960000    1.3804869   -3.4441641   -1.8916325   0.14332247   -3.4441641    1.5525315   585608 
 5961000    1.3792909   -3.4426573   -1.8915186   0.14492932   -3.4426573    1.5511387   585626 
 5962000    1.3804042   -3.4432786   -1.8909859   0.14384008   -3.4432786    1.5522927   585663 
 5963000    1.3819737   -3.4443553   -1.8903428   0.14798825   -3.4443553    1.5540125   585680 
 5964000     1.381116   -3.4435467   -1.8905251   0.14700042   -3.4435467    1.5530215   585690 
 5965000    1.3816247     -3.44456   -1.8910513   0.14971293     -3.44456    1.5535087   585722 
 5966000    1.3823809     -3.44501    -1.890712   0.14227605     -3.44501     1.554298   585745 
 5967000    1.3819647   -3.4452842   -1.8915152   0.14667371   -3.4452842     1.553769   585768 
 5968000    1.3814505   -3.4441899   -1.8911051   0.14390094   -3.4441899    1.5530848   585808 
 5969000    1.3824226    -3.445296   -1.8911475   0.14438908    -3.445296    1.5541485   585819 
 5970000    1.3820657   -3.4458538    -1.892157   0.14629937   -3.4458538    1.5536968   585838 
 5971000    1.3805161   -3.4441769   -1.8922513   0.15272393   -3.4441769    1.5519256   585849 
 5972000    1.3804385   -3.4443595   -1.8925846   0.14594425   -3.4443595    1.5517749   585873 
 5973000       1.3803   -3.4443862   -1.8928386   0.14619739   -3.4443862    1.5515476   585900 
 5974000    1.3795848   -3.4441841   -1.8934933   0.14819191   -3.4441841    1.5506908   585920 
 5975000    1.3823847   -3.4458315   -1.8920307   0.14844344   -3.4458315    1.5538008   585934 
 5976000    1.3815072   -3.4447338   -1.8919856   0.14852798   -3.4447338    1.5527483   585959 
 5977000    1.3819529   -3.4453578    -1.892159   0.14891134   -3.4453578    1.5531988   585978 
 5978000    1.3821595   -3.4446535   -1.8912755   0.15495106   -3.4446535     1.553378   585998 
 5979000    1.3811219   -3.4448457    -1.892716   0.14742725   -3.4448457    1.5521298   586029 
 5980000    1.3815235   -3.4446087   -1.8920329   0.14902702   -3.4446087    1.5525758   586031 
 5981000     1.381912   -3.4447634    -1.891788   0.15151574   -3.4447634    1.5529754   586045 
 5982000     1.383251   -3.4467129   -1.8922859   0.14343886   -3.4467129     1.554427   586065 
 5983000    1.3824514   -3.4458069   -1.8923076   0.15063908   -3.4458069    1.5534993   586076 
 5984000    1.3812128   -3.4448611    -1.892796     0.145963   -3.4448611    1.5520651   586092 
 5985000    1.3823107   -3.4447504   -1.8914913   0.14484187   -3.4447504     1.553259   586107 
 5986000    1.3823445   -3.4454218   -1.8921566   0.14405129   -3.4454218    1.5532652   586119 
 5987000    1.3820208   -3.4453407   -1.8925108   0.14656221   -3.4453407    1.5528299   586146 
 5988000    1.3807597   -3.4442159   -1.8928479   0.14775742   -3.4442159     1.551368   586163 
 5989000    1.3820872   -3.4458019   -1.8929927    0.1452942   -3.4458019    1.5528092   586182 
 5990000    1.3802385   -3.4437443   -1.8930307   0.14550552   -3.4437443    1.5507136   586189 
 5991000    1.3815155   -3.4444023    -1.892283   0.15085979   -3.4444023    1.5521193   586200 
 5992000    1.3803741   -3.4436176   -1.8928204   0.15273281   -3.4436176    1.5507972   586215 
 5993000    1.3823747   -3.4457753   -1.8927544   0.14243928   -3.4457753    1.5530209   586224 
 5994000    1.3797936   -3.4434433   -1.8933486   0.15216484   -3.4434433    1.5500948   586234 
 5995000    1.3808025   -3.4446349   -1.8934437   0.15265694   -3.4446349    1.5511912   586248 
 5996000    1.3805849   -3.4447631   -1.8938693   0.14431985   -3.4447631    1.5508938   586268 
 5997000    1.3834952   -3.4459791   -1.8918955   0.14807943   -3.4459791    1.5540836   586298 
 5998000    1.3826984   -3.4447602   -1.8916353   0.15007287   -3.4447602    1.5531249   586322 
 5999000     1.382266   -3.4448793   -1.8922745   0.14889771   -3.4448793    1.5526048   586335 
 6000000    1.3842755   -3.4459784   -1.8911589   0.14793726   -3.4459784    1.5548195   586351 
 6001000    1.3840291   -3.4459998   -1.8915153   0.14766297   -3.4459998    1.5544845   586373 
 6002000    1.3829814     -3.44538     -1.89212   0.14588908     -3.44538      1.55326   586391 
 6003000    1.3813848   -3.4448508   -1.8934342   0.14765866   -3.4448508    1.5514166   586410 
 6004000    1.3825853   -3.4462652   -1.8935507   0.14660537   -3.4462652    1.5527145   586429 
 6005000    1.3836652   -3.4467473    -1.892857   0.14936051   -3.4467473    1.5538903   586443 
 6006000    1.3838711   -3.4470871   -1.8929974   0.14309624   -3.4470871    1.5540897   586455 
 6007000    1.3826325   -3.4465081   -1.8938597    0.1447404   -3.4465081    1.5526484   586474 
 6008000    1.3835956   -3.4478911   -1.8941983   0.14755447   -3.4478911    1.5536928   586488 
 6009000    1.3825442   -3.4460815   -1.8935984   0.14933757   -3.4460815    1.5524831   586499 
 6010000    1.3833513   -3.4478944   -1.8945474   0.14373902   -3.4478944     1.553347   586515 
 6011000    1.3823184   -3.4472215   -1.8950977   0.15130668   -3.4472215    1.5521237   586539 
 6012000    1.3810291   -3.4463953    -1.895751   0.14363519   -3.4463953    1.5506443   586551 
 6013000    1.3820046   -3.4478009    -1.896101   0.14770321   -3.4478009    1.5516999   586566 
 6014000    1.3809548    -3.446595   -1.8961319   0.14712939    -3.446595    1.5504631   586588 
 6015000     1.381359   -3.4472557   -1.8963706   0.14942582   -3.4472557    1.5508851   586600 
 6016000    1.3819367   -3.4476228   -1.8961155   0.14458127   -3.4476228    1.5515073   586610 
 6017000    1.3831096   -3.4497349   -1.8969505   0.14099955   -3.4497349    1.5527844   586625 
 6018000    1.3815438   -3.4482478   -1.8972557   0.14971603   -3.4482478    1.5509921   586638 
 6019000    1.3807246   -3.4474375   -1.8974126   0.14260654   -3.4474375    1.5500249   586656 
 6020000    1.3828655   -3.4495189   -1.8971435   0.14328573   -3.4495189    1.5523754   586676 
 6021000    1.3816594   -3.4493803   -1.8983906   0.14203067   -3.4493803    1.5509897   586688 
 6022000    1.3818882   -3.4494927   -1.8983017   0.14714237   -3.4494927    1.5511911   586709 
 6023000    1.3826705   -3.4513753   -1.8993537   0.14510799   -3.4513753    1.5520216   586727 
 6024000    1.3816704   -3.4502952   -1.8994464   0.14721047   -3.4502952    1.5508488   586746 
 6025000    1.3804376   -3.4493611   -1.8999569   0.15363385   -3.4493611    1.5494042   586769 
 6026000    1.3815924   -3.4502245   -1.8995743   0.14428117   -3.4502245    1.5506502   586788 
 6027000    1.3817396   -3.4499064   -1.8992019   0.14796466   -3.4499064    1.5507045   586830 
 6028000    1.3823782   -3.4498183   -1.8984368   0.14936591   -3.4498183    1.5513815   586845 
 6029000    1.3823429   -3.4497378   -1.8984515   0.14957451   -3.4497378    1.5512863   586866 
 6030000    1.3809615   -3.4491314   -1.8994428   0.14735021   -3.4491314    1.5496886   586884 
 6031000    1.3824545    -3.450439   -1.8991147   0.14118598    -3.450439    1.5513243   586899 
 6032000    1.3827607   -3.4508535   -1.8992226    0.1432531   -3.4508535     1.551631   586913 
 6033000    1.3808096   -3.4499526    -1.900569    0.1464575   -3.4499526    1.5493835   586935 
 6034000    1.3816902   -3.4492756    -1.898978   0.14652526   -3.4492756    1.5502976   586963 
 6035000    1.3820212   -3.4496545   -1.8990224   0.14840994   -3.4496545    1.5506321   586977 
 6036000    1.3802863   -3.4481615   -1.8995129   0.15194133   -3.4481615    1.5486486   586991 
 6037000    1.3832617   -3.4522198   -1.9002752   0.13900368   -3.4522198    1.5519446   587007 
 6038000    1.3831542   -3.4518525   -1.9000602   0.14013838   -3.4518525    1.5517923   587019 
 6039000    1.3815401   -3.4494069    -1.899489   0.14884451   -3.4494069    1.5499179   587043 
 6040000    1.3816963   -3.4510924   -1.9010652   0.14541252   -3.4510924    1.5500272   587068 
 6041000    1.3833071   -3.4523157   -1.9005133   0.14197371   -3.4523157    1.5518025   587080 
 6042000     1.383545   -3.4516881   -1.8996716   0.14597679   -3.4516881    1.5520166   587100 
 6043000    1.3821703    -3.451115   -1.9006907   0.14250528    -3.451115    1.5504242   587119 
 6044000    1.3842944   -3.4528498   -1.9000773   0.14480808   -3.4528498    1.5527725   587132 
 6045000    1.3824344   -3.4512627   -1.9006372   0.14778994   -3.4512627    1.5506255   587155 
 6046000    1.3812727   -3.4508746   -1.9015813   0.14372297   -3.4508746    1.5492933   587166 
 6047000    1.3827102   -3.4519304   -1.9010696   0.14752762   -3.4519304    1.5508608   587183 
 6048000    1.3812641   -3.4497548   -1.9005396   0.14533699   -3.4497548    1.5492151   587192 
 6049000    1.3834689   -3.4516955   -1.9000656    0.1501928   -3.4516955    1.5516299   587214 
 6050000    1.3831256   -3.4520961   -1.9009094    0.1457528   -3.4520961    1.5511867   587236 
 6051000    1.3832012   -3.4516281   -1.9004015   0.14650744   -3.4516281    1.5512266   587253 
 6052000    1.3822841   -3.4516022    -1.901449   0.14623607   -3.4516022    1.5501532   587270 
 6053000    1.3818486   -3.4502367   -1.9005956    0.1448573   -3.4502367    1.5496411   587279 
 6054000    1.3836947   -3.4528251   -1.9011508   0.14143622   -3.4528251    1.5516743   587293 
 6055000    1.3827628   -3.4513708   -1.9008049   0.14658922   -3.4513708    1.5505659   587317 
 6056000    1.3823909   -3.4508909   -1.9007948   0.14793058   -3.4508909    1.5500961   587337 
 6057000    1.3830354   -3.4519991   -1.9012331   0.14760622   -3.4519991     1.550766   587357 
 6058000    1.3841037   -3.4532074   -1.9012832    0.1393304   -3.4532074    1.5519242   587372 
 6059000    1.3829522   -3.4514298   -1.9008653   0.15234611   -3.4514298    1.5505645   587398 
 6060000    1.3840162    -3.454041   -1.9023073   0.14253583    -3.454041    1.5517337   587407 
 6061000    1.3843232   -3.4535691   -1.9015758   0.14273925   -3.4535691    1.5519933   587439 
 6062000    1.3834629    -3.451653   -1.9006742   0.14975235    -3.451653    1.5509787   587458 
 6063000    1.3836729   -3.4530211   -1.9018386   0.14559494   -3.4530211    1.5511824   587470 
 6064000    1.3827572    -3.451713   -1.9015888   0.14832059    -3.451713    1.5501242   587482 
 6065000    1.3846198   -3.4534283   -1.9012556   0.14433298   -3.4534283    1.5521726   587497 
 6066000    1.3821213   -3.4513633   -1.9020259   0.15048165   -3.4513633    1.5493375   587510 
 6067000     1.383254   -3.4522575   -1.9017004   0.14326772   -3.4522575    1.5505571   587529 
 6068000    1.3837004   -3.4530465   -1.9020471   0.14748322   -3.4530465    1.5509994   587551 
 6069000    1.3832923    -3.452692   -1.9021764     0.146477    -3.452692    1.5505156   587561 
 6070000    1.3819779   -3.4511543   -1.9021885   0.15348469   -3.4511543    1.5489659   587590 
 6071000    1.3843767   -3.4530448   -1.9014299   0.14718255   -3.4530448    1.5516149   587605 
 6072000    1.3824002   -3.4520053   -1.9026242   0.15043619   -3.4520053    1.5493812   587612 
 6073000    1.3839219   -3.4533795   -1.9023509   0.14434072   -3.4533795    1.5510285   587634 
 6074000    1.3839121   -3.4532367   -1.9022481   0.14488027   -3.4532367    1.5509885   587645 
 6075000     1.382446   -3.4527809   -1.9035277    0.1520357   -3.4527809    1.5492532   587680 
 6076000    1.3845285   -3.4546519   -1.9031388   0.14671789   -3.4546519    1.5515131   587708 
 6077000    1.3856073   -3.4565325   -1.9038528   0.14708728   -3.4565325    1.5526797   587724 
 6078000    1.3834388   -3.4541766   -1.9039664   0.14992613   -3.4541766    1.5502102   587739 
 6079000    1.3821276    -3.453493   -1.9047969    0.1487782    -3.453493    1.5486961   587756 
 6080000    1.3834917   -3.4550297   -1.9048499   0.14487211   -3.4550297    1.5501798   587773 
 6081000    1.3842057   -3.4558461   -1.9049112    0.1443466   -3.4558461    1.5509349   587790 
 6082000    1.3831124   -3.4550987   -1.9053861   0.14313259   -3.4550987    1.5497125   587789 
 6083000    1.3825865   -3.4540736   -1.9049924   0.15095877   -3.4540736    1.5490812   587805 
 6084000    1.3821839   -3.4530953   -1.9045206   0.14647254   -3.4530953    1.5485747   587826 
 6085000    1.3844261   -3.4567299   -1.9056853    0.1460252   -3.4567299    1.5510446   587842 
 6086000    1.3829069   -3.4550248   -1.9057375   0.15010185   -3.4550248    1.5492872   587863 
 6087000    1.3840264   -3.4552173   -1.9047365   0.14640595   -3.4552173    1.5504808   587886 
 6088000    1.3844888   -3.4557016   -1.9047688   0.14839282   -3.4557016    1.5509328   587911 
 6089000     1.382804   -3.4542448   -1.9052046   0.14520476   -3.4542448    1.5490402   587913 
 6090000      1.38349   -3.4555396   -1.9057889   0.14442563   -3.4555396    1.5497507   587935 
 6091000    1.3830287   -3.4552193   -1.9060143   0.14454434   -3.4552193    1.5492049   587946 
 6092000    1.3835384   -3.4555606    -1.905811   0.14476308   -3.4555606    1.5497495   587956 
 6093000    1.3836877    -3.455863   -1.9059673   0.14771053    -3.455863    1.5498957   587964 
 6094000    1.3825771   -3.4548813   -1.9062769   0.14468956   -3.4548813    1.5486043   587982 
 6095000    1.3823753   -3.4542142   -1.9058702   0.14750192   -3.4542142     1.548344   587995 
 6096000    1.3839171   -3.4556612   -1.9056694   0.14083392   -3.4556612    1.5499918   588025 
 6097000      1.38342   -3.4546306   -1.9052244   0.14536124   -3.4546306    1.5494061   588036 
 6098000    1.3833699   -3.4551361   -1.9058599   0.14101879   -3.4551361    1.5492762   588064 
 6099000    1.3830667   -3.4552435   -1.9063543    0.1461706   -3.4552435    1.5488892   588082 
 6100000    1.3830334   -3.4560289   -1.9072506   0.14186702   -3.4560289    1.5487783   588110 
 6101000    1.3829819   -3.4561516   -1.9075022   0.14615164   -3.4561516    1.5486495   588137 
 6102000    1.3842074   -3.4579745   -1.9079764   0.14566674   -3.4579745    1.5499981   588146 
 6103000    1.3828448   -3.4552566   -1.9068054   0.15062507   -3.4552566    1.5484512   588154 
 6104000    1.3837451   -3.4555719   -1.9061495   0.15028552   -3.4555719    1.5494224   588168 
 6105000    1.3858327    -3.456977   -1.9052381   0.15146582    -3.456977    1.5517389   588176 
 6106000    1.3856887   -3.4567994   -1.9053036   0.14527643   -3.4567994    1.5514959   588207 
 6107000    1.3863979   -3.4575136   -1.9052554   0.14432769   -3.4575136    1.5522583   588219 
 6108000    1.3862375   -3.4582331   -1.9061702   0.14225874   -3.4582331    1.5520628   588225 
 6109000    1.3849085   -3.4575891   -1.9070538   0.14491562   -3.4575891    1.5505353   588240 
 6110000    1.3843378   -3.4574444   -1.9076033   0.15059275   -3.4574444     1.549841   588261 
 6111000    1.3842139   -3.4575629   -1.9078817   0.15416906   -3.4575629    1.5496812   588269 
 6112000    1.3844246   -3.4569003   -1.9070438   0.15399886   -3.4569003    1.5498566   588292 
 6113000     1.384225   -3.4569055   -1.9073198   0.14956086   -3.4569055    1.5495857   588310 
 6114000     1.384282   -3.4574695   -1.9078726   0.14708371   -3.4574695    1.5495968   588330 
 6115000    1.3843343   -3.4583787   -1.9087497   0.15046398   -3.4583787     1.549629   588340 
 6116000    1.3843547   -3.4591979   -1.9095829   0.14221963   -3.4591979     1.549615   588354 
 6117000    1.3842446   -3.4579361   -1.9084759   0.14888435   -3.4579361    1.5494601   588366 
 6118000    1.3843435   -3.4590522   -1.9095157    0.1414263   -3.4590522    1.5495366   588379 
 6119000    1.3842591   -3.4581106   -1.9087027   0.14815684   -3.4581106    1.5494079   588392 
 6120000    1.3838778   -3.4583402   -1.9093986   0.14518758   -3.4583402    1.5489416   588407 
 6121000    1.3846929   -3.4585465   -1.9087004   0.14964601   -3.4585465     1.549846   588410 
 6122000    1.3831148   -3.4573728   -1.9093299   0.14633537   -3.4573728    1.5480429   588424 
 6123000     1.384268   -3.4581545   -1.9088578   0.14752297   -3.4581545    1.5492968   588438 
 6124000    1.3846319   -3.4575123   -1.9078583   0.14550294   -3.4575123     1.549654   588457 
 6125000    1.3849325   -3.4575965    -1.907672   0.14794713   -3.4575965    1.5499245   588482 
 6126000    1.3846454   -3.4579352   -1.9083872   0.14684901   -3.4579352     1.549548   588503 
 6127000     1.382387   -3.4553384   -1.9083599   0.15339288   -3.4553384    1.5469785   588519 
 6128000    1.3858413    -3.459035   -1.9082516   0.14765025    -3.459035    1.5507835   588542 
 6129000    1.3852789   -3.4591343   -1.9090144   0.14555379   -3.4591343    1.5501199   588555 
 6130000    1.3851256   -3.4591336   -1.9092273   0.14457346   -3.4591336    1.5499062   588571 
 6131000    1.3848327   -3.4594015    -1.909873   0.14144389   -3.4594015    1.5495285   588590 
 6132000    1.3856839   -3.4584663   -1.9080091   0.14543959   -3.4584663    1.5504572   588599 
 6133000    1.3847605   -3.4576693   -1.9082795   0.14414809   -3.4576693    1.5493898   588612 
 6134000    1.3867129   -3.4578819   -1.9063735   0.14536978   -3.4578819    1.5515084   588637 
 6135000    1.3885197   -3.4588232   -1.9053434   0.14437909   -3.4588232    1.5534798   588656 
 6136000    1.3864056   -3.4572147   -1.9061213   0.14845688   -3.4572147    1.5510934   588664 
 6137000    1.3856653   -3.4569168   -1.9067017   0.14895078   -3.4569168    1.5502152   588683 
 6138000    1.3868899   -3.4584106   -1.9068913   0.14846183   -3.4584106    1.5515193   588708 
 6139000    1.3884952   -3.4606867   -1.9074243    0.1475932   -3.4606867    1.5532624   588728 
 6140000    1.3870355   -3.4597172   -1.9081457   0.14416647   -3.4597172    1.5515714   588750 
 6141000    1.3878533   -3.4601268   -1.9076959   0.14827054   -3.4601268    1.5524309   588771 
 6142000    1.3866022   -3.4595461   -1.9085962   0.15226218   -3.4595461    1.5509498   588802 
 6143000     1.386933   -3.4592942   -1.9080218   0.14815356   -3.4592942    1.5512724   588820 
 6144000    1.3870653   -3.4596084    -1.908254   0.14756546   -3.4596084    1.5513545   588845 
 6145000    1.3868712   -3.4592426   -1.9081474   0.14775827   -3.4592426    1.5510952   588861 
 6146000    1.3877109    -3.458892   -1.9068919   0.14921519    -3.458892    1.5520001   588874 
 6147000    1.3863639   -3.4585472   -1.9081194    0.1489054   -3.4585472    1.5504278   588899 
 6148000    1.3884632   -3.4596791   -1.9069325   0.15003321   -3.4596791    1.5527465   588910 
 6149000    1.3856942   -3.4572557   -1.9076373   0.14986658   -3.4572557    1.5496184   588922 
 6150000    1.3870814   -3.4602166   -1.9091208   0.14614646   -3.4602166    1.5510959   588950 
 6151000    1.3860119   -3.4596996   -1.9098312    0.1459866   -3.4596996    1.5498684   588962 
 6152000    1.3857406   -3.4594204   -1.9098949   0.14873652   -3.4594204    1.5495256   588977 
 6153000    1.3839646    -3.457799   -1.9102962   0.14420133    -3.457799    1.5475028   588991 
 6154000    1.3862193   -3.4591289   -1.9091523   0.15303356   -3.4591289    1.5499766   589009 
 6155000    1.3857585   -3.4594452   -1.9099838   0.14601233   -3.4594452    1.5494614   589009 
 6156000    1.3864708   -3.4603148   -1.9101308   0.14491503   -3.4603148    1.5501841   589037 
 6157000     1.387253   -3.4612222   -1.9102319   0.13888599   -3.4612222    1.5509903   589063 
 6158000    1.3865965   -3.4617142   -1.9114869   0.14636411   -3.4617142    1.5502273   589074 
 6159000    1.3853895   -3.4606914    -1.911845    0.1499841   -3.4606914    1.5488463   589086 
 6160000    1.3852351   -3.4615096   -1.9129043   0.14778859   -3.4615096    1.5486053   589112 
 6161000    1.3854206   -3.4615552    -1.912803   0.14667638   -3.4615552    1.5487522   589135 
 6162000    1.3852735   -3.4621131   -1.9135753   0.14366933   -3.4621131    1.5485378   589154 
 6163000    1.3853114   -3.4621354   -1.9136078   0.14674566   -3.4621354    1.5485276   589174 
 6164000    1.3856838   -3.4629847   -1.9140854   0.14516588   -3.4629847    1.5488992   589191 
 6165000    1.3863099   -3.4641268   -1.9145804   0.14482826   -3.4641268    1.5495465   589211 
 6166000    1.3857172   -3.4625722    -1.913746   0.14770413   -3.4625722    1.5488262   589233 
 6167000    1.3854894   -3.4628573    -1.914333   0.14984163   -3.4628573    1.5485243   589251 
 6168000    1.3859978   -3.4633232   -1.9142913   0.14932155   -3.4633232     1.549032   589274 
 6169000    1.3866074   -3.4632881   -1.9135932   0.15043469   -3.4632881    1.5496949   589281 
 6170000    1.3854738   -3.4625628   -1.9141717   0.14853738   -3.4625628    1.5483912   589295 
 6171000    1.3845981   -3.4628283   -1.9154578   0.14637421   -3.4628283    1.5473705   589311 
 6172000     1.384219   -3.4625961   -1.9157228   0.14852586   -3.4625961    1.5468733   589339 
 6173000    1.3848508   -3.4628088   -1.9152951   0.14678403   -3.4628088    1.5475137   589364 
 6174000    1.3837325   -3.4621602   -1.9159328   0.14448876   -3.4621602    1.5462274   589378 
 6175000    1.3838499   -3.4627815   -1.9164675   0.14825307   -3.4627815     1.546314   589395 
 6176000     1.385934   -3.4640517   -1.9154826   0.14336622   -3.4640517    1.5485691   589423 
 6177000    1.3845722   -3.4642107   -1.9172078   0.14447677   -3.4642107    1.5470029   589440 
 6178000    1.3842629   -3.4640038   -1.9173989   0.14325699   -3.4640038    1.5466049   589460 
 6179000    1.3848452   -3.4636132   -1.9164102   0.13992006   -3.4636132     1.547203   589480 
 6180000    1.3866165   -3.4651077   -1.9159573   0.14829116   -3.4651077    1.5491504   589492 
 6181000    1.3870293   -3.4662839   -1.9167117   0.14099933   -3.4662839    1.5495721   589507 
 6182000    1.3859045   -3.4645752   -1.9162939   0.14720798   -3.4645752    1.5482814   589520 
 6183000    1.3859907   -3.4644794   -1.9161517   0.14587661   -3.4644794    1.5483277   589539 
 6184000    1.3856557   -3.4649079   -1.9169832   0.14216943   -3.4649079    1.5479247   589550 
 6185000    1.3852514   -3.4655468   -1.9181184   0.14448398   -3.4655468    1.5474284   589567 
 6186000    1.3834042   -3.4638519   -1.9185157    0.1483707   -3.4638519    1.5453361   589578 
 6187000    1.3860322   -3.4657378   -1.9175107    0.1486376   -3.4657378    1.5482271   589595 
 6188000    1.3859824   -3.4653837   -1.9172595    0.1436624   -3.4653837    1.5481242   589613 
 6189000    1.3864733   -3.4654451   -1.9168461   0.14445807   -3.4654451     1.548599   589641 
 6190000    1.3867686   -3.4660381    -1.917125   0.14870122   -3.4660381    1.5489131   589647 
 6191000     1.384704   -3.4653937   -1.9188469   0.14096713   -3.4653937    1.5465468   589670 
 6192000    1.3842396   -3.4647571    -1.918771   0.14183572   -3.4647571     1.545986   589686 
 6193000    1.3842047    -3.464681     -1.91876   0.14526494    -3.464681     1.545921   589696 
 6194000    1.3874764   -3.4676488   -1.9181292    0.1468557   -3.4676488    1.5495197   589717 
 6195000    1.3862017   -3.4662772   -1.9182231   0.14334856   -3.4662772    1.5480541   589733 
 6196000    1.3857609   -3.4659365   -1.9184167    0.1472915   -3.4659365    1.5475198   589749 
 6197000    1.3857366   -3.4647946   -1.9173413   0.15029524   -3.4647946    1.5474533   589764 
 6198000    1.3873478    -3.466963   -1.9177551   0.14667433    -3.466963    1.5492079   589781 
 6199000    1.3872038   -3.4656239   -1.9166294   0.14910359   -3.4656239    1.5489946   589801 
 6200000     1.387058   -3.4660237   -1.9172312   0.14305476   -3.4660237    1.5487924   589816 
 6201000    1.3867238   -3.4663372   -1.9179783   0.14896059   -3.4663372    1.5483589   589839 
 6202000    1.3874848   -3.4669404    -1.917787   0.14803081   -3.4669404    1.5491534   589860 
 6203000    1.3879381   -3.4671639   -1.9175648   0.15252898   -3.4671639    1.5495991   589883 
 6204000    1.3874206   -3.4672394   -1.9182627   0.14317948   -3.4672394    1.5489767   589900 
 6205000    1.3864506    -3.466266   -1.9184484   0.15063467    -3.466266    1.5478176   589929 
 6206000    1.3869597   -3.4660676   -1.9177052   0.14903735   -3.4660676    1.5483624   589938 
 6207000    1.3891971   -3.4682737   -1.9174478    0.1441293   -3.4682737    1.5508259   589951 
 6208000     1.387802   -3.4670262   -1.9177786   0.15029928   -3.4670262    1.5492476   589959 
 6209000    1.3888617    -3.467004    -1.916605   0.14751454    -3.467004     1.550399   589971 
 6210000    1.3863447   -3.4651817    -1.917624   0.14888111   -3.4651817    1.5475577   589983 
 6211000    1.3863661   -3.4663967   -1.9188702   0.14428077   -3.4663967    1.5475265   590004 
 6212000    1.3862954   -3.4669645   -1.9195798   0.14228634   -3.4669645    1.5473847   590028 
 6213000    1.3856349   -3.4659985   -1.9193747   0.15348596   -3.4659985    1.5466238   590037 
 6214000    1.3874529   -3.4677627   -1.9190964   0.14339248   -3.4677627    1.5486662   590032 
 6215000    1.3862239   -3.4655423   -1.9182898   0.14515468   -3.4655423    1.5472525   590048 
 6216000    1.3851158   -3.4650682   -1.9190919   0.14490096   -3.4650682    1.5459763   590063 
 6217000    1.3850819   -3.4648547   -1.9189451    0.1517262   -3.4648547    1.5459096   590074 
 6218000    1.3865463   -3.4658663   -1.9183484   0.14731563   -3.4658663    1.5475179   590084 
 6219000    1.3879035   -3.4681154   -1.9190958   0.14643334   -3.4681154    1.5490195   590089 
 6220000    1.3863309   -3.4676883   -1.9204502   0.14680558   -3.4676883    1.5472381   590099 
 6221000    1.3873404   -3.4677599   -1.9194319   0.14722492   -3.4677599     1.548328   590113 
 6222000    1.3875256   -3.4674971   -1.9190175    0.1496751   -3.4674971    1.5484796   590134 
 6223000    1.3875128   -3.4666481   -1.9181984   0.15138409   -3.4666481    1.5484497   590140 
 6224000    1.3890219   -3.4669778   -1.9168913   0.14779046   -3.4669778    1.5500865   590158 
 6225000    1.3896287    -3.468855   -1.9181702   0.14363112    -3.468855    1.5506848   590188 
 6226000    1.3888988   -3.4673451    -1.917543   0.15287674   -3.4673451    1.5498021   590214 
 6227000    1.3887729   -3.4680424   -1.9184334   0.14840264   -3.4680424     1.549609   590234 
 6228000    1.3888252   -3.4671858   -1.9175709   0.14303225   -3.4671858    1.5496149   590254 
 6229000    1.3883767    -3.467477   -1.9183835    0.1514115    -3.467477    1.5490935   590262 
 6230000    1.3876492   -3.4671702    -1.918954   0.14742029   -3.4671702    1.5482162   590287 
 6231000    1.3881146   -3.4681376    -1.919473   0.14512403   -3.4681376    1.5486646   590314 
 6232000    1.3890123   -3.4692235    -1.919623   0.15299034   -3.4692235    1.5496005   590339 
 6233000    1.3875214   -3.4682984   -1.9203769   0.15096681   -3.4682984    1.5479215   590345 
 6234000    1.3863803   -3.4667982   -1.9202309   0.14544872   -3.4667982    1.5465673   590376 
 6235000    1.3867893   -3.4684338   -1.9214626   0.14852977   -3.4684338    1.5469711   590396 
 6236000    1.3877704   -3.4691427   -1.9211191   0.14385808   -3.4691427    1.5480236   590412 
 6237000    1.3873516   -3.4684293   -1.9209253   0.14599472   -3.4684293     1.547504   590432 
 6238000     1.387233   -3.4680056   -1.9206864   0.14953941   -3.4680056    1.5473193   590452 
 6239000    1.3877114   -3.4690236   -1.9212309   0.15028727   -3.4690236    1.5477927   590475 
 6240000    1.3877892   -3.4689577   -1.9211255    0.1461587   -3.4689577    1.5478322   590493 
 6241000    1.3885199   -3.4685904   -1.9200141    0.1539029   -3.4685904    1.5485763   590520 
 6242000    1.3881975   -3.4681511   -1.9199657   0.15273855   -3.4681511    1.5481854   590532 
 6243000     1.388442   -3.4691889   -1.9207806   0.14782237   -3.4691889    1.5484083   590551 
 6244000    1.3879441   -3.4680277   -1.9201852   0.15113438   -3.4680277    1.5478425   590555 
 6245000    1.3886242   -3.4685371    -1.919986   0.14569739   -3.4685371     1.548551   590574 
 6246000    1.3882336   -3.4691302    -1.921054   0.14542111   -3.4691302    1.5480762   590589 
 6247000    1.3875733   -3.4695106   -1.9222154   0.14536249   -3.4695106    1.5472953   590606 
 6248000    1.3892358   -3.4708523   -1.9217346   0.14796572   -3.4708523    1.5491177   590618 
 6249000    1.3888686   -3.4705563   -1.9219005   0.13766015   -3.4705563    1.5486558   590638 
 6250000    1.3891914   -3.4711747   -1.9222193   0.14330658   -3.4711747    1.5489554   590661 
 6251000    1.3886144   -3.4690063   -1.9207466   0.15678609   -3.4690063    1.5482597   590681 
 6252000    1.3886627   -3.4683631    -1.920102    0.1462811   -3.4683631    1.5482611   590701 
 6253000    1.3890505   -3.4688812   -1.9202559   0.15297534   -3.4688812    1.5486253   590727 
 6254000    1.3895707    -3.468709   -1.9195537    0.1537354    -3.468709    1.5491554   590746 
 6255000    1.3900118   -3.4698116   -1.9202143   0.14761636   -3.4698116    1.5495974   590765 
 6256000    1.3904787   -3.4706643   -1.9205779   0.14972644   -3.4706643    1.5500864   590777 
 6257000    1.3903477   -3.4705296   -1.9206234   0.15047189   -3.4705296    1.5499063   590790 
 6258000    1.3880997   -3.4674468   -1.9200806   0.15947553   -3.4674468    1.5473662   590803 
 6259000    1.3883211   -3.4682129   -1.9206287   0.15118686   -3.4682129    1.5475842   590814 
 6260000    1.3896909   -3.4693363   -1.9202698   0.15439841   -3.4693363    1.5490665   590831 
 6261000    1.3897188   -3.4701203   -1.9210516   0.14048155   -3.4701203    1.5490688   590842 
 6262000    1.3879295   -3.4684211   -1.9213861   0.14993935   -3.4684211    1.5470351   590857 
 6263000    1.3895832   -3.4701557   -1.9212853   0.14594483   -3.4701557    1.5488704   590860 
 6264000    1.3888437   -3.4689577   -1.9209587   0.15601758   -3.4689577     1.547999   590878 
 6265000    1.3893332    -3.468372   -1.9198851   0.15247179    -3.468372     1.548487   590900 
 6266000    1.3891562   -3.4692725   -1.9210248   0.15415793   -3.4692725    1.5482477   590916 
 6267000    1.3891976   -3.4696421   -1.9213848    0.1516796   -3.4696421    1.5482573   590930 
 6268000    1.3892281   -3.4697199   -1.9214628   0.15307338   -3.4697199    1.5482571   590943 
 6269000    1.3900409   -3.4703602   -1.9212523   0.14968303   -3.4703602    1.5491079   590964 
 6270000    1.3913019   -3.4711874   -1.9207423   0.15022844   -3.4711874     1.550445   590990 
 6271000    1.3904068   -3.4699411   -1.9205276   0.15457697   -3.4699411    1.5494135   591003 
 6272000    1.3891144   -3.4683513   -1.9204121   0.14926677   -3.4683513    1.5479392   591016 
 6273000    1.3899375   -3.4702209   -1.9213933   0.15258638   -3.4702209    1.5488276   591027 
 6274000    1.3888441    -3.469119   -1.9215594   0.15390062    -3.469119    1.5475595   591046 
 6275000     1.389286   -3.4693805   -1.9213601   0.14960637   -3.4693805    1.5480204   591058 
 6276000    1.3906068     -3.47108   -1.9216325   0.14598159     -3.47108    1.5494476   591075 
 6277000    1.3895132   -3.4696895   -1.9214945   0.14669427   -3.4696895     1.548195   591088 
 6278000    1.3917983   -3.4716983   -1.9209862   0.15051609   -3.4716983    1.5507122   591099 
 6279000    1.3924536   -3.4724595    -1.921067   0.15000543   -3.4724595    1.5513925   591118 
 6280000    1.3898774   -3.4710201   -1.9225555   0.14780872   -3.4710201    1.5484646   591140 
 6281000    1.3910257   -3.4707176   -1.9209999   0.15311994   -3.4707176    1.5497177   591150 
 6282000    1.3910578   -3.4705178   -1.9208168   0.15137835   -3.4705178     1.549701   591170 
 6283000    1.3915199   -3.4708263   -1.9206392   0.14715514   -3.4708263     1.550187   591181 
 6284000     1.391889    -3.472046    -1.921474   0.15051172    -3.472046     1.550572   591191 
 6285000    1.3914736   -3.4719155   -1.9218509   0.15015138   -3.4719155    1.5500646   591208 
 6286000    1.3906106   -3.4714473   -1.9224017   0.14866978   -3.4714473    1.5490456   591230 
 6287000    1.3912862    -3.472282   -1.9225624   0.14644432    -3.472282    1.5497195   591260 
 6288000    1.3910921   -3.4721684    -1.922728   0.14909031   -3.4721684    1.5494404   591284 
 6289000     1.389659   -3.4714399   -1.9236558   0.15265456   -3.4714399     1.547784   591307 
 6290000    1.3897745   -3.4708116   -1.9229565   0.15848813   -3.4708116    1.5478551   591329 
 6291000    1.3912716   -3.4716229   -1.9221398   0.15118415   -3.4716229    1.5494831   591344 
 6292000     1.391137   -3.4718697   -1.9226124   0.15193484   -3.4718697    1.5492573   591373 
 6293000    1.3906533   -3.4726608   -1.9239736   0.15388161   -3.4726608    1.5486872   591385 
 6294000    1.3916208   -3.4732573   -1.9235399   0.15208395   -3.4732573    1.5497174   591403 
 6295000    1.3908739   -3.4726306   -1.9238156   0.14978419   -3.4726306    1.5488149   591430 
 6296000    1.3926923    -3.473999   -1.9231932   0.14729525    -3.473999    1.5508058   591443 
 6297000    1.3921587   -3.4740579   -1.9239119   0.15642799   -3.4740579    1.5501461   591468 
 6298000    1.3918733    -3.474273   -1.9244761   0.15127852    -3.474273    1.5497969   591480 
 6299000    1.3920749   -3.4736061   -1.9236215   0.14766665   -3.4736061    1.5499846   591494 
 6300000    1.3927681   -3.4739997   -1.9233141    0.1514476   -3.4739997    1.5506857   591521 
 6301000    1.3902748   -3.4720006   -1.9241432   0.15300397   -3.4720006    1.5478574   591541 
 6302000    1.3933325   -3.4753399   -1.9241544    0.1452478   -3.4753399    1.5511855   591570 
 6303000    1.3921285   -3.4734179   -1.9235806   0.15400957   -3.4734179    1.5498373   591573 
 6304000    1.3914145   -3.4732248   -1.9242296   0.15273455   -3.4732248    1.5489952   591591 
 6305000    1.3924335   -3.4749751   -1.9248926   0.15158811   -3.4749751    1.5500825   591609 
 6306000    1.3918203   -3.4742148   -1.9248515   0.15538518   -3.4742148    1.5493632   591623 
 6307000     1.393099   -3.4760447   -1.9253078   0.14990042   -3.4760447    1.5507369   591642 
 6308000    1.3907204   -3.4736575   -1.9256051   0.15189968   -3.4736575    1.5480525   591656 
 6309000    1.3916464   -3.4744715   -1.9254302   0.15216993   -3.4744715    1.5490413   591672 
 6310000    1.3905732   -3.4732506   -1.9254535     0.148597   -3.4732506    1.5477971   591691 
 6311000    1.3920638   -3.4752121   -1.9258317   0.14708585   -3.4752121    1.5493803   591720 
 6312000    1.3894533    -3.472604   -1.9261397   0.15689323    -3.472604    1.5464643   591724 
 6313000    1.3902772   -3.4734136   -1.9260375   0.15336458   -3.4734136     1.547376   591726 
 6314000    1.3916542   -3.4742233   -1.9253774   0.14887691   -3.4742233    1.5488459   591750 
 6315000     1.390796   -3.4731637    -1.925286   0.15267603   -3.4731637    1.5478777   591755 
 6316000    1.3917011   -3.4755761   -1.9267251   0.15165119   -3.4755761    1.5488509   591768 
 6317000    1.3898768   -3.4737545   -1.9269783    0.1550925   -3.4737545    1.5467762   591785 
 6318000    1.3909704   -3.4746976   -1.9267383   0.15106741   -3.4746976    1.5479593   591798 
 6319000    1.3915525   -3.4759502   -1.9273797    0.1495686   -3.4759502    1.5485705   591812 
 6320000    1.3906307   -3.4747326   -1.9272272   0.15399371   -3.4747326    1.5475054   591827 
 6321000    1.3914577    -3.475283   -1.9269385   0.15197045    -3.475283    1.5483446   591858 
 6322000    1.3925948   -3.4765821   -1.9270298   0.14751833   -3.4765821    1.5495523   591880 
 6323000    1.3917003   -3.4769389   -1.9284238   0.15528466   -3.4769389    1.5485151   591896 
 6324000    1.3915281   -3.4764305    -1.928175    0.1503147   -3.4764305    1.5482555   591922 
 6325000    1.3913262   -3.4762656   -1.9283106   0.14965214   -3.4762656     1.547955   591951 
 6326000    1.3911066   -3.4765087   -1.9288477    0.1527475   -3.4765087     1.547661   591970 
 6327000    1.3909339   -3.4763985   -1.9289792   0.14914257   -3.4763985    1.5474192   591989 
 6328000     1.392368   -3.4775782   -1.9286002   0.15692208   -3.4775782    1.5489781   592003 
 6329000    1.3912245   -3.4765234   -1.9288489   0.14945031   -3.4765234    1.5476745   592015 
 6330000    1.3916602   -3.4771621   -1.9290499   0.15368183   -3.4771621    1.5481122   592033 
 6331000    1.3941105   -3.4806668    -1.929863   0.15092493   -3.4806668    1.5508038   592046 
 6332000    1.3911884   -3.4780237   -1.9305174   0.15467912   -3.4780237    1.5475062   592064 
 6333000    1.3925324   -3.4798694   -1.9309047   0.14704484   -3.4798694    1.5489647   592078 
 6334000    1.3900875   -3.4768228   -1.9305855   0.15135972   -3.4768228    1.5462373   592081 
 6335000    1.3916436   -3.4787146   -1.9308118   0.14972958   -3.4787146    1.5479028   592106 
 6336000    1.3889636   -3.4752565   -1.9303816   0.15405495   -3.4752565    1.5448749   592124 
 6337000    1.3920903   -3.4788558   -1.9305607   0.14645548   -3.4788558    1.5482951   592146 
 6338000    1.3933529   -3.4798024   -1.9301397    0.1485685   -3.4798024    1.5496627   592160 
 6339000    1.3912977   -3.4767728   -1.9294324   0.15520053   -3.4767728    1.5473403   592174 
 6340000    1.3937477   -3.4786397   -1.9286373   0.14435303   -3.4786397    1.5500023   592198 
 6341000     1.392989   -3.4786171   -1.9295187   0.15042582   -3.4786171    1.5490984   592221 
 6342000     1.392258   -3.4785012    -1.930268   0.14986829   -3.4785012    1.5482332   592241 
 6343000    1.3909237   -3.4772976   -1.9306004   0.15177877   -3.4772976    1.5466972   592261 
 6344000     1.390943   -3.4765801   -1.9298902   0.15265046   -3.4765801      1.54669   592272 
 6345000    1.3903248    -3.476674   -1.9306924   0.15821949    -3.476674    1.5459816   592280 
 6346000    1.3908735     -3.47716   -1.9306283   0.14696112     -3.47716    1.5465317   592303 
 6347000    1.3898149   -3.4753145   -1.9299964   0.15428596   -3.4753145    1.5453181   592317 
 6348000    1.3907115   -3.4765232   -1.9302447   0.14881488   -3.4765232    1.5462785   592331 
 6349000      1.38971   -3.4766701   -1.9315183   0.14545921   -3.4766701    1.5451519   592336 
 6350000    1.3905262   -3.4769517   -1.9309237   0.15219232   -3.4769517    1.5460281   592348 
 6351000     1.391177   -3.4770546   -1.9303395   0.14940837   -3.4770546    1.5467151   592362 
 6352000      1.39313   -3.4796195   -1.9307722   0.14668082   -3.4796195    1.5488473   592377 
 6353000    1.3926404   -3.4787851   -1.9305266   0.14808764   -3.4787851    1.5482585   592394 
 6354000    1.3919653   -3.4777471   -1.9302784   0.14890528   -3.4777471    1.5474687   592409 
 6355000    1.3937001    -3.479097   -1.9297337   0.15457485    -3.479097    1.5493633   592422 
 6356000    1.3936618   -3.4794234   -1.9301523    0.1477972   -3.4794234    1.5492711   592441 
 6357000    1.3937005   -3.4795004   -1.9302386   0.15008493   -3.4795004    1.5492619   592461 
 6358000    1.3926309   -3.4783911   -1.9303627   0.15506001   -3.4783911    1.5480285   592478 
 6359000    1.3931355   -3.4795927   -1.9310583   0.15073814   -3.4795927    1.5485345   592499 
 6360000    1.3942978   -3.4795852   -1.9298425   0.15320969   -3.4795852    1.5497427   592531 
 6361000     1.393778   -3.4797848   -1.9306669   0.15393949   -3.4797848    1.5491179   592549 
 6362000    1.3930244   -3.4783657   -1.9300829   0.15719819   -3.4783657    1.5482829   592548 
 6363000    1.3940802   -3.4796012   -1.9301788   0.15050838   -3.4796012    1.5494224   592561 
 6364000    1.3922011   -3.4792357   -1.9319592    0.1519026   -3.4792357    1.5472765   592583 
 6365000    1.3919676   -3.4792528   -1.9323089   0.15026447   -3.4792528    1.5469439   592611 
 6366000    1.3921963   -3.4793685   -1.9321992   0.15630714   -3.4793685    1.5471693   592622 
 6367000    1.3933645   -3.4799447   -1.9315243   0.15660056   -3.4799447    1.5484204   592640 
 6368000    1.3928698   -3.4788746   -1.9310352   0.15740166   -3.4788746    1.5478394   592652 
 6369000    1.3921253   -3.4793553    -1.932432   0.15380186   -3.4793553    1.5469233   592686 
 6370000    1.3943795   -3.4813992   -1.9320051   0.15532712   -3.4813992    1.5493942   592699 
 6371000     1.393518   -3.4805598   -1.9321724   0.15163655   -3.4805598    1.5483873   592718 
 6372000     1.393971   -3.4805009    -1.931652   0.14821262   -3.4805009    1.5488489   592734 
 6373000    1.3935526   -3.4800871   -1.9317633   0.14949378   -3.4800871    1.5483238   592757 
 6374000    1.3924405   -3.4790702   -1.9320054   0.15551372   -3.4790702    1.5470648   592766 
 6375000    1.3920826   -3.4793781   -1.9327554   0.15197426   -3.4793781    1.5466227   592783 
 6376000    1.3916551   -3.4799046   -1.9337802   0.14618001   -3.4799046    1.5461243   592792 
 6377000    1.3928878   -3.4809744   -1.9335536   0.14371944   -3.4809744    1.5474208   592820 
 6378000    1.3930914   -3.4813619    -1.933775   0.15257553   -3.4813619    1.5475869   592843 
 6379000    1.3917627   -3.4806698   -1.9345563   0.15224397   -3.4806698    1.5461135   592842 
 6380000     1.391606   -3.4803302   -1.9344352   0.14896392   -3.4803302     1.545895   592859 
 6381000    1.3925082   -3.4819222    -1.935064   0.15533897   -3.4819222    1.5468582   592874 
 6382000    1.3930103   -3.4833162   -1.9359499   0.15138526   -3.4833162    1.5473663   592893 
 6383000    1.3934767   -3.4829048   -1.9350647   0.15603874   -3.4829048    1.5478401   592910 
 6384000    1.3925206   -3.4806573   -1.9339106   0.15397614   -3.4806573    1.5467467   592922 
 6385000    1.3942678    -3.482661   -1.9340311   0.14988744    -3.482661      1.54863   592944 
 6386000    1.3936079   -3.4823067   -1.9344175   0.15226788   -3.4823067    1.5478892   592947 
 6387000    1.3936646   -3.4820625   -1.9341522   0.15244614   -3.4820625    1.5479104   592963 
 6388000    1.3936578   -3.4827662   -1.9348999   0.15119583   -3.4827662    1.5478663   592977 
 6389000    1.3918643    -3.480943    -1.935126   0.15789027    -3.480943     1.545817   592999 
 6390000    1.3942291   -3.4834541     -1.93505   0.15188621   -3.4834541    1.5484042   593014 
 6391000    1.3930271   -3.4824146   -1.9354262   0.15466811   -3.4824146    1.5469884   593045 
 6392000    1.3933046   -3.4824715   -1.9352428   0.14719841   -3.4824715    1.5472287   593071 
 6393000    1.3921465   -3.4813823   -1.9354657   0.14811613   -3.4813823    1.5459166   593081 
 6394000    1.3928801   -3.4828557   -1.9361584   0.14530379   -3.4828557    1.5466973   593094 
 6395000    1.3918936   -3.4823832   -1.9368491   0.15311092   -3.4823832    1.5455342   593120 
 6396000    1.3923882   -3.4834702   -1.9374286   0.15034119   -3.4834702    1.5460417   593136 
 6397000    1.3910354   -3.4819736   -1.9374704    0.1480101   -3.4819736    1.5445031   593150 
 6398000    1.3923043   -3.4816055   -1.9357352    0.1480166   -3.4816055    1.5458702   593166 
 6399000    1.3938798   -3.4835541   -1.9359841    0.1527983   -3.4835541      1.54757   593185 
 6400000    1.3932111   -3.4831174   -1.9363551   0.15388423   -3.4831174    1.5467623   593210 
 6401000    1.3927436    -3.481695   -1.9354751   0.15265482    -3.481695    1.5462199   593219 
 6402000    1.3928134   -3.4820962   -1.9358483   0.14561804   -3.4820962    1.5462479   593238 
 6403000    1.3939661   -3.4838374   -1.9362994   0.14495658   -3.4838374     1.547538   593234 
 6404000    1.3934721   -3.4820111   -1.9350685   0.15020263   -3.4820111    1.5469426   593252 
 6405000    1.3929261   -3.4810832   -1.9348094   0.15762594   -3.4810832    1.5462739   593276 
 6406000    1.3960218   -3.4836505    -1.933974   0.15164106   -3.4836505    1.5496765   593289 
 6407000    1.3943632   -3.4826512   -1.9348446   0.14979962   -3.4826512    1.5478066   593300 
 6408000    1.3949609   -3.4837578   -1.9353529   0.14923754   -3.4837578    1.5484048   593325 
 6409000     1.395531   -3.4841216   -1.9350866   0.14927248   -3.4841216     1.549035   593326 
 6410000    1.3951887   -3.4848215    -1.936216   0.14532116   -3.4848215    1.5486055   593345 
 6411000     1.394874    -3.484322   -1.9360996   0.14837004    -3.484322    1.5482223   593358 
 6412000    1.3938517   -3.4840644   -1.9370107   0.15452792   -3.4840644    1.5470537   593371 
 6413000    1.3950955   -3.4860581   -1.9376683   0.15209511   -3.4860581    1.5483899   593388 
 6414000    1.3951075   -3.4848585   -1.9364971    0.1491292   -3.4848585    1.5483614   593404 
 6415000    1.3935023   -3.4820663   -1.9355098   0.15180105   -3.4820663    1.5465564   593413 
 6416000    1.3962994   -3.4846735    -1.935005   0.15168482   -3.4846735    1.5496686   593410 
 6417000    1.3952587   -3.4842073   -1.9357407   0.14915799   -3.4842073    1.5484666   593428 
 6418000    1.3954781   -3.4855509   -1.9368982   0.14654975   -3.4855509    1.5486527   593450 
 6419000    1.3960161   -3.4858838   -1.9366446   0.14821795   -3.4858838    1.5492392   593454 
 6420000    1.3960514   -3.4857942   -1.9365523   0.14729252   -3.4857942    1.5492419   593468 
 6421000    1.3952948   -3.4860171   -1.9376331   0.15298222   -3.4860171     1.548384   593475 
 6422000     1.392913   -3.4835036   -1.9378045   0.15033777   -3.4835036    1.5456992   593491 
 6423000     1.393994   -3.4841901   -1.9373226   0.14838071   -3.4841901    1.5468675   593503 
 6424000    1.3944581   -3.4855777   -1.9382604   0.14850288   -3.4855777    1.5473173   593528 
 6425000    1.3937254    -3.484047   -1.9375662   0.15089876    -3.484047    1.5464808   593537 
 6426000    1.3939131   -3.4841588   -1.9375374   0.14931507   -3.4841588    1.5466214   593563 
 6427000    1.3926529   -3.4836673   -1.9384807   0.15379402   -3.4836673    1.5451867   593577 
 6428000    1.3933837    -3.484884   -1.9389307   0.15170576    -3.484884    1.5459533   593594 
 6429000    1.3921741   -3.4839055   -1.9393568   0.15223993   -3.4839055    1.5445487   593618 
 6430000    1.3934356   -3.4849104   -1.9389855   0.14889622   -3.4849104    1.5459249   593627 
 6431000    1.3925083   -3.4835093   -1.9386522   0.14749609   -3.4835093    1.5448571   593642 
 6432000    1.3930911   -3.4847431   -1.9393254   0.14732832   -3.4847431    1.5454178   593675 
 6433000    1.3943433   -3.4845107   -1.9377534   0.15140944   -3.4845107    1.5467573   593694 
 6434000     1.395016   -3.4850797   -1.9375943   0.15938153   -3.4850797    1.5474853   593701 
 6435000    1.3938551    -3.483729   -1.9375601   0.15416541    -3.483729    1.5461689   593712 
 6436000    1.3956232   -3.4866426   -1.9385462   0.15104659   -3.4866426    1.5480964   593725 
 6437000    1.3939008   -3.4846989   -1.9385913   0.15255411   -3.4846989    1.5461076   593755 
 6438000    1.3967597   -3.4880303   -1.9388012   0.15004334   -3.4880303    1.5492291   593774 
 6439000    1.3951564   -3.4863806   -1.9389662   0.14951678   -3.4863806    1.5474143   593788 
 6440000    1.3947063   -3.4845267   -1.9376507   0.15641314   -3.4845267     1.546876   593803 
 6441000    1.3938022   -3.4843245   -1.9384902   0.15557826   -3.4843245    1.5458343   593818 
 6442000    1.3947685   -3.4854381   -1.9385999   0.14977891   -3.4854381    1.5468382   593844 
 6443000    1.3946366   -3.4857424   -1.9391052   0.15378145   -3.4857424    1.5466372   593865 
 6444000    1.3945271   -3.4863427    -1.939892   0.15242638   -3.4863427    1.5464507   593890 
 6445000    1.3949687     -3.48652   -1.9396134   0.15409708     -3.48652    1.5469066   593903 
 6446000    1.3966384   -3.4869874   -1.9382632   0.15057779   -3.4869874    1.5487242   593916 
 6447000      1.39589    -3.486951   -1.9391218   0.15304599    -3.486951    1.5478292   593941 
 6448000    1.3967089    -3.487564   -1.9388711   0.14980728    -3.487564    1.5486929   593958 
 6449000    1.3975633    -3.488226   -1.9386275   0.15004331    -3.488226    1.5495985   593974 
 6450000    1.3941146   -3.4846801   -1.9389523   0.15345205   -3.4846801    1.5457278   593992 
 6451000    1.3947035   -3.4862667   -1.9399537    0.1559609   -3.4862667     1.546313   594018 
 6452000    1.3949161   -3.4859815   -1.9394978   0.14897082   -3.4859815    1.5464837   594043 
 6453000    1.3961907   -3.4874163   -1.9395821   0.15284616   -3.4874163    1.5478342   594067 
 6454000    1.3962568   -3.4872996   -1.9394389   0.14772869   -3.4872996    1.5478606   594085 
 6455000    1.3953231   -3.4877243   -1.9409326   0.15071072   -3.4877243    1.5467917   594098 
 6456000    1.3926348   -3.4851069   -1.9413317   0.15298975   -3.4851069    1.5437751   594112 
 6457000    1.3941644   -3.4871696   -1.9417586   0.15267296   -3.4871696     1.545411   594135 
 6458000    1.3962452   -3.4897152   -1.9420238   0.14647282   -3.4897152    1.5476914   594145 
 6459000    1.3951275   -3.4881596   -1.9417695   0.15575361   -3.4881596    1.5463901   594169 
 6460000    1.3935667   -3.4876219   -1.9430165   0.14939971   -3.4876219    1.5446054   594190 
 6461000    1.3944311   -3.4884993   -1.9429982   0.15330518   -3.4884993    1.5455011   594214 
 6462000    1.3934307   -3.4869387   -1.9425932   0.15697032   -3.4869387    1.5443455   594232 
 6463000    1.3945503   -3.4875655   -1.9420258   0.15442215   -3.4875655    1.5455396   594250 
 6464000    1.3961607   -3.4903851    -1.943105   0.13957259   -3.4903851    1.5472801   594267 
 6465000    1.3942678   -3.4894115   -1.9442474   0.15060309   -3.4894115    1.5451641   594274 
 6466000    1.3948961   -3.4896089   -1.9438032    0.1532194   -3.4896089    1.5458057   594295 
 6467000    1.3939064   -3.4885803   -1.9439207   0.15077359   -3.4885803    1.5446596   594314 
 6468000    1.3944978    -3.488696   -1.9434278   0.15029275    -3.488696    1.5452682   594332 
 6469000    1.3950272   -3.4890079   -1.9431791   0.14861589   -3.4890079    1.5458288   594342 
 6470000    1.3945861   -3.4889011   -1.9436157   0.15381802   -3.4889011    1.5452854   594363 
 6471000    1.3941914   -3.4885706   -1.9437642   0.15297304   -3.4885706    1.5448064   594379 
 6472000    1.3946812   -3.4900026   -1.9446612   0.15249248   -3.4900026    1.5453414   594382 
 6473000     1.395202   -3.4900763   -1.9441891   0.14698857   -3.4900763    1.5458872   594394 
 6474000    1.3952226   -3.4897029   -1.9438449   0.15707112   -3.4897029     1.545858   594414 
 6475000    1.3956654   -3.4909756    -1.944679   0.14901778   -3.4909756    1.5462966   594434 
 6476000    1.3944927   -3.4900041   -1.9450379   0.14678737   -3.4900041    1.5449661   594446 
 6477000    1.3954479   -3.4919608   -1.9459703   0.14755196   -3.4919608    1.5459906   594459 
 6478000    1.3935844   -3.4891291   -1.9452134   0.15227241   -3.4891291    1.5439157   594463 
 6479000    1.3927791   -3.4892023   -1.9462332   0.15335684   -3.4892023     1.542969   594484 
 6480000    1.3968625   -3.4918699   -1.9444161   0.14676056   -3.4918699    1.5474537   594499 
 6481000    1.3953349   -3.4904002   -1.9446907   0.15283737   -3.4904002    1.5457095   594519 
 6482000    1.3962456   -3.4911836   -1.9444887   0.14588824   -3.4911836    1.5466949   594528 
 6483000    1.3957173   -3.4900348   -1.9439408   0.16090984   -3.4900348     1.546094   594534 
 6484000    1.3977414   -3.4927532   -1.9444405   0.14931452   -3.4927532    1.5483128   594543 
 6485000      1.39585   -3.4905124   -1.9443338   0.15379003   -3.4905124    1.5461785   594558 
 6486000    1.3958714   -3.4906916   -1.9445569    0.1570846   -3.4906916    1.5461347   594584 
 6487000     1.395824   -3.4906979   -1.9446547   0.15486466   -3.4906979    1.5460432   594599 
 6488000    1.3953109   -3.4900537   -1.9446257   0.15234875   -3.4900537     1.545428   594617 
 6489000    1.3968275   -3.4910508   -1.9439716   0.15087978   -3.4910508    1.5470792   594628 
 6490000    1.3966506   -3.4900984   -1.9432672   0.15349271   -3.4900984    1.5468312   594648 
 6491000    1.3970919   -3.4919361   -1.9446369   0.15414735   -3.4919361    1.5472992   594656 
 6492000      1.39681   -3.4919069   -1.9449746   0.15486942   -3.4919069    1.5469324   594677 
 6493000    1.3955184   -3.4914845   -1.9460345   0.14804137   -3.4914845      1.54545   594697 
 6494000    1.3960178   -3.4916485   -1.9456793   0.15140866   -3.4916485    1.5459692   594710 
 6495000     1.395621   -3.4913491   -1.9458817   0.15371256   -3.4913491    1.5454674   594734 
 6496000     1.394991   -3.4920132    -1.947272   0.15755002   -3.4920132    1.5447412   594745 
 6497000    1.3966038   -3.4928282   -1.9463375   0.15254027   -3.4928282    1.5464907   594759 
 6498000    1.3952886   -3.4909027   -1.9459125   0.15511471   -3.4909027    1.5449902   594776 
 6499000    1.3946897   -3.4906778   -1.9463767   0.15491166   -3.4906778    1.5443011   594786 
 6500000    1.3951228   -3.4913201   -1.9465835   0.15099672   -3.4913201    1.5447366   594803 
 6501000    1.3980501   -3.4937462   -1.9458178    0.1563661   -3.4937462    1.5479283   594822 
 6502000    1.3961416   -3.4916594   -1.9459014   0.15804438   -3.4916594     1.545758   594844 
 6503000    1.3957133   -3.4915757    -1.946323   0.14997659   -3.4915757    1.5452527   594856 
 6504000    1.3945143   -3.4913236   -1.9474425   0.15250386   -3.4913236    1.5438811   594873 
 6505000     1.396521   -3.4922325   -1.9461687   0.14971527   -3.4922325    1.5460638   594888 
 6506000    1.3947497   -3.4906874   -1.9466158   0.15283259   -3.4906874    1.5440716   594900 
 6507000    1.3974419   -3.4943892   -1.9473631   0.15163541   -3.4943892     1.547026   594910 
 6508000    1.3944725   -3.4917369   -1.9480188   0.14755444   -3.4917369    1.5437181   594918 
 6509000    1.3950869   -3.4928473   -1.9484802   0.14694454   -3.4928473     1.544367   594930 
 6510000    1.3958001   -3.4934973   -1.9483564   0.14888963   -3.4934973    1.5451409   594936 
 6511000    1.3956971   -3.4926415   -1.9476794   0.15190597   -3.4926415     1.544962   594961 
 6512000    1.3941989   -3.4914176   -1.9481503   0.15343107   -3.4914176    1.5432673   594975 
 6513000    1.3946527   -3.4923137   -1.9485908   0.15155466   -3.4923137    1.5437229   594993 
 6514000    1.3957595   -3.4932024   -1.9483218    0.1487759   -3.4932024    1.5448805   595019 
 6515000    1.3953817   -3.4926612   -1.9482248   0.15138639   -3.4926612    1.5444364   595029 
 6516000    1.3970617   -3.4941822   -1.9479331   0.14948953   -3.4941822     1.546249   595047 
 6517000    1.3965348   -3.4929167    -1.947308    0.1565476   -3.4929167    1.5456087   595069 
 6518000    1.3978653    -3.494124   -1.9470869   0.15417041    -3.494124    1.5470371   595086 
 6519000    1.3966679   -3.4928178   -1.9471449   0.15516027   -3.4928178    1.5456729   595101 
 6520000    1.3968121    -3.493691   -1.9479234    0.1529271    -3.493691    1.5457676   595126 
 6521000    1.3974845   -3.4935331   -1.9470863   0.15639446   -3.4935331    1.5464468   595151 
 6522000    1.3965011   -3.4931428   -1.9478518   0.15902972   -3.4931428     1.545291   595177 
 6523000    1.3959032   -3.4932552   -1.9486466   0.15442378   -3.4932552    1.5446087   595185 
 6524000    1.3967461   -3.4941931   -1.9486855    0.1487508   -3.4941931    1.5455076   595198 
 6525000    1.3976443   -3.4950515   -1.9486176   0.14889473   -3.4950515    1.5464339   595224 
 6526000    1.3962406   -3.4934392   -1.9485974   0.15299517   -3.4934392    1.5448418   595239 
 6527000    1.3960927   -3.4935687   -1.9489553   0.15902653   -3.4935687    1.5446133   595264 
 6528000    1.3975561   -3.4949203   -1.9487321   0.15070201   -3.4949203    1.5461882   595281 
 6529000    1.3975313    -3.495019   -1.9488815   0.14792313    -3.495019    1.5461375   595290 
 6530000    1.3970286   -3.4944717   -1.9489632   0.15219909   -3.4944717    1.5455085   595318 
 6531000    1.3965859   -3.4939066   -1.9489501   0.15035523   -3.4939066    1.5449566   595342 
 6532000    1.3955728   -3.4933633    -1.949543   0.15355734   -3.4933633    1.5438202   595348 
 6533000    1.3977691   -3.4949549    -1.948744   0.15164613   -3.4949549    1.5462109   595363 
 6534000    1.3963514   -3.4948458   -1.9502602   0.14777616   -3.4948458    1.5445856   595385 
 6535000    1.3970723   -3.4955868   -1.9502428   0.15218625   -3.4955868     1.545344   595400 
 6536000    1.3981545   -3.4959184   -1.9494292   0.14704271   -3.4959184    1.5464892   595420 
 6537000    1.3977792   -3.4958187   -1.9497759   0.14875851   -3.4958187    1.5460428   595432 
 6538000    1.3970955   -3.4945352   -1.9493056   0.15225523   -3.4945352    1.5452296   595454 
 6539000    1.3971456   -3.4948233   -1.9495643   0.15511128   -3.4948233     1.545259   595464 
 6540000    1.3956103   -3.4939479   -1.9504181   0.14994628   -3.4939479    1.5435298   595476 
 6541000    1.3964619    -3.494564   -1.9501105   0.16185032    -3.494564    1.5444535   595483 
 6542000    1.3967292   -3.4955987   -1.9508806   0.15131421   -3.4955987    1.5447181   595495 
 6543000    1.3962495   -3.4958639   -1.9517153   0.15464127   -3.4958639    1.5441486   595510 
 6544000    1.3963107   -3.4964931   -1.9523131   0.15421201   -3.4964931      1.54418   595524 
 6545000    1.3967617   -3.4969533   -1.9523368    0.1520872   -3.4969533    1.5446165   595548 
 6546000    1.3972738    -3.497252   -1.9521158   0.15022706    -3.497252    1.5451362   595566 
 6547000    1.3960701   -3.4966262   -1.9528677   0.15281974   -3.4966262    1.5437585   595584 
 6548000    1.3952725   -3.4968607   -1.9540543   0.15360454   -3.4968607    1.5428065   595611 
 6549000    1.3968375   -3.4977765   -1.9532914   0.15325634   -3.4977765    1.5444851   595631 
 6550000    1.3963486   -3.4974313    -1.953562   0.15320301   -3.4974313    1.5438693   595660 
 6551000    1.3967861   -3.4981191   -1.9538076   0.15356428   -3.4981191    1.5443116   595676 
 6552000    1.3966683   -3.4975567   -1.9534428   0.15709623   -3.4975567    1.5441139   595702 
 6553000    1.3963029   -3.4971589    -1.953506   0.14938217   -3.4971589    1.5436529   595724 
 6554000    1.3956802   -3.4973689   -1.9544406   0.14668925   -3.4973689    1.5429283   595738 
 6555000    1.3962866   -3.4974307   -1.9538916   0.15037673   -3.4974307    1.5435391   595761 
 6556000     1.398352   -3.4988999   -1.9531087    0.1496775   -3.4988999    1.5457912   595773 
 6557000    1.3970829   -3.4972761   -1.9529397   0.15081671   -3.4972761    1.5443365   595793 
 6558000    1.3974662   -3.4978052   -1.9530788   0.15462425   -3.4978052    1.5447264   595806 
 6559000    1.3960218   -3.4948221   -1.9517157   0.15737919   -3.4948221    1.5431064   595815 
 6560000    1.3971903   -3.4978897   -1.9535408   0.14904405   -3.4978897    1.5443489   595834 
 6561000    1.3955656   -3.4962209    -1.953717   0.15538863   -3.4962209    1.5425039   595853 
 6562000    1.3956169    -3.497043   -1.9545135   0.15458877    -3.497043    1.5425295   595865 
 6563000    1.3965743   -3.4967634   -1.9532276   0.15662066   -3.4967634    1.5435359   595885 
 6564000     1.396949    -3.497155   -1.9532257   0.15043312    -3.497155    1.5439293   595893 
 6565000    1.3957698    -3.496468   -1.9538757   0.15715629    -3.496468    1.5425924   595906 
 6566000    1.3968831   -3.4978683   -1.9540507   0.15383386   -3.4978683    1.5438176   595908 
 6567000    1.3970894   -3.4981222   -1.9541414   0.15024534   -3.4981222    1.5439808   595933 
 6568000    1.3968372   -3.4978829    -1.954217   0.15763659   -3.4978829    1.5436659   595947 
 6569000    1.3965078   -3.4973675   -1.9541019   0.15592588   -3.4973675    1.5432656   595961 
 6570000    1.3979986   -3.4986487   -1.9537694   0.15483463   -3.4986487    1.5448793   595974 
 6571000    1.3976946   -3.4985585   -1.9540436   0.14947152   -3.4985585    1.5445149   595985 
 6572000    1.3961962   -3.4985786   -1.9557713    0.1497001   -3.4985786    1.5428073   596005 
 6573000    1.3967796   -3.4995551   -1.9561447   0.15339511   -3.4995551    1.5434105   596021 
 6574000    1.3979832   -3.4996576   -1.9549274   0.14790643   -3.4996576    1.5447301   596025 
 6575000    1.3977602   -3.4994292    -1.954974   0.15047368   -3.4994292    1.5444552   596036 
 6576000    1.3950998   -3.4982344   -1.9567757   0.15346395   -3.4982344    1.5414586   596058 
 6577000    1.3950601   -3.4988661   -1.9574875   0.15599865   -3.4988661    1.5413787   596072 
 6578000    1.3970875   -3.5012763   -1.9576991   0.14967586   -3.5012763    1.5435772   596088 
 6579000    1.3950295   -3.4983625   -1.9571134   0.15333908   -3.4983625    1.5412491   596109 
 6580000    1.3970446   -3.4996689   -1.9562064   0.14937477   -3.4996689    1.5434625   596114 
 6581000    1.3953267    -3.497698   -1.9561826   0.15467117    -3.497698    1.5415154   596133 
 6582000    1.3963751   -3.4991298   -1.9565053   0.15107497   -3.4991298    1.5426245   596152 
 6583000    1.3965165   -3.4991495   -1.9563973   0.15567799   -3.4991495    1.5427523   596163 
 6584000    1.3973215   -3.4996951   -1.9561079   0.15110249   -3.4996951    1.5435872   596184 
 6585000    1.3985964   -3.4996328   -1.9547046   0.15082027   -3.4996328    1.5449282   596210 
 6586000     1.399539   -3.4999611   -1.9540307   0.15567938   -3.4999611    1.5459304   596225 
 6587000     1.397008   -3.4976051   -1.9545195   0.16191185   -3.4976051    1.5430856   596244 
 6588000     1.397861   -3.4990488   -1.9550496   0.15550957   -3.4990488    1.5439992   596255 
 6589000    1.3977937   -3.4981227    -1.954216    0.1555447   -3.4981227    1.5439068   596262 
 6590000    1.3986845   -3.4986058   -1.9537539    0.1567789   -3.4986058    1.5448518   596277 
 6591000    1.3975023   -3.4973252   -1.9538257   0.15860313   -3.4973252    1.5434995   596295 
 6592000    1.3992831   -3.5000126   -1.9545878   0.15481487   -3.5000126    1.5454248   596311 
 6593000    1.3983174   -3.4984832   -1.9541741   0.15950249   -3.4984832    1.5443091   596330 
 6594000    1.3985296   -3.4988647   -1.9543782   0.15243064   -3.4988647    1.5444865   596352 
 6595000    1.3973917   -3.4985586   -1.9553598   0.15692237   -3.4985586    1.5431988   596364 
 6596000    1.4002509   -3.5003575   -1.9539987   0.14957438   -3.5003575    1.5463589   596363 
 6597000    1.3992237   -3.4996519   -1.9544378    0.1585937   -3.4996519    1.5452142   596367 
 6598000    1.3988976   -3.4990449   -1.9542374   0.15912424   -3.4990449    1.5448075   596385 
 6599000    1.4002316   -3.5012627   -1.9550365   0.15001172   -3.5012627    1.5462262   596406 
 6600000    1.3985375   -3.5004743   -1.9561629   0.15083596   -3.5004743    1.5443114   596423 
 6601000    1.3997947   -3.5019512   -1.9562905   0.14893774   -3.5019512    1.5456607   596438 
 6602000    1.3975543    -3.500424   -1.9572889   0.15366701    -3.500424    1.5431351   596458 
 6603000    1.3978883   -3.4997193   -1.9562697   0.15372992   -3.4997193    1.5434496   596479 
 6604000    1.3977896   -3.5005148   -1.9572156   0.15157325   -3.5005148    1.5432992   596495 
 6605000    1.3979771   -3.5008505   -1.9573494   0.14821611   -3.5008505     1.543501   596497 
 6606000    1.3975203   -3.5009089   -1.9579511   0.15244442   -3.5009089    1.5429579   596512 
 6607000    1.3983172   -3.5011564   -1.9573627   0.15053198   -3.5011564    1.5437937   596529 
 6608000    1.3977614   -3.5001117   -1.9569575   0.14548189   -3.5001117    1.5431543   596539 
 6609000    1.3980272   -3.5008783   -1.9574384   0.15373811   -3.5008783    1.5434399   596542 
 6610000    1.3996299    -3.502449   -1.9572785   0.15370566    -3.502449    1.5451705   596557 
 6611000    1.3987643   -3.5008513   -1.9566572   0.15817762   -3.5008513    1.5441941   596565 
 6612000    1.3995279     -3.50134   -1.9563339   0.15712108     -3.50134    1.5450061   596577 
 6613000    1.4001403    -3.502195   -1.9565492   0.15774405    -3.502195    1.5456458   596591 
 6614000    1.4006752   -3.5028667   -1.9566433   0.15114303   -3.5028667    1.5462234   596596 
 6615000    1.3994463   -3.5020149   -1.9571948   0.15660678   -3.5020149    1.5448201   596614 
 6616000    1.3993929   -3.5022438    -1.957506   0.15505305   -3.5022438    1.5447379   596623 
 6617000    1.3998343   -3.5033337   -1.9581447   0.15254845   -3.5033337     1.545189   596637 
 6618000    1.3993855   -3.5024212   -1.9577485   0.15131342   -3.5024212    1.5446727   596645 
 6619000    1.3996513   -3.5031605   -1.9582254   0.15169151   -3.5031605    1.5449351   596657 
 6620000    1.3990638   -3.5019888    -1.957754   0.15488296   -3.5019888    1.5442348   596677 
 6621000    1.3995198   -3.5022582   -1.9575718   0.15348518   -3.5022582    1.5446864   596697 
 6622000    1.3983767   -3.5012693   -1.9579014    0.1526525   -3.5012693    1.5433679   596719 
 6623000    1.3990716   -3.5021361   -1.9580607   0.15332135   -3.5021361    1.5440753   596742 
 6624000    1.3994834   -3.5011504   -1.9566517   0.15210119   -3.5011504    1.5444987   596754 
 6625000    1.3985122   -3.5011497   -1.9577669    0.1562885   -3.5011497    1.5433828   596771 
 6626000    1.3982798   -3.5006363   -1.9575487   0.15622329   -3.5006363    1.5430876   596786 
 6627000    1.4016617   -3.5034734   -1.9566847   0.15405111   -3.5034734    1.5467886   596798 
 6628000     1.399034   -3.5014937   -1.9576384   0.15106976   -3.5014937    1.5438552   596811 
 6629000    1.4013162   -3.5027574   -1.9564045   0.14626074   -3.5027574     1.546353   596819 
 6630000    1.3990657   -3.5018835   -1.9580346   0.14953841   -3.5018835    1.5438489   596827 
 6631000    1.4002016   -3.5030536   -1.9579719   0.14945107   -3.5030536    1.5450816   596835 
 6632000    1.4011208   -3.5049523   -1.9588978   0.14757089   -3.5049523    1.5460544   596851 
 6633000    1.3989059   -3.5034785   -1.9599042   0.15493599   -3.5034785    1.5435743   596865 
 6634000    1.3993037   -3.5038168   -1.9598657    0.1451353   -3.5038168    1.5439511   596889 
 6635000    1.3990571   -3.5029977   -1.9593626   0.15786747   -3.5029977    1.5436351   596906 
 6636000    1.3980088   -3.5025033   -1.9600558   0.15636542   -3.5025033    1.5424474   596918 
 6637000    1.3971168   -3.5013711   -1.9599544   0.15888481   -3.5013711    1.5414167   596936 
 6638000    1.3999189   -3.5035953   -1.9591232   0.15352654   -3.5035953    1.5444721   596950 
 6639000    1.3993129   -3.5028243   -1.9590984   0.15553125   -3.5028243    1.5437259   596980 
 6640000    1.3995899   -3.5033877    -1.959408   0.15862871   -3.5033877    1.5439798   597000 
 6641000    1.3999881     -3.50477   -1.9603639   0.15319607     -3.50477    1.5444061   597005 
 6642000    1.3995965   -3.5028635   -1.9589464   0.16006825   -3.5028635    1.5439172   597027 
 6643000    1.4020238   -3.5062129   -1.9596673   0.15500823   -3.5062129    1.5465456   597046 
 6644000    1.4009961   -3.5043251   -1.9589468   0.15362632   -3.5043251    1.5453782   597059 
 6645000    1.4003016   -3.5041121   -1.9595361   0.15455892   -3.5041121     1.544576   597073 
 6646000    1.4007276   -3.5036327   -1.9586204   0.16094026   -3.5036327    1.5450123   597086 
 6647000     1.399324   -3.5034097   -1.9599482   0.16000668   -3.5034097    1.5434615   597087 
 6648000    1.4005032   -3.5056108   -1.9608953   0.15043992   -3.5056108    1.5447155   597105 
 6649000    1.3983768   -3.5040759   -1.9617212   0.15431839   -3.5040759    1.5423547   597111 
 6650000    1.3990976   -3.5040761   -1.9610219   0.15512458   -3.5040761    1.5430541   597148 
 6651000    1.3974625   -3.5036379   -1.9624129   0.15686986   -3.5036379     1.541225   597158 
 6652000    1.3975888   -3.5037157   -1.9623747   0.15649571   -3.5037157     1.541341   597167 
 6653000    1.3962672   -3.5022536   -1.9623959   0.15973062   -3.5022536    1.5398577   597177 
 6654000    1.3981833   -3.5044646   -1.9625325   0.15663137   -3.5044646    1.5419321   597192 
 6655000    1.4006786   -3.5060684   -1.9614388    0.1518842   -3.5060684    1.5446296   597213 
 6656000    1.3985547   -3.5046847   -1.9624179   0.15638229   -3.5046847    1.5422668   597221 
 6657000    1.3985821   -3.5036101   -1.9613673   0.16095865   -3.5036101    1.5422428   597242 
 6658000    1.3998067   -3.5043558   -1.9608118   0.15573872   -3.5043558    1.5435441   597261 
 6659000    1.4001492   -3.5053238   -1.9614434   0.15691439   -3.5053238    1.5438804   597277 
 6660000    1.4008544   -3.5058122   -1.9611827   0.15871593   -3.5058122    1.5446295   597288 
 6661000    1.4001706   -3.5049555   -1.9611135   0.15534132   -3.5049555    1.5438419   597301 
 6662000    1.3990967    -3.504911   -1.9622867   0.15672926    -3.504911    1.5426243   597314 
 6663000    1.4002419   -3.5059238   -1.9621221   0.15538305   -3.5059238    1.5438017   597347 
 6664000    1.3996861   -3.5062583   -1.9631366   0.15522977   -3.5062583    1.5431217   597373 
 6665000    1.3995413   -3.5054739   -1.9625531   0.15568681   -3.5054739    1.5429208   597389 
 6666000    1.4020047   -3.5080291   -1.9624494   0.15212027   -3.5080291    1.5455797   597411 
 6667000    1.4002617   -3.5067715   -1.9631547   0.14411102   -3.5067715    1.5436168   597427 
 6668000    1.4000252   -3.5063604   -1.9630327    0.1543088   -3.5063604    1.5433277   597438 
 6669000    1.3995692   -3.5077643   -1.9649833   0.15056726   -3.5077643    1.5427811   597455 
 6670000    1.3981311   -3.5057401   -1.9645881   0.15304215   -3.5057401     1.541152   597472 
 6671000     1.399811   -3.5080571    -1.965087   0.15023336   -3.5080571    1.5429701   597485 
 6672000    1.3985349   -3.5053465   -1.9638242   0.15061043   -3.5053465    1.5415223   597501 
 6673000    1.3988029   -3.5061039   -1.9643172   0.15149795   -3.5061039    1.5417867   597513 
 6674000    1.3984156   -3.5051511   -1.9638274   0.15146463   -3.5051511    1.5413237   597527 
 6675000    1.4003812   -3.5067636   -1.9632811   0.15941406   -3.5067636    1.5434825   597530 
 6676000    1.4012976   -3.5079955   -1.9635522   0.15727723   -3.5079955    1.5444433   597549 
 6677000    1.4014705   -3.5066759   -1.9620678   0.15157145   -3.5066759    1.5446081   597559 
 6678000    1.3997899   -3.5050971   -1.9623722   0.15612705   -3.5050971    1.5427249   597571 
 6679000    1.4013558   -3.5068042   -1.9623768   0.15048304   -3.5068042    1.5444273   597580 
 6680000    1.4016087   -3.5078938   -1.9632394    0.1548975   -3.5078938    1.5446544   597600 
 6681000     1.400916   -3.5064409   -1.9626222   0.15890723   -3.5064409    1.5438187   597628 
 6682000    1.4000421    -3.505457   -1.9626452   0.15734909    -3.505457    1.5428118   597645 
 6683000    1.4004408   -3.5068469   -1.9636087    0.1597033   -3.5068469    1.5432382   597650 
 6684000    1.4018497   -3.5079541   -1.9631995   0.15652049   -3.5079541    1.5447546   597664 
 6685000    1.4005636   -3.5061448   -1.9628564   0.16226779   -3.5061448    1.5432883   597683 
 6686000    1.4021471   -3.5083842   -1.9633899   0.15554539   -3.5083842    1.5449944   597698 
 6687000    1.4007566   -3.5070292   -1.9636108   0.15771932   -3.5070292    1.5434183   597715 
 6688000    1.4016936   -3.5075752   -1.9631787   0.15520311   -3.5075752    1.5443966   597736 
 6689000    1.3993336   -3.5056608   -1.9638981   0.15812005   -3.5056608    1.5417627   597749 
 6690000    1.4007649   -3.5051865   -1.9618596   0.15864302   -3.5051865    1.5433268   597754 
 6691000     1.402917   -3.5081824   -1.9624922   0.15050017   -3.5081824    1.5456901   597757 
 6692000    1.4032668   -3.5081502   -1.9621367   0.15436289   -3.5081502    1.5460134   597781 
 6693000    1.4009991   -3.5066739   -1.9631847   0.15816626   -3.5066739    1.5434892   597791 
 6694000    1.4019937   -3.5069533     -1.96242   0.15441558   -3.5069533    1.5445333   597811 
 6695000    1.4022434   -3.5069122   -1.9621218   0.15791635   -3.5069122    1.5447903   597818 
 6696000    1.4031112   -3.5080313   -1.9623366   0.15137968   -3.5080313    1.5456947   597838 
 6697000    1.4021412   -3.5067661   -1.9621839   0.15528796   -3.5067661    1.5445822   597855 
 6698000    1.4032767   -3.5076205   -1.9618315   0.15474516   -3.5076205     1.545789   597872 
 6699000    1.3991742   -3.5034451   -1.9622242   0.16236482   -3.5034451    1.5412209   597891 
 6700000    1.4024638   -3.5076061   -1.9628055   0.15380623   -3.5076061    1.5448006   597908 
 6701000    1.4015796   -3.5077649   -1.9639873   0.15417152   -3.5077649    1.5437776   597927 
 6702000    1.4018722   -3.5088821   -1.9648365   0.15151673   -3.5088821    1.5440456   597948 
 6703000    1.3999976    -3.508215    -1.966265   0.15595728    -3.508215      1.54195   597960 
 6704000    1.4006509   -3.5097212    -1.967111   0.14634693   -3.5097212    1.5426101   597983 
 6705000    1.3997761   -3.5071583   -1.9655399   0.15564887   -3.5071583    1.5416184   597994 
 6706000    1.4010887   -3.5076158   -1.9646061   0.15403429   -3.5076158    1.5430098   598015 
 6707000    1.4009427   -3.5077429   -1.9649455   0.16286121   -3.5077429    1.5427974   598035 
 6708000    1.4017607   -3.5086986   -1.9650339   0.15439279   -3.5086986    1.5436647   598048 
 6709000    1.4026902   -3.5101888   -1.9655496    0.1527945   -3.5101888    1.5446392   598067 
 6710000    1.4009947   -3.5082067   -1.9654835    0.1603982   -3.5082067    1.5427231   598086 
 6711000    1.4025147   -3.5096849   -1.9653733   0.14836662   -3.5096849    1.5443117   598119 
 6712000    1.4018327   -3.5100711   -1.9665232   0.15946085   -3.5100711    1.5435479   598124 
 6713000     1.401591   -3.5104017   -1.9671742   0.15560136   -3.5104017    1.5432275   598145 
 6714000    1.3999167   -3.5099236   -1.9685911   0.15726041   -3.5099236    1.5413325   598165 
 6715000    1.4000201   -3.5098952   -1.9684669   0.14931523   -3.5098952    1.5414283   598172 
 6716000    1.3992045   -3.5102398   -1.9697584   0.15253186   -3.5102398    1.5404814   598191 
 6717000     1.398609   -3.5086873   -1.9688718   0.15196063   -3.5086873    1.5398155   598195 
 6718000    1.4006198   -3.5120355   -1.9700372   0.15052754   -3.5120355    1.5419983   598207 
 6719000    1.4007367   -3.5112629   -1.9691797   0.15413625   -3.5112629    1.5420832   598224 
 6720000    1.4007383   -3.5116203   -1.9695637   0.15610892   -3.5116203    1.5420566   598235 
 6721000    1.4010786    -3.513024   -1.9706675   0.15467419    -3.513024    1.5423565   598264 
 6722000    1.4011822    -3.512603   -1.9701865    0.1589432    -3.512603    1.5424164   598285 
 6723000    1.3999484   -3.5115615     -1.97056   0.15386301   -3.5115615    1.5410015   598307 
 6724000    1.4010294   -3.5114866   -1.9693389   0.15733462   -3.5114866    1.5421477   598324 
 6725000    1.4023918   -3.5132113   -1.9695847   0.15107785   -3.5132113    1.5436266   598332 
 6726000    1.4026069   -3.5133094   -1.9694873   0.15269055   -3.5133094    1.5438221   598348 
 6727000    1.4010097   -3.5112837    -1.969248    0.1596179   -3.5112837    1.5420358   598359 
 6728000    1.4026712     -3.51212   -1.9683252   0.15453898     -3.51212    1.5437948   598386 
 6729000    1.4006786   -3.5111671   -1.9695962   0.15618989   -3.5111671    1.5415709   598398 
 6730000    1.4023179   -3.5121522   -1.9688235   0.15060806   -3.5121522    1.5433287   598416 
 6731000    1.4029465   -3.5131297   -1.9691454   0.15344487   -3.5131297    1.5439843   598430 
 6732000    1.4029058   -3.5123408    -1.968476   0.15368923   -3.5123408    1.5438647   598459 
 6733000    1.3993451    -3.509389   -1.9694608    0.1579102    -3.509389    1.5399282   598466 
 6734000    1.4011268   -3.5106531   -1.9688131   0.15444683   -3.5106531      1.54184   598485 
 6735000    1.4027321   -3.5124142   -1.9688413   0.15587019   -3.5124142    1.5435729   598498 
 6736000    1.4024946   -3.5118952   -1.9686326   0.15126369   -3.5118952    1.5432626   598517 
 6737000    1.4025149   -3.5113806   -1.9681344   0.15528887   -3.5113806    1.5432463   598532 
 6738000     1.401386   -3.5104077   -1.9684062   0.15219914   -3.5104077    1.5420015   598533 
 6739000      1.40222   -3.5109609   -1.9680598   0.15840069   -3.5109609    1.5429011   598540 
 6740000    1.4023417   -3.5121445   -1.9691764   0.15345045   -3.5121445    1.5429681   598566 
 6741000    1.4005784   -3.5101334   -1.9691389   0.15559418   -3.5101334    1.5409945   598579 
 6742000    1.4016609   -3.5116748   -1.9694893   0.15555892   -3.5116748    1.5421855   598579 
 6743000    1.4009329   -3.5102629   -1.9689092   0.15269015   -3.5102629    1.5413536   598591 
 6744000    1.4008639   -3.5102434   -1.9690069   0.16016118   -3.5102434    1.5412365   598607 
 6745000    1.4021156   -3.5113829   -1.9688311   0.16042088   -3.5113829    1.5425518   598631 
 6746000    1.4022919   -3.5123917   -1.9696691   0.15976523   -3.5123917    1.5427226   598640 
 6747000    1.4020034   -3.5125485   -1.9701717   0.15925276   -3.5125485    1.5423768   598651 
 6748000     1.401482   -3.5134647   -1.9717001    0.1535203   -3.5134647    1.5417646   598666 
 6749000    1.4010826   -3.5124208   -1.9711111   0.15566925   -3.5124208    1.5413097   598672 
 6750000    1.4037017   -3.5141978   -1.9700377   0.15616816   -3.5141978      1.54416   598684 
 6751000    1.4033469   -3.5143138   -1.9705957   0.15100887   -3.5143138    1.5437182   598704 
 6752000    1.4045539   -3.5143002   -1.9692749   0.15412346   -3.5143002    1.5450253   598712 
 6753000    1.4019995   -3.5124352    -1.970243   0.15738745   -3.5124352    1.5421922   598721 
 6754000    1.4011041   -3.5111743   -1.9700006   0.15200007   -3.5111743    1.5411737   598734 
 6755000    1.4033508   -3.5132135   -1.9696173   0.15681842   -3.5132135    1.5435961   598753 
 6756000     1.403394     -3.51387    -1.970283   0.15618409     -3.51387    1.5435869   598775 
 6757000    1.4023918   -3.5123137    -1.969878   0.15546847   -3.5123137    1.5424357   598794 
 6758000    1.4027886   -3.5138022   -1.9709765   0.15715723   -3.5138022    1.5428257   598812 
 6759000    1.4021618   -3.5124158    -1.970331   0.16094385   -3.5124158    1.5420848   598832 
 6760000    1.4019124   -3.5131124   -1.9713559   0.15810166   -3.5131124    1.5417564   598853 
 6761000    1.4035777   -3.5147976   -1.9712561   0.15486252   -3.5147976    1.5435415   598871 
 6762000    1.4037316   -3.5143498   -1.9706854   0.15252904   -3.5143498    1.5436644   598889 
 6763000    1.4022455   -3.5122088   -1.9702456   0.15640408   -3.5122088    1.5419632   598915 
 6764000    1.4030776    -3.511701   -1.9688667   0.15596693    -3.511701    1.5428344   598932 
 6765000    1.4031965   -3.5122165   -1.9692642   0.16367803   -3.5122165    1.5429523   598937 
 6766000    1.4034445   -3.5138193   -1.9706331   0.15174383   -3.5138193    1.5431862   598952 
 6767000    1.4023006   -3.5129602   -1.9710652   0.15322895   -3.5129602     1.541895   598965 
 6768000    1.4016501   -3.5133962   -1.9722704   0.15282487   -3.5133962    1.5411257   598986 
 6769000    1.4028514   -3.5145926   -1.9721795   0.15445215   -3.5145926    1.5424131   598999 
 6770000    1.4027194   -3.5134815   -1.9712573   0.15606533   -3.5134815    1.5422242   599016 
 6771000    1.4024485   -3.5134028   -1.9715228   0.15835151   -3.5134028    1.5418801   599034 
 6772000    1.4030115    -3.513886   -1.9714565    0.1569996    -3.513886    1.5424295   599061 
 6773000     1.403056   -3.5139851   -1.9715659   0.15708343   -3.5139851    1.5424192   599084 
 6774000    1.4023824   -3.5136609   -1.9720079   0.15382197   -3.5136609     1.541653   599094 
 6775000    1.4039313   -3.5149253    -1.971616   0.15742098   -3.5149253    1.5433093   599112 
 6776000    1.4026738   -3.5132721   -1.9714044   0.15831977   -3.5132721    1.5418677   599135 
 6777000    1.4036461   -3.5151968   -1.9722886   0.15941004   -3.5151968    1.5429082   599146 
 6778000    1.4031761    -3.515335   -1.9729923   0.15630308    -3.515335    1.5423426   599165 
 6779000    1.4034891   -3.5148676   -1.9722349   0.15967453   -3.5148676    1.5426326   599186 
 6780000    1.4016294   -3.5143589   -1.9738141   0.15588495   -3.5143589    1.5405449   599203 
 6781000    1.4041617   -3.5164267   -1.9731218   0.15594193   -3.5164267    1.5433049   599212 
 6782000      1.40236   -3.5158654   -1.9745613   0.15366352   -3.5158654    1.5413041   599220 
 6783000    1.4037064   -3.5159263   -1.9731887   0.14998307   -3.5159263    1.5427376   599238 
 6784000    1.4022012   -3.5145978   -1.9735504   0.16527338   -3.5145978    1.5410473   599252 
 6785000    1.4026538   -3.5162716   -1.9747578   0.16003755   -3.5162716    1.5415139   599264 
 6786000    1.4022389   -3.5162324   -1.9752388    0.1500284   -3.5162324    1.5409936   599289 
 6787000    1.4037071   -3.5178595   -1.9752653   0.15244099   -3.5178595    1.5425942   599294 
 6788000    1.4016652   -3.5152848   -1.9749654   0.15813361   -3.5152848    1.5403194   599306 
 6789000    1.4038926   -3.5168912   -1.9741549   0.15035744   -3.5168912    1.5427363   599318 
 6790000    1.4042495   -3.5165897   -1.9734845   0.15523578   -3.5165897    1.5431053   599327 
 6791000    1.4047358   -3.5182716   -1.9746603   0.15372277   -3.5182716    1.5436114   599338 
 6792000    1.4040065   -3.5168351   -1.9740793   0.15747091   -3.5168351    1.5427559   599359 
 6793000    1.4026755   -3.5149354   -1.9736781   0.16237956   -3.5149354    1.5412573   599373 
 6794000    1.4049409   -3.5180628   -1.9743445    0.1538279   -3.5180628    1.5437182   599384 
 6795000    1.4048166   -3.5179792    -1.974431   0.15649338   -3.5179792    1.5435482   599397 
 6796000    1.4049186   -3.5176768   -1.9740114   0.15636271   -3.5176768    1.5436654   599395 
 6797000    1.4038785   -3.5165267    -1.974053   0.15590358   -3.5165267    1.5424737   599414 
 6798000    1.4042517   -3.5172935   -1.9744406   0.15783073   -3.5172935    1.5428529   599426 
 6799000    1.4032057   -3.5164883   -1.9748437   0.15497211   -3.5164883    1.5416445   599449 
 6800000    1.4038843   -3.5165846   -1.9742049    0.1549988   -3.5165846    1.5423797   599453 
 6801000    1.4031793   -3.5160493   -1.9744646    0.1550153   -3.5160493    1.5415846   599461 
 6802000    1.4018151   -3.5140842   -1.9740369   0.15553787   -3.5140842    1.5400473   599476 
 6803000    1.4036962   -3.5161125   -1.9740475   0.15456523   -3.5161125     1.542065   599495 
 6804000    1.4038411   -3.5160625   -1.9738743   0.15162203   -3.5160625    1.5421882   599509 
 6805000    1.4035028   -3.5150262   -1.9732457   0.15849732   -3.5150262    1.5417805   599523 
 6806000    1.4034285   -3.5160197    -1.974367   0.15245667   -3.5160197    1.5416527   599541 
 6807000    1.4022002   -3.5148654   -1.9745851   0.15813859   -3.5148654    1.5402803   599550 
 6808000    1.4029091   -3.5155788   -1.9745533   0.15689602   -3.5155788    1.5410255   599563 
 6809000     1.404687   -3.5166806   -1.9737433   0.14710321   -3.5166806    1.5429373   599579 
 6810000    1.4046926   -3.5171003   -1.9741698   0.14983643   -3.5171003    1.5429305   599584 
 6811000    1.4026451   -3.5155208   -1.9748545   0.15535552   -3.5155208    1.5406662   599590 
 6812000     1.403252   -3.5177675   -1.9764784   0.15232142   -3.5177675    1.5412891   599607 
 6813000    1.4018676    -3.516205   -1.9764853   0.15568107    -3.516205    1.5397197   599626 
 6814000    1.4021206   -3.5164857   -1.9765395   0.15374973   -3.5164857    1.5399462   599646 
 6815000    1.4031125   -3.5172315   -1.9762267   0.15016634   -3.5172315    1.5410048   599658 
 6816000    1.4019299   -3.5161845   -1.9764862   0.16034761   -3.5161845    1.5396983   599661 
 6817000    1.4027022   -3.5177502   -1.9772269   0.15572417   -3.5177502    1.5405233   599670 
 6818000    1.4019188   -3.5171631   -1.9775181   0.15765933   -3.5171631     1.539645   599677 
 6819000    1.4024166   -3.5169785   -1.9768176   0.15772345   -3.5169785    1.5401609   599689 
 6820000    1.4032661   -3.5194331   -1.9783906   0.15978596   -3.5194331    1.5410425   599709 
 6821000    1.4046482   -3.5208947   -1.9783859   0.15605055   -3.5208947    1.5425088   599729 
 6822000    1.4037223   -3.5203025   -1.9788284   0.15556603   -3.5203025    1.5414741   599736 
 6823000    1.4044207   -3.5208648   -1.9786624   0.15987173   -3.5208648    1.5422024   599751 
 6824000    1.4027739   -3.5190835   -1.9787177   0.15237867   -3.5190835    1.5403658   599762 
 6825000    1.4058165   -3.5219058   -1.9782376   0.15512922   -3.5219058    1.5436682   599777 
 6826000     1.404142   -3.5192361   -1.9774091   0.15850891   -3.5192361     1.541827   599778 
 6827000    1.4035668   -3.5191812   -1.9780218   0.15730134   -3.5191812    1.5411593   599792 
 6828000    1.4026445   -3.5187712   -1.9786913    0.1603301   -3.5187712    1.5400799   599818 
 6829000    1.4035831   -3.5193523   -1.9782932   0.15236341   -3.5193523    1.5410591   599838 
 6830000    1.4025308   -3.5183547   -1.9784639   0.15881646   -3.5183547    1.5398909   599843 
 6831000    1.4036173   -3.5190921   -1.9780391   0.15707308   -3.5190921     1.541053   599855 
 6832000     1.402716   -3.5182321   -1.9781892   0.15824268   -3.5182321    1.5400429   599863 
 6833000    1.4042428   -3.5202784   -1.9785722   0.15691133   -3.5202784    1.5417062   599868 
 6834000    1.4036675   -3.5208831   -1.9798367   0.15125921   -3.5208831    1.5410464   599879 
 6835000    1.4025881   -3.5187896   -1.9789744   0.15378376   -3.5187896    1.5398152   599897 
 6836000    1.4026752   -3.5190479   -1.9791808   0.15447166   -3.5190479    1.5398672   599914 
 6837000     1.403725   -3.5200123   -1.9790157   0.15362534   -3.5200123    1.5409965   599923 
 6838000     1.403421   -3.5185983   -1.9779792   0.15414224   -3.5185983    1.5406191   599940 
 6839000    1.4050571   -3.5200529   -1.9776892   0.15368081   -3.5200529    1.5423637   599960 
 6840000    1.4044131   -3.5199325   -1.9783066    0.1521302   -3.5199325    1.5416259   599972 
 6841000    1.4031639   -3.5182922   -1.9780709    0.1586922   -3.5182922    1.5402213   599985 
 6842000      1.40359   -3.5188175   -1.9781721   0.16189464   -3.5188175    1.5406454   600002 
 6843000    1.4049166   -3.5216293   -1.9795688   0.14718429   -3.5216293    1.5420605   600018 
 6844000    1.4052393   -3.5215296   -1.9791689   0.15371644   -3.5215296    1.5423606   600039 
 6845000    1.4037121   -3.5197534   -1.9790895   0.15783086   -3.5197534    1.5406639   600047 
 6846000    1.4039264   -3.5206546   -1.9797838   0.15676391   -3.5206546    1.5408708   600058 
 6847000    1.4034901   -3.5204741   -1.9801283   0.15759211   -3.5204741    1.5403458   600076 
 6848000    1.4037377   -3.5211063   -1.9804939   0.15082684   -3.5211063    1.5406124   600078 
 6849000    1.4036019   -3.5203467   -1.9799322   0.15588884   -3.5203467    1.5404145   600097 
 6850000    1.4036541   -3.5196945   -1.9792354   0.15417789   -3.5196945    1.5404591   600102 
 6851000    1.4046293   -3.5207609   -1.9792521   0.15946111   -3.5207609    1.5415088   600110 
 6852000    1.4034451   -3.5201878   -1.9800325   0.15861203   -3.5201878    1.5401553   600131 
 6853000    1.4033794   -3.5205305   -1.9804832   0.15303253   -3.5205305    1.5400473   600145 
 6854000    1.4055932   -3.5217923   -1.9793593   0.15891698   -3.5217923     1.542433   600162 
 6855000     1.403301   -3.5198239   -1.9799217    0.1581939   -3.5198239    1.5399022   600168 
 6856000    1.4045144   -3.5208022   -1.9796019   0.15862649   -3.5208022    1.5412003   600181 
 6857000    1.4041014   -3.5206447   -1.9799412   0.15603639   -3.5206447    1.5407035   600198 
 6858000    1.4038794   -3.5205812   -1.9801624   0.15841755   -3.5205812    1.5404188   600214 
 6859000    1.4026374   -3.5192618    -1.980252   0.15642167   -3.5192618    1.5390098   600232 
 6860000    1.4029064   -3.5200441   -1.9807571   0.15921006   -3.5200441    1.5392871   600239 
 6861000    1.4030272   -3.5198997   -1.9805262   0.15968774   -3.5198997    1.5393734   600257 
 6862000     1.403089   -3.5196099   -1.9802122   0.15609707   -3.5196099    1.5393977   600274 
 6863000     1.404797   -3.5214694   -1.9802235   0.15225713   -3.5214694    1.5412459   600284 
 6864000    1.4046217   -3.5217066    -1.980707   0.15381143   -3.5217066    1.5409997   600305 
 6865000    1.4034755   -3.5210172    -1.981293   0.15339349   -3.5210172    1.5397242   600312 
 6866000    1.4035058   -3.5206313     -1.98092   0.15679636   -3.5206313    1.5397113   600330 
 6867000    1.4048053   -3.5222458   -1.9811371   0.15901967   -3.5222458    1.5411087   600341 
 6868000    1.4040868   -3.5223197   -1.9820043   0.15922799   -3.5223197    1.5403154   600343 
 6869000     1.403957   -3.5226576   -1.9825104   0.15834429   -3.5226576    1.5401472   600353 
 6870000    1.4034733    -3.522092   -1.9825164   0.15439775    -3.522092    1.5395756   600369 
 6871000    1.4040149   -3.5212469     -1.98109   0.15626588   -3.5212469     1.540157   600374 
 6872000    1.4048725   -3.5230088   -1.9819624   0.14945144   -3.5230088    1.5410464   600394 
 6873000    1.4041094   -3.5217066   -1.9815179    0.1553916   -3.5217066    1.5401888   600402 
 6874000    1.4050164   -3.5217733   -1.9806461   0.16525046   -3.5217733    1.5411272   600424 
 6875000    1.4058952   -3.5222792   -1.9802369   0.15945983   -3.5222792    1.5420424   600443 
 6876000    1.4063345   -3.5239076   -1.9814168   0.15805351   -3.5239076    1.5424907   600456 
 6877000    1.4048945   -3.5234463   -1.9825837   0.15873795   -3.5234463    1.5408626   600475 
 6878000    1.4058684   -3.5254597   -1.9835675   0.15974259   -3.5254597    1.5418923   600490 
 6879000    1.4050584   -3.5239822   -1.9830117    0.1539715   -3.5239822    1.5409705   600503 
 6880000    1.4047503    -3.522619   -1.9820146   0.16540603    -3.522619    1.5406044   600514 
 6881000    1.4055793   -3.5240384   -1.9825531   0.15581869   -3.5240384    1.5414854   600525 
 6882000    1.4043306   -3.5219301    -1.981845   0.15613571   -3.5219301    1.5400851   600537 
 6883000    1.4053791   -3.5238479    -1.982672   0.15600624   -3.5238479    1.5411759   600560 
 6884000    1.4061794   -3.5240193   -1.9819811   0.15360983   -3.5240193    1.5420382   600566 
 6885000    1.4058237   -3.5230727   -1.9814452   0.15405726   -3.5230727    1.5416275   600574 
 6886000    1.4056534   -3.5236399   -1.9822145   0.15720601   -3.5236399    1.5414254   600580 
 6887000    1.4065601   -3.5232288   -1.9808502   0.15269282   -3.5232288    1.5423786   600596 
 6888000    1.4051148   -3.5224276   -1.9816647   0.16083182   -3.5224276    1.5407629   600608 
 6889000    1.4052595   -3.5228017   -1.9818981    0.1597927   -3.5228017    1.5409036   600615 
 6890000    1.4068838    -3.524687   -1.9820408   0.15742591    -3.524687    1.5426463   600630 
 6891000    1.4054766    -3.521769   -1.9807068   0.16107455    -3.521769    1.5410622   600646 
 6892000    1.4068876   -3.5238491   -1.9812731   0.15977573   -3.5238491    1.5425759   600659 
 6893000    1.4063005   -3.5230022   -1.9811009   0.15390473   -3.5230022    1.5419014   600671 
 6894000    1.4049446   -3.5218729   -1.9814812   0.16087104   -3.5218729    1.5403917   600680 
 6895000    1.4062954   -3.5239363    -1.982097   0.16069508   -3.5239363    1.5418393   600693 
 6896000    1.4051503   -3.5231664   -1.9826031   0.15858327   -3.5231664    1.5405634   600701 
 6897000    1.4056563   -3.5230454   -1.9819684   0.15732171   -3.5230454     1.541077   600717 
 6898000    1.4046682   -3.5219246   -1.9819488   0.15640957   -3.5219246    1.5399758   600724 
 6899000    1.4056102   -3.5234455   -1.9824601   0.16039775   -3.5234455    1.5409854   600733 
 6900000    1.4056599   -3.5230504   -1.9820617   0.15579839   -3.5230504    1.5409886   600753 
 6901000    1.4066499   -3.5246435   -1.9826029   0.15710103   -3.5246435    1.5420405   600766 
 6902000    1.4052119   -3.5225017   -1.9820478   0.15791597   -3.5225017    1.5404539   600770 
 6903000    1.4063766   -3.5239071   -1.9822226   0.16079606   -3.5239071    1.5416845   600788 
 6904000    1.4062779   -3.5234701   -1.9819015   0.15639848   -3.5234701    1.5415687   600791 
 6905000    1.4051882   -3.5217597   -1.9814266    0.1591764   -3.5217597    1.5403331   600807 
 6906000    1.4044663   -3.5212297    -1.981711   0.16141023   -3.5212297    1.5395187   600816 
 6907000    1.4061701   -3.5239921   -1.9826443   0.16249812   -3.5239921    1.5413479   600831 
 6908000    1.4048818   -3.5225151   -1.9825845   0.16169274   -3.5225151    1.5399306   600833 
 6909000    1.4068842   -3.5234348   -1.9813401   0.15984605   -3.5234348    1.5420946   600845 
 6910000    1.4078816   -3.5257209   -1.9825535   0.15403782   -3.5257209    1.5431674   600853 
 6911000    1.4079035   -3.5252374   -1.9820794   0.15964195   -3.5252374     1.543158   600866 
 6912000    1.4069826   -3.5241192   -1.9820219    0.1617965   -3.5241192    1.5420972   600886 
 6913000    1.4062814    -3.523038   -1.9817478   0.15868995    -3.523038    1.5412903   600901 
 6914000    1.4069779    -3.524365   -1.9823499   0.15865562    -3.524365    1.5420151   600916 
 6915000    1.4064529   -3.5240956   -1.9826942   0.16145405   -3.5240956    1.5414013   600931 
 6916000    1.4066581   -3.5238531    -1.982268    0.1604181   -3.5238531    1.5415852   600947 
 6917000    1.4076018   -3.5247744    -1.982173   0.16034598   -3.5247744    1.5426014   600954 
 6918000    1.4068021   -3.5241983   -1.9825091   0.16413261   -3.5241983    1.5416891   600968 
 6919000    1.4067108   -3.5236818    -1.982144   0.16426891   -3.5236818    1.5415377   600988 
 6920000    1.4069776    -3.524782    -1.982975   0.15760994    -3.524782     1.541807   600997 
 6921000      1.40591   -3.5234907   -1.9828793   0.15959887   -3.5234907    1.5406115   601007 
 6922000    1.4072359   -3.5249705   -1.9829471   0.15861483   -3.5249705    1.5420234   601023 
 6923000    1.4073761   -3.5251379   -1.9830097   0.16003226   -3.5251379    1.5421282   601042 
 6924000    1.4063038   -3.5238872   -1.9829417   0.16343487   -3.5238872    1.5409455   601045 
 6925000    1.4061641   -3.5233937   -1.9826217   0.16569398   -3.5233937     1.540772   601053 
 6926000    1.4053849   -3.5239127   -1.9840432   0.15359828   -3.5239127    1.5398695   601072 
 6927000    1.4070575   -3.5257218   -1.9840454   0.14987951   -3.5257218    1.5416765   601082 
 6928000    1.4043224   -3.5225445    -1.983898   0.16456951   -3.5225445    1.5386465   601095 
 6929000    1.4065562   -3.5246452   -1.9835795    0.1570443   -3.5246452    1.5410657   601106 
 6930000    1.4048831   -3.5237861   -1.9845919   0.15902871   -3.5237861    1.5391942   601121 
 6931000    1.4061969   -3.5243315   -1.9837209   0.15903554   -3.5243315    1.5406106   601130 
 6932000    1.4059331   -3.5243684   -1.9840648   0.15837811   -3.5243684    1.5403036   601137 
 6933000    1.4062773   -3.5249345    -1.984259   0.16003279   -3.5249345    1.5406755   601139 
 6934000    1.4070094   -3.5249088    -1.983485   0.16279635   -3.5249088    1.5414238   601160 
 6935000    1.4079359   -3.5269304   -1.9845353   0.15430888   -3.5269304    1.5423951   601177 
 6936000    1.4079793   -3.5268943   -1.9844927   0.15601347   -3.5268943    1.5424016   601193 
 6937000    1.4077674   -3.5266534   -1.9845351    0.1537846   -3.5266534    1.5421182   601213 
 6938000    1.4073814    -3.526311   -1.9846695   0.16295291    -3.526311    1.5416415   601234 
 6939000    1.4081874   -3.5270403   -1.9845595   0.15918214   -3.5270403    1.5424808   601251 
 6940000    1.4070771   -3.5269356   -1.9856914   0.15688603   -3.5269356    1.5412442   601259 
 6941000    1.4078851   -3.5275664   -1.9854756   0.15517076   -3.5275664    1.5420907   601274 
 6942000    1.4065793   -3.5266147    -1.986003   0.16034555   -3.5266147    1.5406117   601293 
 6943000    1.4055972   -3.5266095    -1.987117   0.15910258   -3.5266095    1.5394925   601310 
 6944000    1.4053598   -3.5264591   -1.9872446    0.1602571   -3.5264591    1.5392146   601317 
 6945000    1.4057708   -3.5267251   -1.9870962   0.15568748   -3.5267251    1.5396289   601331 
 6946000    1.4059759   -3.5268563   -1.9870642    0.1582634   -3.5268563    1.5397921   601355 
 6947000    1.4056241   -3.5270778   -1.9877221   0.15949759   -3.5270778    1.5393556   601375 
 6948000      1.40629   -3.5264727   -1.9864186   0.16403503   -3.5264727    1.5400541   601387 
 6949000    1.4076994   -3.5299536   -1.9883714   0.15511958   -3.5299536    1.5415822   601393 
 6950000    1.4057204   -3.5269429   -1.9875561    0.1588782   -3.5269429    1.5393869   601404 
 6951000     1.406969   -3.5274963    -1.986778   0.15670278   -3.5274963    1.5407183   601418 
 6952000    1.4059594   -3.5274198   -1.9878583    0.1539798   -3.5274198    1.5395615   601438 
 6953000    1.4052286   -3.5252946   -1.9865538   0.17090955   -3.5252946    1.5387408   601446 
 6954000    1.4065418   -3.5276319   -1.9874865   0.15253932   -3.5276319    1.5401455   601459 
 6955000    1.4062526   -3.5270149   -1.9872244   0.15806061   -3.5270149    1.5397905   601474 
 6956000    1.4072303   -3.5278806   -1.9870298   0.15320623   -3.5278806    1.5408507   601478 
 6957000    1.4085742    -3.528276   -1.9859949   0.15753355    -3.528276    1.5422812   601494 
 6958000    1.4059892   -3.5257911   -1.9863889   0.15968892   -3.5257911    1.5394022   601513 
 6959000    1.4071017   -3.5258602    -1.985245   0.16208293   -3.5258602    1.5406152   601515 
 6960000    1.4075835   -3.5257186   -1.9846297   0.16722726   -3.5257186    1.5410889   601536 
 6961000    1.4071686   -3.5254565   -1.9848911   0.16691046   -3.5254565    1.5405654   601563 
 6962000    1.4082252   -3.5273734   -1.9856896   0.16596044   -3.5273734    1.5416838   601578 
 6963000    1.4076548   -3.5273369   -1.9862954   0.15685063   -3.5273369    1.5410414   601585 
 6964000    1.4077444   -3.5279422   -1.9868104    0.1611224   -3.5279422    1.5411317   601588 
 6965000    1.4085967    -3.526805   -1.9848016   0.16368641    -3.526805    1.5420034   601612 
 6966000    1.4090365   -3.5270191   -1.9845754   0.16279398   -3.5270191    1.5424437   601628 
 6967000    1.4095908   -3.5276847    -1.984683   0.15853538   -3.5276847    1.5430018   601647 
 6968000     1.408713   -3.5272632   -1.9852632     0.163424   -3.5272632        1.542   601663 
 6969000    1.4078478   -3.5266878   -1.9856836   0.16025659   -3.5266878    1.5410042   601682 
 6970000     1.406614    -3.526702   -1.9870969   0.16748293    -3.526702    1.5396051   601701 
 6971000    1.4089937   -3.5296469   -1.9874781    0.1555039   -3.5296469    1.5421687   601717 
 6972000     1.407199    -3.529392   -1.9892158   0.15497303    -3.529392    1.5401762   601728 
 6973000    1.4081739   -3.5295236   -1.9883341   0.15573377   -3.5295236    1.5411896   601749 
 6974000    1.4082637   -3.5287378   -1.9874679   0.15836026   -3.5287378    1.5412699   601756 
 6975000    1.4071396   -3.5271354   -1.9871393   0.15706689   -3.5271354    1.5399961   601773 
 6976000    1.4078329   -3.5287333   -1.9879963   0.16029492   -3.5287333     1.540737   601780 
 6977000    1.4069006   -3.5290101   -1.9893268    0.1600066   -3.5290101    1.5396833   601793 
 6978000    1.4067447    -3.529691   -1.9902295   0.16058872    -3.529691    1.5394616   601813 
 6979000    1.4080812    -3.531596   -1.9907102   0.15174859    -3.531596    1.5408857   601828 
 6980000    1.4071868   -3.5303829   -1.9905578   0.15620624   -3.5303829    1.5398251   601860 
 6981000    1.4066723   -3.5297561   -1.9905272   0.15678322   -3.5297561    1.5392289   601873 
 6982000    1.4074993   -3.5303831    -1.990303   0.16246634   -3.5303831    1.5400801   601894 
 6983000    1.4063737   -3.5297291   -1.9909113   0.16011801   -3.5297291    1.5388178   601906 
 6984000    1.4093676   -3.5330559   -1.9909981   0.15351954   -3.5330559    1.5420577   601920 
 6985000    1.4071134   -3.5312255     -1.99167   0.15758762   -3.5312255    1.5395555   601934 
 6986000    1.4060153   -3.5300708   -1.9917346   0.15853589   -3.5300708    1.5383362   601941 
 6987000    1.4073224   -3.5307948   -1.9910745   0.15576969   -3.5307948    1.5397203   601959 
 6988000    1.4063369   -3.5301079   -1.9914915   0.15506763   -3.5301079    1.5386164   601969 
 6989000    1.4062422   -3.5306613   -1.9921766   0.15603242   -3.5306613    1.5384847   601980 
 6990000    1.4070215    -3.531879   -1.9925724    0.1575238    -3.531879    1.5393067   601992 
 6991000    1.4075024   -3.5314346    -1.991607   0.15923368   -3.5314346    1.5398276   601994 
 6992000    1.4053563   -3.5302516   -1.9927922   0.15605261   -3.5302516    1.5374594   602002 
 6993000    1.4076734   -3.5318204   -1.9918645   0.15541934   -3.5318204    1.5399559   602017 
 6994000    1.4064237    -3.531269   -1.9927313   0.15334662    -3.531269    1.5385377   602037 
 6995000    1.4069938   -3.5318299   -1.9927121   0.15066534   -3.5318299    1.5391178   602054 
 6996000    1.4078174   -3.5313233   -1.9913404   0.16534626   -3.5313233    1.5399829   602068 
 6997000    1.4064914   -3.5310173   -1.9925512   0.16049335   -3.5310173     1.538466   602094 
 6998000    1.4059016    -3.530981   -1.9931857   0.15948921    -3.530981    1.5377954   602104 
 6999000    1.4071858   -3.5323541    -1.993172   0.15877997   -3.5323541    1.5391821   602111 
 7000000    1.4075698   -3.5321947   -1.9925926   0.15513108   -3.5321947    1.5396021   602111 
 7001000    1.4066271   -3.5309672   -1.9924294   0.15425965   -3.5309672    1.5385378   602124 
 7002000     1.407043   -3.5317853   -1.9928463   0.15717251   -3.5317853     1.538939   602145 
 7003000    1.4061827   -3.5306441   -1.9926716   0.15572422   -3.5306441    1.5379725   602155 
 7004000    1.4074551   -3.5315141   -1.9921422   0.15593258   -3.5315141    1.5393719   602152 
 7005000     1.406618   -3.5305652   -1.9921421   0.16122655   -3.5305652    1.5384231   602165 
 7006000    1.4083372    -3.532226   -1.9919559   0.16035748    -3.532226    1.5402701   602178 
 7007000    1.4064436     -3.53039   -1.9922062   0.15637693     -3.53039    1.5381838   602184 
 7008000    1.4090068   -3.5338593   -1.9929131   0.15655685   -3.5338593    1.5409461   602200 
 7009000    1.4087152   -3.5333031   -1.9926963   0.15495212   -3.5333031    1.5406068   602208 
 7010000    1.4085802   -3.5326436   -1.9922433   0.15494619   -3.5326436    1.5404004   602231 
 7011000     1.408355   -3.5328999   -1.9928071   0.16160544   -3.5328999    1.5400927   602255 
 7012000    1.4078089   -3.5326143   -1.9931597   0.16447161   -3.5326143    1.5394546   602271 
 7013000    1.4071408   -3.5311171   -1.9924518   0.15546255   -3.5311171    1.5386652   602294 
 7014000    1.4078052    -3.532853   -1.9934944    0.1513048    -3.532853    1.5393586   602307 
 7015000    1.4075276   -3.5320775   -1.9930456   0.16237857   -3.5320775     1.539032   602316 
 7016000    1.4084766   -3.5332539   -1.9932277   0.15946584   -3.5332539    1.5400262   602333 
 7017000    1.4071324   -3.5322801   -1.9937722   0.15819585   -3.5322801    1.5385079   602352 
 7018000    1.4077734   -3.5339896   -1.9947911   0.15679596   -3.5339896    1.5391985   602356 
 7019000    1.4086036   -3.5341997   -1.9941139   0.15612654   -3.5341997    1.5400859   602364 
 7020000    1.4078496   -3.5337418    -1.994511   0.16115181   -3.5337418    1.5392308   602376 
 7021000    1.4054798   -3.5325217   -1.9959226    0.1550494   -3.5325217     1.536599   602392 
 7022000    1.4079884   -3.5349076   -1.9955736    0.1552572   -3.5349076    1.5393339   602395 
 7023000    1.4085984   -3.5347469   -1.9947972   0.15566276   -3.5347469    1.5399497   602415 
 7024000    1.4071705   -3.5341088   -1.9957508   0.15824844   -3.5341088     1.538358   602427 
 7025000    1.4082151   -3.5354313   -1.9959594   0.15249307   -3.5354313    1.5394719   602438 
 7026000    1.4077899   -3.5351613   -1.9961823   0.15545736   -3.5351613     1.538979   602449 
 7027000    1.4072841   -3.5356175   -1.9972043   0.15435961   -3.5356175    1.5384133   602454 
 7028000    1.4051875   -3.5337036   -1.9976204   0.15777607   -3.5337036    1.5360831   602469 
 7029000    1.4060792   -3.5346282    -1.997624   0.15269165   -3.5346282    1.5370042   602490 
 7030000    1.4049616   -3.5337218    -1.997985   0.16317352   -3.5337218    1.5357367   602508 
 7031000    1.4063908   -3.5346706   -1.9973946   0.15396293   -3.5346706     1.537276   602517 
 7032000     1.405597   -3.5335984   -1.9972079   0.16358262   -3.5335984    1.5363905   602524 
 7033000    1.4073012    -3.534125   -1.9958973    0.1616722    -3.534125    1.5382277   602534 
 7034000    1.4079194   -3.5346195   -1.9957646   0.15939438   -3.5346195    1.5388549   602553 
 7035000    1.4072189   -3.5345148   -1.9964664   0.15270834   -3.5345148    1.5380485   602569 
 7036000    1.4075813   -3.5341316   -1.9957126    0.1645115   -3.5341316     1.538419   602579 
 7037000    1.4084075   -3.5355471   -1.9962634    0.1572356   -3.5355471    1.5392837   602594 
 7038000    1.4088522   -3.5357914   -1.9960421   0.15613219   -3.5357914    1.5397492   602602 
 7039000    1.4080822   -3.5344386   -1.9955693   0.16112599   -3.5344386    1.5388693   602617 
 7040000    1.4084129    -3.534749   -1.9955259   0.15987453    -3.534749    1.5392231   602620 
 7041000    1.4078656   -3.5354444   -1.9968833   0.16290106   -3.5354444    1.5385612   602645 
 7042000     1.406152   -3.5344696   -1.9978016   0.15798693   -3.5344696    1.5366681   602653 
 7043000    1.4063273   -3.5350927   -1.9982431   0.15268279   -3.5350927    1.5368495   602657 
 7044000    1.4053733   -3.5331236   -1.9973701   0.16155255   -3.5331236    1.5357534   602678 
 7045000    1.4075174   -3.5356299   -1.9975615   0.15541493   -3.5356299    1.5380683   602689 
 7046000    1.4067616   -3.5342472   -1.9970787   0.16153231   -3.5342472    1.5371685   602718 
 7047000    1.4064568   -3.5344359   -1.9976311    0.1593835   -3.5344359    1.5368048   602730 
 7048000    1.4061055   -3.5352234   -1.9988304   0.15811272   -3.5352234     1.536393   602741 
 7049000    1.4072433   -3.5357245   -1.9981214   0.16230654   -3.5357245     1.537603   602754 
 7050000     1.407812   -3.5360533   -1.9978851   0.15805243   -3.5360533    1.5381682   602776 
 7051000    1.4062947   -3.5346873   -1.9981922   0.16277179   -3.5346873    1.5364951   602782 
 7052000    1.4072967   -3.5347962   -1.9972522   0.16112923   -3.5347962     1.537544   602800 
 7053000    1.4093408   -3.5377862   -1.9980523   0.15704545   -3.5377862    1.5397339   602817 
 7054000    1.4088703   -3.5364488   -1.9972366     0.158425   -3.5364488    1.5392121   602820 
 7055000     1.408911     -3.53742   -1.9981786    0.1579314     -3.53742    1.5392414   602826 
 7056000    1.4089579   -3.5373682   -1.9981191   0.15102877   -3.5373682    1.5392491   602843 
 7057000    1.4089172   -3.5366519   -1.9974803   0.15909693   -3.5366519    1.5391715   602856 
 7058000     1.408209   -3.5354412   -1.9970919    0.1565832   -3.5354412    1.5383493   602875 
 7059000    1.4087173   -3.5354803   -1.9966242   0.15611992   -3.5354803    1.5388562   602894 
 7060000    1.4102653   -3.5362824   -1.9957608   0.15960749   -3.5362824    1.5405216   602904 
 7061000    1.4088625   -3.5350205   -1.9960313   0.15276342   -3.5350205    1.5389892   602904 
 7062000    1.4086025   -3.5351613   -1.9964765   0.15620198   -3.5351613    1.5386847   602912 
 7063000    1.4105951   -3.5361443   -1.9953213   0.16119724   -3.5361443     1.540823   602927 
 7064000    1.4080012   -3.5333552   -1.9953833   0.16084333   -3.5333552    1.5379718   602934 
 7065000    1.4106947   -3.5353713    -1.994493   0.16034323   -3.5353713    1.5408782   602948 
 7066000    1.4094173   -3.5347846   -1.9953272   0.16550713   -3.5347846    1.5394574   602958 
 7067000    1.4112609   -3.5366484    -1.995208   0.15626812   -3.5366484    1.5414404   602970 
 7068000    1.4092289   -3.5357203   -1.9965249   0.16366475   -3.5357203    1.5391954   602980 
 7069000    1.4080316   -3.5341642   -1.9962969   0.16282358   -3.5341642    1.5378673   602988 
 7070000    1.4085208   -3.5338442   -1.9954988   0.16175031   -3.5338442    1.5383455   603010 
 7071000    1.4107305   -3.5359504   -1.9952324   0.15666795   -3.5359504     1.540718   603026 
 7072000    1.4092539   -3.5346695   -1.9955745   0.16813473   -3.5346695    1.5390951   603030 
 7073000    1.4082879   -3.5342646   -1.9962653   0.16700705   -3.5342646    1.5379993   603046 
 7074000    1.4096021   -3.5353794   -1.9959959   0.16021346   -3.5353794    1.5393835   603066 
 7075000    1.4111182   -3.5363164   -1.9953309   0.16159403   -3.5363164    1.5409855   603087 
 7076000    1.4111646   -3.5354661   -1.9944606   0.16141686   -3.5354661    1.5410055   603099 
 7077000    1.4108828   -3.5359723   -1.9953128   0.16570174   -3.5359723    1.5406595   603114 
 7078000    1.4139514   -3.5391343   -1.9951469   0.15938382   -3.5391343    1.5439873   603123 
 7079000    1.4126644   -3.5370922   -1.9945512   0.16408151   -3.5370922     1.542541   603139 
 7080000    1.4118398   -3.5363139   -1.9947065   0.16242288   -3.5363139    1.5416073   603152 
 7081000    1.4131137   -3.5375754   -1.9946179   0.15954712   -3.5375754    1.5429574   603168 
 7082000    1.4125948   -3.5360111   -1.9936561   0.16850211   -3.5360111     1.542355   603182 
 7083000    1.4122648   -3.5368904   -1.9949365   0.16255765   -3.5368904    1.5419539   603198 
 7084000    1.4107123   -3.5357295   -1.9954885   0.16464129   -3.5357295    1.5402409   603205 
 7085000    1.4111691    -3.535684   -1.9949826   0.16895466    -3.535684    1.5407013   603220 
 7086000    1.4118092   -3.5379993   -1.9966476   0.16073621   -3.5379993    1.5413517   603239 
 7087000    1.4113761   -3.5362854   -1.9954423   0.16246522   -3.5362854    1.5408431   603253 
 7088000    1.4093787    -3.534786   -1.9961568   0.16374499    -3.534786    1.5386293   603266 
 7089000    1.4125887   -3.5385869    -1.996507   0.15388569   -3.5385869    1.5420799   603287 
 7090000    1.4105441   -3.5362955   -1.9964604   0.16318943   -3.5362955    1.5398351   603292 
 7091000    1.4114707   -3.5370365   -1.9962384   0.16422024   -3.5370365    1.5407981   603311 
 7092000     1.412335   -3.5374502   -1.9957366   0.16385312   -3.5374502    1.5417136   603322 
 7093000    1.4135753   -3.5386677   -1.9956156   0.16061623   -3.5386677    1.5430521   603328 
 7094000    1.4119521   -3.5367252   -1.9955088   0.16740776   -3.5367252    1.5412164   603353 
 7095000    1.4120571   -3.5374967   -1.9962014   0.16071002   -3.5374967    1.5412952   603367 
 7096000    1.4135569   -3.5392234   -1.9963345   0.16314367   -3.5392234    1.5428889   603384 
 7097000    1.4125237   -3.5380364   -1.9962753   0.16501765   -3.5380364    1.5417611   603384 
 7098000    1.4140938    -3.539333   -1.9958761   0.16131608    -3.539333    1.5434569   603391 
 7099000    1.4123289    -3.537275   -1.9957827    0.1646529    -3.537275    1.5414923   603406 
 7100000    1.4118285   -3.5375583   -1.9966326   0.16582483   -3.5375583    1.5409257   603414 
 7101000    1.4126146   -3.5379074   -1.9961493    0.1636378   -3.5379074    1.5417582   603424 
 7102000     1.410633   -3.5367851   -1.9972204   0.16524292   -3.5367851    1.5395647   603436 
 7103000    1.4114602   -3.5364457   -1.9960471    0.1687476   -3.5364457    1.5403986   603463 
 7104000    1.4115134   -3.5373656   -1.9969497    0.1655015   -3.5373656    1.5404159   603479 
 7105000    1.4122502   -3.5381884   -1.9970119   0.16321379   -3.5381884    1.5411766   603496 
 7106000    1.4121044   -3.5381352   -1.9971459   0.16304103   -3.5381352    1.5409893   603507 
 7107000    1.4137747   -3.5391544     -1.99635   0.16162809   -3.5391544    1.5428044   603510 
 7108000    1.4156286   -3.5403902   -1.9955857   0.16053699   -3.5403902    1.5448045   603519 
 7109000    1.4120661   -3.5366674   -1.9958067   0.17101237   -3.5366674    1.5408607   603541 
 7110000    1.4136765   -3.5385389   -1.9959593   0.16825762   -3.5385389    1.5425796   603556 
 7111000     1.412386   -3.5379703    -1.996837   0.16365332   -3.5379703    1.5411332   603571 
 7112000    1.4125692   -3.5381306   -1.9968358   0.16168712   -3.5381306    1.5412948   603586 
 7113000    1.4115137   -3.5365468   -1.9964317   0.16849135   -3.5365468    1.5401151   603597 
 7114000    1.4118668   -3.5379776   -1.9975411   0.16122834   -3.5379776    1.5404365   603622 
 7115000    1.4111014   -3.5377956   -1.9982274   0.15730218   -3.5377956    1.5395682   603635 
 7116000    1.4110227   -3.5382404    -1.998786   0.15867198   -3.5382404    1.5394544   603646 
 7117000    1.4106952   -3.5376722    -1.998616   0.16466213   -3.5376722    1.5390563   603662 
 7118000    1.4115237   -3.5379971   -1.9980676   0.16130701   -3.5379971    1.5399295   603674 
 7119000     1.413493   -3.5397012   -1.9976438   0.15244648   -3.5397012    1.5420574   603682 
 7120000    1.4131445    -3.539431   -1.9977818   0.16247406    -3.539431    1.5416492   603693 
 7121000    1.4109791   -3.5371504    -1.997894   0.16590131   -3.5371504    1.5392563   603705 
 7122000    1.4135615   -3.5391727   -1.9971631   0.16543093   -3.5391727    1.5420096   603730 
 7123000    1.4123415     -3.53852   -1.9978643   0.16306469     -3.53852    1.5406557   603739 
 7124000    1.4134479   -3.5397124   -1.9979034   0.16104146   -3.5397124     1.541809   603760 
 7125000    1.4129726   -3.5396183    -1.998361    0.1557972   -3.5396183    1.5412574   603773 
 7126000    1.4131087    -3.539701   -1.9983181   0.15671394    -3.539701    1.5413829   603782 
 7127000    1.4109644    -3.539627   -2.0006239   0.15906686    -3.539627    1.5390031   603798 
 7128000    1.4107427   -3.5403111   -2.0015676   0.16047453   -3.5403111    1.5387435   603805 
 7129000    1.4121114    -3.541313   -2.0011047   0.15915604    -3.541313    1.5402083   603816 
 7130000    1.4105518   -3.5406656   -2.0021915   0.15683381   -3.5406656    1.5384741   603829 
 7131000    1.4118636    -3.540925   -2.0010686   0.16143621    -3.540925    1.5398565   603848 
 7132000     1.411733   -3.5412873   -2.0016089   0.15862958   -3.5412873    1.5396784   603862 
 7133000    1.4115995   -3.5417046   -2.0021922   0.16009619   -3.5417046    1.5395123   603870 
 7134000    1.4118799   -3.5415992   -2.0018167    0.1565357   -3.5415992    1.5397824   603884 
 7135000    1.4127004   -3.5413861   -2.0007317   0.16272445   -3.5413861    1.5406544   603893 
 7136000    1.4121597    -3.540771    -2.000737   0.16337155    -3.540771    1.5400341   603905 
 7137000    1.4134929    -3.541449   -2.0000095   0.16439689    -3.541449    1.5414395   603924 
 7138000    1.4145668   -3.5415657   -1.9990012   0.16710722   -3.5415657    1.5425646   603942 
 7139000    1.4131048   -3.5408917   -1.9999597   0.16853584   -3.5408917     1.540932   603957 
 7140000    1.4135135   -3.5398512   -1.9984964   0.16641843   -3.5398512    1.5413548   603966 
 7141000    1.4138377   -3.5403494   -1.9986819   0.16737762   -3.5403494    1.5416674   603982 
 7142000     1.412031   -3.5393342   -1.9996725   0.17025472   -3.5393342    1.5396617   603996 
 7143000    1.4127652   -3.5393811   -1.9989418   0.16285964   -3.5393811    1.5404393   604005 
 7144000    1.4137366   -3.5406394   -1.9991869   0.16407811   -3.5406394    1.5414525   604023 
 7145000    1.4118666   -3.5384366   -1.9990459   0.16625685   -3.5384366    1.5393907   604032 
 7146000    1.4119452   -3.5386304   -1.9991821   0.16486578   -3.5386304    1.5394483   604043 
 7147000    1.4130196   -3.5392313   -1.9986524   0.16492189   -3.5392313    1.5405789   604059 
 7148000    1.4137455   -3.5394728   -1.9981968   0.16925796   -3.5394728     1.541276   604096 
 7149000    1.4140206   -3.5402121   -1.9986644   0.16132763   -3.5402121    1.5415478   604107 
 7150000    1.4129791   -3.5382777   -1.9978933   0.16750293   -3.5382777    1.5403844   604118 
 7151000    1.4144618   -3.5397835   -1.9978568   0.16144942   -3.5397835    1.5419267   604147 
 7152000    1.4150942    -3.539845   -1.9972545   0.16780003    -3.539845    1.5425906   604157 
 7153000    1.4146414   -3.5396805    -1.997604   0.16829044   -3.5396805    1.5420765   604165 
 7154000    1.4163857   -3.5405841   -1.9966189   0.16873823   -3.5405841    1.5439652   604170 
 7155000    1.4154258   -3.5401093   -1.9972212   0.16474233   -3.5401093    1.5428882   604182 
 7156000    1.4162174   -3.5410672   -1.9973825   0.16541529   -3.5410672    1.5436847   604208 
 7157000    1.4157474   -3.5419877   -1.9988689   0.16527492   -3.5419877    1.5431187   604229 
 7158000    1.4151357   -3.5412821   -1.9988658   0.17268693   -3.5412821    1.5424163   604243 
 7159000    1.4151576   -3.5414881   -1.9990709   0.16120895   -3.5414881    1.5424172   604252 
 7160000    1.4134775   -3.5404731   -1.9999279    0.1628831   -3.5404731    1.5405452   604268 
 7161000    1.4122892   -3.5403219    -2.001105   0.16493726   -3.5403219    1.5392169   604281 
 7162000    1.4143504   -3.5422235   -2.0008162   0.16138461   -3.5422235    1.5414073   604303 
 7163000    1.4141268   -3.5416749   -2.0005445   0.16160822   -3.5416749    1.5411305   604316 
 7164000    1.4149191   -3.5426212   -2.0006783   0.16511853   -3.5426212    1.5419428   604336 
 7165000    1.4156313   -3.5436934   -2.0010025   0.15808418   -3.5436934    1.5426909   604347 
 7166000    1.4142342   -3.5421883    -2.001053   0.16448423   -3.5421883    1.5411352   604360 
 7167000    1.4127168   -3.5403884   -2.0009525   0.17165341   -3.5403884    1.5394359   604378 
 7168000    1.4120626   -3.5407651   -2.0020905   0.16415672   -3.5407651    1.5386746   604397 
 7169000    1.4119128   -3.5406783   -2.0022102   0.15705056   -3.5406783    1.5384681   604414 
 7170000    1.4141956   -3.5414536   -2.0005185   0.16759172   -3.5414536    1.5409351   604422 
 7171000    1.4156179   -3.5433162   -2.0008747   0.16549164   -3.5433162    1.5424415   604439 
 7172000    1.4138167   -3.5422208   -2.0017724   0.16740872   -3.5422208    1.5404484   604451 
 7173000    1.4130878   -3.5423002   -2.0027021   0.16113186   -3.5423002    1.5395981   604473 
 7174000    1.4151934   -3.5441162   -2.0022571   0.16569319   -3.5441162    1.5418591   604486 
 7175000    1.4127948   -3.5420193   -2.0028015   0.15985773   -3.5420193    1.5392178   604497 
 7176000    1.4126632   -3.5423523   -2.0033263   0.16355468   -3.5423523     1.539026   604516 
 7177000    1.4115029   -3.5409273   -2.0032137   0.16247455   -3.5409273    1.5377136   604535 
 7178000    1.4141891   -3.5418861   -2.0012639   0.16604088   -3.5418861    1.5406222   604542 
 7179000    1.4146518   -3.5421699   -2.0011049   0.16175908   -3.5421699     1.541065   604566 
 7180000    1.4129339   -3.5413084   -2.0021504   0.16386887   -3.5413084     1.539158   604580 
 7181000    1.4155654   -3.5431973   -2.0012237   0.16534563   -3.5431973    1.5419736   604600 
 7182000    1.4144966   -3.5426971    -2.001949      0.16752   -3.5426971    1.5407482   604624 
 7183000     1.415571   -3.5429911   -2.0011084   0.16548455   -3.5429911    1.5418827   604638 
 7184000    1.4158446   -3.5433087   -2.0011611   0.16911217   -3.5433087    1.5421476   604651 
 7185000    1.4158458   -3.5432897   -2.0011841   0.16099626   -3.5432897    1.5421056   604668 
 7186000    1.4154951   -3.5418904   -2.0002127   0.16312266   -3.5418904    1.5416777   604686 
 7187000    1.4174713    -3.543753   -1.9999561   0.16837972    -3.543753    1.5437969   604699 
 7188000    1.4162718   -3.5435162   -2.0010794   0.16635406   -3.5435162    1.5424369   604720 
 7189000    1.4161977   -3.5428862   -2.0005733   0.16847061   -3.5428862    1.5423129   604737 
 7190000    1.4145862   -3.5425466   -2.0020168   0.16634444   -3.5425466    1.5405299   604748 
 7191000    1.4160054   -3.5435149   -2.0014599    0.1653309   -3.5435149    1.5420549   604756 
 7192000    1.4156385   -3.5428716   -2.0012264   0.16908036   -3.5428716    1.5416453   604760 
 7193000    1.4167064   -3.5437349    -2.000965   0.16637568   -3.5437349    1.5427699   604775 
 7194000    1.4168363    -3.543948   -2.0010622   0.15914674    -3.543948    1.5428858   604785 
 7195000     1.416348   -3.5443948   -2.0020943   0.16116559   -3.5443948    1.5423006   604806 
 7196000    1.4154176   -3.5440998   -2.0028378   0.16601232   -3.5440998     1.541262   604816 
 7197000    1.4160162   -3.5443223   -2.0024315   0.16452589   -3.5443223    1.5418908   604825 
 7198000    1.4162203   -3.5451852   -2.0031002   0.16109981   -3.5451852     1.542085   604836 
 7199000    1.4153821    -3.544611   -2.0034769    0.1556374    -3.544611    1.5411341   604851 
 7200000    1.4138022   -3.5430487   -2.0036934     0.162873   -3.5430487    1.5393553   604874 
 7201000     1.415271   -3.5447039   -2.0037825   0.15999197   -3.5447039    1.5409214   604887 
 7202000    1.4152856   -3.5450581   -2.0041489   0.16336891   -3.5450581    1.5409093   604898 
 7203000    1.4153359   -3.5448176   -2.0038917   0.16195723   -3.5448176    1.5409259   604913 
 7204000    1.4163481   -3.5460528   -2.0040708    0.1650335   -3.5460528     1.541982   604931 
 7205000    1.4140019   -3.5441435   -2.0047413   0.16644201   -3.5441435    1.5394022   604941 
 7206000     1.415531   -3.5455658   -2.0045345   0.16808812   -3.5455658    1.5410313   604955 
 7207000    1.4154543   -3.5454751   -2.0045605   0.16277933   -3.5454751    1.5409146   604968 
 7208000    1.4159366   -3.5460756   -2.0046665   0.17531834   -3.5460756    1.5414091   604980 
 7209000    1.4169939   -3.5463694   -2.0038501   0.15920742   -3.5463694    1.5425193   604996 
 7210000    1.4164077   -3.5460062   -2.0041734   0.16754152   -3.5460062    1.5418327   605015 
 7211000    1.4169236   -3.5455526   -2.0031837   0.17285587   -3.5455526    1.5423689   605025 
 7212000    1.4165847   -3.5468287    -2.004867   0.16236416   -3.5468287    1.5419617   605040 
 7213000    1.4162048   -3.5471445   -2.0056396   0.16072787   -3.5471445    1.5415049   605057 
 7214000    1.4134025   -3.5443601   -2.0059131   0.16652561   -3.5443601     1.538447   605060 
 7215000    1.4146444   -3.5453201    -2.005539   0.16303408   -3.5453201     1.539781   605067 
 7216000    1.4152597   -3.5464622    -2.006042   0.15915771   -3.5464622    1.5404201   605079 
 7217000    1.4154668   -3.5459704   -2.0053554   0.16380218   -3.5459704    1.5406151   605091 
 7218000    1.4148102   -3.5456106   -2.0057459   0.16855736   -3.5456106    1.5398647   605105 
 7219000    1.4150468   -3.5454006   -2.0053319   0.16509255   -3.5454006    1.5400688   605126 
 7220000    1.4161969   -3.5464698    -2.005218   0.16217431   -3.5464698    1.5412518   605153 
 7221000    1.4150026   -3.5451818    -2.005268   0.16516642   -3.5451818    1.5399138   605168 
 7222000    1.4180875   -3.5484592   -2.0052213   0.15951536   -3.5484592    1.5432379   605181 
 7223000    1.4161638   -3.5453823   -2.0042913   0.16952884   -3.5453823    1.5410909   605202 
 7224000    1.4159313   -3.5461868   -2.0053717   0.16537585   -3.5461868     1.540815   605211 
 7225000    1.4168323   -3.5462555   -2.0045059   0.16715993   -3.5462555    1.5417496   605229 
 7226000    1.4158129   -3.5448969   -2.0043099   0.17164935   -3.5448969    1.5405869   605250 
 7227000    1.4176758    -3.546697   -2.0041416   0.16454378    -3.546697    1.5425554   605273 
 7228000    1.4165912   -3.5447503   -2.0033981   0.17311385   -3.5447503    1.5413523   605282 
 7229000    1.4158408   -3.5452217   -2.0047011   0.16746048   -3.5452217    1.5405206   605288 
 7230000    1.4179462    -3.546281   -2.0035078   0.16906131    -3.546281    1.5427731   605303 
 7231000    1.4155952   -3.5449183   -2.0047261   0.16830259   -3.5449183    1.5401922   605312 
 7232000    1.4169356   -3.5465735    -2.004956   0.16587304   -3.5465735    1.5416175   605325 
 7233000    1.4168242   -3.5473265   -2.0058531   0.16473394   -3.5473265    1.5414734   605334 
 7234000    1.4160344   -3.5460681   -2.0054795   0.16894586   -3.5460681    1.5405887   605344 
 7235000    1.4165902   -3.5467023   -2.0055344   0.16840026   -3.5467023    1.5411679   605354 
 7236000    1.4150871   -3.5451812   -2.0056893   0.16292588   -3.5451812    1.5394919   605370 
 7237000    1.4164903   -3.5466843   -2.0056811   0.16780611   -3.5466843    1.5410031   605376 
 7238000    1.4171129   -3.5466626   -2.0050203    0.1643591   -3.5466626    1.5416423   605391 
 7239000     1.417287   -3.5473674   -2.0055867   0.16656808   -3.5473674    1.5417808   605411 
 7240000    1.4163561   -3.5473799   -2.0066525   0.16102364   -3.5473799    1.5407274   605427 
 7241000    1.4167485    -3.547511    -2.006395   0.16699835    -3.547511     1.541116   605442 
 7242000    1.4166146   -3.5468164   -2.0058943   0.16484929   -3.5468164    1.5409221   605461 
 7243000    1.4174663   -3.5486026   -2.0067847   0.16257736   -3.5486026    1.5418179   605473 
 7244000    1.4161168   -3.5471681   -2.0068359   0.16912541   -3.5471681    1.5403322   605480 
 7245000    1.4161187   -3.5471417    -2.006843   0.15798303   -3.5471417    1.5402987   605494 
 7246000    1.4169729   -3.5480767   -2.0068819   0.16739641   -3.5480767    1.5411948   605507 
 7247000    1.4168877   -3.5470027   -2.0059617   0.16763522   -3.5470027    1.5410409   605531 
 7248000    1.4179499   -3.5475298   -2.0053692   0.16896159   -3.5475298    1.5421606   605545 
 7249000    1.4183659   -3.5484038   -2.0058417   0.16871218   -3.5484038    1.5425621   605565 
 7250000    1.4165519   -3.5475602   -2.0070142   0.17018394   -3.5475602     1.540546   605582 
 7251000      1.41879   -3.5501184   -2.0071716   0.15937028   -3.5501184    1.5429468   605595 
 7252000    1.4172449    -3.548712   -2.0074862   0.16509023    -3.548712    1.5412258   605611 
 7253000    1.4177756   -3.5500468   -2.0082668   0.16103149   -3.5500468      1.54178   605620 
 7254000    1.4166132   -3.5491598   -2.0086998    0.1716172   -3.5491598      1.54046   605642 
 7255000    1.4185727   -3.5501679   -2.0076229    0.1592471   -3.5501679     1.542545   605660 
 7256000    1.4169767   -3.5496626   -2.0088632   0.17210169   -3.5496626    1.5407993   605664 
 7257000    1.4163034   -3.5500199   -2.0100011    0.1681724   -3.5500199    1.5400189   605683 
 7258000    1.4165016    -3.550129   -2.0099251   0.16638747    -3.550129    1.5402039   605695 
 7259000    1.4168621   -3.5501512   -2.0096011   0.16767307   -3.5501512    1.5405501   605713 
 7260000    1.4170705   -3.5501661   -2.0094328   0.15921144   -3.5501661    1.5407334   605730 
 7261000    1.4172259   -3.5502713   -2.0093766   0.16593244   -3.5502713    1.5408947   605733 
 7262000    1.4164351   -3.5483741   -2.0083798   0.17493952   -3.5483741    1.5399943   605749 
 7263000    1.4175473   -3.5499657   -2.0087851    0.1638647   -3.5499657    1.5411806   605758 
 7264000    1.4161044   -3.5488733   -2.0092945   0.17410382   -3.5488733    1.5395789   605771 
 7265000    1.4169088   -3.5499887   -2.0095913    0.1651863   -3.5499887    1.5403974   605793 
 7266000    1.4154893   -3.5489063   -2.0100852   0.16647433   -3.5489063    1.5388212   605806 
 7267000     1.416764    -3.549925   -2.0097664   0.16990038    -3.549925    1.5401586   605825 
 7268000      1.41559   -3.5479665   -2.0091121    0.1705864   -3.5479665    1.5388544   605836 
 7269000    1.4175908   -3.5513624   -2.0103609    0.1570982   -3.5513624    1.5410015   605847 
 7270000    1.4151136   -3.5489197   -2.0106213   0.16599151   -3.5489197    1.5382984   605851 
 7271000    1.4143947   -3.5492982   -2.0118269   0.16328029   -3.5492982    1.5374713   605869 
 7272000    1.4143351   -3.5489526   -2.0115944   0.16479767   -3.5489526    1.5373583   605888 
 7273000    1.4175681   -3.5519653   -2.0111157   0.16019095   -3.5519653    1.5408496   605897 
 7274000    1.4144312   -3.5478942   -2.0104848   0.16183822   -3.5478942    1.5374094   605909 
 7275000    1.4162587   -3.5495589   -2.0101809   0.16686789   -3.5495589    1.5393781   605916 
 7276000    1.4159761    -3.549528   -2.0104977   0.16315469    -3.549528    1.5390303   605932 
 7277000    1.4168261   -3.5497092   -2.0097982    0.1650962   -3.5497092     1.539911   605949 
 7278000    1.4174052    -3.550188   -2.0096705   0.17011097    -3.550188    1.5405175   605958 
 7279000    1.4166002   -3.5490528   -2.0094357   0.16478603   -3.5490528    1.5396171   605968 
 7280000    1.4176698    -3.550976   -2.0102422   0.16726004    -3.550976    1.5407338   605986 
 7281000    1.4183576   -3.5512895    -2.009831   0.17116305   -3.5512895    1.5414585   605995 
 7282000     1.417135   -3.5510553    -2.010951   0.16778575   -3.5510553    1.5401043   606005 
 7283000    1.4168585   -3.5495554   -2.0097668   0.16626172   -3.5495554    1.5397886   606011 
 7284000    1.4188955   -3.5514361   -2.0094668   0.15780394   -3.5514361    1.5419693   606024 
 7285000    1.4152435   -3.5487546   -2.0107998   0.17019197   -3.5487546    1.5379549   606042 
 7286000    1.4165202   -3.5509356   -2.0116189   0.16893255   -3.5509356    1.5393168   606052 
 7287000    1.4176737   -3.5524487   -2.0118962   0.17168203   -3.5524487    1.5405525   606059 
 7288000    1.4162768   -3.5513527   -2.0123613   0.16632006   -3.5513527    1.5389914   606076 
 7289000     1.416286   -3.5510635   -2.0120952   0.16782678   -3.5510635    1.5389683   606089 
 7290000    1.4171667   -3.5518897   -2.0119999   0.16230427   -3.5518897    1.5398898   606103 
 7291000    1.4160517   -3.5511753   -2.0125123   0.16668567   -3.5511753     1.538663   606109 
 7292000    1.4169154   -3.5526266   -2.0130429   0.16712815   -3.5526266    1.5395837   606116 
 7293000    1.4188854   -3.5540757   -2.0123921    0.1627418   -3.5540757    1.5416835   606132 
 7294000    1.4159142   -3.5508077   -2.0123754   0.16765398   -3.5508077    1.5384324   606141 
 7295000    1.4187649   -3.5535496   -2.0120605   0.15741111   -3.5535496    1.5414891   606157 
 7296000    1.4166354     -3.55147   -2.0123074   0.16980323     -3.55147    1.5391627   606162 
 7297000    1.4168079   -3.5525775   -2.0132528   0.16733612   -3.5525775    1.5393247   606172 
 7298000    1.4167348   -3.5522059   -2.0129962    0.1647825   -3.5522059    1.5392097   606186 
 7299000    1.4169359   -3.5522544   -2.0128669   0.16662402   -3.5522544    1.5393875   606202 
 7300000    1.4168096   -3.5513318   -2.0121425   0.16642095   -3.5513318    1.5391894   606226 
 7301000    1.4164753   -3.5522917   -2.0135213   0.16581856   -3.5522917    1.5387704   606248 
 7302000    1.4168433   -3.5526922   -2.0135602   0.16547223   -3.5526922     1.539132   606263 
 7303000    1.4151915    -3.551519   -2.0142219   0.16430775    -3.551519    1.5372971   606279 
 7304000    1.4165223   -3.5524098   -2.0137076    0.1730831   -3.5524098    1.5387022   606295 
 7305000    1.4166982   -3.5530241    -2.014169   0.15794977   -3.5530241    1.5388551   606310 
 7306000    1.4167534   -3.5521134   -2.0132237   0.16573456   -3.5521134    1.5388898   606320 
 7307000    1.4168445   -3.5511302   -2.0121947   0.16700698   -3.5511302    1.5389354   606341 
 7308000    1.4175437    -3.551266    -2.011589   0.16996042    -3.551266     1.539677   606348 
 7309000    1.4177582   -3.5521844   -2.0123201   0.16933116   -3.5521844    1.5398643   606366 
 7310000    1.4161095   -3.5506449   -2.0126017   0.16730362   -3.5506449    1.5380432   606378 
 7311000    1.4183103   -3.5535849   -2.0131768   0.16289927   -3.5535849    1.5404081   606388 
 7312000    1.4184403   -3.5539829   -2.0134514   0.16855138   -3.5539829    1.5405315   606395 
 7313000    1.4193523   -3.5535932    -2.012117   0.16310633   -3.5535932    1.5414762   606413 
 7314000    1.4177204   -3.5518981   -2.0122221    0.1664412   -3.5518981     1.539676   606424 
 7315000    1.4187057   -3.5528599    -2.012152   0.16476782   -3.5528599     1.540708   606439 
 7316000     1.418488   -3.5523115   -2.0118985   0.16859248   -3.5523115    1.5404131   606462 
 7317000     1.417848   -3.5519134    -2.012241    0.1689475   -3.5519134    1.5396724   606480 
 7318000    1.4157823   -3.5504322   -2.0130436   0.17441778   -3.5504322    1.5373886   606496 
 7319000    1.4174543   -3.5525671   -2.0133933    0.1706431   -3.5525671    1.5391739   606508 
 7320000    1.4173064   -3.5521663   -2.0131912   0.16609556   -3.5521663    1.5389752   606523 
 7321000    1.4188499   -3.5540982   -2.0134699   0.16914067   -3.5540982    1.5406283   606532 
 7322000    1.4192195   -3.5551878   -2.0141938   0.16875585   -3.5551878    1.5409941   606546 
 7323000    1.4175559   -3.5531935   -2.0140338    0.1705758   -3.5531935    1.5391598   606557 
 7324000    1.4193793   -3.5548506   -2.0137389   0.16678142   -3.5548506    1.5411117   606568 
 7325000    1.4172106   -3.5518278   -2.0131038   0.16982261   -3.5518278    1.5387239   606581 
 7326000    1.4184505   -3.5534208    -2.013376    0.1667479   -3.5534208    1.5400448   606591 
 7327000    1.4192804   -3.5527521    -2.011857   0.17125722   -3.5527521     1.540895   606611 
 7328000    1.4185393   -3.5529789   -2.0129164   0.16862741   -3.5529789    1.5400625   606622 
 7329000    1.4193298   -3.5537904   -2.0128951   0.16675813   -3.5537904    1.5408953   606632 
 7330000    1.4179309   -3.5521794   -2.0128256   0.16844452   -3.5521794    1.5393538   606641 
 7331000    1.4190359   -3.5541624   -2.0136497   0.16690004   -3.5541624    1.5405127   606657 
 7332000    1.4184958   -3.5540315   -2.0141432   0.17482277   -3.5540315    1.5398883   606672 
 7333000     1.418403   -3.5529401   -2.0131702   0.17225192   -3.5529401    1.5397699   606679 
 7334000    1.4183797   -3.5531538   -2.0134473   0.17287087   -3.5531538    1.5397065   606694 
 7335000    1.4187038   -3.5539018   -2.0138942   0.16845649   -3.5539018    1.5400075   606714 
 7336000    1.4180664   -3.5534114   -2.0141541   0.16521716   -3.5534114    1.5392573   606737 
 7337000    1.4197585   -3.5553716   -2.0142979   0.16324216   -3.5553716    1.5410737   606745 
 7338000    1.4171855   -3.5532796   -2.0150393   0.16254876   -3.5532796    1.5382402   606761 
 7339000    1.4183799   -3.5538715   -2.0143678   0.16581477   -3.5538715    1.5395037   606774 
 7340000    1.4181713   -3.5544884   -2.0152264   0.17188537   -3.5544884     1.539262   606780 
 7341000    1.4192468   -3.5540712   -2.0136673   0.16918282   -3.5540712     1.540404   606790 
 7342000    1.4187193   -3.5536343   -2.0138662    0.1643401   -3.5536343    1.5397681   606815 
 7343000    1.4206225   -3.5544673   -2.0126541   0.16849341   -3.5544673    1.5418133   606823 
 7344000     1.418193   -3.5523773   -2.0132566   0.17245401   -3.5523773    1.5391207   606845 
 7345000    1.4192192   -3.5539928   -2.0137685   0.17010294   -3.5539928    1.5402243   606849 
 7346000    1.4196042   -3.5540894   -2.0134549   0.16731496   -3.5540894    1.5406345   606852 
 7347000    1.4195939   -3.5544306   -2.0138378   0.16678602   -3.5544306    1.5405928   606864 
 7348000    1.4198594   -3.5553721   -2.0145318   0.16091467   -3.5553721    1.5408404   606880 
 7349000     1.419002   -3.5551838   -2.0152967   0.16022732   -3.5551838    1.5398871   606889 
 7350000    1.4168627   -3.5541996      -2.0167    0.1658888   -3.5541996    1.5374997   606915 
 7351000    1.4181773   -3.5556696   -2.0167763   0.16510609   -3.5556696    1.5388932   606928 
 7352000    1.4179813   -3.5564675   -2.0178251   0.16109355   -3.5564675    1.5386425   606943 
 7353000    1.4181254    -3.556223   -2.0174519   0.16568751    -3.556223     1.538771   606954 
 7354000    1.4178687   -3.5555702    -2.017098    0.1662501   -3.5555702    1.5384722   606962 
 7355000    1.4176535   -3.5558679   -2.0176774   0.16423712   -3.5558679    1.5381905   606981 
 7356000    1.4172224   -3.5557684   -2.0180634   0.17082517   -3.5557684     1.537705   606988 
 7357000    1.4181866   -3.5572554   -2.0185422   0.16822352   -3.5572554    1.5387132   607003 
 7358000    1.4176464   -3.5573426   -2.0192738   0.17058348   -3.5573426    1.5380687   607026 
 7359000    1.4172234   -3.5565802   -2.0190135   0.16218311   -3.5565802    1.5375668   607043 
 7360000    1.4157443   -3.5549314   -2.0189794   0.17316375   -3.5549314     1.535952   607047 
 7361000    1.4192071   -3.5569549   -2.0172893   0.16504059   -3.5569549    1.5396656   607064 
 7362000    1.4196542   -3.5575578    -2.017473   0.16833793   -3.5575578    1.5400848   607090 
 7363000    1.4181362   -3.5565503   -2.0181705   0.16560936   -3.5565503    1.5383797   607113 
 7364000    1.4193647   -3.5594401   -2.0197759    0.1629353   -3.5594401    1.5396642   607132 
 7365000    1.4176827   -3.5567121   -2.0188928    0.1708168   -3.5567121    1.5378194   607140 
 7366000    1.4178251   -3.5569995   -2.0190535   0.16845801   -3.5569995     1.537946   607151 
 7367000    1.4186678    -3.557732   -2.0189049   0.16422516    -3.557732    1.5388271   607164 
 7368000     1.417625   -3.5562367   -2.0185584   0.17053072   -3.5562367    1.5376783   607171 
 7369000    1.4179612   -3.5572334   -2.0192183   0.16688328   -3.5572334    1.5380151   607182 
 7370000    1.4161617   -3.5561988   -2.0201761   0.16567239   -3.5561988    1.5360227   607198 
 7371000    1.4171299   -3.5582389   -2.0211989   0.16502672   -3.5582389      1.53704   607211 
 7372000    1.4172716   -3.5573196   -2.0201588   0.16815117   -3.5573196    1.5371608   607224 
 7373000    1.4185656    -3.557875   -2.0193489   0.17131207    -3.557875    1.5385262   607239 
 7374000    1.4188379   -3.5583618   -2.0195555   0.16266852   -3.5583618    1.5388064   607245 
 7375000    1.4169047   -3.5567562   -2.0200795   0.16749419   -3.5567562    1.5366767   607258 
 7376000    1.4197919   -3.5597355   -2.0199782   0.16172414   -3.5597355    1.5397573   607278 
 7377000    1.4185369   -3.5583553   -2.0199667   0.16757566   -3.5583553    1.5383886   607281 
 7378000    1.4186352   -3.5590823   -2.0206149   0.16395547   -3.5590823    1.5384674   607292 
 7379000    1.4188675    -3.559135   -2.0204537   0.16367599    -3.559135    1.5386813   607307 
 7380000    1.4164502   -3.5565028   -2.0204833   0.16949915   -3.5565028    1.5360195   607323 
 7381000    1.4193728   -3.5597404   -2.0205669   0.16065828   -3.5597404    1.5391735   607329 
 7382000    1.4170677   -3.5580838    -2.021453   0.16670001   -3.5580838    1.5366308   607346 
 7383000    1.4192375   -3.5593377   -2.0203818   0.16787572   -3.5593377    1.5389559   607357 
 7384000    1.4177267   -3.5575254   -2.0202381   0.16761897   -3.5575254    1.5372872   607369 
 7385000    1.4186212     -3.55919   -2.0209505   0.16467558     -3.55919    1.5382395   607376 
 7386000    1.4195346   -3.5601899   -2.0209954   0.16162207   -3.5601899    1.5391944   607390 
 7387000    1.4151994   -3.5565321   -2.0220535    0.1655896   -3.5565321    1.5344786   607396 
 7388000    1.4181932   -3.5596151   -2.0219182   0.16630087   -3.5596151    1.5376969   607407 
 7389000     1.419838   -3.5605301   -2.0210726   0.16600161   -3.5605301    1.5394575   607416 
 7390000    1.4191627   -3.5599756   -2.0212959   0.16626221   -3.5599756    1.5386797   607434 
 7391000    1.4172507   -3.5581454    -2.021602   0.16774827   -3.5581454    1.5365435   607459 
 7392000     1.420347   -3.5609168   -2.0210367    0.1706582   -3.5609168    1.5398801   607467 
 7393000    1.4183722   -3.5592952   -2.0215536    0.1672422   -3.5592952    1.5377417   607466 
 7394000     1.417068     -3.55835   -2.0220553   0.16608514     -3.55835    1.5362948   607479 
 7395000    1.4200151    -3.560926   -2.0214615   0.16308995    -3.560926    1.5394645   607489 
 7396000    1.4179015   -3.5583378   -2.0212001   0.16578973   -3.5583378    1.5371377   607503 
 7397000    1.4187332   -3.5598604    -2.021854   0.16522882   -3.5598604    1.5380064   607516 
 7398000     1.418133   -3.5599218   -2.0225989   0.16667976   -3.5599218    1.5373229   607529 
 7399000    1.4182445   -3.5591038   -2.0217157   0.16567828   -3.5591038    1.5373881   607551 
 7400000     1.417758   -3.5586434   -2.0218156   0.17054832   -3.5586434    1.5368278   607564 
 7401000    1.4189146   -3.5603768    -2.022351   0.16236478   -3.5603768    1.5380258   607586 
 7402000    1.4165734   -3.5591111   -2.0236407   0.16640992   -3.5591111    1.5354704   607593 
 7403000    1.4179136   -3.5594529   -2.0225501   0.16909183   -3.5594529    1.5369028   607601 
 7404000    1.4192238   -3.5607908   -2.0225159    0.1641253   -3.5607908    1.5382749   607620 
 7405000    1.4186123   -3.5595713   -2.0219997   0.16929874   -3.5595713    1.5375716   607636 
 7406000    1.4182656   -3.5601336    -2.022958   0.16736792   -3.5601336    1.5371756   607644 
 7407000    1.4187986   -3.5612027   -2.0235076    0.1694226   -3.5612027    1.5376951   607667 
 7408000    1.4196743   -3.5609952   -2.0223814   0.16610885   -3.5609952    1.5386138   607679 
 7409000    1.4188838   -3.5597337   -2.0219918   0.16643683   -3.5597337    1.5377419   607685 
 7410000    1.4195625   -3.5598733   -2.0214237   0.16659454   -3.5598733    1.5384496   607696 
 7411000    1.4198176   -3.5601768   -2.0215065   0.17201057   -3.5601768    1.5386703   607718 
 7412000    1.4209416   -3.5622285   -2.0223705   0.16683668   -3.5622285    1.5398581   607730 
 7413000     1.417448    -3.559085   -2.0230634   0.16866484    -3.559085    1.5360216   607750 
 7414000     1.419855   -3.5606547   -2.0220729   0.16863445   -3.5606547    1.5385817   607769 
 7415000    1.4194495   -3.5620052   -2.0239033   0.16660164   -3.5620052    1.5381019   607785 
 7416000    1.4190327   -3.5610152   -2.0233777   0.16849046   -3.5610152    1.5376375   607790 
 7417000    1.4197529   -3.5615365   -2.0231337   0.17002224   -3.5615365    1.5384028   607796 
 7418000    1.4191162   -3.5623704   -2.0247157   0.16991098   -3.5623704    1.5376547   607819 
 7419000    1.4191147   -3.5621308   -2.0244853   0.17187203   -3.5621308    1.5376455   607822 
 7420000    1.4195332   -3.5614288   -2.0233374   0.16487962   -3.5614288    1.5380913   607825 
 7421000    1.4191655   -3.5615221   -2.0238672   0.17084094   -3.5615221    1.5376549   607840 
 7422000    1.4194363   -3.5628656   -2.0249501   0.16243932   -3.5628656    1.5379155   607853 
 7423000    1.4176352    -3.560178   -2.0242544   0.16838402    -3.560178    1.5359236   607869 
 7424000     1.418247   -3.5611979   -2.0246317   0.16845059   -3.5611979    1.5365662   607877 
 7425000    1.4177762   -3.5610115   -2.0249704   0.16738556   -3.5610115    1.5360411   607883 
 7426000    1.4178654   -3.5611333   -2.0250286   0.17155509   -3.5611333    1.5361048   607896 
 7427000    1.4196796   -3.5625315   -2.0244992    0.1713342   -3.5625315    1.5380323   607911 
 7428000    1.4199838   -3.5633788   -2.0250447   0.16494664   -3.5633788    1.5383341   607922 
 7429000    1.4186322   -3.5614806   -2.0246638   0.16048582   -3.5614806    1.5368167   607943 
 7430000     1.417521   -3.5605138    -2.024964   0.17111586   -3.5605138    1.5355498   607968 
 7431000    1.4184724   -3.5612817   -2.0247366   0.16966014   -3.5612817    1.5365451   607982 
 7432000    1.4186132   -3.5614221   -2.0247422   0.17213854   -3.5614221    1.5366798   607989 
 7433000    1.4185348    -3.562455   -2.0258752   0.17054308    -3.562455    1.5365798   607995 
 7434000    1.4176059   -3.5609495   -2.0254062   0.17202547   -3.5609495    1.5355433   608007 
 7435000    1.4205109   -3.5638285   -2.0251462   0.16379462   -3.5638285    1.5386824   608010 
 7436000    1.4179689    -3.561153   -2.0252543   0.16217921    -3.561153    1.5358986   608022 
 7437000    1.4201374   -3.5628365   -2.0246244   0.17017873   -3.5628365    1.5382121   608036 
 7438000    1.4176226   -3.5600881   -2.0246227   0.16885617   -3.5600881    1.5354655   608045 
 7439000     1.419378   -3.5631107   -2.0257693   0.16674768   -3.5631107    1.5373414   608055 
 7440000    1.4195237   -3.5633018   -2.0258303   0.16611932   -3.5633018    1.5374715   608066 
 7441000    1.4199517   -3.5630291   -2.0251168   0.16559079   -3.5630291    1.5379123   608075 
 7442000    1.4204247   -3.5633729   -2.0249813    0.1699398   -3.5633729    1.5383916   608088 
 7443000    1.4206468   -3.5633357   -2.0247389   0.17113995   -3.5633357    1.5385968   608102 
 7444000    1.4195868   -3.5625621   -2.0251387   0.16974763   -3.5625621    1.5374235   608112 
 7445000    1.4210368    -3.563842   -2.0248937   0.17046828    -3.563842    1.5389483   608130 
 7446000    1.4201931   -3.5625617   -2.0245777   0.16671589   -3.5625617     1.537984   608150 
 7447000     1.421049   -3.5632241   -2.0243436   0.16593866   -3.5632241    1.5388805   608162 
 7448000    1.4219083   -3.5634522   -2.0236715   0.17159246   -3.5634522    1.5397807   608174 
 7449000    1.4225423   -3.5632283   -2.0227788   0.17111281   -3.5632283    1.5404495   608181 
 7450000    1.4223338   -3.5627544    -2.022556   0.16800654   -3.5627544    1.5401984   608191 
 7451000    1.4229126   -3.5643066   -2.0234967   0.16818799   -3.5643066    1.5408099   608197 
 7452000    1.4202088   -3.5615824   -2.0237104   0.17033001   -3.5615824     1.537872   608201 
 7453000    1.4226751   -3.5639658   -2.0234509   0.16926299   -3.5639658    1.5405149   608212 
 7454000    1.4201898   -3.5618727   -2.0240718   0.16716638   -3.5618727    1.5378009   608221 
 7455000    1.4217265   -3.5633661   -2.0239088   0.17051595   -3.5633661    1.5394573   608224 
 7456000    1.4200614   -3.5624877   -2.0248637   0.17055404   -3.5624877     1.537624   608236 
 7457000    1.4167626   -3.5592502   -2.0252158   0.16710592   -3.5592502    1.5340344   608243 
 7458000    1.4199161   -3.5610139   -2.0235725   0.16743257   -3.5610139    1.5374414   608246 
 7459000    1.4189496   -3.5603439   -2.0239692   0.17534971   -3.5603439    1.5363747   608254 
 7460000    1.4196994   -3.5619207   -2.0247746   0.16789876   -3.5619207     1.537146   608270 
 7461000     1.422482   -3.5637428   -2.0236244   0.16792903   -3.5637428    1.5401183   608286 
 7462000    1.4227329   -3.5655228    -2.025153   0.16563774   -3.5655228    1.5403698   608294 
 7463000    1.4210191   -3.5631976   -2.0247187   0.17264649   -3.5631976    1.5384788   608308 
 7464000    1.4203899   -3.5623633   -2.0245657   0.16791674   -3.5623633    1.5377976   608308 
 7465000    1.4198987   -3.5620325   -2.0247718   0.17067742   -3.5620325    1.5372607   608310 
 7466000    1.4220003   -3.5639631     -2.02447   0.16762384   -3.5639631    1.5394931   608327 
 7467000    1.4224914    -3.564463   -2.0244788    0.1619898    -3.564463    1.5399842   608343 
 7468000    1.4209319   -3.5634563   -2.0251858   0.17254578   -3.5634563    1.5382706   608353 
 7469000    1.4193202   -3.5617267    -2.025211   0.17414271   -3.5617267    1.5365157   608357 
 7470000    1.4236151    -3.566163   -2.0250484   0.16795431    -3.566163    1.5411146   608377 
 7471000    1.4214911   -3.5641564   -2.0253487   0.16583819   -3.5641564    1.5388076   608380 
 7472000    1.4204606   -3.5634253    -2.025766   0.18138607   -3.5634253    1.5376593   608393 
 7473000    1.4206637   -3.5638545    -2.025993   0.16586993   -3.5638545    1.5378615   608400 
 7474000    1.4204102   -3.5645984   -2.0270518   0.16505608   -3.5645984    1.5375466   608416 
 7475000    1.4204528   -3.5634723   -2.0258973    0.1659348   -3.5634723     1.537575   608423 
 7476000    1.4200573   -3.5634109   -2.0263196   0.17309647   -3.5634109    1.5370913   608445 
 7477000     1.421098   -3.5644038   -2.0262163   0.16782355   -3.5644038    1.5381875   608457 
 7478000    1.4218464   -3.5654357   -2.0264583     0.170334   -3.5654357    1.5389773   608465 
 7479000    1.4204579   -3.5639103   -2.0264536   0.16888545   -3.5639103    1.5374567   608472 
 7480000    1.4208516   -3.5640356   -2.0261881   0.16897143   -3.5640356    1.5378475   608486 
 7481000    1.4195909   -3.5624131   -2.0259503   0.17631726   -3.5624131    1.5364628   608494 
 7482000    1.4212224   -3.5650821   -2.0268889   0.16808669   -3.5650821    1.5381932   608508 
 7483000    1.4201309   -3.5645543   -2.0275652   0.16846327   -3.5645543    1.5369891   608517 
 7484000    1.4203147   -3.5660733   -2.0289055   0.16132174   -3.5660733    1.5371678   608525 
 7485000    1.4203863   -3.5656518   -2.0284266   0.16662994   -3.5656518    1.5372251   608533 
 7486000    1.4204998   -3.5638631    -2.026553   0.16674441   -3.5638631    1.5373101   608548 
 7487000    1.4205434   -3.5629433   -2.0256239   0.17175444   -3.5629433    1.5373194   608563 
 7488000    1.4202175   -3.5633243   -2.0264006   0.17404067   -3.5633243    1.5369237   608580 
 7489000    1.4219033   -3.5641899   -2.0254671   0.16690804   -3.5641899    1.5387228   608590 
 7490000     1.421968   -3.5644985   -2.0257512   0.17058026   -3.5644985    1.5387473   608608 
 7491000    1.4216419   -3.5645471   -2.0261603   0.16592589   -3.5645471    1.5383868   608611 
 7492000    1.4220044   -3.5657514   -2.0270077   0.16342541   -3.5657514    1.5387437   608625 
 7493000    1.4212861   -3.5647856   -2.0268419   0.16824555   -3.5647856    1.5379437   608634 
 7494000    1.4220648   -3.5663974   -2.0276693    0.1728006   -3.5663974    1.5387281   608657 
 7495000    1.4218993   -3.5655528   -2.0270214   0.16826649   -3.5655528    1.5385314   608664 
 7496000    1.4219772   -3.5671899   -2.0286197   0.15875054   -3.5671899    1.5385702   608682 
 7497000    1.4203002   -3.5657428   -2.0290022    0.1652292   -3.5657428    1.5367405   608688 
 7498000    1.4222572    -3.567283   -2.0284705   0.16770211    -3.567283    1.5388125   608706 
 7499000    1.4183526   -3.5641274   -2.0295849   0.16949121   -3.5641274    1.5345425   608724 
 7500000    1.4191553   -3.5651241   -2.0297509   0.17055915   -3.5651241    1.5353731   608739 
 7501000    1.4206531   -3.5662299   -2.0292666   0.17140804   -3.5662299    1.5369633   608751 
 7502000      1.41961   -3.5658135   -2.0300115   0.16747565   -3.5658135     1.535802   608764 
 7503000    1.4215574   -3.5675814   -2.0297332   0.16577032   -3.5675814    1.5378482   608788 
 7504000    1.4208892   -3.5667989   -2.0297116   0.16795967   -3.5667989    1.5370874   608803 
 7505000    1.4228747   -3.5680275     -2.02882    0.1691331   -3.5680275    1.5392075   608814 
 7506000     1.421663    -3.567142   -2.0292453    0.1634665    -3.567142    1.5378967   608814 
 7507000    1.4217384   -3.5678534   -2.0299029    0.1674253   -3.5678534    1.5379505   608825 
 7508000    1.4208415   -3.5663183   -2.0293658   0.16913814   -3.5663183    1.5369525   608836 
 7509000    1.4206976   -3.5653762   -2.0286248   0.17623344   -3.5653762    1.5367514   608854 
 7510000    1.4218418   -3.5660093   -2.0280682    0.1657972   -3.5660093    1.5379411   608873 
 7511000    1.4221692    -3.567027   -2.0287849   0.16579621    -3.567027    1.5382421   608894 
 7512000    1.4214181   -3.5682042   -2.0307745    0.1627723   -3.5682042    1.5374297   608894 
 7513000    1.4228364   -3.5689874   -2.0300413   0.16912029   -3.5689874    1.5389461   608901 
 7514000     1.420171   -3.5658694   -2.0298314   0.17280359   -3.5658694     1.536038   608911 
 7515000    1.4200944   -3.5662776   -2.0303527   0.16350307   -3.5662776    1.5359249   608923 
 7516000    1.4205269   -3.5668099   -2.0304425   0.16643033   -3.5668099    1.5363674   608933 
 7517000    1.4206741   -3.5672799   -2.0307811    0.1612074   -3.5672799    1.5364988   608944 
 7518000    1.4222584   -3.5674519     -2.02928   0.16758038   -3.5674519    1.5381719   608960 
 7519000    1.4212311    -3.565906    -2.028883   0.17322114    -3.565906     1.537023   608975 
 7520000    1.4211889   -3.5660292   -2.0290796   0.17357218   -3.5660292    1.5369496   608986 
 7521000    1.4195161   -3.5644475   -2.0293498   0.17385543   -3.5644475    1.5350977   609003 
 7522000    1.4223167   -3.5681277   -2.0300241   0.16781681   -3.5681277    1.5381036   609012 
 7523000    1.4221606   -3.5696452   -2.0317129   0.16006685   -3.5696452    1.5379323   609013 
 7524000    1.4193211     -3.56675   -2.0319237    0.1746432     -3.56675    1.5348263   609027 
 7525000    1.4206182   -3.5683014   -2.0321102   0.16515149   -3.5683014    1.5361912   609042 
 7526000    1.4219267   -3.5688578   -2.0312694   0.16542036   -3.5688578    1.5375885   609049 
 7527000    1.4197005   -3.5678163   -2.0326755    0.1693975   -3.5678163    1.5351408   609065 
 7528000    1.4189614   -3.5672877   -2.0329788   0.16516964   -3.5672877    1.5343089   609078 
 7529000    1.4180265   -3.5659907    -2.032733   0.16965258   -3.5659907    1.5332577   609094 
 7530000    1.4204822   -3.5687737   -2.0328859   0.16740781   -3.5687737    1.5358878   609104 
 7531000     1.420696   -3.5695602   -2.0334917   0.16870814   -3.5695602    1.5360685   609124 
 7532000    1.4193823   -3.5687355   -2.0341177   0.17168217   -3.5687355    1.5346178   609136 
 7533000    1.4203131   -3.5697766   -2.0341952   0.16928617   -3.5697766    1.5355814   609153 
 7534000    1.4181064   -3.5678574   -2.0346894   0.17727685   -3.5678574    1.5331679   609164 
 7535000    1.4216923   -3.5711457   -2.0341489   0.16491294   -3.5711457    1.5369969   609183 
 7536000    1.4215022   -3.5717549   -2.0350039   0.16710407   -3.5717549     1.536751   609199 
 7537000    1.4218882   -3.5711109   -2.0339527   0.17216663   -3.5711109    1.5371581   609203 
 7538000    1.4200811   -3.5691748   -2.0339803   0.16747003   -3.5691748    1.5351945   609207 
 7539000    1.4203274   -3.5700773   -2.0346821   0.16362622   -3.5700773    1.5353952   609233 
 7540000    1.4192367   -3.5693848   -2.0351989   0.16120235   -3.5693848     1.534186   609245 
 7541000    1.4186037   -3.5684681   -2.0350018    0.1675044   -3.5684681    1.5334664   609259 
 7542000     1.420001   -3.5690408   -2.0340941   0.17312913   -3.5690408    1.5349467   609271 
 7543000    1.4215528   -3.5711987   -2.0346024    0.1599171   -3.5711987    1.5365963   609282 
 7544000    1.4194124   -3.5676785   -2.0334336   0.17101383   -3.5676785    1.5342449   609297 
 7545000    1.4230649   -3.5712563   -2.0331089   0.16567548   -3.5712563    1.5381474   609315 
 7546000    1.4200351    -3.567555   -2.0327202   0.17682078    -3.567555    1.5348348   609330 
 7547000    1.4228801   -3.5706386   -2.0327616   0.16623707   -3.5706386     1.537877   609343 
 7548000    1.4204109   -3.5687148   -2.0335443   0.16998221   -3.5687148    1.5351705   609358 
 7549000    1.4217255   -3.5693542   -2.0327806   0.16433522   -3.5693542    1.5365736   609365 
 7550000    1.4187641   -3.5677457   -2.0344205    0.1695839   -3.5677457    1.5333252   609384 
 7551000    1.4222472   -3.5706701   -2.0336133   0.16626073   -3.5706701    1.5370568   609397 
 7552000    1.4208483   -3.5694901   -2.0339628   0.16763461   -3.5694901    1.5355273   609404 
 7553000    1.4213805   -3.5696161   -2.0335514   0.17203719   -3.5696161    1.5360647   609419 
 7554000    1.4204658    -3.568035   -2.0329967   0.17032182    -3.568035    1.5350383   609434 
 7555000    1.4203507   -3.5699449   -2.0350561   0.16866221   -3.5699449    1.5348888   609444 
 7556000    1.4222644   -3.5719444   -2.0350128   0.16929482   -3.5719444    1.5369316   609454 
 7557000    1.4209865   -3.5704553   -2.0349248   0.16799852   -3.5704553    1.5355305   609462 
 7558000    1.4236061   -3.5732822   -2.0349664   0.15917445   -3.5732822    1.5383158   609480 
 7559000    1.4206331   -3.5705118   -2.0354287    0.1713377   -3.5705118    1.5350831   609488 
 7560000    1.4220771   -3.5726337   -2.0360381   0.16385748   -3.5726337    1.5365956   609507 
 7561000    1.4202995    -3.571257   -2.0366149   0.16841396    -3.571257    1.5346421   609520 
 7562000    1.4206581   -3.5719062   -2.0369296   0.17289961   -3.5719062    1.5349766   609541 
 7563000    1.4210601   -3.5705211   -2.0351075   0.17349716   -3.5705211    1.5354136   609540 
 7564000    1.4212242   -3.5715849   -2.0360167   0.16878145   -3.5715849    1.5355682   609549 
 7565000     1.420706   -3.5717964   -2.0368208   0.16923143   -3.5717964    1.5349756   609562 
 7566000    1.4204456   -3.5722458   -2.0375843   0.16678462   -3.5722458    1.5346615   609575 
 7567000    1.4195526   -3.5714701    -2.037786   0.16596837   -3.5714701    1.5336841   609580 
 7568000    1.4186787   -3.5722767   -2.0395972   0.16525629   -3.5722767    1.5326796   609604 
 7569000    1.4197655     -3.57264   -2.0388265   0.16931957     -3.57264    1.5338134   609620 
 7570000    1.4208531   -3.5727896   -2.0378365   0.16528303   -3.5727896    1.5349531   609634 
 7571000    1.4219636   -3.5740552   -2.0379402   0.16129137   -3.5740552     1.536115   609649 
 7572000    1.4206754   -3.5728927   -2.0382196   0.16905451   -3.5728927    1.5346731   609669 
 7573000    1.4211549   -3.5725563   -2.0373955   0.16766978   -3.5725563    1.5351609   609681 
 7574000    1.4200835   -3.5715025   -2.0375342   0.17361584   -3.5715025    1.5339683   609695 
 7575000    1.4210619   -3.5720864   -2.0370838   0.16641215   -3.5720864    1.5350025   609704 
 7576000    1.4215606   -3.5726452   -2.0371166   0.16728397   -3.5726452    1.5355285   609709 
 7577000    1.4195306    -3.570783   -2.0374774   0.16475969    -3.570783    1.5333056   609721 
 7578000    1.4195545   -3.5720738    -2.038765   0.16719285   -3.5720738    1.5333089   609730 
 7579000    1.4207446   -3.5720914   -2.0375147    0.1670442   -3.5720914    1.5345766   609737 
 7580000    1.4224219   -3.5727357   -2.0363927   0.16837501   -3.5727357     1.536343   609755 
 7581000    1.4211452   -3.5719164   -2.0369724   0.16883511   -3.5719164     1.534944   609763 
 7582000    1.4227241   -3.5729922   -2.0363606   0.16920246   -3.5729922    1.5366316   609770 
 7583000    1.4230031   -3.5730894   -2.0362018   0.16839774   -3.5730894    1.5368876   609788 
 7584000      1.42191   -3.5723632   -2.0366889   0.16898166   -3.5723632    1.5356743   609801 
 7585000    1.4223818   -3.5724723   -2.0363112   0.16933867   -3.5724723    1.5361611   609810 
 7586000    1.4225139   -3.5726087   -2.0363502   0.17123511   -3.5726087    1.5362585   609828 
 7587000    1.4236452   -3.5738123   -2.0363851   0.17263379   -3.5738123    1.5374273   609849 
 7588000    1.4235539   -3.5732404    -2.035952   0.17688807   -3.5732404    1.5372884   609865 
 7589000    1.4237703    -3.573983   -2.0364912   0.17416534    -3.573983    1.5374918   609877 
 7590000     1.423953   -3.5744542   -2.0368105   0.17207351   -3.5744542    1.5376437   609895 
 7591000    1.4234197   -3.5739459   -2.0369284   0.16917148   -3.5739459    1.5370174   609915 
 7592000      1.42241   -3.5724827   -2.0365833   0.16750847   -3.5724827    1.5358994   609926 
 7593000    1.4226159   -3.5735009   -2.0374069   0.17724684   -3.5735009    1.5360941   609937 
 7594000    1.4230334   -3.5735437   -2.0370442   0.16270639   -3.5735437    1.5364996   609955 
 7595000    1.4218638   -3.5733167   -2.0381052   0.16646768   -3.5733167    1.5352115   609965 
 7596000    1.4220823   -3.5730585   -2.0376413    0.1701119   -3.5730585    1.5354172   609977 
 7597000    1.4221026   -3.5726271   -2.0372107   0.16921775   -3.5726271    1.5354164   609986 
 7598000    1.4215979   -3.5731011   -2.0382723   0.17364388   -3.5731011    1.5348287   610003 
 7599000    1.4233033   -3.5746554   -2.0380131   0.17142777   -3.5746554    1.5366423   610014 
 7600000    1.4231644    -3.573531   -2.0370739   0.16877044    -3.573531    1.5364571   610028 
 7601000    1.4225367   -3.5733142   -2.0375776   0.17062399   -3.5733142    1.5357366   610045 
 7602000    1.4232831   -3.5739705   -2.0374634    0.1676599   -3.5739705    1.5365071   610059 
 7603000    1.4223252   -3.5742766   -2.0388136   0.17047259   -3.5742766     1.535463   610063 
 7604000    1.4221605    -3.574524   -2.0392741   0.16828622    -3.574524      1.53525   610077 
 7605000     1.422265   -3.5736601   -2.0383351   0.17595336   -3.5736601     1.535325   610092 
 7606000    1.4223603   -3.5735772    -2.038177    0.1701234   -3.5735772    1.5354002   610103 
 7607000       1.4241   -3.5750561   -2.0378006   0.16676167   -3.5750561    1.5372555   610112 
 7608000    1.4220613   -3.5736485   -2.0385988   0.17128973   -3.5736485    1.5350497   610114 
 7609000    1.4217894   -3.5741037   -2.0393651   0.16822471   -3.5741037    1.5347387   610121 
 7610000    1.4218539   -3.5741678   -2.0393973   0.17261167   -3.5741678    1.5347705   610136 
 7611000    1.4218035   -3.5737338   -2.0390454   0.16581432   -3.5737338    1.5346885   610147 
 7612000    1.4227245    -3.575272   -2.0395994   0.17029818    -3.575272    1.5356726   610151 
 7613000    1.4235814   -3.5758344   -2.0392395   0.17244906   -3.5758344    1.5365949   610152 
 7614000    1.4215255   -3.5739417   -2.0395633   0.16683573   -3.5739417    1.5343784   610151 
 7615000    1.4205157    -3.572819   -2.0395809   0.16945125    -3.572819    1.5332381   610171 
 7616000    1.4223999   -3.5744283   -2.0391993   0.17385829   -3.5744283     1.535229   610188 
 7617000    1.4240018   -3.5768121   -2.0398742   0.16713777   -3.5768121    1.5369379   610196 
 7618000    1.4222816   -3.5741228   -2.0390641   0.17171981   -3.5741228    1.5350587   610205 
 7619000    1.4220432   -3.5740361   -2.0392575   0.16981116   -3.5740361    1.5347786   610214 
 7620000     1.424256   -3.5770552   -2.0399109    0.1628437   -3.5770552    1.5371443   610223 
 7621000    1.4225227   -3.5754525   -2.0402192   0.17241467   -3.5754525    1.5352333   610239 
 7622000    1.4207123   -3.5743441   -2.0410747   0.17503108   -3.5743441    1.5332694   610243 
 7623000    1.4223731    -3.575454   -2.0404325   0.16383499    -3.575454    1.5350215   610259 
 7624000     1.421833   -3.5740725   -2.0396338    0.1689694   -3.5740725    1.5344387   610259 
 7625000    1.4215047   -3.5742126    -2.040166   0.16493783   -3.5742126    1.5340466   610274 
 7626000    1.4220512   -3.5756455   -2.0410317   0.16235038   -3.5756455    1.5346138   610283 
 7627000    1.4230737   -3.5759412   -2.0402516   0.16708692   -3.5759412    1.5356896   610294 
 7628000    1.4225855   -3.5747656    -2.039608   0.17060231   -3.5747656    1.5351577   610296 
 7629000    1.4242669   -3.5765747   -2.0396253   0.16527826   -3.5765747    1.5369494   610305 
 7630000    1.4226496    -3.575892   -2.0406853   0.16819846    -3.575892    1.5352067   610304 
 7631000    1.4221433   -3.5764487   -2.0418109    0.1709966   -3.5764487    1.5346377   610313 
 7632000    1.4217207    -3.577205   -2.0430836   0.17413614    -3.577205    1.5341214   610337 
 7633000    1.4222218   -3.5760047   -2.0413727   0.16535187   -3.5760047     1.534632   610349 
 7634000    1.4224117   -3.5759157   -2.0411316   0.16873288   -3.5759157    1.5347841   610370 
 7635000     1.422695    -3.576692   -2.0416324   0.16270542    -3.576692    1.5350596   610382 
 7636000    1.4222637   -3.5754116   -2.0408577   0.17210446   -3.5754116    1.5345539   610398 
 7637000    1.4239747   -3.5774946   -2.0411222   0.17101535   -3.5774946    1.5363724   610409 
 7638000    1.4239252   -3.5768869   -2.0406007    0.1684966   -3.5768869    1.5362862   610422 
 7639000    1.4217034   -3.5747229   -2.0408439   0.17033954   -3.5747229    1.5338791   610426 
 7640000    1.4248475   -3.5775341    -2.040283   0.16743493   -3.5775341    1.5372511   610434 
 7641000    1.4258932    -3.577771   -2.0394397    0.1724464    -3.577771    1.5383313   610453 
 7642000    1.4235578   -3.5755418   -2.0397526   0.17168621   -3.5755418    1.5357892   610462 
 7643000    1.4249977   -3.5755222   -2.0382173   0.17262506   -3.5755222    1.5373048   610477 
 7644000    1.4231152   -3.5750389   -2.0398102     0.171784   -3.5750389    1.5352287   610495 
 7645000    1.4251617   -3.5775991   -2.0402105   0.16288665   -3.5775991    1.5373886   610514 
 7646000     1.423264    -3.575949   -2.0406301   0.17532414    -3.575949    1.5353188   610523 
 7647000    1.4241048   -3.5766901   -2.0404744    0.1731715   -3.5766901    1.5362158   610527 
 7648000    1.4229948   -3.5744308   -2.0394275   0.17163599   -3.5744308    1.5350033   610533 
 7649000    1.4245913   -3.5752257    -2.038523   0.17167084   -3.5752257    1.5367027   610542 
 7650000    1.4235133    -3.574776   -2.0392687   0.17076498    -3.574776    1.5355073   610555 
 7651000     1.424981   -3.5764175   -2.0393498   0.16713928   -3.5764175    1.5370677   610564 
 7652000    1.4233512   -3.5757072   -2.0404226   0.17199688   -3.5757072    1.5352846   610574 
 7653000    1.4244617   -3.5764036   -2.0399413   0.16798198   -3.5764036    1.5364623   610582 
 7654000    1.4227927   -3.5753892   -2.0407648   0.17090817   -3.5753892    1.5346244   610597 
 7655000    1.4241472   -3.5772283   -2.0411807   0.16828762   -3.5772283    1.5360476   610612 
 7656000    1.4233474   -3.5765225   -2.0413552   0.17376161   -3.5765225    1.5351673   610619 
 7657000    1.4219562   -3.5748147   -2.0411704   0.17533109   -3.5748147    1.5336443   610628 
 7658000    1.4246618   -3.5775219   -2.0409747    0.1674821   -3.5775219    1.5365473   610634 
 7659000     1.422202   -3.5767461   -2.0428844   0.16942269   -3.5767461    1.5338617   610647 
 7660000    1.4222935   -3.5772632    -2.043338   0.16673353   -3.5772632    1.5339252   610661 
 7661000    1.4225735   -3.5786764   -2.0444493   0.17187944   -3.5786764    1.5342272   610661 
 7662000    1.4231124   -3.5794164   -2.0446558   0.16437337   -3.5794164    1.5347606   610680 
 7663000    1.4216574   -3.5773679   -2.0442216   0.16773234   -3.5773679    1.5331463   610698 
 7664000    1.4234477   -3.5791501   -2.0441108   0.16589596   -3.5791501    1.5350393   610713 
 7665000    1.4239798   -3.5804041   -2.0448238   0.17119263   -3.5804041    1.5355803   610726 
 7666000    1.4235489   -3.5798533   -2.0447954   0.16932253   -3.5798533    1.5350579   610749 
 7667000    1.4237345   -3.5786202   -2.0433748   0.16692889   -3.5786202    1.5352454   610754 
 7668000    1.4225214   -3.5768167   -2.0429271   0.17947754   -3.5768167    1.5338896   610773 
 7669000    1.4235448   -3.5781169   -2.0431614   0.17180594   -3.5781169    1.5349555   610788 
 7670000    1.4238591   -3.5789168   -2.0436501    0.1732888   -3.5789168    1.5352667   610799 
 7671000    1.4245206    -3.579772   -2.0438121   0.17151923    -3.579772    1.5359599   610807 
 7672000     1.423574    -3.578132   -2.0432079   0.17671871    -3.578132    1.5349241   610813 
 7673000    1.4229093   -3.5775252   -2.0433379   0.16925196   -3.5775252    1.5341873   610821 
 7674000    1.4239884   -3.5778672   -2.0425465   0.17311889   -3.5778672    1.5353207   610833 
 7675000    1.4257141   -3.5794679   -2.0422941   0.16522931   -3.5794679    1.5371738   610836 
 7676000    1.4240682   -3.5778489   -2.0424522   0.17243366   -3.5778489    1.5353967   610837 
 7677000    1.4245274   -3.5774163   -2.0415749   0.17199454   -3.5774163    1.5358415   610857 
 7678000    1.4230693   -3.5767499   -2.0425358   0.17312277   -3.5767499    1.5342141   610879 
 7679000    1.4257746   -3.5793281   -2.0422149   0.16581838   -3.5793281    1.5371132   610886 
 7680000    1.4244175   -3.5781393    -2.042537    0.1729164   -3.5781393    1.5356023   610905 
 7681000    1.4251732   -3.5788492   -2.0424573    0.1667422   -3.5788492    1.5363919   610915 
 7682000    1.4242034   -3.5776357   -2.0423069    0.1715027   -3.5776357    1.5353288   610922 
 7683000    1.4247792   -3.5778673   -2.0419656   0.17862818   -3.5778673    1.5359017   610941 
 7684000    1.4253789    -3.578586   -2.0420403    0.1718988    -3.578586    1.5365457   610942 
 7685000    1.4243456    -3.577094   -2.0416924   0.17520701    -3.577094    1.5354016   610954 
 7686000    1.4258726   -3.5792953   -2.0422904   0.17367274   -3.5792953    1.5370049   610971 
 7687000    1.4261622   -3.5802433   -2.0429439   0.16694935   -3.5802433    1.5372994   610978 
 7688000     1.424618   -3.5788561   -2.0432463    0.1753433   -3.5788561    1.5356098   610988 
 7689000    1.4253423   -3.5798569   -2.0435091   0.17780807   -3.5798569    1.5363478   611005 
 7690000     1.424259   -3.5791498   -2.0439671   0.17509604   -3.5791498    1.5351827   611004 
 7691000    1.4232574   -3.5790059    -2.044963    0.1736007   -3.5790059    1.5340428   611028 
 7692000    1.4238972   -3.5791888   -2.0444891   0.17204123   -3.5791888    1.5346997   611041 
 7693000    1.4240144   -3.5790724   -2.0443067   0.17528233   -3.5790724    1.5347657   611065 
 7694000    1.4247153   -3.5802934   -2.0447899   0.17312993   -3.5802934    1.5355035   611072 
 7695000    1.4246868   -3.5818913   -2.0464687   0.17186352   -3.5818913    1.5354226   611092 
 7696000    1.4234156   -3.5800116   -2.0459942   0.17283712   -3.5800116    1.5340175   611106 
 7697000    1.4237397   -3.5818432   -2.0475317   0.16788782   -3.5818432    1.5343115   611128 
 7698000    1.4237664   -3.5812301   -2.0468974   0.16297384   -3.5812301    1.5343327   611131 
 7699000    1.4221854   -3.5796034   -2.0470245   0.16808952   -3.5796034    1.5325788   611151 
 7700000    1.4221262   -3.5791484   -2.0466835   0.17067427   -3.5791484    1.5324648   611171 
 7701000    1.4232332   -3.5796166    -2.045984   0.17177801   -3.5796166    1.5336326   611181 
 7702000    1.4242885   -3.5808541   -2.0460993   0.16539494   -3.5808541    1.5347548   611187 
 7703000    1.4255525   -3.5814302    -2.045341   0.16879351   -3.5814302    1.5360892   611198 
 7704000    1.4258464   -3.5816936   -2.0453153   0.16997802   -3.5816936    1.5363782   611209 
 7705000    1.4228265   -3.5794902   -2.0464061   0.17132487   -3.5794902    1.5330841   611225 
 7706000    1.4250301   -3.5808507   -2.0453948   0.16973701   -3.5808507     1.535456   611226 
 7707000    1.4244133   -3.5793631   -2.0445919   0.17003892   -3.5793631    1.5347712   611234 
 7708000    1.4246549   -3.5802681   -2.0452894    0.1759655   -3.5802681    1.5349788   611255 
 7709000    1.4262617   -3.5820757   -2.0454235   0.16480594   -3.5820757    1.5366523   611278 
 7710000    1.4244127   -3.5805177   -2.0458827   0.16816858   -3.5805177     1.534635   611288 
 7711000    1.4243475   -3.5806535   -2.0461089   0.17246877   -3.5806535    1.5345447   611296 
 7712000    1.4254002   -3.5820214   -2.0463727   0.16703112   -3.5820214    1.5356487   611308 
 7713000    1.4240723   -3.5799899   -2.0457844   0.17595465   -3.5799899    1.5342055   611313 
 7714000    1.4232332   -3.5788996   -2.0456357   0.17688779   -3.5788996    1.5332639   611328 
 7715000    1.4235227    -3.579875   -2.0463318    0.1683114    -3.579875    1.5335431   611341 
 7716000    1.4263251   -3.5821465   -2.0456447   0.17005884   -3.5821465    1.5365018   611365 
 7717000     1.425598   -3.5807847   -2.0451189   0.17115773   -3.5807847    1.5356658   611386 
 7718000     1.424895   -3.5817087   -2.0468404   0.16956578   -3.5817087    1.5348683   611402 
 7719000    1.4237795   -3.5814766   -2.0478524   0.16701944   -3.5814766    1.5336242   611419 
 7720000    1.4248605   -3.5823113   -2.0475554   0.16842479   -3.5823113     1.534756   611432 
 7721000    1.4256378   -3.5837919   -2.0482565   0.16158715   -3.5837919    1.5355354   611455 
 7722000    1.4250772   -3.5833327   -2.0484212   0.16893093   -3.5833327    1.5349115   611463 
 7723000    1.4233038    -3.581193   -2.0482141   0.16839277    -3.581193    1.5329788   611472 
 7724000    1.4247632   -3.5827379   -2.0482048   0.17054483   -3.5827379    1.5345332   611479 
 7725000    1.4271986   -3.5858985   -2.0487699   0.16645195   -3.5858985    1.5371286   611490 
 7726000    1.4241292   -3.5821395   -2.0483744   0.17265192   -3.5821395     1.533765   611513 
 7727000     1.424335    -3.582176   -2.0482044   0.16794891    -3.582176    1.5339716   611519 
 7728000    1.4234509   -3.5812712   -2.0482868   0.17457984   -3.5812712    1.5329844   611533 
 7729000    1.4260914   -3.5834296   -2.0476442   0.16864913   -3.5834296    1.5357853   611550 
 7730000    1.4253187    -3.581755   -2.0468294    0.1744063    -3.581755    1.5349256   611561 
 7731000     1.425544   -3.5823592    -2.047201   0.17102702   -3.5823592    1.5351581   611565 
 7732000    1.4241082   -3.5819077   -2.0483282   0.17186796   -3.5819077    1.5335794   611578 
 7733000    1.4243282   -3.5820541   -2.0482904   0.17411716   -3.5820541    1.5337637   611599 
 7734000    1.4232722   -3.5815663    -2.049005   0.17543016   -3.5815663    1.5325613   611625 
 7735000    1.4253134   -3.5830051   -2.0482735   0.17349085   -3.5830051    1.5347317   611636 
 7736000    1.4243909   -3.5826104   -2.0488721   0.17654958   -3.5826104    1.5337383   611636 
 7737000    1.4248313   -3.5831218   -2.0489243   0.16909379   -3.5831218    1.5341975   611642 
 7738000    1.4251333    -3.583433   -2.0489655   0.17235246    -3.583433    1.5344675   611664 
 7739000    1.4239733   -3.5822705   -2.0490895   0.17054332   -3.5822705     1.533181   611679 
 7740000    1.4242178   -3.5825382   -2.0491341   0.16902751   -3.5825382    1.5334041   611695 
 7741000    1.4238048   -3.5816562   -2.0487094   0.17471346   -3.5816562    1.5329468   611700 
 7742000    1.4256807   -3.5839048   -2.0489784   0.16709369   -3.5839048    1.5349264   611716 
 7743000    1.4242908   -3.5819636   -2.0485536   0.17462501   -3.5819636      1.53341   611724 
 7744000    1.4239166   -3.5813395   -2.0483875   0.17289678   -3.5813395     1.532952   611746 
 7745000    1.4254446   -3.5833172   -2.0487378   0.17240682   -3.5833172    1.5345794   611753 
 7746000    1.4249623   -3.5823498   -2.0483072   0.17577075   -3.5823498    1.5340426   611760 
 7747000    1.4265961   -3.5836022   -2.0478233   0.17783202   -3.5836022    1.5357789   611769 
 7748000    1.4262433   -3.5827126   -2.0473562   0.17180919   -3.5827126    1.5353564   611786 
 7749000    1.4247737    -3.581432   -2.0476902   0.17281967    -3.581432    1.5337418   611799 
 7750000    1.4260783   -3.5831996   -2.0480759   0.16857096   -3.5831996    1.5351236   611808 
 7751000    1.4263631   -3.5829383   -2.0475332   0.17854591   -3.5829383    1.5354051   611818 
 7752000    1.4257608   -3.5833854   -2.0486462   0.17309277   -3.5833854    1.5347392   611825 
 7753000    1.4258477   -3.5824232   -2.0476532   0.17476783   -3.5824232      1.53477   611850 
 7754000    1.4247268   -3.5814082   -2.0478873    0.1748903   -3.5814082    1.5335209   611867 
 7755000    1.4255217   -3.5813596   -2.0470457   0.17595875   -3.5813596    1.5343138   611892 
 7756000     1.426127   -3.5826257   -2.0477006   0.17489607   -3.5826257    1.5349252   611908 
 7757000     1.426771   -3.5826115    -2.047046   0.17410136   -3.5826115    1.5355655   611929 
 7758000    1.4260793   -3.5824046   -2.0476086    0.1734999   -3.5824046    1.5347961   611939 
 7759000    1.4271451   -3.5827083   -2.0468129   0.17359419   -3.5827083    1.5358954   611958 
 7760000    1.4279185   -3.5846615   -2.0479539    0.1709853   -3.5846615    1.5367076   611966 
 7761000    1.4261976   -3.5823851   -2.0475545   0.17938574   -3.5823851    1.5348306   611976 
 7762000    1.4265471   -3.5816433   -2.0464591    0.1760254   -3.5816433    1.5351841   611985 
 7763000    1.4294415   -3.5852246   -2.0469634   0.17006031   -3.5852246    1.5382612   612000 
 7764000    1.4271073   -3.5834261   -2.0477043   0.17220291   -3.5834261    1.5357217   612011 
 7765000    1.4287468   -3.5849048   -2.0474213   0.17282402   -3.5849048    1.5374835   612012 
 7766000    1.4260189   -3.5829196   -2.0483967   0.17391641   -3.5829196    1.5345229   612022 
 7767000     1.427191   -3.5838754   -2.0481389   0.17428114   -3.5838754    1.5357366   612041 
 7768000    1.4242368   -3.5817264   -2.0491912   0.17447563   -3.5817264    1.5325352   612050 
 7769000    1.4267604   -3.5837807   -2.0485677   0.17566009   -3.5837807     1.535213   612065 
 7770000    1.4255369    -3.584124    -2.050235    0.1720268    -3.584124     1.533889   612068 
 7771000     1.425971   -3.5838124   -2.0494864   0.17257723   -3.5838124     1.534326   612080 
 7772000     1.425972   -3.5841132   -2.0498112   0.17176862   -3.5841132     1.534302   612090 
 7773000    1.4265297   -3.5847569   -2.0498825   0.17608662   -3.5847569    1.5348745   612101 
 7774000    1.4246635   -3.5834377   -2.0506112   0.17129116   -3.5834377    1.5328265   612117 
 7775000    1.4265797   -3.5851895    -2.050334   0.16779938   -3.5851895    1.5348555   612130 
 7776000    1.4262907   -3.5847571   -2.0502525   0.16868191   -3.5847571    1.5345045   612146 
 7777000    1.4264244   -3.5849019   -2.0502936   0.16997225   -3.5849019    1.5346083   612162 
 7778000    1.4251703   -3.5838283    -2.050622   0.17214289   -3.5838283    1.5332064   612183 
 7779000    1.4273008   -3.5849499   -2.0494991   0.17761589   -3.5849499    1.5354508   612202 
 7780000    1.4271345   -3.5846445   -2.0494379   0.17813816   -3.5846445    1.5352066   612228 
 7781000    1.4272418   -3.5847886   -2.0494917   0.17483222   -3.5847886     1.535297   612238 
 7782000    1.4280351    -3.584389   -2.0482687   0.17212435    -3.584389    1.5361203   612250 
 7783000    1.4283336   -3.5844812   -2.0480874   0.17411271   -3.5844812    1.5363937   612269 
 7784000    1.4283483   -3.5853561   -2.0489516   0.17240044   -3.5853561    1.5364044   612271 
 7785000    1.4298192   -3.5859711   -2.0480071    0.1737414   -3.5859711    1.5379641   612280 
 7786000    1.4279548    -3.584096    -2.048175   0.18049866    -3.584096     1.535921   612295 
 7787000    1.4283788   -3.5855015   -2.0491544   0.17145589   -3.5855015     1.536347   612307 
 7788000    1.4285257   -3.5848437   -2.0483563   0.17168954   -3.5848437    1.5364874   612314 
 7789000    1.4277754   -3.5846203   -2.0489776   0.17616363   -3.5846203    1.5356428   612329 
 7790000    1.4279726   -3.5840895   -2.0482497   0.17613806   -3.5840895    1.5358398   612335 
 7791000    1.4281131   -3.5841438    -2.048183   0.16907105   -3.5841438    1.5359608   612347 
 7792000     1.427704   -3.5836097    -2.048129   0.17817914   -3.5836097    1.5354807   612363 
 7793000    1.4290587   -3.5854886    -2.048576    0.1707139   -3.5854886    1.5369126   612373 
 7794000    1.4283911   -3.5849106   -2.0487336   0.17743174   -3.5849106     1.536177   612380 
 7795000    1.4283976   -3.5850674   -2.0488858   0.17542921   -3.5850674    1.5361815   612381 
 7796000    1.4279966   -3.5841777   -2.0484525   0.17871075   -3.5841777    1.5357252   612391 
 7797000    1.4281655   -3.5853812   -2.0495019   0.17595077   -3.5853812    1.5358792   612402 
 7798000     1.428679   -3.5858211   -2.0494198   0.17818914   -3.5858211    1.5364014   612414 
 7799000    1.4273008   -3.5837025   -2.0488008   0.17974319   -3.5837025    1.5349017   612421 
 7800000     1.429756   -3.5859185   -2.0484243   0.17822815   -3.5859185    1.5374943   612440 
 7801000    1.4299046   -3.5852789   -2.0476625   0.17943832   -3.5852789    1.5376164   612455 
 7802000    1.4293727   -3.5863738   -2.0493594   0.17525865   -3.5863738    1.5370144   612467 
 7803000    1.4292149   -3.5861463   -2.0493166    0.1746002   -3.5861463    1.5368296   612473 
 7804000    1.4283823   -3.5856961   -2.0497944   0.17906076   -3.5856961    1.5359018   612486 
 7805000    1.4276535   -3.5848967   -2.0498036   0.17914075   -3.5848967     1.535093   612496 
 7806000    1.4286725    -3.585621   -2.0494499   0.17805409    -3.585621    1.5361711   612503 
 7807000    1.4293184   -3.5867723   -2.0499293   0.17437987   -3.5867723     1.536843   612512 
 7808000    1.4303213   -3.5871146   -2.0492409   0.17016308   -3.5871146    1.5378737   612531 
 7809000    1.4266531    -3.584515   -2.0506028   0.17546467    -3.584515    1.5339121   612538 
 7810000     1.427886   -3.5858035   -2.0505984   0.16988793   -3.5858035    1.5352051   612551 
 7811000    1.4287951    -3.587217   -2.0510695   0.17868427    -3.587217    1.5361475   612565 
 7812000    1.4276416    -3.585876   -2.0509963   0.17782506    -3.585876    1.5348797   612576 
 7813000    1.4286051   -3.5861673   -2.0502968    0.1753706   -3.5861673    1.5358705   612594 
 7814000    1.4303736   -3.5871795   -2.0494328    0.1763787   -3.5871795    1.5377466   612604 
 7815000    1.4315621   -3.5887198   -2.0497282   0.16869871   -3.5887198    1.5389917   612617 
 7816000    1.4287298   -3.5868722    -2.050958   0.17556712   -3.5868722    1.5359142   612630 
 7817000    1.4288163   -3.5859941   -2.0500194    0.1771516   -3.5859941    1.5359747   612643 
 7818000    1.4285174   -3.5869084   -2.0512675   0.17699912   -3.5869084    1.5356409   612648 
 7819000    1.4278539    -3.586027   -2.0511045    0.1775983    -3.586027    1.5349225   612650 
 7820000     1.427598   -3.5852477   -2.0506428   0.17720411   -3.5852477    1.5346049   612667 
 7821000    1.4272812   -3.5861816   -2.0519173   0.17716042   -3.5861816    1.5342643   612667 
 7822000    1.4273857   -3.5854337   -2.0510995   0.17711884   -3.5854337    1.5343341   612684 
 7823000    1.4281208   -3.5874565   -2.0523573   0.17512301   -3.5874565    1.5350993   612694 
 7824000    1.4284157   -3.5870263   -2.0516376    0.1804274   -3.5870263    1.5353887   612705 
 7825000    1.4284652   -3.5881546   -2.0527554   0.17184126   -3.5881546    1.5353992   612722 
 7826000    1.4288071   -3.5883857    -2.052669   0.17654095   -3.5883857    1.5357166   612742 
 7827000    1.4279856   -3.5870788   -2.0522351   0.17576261   -3.5870788    1.5348437   612738 
 7828000    1.4283299   -3.5873141   -2.0521279   0.17490177   -3.5873141    1.5351861   612749 
 7829000    1.4283713   -3.5870437    -2.051838   0.17222353   -3.5870437    1.5352056   612759 
 7830000     1.429479   -3.5875352   -2.0511641   0.17766596   -3.5875352    1.5363711   612769 
 7831000    1.4265808   -3.5853438   -2.0520926   0.17924502   -3.5853438    1.5332511   612771 
 7832000      1.42741   -3.5867748     -2.05265   0.17557852   -3.5867748    1.5341249   612778 
 7833000    1.4293701   -3.5887276   -2.0525087   0.17243699   -3.5887276    1.5362189   612783 
 7834000     1.427995   -3.5888697   -2.0541613   0.16921472   -3.5888697    1.5347085   612796 
 7835000    1.4278884    -3.586985   -2.0524237   0.17676364    -3.586985    1.5345614   612809 
 7836000    1.4288532   -3.5881801   -2.0526069   0.17709326   -3.5881801    1.5355732   612819 
 7837000    1.4285398   -3.5882828   -2.0530765   0.17393267   -3.5882828    1.5352063   612831 
 7838000     1.427172   -3.5882019    -2.054483   0.17261286   -3.5882019    1.5337189   612838 
 7839000    1.4290416   -3.5896864    -2.053981   0.17259876   -3.5896864    1.5357055   612847 
 7840000    1.4269436   -3.5879579   -2.0545345   0.17117936   -3.5879579    1.5334234   612858 
 7841000    1.4284213   -3.5894871   -2.0545133   0.16981654   -3.5894871    1.5349737   612873 
 7842000    1.4284965   -3.5890332   -2.0540037   0.17223897   -3.5890332    1.5350295   612883 
 7843000    1.4288585   -3.5896586   -2.0542451   0.16547768   -3.5896586    1.5354135   612885 
 7844000    1.4307158     -3.59113   -2.0537357   0.17138977     -3.59113    1.5373942   612891 
 7845000    1.4301816    -3.589785   -2.0529723   0.17138982    -3.589785    1.5368127   612894 
 7846000    1.4280262   -3.5876122   -2.0531531   0.17646504   -3.5876122    1.5344591   612909 
 7847000    1.4289951   -3.5884414   -2.0529838   0.17774296   -3.5884414    1.5354576   612926 
 7848000    1.4282774   -3.5884267   -2.0537352   0.17616852   -3.5884267    1.5346915   612924 
 7849000    1.4296277   -3.5896555   -2.0535181   0.17958019   -3.5896555    1.5361374   612926 
 7850000    1.4274874   -3.5871612   -2.0533587   0.17848097   -3.5871612    1.5338025   612940 
 7851000    1.4302076   -3.5894532   -2.0527455   0.17272929   -3.5894532    1.5367078   612947 
 7852000    1.4298116   -3.5891629   -2.0528881    0.1773637   -3.5891629    1.5362747   612950 
 7853000    1.4289888   -3.5888728   -2.0535372   0.17463849   -3.5888728    1.5353356   612972 
 7854000    1.4291636   -3.5898453   -2.0543344   0.17261702   -3.5898453    1.5355109   612977 
 7855000    1.4308833   -3.5915474   -2.0542014   0.16897918   -3.5915474    1.5373461   612982 
 7856000    1.4293245   -3.5891979   -2.0535592     0.176537   -3.5891979    1.5356387   612995 
 7857000    1.4271275    -3.587322   -2.0540813   0.17766853    -3.587322    1.5332407   613010 
 7858000    1.4286823   -3.5891467   -2.0542656    0.1723624   -3.5891467    1.5348811   613022 
 7859000    1.4288248   -3.5886662   -2.0536421   0.17362069   -3.5886662    1.5350241   613026 
 7860000    1.4277135   -3.5884593   -2.0546465   0.17545595   -3.5884593    1.5338128   613033 
 7861000    1.4293395   -3.5894812   -2.0539492   0.16918751   -3.5894812    1.5355321   613044 
 7862000    1.4288825    -3.588497   -2.0534934   0.17532125    -3.588497    1.5350036   613059 
 7863000    1.4279484   -3.5877912   -2.0538136   0.17425928   -3.5877912    1.5339775   613068 
 7864000    1.4296015    -3.589418   -2.0536772   0.16994101    -3.589418    1.5357408   613073 
 7865000    1.4286014   -3.5892865   -2.0546625   0.17286979   -3.5892865     1.534624   613090 
 7866000    1.4302377   -3.5900615   -2.0536823   0.18168173   -3.5900615    1.5363792   613091 
 7867000    1.4295052    -3.590529   -2.0549668   0.17815017    -3.590529    1.5355623   613103 
 7868000    1.4296964   -3.5905412   -2.0548111   0.17547848   -3.5905412    1.5357301   613118 
 7869000    1.4285002   -3.5890982   -2.0546656    0.1786105   -3.5890982    1.5344327   613123 
 7870000    1.4293814   -3.5904792   -2.0551201   0.17291272   -3.5904792    1.5353592   613131 
 7871000    1.4279803     -3.58867   -2.0548159   0.18185673     -3.58867    1.5338542   613131 
 7872000    1.4294865    -3.590792   -2.0553475   0.17537189    -3.590792    1.5354445   613142 
 7873000      1.42843   -3.5904371   -2.0561875   0.17543785   -3.5904371    1.5342496   613166 
 7874000    1.4295747   -3.5898372   -2.0544232   0.17346876   -3.5898372    1.5354141   613192 
 7875000      1.42964   -3.5901299   -2.0546533   0.18037512   -3.5901299    1.5354766   613195 
 7876000    1.4288642   -3.5901457   -2.0555348   0.17351145   -3.5901457    1.5346109   613208 
 7877000    1.4296636   -3.5903754   -2.0549361   0.17540529   -3.5903754    1.5354394   613220 
 7878000    1.4294825   -3.5898919    -2.054682   0.17776619   -3.5898919    1.5352099   613234 
 7879000    1.4295649   -3.5894339   -2.0541481   0.17829483   -3.5894339    1.5352859   613239 
 7880000    1.4308493   -3.5903976     -2.05379   0.18166257   -3.5903976    1.5366076   613262 
 7881000    1.4305753   -3.5902301   -2.0539242   0.17969739   -3.5902301    1.5363058   613265 
 7882000    1.4319153   -3.5914766   -2.0537468   0.17404863   -3.5914766    1.5377298   613271 
 7883000    1.4313586   -3.5913987   -2.0542944    0.1799069   -3.5913987    1.5371044   613282 
 7884000    1.4314407   -3.5903604   -2.0531854   0.17573948   -3.5903604     1.537175   613289 
 7885000    1.4304044   -3.5906024   -2.0545803   0.17412877   -3.5906024    1.5360221   613305 
 7886000    1.4296871     -3.58904   -2.0538056   0.17493767     -3.58904    1.5352344   613312 
 7887000    1.4312183   -3.5910517   -2.0541908   0.16997657   -3.5910517     1.536861   613319 
 7888000     1.429552   -3.5911057   -2.0560415   0.17489564   -3.5911057    1.5350642   613322 
 7889000    1.4301687   -3.5912043    -2.055508   0.17652797   -3.5912043    1.5356964   613334 
 7890000    1.4299747   -3.5909851   -2.0555296   0.17888453   -3.5909851    1.5354555   613347 
 7891000    1.4294653   -3.5901264   -2.0552428   0.17429473   -3.5901264    1.5348836   613357 
 7892000    1.4292796   -3.5906917   -2.0560552   0.17356073   -3.5906917    1.5346365   613376 
 7893000    1.4298601   -3.5912064   -2.0559666   0.17956229   -3.5912064    1.5352398   613384 
 7894000    1.4305271   -3.5919396   -2.0559786   0.17867605   -3.5919396     1.535961   613382 
 7895000    1.4303643   -3.5913309   -2.0555722   0.18344494   -3.5913309    1.5357587   613393 
 7896000    1.4295872   -3.5906449   -2.0557581   0.17319268   -3.5906449    1.5348868   613408 
 7897000    1.4311681   -3.5923079   -2.0557463   0.17317141   -3.5923079    1.5365616   613417 
 7898000    1.4292449   -3.5899992   -2.0555224   0.17570592   -3.5899992    1.5344768   613425 
 7899000    1.4306185   -3.5913823   -2.0554583   0.17798348   -3.5913823    1.5359239   613436 
 7900000    1.4311304   -3.5921139   -2.0556904   0.16937788   -3.5921139    1.5364235   613456 
 7901000    1.4311874   -3.5920533   -2.0555887   0.17621755   -3.5920533    1.5364645   613464 
 7902000    1.4314478   -3.5926491     -2.05593   0.17783816   -3.5926491    1.5367191   613474 
 7903000    1.4308194   -3.5914907   -2.0554712     0.181207   -3.5914907    1.5360195   613484 
 7904000    1.4303186   -3.5915475   -2.0560932   0.17516287   -3.5915475    1.5354543   613495 
 7905000    1.4305154   -3.5919509    -2.056323   0.17321258   -3.5919509     1.535628   613510 
 7906000    1.4306441   -3.5916231   -2.0559119   0.17547232   -3.5916231    1.5357111   613532 
 7907000    1.4308675   -3.5914868   -2.0555709   0.17546641   -3.5914868    1.5359159   613546 
 7908000    1.4300081   -3.5916313   -2.0566204   0.18309724   -3.5916313    1.5350109   613539 
 7909000    1.4323075   -3.5929503   -2.0554487   0.17678934   -3.5929503    1.5375016   613530 
 7910000    1.4317884   -3.5925192   -2.0555898   0.17479356   -3.5925192    1.5369294   613536 
 7911000    1.4306854   -3.5922637   -2.0565258   0.17335227   -3.5922637    1.5357379   613539 
 7912000    1.4313213   -3.5928258   -2.0564228    0.1715936   -3.5928258     1.536403   613546 
 7913000    1.4289084   -3.5926939   -2.0588985   0.17640269   -3.5926939    1.5337954   613553 
 7914000    1.4294483   -3.5923021   -2.0579446   0.18100067   -3.5923021    1.5343575   613560 
 7915000    1.4296674   -3.5919134   -2.0573483   0.17849697   -3.5919134    1.5345651   613571 
 7916000    1.4284357    -3.591362   -2.0581365   0.17702905    -3.591362    1.5332255   613578 
 7917000    1.4300347   -3.5931683   -2.0582515   0.17517152   -3.5931683    1.5349169   613588 
 7918000    1.4298031   -3.5934988   -2.0588681   0.17591635   -3.5934988    1.5346307   613603 
 7919000    1.4297114   -3.5938906   -2.0593933   0.17865435   -3.5938906    1.5344973   613617 
 7920000    1.4299195   -3.5936564   -2.0589808   0.17541825   -3.5936564    1.5346756   613635 
 7921000    1.4299346   -3.5947552   -2.0600909   0.17579882   -3.5947552    1.5346643   613646 
 7922000     1.428765   -3.5934168   -2.0600601   0.17763201   -3.5934168    1.5333566   613667 
 7923000    1.4290976   -3.5940352   -2.0603341    0.1758978   -3.5940352     1.533701   613672 
 7924000    1.4299547   -3.5949744   -2.0603685   0.17759765   -3.5949744    1.5346059   613678 
 7925000    1.4301014   -3.5946607   -2.0599348   0.17696397   -3.5946607    1.5347258   613693 
 7926000    1.4305946   -3.5946219   -2.0593918   0.17894857   -3.5946219    1.5352301   613703 
 7927000     1.433018   -3.5972541    -2.059456    0.1741919   -3.5972541    1.5377981   613716 
 7928000    1.4282705   -3.5928517   -2.0601457   0.17888738   -3.5928517    1.5327061   613715 
 7929000    1.4293922   -3.5930837   -2.0592015   0.17654029   -3.5930837    1.5338822   613726 
 7930000    1.4308769   -3.5944695   -2.0590465   0.16952981   -3.5944695     1.535423   613747 
 7931000    1.4310433    -3.594725   -2.0591461   0.17134243    -3.594725    1.5355789   613756 
 7932000    1.4290144   -3.5923611   -2.0590017   0.17841893   -3.5923611    1.5333594   613773 
 7933000    1.4306081    -3.593316   -2.0582565   0.17371403    -3.593316    1.5350595   613777 
 7934000    1.4301421   -3.5929465   -2.0584071    0.1780762   -3.5929465    1.5345394   613785 
 7935000    1.4302091   -3.5931942   -2.0586004   0.17520451   -3.5931942    1.5345938   613792 
 7936000    1.4311703   -3.5935358   -2.0579606   0.17390312   -3.5935358    1.5355752   613812 
 7937000    1.4292198   -3.5908554   -2.0573979   0.17873131   -3.5908554    1.5334574   613822 
 7938000    1.4326459   -3.5937755   -2.0566723   0.17669022   -3.5937755    1.5371033   613834 
 7939000    1.4327495   -3.5938038   -2.0566094   0.18162764   -3.5938038    1.5371944   613842 
 7940000    1.4318161   -3.5934268   -2.0572838   0.17800977   -3.5934268    1.5361429   613862 
 7941000    1.4322051   -3.5932201   -2.0566899   0.17415943   -3.5932201    1.5365302   613874 
 7942000     1.431176   -3.5920338   -2.0566376    0.1820504   -3.5920338    1.5353962   613886 
 7943000    1.4320287   -3.5931948   -2.0569188   0.17948965   -3.5931948    1.5362759   613900 
 7944000    1.4315347   -3.5922745   -2.0565686    0.1781495   -3.5922745    1.5357059   613916 
 7945000    1.4330993   -3.5934279   -2.0560861   0.17967223   -3.5934279    1.5373418   613933 
 7946000    1.4329055   -3.5932368   -2.0561204   0.18258574   -3.5932368    1.5371164   613940 
 7947000    1.4331921   -3.5935707   -2.0561719   0.17778801   -3.5935707    1.5373988   613950 
 7948000    1.4320166   -3.5926888    -2.056581   0.17598142   -3.5926888    1.5361078   613962 
 7949000    1.4326663   -3.5940827   -2.0573231   0.18071246   -3.5940827    1.5367596   613980 
 7950000    1.4314235   -3.5929444   -2.0575303   0.17475634   -3.5929444     1.535414   613985 
 7951000    1.4317087   -3.5939553   -2.0582629   0.18100067   -3.5939553    1.5356924   613996 
 7952000    1.4318468   -3.5944594   -2.0586538   0.18023708   -3.5944594    1.5358056   614010 
 7953000    1.4301329   -3.5928778    -2.058963   0.17988516   -3.5928778    1.5339148   614031 
 7954000    1.4302293   -3.5931841   -2.0591934   0.18634659   -3.5931841    1.5339907   614042 
 7955000    1.4307154   -3.5938782   -2.0593862   0.18045161   -3.5938782     1.534492   614050 
 7956000    1.4303672   -3.5943104   -2.0602218    0.1780044   -3.5943104    1.5340886   614062 
 7957000    1.4317296   -3.5952541   -2.0597093   0.17442135   -3.5952541    1.5355448   614064 
 7958000     1.430952   -3.5942273   -2.0595314   0.17519476   -3.5942273    1.5346959   614070 
 7959000    1.4294978   -3.5933669   -2.0602656   0.17811388   -3.5933669    1.5331013   614084 
 7960000     1.431167   -3.5949889   -2.0601574   0.17344446   -3.5949889    1.5348315   614108 
 7961000     1.429755   -3.5944775   -2.0611952   0.18002753   -3.5944775    1.5332823   614122 
 7962000    1.4305578   -3.5957305   -2.0616322   0.18185943   -3.5957305    1.5340982   614140 
 7963000    1.4297577   -3.5942491   -2.0610239    0.1804179   -3.5942491    1.5332252   614146 
 7964000    1.4296064   -3.5937482   -2.0607152   0.18159348   -3.5937482     1.533033   614158 
 7965000    1.4313568   -3.5959391   -2.0610715   0.17621653   -3.5959391    1.5348675   614175 
 7966000    1.4314976   -3.5958715   -2.0608929   0.17446816   -3.5958715    1.5349786   614191 
 7967000    1.4313968   -3.5950868   -2.0602613   0.17281078   -3.5950868    1.5348255   614209 
 7968000    1.4307535   -3.5944355   -2.0603148   0.17709154   -3.5944355    1.5341207   614215 
 7969000    1.4321312   -3.5952409    -2.059673    0.1777912   -3.5952409    1.5355679   614227 
 7970000    1.4318363   -3.5952165   -2.0599823    0.1784208   -3.5952165    1.5352343   614234 
 7971000    1.4332402   -3.5965014   -2.0597869   0.17651936   -3.5965014    1.5367145   614244 
 7972000    1.4325024   -3.5958864   -2.0599955   0.18045549   -3.5958864    1.5358909   614257 
 7973000    1.4326179   -3.5962184   -2.0602462   0.18143281   -3.5962184    1.5359722   614274 
 7974000     1.434756   -3.5969511   -2.0587341   0.17398725   -3.5969511     1.538217   614293 
 7975000    1.4333309   -3.5948376    -2.058166   0.18072252   -3.5948376    1.5366716   614300 
 7976000    1.4326287   -3.5945386   -2.0586448   0.18226702   -3.5945386    1.5358938   614310 
 7977000    1.4317657   -3.5945013   -2.0595552   0.17961679   -3.5945013    1.5349461   614319 
 7978000    1.4335705   -3.5972681   -2.0603996   0.17762478   -3.5972681    1.5368685   614324 
 7979000    1.4309543   -3.5943976   -2.0603563    0.1831219   -3.5943976    1.5340413   614333 
 7980000    1.4326404   -3.5956219   -2.0598005   0.17799633   -3.5956219    1.5358214   614344 
 7981000    1.4311014   -3.5947997   -2.0606856   0.18175584   -3.5947997    1.5341141   614367 
 7982000     1.431032   -3.5958486   -2.0618539   0.17666952   -3.5958486    1.5339948   614385 
 7983000    1.4303682   -3.5941822   -2.0609189   0.18405298   -3.5941822    1.5332633   614393 
 7984000    1.4318621   -3.5950686   -2.0602191   0.18001867   -3.5950686    1.5348496   614399 
 7985000    1.4323537   -3.5953048   -2.0599558   0.18275916   -3.5953048     1.535349   614410 
 7986000    1.4306173   -3.5951081   -2.0616627   0.17684137   -3.5951081    1.5334454   614427 
 7987000    1.4331073   -3.5972041   -2.0611148   0.17610981   -3.5972041    1.5360893   614437 
 7988000    1.4316844   -3.5959316   -2.0613849   0.17724393   -3.5959316    1.5345467   614444 
 7989000    1.4329896   -3.5971531   -2.0612199   0.17796549   -3.5971531    1.5359332   614449 
 7990000    1.4314982   -3.5960782   -2.0617785   0.17720534   -3.5960782    1.5342997   614463 
 7991000    1.4317414    -3.596716   -2.0621831   0.17911822    -3.596716    1.5345329   614474 
 7992000    1.4323256   -3.5977214   -2.0626097   0.17594467   -3.5977214    1.5351116   614493 
 7993000    1.4330028   -3.5992436   -2.0634561   0.17615054   -3.5992436    1.5357874   614513 
 7994000    1.4311073   -3.5979758   -2.0642623   0.17680071   -3.5979758    1.5337135   614530 
 7995000    1.4287971   -3.5966912    -2.065476   0.17358276   -3.5966912    1.5312153   614539 
 7996000    1.4318205   -3.5990162   -2.0645983   0.17419252   -3.5990162    1.5344179   614554 
 7997000    1.4313987    -3.598255   -2.0643141   0.17560045    -3.598255    1.5339409   614564 
 7998000    1.4310932    -3.598337   -2.0647485   0.17398059    -3.598337    1.5335886   614574 
 7999000    1.4296498   -3.5976092   -2.0656247    0.1699807   -3.5976092    1.5319845   614597 
 8000000    1.4288727   -3.5961303   -2.0650184   0.17879007   -3.5961303    1.5311119   614613 
Loop time of 10150.7 on 192 procs for 5000000 steps with 614613 atoms

Performance: 212793.319 tau/day, 492.577 timesteps/s
99.2% CPU use with 192 MPI tasks x 1 OpenMP threads

MPI task timing breakdown:
Section |  min time  |  avg time  |  max time  |%varavg|  %CPU | %total
-----------------------------------------------------------------------
Pair    | 3397.7     | 4246.2     | 4635.9     | 494.4 |  99.1 | 41.83
Bond    | 3.2282     | 3.4411     | 3.6546     |   4.4 | 100.0 |  0.03
Neigh   | 1749.5     | 2040.8     | 2156.7     | 209.6 |  99.5 | 20.11
Comm    | 1259.4     | 2230.5     | 3298.8     | 953.4 |  99.0 | 21.97
Output  | 280.67     | 281.76     | 281.78     |   0.5 |  98.4 |  2.78
Modify  | 1040.8     | 1141.2     | 1755.4     | 592.3 |  99.2 | 11.24
Other   |            | 206.9      |            |       |       |  2.04

Nlocal:        3201.11 ave        3305 max        3121 min
Histogram: 7 15 25 36 35 38 19 12 3 2
Nghost:        4253.79 ave        4594 max        3511 min
Histogram: 23 24 1 0 0 0 0 8 83 53
Neighs:        97209.1 ave      106420 max       86597 min
Histogram: 6 10 4 12 37 51 40 25 6 1

Total # of neighbors = 18664145
Ave neighs/atom = 30.367312
Ave special neighs/atom = 0.0000000
Neighbor list builds = 505000
Dangerous builds = 450000

write_restart   restart_write.dat
System init for write_restart ...
write_data	data.write
System init for write_data ...
WARNING: Not all mixed pair coeffs generated from mixing. Use write_data with 'pair ij' option to store all pair coeffs. (src/write_data.cpp:312)

Total wall time: 2:49:14
