LAMMPS (24 Dec 2020)
OMP_NUM_THREADS environment is not set. Defaulting to 1 thread. (src/comm.cpp:94)
  using 1 OpenMP thread(s) per MPI task
# Simple rigid body system
# needed variables: startTemp, temp

units		lj
atom_style	full
dimension 	3
boundary	p p f
pair_style	lj/cut/opt 2.5

variable 	gcmcdisplace	equal 0
variable 	sigma		equal 1.0
variable 	epsilon 	equal 1.0


read_restart	restart.dat.3000000
Reading restart file ...
  restart file = 24 Dec 2020, LAMMPS = 24 Dec 2020
WARNING: Restart file used different # of processors: 48 vs. 192 (src/read_restart.cpp:697)
  restoring atom style full from restart
  orthogonal box = (0.0000000 0.0000000 0.0000000) to (80.000000 80.000000 160.00000)
  6 by 4 by 8 MPI processor grid
  restoring pair style lj/cut/opt from restart
  439061 atoms
Finding 1-2 1-3 1-4 neighbors ...
  special bond factors lj:    0        0        0       
  special bond factors coul:  0        0        0       
     0 = max # of 1-2 neighbors
     0 = max # of 1-3 neighbors
     0 = max # of 1-4 neighbors
     1 = max # of special neighbors
  special bonds CPU = 1.436 seconds
  read_restart CPU = 1.761 seconds

mass		1 1.0
mass		2 1.0
mass		3 1.0


group		solvent type 1
439061 atoms in group solvent


neighbor 	0.4 bin

pair_coeff	1 1 1.0 1.0
pair_coeff	2 2 0.0 0.0
pair_coeff	3 3 0.0 0.0
pair_coeff	2 3 0.0 0.0
pair_coeff	1 2*3 0.0 0.0

pair_modify 	shift yes


balance 	1.05 shift z 10 1.05
Balancing ...
Neighbor list info ...
  update every 1 steps, delay 10 steps, check yes
  max neighbors/atom: 2000, page size: 100000
  master list distance cutoff = 2.9
  ghost atom cutoff = 2.9
  binsize = 1.45, bins = 56 56 111
  1 neighbor lists, perpetual/occasional/extra = 1 0 0
  (1) pair lj/cut/opt, perpetual
      attributes: half, newton on
      pair build: half/bin/newton
      stencil: half/bin/3d/newton
      bin: standard
 rebalancing time: 0.029 seconds
  iteration count = 5
  initial/final maximal load/proc = 3162.0000 2575.0000
  initial/final imbalance factor  = 1.3827327 1.1260394
  x cuts: 0.0000000 0.16666667 0.33333333 0.50000000 0.66666667 0.83333333 1.0000000
  y cuts: 0.0000000 0.25000000 0.50000000 0.75000000 1.0000000
  z cuts: 0.0000000 0.097656250 0.18359375 0.27734375 0.37890625 0.47656250 0.57031250 0.67968750 1.0000000


####################### WALLS ###########################


variable       epsilonWall equal 2*${epsilon}
variable       epsilonWall equal 2*1

variable       cutoffTop   equal   0.7147*${sigma}
variable       cutoffTop   equal   0.7147*1

variable       cutoffLow   equal   3*${sigma}
variable       cutoffLow   equal   3*1


fix            topWall all wall/lj93 zhi EDGE                ${epsilonWall} ${sigma} ${cutoffTop} units box
fix            topWall all wall/lj93 zhi EDGE                2 ${sigma} ${cutoffTop} units box
fix            topWall all wall/lj93 zhi EDGE                2 1 ${cutoffTop} units box
fix            topWall all wall/lj93 zhi EDGE                2 1 0.7147 units box

fix            lowWall all wall/lj93 zlo EDGE                ${epsilonWall} ${sigma} ${cutoffLow} units box
fix            lowWall all wall/lj93 zlo EDGE                2 ${sigma} ${cutoffLow} units box
fix            lowWall all wall/lj93 zlo EDGE                2 1 ${cutoffLow} units box
fix            lowWall all wall/lj93 zlo EDGE                2 1 3 units box


###################### COMPUTES ##########################

compute        bin1 solvent chunk/atom bin/1d z upper 1.0



######################	FIXES ############################


fix 		peclet solvent ave/chunk 1000 1 1000 bin1 density/number norm 		 none ave one file density.profile

fix 		 temp solvent ave/chunk 1000 1 1000 bin1 temp norm none ave one file temp.profile

fix 		2 solvent nve

## Thermostat


region		regthermo block EDGE EDGE EDGE EDGE 0 20

group 		thermo dynamic solvent region regthermo every 1000
dynamic group thermo defined

fix 		3 thermo langevin ${startTemp} ${temp} 10 156453
fix 		3 thermo langevin 1.0 ${temp} 10 156453
fix 		3 thermo langevin 1.0 1.0 10 156453


## Evaporation

region		regevap block EDGE EDGE EDGE EDGE 140 158
fix 		gcmc solvent gcmc 100 100 0 1 780493 ${temp} ${mu} ${gcmcdisplace} region regevap
fix 		gcmc solvent gcmc 100 100 0 1 780493 1.0 ${mu} ${gcmcdisplace} region regevap
fix 		gcmc solvent gcmc 100 100 0 1 780493 1.0 -6 ${gcmcdisplace} region regevap
fix 		gcmc solvent gcmc 100 100 0 1 780493 1.0 -6 0 region regevap


#### Load balancing

fix 		bal all balance 1000 1.05 shift z 10 1.05

############### Diagnostics and computes ###################
#compute 	com cube	  rigid/local	1 mol x y z
#compute 	quat cube	  rigid/local	1 mol quatw quati quatj quatk

thermo 		1000
thermo_style 	custom step temp epair etotal press pe ke atoms

dump		1 all custom 100000 dump.lammpstrj id mol type x y z
dump 		2 all image 10000 image.*.png type type
dump 		3 all movie 1000 movie.avi type type
#dump 		com cube local 1000 dump.*.xyz c_com[*]
#dump		quat cube      local 1000 dump.*.quat c_quat[*]


restart 	1000000 restart.dat
timestep 	0.005
timer 		full
New timer settings: style=full  mode=nosync  timeout=off


run		5000000
Per MPI rank memory allocation (min/avg/max) = 9.923 | 9.986 | 10.01 Mbytes
Step Temp E_pair TotEng Press PotEng KinEng Atoms 
 3000000     1.016004   -3.1352716   -1.6112691  0.079025997   -3.1352716    1.5240025   439061 
 3001000    1.0139519   -3.1359636   -1.6134337  0.074027746   -3.1359636      1.52253   438598 
 3002000    1.0143533   -3.1385335   -1.6138365   0.07367732   -3.1385335     1.524697   438148 
 3003000    1.0117028   -3.1392525   -1.6169586  0.073478881   -3.1392525    1.5222938   437693 
 3004000     1.011271   -3.1429612   -1.6197372  0.071878652   -3.1429612    1.5232241   437239 
 3005000    1.0085908   -3.1413227    -1.620595  0.074723128   -3.1413227    1.5207277   436796 
 3006000     1.009514   -3.1458091   -1.6220183  0.069868741   -3.1458091    1.5237908   436317 
 3007000    1.0058972   -3.1440201   -1.6239816  0.074805161   -3.1440201    1.5200385   435827 
 3008000    1.0056713   -3.1468795   -1.6254719  0.070916436   -3.1468795    1.5214077   435337 
 3009000    1.0022772   -3.1481159   -1.6301413  0.074704789   -3.1481159    1.5179746   434849 
 3010000    1.0012565   -3.1513281    -1.633311  0.070110018   -3.1513281    1.5180171   434394 
 3011000   0.99846558   -3.1499005   -1.6345799  0.076087996   -3.1499005    1.5153206   433954 
 3012000   0.99734245   -3.1511266   -1.6358239  0.071639068   -3.1511266    1.5153027   433471 
 3013000   0.99615104   -3.1524558   -1.6373764  0.072607797   -3.1524558    1.5150793   433017 
 3014000   0.99614583   -3.1546784   -1.6380484  0.068781384   -3.1546784      1.51663   432572 
 3015000   0.99536642   -3.1573597   -1.6403242  0.070231453   -3.1573597    1.5170356   432118 
 3016000    0.9951127   -3.1600964   -1.6417117  0.070857911   -3.1600964    1.5183847   431624 
 3017000   0.99252113   -3.1593731   -1.6433376  0.072478198   -3.1593731    1.5160355   431167 
 3018000    0.9922362   -3.1622421   -1.6450231  0.071574067   -3.1622421     1.517219   430707 
 3019000   0.99229029   -3.1649441    -1.646179  0.070873863   -3.1649441    1.5187651   430292 
 3020000   0.98913092   -3.1629815   -1.6474847  0.071744981   -3.1629815    1.5154968   429847 
 3021000   0.98831158    -3.165686   -1.6497448  0.066071986    -3.165686    1.5159413   429365 
 3022000   0.98690016   -3.1686094   -1.6531777  0.062399587   -3.1686094    1.5154317   428896 
 3023000   0.98501535    -3.169596   -1.6553391  0.062041623    -3.169596    1.5142568   428409 
 3024000   0.98231965   -3.1695108    -1.657743  0.061655198   -3.1695108    1.5117678   427940 
 3025000   0.98123096   -3.1698569   -1.6581998  0.064078521   -3.1698569    1.5116571   427497 
 3026000   0.97988525   -3.1723647    -1.661006   0.05771897   -3.1723647    1.5113587   426995 
 3027000   0.97579886   -3.1706054   -1.6638592  0.060196715   -3.1706054    1.5067462   426516 
 3028000   0.97526708   -3.1742524   -1.6666767  0.061249092   -3.1742524    1.5075758   426049 
 3029000   0.97292397   -3.1764967   -1.6708856  0.061121778   -3.1764967    1.5056112   425580 
 3030000   0.97230455   -3.1785339   -1.6723028  0.054822622   -3.1785339    1.5062311   425134 
 3031000   0.96977775   -3.1797896   -1.6758349  0.061701488   -3.1797896    1.5039547   424671 
 3032000   0.97046302    -3.182322   -1.6756513  0.057141102    -3.182322    1.5066707   424205 
 3033000   0.96667942   -3.1794394   -1.6769888  0.060345468   -3.1794394    1.5024506   423738 
 3034000   0.96663158   -3.1838015   -1.6798352  0.053020913   -3.1838015    1.5039663   423290 
 3035000   0.96449182   -3.1840578   -1.6818415  0.055299323   -3.1840578    1.5022163   422845 
 3036000   0.96331371   -3.1852355   -1.6832877   0.05630576   -3.1852355    1.5019478   422404 
 3037000   0.96219505   -3.1883694   -1.6864519  0.051909427   -3.1883694    1.5019175   421922 
 3038000   0.96056126   -3.1895968   -1.6885645  0.052396137   -3.1895968    1.5010322   421454 
 3039000   0.95853409    -3.192608   -1.6930286   0.04751013    -3.192608    1.4995795   420972 
 3040000   0.95608199   -3.1925765   -1.6952647  0.048117542   -3.1925765    1.4973118   420531 
 3041000   0.95542466   -3.1957199   -1.6979167  0.049406496   -3.1957199    1.4978032   420104 
 3042000   0.95431496   -3.1950898   -1.6975076  0.051258017   -3.1950898    1.4975822   419678 
 3043000   0.95160574   -3.1958009   -1.7009493   0.04982768   -3.1958009    1.4948516   419251 
 3044000   0.95148734   -3.2000696   -1.7037801  0.046384982   -3.2000696    1.4962895   418796 
 3045000   0.95182477   -3.2037235   -1.7052395  0.051283876   -3.2037235    1.4984839   418331 
 3046000   0.94866185   -3.2027755   -1.7075268  0.051636272   -3.2027755    1.4952487   417843 
 3047000   0.94878719   -3.2059837      -1.7089  0.048376498   -3.2059837    1.4970836   417386 
 3048000   0.94698172   -3.2061155   -1.7102787  0.049398301   -3.2061155    1.4958368   416939 
 3049000   0.94625346   -3.2097054   -1.7134579  0.048737843   -3.2097054    1.4962475   416504 
 3050000   0.94523764   -3.2132054   -1.7168793  0.042992622   -3.2132054    1.4963262   416035 
 3051000   0.94362143   -3.2131636   -1.7176633    0.0481362   -3.2131636    1.4955003   415553 
 3052000   0.94314601    -3.218045   -1.7215552  0.040275957    -3.218045    1.4964898   415069 
 3053000   0.94080159   -3.2177349   -1.7232403  0.045342971   -3.2177349    1.4944946   414590 
 3054000   0.93841943   -3.2188087   -1.7264892  0.044135804   -3.2188087    1.4923195   414143 
 3055000   0.93786294   -3.2219194   -1.7288878  0.038549823   -3.2219194    1.4930316   413700 
 3056000   0.93527636   -3.2224048   -1.7319851  0.041672618   -3.2224048    1.4904198   413282 
 3057000   0.93334159   -3.2216589   -1.7328598   0.04346038   -3.2216589    1.4887992   412876 
 3058000    0.9316713   -3.2248561    -1.737226  0.047330352   -3.2248561    1.4876301   412461 
 3059000   0.93101587   -3.2265758   -1.7383866  0.040166882   -3.2265758    1.4881892   412016 
 3060000   0.92766854   -3.2270959   -1.7427478  0.040637763   -3.2270959    1.4843481   411597 
 3061000   0.92635109   -3.2298652   -1.7459956  0.039811665   -3.2298652    1.4838696   411145 
 3062000    0.9245898   -3.2310457   -1.7483746  0.036365181   -3.2310457    1.4826711   410695 
 3063000   0.92423272   -3.2318088   -1.7480919  0.036592901   -3.2318088    1.4837169   410247 
 3064000   0.92126312   -3.2303497   -1.7498591   0.03688822   -3.2303497    1.4804907   409820 
 3065000   0.92003692   -3.2329912   -1.7527844  0.038085743   -3.2329912    1.4802068   409353 
 3066000   0.91930249   -3.2341696   -1.7535457  0.035798294   -3.2341696     1.480624   408911 
 3067000   0.91964207   -3.2374038   -1.7546991  0.031483323   -3.2374038    1.4827047   408488 
 3068000    0.9167332   -3.2380804   -1.7584138  0.027807506   -3.2380804    1.4796666   408032 
 3069000   0.91692963   -3.2430741   -1.7613656  0.036649268   -3.2430741    1.4817085   407557 
 3070000   0.91527444   -3.2429082   -1.7621631  0.032689659   -3.2429082    1.4807451   407086 
 3071000   0.91418797   -3.2450176   -1.7643462  0.039167237   -3.2450176    1.4806714   406623 
 3072000   0.91254413   -3.2468533   -1.7672141  0.035625332   -3.2468533    1.4796392   406175 
 3073000   0.91058925   -3.2477044   -1.7695755  0.032114685   -3.2477044    1.4781289   405719 
 3074000   0.90965167   -3.2507472    -1.772508  0.027980425   -3.2507472    1.4782392   405271 
 3075000   0.90930613   -3.2536428   -1.7744759   0.02725142   -3.2536428    1.4791668   404863 
 3076000   0.90837987   -3.2560972    -1.776855  0.030282692   -3.2560972    1.4792421   404430 
 3077000   0.90572187   -3.2562317   -1.7797409   0.02474603   -3.2562317    1.4764909   403998 
 3078000   0.90429528   -3.2576182   -1.7819078  0.031373664   -3.2576182    1.4757104   403575 
 3079000   0.90425033   -3.2607293   -1.7835256  0.030714764   -3.2607293    1.4772037   403147 
 3080000   0.89974705   -3.2577882   -1.7864705  0.028730369   -3.2577882    1.4713178   402744 
 3081000   0.90087961   -3.2642483    -1.789482  0.026214651   -3.2642483    1.4747663   402308 
 3082000   0.89885328   -3.2651281   -1.7921448  0.028200782   -3.2651281    1.4729833   401889 
 3083000   0.89902243   -3.2687537   -1.7938932  0.029881979   -3.2687537    1.4748605   401453 
 3084000   0.89703522   -3.2696447   -1.7965398  0.029509615   -3.2696447    1.4731049   401043 
 3085000   0.89773959   -3.2743745   -1.7985304   0.03068269   -3.2743745    1.4758441   400613 
 3086000   0.89334412   -3.2728631   -1.8027441  0.021456762   -3.2728631     1.470119   400204 
 3087000   0.89261061   -3.2759446   -1.8053461  0.027389008   -3.2759446    1.4705986   399745 
 3088000   0.89149041   -3.2770543   -1.8067197  0.022327433   -3.2770543    1.4703346   399315 
 3089000    0.8909334   -3.2795675   -1.8086154    0.0234334   -3.2795675     1.470952   398898 
 3090000   0.89007207   -3.2810316   -1.8099565  0.024087741   -3.2810316    1.4710752   398479 
 3091000    0.8892156   -3.2846464   -1.8133954  0.023685742   -3.2846464     1.471251   398048 
 3092000   0.88662846   -3.2833643   -1.8148924  0.027520028   -3.2833643    1.4684719   397641 
 3093000    0.8857176   -3.2860669   -1.8175969  0.025893366   -3.2860669      1.46847   397233 
 3094000   0.88452041   -3.2892645   -1.8212789  0.023843203   -3.2892645    1.4679855   396827 
 3095000   0.88301063   -3.2900403   -1.8229597  0.027617996   -3.2900403    1.4670807   396394 
 3096000   0.88109148   -3.2916685   -1.8262163  0.021733745   -3.2916685    1.4654522   395972 
 3097000   0.87895924   -3.2941213   -1.8306041  0.020653313   -3.2941213    1.4635173   395536 
 3098000   0.87755738   -3.2943834    -1.831736  0.014993215   -3.2943834    1.4626475   395140 
 3099000    0.8777207   -3.2989217   -1.8346754  0.018836789   -3.2989217    1.4642463   394782 
 3100000   0.87645806   -3.2991099   -1.8357208  0.020555583   -3.2991099    1.4633891   394445 
 3101000   0.87561444   -3.3025576   -1.8390818  0.020517033   -3.3025576    1.4634758   394042 
 3102000   0.87532178   -3.3059481   -1.8415419  0.018598853   -3.3059481    1.4644063   393660 
 3103000   0.87349689    -3.306926   -1.8442314    0.0193102    -3.306926    1.4626946   393299 
 3104000   0.87149176   -3.3077448   -1.8469668 0.0098486942   -3.3077448     1.460778   392911 
 3105000   0.87095153   -3.3092515   -1.8479062  0.019929459   -3.3092515    1.4613453   392515 
 3106000     0.871134   -3.3124312    -1.849464  0.015271871   -3.3124312    1.4629672   392162 
 3107000   0.86967278   -3.3135295    -1.851734  0.016593496   -3.3135295    1.4617955   391818 
 3108000   0.86886649   -3.3164422   -1.8545991  0.018924214   -3.3164422    1.4618431   391442 
 3109000   0.86871772   -3.3187868   -1.8559271  0.013777103   -3.3187868    1.4628597   391103 
 3110000   0.86636932   -3.3183046   -1.8580516  0.019607322   -3.3183046     1.460253   390742 
 3111000    0.8636845   -3.3188446   -1.8618304  0.014455792   -3.3188446    1.4570142   390397 
 3112000   0.86284954    -3.320965   -1.8642063  0.017810226    -3.320965    1.4567587   390088 
 3113000   0.86095699   -3.3211004   -1.8663472  0.012095632   -3.3211004    1.4547531   389769 
 3114000   0.86151466   -3.3263547   -1.8694258  0.015333909   -3.3263547    1.4569289   389439 
 3115000   0.86159213    -3.329867   -1.8715264  0.020530266    -3.329867    1.4583406   389097 
 3116000   0.86120051   -3.3318821   -1.8728206  0.017928324   -3.3318821    1.4590615   388728 
 3117000   0.85886022   -3.3315671   -1.8751481  0.017911301   -3.3315671    1.4564191   388375 
 3118000   0.85939865   -3.3356124    -1.877056  0.019426243   -3.3356124    1.4585564   388049 
 3119000   0.85823959    -3.337262   -1.8794179  0.019610024    -3.337262    1.4578441   387715 
 3120000   0.85710185   -3.3380147   -1.8810322  0.013200056   -3.3380147    1.4569824   387430 
 3121000   0.85824924   -3.3420788   -1.8821134  0.017056773   -3.3420788    1.4599654   387156 
 3122000   0.85374511   -3.3411367   -1.8875642  0.018000804   -3.3411367    1.4535725   386818 
 3123000   0.85227022    -3.340506   -1.8882771  0.018147423    -3.340506    1.4522289   386507 
 3124000    0.8521988   -3.3435237   -1.8901605  0.019034242   -3.3435237    1.4533631   386173 
 3125000   0.85162868    -3.345129   -1.8914885  0.018914236    -3.345129    1.4536406   385841 
 3126000   0.84980826   -3.3454676   -1.8938508  0.010907519   -3.3454676    1.4516168   385553 
 3127000    0.8490144   -3.3465421   -1.8952574  0.011521455   -3.3465421    1.4512846   385281 
 3128000   0.84615414   -3.3467522     -1.89935  0.015278287   -3.3467522    1.4474022   385013 
 3129000   0.84628562   -3.3493441   -1.9008216  0.012631758   -3.3493441    1.4485225   384775 
 3130000   0.84470441   -3.3484379   -1.9017081  0.012512167   -3.3484379    1.4467297   384532 
 3131000   0.84495548   -3.3515309   -1.9034334  0.017837613   -3.3515309    1.4480974   384283 
 3132000   0.84367123   -3.3522403   -1.9051878  0.010587749   -3.3522403    1.4470525   383976 
 3133000    0.8417289   -3.3517225   -1.9068764   0.01178057   -3.3517225    1.4448462   383677 
 3134000   0.84212654   -3.3551516   -1.9085219  0.015831457   -3.3551516    1.4466297   383385 
 3135000   0.84261613   -3.3588485   -1.9103615  0.019705692   -3.3588485     1.448487   383116 
 3136000    0.8416793   -3.3598089   -1.9119081  0.018969079   -3.3598089    1.4479008   382845 
 3137000   0.84105841    -3.361368   -1.9135861   0.01472001    -3.361368    1.4477819   382594 
 3138000   0.84125109    -3.363477   -1.9144582   0.01404163    -3.363477    1.4490187   382355 
 3139000     0.841237    -3.366509   -1.9164527   0.01586245    -3.366509    1.4500563   382075 
 3140000    0.8392311   -3.3665916   -1.9188107  0.015456398   -3.3665916     1.447781   381763 
 3141000   0.83763727   -3.3665886   -1.9206558  0.016481323   -3.3665886    1.4459329   381525 
 3142000    0.8368887   -3.3683241   -1.9227551   0.01658031   -3.3683241    1.4455689   381280 
 3143000   0.83537252   -3.3672783   -1.9232565  0.015960252   -3.3672783    1.4440218   380997 
 3144000   0.83652621   -3.3713327    -1.924485  0.013362976   -3.3713327    1.4468478   380778 
 3145000   0.83576687   -3.3720264   -1.9257095  0.016101406   -3.3720264    1.4463169   380572 
 3146000   0.83391874   -3.3721826   -1.9280243  0.014841101   -3.3721826    1.4441584   380298 
 3147000   0.83416893   -3.3755774   -1.9301572  0.014002842   -3.3755774    1.4454202   380080 
 3148000   0.83315945   -3.3764939   -1.9318004   0.01552586   -3.3764939    1.4446935   379811 
 3149000   0.83168001    -3.374859   -1.9318076  0.012402955    -3.374859    1.4430514   379568 
 3150000    0.8324268   -3.3796515   -1.9344324  0.016684037   -3.3796515    1.4452191   379339 
 3151000   0.83190958   -3.3787964   -1.9336105  0.015237408   -3.3787964    1.4451859   379112 
 3152000   0.82756225   -3.3744065   -1.9359645  0.013843622   -3.3744065     1.438442   378899 
 3153000   0.82768185   -3.3771074   -1.9374811  0.013941789   -3.3771074    1.4396263   378642 
 3154000   0.82659789   -3.3782354   -1.9396928  0.017644881   -3.3782354    1.4385426   378431 
 3155000   0.82721514   -3.3827198   -1.9422352 0.0092636941   -3.3827198    1.4404847   378203 
 3156000   0.82830378   -3.3852836   -1.9420408  0.011108458   -3.3852836    1.4432428   377977 
 3157000   0.82603091   -3.3823339   -1.9422551  0.019748943   -3.3823339    1.4400788   377768 
 3158000   0.82504468    -3.384489   -1.9452037  0.021724649    -3.384489    1.4392853   377525 
 3159000    0.8244813   -3.3853967   -1.9461144  0.015558409   -3.3853967    1.4392823   377268 
 3160000   0.82342168   -3.3859191    -1.947564  0.011157198   -3.3859191    1.4383551   377026 
 3161000    0.8240301   -3.3878793   -1.9477624    0.0156928   -3.3878793    1.4401169   376843 
 3162000   0.82503448   -3.3919192   -1.9493043  0.019391506   -3.3919192    1.4426149   376649 
 3163000   0.82249889   -3.3915304   -1.9524092  0.021824457   -3.3915304    1.4391212   376403 
 3164000   0.82219657     -3.39445   -1.9548481  0.019772722     -3.39445     1.439602   376139 
 3165000   0.82009117   -3.3937459   -1.9567454  0.019170378   -3.3937459    1.4370005   375855 
 3166000   0.81953581   -3.3956428   -1.9587322  0.021213642   -3.3956428    1.4369105   375624 
 3167000   0.81983813    -3.396981   -1.9587363  0.016849878    -3.396981    1.4382447   375414 
 3168000   0.81843167   -3.3975416   -1.9609415  0.019846713   -3.3975416    1.4366001   375199 
 3169000   0.81529442   -3.3963054   -1.9644298  0.019846994   -3.3963054    1.4318756   374994 
 3170000   0.81420474   -3.3978369   -1.9667951  0.017789061   -3.3978369    1.4310418   374711 
 3171000   0.81401687   -3.3987521   -1.9671694  0.020213561   -3.3987521    1.4315827   374483 
 3172000   0.81610762   -3.4037322   -1.9677248  0.020703123   -3.4037322    1.4360073   374288 
 3173000   0.81454943   -3.4019226   -1.9678792  0.022199626   -3.4019226    1.4340434   374085 
 3174000   0.81372936   -3.4031102   -1.9698286  0.022854049   -3.4031102    1.4332816   373907 
 3175000   0.81108104   -3.4016246   -1.9720633  0.021972953   -3.4016246    1.4295613   373660 
 3176000   0.81234158    -3.406217   -1.9736097  0.021114418    -3.406217    1.4326073   373445 
 3177000   0.81157755   -3.4050937   -1.9731091      0.01981   -3.4050937    1.4319846   373256 
 3178000   0.80965499   -3.4051245    -1.975613  0.018731501   -3.4051245    1.4295115   373016 
 3179000   0.80959001   -3.4081418   -1.9778592  0.019489576   -3.4081418    1.4302826   372785 
 3180000   0.80778178   -3.4064114   -1.9784807  0.016119003   -3.4064114    1.4279307   372565 
 3181000    0.8068363   -3.4067117   -1.9795751  0.020786661   -3.4067117    1.4271366   372336 
 3182000   0.80669645   -3.4080165   -1.9804947   0.02113181   -3.4080165    1.4275218   372171 
 3183000    0.8061824   -3.4109261   -1.9834587  0.018870841   -3.4109261    1.4274675   371948 
 3184000   0.80490507   -3.4107394   -1.9847745   0.01756661   -3.4107394    1.4259648   371750 
 3185000   0.80487459   -3.4123142    -1.985463  0.015698519   -3.4123142    1.4268512   371505 
 3186000   0.80396202   -3.4139763   -1.9879483  0.018900486   -3.4139763     1.426028   371298 
 3187000   0.80416096   -3.4167008   -1.9895512  0.018976036   -3.4167008    1.4271496   371098 
 3188000   0.80465951   -3.4192769   -1.9903415  0.021562649   -3.4192769    1.4289354   370864 
 3189000    0.8022845   -3.4185772    -1.992856  0.021878823   -3.4185772    1.4257212   370603 
 3190000   0.80051411   -3.4193014   -1.9959275  0.019227996   -3.4193014    1.4233739   370395 
 3191000   0.79925189   -3.4190822   -1.9971234  0.020081272   -3.4190822    1.4219588   370179 
 3192000     0.799644   -3.4212009   -1.9977139  0.018975926   -3.4212009    1.4234871   369963 
 3193000   0.79953419   -3.4234125   -1.9992163  0.024712904   -3.4234125    1.4241962   369728 
 3194000   0.79780046    -3.423331      -2.0014  0.021469353    -3.423331     1.421931   369514 
 3195000   0.79736356    -3.425144   -2.0031413  0.019556309    -3.425144    1.4220028   369293 
 3196000   0.79721838   -3.4270655   -2.0045552  0.024009871   -3.4270655    1.4225104   369094 
 3197000   0.79337924   -3.4221059   -2.0057014  0.017886243   -3.4221059    1.4164045   368900 
 3198000    0.7944891   -3.4259289   -2.0066658  0.022602717   -3.4259289    1.4192631   368672 
 3199000   0.79302284   -3.4283965    -2.010803  0.023485557   -3.4283965    1.4175936   368425 
 3200000   0.79281046   -3.4296973   -2.0116019  0.028499405   -3.4296973    1.4180954   368196 
 3201000   0.79088137   -3.4295933   -2.0140296  0.019258642   -3.4295933    1.4155637   367957 
 3202000   0.78943883   -3.4291407   -2.0152482  0.017760016   -3.4291407    1.4138924   367720 
 3203000   0.79103465   -3.4337732   -2.0161822  0.024408913   -3.4337732     1.417591   367502 
 3204000   0.78954704   -3.4332025   -2.0175686  0.020733945   -3.4332025    1.4156338   367318 
 3205000    0.7883869   -3.4331479    -2.018589  0.025708198   -3.4331479    1.4145588   367057 
 3206000   0.78782104   -3.4346818   -2.0202983  0.020199837   -3.4346818    1.4143836   366839 
 3207000   0.78824633   -3.4368792    -2.020937    0.0221861   -3.4368792    1.4159422   366633 
 3208000   0.78763058   -3.4380266    -2.022341  0.019942783   -3.4380266    1.4156856   366413 
 3209000   0.78528651   -3.4370403   -2.0246004  0.020297431   -3.4370403      1.41244   366162 
 3210000   0.78471816   -3.4373797   -2.0249861  0.022372797   -3.4373797    1.4123936   365909 
 3211000   0.78532862   -3.4391808   -2.0249425  0.023533703   -3.4391808    1.4142383   365716 
 3212000   0.78392521    -3.439052    -2.026356  0.030450667    -3.439052     1.412696   365461 
 3213000   0.78144097   -3.4370706   -2.0280147  0.016553977   -3.4370706    1.4090559   365244 
 3214000   0.78061455   -3.4369846   -2.0285589  0.020356982   -3.4369846    1.4084256   365021 
 3215000   0.77893642   -3.4362744   -2.0299558  0.022714807   -3.4362744    1.4063187   364782 
 3216000   0.77828169   -3.4364633   -2.0305058  0.025828163   -3.4364633    1.4059576   364569 
 3217000   0.77764108   -3.4382352   -2.0324748  0.028146164   -3.4382352    1.4057604   364320 
 3218000   0.77894594   -3.4425159   -2.0335807  0.028120665   -3.4425159    1.4089352   364109 
 3219000    0.7751544   -3.4371597    -2.034123  0.022719471   -3.4371597    1.4030367   363860 
 3220000   0.77675675   -3.4407257   -2.0337563  0.029808226   -3.4407257    1.4069694   363593 
 3221000   0.77461096    -3.438514   -2.0346166  0.026331121    -3.438514    1.4038974   363382 
 3222000   0.77358699   -3.4387895   -2.0359565  0.026523556   -3.4387895    1.4028329   363177 
 3223000   0.77300827   -3.4406833   -2.0380309  0.025048478   -3.4406833    1.4026525   362952 
 3224000   0.77135339   -3.4400696   -2.0394591  0.029384439   -3.4400696    1.4006105   362703 
 3225000   0.77273742   -3.4425322   -2.0385066  0.026841275   -3.4425322    1.4040255   362470 
 3226000   0.76992951   -3.4412737   -2.0414811  0.020557753   -3.4412737    1.3997926   362245 
 3227000   0.76937667   -3.4423639   -2.0428075  0.024963591   -3.4423639    1.3995564   362046 
 3228000   0.77013403   -3.4439691   -2.0422453  0.026071336   -3.4439691    1.4017239   361842 
 3229000   0.76885811   -3.4423541   -2.0419888  0.025804443   -3.4423541    1.4003652   361593 
 3230000   0.76839717   -3.4417109   -2.0412519  0.029934427   -3.4417109    1.4004591   361352 
 3231000   0.76713264   -3.4418045   -2.0426395  0.029909535   -3.4418045     1.399165   361091 
 3232000   0.76555167   -3.4401587   -2.0430493  0.026141628   -3.4401587    1.3971095   360877 
 3233000   0.76463614   -3.4379579     -2.04197  0.026876737   -3.4379579     1.395988   360735 
 3234000   0.76467566   -3.4384778   -2.0418524  0.026208691   -3.4384778    1.3966254   360589 
 3235000    0.7653909   -3.4366033   -2.0381674  0.029258885   -3.4366033    1.3984359   360459 
 3236000   0.76480481   -3.4330582   -2.0352278  0.037077052   -3.4330582    1.3978304   360339 
 3237000   0.76284922   -3.4291407   -2.0345014  0.023965725   -3.4291407    1.3946393   360240 
 3238000   0.76325548   -3.4287447   -2.0330372  0.030643163   -3.4287447    1.3957075   360156 
 3239000   0.76090773    -3.422702   -2.0309438  0.031694987    -3.422702    1.3917583   360067 
 3240000   0.76040834   -3.4208158   -2.0296387  0.032803934   -3.4208158    1.3911771   359981 
 3241000   0.76189369    -3.420122    -2.025933  0.033579693    -3.420122    1.3941889   359905 
 3242000   0.76281797   -3.4212434   -2.0250373  0.032416503   -3.4212434    1.3962061   359821 
 3243000   0.76208336   -3.4186216   -2.0234692  0.033330098   -3.4186216    1.3951524   359746 
 3244000   0.76126528   -3.4160284    -2.022118  0.031573111   -3.4160284    1.3939104   359680 
 3245000   0.76260661   -3.4142902   -2.0176131  0.034392695   -3.4142902    1.3966771   359600 
 3246000   0.76179553   -3.4132162   -2.0176947  0.036774406   -3.4132162    1.3955215   359515 
 3247000   0.76194515   -3.4105448   -2.0144463  0.035362604   -3.4105448    1.3960985   359437 
 3248000   0.76379195   -3.4122171   -2.0123647  0.031810129   -3.4122171    1.3998523   359342 
 3249000   0.76433143   -3.4112342   -2.0099954  0.039302555   -3.4112342    1.4012388   359240 
 3250000   0.76236334   -3.4052982   -2.0073483  0.034522994   -3.4052982    1.3979498   359158 
 3251000   0.76312948   -3.4052314   -2.0055766  0.038556156   -3.4052314    1.3996548   359081 
 3252000   0.76370321   -3.4043163   -2.0033049  0.040704078   -3.4043163    1.4010114   359003 
 3253000   0.76821326   -3.4103142   -2.0006561  0.051560765   -3.4103142    1.4096581   358908 
 3254000    0.7684972   -3.4088769   -1.9983716  0.060850313   -3.4088769    1.4105053   358825 
 3255000    0.7725141   -3.4153049   -1.9970949  0.067034672   -3.4153049      1.41821   358741 
 3256000   0.77321162   -3.4121982   -1.9923713  0.060513632   -3.4121982    1.4198269   358656 
 3257000    0.7684822   -3.4005714    -1.989059   0.05616755   -3.4005714    1.4115123   358562 
 3258000     0.765621    -3.392483   -1.9858572  0.048342372    -3.392483    1.4066258   358468 
 3259000   0.76560097   -3.3900101   -1.9829932  0.043589716   -3.3900101    1.4070168   358359 
 3260000   0.76637008   -3.3892236   -1.9803726  0.048151328   -3.3892236    1.4088509   358252 
 3261000   0.76674286   -3.3869686   -1.9771175  0.044860888   -3.3869686    1.4098511   358172 
 3262000   0.76706962   -3.3848437   -1.9740098  0.046270145   -3.3848437     1.410834   358075 
 3263000   0.76512481   -3.3788774   -1.9712548  0.040198191   -3.3788774    1.4076226   357982 
 3264000   0.76581532   -3.3775082   -1.9681585  0.047206925   -3.3775082    1.4093496   357866 
 3265000   0.76720305   -3.3760021   -1.9636843  0.046842166   -3.3760021    1.4123179   357761 
 3266000   0.76649344   -3.3723059    -1.960955  0.045454752   -3.3723059    1.4113508   357675 
 3267000   0.76734141   -3.3710563   -1.9578003   0.04711288   -3.3710563     1.413256   357588 
 3268000   0.76756252   -3.3681204   -1.9541251  0.049342528   -3.3681204    1.4139954   357504 
 3269000    0.7670257   -3.3637081   -1.9503419  0.045510535   -3.3637081    1.4133662   357413 
 3270000   0.76772441   -3.3628873   -1.9478971  0.042897778   -3.3628873    1.4149902   357328 
 3271000   0.76871029   -3.3617974   -1.9446371  0.050746461   -3.3617974    1.4171602   357239 
 3272000   0.76973306   -3.3605004   -1.9411725  0.044717862   -3.3605004    1.4193279   357168 
 3273000   0.76776786   -3.3543848    -1.938181  0.040738879   -3.3543848    1.4162038   357042 
 3274000   0.76768842   -3.3528712   -1.9362625  0.045847399   -3.3528712    1.4166088   356903 
 3275000   0.76888741   -3.3541958   -1.9349292  0.045596947   -3.3541958    1.4192666   356791 
 3276000   0.76823129   -3.3497654   -1.9313322   0.04824829   -3.3497654    1.4184332   356696 
 3277000   0.76805873   -3.3480986   -1.9296341  0.046071674   -3.3480986    1.4184645   356608 
 3278000   0.77039942   -3.3502529   -1.9270984  0.047780304   -3.3502529    1.4231545   356516 
 3279000   0.77015773   -3.3473194   -1.9241722  0.049338391   -3.3473194    1.4231471   356406 
 3280000   0.76934871   -3.3441507   -1.9220836  0.054907651   -3.3441507    1.4220671   356302 
 3281000   0.76992528   -3.3407762   -1.9171718   0.05029725   -3.3407762    1.4236043   356184 
 3282000   0.76948821   -3.3378538    -1.914658  0.046650686   -3.3378538    1.4231958   356084 
 3283000   0.76903509   -3.3369866   -1.9141015  0.052732885   -3.3369866    1.4228852   355952 
 3284000   0.76963137      -3.3362   -1.9117594  0.054054393      -3.3362    1.4244406   355839 
 3285000   0.77084919   -3.3360269   -1.9089113  0.051408102   -3.3360269    1.4271157   355734 
 3286000   0.77176101   -3.3360415   -1.9067596  0.050240736   -3.3360415    1.4292819   355615 
 3287000   0.76907134   -3.3295793   -1.9047818  0.054290409   -3.3295793    1.4247975   355491 
 3288000   0.76918586   -3.3296428   -1.9042282  0.048892728   -3.3296428    1.4254147   355390 
 3289000   0.76874296   -3.3267721   -1.9016729  0.046711335   -3.3267721    1.4250992   355264 
 3290000   0.76737023   -3.3227288   -1.8997699  0.042054067   -3.3227288    1.4229589   355163 
 3291000   0.76889765   -3.3244132    -1.898124  0.043575495   -3.3244132    1.4262892   355039 
 3292000   0.76813063   -3.3217063   -1.8963581  0.050128508   -3.3217063    1.4253482   354919 
 3293000   0.76882058   -3.3209731   -1.8939023  0.050227605   -3.3209731    1.4270708   354809 
 3294000   0.76857562   -3.3182775   -1.8912431   0.04671796   -3.3182775    1.4270344   354705 
 3295000    0.7698845   -3.3183016    -1.888325  0.043526155   -3.3183016    1.4299766   354578 
 3296000     0.768239   -3.3136332   -1.8862943  0.048854359   -3.3136332    1.4273389   354474 
 3297000   0.76830042    -3.313435   -1.8855309   0.04698153    -3.313435    1.4279042   354362 
 3298000   0.76688498   -3.3090961   -1.8833075  0.043171708   -3.3090961    1.4257885   354234 
 3299000   0.76802799   -3.3093711   -1.8809615  0.045163525   -3.3093711    1.4284096   354111 
 3300000   0.76740079   -3.3066189   -1.8789606  0.044476781   -3.3066189    1.4276584   354008 
 3301000   0.76678632   -3.3037547   -1.8767517  0.043880447   -3.3037547     1.427003   353887 
 3302000   0.76929564   -3.3067895   -1.8745824  0.049254245   -3.3067895    1.4322071   353755 
 3303000   0.76807908   -3.3046193   -1.8741717  0.045802687   -3.3046193    1.4304476   353630 
 3304000   0.76763603   -3.3006773   -1.8705776  0.048153647   -3.3006773    1.4300997   353512 
 3305000   0.76669807   -3.2993729   -1.8705113  0.048134941   -3.2993729    1.4288616   353386 
 3306000   0.76649795   -3.2970922   -1.8681183  0.040727513   -3.2970922    1.4289739   353266 
 3307000   0.76698408   -3.2955366   -1.8651827  0.040559906   -3.2955366    1.4303539   353149 
 3308000   0.76724338   -3.2950594   -1.8636545  0.043627767   -3.2950594    1.4314049   353009 
 3309000   0.76683206   -3.2929767   -1.8618405    0.0519368   -3.2929767    1.4311362   352886 
 3310000   0.76712168   -3.2921642   -1.8599599  0.051283439   -3.2921642    1.4322043   352756 
 3311000   0.76754072   -3.2923597   -1.8588529  0.049202438   -3.2923597    1.4335068   352628 
 3312000   0.76655273   -3.2895372    -1.857311  0.049451124   -3.2895372    1.4322262   352489 
 3313000   0.76665211   -3.2875143    -1.854639  0.039515717   -3.2875143    1.4328752   352375 
 3314000   0.76593547   -3.2866498   -1.8546426  0.050560715   -3.2866498    1.4320072   352259 
 3315000   0.76744854   -3.2881029    -1.852737  0.047108099   -3.2881029    1.4353658   352129 
 3316000   0.76756194   -3.2863431    -1.850288  0.048785105   -3.2863431    1.4360551   352012 
 3317000   0.76749722   -3.2851297   -1.8485999  0.046597772   -3.2851297    1.4365298   351866 
 3318000   0.76694926   -3.2829778   -1.8468655   0.05085151   -3.2829778    1.4361123   351717 
 3319000   0.76751659    -3.281653   -1.8439306  0.048222762    -3.281653    1.4377224   351583 
 3320000   0.76593472   -3.2783334   -1.8430312  0.047448563   -3.2783334    1.4353022   351450 
 3321000   0.76406559   -3.2730557   -1.8407712  0.048081216   -3.2730557    1.4322845   351331 
 3322000   0.76303611   -3.2700988   -1.8392146   0.05118978   -3.2700988    1.4308842   351201 
 3323000   0.76621317    -3.275423   -1.8379794  0.043410615    -3.275423    1.4374436   351054 
 3324000   0.76515985   -3.2731868   -1.8372734  0.047330797   -3.2731868    1.4359134   350945 
 3325000    0.7667977   -3.2745879   -1.8350636  0.051001007   -3.2745879    1.4395244   350814 
 3326000   0.76760887   -3.2755051   -1.8339607  0.046908805   -3.2755051    1.4415444   350693 
 3327000   0.76624278   -3.2708151   -1.8313026  0.053470894   -3.2708151    1.4395125   350563 
 3328000   0.76381344   -3.2663497   -1.8309425  0.054730547   -3.2663497    1.4354072   350451 
 3329000   0.76443791   -3.2663991    -1.829314  0.052237592   -3.2663991    1.4370851   350328 
 3330000   0.76458366   -3.2671021   -1.8292093  0.048000378   -3.2671021    1.4378927   350198 
 3331000    0.7648777    -3.266589    -1.827638  0.048713568    -3.266589    1.4389511   350075 
 3332000   0.76510113   -3.2656542   -1.8258016  0.045983099   -3.2656542    1.4398527   349958 
 3333000   0.76460249    -3.263827   -1.8244109  0.049418997    -3.263827    1.4394161   349836 
 3334000   0.76445469   -3.2629374   -1.8233387  0.053432019   -3.2629374    1.4395987   349724 
 3335000   0.76533305    -3.263849    -1.821986  0.052893938    -3.263849     1.441863   349576 
 3336000   0.76577651   -3.2641468   -1.8208704  0.048021585   -3.2641468    1.4432765   349436 
 3337000   0.76550575   -3.2609317   -1.8175129   0.05301393   -3.2609317    1.4434188   349278 
 3338000   0.76512051     -3.26031   -1.8169854  0.049358081     -3.26031    1.4433246   349125 
 3339000   0.76269551   -3.2542655   -1.8149259  0.055516411   -3.2542655    1.4393397   348982 
 3340000    0.7632071   -3.2549488   -1.8139748  0.047500956   -3.2549488     1.440974   348820 
 3341000   0.76437802   -3.2570044    -1.813236  0.051027191   -3.2570044    1.4437684   348679 
 3342000   0.76413409   -3.2551124    -1.811196  0.053231749   -3.2551124    1.4439164   348532 
 3343000   0.76430774   -3.2537194   -1.8088779  0.054036225   -3.2537194    1.4448415   348388 
 3344000   0.76412633   -3.2520691   -1.8069733  0.057227289   -3.2520691    1.4450958   348244 
 3345000   0.76344655    -3.249901   -1.8056013  0.054518077    -3.249901    1.4442997   348126 
 3346000   0.76420834   -3.2505157   -1.8041641  0.051779663   -3.2505157    1.4463516   347979 
 3347000   0.76212076   -3.2446268   -1.8015254  0.053315711   -3.2446268    1.4431014   347810 
 3348000   0.76227624   -3.2433527   -1.7994171  0.049381483   -3.2433527    1.4439355   347680 
 3349000   0.76085811   -3.2400721   -1.7982256  0.053223105   -3.2400721    1.4418464   347536 
 3350000   0.76151242   -3.2411692   -1.7975096  0.050404153   -3.2411692    1.4436596   347398 
 3351000   0.76264994   -3.2441234   -1.7978244  0.055340425   -3.2441234     1.446299   347282 
 3352000   0.76204411   -3.2435691   -1.7978112  0.051816504   -3.2435691    1.4457579   347136 
 3353000   0.76281931    -3.243538   -1.7957421    0.0529915    -3.243538    1.4477959   347000 
 3354000   0.76104402   -3.2410091   -1.7959413  0.053764725   -3.2410091    1.4450678   346846 
 3355000   0.76051485   -3.2387776   -1.7941273  0.054443515   -3.2387776    1.4446503   346705 
 3356000   0.76000095   -3.2357964    -1.791439  0.050220725   -3.2357964    1.4443573   346541 
 3357000   0.75678141    -3.229056   -1.7901114  0.049258758    -3.229056    1.4389446   346371 
 3358000    0.7591917   -3.2318725   -1.7877905  0.051034056   -3.2318725     1.444082   346238 
 3359000   0.75846442   -3.2292644   -1.7859905  0.048865626   -3.2292644    1.4432739   346100 
 3360000   0.75978668   -3.2313358   -1.7849524  0.049996507   -3.2313358    1.4463834   345958 
 3361000   0.75996953   -3.2320654    -1.784744  0.051447435   -3.2320654    1.4473214   345817 
 3362000   0.75931535   -3.2295951   -1.7829674  0.055182749   -3.2295951    1.4466277   345685 
 3363000   0.75884057   -3.2276259   -1.7813463  0.057621158   -3.2276259    1.4462796   345552 
 3364000   0.75850495   -3.2263349   -1.7800588  0.056521247   -3.2263349    1.4462761   345400 
 3365000   0.75748943   -3.2246459   -1.7796702  0.053751277   -3.2246459    1.4449757   345248 
 3366000   0.75675536   -3.2220651   -1.7778915   0.05541926   -3.2220651    1.4441735   345105 
 3367000   0.75526886   -3.2191357   -1.7771764  0.051689763   -3.2191357    1.4419593   344956 
 3368000   0.75435185   -3.2173702     -1.77651   0.04863052   -3.2173702    1.4408602   344800 
 3369000   0.75494831   -3.2184061   -1.7756827  0.051906047   -3.2184061    1.4427233   344627 
 3370000   0.75704905   -3.2215685   -1.7742175  0.053686207   -3.2215685     1.447351   344481 
 3371000   0.75685303   -3.2203537   -1.7727765  0.054568307   -3.2203537    1.4475772   344338 
 3372000   0.75629169   -3.2185109   -1.7713433  0.051051551   -3.2185109    1.4471676   344180 
 3373000   0.75614751   -3.2178203   -1.7703229  0.056709227   -3.2178203    1.4474973   344036 
 3374000   0.75630749   -3.2177514   -1.7694301   0.05036092   -3.2177514    1.4483214   343913 
 3375000   0.75415442   -3.2131861   -1.7684165  0.050651578   -3.2131861    1.4447696   343777 
 3376000   0.75380437   -3.2127232   -1.7679896   0.04830917   -3.2127232    1.4447336   343626 
 3377000   0.75269872   -3.2115266   -1.7682527  0.049265109   -3.2115266    1.4432739   343469 
 3378000   0.75239663   -3.2084755   -1.7651547  0.051085256   -3.2084755    1.4433208   343320 
 3379000   0.75425285   -3.2112167   -1.7635972  0.052406907   -3.2112167    1.4476195   343145 
 3380000   0.75412255   -3.2103446   -1.7624266  0.050380095   -3.2103446    1.4479179   343015 
 3381000   0.75457342    -3.210276   -1.7607233  0.055982128    -3.210276    1.4495527   342833 
 3382000   0.75440788   -3.2091996   -1.7593221  0.055007859   -3.2091996    1.4498775   342681 
 3383000   0.75334822   -3.2063113   -1.7577897  0.049915136   -3.2063113    1.4485216   342520 
 3384000   0.75212212    -3.202532   -1.7557175  0.045513969    -3.202532    1.4468145   342366 
 3385000   0.75278583   -3.2035501   -1.7548452  0.051389642   -3.2035501    1.4487049   342221 
 3386000   0.75176959   -3.2018287   -1.7543902  0.046861337   -3.2018287    1.4474385   342058 
 3387000   0.75281508    -3.204288    -1.754137  0.050195043    -3.204288     1.450151   341893 
 3388000    0.7521839   -3.2016408   -1.7519594  0.050894293   -3.2016408    1.4496814   341717 
 3389000   0.75166585   -3.2001644   -1.7508028  0.047398787   -3.2001644    1.4493616   341557 
 3390000   0.75389327   -3.2034388   -1.7491478  0.056826208   -3.2034388     1.454291   341408 
 3391000   0.75248225   -3.2011038    -1.748969  0.056498978   -3.2011038    1.4521347   341275 
 3392000   0.75159401   -3.1983776   -1.7472597  0.053626765   -3.1983776     1.451118   341111 
 3393000   0.75118841   -3.1972269   -1.7463008  0.054539134   -3.1972269    1.4509261   340972 
 3394000   0.74998662   -3.1957761   -1.7466018  0.054041794   -3.1957761    1.4491743   340838 
 3395000   0.75010021   -3.1967732   -1.7467199  0.048863651   -3.1967732    1.4500533   340683 
 3396000   0.74850216   -3.1924731   -1.7448037  0.050112298   -3.1924731    1.4476694   340517 
 3397000    0.7480816   -3.1921059   -1.7446676  0.047805516   -3.1921059    1.4474383   340380 
 3398000   0.74912382   -3.1933276   -1.7432379  0.050297501   -3.1933276    1.4500897   340231 
 3399000   0.75024284   -3.1948544   -1.7418769  0.049354888   -3.1948544    1.4529775   340062 
 3400000   0.74924721   -3.1927506   -1.7410909  0.049776836   -3.1927506    1.4516597   339919 
 3401000    0.7500985   -3.1932652   -1.7392589  0.053202066   -3.1932652    1.4540063   339756 
 3402000   0.74985264   -3.1917837   -1.7376377  0.057361424   -3.1917837    1.4541461   339612 
 3403000   0.74908906   -3.1897159   -1.7363788  0.053488082   -3.1897159    1.4533372   339455 
 3404000   0.74893854   -3.1896388    -1.735917  0.056764868   -3.1896388    1.4537218   339297 
 3405000    0.7466417   -3.1850129   -1.7350999  0.050823888   -3.1850129     1.449913   339145 
 3406000    0.7475265   -3.1866312   -1.7341777  0.052950548   -3.1866312    1.4524535   338953 
 3407000   0.74575288   -3.1832569   -1.7335396  0.047291561   -3.1832569    1.4497173   338787 
 3408000   0.74613724   -3.1825895   -1.7314353  0.051294709   -3.1825895    1.4511542   338626 
 3409000   0.74518473   -3.1803303   -1.7303179  0.052719196   -3.1803303    1.4500125   338460 
 3410000   0.74589364   -3.1810561   -1.7289692  0.051347835   -3.1810561    1.4520869   338298 
 3411000   0.74562439   -3.1804068    -1.728183  0.056687018   -3.1804068    1.4522238   338144 
 3412000   0.74523811   -3.1798574   -1.7276258  0.052243507   -3.1798574    1.4522316   337967 
 3413000   0.74470963   -3.1781798   -1.7263078  0.053065427   -3.1781798     1.451872   337811 
 3414000   0.74497023   -3.1791704   -1.7262097  0.051894837   -3.1791704    1.4529607   337676 
 3415000   0.74367097   -3.1762633    -1.725192  0.052147346   -3.1762633    1.4510712   337526 
 3416000   0.74458538   -3.1751461   -1.7216318  0.049025524   -3.1751461    1.4535143   337373 
 3417000   0.74376378   -3.1739837   -1.7213585  0.054956177   -3.1739837    1.4526252   337207 
 3418000   0.74250893   -3.1728011    -1.721934   0.04982797   -3.1728011    1.4508671   337046 
 3419000   0.74351018   -3.1733485   -1.7197918  0.052863102   -3.1733485    1.4535567   336876 
 3420000   0.74260549   -3.1707625    -1.718194  0.051896563   -3.1707625    1.4525685   336695 
 3421000   0.74332844   -3.1718205    -1.717138  0.051868543   -3.1718205    1.4546825   336533 
 3422000   0.74248285   -3.1688118   -1.7151102  0.054992387   -3.1688118    1.4537016   336377 
 3423000   0.74287727   -3.1697125   -1.7145336  0.053932014   -3.1697125     1.455179   336214 
 3424000   0.74143939   -3.1660539   -1.7130001  0.050656834   -3.1660539    1.4530539   336054 
 3425000   0.74226805   -3.1660598   -1.7105937  0.054249095   -3.1660598    1.4554661   335872 
 3426000   0.74172066   -3.1633525   -1.7082969  0.049919083   -3.1633525    1.4550556   335719 
 3427000   0.74082215   -3.1620945   -1.7080609  0.050821309   -3.1620945    1.4540336   335548 
 3428000   0.74122242   -3.1629175   -1.7073131  0.051003335   -3.1629175    1.4556044   335367 
 3429000   0.74192008   -3.1636116   -1.7059026  0.053905873   -3.1636116     1.457709   335198 
 3430000   0.74079607   -3.1603184   -1.7040967  0.052401922   -3.1603184    1.4562217   335032 
 3431000   0.74114306   -3.1607858   -1.7031075  0.056458582   -3.1607858    1.4576783   334854 
 3432000   0.74046062   -3.1592101   -1.7020298  0.052146263   -3.1592101    1.4571803   334660 
 3433000    0.7393532   -3.1563123   -1.7005501  0.051540789   -3.1563123    1.4557622   334485 
 3434000   0.73869367   -3.1551259   -1.6999488  0.059771001   -3.1551259    1.4551771   334321 
 3435000   0.73808689   -3.1538858   -1.6990859  0.051037055   -3.1538858    1.4547999   334133 
 3436000   0.73710686   -3.1524057    -1.698737  0.052178981   -3.1524057    1.4536687   333949 
 3437000   0.73856306   -3.1532155   -1.6959507  0.053528163   -3.1532155    1.4572649   333783 
 3438000   0.73593146   -3.1485943   -1.6957819  0.059287576   -3.1485943    1.4528124   333613 
 3439000    0.7372517   -3.1515299   -1.6953998  0.056247577   -3.1515299    1.4561301   333450 
 3440000   0.73750422   -3.1527875   -1.6953106   0.05345501   -3.1527875    1.4574768   333256 
 3441000   0.73706586   -3.1497776   -1.6924105  0.055512049   -3.1497776    1.4573671   333083 
 3442000    0.7352495   -3.1458031   -1.6912195  0.058253887   -3.1458031    1.4545836   332898 
 3443000   0.73470332   -3.1440947   -1.6898446  0.054889082   -3.1440947    1.4542501   332727 
 3444000    0.7343775   -3.1436667   -1.6892573   0.05024481   -3.1436667    1.4544094   332543 
 3445000   0.73371374    -3.141197   -1.6871927  0.050587718    -3.141197    1.4540043   332335 
 3446000   0.73528012   -3.1420112   -1.6840868  0.052716302   -3.1420112    1.4579244   332149 
 3447000   0.73519595   -3.1413185   -1.6827223  0.059309724   -3.1413185    1.4585963   331958 
 3448000   0.73367729   -3.1388485   -1.6825062  0.057223142   -3.1388485    1.4563423   331785 
 3449000   0.73395659   -3.1396367   -1.6819359   0.05438713   -3.1396367    1.4577007   331602 
 3450000   0.73332128   -3.1387488   -1.6815364  0.050915172   -3.1387488    1.4572124   331426 
 3451000   0.73348872   -3.1381472   -1.6798145  0.055568096   -3.1381472    1.4583327   331247 
 3452000   0.73069473   -3.1317266   -1.6781503  0.052558259   -3.1317266    1.4535763   331065 
 3453000   0.73258824   -3.1368912   -1.6787906  0.047808986   -3.1368912    1.4581006   330893 
 3454000   0.73087529   -3.1345006   -1.6790704  0.052380257   -3.1345006    1.4554302   330725 
 3455000   0.73153045   -3.1338418   -1.6762475  0.050798586   -3.1338418    1.4575943   330530 
 3456000   0.73125407   -3.1329169   -1.6750882  0.059006713   -3.1329169    1.4578287   330352 
 3457000   0.73219644   -3.1338406   -1.6733286   0.05649965   -3.1338406     1.460512   330170 
 3458000   0.73150619   -3.1323968   -1.6723772  0.056447407   -3.1323968    1.4600196   329970 
 3459000   0.73128549   -3.1323163   -1.6719848  0.055662126   -3.1323163    1.4603314   329800 
 3460000   0.72930202    -3.127217   -1.6701793  0.051441398    -3.127217    1.4570377   329649 
 3461000   0.72767164   -3.1244263   -1.6697545  0.053165207   -3.1244263    1.4546718   329447 
 3462000    0.7282844   -3.1247822    -1.668094  0.053558234   -3.1247822    1.4566882   329268 
 3463000   0.72757235   -3.1237462   -1.6676376  0.050268924   -3.1237462    1.4561087   329077 
 3464000   0.72716392    -3.122052   -1.6659996  0.053053606    -3.122052    1.4560523   328905 
 3465000   0.72808724   -3.1234112   -1.6647118  0.056898613   -3.1234112    1.4586995   328725 
 3466000   0.72962831   -3.1250599   -1.6623875  0.057209378   -3.1250599    1.4626724   328526 
 3467000   0.72772775   -3.1198918   -1.6602342  0.054236985   -3.1198918    1.4596577   328347 
 3468000    0.7261693   -3.1175115   -1.6601675   0.05756541   -3.1175115     1.457344   328164 
 3469000   0.72571551   -3.1155404   -1.6581923  0.051957912   -3.1155404    1.4573481   327958 
 3470000   0.72486344   -3.1154841   -1.6590343  0.053187311   -3.1154841    1.4564497   327775 
 3471000   0.72506009   -3.1146148   -1.6569561  0.052902332   -3.1146148    1.4576587   327592 
 3472000   0.72483133   -3.1155009   -1.6574966   0.05232576   -3.1155009    1.4580044   327411 
 3473000   0.72498434   -3.1152181   -1.6560102  0.053993987   -3.1152181     1.459208   327210 
 3474000   0.72446973   -3.1125055   -1.6535665  0.054650707   -3.1125055    1.4589391   327038 
 3475000   0.72397879   -3.1109038   -1.6521058   0.05577202   -3.1109038    1.4587979   326848 
 3476000   0.72361019   -3.1094622   -1.6505768  0.053277234   -3.1094622    1.4588854   326662 
 3477000   0.72265545   -3.1059062   -1.6480977  0.055983935   -3.1059062    1.4578085   326472 
 3478000   0.72319109    -3.105648   -1.6459184  0.057084559    -3.105648    1.4597296   326284 
 3479000   0.72365178   -3.1083983   -1.6469102  0.055675742   -3.1083983    1.4614882   326099 
 3480000   0.72044793   -3.1031869   -1.6472987  0.058749857   -3.1031869    1.4558883   325904 
 3481000   0.72324476   -3.1071117   -1.6447235  0.056190381   -3.1071117    1.4623882   325715 
 3482000   0.72204005   -3.1044703   -1.6436838  0.058289694   -3.1044703    1.4607865   325529 
 3483000   0.72079459   -3.1015895   -1.6425204  0.057258282   -3.1015895     1.459069   325350 
 3484000   0.72082113   -3.1023646   -1.6423937  0.052431823   -3.1023646    1.4599709   325161 
 3485000   0.72117559   -3.1022349     -1.64071  0.054182377   -3.1022349    1.4615248   324975 
 3486000   0.72033547   -3.1006286   -1.6399658  0.052019093   -3.1006286    1.4606628   324788 
 3487000   0.71914515   -3.0984076   -1.6393094  0.051587079   -3.0984076    1.4590982   324599 
 3488000   0.72057722   -3.1030508   -1.6402855  0.054773326   -3.1030508    1.4627653   324430 
 3489000   0.72063589   -3.1015872   -1.6378953   0.05894614   -3.1015872     1.463692   324251 
 3490000   0.71877556   -3.0977964   -1.6370766  0.057786145   -3.0977964    1.4607198   324072 
 3491000   0.72010266   -3.1004398    -1.636264  0.055814421   -3.1004398    1.4641758   323904 
 3492000   0.71776917   -3.0959921   -1.6357449  0.056984197   -3.0959921    1.4602472   323723 
 3493000    0.7179344   -3.0970925   -1.6356785  0.056088224   -3.0970925     1.461414   323539 
 3494000   0.71826489   -3.0973262   -1.6343984  0.052476925   -3.0973262    1.4629277   323353 
 3495000   0.71726391   -3.0955756   -1.6339045  0.054208446   -3.0955756     1.461671   323180 
 3496000   0.71616778   -3.0938955   -1.6335364  0.056602955   -3.0938955    1.4603591   322976 
 3497000   0.71538607   -3.0922367   -1.6326401  0.049436247   -3.0922367    1.4595966   322792 
 3498000    0.7158607   -3.0928732   -1.6314344  0.056665841   -3.0928732    1.4614388   322599 
 3499000   0.71531159   -3.0926063    -1.631428  0.056587092   -3.0926063    1.4611784   322409 
 3500000   0.71460111   -3.0911152   -1.6305727  0.057122568   -3.0911152    1.4605425   322229 
 3501000   0.71409764   -3.0885862   -1.6282887  0.053083716   -3.0885862    1.4602975   322056 
 3502000   0.71367623   -3.0874305   -1.6271468  0.048581802   -3.0874305    1.4602836   321869 
 3503000   0.71417697   -3.0885096   -1.6263019  0.053329492   -3.0885096    1.4622077   321671 
 3504000   0.71386814   -3.0872693    -1.624912  0.056994079   -3.0872693    1.4623573   321499 
 3505000   0.71373885   -3.0881522   -1.6252497  0.051393116   -3.0881522    1.4629024   321321 
 3506000   0.71319078   -3.0874026   -1.6248452  0.055722163   -3.0874026    1.4625574   321150 
 3507000   0.71356554    -3.087775   -1.6235463  0.055379152    -3.087775    1.4642287   320952 
 3508000   0.71269576   -3.0847539   -1.6214529  0.054524756   -3.0847539    1.4633011   320764 
 3509000   0.71112779   -3.0816175   -1.6207115  0.054830079   -3.0816175    1.4609061   320583 
 3510000    0.7088979   -3.0792291   -1.6220586  0.052129173   -3.0792291    1.4571705   320397 
 3511000   0.71055375   -3.0826666   -1.6212029  0.052032929   -3.0826666    1.4614637   320202 
 3512000   0.70995994   -3.0832822   -1.6221683    0.0538142   -3.0832822    1.4611139   320011 
 3513000   0.70850739   -3.0808075    -1.621835  0.056936944   -3.0808075    1.4589725   319825 
 3514000   0.71008058   -3.0841604   -1.6211387   0.05649192   -3.0841604    1.4630217   319648 
 3515000   0.70940407   -3.0831397   -1.6205738  0.058626416   -3.0831397    1.4625659   319443 
 3516000   0.70849286   -3.0807498   -1.6192299  0.051904924   -3.0807498    1.4615199   319261 
 3517000   0.70748279   -3.0776336   -1.6173603  0.056468344   -3.0776336    1.4602733   319078 
 3518000   0.70810823   -3.0779184   -1.6154191  0.054070633   -3.0779184    1.4624993   318874 
 3519000   0.70834577   -3.0785568   -1.6147038  0.051510523   -3.0785568     1.463853   318686 
 3520000    0.7063722   -3.0755893   -1.6148753  0.050747181   -3.0755893     1.460714   318481 
 3521000   0.70681995   -3.0757941   -1.6132633  0.051489447   -3.0757941    1.4625308   318287 
 3522000   0.70699701   -3.0756711   -1.6119231  0.050965369   -3.0756711     1.463748   318102 
 3523000   0.70604653    -3.073385   -1.6107496  0.050992046    -3.073385    1.4626354   317916 
 3524000   0.70621176   -3.0741311   -1.6103016  0.052363131   -3.0741311    1.4638295   317731 
 3525000   0.70400686   -3.0716365   -1.6115364  0.051697188   -3.0716365    1.4601001   317548 
 3526000   0.70460124   -3.0728399   -1.6106229  0.050671871   -3.0728399     1.462217   317356 
 3527000   0.70346181   -3.0711211   -1.6103988  0.053705837   -3.0711211    1.4607223   317167 
 3528000   0.70319337   -3.0700142   -1.6090294  0.053529241   -3.0700142    1.4609848   316989 
 3529000   0.70347658   -3.0718078   -1.6094503   0.05367472   -3.0718078    1.4623575   316819 
 3530000   0.70279452   -3.0711259    -1.609268  0.055460792   -3.0711259    1.4618579   316620 
 3531000   0.70192747   -3.0692873   -1.6083055  0.055938916   -3.0692873    1.4609818   316419 
 3532000   0.70189042   -3.0689019   -1.6070825  0.052468538   -3.0689019    1.4618195   316221 
 3533000   0.70137224   -3.0688368   -1.6071998  0.057864335   -3.0688368     1.461637   316027 
 3534000   0.69867287   -3.0629418    -1.606022  0.053505885   -3.0629418    1.4569198   315830 
 3535000   0.70029261   -3.0676311   -1.6063436  0.049489077   -3.0676311    1.4612875   315616 
 3536000   0.69972425   -3.0667795   -1.6057568  0.058510864   -3.0667795    1.4610227   315417 
 3537000   0.70075077   -3.0687905   -1.6047843  0.052267792   -3.0687905    1.4640062   315236 
 3538000   0.70159353   -3.0712207   -1.6045466    0.0537376   -3.0712207    1.4666741   315041 
 3539000   0.69930663   -3.0659864   -1.6031504  0.055150318   -3.0659864     1.462836   314838 
 3540000   0.69883964   -3.0656309    -1.602917  0.054317988   -3.0656309     1.462714   314654 
 3541000   0.69951718   -3.0661233   -1.6010646  0.055065133   -3.0661233    1.4650586   314455 
 3542000   0.69716866   -3.0622902   -1.6012535  0.050229231   -3.0622902    1.4610367   314262 
 3543000   0.69777832   -3.0635153   -1.6002977  0.054033011   -3.0635153    1.4632176   314068 
 3544000   0.69571454   -3.0615145   -1.6017926  0.055203579   -3.0615145    1.4597219   313889 
 3545000   0.69700101   -3.0658437   -1.6024902  0.049456927   -3.0658437    1.4633535   313689 
 3546000    0.6956843   -3.0629134    -1.601495  0.054257107   -3.0629134    1.4614183   313511 
 3547000   0.69576917   -3.0632638   -1.6006501  0.052047096   -3.0632638    1.4626136   313293 
 3548000   0.69453539   -3.0596467   -1.5987453   0.05700581   -3.0596467    1.4609014   313104 
 3549000   0.69514333   -3.0597073    -1.596672  0.051131885   -3.0597073    1.4630352   312921 
 3550000   0.69374341   -3.0559043    -1.594891  0.051815035   -3.0559043    1.4610133   312723 
 3551000    0.6916473   -3.0526297   -1.5951359  0.051482219   -3.0526297    1.4574938   312531 
 3552000   0.69161798   -3.0509218   -1.5925846  0.049214818   -3.0509218    1.4583373   312337 
 3553000   0.69200009   -3.0518252   -1.5918362  0.051528352   -3.0518252     1.459989   312156 
 3554000   0.69232872   -3.0525903    -1.591023  0.053650099   -3.0525903    1.4615673   311967 
 3555000   0.69189017    -3.050877   -1.5893032  0.053050055    -3.050877    1.4615738   311768 
 3556000   0.69174576   -3.0516687   -1.5893118  0.054944249   -3.0516687     1.462357   311536 
 3557000   0.69310539   -3.0546011   -1.5884051  0.060473286   -3.0546011     1.466196   311331 
 3558000   0.69262888   -3.0540089   -1.5879591  0.059824106   -3.0540089    1.4660498   311148 
 3559000   0.69183668   -3.0537206   -1.5884199   0.05676886   -3.0537206    1.4653007   310951 
 3560000    0.6893215   -3.0490646   -1.5881655  0.049820911   -3.0490646    1.4608991   310754 
 3561000    0.6891806   -3.0501027    -1.588505  0.053033216   -3.0501027    1.4615976   310542 
 3562000   0.68727352   -3.0471434   -1.5885851  0.047088728   -3.0471434    1.4585583   310328 
 3563000   0.68711843   -3.0466604   -1.5874344  0.056064585   -3.0466604     1.459226   310116 
 3564000   0.68788334   -3.0480394   -1.5863028  0.052070104   -3.0480394    1.4617366   309928 
 3565000   0.68788408   -3.0484292   -1.5856858   0.05362939   -3.0484292    1.4627434   309715 
 3566000    0.6885424   -3.0504537   -1.5854022  0.054996489   -3.0504537    1.4650515   309523 
 3567000    0.6888049   -3.0514657   -1.5849886  0.054261846   -3.0514657    1.4664771   309340 
 3568000    0.6875904   -3.0485886   -1.5836933  0.061129979   -3.0485886    1.4648953   309128 
 3569000   0.68563202   -3.0453782   -1.5836811  0.053365835   -3.0453782    1.4616971   308922 
 3570000   0.68415813   -3.0435649   -1.5840934  0.050023557   -3.0435649    1.4594715   308728 
 3571000   0.68409014   -3.0425521   -1.5821993  0.052844939   -3.0425521    1.4603529   308511 
 3572000   0.68305779   -3.0416895    -1.582552   0.05394324   -3.0416895    1.4591376   308302 
 3573000   0.68374377   -3.0431259   -1.5816365  0.053279463   -3.0431259    1.4614894   308115 
 3574000   0.68352454   -3.0418512   -1.5798482  0.051844872   -3.0418512     1.462003   307908 
 3575000   0.68407322   -3.0413025   -1.5771654   0.05147686   -3.0413025    1.4641371   307706 
 3576000   0.68390652   -3.0418064   -1.5770026  0.054837253   -3.0418064    1.4648038   307491 
 3577000   0.68321631   -3.0414589   -1.5772334  0.055618331   -3.0414589    1.4642255   307302 
 3578000   0.68239837   -3.0377654   -1.5743594  0.053648079   -3.0377654    1.4634059   307106 
 3579000   0.68164458   -3.0364386   -1.5735869  0.053374655   -3.0364386    1.4628516   306883 
 3580000   0.68094108   -3.0370498   -1.5748026  0.053482162   -3.0370498    1.4622472   306693 
 3581000   0.67874923   -3.0335093   -1.5750511  0.054780025   -3.0335093    1.4584583   306500 
 3582000    0.6802213   -3.0371436   -1.5745536  0.053718981   -3.0371436      1.46259   306297 
 3583000   0.67969559   -3.0368925   -1.5744063  0.052779042   -3.0368925    1.4624863   306082 
 3584000   0.68013197   -3.0389647   -1.5745395  0.057429414   -3.0389647    1.4644251   305873 
 3585000   0.67942768   -3.0373336   -1.5734294  0.054593626   -3.0373336    1.4639042   305665 
 3586000   0.67871044   -3.0362171   -1.5729009  0.050637239   -3.0362171    1.4633163   305465 
 3587000   0.67824498   -3.0346335    -1.571425   0.05229592   -3.0346335    1.4632085   305278 
 3588000   0.67800808   -3.0348748   -1.5712089   0.05125073   -3.0348748    1.4636659   305076 
 3589000   0.67553985   -3.0296087   -1.5703192  0.054350078   -3.0296087    1.4592894   304877 
 3590000   0.67593523   -3.0320863   -1.5709746  0.049992376   -3.0320863    1.4611116   304675 
 3591000   0.67559627   -3.0314321   -1.5699403  0.051257443   -3.0314321    1.4614918   304443 
 3592000   0.67469471   -3.0306654   -1.5702509  0.056155529   -3.0306654    1.4604145   304261 
 3593000   0.67496847    -3.031405   -1.5693408  0.055641492    -3.031405    1.4620643   304041 
 3594000   0.67414885   -3.0292586   -1.5679411  0.054454207   -3.0292586    1.4613174   303827 
 3595000   0.67467251   -3.0314086   -1.5680843  0.054623286   -3.0314086    1.4633243   303646 
 3596000   0.67352857   -3.0299596   -1.5680909  0.054511429   -3.0299596    1.4618686   303433 
 3597000   0.67393903   -3.0310169   -1.5672444  0.052306689   -3.0310169    1.4637725   303223 
 3598000   0.67190862   -3.0268558   -1.5666072  0.055011635   -3.0268558    1.4602487   303039 
 3599000   0.67354367   -3.0323886   -1.5677503  0.055458587   -3.0323886    1.4646383   302866 
 3600000   0.67238091   -3.0293621   -1.5661846  0.057825755   -3.0293621    1.4631775   302645 
 3601000   0.67131905   -3.0277296   -1.5660273  0.057476874   -3.0277296    1.4617023   302472 
 3602000   0.67256408   -3.0295944   -1.5642607  0.056097407   -3.0295944    1.4653336   302282 
 3603000   0.67227961   -3.0299615   -1.5642925  0.053186948   -3.0299615     1.465669   302085 
 3604000   0.67104013     -3.02719   -1.5632588  0.055492389     -3.02719    1.4639311   301886 
 3605000   0.66950823   -3.0247622   -1.5631708  0.053128844   -3.0247622    1.4615914   301679 
 3606000   0.66908433   -3.0219486   -1.5603815  0.051745025   -3.0219486    1.4615671   301493 
 3607000   0.66801148   -3.0211907   -1.5609306  0.050253942   -3.0211907      1.46026   301279 
 3608000   0.66855293   -3.0224714    -1.560091  0.054494721   -3.0224714    1.4623804   301086 
 3609000   0.66777289   -3.0213366   -1.5595895  0.045570608   -3.0213366    1.4617471   300865 
 3610000   0.66874891   -3.0239387   -1.5589985  0.052555292   -3.0239387    1.4649402   300648 
 3611000   0.66738755   -3.0215845   -1.5587312  0.057721937   -3.0215845    1.4628534   300464 
 3612000   0.66738504   -3.0221986   -1.5584934  0.052774341   -3.0221986    1.4637052   300288 
 3613000   0.66713631   -3.0224555   -1.5581401  0.056117557   -3.0224555    1.4643154   300051 
 3614000   0.66744006   -3.0218877   -1.5558502  0.053051287   -3.0218877    1.4660375   299835 
 3615000   0.66395283   -3.0136176   -1.5542956  0.053894659   -3.0136176     1.459322   299641 
 3616000   0.66396592   -3.0124862   -1.5521851  0.054093307   -3.0124862    1.4603011   299446 
 3617000   0.66418016   -3.0137539   -1.5520346  0.046455875   -3.0137539    1.4617193   299252 
 3618000   0.66333079    -3.012145   -1.5512503  0.053125958    -3.012145    1.4608947   299038 
 3619000    0.6640947    -3.014525    -1.550876  0.052452331    -3.014525     1.463649   298819 
 3620000   0.66370803   -3.0141458   -1.5502468   0.05626019   -3.0141458    1.4638991   298594 
 3621000   0.66355796   -3.0152817   -1.5505805  0.055138377   -3.0152817    1.4647012   298363 
 3622000   0.66380472   -3.0161873   -1.5500077  0.048089336   -3.0161873    1.4661795   298173 
 3623000   0.66324794   -3.0154839   -1.5494574  0.050221183   -3.0154839    1.4660265   297954 
 3624000   0.66013627   -3.0083525   -1.5482385  0.051334972   -3.0083525    1.4601139   297757 
 3625000   0.65967353   -3.0075133   -1.5474274   0.05312165   -3.0075133    1.4600859   297554 
 3626000   0.65882317   -3.0057439    -1.546422  0.051877948   -3.0057439    1.4593219   297326 
 3627000   0.65868541   -3.0060398   -1.5459427  0.054930232   -3.0060398    1.4600971   297106 
 3628000   0.65963991   -3.0089118   -1.5456103  0.052780442   -3.0089118    1.4633014   296885 
 3629000   0.65941618   -3.0081475   -1.5442724  0.055666782   -3.0081475    1.4638751   296668 
 3630000    0.6589427    -3.008959   -1.5452123   0.05060404    -3.008959    1.4637467   296481 
 3631000   0.65829182    -3.008124    -1.544841  0.056001849    -3.008124     1.463283   296282 
 3632000   0.65674193   -3.0078045   -1.5469954  0.053042971   -3.0078045    1.4608091   296085 
 3633000   0.65752583   -3.0089164    -1.545286  0.053311779   -3.0089164    1.4636304   295867 
 3634000    0.6566971   -3.0086879   -1.5459035  0.055436417   -3.0086879    1.4627844   295665 
 3635000   0.65606513   -3.0085144   -1.5461089   0.04926996   -3.0085144    1.4624055   295457 
 3636000     0.654575   -3.0057563   -1.5457731  0.055943882   -3.0057563    1.4599832   295275 
 3637000   0.65613584   -3.0080001   -1.5434989  0.052799738   -3.0080001    1.4645012   295066 
 3638000   0.65421286    -3.004953   -1.5436891   0.05219391    -3.004953    1.4612639   294853 
 3639000   0.65285732   -3.0033331   -1.5440873   0.05015212   -3.0033331    1.4592458   294649 
 3640000   0.65130236   -3.0001179   -1.5432352  0.052362344   -3.0001179    1.4568827   294424 
 3641000   0.65341022   -3.0045081    -1.541897   0.04985874   -3.0045081    1.4626111   294220 
 3642000   0.65253648    -3.002279   -1.5406401  0.054224005    -3.002279    1.4616389   294022 
 3643000   0.65306137    -3.003487    -1.539567  0.051541955    -3.003487      1.46392   293800 
 3644000   0.65158071   -2.9995326    -1.537877  0.053778374   -2.9995326    1.4616556   293588 
 3645000   0.65167818   -3.0002459   -1.5373502  0.052596113   -3.0002459    1.4628957   293383 
 3646000   0.65210354   -3.0021432    -1.537264  0.050896801   -3.0021432    1.4648791   293177 
 3647000   0.65028953   -2.9986891   -1.5369077  0.054644522   -2.9986891    1.4617814   292981 
 3648000   0.64937088   -2.9978577   -1.5371142  0.054332342   -2.9978577    1.4607435   292775 
 3649000   0.64963227   -2.9975504    -1.535165   0.05321442   -2.9975504    1.4623854   292564 
 3650000   0.64719407   -2.9915628   -1.5336944  0.049983067   -2.9915628    1.4578684   292369 
 3651000   0.64778723    -2.992729   -1.5326355  0.048219397    -2.992729    1.4600935   292191 
 3652000    0.6481109   -2.9944796   -1.5326008  0.050630882   -2.9944796    1.4618787   291980 
 3653000   0.64794165   -2.9938046    -1.531356  0.052055497   -2.9938046    1.4624486   291790 
 3654000    0.6477174   -2.9947914   -1.5318311  0.053859715   -2.9947914    1.4629603   291587 
 3655000   0.64765911    -2.994584   -1.5308467  0.053276042    -2.994584    1.4637372   291406 
 3656000   0.64680988   -2.9923247   -1.5294576  0.057526585   -2.9923247    1.4628671   291197 
 3657000   0.64605115   -2.9911891   -1.5290388  0.055764212   -2.9911891    1.4621503   290998 
 3658000   0.64509883   -2.9900408   -1.5290216  0.050985406   -2.9900408    1.4610193   290794 
 3659000   0.64420765   -2.9879495    -1.528055  0.051274068   -2.9879495    1.4598946   290616 
 3660000   0.64477033   -2.9893237   -1.5270924  0.051926716   -2.9893237    1.4622313   290405 
 3661000   0.64514311   -2.9895326   -1.5254324  0.054290932   -2.9895326    1.4641002   290202 
 3662000   0.64308413   -2.9855709   -1.5250966   0.05057444   -2.9855709    1.4604743   289994 
 3663000   0.64325795   -2.9868329   -1.5249304   0.05848514   -2.9868329    1.4619025   289789 
 3664000   0.64254526   -2.9861869   -1.5248149  0.052016822   -2.9861869     1.461372   289573 
 3665000   0.64182503    -2.985132   -1.5243689  0.050307376    -2.985132    1.4607631   289369 
 3666000   0.64152643   -2.9851336   -1.5240756  0.053970314   -2.9851336     1.461058   289176 
 3667000    0.6391021   -2.9801748   -1.5235804  0.057359533   -2.9801748    1.4565944   288966 
 3668000    0.6413188   -2.9845251   -1.5218763  0.049353968   -2.9845251    1.4626487   288768 
 3669000   0.63958102   -2.9810784    -1.521296  0.051734542   -2.9810784    1.4597824   288551 
 3670000   0.64055926   -2.9828266   -1.5196756  0.050698381   -2.9828266    1.4631509   288327 
 3671000   0.64025147   -2.9820945   -1.5186263  0.056002074   -2.9820945    1.4634681   288126 
 3672000   0.64200829   -2.9866356   -1.5182038  0.053876727   -2.9866356    1.4684318   287940 
 3673000   0.64002626   -2.9821063   -1.5173177  0.053876324   -2.9821063    1.4647886   287765 
 3674000   0.63903928   -2.9794073   -1.5158247  0.050388228   -2.9794073    1.4635826   287558 
 3675000   0.63915564   -2.9792365   -1.5143329  0.050355419   -2.9792365    1.4649036   287351 
 3676000   0.63624124   -2.9728884   -1.5135928  0.051611641   -2.9728884    1.4592955   287140 
 3677000   0.63701391   -2.9725466   -1.5105471  0.051227082   -2.9725466    1.4619995   286957 
 3678000   0.63717161   -2.9712235   -1.5077247  0.051511766   -2.9712235    1.4634988   286734 
 3679000   0.63623796   -2.9698515   -1.5075435  0.049668444   -2.9698515     1.462308   286547 
 3680000   0.63611191    -2.969576   -1.5065979  0.050816325    -2.969576    1.4629781   286359 
 3681000   0.63688799   -2.9715049    -1.505708  0.053381641   -2.9715049     1.465797   286157 
 3682000   0.63643353   -2.9701023   -1.5043268  0.054562438   -2.9701023    1.4657755   285957 
 3683000   0.63603116   -2.9688198   -1.5029201  0.050621465   -2.9688198    1.4658997   285752 
 3684000   0.63416338    -2.963397   -1.5006914  0.055423023    -2.963397    1.4627057   285535 
 3685000   0.63434709   -2.9649925   -1.5007606  0.049092299   -2.9649925    1.4642319   285320 
 3686000   0.63305244   -2.9621714   -1.4998977  0.054503305   -2.9621714    1.4622737   285119 
 3687000   0.63321025   -2.9619287   -1.4982894  0.051709055   -2.9619287    1.4636392   284924 
 3688000   0.63400878   -2.9642789   -1.4977903  0.056312668   -2.9642789    1.4664886   284729 
 3689000   0.63349661   -2.9624569   -1.4961487  0.056481058   -2.9624569    1.4663082   284534 
 3690000   0.63255638   -2.9617161   -1.4966058  0.054022613   -2.9617161    1.4651102   284344 
 3691000   0.63245873   -2.9615554   -1.4956764  0.054196603   -2.9615554     1.465879   284151 
 3692000   0.63175708    -2.960231   -1.4949159  0.051919095    -2.960231    1.4653151   283945 
 3693000    0.6303784    -2.958043   -1.4948848  0.054297374    -2.958043    1.4631582   283743 
 3694000   0.63044748   -2.9581451   -1.4937221  0.054496238   -2.9581451    1.4644231   283529 
 3695000   0.62964317   -2.9566924   -1.4929916  0.052228907   -2.9566924    1.4637008   283307 
 3696000    0.6293563   -2.9562429   -1.4920564  0.051082193   -2.9562429    1.4641865   283084 
 3697000   0.62911033   -2.9546578   -1.4900554    0.0538372   -2.9546578    1.4646024   282893 
 3698000   0.62933658    -2.954735   -1.4885796  0.054899396    -2.954735    1.4661553   282695 
 3699000   0.62941422   -2.9539257   -1.4866033  0.051658274   -2.9539257    1.4673224   282505 
 3700000   0.62826524   -2.9526358   -1.4870322  0.055764003   -2.9526358    1.4656036   282320 
 3701000   0.62853313   -2.9526954   -1.4854223  0.052722698   -2.9526954    1.4672731   282119 
 3702000   0.62740402    -2.950609   -1.4849742  0.054770126    -2.950609    1.4656348   281927 
 3703000   0.62676278   -2.9494634   -1.4842663  0.051418936   -2.9494634     1.465197   281723 
 3704000   0.62565541   -2.9464422   -1.4827065  0.052607744   -2.9464422    1.4637357   281506 
 3705000   0.62405375   -2.9430018   -1.4819284  0.055255392   -2.9430018    1.4610734   281297 
 3706000   0.62425128   -2.9440314   -1.4815025  0.049848057   -2.9440314    1.4625289   281106 
 3707000   0.62532425   -2.9456501   -1.4795904  0.052289675   -2.9456501    1.4660597   280911 
 3708000   0.62398271   -2.9431951   -1.4792226  0.053490832   -2.9431951    1.4639724   280708 
 3709000     0.623881   -2.9444095   -1.4796007  0.057470003   -2.9444095    1.4648088   280502 
 3710000   0.62426684   -2.9449847   -1.4781144  0.052072457   -2.9449847    1.4668704   280281 
 3711000   0.62097731   -2.9403543   -1.4801299  0.053341597   -2.9403543    1.4602245   280073 
 3712000   0.62075306    -2.939254   -1.4784145  0.052274136    -2.939254    1.4608394   279854 
 3713000   0.62060964   -2.9399723   -1.4784677  0.049880045   -2.9399723    1.4615046   279662 
 3714000   0.61903271   -2.9375514   -1.4788424  0.051684703   -2.9375514     1.458709   279486 
 3715000   0.62051604   -2.9406173   -1.4773186  0.053136546   -2.9406173    1.4632986   279277 
 3716000   0.61943083   -2.9375396   -1.4758737  0.056139143   -2.9375396    1.4616659   279100 
 3717000   0.61901056   -2.9368925    -1.475239   0.05610648   -2.9368925    1.4616535   278913 
 3718000   0.61935375   -2.9364246    -1.472885  0.054232903   -2.9364246    1.4635396   278708 
 3719000   0.62015819   -2.9388635   -1.4722812  0.048683974   -2.9388635    1.4665823   278491 
 3720000   0.61893118   -2.9357962   -1.4711478  0.053959659   -2.9357962    1.4646483   278307 
 3721000   0.61830329   -2.9354337   -1.4712295   0.05384176   -2.9354337    1.4642042   278109 
 3722000   0.61866477   -2.9366107   -1.4704381  0.055226922   -2.9366107    1.4661726   277898 
 3723000   0.61662538   -2.9324954   -1.4698823  0.053272519   -2.9324954    1.4626131   277656 
 3724000   0.61715989   -2.9326754   -1.4677498  0.053841885   -2.9326754    1.4649256   277458 
 3725000   0.61571959   -2.9321824   -1.4694736  0.053520663   -2.9321824    1.4627088   277230 
 3726000   0.61571834   -2.9319243   -1.4680409  0.052723917   -2.9319243    1.4638834   277007 
 3727000   0.61550912    -2.931044   -1.4666166  0.055333131    -2.931044    1.4644274   276810 
 3728000   0.61419554   -2.9281971   -1.4659124  0.051638178   -2.9281971    1.4622847   276624 
 3729000    0.6134494   -2.9252435   -1.4635939  0.048178663   -2.9252435    1.4616496   276408 
 3730000   0.61295262   -2.9252916   -1.4638052  0.050032951   -2.9252916    1.4614864   276215 
 3731000   0.61310916   -2.9272779   -1.4642847   0.05497267   -2.9272779    1.4629931   276001 
 3732000   0.61197635   -2.9248021   -1.4633578  0.054669704   -2.9248021    1.4614443   275783 
 3733000   0.61262785   -2.9251426   -1.4608894  0.052515662   -2.9251426    1.4642532   275547 
 3734000   0.61362217   -2.9285223   -1.4607633  0.052616718   -2.9285223     1.467759   275335 
 3735000   0.61218556   -2.9247827   -1.4594595  0.052040719   -2.9247827    1.4653232   275147 
 3736000   0.61191812    -2.923221   -1.4574938  0.054569192    -2.923221    1.4657272   274951 
 3737000   0.61028532   -2.9219314   -1.4588967  0.053339941   -2.9219314    1.4630347   274722 
 3738000   0.60969164   -2.9228899   -1.4601017  0.049815124   -2.9228899    1.4627882   274501 
 3739000   0.60968528   -2.9225777   -1.4586796  0.052716432   -2.9225777    1.4638982   274290 
 3740000   0.61048934   -2.9261728   -1.4592423  0.052894556   -2.9261728    1.4669305   274084 
 3741000   0.60846469   -2.9215318   -1.4584467  0.049179032   -2.9215318    1.4630851   273893 
 3742000   0.60866136   -2.9224639   -1.4578578  0.051257783   -2.9224639    1.4646061   273697 
 3743000   0.60765154   -2.9204519   -1.4571905  0.058850976   -2.9204519    1.4632615   273494 
 3744000   0.60881451   -2.9233256   -1.4562176  0.054325627   -2.9233256     1.467108   273299 
 3745000   0.60747796   -2.9224199   -1.4574875  0.056818519   -2.9224199    1.4649324   273104 
 3746000   0.60634844   -2.9206553    -1.457477  0.056410658   -2.9206553    1.4631783   272923 
 3747000   0.60683919   -2.9230437    -1.457618  0.052412969   -2.9230437    1.4654257   272725 
 3748000   0.60453984   -2.9166879   -1.4557435  0.055089071   -2.9166879    1.4609445   272525 
 3749000   0.60451624   -2.9159173   -1.4540482   0.04956427   -2.9159173    1.4618691   272342 
 3750000   0.60304474   -2.9136735   -1.4542482  0.051469552   -2.9136735    1.4594253   272134 
 3751000   0.60508856   -2.9185001   -1.4529977  0.053779241   -2.9185001    1.4655024   271924 
 3752000   0.60346741     -2.91546   -1.4526359  0.057524797     -2.91546    1.4628241   271692 
 3753000   0.60373137   -2.9168919   -1.4523013  0.054055399   -2.9168919    1.4645906   271483 
 3754000   0.60397661   -2.9184351   -1.4520451  0.049488044   -2.9184351      1.46639   271260 
 3755000   0.60112147   -2.9117044   -1.4512772  0.050952978   -2.9117044    1.4604271   271080 
 3756000   0.60105868   -2.9129557    -1.451468  0.054013895   -2.9129557    1.4614877   270855 
 3757000   0.60068445   -2.9124512   -1.4508428  0.049824014   -2.9124512    1.4616084   270664 
 3758000   0.60113626   -2.9149524   -1.4512117  0.053635959   -2.9149524    1.4637407   270473 
 3759000   0.60082414   -2.9134905   -1.4493948  0.054172639   -2.9134905    1.4640958   270267 
 3760000   0.60103533   -2.9136045   -1.4477738  0.057356032   -2.9136045    1.4658307   270042 
 3761000   0.59982122   -2.9111113   -1.4471465  0.052753004   -2.9111113    1.4639648   269840 
 3762000   0.59899845   -2.9091772   -1.4460765  0.053963365   -2.9091772    1.4631007   269629 
 3763000   0.59820254   -2.9088387   -1.4465268  0.052071529   -2.9088387    1.4623119   269416 
 3764000    0.5971016   -2.9058242    -1.444989  0.047698501   -2.9058242    1.4608352   269192 
 3765000   0.59733497   -2.9067786   -1.4441337  0.056517331   -2.9067786     1.462645   268964 
 3766000   0.59644954   -2.9043091   -1.4427073   0.05682117   -2.9043091    1.4616017   268757 
 3767000   0.59825516   -2.9086298   -1.4415116    0.0520952   -2.9086298    1.4671182   268557 
 3768000   0.59768188    -2.907238    -1.440324  0.053619644    -2.907238     1.466914   268337 
 3769000   0.59651696   -2.9058165   -1.4406204  0.050948205   -2.9058165    1.4651961   268128 
 3770000   0.59512975   -2.9031756   -1.4402082   0.05202805   -2.9031756    1.4629673   267912 
 3771000   0.59477427   -2.9032548   -1.4399597  0.053230734   -2.9032548    1.4632951   267692 
 3772000   0.59315401   -2.9008333   -1.4403515  0.053198282   -2.9008333    1.4604818   267477 
 3773000   0.59363634   -2.9011349    -1.438317  0.055039087   -2.9011349    1.4628179   267267 
 3774000   0.59338781   -2.9022096   -1.4386844  0.056302807   -2.9022096    1.4635252   267026 
 3775000   0.59299329   -2.9027948   -1.4390312  0.053206368   -2.9027948    1.4637636   266805 
 3776000   0.59148277   -2.8989549   -1.4377314  0.055416818   -2.8989549    1.4612235   266588 
 3777000     0.590753   -2.8979825   -1.4373401  0.052819042   -2.8979825    1.4606424   266365 
 3778000   0.59066638   -2.8980586   -1.4363902  0.050936574   -2.8980586    1.4616684   266139 
 3779000   0.58947622   -2.8966738   -1.4367821  0.055138388   -2.8966738    1.4598916   265926 
 3780000   0.58966272   -2.8983065   -1.4367329  0.054476011   -2.8983065    1.4615737   265704 
 3781000   0.58833553   -2.8946595   -1.4351341  0.054203206   -2.8946595    1.4595255   265478 
 3782000    0.5880484   -2.8945512   -1.4345337  0.048702142   -2.8945512    1.4600175   265259 
 3783000   0.58722564   -2.8936096   -1.4344521  0.051377175   -2.8936096    1.4591575   265044 
 3784000   0.58720454   -2.8935358   -1.4333565  0.053021991   -2.8935358    1.4601793   264849 
 3785000   0.58689797   -2.8934374   -1.4328954   0.05342112   -2.8934374     1.460542   264645 
 3786000   0.58761375   -2.8949861   -1.4314628  0.053807093   -2.8949861    1.4635233   264428 
 3787000   0.58665191   -2.8934986   -1.4311985  0.053107301   -2.8934986    1.4623001   264216 
 3788000    0.5868942   -2.8951256   -1.4311466  0.048916425   -2.8951256     1.463979   264022 
 3789000    0.5850484   -2.8899194   -1.4293221  0.054775655   -2.8899194    1.4605973   263801 
 3790000   0.58507915   -2.8898273   -1.4279451  0.053828403   -2.8898273    1.4618821   263583 
 3791000   0.58280645   -2.8854208   -1.4280838  0.052479209   -2.8854208     1.457337   263378 
 3792000   0.58281173   -2.8854106   -1.4267756  0.052997555   -2.8854106     1.458635   263146 
 3793000   0.58350098   -2.8883775   -1.4269733  0.053680401   -2.8883775    1.4614041   262958 
 3794000   0.58385308   -2.8901354   -1.4265748  0.055830421   -2.8901354    1.4635605   262729 
 3795000   0.58255746   -2.8877031   -1.4262333  0.054218071   -2.8877031    1.4614698   262521 
 3796000   0.58015725   -2.8823096   -1.4257404  0.050498418   -2.8823096    1.4565692   262319 
 3797000   0.58191342   -2.8869607   -1.4247227  0.053223452   -2.8869607    1.4622381   262093 
 3798000   0.58130807   -2.8849161   -1.4230836  0.048355648   -2.8849161    1.4618324   261893 
 3799000   0.58070299   -2.8860789   -1.4245515  0.055349443   -2.8860789    1.4615274   261675 
 3800000   0.58017249   -2.8864552   -1.4251014  0.057026995   -2.8864552    1.4613538   261467 
 3801000   0.58055177   -2.8879083   -1.4244797  0.046354609   -2.8879083    1.4634286   261267 
 3802000   0.57909818    -2.884064   -1.4232037  0.054369369    -2.884064    1.4608603   261071 
 3803000   0.57855435   -2.8817426   -1.4211128  0.053123517   -2.8817426    1.4606298   260867 
 3804000   0.57827784   -2.8816167   -1.4205817  0.050737688   -2.8816167     1.461035   260670 
 3805000   0.57795969   -2.8829404   -1.4215487  0.051616392   -2.8829404    1.4613917   260463 
 3806000   0.57604549   -2.8776207   -1.4199218  0.052297339   -2.8776207    1.4576989   260258 
 3807000   0.57594074   -2.8771333   -1.4186291  0.049701229   -2.8771333    1.4585042   260067 
 3808000   0.57615703   -2.8786583   -1.4185172  0.050930549   -2.8786583    1.4601411   259873 
 3809000   0.57510978   -2.8767724   -1.4181347  0.049893599   -2.8767724    1.4586378   259668 
 3810000   0.57509337   -2.8774652   -1.4176829  0.050808965   -2.8774652    1.4597823   259457 
 3811000   0.57393878   -2.8762642   -1.4182775   0.05073251   -2.8762642    1.4579867   259255 
 3812000   0.57485276   -2.8775498   -1.4161138  0.051487238   -2.8775498    1.4614359   259055 
 3813000    0.5735257   -2.8750843   -1.4158223   0.05556121   -2.8750843     1.459262   258842 
 3814000   0.57217375   -2.8720061   -1.4150019   0.05388211   -2.8720061    1.4570042   258632 
 3815000    0.5734528   -2.8758268    -1.414526  0.050121139   -2.8758268    1.4613008   258448 
 3816000   0.57245204   -2.8722659   -1.4123516  0.052430824   -2.8722659    1.4599143   258242 
 3817000   0.57124996   -2.8701757   -1.4120566  0.051717837   -2.8701757    1.4581191   258017 
 3818000   0.57026136   -2.8675642   -1.4108055  0.054673132   -2.8675642    1.4567587   257811 
 3819000   0.56949335   -2.8662099   -1.4102893  0.050680082   -2.8662099    1.4559206   257612 
 3820000   0.56904811   -2.8652571     -1.40922  0.052507577   -2.8652571    1.4560371   257390 
 3821000   0.56847414   -2.8637987   -1.4080311  0.055510371   -2.8637987    1.4557675   257178 
 3822000   0.56894839   -2.8662721   -1.4081902  0.051378327   -2.8662721    1.4580819   256984 
 3823000   0.56998766   -2.8674769   -1.4054459  0.052508502   -2.8674769    1.4620311   256758 
 3824000   0.56912418   -2.8656222    -1.404537  0.051883772   -2.8656222    1.4610852   256535 
 3825000   0.56883174   -2.8647831   -1.4031838  0.054321244   -2.8647831    1.4615993   256313 
 3826000   0.56685023   -2.8601592   -1.4025595   0.05282966   -2.8601592    1.4575997   256121 
 3827000   0.56623066   -2.8588252   -1.4017264  0.053841524   -2.8588252    1.4570989   255929 
 3828000    0.5672841   -2.8618928   -1.4008615  0.052306691   -2.8618928    1.4610314   255715 
 3829000   0.56737834    -2.861758   -1.3994088  0.050561304    -2.861758    1.4623492   255527 
 3830000   0.56454158   -2.8563931   -1.4002212  0.052338406   -2.8563931    1.4561718   255328 
 3831000   0.56601764   -2.8589835   -1.3978598  0.049715492   -2.8589835    1.4611237   255128 
 3832000    0.5657084    -2.857837     -1.39628  0.051961758    -2.857837    1.4615571   254913 
 3833000   0.56434983    -2.853478   -1.3943148  0.056509795    -2.853478    1.4591633   254718 
 3834000    0.5639979   -2.8551141   -1.3958066  0.048638594   -2.8551141    1.4593075   254534 
 3835000   0.56260983   -2.8510116   -1.3942082  0.050701035   -2.8510116    1.4568034   254344 
 3836000   0.56260668   -2.8509888    -1.392984  0.048985796   -2.8509888    1.4580048   254133 
 3837000   0.56219046   -2.8498534     -1.39182  0.053148966   -2.8498534    1.4580334   253940 
 3838000   0.56195708   -2.8486744   -1.3900112  0.049042786   -2.8486744    1.4586632   253725 
 3839000   0.56295088   -2.8507038   -1.3883487  0.054115174   -2.8507038    1.4623551   253532 
 3840000   0.56256063   -2.8502397   -1.3876465  0.052396527   -2.8502397    1.4625932   253315 
 3841000   0.56232808   -2.8482668   -1.3850073  0.049283948   -2.8482668    1.4632594   253095 
 3842000   0.56040882   -2.8457442   -1.3863199  0.053152688   -2.8457442    1.4594243   252894 
 3843000   0.56044856    -2.844333   -1.3836154   0.05293094    -2.844333    1.4607176   252688 
 3844000   0.55987358   -2.8428672   -1.3824518  0.054793168   -2.8428672    1.4604154   252481 
 3845000   0.55778658   -2.8381678   -1.3819216   0.05387221   -2.8381678    1.4562462   252260 
 3846000   0.55764594   -2.8367372   -1.3797666  0.049066237   -2.8367372    1.4569706   252071 
 3847000   0.55852104   -2.8384531   -1.3780548   0.05694295   -2.8384531    1.4603983   251874 
 3848000   0.55797321   -2.8372927   -1.3772718  0.055333898   -2.8372927    1.4600209   251692 
 3849000   0.55797695   -2.8386955   -1.3774514   0.05584931   -2.8386955    1.4612441   251483 
 3850000   0.55712066   -2.8364467   -1.3764058   0.05003196   -2.8364467    1.4600408   251304 
 3851000   0.55575757   -2.8339342   -1.3763404  0.051415336   -2.8339342    1.4575938   251110 
 3852000   0.55548647   -2.8325818   -1.3746133  0.051888551   -2.8325818    1.4579685   250923 
 3853000   0.55614089   -2.8351102   -1.3743645  0.052339739   -2.8351102    1.4607457   250741 
 3854000   0.55552592   -2.8327714   -1.3724005  0.051266438   -2.8327714    1.4603709   250528 
 3855000   0.55480425   -2.8296272   -1.3699648  0.050617165   -2.8296272    1.4596624   250324 
 3856000   0.55539778    -2.831519   -1.3691792  0.053702015    -2.831519    1.4623397   250133 
 3857000    0.5557971   -2.8335788   -1.3690284  0.053817257   -2.8335788    1.4645504   249935 
 3858000   0.55459349   -2.8319286   -1.3694029  0.051424477   -2.8319286    1.4625258   249739 
 3859000   0.55401993   -2.8297067   -1.3676455  0.055811916   -2.8297067    1.4620612   249560 
 3860000   0.55278589   -2.8269108   -1.3669713  0.056387026   -2.8269108    1.4599394   249366 
 3861000    0.5516649    -2.824308   -1.3661421  0.047277269    -2.824308    1.4581659   249163 
 3862000   0.55201303   -2.8251929   -1.3650462  0.053114994   -2.8251929    1.4601468   248982 
 3863000   0.55238608   -2.8256882   -1.3634388  0.053504682   -2.8256882    1.4622494   248792 
 3864000   0.55144321   -2.8233393   -1.3624232  0.054028767   -2.8233393    1.4609161   248594 
 3865000   0.55181235   -2.8238152   -1.3606734  0.049904548   -2.8238152    1.4631418   248382 
 3866000   0.54985248   -2.8185586   -1.3594444  0.052673329   -2.8185586    1.4591142   248183 
 3867000   0.55077915   -2.8223623   -1.3596103  0.050413375   -2.8223623     1.462752   247983 
 3868000   0.54894324   -2.8169845   -1.3578373  0.053404649   -2.8169845    1.4591472   247767 
 3869000   0.54853776   -2.8181715   -1.3587827  0.051144617   -2.8181715    1.4593888   247543 
 3870000   0.54901716   -2.8199897    -1.358168  0.051983318   -2.8199897    1.4618217   247347 
 3871000   0.54702821   -2.8148354    -1.356948  0.056973229   -2.8148354    1.4578874   247116 
 3872000   0.54805233   -2.8192304   -1.3573357  0.053664726   -2.8192304    1.4618946   246900 
 3873000   0.54691337   -2.8169641   -1.3568125  0.053144673   -2.8169641    1.4601517   246681 
 3874000   0.54738808   -2.8177727   -1.3551678  0.051431438   -2.8177727    1.4626049   246481 
 3875000   0.54614678   -2.8145336   -1.3541494  0.051849381   -2.8145336    1.4603843   246296 
 3876000     0.544869   -2.8109687   -1.3528112  0.052521019   -2.8109687    1.4581575   246095 
 3877000   0.54511789   -2.8113601   -1.3512669  0.050809306   -2.8113601    1.4600933   245881 
 3878000   0.54513065   -2.8119175   -1.3506609  0.053117805   -2.8119175    1.4612566   245691 
 3879000   0.54554884   -2.8150433   -1.3514743  0.055069098   -2.8150433     1.463569   245491 
 3880000   0.54530012   -2.8137782   -1.3496001  0.051593105   -2.8137782    1.4641781   245277 
 3881000   0.54350507   -2.8082234   -1.3476504  0.053282104   -2.8082234     1.460573   245073 
 3882000   0.54181912   -2.8027019   -1.3454584  0.051163669   -2.8027019    1.4572434   244871 
 3883000   0.54243839   -2.8040763   -1.3440285  0.052863116   -2.8040763    1.4600478   244680 
 3884000   0.54092381   -2.7990428   -1.3418747  0.049975066   -2.7990428    1.4571681   244479 
 3885000   0.54112929   -2.8008155   -1.3418705  0.054427204   -2.8008155     1.458945   244274 
 3886000   0.54260017   -2.8041846   -1.3399612  0.054614116   -2.8041846    1.4642234   244055 
 3887000    0.5414908   -2.7992685   -1.3369002   0.05050992   -2.7992685    1.4623682   243865 
 3888000    0.5398857    -2.796854   -1.3377076  0.050258878    -2.796854    1.4591463   243679 
 3889000   0.53785069   -2.7927939   -1.3378579  0.050626142   -2.7927939     1.454936   243463 
 3890000   0.53867649   -2.7945524   -1.3360646  0.049698737   -2.7945524    1.4584878   243243 
 3891000   0.53984634    -2.799784   -1.3368418  0.054105064    -2.799784    1.4629423   243029 
 3892000    0.5393029   -2.7983761   -1.3356365  0.052534184   -2.7983761    1.4627396   242818 
 3893000   0.53795311   -2.7937079   -1.3335349  0.052956657   -2.7937079     1.460173   242636 
 3894000   0.53770673   -2.7944571   -1.3336585  0.050640013   -2.7944571    1.4607987   242421 
 3895000   0.53579096   -2.7887141   -1.3319723  0.053811606   -2.7887141    1.4567418   242230 
 3896000   0.53743864   -2.7930804    -1.330609  0.051618595   -2.7930804    1.4624714   242023 
 3897000   0.53768732   -2.7953523   -1.3310062  0.054597734   -2.7953523    1.4643461   241825 
 3898000   0.53673112    -2.794113   -1.3311006  0.054118542    -2.794113    1.4630124   241615 
 3899000   0.53581849   -2.7927326    -1.330907  0.051387066   -2.7927326    1.4618256   241400 
 3900000   0.53467869   -2.7903026   -1.3302923  0.050584259   -2.7903026    1.4600103   241186 
 3901000   0.53432864   -2.7893787   -1.3291316  0.047484587   -2.7893787    1.4602472   240989 
 3902000   0.53368258   -2.7890924   -1.3293024  0.052426873   -2.7890924      1.45979   240773 
 3903000    0.5321086    -2.786873   -1.3301783  0.052121322    -2.786873    1.4566947   240573 
 3904000   0.53312333   -2.7897641   -1.3290832  0.053974767   -2.7897641    1.4606808   240374 
 3905000   0.53306986   -2.7906429   -1.3287888  0.056222098   -2.7906429     1.461854   240157 
 3906000   0.53248623   -2.7902669   -1.3287536  0.053665292   -2.7902669    1.4615133   239950 
 3907000   0.52949816   -2.7822178   -1.3277785  0.052365266   -2.7822178    1.4544393   239764 
 3908000   0.53112394   -2.7870094   -1.3268315  0.046573092   -2.7870094    1.4601779   239555 
 3909000   0.53157359   -2.7869151    -1.324286  0.051299253   -2.7869151    1.4626291   239356 
 3910000   0.53023889   -2.7842755   -1.3242392  0.054254421   -2.7842755    1.4600363   239179 
 3911000   0.53067858   -2.7862616   -1.3236877  0.053400086   -2.7862616     1.462574   238962 
 3912000   0.52984977   -2.7840179   -1.3224192  0.055162429   -2.7840179    1.4615987   238748 
 3913000   0.52933256   -2.7826677   -1.3212164  0.047565532   -2.7826677    1.4614513   238539 
 3914000   0.52835841   -2.7798548   -1.3198139  0.049403008   -2.7798548     1.460041   238330 
 3915000    0.5268724   -2.7768188   -1.3196858   0.05280772   -2.7768188    1.4571329   238134 
 3916000   0.52726717   -2.7794113    -1.319967  0.050495954   -2.7794113    1.4594443   237935 
 3917000   0.52684154   -2.7772913   -1.3177124  0.052579187   -2.7772913     1.459579   237721 
 3918000   0.52510441   -2.7740822   -1.3181093  0.052031648   -2.7740822    1.4559729   237524 
 3919000    0.5250425   -2.7730919   -1.3160576  0.049971264   -2.7730919    1.4570343   237323 
 3920000   0.52499714   -2.7714151    -1.313241  0.053210595   -2.7714151    1.4581741   237117 
 3921000   0.52550952   -2.7745896   -1.3138219  0.052693406   -2.7745896    1.4607677   236927 
 3922000   0.52407306   -2.7713545   -1.3134968  0.052443794   -2.7713545    1.4578577   236751 
 3923000    0.5231791    -2.770526   -1.3137768  0.050138526    -2.770526    1.4567492   236527 
 3924000   0.52376126   -2.7723363   -1.3127257  0.051131485   -2.7723363    1.4596106   236326 
 3925000   0.52383742   -2.7721426   -1.3110029  0.053494795   -2.7721426    1.4611397   236113 
 3926000   0.52158645   -2.7654665   -1.3094398  0.053800623   -2.7654665    1.4560266   235924 
 3927000   0.52121072   -2.7650583   -1.3088214  0.053287744   -2.7650583    1.4562369   235720 
 3928000   0.52026493   -2.7637042   -1.3087766  0.052851705   -2.7637042    1.4549276   235504 
 3929000   0.52023157   -2.7629688   -1.3068174  0.052130457   -2.7629688    1.4561514   235291 
 3930000   0.52036818   -2.7640581   -1.3063039   0.05369612   -2.7640581    1.4577543   235094 
 3931000   0.52134367   -2.7654352   -1.3035864  0.053454777   -2.7654352    1.4618487   234875 
 3932000   0.52055731   -2.7641779   -1.3032528  0.053292767   -2.7641779    1.4609251   234669 
 3933000   0.51934532   -2.7619895   -1.3032723  0.051400138   -2.7619895    1.4587172   234477 
 3934000    0.5187793   -2.7605521   -1.3021807  0.053128826   -2.7605521    1.4583713   234277 
 3935000   0.51807772    -2.758812   -1.3011125  0.048224941    -2.758812    1.4576995   234068 
 3936000   0.51710605   -2.7547858   -1.2984017  0.049912122   -2.7547858    1.4563842   233840 
 3937000   0.51760751   -2.7586357   -1.2995227  0.051353212   -2.7586357    1.4591131   233629 
 3938000   0.51857625   -2.7626003   -1.2994036  0.050074438   -2.7626003    1.4631967   233413 
 3939000   0.51755253   -2.7578386   -1.2963282   0.05459579   -2.7578386    1.4615104   233221 
 3940000   0.51625435   -2.7542821    -1.295011  0.054421459   -2.7542821    1.4592711   232993 
 3941000   0.51488493   -2.7512222   -1.2946216  0.052892661   -2.7512222    1.4566006   232801 
 3942000   0.51437214   -2.7504388   -1.2940753  0.047412274   -2.7504388    1.4563635   232607 
 3943000   0.51432634   -2.7508437   -1.2932752  0.051097653   -2.7508437    1.4575685   232394 
 3944000    0.5154409   -2.7523406   -1.2901978  0.051000172   -2.7523406    1.4621428   232169 
 3945000   0.51424887   -2.7486705   -1.2885193   0.05499586   -2.7486705    1.4601513   231948 
 3946000   0.51316381   -2.7471772   -1.2888871  0.049749577   -2.7471772    1.4582901   231754 
 3947000   0.51230253   -2.7446476   -1.2875225   0.05174873   -2.7446476    1.4571251   231550 
 3948000   0.51276832     -2.74603   -1.2863824  0.049427806     -2.74603    1.4596477   231360 
 3949000    0.5114141   -2.7432862   -1.2862275  0.053234686   -2.7432862    1.4570586   231159 
 3950000   0.51144279   -2.7423464   -1.2839443  0.053021737   -2.7423464    1.4584022   230959 
 3951000   0.51125674   -2.7421242   -1.2828625  0.052456402   -2.7421242    1.4592617   230739 
 3952000   0.51036164   -2.7391677   -1.2813363  0.053684842   -2.7391677    1.4578314   230561 
 3953000   0.50910888    -2.736931   -1.2813775  0.053826144    -2.736931    1.4555535   230355 
 3954000   0.50986281   -2.7384521   -1.2795778  0.050523868   -2.7384521    1.4588743   230171 
 3955000   0.50845471   -2.7352599   -1.2791304  0.052899967   -2.7352599    1.4561295   229968 
 3956000   0.50867295   -2.7366049   -1.2784491  0.052918774   -2.7366049    1.4581558   229747 
 3957000   0.50826919   -2.7361777   -1.2778336  0.054300211   -2.7361777    1.4583441   229535 
 3958000   0.50798517    -2.733635   -1.2747902  0.055746924    -2.733635    1.4588448   229328 
 3959000   0.50796098   -2.7340238   -1.2739306  0.051706878   -2.7340238    1.4600932   229121 
 3960000   0.50748985   -2.7336741   -1.2735905  0.050306362   -2.7336741    1.4600836   228910 
 3961000   0.50663945   -2.7316092   -1.2725572  0.051289376   -2.7316092     1.459052   228688 
 3962000   0.50473285   -2.7272116    -1.272378  0.052998197   -2.7272116    1.4548335   228488 
 3963000   0.50531158    -2.727968   -1.2701456  0.047762964    -2.727968    1.4578224   228281 
 3964000   0.50457889   -2.7268846   -1.2698612  0.050852276   -2.7268846    1.4570234   228075 
 3965000   0.50372616   -2.7255711   -1.2697653  0.051865971   -2.7255711    1.4558057   227880 
 3966000     0.503862   -2.7261743   -1.2686648  0.050105566   -2.7261743    1.4575095   227675 
 3967000   0.50371363   -2.7251721   -1.2668427  0.051263147   -2.7251721    1.4583294   227480 
 3968000   0.50432304   -2.7276832   -1.2664204  0.049561619   -2.7276832    1.4612628   227298 
 3969000   0.50260713   -2.7249343   -1.2673159  0.053094531   -2.7249343    1.4576185   227091 
 3970000   0.50153155   -2.7226376   -1.2669205  0.053894503   -2.7226376    1.4557171   226901 
 3971000   0.50262586   -2.7225207   -1.2623532   0.04879652   -2.7225207    1.4601676   226703 
 3972000   0.50103998   -2.7179072   -1.2610422  0.052031737   -2.7179072     1.456865   226500 
 3973000   0.50041777     -2.71709    -1.260864  0.047016949     -2.71709    1.4562259   226318 
 3974000   0.50009747   -2.7139542    -1.257386  0.051126372   -2.7139542    1.4565682   226120 
 3975000   0.49926554   -2.7122956   -1.2569147  0.053793465   -2.7122956    1.4553809   225928 
 3976000   0.50007922   -2.7135587    -1.254566  0.055635806   -2.7135587    1.4589927   225736 
 3977000   0.49887819   -2.7113189   -1.2546687  0.051160907   -2.7113189    1.4566502   225556 
 3978000   0.49912825   -2.7125667   -1.2540224  0.051818351   -2.7125667    1.4585443   225376 
 3979000   0.49836129   -2.7099588   -1.2523752  0.052026611   -2.7099588    1.4575836   225178 
 3980000   0.49918905   -2.7103291   -1.2490396  0.056347053   -2.7103291    1.4612895   224980 
 3981000   0.49843109   -2.7076643   -1.2472888  0.055679057   -2.7076643    1.4603754   224779 
 3982000   0.49791368   -2.7076029   -1.2474637  0.053242207   -2.7076029    1.4601392   224582 
 3983000   0.49644482   -2.7020686   -1.2449782  0.052204471   -2.7020686    1.4570904   224388 
 3984000   0.49656334   -2.7008662   -1.2421147  0.049851052   -2.7008662    1.4587514   224186 
 3985000   0.49592524    -2.700352   -1.2422263  0.048250217    -2.700352    1.4581257   223994 
 3986000   0.49611127    -2.700975   -1.2410705  0.052334076    -2.700975    1.4599045   223805 
 3987000   0.49493885   -2.6983607   -1.2406427  0.049219527   -2.6983607     1.457718   223611 
 3988000   0.49560048   -2.7006817   -1.2398391   0.05370996   -2.7006817    1.4608426   223431 
 3989000   0.49620554   -2.7018604   -1.2377665  0.051487871   -2.7018604    1.4640939   223207 
 3990000   0.49312523   -2.6922303   -1.2359137  0.054466366   -2.6922303    1.4563166   223006 
 3991000   0.49313147   -2.6906544   -1.2331625  0.052301955   -2.6906544    1.4574919   222829 
 3992000    0.4940578   -2.6952952   -1.2337602  0.052932361   -2.6952952    1.4615349   222630 
 3993000   0.49391329   -2.6955831   -1.2331947  0.053370838   -2.6955831    1.4623884   222435 
 3994000   0.49254546   -2.6919578   -1.2323529  0.054759595   -2.6919578    1.4596049   222242 
 3995000    0.4914915   -2.6895482   -1.2317941  0.054231506   -2.6895482    1.4577541   222048 
 3996000   0.49063132   -2.6882146    -1.231713  0.050908077   -2.6882146    1.4565016   221850 
 3997000   0.49027377   -2.6853973   -1.2287161   0.05194013   -2.6853973    1.4566812   221661 
 3998000   0.49003681   -2.6848971   -1.2277499  0.054130587   -2.6848971    1.4571472   221483 
 3999000   0.49058782    -2.686207   -1.2260302  0.052117077    -2.686207    1.4601768   221272 
 4000000   0.49027405   -2.6854615   -1.2250306  0.051523618   -2.6854615    1.4604309   221092 
 4001000   0.49010651   -2.6843614   -1.2230085   0.05704705   -2.6843614    1.4613529   220877 
 4002000   0.48898792   -2.6811914   -1.2217465  0.054637667   -2.6811914    1.4594448   220661 
 4003000   0.48840598   -2.6807032   -1.2215338  0.053257005   -2.6807032    1.4591694   220440 
 4004000   0.48739709   -2.6771292   -1.2198238  0.054640177   -2.6771292    1.4573055   220266 
 4005000   0.48672542   -2.6773434   -1.2207898  0.049144059   -2.6773434    1.4565536   220076 
 4006000   0.48672176   -2.6766042    -1.218677  0.052089393   -2.6766042    1.4579272   219867 
 4007000   0.48583175   -2.6744011   -1.2179408  0.052618715   -2.6744011    1.4564603   219686 
 4008000   0.48682009   -2.6774227   -1.2165898  0.052141695   -2.6774227    1.4608329   219474 
 4009000   0.48641667   -2.6767233    -1.215863  0.052188404   -2.6767233    1.4608604   219288 
 4010000   0.48439301   -2.6697954   -1.2135916  0.053236764   -2.6697954    1.4562038   219074 
 4011000   0.48480878   -2.6705922   -1.2117868  0.051592826   -2.6705922    1.4588055   218871 
 4012000   0.48472182    -2.669252    -1.209294  0.055058532    -2.669252     1.459958   218659 
 4013000   0.48363144   -2.6662466   -1.2082592  0.052717634   -2.6662466    1.4579873   218462 
 4014000   0.48306822   -2.6647415   -1.2069774  0.053025713   -2.6647415    1.4577641   218241 
 4015000   0.48233349   -2.6641648    -1.207383  0.052935087   -2.6641648    1.4567818   218056 
 4016000   0.48242101   -2.6632249   -1.2047273  0.052030513   -2.6632249    1.4584976   217839 
 4017000   0.48266845   -2.6637337   -1.2032276  0.054489532   -2.6637337    1.4605061   217651 
 4018000   0.48147168   -2.6622095   -1.2040853  0.050030917   -2.6622095    1.4581242   217466 
 4019000   0.48051785    -2.660194   -1.2035652   0.05098949    -2.660194    1.4566288   217258 
 4020000    0.4816597    -2.662572   -1.2011231  0.051823879    -2.662572    1.4614489   217056 
 4021000   0.47948959   -2.6560366   -1.1997834  0.050535087   -2.6560366    1.4562532   216849 
 4022000   0.48060476   -2.6585454   -1.1975983  0.051733719   -2.6585454    1.4609471   216655 
 4023000    0.4787066   -2.6526694    -1.196168  0.051702452   -2.6526694    1.4565014   216458 
 4024000   0.47898518    -2.651439   -1.1925668  0.052492335    -2.651439    1.4588722   216232 
 4025000   0.47831003   -2.6495425   -1.1914117  0.050856524   -2.6495425    1.4581308   216037 
 4026000   0.47895412    -2.651293   -1.1898932   0.05097011    -2.651293    1.4613999   215844 
 4027000    0.4786586   -2.6499312   -1.1881123  0.055448212   -2.6499312    1.4618188   215649 
 4028000   0.47835026   -2.6487743   -1.1864392  0.057074435   -2.6487743    1.4623351   215434 
 4029000   0.47723276   -2.6474357   -1.1870458  0.048705199   -2.6474357    1.4603899   215217 
 4030000   0.47568955   -2.6429208     -1.18594  0.051085737   -2.6429208    1.4569808   215023 
 4031000   0.47554875   -2.6443931   -1.1864197  0.049237595   -2.6443931    1.4579734   214813 
 4032000   0.47513376   -2.6426255    -1.184397  0.052471661   -2.6426255    1.4582285   214588 
 4033000   0.47511032   -2.6421431   -1.1825989    0.0497478   -2.6421431    1.4595441   214384 
 4034000   0.47604583   -2.6439701   -1.1801865  0.052507415   -2.6439701    1.4637836   214184 
 4035000   0.47515725   -2.6407047   -1.1781648  0.055161101   -2.6407047    1.4625399   213966 
 4036000   0.47374409   -2.6377522   -1.1781773  0.052264943   -2.6377522    1.4595749   213763 
 4037000   0.47307832   -2.6364285   -1.1774578  0.051660394   -2.6364285    1.4589707   213551 
 4038000   0.47324666   -2.6372416   -1.1764247  0.057534222   -2.6372416    1.4608169   213357 
 4039000   0.47400732   -2.6396753   -1.1752405  0.050584359   -2.6396753    1.4644347   213172 
 4040000   0.47108619   -2.6319048   -1.1750118  0.051114483   -2.6319048     1.456893   212955 
 4041000   0.47150368    -2.633054   -1.1735746  0.053781661    -2.633054    1.4594795   212766 
 4042000   0.47116162   -2.6309018   -1.1709303  0.051849718   -2.6309018    1.4599715   212540 
 4043000   0.46958479   -2.6280258   -1.1714395  0.051998501   -2.6280258    1.4565862   212321 
 4044000   0.46844187   -2.6253338   -1.1707376  0.049146718   -2.6253338    1.4545962   212094 
 4045000   0.46779497   -2.6230932   -1.1691895  0.054359881   -2.6230932    1.4539036   211902 
 4046000    0.4692768   -2.6290044   -1.1689518  0.053971836   -2.6290044    1.4600526   211678 
 4047000   0.46880389   -2.6273502   -1.1673412  0.052840401   -2.6273502     1.460009   211471 
 4048000   0.46851709    -2.625023   -1.1645536  0.051777699    -2.625023    1.4604694   211275 
 4049000   0.46775139   -2.6250856   -1.1655523   0.04965849   -2.6250856    1.4595332   211065 
 4050000   0.46596862    -2.617155   -1.1616813  0.050967311    -2.617155    1.4554737   210847 
 4051000   0.46759329   -2.6200062   -1.1579877   0.05329867   -2.6200062    1.4620185   210635 
 4052000   0.46726378   -2.6186449   -1.1562125  0.052481914   -2.6186449    1.4624324   210427 
 4053000   0.46589214   -2.6140381   -1.1544837  0.051749501   -2.6140381    1.4595544   210223 
 4054000   0.46491063   -2.6122716   -1.1544676  0.051530986   -2.6122716     1.457804   210032 
 4055000     0.464922   -2.6112671   -1.1521352  0.052286578   -2.6112671    1.4591318   209846 
 4056000   0.46528878   -2.6130342   -1.1513791  0.052266061   -2.6130342    1.4616551   209649 
 4057000   0.46512116   -2.6133829   -1.1507753  0.052708492   -2.6133829    1.4626076   209437 
 4058000   0.46361845   -2.6089441   -1.1499752  0.052684738   -2.6089441    1.4589689   209281 
 4059000   0.46256607   -2.6064017    -1.149373  0.052906899   -2.6064017    1.4570287   209084 
 4060000    0.4624629   -2.6067783   -1.1488125  0.049481173   -2.6067783    1.4579658   208903 
 4061000   0.46236592   -2.6041726   -1.1452764  0.052177143   -2.6041726    1.4588962   208726 
 4062000   0.46260693   -2.6048086    -1.143787  0.049717526   -2.6048086    1.4610216   208531 
 4063000   0.46193135   -2.6038791   -1.1436537  0.049463684   -2.6038791    1.4602254   208340 
 4064000   0.46149602   -2.6021533   -1.1418321  0.051526832   -2.6021533    1.4603213   208130 
 4065000   0.46026416   -2.5981107   -1.1402515  0.053478214   -2.5981107    1.4578592   207925 
 4066000   0.45973455   -2.5958937   -1.1384784  0.054017464   -2.5958937    1.4574153   207749 
 4067000   0.46015022   -2.5978621   -1.1376038  0.052453382   -2.5978621    1.4602583   207532 
 4068000   0.45919329   -2.5951492   -1.1366626  0.053091933   -2.5951492    1.4584866   207352 
 4069000   0.45878314   -2.5929587   -1.1343679  0.053102273   -2.5929587    1.4585907   207152 
 4070000   0.45791893   -2.5893846   -1.1321837  0.053822829   -2.5893846    1.4572008   206959 
 4071000   0.45759708   -2.5904178   -1.1328185  0.052781828   -2.5904178    1.4575993   206757 
 4072000   0.45780776   -2.5896402   -1.1299507  0.052092023   -2.5896402    1.4596894   206556 
 4073000   0.45662842   -2.5862164   -1.1288902  0.051576229   -2.5862164    1.4573262   206358 
 4074000   0.45694585   -2.5864366   -1.1265693  0.052292296   -2.5864366    1.4598673   206142 
 4075000   0.45678419   -2.5846465   -1.1239564  0.049664276   -2.5846465    1.4606901   205953 
 4076000   0.45600641    -2.584113   -1.1244359  0.053199319    -2.584113    1.4596771   205745 
 4077000   0.45541309   -2.5812351   -1.1220885  0.056626984   -2.5812351    1.4591466   205552 
 4078000   0.45471052   -2.5759743   -1.1178444  0.052588399   -2.5759743    1.4581299   205378 
 4079000   0.45404916   -2.5748531   -1.1174035  0.052871986   -2.5748531    1.4574497   205175 
 4080000   0.45288682   -2.5709141   -1.1157486  0.048810873   -2.5709141    1.4551655   204971 
 4081000   0.45438807    -2.575773    -1.114465  0.055086756    -2.575773    1.4613081   204786 
 4082000   0.45472181    -2.577582    -1.113678   0.05206288    -2.577582     1.463904   204573 
 4083000   0.45363956   -2.5736531   -1.1119185  0.052010206   -2.5736531    1.4617346   204389 
 4084000   0.45242535   -2.5687582   -1.1095153  0.050683382   -2.5687582    1.4592429   204190 
 4085000   0.45272052   -2.5702432    -1.108545  0.051286477   -2.5702432    1.4616982   203980 
 4086000   0.45181911   -2.5678807   -1.1076325  0.054066504   -2.5678807    1.4602482   203776 
 4087000   0.45120246   -2.5646383   -1.1049862  0.049454437   -2.5646383    1.4596521   203581 
 4088000   0.45174828   -2.5674937   -1.1046531  0.054394409   -2.5674937    1.4628406   203383 
 4089000   0.45043444   -2.5625447   -1.1024725  0.052810855   -2.5625447    1.4600721   203176 
 4090000   0.45092115   -2.5661395   -1.1030207  0.049141846   -2.5661395    1.4631188   202972 
 4091000   0.44912855   -2.5593463   -1.1005562  0.052648717   -2.5593463    1.4587901   202765 
 4092000   0.44923738   -2.5595276    -1.098965  0.053913924   -2.5595276    1.4605626   202568 
 4093000   0.44852621   -2.5566977   -1.0971287  0.054956888   -2.5566977     1.459569   202385 
 4094000   0.44776718   -2.5563144   -1.0978318  0.049820415   -2.5563144    1.4584827   202193 
 4095000   0.44733253    -2.554445    -1.095986  0.053491197    -2.554445     1.458459   202000 
 4096000   0.44923766   -2.5591798   -1.0931086  0.054275786   -2.5591798    1.4660712   201807 
 4097000   0.44775743   -2.5551608   -1.0924417  0.054675615   -2.5551608    1.4627191   201603 
 4098000   0.44674208   -2.5494335   -1.0886473  0.051483052   -2.5494335    1.4607862   201412 
 4099000   0.44585887   -2.5473209   -1.0880824  0.050003469   -2.5473209    1.4592386   201227 
 4100000   0.44480058   -2.5432243   -1.0859648  0.052557582   -2.5432243    1.4572595   201022 
 4101000   0.44556313   -2.5454489    -1.084332  0.054636699   -2.5454489     1.461117   200835 
 4102000   0.44658395   -2.5477576    -1.081921  0.053715268   -2.5477576    1.4658366   200647 
 4103000   0.44549491   -2.5433823   -1.0797051  0.055913129   -2.5433823    1.4636772   200453 
 4104000   0.44438585   -2.5399042   -1.0785439  0.051234785   -2.5399042    1.4613602   200271 
 4105000    0.4434547   -2.5375167   -1.0778702   0.05106079   -2.5375167    1.4596465   200086 
 4106000   0.44319828   -2.5376797   -1.0774395  0.052330661   -2.5376797    1.4602402   199889 
 4107000   0.44185673   -2.5328964   -1.0755525  0.053160329   -2.5328964    1.4573439   199680 
 4108000   0.44271711   -2.5356571   -1.0739382  0.052390759   -2.5356571    1.4617189   199470 
 4109000   0.44227191   -2.5329826   -1.0711801  0.052194344   -2.5329826    1.4618026   199258 
 4110000    0.4429297   -2.5325479    -1.067093   0.05097256   -2.5325479     1.465455   199057 
 4111000   0.44121128   -2.5264376   -1.0651265   0.05048954   -2.5264376    1.4613111   198847 
 4112000    0.4403347   -2.5235743   -1.0636908   0.05038343   -2.5235743    1.4598835   198646 
 4113000   0.44095544   -2.5273364   -1.0639583  0.051254985   -2.5273364    1.4633781   198451 
 4114000   0.44001763   -2.5253507   -1.0635675  0.048677567   -2.5253507    1.4617832   198245 
 4115000   0.43915591   -2.5224913   -1.0620163  0.052709536   -2.5224913    1.4604749   198034 
 4116000   0.43867352   -2.5198636   -1.0595033  0.054027412   -2.5198636    1.4603603   197832 
 4117000   0.43922823   -2.5219031   -1.0581349  0.051873287   -2.5219031    1.4637681   197621 
 4118000   0.43745447   -2.5148366   -1.0555472   0.05239446   -2.5148366    1.4592894   197427 
 4119000   0.43711589   -2.5141297    -1.054639  0.053283629   -2.5141297    1.4594907   197247 
 4120000   0.43823445   -2.5182972   -1.0536387  0.050163283   -2.5182972    1.4646586   197054 
 4121000   0.43672713   -2.5123654     -1.05118  0.052193441   -2.5123654    1.4611854   196843 
 4122000   0.43655372   -2.5118152   -1.0498657  0.050999795   -2.5118152    1.4619495   196662 
 4123000   0.43542889   -2.5087505   -1.0491057   0.05176133   -2.5087505    1.4596448   196465 
 4124000   0.43635893   -2.5102058   -1.0459379  0.048229365   -2.5102058     1.464268   196263 
 4125000   0.43460689   -2.5047185   -1.0448495  0.054163827   -2.5047185     1.459869   196064 
 4126000   0.43543643   -2.5067396   -1.0425831  0.053204545   -2.5067396    1.4641565   195863 
 4127000   0.43412544   -2.5021727   -1.0410295  0.050238339   -2.5021727    1.4611433   195676 
 4128000   0.43359901   -2.4996583    -1.038846  0.051716401   -2.4996583    1.4608123   195483 
 4129000   0.43353957   -2.4996061   -1.0376629  0.052875115   -2.4996061    1.4619433   195305 
 4130000   0.43287682   -2.4985463    -1.037379  0.051123855   -2.4985463    1.4611673   195110 
 4131000   0.43318917    -2.499331   -1.0357442  0.053724839    -2.499331    1.4635869   194928 
 4132000   0.43257989   -2.4970537   -1.0339416   0.05256939   -2.4970537    1.4631121   194717 
 4133000   0.43031029   -2.4903704   -1.0335956   0.05681846   -2.4903704    1.4567748   194538 
 4134000   0.43169087   -2.4955788   -1.0327014  0.051804821   -2.4955788    1.4628774   194348 
 4135000    0.4310647   -2.4912296   -1.0288639  0.057834233   -2.4912296    1.4623657   194134 
 4136000   0.42998031   -2.4890072   -1.0287707  0.050216699   -2.4890072    1.4602364   193928 
 4137000   0.42997774   -2.4912951   -1.0295524  0.051131766   -2.4912951    1.4617427   193727 
 4138000    0.4300246   -2.4900469   -1.0265962   0.05158472   -2.4900469    1.4634507   193522 
 4139000   0.42982274   -2.4889823   -1.0245841  0.055760713   -2.4889823    1.4643982   193306 
 4140000   0.42826872     -2.48529   -1.0245314  0.051026364     -2.48529    1.4607586   193087 
 4141000   0.42759612   -2.4845574   -1.0246185  0.048018436   -2.4845574    1.4599389   192892 
 4142000   0.42725054   -2.4837847   -1.0237087  0.055673055   -2.4837847     1.460076   192718 
 4143000   0.42736356   -2.4845884   -1.0225178  0.050578381   -2.4845884    1.4620706   192506 
 4144000   0.42802759    -2.485125   -1.0193435  0.052489545    -2.485125    1.4657814   192317 
 4145000   0.42655107   -2.4797949   -1.0177394  0.055131756   -2.4797949    1.4620555   192142 
 4146000   0.42617727   -2.4787469   -1.0165039  0.052729309   -2.4787469     1.462243   191949 
 4147000   0.42609332   -2.4790008   -1.0157652  0.051441906   -2.4790008    1.4632357   191781 
 4148000   0.42529795   -2.4763794   -1.0145487  0.053740568   -2.4763794    1.4618306   191607 
 4149000   0.42533489    -2.476778    -1.013377  0.056104658    -2.476778    1.4634011   191418 
 4150000   0.42390474   -2.4732422   -1.0132363  0.049385176   -2.4732422     1.460006   191218 
 4151000   0.42323973   -2.4696952   -1.0105603  0.052471742   -2.4696952    1.4591349   191032 
 4152000    0.4219436   -2.4661328    -1.009919  0.049988664   -2.4661328    1.4562139   190829 
 4153000   0.42260054   -2.4701474   -1.0102893  0.053214074   -2.4701474    1.4598581   190649 
 4154000   0.42286482   -2.4699785   -1.0078807  0.053582387   -2.4699785    1.4620978   190476 
 4155000   0.42156399   -2.4674168   -1.0084304  0.052914116   -2.4674168    1.4589864   190295 
 4156000    0.4213727   -2.4643741   -1.0045614  0.052984122   -2.4643741    1.4598127   190101 
 4157000   0.42017192   -2.4596269   -1.0024335   0.05099582   -2.4596269    1.4571934   189900 
 4158000   0.42104693   -2.4619801   -1.0002896  0.051711253   -2.4619801    1.4616905   189710 
 4159000   0.42039699   -2.4607513  -0.99953788  0.050345586   -2.4607513    1.4612134   189479 
 4160000   0.42005604   -2.4583908  -0.99678111  0.053687891   -2.4583908    1.4616097   189274 
 4161000   0.42000162   -2.4592947  -0.99635168  0.053022732   -2.4592947     1.462943   189077 
 4162000   0.41902216    -2.456765  -0.99552571  0.050438914    -2.456765    1.4612393   188856 
 4163000   0.41979085   -2.4581532  -0.99265806   0.05201363   -2.4581532    1.4654952   188653 
 4164000   0.41732396   -2.4493265  -0.99088166  0.052622055   -2.4493265    1.4584448   188451 
 4165000   0.41886678   -2.4540407  -0.98855548  0.051820132   -2.4540407    1.4654852   188239 
 4166000   0.41775336   -2.4497235  -0.98658704  0.053555932   -2.4497235    1.4631365   188040 
 4167000   0.41654882   -2.4459309  -0.98552203  0.052001342   -2.4459309    1.4604089   187848 
 4168000   0.41614907   -2.4448225  -0.98419784    0.0518797   -2.4448225    1.4606247   187640 
 4169000   0.41644503    -2.445031  -0.98197186    0.0531278    -2.445031    1.4630592   187461 
 4170000   0.41725677   -2.4482137  -0.98090951  0.052739419   -2.4482137    1.4673042   187283 
 4171000   0.41563412   -2.4454087  -0.98224028  0.050467705   -2.4454087    1.4631684   187082 
 4172000   0.41412001    -2.440793  -0.98129309  0.051039837    -2.440793    1.4594999   186869 
 4173000   0.41510647   -2.4464205  -0.98185297  0.050237891   -2.4464205    1.4645676   186666 
 4174000   0.41421543   -2.4411713  -0.97832906  0.053524776   -2.4411713    1.4628423   186485 
 4175000   0.41294315   -2.4362078  -0.97628513   0.05059799   -2.4362078    1.4599226   186284 
 4176000    0.4124144   -2.4337811  -0.97401165  0.052347637   -2.4337811    1.4597694   186065 
 4177000   0.41114281   -2.4309291  -0.97400055  0.054057882   -2.4309291    1.4569286   185853 
 4178000   0.41250607   -2.4365196  -0.97357944  0.054310991   -2.4365196    1.4629402   185703 
 4179000   0.41188815   -2.4341134  -0.97199475  0.051340403   -2.4341134    1.4621187   185529 
 4180000   0.41114253    -2.431941  -0.97089411  0.053184775    -2.431941    1.4610469   185329 
 4181000     0.410114   -2.4259812  -0.96714881  0.049337897   -2.4259812    1.4588324   185146 
 4182000   0.41005803   -2.4275207  -0.96725481  0.054733672   -2.4275207    1.4602659   184939 
 4183000    0.4101382   -2.4282323  -0.96621844  0.054011177   -2.4282323    1.4620139   184754 
 4184000   0.41002437   -2.4257648  -0.96269162  0.052297618   -2.4257648    1.4630731   184569 
 4185000   0.40870697   -2.4220686  -0.96213014  0.050380602   -2.4220686    1.4599385   184371 
 4186000   0.40862733   -2.4219798   -0.9607486  0.052307062   -2.4219798    1.4612312   184172 
 4187000   0.40811081   -2.4221386  -0.96127121  0.055319134   -2.4221386    1.4608674   183985 
 4188000   0.40835983    -2.421041  -0.95757995  0.053480831    -2.421041     1.463461   183771 
 4189000   0.40719593   -2.4193269  -0.95855054  0.052854037   -2.4193269    1.4607764   183584 
 4190000   0.40715723   -2.4181959  -0.95597334  0.051614064   -2.4181959    1.4622225   183385 
 4191000   0.40543401   -2.4116817  -0.95412173  0.051489306   -2.4116817      1.45756   183193 
 4192000   0.40595785   -2.4141863    -0.953148  0.049460997   -2.4141863    1.4610383   182993 
 4193000   0.40580202   -2.4141774    -0.952102  0.053426346   -2.4141774    1.4620754   182793 
 4194000   0.40476346   -2.4098099  -0.94991097  0.053643759   -2.4098099     1.459899   182597 
 4195000   0.40491911   -2.4110239  -0.94868158  0.051502703   -2.4110239    1.4623423   182362 
 4196000   0.40242656   -2.4013019  -0.94629366   0.05369966   -2.4013019    1.4550082   182153 
 4197000   0.40242486   -2.4009073  -0.94423392  0.054249238   -2.4009073    1.4566734   181944 
 4198000   0.40307931   -2.4043372  -0.94373743  0.051269652   -2.4043372    1.4605997   181750 
 4199000   0.40341239   -2.4056849   -0.9423726   0.05287865   -2.4056849    1.4633123   181563 
 4200000   0.40104288   -2.3981172  -0.94165922  0.050861068   -2.3981172     1.456458   181346 
 4201000   0.40192066   -2.4006927  -0.93932234  0.049747446   -2.4006927    1.4613703   181132 
 4202000   0.40118132   -2.4009859  -0.94065105  0.050339996   -2.4009859    1.4603349   180927 
 4203000   0.39978352   -2.3955601  -0.93861429  0.052302374   -2.3955601    1.4569459   180716 
 4204000   0.39909988   -2.3944744  -0.93832786  0.052003651   -2.3944744    1.4561466   180506 
 4205000   0.39909184   -2.3934296  -0.93560829  0.052177394   -2.3934296    1.4578213   180295 
 4206000   0.39723071   -2.3887038  -0.93586785  0.049983563   -2.3887038     1.452836   180070 
 4207000   0.39832683   -2.3908001  -0.93237582  0.049211924   -2.3908001    1.4584243   179875 
 4208000   0.39666222    -2.384047  -0.93014946   0.04858791    -2.384047    1.4538976   179681 
 4209000    0.3984338   -2.3896836  -0.92778745  0.051347843   -2.3896836    1.4618962   179496 
 4210000   0.39710782   -2.3843728  -0.92571647    0.0563537   -2.3843728    1.4586563   179296 
 4211000    0.3966477     -2.38342  -0.92483495  0.051124747     -2.38342    1.4585851   179097 
 4212000   0.39449123   -2.3775651  -0.92515018  0.048993372   -2.3775651    1.4524149   178880 
 4213000   0.39476603   -2.3782834  -0.92326251  0.052338641   -2.3782834    1.4550209   178684 
 4214000   0.39523683    -2.379859  -0.92173183  0.049972538    -2.379859    1.4581271   178516 
 4215000   0.39487486    -2.378866  -0.92035038  0.051452529    -2.378866    1.4585157   178305 
 4216000   0.39348444    -2.374014  -0.91876504  0.053166247    -2.374014     1.455249   178076 
 4217000    0.3934642   -2.3739985  -0.91705718  0.054212527   -2.3739985    1.4569414   177860 
 4218000   0.39277327   -2.3697941  -0.91394598  0.050257485   -2.3697941    1.4558481   177681 
 4219000   0.39183531   -2.3693638  -0.91519176  0.052832862   -2.3693638     1.454172   177461 
 4220000    0.3914229   -2.3680733  -0.91359593  0.051532518   -2.3680733    1.4544774   177237 
 4221000    0.3913301   -2.3661507  -0.91030965  0.052656203   -2.3661507    1.4558411   177029 
 4222000   0.39321845    -2.372104   -0.9075998  0.052314825    -2.372104    1.4645042   176831 
 4223000   0.39155276   -2.3671225  -0.90723689  0.049008735   -2.3671225    1.4598856   176639 
 4224000   0.39045554   -2.3654872   -0.9079515  0.052160083   -2.3654872    1.4575357   176428 
 4225000    0.3905886   -2.3638803  -0.90405227   0.05318129   -2.3638803     1.459828   176211 
 4226000   0.38967313   -2.3615881  -0.90326998  0.053802516   -2.3615881    1.4583181   175980 
 4227000   0.38904276   -2.3583298  -0.90077217  0.051926685   -2.3583298    1.4575576   175787 
 4228000   0.38917846   -2.3586353  -0.89876721  0.049335842   -2.3586353    1.4598681   175570 
 4229000   0.38737399   -2.3555852  -0.90066281  0.053182076   -2.3555852    1.4549224   175350 
 4230000   0.38789871   -2.3571211  -0.89853937  0.054104225   -2.3571211    1.4585817   175147 
 4231000   0.38687158   -2.3544086  -0.89801781  0.048698801   -2.3544086    1.4563908   174946 
 4232000   0.38617764   -2.3519656  -0.89638165  0.050175926   -2.3519656     1.455584   174729 
 4233000   0.38594555   -2.3517477  -0.89545492  0.051066937   -2.3517477    1.4562927   174539 
 4234000    0.3854969   -2.3512799  -0.89485263  0.049208512   -2.3512799    1.4564273   174320 
 4235000   0.38504048   -2.3508511  -0.89444385  0.053739946   -2.3508511    1.4564073   174116 
 4236000   0.38324449   -2.3462203  -0.89460543  0.050111663   -2.3462203    1.4516149   173876 
 4237000   0.38338125   -2.3470472  -0.89319189   0.05418841   -2.3470472    1.4538553   173670 
 4238000   0.38198239   -2.3417383  -0.89135037  0.051072738   -2.3417383    1.4503879   173450 
 4239000   0.38256105   -2.3432433  -0.88914078   0.04990598   -2.3432433    1.4541025   173269 
 4240000   0.38291463   -2.3412192  -0.88396459  0.052330808   -2.3412192    1.4572547   173054 
 4241000   0.38177217   -2.3385243  -0.88381022  0.048266782   -2.3385243    1.4547141   172839 
 4242000   0.38014435   -2.3328487  -0.88246592  0.049973066   -2.3328487    1.4503827   172616 
 4243000   0.38120132   -2.3364608  -0.88032443  0.049998527   -2.3364608    1.4561363   172412 
 4244000   0.38106819   -2.3362283  -0.87890156  0.051173181   -2.3362283    1.4573268   172211 
 4245000   0.37990886   -2.3325824  -0.87832974  0.052549021   -2.3325824    1.4542527   172050 
 4246000   0.38069884   -2.3354842  -0.87651155  0.053123993   -2.3354842    1.4589727   171850 
 4247000   0.38030862   -2.3319364  -0.87257394  0.055957955   -2.3319364    1.4593624   171628 
 4248000   0.37804907   -2.3233425  -0.87089885  0.049910886   -2.3233425    1.4524436   171421 
 4249000   0.37739289    -2.322581  -0.87077829   0.04770277    -2.322581    1.4518028   171199 
 4250000   0.37832175   -2.3266998  -0.86957892  0.049929968   -2.3266998    1.4571209   170994 
 4251000   0.37736658   -2.3240767  -0.86918834  0.052169622   -2.3240767    1.4548884   170824 
 4252000    0.3765041   -2.3216011  -0.86841307  0.049070024   -2.3216011    1.4531881   170633 
 4253000   0.37657051   -2.3211808  -0.86610767  0.050204122   -2.3211808    1.4550731   170442 
 4254000   0.37625903   -2.3219323  -0.86627775   0.05176855   -2.3219323    1.4556545   170233 
 4255000   0.37571777   -2.3179536  -0.86259776  0.053537444   -2.3179536    1.4553559   170023 
 4256000   0.37462302   -2.3149857  -0.86211862   0.05087302   -2.3149857    1.4528671   169818 
 4257000   0.37413301   -2.3132032  -0.86044856  0.052525391   -2.3132032    1.4527546   169609 
 4258000   0.37421134   -2.3131544  -0.85832866  0.050278896   -2.3131544    1.4548258   169403 
 4259000   0.37488994   -2.3156617  -0.85641461  0.052754796   -2.3156617    1.4592471   169196 
 4260000   0.37337248    -2.310635  -0.85557466  0.053436806    -2.310635    1.4550604   168996 
 4261000   0.37356324   -2.3129875  -0.85533789  0.046916714   -2.3129875    1.4576496   168782 
 4262000   0.37201527   -2.3064157  -0.85286865   0.05233626   -2.3064157    1.4535471   168557 
 4263000   0.37108182   -2.3016829  -0.84993122  0.051804051   -2.3016829    1.4517517   168342 
 4264000   0.37134803   -2.3022757  -0.84784102  0.050965205   -2.3022757    1.4544347   168152 
 4265000   0.36984812   -2.2960667  -0.84588531  0.052142635   -2.2960667    1.4501814   167964 
 4266000   0.36995968   -2.2972038  -0.84502873  0.049151285   -2.2972038    1.4521751   167784 
 4267000   0.36921877   -2.2945178  -0.84359925  0.051667513   -2.2945178    1.4509185   167593 
 4268000   0.37002932    -2.297077  -0.84121849  0.052857474    -2.297077    1.4558585   167391 
 4269000   0.36902016   -2.2952055  -0.84162418   0.04953353   -2.2952055    1.4535813   167196 
 4270000   0.36843945   -2.2923006  -0.83916415  0.049720255   -2.2923006    1.4531364   166984 
 4271000   0.36899727   -2.2931551  -0.83614332  0.053254402   -2.2931551    1.4570118   166792 
 4272000   0.36824421   -2.2915144   -0.8356606  0.051898389   -2.2915144    1.4558538   166584 
 4273000   0.36767792   -2.2894572  -0.83423479  0.053610734   -2.2894572    1.4552224   166400 
 4274000    0.3662665   -2.2849625  -0.83345969  0.051613309   -2.2849625    1.4515028   166186 
 4275000    0.3661691   -2.2827405  -0.82982268  0.050445958   -2.2827405    1.4529179   165980 
 4276000   0.36711029    -2.288579  -0.83045955  0.050965472    -2.288579    1.4581195   165813 
 4277000    0.3655967   -2.2831709  -0.82929211  0.050885916   -2.2831709    1.4538788   165611 
 4278000    0.3651651   -2.2809938  -0.82714582  0.052832906   -2.2809938     1.453848   165419 
 4279000   0.36458115   -2.2777589  -0.82446996   0.05060917   -2.2777589     1.453289   165218 
 4280000   0.36404023   -2.2757298  -0.82298792  0.052505248   -2.2757298    1.4527419   165035 
 4281000   0.36391727   -2.2742452  -0.82034661   0.04971823   -2.2742452    1.4538986   164848 
 4282000    0.3633992   -2.2740367  -0.82045317  0.051231817   -2.2740367    1.4535836   164649 
 4283000   0.36241058    -2.271138  -0.81971945  0.051892418    -2.271138    1.4514186   164446 
 4284000   0.36206117   -2.2690868  -0.81731956  0.050603372   -2.2690868    1.4517673   164248 
 4285000   0.36169903   -2.2654575  -0.81332104  0.051045755   -2.2654575    1.4521364   164042 
 4286000   0.36183292   -2.2669657  -0.81258946  0.049180502   -2.2669657    1.4543762   163850 
 4287000   0.36179714   -2.2686825  -0.81279742  0.049442328   -2.2686825    1.4558851   163664 
 4288000   0.36167079   -2.2662232  -0.80896778  0.049316291   -2.2662232    1.4572554   163453 
 4289000   0.36053066   -2.2607407  -0.80633519  0.046710159   -2.2607407    1.4544055   163257 
 4290000   0.36016448     -2.25934  -0.80475446  0.051548857     -2.25934    1.4545856   163071 
 4291000    0.3591991   -2.2551606  -0.80264789  0.050394938   -2.2551606    1.4525127   162866 
 4292000   0.35829467   -2.2518047  -0.80136401  0.049397628   -2.2518047    1.4504406   162688 
 4293000   0.35905414   -2.2545935  -0.79936096  0.052664742   -2.2545935    1.4552326   162496 
 4294000   0.35799811   -2.2489745  -0.79630555  0.050360161   -2.2489745    1.4526689   162304 
 4295000   0.35748288   -2.2455866  -0.79348738  0.048922132   -2.2455866    1.4520992   162134 
 4296000   0.35710503    -2.244853   -0.7926585   0.05361319    -2.244853    1.4521945   161952 
 4297000   0.35640636   -2.2398326  -0.78865137  0.049598376   -2.2398326    1.4511812   161748 
 4298000   0.35652305   -2.2380122  -0.78453168   0.04972426   -2.2380122    1.4534805   161545 
 4299000   0.35547216   -2.2321854   -0.7813816  0.048373926   -2.2321854    1.4508038   161366 
 4300000    0.3556237   -2.2316726  -0.77863853  0.054117229   -2.2316726    1.4530341   161187 
 4301000   0.35666564   -2.2352991   -0.7761157  0.049652958   -2.2352991    1.4591834   160978 
 4302000   0.35552325   -2.2310906  -0.77492558  0.049744563   -2.2310906    1.4561651   160795 
 4303000   0.35443275   -2.2270439  -0.77354648  0.048347281   -2.2270439    1.4534974   160596 
 4304000   0.35523722   -2.2287424  -0.77019312  0.051049975   -2.2287424    1.4585493   160403 
 4305000   0.35433532   -2.2245632  -0.76810978  0.051167269   -2.2245632    1.4564534   160226 
 4306000   0.35255068   -2.2168203  -0.76572815  0.051862732   -2.2168203    1.4510921   160008 
 4307000   0.35308307   -2.2157296  -0.76074575  0.051002208   -2.2157296    1.4549839   159821 
 4308000   0.35305438   -2.2165494  -0.75995214  0.051810369   -2.2165494    1.4565973   159631 
 4309000   0.35194306   -2.2110216  -0.75715127  0.052106926   -2.2110216    1.4538703   159427 
 4310000   0.35229293   -2.2102322  -0.75318928  0.050800738   -2.2102322    1.4570429   159238 
 4311000   0.35220504   -2.2080607  -0.74965027  0.052703109   -2.2080607    1.4584104   159049 
 4312000    0.3518554   -2.2057097  -0.74688517  0.052114299   -2.2057097    1.4588246   158846 
 4313000   0.35097274   -2.2004664  -0.74374243  0.053507607   -2.2004664     1.456724   158676 
 4314000   0.35076002   -2.2001888  -0.74251037  0.051713567   -2.2001888    1.4576784   158476 
 4315000   0.34968897   -2.1947192  -0.73965549  0.049695796   -2.1947192    1.4550637   158276 
 4316000   0.34988363   -2.1949343  -0.73716333  0.050471576   -2.1949343     1.457771   158070 
 4317000   0.35149157   -2.1993754  -0.73306834  0.049840981   -2.1993754    1.4663071   157872 
 4318000   0.34992654   -2.1938256  -0.73229762  0.049712424   -2.1938256     1.461528   157683 
 4319000   0.34845413   -2.1861057  -0.72888838   0.05297049   -2.1861057    1.4572173   157484 
 4320000   0.34804071   -2.1851525  -0.72769288  0.050552725   -2.1851525    1.4574596   157271 
 4321000   0.34780856   -2.1846501  -0.72640096  0.050892352   -2.1846501    1.4582492   157081 
 4322000   0.34778233   -2.1831765  -0.72333659  0.053388893   -2.1831765    1.4598399   156898 
 4323000   0.34688358   -2.1801743  -0.72235087  0.051859739   -2.1801743    1.4578235   156709 
 4324000   0.34648221   -2.1784066  -0.72051167  0.050300665   -2.1784066    1.4578949   156520 
 4325000   0.34645909   -2.1763671  -0.71669495  0.052716182   -2.1763671    1.4596722   156319 
 4326000   0.34577585   -2.1734126  -0.71475273  0.053000913   -2.1734126    1.4586598   156119 
 4327000   0.34399738   -2.1646189  -0.71164671  0.050517429   -2.1646189    1.4529722   155924 
 4328000    0.3449569   -2.1690583   -0.7102182  0.049888235   -2.1690583    1.4588401   155730 
 4329000   0.34427565   -2.1669068  -0.70912235  0.052697192   -2.1669068    1.4577844   155535 
 4330000   0.34357351   -2.1640232  -0.70731058  0.050745693   -2.1640232    1.4567126   155332 
 4331000   0.34302612   -2.1606324  -0.70443135   0.05050306   -2.1606324     1.456201   155139 
 4332000   0.34268396   -2.1584653  -0.70192349  0.050552334   -2.1584653    1.4565418   154948 
 4333000   0.34312564   -2.1598791  -0.69973554  0.051193392   -2.1598791    1.4601435   154765 
 4334000     0.341549   -2.1559815  -0.70074192  0.050533256   -2.1559815    1.4552396   154573 
 4335000   0.34060075   -2.1508819  -0.69803765  0.050122018   -2.1508819    1.4528443   154398 
 4336000   0.34015399   -2.1494877  -0.69673313  0.051527915   -2.1494877    1.4527546   154205 
 4337000   0.33979383   -2.1464486  -0.69349856  0.051516105   -2.1464486      1.45295   154021 
 4338000   0.33943123   -2.1448423   -0.6915934  0.054059157   -2.1448423    1.4532489   153825 
 4339000   0.33911149   -2.1446656  -0.69101851  0.051938039   -2.1446656    1.4536471   153638 
 4340000   0.33945009   -2.1465455  -0.68935086  0.054126897   -2.1465455    1.4571947   153417 
 4341000   0.33780491   -2.1401083  -0.68807372  0.050836031   -2.1401083    1.4520346   153216 
 4342000   0.33863943   -2.1427247  -0.68509562  0.050929382   -2.1427247    1.4576291   153005 
 4343000   0.33657858   -2.1328823  -0.68214219  0.050946216   -2.1328823    1.4507401   152796 
 4344000   0.33592163   -2.1296692  -0.68006247  0.049762533   -2.1296692    1.4496067   152617 
 4345000   0.33645305   -2.1299816  -0.67619555  0.049279571   -2.1299816    1.4537861   152419 
 4346000   0.33698274   -2.1307209  -0.67278086   0.05247578   -2.1307209      1.45794   152224 
 4347000   0.33560221    -2.125619  -0.67159807  0.049303294    -2.125619    1.4540209   152009 
 4348000   0.33539466   -2.1247733  -0.66958383  0.050502259   -2.1247733    1.4551894   151793 
 4349000   0.33584987    -2.126152   -0.6670073  0.051447707    -2.126152    1.4591447   151587 
 4350000   0.33531041   -2.1210779  -0.66221743  0.052803363   -2.1210779    1.4588605   151373 
 4351000   0.33343373     -2.11555  -0.66285843  0.051374709     -2.11555    1.4526916   151165 
 4352000   0.33327493   -2.1173907   -0.6633711  0.050415976   -2.1173907    1.4540196   150955 
 4353000   0.33446202   -2.1197043  -0.65876353  0.050815501   -2.1197043    1.4609407   150775 
 4354000    0.3323578    -2.109815  -0.65639791  0.050505186    -2.109815    1.4534171   150602 
 4355000   0.33199105   -2.1088972  -0.65499868  0.051387143   -2.1088972    1.4538985   150386 
 4356000   0.33067428   -2.1006753  -0.65046037  0.048143594   -2.1006753    1.4502149   150170 
 4357000   0.33145042   -2.1032019  -0.64747958  0.052642022   -2.1032019    1.4557223   149953 
 4358000   0.32993949   -2.0978642  -0.64678435  0.048849907   -2.0978642    1.4510798   149747 
 4359000   0.33083479   -2.1019815  -0.64500854  0.051113783   -2.1019815     1.456973   149546 
 4360000   0.32979468   -2.0969731   -0.6425967  0.050597237   -2.0969731    1.4543764   149342 
 4361000   0.32925761   -2.0937302  -0.64007721  0.048723653   -2.0937302     1.453653   149173 
 4362000   0.33022599   -2.0964356  -0.63644219  0.051644803   -2.0964356    1.4599934   148962 
 4363000   0.32700961   -2.0818344   -0.6337963  0.049830366   -2.0818344    1.4480381   148729 
 4364000   0.32759736   -2.0831848  -0.63051251  0.049053288   -2.0831848    1.4526723   148521 
 4365000   0.32883062   -2.0867122  -0.62652629  0.051010235   -2.0867122     1.460186   148313 
 4366000   0.32639241   -2.0759176  -0.62447419  0.049975544   -2.0759176    1.4514435   148100 
 4367000   0.32728529   -2.0779979   -0.6204482  0.051555835   -2.0779979    1.4575497   147883 
 4368000    0.3267654   -2.0743601    -0.616928  0.051452807   -2.0743601    1.4574321   147660 
 4369000   0.32590077     -2.07092  -0.61542216  0.049141991     -2.07092    1.4554978   147465 
 4370000   0.32631013   -2.0733897  -0.61389616  0.052746679   -2.0733897    1.4594936   147246 
 4371000   0.32467722   -2.0652781  -0.61088547  0.048145422   -2.0652781    1.4543927   147023 
 4372000    0.3246181   -2.0639819  -0.60799226   0.05037437   -2.0639819    1.4559896   146835 
 4373000   0.32372062   -2.0612534  -0.60736831  0.052360593   -2.0612534    1.4538851   146641 
 4374000   0.32402739   -2.0637354   -0.6066841  0.049191109   -2.0637354    1.4570513   146461 
 4375000    0.3242705   -2.0634473  -0.60334873   0.05022092   -2.0634473    1.4600985   146265 
 4376000   0.32335178   -2.0580447  -0.60017918  0.051815602   -2.0580447    1.4578655   146074 
 4377000   0.32283299   -2.0558208   -0.5983287  0.050597418   -2.0558208    1.4574921   145877 
 4378000   0.32266912   -2.0565874  -0.59792524  0.049852488   -2.0565874    1.4586622   145686 
 4379000   0.32215565   -2.0565434  -0.59832063  0.050820065   -2.0565434    1.4582227   145498 
 4380000   0.32061973   -2.0476873  -0.59450922   0.05220997   -2.0476873    1.4531781   145307 
 4381000   0.32125097   -2.0507055   -0.5926395  0.051975855   -2.0507055    1.4580661   145105 
 4382000   0.32042683   -2.0477635  -0.59137042  0.048669665   -2.0477635    1.4563931   144899 
 4383000   0.31950071   -2.0429479  -0.58879717  0.050134753   -2.0429479    1.4541507   144703 
 4384000   0.31950834   -2.0422565  -0.58621956  0.049596584   -2.0422565    1.4560369   144519 
 4385000   0.31948686   -2.0402893   -0.5822518   0.05100123   -2.0402893    1.4580375   144311 
 4386000   0.31846673   -2.0358528  -0.58053459  0.050820614   -2.0358528    1.4553182   144119 
 4387000   0.31828042   -2.0352272  -0.57860766  0.051491029   -2.0352272    1.4566196   143906 
 4388000   0.31754499   -2.0292099  -0.57392339  0.050471149   -2.0292099    1.4552865   143705 
 4389000   0.31732674   -2.0288621  -0.57258958  0.049373646   -2.0288621    1.4562726   143509 
 4390000   0.31711066   -2.0276085  -0.57038816  0.047835838   -2.0276085    1.4572204   143318 
 4391000   0.31692252   -2.0249635   -0.5668985  0.051593018   -2.0249635     1.458065   143150 
 4392000   0.31568027   -2.0204838  -0.56605118    0.0487396   -2.0204838    1.4544326   142945 
 4393000   0.31439345   -2.0159031  -0.56557291   0.04928889   -2.0159031    1.4503301   142765 
 4394000   0.31505106   -2.0194575  -0.56421817  0.048815358   -2.0194575    1.4552393   142581 
 4395000    0.3153762    -2.019877  -0.56137641  0.050096129    -2.019877    1.4585006   142409 
 4396000   0.31382558     -2.01152  -0.55797559  0.048558737     -2.01152    1.4535444   142192 
 4397000   0.31390105   -2.0109981  -0.55515883  0.050478477   -2.0109981    1.4558393   142002 
 4398000   0.31312191    -2.008113  -0.55392103  0.049246997    -2.008113    1.4541919   141810 
 4399000   0.31240915   -2.0040336  -0.55123608  0.051191658   -2.0040336    1.4527975   141623 
 4400000   0.31221492   -2.0040647     -0.55022  0.049184627   -2.0040647    1.4538447   141433 
 4401000    0.3111667   -1.9959919   -0.5450174  0.050144494   -1.9959919    1.4509745   141237 
 4402000    0.3120477   -1.9996025  -0.54264247   0.05028229   -1.9996025      1.45696   141055 
 4403000   0.31154061   -1.9937859  -0.53748996  0.049960194   -1.9937859    1.4562959   140890 
 4404000   0.31060771   -1.9913599   -0.5376088  0.050781419   -1.9913599    1.4537511   140714 
 4405000   0.31029628   -1.9895971  -0.53544343  0.047352598   -1.9895971    1.4541536   140534 
 4406000   0.31053087   -1.9894677  -0.53243143   0.05328328   -1.9894677    1.4570363   140362 
 4407000   0.30982749   -1.9855492  -0.52997769   0.04803712   -1.9855492    1.4555715   140185 
 4408000   0.30932264   -1.9832277  -0.52804542  0.052757839   -1.9832277    1.4551823   139994 
 4409000   0.30874955   -1.9800039  -0.52584522  0.048274952   -1.9800039    1.4541587   139833 
 4410000   0.30895672   -1.9812388  -0.52433323  0.048709316   -1.9812388    1.4569056   139663 
 4411000   0.30821141   -1.9769421  -0.52153982  0.049214197   -1.9769421    1.4554023   139470 
 4412000   0.30792113    -1.974203  -0.51826115  0.052925276    -1.974203    1.4559419   139287 
 4413000   0.30690603   -1.9709565  -0.51779027    0.0510909   -1.9709565    1.4531662   139093 
 4414000   0.30627613   -1.9674048  -0.51502837  0.051361691   -1.9674048    1.4523764   138883 
 4415000   0.30640624   -1.9651363  -0.51017333   0.05202756   -1.9651363    1.4549629   138695 
 4416000   0.30596778   -1.9608479  -0.50597394  0.050567306   -1.9608479     1.454874   138505 
 4417000   0.30526439   -1.9570995  -0.50342902   0.04869556   -1.9570995    1.4536704   138301 
 4418000   0.30458479   -1.9527513  -0.50030077  0.049576323   -1.9527513    1.4524506   138109 
 4419000   0.30579885   -1.9572546  -0.49688919  0.050319691   -1.9572546    1.4603654   137908 
 4420000   0.30487015   -1.9530449  -0.49495769  0.048616397   -1.9530449    1.4580872   137704 
 4421000   0.30359432   -1.9450308  -0.49091245  0.050138453   -1.9450308    1.4541184   137502 
 4422000   0.30417211   -1.9445048  -0.48567744  0.049522288   -1.9445048    1.4588273   137319 
 4423000    0.3037907   -1.9444984  -0.48558799    0.0537959   -1.9444984    1.4589104   137139 
 4424000   0.30317453   -1.9412601  -0.48299065  0.050310265   -1.9412601    1.4582695   136921 
 4425000   0.30205201   -1.9361186  -0.48121895  0.052870818   -1.9361186    1.4548997   136730 
 4426000   0.30202648    -1.933722  -0.47686751  0.050099307    -1.933722    1.4568544   136535 
 4427000   0.30252247   -1.9345581  -0.47302044  0.050829056   -1.9345581    1.4615377   136321 
 4428000   0.30059573   -1.9253752  -0.47115107  0.047915872   -1.9253752    1.4542241   136134 
 4429000   0.30084318   -1.9266561  -0.46926504  0.050694938   -1.9266561     1.457391   135950 
 4430000   0.30087139   -1.9266846  -0.46725681  0.050885237   -1.9266846    1.4594278   135773 
 4431000   0.29978523   -1.9210256  -0.46481794  0.050345948   -1.9210256    1.4562077   135582 
 4432000     0.298894   -1.9156995  -0.46181564  0.053760066   -1.9156995    1.4538838   135395 
 4433000   0.29889487   -1.9159516  -0.46004202  0.050955991   -1.9159516    1.4559096   135207 
 4434000   0.29863615   -1.9139091  -0.45721268  0.049555494   -1.9139091    1.4566964   135017 
 4435000   0.29775122   -1.9103586  -0.45578095  0.050879588   -1.9103586    1.4545777   134813 
 4436000   0.29784441   -1.9065474  -0.44955837  0.049888607   -1.9065474    1.4569891   134632 
 4437000   0.29715884   -1.9046401  -0.44864711  0.051620655   -1.9046401     1.455993   134414 
 4438000   0.29639838   -1.8993852  -0.44510583  0.052913697   -1.8993852    1.4542794   134228 
 4439000   0.29604968   -1.8969736  -0.44220504  0.050787734   -1.8969736    1.4547686   134025 
 4440000   0.29555919    -1.894005  -0.43955221  0.048268327    -1.894005    1.4544528   133832 
 4441000   0.29481432     -1.88855  -0.43542829  0.050283816     -1.88855    1.4531217   133617 
 4442000   0.29446399   -1.8846818  -0.43111113  0.050368251   -1.8846818    1.4535707   133417 
 4443000    0.2945824   -1.8845739  -0.42829019   0.05123589   -1.8845739    1.4562837   133222 
 4444000   0.29496459   -1.8844162  -0.42406177   0.04874503   -1.8844162    1.4603545   133023 
 4445000   0.29422355   -1.8791561  -0.42003545  0.051256372   -1.8791561    1.4591207   132801 
 4446000   0.29317297   -1.8743908  -0.41834218  0.049890532   -1.8743908    1.4560486   132606 
 4447000    0.2932032   -1.8747479  -0.41640463  0.051324312   -1.8747479    1.4583433   132411 
 4448000   0.29308622   -1.8746585  -0.41463654  0.050653021   -1.8746585    1.4600219   132206 
 4449000   0.29220622   -1.8690122  -0.41103605  0.051659255   -1.8690122    1.4579761   131994 
 4450000   0.29187597   -1.8673528  -0.40902481  0.050911574   -1.8673528     1.458328   131813 
 4451000   0.29169717   -1.8660492  -0.40651068  0.050817227   -1.8660492    1.4595385   131623 
 4452000    0.2912525   -1.8640427  -0.40431145   0.05058088   -1.8640427    1.4597313   131405 
 4453000   0.29085015   -1.8627653   -0.4028619  0.050094936   -1.8627653    1.4599034   131208 
 4454000    0.2902869   -1.8566062  -0.39736134  0.049276419   -1.8566062    1.4592449   131013 
 4455000   0.28874289   -1.8485239  -0.39493254  0.049192411   -1.8485239    1.4535913   130823 
 4456000   0.28944846   -1.8512995   -0.3919363   0.04944707   -1.8512995    1.4593632   130624 
 4457000   0.28816493   -1.8456816  -0.39058418  0.052893015   -1.8456816    1.4550975   130426 
 4458000   0.28744716   -1.8414719  -0.38769151  0.049772612   -1.8414719    1.4537803   130219 
 4459000   0.28715819   -1.8400147  -0.38543938  0.050373144   -1.8400147    1.4545753   130017 
 4460000   0.28602898   -1.8331729  -0.38202951  0.053005506   -1.8331729    1.4511434   129812 
 4461000   0.28622203   -1.8318114  -0.37716729  0.049802032   -1.8318114    1.4546441   129587 
 4462000   0.28563406   -1.8276653  -0.37376545  0.050415441   -1.8276653    1.4538998   129387 
 4463000   0.28494285   -1.8234071  -0.37078014  0.049359457   -1.8234071    1.4526269   129187 
 4464000    0.2832509   -1.8151739   -0.3690232  0.050444741   -1.8151739    1.4461507   128995 
 4465000   0.28430236   -1.8183754   -0.3647604  0.051024945   -1.8183754     1.453615   128809 
 4466000   0.28377374   -1.8147376  -0.36181764  0.049581747   -1.8147376      1.45292   128631 
 4467000   0.28327911   -1.8116374  -0.35905918  0.049287878   -1.8116374    1.4525782   128437 
 4468000   0.28363108   -1.8120401  -0.35537739  0.050728713   -1.8120401    1.4566627   128236 
 4469000   0.28228441   -1.8035061  -0.35129088  0.049679858   -1.8035061    1.4522152   128018 
 4470000    0.2826407   -1.8069244  -0.35062387  0.052182924   -1.8069244    1.4563006   127820 
 4471000   0.28157565   -1.7993552   -0.3463711  0.050759923   -1.7993552    1.4529841   127629 
 4472000   0.28144145   -1.7972592  -0.34272248  0.050655468   -1.7972592    1.4545367   127432 
 4473000   0.28123145   -1.7943963  -0.33864876  0.050686633   -1.7943963    1.4557476   127231 
 4474000    0.2790036   -1.7832308  -0.33690092  0.048984346   -1.7832308    1.4463299   127045 
 4475000   0.27925031    -1.785135  -0.33539225  0.048757245    -1.785135    1.4497427   126858 
 4476000    0.2784521   -1.7774621  -0.32970635  0.050517137   -1.7774621    1.4477557   126669 
 4477000   0.27911128   -1.7785175  -0.32517751  0.050725596   -1.7785175      1.45334   126481 
 4478000   0.27885652   -1.7764892  -0.32233723  0.048031239   -1.7764892    1.4541519   126295 
 4479000   0.27824913   -1.7718754  -0.31891204  0.049463343   -1.7718754    1.4529633   126123 
 4480000   0.27788925   -1.7687115  -0.31513797  0.049691249   -1.7687115    1.4535735   125907 
 4481000   0.27688506   -1.7630801   -0.3125473  0.050116498   -1.7630801    1.4505328   125715 
 4482000   0.27669122   -1.7622314  -0.31046226  0.050768388   -1.7622314    1.4517692   125520 
 4483000   0.27732155   -1.7626552  -0.30539609   0.04831582   -1.7626552    1.4572591   125332 
 4484000   0.27640828   -1.7569692  -0.30243172  0.050271267   -1.7569692    1.4545375   125153 
 4485000    0.2743904   -1.7438752  -0.29737896  0.048112661   -1.7438752    1.4464962   124930 
 4486000    0.2755811   -1.7491197   -0.2940637  0.052430298   -1.7491197     1.455056   124734 
 4487000   0.27578407   -1.7490266  -0.29078283  0.050835063   -1.7490266    1.4582437   124553 
 4488000    0.2744495   -1.7436048  -0.29006044  0.049629548   -1.7436048    1.4535443   124351 
 4489000   0.27299146   -1.7332815  -0.28541003  0.049224076   -1.7332815    1.4478715   124175 
 4490000   0.27290169   -1.7327222  -0.28313209  0.047932692   -1.7327222    1.4495901   123987 
 4491000   0.27352167   -1.7322227  -0.27714487  0.049197806   -1.7322227    1.4550778   123800 
 4492000   0.27339863   -1.7314132  -0.27463652  0.047722204   -1.7314132    1.4567767   123600 
 4493000   0.27264101   -1.7265945  -0.27151189  0.050384322   -1.7265945    1.4550826   123401 
 4494000   0.27229252   -1.7239893  -0.26841933  0.050669864   -1.7239893      1.45557   123202 
 4495000    0.2720491   -1.7208059  -0.26420807  0.049389726   -1.7208059    1.4565979   123005 
 4496000   0.27177053   -1.7141586  -0.25680123  0.049207337   -1.7141586    1.4573574   122815 
 4497000   0.27124288   -1.7112726   -0.2546454  0.049507581   -1.7112726    1.4566272   122638 
 4498000   0.27068802   -1.7076227  -0.25146989  0.049491899   -1.7076227    1.4561528   122427 
 4499000   0.26930424   -1.7005728  -0.24932726  0.048680793   -1.7005728    1.4512456   122213 
 4500000   0.27004336   -1.7018285  -0.24426226  0.050778844   -1.7018285    1.4575662   122017 
 4501000   0.26990881   -1.6998359  -0.24081967  0.048906735   -1.6998359    1.4590162   121835 
 4502000   0.26875028   -1.6913442  -0.23609409  0.051343649   -1.6913442    1.4552501   121626 
 4503000   0.26932144   -1.6934237  -0.23270286  0.050114202   -1.6934237    1.4607208   121428 
 4504000   0.26883151   -1.6851993  -0.22503136   0.05218383   -1.6851993     1.460168   121253 
 4505000   0.26812607   -1.6827639   -0.2240456  0.050274384   -1.6827639    1.4587183   121055 
 4506000   0.26807378   -1.6824585  -0.22209439  0.051790747   -1.6824585    1.4603641   120895 
 4507000   0.26739178   -1.6763189  -0.21730473  0.050166449   -1.6763189    1.4590142   120699 
 4508000   0.26734778     -1.67386  -0.21291925  0.050370021     -1.67386    1.4609407   120520 
 4509000   0.26625592   -1.6704083  -0.21308827  0.049292577   -1.6704083      1.45732   120326 
 4510000   0.26554579   -1.6653429  -0.20929599  0.051223907   -1.6653429    1.4560469   120110 
 4511000     0.265299    -1.660625  -0.20357782  0.049789938    -1.660625    1.4570472   119916 
 4512000   0.26475292    -1.655566  -0.19905232  0.048296518    -1.655566    1.4565137   119713 
 4513000   0.26502173     -1.65675  -0.19641537  0.048664723     -1.65675    1.4603347   119521 
 4514000   0.26392871   -1.6484986  -0.19187117  0.050607403   -1.6484986    1.4566274   119331 
 4515000   0.26309798   -1.6428446  -0.18824213  0.048217539   -1.6428446    1.4546024   119121 
 4516000   0.26335657    -1.643926   -0.1856413  0.050884664    -1.643926    1.4582847   118937 
 4517000    0.2621622     -1.63648  -0.18213096    0.0504988     -1.63648     1.454349   118718 
 4518000   0.26180349   -1.6302316  -0.17538488  0.048854124   -1.6302316    1.4548467   118515 
 4519000   0.26151643   -1.6250722  -0.16933949  0.050551604   -1.6250722    1.4557327   118313 
 4520000   0.26084988   -1.6196684  -0.16517499  0.050754164   -1.6196684    1.4544934   118112 
 4521000   0.25998577   -1.6144438  -0.16222356  0.047968984   -1.6144438    1.4522202   117905 
 4522000   0.25930712    -1.608637  -0.15782042  0.051307643    -1.608637    1.4508166   117711 
 4523000   0.25979542   -1.6089048  -0.15280787  0.048427971   -1.6089048    1.4560969   117505 
 4524000   0.25937466   -1.6063345   -0.1503531  0.049378291   -1.6063345    1.4559814   117324 
 4525000   0.25877039   -1.6018425  -0.14664845  0.048197335   -1.6018425     1.455194   117114 
 4526000    0.2586194   -1.5986209  -0.14137675    0.0491034   -1.5986209    1.4572441   116881 
 4527000   0.25813312   -1.5950232  -0.13807589  0.051338259   -1.5950232    1.4569473   116685 
 4528000   0.25784579   -1.5895694  -0.13165753   0.04970591   -1.5895694    1.4579119   116478 
 4529000    0.2567857   -1.5815114  -0.12730884  0.049296743   -1.5815114    1.4542026   116295 
 4530000   0.25753757    -1.584992  -0.12420772  0.049660606    -1.584992    1.4607843   116110 
 4531000   0.25666768   -1.5787428  -0.12060696  0.050624425   -1.5787428    1.4581358   115928 
 4532000   0.25631455   -1.5761366  -0.11759127    0.0500719   -1.5761366    1.4585453   115736 
 4533000   0.25433329   -1.5626755   -0.1126983   0.04856981   -1.5626755    1.4499772   115520 
 4534000   0.25590676   -1.5708218  -0.10938186  0.050572315   -1.5708218    1.4614399   115323 
 4535000   0.25441782   -1.5571566  -0.10148063  0.049912445   -1.5571566    1.4556759   115106 
 4536000   0.25406864   -1.5556803 -0.099763508  0.048952279   -1.5556803    1.4559168   114929 
 4537000   0.25368869   -1.5491149  -0.09291728  0.049903212   -1.5491149    1.4561976   114735 
 4538000   0.25305015    -1.544574 -0.089505265  0.050685152    -1.544574    1.4550688   114535 
 4539000   0.25246249   -1.5398719 -0.085426607   0.05012058   -1.5398719    1.4544453   114318 
 4540000   0.25261462   -1.5390061 -0.080993284  0.051037542   -1.5390061    1.4580128   114107 
 4541000   0.25266674   -1.5374056 -0.076403211  0.049779628   -1.5374056    1.4610024   113897 
 4542000   0.25179172   -1.5313744 -0.072857791  0.049796786   -1.5313744    1.4585166   113696 
 4543000   0.25163285   -1.5294323 -0.069267377  0.050375107   -1.5294323    1.4601649   113496 
 4544000   0.25088111   -1.5229603 -0.064458936  0.050519115   -1.5229603    1.4585014   113286 
 4545000   0.25053502   -1.5158942 -0.056686904  0.050102365   -1.5158942    1.4592073   113075 
 4546000   0.25108865   -1.5189213 -0.054041064  0.049466559   -1.5189213    1.4648803   112886 
 4547000   0.24939517   -1.5067041 -0.048875544  0.050936582   -1.5067041    1.4578285   112667 
 4548000   0.24874397   -1.5002593  -0.04336661  0.048781915   -1.5002593    1.4568927   112445 
 4549000   0.24926603   -1.5042531 -0.041792603  0.051305297   -1.5042531    1.4624605   112252 
 4550000   0.24838266     -1.50028 -0.040205773  0.051150154     -1.50028    1.4600743   112037 
 4551000   0.24741918   -1.4929328 -0.036012398  0.052835159   -1.4929328    1.4569204   111844 
 4552000   0.24710318   -1.4931523 -0.035577556  0.050465282   -1.4931523    1.4575748   111651 
 4553000   0.24661478   -1.4887384 -0.031120143  0.048965637   -1.4887384    1.4576182   111427 
 4554000   0.24624517   -1.4847555 -0.026652417  0.051341767   -1.4847555    1.4581031   111223 
 4555000   0.24650197   -1.4844477 -0.021917918   0.04975685   -1.4844477    1.4625298   111002 
 4556000    0.2449563   -1.4741369 -0.017812644  0.050809131   -1.4741369    1.4563242   110776 
 4557000   0.24475246   -1.4720441  -0.01426039  0.051467985   -1.4720441    1.4577837   110573 
 4558000   0.24393844   -1.4674472 -0.011865951  0.052238669   -1.4674472    1.4555813   110372 
 4559000   0.24410175   -1.4649151 -0.0055165152   0.05087805   -1.4649151    1.4593986   110157 
 4560000   0.24286356   -1.4574106 -0.0026016945  0.051542794   -1.4574106    1.4548089   109944 
 4561000   0.24284961   -1.4582824 -0.00093246981  0.050455124   -1.4582824    1.4573499   109746 
 4562000   0.24178984   -1.4509381  0.002913533  0.050834382   -1.4509381    1.4538516   109530 
 4563000   0.24180607     -1.44908 0.0077555032  0.049566375     -1.44908    1.4568355   109313 
 4564000   0.24162994   -1.4463618  0.012054214  0.051192944   -1.4463618     1.458416   109115 
 4565000   0.24081248   -1.4399097  0.016080957  0.051087122   -1.4399097    1.4559906   108927 
 4566000   0.24048052   -1.4375167  0.019462988  0.050427446   -1.4375167    1.4569797   108703 
 4567000   0.23952636   -1.4317872  0.022032911  0.051568673   -1.4317872    1.4538202   108507 
 4568000   0.23927226    -1.430155  0.025248125  0.051311645    -1.430155    1.4554031   108274 
 4569000    0.2387059   -1.4233437  0.031920917  0.050870752   -1.4233437    1.4552646   108028 
 4570000   0.23859883   -1.4192551  0.038054687  0.051260053   -1.4192551    1.4573098   107828 
 4571000   0.23826187   -1.4194797  0.038774285  0.049725289   -1.4194797     1.458254   107606 
 4572000   0.23829367   -1.4177607  0.043512555  0.051351071   -1.4177607    1.4612733   107398 
 4573000   0.23730378   -1.4132093  0.044681517  0.050659075   -1.4132093    1.4578908   107200 
 4574000   0.23714139    -1.409923  0.050075427   0.05259265    -1.409923    1.4599984   106972 
 4575000   0.23687037   -1.4066582  0.054608561   0.05097769   -1.4066582    1.4612668   106757 
 4576000   0.23662688   -1.4036807  0.059208325  0.051755244   -1.4036807     1.462889   106529 
 4577000   0.23510502    -1.393727  0.062692773  0.051076422    -1.393727    1.4564198   106314 
 4578000   0.23583236   -1.3987828  0.065227329  0.050985931   -1.3987828    1.4640101   106090 
 4579000   0.23446691   -1.3930221  0.065494799  0.052376989   -1.3930221    1.4585169   105873 
 4580000   0.23364048   -1.3885521  0.067629778  0.049242678   -1.3885521    1.4561819   105669 
 4581000   0.23345419   -1.3866788  0.071294667  0.050311217   -1.3866788    1.4579735   105455 
 4582000   0.23332177   -1.3852905  0.074610996  0.049717446   -1.3852905    1.4599015   105256 
 4583000   0.23304967     -1.38424  0.076665383  0.049784488     -1.38424    1.4609054   105061 
 4584000   0.23175976   -1.3752075  0.080507808   0.05020469   -1.3752075    1.4557153   104852 
 4585000    0.2310651   -1.3686812  0.085903243  0.052006945   -1.3686812    1.4545844   104619 
 4586000   0.23080885   -1.3647489  0.091507378  0.051730961   -1.3647489    1.4562563   104383 
 4587000    0.2301623   -1.3607089   0.09438151  0.049401347   -1.3607089    1.4550904   104174 
 4588000   0.22945122   -1.3587847  0.094572615  0.049656781   -1.3587847    1.4533573   103976 
 4589000   0.22949868   -1.3571587  0.099749915  0.050775159   -1.3571587    1.4569087   103744 
 4590000   0.22811192   -1.3477381    0.1030101  0.051877838   -1.3477381    1.4507482   103555 
 4591000   0.22806359   -1.3470481   0.10660729  0.050727143   -1.3470481    1.4536554   103326 
 4592000   0.22739351   -1.3442054   0.10827163  0.050089469   -1.3442054     1.452477   103106 
 4593000   0.22644938   -1.3363274   0.11340919  0.051589643   -1.3363274    1.4497366   102872 
 4594000   0.22668822   -1.3348808   0.11963682  0.050231729   -1.3348808    1.4545176   102642 
 4595000   0.22651605   -1.3316286   0.12460766  0.050919657   -1.3316286    1.4562362   102443 
 4596000   0.22667086    -1.331253   0.12887178    0.0506951    -1.331253    1.4601248   102240 
 4597000   0.22611507    -1.324508     0.134963  0.052022452    -1.324508     1.459471   102035 
 4598000   0.22486559   -1.3172192   0.13728031  0.047843176   -1.3172192    1.4544995   101818 
 4599000   0.22457527   -1.3173548   0.13809713  0.051471639   -1.3173548    1.4554519   101620 
 4600000   0.22437385   -1.3122255    0.1451191   0.05118643   -1.3122255    1.4573446   101397 
 4601000   0.22394113   -1.3102723   0.14751095  0.050387846   -1.3102723    1.4577833   101171 
 4602000   0.22377423   -1.3101526   0.14948741  0.052132504   -1.3101526      1.45964   100967 
 4603000    0.2234077    -1.308517   0.15169695  0.050438533    -1.308517    1.4602139   100762 
 4604000    0.2218134    -1.299487    0.1533632  0.051334985    -1.299487    1.4528502   100550 
 4605000   0.22164914   -1.2995494   0.15532137  0.049037707   -1.2995494    1.4548707   100336 
 4606000   0.22164214   -1.3026162    0.1556385  0.051066527   -1.3026162    1.4582547   100100 
 4607000   0.22076593   -1.2956023   0.16015977  0.049878851   -1.2956023    1.4557621    99875 
 4608000   0.22036219   -1.2961604   0.16013263  0.049547927   -1.2961604     1.456293    99656 
 4609000   0.21973829   -1.2875013   0.16758882  0.049378816   -1.2875013    1.4550901    99456 
 4610000   0.21924502   -1.2858573   0.16900911  0.050657915   -1.2858573    1.4548664    99248 
 4611000    0.2186939   -1.2819221   0.17237901  0.051519454   -1.2819221    1.4543011    99037 
 4612000   0.21853655   -1.2792673   0.17738499  0.051400098   -1.2792673    1.4566523    98806 
 4613000   0.21816798   -1.2764535   0.18123864  0.048935102   -1.2764535    1.4576921    98569 
 4614000   0.21806946   -1.2768584    0.1834941  0.049895984   -1.2768584    1.4603525    98345 
 4615000   0.21713898   -1.2693944   0.18865578  0.050405814   -1.2693944    1.4580502    98080 
 4616000   0.21632441   -1.2685615   0.18749279   0.05039105   -1.2685615    1.4560543    97846 
 4617000   0.21611717   -1.2683837   0.18995718  0.050613893   -1.2683837    1.4583408    97599 
 4618000   0.21507538   -1.2609285   0.19367621   0.04998541   -1.2609285    1.4546047    97378 
 4619000   0.21460181   -1.2580343   0.19731315  0.051922931   -1.2580343    1.4553474    97114 
 4620000   0.21323595   -1.2517583   0.19790892  0.050650424   -1.2517583    1.4496672    96874 
 4621000   0.21357697   -1.2550561   0.20082193   0.05109631   -1.2550561     1.455878    96615 
 4622000   0.21328243   -1.2528683   0.20442595  0.050564773   -1.2528683    1.4572943    96388 
 4623000   0.21224556   -1.2472275   0.20691967   0.04851249   -1.2472275    1.4541472    96127 
 4624000   0.21163249   -1.2437204   0.20979501  0.050823041   -1.2437204    1.4535154    95891 
 4625000   0.21120644   -1.2425358   0.21184517  0.050532755   -1.2425358     1.454381    95641 
 4626000   0.20993117   -1.2346757   0.21434776  0.049647439   -1.2346757    1.4490234    95415 
 4627000   0.20955402   -1.2323322   0.21750691  0.050147423   -1.2323322    1.4498391    95190 
 4628000   0.20861784   -1.2286025    0.2182097  0.049994386   -1.2286025    1.4468122    94963 
 4629000   0.20795784   -1.2263714   0.21956352   0.05022861   -1.2263714    1.4459349    94720 
 4630000    0.2086751   -1.2298586   0.22436428   0.04922411   -1.2298586    1.4542229    94505 
 4631000   0.20733691   -1.2241884   0.22404957  0.049773203   -1.2241884     1.448238    94287 
 4632000   0.20709281   -1.2212492   0.22866684  0.049095314   -1.2212492    1.4499161    94067 
 4633000    0.2067018   -1.2200609   0.23041734  0.048729593   -1.2200609    1.4504783    93853 
 4634000   0.20635262   -1.2160054   0.23534742  0.048852123   -1.2160054    1.4513528    93638 
 4635000   0.20496614    -1.212594   0.23271153  0.049107629    -1.212594    1.4453056    93398 
 4636000   0.20457081   -1.2107056   0.23549759   0.04726312   -1.2107056    1.4462032    93160 
 4637000   0.20447821   -1.2105245   0.23863296  0.047809045   -1.2105245    1.4491575    92928 
 4638000   0.20423158   -1.2078303   0.24328015  0.049847436   -1.2078303    1.4511105    92691 
 4639000   0.20294372   -1.1974843   0.24754679  0.047054764   -1.1974843    1.4450311    92494 
 4640000     0.202697   -1.2013781   0.24546271  0.048631909   -1.2013781    1.4468408    92266 
 4641000   0.20211058   -1.1950793   0.25116518  0.048926301   -1.1950793    1.4462445    92037 
 4642000   0.20165627   -1.1957654   0.25062271  0.048346986   -1.1957654    1.4463881    91821 
 4643000   0.20061516   -1.1899592   0.25240164  0.048772553   -1.1899592    1.4423609    91602 
 4644000   0.20019071   -1.1864165   0.25651563  0.048376972   -1.1864165    1.4429322    91372 
 4645000   0.20028558   -1.1861075   0.26127858  0.048656277   -1.1861075    1.4473861    91134 
 4646000   0.19939428   -1.1822277    0.2624902  0.048087937   -1.1822277    1.4447179    90896 
 4647000   0.19854045   -1.1775537    0.2647224  0.050129383   -1.1775537    1.4422761    90660 
 4648000   0.19801784   -1.1774497   0.26492786  0.049731762   -1.1774497    1.4423776    90415 
 4649000   0.19714092    -1.171599    0.2677979   0.04799469    -1.171599    1.4393969    90201 
 4650000   0.19652809   -1.1704148   0.26825571  0.046926155   -1.1704148    1.4386705    89966 
 4651000   0.19557776   -1.1646454   0.27049804  0.047006639   -1.1646454    1.4351434    89751 
 4652000   0.19536422    -1.164307   0.27306507  0.047143421    -1.164307     1.437372    89514 
 4653000   0.19544375   -1.1651168   0.27615725  0.046660529   -1.1651168     1.441274    89308 
 4654000   0.19506569   -1.1633024   0.27907597  0.046780047   -1.1633024    1.4423784    89067 
 4655000   0.19476359   -1.1606865   0.28336541  0.047785604   -1.1606865    1.4440519    88826 
 4656000   0.19416052   -1.1541023   0.28926431  0.047622206   -1.1541023    1.4433666    88593 
 4657000   0.19334562   -1.1489293   0.29234893  0.047463221   -1.1489293    1.4412783    88349 
 4658000   0.19234563   -1.1440027   0.29338416  0.047076625   -1.1440027    1.4373869    88130 
 4659000   0.19262795   -1.1467569   0.29655568  0.046849773   -1.1467569    1.4433126    87897 
 4660000   0.19196155   -1.1377865    0.3040596  0.047628914   -1.1377865    1.4418462    87682 
 4661000   0.19113508   -1.1333522   0.30588099  0.048185915   -1.1333522    1.4392332    87463 
 4662000   0.19153113   -1.1386011   0.30733397  0.047273208   -1.1386011    1.4459351    87238 
 4663000   0.19086053   -1.1329271   0.31193695  0.047206108   -1.1329271     1.444864    86997 
 4664000   0.19022455   -1.1312004   0.31243342  0.046867466   -1.1312004    1.4436339    86781 
 4665000   0.18891685   -1.1209992   0.31658667  0.047764381   -1.1209992    1.4375859    86547 
 4666000   0.18894592   -1.1250517   0.31672025  0.046684363   -1.1250517     1.441772    86309 
 4667000   0.18847776   -1.1215192   0.32040602  0.047886307   -1.1215192    1.4419252    86086 
 4668000    0.1877569   -1.1159674   0.32424058  0.046205264   -1.1159674     1.440208    85859 
 4669000    0.1870421   -1.1125133   0.32586377   0.04583664   -1.1125133    1.4383771    85641 
 4670000   0.18638405   -1.1077772   0.32921415  0.047346641   -1.1077772    1.4369913    85422 
 4671000   0.18659622   -1.1056468   0.33662727  0.048196516   -1.1056468     1.442274    85206 
 4672000   0.18621035   -1.1036089   0.33947636   0.04555741   -1.1036089    1.4430853    84982 
 4673000   0.18529442   -1.0989008   0.34062653  0.046883736   -1.0989008    1.4395274    84773 
 4674000    0.1844885   -1.0933886   0.34357297  0.047146968   -1.0933886    1.4369616    84555 
 4675000   0.18429618   -1.0907746   0.34858719  0.046711262   -1.0907746    1.4393618    84326 
 4676000   0.18330488   -1.0843003   0.35166168  0.046418442   -1.0843003     1.435962    84071 
 4677000   0.18282803   -1.0802597   0.35570736  0.046446279   -1.0802597    1.4359671    83852 
 4678000   0.18251824    -1.081513   0.35589507  0.046252252    -1.081513     1.437408    83626 
 4679000   0.18284723   -1.0812634   0.36293213  0.047285038   -1.0812634    1.4441955    83383 
 4680000   0.18202336   -1.0777464   0.36391855  0.046393598   -1.0777464    1.4416649    83153 
 4681000   0.18136735   -1.0715016   0.36865664  0.046542438   -1.0715016    1.4401582    82940 
 4682000    0.1808499   -1.0684455   0.37123171  0.045919718   -1.0684455    1.4396772    82731 
 4683000   0.17997022   -1.0617714   0.37484491    0.0466295   -1.0617714    1.4366163    82504 
 4684000   0.17970345   -1.0628879   0.37566148  0.047900749   -1.0628879    1.4385493    82271 
 4685000    0.1781854   -1.0544284   0.37603744  0.045733519   -1.0544284    1.4304658    82037 
 4686000   0.17756179   -1.0529677   0.37646446  0.045629158   -1.0529677    1.4294322    81809 
 4687000    0.1771121   -1.0523664   0.37765828  0.045623559   -1.0523664    1.4300247    81568 
 4688000   0.17721927   -1.0529009    0.3816473  0.045203687   -1.0529009    1.4345482    81360 
 4689000   0.17668862   -1.0491005   0.38474739  0.047076065   -1.0491005    1.4338479    81156 
 4690000   0.17552447   -1.0438178    0.3848783  0.044766465   -1.0438178    1.4286961    80912 
 4691000   0.17517013   -1.0423566   0.38773264  0.045472623   -1.0423566    1.4300892    80670 
 4692000   0.17504963   -1.0414046   0.39205438  0.045973396   -1.0414046    1.4334589    80425 
 4693000   0.17451692   -1.0342108   0.39894884  0.045301481   -1.0342108    1.4331596    80197 
 4694000   0.17397011   -1.0288636   0.40350269  0.045173929   -1.0288636    1.4323663    79990 
 4695000   0.17317539   -1.0236318   0.40635651  0.044608108   -1.0236318    1.4299883    79757 
 4696000    0.1732751   -1.0226513   0.41200983  0.046213013   -1.0226513    1.4346611    79543 
 4697000   0.17281014   -1.0218404   0.41357272  0.044852158   -1.0218404    1.4354131    79288 
 4698000   0.17182477   -1.0177598   0.41343962  0.044932571   -1.0177598    1.4311994    79068 
 4699000   0.17113828   -1.0131495   0.41618232  0.044386482   -1.0131495    1.4293318    78855 
 4700000   0.17039304   -1.0094749   0.41814071   0.04469231   -1.0094749    1.4276156    78606 
 4701000   0.16966145   -1.0043329   0.42112462  0.045210705   -1.0043329    1.4254575    78387 
 4702000   0.16967699   -1.0076467   0.42235613  0.044241646   -1.0076467    1.4300028    78145 
 4703000   0.16881846   -1.0026214   0.42452896  0.044737698   -1.0026214    1.4271504    77905 
 4704000    0.1678937  -0.99671279   0.42647445  0.043988495  -0.99671279    1.4231872    77694 
 4705000   0.16750964  -0.99727363   0.42727859  0.043577999  -0.99727363    1.4245522    77442 
 4706000   0.16712644  -0.99641536   0.42937031   0.04493456  -0.99641536    1.4257857    77198 
 4707000   0.16618741  -0.99022648   0.43250576  0.044588779  -0.99022648    1.4227322    76929 
 4708000   0.16580942  -0.98549929   0.43816084  0.044134383  -0.98549929    1.4236601    76704 
 4709000   0.16602395  -0.98723819   0.44234557    0.0438593  -0.98723819    1.4295838    76485 
 4710000   0.16458327  -0.98409963   0.43787549  0.042836377  -0.98409963    1.4219751    76227 
 4711000   0.16436767  -0.98124133   0.44305647  0.043459797  -0.98124133    1.4242978    76003 
 4712000   0.16414277  -0.98004689   0.44673244  0.043078024  -0.98004689    1.4267793    75767 
 4713000   0.16350369  -0.97664482   0.44934103  0.043614601  -0.97664482    1.4259858    75514 
 4714000   0.16226419  -0.96803344   0.45165426  0.043166177  -0.96803344    1.4196877    75274 
 4715000   0.16242267  -0.97071602   0.45490366  0.042609752  -0.97071602    1.4256197    75034 
 4716000   0.16160112  -0.96639908   0.45678945  0.043219265  -0.96639908    1.4231885    74782 
 4717000   0.16100423   -0.9641711   0.45866955  0.042701375   -0.9641711    1.4228406    74524 
 4718000    0.1601586  -0.95830985   0.46121016  0.042956561  -0.95830985      1.41952    74306 
 4719000   0.15988307  -0.95647427   0.46515709  0.044001803  -0.95647427    1.4216314    74068 
 4720000   0.15855836  -0.94815354   0.46641618  0.042784253  -0.94815354    1.4145697    73821 
 4721000   0.15846877  -0.95006762   0.46808288  0.043307845  -0.95006762    1.4181505    73593 
 4722000   0.15766185  -0.94508423   0.47026847  0.043230782  -0.94508423    1.4153527    73363 
 4723000   0.15757867  -0.94749448   0.47183209  0.042750123  -0.94749448    1.4193266    73119 
 4724000   0.15744383  -0.94576577   0.47676256   0.04219744  -0.94576577    1.4225283    72892 
 4725000   0.15671918  -0.94234114   0.47820011  0.042775184  -0.94234114    1.4205413    72658 
 4726000   0.15602669  -0.93765685   0.48115736  0.042866282  -0.93765685    1.4188142    72425 
 4727000   0.15530035   -0.9337424   0.48369235  0.042748288   -0.9337424    1.4174348    72158 
 4728000   0.15478421  -0.93210128   0.48563276  0.042391785  -0.93210128     1.417734    71903 
 4729000   0.15388376  -0.92624818   0.48774161  0.042060647  -0.92624818    1.4139898    71674 
 4730000   0.15309305  -0.92613299   0.48547557  0.042243729  -0.92613299    1.4116086    71426 
 4731000   0.15266663   -0.9238385   0.48874283  0.041554488   -0.9238385    1.4125813    71178 
 4732000   0.15193382  -0.91530875   0.49487055  0.041729068  -0.91530875    1.4101793    70957 
 4733000   0.15143605  -0.91495337   0.49591474  0.042456589  -0.91495337    1.4108681    70690 
 4734000   0.15078977  -0.91218125   0.49745158  0.040296833  -0.91218125    1.4096328    70450 
 4735000   0.15044049  -0.91159428   0.49946019  0.040874921  -0.91159428    1.4110545    70216 
 4736000   0.14985426  -0.90711088    0.5033061  0.040831496  -0.90711088     1.410417    69974 
 4737000   0.14918011  -0.90500441    0.5040009  0.041411273  -0.90500441    1.4090053    69729 
 4738000   0.14847853  -0.90427472   0.50268442  0.040153751  -0.90427472    1.4069591    69502 
 4739000   0.14817069  -0.90386971   0.50507819  0.040206926  -0.90386971    1.4089479    69260 
 4740000    0.1472722  -0.89709237   0.50793712  0.040763709  -0.89709237    1.4050295    69032 
 4741000   0.14612019  -0.89088375   0.50832377  0.041470532  -0.89088375    1.3992075    68777 
 4742000   0.14592521  -0.89046582   0.51180867  0.040443732  -0.89046582    1.4022745    68535 
 4743000    0.1458694   -0.8889393   0.51852861  0.041222671   -0.8889393    1.4074679    68256 
 4744000   0.14480929  -0.88449152   0.51767786  0.040718732  -0.88449152    1.4021694    68016 
 4745000    0.1444382  -0.88152758   0.52258112  0.039695587  -0.88152758    1.4041087    67748 
 4746000   0.14370106  -0.87679691   0.52513297  0.041522537  -0.87679691    1.4019299    67507 
 4747000   0.14287749  -0.87366475   0.52476719  0.039555357  -0.87366475    1.3984319    67288 
 4748000   0.14244237  -0.87512379   0.52412329  0.040453701  -0.87512379    1.3992471    67044 
 4749000   0.14176399   -0.8718321    0.5261517  0.039601214   -0.8718321    1.3979838    66785 
 4750000   0.14135737  -0.86834127   0.53038689  0.039609822  -0.86834127    1.3987282    66558 
 4751000   0.14052018  -0.86600815   0.52978364    0.0396538  -0.86600815    1.3957918    66303 
 4752000   0.14016034  -0.86445385   0.53277915  0.039713971  -0.86445385     1.397233    66065 
 4753000   0.13981215  -0.86096106   0.53794636  0.040542504  -0.86096106    1.3989074    65822 
 4754000    0.1390769  -0.86119701   0.53629857  0.040102456  -0.86119701    1.3974956    65542 
 4755000   0.13809684  -0.85290116   0.54018772  0.038066965  -0.85290116    1.3930889    65286 
 4756000   0.13779238  -0.85434355    0.5411245  0.038547056  -0.85434355     1.395468    65031 
 4757000   0.13675481  -0.84618892   0.54435223  0.039055453  -0.84618892    1.3905412    64770 
 4758000   0.13632201  -0.84646047   0.54494302  0.038231316  -0.84646047    1.3914035    64525 
 4759000   0.13596988  -0.84748557   0.54559176  0.039157549  -0.84748557    1.3930773    64281 
 4760000   0.13475245  -0.83952828   0.54614162  0.038079047  -0.83952828    1.3856699    64046 
 4761000   0.13473071  -0.84206242   0.54881315  0.038403769  -0.84206242    1.3908756    63796 
 4762000   0.13395151  -0.83775461   0.55045172  0.038432157  -0.83775461    1.3882063    63549 
 4763000   0.13317167  -0.83433788   0.55147824  0.037605011  -0.83433788    1.3858161    63288 
 4764000    0.1323024   -0.8286395   0.55343744  0.037757514   -0.8286395    1.3820769    63045 
 4765000   0.13171913  -0.82415017   0.55687189  0.037672702  -0.82415017    1.3810221    62815 
 4766000   0.13111184  -0.82295276   0.55796752  0.037843723  -0.82295276    1.3809203    62530 
 4767000   0.13058194  -0.82246519   0.55837259  0.037418473  -0.82246519    1.3808378    62281 
 4768000   0.13069856  -0.82485053   0.56247748  0.037006361  -0.82485053     1.387328    62045 
 4769000   0.13005891  -0.81977312   0.56554328  0.037550992  -0.81977312    1.3853164    61831 
 4770000   0.12921495  -0.81324241   0.56793185  0.036958437  -0.81324241    1.3811743    61614 
 4771000   0.12899564  -0.81202204   0.57253836  0.037428206  -0.81202204    1.3845604    61359 
 4772000   0.12836865  -0.80902312   0.57444423  0.038356333  -0.80902312    1.3834673    61109 
 4773000   0.12792343  -0.80922862   0.57519491  0.037599441  -0.80922862    1.3844235    60855 
 4774000   0.12744471  -0.80542605   0.57920904   0.03722762  -0.80542605    1.3846351    60618 
 4775000   0.12690101  -0.80474724    0.5793695  0.036648208  -0.80474724    1.3841167    60382 
 4776000   0.12640895  -0.80195004   0.58243989   0.03666722  -0.80195004    1.3843899    60136 
 4777000   0.12557556  -0.79762067   0.58283017  0.036042318  -0.79762067    1.3804508    59910 
 4778000    0.1249191  -0.79272145   0.58566663  0.036756596  -0.79272145    1.3783881    59686 
 4779000   0.12465738  -0.79385988   0.58703101  0.035952471  -0.79385988    1.3808909    59453 
 4780000   0.12399066  -0.78926576    0.5894806  0.037132916  -0.78926576    1.3787464    59227 
 4781000   0.12332128  -0.78369611   0.59299955  0.035816414  -0.78369611    1.3766957    58995 
 4782000   0.12298006  -0.78343183   0.59539111  0.036047867  -0.78343183    1.3788229    58741 
 4783000   0.12215759  -0.77692443    0.5986016   0.03629757  -0.77692443     1.375526    58488 
 4784000   0.12157137   -0.7770058   0.59732373  0.035504374   -0.7770058    1.3743295    58258 
 4785000   0.12099106  -0.77392124     0.599577   0.03528833  -0.77392124    1.3734982    58015 
 4786000   0.12048776  -0.77354577   0.60018243  0.036316641  -0.77354577    1.3737282    57764 
 4787000   0.11995987  -0.77035454   0.60239303  0.035418971  -0.77035454    1.3727476    57552 
 4788000   0.11937925   -0.7665123   0.60531178  0.034710811   -0.7665123    1.3718241    57312 
 4789000   0.11876818  -0.76270744   0.60826634  0.034806813  -0.76270744    1.3709738    57054 
 4790000     0.118076  -0.75716801    0.6109713  0.034785274  -0.75716801    1.3681393    56839 
 4791000   0.11769793  -0.75951253   0.60961773  0.034875306  -0.75951253    1.3691303    56616 
 4792000   0.11703142    -0.757308   0.60988892   0.03486293    -0.757308    1.3671969    56375 
 4793000   0.11599453  -0.74789445   0.61322519  0.033979976  -0.74789445    1.3611196    56125 
 4794000   0.11559251  -0.74877373   0.61355101  0.033560271  -0.74877373    1.3623247    55881 
 4795000   0.11511853  -0.74786974    0.6144272  0.034532192  -0.74786974    1.3622969    55653 
 4796000   0.11455235  -0.74120871   0.62006293  0.033593105  -0.74120871    1.3612716    55421 
 4797000   0.11387308  -0.73796585   0.62035607  0.034197415  -0.73796585    1.3583219    55212 
 4798000   0.11313731  -0.73248056     0.623302   0.03413961  -0.73248056    1.3557826    54958 
 4799000   0.11275031  -0.73461661   0.62260349  0.032966872  -0.73461661    1.3572201    54712 
 4800000   0.11236902  -0.73183584   0.62697857  0.033304603  -0.73183584    1.3588144    54463 
 4801000   0.11236598  -0.73467097   0.62989438  0.032787979  -0.73467097    1.3645654    54232 
 4802000    0.1110131  -0.72128503   0.63229213  0.032950681  -0.72128503    1.3535772    54014 
 4803000   0.11060012   -0.7193113   0.63507282  0.033084228   -0.7193113    1.3543841    53781 
 4804000   0.10998776  -0.71513524   0.63753484  0.033365433  -0.71513524    1.3526701    53551 
 4805000   0.10983701   -0.7154773   0.64159823  0.032765224   -0.7154773    1.3570755    53304 
 4806000   0.10941911  -0.71045469   0.64713717  0.032876895  -0.71045469    1.3575919    53081 
 4807000   0.10893374  -0.70833365   0.64952903  0.033416518  -0.70833365    1.3578627    52835 
 4808000   0.10821951  -0.70619686   0.64917614  0.032202403  -0.70619686     1.355373    52585 
 4809000   0.10781207  -0.70441842   0.65235356  0.032077462  -0.70441842     1.356772    52333 
 4810000   0.10717947  -0.69869595   0.65627722  0.032512428  -0.69869595    1.3549732    52095 
 4811000   0.10651046  -0.69638633   0.65727491  0.031618295  -0.69638633    1.3536612    51820 
 4812000     0.106162  -0.69384713   0.66187365  0.032402234  -0.69384713    1.3557208    51572 
 4813000   0.10540022  -0.69001015    0.6625127  0.031111751  -0.69001015    1.3525228    51323 
 4814000   0.10450099  -0.68295023   0.66541603  0.031928067  -0.68295023    1.3483663    51042 
 4815000   0.10420819   -0.6863666   0.66515903  0.031894622   -0.6863666    1.3515256    50780 
 4816000   0.10370793  -0.68345292   0.66767769  0.031267047  -0.68345292    1.3511306    50551 
 4817000   0.10262774  -0.67602679   0.66735574  0.032163231  -0.67602679    1.3433825    50313 
 4818000   0.10182105  -0.67130671   0.66843961  0.032066078  -0.67130671    1.3397463    50053 
 4819000    0.1018047  -0.67365846   0.67267798  0.031436159  -0.67365846    1.3463364    49800 
 4820000   0.10085405  -0.66891261   0.67166238  0.031005584  -0.66891261     1.340575    49547 
 4821000   0.10025834  -0.66585423   0.67394121   0.03072295  -0.66585423    1.3397954    49283 
 4822000  0.099644535  -0.66386007   0.67419466  0.030526717  -0.66386007    1.3380547    49045 
 4823000  0.099182627  -0.66510941   0.67326469  0.030471072  -0.66510941    1.3383741    48806 
 4824000  0.098197456  -0.65668961   0.67551478  0.030172703  -0.65668961    1.3322044    48545 
 4825000  0.098063329   -0.6604485   0.67701687   0.03028618   -0.6604485    1.3374654    48288 
 4826000  0.097325807  -0.65329583   0.68090764  0.029410094  -0.65329583    1.3342035    48042 
 4827000  0.096856891  -0.65360295      0.68109   0.02976409  -0.65360295    1.3346929    47793 
 4828000  0.096266449  -0.64929468   0.68362071  0.029917167  -0.64929468    1.3329154    47565 
 4829000  0.095695741  -0.64603787   0.68625803  0.029648616  -0.64603787    1.3322959    47305 
 4830000  0.095205508  -0.64521645   0.68740975  0.029365074  -0.64521645    1.3326262    47051 
 4831000  0.094121086  -0.63532232   0.68913403  0.028733375  -0.63532232    1.3244563    46802 
 4832000  0.093886311  -0.63744216   0.69106235  0.029235815  -0.63744216    1.3285045    46543 
 4833000  0.093470459  -0.63749268   0.69201166  0.029093955  -0.63749268    1.3295043    46302 
 4834000  0.092411803  -0.63087628   0.69030396  0.028297693  -0.63087628    1.3211802    46066 
 4835000  0.092165544  -0.63056376   0.69359212  0.028987315  -0.63056376    1.3241559    45840 
 4836000  0.092233275  -0.63084797   0.70125538  0.029202878  -0.63084797    1.3321033    45600 
 4837000  0.091214821  -0.62635801   0.69809398  0.028739071  -0.62635801     1.324452    45357 
 4838000  0.090475565  -0.62337445   0.69771243  0.028832396  -0.62337445    1.3210869    45104 
 4839000   0.08970186  -0.61796247   0.69980309  0.027232156  -0.61796247    1.3177656    44831 
 4840000  0.088720186   -0.6147327   0.69633215  0.027083041   -0.6147327    1.3110648    44567 
 4841000   0.08843859   -0.6118924   0.70167227  0.027818344   -0.6118924    1.3135647    44341 
 4842000  0.087496011  -0.60819086   0.69856465  0.028037987  -0.60819086    1.3067555    44097 
 4843000  0.087419912  -0.60917138   0.70419129  0.027840401  -0.60917138    1.3133627    43837 
 4844000  0.086848797  -0.60504619   0.70655805  0.027548088  -0.60504619    1.3116042    43609 
 4845000   0.08624922  -0.60062928    0.7095814  0.027331052  -0.60062928    1.3102107    43354 
 4846000  0.085795884  -0.59744352   0.71325728  0.027066431  -0.59744352    1.3107008    43110 
 4847000  0.085396155   -0.5950625   0.71683518  0.026562153   -0.5950625    1.3118977    42870 
 4848000  0.084781221  -0.59571398   0.71403866  0.027451711  -0.59571398    1.3097526    42631 
 4849000  0.084054818  -0.59272616   0.71368019  0.026170814  -0.59272616    1.3064064    42374 
 4850000  0.083462389   -0.5865791   0.71776087   0.02674468   -0.5865791      1.30434    42142 
 4851000  0.082894741  -0.57890122   0.72432972  0.026243029  -0.57890122    1.3032309    41891 
 4852000  0.082030378  -0.57412959   0.72325488   0.02616146  -0.57412959    1.2973845    41641 
 4853000  0.081382355  -0.57274237   0.72269933  0.025821111  -0.57274237    1.2954417    41374 
 4854000  0.081091371   -0.5708356   0.72864287   0.02588164   -0.5708356    1.2994785    41098 
 4855000  0.080448916  -0.56637817   0.73158487  0.025634937  -0.56637817     1.297963    40820 
 4856000  0.080233211  -0.57014603   0.73231368  0.025642075  -0.57014603    1.3024597    40570 
 4857000  0.079605431  -0.56478887   0.73649289  0.025244561  -0.56478887    1.3012818    40289 
 4858000  0.078824703  -0.56188937   0.73486983  0.024981529  -0.56188937    1.2967592    40033 
 4859000  0.078227262  -0.55707233   0.73827106  0.024815336  -0.55707233    1.2953434    39773 
 4860000  0.077847037  -0.55822887   0.73910356  0.025098028  -0.55822887    1.2973324    39519 
 4861000  0.077470649  -0.55529149   0.74498107  0.024892544  -0.55529149    1.3002726    39239 
 4862000  0.076535479  -0.54957079   0.74430453  0.024646163  -0.54957079    1.2938753    38957 
 4863000  0.075966612  -0.54582869   0.74692475  0.024192184  -0.54582869    1.2927534    38701 
 4864000  0.075926597  -0.55175415   0.74932819  0.024208243  -0.55175415    1.3010823    38433 
 4865000  0.074887213  -0.54269826   0.75016033  0.024130602  -0.54269826    1.2928586    38148 
 4866000  0.074118123  -0.54019666   0.74857339  0.023986065  -0.54019666    1.2887701    37876 
 4867000  0.073453944  -0.53746838   0.74721488  0.023881418  -0.53746838    1.2846833    37656 
 4868000  0.072441633  -0.52774511   0.74698529  0.023842207  -0.52774511    1.2747304    37427 
 4869000  0.072207413  -0.52853047   0.75141462  0.023368962  -0.52853047    1.2799451    37154 
 4870000    0.0718936   -0.5288599   0.75391233   0.02342964   -0.5288599    1.2827722    36911 
 4871000  0.071275142  -0.52546637   0.75571204  0.022594104  -0.52546637    1.2811784    36639 
 4872000  0.070572196  -0.52358736   0.75370577  0.023201268  -0.52358736    1.2772931    36388 
 4873000  0.069639391  -0.51716368   0.75133413  0.022721688  -0.51716368    1.2684978    36156 
 4874000  0.069114291  -0.51463789   0.75341373  0.022918972  -0.51463789    1.2680516    35896 
 4875000  0.068745729  -0.51303236   0.75660447  0.022722098  -0.51303236    1.2696368    35660 
 4876000  0.068057473  -0.50929842   0.75710938  0.022380705  -0.50929842    1.2664078    35393 
 4877000  0.067521476   -0.5042881   0.76093992  0.022530783   -0.5042881     1.265228    35147 
 4878000  0.067334531  -0.50718978   0.76306455  0.022412793  -0.50718978    1.2702543    34911 
 4879000  0.066555949  -0.50339034   0.76090394  0.021473484  -0.50339034    1.2642943    34670 
 4880000  0.066006839  -0.49951016   0.76448856  0.021979683  -0.49951016    1.2639987    34392 
 4881000  0.065435756  -0.49549654   0.76618729  0.021632975  -0.49549654    1.2616838    34157 
 4882000  0.064937501  -0.49121916     0.770201  0.021063555  -0.49121916    1.2614202    33904 
 4883000  0.064332602  -0.48907722   0.77118658  0.021264653  -0.48907722    1.2602638    33619 
 4884000  0.063806955  -0.48541357   0.77357805  0.021478835  -0.48541357    1.2589916    33378 
 4885000  0.063080466  -0.48051615   0.77429127  0.021225944  -0.48051615    1.2548074    33108 
 4886000  0.062671725  -0.48203872   0.77454395  0.020984651  -0.48203872    1.2565827    32847 
 4887000  0.062369886  -0.48142096   0.77897128  0.020964729  -0.48142096    1.2603922    32590 
 4888000  0.061919879   -0.4780235    0.7840796  0.020714811   -0.4780235    1.2621031    32311 
 4889000  0.061332118  -0.47308197   0.78867793  0.020127676  -0.47308197    1.2617599    32013 
 4890000  0.060649012  -0.46891372   0.78865295  0.020454814  -0.46891372    1.2575667    31762 
 4891000  0.060003398  -0.46944425   0.78504412   0.01992418  -0.46944425    1.2544884    31501 
 4892000  0.059488262  -0.46291114   0.79155957  0.019247516  -0.46291114    1.2544707    31231 
 4893000  0.058884147  -0.45821615   0.79345445  0.019931375  -0.45821615    1.2516706    30983 
 4894000  0.058429339  -0.45860085   0.79419828  0.019879594  -0.45860085    1.2527991    30716 
 4895000  0.058053942  -0.45816131   0.79663834  0.019720721  -0.45816131    1.2547997    30470 
 4896000  0.057428699  -0.45443517   0.79724326  0.019538439  -0.45443517    1.2516784    30217 
 4897000  0.057033374  -0.45252995   0.80023361  0.019486017  -0.45252995    1.2527636    29983 
 4898000  0.056373279  -0.44645606   0.80251379  0.019126493  -0.44645606    1.2489698    29726 
 4899000  0.056008347  -0.44646529   0.80515621  0.019119198  -0.44646529    1.2516215    29471 
 4900000  0.055338117  -0.43749265   0.81007284  0.018832311  -0.43749265    1.2475655    29213 
 4901000  0.054744947  -0.43755774   0.80741722  0.018970325  -0.43755774     1.244975    28960 
 4902000  0.054121067   -0.4334495   0.80770913  0.018592171   -0.4334495    1.2411586    28718 
 4903000  0.053591826  -0.42842245   0.81195853  0.018672628  -0.42842245     1.240381    28455 
 4904000  0.053088466  -0.42684157   0.81242871  0.018791405  -0.42684157    1.2392703    28213 
 4905000  0.052593245  -0.42701635    0.8119358  0.018135032  -0.42701635    1.2389521    27957 
 4906000  0.051947725  -0.42237572   0.81147643  0.017570705  -0.42237572    1.2338522    27728 
 4907000  0.051441788  -0.42153228   0.81150918  0.017829188  -0.42153228    1.2330415    27476 
 4908000  0.051041386  -0.42196581    0.8130752  0.017529038  -0.42196581     1.235041    27218 
 4909000  0.050412127  -0.41643355    0.8156488  0.017461828  -0.41643355    1.2320823    26947 
 4910000  0.049805207  -0.41687576   0.81407749   0.01707221  -0.41687576    1.2309532    26647 
 4911000  0.049240117  -0.41576814    0.8138625  0.016941937  -0.41576814    1.2296306    26373 
 4912000  0.048806783  -0.41086939   0.81960412    0.0167209  -0.41086939    1.2304735    26123 
 4913000   0.04813932  -0.40731888   0.81776998  0.016975395  -0.40731888    1.2250889    25879 
 4914000  0.047395566  -0.39791125   0.82058607   0.01629126  -0.39791125    1.2184973    25617 
 4915000  0.047142217  -0.39936723   0.82196131  0.016230774  -0.39936723    1.2213285    25421 
 4916000  0.046410383  -0.39311897   0.82225397  0.016049405  -0.39311897    1.2153729    25149 
 4917000  0.046004731  -0.39038258   0.82602403  0.016102111  -0.39038258    1.2164066    24908 
 4918000  0.045503964  -0.39083984   0.82432746  0.015935324  -0.39083984    1.2151673    24662 
 4919000  0.044707191  -0.38574241    0.8203244   0.01566395  -0.38574241    1.2060668    24413 
 4920000  0.044332456  -0.38635097   0.82213048  0.015634058  -0.38635097    1.2084815    24160 
 4921000  0.043628602  -0.37619198   0.82619161  0.015405335  -0.37619198    1.2023836    23897 
 4922000  0.043381205  -0.38065178   0.82709373  0.015139643  -0.38065178    1.2077455    23656 
 4923000  0.042644189  -0.37488797   0.82481456  0.015126052  -0.37488797    1.1997025    23410 
 4924000  0.042332931  -0.37041065   0.83245609  0.014680321  -0.37041065    1.2028667    23178 
 4925000  0.041824141  -0.37193201   0.83001246  0.014815712  -0.37193201    1.2019445    22917 
 4926000  0.041282059   -0.3739755   0.82547529   0.01460232   -0.3739755    1.1994508    22667 
 4927000  0.040871927  -0.37084384   0.82800899  0.014318961  -0.37084384    1.1988528    22453 
 4928000  0.040088388  -0.36388209    0.8256566  0.014007765  -0.36388209    1.1895387    22195 
 4929000  0.039712002  -0.36299275   0.82842159  0.014103947  -0.36299275    1.1914143    21952 
 4930000  0.039236655  -0.36116119    0.8302662  0.013744495  -0.36116119    1.1914274    21689 
 4931000   0.03891342  -0.36101224   0.83315344  0.013964842  -0.36101224    1.1941657    21461 
 4932000    0.0382774  -0.35280622   0.83551815  0.013529659  -0.35280622    1.1883244    21214 
 4933000  0.037819459  -0.35067479   0.83720759  0.013950312  -0.35067479    1.1878824    20968 
 4934000  0.037189823  -0.34726644   0.83373775  0.013356491  -0.34726644    1.1810042    20739 
 4935000  0.036806911  -0.34951082   0.83307594  0.013299105  -0.34951082    1.1825868    20498 
 4936000  0.036276225  -0.34442602   0.83416206  0.012912216  -0.34442602    1.1785881    20271 
 4937000  0.035883791  -0.34551019   0.83470885  0.012650196  -0.34551019     1.180219    20024 
 4938000  0.035173918   -0.3403866    0.8316443  0.012604938   -0.3403866    1.1720309    19765 
 4939000  0.034784605  -0.34131709   0.83144797   0.01261891  -0.34131709    1.1727651    19534 
 4940000   0.03457063   -0.3414263    0.8394799  0.012415757   -0.3414263    1.1809062    19280 
 4941000   0.03402335  -0.33671406   0.83928249  0.012650343  -0.33671406    1.1759966    19054 
 4942000  0.033775247  -0.33471938   0.84496029  0.012271546  -0.33471938    1.1796797    18856 
 4943000  0.033205214  -0.33016564   0.84417772  0.011956603  -0.33016564    1.1743434    18622 
 4944000  0.032725866  -0.32846279   0.84346521  0.011791873  -0.32846279     1.171928    18391 
 4945000  0.032532707  -0.32543812   0.85270526  0.011684118  -0.32543812    1.1781434    18186 
 4946000  0.031835375  -0.32057875   0.84629901  0.011466167  -0.32057875    1.1668778    17968 
 4947000  0.031359797  -0.31749875   0.84724572  0.011145752  -0.31749875    1.1647445    17732 
 4948000  0.031014918  -0.31952034   0.84662005  0.011073819  -0.31952034    1.1661404    17516 
 4949000  0.031005377   -0.3194835   0.86037617  0.011461136   -0.3194835    1.1798597    17307 
 4950000  0.030441832   -0.3156648   0.85663588  0.011213618   -0.3156648    1.1723007    17102 
 4951000   0.03003643  -0.31796334   0.85518887  0.011116031  -0.31796334    1.1731522    16862 
 4952000  0.029718462  -0.31448277   0.86180679  0.011163061  -0.31448277    1.1762896    16639 
 4953000  0.029024167  -0.30805787   0.85628556  0.010600531  -0.30805787    1.1643434    16417 
 4954000  0.028669338   -0.3072699   0.85766958  0.010415546   -0.3072699    1.1649395    16208 
 4955000   0.02839328  -0.30552982   0.86370237  0.010340916  -0.30552982    1.1692322    15993 
 4956000  0.028135778  -0.30467259   0.87026508  0.010415203  -0.30467259    1.1749377    15771 
 4957000  0.027652444  -0.30066655   0.87215824  0.010159929  -0.30066655    1.1728248    15528 
 4958000  0.027166206  -0.29871321   0.86882736  0.010228242  -0.29871321    1.1675406    15324 
 4959000  0.026905126   -0.2969612      0.87527  0.010111768   -0.2969612    1.1722312    15116 
 4960000  0.026364259  -0.29582032   0.86957584 0.0097137325  -0.29582032    1.1653962    14899 
 4961000  0.026150272  -0.29578433   0.87627962 0.0097861394  -0.29578433    1.1720639    14694 
 4962000  0.025745309  -0.29127367   0.88001697 0.0094306695  -0.29127367    1.1712906    14476 
 4963000  0.025257616  -0.28551624   0.87927709 0.0095854151  -0.28551624    1.1647933    14281 
 4964000  0.024994597  -0.28917799   0.88068851 0.0094004022  -0.28917799    1.1698665    14071 
 4965000    0.0245799  -0.28338168   0.88341064 0.0092265478  -0.28338168    1.1667923    13874 
 4966000    0.0241136  -0.27832154   0.88205959 0.0091090313  -0.27832154    1.1603811    13686 
 4967000  0.023809413  -0.27458206   0.88686088 0.0088248838  -0.27458206    1.1614429    13501 
 4968000  0.023426355  -0.27523777   0.88452795 0.0086684841  -0.27523777    1.1597657    13303 
 4969000  0.023080822   -0.2741341   0.88508186 0.0086803403   -0.2741341     1.159216    13113 
 4970000  0.022668643  -0.26527539   0.88908491 0.0085813632  -0.26527539    1.1543603    12933 
 4971000  0.022576424  -0.27475877   0.88857797 0.0082999367  -0.27475877    1.1633367    12781 
 4972000  0.022233012  -0.26263083    0.8973501 0.0084391648  -0.26263083    1.1599809    12623 
 4973000  0.021943401  -0.26636189   0.89190566 0.0083780239  -0.26636189    1.1582676    12477 
 4974000  0.021646071  -0.26153199   0.89682391 0.0081922408  -0.26153199    1.1583559    12307 
 4975000  0.021353524  -0.26050771    0.8972446 0.0080402987  -0.26050771    1.1577523    12147 
 4976000  0.020926976  -0.26382729    0.8906623 0.0078029325  -0.26382729    1.1544896    11938 
 4977000  0.020638797   -0.2578673   0.89374714 0.0078949546   -0.2578673    1.1516144    11803 
 4978000   0.02026574  -0.25504729   0.89603623 0.0077247262  -0.25504729    1.1510835    11595 
 4979000  0.019944646  -0.25422412   0.89749395 0.0075846294  -0.25422412    1.1517181    11405 
 4980000  0.019817422  -0.25106037   0.91031672 0.0074108772  -0.25106037    1.1613771    11238 
 4981000  0.019661101  -0.25148623   0.91684408 0.0078528808  -0.25148623    1.1683303    11083 
 4982000  0.019293521  -0.25087401   0.91187489 0.0074239736  -0.25087401    1.1627489    10928 
 4983000  0.019153306  -0.24515167   0.92217907 0.0073482398  -0.24515167    1.1673307    10806 
 4984000  0.018867712  -0.24299634   0.92497873 0.0072169682  -0.24299634    1.1679751    10639 
 4985000  0.018806925  -0.24776115   0.93242492 0.0074003781  -0.24776115    1.1801861    10495 
 4986000  0.018360137  -0.24151535   0.92440909 0.0071028872  -0.24151535    1.1659244    10371 
 4987000  0.018317502   -0.2431708   0.93723267 0.0071250371   -0.2431708    1.1804035    10220 
 4988000  0.017950888  -0.24065739   0.93067673 0.0070371543  -0.24065739    1.1713341    10093 
 4989000  0.017569894  -0.23893045   0.92636224  0.006829722  -0.23893045    1.1652927     9930 
 4990000  0.017294384  -0.23632174   0.92805243 0.0068125916  -0.23632174    1.1643742     9782 
 4991000  0.017107979  -0.23862578   0.93186499 0.0066153612  -0.23862578    1.1704908     9626 
 4992000  0.016983163   -0.2383698   0.93356454 0.0064400998   -0.2383698    1.1719343     9544 
 4993000  0.016682371  -0.23659662   0.93209209 0.0064095792  -0.23659662    1.1686887     9401 
 4994000   0.01637198  -0.23377067   0.93189661 0.0065869741  -0.23377067    1.1656673     9250 
 4995000   0.01604476  -0.22951104   0.92812683   0.00631799  -0.22951104    1.1576379     9128 
 4996000  0.015868847  -0.23330462   0.93180839 0.0062374551  -0.23330462     1.165113     8970 
 4997000  0.015562237  -0.22427067   0.93447821 0.0060706255  -0.22427067    1.1587489     8845 
 4998000  0.015396401  -0.22727647   0.93542457 0.0060607004  -0.22727647     1.162701     8721 
 4999000  0.015314157  -0.22860298   0.93926997 0.0059713027  -0.22860298    1.1678729     8636 
 5000000  0.015091985  -0.22399807   0.94493411 0.0058512683  -0.22399807    1.1689322     8503 
 5001000  0.014915162  -0.22525993   0.94497791 0.0059303993  -0.22525993    1.1702378     8394 
 5002000  0.014664304  -0.22429968   0.94364856 0.0057285881  -0.22429968    1.1679482     8269 
 5003000  0.014375048  -0.22188054   0.94003193 0.0055589335  -0.22188054    1.1619125     8148 
 5004000  0.014393289  -0.22379029   0.95639845 0.0056564727  -0.22379029    1.1801887     8032 
 5005000  0.014059622  -0.21977272   0.95098543 0.0053893958  -0.21977272    1.1707582     7909 
 5006000  0.013993561  -0.21929378   0.95636886 0.0055860904  -0.21929378    1.1756626     7839 
 5007000  0.013776573  -0.22039943   0.95762095 0.0054457994  -0.22039943    1.1780204     7702 
 5008000  0.013499079  -0.21481761   0.95296885 0.0054073379  -0.21481761    1.1677865     7613 
 5009000  0.013423481  -0.21477188   0.96208788  0.005318265  -0.21477188    1.1768598     7512 
 5010000  0.013345343  -0.21122891   0.96820069 0.0054444768  -0.21122891    1.1794296     7452 
 5011000  0.013143109  -0.21245424   0.96730864 0.0053350093  -0.21245424    1.1797629     7337 
 5012000   0.01285485  -0.20420475    0.9630468 0.0050390429  -0.20420475    1.1672516     7253 
 5013000  0.012849734  -0.20688436   0.97225819 0.0051482389  -0.20688436    1.1791425     7177 
 5014000  0.012864429  -0.20793572   0.98485381 0.0051237051  -0.20793572    1.1927895     7103 
 5015000  0.012707443  -0.20952889   0.98314529 0.0050062112  -0.20952889    1.1926742     7017 
 5016000  0.012689209  -0.20655714   0.99935714 0.0050153612  -0.20655714    1.2059143     6930 
 5017000  0.012493319  -0.20159318    1.0045011 0.0048050208  -0.20159318    1.2060942     6822 
 5018000  0.012287633  -0.19915905   0.99990931 0.0049946777  -0.19915905    1.1990684     6749 
 5019000  0.012127801  -0.20548803    0.9936185 0.0047835819  -0.20548803    1.1991065     6661 
 5020000  0.012030172  -0.20371565     1.001846 0.0048346903  -0.20371565    1.2055617     6572 
 5021000  0.011773807   -0.2022336   0.99586773 0.0046683456   -0.2022336    1.1981013     6472 
 5022000  0.011730472  -0.20204554    1.0046979 0.0046348144  -0.20204554    1.2067434     6402 
 5023000  0.011452199  -0.19165084    1.0006198 0.0044813352  -0.19165084    1.1922706     6326 
 5024000  0.011458524  -0.20017439    1.0091957 0.0045331113  -0.20017439      1.20937     6240 
 5025000  0.011440351  -0.19946941    1.0185229 0.0045996639  -0.19946941    1.2179923     6186 
 5026000  0.011365351    -0.200224    1.0214353 0.0045517451    -0.200224    1.2216593     6127 
 5027000  0.011210835  -0.19696961    1.0234178 0.0045517928  -0.19696961    1.2203874     6050 
 5028000   0.01095431  -0.19207889    1.0151499 0.0042101184  -0.19207889    1.2072288     5976 
 5029000   0.01075627  -0.18645558    1.0083449 0.0042796087  -0.18645558    1.1948004     5929 
 5030000  0.010770872  -0.19162296    1.0253248 0.0043559712  -0.19162296    1.2169477     5829 
 5031000  0.010569545  -0.18401829    1.0238589 0.0042228703  -0.18401829    1.2078772     5763 
 5032000   0.01061687   -0.1920468    1.0316431  0.004190374   -0.1920468    1.2236899     5714 
 5033000  0.010498631  -0.18566623    1.0391865  0.004136262  -0.18566623    1.2248527     5645 
 5034000   0.01033044  -0.18252131    1.0404743 0.0040776224  -0.18252131    1.2229956     5563 
 5035000   0.01029609  -0.18016229    1.0420622 0.0043030922  -0.18016229    1.2222245     5548 
 5036000  0.010228302  -0.17715724    1.0480623 0.0041775639  -0.17715724    1.2252196     5498 
 5037000  0.010230156  -0.18249168    1.0519308 0.0041286637  -0.18249168    1.2344225     5458 
 5038000  0.010170516  -0.18162298    1.0578663  0.004067348  -0.18162298    1.2394893     5404 
 5039000  0.010052035  -0.18322286    1.0555813 0.0040148034  -0.18322286    1.2388042     5344 
 5040000 0.0099458928  -0.17849025    1.0595112 0.0040515607  -0.17849025    1.2380014     5291 
 5041000 0.0098623873  -0.17499307    1.0600839 0.0040463061  -0.17499307    1.2350769     5259 
 5042000  0.009780696  -0.16678014    1.0741115 0.0040684219  -0.16678014    1.2408917     5191 
 5043000 0.0097020342   -0.1666115    1.0733774 0.0039842516   -0.1666115    1.2399889     5153 
 5044000 0.0096916851  -0.16167633    1.0823008 0.0039459744  -0.16167633    1.2439772     5131 
 5045000 0.0096911012  -0.16487085    1.1007374 0.0038800408  -0.16487085    1.2656082     5043 
 5046000 0.0096303105  -0.16075253    1.1036865   0.00392567  -0.16075253     1.264439     5016 
 5047000 0.0095624047  -0.16048713     1.105383 0.0038204002  -0.16048713    1.2658702     4975 
 5048000 0.0095006442  -0.15623489    1.1098576 0.0039240566  -0.15623489    1.2660925     4942 
 5049000 0.0094806575  -0.15472766     1.117713  0.003873696  -0.15472766    1.2724406     4907 
 5050000 0.0094560467   -0.1571497    1.1182256  0.003837752   -0.1571497    1.2753753     4883 
 5051000  0.009303011  -0.15597473    1.1133168 0.0038055073  -0.15597473    1.2692915     4827 
 5052000 0.0092618444  -0.15617013    1.1067197 0.0037744224  -0.15617013    1.2628899     4830 
 5053000 0.0090982029  -0.15327157    1.0992337 0.0038359185  -0.15327157    1.2525053     4784 
 5054000 0.0090761396  -0.15367598    1.1113938 0.0038189562  -0.15367598    1.2650698     4725 
 5055000  0.008956845  -0.15241689    1.1096474 0.0036866207  -0.15241689    1.2620643     4674 
 5056000 0.0089317078  -0.15225173    1.1097808 0.0036509419  -0.15225173    1.2620325     4661 
 5057000 0.0090589039  -0.15255634    1.1222521  0.003603865  -0.15255634    1.2748084     4680 
 5058000 0.0089564684  -0.15079855    1.1243075 0.0036967651  -0.15079855     1.275106     4626 
 5059000 0.0088165816  -0.14578061    1.1272982 0.0036468409  -0.14578061    1.2730788     4561 
 5060000 0.0087365204  -0.14387884    1.1338882 0.0036538932  -0.14387884     1.277767     4503 
 5061000  0.008803732  -0.13849433    1.1482455 0.0035968051  -0.13849433    1.2867399     4506 
 5062000 0.0088462549  -0.13317615    1.1543498 0.0036098049  -0.13317615     1.287526     4525 
 5063000 0.0089153211  -0.13774052    1.1702437 0.0036701484  -0.13774052    1.3079843     4489 
 5064000  0.008794509  -0.14057279    1.1677569 0.0036619963  -0.14057279    1.3083297     4427 
 5065000 0.0086561658  -0.13652074    1.1674281 0.0035622623  -0.13652074    1.3039488     4372 
 5066000 0.0086373837  -0.13868561    1.1666137 0.0035403734  -0.13868561    1.3052993     4358 
 5067000 0.0084644814  -0.13604144    1.1564749 0.0035542033  -0.13604144    1.2925163     4313 
 5068000 0.0084170923   -0.1274383    1.1671467 0.0034478055   -0.1274383     1.294585     4282 
 5069000 0.0083445101  -0.13240313    1.1720381 0.0034306909  -0.13240313    1.3044412     4213 
 5070000 0.0083130094  -0.12970769    1.1685766 0.0034699143  -0.12970769    1.2982843     4217 
 5071000 0.0082773077  -0.12455541     1.170918 0.0034383474  -0.12455541    1.2954734     4208 
 5072000 0.0082709977  -0.12952909    1.1798931 0.0034545619  -0.12952909    1.3094222     4160 
 5073000 0.0081684581   -0.1253353    1.1687866 0.0033830244   -0.1253353    1.2941219     4157 
 5074000 0.0083206831  -0.12187303    1.1957318 0.0035568563  -0.12187303    1.3176049     4159 
 5075000 0.0081553325  -0.12115337    1.1869373 0.0033453035  -0.12115337    1.3080907     4106 
 5076000 0.0081468038  -0.12494769    1.1991894 0.0033226126  -0.12494769    1.3241371     4052 
 5077000 0.0081863244   -0.1215923    1.2092967 0.0033995116   -0.1215923     1.330889     4051 
 5078000 0.0081004738  -0.11993002    1.2068273  0.003339145  -0.11993002    1.3267573     4021 
 5079000 0.0081421112  -0.12179514    1.2174439 0.0033248211  -0.12179514     1.339239     4004 
 5080000 0.0081075755  -0.12297592    1.2257405 0.0033949837  -0.12297592    1.3487164     3959 
 5081000 0.0080647649  -0.11190059    1.2344552 0.0034200005  -0.11190059    1.3463558     3945 
 5082000 0.0078616478  -0.11110062    1.2144505 0.0032503493  -0.11110062    1.3255511     3906 
 5083000 0.0078709984   -0.1043751    1.2278688 0.0032640763   -0.1043751    1.3322439     3891 
 5084000 0.0078465789   -0.1030173    1.2455418 0.0032750082   -0.1030173    1.3485591     3832 
 5085000 0.0078656809 -0.098151386    1.2547498  0.003257143 -0.098151386    1.3529012     3829 
 5086000 0.0077559015  -0.10205708    1.2481833 0.0032243359  -0.10205708    1.3502403     3783 
 5087000  0.007717795 -0.095402601    1.2485589  0.003238989 -0.095402601    1.3439615     3782 
 5088000  0.007709404 -0.097072859    1.2547206 0.0032134679 -0.097072859    1.3517935     3756 
 5089000 0.0076575437  -0.10140102    1.2568488 0.0030972932  -0.10140102    1.3582499     3713 
 5090000 0.0076266544 -0.099043962    1.2588469 0.0031937059 -0.099043962    1.3578909     3699 
 5091000 0.0075927796 -0.094392938    1.2538219 0.0031605552 -0.094392938    1.3482148     3709 
 5092000 0.0076220199 -0.094207047     1.270607  0.003213643 -0.094207047     1.364814     3678 
 5093000 0.0075296344 -0.089702583      1.25382 0.0030864065 -0.089702583    1.3435226     3691 
 5094000  0.007422486 -0.091096529    1.2518637 0.0030588782 -0.091096529    1.3429602     3640 
 5095000  0.007538438 -0.086499397    1.2827063 0.0032521471 -0.086499397    1.3692057     3626 
 5096000 0.0074994037 -0.085666124    1.2783306 0.0031407209 -0.085666124    1.3639968     3621 
 5097000  0.007412033 -0.082133954    1.2806496  0.003121048 -0.082133954    1.3627836     3582 
 5098000 0.0074225311 -0.082394184    1.2751189 0.0030346139 -0.082394184    1.3575131     3601 
 5099000 0.0073686629  -0.08037838    1.2851049 0.0030536839  -0.08037838    1.3654833     3554 
 5100000 0.0073794872 -0.082761296    1.2975444 0.0030434882 -0.082761296    1.3803057     3521 
 5101000 0.0072195752  -0.07638626    1.2883497 0.0030348616  -0.07638626    1.3647359     3484 
 5102000 0.0073324555 -0.077931396    1.2881455 0.0031038101 -0.077931396    1.3660769     3535 
 5103000 0.0073319401 -0.075610801    1.2942452 0.0030175966 -0.075610801     1.369856     3525 
 5104000 0.0072499748 -0.072030194    1.3035852 0.0030165282 -0.072030194    1.3756154     3471 
 5105000 0.0073857521  -0.07572986    1.3192178 0.0031187462  -0.07572986    1.3949476     3487 
 5106000 0.0072846098 -0.074530413    1.3180882 0.0030759881 -0.074530413    1.3926186     3445 
 5107000 0.0073074501 -0.073734843    1.3204174 0.0030672867 -0.073734843    1.3941523     3452 
 5108000 0.0073136002 -0.077480304    1.3150216 0.0030799584 -0.077480304    1.3925019     3459 
 5109000 0.0072533399 -0.075789995    1.3275523   0.00301506 -0.075789995    1.4033423     3404 
 5110000    0.0070408 -0.066735736    1.3007076 0.0030013808 -0.066735736    1.3674434     3391 
 5111000 0.0071241814  -0.06401445    1.3119136  0.002939487  -0.06401445     1.375928     3410 
 5112000 0.0070826107 -0.068445741    1.3165117 0.0029708825 -0.068445741    1.3849574     3368 
 5113000 0.0070941778 -0.070236117    1.3332348 0.0029999037 -0.070236117    1.4034709     3329 
 5114000 0.0070698013 -0.067623626    1.3377795 0.0030137321 -0.067623626    1.4054031     3313 
 5115000 0.0070798818 -0.068332044    1.3450476 0.0029576267 -0.068332044    1.4133796     3299 
 5116000 0.0070053476 -0.065841467    1.3250696  0.002973678 -0.065841467     1.390911     3317 
 5117000 0.0070335617  -0.06410483    1.3383273 0.0029040133  -0.06410483    1.4024322     3303 
 5118000 0.0070757437 -0.061250223    1.3543069 0.0029974415 -0.061250223    1.4155571     3292 
 5119000  0.007048841   -0.0611566    1.3426221 0.0030162223   -0.0611566    1.4037787     3307 
 5120000  0.007005784 -0.053723838    1.3499693 0.0029495306 -0.053723838    1.4036931     3287 
 5121000 0.0068997719 -0.056467951    1.3400043 0.0028883679 -0.056467951    1.3964723     3254 
 5122000 0.0069779396 -0.050280701    1.3663658 0.0029468457 -0.050280701    1.4166465     3244 
 5123000 0.0069968061   -0.0514776    1.3716313 0.0029020828   -0.0514776    1.4231089     3238 
 5124000 0.0068751433 -0.050326439     1.358479 0.0029161335 -0.050326439    1.4088054     3214 
 5125000  0.006974024 -0.052829412    1.3678395 0.0029658906 -0.052829412    1.4206689     3233 
 5126000 0.0068923515 -0.046681401    1.3595249 0.0029398366 -0.046681401    1.4062063     3228 
 5127000 0.0068445871  -0.04727179    1.3631715 0.0028561108  -0.04727179    1.4104433     3196 
 5128000 0.0067664952 -0.046974509    1.3628154 0.0028239785 -0.046974509      1.40979     3161 
 5129000 0.0067730457 -0.049451589    1.3599197 0.0028136255 -0.049451589    1.4093713     3165 
 5130000 0.0068584369  -0.04693014    1.3752669 0.0029090423  -0.04693014    1.4221971     3176 
 5131000 0.0067696098 -0.045814705     1.356197  0.002847493 -0.045814705    1.4020117     3180 
 5132000 0.0067462382 -0.045861051    1.3588196 0.0028008403 -0.045861051    1.4046807     3163 
 5133000 0.0067912143 -0.041967671    1.3649609 0.0028696843 -0.041967671    1.4069285     3179 
 5134000 0.0066753826  -0.03984043    1.3660887 0.0028738873  -0.03984043    1.4059291     3127 
 5135000 0.0067193707 -0.044260995    1.3579286 0.0028247796 -0.044260995    1.4021896     3156 
 5136000 0.0067124998 -0.036501005    1.3740878 0.0028418741 -0.036501005    1.4105888     3134 
 5137000 0.0067596712 -0.039998002    1.3688159 0.0028151415 -0.039998002    1.4088139     3160 
 5138000 0.0066673707 -0.045485156     1.361907 0.0028076092 -0.045485156    1.4073922     3120 
 5139000 0.0067354304 -0.042468776    1.3729387 0.0028161474 -0.042468776    1.4154075     3134 
 5140000 0.0067765418 -0.036667593    1.3901108 0.0028585318 -0.036667593    1.4267784     3128 
 5141000 0.0066857661 -0.032904954    1.3962345 0.0028183131 -0.032904954    1.4291395     3081 
 5142000 0.0066841144  -0.02937711    1.3989457 0.0028294175  -0.02937711    1.4283228     3082 
 5143000 0.0067000863 -0.026342184    1.4133348 0.0028731812 -0.026342184    1.4396769     3065 
 5144000 0.0066891126 -0.027916457    1.4075292 0.0028253819 -0.027916457    1.4354456     3069 
 5145000 0.0066528531 -0.027875767     1.411514 0.0028437411 -0.027875767    1.4393898     3044 
 5146000 0.0066074825 -0.029134283     1.405624  0.002794118 -0.029134283    1.4347583     3033 
 5147000 0.0065799259 -0.023518029    1.4029051 0.0027828644 -0.023518029    1.4264231     3038 
 5148000 0.0065304069  -0.02753172    1.3886226 0.0027358976  -0.02753172    1.4161543     3037 
 5149000 0.0066685359 -0.026668144    1.4156409 0.0027812564 -0.026668144    1.4423091     3045 
 5150000 0.0065957428 -0.026918226    1.3968413 0.0027898615 -0.026918226    1.4237595     3051 
 5151000 0.0066870358 -0.023597027    1.4227133 0.0028123917 -0.023597027    1.4463103     3045 
 5152000 0.0066697292 -0.024312996    1.4273119 0.0028251102 -0.024312996    1.4516249     3026 
 5153000 0.0066339326 -0.023510332    1.4289636 0.0028228107 -0.023510332     1.452474     3008 
 5154000 0.0064836069 -0.023360439     1.405702 0.0027612997 -0.023360439    1.4290625     2988 
 5155000 0.0066108648 -0.027523647    1.4223097 0.0027798572 -0.027523647    1.4498333     3003 
 5156000 0.0065537576 -0.024566531    1.4185091 0.0027542042 -0.024566531    1.4430756     2991 
 5157000 0.0066050082 -0.026786874    1.4349041 0.0027879249 -0.026786874     1.461691     2976 
 5158000 0.0065909939 -0.024952732    1.4331469 0.0027923585 -0.024952732    1.4580997     2977 
 5159000 0.0065494262 -0.024679338    1.4251985 0.0027866938 -0.024679338    1.4498779     2975 
 5160000 0.0065811078 -0.023675625    1.4288216 0.0027886571 -0.023675625    1.4524972     2984 
 5161000 0.0066047913 -0.021995822    1.4401385 0.0028262108 -0.021995822    1.4621343     2975 
 5162000 0.0066584306 -0.024393121    1.4486253 0.0028208328 -0.024393121    1.4730184     2977 
 5163000 0.0065943702 -0.024770549    1.4414639 0.0028045493 -0.024770549    1.4662344     2962 
 5164000 0.0065084927 -0.023413911    1.4261729 0.0027256561 -0.023413911    1.4495868     2957 
 5165000 0.0065124162 -0.022437658    1.4388953 0.0027504009 -0.022437658    1.4613329     2935 
 5166000 0.0065442037 -0.024096811    1.4309832 0.0028301478 -0.024096811    1.4550801     2962 
 5167000 0.0064791348 -0.023066885    1.4234055 0.0027420133 -0.023066885    1.4464723     2950 
 5168000  0.006524811  -0.02516569    1.4275643  0.002747122  -0.02516569      1.45273     2958 
 5169000 0.0063924384 -0.016995889    1.4188827 0.0027118887 -0.016995889    1.4358786     2932 
 5170000 0.0063628135 -0.024842459    1.4102553 0.0026690726 -0.024842459    1.4350977     2920 
 5171000 0.0063452471 -0.022482073    1.4240102 0.0027015554 -0.022482073    1.4464923     2889 
 5172000 0.0062321065 -0.024590651    1.4095124 0.0026540319 -0.024590651    1.4341031     2862 
 5173000 0.0062808334  -0.01995382    1.4108639 0.0026667835  -0.01995382    1.4308177     2891 
 5174000 0.0063180911 -0.024004301     1.415799 0.0027102876 -0.024004301    1.4398033     2890 
 5175000  0.006290755 -0.020217126     1.422844 0.0026704473 -0.020217126    1.4430611     2871 
 5176000 0.0061609724 -0.022300137     1.401903  0.002592556 -0.022300137    1.4242032     2849 
 5177000 0.0062690425 -0.022610896    1.4099806 0.0026391723 -0.022610896    1.4325915     2882 
 5178000 0.0064318905 -0.023107312    1.4330559  0.002701999 -0.023107312    1.4561632     2909 
 5179000 0.0063915872  -0.02009995    1.4394824 0.0027222628  -0.02009995    1.4595823     2884 
 5180000 0.0063237033  -0.02347564    1.4201042 0.0026825193  -0.02347564    1.4435798     2885 
 5181000 0.0063945142 -0.022036093     1.439228 0.0027088818 -0.022036093    1.4612641     2882 
 5182000 0.0063424297  -0.02276849    1.4255882 0.0027296569  -0.02276849    1.4483567     2884 
 5183000 0.0063438668 -0.023939322    1.4348621 0.0026785987 -0.023939322    1.4588014     2864 
 5184000 0.0064546626 -0.024037268    1.4499489 0.0027205336 -0.024037268    1.4739862     2884 
 5185000 0.0064057745 -0.021524943    1.4342304  0.002738442 -0.021524943    1.4557554     2898 
 5186000 0.0064777357 -0.022861998    1.4477247 0.0027316017 -0.022861998    1.4705867     2901 
 5187000 0.0063437325 -0.020907208    1.4450292 0.0026931716 -0.020907208    1.4659364     2850 
 5188000 0.0064195089 -0.024039812    1.4537038 0.0027166839 -0.024039812    1.4777436     2861 
 5189000 0.0063559585 -0.025572524    1.4426739 0.0026721804 -0.025572524    1.4682465     2851 
 5190000 0.0063484923 -0.022301513    1.4385837 0.0026905912 -0.022301513    1.4608852     2862 
 5191000 0.0063877895 -0.026014941    1.4439132   0.00270505 -0.026014941    1.4699281     2862 
 5192000  0.006358472  -0.02211478    1.4426023 0.0026919777  -0.02211478    1.4647171     2859 
 5193000  0.006486414 -0.025659479    1.4695759 0.0027455343 -0.025659479    1.4952354     2857 
 5194000  0.006521319 -0.021928892    1.4714214 0.0027785861 -0.021928892    1.4933503     2876 
 5195000 0.0063177751 -0.024226581    1.4331547 0.0026674113 -0.024226581    1.4573813     2855 
 5196000 0.0063342199 -0.025982039    1.4507096 0.0026795538 -0.025982039    1.4766917     2825 
 5197000 0.0064262161 -0.020994419    1.4510896 0.0027064287 -0.020994419    1.4720841     2875 
 5198000 0.0064691901 -0.026163046    1.4609378 0.0027296259 -0.026163046    1.4871008     2865 
 5199000 0.0064452455 -0.021581488    1.4772795 0.0027211869 -0.021581488     1.498861     2832 
 5200000 0.0065042786 -0.020995834    1.4841528 0.0027345504 -0.020995834    1.5051486     2846 
 5201000  0.006404662 -0.022636537    1.4615458 0.0026974458 -0.022636537    1.4841824     2842 
 5202000 0.0065149033 -0.021704723    1.4650071 0.0027391637 -0.021704723    1.4867118     2886 
 5203000 0.0064218074 -0.021324451     1.460574 0.0027076963 -0.021324451    1.4818984     2854 
 5204000 0.0064482678 -0.021319335    1.4713923 0.0027667696 -0.021319335    1.4927117     2845 
 5205000 0.0064106731 -0.023859107    1.4596283 0.0026978194 -0.023859107    1.4834874     2846 
 5206000 0.0062530949 -0.024117092    1.4419654 0.0026540222 -0.024117092    1.4660825     2809 
 5207000 0.0063344458 -0.020668945    1.4529455 0.0026579704 -0.020668945    1.4736145     2831 
 5208000 0.0062285139 -0.020819124    1.4531431 0.0026358924 -0.020819124    1.4739623     2783 
 5209000 0.0061979434 -0.024337661     1.443445 0.0026341756 -0.024337661    1.4677826     2781 
 5210000 0.0062174658 -0.021261428     1.446921 0.0026076446 -0.021261428    1.4681824     2789 
 5211000  0.006109424 -0.022966972    1.4327514  0.002560441 -0.022966972    1.4557184     2764 
 5212000  0.006031539 -0.019417757    1.4125618 0.0025547107 -0.019417757    1.4319796     2774 
 5213000 0.0061652171 -0.022665281    1.4394702 0.0025767313 -0.022665281    1.4621355     2777 
 5214000 0.0061954412 -0.022120337    1.4340737 0.0026387495 -0.022120337     1.456194     2802 
 5215000 0.0062647713 -0.020013373     1.453528 0.0026524128 -0.020013373    1.4735413     2800 
 5216000 0.0061223749 -0.022569736    1.4457969 0.0025760944 -0.022569736    1.4683667     2746 
 5217000 0.0061353272 -0.023405847    1.4390137 0.0025848667 -0.023405847    1.4624195     2763 
 5218000 0.0061691582 -0.020519065    1.4451901 0.0025884543 -0.020519065    1.4657092     2772 
 5219000 0.0063084276 -0.021328155    1.4514359 0.0027014305 -0.021328155     1.472764     2821 
 5220000 0.0062520224 -0.022430864    1.4565632 0.0026702126 -0.022430864     1.478994     2784 
 5221000 0.0062714071 -0.023906815    1.4511953 0.0026422039 -0.023906815    1.4751021     2800 
 5222000 0.0061790068 -0.023153421    1.4470171 0.0025947942 -0.023153421    1.4701705     2768 
 5223000 0.0061825309 -0.021173069    1.4508996  0.002618929 -0.021173069    1.4720727     2766 
 5224000 0.0063266555 -0.022098984    1.4633456 0.0026862209 -0.022098984    1.4854446     2805 
 5225000 0.0062993214 -0.023337891    1.4572724 0.0026679317 -0.023337891    1.4806103     2802 
 5226000 0.0062413915  -0.02040329     1.446591 0.0026514414  -0.02040329    1.4669943     2802 
 5227000 0.0062635668 -0.021249819    1.4610076 0.0026480913 -0.021249819    1.4822574     2783 
 5228000 0.0062951201 -0.020442384    1.4565448 0.0027084696 -0.020442384    1.4769872     2807 
 5229000 0.0061877755 -0.023101703    1.4354549 0.0026021558 -0.023101703    1.4585566     2794 
 5230000 0.0062533317 -0.020014029    1.4656937 0.0026309439 -0.020014029    1.4857077     2772 
 5231000 0.0063648006 -0.018015666    1.4801237 0.0026868228 -0.018015666    1.4981394     2798 
 5232000 0.0064199623 -0.022774735    1.4781564 0.0027513388 -0.022774735    1.5009311     2817 
 5233000 0.0063331096 -0.020132926    1.4705471 0.0027009252 -0.020132926      1.49068     2798 
 5234000  0.006390663 -0.021647415    1.4777565 0.0027115979 -0.021647415    1.4994039     2807 
 5235000 0.0063275111 -0.021298032    1.4696628 0.0027020282 -0.021298032    1.4909608     2795 
 5236000 0.0062549856  -0.02000601    1.4570363 0.0026598233  -0.02000601    1.4770423     2789 
 5237000  0.006370225 -0.022594652     1.472014 0.0026788795 -0.022594652    1.4946087     2807 
 5238000 0.0063479345 -0.022907027    1.4803962 0.0027274384 -0.022907027    1.5033032     2781 
 5239000 0.0062411196 -0.024235727    1.4634005   0.00262728 -0.024235727    1.4876362     2763 
 5240000 0.0061884444 -0.023434687    1.4543201 0.0026016041 -0.023434687    1.4777548     2758 
 5241000 0.0061837806 -0.021345794    1.4520898 0.0026188544 -0.021345794    1.4734356     2764 
 5242000 0.0062864444 -0.023025883    1.4667868 0.0026732842 -0.023025883    1.4898127     2779 
 5243000 0.0063207837 -0.018414217    1.4838611 0.0027124952 -0.018414217    1.5022753     2771 
 5244000 0.0063061834 -0.022377487    1.4587885 0.0026768298 -0.022377487    1.4811659     2804 
 5245000 0.0062816373 -0.023032649    1.4661767  0.002691577 -0.023032649    1.4892093     2778 
 5246000 0.0061806891 -0.023948881    1.4540976 0.0026160067 -0.023948881    1.4780465     2754 
 5247000 0.0063629339 -0.024956288      1.46741 0.0026833421 -0.024956288    1.4923663     2808 
 5248000 0.0063246168 -0.024159315    1.4709338 0.0026797777 -0.024159315    1.4950931     2786 
 5249000 0.0062842124 -0.018256918    1.4726363 0.0026741936 -0.018256918    1.4908932     2776 
 5250000 0.0062289136 -0.021083924    1.4550946 0.0026336913 -0.021083924    1.4761785     2779 
 5251000 0.0062687232 -0.020150373    1.4511677 0.0026428385 -0.020150373     1.471318     2806 
 5252000 0.0063386173 -0.021128426     1.460785  0.002682895 -0.021128426    1.4819134     2817 
 5253000 0.0062669777 -0.020639154    1.4560581 0.0026994892 -0.020639154    1.4766973     2795 
 5254000 0.0061592056 -0.023564112    1.4498798 0.0025882162 -0.023564112    1.4734439     2753 
 5255000 0.0062223321 -0.022672098    1.4572722 0.0026414148 -0.022672098    1.4799443     2769 
 5256000 0.0062692159 -0.024266163    1.4706082 0.0026761999 -0.024266163    1.4948743     2762 
 5257000 0.0061976814 -0.028572406    1.4567737 0.0026095818 -0.028572406    1.4853461     2748 
 5258000 0.0061842484 -0.023077221    1.4639196 0.0026118287 -0.023077221    1.4869968     2739 
 5259000 0.0061877981 -0.026375188     1.454985 0.0026271602 -0.026375188    1.4813602     2751 
 5260000 0.0061743734 -0.022671697    1.4411082 0.0025914217 -0.022671697    1.4637799     2778 
 5261000  0.006103485 -0.026243415    1.4359953 0.0025967304 -0.026243415    1.4622387     2749 
 5262000 0.0061437327 -0.024306411    1.4449024 0.0025795155 -0.024306411    1.4692088     2754 
 5263000 0.0061936071  -0.02716458    1.4609958 0.0026118606  -0.02716458    1.4881604     2741 
 5264000 0.0061702818 -0.028422281    1.4584734 0.0026403984 -0.028422281    1.4868957     2733 
 5265000  0.006243086 -0.025289688    1.4649727 0.0026677651 -0.025289688    1.4902624     2759 
 5266000 0.0062039386  -0.02581565    1.4604892 0.0026010693  -0.02581565    1.4863048     2749 
 5267000 0.0061731215 -0.022898335    1.4739927 0.0026188992 -0.022898335    1.4968911     2716 
 5268000 0.0061763401 -0.029460519     1.462717 0.0025782431 -0.029460519    1.4921775     2726 
 5269000 0.0062575628 -0.022477896    1.4915443  0.002632593 -0.022477896    1.5140222     2722 
 5270000 0.0061361741 -0.023727727     1.473576   0.00258527 -0.023727727    1.4973038     2699 
 5271000 0.0061930696 -0.021208193    1.4603369 0.0026737754 -0.021208193    1.4815451     2753 
 5272000  0.006206043 -0.024868738    1.4706446 0.0026269478 -0.024868738    1.4955133     2733 
 5273000 0.0062353378 -0.021316664    1.4763241  0.002672601 -0.021316664    1.4976408     2742 
 5274000 0.0063314247 -0.028009001    1.4910486 0.0026585637 -0.028009001    1.5190576     2745 
 5275000   0.00634251 -0.023640148    1.4903554 0.0026691655 -0.023640148    1.5139955     2759 
 5276000 0.0062684747 -0.025218334    1.4947945 0.0026610483 -0.025218334    1.5200128     2716 
 5277000 0.0063309206 -0.022409261    1.5004107 0.0027040358 -0.022409261    1.5228199     2738 
 5278000  0.006239646 -0.023071703     1.485507 0.0026332897 -0.023071703    1.5085787     2724 
 5279000 0.0062681329 -0.023250163    1.4933294   0.00264924 -0.023250163    1.5165796     2722 
 5280000 0.0060771395 -0.022687932    1.4640666 0.0025576622 -0.022687932    1.4867546     2692 
 5281000 0.0061303873 -0.023891922    1.4648292 0.0025879606 -0.023891922    1.4887212     2712 
 5282000  0.006142497 -0.020879342    1.4653025 0.0025810779 -0.020879342    1.4861819     2722 
 5283000 0.0061315964 -0.024983494    1.4667816 0.0025640016 -0.024983494    1.4917651     2707 
 5284000 0.0062652912 -0.018807637     1.485479 0.0026553822 -0.018807637    1.5042866     2743 
 5285000 0.0062305353  -0.02297657    1.4861695 0.0026250696  -0.02297657    1.5091461     2719 
 5286000 0.0062058632 -0.022779763    1.4809434 0.0026206221 -0.022779763    1.5037231     2718 
 5287000 0.0062038353 -0.022926052    1.4803057 0.0026179555 -0.022926052    1.5032317     2718 
 5288000 0.0060890913 -0.021789705    1.4701056 0.0025991969 -0.021789705    1.4918953     2688 
 5289000 0.0061255398 -0.022420941    1.4733964 0.0025981961 -0.022420941    1.4958173     2697 
 5290000 0.0061797543 -0.022039303    1.4737065 0.0026270382 -0.022039303    1.4957458     2721 
 5291000   0.00599387 -0.024310927    1.4442541 0.0025413328 -0.024310927     1.468565     2688 
 5292000 0.0060592687  -0.02648531     1.451505 0.0025720878  -0.02648531    1.4779903     2700 
 5293000 0.0061378517 -0.023912927    1.4666209 0.0025912994 -0.023912927    1.4905338     2712 
 5294000 0.0059469004 -0.022123169    1.4300715 0.0025279529 -0.022123169    1.4521947     2697 
 5295000 0.0059061042 -0.024623237    1.4338324  0.002492004 -0.024623237    1.4584556     2667 
 5296000 0.0059462759 -0.023446091    1.4449296 0.0025280897 -0.023446091    1.4683756     2667 
 5297000 0.0060533651 -0.023498898    1.4535984 0.0025403002 -0.023498898    1.4770973     2699 
 5298000 0.0060371928 -0.023455659    1.4601394 0.0025472262 -0.023455659    1.4835951     2680 
 5299000 0.0060616413 -0.028656161     1.441744 0.0025645251 -0.028656161    1.4704001     2715 
 5300000  0.006008757 -0.023552742    1.4377867 0.0025597356 -0.023552742    1.4613395     2708 
 5301000 0.0060503362     -0.02531    1.4494091 0.0026059936     -0.02531    1.4747191     2702 
 5302000 0.0060861669 -0.021000025     1.449392 0.0025841462 -0.021000025     1.470392     2726 
 5303000 0.0061257663 -0.023590952    1.4569112 0.0025746186 -0.023590952    1.4805022     2725 
 5304000 0.0060813227 -0.024216271    1.4652216 0.0026185316 -0.024216271    1.4894378     2689 
 5305000 0.0061159527 -0.024720307     1.455583 0.0025545287 -0.024720307    1.4803033     2721 
 5306000 0.0060775695 -0.020696559    1.4476184 0.0025580747 -0.020696559    1.4683149     2726 
 5307000  0.006090651 -0.022970241    1.4490451 0.0025784678 -0.022970241    1.4720153     2725 
 5308000 0.0061238111 -0.023509073    1.4608784  0.002585064 -0.023509073    1.4843875     2717 
 5309000 0.0060888803 -0.020901953    1.4415618  0.002571552 -0.020901953    1.4624638     2742 
 5310000 0.0061565861 -0.021546591    1.4534138 0.0026193408 -0.021546591    1.4749604     2749 
 5311000 0.0061529641 -0.021849379    1.4635907 0.0026051102 -0.021849379    1.4854401     2728 
 5312000 0.0063925955 -0.023246814     1.489545 0.0026852598 -0.023246814    1.5127918     2783 
 5313000 0.0061297071  -0.02022636    1.4623164 0.0025959918  -0.02022636    1.4825427     2723 
 5314000  0.006227076 -0.024170651    1.4644282 0.0026573062 -0.024170651    1.4885989     2755 
 5315000 0.0063247622 -0.021933696    1.4829164 0.0026767834 -0.021933696    1.5048501     2768 
 5316000 0.0063035358 -0.025553894    1.4715415 0.0026829065 -0.025553894    1.4970954     2773 
 5317000 0.0062458041 -0.020798031    1.4755367  0.002634788 -0.020798031    1.4963347     2749 
 5318000 0.0062745742 -0.021784477    1.4678954 0.0026713993 -0.021784477    1.4896798     2774 
 5319000 0.0062810513 -0.021482091    1.4740485 0.0026317497 -0.021482091    1.4955306     2766 
 5320000 0.0063548179 -0.026739469    1.4733392 0.0026899152 -0.026739469    1.5000787     2790 
 5321000 0.0063398019 -0.026477361    1.4835878 0.0026668703 -0.026477361    1.5100652     2765 
 5322000 0.0064674092 -0.025948574    1.4936273 0.0027362299 -0.025948574    1.5195758     2803 
 5323000 0.0064459217 -0.024662446    1.5056979 0.0027457618 -0.024662446    1.5303603     2774 
 5324000 0.0064755231 -0.022122239    1.5236243  0.002717203 -0.022122239    1.5457466     2759 
 5325000 0.0064825188 -0.025118927    1.5106084 0.0027360211 -0.025118927    1.5357274     2780 
 5326000 0.0065362069 -0.022244283    1.5118543 0.0027390771 -0.022244283    1.5340985     2806 
 5327000 0.0064454163 -0.023749385    1.4988068 0.0027264968 -0.023749385    1.5225562     2788 
 5328000 0.0065266923 -0.021668346    1.5145769 0.0027413785 -0.021668346    1.5362453     2798 
 5329000 0.0065870652 -0.026587847    1.5199987 0.0028027042 -0.026587847    1.5465866     2805 
 5330000 0.0065500107 -0.021877301    1.5209594 0.0027540353 -0.021877301    1.5428367     2796 
 5331000  0.006473407 -0.021601091    1.5031919 0.0027475099 -0.021601091     1.524793     2796 
 5332000 0.0065179902 -0.020192909    1.5145526 0.0027663748 -0.020192909    1.5347455     2797 
 5333000 0.0065231873 -0.021452695    1.5106821 0.0027389559 -0.021452695    1.5321348     2804 
 5334000 0.0066407131 -0.020088415    1.5187952 0.0028580878 -0.020088415    1.5388836     2842 
 5335000 0.0064901917 -0.022536884    1.4926617 0.0027591221 -0.022536884    1.5151986     2821 
 5336000 0.0064572116 -0.026176603    1.4948016 0.0027492114 -0.026176603    1.5209782     2796 
 5337000 0.0064979869 -0.028659565    1.5008291 0.0027508046 -0.028659565    1.5294886     2798 
 5338000 0.0065351516 -0.026303703    1.5070007 0.0027865374 -0.026303703    1.5333044     2807 
 5339000 0.0064115193  -0.02961296    1.4757569 0.0026848415  -0.02961296    1.5053699     2805 
 5340000 0.0065249544 -0.027346759    1.4927345  0.002748167 -0.027346759    1.5200813     2827 
 5341000 0.0064828796 -0.023330199    1.4971683 0.0027173354 -0.023330199    1.5204985     2808 
 5342000 0.0064019199 -0.026975739    1.4863912 0.0026996907 -0.026975739     1.513367     2786 
 5343000 0.0063175021 -0.026621334    1.4743324 0.0026592686 -0.026621334    1.5009537     2772 
 5344000 0.0063807814 -0.028753001    1.4662021 0.0026793702 -0.028753001    1.4949551     2811 
 5345000  0.006350263 -0.022019172    1.4726984  0.002706873 -0.022019172    1.4947176     2798 
 5346000  0.006257693 -0.023433441    1.4746596 0.0026309462 -0.023433441    1.4980931     2751 
 5347000 0.0061640617 -0.024561322    1.4543419 0.0026171146 -0.024561322    1.4789032     2745 
 5348000 0.0062085059  -0.02274236     1.458192  0.002631152  -0.02274236    1.4809344     2761 
 5349000 0.0061131808 -0.025449252     1.441781 0.0025749364 -0.025449252    1.4672302     2744 
 5350000 0.0060309237 -0.020944968    1.4318371 0.0025886982 -0.020944968     1.452782     2734 
 5351000 0.0059607844 -0.025030197    1.4267867 0.0025309759 -0.025030197    1.4518169     2704 
 5352000 0.0060410084 -0.022439691    1.4467434 0.0025803945 -0.022439691    1.4691831     2708 
 5353000   0.00617246  -0.02094519    1.4540622 0.0026226746  -0.02094519    1.4750074     2756 
 5354000 0.0060408122 -0.024462656    1.4301693  0.002569501 -0.024462656     1.454632     2735 
 5355000 0.0060064857 -0.022849025    1.4460746 0.0025736222 -0.022849025    1.4689237     2693 
 5356000 0.0060828272 -0.023950023    1.4515893 0.0025565098 -0.023950023    1.4755393     2715 
 5357000 0.0061504114 -0.023873615    1.4631306 0.0026735665 -0.023873615    1.4870042     2724 
 5358000 0.0061081787 -0.020701988    1.4725368 0.0025931046 -0.020701988    1.4932388     2694 
 5359000 0.0061234909 -0.025524198    1.4436452 0.0026122222 -0.025524198    1.4691693     2745 
 5360000 0.0061022746 -0.025223127    1.4469003 0.0025654798 -0.025223127    1.4721235     2730 
 5361000 0.0060445899 -0.025801446    1.4292082 0.0025643857 -0.025801446    1.4550097     2736 
 5362000 0.0060425075 -0.020607862    1.4587732 0.0025420179 -0.020607862    1.4793811     2690 
 5363000 0.0061933094  -0.02177472    1.4728576 0.0026206563  -0.02177472    1.4946323     2729 
 5364000 0.0061433451 -0.021038078    1.4582839 0.0025932727 -0.021038078     1.479322     2735 
 5365000 0.0061403521 -0.021279617     1.454085 0.0026026044 -0.021279617    1.4753646     2741 
 5366000 0.0061342719 -0.022437415    1.4606647 0.0026196633 -0.022437415    1.4831021     2724 
 5367000 0.0061179426 -0.020464649    1.4674289   0.00261138 -0.020464649    1.4878936     2708 
 5368000 0.0062094386 -0.020016014    1.4823624 0.0026580654 -0.020016014    1.5023785     2722 
 5369000 0.0062537726 -0.019302169     1.492692 0.0026441544 -0.019302169    1.5119942     2724 
 5370000 0.0062244008  -0.02382688    1.4772087 0.0026445603  -0.02382688    1.5010356     2731 
 5371000 0.0062005947  -0.01904571     1.472971 0.0026269026  -0.01904571    1.4920167     2737 
 5372000 0.0060823748 -0.021589038    1.4441231 0.0025599257 -0.021589038    1.4657121     2733 
 5373000 0.0061167393 -0.022298941     1.458739 0.0025663869 -0.022298941     1.481038     2720 
 5374000 0.0061563141 -0.021582311    1.4630339 0.0026280923 -0.021582311    1.4846162     2731 
 5375000 0.0060189129 -0.023801737    1.4389274 0.0025316762 -0.023801737    1.4627291     2710 
 5376000 0.0060244158 -0.021508682    1.4501605 0.0025508521 -0.021508682    1.4716691     2696 
 5377000 0.0059944105 -0.021145582    1.4367048 0.0025213008 -0.021145582    1.4578504     2708 
 5378000 0.0061443916 -0.018667221    1.4701609 0.0026104218 -0.018667221    1.4888281     2718 
 5379000 0.0060394529 -0.021110471    1.4342585 0.0025665227 -0.021110471    1.4553689     2733 
 5380000 0.0059766235 -0.021722075    1.4377308 0.0025699147 -0.021722075    1.4594529     2697 
 5381000 0.0059304579 -0.019344229    1.4256207 0.0024977713 -0.019344229     1.444965     2703 
 5382000 0.0060016422 -0.019792092    1.4523202 0.0025624478 -0.019792092    1.4721123     2685 
 5383000 0.0060736109 -0.022643967    1.4463312 0.0025504394 -0.022643967    1.4689752     2723 
 5384000 0.0060584132 -0.024075259    1.4455418   0.00256628 -0.024075259    1.4696171     2715 
 5385000 0.0059450401 -0.024289386    1.4290677 0.0025299519 -0.024289386    1.4533571     2694 
 5386000 0.0058925926 -0.019756916    1.4218488  0.002476295 -0.019756916    1.4416057     2692 
 5387000 0.0058607247 -0.021495151    1.4165878  0.002468185 -0.021495151     1.438083     2684 
 5388000 0.0058237825 -0.023361262    1.4099291 0.0024688631 -0.023361262    1.4332903     2676 
 5389000 0.0058457759 -0.019351893    1.3976409 0.0024557796 -0.019351893    1.4169928     2717 
 5390000 0.0057972104 -0.016865016    1.4061632 0.0024726128 -0.016865016    1.4230282     2683 
 5391000 0.0059025787 -0.020457697    1.4066272 0.0024945836 -0.020457697    1.4270849     2724 
 5392000 0.0059892311 -0.023407571    1.4114588 0.0025496496 -0.023407571    1.4348664     2749 
 5393000  0.006059295 -0.017744799     1.435493 0.0025775339 -0.017744799    1.4532378     2746 
 5394000 0.0060849942 -0.018399833    1.4436638 0.0025940309 -0.018399833    1.4620636     2741 
 5395000 0.0060581197 -0.020061467    1.4430177 0.0025729675 -0.020061467    1.4630792     2727 
 5396000 0.0059882714 -0.025322089    1.4294236 0.0025297097 -0.025322089    1.4547457     2711 
 5397000 0.0059679272 -0.022245702    1.4222296 0.0025461884 -0.022245702    1.4444753     2721 
 5398000 0.0059463644 -0.020383199     1.423117 0.0025208235 -0.020383199    1.4435002     2713 
 5399000 0.0059373079 -0.019609835    1.4095757 0.0025220445 -0.019609835    1.4291855     2736 
 5400000  0.005799134 -0.017029618    1.3969843 0.0024757898 -0.017029618    1.4140139     2701 
 5401000 0.0059703073 -0.022797503    1.4340327 0.0025237005 -0.022797503    1.4568302     2699 
 5402000 0.0059811706 -0.020606216     1.436715 0.0025241668 -0.020606216    1.4573212     2703 
 5403000 0.0060362193 -0.022773698    1.4403819 0.0025672884 -0.022773698    1.4631556     2717 
 5404000  0.006055513 -0.021346971    1.4524521 0.0025462281 -0.021346971    1.4737991     2706 
 5405000 0.0059494312 -0.022171385    1.4290271 0.0025103435 -0.022171385    1.4511985     2700 
 5406000 0.0059187271 -0.021943157    1.4352585 0.0025298636 -0.021943157    1.4572017     2675 
 5407000 0.0059034217 -0.021761014    1.4305866 0.0024986103 -0.021761014    1.4523476     2677 
 5408000 0.0060029801 -0.022808052     1.443081  0.002519762 -0.022808052     1.465889     2697 
 5409000 0.0060012273 -0.020958725    1.4439591 0.0025563464 -0.020958725    1.4649178     2698 
 5410000 0.0060383852 -0.020430735    1.4524656 0.0025617804 -0.020430735    1.4728963     2700 
 5411000 0.0060818741 -0.025122532    1.4589314 0.0025529519 -0.025122532    1.4840539     2699 
 5412000 0.0060563266 -0.021617966    1.4437149  0.002591973 -0.021617966    1.4653329     2722 
 5413000 0.0058935168 -0.022456794     1.425831 0.0025164243 -0.022456794    1.4482878     2680 
 5414000 0.0059687689 -0.020783859    1.4329778  0.002541196 -0.020783859    1.4537617     2704 
 5415000 0.0059067893 -0.025850061    1.4154809 0.0024728708 -0.025850061     1.441331     2699 
 5416000  0.005951569 -0.023108276    1.4361783 0.0025665835 -0.023108276    1.4592866     2686 
 5417000 0.0059639379 -0.023472287    1.4258967 0.0025216205 -0.023472287     1.449369     2710 
 5418000 0.0059919669 -0.027364986    1.4288156  0.002545406 -0.027364986    1.4561806     2710 
 5419000 0.0058900958 -0.024362547    1.4123627  0.002471677 -0.024362547    1.4367253     2700 
 5420000 0.0058192498 -0.025177906    1.4102153 0.0024485804 -0.025177906    1.4353932     2670 
 5421000 0.0059650291 -0.023899608    1.4348856 0.0025146571 -0.023899608    1.4587852     2693 
 5422000 0.0059075734 -0.024551464    1.4148376 0.0025018327 -0.024551464    1.4393891     2703 
 5423000  0.005976967 -0.023049991      1.42202 0.0025510374 -0.023049991      1.44507     2724 
 5424000 0.0059564691  -0.02465847    1.4234297 0.0025107852  -0.02465847    1.4480882     2709 
 5425000  0.005949109 -0.022542108    1.4307308 0.0025410773 -0.022542108    1.4532729     2696 
 5426000  0.005916553   -0.0232798     1.416699 0.0025023176   -0.0232798    1.4399788     2706 
 5427000 0.0058916328 -0.022994121    1.4157046 0.0025129964 -0.022994121    1.4386987     2697 
 5428000 0.0059259135 -0.016596869    1.4230001 0.0025056118 -0.016596869     1.439597     2711 
 5429000 0.0060031395 -0.019372723    1.4341595 0.0025581387 -0.019372723    1.4535322     2720 
 5430000 0.0059425209 -0.023519951    1.4190473 0.0024979231 -0.023519951    1.4425672     2713 
 5431000  0.006007127  -0.02401202    1.4510938   0.00256024  -0.02401202    1.4751058     2682 
 5432000 0.0059186366  -0.02433586    1.4156179 0.0024895517  -0.02433586    1.4399538     2707 
 5433000 0.0058690232 -0.020528549    1.4201274  0.002497152 -0.020528549     1.440656     2683 
 5434000 0.0058240165 -0.019893835    1.4172133 0.0024668336 -0.019893835    1.4371072     2669 
 5435000 0.0059310295 -0.017871998    1.4309844 0.0024994276 -0.017871998    1.4488563     2696 
 5436000 0.0060091108 -0.023554727    1.4362536 0.0025328205 -0.023554727    1.4598083     2711 
 5437000 0.0058567031 -0.020769592    1.4179347 0.0024751703 -0.020769592    1.4387043     2681 
 5438000 0.0058277619 -0.022637581    1.4073571 0.0024608546 -0.022637581    1.4299947     2684 
 5439000 0.0058689451 -0.022415769    1.4033417 0.0024761892 -0.022415769    1.4257575     2711 
 5440000 0.0057963357   -0.0206638    1.3833115 0.0024621228   -0.0206638    1.4039753     2719 
 5441000 0.0057999559 -0.022636729    1.3853223  0.002455071 -0.022636729    1.4079591     2713 
 5442000 0.0058670424 -0.020246634    1.4061009 0.0024882747 -0.020246634    1.4263475     2709 
 5443000 0.0059136286 -0.023457716     1.408928 0.0025453741 -0.023457716    1.4323857     2719 
 5444000  0.005822669 -0.022143212    1.4007702 0.0024694623 -0.022143212    1.4229134     2695 
 5445000 0.0058531884 -0.023166187    1.4072054 0.0024547358 -0.023166187    1.4303716     2695 
 5446000  0.005896984 -0.022937402    1.4022717 0.0024733796 -0.022937402    1.4252091     2725 
 5447000 0.0059688298 -0.024568994    1.4169461 0.0025077588 -0.024568994    1.4415151     2727 
 5448000  0.006024123 -0.025592574    1.4250207 0.0025087903 -0.025592574    1.4506132     2735 
 5449000 0.0059386369 -0.020567867    1.4068507 0.0025136482 -0.020567867    1.4274186     2740 
 5450000 0.0060379051  -0.02308341    1.4415589 0.0025385291  -0.02308341    1.4646423     2715 
 5451000  0.005906925 -0.022078066    1.4123768  0.002496748 -0.022078066    1.4344549     2712 
 5452000 0.0059086672  -0.02339703    1.4162586 0.0024798525  -0.02339703    1.4396556     2703 
 5453000  0.005836924 -0.022455554    1.4124604 0.0024915675 -0.022455554    1.4349159     2679 
 5454000 0.0059759102 -0.020957077    1.4265143 0.0025243942 -0.020957077    1.4474714     2719 
 5455000  0.005986657 -0.023061808    1.4138013 0.0025372592 -0.023061808    1.4368631     2744 
 5456000 0.0060499945 -0.024989128    1.4191812 0.0025440413 -0.024989128    1.4441703     2759 
 5457000 0.0059751354 -0.020511299    1.4135865  0.002533336 -0.020511299    1.4340978     2744 
 5458000 0.0059073177 -0.022175292    1.4129041 0.0025020765 -0.022175292    1.4350794     2711 
 5459000 0.0059610149 -0.020175185    1.4178705 0.0025461249 -0.020175185    1.4380457     2730 
 5460000 0.0060249072 -0.022055874    1.4213576 0.0025295202 -0.022055874    1.4434135     2749 
 5461000 0.0059925231 -0.020544435    1.4177266 0.0025297219 -0.020544435     1.438271     2744 
 5462000 0.0060262597 -0.017800257    1.4222703  0.002570479 -0.017800257    1.4400705     2756 
 5463000 0.0062275691 -0.024554417    1.4555664 0.0026203963 -0.024554417    1.4801208     2771 
 5464000 0.0060666482  -0.02104391    1.4328985  0.002551304  -0.02104391    1.4539424     2748 
 5465000 0.0059672378 -0.023275304    1.4210331 0.0025213109 -0.023275304    1.4443084     2721 
 5466000 0.0060411378 -0.023096497    1.4337446 0.0025440494 -0.023096497    1.4568411     2731 
 5467000 0.0061190191 -0.019240831    1.4628941 0.0026159763 -0.019240831    1.4821349     2719 
 5468000 0.0060177888 -0.023819684    1.4380968 0.0025378226 -0.023819684    1.4619165     2711 
 5469000 0.0061210535 -0.020308774    1.4574275   0.00262385 -0.020308774    1.4777363     2728 
 5470000 0.0060186145 -0.023067121    1.4379721 0.0025286305 -0.023067121    1.4610392     2713 
 5471000 0.0060988995 -0.019730557    1.4499636 0.0026064684 -0.019730557    1.4696942     2733 
 5472000 0.0061574919  -0.02189243    1.4506067 0.0026088258  -0.02189243    1.4724991     2754 
 5473000  0.006149432 -0.025742908    1.4400386 0.0025891019 -0.025742908    1.4657815     2763 
 5474000 0.0061292347 -0.020723247    1.4557408 0.0026047709 -0.020723247     1.476464     2734 
 5475000  0.006091735 -0.023008138    1.4563266 0.0025664813 -0.023008138    1.4793347     2712 
 5476000 0.0059807755  -0.02021704    1.4445948 0.0025286985  -0.02021704    1.4648118     2689 
 5477000  0.006056735 -0.024504131    1.4447059 0.0025300804 -0.024504131      1.46921     2715 
 5478000 0.0061101744 -0.025466668    1.4567064 0.0025744242 -0.025466668     1.482173     2715 
 5479000 0.0060268654 -0.022813831    1.4521892 0.0025672846 -0.022813831    1.4750031     2691 
 5480000 0.0060739961 -0.024650699    1.4552876 0.0025636257 -0.024650699    1.4799383     2703 
 5481000 0.0060202909 -0.022665101    1.4447307 0.0025519076 -0.022665101    1.4673958     2702 
 5482000 0.0059051539 -0.021749448    1.4272354 0.0025471996 -0.021749448    1.4489848     2684 
 5483000 0.0059831358 -0.025003173    1.4420234 0.0025302013 -0.025003173    1.4670266     2686 
 5484000 0.0059879732 -0.021259493    1.4431368 0.0025113169 -0.021259493    1.4643963     2693 
 5485000 0.0059153649 -0.022185776    1.4490379 0.0024682747 -0.022185776    1.4712236     2648 
 5486000 0.0059287893 -0.022747065    1.4369319 0.0025053406 -0.022747065     1.459679     2675 
 5487000 0.0059912948 -0.021710479    1.4522555  0.002522095 -0.021710479     1.473966     2677 
 5488000 0.0059483028 -0.025197022    1.4360088 0.0024988661 -0.025197022    1.4612058     2681 
 5489000 0.0059183239 -0.022730623    1.4338273 0.0025511336 -0.022730623    1.4565579     2676 
 5490000 0.0058897822 -0.023319368    1.4202801 0.0024839529 -0.023319368    1.4435994     2687 
 5491000 0.0058524135  -0.02443879    1.4164363   0.00249191  -0.02443879    1.4408751     2675 
 5492000 0.0058912701 -0.023057435    1.4268422 0.0024974487 -0.023057435    1.4498997     2676 
 5493000 0.0058774876 -0.023753764    1.4130891 0.0024657484 -0.023753764    1.4368428     2694 
 5494000 0.0058236642  -0.02060765    1.4046644  0.002493462  -0.02060765     1.425272     2691 
 5495000 0.0058911627 -0.023098848    1.4203018 0.0024740371 -0.023098848    1.4434006     2688 
 5496000 0.0058150461  -0.02352927    1.4119022  0.002451069  -0.02352927    1.4354315     2668 
 5497000 0.0059546525 -0.025429165    1.4439131 0.0025179868 -0.025429165    1.4693423     2669 
 5498000 0.0059201877 -0.020058212    1.4315339 0.0025083882 -0.020058212    1.4515921     2686 
 5499000 0.0058941615 -0.023564801    1.4184247 0.0025128208 -0.023564801    1.4419895     2692 
 5500000 0.0058918498  -0.02199394      1.41943  0.002494297  -0.02199394     1.441424     2692 
 5501000 0.0059415473 -0.026322259    1.4144155 0.0025119209 -0.026322259    1.4407377     2716 
 5502000 0.0058721278 -0.026422431    1.3985314 0.0024968919 -0.026422431    1.4249538     2714 
 5503000 0.0058785078 -0.025943826    1.4090178 0.0024681245 -0.025943826    1.4349616     2698 
 5504000 0.0059041615  -0.02448721    1.4237146 0.0025036987  -0.02448721    1.4482018     2685 
 5505000 0.0059558208  -0.02430622    1.4241591 0.0025093989  -0.02430622    1.4484653     2708 
 5506000 0.0060157942 -0.021321228    1.4251709 0.0025333592 -0.021321228    1.4464921     2739 
 5507000 0.0058877984 -0.022633522    1.4156622 0.0024783271 -0.022633522    1.4382957     2696 
 5508000 0.0058995868 -0.023356109    1.4124934 0.0024911913 -0.023356109    1.4358495     2706 
 5509000  0.005970836 -0.020354093    1.4322994 0.0025138046 -0.020354093    1.4526535     2707 
 5510000 0.0059640921 -0.021807049    1.4383756  0.002582273 -0.021807049    1.4601827     2690 
 5511000  0.005949141 -0.023292345    1.4392104 0.0025057673 -0.023292345    1.4625027     2679 
 5512000 0.0059942197 -0.020863687    1.4450602 0.0025367118 -0.020863687    1.4659239     2693 
 5513000 0.0059568145 -0.023999983    1.4193769 0.0025409109 -0.023999983    1.4433769     2718 
 5514000 0.0059628883 -0.021593311    1.4259182 0.0025035431 -0.021593311    1.4475115     2713 
 5515000 0.0059128653 -0.019859514    1.4293976 0.0025138881 -0.019859514    1.4492571     2687 
 5516000 0.0058768348 -0.024053542    1.4195961 0.0024799044 -0.024053542    1.4436496     2681 
 5517000  0.005759934 -0.021173581    1.4043938 0.0024189357 -0.021173581    1.4255674     2661 
 5518000 0.0058446517  -0.01653944    1.4240403 0.0024999151  -0.01653944    1.4405798     2672 
 5519000 0.0058591439 -0.019928125    1.4356636 0.0024812069 -0.019928125    1.4555917     2651 
 5520000 0.0057740948 -0.019148029    1.4212918 0.0024683006 -0.019148029    1.4404398     2640 
 5521000 0.0058599039 -0.019564195     1.442836 0.0024673934 -0.019564195    1.4624002     2639 
 5522000 0.0058152297  -0.02059483    1.4367309 0.0024549856  -0.02059483    1.4573258     2628 
 5523000 0.0058319736 -0.020334008    1.4285078 0.0024697685 -0.020334008    1.4488418     2651 
 5524000 0.0058704233 -0.021816485    1.4305509 0.0024885831 -0.021816485    1.4523674     2662 
 5525000 0.0058318589 -0.020018898    1.4364862 0.0024754681 -0.020018898    1.4565051     2637 
 5526000 0.0058834686 -0.021183593    1.4366018 0.0024822073 -0.021183593    1.4577854     2658 
 5527000 0.0058112103 -0.019796013    1.4370768 0.0025035928 -0.019796013    1.4568728     2627 
 5528000 0.0057109367 -0.020485864    1.4183687 0.0024308303 -0.020485864    1.4388545     2614 
 5529000 0.0057627624 -0.017890298    1.4268367 0.0024640537 -0.017890298    1.4447269     2627 
 5530000 0.0057144176 -0.020233327    1.4063998 0.0024264457 -0.020233327    1.4266332     2638 
 5531000 0.0056867872  -0.01958814    1.4148283 0.0023986019  -0.01958814    1.4344164     2611 
 5532000 0.0056976009 -0.020738133    1.4098311 0.0024348521 -0.020738133    1.4305692     2623 
 5533000  0.005831724 -0.019782538     1.430091 0.0024902723 -0.019782538    1.4498736     2649 
 5534000 0.0057477044 -0.022336347    1.4197134 0.0024189236 -0.022336347    1.4420498     2625 
 5535000 0.0056802121 -0.019081189     1.408755 0.0024542926 -0.019081189    1.4278362     2620 
 5536000 0.0056910685 -0.020378197    1.4074621 0.0023874089 -0.020378197    1.4278403     2625 
 5537000 0.0057257222 -0.026701282    1.4136743 0.0024150435 -0.026701282    1.4403756     2618 
 5538000 0.0057778912  -0.02398074     1.427855 0.0024502361  -0.02398074    1.4518357     2621 
 5539000 0.0059083832 -0.021489438    1.4446756 0.0025286974 -0.021489438    1.4661651     2654 
 5540000 0.0059704888 -0.018694791    1.4600958 0.0025455838 -0.018694791    1.4787906     2659 
 5541000 0.0058028852 -0.023249342    1.4331997 0.0024299708 -0.023249342     1.456449     2624 
 5542000 0.0058065536 -0.021044816     1.443581 0.0024489979 -0.021044816    1.4646259     2611 
 5543000 0.0059639329 -0.020871594    1.4579637 0.0025446511 -0.020871594    1.4788353     2656 
 5544000 0.0059667566 -0.021478937    1.4502987 0.0025172175 -0.021478937    1.4717776     2670 
 5545000 0.0059602556 -0.024240727    1.4520153 0.0025534141 -0.024240727     1.476256     2659 
 5546000 0.0059613749 -0.020501178    1.4565876 0.0025180747 -0.020501178    1.4770888     2658 
 5547000 0.0060482817 -0.024206278    1.4576902 0.0025532959 -0.024206278    1.4818965     2688 
 5548000 0.0060126918 -0.021976837    1.4594667 0.0025499523 -0.021976837    1.4814436     2673 
 5549000  0.005942159 -0.022572681    1.4519739 0.0025299691 -0.022572681    1.4745465     2654 
 5550000  0.005920457 -0.022893853    1.4369166 0.0024756969 -0.022893853    1.4598105     2671 
 5551000 0.0060523442 -0.022366226    1.4452381 0.0025552654 -0.022366226    1.4676043     2716 
 5552000 0.0060651606  -0.02212955     1.457846 0.0025766674  -0.02212955    1.4799756     2699 
 5553000 0.0060006461 -0.022024656    1.4592218 0.0025596081 -0.022024656    1.4812465     2668 
 5554000 0.0059242261 -0.022838203    1.4400925 0.0025163972 -0.022838203    1.4629307     2667 
 5555000 0.0059311016 -0.021735059    1.4352452  0.002496838 -0.021735059    1.4569803     2681 
 5556000 0.0059279487 -0.020517241    1.4433327 0.0025231297 -0.020517241    1.4638499     2667 
 5557000 0.0059149615 -0.022185741    1.4467187 0.0025010152 -0.022185741    1.4689044     2652 
 5558000 0.0059282845 -0.022263463    1.4383833 0.0025215475 -0.022263463    1.4606468     2673 
 5559000 0.0058806816 -0.020461064     1.430085 0.0025128784 -0.020461064    1.4505461     2670 
 5560000 0.0059514971 -0.020848753    1.4416872 0.0025277689 -0.020848753     1.462536     2680 
 5561000 0.0060789556 -0.021489042     1.474043 0.0025741048 -0.021489042    1.4955321     2677 
 5562000 0.0059390127 -0.019623985    1.4558096 0.0025129978 -0.019623985    1.4754336     2651 
 5563000 0.0058347945 -0.017827785    1.4399633 0.0024782307 -0.017827785    1.4577911     2636 
 5564000 0.0059974555 -0.020990608    1.4440926 0.0025311732 -0.020990608    1.4650832     2696 
 5565000 0.0059404507  -0.02234041     1.441304 0.0025310594  -0.02234041    1.4636444     2673 
 5566000 0.0059993276 -0.020392682    1.4511519 0.0025268892 -0.020392682    1.4715446     2685 
 5567000  0.005992762  -0.02074945    1.4574427 0.0025470418  -0.02074945    1.4781922     2670 
 5568000 0.0060589092 -0.022608892    1.4558413 0.0025494055 -0.022608892    1.4784502     2699 
 5569000 0.0059962821 -0.022808372    1.4640483 0.0025458334 -0.022808372    1.4868567     2656 
 5570000 0.0061763607 -0.023181999    1.4884083 0.0025813431 -0.023181999    1.5115903     2691 
 5571000 0.0062092123 -0.022565403    1.4903185 0.0026334901 -0.022565403    1.5128839     2703 
 5572000 0.0060680423 -0.020715869    1.4715739 0.0025902065 -0.020715869    1.4922898     2678 
 5573000 0.0060389933  -0.02150273     1.468093 0.0025336098  -0.02150273    1.4895957     2670 
 5574000 0.0060204003 -0.024544517    1.4532696 0.0025513526 -0.024544517    1.4778142     2683 
 5575000 0.0060006057 -0.024433334    1.4590272 0.0025261804 -0.024433334    1.4834606     2664 
 5576000 0.0059754136 -0.020676504    1.4649209 0.0025583033 -0.020676504    1.4855974     2649 
 5577000 0.0060703331 -0.019957291    1.4818687 0.0026044525 -0.019957291     1.501826     2662 
 5578000 0.0060707874  -0.02091826    1.4866835 0.0025587232  -0.02091826    1.5076018     2652 
 5579000 0.0060178558 -0.019431007    1.4738997 0.0025518187 -0.019431007    1.4933307     2654 
 5580000 0.0060060031 -0.019543985    1.4663664 0.0025435478 -0.019543985    1.4859104     2662 
 5581000 0.0060553099 -0.021077363    1.4686374 0.0025961728 -0.021077363    1.4897148     2677 
 5582000 0.0059942594 -0.021954392    1.4588255 0.0025281038 -0.021954392    1.4807799     2666 
 5583000 0.0060842965 -0.022617021    1.4664416  0.002569313 -0.022617021    1.4890587     2691 
 5584000 0.0060259207 -0.018750547    1.4765815 0.0025376878 -0.018750547     1.495332     2654 
 5585000 0.0061079764 -0.020706746     1.473592 0.0025876679 -0.020706746    1.4942987     2692 
 5586000 0.0061350042  -0.01891437       1.4921 0.0026324302  -0.01891437    1.5110144     2674 
 5587000 0.0061513568 -0.021970306    1.4835006  0.002594387 -0.021970306    1.5054709     2691 
 5588000 0.0060118386 -0.019995435     1.468477  0.002519978 -0.019995435    1.4884725     2660 
 5589000  0.006104477  -0.02079701    1.4872103 0.0025797193  -0.02079701    1.5080073     2666 
 5590000 0.0061429227 -0.020378467    1.4982655 0.0025982027 -0.020378467    1.5186439     2664 
 5591000 0.0060920075 -0.021474793    1.5052129 0.0025868118 -0.021474793    1.5266877     2628 
 5592000  0.006143265 -0.021727661    1.4924538 0.0026036344 -0.021727661    1.5141815     2672 
 5593000 0.0060987066 -0.022993318    1.4785196 0.0025515842 -0.022993318     1.501513     2675 
 5594000 0.0060585757 -0.020574708    1.4783424 0.0025600759 -0.020574708    1.4989171     2662 
 5595000 0.0061564401 -0.024471787    1.4963721 0.0026055799 -0.024471787    1.5208439     2666 
 5596000 0.0060913192 -0.023613404    1.4727245 0.0025774755 -0.023613404    1.4963379     2681 
 5597000 0.0061604259 -0.021835647    1.4858548 0.0026105203 -0.021835647    1.5076904     2691 
 5598000 0.0061470299 -0.019389071    1.4900712 0.0025896522 -0.019389071    1.5094603     2682 
 5599000 0.0062380339 -0.021129744    1.5169859 0.0026574256 -0.021129744    1.5381156     2671 
 5600000 0.0061490552 -0.021194076    1.4882007 0.0026151175 -0.021194076    1.5093948     2683 
 5601000  0.006142071  -0.01865313    1.4912784 0.0025887399  -0.01865313    1.5099315     2679 
 5602000  0.006130302  -0.01642493    1.4844507 0.0026224967  -0.01642493    1.5008757     2690 
 5603000 0.0061685124 -0.022994633    1.4894851  0.002615619 -0.022994633    1.5124797     2686 
 5604000 0.0062668092 -0.024675897    1.4926983  0.002653449 -0.024675897    1.5173742     2720 
 5605000 0.0062587223 -0.020471597    1.5101381 0.0026379452 -0.020471597    1.5306097     2693 
 5606000 0.0061174997 -0.018657073    1.4908686 0.0026235853 -0.018657073    1.5095257     2669 
 5607000  0.006172772 -0.022324671    1.4911995 0.0026193073 -0.022324671    1.5135242     2686 
 5608000 0.0060691348 -0.023263427    1.4720869 0.0025761042 -0.023263427    1.4953503     2673 
 5609000 0.0060853809 -0.021544327    1.4772481 0.0025835378 -0.021544327    1.4987924     2674 
 5610000  0.005869845  -0.01767827    1.4589532 0.0025061018  -0.01767827    1.4766315     2618 
 5611000  0.006027011 -0.026129622    1.4666606  0.002541617 -0.026129622    1.4927902     2659 
 5612000 0.0061159436 -0.022764881    1.4773838 0.0025679872 -0.022764881    1.5001487     2685 
 5613000 0.0060789206  -0.02159575    1.4705833 0.0025657178  -0.02159575     1.492179     2683 
 5614000 0.0060652617 -0.025069066     1.459331 0.0025821082 -0.025069066    1.4844001     2691 
 5615000 0.0061658597 -0.022674408    1.4885923 0.0026155633 -0.022674408    1.5112667     2687 
 5616000 0.0059250563 -0.020341211    1.4628146 0.0025016087 -0.020341211    1.4831558     2631 
 5617000 0.0059594709 -0.024279184    1.4567955 0.0024980964 -0.024279184    1.4810747     2650 
 5618000 0.0059394811 -0.021219018    1.4610405 0.0025326023 -0.021219018    1.4822595     2639 
 5619000  0.006024866 -0.023564148    1.4788654  0.002537924 -0.023564148    1.5024296     2641 
 5620000 0.0059660523 -0.019943079     1.469512 0.0025435831 -0.019943079     1.489455     2638 
 5621000 0.0058937261 -0.016139815     1.456375 0.0025343788 -0.016139815    1.4725148     2636 
 5622000 0.0058551227 -0.019059801    1.4488219 0.0024851355 -0.019059801    1.4678817     2627 
 5623000 0.0060242234 -0.022124152    1.4632721 0.0025286739 -0.022124152    1.4853962     2671 
 5624000  0.006013978 -0.021611271    1.4701951 0.0025749512 -0.021611271    1.4918063     2655 
 5625000 0.0061022143 -0.021321874    1.4912326 0.0025773736 -0.021321874    1.5125545     2657 
 5626000 0.0059622753  -0.02400034    1.4856863 0.0025042617  -0.02400034    1.5096866     2601 
 5627000 0.0060476805 -0.019277723    1.4848544 0.0025746489 -0.019277723    1.5041321     2648 
 5628000 0.0061113498 -0.019496151     1.488512 0.0025852372 -0.019496151    1.5080082     2669 
 5629000  0.006095424 -0.018013603    1.4743229 0.0025937577 -0.018013603    1.4923365     2690 
 5630000 0.0060863938 -0.020296398    1.4720484 0.0025766882 -0.020296398    1.4923448     2686 
 5631000 0.0060454835 -0.019670115    1.4715265 0.0025569824 -0.019670115    1.4911966     2670 
 5632000 0.0059964202 -0.016277589     1.465592 0.0025489102 -0.016277589    1.4818696     2665 
 5633000 0.0061988139 -0.019393575    1.5107702 0.0026821297 -0.019393575    1.5301637     2668 
 5634000 0.0061581375 -0.018653285     1.491845  0.002607904 -0.018653285    1.5104982     2685 
 5635000 0.0061066433 -0.021385626    1.4815195 0.0025948992 -0.021385626    1.5029052     2676 
 5636000 0.0060793243 -0.021097805    1.4812595 0.0025960943 -0.021097805    1.5023573     2665 
 5637000 0.0061444339 -0.024814466    1.4856979 0.0025880462 -0.024814466    1.5105124     2679 
 5638000 0.0061870965 -0.023202944    1.4876461 0.0026184616 -0.023202944     1.510849     2697 
 5639000 0.0061500148 -0.020850914     1.488217  0.002626494 -0.020850914    1.5090679     2684 
 5640000 0.0060853159  -0.01959186    1.4758291 0.0025605066  -0.01959186     1.495421     2680 
 5641000 0.0060186849 -0.016586435    1.4730211 0.0025516435 -0.016586435    1.4896075     2661 
 5642000 0.0060638852 -0.019337554    1.4730444 0.0025915644 -0.019337554     1.492382     2676 
 5643000 0.0061167811 -0.017871138    1.4841612 0.0026047219 -0.017871138    1.5020324     2682 
 5644000 0.0059542002 -0.019188103    1.4511444 0.0025338617 -0.019188103    1.4703325     2667 
 5645000 0.0060879648 -0.020066826    1.4849905 0.0025883426 -0.020066826    1.5050573     2664 
 5646000 0.0061725923 -0.017394737    1.4949593 0.0026168743 -0.017394737     1.512354     2688 
 5647000 0.0061819495 -0.016907994    1.5016933 0.0026242561 -0.016907994    1.5186013     2681 
 5648000 0.0062699669 -0.017547682    1.5209536 0.0026753379 -0.017547682    1.5385013     2684 
 5649000 0.0062928599  -0.02228358    1.5070207 0.0026507136  -0.02228358    1.5293043     2710 
 5650000 0.0062538505 -0.020571575    1.5037524 0.0026456903 -0.020571575     1.524324     2702 
 5651000 0.0062253227 -0.021431744    1.5038418 0.0026777946 -0.021431744    1.5252735     2688 
 5652000 0.0062237407 -0.015965914    1.4987766 0.0026393266 -0.015965914    1.5147426     2706 
 5653000  0.006124038 -0.019312675    1.4861857 0.0026041578 -0.019312675    1.5054984     2679 
 5654000 0.0060697877 -0.022541383    1.4870891  0.002572643 -0.022541383    1.5096305     2648 
 5655000 0.0062103555 -0.016919482    1.4990472 0.0026206091 -0.016919482    1.5159666     2698 
 5656000 0.0062268719 -0.015892065    1.4957023 0.0026362833 -0.015892065    1.5115944     2713 
 5657000  0.006260111 -0.021864506    1.4916621 0.0026567184 -0.021864506    1.5135266     2724 
 5658000 0.0062852396 -0.021933548    1.5021445 0.0026586392 -0.021933548     1.524078     2716 
 5659000  0.006191774 -0.018575447    1.4973504 0.0026291503 -0.018575447    1.5159258     2690 
 5660000 0.0061830043 -0.021323211    1.4779643  0.002639455 -0.021323211    1.4992875     2716 
 5661000  0.006127735 -0.017586128    1.4748935 0.0026009545 -0.017586128    1.4924797     2704 
 5662000 0.0060798836  -0.02080064    1.4794431 0.0025557121  -0.02080064    1.5002438     2669 
 5663000 0.0060617121 -0.016589295    1.4658403 0.0025758376 -0.016589295    1.4824296     2693 
 5664000 0.0061703138 -0.017398436    1.4821244  0.002629464 -0.017398436    1.4995229     2710 
 5665000 0.0060747696  -0.02235167     1.474387 0.0025756455  -0.02235167    1.4967387     2673 
 5666000 0.0060620709 -0.016306235    1.4767451 0.0026075265 -0.016306235    1.4930513     2674 
 5667000  0.006144955 -0.018944139    1.4860785 0.0026259082 -0.018944139    1.5050226     2689 
 5668000 0.0060416288 -0.017706338    1.4631111 0.0025481919 -0.017706338    1.4808174     2687 
 5669000 0.0061080828  -0.02256766    1.4762111 0.0025946625  -0.02256766    1.4987788     2684 
 5670000 0.0059904596 -0.021072575    1.4615493 0.0025314987 -0.021072575    1.4826219     2661 
 5671000 0.0059114111 -0.018463593    1.4353065 0.0025375861 -0.018463593    1.4537701     2678 
 5672000 0.0060247221 -0.019513876    1.4621223 0.0025715534 -0.019513876    1.4816362     2678 
 5673000 0.0059131457 -0.021717594    1.4472898 0.0024858851 -0.021717594    1.4690074     2651 
 5674000 0.0060738402  -0.01939898    1.4816031 0.0025458488  -0.01939898     1.501002     2665 
 5675000 0.0061762386  -0.02190062    1.4924735 0.0026041571  -0.02190062    1.5143742     2686 
 5676000  0.006133041 -0.018049475    1.4874144 0.0025929229 -0.018049475    1.5054638     2683 
 5677000 0.0060248636 -0.021097325    1.4622354 0.0025618995 -0.021097325    1.4833327     2675 
 5678000 0.0060906498 -0.021779671    1.4732785 0.0025777747 -0.021779671    1.4950582     2683 
 5679000 0.0060370071 -0.021448738    1.4743799  0.002555168 -0.021448738    1.4958286     2658 
 5680000 0.0061431307 -0.021729781    1.4789395 0.0025933601 -0.021729781    1.5006693     2696 
 5681000 0.0061393437 -0.021457468    1.4699886 0.0026136681 -0.021457468    1.4914461     2711 
 5682000 0.0061686433  -0.02606763    1.5006542 0.0026094978  -0.02606763    1.5267218     2661 
 5683000 0.0060835252 -0.023505029    1.4714759 0.0025727853 -0.023505029    1.4949809     2680 
 5684000 0.0059904498 -0.021363288    1.4719184 0.0025366304 -0.021363288    1.4932817     2642 
 5685000 0.0060031424 -0.020871405    1.4727476 0.0025760192 -0.020871405     1.493619     2647 
 5686000 0.0060036524 -0.024083029    1.4567954 0.0025525904 -0.024083029    1.4808784     2670 
 5687000 0.0058808135 -0.023880929    1.4504415 0.0024870242 -0.023880929    1.4743224     2627 
 5688000 0.0060356147 -0.020868406    1.4701276 0.0025519038 -0.020868406     1.490996     2666 
 5689000 0.0060260765 -0.020533546    1.4581228 0.0025587414 -0.020533546    1.4786564     2684 
 5690000 0.0061278582 -0.027369362    1.4712367 0.0025877651 -0.027369362    1.4986061     2693 
 5691000 0.0060466795 -0.023933587    1.4586735 0.0025456145 -0.023933587    1.4826071     2686 
 5692000 0.0059070816 -0.018434433    1.4430024 0.0025062115 -0.018434433    1.4614368     2662 
 5693000 0.0060792678 -0.024064692    1.4643163 0.0025879289 -0.024064692     1.488381     2690 
 5694000 0.0060700548 -0.022244504    1.4633287 0.0025543446 -0.022244504    1.4855732     2691 
 5695000 0.0060996004 -0.020340501    1.4570908 0.0025812859 -0.020340501    1.4774313     2719 
 5696000 0.0060784239 -0.018162043    1.4584847 0.0025755904 -0.018162043    1.4766467     2711 
 5697000 0.0060824303 -0.020738641    1.4750895 0.0025675771 -0.020738641    1.4958281     2678 
 5698000  0.006075261 -0.019987462    1.4674126 0.0026039099 -0.019987462       1.4874     2690 
 5699000 0.0061602216 -0.021044151    1.4710707 0.0026055758 -0.021044151    1.4921149     2719 
 5700000 0.0060524038  -0.02276764    1.4734984 0.0025678516  -0.02276764     1.496266     2664 
 5701000 0.0061762015 -0.022956998    1.4824407 0.0026667284 -0.022956998    1.5053977     2702 
 5702000 0.0061341396 -0.022926808    1.4850549 0.0026268883 -0.022926808    1.5079817     2679 
 5703000 0.0061322585 -0.026650104     1.469144 0.0026016574 -0.026650104    1.4957941     2700 
 5704000 0.0061319377 -0.019402415    1.4713443 0.0026447695 -0.019402415    1.4907467     2709 
 5705000 0.0061806472 -0.023018931    1.4840201 0.0026087781 -0.023018931     1.507039     2701 
 5706000 0.0061618646 -0.021993155    1.4945025  0.002620684 -0.021993155    1.5164957     2676 
 5707000 0.0061670116 -0.024951149    1.4804351 0.0025797081 -0.024951149    1.5053863     2698 
 5708000 0.0061995386 -0.019441584    1.4838552 0.0026560868 -0.019441584    1.5032968     2716 
 5709000 0.0061554799 -0.019021321    1.4780014 0.0026032266 -0.019021321    1.4970227     2708 
 5710000 0.0061203851 -0.015035072    1.4800779 0.0026037396 -0.015035072    1.4951129     2696 
 5711000 0.0060807159 -0.020023702    1.4626489 0.0025803116 -0.020023702    1.4826726     2701 
 5712000 0.0060077827 -0.020178257    1.4490626 0.0025376327 -0.020178257    1.4692408     2693 
 5713000  0.006099552 -0.021299236    1.4588422 0.0025734124 -0.021299236    1.4801415     2714 
 5714000 0.0061120138  -0.01889215    1.4631812 0.0026146358  -0.01889215    1.4820733     2716 
 5715000 0.0060397844 -0.019717612    1.4606477 0.0025734384 -0.019717612    1.4803653     2687 
 5716000 0.0061024743 -0.018031356    1.4536012 0.0026093348 -0.018031356    1.4716326     2731 
 5717000 0.0062140702 -0.019266652    1.4759926 0.0026679348 -0.019266652    1.4952592     2737 
 5718000 0.0061656334  -0.02122169    1.4683691 0.0026070895  -0.02122169    1.4895908     2726 
 5719000 0.0062107442 -0.022882936    1.4591221 0.0026431665 -0.022882936    1.4820051     2760 
 5720000 0.0063632672 -0.023699042    1.5002225 0.0027116323 -0.023699042    1.5239215     2750 
 5721000 0.0062141879 -0.017881719    1.4845419  0.002631442 -0.017881719    1.5024236     2724 
 5722000 0.0063283586 -0.018261086    1.4912622 0.0026814035 -0.018261086    1.5095232     2761 
 5723000 0.0061644751  -0.01946266    1.4780887 0.0026107584  -0.01946266    1.4975513     2711 
 5724000 0.0060977079 -0.017838213    1.4564237 0.0025954764 -0.017838213    1.4742619     2724 
 5725000 0.0061429723 -0.019693893    1.4600794 0.0026510327 -0.019693893    1.4797733     2734 
 5726000 0.0060501354 -0.018564562    1.4682111 0.0025907214 -0.018564562    1.4867756     2680 
 5727000 0.0061668421 -0.020409396    1.4760609 0.0026123005 -0.020409396    1.4964703     2714 
 5728000 0.0060738004 -0.024402754    1.4516652 0.0025672427 -0.024402754     1.476068     2710 
 5729000 0.0059743733 -0.021179664    1.4393484 0.0025326636 -0.021179664     1.460528     2694 
 5730000 0.0060430866 -0.019953587    1.4606701 0.0025430723 -0.019953587    1.4806237     2688 
 5731000 0.0059754331 -0.020978742    1.4306481 0.0025154665 -0.020978742    1.4516269     2711 
 5732000 0.0060062269 -0.020963357    1.4522735  0.002524622 -0.020963357    1.4732369     2685 
 5733000 0.0061279258 -0.022119414    1.4507969 0.0025817758 -0.022119414    1.4729163     2740 
 5734000 0.0062311193 -0.022536249    1.4627163  0.002638278 -0.022536249    1.4852526     2763 
 5735000 0.0061215502  -0.02248024    1.4526722 0.0025645201  -0.02248024    1.4751525     2733 
 5736000 0.0060123965  -0.01980683    1.4456647 0.0025803586  -0.01980683    1.4654716     2702 
 5737000 0.0060783622 -0.024007683    1.4450377 0.0025884021 -0.024007683    1.4690453     2725 
 5738000 0.0060458634 -0.019705477    1.4588482 0.0025458164 -0.019705477    1.4785537     2693 
 5739000 0.0060451828 -0.020249278    1.4532137 0.0025593433 -0.020249278     1.473463     2702 
 5740000 0.0060007453 -0.021206726    1.4338856  0.002553498 -0.021206726    1.4550924     2716 
 5741000 0.0059894523 -0.025427901    1.4464353 0.0025056595 -0.025427901    1.4718632     2680 
 5742000 0.0059671471 -0.021415892    1.4406018 0.0025257385 -0.021415892    1.4620176     2688 
 5743000 0.0059955515 -0.019957836    1.4534042  0.002554367 -0.019957836     1.473362     2680 
 5744000 0.0060462509 -0.019305155     1.463749 0.0025647332 -0.019305155    1.4830542     2685 
 5745000 0.0059389696 -0.018733701    1.4439985 0.0025462245 -0.018733701    1.4627322     2674 
 5746000 0.0060589162 -0.018821357     1.459083 0.0025734344 -0.018821357    1.4779043     2700 
 5747000 0.0060512128 -0.019589457    1.4569827 0.0025744723 -0.019589457    1.4765722     2699 
 5748000 0.0060924881 -0.020476869     1.463967  0.002571302 -0.020476869    1.4844438     2703 
 5749000 0.0061386689  -0.01913398    1.4683075 0.0026601088  -0.01913398    1.4874415     2718 
 5750000 0.0060670277 -0.019557271    1.4516076 0.0025613656 -0.019557271    1.4711649     2716 
 5751000 0.0060959364 -0.017622972    1.4610963 0.0025809233 -0.017622972    1.4787192     2715 
 5752000 0.0060458222 -0.016409155     1.451776 0.0025816775 -0.016409155    1.4681851     2712 
 5753000 0.0060483312 -0.014747066    1.4551313 0.0025587819 -0.014747066    1.4698784     2710 
 5754000 0.0061226567  -0.01776542    1.4690784  0.002619858  -0.01776542    1.4868438     2712 
 5755000 0.0061377547 -0.019679729     1.454523 0.0026162833 -0.019679729    1.4742027     2742 
 5756000 0.0061096666 -0.019116745      1.45479 0.0026109686 -0.019116745    1.4739067     2730 
 5757000 0.0059853298 -0.020469569     1.446003 0.0025464796 -0.020469569    1.4664726     2688 
 5758000 0.0059837774 -0.021385851    1.4463445  0.002533253 -0.021385851    1.4677303     2685 
 5759000 0.0059610236 -0.020869369     1.450045 0.0024967364 -0.020869369    1.4709144     2669 
 5760000 0.0060378714 -0.020657644    1.4553935 0.0025524141 -0.020657644    1.4760511     2694 
 5761000 0.0059965347 -0.016004204    1.4543077 0.0025695244 -0.016004204    1.4703119     2686 
 5762000 0.0061206238  -0.01854613    1.4699995 0.0025924286  -0.01854613    1.4885457     2708 
 5763000 0.0061705911 -0.020613773    1.4718172 0.0026272822 -0.020613773     1.492431     2723 
 5764000 0.0061721361 -0.019540486    1.4754603 0.0026354655 -0.019540486    1.4950008     2719 
 5765000 0.0061590005 -0.023669841    1.4632276 0.0026165865 -0.023669841    1.4868974     2728 
 5766000 0.0060700809 -0.018351944    1.4395965 0.0025588595 -0.018351944    1.4579484     2742 
 5767000  0.006165387  -0.02277238    1.4569879   0.00257592  -0.02277238    1.4797603     2744 
 5768000 0.0059836508 -0.021670254     1.431417  0.002541252 -0.021670254    1.4530872     2712 
 5769000  0.006032229 -0.024785473    1.4449762 0.0025661764 -0.024785473    1.4697616     2703 
 5770000 0.0059997566 -0.024256752    1.4343552 0.0025421498 -0.024256752    1.4586119     2709 
 5771000 0.0060945397 -0.025511121    1.4545047 0.0025723711 -0.025511121    1.4800158     2712 
 5772000 0.0061942306 -0.023369075    1.4692977 0.0026241031 -0.023369075    1.4926668     2733 
 5773000 0.0061249247 -0.022126977    1.4729858 0.0026202483 -0.022126977    1.4951127     2698 
 5774000 0.0061461306 -0.021988702    1.4760795 0.0025837999 -0.021988702    1.4980682     2702 
 5775000 0.0060081224 -0.024778411    1.4472786 0.0025324539 -0.024778411     1.472057     2688 
 5776000 0.0059996808 -0.024081713    1.4345118 0.0025276647 -0.024081713    1.4585935     2709 
 5777000 0.0059760686 -0.025623123    1.4364047 0.0025211373 -0.025623123    1.4620279     2692 
 5778000 0.0059367429 -0.020790666    1.4413931 0.0025628895 -0.020790666    1.4621838     2674 
 5779000 0.0058658113 -0.024436053    1.4240696 0.0024711197 -0.024436053    1.4485057     2667 
 5780000 0.0059546097 -0.024908604    1.4340372 0.0025335526 -0.024908604    1.4589458     2688 
 5781000 0.0059016858 -0.018931274    1.4340748 0.0024910458 -0.018931274    1.4530061     2675 
 5782000 0.0058990016 -0.021313041     1.442524 0.0024955745 -0.021313041     1.463837     2654 
 5783000 0.0059964811 -0.021283362    1.4528572 0.0025554774 -0.021283362    1.4741405     2679 
 5784000 0.0059718268 -0.018319412    1.4443007 0.0025403319 -0.018319412    1.4626201     2689 
 5785000 0.0059518406 -0.018881335    1.4508685 0.0025429215 -0.018881335    1.4697498     2667 
 5786000 0.0060503375 -0.017490664    1.4749033 0.0025750406 -0.017490664    1.4923939     2670 
 5787000 0.0061411203 -0.022261109    1.4807045 0.0025980413 -0.022261109    1.5029656     2691 
 5788000 0.0060524069 -0.020846073    1.4500228 0.0025391717 -0.020846073    1.4708689     2710 
 5789000 0.0060143047  -0.02210797    1.4470912   0.00252175  -0.02210797    1.4691992     2696 
 5790000 0.0059511911 -0.016409284    1.4422416 0.0025364189 -0.016409284    1.4586509     2687 
 5791000 0.0060804099  -0.01822756     1.466019 0.0025933596  -0.01822756    1.4842465     2698 
 5792000 0.0061738191 -0.020978567    1.4821695  0.002620551 -0.020978567    1.5031481     2705 
 5793000 0.0061290536 -0.020605925    1.4683404 0.0026036847 -0.020605925    1.4889463     2711 
 5794000 0.0060285376 -0.020755291     1.453014 0.0025759527 -0.020755291    1.4737693     2694 
 5795000  0.006168072 -0.021647986    1.4674395 0.0025880974 -0.021647986    1.4890875     2728 
 5796000 0.0060970636 -0.019733769    1.4559976 0.0025815668 -0.019733769    1.4757314     2721 
 5797000 0.0059517925 -0.019649985    1.4424131 0.0025001182 -0.019649985     1.462063     2681 
 5798000 0.0060760219 -0.021250658    1.4718864 0.0025745447 -0.021250658    1.4931371     2680 
 5799000 0.0061253984 -0.023266657    1.4631468 0.0025719221 -0.023266657    1.4864135     2714 
 5800000 0.0060412996 -0.019436974    1.4530795 0.0025412355 -0.019436974    1.4725165     2702 
 5801000 0.0059609088 -0.020478817    1.4471081 0.0025264696 -0.020478817    1.4675869     2675 
 5802000 0.0059746613 -0.021667081    1.4498558 0.0025266826 -0.021667081    1.4715229     2674 
 5803000  0.006152132 -0.022838627    1.4645816 0.0025922278 -0.022838627    1.4874202     2724 
 5804000 0.0060444885  -0.02376742    1.4522577 0.0025538053  -0.02376742    1.4760251     2697 
 5805000 0.0061622573 -0.021324876    1.4620088 0.0025940482 -0.021324876    1.4833337     2736 
 5806000  0.006157571 -0.022292136    1.4588308 0.0026116151 -0.022292136     1.481123     2738 
 5807000 0.0061539726 -0.020851874    1.4626565 0.0026243295 -0.020851874    1.4835083     2732 
 5808000  0.006238079   -0.0260912    1.4776923 0.0026276304   -0.0260912    1.5037835     2732 
 5809000 0.0062633702 -0.024020598    1.4847552 0.0026732307 -0.024020598    1.5087758     2734 
 5810000 0.0061995579 -0.023858205     1.471734 0.0026503613 -0.023858205    1.4955922     2730 
 5811000 0.0061044639 -0.028129163    1.4586825  0.002585249 -0.028129163    1.4868117     2704 
 5812000 0.0061274217 -0.021529589    1.4637331  0.002598606 -0.021529589    1.4852627     2717 
 5813000 0.0060772348  -0.02164814    1.4541653 0.0025803438  -0.02164814    1.4758134     2712 
 5814000 0.0060229123 -0.021796612    1.4495053  0.002562036 -0.021796612    1.4713019     2696 
 5815000 0.0061126154 -0.022071636    1.4574239 0.0025680336 -0.022071636    1.4794956     2721 
 5816000 0.0059781916 -0.022586905    1.4432274 0.0025432186 -0.022586905    1.4658143     2686 
 5817000 0.0060869032 -0.024092265    1.4518921 0.0025895346 -0.024092265    1.4759844     2716 
 5818000 0.0061447241 -0.019468638    1.4804772 0.0026393916 -0.019468638    1.4999458     2698 
 5819000 0.0061230203 -0.020115292    1.4690132 0.0026180805 -0.020115292    1.4891285     2708 
 5820000  0.006179267 -0.022511273    1.4692789 0.0026410583 -0.022511273    1.4917901     2728 
 5821000 0.0061601195 -0.023580957    1.4657704 0.0026091548 -0.023580957    1.4893514     2724 
 5822000  0.006094732 -0.021540611    1.4541688 0.0025645742 -0.021540611    1.4757094     2720 
 5823000 0.0061771809 -0.021186823     1.464653 0.0026251242 -0.021186823    1.4858399     2738 
 5824000 0.0061607801 -0.022602003    1.4707466 0.0026022802 -0.022602003    1.4933486     2717 
 5825000 0.0063830288 -0.019405604    1.5064742  0.002713693 -0.019405604    1.5258798     2755 
 5826000 0.0063050618 -0.022933325    1.5042644 0.0026411017 -0.022933325    1.5271977     2719 
 5827000 0.0062619302 -0.020517412     1.494005  0.002655975 -0.020517412    1.5145224     2723 
 5828000 0.0064125716 -0.023918554     1.514608 0.0026967758 -0.023918554    1.5385266     2745 
 5829000   0.00638176 -0.023626187     1.508066 0.0026844076 -0.023626187    1.5316922     2744 
 5830000 0.0063038085  -0.02317225    1.4903623 0.0026778616  -0.02317225    1.5135345     2743 
 5831000 0.0063769311 -0.023969014    1.5026697  0.002713327 -0.023969014    1.5266387     2751 
 5832000 0.0063188122 -0.022433586    1.4963644 0.0026639107 -0.022433586     1.518798     2740 
 5833000 0.0063447422 -0.025758821    1.4998285 0.0026986896 -0.025758821    1.5255873     2739 
 5834000 0.0062815567 -0.021384752    1.4967695 0.0026400744 -0.021384752    1.5181543     2725 
 5835000 0.0063422561 -0.018887287    1.5122514 0.0026984137 -0.018887287    1.5311387     2728 
 5836000 0.0063915479 -0.022418482    1.5314425 0.0026908252 -0.022418482     1.553861     2709 
 5837000  0.006305115   -0.0209555     1.519284 0.0026970286   -0.0209555    1.5402395     2696 
 5838000 0.0063560354 -0.024295635    1.5266571 0.0026985112 -0.024295635    1.5509527     2699 
 5839000 0.0063263489 -0.019935611    1.5300905 0.0026643155 -0.019935611    1.5500261     2688 
 5840000 0.0064441505 -0.020257322    1.5400563  0.002741204 -0.020257322    1.5603136     2720 
 5841000 0.0063065852 -0.019804893    1.5173727 0.0026659679 -0.019804893    1.5371776     2702 
 5842000 0.0063280822 -0.025597879    1.5260074 0.0026939855 -0.025597879    1.5516052     2686 
 5843000 0.0062944209 -0.021299953    1.5021997 0.0026597907 -0.021299953    1.5234997     2721 
 5844000  0.006271315 -0.020843845    1.5037872 0.0026598004 -0.020843845     1.524631     2709 
 5845000 0.0062577722  -0.02386277    1.4963535 0.0026390753  -0.02386277    1.5202162     2711 
 5846000 0.0062020975 -0.020775939    1.4864711 0.0026343935 -0.020775939     1.507247     2710 
 5847000 0.0062505577 -0.026976288    1.4976736 0.0026597194 -0.026976288    1.5246499     2700 
 5848000 0.0063137366 -0.019039295    1.5113853 0.0026767339 -0.019039295    1.5304246     2717 
 5849000 0.0062012066 -0.024921129    1.4804429  0.002611919 -0.024921129     1.505364     2713 
 5850000 0.0061598827 -0.024075878    1.4767888 0.0026330853 -0.024075878    1.5008647     2703 
 5851000 0.0061438808 -0.026395938    1.4623084 0.0025933951 -0.026395938    1.4887044     2718 
 5852000 0.0062498726 -0.027773487    1.4717178 0.0026294301 -0.027773487    1.4994913     2745 
 5853000 0.0062806843 -0.023603976    1.4860296 0.0026622894 -0.023603976    1.5096335     2740 
 5854000 0.0062564288 -0.024016176    1.4875104  0.002632905 -0.024016176    1.5115266     2726 
 5855000 0.0062322059 -0.026048475    1.4578519 0.0026264764 -0.026048475    1.4839004     2766 
 5856000 0.0062722056 -0.023440862    1.4814087 0.0026651145 -0.023440862    1.5048495     2745 
 5857000 0.0062680988 -0.022053366    1.4812632 0.0026234897 -0.022053366    1.5033165     2746 
 5858000 0.0061524276  -0.02383117     1.465848 0.0026130882  -0.02383117    1.4896792     2720 
 5859000 0.0062121679 -0.023614971    1.4662873 0.0026203149 -0.023614971    1.4899023     2746 
 5860000 0.0062164805 -0.022681814    1.4617677 0.0026390189 -0.022681814    1.4844496     2758 
 5861000 0.0061575963 -0.020104023    1.4465619 0.0026212571 -0.020104023    1.4666659     2765 
 5862000 0.0061716051  -0.02226933    1.4552143 0.0026061739  -0.02226933    1.4774836     2751 
 5863000 0.0063644173 -0.022074547     1.461657 0.0026920147 -0.022074547    1.4837315     2825 
 5864000 0.0063449528 -0.025213762     1.463996  0.002662533 -0.025213762    1.4892097     2806 
 5865000 0.0062506622 -0.024965049    1.4558348 0.0026428428 -0.024965049    1.4807999     2780 
 5866000 0.0063118227 -0.020450099     1.466814 0.0026645954 -0.020450099    1.4872641     2795 
 5867000 0.0062908544 -0.025207218    1.4770023 0.0026562287 -0.025207218    1.5022095     2758 
 5868000 0.0062799253 -0.025095647    1.4685468 0.0026414529 -0.025095647    1.4936425     2769 
 5869000 0.0063709908 -0.024719541    1.4889424 0.0026847551 -0.024719541    1.5136619     2772 
 5870000 0.0063763394 -0.019318388    1.4853012 0.0027062587 -0.019318388    1.5046196     2791 
 5871000 0.0063649838 -0.018849599    1.4830905 0.0026896756 -0.018849599    1.5019401     2791 
 5872000 0.0063760172 -0.019314995    1.4857679 0.0026792351 -0.019314995    1.5050829     2790 
 5873000 0.0064993874  -0.02150792    1.5050369 0.0027986901  -0.02150792    1.5265448     2804 
 5874000  0.006485295 -0.026028311     1.498838 0.0027402958 -0.026028311    1.5248663     2801 
 5875000 0.0064740526 -0.023469967    1.4895699 0.0027416367 -0.023469967    1.5130399     2818 
 5876000 0.0063841584 -0.022185077    1.4661487 0.0026840303 -0.022185077    1.4883338     2825 
 5877000 0.0064618527 -0.022623498      1.48329 0.0027248078 -0.022623498    1.5059135     2826 
 5878000 0.0063202021 -0.020689379    1.4616546 0.0026715297 -0.020689379     1.482344     2808 
 5879000 0.0062830708 -0.022374173    1.4661034 0.0026635478 -0.022374173    1.4884775     2780 
 5880000 0.0063405896 -0.023783765    1.4596439 0.0026986051 -0.023783765    1.4834277     2815 
 5881000 0.0063061739 -0.021684815    1.4521204 0.0026644723 -0.021684815    1.4738052     2818 
 5882000 0.0062695629 -0.026741749    1.4484535 0.0026686976 -0.026741749    1.4751952     2799 
 5883000 0.0063941968 -0.024665833    1.4847084 0.0026971934 -0.024665833    1.5093742     2790 
 5884000 0.0063079848 -0.025109346    1.4795541 0.0026421386 -0.025109346    1.5046634     2761 
 5885000 0.0062934122 -0.023271626    1.4617797 0.0026660645 -0.023271626    1.4850514     2791 
 5886000 0.0062570059 -0.020204236    1.4504601 0.0026645278 -0.020204236    1.4706643     2802 
 5887000 0.0064106252 -0.024170892    1.4767085 0.0027396432 -0.024170892    1.5008794     2813 
 5888000 0.0063964476 -0.023551762    1.4713512 0.0027267455 -0.023551762    1.4949029     2818 
 5889000 0.0063724552 -0.025423679    1.4755904   0.00270967 -0.025423679     1.501014     2796 
 5890000 0.0063476021 -0.023372995    1.4723219 0.0026913159 -0.023372995    1.4956949     2795 
 5891000 0.0064144374 -0.021945879    1.4681721  0.002729103 -0.021945879    1.4901179     2835 
 5892000 0.0063902811 -0.024822913    1.4549855 0.0026892155 -0.024822913    1.4798085     2844 
 5893000 0.0065163077 -0.022385273    1.4802671 0.0027923307 -0.022385273    1.5026523     2856 
 5894000 0.0064390466 -0.024126167    1.4727647 0.0027308102 -0.024126167    1.4968908     2833 
 5895000 0.0063629149  -0.02566651    1.4651027 0.0026619382  -0.02566651    1.4907692     2811 
 5896000 0.0064621183 -0.022453854    1.4808617 0.0027311067 -0.022453854    1.5033156     2831 
 5897000 0.0065130205 -0.026572015    1.4732218 0.0027501065 -0.026572015    1.4997938     2860 
 5898000 0.0065254633 -0.022430998    1.4913432 0.0027509617 -0.022430998    1.5137742     2839 
 5899000 0.0064989166  -0.02368511    1.4828694  0.002737039  -0.02368511    1.5065545     2841 
 5900000 0.0065114857 -0.020526249    1.4841753 0.0027664523 -0.020526249    1.5047015     2850 
 5901000 0.0063822961 -0.029520668    1.4636645 0.0026913098 -0.029520668    1.4931852     2815 
 5902000 0.0064711937 -0.024449363    1.4916885 0.0027628115 -0.024449363    1.5161378     2811 
 5903000  0.006548266 -0.026614717    1.5005179 0.0027491212 -0.026614717    1.5271326     2824 
 5904000 0.0064563197 -0.022025276    1.4847315  0.002751723 -0.022025276    1.5067568     2822 
 5905000 0.0065423372 -0.024340841    1.4960254 0.0027531922 -0.024340841    1.5203662     2834 
 5906000 0.0065203496 -0.021993866    1.4932627 0.0027352717 -0.021993866    1.5152565     2834 
 5907000 0.0064765785  -0.02417834    1.4921423 0.0027225471  -0.02417834    1.5163206     2813 
 5908000 0.0063115119 -0.019478816    1.4730521 0.0026945463 -0.019478816    1.4925309     2785 
 5909000 0.0063331731 -0.023439307    1.4672556 0.0027196365 -0.023439307    1.4906949     2798 
 5910000 0.0064525447 -0.022574461    1.4779839 0.0027080643 -0.022574461    1.5005584     2832 
 5911000 0.0064217428 -0.025088246    1.4667268 0.0027036668 -0.025088246     1.491815     2835 
 5912000 0.0062742934 -0.025547029    1.4518169 0.0026373677 -0.025547029    1.4773639     2797 
 5913000  0.006321546 -0.023372897    1.4677829 0.0026808592 -0.023372897    1.4911558     2792 
 5914000 0.0062738062 -0.021837771    1.4564685 0.0026766263 -0.021837771    1.4783063     2795 
 5915000 0.0062286007 -0.023800786    1.4549642 0.0026592644 -0.023800786     1.478765     2774 
 5916000  0.006312922 -0.020412475    1.4832502 0.0026431515 -0.020412475    1.5036627     2765 
 5917000 0.0065320162  -0.02497753    1.4951357 0.0027354049  -0.02497753    1.5201133     2830 
 5918000 0.0063315592 -0.022657551    1.4740767 0.0026685964 -0.022657551    1.4967342     2786 
 5919000 0.0064051207 -0.024650987    1.4765406 0.0027179219 -0.024650987    1.5011916     2810 
 5920000 0.0064256733 -0.023937749    1.4847554 0.0027572003 -0.023937749    1.5086931     2805 
 5921000 0.0063227592  -0.02158715    1.4730668 0.0026679227  -0.02158715     1.494654     2786 
 5922000 0.0063320327  -0.02167882    1.4827272 0.0026824988  -0.02167882     1.504406     2772 
 5923000 0.0063806955 -0.022622702     1.479795 0.0027192457 -0.022622702    1.5024177     2797 
 5924000 0.0062907363 -0.026026561    1.4605239 0.0026476686 -0.026026561    1.4865504     2787 
 5925000 0.0062595358 -0.024127307    1.4555811 0.0026590696 -0.024127307    1.4797084     2786 
 5926000 0.0062865541 -0.022445418    1.4620514 0.0026642473 -0.022445418    1.4844968     2789 
 5927000 0.0063852404 -0.023271811    1.4658413 0.0026916925 -0.023271811    1.4891131     2824 
 5928000 0.0064362123 -0.022987397    1.4941297 0.0027006359 -0.022987397    1.5171171     2794 
 5929000 0.0062249449 -0.019663196    1.4630444 0.0026368764 -0.019663196    1.4827076     2765 
 5930000 0.0062678857 -0.021653741    1.4691252 0.0026612265 -0.021653741    1.4907789     2769 
 5931000 0.0061979947 -0.023080071    1.4623411 0.0026096438 -0.023080071    1.4854211     2748 
 5932000 0.0061340627 -0.022876455    1.4429553   0.00262117 -0.022876455    1.4658318     2756 
 5933000 0.0062906006 -0.023083306    1.4698632 0.0026468681 -0.023083306    1.4929465     2775 
 5934000 0.0061799153 -0.018671565    1.4586535 0.0026520591 -0.018671565     1.477325     2755 
 5935000 0.0062073431 -0.025159929    1.4528206  0.002643291 -0.025159929    1.4779805     2766 
 5936000 0.0062750157 -0.022642686    1.4644615 0.0026683679 -0.022642686    1.4871042     2779 
 5937000 0.0062309055 -0.022543297    1.4734874 0.0026261907 -0.022543297    1.4960307     2743 
 5938000 0.0062612667 -0.020431768     1.473629 0.0026465932 -0.020431768    1.4940607     2760 
 5939000 0.0061468968 -0.023073181    1.4685572 0.0025844436 -0.023073181    1.4916303     2714 
 5940000 0.0062502723 -0.022243084    1.4751621 0.0026360735 -0.022243084    1.4974052     2749 
 5941000 0.0063200741 -0.021556427    1.4964369  0.002667143 -0.021556427    1.5179933     2742 
 5942000  0.006375845 -0.023466982    1.4875326 0.0026888402 -0.023466982    1.5109996     2779 
 5943000 0.0063572454 -0.021802482    1.4815434 0.0026704717 -0.021802482    1.5033459     2785 
 5944000 0.0062070904 -0.020260309    1.4722288 0.0026453521 -0.020260309    1.4924891     2739 
 5945000 0.0062589474 -0.024564712    1.4864617 0.0026756355 -0.024564712    1.5110264     2728 
 5946000 0.0063173507 -0.021814982    1.4905601 0.0026664373 -0.021814982    1.5123751     2751 
 5947000 0.0064017918 -0.021618448    1.4960763 0.0027407989 -0.021618448    1.5176948     2778 
 5948000 0.0063320081  -0.02020421    1.4907368 0.0027026218  -0.02020421     1.510941     2760 
 5949000 0.0063607393 -0.024407181    1.4900973 0.0026738209 -0.024407181    1.5145044     2766 
 5950000 0.0062332487 -0.017252848    1.4674326 0.0026546267 -0.017252848    1.4846855     2765 
 5951000 0.0061688836 -0.023343879    1.4686741 0.0025790042 -0.023343879     1.492018     2723 
 5952000 0.0062317676   -0.0226641    1.4768536 0.0026506598   -0.0226641    1.4995177     2737 
 5953000 0.0062527145 -0.016827948    1.4778999 0.0026566185 -0.016827948    1.4947279     2755 
 5954000 0.0061808546 -0.021230563    1.4638658 0.0026456233 -0.021230563    1.4850963     2741 
 5955000 0.0061211807 -0.018273023    1.4487388 0.0026348953 -0.018273023    1.4670118     2748 
 5956000 0.0061064121 -0.019120816    1.4513077 0.0025771038 -0.019120816    1.4704285     2735 
 5957000 0.0061170751 -0.021382257    1.4499999 0.0026195014 -0.021382257    1.4713822     2738 
 5958000 0.0060675005 -0.020407161    1.4411858 0.0026093005 -0.020407161     1.461593     2734 
 5959000  0.006024122 -0.018042727    1.4394982 0.0025753203 -0.018042727     1.457541     2722 
 5960000 0.0061054641 -0.023185738    1.4405921 0.0026033784 -0.023185738    1.4637778     2747 
 5961000 0.0060791036 -0.022128921    1.4385193 0.0026006272 -0.022128921    1.4606482     2741 
 5962000 0.0062189511 -0.023966689    1.4535726 0.0026322661 -0.023966689    1.4775393     2772 
 5963000 0.0061658852 -0.022111903    1.4497222 0.0026244269 -0.022111903    1.4718341     2759 
 5964000 0.0062233447 -0.023175952    1.4683206 0.0026677152 -0.023175952    1.4914966     2748 
 5965000 0.0061303379 -0.021158542    1.4528755 0.0026176538 -0.021158542     1.474034     2739 
 5966000 0.0063425207 -0.017882762    1.4841383 0.0027424156 -0.017882762    1.5020211     2781 
 5967000 0.0063158905 -0.021629444    1.4871055 0.0026756889 -0.021629444     1.508735     2757 
 5968000 0.0062773371  -0.02366806    1.4693588   0.00265231  -0.02366806    1.4930269     2769 
 5969000 0.0061760654 -0.021586532    1.4688843 0.0026473006 -0.021586532    1.4904708     2729 
 5970000 0.0061827586 -0.021117416    1.4797683 0.0026189221 -0.021117416    1.5008857     2713 
 5971000 0.0062095561 -0.024577523    1.4625321 0.0026172486 -0.024577523    1.4871097     2750 
 5972000 0.0063467038 -0.025014952    1.4943873 0.0026690191 -0.025014952    1.5194023     2751 
 5973000 0.0061589507 -0.024558942    1.4568959 0.0025917442 -0.024558942    1.4814548     2738 
 5974000 0.0060207497 -0.021384929    1.4439534 0.0025419222 -0.021384929    1.4653383     2706 
 5975000 0.0060997963 -0.022956785    1.4448053 0.0025673284 -0.022956785    1.4677621     2737 
 5976000 0.0061496493 -0.023641342    1.4659127 0.0025926455 -0.023641342    1.4895541     2719 
 5977000  0.006170652 -0.022842695    1.4630548 0.0026050408 -0.022842695    1.4858975     2735 
 5978000 0.0060365836 -0.020020118    1.4502586 0.0025465725 -0.020020118    1.4702787     2704 
 5979000 0.0060125478 -0.025768836    1.4359528  0.002527866 -0.025768836    1.4617216     2709 
 5980000 0.0060051972  -0.02291574    1.4446029 0.0025608757  -0.02291574    1.4675187     2695 
 5981000 0.0060229789 -0.022947576    1.4364614 0.0025667049 -0.022947576     1.459409     2718 
 5982000 0.0060026645 -0.021651337    1.4463378 0.0025699044 -0.021651337    1.4679892     2693 
 5983000 0.0059779657 -0.023567832    1.4526333 0.0025457802 -0.023567832    1.4762011     2667 
 5984000 0.0059316982 -0.020566275    1.4414686 0.0024870706 -0.020566275    1.4620348     2672 
 5985000 0.0058930777 -0.018018631    1.4410498 0.0024988424 -0.018018631    1.4590684     2660 
 5986000 0.0060195339 -0.019637382    1.4464887  0.002563584 -0.019637382    1.4661261     2704 
 5987000  0.005985296 -0.018180187    1.4439326 0.0025460603 -0.018180187    1.4621128     2696 
 5988000 0.0060811208 -0.021155543    1.4682328  0.002567953 -0.021155543    1.4893884     2689 
 5989000 0.0061500468 -0.025716767    1.4827969  0.002637256 -0.025716767    1.5085137     2685 
 5990000 0.0060380828 -0.020348045    1.4579497 0.0025518578 -0.020348045    1.4782978     2690 
 5991000   0.00596565 -0.018619935    1.4397755  0.002527456 -0.018619935    1.4583955     2694 
 5992000 0.0061141033 -0.021677849    1.4658313 0.0026022012 -0.021677849    1.4875091     2707 
 5993000 0.0059607226 -0.021506723    1.4487825 0.0025504706 -0.021506723    1.4702893     2670 
 5994000 0.0060939054 -0.021189801    1.4657999 0.0026137411 -0.021189801    1.4869897     2699 
 5995000 0.0059396637 -0.022235064    1.4445078 0.0025310512 -0.022235064    1.4667428     2667 
 5996000 0.0059928889 -0.023532048    1.4486264 0.0025389188 -0.023532048    1.4721584     2681 
 5997000 0.0060941793 -0.022993218    1.4695934 0.0025994734 -0.022993218    1.4925867     2689 
 5998000 0.0059826037 -0.024440375    1.4567938 0.0025285424 -0.024440375    1.4812342     2660 
 5999000 0.0059943907 -0.022776931    1.4681014  0.002533653 -0.022776931    1.4908783     2648 
 6000000 0.0060381875 -0.022776019    1.4682963 0.0025486899 -0.022776019    1.4910723     2667 
 6001000 0.0061032512 -0.022180199    1.4827019 0.0025996185 -0.022180199    1.5048821     2671 
 6002000 0.0059613556 -0.019729399    1.4629327  0.002518428 -0.019729399    1.4826621     2648 
 6003000 0.0060046263 -0.021141774    1.4722823 0.0025379553 -0.021141774     1.493424     2648 
 6004000 0.0059276235 -0.020534926    1.4615735  0.002538784 -0.020534926    1.4821084     2634 
 6005000 0.0058804746 -0.023734589    1.4561362  0.002483364 -0.023734589    1.4798708     2617 
 6006000 0.0058517946 -0.021763032    1.4542743 0.0024777733 -0.021763032    1.4760373     2611 
 6007000 0.0058101085 -0.020293507    1.4469148 0.0024401302 -0.020293507    1.4672083     2608 
 6008000 0.0058505071 -0.020076157    1.4505672 0.0025012421 -0.020076157    1.4706433     2620 
 6009000 0.0058259739 -0.018478121    1.4349038 0.0024664736 -0.018478121    1.4533819     2640 
 6010000 0.0058850706 -0.021894464    1.4591329 0.0024913004 -0.021894464    1.4810274     2617 
 6011000  0.005881708 -0.021240586     1.462342 0.0025083219 -0.021240586    1.4835826     2611 
 6012000 0.0058678055 -0.022380861    1.4425464 0.0024629372 -0.022380861    1.4649272     2638 
 6013000 0.0058498227 -0.019824471    1.4400599 0.0024710681 -0.019824471    1.4598843     2639 
 6014000 0.0057420867 -0.020776506    1.4365186 0.0024410792 -0.020776506    1.4572951     2595 
 6015000 0.0058357041 -0.019223774    1.4382417 0.0024613547 -0.019223774    1.4574654     2637 
 6016000 0.0058799174 -0.022167653    1.4480126 0.0024724778 -0.022167653    1.4701803     2634 
 6017000 0.0058232783 -0.018672885    1.4609386  0.002515546 -0.018672885    1.4796114     2592 
 6018000 0.0058084879 -0.023163017     1.435248 0.0024541691 -0.023163017     1.458411     2623 
 6019000 0.0058004643 -0.022251117    1.4521324 0.0024467134 -0.022251117    1.4743836     2591 
 6020000  0.005782917 -0.018238096    1.4398673 0.0024532915 -0.018238096    1.4581054     2612 
 6021000 0.0058036077 -0.023640297    1.4481341 0.0024432193 -0.023640297    1.4717744     2597 
 6022000 0.0058200472 -0.023523688    1.4558375 0.0024418423 -0.023523688    1.4793612     2591 
 6023000 0.0058958063 -0.022966039    1.4551151 0.0024704043 -0.022966039    1.4780811     2627 
 6024000 0.0059373023 -0.023223037    1.4401931 0.0025318801 -0.023223037    1.4634161     2672 
 6025000 0.0059862107 -0.025589888    1.4598881 0.0025554356 -0.025589888     1.485478     2654 
 6026000  0.006009268 -0.020944745    1.4652151 0.0025612822 -0.020944745    1.4861599     2663 
 6027000 0.0059624086 -0.020439537    1.4524722 0.0025549587 -0.020439537    1.4729117     2666 
 6028000  0.005942501 -0.022029639    1.4621083 0.0025369641 -0.022029639    1.4841379     2637 
 6029000 0.0060733406 -0.021556783    1.4781963 0.0025817142 -0.021556783    1.4997531     2667 
 6030000  0.005877258 -0.019701853    1.4442555 0.0024849514 -0.019701853    1.4639574     2644 
 6031000 0.0059205537 -0.021653684    1.4547634 0.0025131148 -0.021653684    1.4764171     2641 
 6032000  0.005917519 -0.019481161    1.4674394 0.0025115068 -0.019481161    1.4869206     2621 
 6033000 0.0059283476   -0.0203664    1.4574347 0.0024961121   -0.0203664    1.4778011     2642 
 6034000 0.0057592315 -0.018699012    1.4395756 0.0024294575 -0.018699012    1.4582746     2601 
 6035000 0.0058819053 -0.022907612    1.4584553 0.0024797034 -0.022907612    1.4813629     2615 
 6036000 0.0057850987  -0.01662954    1.4595457  0.002473843  -0.01662954    1.4761752     2581 
 6037000 0.0058800095 -0.020424061    1.4587644 0.0024822501 -0.020424061    1.4791885     2618 
 6038000  0.005688971 -0.022059878    1.4324042 0.0024281031 -0.022059878     1.454464     2576 
 6039000 0.0058144446  -0.02029303    1.4329651 0.0024737247  -0.02029303    1.4532581     2635 
 6040000 0.0059301654 -0.021642148    1.4482666 0.0025218499 -0.021642148    1.4699088     2657 
 6041000 0.0058485393 -0.020264944    1.4459663 0.0024695645 -0.020264944    1.4662313     2627 
 6042000 0.0057737679 -0.019216616    1.4371395 0.0024272117 -0.019216616    1.4563561     2611 
 6043000 0.0057434547 -0.017012498    1.4256198 0.0024254082 -0.017012498    1.4426323     2622 
 6044000 0.0058346678  -0.01998917    1.4306163 0.0024694844  -0.01998917    1.4506055     2649 
 6045000 0.0057322174  -0.02146273     1.427743 0.0023987962  -0.02146273    1.4492058     2605 
 6046000 0.0056293857 -0.018142389    1.4244479 0.0023710936 -0.018142389    1.4425903     2570 
 6047000 0.0057114721 -0.020638493    1.4344944 0.0024026631 -0.020638493    1.4551328     2585 
 6048000 0.0057398958 -0.016350083    1.4432013 0.0024265447 -0.016350083    1.4595513     2590 
 6049000 0.0057149115 -0.016821967    1.4252407 0.0024144377 -0.016821967    1.4420627     2610 
 6050000 0.0056659251 -0.022043954    1.4321734 0.0023684891 -0.022043954    1.4542173     2566 
 6051000 0.0057825737  -0.02015273    1.4345246 0.0024397012  -0.02015273    1.4546773     2618 
 6052000 0.0057971889 -0.013944782    1.4339015 0.0024671665 -0.013944782    1.4478463     2637 
 6053000  0.005829461 -0.019467761    1.4314864 0.0024678113 -0.019467761    1.4509542     2646 
 6054000  0.005842979 -0.017016024    1.4467069 0.0024774453 -0.017016024    1.4637229     2629 
 6055000 0.0060210819 -0.017057082    1.4912823  0.002559656 -0.017057082    1.5083394     2629 
 6056000 0.0059287951 -0.018355001    1.4679964 0.0025386747 -0.018355001    1.4863514     2627 
 6057000 0.0058962433 -0.018677119    1.4527919  0.002492562 -0.018677119    1.4714691     2639 
 6058000 0.0059252881 -0.021017981     1.451006 0.0025156089 -0.021017981     1.472024     2651 
 6059000 0.0059003418 -0.020621384    1.4441001 0.0024991143 -0.020621384    1.4647215     2653 
 6060000 0.0059380416 -0.019577061     1.456729 0.0025447894 -0.019577061    1.4763061     2649 
 6061000 0.0059197254 -0.018458753    1.4583109 0.0025283717 -0.018458753    1.4767697     2640 
 6062000 0.0059913921 -0.018776643    1.4557641 0.0025421736 -0.018776643    1.4745407     2676 
 6063000 0.0057915977 -0.025178712    1.4379162 0.0024291553 -0.025178712    1.4630949     2607 
 6064000  0.005924024 -0.022405045    1.4655824 0.0025151515 -0.022405045    1.4879874     2622 
 6065000 0.0059405312 -0.021054222    1.4745017 0.0025355861 -0.021054222     1.495556     2616 
 6066000 0.0060267681 -0.020568936    1.4688004 0.0025612304 -0.020568936    1.4893693     2665 
 6067000 0.0059690543 -0.018592025    1.4693563 0.0025265023 -0.018592025    1.4879483     2642 
 6068000 0.0059545912 -0.023342159    1.4570785 0.0025094234 -0.023342159    1.4804206     2649 
 6069000 0.0059290301  -0.02281957    1.4602036    0.0025048  -0.02281957    1.4830231     2633 
 6070000 0.0060095769 -0.020614136    1.4751709   0.00253982 -0.020614136    1.4957851     2646 
 6071000 0.0059789164 -0.020557551    1.4647893 0.0025279546 -0.020557551    1.4853469     2651 
 6072000 0.0058177777 -0.018261489    1.4391483 0.0024920686 -0.018261489    1.4574097     2629 
 6073000 0.0059038972 -0.019874633    1.4557412  0.002497247 -0.019874633    1.4756158     2635 
 6074000 0.0059550435  -0.02017605    1.4687883 0.0025303572  -0.02017605    1.4889644     2634 
 6075000 0.0060080619 -0.023541804    1.4729973 0.0025411195 -0.023541804    1.4965391     2644 
 6076000   0.00596098 -0.021600218    1.4671529  0.002536492 -0.021600218    1.4887531     2637 
 6077000 0.0059052538 -0.019870584    1.4516168  0.002518681 -0.019870584    1.4714874     2643 
 6078000 0.0059137593  -0.02057524    1.4519173 0.0024893828  -0.02057524    1.4724925     2645 
 6079000  0.005996191 -0.023684017    1.4559081 0.0025290117 -0.023684017    1.4795921     2669 
 6080000 0.0057923527 -0.021513694    1.4202042 0.0024336258 -0.021513694    1.4417179     2646 
 6081000 0.0058390504 -0.021086288    1.4267828 0.0024875078 -0.021086288    1.4478691     2656 
 6082000 0.0058451222 -0.019364058    1.4360382 0.0024572784 -0.019364058    1.4554023     2645 
 6083000 0.0058374035 -0.020631017    1.4251966 0.0024721309 -0.020631017    1.4458276     2659 
 6084000 0.0057974548 -0.018783756    1.4166094  0.002426941 -0.018783756    1.4353931     2660 
 6085000 0.0058720106 -0.021495133     1.425828 0.0024756673 -0.021495133    1.4473232     2672 
 6086000 0.0059706498 -0.023768222     1.463452 0.0025193167 -0.023768222    1.4872202     2644 
 6087000 0.0059441255 -0.022633642    1.4485207 0.0025120322 -0.022633642    1.4711543     2661 
 6088000 0.0059982795  -0.02165364    1.4507306 0.0025156417  -0.02165364    1.4723842     2683 
 6089000 0.0060946156 -0.018762395     1.477827 0.0025864372 -0.018762395    1.4965894     2682 
 6090000 0.0060509464 -0.018379753    1.4697057 0.0025667859 -0.018379753    1.4880854     2678 
 6091000 0.0061215007 -0.022035825    1.4862167 0.0025875724 -0.022035825    1.5082526     2673 
 6092000 0.0061391016 -0.022927585    1.4657141  0.002588765 -0.022927585    1.4886417     2716 
 6093000 0.0062526942 -0.019865003    1.4935352 0.0026837147 -0.019865003    1.5134002     2721 
 6094000 0.0061319673 -0.021760821    1.4800809 0.0025930993 -0.021760821    1.5018417     2689 
 6095000 0.0061030129 -0.019595034    1.4685143 0.0025776446 -0.019595034    1.4881093     2701 
 6096000 0.0061399546 -0.023973441    1.4534517 0.0025657219 -0.023973441    1.4774252     2737 
 6097000 0.0059693602 -0.020456545    1.4486619 0.0025415083 -0.020456545    1.4691184     2676 
 6098000 0.0060771826 -0.022506774    1.4500362 0.0025662509 -0.022506774    1.4725429     2718 
 6099000 0.0059854913 -0.022384495    1.4419486 0.0025291624 -0.022384495    1.4643331     2692 
 6100000 0.0059951175 -0.019247519    1.4573136  0.002530168 -0.019247519    1.4765611     2674 
 6101000 0.0060709596 -0.018603127    1.4605953 0.0025795325 -0.018603127    1.4791984     2703 
 6102000 0.0061675091 -0.020212791    1.4595176 0.0026118832 -0.020212791    1.4797304     2745 
 6103000 0.0061211243 -0.018568978    1.4822915 0.0025946192 -0.018568978    1.5008605     2686 
 6104000 0.0061017643 -0.021363858    1.4708608 0.0026058349 -0.021363858    1.4922246     2693 
 6105000 0.0059574522 -0.018314468    1.4478733   0.00252791 -0.018314468    1.4661877     2676 
 6106000 0.0061455524 -0.021909161    1.4644659 0.0026119339 -0.021909161    1.4863751     2723 
 6107000 0.0061205403 -0.023460381    1.4750253 0.0026042738 -0.023460381    1.4984857     2690 
 6108000 0.0060839812 -0.020136892    1.4649814 0.0025985389 -0.020136892    1.4851183     2698 
 6109000  0.006121232 -0.024121666    1.4640224  0.002584754 -0.024121666     1.488144     2709 
 6110000 0.0061323259 -0.018830855    1.4847762 0.0026026129 -0.018830855     1.503607     2686 
 6111000 0.0060792928 -0.015634153    1.4705431 0.0025697415 -0.015634153    1.4861772     2694 
 6112000   0.00628306 -0.021398342    1.4871545 0.0026811109 -0.021398342    1.5085529     2743 
 6113000 0.0061680502 -0.020893175    1.4660088 0.0025973655 -0.020893175     1.486902     2732 
 6114000 0.0060798396 -0.020795004     1.467726 0.0025941122 -0.020795004     1.488521     2690 
 6115000  0.006184856 -0.023094098    1.4855297 0.0026260649 -0.023094098    1.5086238     2700 
 6116000 0.0062147419 -0.019057993    1.4834996 0.0026414905 -0.019057993    1.5025576     2724 
 6117000 0.0062168462 -0.022943876    1.4828865 0.0026429344 -0.022943876    1.5058304     2719 
 6118000 0.0061690343 -0.020035217    1.4841722 0.0026191601 -0.020035217    1.5042075     2701 
 6119000 0.0062406064 -0.019692047    1.5042238 0.0026427876 -0.019692047    1.5239158     2697 
 6120000 0.0062979002 -0.020902186    1.5164344 0.0026718337 -0.020902186    1.5373366     2698 
 6121000 0.0062178241 -0.021118665      1.51144 0.0026519948 -0.021118665    1.5325587     2672 
 6122000 0.0062279252 -0.021476072    1.5176043 0.0026516187 -0.021476072    1.5390804     2665 
 6123000 0.0062353511 -0.022426286    1.5133029 0.0026636948 -0.022426286    1.5357292     2674 
 6124000 0.0062785144 -0.019022069    1.5325602 0.0026692902 -0.019022069    1.5515823     2665 
 6125000 0.0062640482 -0.021013942    1.5091936 0.0027065298 -0.021013942    1.5302075     2696 
 6126000 0.0062314528 -0.019396667    1.5102241 0.0026886503 -0.019396667    1.5296207     2683 
 6127000 0.0062958691 -0.018692731    1.5210015 0.0026683158 -0.018692731    1.5396942     2693 
 6128000 0.0064155468 -0.020094392    1.5276034 0.0027149826 -0.020094392    1.5476978     2730 
 6129000 0.0061319707 -0.021607151    1.4903564 0.0026038363 -0.021607151    1.5119635     2671 
 6130000 0.0060858799 -0.019822609    1.4723962 0.0025791394 -0.019822609    1.4922188     2686 
 6131000  0.006145843 -0.023135765    1.4798686 0.0026019753 -0.023135765    1.5030043     2693 
 6132000 0.0061361985 -0.020030528    1.4800582 0.0026126555 -0.020030528    1.5000887     2694 
 6133000 0.0061499944 -0.024296686    1.4819602 0.0026096137 -0.024296686    1.5062569     2689 
 6134000 0.0062014531 -0.026433046    1.4918625 0.0026110766 -0.026433046    1.5182955     2690 
 6135000 0.0061010303 -0.024494341    1.4736703 0.0025802132 -0.024494341    1.4981646     2682 
 6136000 0.0061185195 -0.024935236    1.4888122 0.0025823373 -0.024935236    1.5137475     2662 
 6137000 0.0061795303 -0.021032956     1.491333 0.0026167777 -0.021032956     1.512366     2691 
 6138000 0.0061812892 -0.019891229    1.4861891 0.0026328938 -0.019891229    1.5060804     2703 
 6139000 0.0061563218 -0.021952185    1.4791555 0.0026389054 -0.021952185    1.5011077     2701 
 6140000 0.0062253557 -0.018822834    1.4940764 0.0026411484 -0.018822834    1.5128993     2710 
 6141000 0.0062081466 -0.020809387    1.4957423 0.0026479802 -0.020809387    1.5165517     2696 
 6142000 0.0062677399 -0.021567408    1.5021944  0.002687387 -0.021567408    1.5237618     2709 
 6143000 0.0060570502 -0.022357609    1.4594822 0.0025967603 -0.022357609    1.4818398     2692 
 6144000 0.0061714137 -0.023916846    1.4797573  0.002619439 -0.023916846    1.5036742     2703 
 6145000 0.0062273636 -0.025038721    1.4833391 0.0026148864 -0.025038721    1.5083779     2719 
 6146000 0.0061948655 -0.021102228    1.4662753 0.0026188462 -0.021102228    1.4873775     2743 
 6147000 0.0062736502 -0.020975089    1.4814843 0.0026659583 -0.020975089    1.5024594     2750 
 6148000 0.0062885632 -0.023283336    1.4832954 0.0026503084 -0.023283336    1.5065787     2749 
 6149000 0.0061977376 -0.018051874    1.4721884 0.0026478645 -0.018051874    1.4902402     2739 
 6150000  0.006140237 -0.022511679    1.4598559  0.002624834 -0.022511679    1.4823675     2728 
 6151000 0.0061106116 -0.017416761    1.4742021 0.0025831688 -0.017416761    1.4916189     2698 
 6152000 0.0062902813 -0.023287019    1.4914173 0.0026683512 -0.023287019    1.5147043     2735 
 6153000 0.0063129712 -0.018732412    1.4865752 0.0027046494 -0.018732412    1.5053076     2762 
 6154000  0.006341394 -0.018046579    1.4869548 0.0026731051 -0.018046579    1.5050013     2775 
 6155000 0.0063008099 -0.018322221    1.5016962 0.0026815838 -0.018322221    1.5200185     2730 
 6156000 0.0062878022 -0.020580347    1.5001995 0.0026616487 -0.020580347    1.5207799     2723 
 6157000 0.0061562918 -0.020214267    1.4552123  0.002619349 -0.020214267    1.4754266     2748 
 6158000 0.0061656684 -0.023641285    1.4524211 0.0026403291 -0.023641285    1.4760624     2751 
 6159000  0.006186366 -0.020820538    1.4677724 0.0026804812 -0.020820538    1.4885929     2737 
 6160000 0.0062743858 -0.020520425    1.4837561 0.0026599826 -0.020520425    1.5042766     2747 
 6161000 0.0063416849 -0.023184154    1.4770207 0.0026654428 -0.023184154    1.5002048     2784 
 6162000 0.0062829294 -0.021159856    1.4731971 0.0026638693 -0.021159856     1.494357     2769 
 6163000 0.0063179606 -0.017503969    1.4862711 0.0026590043 -0.017503969    1.5037751     2767 
 6164000 0.0063935647 -0.018758288    1.4975319 0.0027314423 -0.018758288    1.5162902     2777 
 6165000  0.006422447 -0.018725393    1.5027708 0.0027276272 -0.018725393    1.5214962     2780 
 6166000 0.0064268766 -0.022594656    1.4874577 0.0026971346 -0.022594656    1.5100523     2803 
 6167000 0.0064264534 -0.019925961    1.5025193  0.002720189 -0.019925961    1.5224453     2780 
 6168000 0.0064500268 -0.018070357    1.5083124 0.0027418211 -0.018070357    1.5263827     2783 
 6169000 0.0064801569 -0.020168333    1.5024027 0.0027398785 -0.020168333     1.522571     2803 
 6170000 0.0065001684 -0.022849422    1.5131915  0.002746596 -0.022849422    1.5360409     2787 
 6171000 0.0064963705 -0.016846199    1.5133557 0.0027670513 -0.016846199    1.5302019     2796 
 6172000 0.0063785381 -0.019085275    1.4898376 0.0027002586 -0.019085275    1.5089229     2784 
 6173000 0.0065420075 -0.021996261    1.5200584 0.0027791494 -0.021996261    1.5420547     2794 
 6174000 0.0064161282 -0.020509009    1.5188709 0.0027539439 -0.020509009    1.5393799     2745 
 6175000 0.0065625442 -0.022861426    1.5329435 0.0027419515 -0.022861426    1.5558049     2778 
 6176000 0.0065532585 -0.022052131    1.5209977 0.0027722438 -0.022052131    1.5430499     2797 
 6177000 0.0065845463 -0.024770209    1.5452936 0.0027799968 -0.024770209    1.5700639     2762 
 6178000 0.0065427495 -0.019806599    1.5262965 0.0027744384 -0.019806599    1.5461031     2787 
 6179000 0.0065937398 -0.018674575    1.5344625 0.0028135011 -0.018674575     1.553137     2796 
 6180000 0.0065993294  -0.02052076    1.5395124 0.0027681755  -0.02052076    1.5600332     2786 
 6181000  0.006482924 -0.023456699    1.5195823 0.0027538086 -0.023456699     1.543039     2767 
 6182000  0.006546765 -0.020433728    1.5327485 0.0028032314 -0.020433728    1.5531823     2776 
 6183000  0.006563947 -0.018554474    1.5409512 0.0027694556 -0.018554474    1.5595057     2772 
 6184000 0.0063834421 -0.018933994    1.5126038 0.0027309578 -0.018933994    1.5315378     2745 
 6185000  0.006420919  -0.02052987    1.5121824  0.002689984  -0.02052987    1.5327122     2759 
 6186000 0.0063645797 -0.020000755    1.4965146  0.002723617 -0.020000755    1.5165154     2764 
 6187000 0.0064780303 -0.018998149    1.5101653 0.0027417548 -0.018998149    1.5291634     2790 
 6188000 0.0065145179 -0.020459286    1.5112781 0.0027766406 -0.020459286    1.5317373     2801 
 6189000 0.0064168808 -0.022767959    1.5067628 0.0027102799 -0.022767959    1.5295308     2763 
 6190000 0.0063839095 -0.022126843    1.5218977 0.0027200639 -0.022126843    1.5440246     2723 
 6191000 0.0064126543 -0.021127793    1.5051859 0.0027391618 -0.021127793    1.5263137     2767 
 6192000 0.0063510786 -0.018450266    1.4992409 0.0026741579 -0.018450266    1.5176912     2756 
 6193000 0.0062986048 -0.022305601    1.4850338 0.0026537609 -0.022305601    1.5073394     2752 
 6194000 0.0063496856 -0.022352712    1.4961075 0.0026855723 -0.022352712    1.5184602     2754 
 6195000  0.006473817 -0.018874092    1.5247867 0.0027388756 -0.018874092    1.5436608     2762 
 6196000  0.006451606 -0.020278105     1.509777 0.0027225047 -0.020278105    1.5300552     2777 
 6197000 0.0063904802  -0.02050733    1.5043863 0.0027293982  -0.02050733    1.5248936     2760 
 6198000 0.0064007606 -0.024005124    1.5083384 0.0027047298 -0.024005124    1.5323435     2751 
 6199000 0.0062508302 -0.024353702    1.4792016 0.0026349173 -0.024353702    1.5035553     2738 
 6200000 0.0063970484 -0.022999104    1.5162892 0.0027198856 -0.022999104    1.5392883     2737 
 6201000 0.0063229873 -0.019712328    1.5006441 0.0027049093 -0.019712328    1.5203564     2739 
 6202000 0.0062765405  -0.02103055    1.4826678 0.0026683394  -0.02103055    1.5036984     2749 
 6203000 0.0063054588 -0.022764554    1.4939309 0.0026616187 -0.022764554    1.5166954     2738 
 6204000 0.0062338475 -0.021981381    1.4736651 0.0026563506 -0.021981381    1.4956465     2745 
 6205000 0.0063618918 -0.019862092    1.4993106 0.0027115972 -0.019862092    1.5191727     2758 
 6206000  0.006373067 -0.021242149    1.5011511 0.0027109164 -0.021242149    1.5223932     2757 
 6207000 0.0063693417 -0.022096139    1.4873622 0.0027003524 -0.022096139    1.5094583     2779 
 6208000 0.0062205326 -0.019957033    1.4873206 0.0026359991 -0.019957033    1.5072776     2718 
 6209000 0.0062318856 -0.025938697    1.4975422 0.0026308858 -0.025938697    1.5234809     2694 
 6210000 0.0062266496 -0.021409804    1.4929215 0.0026446996 -0.021409804    1.5143313     2708 
 6211000 0.0062928656 -0.021111435    1.4799456 0.0026868256 -0.021111435     1.501057     2761 
 6212000  0.006271682 -0.025003701    1.4791722 0.0026761012 -0.025003701    1.5041759     2746 
 6213000 0.0061383305 -0.021890994    1.4665638 0.0025814998 -0.021890994    1.4884547     2716 
 6214000 0.0063272056 -0.020424721    1.4904652 0.0026666531 -0.020424721    1.5108899     2758 
 6215000  0.006253921 -0.020594215    1.4711732 0.0026500817 -0.020594215    1.4917674     2761 
 6216000 0.0062859408 -0.020643361    1.4738901 0.0026800169 -0.020643361    1.4945335     2770 
 6217000 0.0062644363 -0.019349463     1.480358 0.0026536471 -0.019349463    1.4997074     2751 
 6218000 0.0062519878 -0.017117166    1.4736492 0.0026456311 -0.017117166    1.4907663     2762 
 6219000 0.0064169291 -0.021420134    1.4900696 0.0027487048 -0.021420134    1.5114898     2796 
 6220000 0.0064210525 -0.020386537    1.5029712 0.0026983966 -0.020386537    1.5233577     2776 
 6221000 0.0063400773 -0.021570526    1.4869235 0.0026766485 -0.021570526     1.508494     2768 
 6222000 0.0061903989 -0.020436422    1.4637044 0.0026194582 -0.020436422    1.4841408     2747 
 6223000 0.0062581192 -0.022250772    1.4885757 0.0026685534 -0.022250772    1.5108265     2728 
 6224000 0.0062099767 -0.019691664    1.4967446 0.0026383067 -0.019691664    1.5164362     2697 
 6225000 0.0064194807  -0.02121859    1.5172842  0.002709259  -0.02121859    1.5385028     2748 
 6226000 0.0062774187  -0.01854304    1.4897551 0.0026491773  -0.01854304    1.5082981     2741 
 6227000 0.0063311862 -0.022780388    1.5028895 0.0027211393 -0.022780388    1.5256699     2733 
 6228000 0.0063119371 -0.022680088    1.4955736 0.0026592772 -0.022680088    1.5182537     2738 
 6229000 0.0062548825 -0.020835026    1.4908725 0.0026683434 -0.020835026    1.5117075     2725 
 6230000 0.0062790984 -0.024826711    1.4966418 0.0026922108 -0.024826711    1.5214685     2718 
 6231000 0.0062396513 -0.020716042    1.5035317 0.0026499885 -0.020716042    1.5242478     2696 
 6232000 0.0062393585 -0.019229655     1.488726 0.0026266792 -0.019229655    1.5079556     2725 
 6233000 0.0062106594 -0.015314674    1.4984818 0.0026431831 -0.015314674    1.5137965     2702 
 6234000 0.0061487548  -0.01838288    1.4875704 0.0026137245  -0.01838288    1.5059533     2689 
 6235000 0.0062598462 -0.018970902    1.5039963 0.0026780382 -0.018970902    1.5229672     2707 
 6236000 0.0062992795 -0.021165286    1.4962606 0.0026558045 -0.021165286    1.5174259     2734 
 6237000 0.0063421111 -0.021322743     1.495877 0.0026744188 -0.021322743    1.5171998     2753 
 6238000 0.0062669891 -0.020394953     1.489805 0.0026753008 -0.020394953    1.5101999     2733 
 6239000 0.0063499658 -0.023204489    1.5058719 0.0027028629 -0.023204489    1.5290764     2735 
 6240000 0.0062971245 -0.020458744    1.4953392 0.0026539712 -0.020458744     1.515798     2736 
 6241000 0.0063526655 -0.017607157    1.5110015 0.0027294161 -0.017607157    1.5286087     2737 
 6242000 0.0063760335  -0.01918812    1.5128045 0.0027350409  -0.01918812    1.5319927     2741 
 6243000 0.0063267428 -0.020593339    1.5084817 0.0027029187 -0.020593339    1.5290751     2725 
 6244000  0.006378942 -0.024527837     1.520565 0.0026754173 -0.024527837    1.5450928     2719 
 6245000 0.0063575391 -0.023509708    1.5085107 0.0027002764 -0.023509708    1.5320204     2733 
 6246000 0.0062122749 -0.021038991    1.4864563  0.002616921 -0.021038991    1.5074953     2714 
 6247000 0.0061847496 -0.022511573    1.4749937 0.0025996764 -0.022511573    1.4975052     2720 
 6248000 0.0063055961 -0.024665408    1.4987398 0.0027153951 -0.024665408    1.5234052     2726 
 6249000 0.0062286615  -0.02486779    1.4827155 0.0026241887  -0.02486779    1.5075833     2721 
 6250000 0.0061660788 -0.020266537    1.4804422 0.0026043978 -0.020266537    1.5007087     2706 
 6251000 0.0061204988 -0.022467192    1.4616636 0.0025878607 -0.022467192    1.4841308     2716 
 6252000 0.0060823492 -0.020264483     1.468871 0.0026023901 -0.020264483    1.4891355     2690 
 6253000 0.0060320065 -0.020638717    1.4578202 0.0025576375 -0.020638717    1.4784589     2687 
 6254000 0.0061470981 -0.018292039    1.4761403 0.0026243806 -0.018292039    1.4944324     2709 
 6255000 0.0061432132 -0.022338052    1.4634713  0.002580672 -0.022338052    1.4858093     2723 
 6256000 0.0060549364 -0.022852547    1.4502618 0.0025575753 -0.022852547    1.4731143     2707 
 6257000 0.0060478216 -0.020140563    1.4436723 0.0025505557 -0.020140563    1.4638129     2721 
 6258000 0.0059598495 -0.024977973    1.4390643 0.0025274255 -0.024977973    1.4640422     2681 
 6259000 0.0059993601  -0.02231055     1.449242 0.0025897886  -0.02231055    1.4715525     2685 
 6260000 0.0060639286 -0.023545088    1.4733225 0.0025498753 -0.023545088    1.4968676     2668 
 6261000 0.0061482872 -0.024104158    1.4867915 0.0025948056 -0.024104158    1.5108957     2680 
 6262000 0.0062290907 -0.025202017    1.4819313  0.002620538 -0.025202017    1.5071333     2722 
 6263000 0.0061181149 -0.019813083    1.4708748 0.0026190118 -0.019813083    1.4906879     2703 
 6264000 0.0062030819 -0.022184306    1.4748064 0.0026191285 -0.022184306    1.4969907     2729 
 6265000 0.0062284206 -0.026101344    1.4726109 0.0026654309 -0.026101344    1.4987123     2737 
 6266000  0.006045848 -0.021111543    1.4668313 0.0025559457 -0.021111543    1.4879428     2676 
 6267000 0.0061204371 -0.023037734    1.4776542 0.0026088835 -0.023037734     1.500692     2686 
 6268000 0.0059844883 -0.018149201    1.4646665  0.002526449 -0.018149201    1.4828157     2658 
 6269000 0.0060183527  -0.02464799    1.4643178 0.0025406013  -0.02464799    1.4889658     2662 
 6270000 0.0060311136 -0.022876962    1.4498821  0.002559459 -0.022876962     1.472759     2697 
 6271000 0.0060454584 -0.019268828    1.4558992 0.0025820741 -0.019268828     1.475168     2699 
 6272000 0.0060298636 -0.018576266    1.4643244 0.0025848924 -0.018576266    1.4829006     2678 
 6273000 0.0062137757 -0.018877767    1.4828949 0.0026228164 -0.018877767    1.5017727     2725 
 6274000 0.0061144571 -0.019621255    1.4516686 0.0025959113 -0.019621255    1.4712899     2737 
 6275000 0.0060206079 -0.017602602    1.4669021  0.002566015 -0.017602602    1.4845047     2671 
 6276000 0.0059575895  -0.02270827    1.4407788 0.0025461628  -0.02270827    1.4634871     2681 
 6277000 0.0059476986 -0.022996297    1.4396978 0.0025466344 -0.022996297    1.4626941     2678 
 6278000 0.0058843386 -0.022210029    1.4368888 0.0024897937 -0.022210029    1.4590988     2656 
 6279000 0.0059181233 -0.023904653    1.4336933  0.002512325 -0.023904653    1.4575979     2674 
 6280000 0.0058779336 -0.021405815    1.4306378 0.0024812685 -0.021405815    1.4520436     2666 
 6281000 0.0059037135  -0.01942238    1.4324546   0.00250793  -0.01942238     1.451877     2678 
 6282000 0.0058632924 -0.020296189    1.4346796 0.0024761589 -0.020296189    1.4549758     2654 
 6283000 0.0058500769 -0.021719735    1.4365702 0.0024986664 -0.021719735      1.45829     2642 
 6284000 0.0057967433 -0.021993662    1.4240962 0.0024475251 -0.021993662    1.4460898     2640 
 6285000 0.0058922028 -0.021146139    1.4366096 0.0024943031 -0.021146139    1.4577558     2662 
 6286000  0.005885375 -0.017778527    1.4393828 0.0024851182 -0.017778527    1.4571613     2660 
 6287000 0.0059561469 -0.018751153    1.4411144 0.0025195665 -0.018751153    1.4598656     2687 
 6288000 0.0060019402   -0.0209099    1.4529222  0.002562301   -0.0209099    1.4738321     2682 
 6289000  0.005882042 -0.021199681    1.4433954 0.0024955202 -0.021199681    1.4645951     2645 
 6290000  0.005932338 -0.021534889    1.4567014 0.0025195419 -0.021534889    1.4782363     2643 
 6291000 0.0059568391 -0.022132894    1.4633327 0.0025205445 -0.022132894    1.4854656     2641 
 6292000 0.0061080329 -0.022434074    1.4841912 0.0025983866 -0.022434074    1.5066252     2670 
 6293000 0.0059346443 -0.024631778    1.4592321 0.0025125608 -0.024631778    1.4838639     2634 
 6294000 0.0060494962 -0.019918073    1.4790051 0.0025299313 -0.019918073    1.4989231     2658 
 6295000 0.0060067816 -0.022065763    1.4758541 0.0025737098 -0.022065763    1.4979199     2641 
 6296000 0.0060922617  -0.02164474     1.487307  0.002581699  -0.02164474    1.5089517     2659 
 6297000 0.0059821281  -0.02232802    1.4521367 0.0025201177  -0.02232802    1.4744647     2672 
 6298000 0.0060392725 -0.019604297    1.4683884 0.0025353818 -0.019604297    1.4879927     2673 
 6299000 0.0058884377 -0.020990608    1.4580583 0.0024824209 -0.020990608    1.4790489     2622 
 6300000 0.0060887825 -0.019776559    1.4837897 0.0025830949 -0.019776559    1.5035663     2667 
 6301000 0.0061043333 -0.022919557    1.4567466  0.002572385 -0.022919557    1.4796661     2717 
 6302000 0.0061295745 -0.018432742    1.4895525 0.0026104434 -0.018432742    1.5079852     2677 
 6303000  0.006146065 -0.021484396    1.4933872 0.0026163623 -0.021484396    1.5148716     2672 
 6304000 0.0060596862 -0.020791305    1.4694435 0.0025520974 -0.020791305    1.4902348     2678 
 6305000 0.0061429045 -0.021492427    1.4824687 0.0025834237 -0.021492427    1.5039611     2690 
 6306000 0.0059099866   -0.0207554    1.4569432 0.0025208476   -0.0207554    1.4776986     2634 
 6307000 0.0060911265 -0.021718689    1.4728994 0.0025954002 -0.021718689    1.4946181     2684 
 6308000 0.0059307477 -0.018987947    1.4594114 0.0024894782 -0.018987947    1.4783994     2642 
 6309000 0.0059959487 -0.023850568    1.4679786 0.0025312057 -0.023850568    1.4918292     2647 
 6310000 0.0060044031 -0.019844794    1.4740879 0.0025789068 -0.019844794    1.4939327     2647 
 6311000  0.005952677 -0.021141037    1.4488153 0.0025087267 -0.021141037    1.4699563     2667 
 6312000 0.0059284821 -0.023498521    1.4421317 0.0025314898 -0.023498521    1.4656303     2664 
 6313000 0.0060061023 -0.023760133    1.4505443 0.0025415142 -0.023760133    1.4743045     2683 
 6314000 0.0060685817 -0.019932911     1.459781 0.0025846782 -0.019932911    1.4797139     2701 
 6315000 0.0059477316 -0.019894727    1.4554787 0.0025102636 -0.019894727    1.4753735     2655 
 6316000 0.0059511389 -0.021322595    1.4543403 0.0025409771 -0.021322595    1.4756629     2656 
 6317000  0.005945375 -0.019644314    1.4518192 0.0025045704 -0.019644314    1.4714636     2661 
 6318000 0.0059557247 -0.020420622    1.4480858 0.0025143381 -0.020420622    1.4685065     2671 
 6319000  0.006055075 -0.019100166     1.480641 0.0025868964 -0.019100166    1.4997412     2659 
 6320000 0.0059849917 -0.019403924    1.4770485 0.0025343226 -0.019403924    1.4964524     2634 
 6321000 0.0060685594 -0.020031831    1.4824842 0.0025584497 -0.020031831     1.502516     2660 
 6322000 0.0059877582 -0.021874459    1.4490236 0.0025191439 -0.021874459    1.4708981     2681 
 6323000 0.0059060657 -0.019094664    1.4448405 0.0025083905 -0.019094664    1.4639352     2657 
 6324000 0.0059758859 -0.019353335    1.4585508 0.0025194102 -0.019353335    1.4779041     2663 
 6325000 0.0059753119 -0.018612091    1.4475878 0.0025083075 -0.018612091    1.4661999     2684 
 6326000 0.0060335103 -0.020178162    1.4619589 0.0025346791 -0.020178162    1.4821371     2681 
 6327000 0.0060294767 -0.018674331    1.4630246 0.0025434253 -0.018674331    1.4816989     2680 
 6328000 0.0060288668 -0.017828359    1.4799277 0.0025693393 -0.017828359    1.4977561     2651 
 6329000 0.0059617559 -0.022226408    1.4544012 0.0025493732 -0.022226408    1.4766276     2659 
 6330000 0.0059039648 -0.021563018     1.451833 0.0024852017 -0.021563018     1.473396     2639 
 6331000  0.005941111 -0.024058992    1.4558034 0.0025261376 -0.024058992    1.4798624     2644 
 6332000 0.0060331178 -0.025141435     1.464679 0.0025405522 -0.025141435    1.4898204     2667 
 6333000 0.0061434032  -0.02519661    1.4811265 0.0026095872  -0.02519661    1.5063231     2686 
 6334000 0.0061480614  -0.02036848    1.4809485 0.0026093529  -0.02036848    1.5013169     2697 
 6335000 0.0059726883 -0.023000551    1.4647274 0.0025401935 -0.023000551     1.487728     2644 
 6336000 0.0061371535 -0.022178966    1.4681853  0.002580653 -0.022178966    1.4903643     2712 
 6337000 0.0060021427 -0.020725295    1.4581191 0.0025630985 -0.020725295    1.4788444     2673 
 6338000 0.0059858466 -0.020851444    1.4517741 0.0025402197 -0.020851444    1.4726256     2677 
 6339000 0.0060549894 -0.023231658    1.4703097 0.0025619329 -0.023231658    1.4935414     2670 
 6340000  0.005984075 -0.019350059    1.4633633 0.0025378703 -0.019350059    1.4827133     2658 
 6341000 0.0059827693 -0.017641546    1.4664232 0.0025176484 -0.017641546    1.4840648     2655 
 6342000 0.0060258249 -0.021610636    1.4658511 0.0025463222 -0.021610636    1.4874618     2668 
 6343000 0.0060245974  -0.02115909    1.4615538 0.0025559839  -0.02115909    1.4827129     2676 
 6344000 0.0058839343 -0.022489309    1.4420233 0.0024967949 -0.022489309    1.4645126     2646 
 6345000 0.0058840284 -0.021528547    1.4480059 0.0024968907 -0.021528547    1.4695344     2637 
 6346000 0.0059065303 -0.015902039    1.4503557 0.0025523893 -0.015902039    1.4662577     2653 
 6347000 0.0059338891 -0.017987089    1.4445878 0.0025074857 -0.017987089    1.4625748     2672 
 6348000  0.006062289 -0.021336998     1.465651 0.0025436857 -0.021336998     1.486988     2685 
 6349000  0.006066939 -0.022931128    1.4657519 0.0025716136 -0.022931128    1.4886831     2684 
 6350000 0.0061013352 -0.020395592    1.4728331 0.0025942516 -0.020395592    1.4932287     2691 
 6351000 0.0060946776 -0.019812904     1.474563 0.0025763937 -0.019812904    1.4943759     2686 
 6352000 0.0060662721  -0.02522379    1.4818249   0.00255529  -0.02522379    1.5070487     2651 
 6353000 0.0061393845 -0.021180037    1.4909132 0.0026215286 -0.021180037    1.5120932     2674 
 6354000 0.0061581137 -0.021088831    1.5145689 0.0026147598 -0.021088831    1.5356578     2641 
 6355000 0.0060268713 -0.020595997    1.4990201 0.0025579088 -0.020595997    1.5196161     2612 
 6356000  0.006100416 -0.020318305    1.4969298 0.0025914273 -0.020318305    1.5172481     2648 
 6357000 0.0060419691  -0.02274529     1.493133  0.002549295  -0.02274529    1.5158783     2625 
 6358000 0.0061525385 -0.023498687    1.5067129 0.0026093479 -0.023498687    1.5302116     2648 
 6359000 0.0060740826  -0.01900854    1.4979919 0.0026103462  -0.01900854    1.5170004     2637 
 6360000 0.0061083986 -0.020839305    1.5070491 0.0025792585 -0.020839305    1.5278884     2633 
 6361000 0.0061062691 -0.021459091    1.5117196 0.0026049583 -0.021459091    1.5331787     2623 
 6362000 0.0061192398 -0.021338416    1.5052033 0.0025914516 -0.021338416    1.5265417     2640 
 6363000 0.0061857551 -0.020172394    1.5217945 0.0026214987 -0.020172394    1.5419669     2642 
 6364000 0.0061567052 -0.022637556    1.5051486 0.0025968165 -0.022637556    1.5277862     2654 
 6365000 0.0063107969 -0.020451134     1.517184 0.0026773362 -0.020451134    1.5376351     2703 
 6366000 0.0061413469  -0.01730338    1.5211636 0.0026068908  -0.01730338     1.538467     2629 
 6367000 0.0061771471 -0.016102886    1.5007529  0.002642135 -0.016102886    1.5168558     2682 
 6368000 0.0061839845 -0.017632958    1.5128858 0.0026555951 -0.017632958    1.5305187     2661 
 6369000 0.0062389956  -0.01955083    1.5062346 0.0026538973  -0.01955083    1.5257854     2693 
 6370000 0.0063218813 -0.017946178    1.5252443 0.0027180497 -0.017946178    1.5431904     2698 
 6371000  0.006216465  -0.01940932    1.5082406 0.0026117719  -0.01940932    1.5276499     2680 
 6372000 0.0061998515 -0.016672868    1.5074631 0.0026650314 -0.016672868     1.524136     2679 
 6373000  0.006400095 -0.021646524    1.5429558 0.0027115322 -0.021646524    1.5646023     2694 
 6374000 0.0063341884 -0.025710756    1.5147742 0.0026632545 -0.025710756    1.5404849     2708 
 6375000 0.0063261777 -0.019639971    1.5042654 0.0026937735 -0.019639971    1.5239054     2734 
 6376000 0.0063611161 -0.021300419    1.5155182 0.0026900471 -0.021300419    1.5368186     2726 
 6377000  0.006410639 -0.020266693    1.5189177 0.0026994281 -0.020266693    1.5391844     2743 
 6378000 0.0063732803  -0.02209614    1.5148422 0.0027018264  -0.02209614    1.5369384     2731 
 6379000 0.0063792109 -0.020397074    1.5287491 0.0027066471 -0.020397074    1.5491462     2712 
 6380000 0.0063354023 -0.020869547    1.5097367 0.0027084039 -0.020869547    1.5306062     2726 
 6381000 0.0062444235 -0.021176833    1.4874493 0.0026251132 -0.021176833    1.5086261     2726 
 6382000 0.0063815692 -0.019581752    1.5098352 0.0026985954 -0.019581752    1.5294169     2748 
 6383000 0.0063901962 -0.021002373    1.5082561 0.0027041309 -0.021002373    1.5292585     2752 
 6384000 0.0063255536 -0.026813305    1.4864255 0.0026514068 -0.026813305    1.5132388     2753 
 6385000  0.006353248 -0.022978752    1.4745823 0.0026753718 -0.022978752    1.4975611     2794 
 6386000 0.0062436323 -0.017851326    1.4741638 0.0026493101 -0.017851326    1.4920152     2756 
 6387000 0.0061904635 -0.019194044    1.4752991 0.0026464009 -0.019194044    1.4944932     2728 
 6388000 0.0063446229 -0.021761205    1.4905461 0.0026574547 -0.021761205    1.5123073     2763 
 6389000 0.0063842375 -0.019905593    1.5051561 0.0027058741 -0.019905593    1.5250617     2757 
 6390000 0.0063447836 -0.018989518    1.4944516 0.0026627133 -0.018989518    1.5134411     2761 
 6391000 0.0062755772 -0.019842337    1.4743849 0.0026766591 -0.019842337    1.4942272     2766 
 6392000 0.0061789838 -0.021558053    1.4609253 0.0026288872 -0.021558053    1.4824834     2745 
 6393000 0.0061918338 -0.021370594    1.4701729 0.0026175766 -0.021370594    1.4915435     2734 
 6394000 0.0061245251 -0.018726362    1.4614758 0.0026014247 -0.018726362    1.4802022     2725 
 6395000 0.0061142445 -0.016997564    1.4639808 0.0025911546 -0.016997564    1.4809784     2719 
 6396000 0.0062763745 -0.023459727    1.4906639 0.0026557036 -0.023459727    1.5141236     2730 
 6397000 0.0062820983  -0.01928904    1.4945518  0.002660343  -0.01928904    1.5138409     2733 
 6398000 0.0061289292  -0.01864607    1.4620771 0.0026132232  -0.01864607    1.4807232     2726 
 6399000 0.0060690361 -0.022451602    1.4486586  0.002597535 -0.022451602    1.4711102     2717 
 6400000 0.0061877596 -0.018752209    1.4734472 0.0026460587 -0.018752209    1.4921994     2731 
 6401000 0.0062239416 -0.019614965    1.4912681 0.0026520681 -0.019614965     1.510883     2713 
 6402000 0.0062424227 -0.019747413    1.4911666  0.002627807 -0.019747413    1.5109141     2721 
 6403000 0.0061581852 -0.019158689    1.4818477 0.0026262927 -0.019158689    1.5010064     2702 
 6404000 0.0061598437 -0.022201954    1.4530022 0.0026059518 -0.022201954    1.4752042     2750 
 6405000 0.0062943115 -0.022203091    1.4743206 0.0026632786 -0.022203091    1.4965237     2770 
 6406000  0.006340617 -0.022315374    1.4906799 0.0027115318 -0.022315374    1.5129953     2760 
 6407000 0.0062088142 -0.022128344    1.5042109 0.0026199938 -0.022128344    1.5263393     2679 
 6408000 0.0062700908 -0.022515704    1.4906463 0.0026161676 -0.022515704     1.513162     2729 
 6409000 0.0062844373 -0.023463594    1.4981789 0.0026478516 -0.023463594    1.5216425     2720 
 6410000 0.0062388522 -0.024347246    1.4719549 0.0026439221 -0.024347246    1.4963021     2746 
 6411000 0.0063241184 -0.022436072    1.4877166 0.0026589199 -0.022436072    1.5101527     2758 
 6412000 0.0063068749 -0.026010958    1.5050044 0.0026586701 -0.026010958    1.5310154     2713 
 6413000 0.0061878381 -0.026916774    1.4846738  0.002624019 -0.026916774    1.5115906     2696 
 6414000  0.006321017 -0.023339347    1.4910144 0.0026775348 -0.023339347    1.5143538     2749 
 6415000 0.0062154975 -0.022181345    1.4723293 0.0026549589 -0.022181345    1.4945106     2739 
 6416000 0.0062290907 -0.022684511    1.4833422 0.0026470915 -0.022684511    1.5060267     2724 
 6417000 0.0061490948 -0.023622252     1.459253 0.0025804566 -0.023622252    1.4828753     2731 
 6418000 0.0062885955  -0.02332088     1.470765 0.0026391624  -0.02332088    1.4940859     2772 
 6419000 0.0061382073 -0.023153134    1.4598116 0.0025841955 -0.023153134    1.4829648     2726 
 6420000 0.0060244939 -0.019678986    1.4476551 0.0025434375 -0.019678986    1.4673341     2704 
 6421000 0.0061327315 -0.024851458    1.4677412 0.0026146122 -0.024851458    1.4925926     2706 
 6422000 0.0061537672 -0.024238489    1.4603071 0.0025736612 -0.024238489    1.4845456     2730 
 6423000 0.0061710735 -0.023346483    1.4631961 0.0025940782 -0.023346483    1.4865425     2734 
 6424000 0.0060374881 -0.022237722    1.4493497 0.0025592051 -0.022237722    1.4715875     2702 
 6425000 0.0060267649 -0.022278465    1.4268515  0.002545455 -0.022278465      1.44913     2739 
 6426000  0.006102522 -0.026250798     1.449175 0.0025966052 -0.026250798    1.4754258     2724 
 6427000  0.006213921 -0.025644875    1.4657641 0.0026338541 -0.025644875     1.491409     2744 
 6428000 0.0061898187 -0.022208962    1.4661272 0.0026191676 -0.022208962    1.4883362     2739 
 6429000 0.0062825035  -0.02367123     1.475457 0.0026623701  -0.02367123    1.4991283     2760 
 6430000 0.0062196253  -0.02343188     1.459081 0.0026455487  -0.02343188    1.4825128     2763 
 6431000 0.0061956446 -0.027467899     1.447194 0.0026141545 -0.027467899    1.4746619     2767 
 6432000 0.0061199938 -0.025913329    1.4504847 0.0025992722 -0.025913329    1.4763981     2730 
 6433000  0.006044818 -0.025126453    1.4363481  0.002558124 -0.025126453    1.4614746     2724 
 6434000 0.0060807911 -0.019602103    1.4441217 0.0025743743 -0.019602103    1.4637238     2736 
 6435000 0.0060787076 -0.025112742    1.4510584  0.002563108 -0.025112742    1.4761711     2712 
 6436000  0.006104137 -0.024305484    1.4553131  0.002644572 -0.024305484    1.4796186     2717 
 6437000 0.0061168565 -0.024938109    1.4431743 0.0025716523 -0.024938109    1.4681124     2744 
 6438000 0.0059775618 -0.020795818    1.4345692 0.0025156849 -0.020795818     1.455365     2705 
 6439000 0.0060385203 -0.023685857    1.4314583 0.0025522007 -0.023685857    1.4551442     2733 
 6440000 0.0060281202 -0.018554509    1.4314308 0.0025474292 -0.018554509    1.4499853     2738 
 6441000 0.0060136154 -0.021166994    1.4237462 0.0025385371 -0.021166994    1.4449131     2741 
 6442000 0.0061190815 -0.024247993    1.4411941  0.002579228 -0.024247993    1.4654421     2750 
 6443000 0.0058558214 -0.022198477    1.3987984  0.002464233 -0.022198477    1.4209968     2714 
 6444000 0.0059822253 -0.018935587    1.4263446 0.0025512547 -0.018935587    1.4452802     2726 
 6445000 0.0060211031 -0.021991381     1.431615 0.0025376336 -0.021991381    1.4536064     2728 
 6446000 0.0059790525 -0.024111654    1.4294668 0.0025221406 -0.024111654    1.4535785     2709 
 6447000 0.0060246719  -0.02070922    1.4396473 0.0025352973  -0.02070922    1.4603565     2717 
 6448000 0.0060097852 -0.021420891    1.4337204 0.0025295044 -0.021420891    1.4551413     2720 
 6449000 0.0059906275 -0.020393709    1.4295759 0.0025424405 -0.020393709    1.4499696     2721 
 6450000 0.0059605179 -0.019328226    1.4399794 0.0025073472 -0.019328226    1.4593076     2690 
 6451000 0.0060304228 -0.022944295     1.442582 0.0025493806 -0.022944295    1.4655263     2710 
 6452000 0.0059505408 -0.018166805    1.4242206 0.0025704395 -0.018166805    1.4423874     2717 
 6453000 0.0060449315 -0.024747975    1.4335419 0.0025562485 -0.024747975    1.4582899     2730 
 6454000 0.0059457873 -0.021900412    1.4278723 0.0025075762 -0.021900412    1.4497727     2701 
 6455000  0.005995066 -0.021494157    1.4306171  0.002560556 -0.021494157    1.4521113     2719 
 6456000 0.0059278224 -0.021789219    1.4392903 0.0025361658 -0.021789219    1.4610795     2672 
 6457000 0.0059707969   -0.0206916    1.4416762 0.0025397825   -0.0206916    1.4623678     2689 
 6458000 0.0060428814 -0.021857596    1.4515898 0.0026158811 -0.021857596    1.4734473     2701 
 6459000 0.0060582349  -0.02060938    1.4430344 0.0025996184  -0.02060938    1.4636438     2726 
 6460000 0.0060138011 -0.023877005    1.4408527 0.0025295248 -0.023877005    1.4647297     2704 
 6461000 0.0060076559 -0.022895539    1.4349461 0.0025638693 -0.022895539    1.4578416     2714 
 6462000 0.0060367522 -0.019679795    1.4403807 0.0025587305 -0.019679795    1.4600605     2723 
 6463000  0.006074417 -0.022149403    1.4432536 0.0025792464 -0.022149403     1.465403     2730 
 6464000 0.0059950019 -0.020041682    1.4417311 0.0025830903 -0.020041682    1.4617728     2701 
 6465000 0.0060335114 -0.023056677    1.4470174 0.0025421052 -0.023056677    1.4700741     2703 
 6466000 0.0060418241 -0.021638608    1.4472004 0.0025408286 -0.021638608     1.468839     2709 
 6467000 0.0059844203 -0.022295308    1.4428643 0.0025851717 -0.022295308    1.4651596     2690 
 6468000 0.0060984607 -0.021761514    1.4446077 0.0025715291 -0.021761514    1.4663692     2739 
 6469000 0.0060531507 -0.020441224    1.4632002 0.0025775588 -0.020441224    1.4836414     2687 
 6470000 0.0060859662 -0.025494516    1.4595579 0.0025556717 -0.025494516    1.4850524     2699 
 6471000 0.0060864469 -0.021625133      1.44346 0.0025759291 -0.021625133    1.4650852     2736 
 6472000 0.0061326059 -0.020615243    1.4686447 0.0026177019 -0.020615243    1.4892599     2712 
 6473000 0.0061515991 -0.018455789    1.4671994 0.0026508174 -0.018455789    1.4856552     2727 
 6474000 0.0061523515 -0.025930873    1.4697787 0.0025928954 -0.025930873    1.4957095     2709 
 6475000 0.0061541212 -0.021481746    1.4757634 0.0026040176 -0.021481746    1.4972452     2707 
 6476000 0.0060443257 -0.022558267    1.4700298 0.0025892248 -0.022558267    1.4925881     2667 
 6477000 0.0060150514 -0.025342903     1.453915   0.00255256 -0.025342903    1.4792579     2678 
 6478000 0.0058519191 -0.022831811    1.4353655 0.0024787802 -0.022831811    1.4581973     2643 
 6479000 0.0059252017 -0.023653495    1.4340524 0.0025503426 -0.023653495    1.4577059     2677 
 6480000 0.0059498956 -0.023075695    1.4434444 0.0025140344 -0.023075695    1.4665201     2672 
 6481000 0.0060309344 -0.020199325    1.4481604 0.0025364042 -0.020199325    1.4683597     2705 
 6482000 0.0059098876 -0.020219858    1.4457662 0.0024939106 -0.020219858     1.465986     2655 
 6483000 0.0059227514 -0.022152209    1.4409629 0.0024935033 -0.022152209    1.4631151     2666 
 6484000  0.005923357 -0.022403784    1.4419595 0.0025065345 -0.022403784    1.4643632     2664 
 6485000  0.006026496 -0.024045455     1.464698 0.0025576513 -0.024045455    1.4887434     2666 
 6486000 0.0060209818 -0.023170613    1.4614263 0.0025548253 -0.023170613    1.4845969     2671 
 6487000 0.0059490679 -0.022982643    1.4532783 0.0025041633 -0.022982643     1.476261     2654 
 6488000 0.0060472133 -0.016626777    1.4705406 0.0025460694 -0.016626777    1.4871674     2678 
 6489000 0.0059296415 -0.019423902      1.46038 0.0025096899 -0.019423902    1.4798039     2639 
 6490000 0.0058871069 -0.018380424    1.4342946  0.002513979 -0.018380424    1.4526751     2669 
 6491000 0.0059130255 -0.021473374    1.4370508 0.0025355687 -0.021473374    1.4585241     2670 
 6492000  0.005787235 -0.022191207    1.4242661 0.0024109315 -0.022191207    1.4464573     2635 
 6493000  0.005999389 -0.023083962    1.4712948 0.0025300273 -0.023083962    1.4943788     2644 
 6494000 0.0058944802 -0.019757696    1.4501574 0.0025193825 -0.019757696    1.4699151     2641 
 6495000 0.0058818018 -0.016194139    1.4702586  0.002528446 -0.016194139    1.4864528     2606 
 6496000 0.0058772888 -0.020449599    1.4501901 0.0024740704 -0.020449599    1.4706397     2632 
 6497000 0.0058801453 -0.017223518     1.446346 0.0025047318 -0.017223518    1.4635695     2646 
 6498000 0.0058126772 -0.023966438    1.4366101 0.0024427056 -0.023966438    1.4605765     2621 
 6499000 0.0057729666 -0.020019045    1.4322415 0.0024696498 -0.020019045    1.4522605     2618 
 6500000 0.0059517999 -0.024180135     1.465104 0.0025174625 -0.024180135    1.4892842     2632 
 6501000 0.0061673427 -0.022349601    1.4915342 0.0026196501 -0.022349601    1.5138838     2683 
 6502000 0.0061997162 -0.022087002    1.4991764 0.0026344576 -0.022087002    1.5212634     2684 
 6503000 0.0061489615 -0.020363732    1.4862005 0.0025968465 -0.020363732    1.5065642     2688 
 6504000 0.0061337406 -0.019278143     1.491425 0.0026148495 -0.019278143    1.5107031     2674 
 6505000 0.0061754396  -0.02099249    1.4864511 0.0026107713  -0.02099249    1.5074436     2698 
 6506000 0.0060237425 -0.021530485    1.4538048 0.0025687631 -0.021530485    1.4753353     2689 
 6507000  0.006054719 -0.024642871    1.4621496 0.0025571031 -0.024642871    1.4867925     2682 
 6508000 0.0060565869 -0.020580482    1.4778446 0.0025719538 -0.020580482    1.4984251     2662 
 6509000 0.0060235263 -0.021424697    1.4654697 0.0025396534 -0.021424697    1.4868944     2668 
 6510000 0.0059856119 -0.020904164    1.4633067 0.0025235857 -0.020904164    1.4842109     2656 
 6511000 0.0059867581 -0.019270697    1.4697093 0.0025499898 -0.019270697      1.48898     2648 
 6512000 0.0060234339 -0.025511155    1.4669543 0.0025434779 -0.025511155    1.4924655     2658 
 6513000 0.0061191698  -0.02075979    1.4852283 0.0025976573  -0.02075979    1.5059881     2676 
 6514000 0.0060552486 -0.023583202    1.4790265 0.0025758611 -0.023583202    1.5026097     2654 
 6515000 0.0060119725 -0.021526705    1.4822428 0.0025652691 -0.021526705    1.5037695     2633 
 6516000 0.0060347345 -0.022748954    1.4924687  0.002562925 -0.022748954    1.5152176     2623 
 6517000 0.0059912741 -0.026304038    1.4677487 0.0025595238 -0.026304038    1.4940527     2641 
 6518000 0.0059930998 -0.022975911    1.4692719 0.0025645563 -0.022975911    1.4922479     2645 
 6519000 0.0060759921 -0.021974545     1.480687 0.0025572187 -0.021974545    1.5026615     2663 
 6520000 0.0059596265  -0.02169358    1.4627809 0.0025241953  -0.02169358    1.4844744     2644 
 6521000 0.0060365838 -0.021683044    1.4842388  0.002552245 -0.021683044    1.5059219     2640 
 6522000 0.0060670206 -0.021053916    1.4918878 0.0025504133 -0.021053916    1.5129417     2641 
 6523000 0.0060794862 -0.023481009    1.4840072 0.0025842812 -0.023481009    1.5074883     2656 
 6524000 0.0061069179 -0.020180459    1.5015581 0.0025660372 -0.020180459    1.5217386     2643 
 6525000 0.0061962051 -0.021374163    1.4822215 0.0026352103 -0.021374163    1.5035957     2714 
 6526000 0.0061786532 -0.022540679    1.5009334 0.0026190137 -0.022540679     1.523474     2671 
 6527000 0.0061659068 -0.022521152    1.5000902 0.0026415495 -0.022521152    1.5226114     2667 
 6528000 0.0060546805 -0.019733507    1.4787829 0.0025680376 -0.019733507    1.4985164     2661 
 6529000 0.0060403472 -0.017225534    1.4907776 0.0025962324 -0.017225534    1.5080031     2638 
 6530000 0.0061865573 -0.019815817    1.4897821 0.0026285217 -0.019815817    1.5095979     2699 
 6531000 0.0062636222 -0.023137367    1.5001857 0.0026570137 -0.023137367    1.5233231     2708 
 6532000 0.0061634633 -0.021407999    1.4983207 0.0026419922 -0.021407999    1.5197287     2671 
 6533000 0.0060174905  -0.02155974    1.4750638 0.0025739903  -0.02155974    1.4966235     2648 
 6534000 0.0061304067 -0.019775276    1.4986243 0.0025857706 -0.019775276    1.5183996     2659 
 6535000 0.0061733267 -0.021126872    1.5004641 0.0026188341 -0.021126872     1.521591     2672 
 6536000 0.0062004816  -0.01685297    1.5068691 0.0026284713  -0.01685297    1.5237221     2680 
 6537000 0.0061745282 -0.018914563    1.4972982 0.0026088306 -0.018914563    1.5162127     2682 
 6538000 0.0061857661 -0.022802527    1.4899653 0.0026031657 -0.022802527    1.5127678     2693 
 6539000 0.0060735065 -0.019568664    1.4796632 0.0025842287 -0.019568664    1.4992319     2668 
 6540000 0.0060597769 -0.020431459    1.4804743 0.0025722376 -0.020431459    1.5009058     2659 
 6541000 0.0060098613 -0.020531583    1.4821391 0.0025771021 -0.020531583    1.5026707     2634 
 6542000 0.0060610395 -0.019068682    1.4827146 0.0025942389 -0.019068682    1.5017833     2658 
 6543000  0.006022404  -0.01936116    1.4689297 0.0025414608  -0.01936116    1.4882908     2665 
 6544000 0.0058668276 -0.019879351    1.4543038 0.0024749177 -0.019879351    1.4741831     2621 
 6545000 0.0059535855 -0.028642467    1.4526465 0.0025197192 -0.028642467     1.481289     2647 
 6546000 0.0058896105 -0.023055589     1.443424 0.0024834375 -0.023055589    1.4664796     2645 
 6547000 0.0059177826 -0.017961655     1.443926 0.0024925103 -0.017961655    1.4618876     2666 
 6548000 0.0060114664 -0.020545979    1.4661576 0.0025802523 -0.020545979    1.4867036     2663 
 6549000 0.0059319319 -0.018965291    1.4664762 0.0025111036 -0.018965291    1.4854414     2630 
 6550000 0.0059714837 -0.015259829    1.4744218 0.0025559151 -0.015259829    1.4896816     2640 
 6551000 0.0058928941 -0.016016629    1.4641516 0.0025549611 -0.016016629    1.4801682     2622 
 6552000 0.0059909734 -0.022805698    1.4842971  0.002522496 -0.022805698    1.5071028     2618 
 6553000 0.0060005321 -0.019736583    1.4868934  0.002549998 -0.019736583      1.50663     2623 
 6554000 0.0059874563 -0.017915894     1.490607 0.0025820484 -0.017915894    1.5085229     2614 
 6555000   0.00601787  -0.01892646    1.4772264 0.0025270388  -0.01892646    1.4961529     2649 
 6556000 0.0060524521 -0.020425002    1.4928948 0.0025719285 -0.020425002    1.5133198     2634 
 6557000 0.0061020856 -0.019954685    1.5051962 0.0025810451 -0.019954685    1.5251509     2635 
 6558000 0.0060111059 -0.020503866    1.4968799 0.0025499964 -0.020503866    1.5173837     2609 
 6559000 0.0059412371 -0.017096217    1.4792095 0.0025296296 -0.017096217    1.4963057     2615 
 6560000 0.0060395957 -0.018856367    1.4798691 0.0025702647 -0.018856367    1.4987254     2654 
 6561000 0.0060744629  -0.01672526    1.4934977 0.0025708766  -0.01672526    1.5102229     2649 
 6562000   0.00607163 -0.014358917    1.4980143 0.0025774014 -0.014358917    1.5123732     2644 
 6563000 0.0060423426 -0.017396639    1.4911047 0.0025502953 -0.017396639    1.5085013     2638 
 6564000 0.0061576883 -0.020938443    1.5128709 0.0026088124 -0.020938443    1.5338094     2644 
 6565000 0.0060456223  -0.01953238    1.4852244 0.0025529634  -0.01953238    1.5047568     2646 
 6566000 0.0061137554 -0.022955513    1.4867776 0.0025727564 -0.022955513    1.5097331     2667 
 6567000 0.0060260791 -0.020626502     1.479266 0.0025500062 -0.020626502    1.4998925     2646 
 6568000 0.0058813757 -0.020401707    1.4418162 0.0024958454 -0.020401707    1.4622179     2649 
 6569000 0.0058124412 -0.018387741    1.4415724 0.0024896577 -0.018387741    1.4599602     2622 
 6570000 0.0058878792 -0.021627086     1.453905  0.002518128 -0.021627086    1.4755321     2628 
 6571000 0.0060319905 -0.020261347    1.4737622 0.0025745701 -0.020261347    1.4940236     2659 
 6572000 0.0059586763 -0.021497199    1.4706414 0.0025164338 -0.021497199    1.4921386     2630 
 6573000 0.0059693353 -0.020160737    1.4814987  0.002544884 -0.020160737    1.5016595     2618 
 6574000 0.0059558338 -0.021618496     1.477217 0.0025246927 -0.021618496    1.4988355     2617 
 6575000 0.0060515476 -0.023592897    1.4775328 0.0025456008 -0.023592897    1.5011257     2655 
 6576000  0.005967812 -0.024504359    1.4592032 0.0025402559 -0.024504359    1.4837076     2649 
 6577000 0.0058883017   -0.0205553    1.4517213 0.0025017831   -0.0205553    1.4722766     2634 
 6578000 0.0060090564 -0.021788583    1.4738669 0.0025536365 -0.021788583    1.4956555     2646 
 6579000  0.006045381 -0.023550079    1.4908765 0.0025790133 -0.023550079    1.5144266     2629 
 6580000 0.0060095349 -0.018161743    1.4815804 0.0025336574 -0.018161743    1.4997422     2639 
 6581000 0.0060430652 -0.019620152    1.4827967 0.0025376988 -0.019620152    1.5024169     2649 
 6582000 0.0061110353 -0.019213073    1.5041279 0.0025651649 -0.019213073    1.5233409     2642 
 6583000 0.0061163109 -0.016242511    1.5188723 0.0025946371 -0.016242511    1.5351148     2624 
 6584000 0.0059891971 -0.020323587    1.4800284 0.0025237691 -0.020323587     1.500352     2629 
 6585000 0.0062285247 -0.019394622    1.5066634 0.0026424845 -0.019394622    1.5260581     2688 
 6586000 0.0061546368 -0.021982066    1.5047156 0.0026229296 -0.021982066    1.5266976     2655 
 6587000 0.0061015428 -0.021511111    1.4886035 0.0026111482 -0.021511111    1.5101146     2661 
 6588000 0.0060487003 -0.024186437    1.4784969 0.0025479704 -0.024186437    1.5026833     2651 
 6589000 0.0061169055 -0.019624091    1.4954315 0.0026177332 -0.019624091    1.5150556     2659 
 6590000 0.0061045075 -0.025288963    1.4726125 0.0026001494 -0.025288963    1.4979015     2684 
 6591000 0.0060794001 -0.023789053    1.4774603 0.0025643276 -0.023789053    1.5012494     2667 
 6592000 0.0062530963 -0.019264415    1.5219881 0.0026983076 -0.019264415    1.5412525     2672 
 6593000  0.006312404   -0.0193232    1.5169984 0.0026935521   -0.0193232    1.5363216     2706 
 6594000 0.0061347255 -0.018942429    1.5010985 0.0025909613 -0.018942429     1.520041     2658 
 6595000 0.0062294923 -0.018783111    1.5114971 0.0026483248 -0.018783111    1.5302802     2681 
 6596000 0.0060701599 -0.021763281    1.4805842 0.0025901599 -0.021763281    1.5023475     2661 
 6597000 0.0061318289 -0.022059852     1.496692 0.0026239892 -0.022059852    1.5187518     2659 
 6598000 0.0062556307 -0.018616763    1.5038872 0.0026784094 -0.018616763     1.522504     2706 
 6599000 0.0060734391 -0.021371877    1.4628234 0.0025788234 -0.021371877    1.4841953     2695 
 6600000 0.0060521558 -0.021842862    1.4749237 0.0025587524 -0.021842862    1.4967665     2663 
 6601000 0.0061910669  -0.01786641    1.5126797 0.0026395499  -0.01786641    1.5305461     2664 
 6602000 0.0061227079 -0.017209231    1.4834808 0.0026200257 -0.017209231    1.5006901     2687 
 6603000 0.0061489611 -0.020964269    1.4844797 0.0026072629 -0.020964269     1.505444     2690 
 6604000 0.0061993786 -0.019837885    1.4873045 0.0026645089 -0.019837885    1.5071424     2709 
 6605000 0.0061623158 -0.021179234    1.4808339 0.0026195984 -0.021179234    1.5020132     2702 
 6606000 0.0062285217  -0.02113167    1.4908632 0.0026349945  -0.02113167    1.5119949     2713 
 6607000 0.0061872302 -0.020088853     1.499243 0.0026033954 -0.020088853    1.5193318     2682 
 6608000 0.0061771554 -0.016764564    1.5046314 0.0026331253 -0.016764564     1.521396     2674 
 6609000  0.006133933 -0.021142527    1.4733994 0.0025880163 -0.021142527     1.494542     2703 
 6610000 0.0062617889 -0.018483816    1.4855102 0.0026477407 -0.018483816     1.503994     2742 
 6611000 0.0061684414 -0.020287587     1.474368 0.0025878537 -0.020287587    1.4946556     2718 
 6612000 0.0062498526 -0.020503644    1.4806234 0.0026838327 -0.020503644    1.5011271     2742 
 6613000 0.0061884531 -0.022614147    1.4863282 0.0026331465 -0.022614147    1.5089424     2701 
 6614000 0.0062343137 -0.017401182    1.4860249  0.002646445 -0.017401182    1.5034261     2731 
 6615000 0.0061718637 -0.024505316    1.4709795  0.002626264 -0.024505316    1.4954848     2718 
 6616000  0.006087169 -0.020818161    1.4772942 0.0025721833 -0.020818161    1.4981124     2676 
 6617000 0.0061155424 -0.019198497    1.4708626  0.002588017 -0.019198497    1.4900611     2703 
 6618000 0.0062030435  -0.02267157    1.4892686 0.0026077082  -0.02267157    1.5119402     2702 
 6619000 0.0060254952 -0.020018867    1.4601493 0.0025817592 -0.020018867    1.4801682     2681 
 6620000 0.0060861539 -0.023323177    1.4623255 0.0025968369 -0.023323177    1.4856487     2698 
 6621000 0.0061115043 -0.019813156    1.4714709 0.0025722784 -0.019813156     1.491284     2699 
 6622000 0.0061741887  -0.01779445    1.4777035 0.0026592035  -0.01779445     1.495498     2719 
 6623000 0.0060317071 -0.021185331    1.4621687 0.0025637568 -0.021185331     1.483354     2678 
 6624000 0.0060187477 -0.021685964    1.4383093 0.0025449391 -0.021685964    1.4599952     2715 
 6625000 0.0059662456 -0.020438447    1.4241607 0.0025152062 -0.020438447    1.4445992     2720 
 6626000 0.0060510649 -0.022964433    1.4508414 0.0025724014 -0.022964433    1.4738058     2704 
 6627000 0.0060583481 -0.019709415    1.4674197 0.0025812535 -0.019709415    1.4871291     2683 
 6628000 0.0060211817 -0.017795846    1.4569122 0.0025359702 -0.017795846    1.4747081     2689 
 6629000 0.0060141408 -0.015987656    1.4553545 0.0025672317 -0.015987656    1.4713421     2692 
 6630000  0.006043345 -0.018949049    1.4689338 0.0026166272 -0.018949049    1.4878828     2675 
 6631000  0.006096709 -0.015594858    1.4693281 0.0025631704 -0.015594858    1.4849229     2704 
 6632000  0.006032157 -0.015617289    1.4524974 0.0025563192 -0.015617289    1.4681147     2706 
 6633000  0.006023533  -0.01826242    1.4439707 0.0025545225  -0.01826242    1.4622332     2713 
 6634000 0.0059795106  -0.02162755    1.4374484 0.0025317909  -0.02162755    1.4590759     2699 
 6635000 0.0060294924 -0.016511463    1.4493296 0.0025500619 -0.016511463     1.465841     2709 
 6636000 0.0061224331 -0.018810293    1.4598011 0.0026187979 -0.018810293    1.4786114     2727 
 6637000 0.0061949169 -0.019966683    1.4620203 0.0026567531 -0.019966683     1.481987     2753 
 6638000 0.0062310315 -0.021879438    1.4655055 0.0026674837 -0.021879438    1.4873849     2759 
 6639000 0.0061619552 -0.022509006    1.4569668 0.0025930482 -0.022509006    1.4794758     2743 
 6640000 0.0062586219 -0.019896622     1.473533 0.0026538192 -0.019896622    1.4934296     2760 
 6641000 0.0063432063 -0.018111273    1.4867779 0.0027181522 -0.018111273    1.5048891     2776 
 6642000 0.0062641806  -0.02078956    1.4658867 0.0026566367  -0.02078956    1.4866763     2775 
 6643000 0.0062591949 -0.023313194    1.4729638  0.002653388 -0.023313194     1.496277     2755 
 6644000 0.0061930202 -0.024101761     1.466637 0.0026172484 -0.024101761    1.4907387     2736 
 6645000 0.0062271565 -0.023759555    1.4768416 0.0026675232 -0.023759555    1.5006012     2733 
 6646000 0.0062798125 -0.025389373     1.470387 0.0026665694 -0.025389373    1.4957764     2765 
 6647000 0.0063177681 -0.023975799    1.4786674 0.0026838429 -0.023975799    1.5026432     2769 
 6648000 0.0062985613 -0.023038737    1.4870339 0.0026832922 -0.023038737    1.5100726     2747 
 6649000  0.006276651  -0.02810555    1.4707123 0.0026574832  -0.02810555    1.4988178     2758 
 6650000 0.0062890795 -0.024504223    1.4811028 0.0026890205 -0.024504223     1.505607     2751 
 6651000 0.0061554277 -0.021601875     1.468256 0.0025901078 -0.021601875    1.4898578     2721 
 6652000 0.0063043786 -0.018737642    1.4828901 0.0026817127 -0.018737642    1.5016277     2765 
 6653000 0.0061718092 -0.022270404    1.4414285 0.0026243953 -0.022270404    1.4636989     2777 
 6654000  0.006174528 -0.023283912    1.4522177 0.0026311432 -0.023283912    1.4755016     2756 
 6655000 0.0061739283 -0.023607721    1.4506807  0.002595486 -0.023607721    1.4742884     2758 
 6656000  0.006149358 -0.019178576    1.4610501 0.0026134501 -0.019178576    1.4802287     2736 
 6657000 0.0061502454 -0.021698272    1.4582031 0.0026011143 -0.021698272    1.4799014     2737 
 6658000 0.0060511456  -0.02126265    1.4428167 0.0025587967  -0.02126265    1.4640793     2722 
 6659000 0.0060965094 -0.020904375    1.4460668 0.0025852146 -0.020904375    1.4669712     2737 
 6660000 0.0062608809 -0.021838917    1.4619155 0.0026358892 -0.021838917    1.4837544     2779 
 6661000  0.006300656  -0.02252661    1.4562863 0.0026621478  -0.02252661    1.4788129     2806 
 6662000 0.0062712142 -0.022063391    1.4684307 0.0026443881 -0.022063391     1.490494     2771 
 6663000 0.0062663315 -0.021266454    1.4531684 0.0026684148 -0.021266454    1.4744349     2799 
 6664000 0.0063409997  -0.02079428    1.4701443 0.0026553355  -0.02079428    1.4909386     2801 
 6665000 0.0062436794 -0.022047059     1.447583 0.0026379744 -0.022047059      1.46963     2798 
 6666000 0.0061821631  -0.01812309    1.4438197 0.0026122785  -0.01812309    1.4619428     2785 
 6667000 0.0062891888 -0.022077563    1.4410086 0.0026890673 -0.022077563    1.4630861     2831 
 6668000 0.0061028407 -0.018908817    1.4310442 0.0026151014 -0.018908817    1.4499531     2772 
 6669000 0.0061851202 -0.020526392    1.4421157 0.0026244763 -0.020526392    1.4626421     2785 
 6670000 0.0061967912 -0.019872213    1.4434281 0.0026071371 -0.019872213    1.4633004     2789 
 6671000 0.0062890794  -0.02419704    1.4492732 0.0026346322  -0.02419704    1.4734702     2811 
 6672000 0.0062109491 -0.023444973    1.4553941 0.0026217596 -0.023444973    1.4788391     2766 
 6673000 0.0062183148 -0.019860725    1.4495759 0.0026508723 -0.019860725    1.4694366     2787 
 6674000 0.0061709512 -0.022446632    1.4463379 0.0026280535 -0.022446632    1.4687845     2767 
 6675000 0.0061482188 -0.019613855    1.4592596 0.0025902698 -0.019613855    1.4788734     2738 
 6676000 0.0061326725 -0.021971815    1.4510102 0.0026075228 -0.021971815     1.472982     2742 
 6677000 0.0062040135 -0.019811035    1.4557763 0.0026654682 -0.019811035    1.4755873     2769 
 6678000  0.006159797 -0.021854244    1.4458667 0.0025793778 -0.021854244     1.467721     2764 
 6679000 0.0060331402 -0.021656518    1.4412911 0.0025620311 -0.021656518    1.4629476     2716 
 6680000 0.0060753273  -0.01769909    1.4319929 0.0025869601  -0.01769909     1.449692     2760 
 6681000   0.00608136 -0.020261765    1.4425296 0.0025731092 -0.020261765    1.4627914     2738 
 6682000 0.0061023706 -0.021439331    1.4410644  0.002610969 -0.021439331    1.4625037     2748 
 6683000 0.0060924665 -0.018202262    1.4408659 0.0025755968 -0.018202262    1.4590682     2750 
 6684000 0.0060582577 -0.021833103    1.4327451  0.002578457 -0.021833103    1.4545782     2743 
 6685000 0.0060401783 -0.019369443    1.4261251 0.0025943401 -0.019369443    1.4454946     2752 
 6686000 0.0060948994 -0.020375621    1.4462082 0.0025699456 -0.020375621    1.4665838     2737 
 6687000  0.006106476 -0.021422609    1.4555014 0.0025490004 -0.021422609     1.476924     2723 
 6688000 0.0061238218 -0.020616692    1.4632272  0.002629094 -0.020616692    1.4838439     2718 
 6689000  0.005988655 -0.022435029    1.4437614 0.0025631749 -0.022435029    1.4661964     2690 
 6690000 0.0061178396 -0.018783666    1.4657955 0.0026013921 -0.018783666    1.4845792     2714 
 6691000   0.00613944  -0.02509582    1.4691295 0.0025674061  -0.02509582    1.4942254     2706 
 6692000 0.0060521906 -0.019813833    1.4482938 0.0025657234 -0.019813833    1.4681076     2715 
 6693000 0.0060762263 -0.019560674    1.4419959 0.0025825574 -0.019560674    1.4615566     2738 
 6694000 0.0060883488 -0.021118484    1.4514212 0.0025963957 -0.021118484    1.4725397     2723 
 6695000 0.0060262359 -0.021309021    1.4502589 0.0025560335 -0.021309021    1.4715679     2697 
 6696000  0.006008695 -0.022069241    1.4370998 0.0025442212 -0.022069241     1.459169     2712 
 6697000 0.0060019052 -0.021500671    1.4311986 0.0025763402 -0.021500671    1.4526993     2721 
 6698000 0.0060289344 -0.020309488    1.4508265 0.0025745427 -0.020309488    1.4711359     2699 
 6699000 0.0060608579 -0.021503555    1.4379555 0.0025472913 -0.021503555     1.459459     2735 
 6700000 0.0060693514 -0.018775598    1.4443335 0.0025717731 -0.018775598    1.4631091     2732 
 6701000   0.00611444 -0.020543472    1.4459201 0.0026196847 -0.020543472    1.4664636     2746 
 6702000 0.0060033461 -0.018459844    1.4313912  0.002568393 -0.018459844     1.449851     2727 
 6703000 0.0059434113 -0.018227979    1.4250874 0.0025137683 -0.018227979    1.4433154     2712 
 6704000 0.0059441159 -0.022765092    1.4148902 0.0025031248 -0.022765092    1.4376553     2723 
 6705000 0.0058997363 -0.017694017    1.4060903 0.0024898268 -0.017694017    1.4237843     2729 
 6706000 0.0059739781 -0.020348104    1.4181902 0.0025078636 -0.020348104    1.4385383     2735 
 6707000 0.0059726753 -0.022543678    1.4156809 0.0025580562 -0.022543678    1.4382246     2735 
 6708000 0.0057227754 -0.019617577    1.3783656 0.0024103343 -0.019617577    1.3979832     2696 
 6709000 0.0057731136 -0.023693662    1.3818941 0.0024412185 -0.023693662    1.4055878     2705 
 6710000 0.0057942808 -0.021271591    1.4068929 0.0024857242 -0.021271591    1.4281644     2672 
 6711000 0.0059093628 -0.022891142    1.4110983 0.0025204663 -0.022891142    1.4339894     2714 
 6712000 0.0058975821 -0.019666876    1.4178197 0.0024800549 -0.019666876    1.4374865     2702 
 6713000 0.0059779557 -0.019006226    1.4252424 0.0025681881 -0.019006226    1.4442487     2726 
 6714000 0.0060206331 -0.023690033    1.4103529 0.0025603598 -0.023690033    1.4340429     2765 
 6715000 0.0059459162 -0.023910212      1.42375 0.0025142179 -0.023910212    1.4476603     2705 
 6716000 0.0060055993 -0.023616732    1.4267784 0.0025566308 -0.023616732    1.4503952     2727 
 6717000 0.0059685713 -0.023867708     1.423956 0.0025373453 -0.023867708    1.4478237     2715 
 6718000 0.0059895334 -0.023988068    1.4305277 0.0025734267 -0.023988068    1.4545158     2712 
 6719000 0.0060693265 -0.022992937    1.4310623  0.002574599 -0.022992937    1.4540552     2749 
 6720000 0.0060573226 -0.022081424    1.4440311 0.0025668401 -0.022081424    1.4661125     2721 
 6721000 0.0060150614 -0.025005892    1.4351708 0.0025689282 -0.025005892    1.4601767     2713 
 6722000 0.0059017126 -0.020372156     1.430471 0.0024880302 -0.020372156    1.4508432     2679 
 6723000 0.0060496894 -0.020645865    1.4308168 0.0025940293 -0.020645865    1.4514626     2745 
 6724000  0.005984405 -0.025327335    1.4242016 0.0025600526 -0.025327335     1.449529     2719 
 6725000 0.0061485848 -0.022749275    1.4545935 0.0025928618 -0.022749275    1.4773428     2741 
 6726000 0.0060740289 -0.021705333    1.4371914 0.0025800902 -0.021705333    1.4588967     2742 
 6727000 0.0059691742   -0.0216697     1.424702 0.0025314244   -0.0216697    1.4463717     2718 
 6728000 0.0060831239 -0.020787989    1.4499479 0.0025783401 -0.020787989    1.4707359     2724 
 6729000 0.0059714395  -0.01997006    1.4216466  0.002533417  -0.01997006    1.4416167     2728 
 6730000 0.0058421272 -0.024134738    1.4088509 0.0024677382 -0.024134738    1.4329857     2685 
 6731000 0.0058500414 -0.022292436    1.4041344 0.0024356135 -0.022292436    1.4264268     2701 
 6732000 0.0059609694 -0.024860345     1.441645 0.0025032299 -0.024860345    1.4665053     2677 
 6733000  0.005925799 -0.021888738    1.4198076 0.0025144917 -0.021888738    1.4416963     2707 
 6734000 0.0059373254 -0.017171241    1.4353782 0.0024942038 -0.017171241    1.4525495     2692 
 6735000 0.0059437026 -0.021350339    1.4225682 0.0025430293 -0.021350339    1.4439185     2711 
 6736000 0.0059440757 -0.023469772    1.4232076 0.0024962395 -0.023469772    1.4466773     2706 
 6737000 0.0060192007 -0.024225722     1.419922 0.0025569981 -0.024225722    1.4441477     2745 
 6738000 0.0059074792 -0.024692884    1.4077838 0.0024738986 -0.024692884    1.4324767     2716 
 6739000  0.005980118 -0.024709102    1.4377662 0.0025156595 -0.024709102    1.4624753     2693 
 6740000  0.006000449 -0.024436582    1.4204759 0.0025285904 -0.024436582    1.4449125     2735 
 6741000 0.0059283149 -0.023541113    1.4203675 0.0025032726 -0.023541113    1.4439086     2704 
 6742000 0.0059480447 -0.024207401    1.4336723 0.0025240012 -0.024207401    1.4578797     2687 
 6743000 0.0059793756 -0.022619747    1.4278248  0.002505886 -0.022619747    1.4504446     2715 
 6744000 0.0060680966  -0.02182244    1.4340565 0.0025683294  -0.02182244     1.455879     2745 
 6745000  0.006158665 -0.020782846    1.4546756 0.0026218246 -0.020782846    1.4754584     2749 
 6746000 0.0060304364 -0.023784176    1.4379696 0.0025496721 -0.023784176    1.4617538     2717 
 6747000 0.0060868734 -0.024263534    1.4425326 0.0025753589 -0.024263534    1.4667962     2733 
 6748000 0.0061171851 -0.024912706    1.4400753 0.0026018893 -0.024912706     1.464988     2750 
 6749000 0.0059347586  -0.02529089    1.4143307 0.0025363553  -0.02529089    1.4396216     2715 
 6750000 0.0060033017 -0.020468142     1.429904 0.0025584763 -0.020468142    1.4503722     2726 
 6751000 0.0060190945 -0.023066175    1.4194795 0.0025702364 -0.023066175    1.4425456     2748 
 6752000 0.0059957542 -0.024693015    1.4222633 0.0025278484 -0.024693015    1.4469563     2729 
 6753000 0.0058375064  -0.02084441     1.404637 0.0024821904  -0.02084441    1.4254814     2697 
 6754000 0.0058798101 -0.024169518    1.3901417 0.0025285194 -0.024169518    1.4143112     2738 
 6755000 0.0059160422 -0.026693421    1.3839678 0.0024886762 -0.026693421    1.4106612     2762 
 6756000 0.0059389629 -0.022274306    1.4057438 0.0025011919 -0.022274306    1.4280181     2739 
 6757000 0.0060519201 -0.020702949     1.428128 0.0025747561 -0.020702949     1.448831     2751 
 6758000  0.005998698 -0.025957352    1.4122234 0.0025277355 -0.025957352    1.4381807     2747 
 6759000 0.0060403933 -0.025868947    1.4238915 0.0025552509 -0.025868947    1.4497604     2744 
 6760000 0.0060284306 -0.024936629    1.4166989 0.0025304135 -0.024936629    1.4416355     2754 
 6761000 0.0059921408 -0.021609706    1.4165696 0.0025666186 -0.021609706    1.4381793     2744 
 6762000 0.0060020095 -0.022352073    1.4218801 0.0025414644 -0.022352073    1.4442322     2737 
 6763000 0.0059243754 -0.025172262    1.4114015 0.0024950851 -0.025172262    1.4365738     2716 
 6764000 0.0059323717 -0.022915469    1.4187822 0.0025103315 -0.022915469    1.4416977     2710 
 6765000 0.0059158261 -0.020248117    1.4190219 0.0025010926 -0.020248117      1.43927     2707 
 6766000 0.0059611607 -0.022122242    1.4122807 0.0024992967 -0.022122242    1.4344029     2737 
 6767000 0.0060191569 -0.024020145    1.4169673 0.0025450614 -0.024020145    1.4409875     2751 
 6768000 0.0061167874 -0.022004112    1.4412923 0.0025876577 -0.022004112    1.4632964     2753 
 6769000 0.0060157103 -0.019061649    1.4423499 0.0025621253 -0.019061649    1.4614115     2711 
 6770000 0.0060931681 -0.017680888     1.446881 0.0026098285 -0.017680888    1.4645619     2740 
 6771000 0.0061657482 -0.026293085    1.4449751 0.0025824471 -0.026293085    1.4712682     2760 
 6772000 0.0062192445 -0.022858704    1.4368463 0.0026085506 -0.022858704     1.459705     2806 
 6773000 0.0061570766 -0.019997966    1.4386312 0.0025925845 -0.019997966    1.4586292     2780 
 6774000  0.006199455 -0.024876861    1.4459081 0.0026279267 -0.024876861     1.470785     2776 
 6775000 0.0061357791 -0.021654413    1.4440557 0.0025893879 -0.021654413    1.4657101     2757 
 6776000 0.0061594995 -0.023715001    1.4250653 0.0025858299 -0.023715001    1.4487803     2800 
 6777000 0.0062044401 -0.020982063      1.44465 0.0026708363 -0.020982063    1.4656321     2788 
 6778000 0.0062613627 -0.017664164    1.4508796  0.002655993 -0.017664164    1.4685438     2808 
 6779000 0.0061883442 -0.020193667    1.4379751 0.0026056084 -0.020193667    1.4581687     2795 
 6780000 0.0061403501 -0.021239832    1.4292527 0.0026212627 -0.021239832    1.4504925     2788 
 6781000 0.0061332397 -0.018181275    1.4353237 0.0025986682 -0.018181275     1.453505     2779 
 6782000 0.0062571414 -0.019065193    1.4537335 0.0026428742 -0.019065193    1.4727987     2798 
 6783000 0.0062690239 -0.019719716    1.4548219 0.0026905115 -0.019719716    1.4745416     2800 
 6784000  0.006099356 -0.022119316    1.4161101 0.0025577829 -0.022119316    1.4382295     2793 
 6785000 0.0059922503  -0.01741267     1.410903 0.0025373559  -0.01741267    1.4283156     2763 
 6786000 0.0060754453 -0.017457481     1.417703 0.0025809702 -0.017457481    1.4351605     2788 
 6787000 0.0060768043 -0.018718444    1.4177936 0.0026110367 -0.018718444     1.436512     2786 
 6788000  0.006076221 -0.020686663    1.4162032 0.0025846698 -0.020686663    1.4368899     2785 
 6789000 0.0060213934 -0.023137386    1.3997652 0.0025351618 -0.023137386    1.4229026     2787 
 6790000  0.005942381 -0.021074047    1.3871997 0.0025198011 -0.021074047    1.4082737     2779 
 6791000 0.0061582283 -0.022266075    1.4113669 0.0025967665 -0.022266075    1.4336329     2829 
 6792000  0.006110402 -0.020249976     1.423686 0.0025887828 -0.020249976     1.443936     2787 
 6793000 0.0060217615 -0.019143327    1.4130964 0.0025443735 -0.019143327    1.4322398     2769 
 6794000 0.0060722169 -0.020512553    1.4067185 0.0025865975 -0.020512553     1.427231     2802 
 6795000 0.0061310182 -0.023437425    1.4165866 0.0025825821 -0.023437425     1.440024     2804 
 6796000 0.0060315717 -0.021119403    1.4176103 0.0025579431 -0.021119403    1.4387297     2761 
 6797000 0.0061225308  -0.02230638    1.4167506 0.0025903209  -0.02230638    1.4390569     2802 
 6798000 0.0061903652 -0.020343268    1.4325835 0.0026184098 -0.020343268    1.4529268     2806 
 6799000 0.0061678658 -0.019725013    1.4383133 0.0026311523 -0.019725013    1.4580383     2786 
 6800000 0.0061828902 -0.020815548    1.4434022  0.002611312 -0.020815548    1.4642178     2781 
 6801000 0.0061739228 -0.021342456    1.4308303 0.0026162465 -0.021342456    1.4521728     2800 
 6802000 0.0061572414 -0.019721522    1.4363279 0.0026173703 -0.019721522    1.4560494     2785 
 6803000 0.0063229662 -0.022742371    1.4650184 0.0026685172 -0.022742371    1.4877607     2799 
 6804000 0.0062518814 -0.022172234    1.4562574  0.002656916 -0.022172234    1.4784297     2785 
 6805000 0.0061460234 -0.024457656    1.4347022 0.0025650961 -0.024457656    1.4591599     2774 
 6806000  0.006183339 -0.020837906    1.4351096 0.0026067852 -0.020837906    1.4559475     2797 
 6807000 0.0062290957 -0.020333887    1.4411624 0.0026571207 -0.020333887    1.4614963     2807 
 6808000 0.0062355839 -0.020656018    1.4523329 0.0026326596 -0.020656018    1.4729889     2788 
 6809000 0.0063981164  -0.01993082     1.469548 0.0027063954  -0.01993082    1.4894788     2829 
 6810000 0.0062966463 -0.025180264    1.4490139  0.002643663 -0.025180264    1.4741942     2813 
 6811000 0.0063120224 -0.019640086    1.4687362 0.0027022523 -0.019640086    1.4883762     2793 
 6812000 0.0063628925 -0.019331295    1.4635199 0.0026685866 -0.019331295    1.4828512     2826 
 6813000 0.0062512906  -0.01864147    1.4402662 0.0026434074  -0.01864147    1.4589077     2822 
 6814000  0.006278499 -0.018994254    1.4535687 0.0026475845 -0.018994254    1.4725629     2808 
 6815000  0.006221521 -0.020061972    1.4422619 0.0026256206 -0.020061972    1.4623239     2802 
 6816000 0.0062803884 -0.021892034    1.4406967 0.0026738227 -0.021892034    1.4625887     2828 
 6817000 0.0061662194 -0.018856357    1.4299522 0.0025944815 -0.018856357    1.4488086     2803 
 6818000 0.0062035429 -0.024563869    1.4262853 0.0026147476 -0.024563869    1.4508492     2816 
 6819000 0.0060690757 -0.022436203    1.4168985 0.0025923169 -0.022436203    1.4393347     2777 
 6820000 0.0061219737 -0.023928475    1.4191176 0.0025983829 -0.023928475     1.443046     2794 
 6821000 0.0063019307 -0.020827496     1.463044  0.002655334 -0.020827496    1.4838715     2797 
 6822000  0.006192366 -0.020904274    1.4350866  0.002591813 -0.020904274    1.4559908     2801 
 6823000 0.0063377398 -0.021717275    1.4459241  0.002701552 -0.021717275    1.4676414     2844 
 6824000 0.0063186952  -0.01868934    1.4533409 0.0026635436  -0.01868934    1.4720302     2827 
 6825000 0.0063643944 -0.020463698    1.4517971 0.0027166374 -0.020463698    1.4722608     2847 
 6826000 0.0061805596 -0.019651678    1.4413874 0.0026132764 -0.019651678     1.461039     2786 
 6827000 0.0062351938 -0.015173136    1.4519352 0.0026447783 -0.015173136    1.4671084     2799 
 6828000  0.006159509 -0.020543505    1.4292746 0.0026316796 -0.020543505    1.4498181     2798 
 6829000 0.0062715347 -0.016321661    1.4567062 0.0026850389 -0.016321661    1.4730278     2804 
 6830000 0.0063348801 -0.016294994     1.474269 0.0026790039 -0.016294994     1.490564     2799 
 6831000 0.0063124712 -0.020429833    1.4664552  0.002691548 -0.020429833     1.486885     2796 
 6832000 0.0064370398 -0.019258033     1.479812 0.0027328294 -0.019258033      1.49907     2828 
 6833000 0.0063290396 -0.017800405    1.4783382 0.0026854889 -0.017800405    1.4961386     2786 
 6834000  0.006258602 -0.017546363    1.4592909 0.0026623604 -0.017546363    1.4768372     2791 
 6835000  0.006325757 -0.020089012    1.4662043 0.0026645436 -0.020089012    1.4862934     2803 
 6836000 0.0061936644 -0.020876304    1.4485349 0.0026101514 -0.020876304    1.4694112     2776 
 6837000 0.0062527183 -0.019296341    1.4609257 0.0026401869 -0.019296341     1.480222     2782 
 6838000 0.0062587429 -0.022841309    1.4572109 0.0026740099 -0.022841309    1.4800522     2785 
 6839000 0.0063498679 -0.021066336    1.4924912  0.002682245 -0.021066336    1.5135575     2763 
 6840000  0.006296538  -0.02513096    1.4713818 0.0026691987  -0.02513096    1.4965128     2771 
 6841000 0.0061728532 -0.023100883    1.4450751 0.0026215335 -0.023100883     1.468176     2769 
 6842000 0.0060546609 -0.023899787    1.4140876 0.0025663869 -0.023899787    1.4379874     2773 
 6843000 0.0061075703 -0.018589378    1.4293533 0.0025904694 -0.018589378    1.4479427     2778 
 6844000 0.0063404959 -0.027819603    1.4598139 0.0026640135 -0.027819603    1.4876335     2807 
 6845000 0.0063261793 -0.022975143    1.4703433 0.0026676286 -0.022975143    1.4933184     2790 
 6846000 0.0062940305 -0.017601613    1.4622933 0.0026539846 -0.017601613    1.4798949     2801 
 6847000 0.0062644433 -0.019229295    1.4531832 0.0026621225 -0.019229295    1.4724125     2802 
 6848000 0.0062663592  -0.02238183    1.4632055 0.0026854353  -0.02238183    1.4855873     2778 
 6849000 0.0061325695 -0.024819094    1.4274819 0.0026014847 -0.024819094     1.452301     2781 
 6850000 0.0060835522 -0.022193969    1.4352693  0.002564131 -0.022193969    1.4574633     2749 
 6851000 0.0061633561 -0.019652752    1.4462644 0.0026140505 -0.019652752    1.4659172     2769 
 6852000 0.0061096601 -0.023767437    1.4299035 0.0025907537 -0.023767437    1.4536709     2768 
 6853000 0.0061496685 -0.019095015    1.4196653 0.0025845759 -0.019095015    1.4387603     2815 
 6854000 0.0061507055 -0.017648884    1.4311326 0.0026145324 -0.017648884    1.4487815     2796 
 6855000 0.0062249912 -0.023957215    1.4470571 0.0026253889 -0.023957215    1.4710143     2787 
 6856000 0.0061702035 -0.018453821    1.4438111 0.0026172473 -0.018453821     1.462265     2779 
 6857000 0.0062180061 -0.020677519    1.4502695 0.0026411405 -0.020677519    1.4709471     2784 
 6858000 0.0062169735 -0.021879963    1.4653836 0.0026527942 -0.021879963    1.4872635     2753 
 6859000 0.0062166701  -0.02131553    1.4572821  0.002629636  -0.02131553    1.4785976     2769 
 6860000 0.0062282484 -0.018209529    1.4525191 0.0026575606 -0.018209529    1.4707286     2789 
 6861000 0.0063674126 -0.020067796    1.4728173 0.0027302894 -0.020067796    1.4928851     2809 
 6862000 0.0063002903 -0.022918804     1.461628 0.0026550233 -0.022918804    1.4845468     2795 
 6863000 0.0062864097 -0.020426729    1.4550425 0.0026553567 -0.020426729    1.4754692     2806 
 6864000 0.0061237369 -0.026065887    1.4320078 0.0025976935 -0.026065887    1.4580737     2766 
 6865000 0.0060614463 -0.018992673    1.4395415 0.0025456882 -0.018992673    1.4585341     2737 
 6866000 0.0060866732 -0.020929624    1.4458183 0.0025722623 -0.020929624    1.4667479     2733 
 6867000 0.0062304021 -0.019965993    1.4629688 0.0026250341 -0.019965993    1.4829348     2767 
 6868000 0.0061298773 -0.019865167    1.4439042 0.0025698409 -0.019865167    1.4637694     2758 
 6869000 0.0061510599 -0.020751352    1.4459491 0.0025980059 -0.020751352    1.4667004     2762 
 6870000 0.0062103263 -0.023908581     1.447865 0.0026307617 -0.023908581    1.4717736     2779 
 6871000 0.0061290506  -0.02213153    1.4499806 0.0025949654  -0.02213153    1.4721121     2742 
 6872000 0.0061467896 -0.019389859    1.4425871  0.002636806 -0.019389859    1.4619769     2769 
 6873000 0.0062595241 -0.024729543    1.4651367 0.0026405146 -0.024729543    1.4898663     2767 
 6874000 0.0061019396 -0.023210807    1.4349446 0.0025990048 -0.023210807    1.4581554     2756 
 6875000  0.006178571 -0.023580102    1.4401412  0.002617924 -0.023580102    1.4637213     2780 
 6876000 0.0061438114 -0.018729017    1.4393801 0.0025967161 -0.018729017    1.4581091     2775 
 6877000 0.0064496232 -0.022778146    1.4824158 0.0027376074 -0.022778146    1.5051939     2822 
 6878000 0.0062585026 -0.024526212    1.4438697 0.0026321443 -0.024526212    1.4683959     2807 
 6879000  0.006337815 -0.021718288    1.4594817 0.0026888595 -0.021718288       1.4812     2818 
 6880000 0.0063079857 -0.024556006    1.4491497 0.0027023056 -0.024556006    1.4737057     2819 
 6881000 0.0063294254 -0.025545527    1.4552702  0.002691857 -0.025545527    1.4808157     2815 
 6882000  0.006423222 -0.026087677    1.4772065  0.002720567 -0.026087677    1.5032942     2814 
 6883000 0.0063779005 -0.021336486    1.4608165 0.0026940229 -0.021336486     1.482153     2834 
 6884000 0.0064170835 -0.020453294    1.4598364 0.0027192484 -0.020453294    1.4802897     2855 
 6885000 0.0063405519 -0.024067788    1.4556714 0.0026717819 -0.024067788    1.4797392     2822 
 6886000 0.0063935703 -0.022648811    1.4726429 0.0027006316 -0.022648811    1.4952917     2816 
 6887000 0.0064838411  -0.02193363    1.4769056 0.0027394099  -0.02193363    1.4988392     2849 
 6888000 0.0064925968 -0.022004717    1.4715193 0.0027607499 -0.022004717     1.493524     2863 
 6889000 0.0065344293 -0.027922128    1.4731277 0.0027479565 -0.027922128    1.5010498     2867 
 6890000 0.0063863328 -0.023744198    1.4603683 0.0027258263 -0.023744198    1.4841125     2834 
 6891000 0.0064453808 -0.022421266    1.4764712  0.002722825 -0.022421266    1.4988924     2832 
 6892000  0.006301117 -0.024728343    1.4552476 0.0026534488 -0.024728343     1.479976     2804 
 6893000 0.0064795528 -0.023358374    1.4734388 0.0027263168 -0.023358374    1.4967972     2851 
 6894000 0.0063602837 -0.023158237    1.4685865 0.0026889284 -0.023158237    1.4917448     2808 
 6895000 0.0063863478 -0.023945046    1.4659539 0.0027039311 -0.023945046     1.489899     2823 
 6896000 0.0064510148  -0.02324574    1.4833407 0.0027498486  -0.02324574    1.5065865     2820 
 6897000 0.0064848632 -0.023202585    1.4870046 0.0027527127 -0.023202585    1.5102072     2828 
 6898000 0.0063088663 -0.028173873    1.4696474 0.0026384075 -0.028173873    1.4978213     2774 
 6899000 0.0064716218 -0.028741653    1.4821217 0.0027449051 -0.028741653    1.5108633     2821 
 6900000 0.0064569673  -0.02459491    1.4892869 0.0027564114  -0.02459491    1.5138818     2809 
 6901000 0.0064207374 -0.026741729    1.4759709 0.0027019239 -0.026741729    1.5027127     2814 
 6902000 0.0064488711 -0.025840037     1.493717 0.0027396092 -0.025840037    1.5195571     2795 
 6903000 0.0065397705 -0.023165792    1.4923259 0.0027384158 -0.023165792    1.5154917     2842 
 6904000 0.0065507839 -0.023148594    1.5024104 0.0027585101 -0.023148594     1.525559     2828 
 6905000 0.0063509456 -0.020827428    1.4629148 0.0027094409 -0.020827428    1.4837422     2819 
 6906000 0.0063435544 -0.023284478    1.4703878 0.0026828396 -0.023284478    1.4936723     2797 
 6907000 0.0064363628 -0.029723503    1.4649606 0.0027307413 -0.029723503    1.4946841     2836 
 6908000  0.006353724  -0.02238827    1.4720757 0.0026824509  -0.02238827     1.494464     2800 
 6909000 0.0064725665 -0.023199807    1.5068675  0.002733553 -0.023199807    1.5300673     2786 
 6910000 0.0064387736 -0.023917779     1.511387 0.0027149766 -0.023917779    1.5353048     2762 
 6911000 0.0065192247 -0.025003703    1.5127815  0.002746143 -0.025003703    1.5377852     2792 
 6912000 0.0064420835 -0.023156117    1.4866986 0.0027533291 -0.023156117    1.5098547     2810 
 6913000 0.0064925565 -0.021815644    1.4998686 0.0027459515 -0.021815644    1.5216843     2810 
 6914000 0.0064539014 -0.023028842    1.4874455 0.0027392243 -0.023028842    1.5104744     2814 
 6915000 0.0066144735 -0.019057323    1.5186151 0.0027847933 -0.019057323    1.5376725     2833 
 6916000 0.0064807674 -0.019882569    1.4909736 0.0027740596 -0.019882569    1.5108561     2825 
 6917000 0.0064075761 -0.020483965    1.4839601 0.0027028701 -0.020483965     1.504444     2805 
 6918000 0.0064345859 -0.023561189     1.489382 0.0027206002 -0.023561189    1.5129432     2801 
 6919000 0.0065042503 -0.018894446    1.5175597  0.002777829 -0.018894446    1.5364542     2788 
 6920000 0.0064635537 -0.020912943    1.5070238 0.0027693755 -0.020912943    1.5279368     2786 
 6921000 0.0063950328 -0.023321156    1.4797854 0.0027259133 -0.023321156    1.5031066     2802 
 6922000 0.0063649958 -0.021280516    1.4860631 0.0026869192 -0.021280516    1.5073436     2781 
 6923000  0.006366103 -0.022337868    1.4825623 0.0027122106 -0.022337868    1.5049001     2786 
 6924000  0.006381474 -0.019661098    1.4970386 0.0027094525 -0.019661098    1.5166997     2771 
 6925000 0.0064224128 -0.023609763    1.4924249 0.0026951521 -0.023609763    1.5160347     2790 
 6926000 0.0062688845 -0.022127344    1.4732094 0.0026533747 -0.022127344    1.4953367     2761 
 6927000 0.0061300182 -0.020782872    1.4504885 0.0025864925 -0.020782872    1.4712714     2744 
 6928000 0.0060863279 -0.016516624    1.4480046 0.0025998334 -0.016516624    1.4645213     2737 
 6929000 0.0062818291 -0.018196071    1.4689174 0.0026595824 -0.018196071    1.4871135     2782 
 6930000 0.0062549456  -0.02133773     1.467977 0.0026680454  -0.02133773    1.4893148     2766 
 6931000 0.0062741635 -0.018297343    1.4654015 0.0027162351 -0.018297343    1.4836989     2785 
 6932000  0.006308682 -0.017012736    1.4668569 0.0026754407 -0.017012736    1.4838696     2800 
 6933000 0.0062032482  -0.01796496    1.4563754 0.0026345636  -0.01796496    1.4743404     2771 
 6934000 0.0062406085  -0.02166133    1.4610235 0.0026519423  -0.02166133    1.4826848     2772 
 6935000 0.0061094946  -0.02133964    1.4386212 0.0025727627  -0.02133964    1.4599608     2756 
 6936000 0.0061838123 -0.024222957      1.44074 0.0026159128 -0.024222957    1.4649629     2780 
 6937000 0.0060452811 -0.021753803    1.4176394 0.0025593105 -0.021753803    1.4393932     2766 
 6938000 0.0060149004 -0.022310116     1.418706 0.0025335852 -0.022310116    1.4410161     2749 
 6939000 0.0061338107 -0.019867167    1.4285611 0.0026070729 -0.019867167    1.4484282     2789 
 6940000  0.006111163 -0.018944274    1.4308939 0.0026172847 -0.018944274    1.4498382     2776 
 6941000 0.0060652989 -0.027640171    1.4280979 0.0025550733 -0.027640171    1.4557381     2744 
 6942000 0.0061206764 -0.021514808    1.4222589 0.0025964418 -0.021514808    1.4437737     2792 
 6943000  0.006214733 -0.024318699    1.4442715 0.0026270229 -0.024318699    1.4685902     2787 
 6944000 0.0061388412 -0.022461474    1.4313247  0.002626512 -0.022461474    1.4537862     2781 
 6945000  0.006104262 -0.020662093    1.4254551 0.0026182711 -0.020662093    1.4461172     2780 
 6946000 0.0062273451 -0.024247607    1.4467952 0.0026300949 -0.024247607    1.4710428     2788 
 6947000 0.0062040964 -0.020304883    1.4368834 0.0026223053 -0.020304883    1.4571882     2804 
 6948000  0.006203913  -0.02207157    1.4319623 0.0026581803  -0.02207157    1.4540338     2810 
 6949000  0.006204224 -0.023880808      1.43178 0.0026198493 -0.023880808    1.4556608     2807 
 6950000 0.0062461998 -0.024172243    1.4444764 0.0026344658 -0.024172243    1.4686486     2801 
 6951000 0.0062949491 -0.021765574    1.4478518 0.0026643316 -0.021765574    1.4696173     2821 
 6952000 0.0062066332 -0.021431528     1.448409 0.0026135025 -0.021431528    1.4698406     2781 
 6953000 0.0062432364 -0.023092223    1.4344523  0.002626407 -0.023092223    1.4575445     2821 
 6954000 0.0062231268 -0.023741384    1.4301391 0.0026417939 -0.023741384    1.4538805     2819 
 6955000 0.0062310212 -0.027287258    1.4305061 0.0026330517 -0.027287258    1.4577933     2815 
 6956000 0.0061911878 -0.024698065    1.4212077 0.0026076117 -0.024698065    1.4459058     2820 
 6957000 0.0061766295 -0.024693167    1.4317574 0.0025862852 -0.024693167    1.4564506     2793 
 6958000 0.0062271756 -0.022285389    1.4382401 0.0026088119 -0.022285389    1.4605255     2808 
 6959000 0.0061957319 -0.022355305    1.4406949 0.0026534576 -0.022355305    1.4630502     2789 
 6960000 0.0062285176 -0.027681595    1.4404785 0.0026138775 -0.027681595    1.4681601     2794 
 6961000 0.0062261497 -0.024968799    1.4426332 0.0026218712 -0.024968799     1.467602     2794 
 6962000 0.0062042549 -0.027544868    1.4328055 0.0026074608 -0.027544868    1.4603503     2798 
 6963000  0.006092007 -0.022627662    1.4470188  0.002559088 -0.022627662    1.4696465     2730 
 6964000 0.0061143026 -0.024968495    1.4409283 0.0025889383 -0.024968495    1.4658968     2747 
 6965000 0.0060081547 -0.021787202     1.414478 0.0025452628 -0.021787202    1.4362652     2755 
 6966000 0.0061160141 -0.021341868    1.4197836 0.0025744041 -0.021341868    1.4411255     2795 
 6967000 0.0061409314  -0.02268245    1.4315988 0.0026065834  -0.02268245    1.4542812     2781 
 6968000  0.006098933 -0.022483661    1.4177086 0.0026010804 -0.022483661    1.4401923     2789 
 6969000 0.0062249103 -0.021550467      1.44157 0.0026342199 -0.021550467    1.4631205     2802 
 6970000 0.0061215603 -0.021726961    1.4274457 0.0025932918 -0.021726961    1.4491727     2782 
 6971000 0.0062653629 -0.019689587    1.4368248 0.0026483031 -0.019689587    1.4565144     2833 
 6972000 0.0061292367 -0.022752869    1.4163395 0.0025738205 -0.022752869    1.4390923     2805 
 6973000 0.0062109616  -0.02157465     1.435148 0.0026200275  -0.02157465    1.4567226     2808 
 6974000  0.006059503 -0.020296031    1.4162512 0.0025621532 -0.020296031    1.4365472     2778 
 6975000 0.0061400643 -0.023863367    1.4391558 0.0026053957 -0.023863367    1.4630191     2764 
 6976000 0.0061676575 -0.021071946    1.4358712 0.0026121972 -0.021071946    1.4569432     2788 
 6977000 0.0062372001 -0.026011426    1.4426184 0.0026582613 -0.026011426    1.4686298     2797 
 6978000 0.0062328824 -0.023255685    1.4464593 0.0026762159 -0.023255685     1.469715     2793 
 6979000  0.006139173 -0.022190397    1.4369211 0.0025714584 -0.022190397    1.4591115     2771 
 6980000 0.0061961854 -0.025145103    1.4244981 0.0026073133 -0.025145103    1.4496433     2815 
 6981000 0.0061862882 -0.021893584    1.4478855 0.0026376716 -0.021893584    1.4697791     2772 
 6982000 0.0062381828 -0.023253332     1.460997 0.0026544395 -0.023253332    1.4842503     2768 
 6983000 0.0062213065 -0.028110584     1.447327 0.0026308542 -0.028110584    1.4754376     2777 
 6984000 0.0061426813   -0.0224042    1.4412385 0.0025943966   -0.0224042    1.4636427     2764 
 6985000 0.0059748818 -0.021637837     1.422928 0.0024998753 -0.021637837    1.4445659     2724 
 6986000 0.0060242503 -0.018470184    1.4195548 0.0025293147 -0.018470184     1.438025     2759 
 6987000 0.0061609509  -0.02067674    1.4457276 0.0026362288  -0.02067674    1.4664043     2767 
 6988000 0.0060971932 -0.021146164    1.4316579 0.0025779821 -0.021146164    1.4528041     2764 
 6989000 0.0061570702  -0.02214314    1.4465222 0.0026008462  -0.02214314    1.4686653     2761 
 6990000 0.0061764209 -0.020642256    1.4542414 0.0026732922 -0.020642256    1.4748836     2758 
 6991000 0.0061837421 -0.022851931    1.4543155 0.0026187723 -0.022851931    1.4771675     2757 
 6992000 0.0061586703 -0.026852453    1.4529136 0.0025902088 -0.026852453     1.479766     2741 
 6993000 0.0062041622 -0.026260905    1.4514965  0.002611015 -0.026260905    1.4777574     2765 
 6994000 0.0060086813 -0.020952214    1.4270015 0.0025167193 -0.020952214    1.4479537     2733 
 6995000 0.0060727313 -0.020889688     1.428708  0.002566447 -0.020889688    1.4495977     2759 
 6996000 0.0060427454 -0.023162112    1.4192778 0.0025555127 -0.023162112    1.4424399     2759 
 6997000 0.0061027641 -0.021302548    1.4296792 0.0025731298 -0.021302548    1.4509817     2770 
 6998000 0.0061197326 -0.026480589    1.4338073 0.0025915691 -0.026480589    1.4602879     2760 
 6999000 0.0061356448 -0.020079867    1.4397736 0.0026276721 -0.020079867    1.4598534     2768 
 7000000 0.0060568055 -0.022210713     1.436806 0.0025658777 -0.022210713    1.4590167     2734 
 7001000 0.0059928315 -0.021172291    1.4208514 0.0025556794 -0.021172291    1.4420237     2737 
 7002000 0.0059855217 -0.019411377    1.4140449 0.0025333149 -0.019411377    1.4334563     2750 
 7003000 0.0060138648 -0.019855059     1.425118 0.0025625396 -0.019855059    1.4449731     2741 
 7004000 0.0060871971 -0.020344698     1.442782  0.002590052 -0.020344698    1.4631267     2740 
 7005000 0.0061634877 -0.023028835    1.4541223 0.0026206892 -0.023028835    1.4771512     2748 
 7006000 0.0060554215 -0.019776579     1.440509 0.0025937512 -0.019776579    1.4602856     2731 
 7007000 0.0060427831 -0.023012468    1.4417341 0.0025382267 -0.023012468    1.4647466     2717 
 7008000 0.0059538436 -0.020318918    1.4298075 0.0025443413 -0.020318918    1.4501264     2704 
 7009000 0.0060391727 -0.020386721    1.4402592 0.0025298073 -0.020386721    1.4606459     2723 
 7010000 0.0060439079 -0.019302916    1.4495005 0.0025690323 -0.019302916    1.4688034     2710 
 7011000 0.0061267311 -0.019757195    1.4561038 0.0026100552 -0.019757195     1.475861     2734 
 7012000 0.0061426687 -0.021925806    1.4577743 0.0025982343 -0.021925806    1.4797001     2734 
 7013000 0.0060931024 -0.018991933    1.4574085 0.0025623131 -0.018991933    1.4764004     2718 
 7014000 0.0060705889 -0.021904958    1.4271814 0.0025651143 -0.021904958    1.4490863     2759 
 7015000 0.0060683414 -0.018181865    1.4272246 0.0025708581 -0.018181865    1.4454065     2765 
 7016000 0.0061524569   -0.0206939    1.4399934 0.0026051488   -0.0206939    1.4606873     2774 
 7017000 0.0061588318 -0.019136187    1.4399088 0.0026278157 -0.019136187     1.459045     2780 
 7018000 0.0060831015 -0.023728689    1.4267673 0.0025815822 -0.023728689     1.450496     2762 
 7019000 0.0061414937 -0.021008402    1.4444722 0.0026280239 -0.021008402    1.4654806     2760 
 7020000 0.0060550344  -0.02415362    1.4254229 0.0025861241  -0.02415362    1.4495766     2751 
 7021000 0.0059332147  -0.02127449     1.406404 0.0025246207  -0.02127449    1.4276784     2737 
 7022000 0.0058965952 -0.021225092      1.40389 0.0024848027 -0.021225092    1.4251151     2725 
 7023000 0.0059333208 -0.019167937    1.4017869 0.0025038071 -0.019167937    1.4209548     2750 
 7024000 0.0059022025 -0.023841413    1.4015827 0.0025022727 -0.023841413    1.4254241     2727 
 7025000 0.0060081429 -0.021155346    1.4161504 0.0025709308 -0.021155346    1.4373058     2753 
 7026000 0.0060668087  -0.01926115    1.4226514 0.0025708095  -0.01926115    1.4419125     2771 
 7027000 0.0060398255  -0.02010527    1.4242552 0.0025388912  -0.02010527    1.4443604     2754 
 7028000 0.0060948545 -0.019783624    1.4403874 0.0025873575 -0.019783624     1.460171     2749 
 7029000 0.0060730131 -0.020953206    1.4297634 0.0026271525 -0.020953206    1.4507166     2757 
 7030000 0.0060768808 -0.024252942    1.4273876 0.0025478658 -0.024252942    1.4516405     2757 
 7031000 0.0061179729 -0.024469176    1.4369874 0.0025995856 -0.024469176    1.4614566     2757 
 7032000 0.0060269683 -0.019508468    1.4170826  0.002570667 -0.019508468    1.4365911     2763 
 7033000 0.0060741598  -0.01995142    1.4331473 0.0025548826  -0.01995142    1.4530988     2753 
 7034000 0.0058382907 -0.020733021    1.3986246 0.0024933442 -0.020733021    1.4193577     2709 
 7035000 0.0059521583 -0.021874731    1.4198435 0.0025212507 -0.021874731    1.4417183     2719 
 7036000 0.0059458173  -0.01717271    1.4177323  0.002558379  -0.01717271     1.434905     2729 
 7037000 0.0059838195 -0.019855356    1.4252798 0.0025353714 -0.019855356    1.4451352     2727 
 7038000 0.0060193222 -0.016951359     1.423552  0.002613814 -0.016951359    1.4405034     2752 
 7039000 0.0060256563 -0.021676371      1.41825 0.0025951267 -0.021676371    1.4399263     2756 
 7040000  0.006204712 -0.019792837    1.4629217 0.0026394046 -0.019792837    1.4827145     2756 
 7041000 0.0061721111 -0.021231047    1.4579868 0.0026030773 -0.021231047    1.4792178     2748 
 7042000 0.0060211406 -0.021405812     1.436485 0.0025659392 -0.021405812    1.4578908     2720 
 7043000 0.0061095225 -0.019915929    1.4405815 0.0025845272 -0.019915929    1.4604974     2755 
 7044000 0.0061469669 -0.024656435     1.441068 0.0025862829 -0.024656435    1.4657244     2762 
 7045000 0.0061286732 -0.021454665     1.445751 0.0026357624 -0.021454665    1.4672057     2751 
 7046000 0.0062002027 -0.020243447    1.4391531 0.0026365423 -0.020243447    1.4593965     2798 
 7047000 0.0062550621 -0.021409975    1.4614991  0.002631935 -0.021409975    1.4829091     2778 
 7048000  0.006282964 -0.022508883    1.4767292  0.002656607 -0.022508883    1.4992381     2760 
 7049000  0.006244861  -0.01842642    1.4679498 0.0026786706  -0.01842642    1.4863762     2767 
 7050000 0.0061580632 -0.024288571    1.4393126 0.0026285658 -0.024288571    1.4636012     2771 
 7051000 0.0060454767 -0.021449697    1.4321795 0.0025582348 -0.021449697    1.4536292     2739 
 7052000 0.0061083488 -0.028302162    1.4319147 0.0025459103 -0.028302162    1.4602168     2755 
 7053000 0.0060649957 -0.022374536    1.4364807 0.0025688575 -0.022374536    1.4588552     2738 
 7054000 0.0059764018 -0.021639992     1.423824 0.0025765234 -0.021639992     1.445464     2723 
 7055000 0.0060885159 -0.026263769    1.4239481 0.0025904645 -0.026263769    1.4502118     2765 
 7056000 0.0062066162  -0.02444218    1.4533652 0.0026261633  -0.02444218    1.4778074     2766 
 7057000 0.0062611655 -0.030226785    1.4589538 0.0026440303 -0.030226785    1.4891806     2769 
 7058000 0.0062228509 -0.025813767    1.4666507 0.0026169546 -0.025813767    1.4924644     2746 
 7059000 0.0060517443 -0.028305208    1.4305595 0.0025512103 -0.028305208    1.4588647     2732 
 7060000  0.006021504 -0.027888513    1.4210345 0.0025406288 -0.027888513     1.448923     2737 
 7061000 0.0061733806 -0.026828981    1.4473287 0.0026268121 -0.026828981    1.4741576     2758 
 7062000 0.0061277973 -0.022833979    1.4420321 0.0026149878 -0.022833979    1.4648661     2755 
 7063000 0.0061666333 -0.024065342    1.4608645 0.0025984992 -0.024065342    1.4849298     2735 
 7064000 0.0061555683 -0.023539023     1.444768  0.002587727 -0.023539023     1.468307     2761 
 7065000 0.0061379275 -0.022712154    1.4526082 0.0026059505 -0.022712154    1.4753203     2740 
 7066000 0.0060993872 -0.024287595    1.4444493 0.0025879644 -0.024287595    1.4687369     2735 
 7067000 0.0062508585 -0.024284016    1.4738066 0.0026527364 -0.024284016    1.4980906     2748 
 7068000 0.0062517769 -0.022075788    1.4724279 0.0026607418 -0.022075788    1.4945037     2755 
 7069000 0.0061543036 -0.019800352     1.456224  0.002609904 -0.019800352    1.4760243     2746 
 7070000  0.006248361 -0.019551488    1.4784857  0.002634295 -0.019551488    1.4980372     2747 
 7071000 0.0062166601 -0.022837158     1.471953 0.0026095773 -0.022837158    1.4947901     2739 
 7072000 0.0061301429 -0.022374265    1.4532291 0.0026156994 -0.022374265    1.4756034     2736 
 7073000 0.0061884044 -0.017979558    1.4798599 0.0026213988 -0.017979558    1.4978395     2721 
 7074000 0.0061792984 -0.023730808    1.4637049 0.0026228601 -0.023730808    1.4874357     2736 
 7075000 0.0060826358 -0.022772035    1.4403262 0.0025874773 -0.022772035    1.4630983     2738 
 7076000 0.0061259554 -0.022183348    1.4470421 0.0025860052 -0.022183348    1.4692254     2746 
 7077000 0.0060590798 -0.022374609    1.4271166 0.0025365011 -0.022374609    1.4494912     2753 
 7078000  0.006059688 -0.020572349    1.4380716 0.0025570049 -0.020572349     1.458644     2736 
 7079000 0.0060977784 -0.020666434    1.4444689 0.0025651195 -0.020666434    1.4651353     2741 
 7080000 0.0061023075 -0.023776151    1.4451269 0.0025743884 -0.023776151     1.468903     2736 
 7081000 0.0060410252 -0.021320284    1.4328313 0.0025781902 -0.021320284    1.4541516     2736 
 7082000   0.00595541 -0.021750388    1.4159965 0.0025076325 -0.021750388    1.4377469     2728 
 7083000  0.005930185 -0.021533841    1.4017754  0.002511245 -0.021533841    1.4233092     2744 
 7084000 0.0060054249 -0.024513652     1.412664 0.0025382864 -0.024513652    1.4371776     2752 
 7085000 0.0060769707 -0.024481226    1.4426127 0.0025574524 -0.024481226    1.4670939     2728 
 7086000 0.0061706427 -0.022074928    1.4503611   0.00262037 -0.022074928    1.4724361     2760 
 7087000 0.0061292223 -0.022666926     1.450561 0.0025841935 -0.022666926    1.4732279     2740 
 7088000 0.0061256161 -0.023324056    1.4479632 0.0026071524 -0.023324056    1.4712872     2742 
 7089000 0.0061481227  -0.02175197    1.4389595 0.0026360579  -0.02175197    1.4607115     2772 
 7090000 0.0061597118 -0.021381199    1.4591752 0.0026051845 -0.021381199    1.4805564     2740 
 7091000 0.0062141855 -0.021009003    1.4490343 0.0026991096 -0.021009003    1.4700433     2784 
 7092000 0.0062113273 -0.018590107    1.4491954 0.0026197265 -0.018590107    1.4677855     2787 
 7093000 0.0061565248 -0.018739172    1.4556702 0.0026083292 -0.018739172    1.4744093     2750 
 7094000 0.0060962009 -0.022196873    1.4372349  0.002566796 -0.022196873    1.4594318     2751 
 7095000 0.0061605519 -0.018650795    1.4476585 0.0026177422 -0.018650795    1.4663093     2767 
 7096000 0.0061035341 -0.019163159    1.4278226 0.0025795102 -0.019163159    1.4469858     2778 
 7097000 0.0061606073 -0.019448766    1.4607827 0.0025944433 -0.019448766    1.4802314     2741 
 7098000 0.0062478993 -0.020048172    1.4751568 0.0026247738 -0.020048172    1.4952049     2752 
 7099000  0.006225594 -0.018270448    1.4721381 0.0026467958 -0.018270448    1.4904086     2751 
 7100000 0.0061392225  -0.02200076    1.4536308  0.002620443  -0.02200076    1.4756316     2740 
 7101000 0.0060624627 -0.020284174     1.448692 0.0026056835 -0.020284174    1.4689762     2718 
 7102000 0.0060379418 -0.017358035    1.4510792 0.0025858453 -0.017358035    1.4684372     2708 
 7103000 0.0061012232 -0.023842814    1.4464113 0.0025571509 -0.023842814    1.4702542     2733 
 7104000 0.0060720433 -0.023159652    1.4405984 0.0025653612 -0.023159652     1.463758     2732 
 7105000  0.006059719 -0.022382946    1.4394743 0.0026061219 -0.022382946    1.4618573     2730 
 7106000 0.0061200389 -0.024513048    1.4422251 0.0026073859 -0.024513048    1.4667381     2748 
 7107000 0.0060973446 -0.022999377      1.44043 0.0026110479 -0.022999377    1.4634294     2744 
 7108000 0.0061411479 -0.022373412    1.4510323 0.0025839202 -0.022373412    1.4734057     2745 
 7109000 0.0060150817 -0.021976894    1.4307083 0.0025514856 -0.021976894    1.4526852     2727 
 7110000  0.006005446 -0.023003432    1.4247003 0.0025209178 -0.023003432    1.4477038     2732 
 7111000 0.0060998611 -0.023399934    1.4279395 0.0025898621 -0.023399934    1.4513394     2768 
 7112000 0.0061012986 -0.023135724    1.4348665  0.002598719 -0.023135724    1.4580023     2756 
 7113000 0.0060891238 -0.020670546     1.437067   0.00256738 -0.020670546    1.4577376     2751 
 7114000 0.0061896168 -0.023101079    1.4432369 0.0026112067 -0.023101079     1.466338     2780 
 7115000 0.0061364392 -0.026402503    1.4299569 0.0025906169 -0.026402503    1.4563595     2775 
 7116000  0.006172875 -0.019966183     1.451936 0.0026472186 -0.019966183    1.4719022     2762 
 7117000 0.0062100019 -0.019589941    1.4395057 0.0026212578 -0.019589941    1.4590957     2803 
 7118000  0.006217285 -0.020898636    1.4551799 0.0026088803 -0.020898636    1.4760785     2774 
 7119000 0.0061689225 -0.016595552    1.4543641 0.0026250277 -0.016595552    1.4709597     2762 
 7120000 0.0061671202 -0.022007957    1.4495876 0.0026181052 -0.022007957    1.4715955     2760 
 7121000 0.0061851688 -0.022915501    1.4497853 0.0026300447 -0.022915501    1.4727008     2766 
 7122000 0.0061993442 -0.019526497     1.454418 0.0026052347 -0.019526497    1.4739444     2770 
 7123000  0.006156105 -0.023237651    1.4377891 0.0026199592 -0.023237651    1.4610267     2775 
 7124000 0.0061503733 -0.023040169    1.4366263 0.0026068324 -0.023040169    1.4596664     2775 
 7125000 0.0061490114 -0.022065455    1.4420262 0.0025915844 -0.022065455    1.4640916     2766 
 7126000 0.0061638395 -0.022515649    1.4525727 0.0025965394 -0.022515649    1.4750883     2752 
 7127000 0.0062178655 -0.023188054    1.4466698 0.0026293206 -0.023188054    1.4698579     2786 
 7128000 0.0061324281 -0.018608974    1.4383736 0.0026096956 -0.018608974    1.4569826     2772 
 7129000 0.0061803482 -0.026945564     1.435093 0.0026058975 -0.026945564    1.4620386     2784 
 7130000 0.0061654855 -0.022943976    1.4440094 0.0026222637 -0.022943976    1.4669534     2768 
 7131000 0.0061680313 -0.021264608    1.4494826 0.0026235485 -0.021264608    1.4707472     2762 
 7132000 0.0060370818 -0.020958502    1.4301224 0.0025399507 -0.020958502    1.4510809     2740 
 7133000 0.0060902749 -0.025725258    1.4392105 0.0025696323 -0.025725258    1.4649358     2738 
 7134000 0.0061162053 -0.025098635    1.4503855 0.0025927776 -0.025098635    1.4754841     2730 
 7135000 0.0062156268 -0.028465394    1.4628095  0.002633527 -0.028465394    1.4912749     2745 
 7136000 0.0062605158 -0.024956043    1.4678438 0.0026588117 -0.024956043    1.4927998     2762 
 7137000 0.0062947552 -0.021743767    1.4673593  0.002664956 -0.021743767     1.489103     2784 
 7138000 0.0062572877 -0.019737327    1.4690586 0.0026652273 -0.019737327    1.4887959     2768 
 7139000 0.0062634728 -0.023151164    1.4543061 0.0026210857 -0.023151164    1.4774572     2792 
 7140000 0.0062088135 -0.020625844    1.4465656 0.0026370869 -0.020625844    1.4671914     2787 
 7141000 0.0062036065 -0.023596566    1.4407881 0.0026330942 -0.023596566    1.4643847     2790 
 7142000  0.006262325 -0.019443387    1.4529967 0.0026704954 -0.019443387    1.4724401     2801 
 7143000 0.0062867936 -0.019006042    1.4576057 0.0026855415 -0.019006042    1.4766118     2804 
 7144000 0.0062908834 -0.021394732    1.4572323 0.0026590781 -0.021394732     1.478627     2802 
 7145000 0.0062677997 -0.023264331     1.451516 0.0026655992 -0.023264331    1.4747804     2799 
 7146000 0.0062955117 -0.020034793    1.4476328 0.0026471483 -0.020034793    1.4676676     2825 
 7147000 0.0063903356 -0.020446762    1.4583344 0.0027237144 -0.020446762    1.4787811     2846 
 7148000  0.006485368 -0.021105285    1.4660808 0.0027474643 -0.021105285    1.4871861     2872 
 7149000 0.0064777602 -0.021056649    1.4821809 0.0027560525 -0.021056649    1.5032375     2838 
 7150000 0.0064679852 -0.023665205    1.4895676  0.002719797 -0.023665205    1.5132328     2815 
 7151000 0.0065356061 -0.027044308    1.4998393 0.0027624216 -0.027044308    1.5268836     2819 
 7152000 0.0064717067 -0.022787291    1.4732469 0.0027202021 -0.022787291    1.4960341     2849 
 7153000 0.0064798556 -0.021689616    1.4772806 0.0027842855 -0.021689616    1.4989702     2847 
 7154000 0.0064886001 -0.020484923    1.4927329 0.0027884554 -0.020484923    1.5132178     2824 
 7155000 0.0064291996 -0.024415675    1.4845674 0.0027476632 -0.024415675    1.5089831     2806 
 7156000 0.0065353266 -0.019607462    1.5023518 0.0027657634 -0.019607462    1.5219592     2828 
 7157000 0.0064567857 -0.024083783    1.4817146 0.0026868693 -0.024083783    1.5057983     2824 
 7158000 0.0064594245 -0.021527201    1.4838204 0.0027518238 -0.021527201    1.5053476     2826 
 7159000 0.0063486606 -0.021894029    1.4724463  0.002714608 -0.021894029    1.4943404     2798 
 7160000  0.006382547  -0.02212641    1.4737745 0.0027133008  -0.02212641    1.4959009     2810 
 7161000 0.0062927708 -0.020067806    1.4558424 0.0026677218 -0.020067806    1.4759102     2808 
 7162000 0.0064869364 -0.021997807    1.4929779 0.0027742259 -0.021997807    1.5149757     2820 
 7163000 0.0064498999 -0.023388714    1.4824034 0.0027251637 -0.023388714    1.5057921     2821 
 7164000 0.0064946313 -0.021310751    1.4938501 0.0027764095 -0.021310751    1.5151609     2823 
 7165000 0.0065364019 -0.020452763    1.4969279 0.0027501678 -0.020452763    1.5173806     2837 
 7166000 0.0065137335 -0.020106756    1.4925448 0.0027746504 -0.020106756    1.5126515     2836 
 7167000 0.0064849706 -0.019994086    1.4886378 0.0027432615 -0.019994086    1.5086319     2831 
 7168000 0.0064770152 -0.019804035    1.4869771 0.0027698715 -0.019804035    1.5067812     2831 
 7169000  0.006495469 -0.020537804    1.4788842  0.002763158 -0.020537804     1.499422     2853 
 7170000 0.0063954845  -0.02585551    1.4667037 0.0027204302  -0.02585551    1.4925592     2822 
 7171000 0.0063857788 -0.022192316    1.4570937 0.0027039304 -0.022192316     1.479286     2843 
 7172000 0.0063914341  -0.01935337    1.4717322   0.00272225  -0.01935337    1.4910856     2823 
 7173000 0.0063578251 -0.019575064    1.4753196 0.0027224946 -0.019575064    1.4948947     2801 
 7174000 0.0064511559  -0.02339956    1.4928984 0.0027540627  -0.02339956    1.5162979     2802 
 7175000 0.0064563077 -0.021889004    1.4902233 0.0027260557 -0.021889004    1.5121123     2812 
 7176000 0.0064079852 -0.021000553    1.4734169 0.0027552727 -0.021000553    1.4944175     2824 
 7177000 0.0064230051 -0.024841044    1.4677937 0.0027058306 -0.024841044    1.4926348     2834 
 7178000 0.0061939475  -0.02185879    1.4324271 0.0026485008  -0.02185879    1.4542859     2805 
 7179000 0.0062656497 -0.020244706    1.4498281 0.0026430751 -0.020244706    1.4700728     2807 
 7180000 0.0062728549 -0.020528487    1.4533351 0.0026434362 -0.020528487    1.4738635     2803 
 7181000 0.0062494317 -0.020947414    1.4692094 0.0026435685 -0.020947414    1.4901569     2762 
 7182000 0.0062040751 -0.022924904     1.445254 0.0026392978 -0.022924904    1.4681789     2783 
 7183000 0.0061313715 -0.020413903    1.4415919 0.0025926307 -0.020413903    1.4620058     2762 
 7184000 0.0061581941  -0.02543141    1.4292763 0.0026084125  -0.02543141    1.4547077     2788 
 7185000 0.0060124792 -0.022091051    1.4278389 0.0025544424 -0.022091051    1.4499299     2731 
 7186000 0.0060841028 -0.019193812    1.4315409 0.0025537272 -0.019193812    1.4507347     2762 
 7187000 0.0060479815 -0.018576908    1.4261602 0.0025748246 -0.018576908    1.4447371     2757 
 7188000 0.0059633234   -0.0180523    1.4111272 0.0025139706   -0.0180523    1.4291795     2748 
 7189000 0.0060682622 -0.019046309    1.4190598 0.0025708883 -0.019046309    1.4381061     2779 
 7190000 0.0060410207 -0.021669092    1.4250785 0.0025641148 -0.021669092    1.4467476     2750 
 7191000 0.0060479409 -0.018189637    1.4234005   0.00258098 -0.018189637    1.4415901     2763 
 7192000  0.006006258 -0.021347398    1.4249639 0.0025172938 -0.021347398    1.4463113     2735 
 7193000 0.0060475601 -0.021887806    1.4280076 0.0026012139 -0.021887806    1.4498954     2747 
 7194000   0.00604006 -0.025380137    1.4269467 0.0025535439 -0.025380137    1.4523268     2739 
 7195000 0.0062212881 -0.022600247    1.4565615 0.0026472972 -0.022600247    1.4791618     2770 
 7196000 0.0062395623 -0.022793759    1.4564407 0.0026766735 -0.022793759    1.4792345     2778 
 7197000 0.0061693785 -0.024981486    1.4541197 0.0026279055 -0.024981486    1.4791012     2747 
 7198000 0.0062404669 -0.028447136    1.4430563 0.0026510607 -0.028447136    1.4715034     2793 
 7199000 0.0062249506 -0.024068282    1.4416772 0.0026312965 -0.024068282    1.4657455     2797 
 7200000 0.0062785845 -0.022723712     1.457238 0.0026805585 -0.022723712    1.4799617     2794 
 7201000 0.0062426081 -0.025671588    1.4437063 0.0026568082 -0.025671588    1.4693779     2798 
 7202000 0.0061850729 -0.023435833    1.4460545 0.0026090538 -0.023435833    1.4694903     2772 
 7203000 0.0060918327 -0.026184821    1.4423438 0.0025525433 -0.026184821    1.4685286     2732 
 7204000 0.0060628993 -0.022104302    1.4421292 0.0025832614 -0.022104302    1.4642335     2727 
 7205000 0.0061911575 -0.023772389     1.451421 0.0026521225 -0.023772389    1.4751934     2764 
 7206000 0.0062534551 -0.024153808     1.459977 0.0026425515 -0.024153808    1.4841308     2775 
 7207000   0.00619471 -0.024414915    1.4526937 0.0026328099 -0.024414915    1.4771086     2762 
 7208000 0.0062133962 -0.026010777    1.4502088 0.0026387172 -0.026010777    1.4762196     2772 
 7209000 0.0062358433 -0.022359513    1.4575915 0.0026395172 -0.022359513     1.479951     2775 
 7210000 0.0062630644 -0.024657829    1.4585466 0.0026332931 -0.024657829    1.4832045     2781 
 7211000 0.0061471341  -0.02484747    1.4441079 0.0025834363  -0.02484747    1.4689554     2756 
 7212000 0.0062036939 -0.027124512    1.4602038 0.0026390416 -0.027124512    1.4873283     2747 
 7213000 0.0062737672 -0.024838124    1.4492398 0.0026669658 -0.024838124    1.4740779     2803 
 7214000 0.0062798683 -0.027381431    1.4528829 0.0026514921 -0.027381431    1.4802643     2794 
 7215000 0.0062762682 -0.021532865    1.4562961 0.0026420705 -0.021532865    1.4778289     2797 
 7216000  0.006322878 -0.025084942     1.462655 0.0026718163 -0.025084942      1.48774     2799 
 7217000 0.0062463431 -0.021562065    1.4529107 0.0026266814 -0.021562065    1.4744728     2790 
 7218000 0.0061755399 -0.025857805    1.4397814 0.0025986522 -0.025857805    1.4656392     2775 
 7219000  0.006154485 -0.021664487    1.4374004 0.0026066623 -0.021664487    1.4590649     2778 
 7220000 0.0062058956 -0.020069421    1.4522435 0.0026399525 -0.020069421     1.472313     2776 
 7221000 0.0061839125 -0.021574003    1.4476406 0.0026329296 -0.021574003    1.4692146     2772 
 7222000 0.0061533145 -0.020411094    1.4441756 0.0026360922 -0.020411094    1.4645867     2767 
 7223000 0.0061089088 -0.023847112    1.4418237 0.0026003884 -0.023847112    1.4656708     2745 
 7224000 0.0060832184 -0.019648808    1.4329788 0.0025700462 -0.019648808    1.4526276     2758 
 7225000 0.0061451537 -0.021930744    1.4302174 0.0025936733 -0.021930744    1.4521481     2787 
 7226000 0.0061137712 -0.027561829    1.4307752 0.0025795895 -0.027561829     1.458337     2761 
 7227000  0.006112973 -0.022199865    1.4476588 0.0026035329 -0.022199865    1.4698587     2739 
 7228000 0.0061372903 -0.025405399    1.4422627  0.002584278 -0.025405399    1.4676681     2754 
 7229000 0.0060362987 -0.024266933    1.4399857 0.0025649554 -0.024266933    1.4642526     2715 
 7230000 0.0060244875 -0.020859474    1.4235043 0.0025449433 -0.020859474    1.4443637     2747 
 7231000 0.0060069998 -0.021789644    1.4168103 0.0025320627 -0.021789644       1.4386     2750 
 7232000 0.0060372722 -0.022245059    1.4272945 0.0025423221 -0.022245059    1.4495396     2743 
 7233000 0.0060000463 -0.024102367    1.4164993 0.0025138605 -0.024102367    1.4406017     2743 
 7234000 0.0059553794 -0.020916032    1.4221131 0.0025556972 -0.020916032    1.4430292     2718 
 7235000 0.0059370743 -0.021461279    1.4160747 0.0024867716 -0.021461279    1.4375359     2720 
 7236000 0.0060753812 -0.023808872     1.421184 0.0025727052 -0.023808872    1.4449929     2769 
 7237000 0.0059608879 -0.020430419    1.4223411 0.0025187197 -0.020430419    1.4427715     2721 
 7238000  0.006007671 -0.019306421    1.4305258 0.0025476243 -0.019306421    1.4498322     2729 
 7239000 0.0059390088 -0.021762082    1.4094021 0.0025114778 -0.021762082    1.4311642     2733 
 7240000 0.0059713216 -0.022430336    1.4265942 0.0025158548 -0.022430336    1.4490246     2714 
 7241000 0.0059605102   -0.0207218    1.4172022 0.0025235807   -0.0207218     1.437924     2730 
 7242000 0.0061216987 -0.017810388    1.4418889 0.0026308455 -0.017810388    1.4596993     2762 
 7243000 0.0060129237 -0.020888042     1.427558 0.0025384323 -0.020888042     1.448446     2734 
 7244000 0.0059656411 -0.022402903    1.4332887 0.0025272855 -0.022402903    1.4556916     2699 
 7245000 0.0059344363 -0.017019266    1.4353629 0.0025278469 -0.017019266    1.4523822     2691 
 7246000 0.0060528208 -0.023377704    1.4475917 0.0025749801 -0.023377704    1.4709695     2710 
 7247000 0.0060098868 -0.021249304    1.4501453 0.0025572798 -0.021249304    1.4713946     2690 
 7248000  0.005987585 -0.019344374    1.4325568 0.0025475696 -0.019344374    1.4519012     2716 
 7249000 0.0060308507 -0.022778383    1.4342495 0.0025491265 -0.022778383    1.4570279     2726 
 7250000 0.0059062176 -0.021211529    1.4258777  0.002497981 -0.021211529    1.4470892     2688 
 7251000 0.0058761494 -0.018678803    1.4189041  0.002514425 -0.018678803    1.4375829     2692 
 7252000 0.0059627834  -0.02663174    1.4397721 0.0024919047  -0.02663174    1.4664038     2678 
 7253000  0.005924839 -0.019093948     1.433098  0.002492728 -0.019093948    1.4521919     2687 
 7254000 0.0060278984 -0.023055204    1.4359355 0.0025553564 -0.023055204    1.4589907     2721 
 7255000 0.0060972601 -0.021665625    1.4546559 0.0025689866 -0.021665625    1.4763215     2720 
 7256000 0.0058753435 -0.021721773    1.4302266 0.0024826829 -0.021721773    1.4519484     2665 
 7257000 0.0060005789 -0.022986799    1.4417727 0.0025053915 -0.022986799    1.4647595     2698 
 7258000 0.0060967877 -0.021425426    1.4386776 0.0026113098 -0.021425426    1.4601031     2750 
 7259000 0.0060939498 -0.021463108    1.4284698 0.0025762628 -0.021463108     1.449933     2768 
 7260000 0.0061012154 -0.023719861    1.4258471  0.002573253 -0.023719861    1.4495669     2772 
 7261000 0.0061337611 -0.024341763    1.4483647 0.0026075432 -0.024341763    1.4727064     2743 
 7262000 0.0059560493 -0.022413924    1.4325544  0.002549442 -0.022413924    1.4549683     2696 
 7263000 0.0060517894  -0.02081468    1.4348639 0.0025789275  -0.02081468    1.4556786     2738 
 7264000 0.0061156959 -0.022553237     1.443144  0.002591425 -0.022553237    1.4656973     2748 
 7265000 0.0059891434  -0.02327492    1.4370694 0.0025404838  -0.02327492    1.4603443     2701 
 7266000  0.006070108 -0.020743169    1.4420129  0.002606394 -0.020743169    1.4627561     2733 
 7267000 0.0060109531 -0.024192089    1.4285615 0.0025493704 -0.024192089    1.4527536     2725 
 7268000 0.0060747535  -0.02374543    1.4252846  0.002586236  -0.02374543      1.44903     2761 
 7269000 0.0059652802 -0.021043974    1.4101669 0.0025195086 -0.021043974    1.4312109     2745 
 7270000 0.0060258869 -0.025695399    1.4184781 0.0025133079 -0.025695399    1.4441735     2748 
 7271000 0.0060197587   -0.0225338    1.4025391 0.0025760062   -0.0225338    1.4250729     2782 
 7272000  0.006069356 -0.024354671    1.4145284 0.0025400602 -0.024354671    1.4388831     2778 
 7273000 0.0060273497 -0.021436726     1.414206 0.0025742306 -0.021436726    1.4356428     2765 
 7274000 0.0059514768 -0.020316072    1.4201775 0.0025347568 -0.020316072    1.4404936     2721 
 7275000 0.0060558331 -0.022022623    1.4431909 0.0025396547 -0.022022623    1.4652135     2722 
 7276000  0.006019815 -0.021403563    1.4260554  0.002533496 -0.021403563    1.4474589     2739 
 7277000 0.0061351297 -0.020197287    1.4490882 0.0025889996 -0.020197287    1.4692855     2750 
 7278000 0.0061038389 -0.022856339    1.4480281 0.0025771738 -0.022856339    1.4708845     2733 
 7279000 0.0061232979 -0.018733351    1.4557613  0.002626627 -0.018733351    1.4744946     2735 
 7280000 0.0063588248 -0.023124553    1.4762877 0.0027147441 -0.023124553    1.4994123     2793 
 7281000 0.0062232275 -0.020611146    1.4563458 0.0026347301 -0.020611146    1.4769569     2775 
 7282000 0.0061250492 -0.018704192    1.4551344 0.0025914524 -0.018704192    1.4738386     2737 
 7283000 0.0060424259 -0.022657617    1.4561537 0.0025766249 -0.022657617    1.4788113     2691 
 7284000  0.006096634 -0.021424012    1.4591004 0.0025957493 -0.021424012    1.4805244     2712 
 7285000  0.006112222 -0.023675305    1.4584485 0.0025992351 -0.023675305    1.4821238     2716 
 7286000 0.0061201973  -0.02737113    1.4610708 0.0025857162  -0.02737113    1.4884419     2708 
 7287000 0.0062039622 -0.026514952    1.4668577 0.0025986888 -0.026514952    1.4933726     2736 
 7288000 0.0060795712 -0.022659911    1.4553559 0.0025483959 -0.022659911    1.4780158     2709 
 7289000 0.0060501537 -0.020774425    1.4615807 0.0025692387 -0.020774425    1.4823552     2688 
 7290000 0.0059688893 -0.018199976    1.4546553 0.0025312887 -0.018199976    1.4728553     2669 
 7291000   0.00601786 -0.022209707    1.4397241 0.0025287531 -0.022209707    1.4619338     2711 
 7292000 0.0060010703 -0.024512106    1.4349579 0.0025269873 -0.024512106    1.4594701     2708 
 7293000 0.0060964146  -0.02508576    1.4488635 0.0025852009  -0.02508576    1.4739492     2724 
 7294000 0.0060425594 -0.021798595    1.4412783 0.0025422276 -0.021798595    1.4630769     2720 
 7295000 0.0060199412 -0.021834002    1.4487421 0.0025579676 -0.021834002    1.4705761     2696 
 7296000 0.0061863984 -0.023387458    1.4734164 0.0026054343 -0.023387458    1.4968039     2722 
 7297000 0.0061614844 -0.026613876    1.4790974 0.0026334149 -0.026613876    1.5057113     2695 
 7298000 0.0060443851 -0.023847795     1.468755 0.0025557597 -0.023847795    1.4926028     2667 
 7299000 0.0061418324 -0.026861344    1.4701592 0.0025846229 -0.026861344    1.4970205     2702 
 7300000 0.0061542826  -0.02499724    1.4569585 0.0025834421  -0.02499724    1.4819558     2735 
 7301000 0.0060451116 -0.026539299    1.4382326 0.0025826105 -0.026539299    1.4647719     2718 
 7302000 0.0059000694 -0.023189895    1.4111869 0.0024952153 -0.023189895    1.4343768     2709 
 7303000 0.0059422998  -0.02430505    1.4166151 0.0025009001  -0.02430505    1.4409202     2716 
 7304000 0.0059586717 -0.026977426    1.4205776 0.0025009411 -0.026977426     1.447555     2711 
 7305000 0.0059779217 -0.026385898    1.4269177 0.0025215363 -0.026385898    1.4533036     2709 
 7306000 0.0059576408 -0.022286189     1.431992 0.0025269784 -0.022286189    1.4542782     2698 
 7307000 0.0058842925 -0.026373811    1.4201869 0.0025194142 -0.026373811    1.4465607     2679 
 7308000 0.0058029846 -0.026159455    1.4187508 0.0024529022 -0.026159455    1.4449103     2645 
 7309000 0.0058985303 -0.024957515    1.4327209 0.0024818215 -0.024957515    1.4576785     2665 
 7310000 0.0058026158  -0.02244114    1.4196512 0.0024558413  -0.02244114    1.4420924     2650 
 7311000 0.0058468928  -0.02097577    1.4326691 0.0024625343  -0.02097577    1.4536448     2649 
 7312000 0.0058647508 -0.025416949     1.422284 0.0024769509 -0.025416949     1.447701     2668 
 7313000 0.0057710662 -0.024320237    1.4104727  0.002455853 -0.024320237    1.4347929     2649 
 7314000 0.0058298894 -0.020623268    1.4147064 0.0024693714 -0.020623268    1.4353297     2675 
 7315000 0.0058888912  -0.02143982    1.4257113 0.0025069234  -0.02143982    1.4471511     2680 
 7316000 0.0058325221 -0.022458042    1.4071068  0.002510302 -0.022458042    1.4295648     2687 
 7317000 0.0059952478 -0.018765244    1.4468659 0.0025393007 -0.018765244    1.4656311     2694 
 7318000 0.0058408821 -0.019585244    1.4281929 0.0024660616 -0.019585244    1.4477782     2657 
 7319000 0.0058154666 -0.025881478    1.4210426 0.0024605135 -0.025881478    1.4469241     2647 
 7320000 0.0058551352 -0.024699362    1.4348515 0.0024716772 -0.024699362    1.4595509     2642 
 7321000  0.005794859 -0.021604183    1.4317226 0.0024569227 -0.021604183    1.4533268     2626 
 7322000 0.0059445876 -0.023178435    1.4403901  0.002523705 -0.023178435    1.4635686     2675 
 7323000 0.0060575888 -0.017578719    1.4572706 0.0025512065 -0.017578719    1.4748493     2705 
 7324000 0.0059642451 -0.021421698    1.4486353 0.0024962747 -0.021421698     1.470057     2672 
 7325000 0.0059844118 -0.019686308    1.4395043 0.0025286502 -0.019686308    1.4591906     2701 
 7326000 0.0059788105 -0.019619086    1.4518252 0.0025273166 -0.019619086    1.4714442     2676 
 7327000 0.0059303045 -0.021423912    1.4413623 0.0025024788 -0.021423912    1.4627862     2670 
 7328000 0.0058970342 -0.018727478    1.4363972 0.0025078546 -0.018727478    1.4551247     2669 
 7329000 0.0059067678 -0.020907172    1.4399033 0.0024917135 -0.020907172    1.4608104     2663 
 7330000 0.0059147736 -0.018623994    1.4518972 0.0025014447 -0.018623994    1.4705212     2649 
 7331000 0.0059887221 -0.021317578    1.4642238 0.0025651314 -0.021317578    1.4855414     2655 
 7332000 0.0059870604 -0.020014835    1.4534598 0.0025038655 -0.020014835    1.4734746     2676 
 7333000 0.0059698825 -0.022344874    1.4414321 0.0025284225 -0.022344874     1.463777     2686 
 7334000 0.0058854815 -0.020814622    1.4309154 0.0024861271 -0.020814622      1.45173     2670 
 7335000 0.0059050837 -0.020486108    1.4247124 0.0024873938 -0.020486108    1.4451985     2691 
 7336000 0.0059436884 -0.020301323    1.4338048 0.0025314194 -0.020301323    1.4541062     2692 
 7337000 0.0059330615 -0.021085282    1.4342052 0.0024874237 -0.021085282    1.4552905     2685 
 7338000 0.0059226535 -0.020514187    1.4279078 0.0025090217 -0.020514187     1.448422     2693 
 7339000 0.0058342005 -0.017773892    1.4343599 0.0024591801 -0.017773892    1.4521338     2646 
 7340000 0.0057732246 -0.020747436    1.4216608 0.0024284916 -0.020747436    1.4424082     2636 
 7341000 0.0057842764 -0.021725586    1.4239923  0.002439036 -0.021725586    1.4457179     2635 
 7342000 0.0057662689 -0.017312998    1.4125089 0.0024398153 -0.017312998    1.4298219     2656 
 7343000 0.0058865071 -0.018444549    1.4379021 0.0025237248 -0.018444549    1.4563466     2662 
 7344000 0.0058701781 -0.024596776    1.4211925 0.0024675091 -0.024596776    1.4457893     2674 
 7345000 0.0057920789  -0.02491894    1.4080657 0.0024430474  -0.02491894    1.4329847     2662 
 7346000  0.005975634 -0.019603335    1.4423182 0.0025551778 -0.019603335    1.4619215     2692 
 7347000 0.0060325212 -0.023635553    1.4478304 0.0025625976 -0.023635553     1.471466     2700 
 7348000 0.0060204632 -0.021005461    1.4579266  0.002547846 -0.021005461    1.4789321     2681 
 7349000 0.0059320328 -0.023386937    1.4370906 0.0025037839 -0.023386937    1.4604776     2675 
 7350000 0.0059735396 -0.021870087    1.4330535 0.0025322214 -0.021870087    1.4549236     2704 
 7351000 0.0059719299 -0.019824878    1.4368615  0.002526385 -0.019824878    1.4566864     2700 
 7352000 0.0059975593 -0.021583304    1.4489798 0.0025778392 -0.021583304    1.4705631     2686 
 7353000 0.0059517432 -0.016022589    1.4454832 0.0025037676 -0.016022589    1.4615058     2682 
 7354000 0.0060168638  -0.02361473    1.4555366 0.0025434293  -0.02361473    1.4791513     2679 
 7355000 0.0060799648 -0.018911435    1.4852974 0.0025753217 -0.018911435    1.5042089     2662 
 7356000 0.0061499603 -0.020544864    1.4696326 0.0025952727 -0.020544864    1.4901775     2718 
 7357000 0.0060422639 -0.019328897    1.4512456 0.0025838167 -0.019328897    1.4705745     2706 
 7358000 0.0060375875  -0.02168448    1.4592447 0.0025574893  -0.02168448    1.4809291     2685 
 7359000 0.0062073569 -0.019430867    1.4913242 0.0026296021 -0.019430867     1.510755     2706 
 7360000 0.0061249379 -0.022656109    1.4791394 0.0025858267 -0.022656109    1.5017955     2686 
 7361000 0.0061386212 -0.016532336    1.4886183 0.0025901267 -0.016532336    1.5051506     2686 
 7362000 0.0060452036 -0.015608524    1.4638826 0.0025888582 -0.015608524    1.4794911     2691 
 7363000 0.0060212146 -0.019950025    1.4564132 0.0025625064 -0.019950025    1.4763633     2686 
 7364000  0.006043451 -0.022248693    1.4486147 0.0025734015 -0.022248693    1.4708634     2706 
 7365000 0.0060216244 -0.021306467    1.4557072 0.0025777397 -0.021306467    1.4770136     2685 
 7366000 0.0059846493 -0.018736651    1.4421344 0.0025254733 -0.018736651    1.4608711     2698 
 7367000 0.0060092653 -0.020368621    1.4630054 0.0025203315 -0.020368621    1.4833741     2668 
 7368000 0.0060592704  -0.01879153    1.4741284 0.0025615223  -0.01879153    1.4929199     2673 
 7369000 0.0060965989 -0.018712246    1.4618036 0.0026122736 -0.018712246    1.4805159     2712 
 7370000  0.005996864 -0.021445623    1.4522389 0.0025451827 -0.021445623    1.4736846     2680 
 7371000 0.0060538097 -0.023254951     1.441469 0.0025586523 -0.023254951    1.4647239     2722 
 7372000 0.0059918292 -0.018663588    1.4358734 0.0025294437 -0.018663588     1.454537     2713 
 7373000 0.0060349397 -0.017297748    1.4471646 0.0025463978 -0.017297748    1.4644624     2714 
 7374000 0.0061173131 -0.015093919     1.463908 0.0025976639 -0.015093919    1.4790019     2724 
 7375000 0.0061255286 -0.020407425    1.4551639 0.0026093898 -0.020407425    1.4755713     2734 
 7376000 0.0060526818 -0.020598821    1.4460074 0.0025599247 -0.020598821    1.4666062     2718 
 7377000 0.0061006749 -0.019842508    1.4676967 0.0025691942 -0.019842508    1.4875392     2701 
 7378000 0.0061646659 -0.020083004    1.4808365 0.0025867081 -0.020083004    1.5009195     2705 
 7379000 0.0062428678  -0.02175793    1.4744176 0.0026357049  -0.02175793    1.4961755     2748 
 7380000 0.0062025837 -0.021664081    1.4730156 0.0026191759 -0.021664081    1.4946797     2733 
 7381000 0.0061941882 -0.018127906    1.4838715 0.0026444554 -0.018127906    1.5019994     2716 
 7382000 0.0061717232 -0.018469153    1.4947978  0.002633533 -0.018469153     1.513267     2686 
 7383000 0.0060415976 -0.023063346    1.4694107 0.0025616915 -0.023063346     1.492474     2666 
 7384000  0.006020835 -0.021931352    1.4670892 0.0025538184 -0.021931352    1.4890206     2663 
 7385000 0.0060308416 -0.021502128     1.461639 0.0025612785 -0.021502128    1.4831411     2678 
 7386000 0.0060539051 -0.018006188    1.4619646 0.0025685273 -0.018006188    1.4799708     2694 
 7387000 0.0060535395 -0.019611678    1.4597206 0.0025735572 -0.019611678    1.4793323     2695 
 7388000 0.0061824744 -0.027265113    1.5017307 0.0026021795 -0.027265113    1.5289958     2663 
 7389000 0.0060707509   -0.0161722    1.4762264 0.0025860371   -0.0161722    1.4923986     2679 
 7390000 0.0061445502 -0.023499389    1.4780737 0.0025986953 -0.023499389     1.501573     2695 
 7391000 0.0061584901 -0.023676307    1.4846614 0.0026174807 -0.023676307    1.5083377     2689 
 7392000 0.0060504716 -0.022932507    1.4518196 0.0025536907 -0.022932507    1.4747521     2702 
 7393000 0.0059641273 -0.023072787    1.4354919 0.0024970103 -0.023072787    1.4585646     2693 
 7394000 0.0058745415 -0.019226348    1.4298052 0.0024879628 -0.019226348    1.4490316     2670 
 7395000 0.0059376553 -0.019903595    1.4452446 0.0025416251 -0.019903595    1.4651482     2669 
 7396000 0.0059310779 -0.021759102    1.4401229 0.0025040434 -0.021759102     1.461882     2672 
 7397000 0.0059254202  -0.02227956    1.4497772 0.0024829901  -0.02227956    1.4720568     2651 
 7398000 0.0059076729 -0.026154437    1.4310494 0.0025028895 -0.026154437    1.4572039     2670 
 7399000 0.0058835621 -0.023180074    1.4205067 0.0024643414 -0.023180074    1.4436867     2684 
 7400000 0.0058139949 -0.020151642    1.4187957 0.0024900374 -0.020151642    1.4389473     2661 
 7401000 0.0058926597 -0.021159746    1.4328855  0.002475155 -0.021159746    1.4540452     2669 
 7402000  0.005948936 -0.021140237    1.4396762 0.0025079037 -0.021140237    1.4608165     2682 
 7403000 0.0060142848 -0.023334573    1.4474964 0.0025650315 -0.023334573     1.470831     2693 
 7404000  0.005887785 -0.021849212    1.4342666 0.0024901662 -0.021849212    1.4561158     2663 
 7405000 0.0058455893  -0.02146454    1.4291182 0.0024735533  -0.02146454    1.4505828     2654 
 7406000 0.0058712205 -0.024420841    1.4232494 0.0024877402 -0.024420841    1.4476702     2671 
 7407000 0.0059996786 -0.020733235    1.4324953 0.0025387461 -0.020733235    1.4532285     2719 
 7408000 0.0059989065 -0.023911884    1.4519267 0.0025144002 -0.023911884    1.4758386     2677 
 7409000 0.0058611821 -0.022652818    1.4334452 0.0025052972 -0.022652818     1.456098     2651 
 7410000 0.0058870961 -0.020393527    1.4230847 0.0024959544 -0.020393527    1.4434783     2686 
 7411000  0.005848001 -0.022525869    1.4259265 0.0024682891 -0.022525869    1.4484524     2659 
 7412000 0.0059152595 -0.024083809    1.4388267 0.0025120302 -0.024083809    1.4629105     2663 
 7413000 0.0059203974 -0.021003224    1.4371548 0.0024749627 -0.021003224     1.458158     2674 
 7414000 0.0057412843 -0.026217335    1.4147706 0.0024135044 -0.026217335     1.440988     2624 
 7415000 0.0058178059 -0.023983221    1.4169904 0.0024587518 -0.023983221    1.4409736     2659 
 7416000 0.0057925183 -0.019393209    1.4174786 0.0024769807 -0.019393209    1.4368718     2655 
 7417000  0.005909282 -0.020488676    1.4492221 0.0024967388 -0.020488676    1.4697107     2648 
 7418000 0.0058732586 -0.017540343    1.4399086 0.0025084358 -0.017540343    1.4574489     2654 
 7419000 0.0058104135 -0.020692656    1.4277101 0.0024785834 -0.020692656    1.4484028     2642 
 7420000 0.0058367861 -0.018012762    1.4436028 0.0025365678 -0.018012762    1.4616156     2630 
 7421000 0.0058034833 -0.018699267    1.4373449 0.0024412062 -0.018699267    1.4560442     2625 
 7422000 0.0058857755 -0.018265197    1.4406407 0.0024854683 -0.018265197    1.4589059     2657 
 7423000 0.0059628758 -0.018068429    1.4555115 0.0025559913 -0.018068429    1.4735799     2665 
 7424000 0.0059671314 -0.019017101    1.4673267  0.002538583 -0.019017101    1.4863438     2644 
 7425000 0.0060108619 -0.019503708    1.4554194 0.0025553286 -0.019503708    1.4749231     2684 
 7426000 0.0060067952 -0.019994083    1.4462829 0.0025335723 -0.019994083     1.466277     2698 
 7427000  0.006063868 -0.018707926    1.4725553 0.0025766662 -0.018707926    1.4912632     2678 
 7428000 0.0062092932 -0.018553482    1.4904422 0.0026823918 -0.018553482    1.5089957     2710 
 7429000 0.0061834436 -0.014492594    1.4904424 0.0026262087 -0.014492594     1.504935     2706 
 7430000 0.0060974444 -0.018763227      1.46909 0.0025978793 -0.018763227    1.4878532     2699 
 7431000 0.0061523707 -0.020968739    1.4719899 0.0025909955 -0.020968739    1.4929587     2714 
 7432000  0.006087891 -0.020570316    1.4766007 0.0025632405 -0.020570316    1.4971711     2678 
 7433000 0.0061898762 -0.018226018    1.4843875 0.0026362569 -0.018226018    1.5026135     2713 
 7434000 0.0061843186  -0.01928315    1.4819813 0.0026186859  -0.01928315    1.5012644     2713 
 7435000 0.0062222513 -0.021140945    1.4859986 0.0026116153 -0.021140945    1.5071396     2719 
 7436000 0.0060634821 -0.021691551    1.4617218 0.0025711394 -0.021691551    1.4834133     2692 
 7437000 0.0060888376 -0.018276042    1.4603551 0.0026049391 -0.018276042    1.4786311     2712 
 7438000 0.0061032104 -0.018313396    1.4665456 0.0025919389 -0.018313396     1.484859     2707 
 7439000 0.0061953087 -0.021370298    1.4704646 0.0026028627 -0.021370298    1.4918349     2735 
 7440000 0.0061869076 -0.021517639    1.4612464 0.0026135893 -0.021517639     1.482764     2748 
 7441000 0.0061868441 -0.023033231    1.4683993 0.0026123822 -0.023033231    1.4914325     2732 
 7442000 0.0062451802 -0.021647585    1.4739936  0.002655369 -0.021647585    1.4956412     2750 
 7443000 0.0062209916  -0.02625724    1.4679378 0.0026185907  -0.02625724    1.4941951     2742 
 7444000 0.0061011223  -0.02228354    1.4468712 0.0025810687  -0.02228354    1.4691547     2735 
 7445000 0.0060666148 -0.020217065    1.4416973 0.0026009172 -0.020217065    1.4619143     2733 
 7446000 0.0062544876 -0.021260585    1.4615123 0.0026390157 -0.021260585    1.4827729     2778 
 7447000 0.0062375004 -0.021013386    1.4513721 0.0026308113 -0.021013386    1.4723854     2790 
 7448000  0.006261802 -0.021373888     1.456748 0.0026577472 -0.021373888    1.4781219     2790 
 7449000 0.0062488774 -0.025117426    1.4632906 0.0026348663 -0.025117426     1.488408     2765 
 7450000 0.0061852257 -0.022710168    1.4415342 0.0026763186 -0.022710168    1.4642443     2782 
 7451000 0.0061771054 -0.022207013    1.4549825 0.0026141553 -0.022207013    1.4771895     2754 
 7452000 0.0061970408 -0.026684087    1.4456496 0.0026133361 -0.026684087    1.4723337     2772 
 7453000 0.0061574822 -0.023581708    1.4293944 0.0026303224 -0.023581708    1.4529761     2791 
 7454000 0.0061745166 -0.021940089    1.4408207 0.0026101215 -0.021940089    1.4627607     2780 
 7455000 0.0061813365 -0.024116998    1.4392067 0.0026221893 -0.024116998    1.4633237     2782 
 7456000 0.0062420784 -0.027270013    1.4611335 0.0026453665 -0.027270013    1.4884035     2762 
 7457000 0.0061552182 -0.024050064     1.447371  0.002609989 -0.024050064    1.4714211     2755 
 7458000 0.0061905962 -0.021675913    1.4663039 0.0026151316 -0.021675913    1.4879798     2740 
 7459000 0.0061171893 -0.021255676    1.4373684  0.002573171 -0.021255676    1.4586241     2762 
 7460000 0.0061135937 -0.019105157    1.4434272 0.0025815163 -0.019105157    1.4625324     2753 
 7461000 0.0062122753 -0.020994144    1.4544268 0.0026314398 -0.020994144     1.475421     2773 
 7462000  0.006050073 -0.020057687    1.4262282 0.0025571743 -0.020057687    1.4462859     2755 
 7463000 0.0061818701 -0.020412177    1.4504396 0.0025973293 -0.020412177    1.4708518     2768 
 7464000 0.0061938824 -0.019999375     1.451584 0.0025954742 -0.019999375    1.4715833     2772 
 7465000   0.00599292 -0.023532608    1.4211516 0.0025467976 -0.023532608    1.4446842     2732 
 7466000 0.0061224439 -0.022402515    1.4433119 0.0026329541 -0.022402515    1.4657144     2751 
 7467000 0.0060872173 -0.021384445    1.4438862 0.0025750356 -0.021384445    1.4652706     2736 
 7468000 0.0060677101 -0.019914479    1.4411945 0.0026019929 -0.019914479     1.461109     2735 
 7469000 0.0059893358  -0.02055448    1.4227374 0.0025221494  -0.02055448    1.4432919     2733 
 7470000 0.0060318477 -0.023728665    1.4266235 0.0025490719 -0.023728665    1.4503522     2739 
 7471000 0.0061000902 -0.020539697    1.4440824  0.002577579 -0.020539697    1.4646221     2743 
 7472000 0.0059746531  -0.02055411    1.4155214 0.0025302389  -0.02055411    1.4360755     2740 
 7473000 0.0061374518 -0.022393289    1.4490535 0.0025832656 -0.022393289    1.4714468     2747 
 7474000  0.006046381 -0.020138838    1.4231689  0.002583847 -0.020138838    1.4433077     2759 
 7475000 0.0059930408 -0.020689142    1.4250825 0.0025231999 -0.020689142    1.4457717     2730 
 7476000 0.0060186878 -0.018211499    1.4258131 0.0025557621 -0.018211499    1.4440246     2745 
 7477000 0.0060219783  -0.02270823    1.4147744 0.0025684904  -0.02270823    1.4374827     2759 
 7478000 0.0061525317 -0.021490511    1.4371113 0.0026139086 -0.021490511    1.4586018     2778 
 7479000 0.0060307971 -0.019839941    1.4339751 0.0025353347 -0.019839941     1.453815     2732 
 7480000  0.006141702 -0.020681899     1.434305 0.0026304634 -0.020681899    1.4549869     2780 
 7481000 0.0061531137 -0.021565438    1.4466879 0.0025962736 -0.021565438    1.4682533     2760 
 7482000 0.0060786199 -0.018862033    1.4368901 0.0025845419 -0.018862033    1.4557521     2750 
 7483000 0.0062247873 -0.023872178    1.4486791 0.0026410708 -0.023872178    1.4725512     2784 
 7484000 0.0062059159  -0.02041216    1.4604408 0.0026168021  -0.02041216     1.480853     2760 
 7485000 0.0061523991  -0.02580017    1.4535385 0.0025987762  -0.02580017    1.4793386     2739 
 7486000 0.0063514843 -0.022541844    1.4837686 0.0027012762 -0.022541844    1.5063104     2777 
 7487000 0.0062374795 -0.023456042    1.4590202 0.0026442713 -0.023456042    1.4824762     2771 
 7488000  0.006169796 -0.023699391    1.4592809 0.0025863546 -0.023699391    1.4829803     2740 
 7489000 0.0061232716  -0.02303966    1.4396827 0.0026104705  -0.02303966    1.4627223     2757 
 7490000 0.0062020939 -0.020362912    1.4468199 0.0026613427 -0.020362912    1.4671828     2784 
 7491000 0.0060989472 -0.021893262    1.4445929  0.002576943 -0.021893262    1.4664862     2739 
 7492000 0.0060814724 -0.024547176    1.4334786 0.0025589059 -0.024547176    1.4580258     2747 
 7493000 0.0061264833 -0.021310891    1.4561115  0.002601316 -0.021310891    1.4774224     2731 
 7494000 0.0060686441 -0.020571688     1.444512 0.0026014222 -0.020571688    1.4650837     2728 
 7495000 0.0060884076 -0.020645796    1.4529905 0.0026063442 -0.020645796    1.4736363     2721 
 7496000 0.0060584543 -0.021838708    1.4280295 0.0025496846 -0.021838708    1.4498682     2752 
 7497000 0.0060689018 -0.023325611    1.4322163 0.0025675254 -0.023325611    1.4555419     2746 
 7498000 0.0060051986 -0.020321282    1.4326412 0.0025490722 -0.020321282    1.4529624     2722 
 7499000 0.0059801943 -0.021365936    1.4244843 0.0025591588 -0.021365936    1.4458503     2724 
 7500000 0.0060692983 -0.022662182    1.4303291 0.0025558389 -0.022662182    1.4529913     2751 
 7501000 0.0060279032  -0.02153057    1.4294624 0.0025279993  -0.02153057     1.450993     2736 
 7502000 0.0061336766 -0.020325641    1.4385324 0.0026121538 -0.020325641    1.4588581     2769 
 7503000  0.006092026 -0.019643175    1.4377296 0.0026014291 -0.019643175    1.4573728     2753 
 7504000 0.0060426231 -0.018875685    1.4420682 0.0025492576 -0.018875685    1.4609439     2724 
 7505000 0.0060748557 -0.017679678    1.4377002 0.0025825674 -0.017679678    1.4553798     2749 
 7506000 0.0060249918 -0.020320567     1.433159 0.0025587669 -0.020320567    1.4534796     2730 
 7507000 0.0060241753 -0.018678405    1.4388755 0.0025782816 -0.018678405    1.4575539     2722 
 7508000 0.0060828741 -0.017915441    1.4495278 0.0026181979 -0.017915441    1.4674432     2730 
 7509000 0.0059908102 -0.020615821    1.4256773 0.0025387627 -0.020615821    1.4462932     2728 
 7510000 0.0060435033  -0.01993012    1.4364149 0.0025646886  -0.01993012     1.456345     2733 
 7511000 0.0062070333 -0.022185719    1.4626999 0.0026138527 -0.022185719    1.4848856     2753 
 7512000 0.0061264037 -0.020125558    1.4540389 0.0026029903 -0.020125558    1.4741645     2737 
 7513000 0.0060624053 -0.024119156    1.4508123 0.0025645879 -0.024119156    1.4749315     2707 
 7514000 0.0061838705 -0.022851866    1.4538107 0.0026186257 -0.022851866    1.4766625     2758 
 7515000 0.0060514885 -0.022166084    1.4452307 0.0025624682 -0.022166084    1.4673968     2716 
 7516000 0.0061512497 -0.020316463    1.4533654 0.0026040556 -0.020316463    1.4736819     2749 
 7517000 0.0061388777 -0.021619324    1.4555467  0.002586622 -0.021619324     1.477166     2737 
 7518000 0.0061976297 -0.020603339    1.4668955  0.002598101 -0.020603339    1.4874989     2744 
 7519000 0.0061863886 -0.021046789    1.4589001  0.002646672 -0.021046789    1.4799469     2753 
 7520000 0.0062599303 -0.022151615    1.4808478 0.0026321339 -0.022151615    1.5029994     2743 
 7521000 0.0062045554 -0.020215609    1.4705754 0.0026406117 -0.020215609     1.490791     2741 
 7522000 0.0062806503 -0.020927295    1.4734273 0.0026843842 -0.020927295    1.4943546     2768 
 7523000 0.0062707653 -0.023116316    1.4781063 0.0026354839 -0.023116316    1.5012226     2751 
 7524000 0.0062264399 -0.022700105    1.4652067 0.0026328347 -0.022700105    1.4879068     2756 
 7525000 0.0061360974 -0.020453638    1.4437392 0.0025997542 -0.020453638    1.4641929     2760 
 7526000 0.0061167513 -0.024382586    1.4394369 0.0025896994 -0.024382586    1.4638195     2752 
 7527000 0.0061365201 -0.021739598    1.4608176  0.002608936 -0.021739598    1.4825572     2726 
 7528000 0.0060879546 -0.026456322    1.4422125  0.002583498 -0.026456322    1.4686689     2730 
 7529000 0.0061144113 -0.021059941    1.4561558  0.002564631 -0.021059941    1.4772157     2726 
 7530000 0.0060779637 -0.021599763    1.4571169 0.0025664641 -0.021599763    1.4787167     2707 
 7531000 0.0060839367 -0.023923067    1.4410933 0.0026003424 -0.023923067    1.4650164     2735 
 7532000  0.006268788 -0.025083565    1.4805915 0.0026520416 -0.025083565    1.5056751     2742 
 7533000 0.0062870171 -0.019183821    1.4991758 0.0026776859 -0.019183821    1.5183596     2727 
 7534000 0.0062214864 -0.021836032    1.4829046 0.0026244361 -0.021836032    1.5047406     2723 
 7535000 0.0062647513 -0.024837927    1.4809659  0.002641093 -0.024837927    1.5058038     2740 
 7536000 0.0062173965 -0.024653257    1.4725004 0.0026346512 -0.024653257    1.4971536     2735 
 7537000  0.006293076 -0.027858084    1.4732491 0.0026396843 -0.027858084    1.5011072     2761 
 7538000 0.0062195251 -0.025783272    1.4637138 0.0026624523 -0.025783272    1.4894971     2750 
 7539000 0.0062846557  -0.02300575    1.4755501 0.0026939713  -0.02300575    1.4985559     2762 
 7540000 0.0062485795   -0.0211708    1.4917895 0.0026551239   -0.0211708    1.5129603     2720 
 7541000 0.0062366991 -0.020661647    1.4811401 0.0026686554 -0.020661647    1.5018017     2735 
 7542000 0.0062282196 -0.018626614    1.4822307 0.0026452204 -0.018626614    1.5008573     2733 
 7543000 0.0062068367 -0.020732704     1.461414 0.0026534846 -0.020732704    1.4821467     2758 
 7544000 0.0062295053 -0.024145804     1.459648 0.0026321181 -0.024145804    1.4837938     2765 
 7545000 0.0062494993 -0.021281878    1.4656609 0.0026474564 -0.021281878    1.4869428     2768 
 7546000 0.0061368491 -0.019035792    1.4479941 0.0025740631 -0.019035792    1.4670299     2755 
 7547000 0.0061279919 -0.022720014    1.4588638 0.0025974581 -0.022720014    1.4815838     2724 
 7548000 0.0061650897  -0.02207344    1.4543871 0.0026440459  -0.02207344    1.4764605     2750 
 7549000 0.0062292459 -0.021526709    1.4724715  0.002662127 -0.021526709    1.4939982     2746 
 7550000 0.0061048204  -0.01991306    1.4517464 0.0025731664  -0.01991306    1.4716595     2732 
 7551000 0.0060393231 -0.020130083    1.4320195 0.0025485563 -0.020130083    1.4521496     2739 
 7552000 0.0060801522 -0.020877645    1.4410893 0.0025700826 -0.020877645    1.4619669     2739 
 7553000 0.0060325836 -0.025992358    1.4433121 0.0025750801 -0.025992358    1.4693044     2704 
 7554000 0.0061262903 -0.021521616    1.4547731 0.0025990454 -0.021521616    1.4762947     2733 
 7555000 0.0060281538 -0.021142183    1.4331002 0.0025636401 -0.021142183    1.4542424     2730 
 7556000 0.0060802311 -0.023101951    1.4415577 0.0025699138 -0.023101951    1.4646596     2734 
 7557000 0.0059978512 -0.022795478     1.442928  0.002545476 -0.022795478    1.4657235     2695 
 7558000 0.0059594952 -0.024449136    1.4411461 0.0025024845 -0.024449136    1.4655952     2678 
 7559000 0.0060463674 -0.022789697    1.4493275 0.0025402519 -0.022789697    1.4721172     2705 
 7560000 0.0060148738 -0.023107086    1.4381012 0.0025711238 -0.023107086    1.4612083     2711 
 7561000 0.0060432514 -0.021014186     1.447088  0.002579342 -0.021014186    1.4681022     2711 
 7562000 0.0059715826 -0.019107481    1.4616247 0.0025170135 -0.019107481    1.4807322     2656 
 7563000 0.0060034372 -0.018410346    1.4596471 0.0025525668 -0.018410346    1.4780575     2675 
 7564000 0.0060686637 -0.019784556    1.4604974 0.0025694892 -0.019784556    1.4802819     2700 
 7565000 0.0061154158 -0.025217573    1.4631607  0.002588632 -0.025217573    1.4883783     2706 
 7566000 0.0061209362 -0.021065432    1.4758478 0.0025563932 -0.021065432    1.4969133     2693 
 7567000 0.0060226552 -0.018907638     1.468887 0.0025803749 -0.018907638    1.4877946     2666 
 7568000  0.006115324 -0.019899076    1.4773096 0.0025871921 -0.019899076    1.4972086     2690 
 7569000 0.0062028887 -0.022916279     1.494039 0.0026374131 -0.022916279    1.5169552     2693 
 7570000 0.0061216751 -0.026717766    1.4759561 0.0026306146 -0.026717766    1.5026739     2683 
 7571000 0.0060227874 -0.020137524    1.4699254 0.0025479685 -0.020137524    1.4900629     2662 
 7572000  0.006077002 -0.022139284    1.4745895 0.0025358974 -0.022139284    1.4967288     2674 
 7573000 0.0060983374 -0.020406734     1.468216  0.002586465 -0.020406734    1.4886227     2698 
 7574000 0.0060229428 -0.018709648    1.4564298 0.0025759428 -0.018709648    1.4751394     2689 
 7575000 0.0060869795 -0.020834757    1.4661177  0.002636361 -0.020834757    1.4869525     2696 
 7576000 0.0059512347 -0.023171461    1.4480837 0.0025298969 -0.023171461    1.4712551     2664 
 7577000 0.0059070731 -0.024300634    1.4426448 0.0025098344 -0.024300634    1.4669454     2652 
 7578000 0.0058175941 -0.023500379    1.4255954 0.0024724206 -0.023500379    1.4490958     2644 
 7579000 0.0059414748 -0.024275132    1.4434653 0.0024984518 -0.024275132    1.4677404     2666 
 7580000 0.0059129263 -0.018817389    1.4413229 0.0025439977 -0.018817389    1.4601403     2667 
 7581000 0.0058978081 -0.024907751    1.4447243 0.0025019741 -0.024907751     1.469632     2643 
 7582000 0.0060534094 -0.023447491    1.4691451 0.0025601515 -0.023447491    1.4925926     2671 
 7583000 0.0061242887 -0.023473523    1.4815247 0.0025711782 -0.023473523    1.5049982     2680 
 7584000 0.0059854262 -0.022378896    1.4446631 0.0025238933 -0.022378896     1.467042     2687 
 7585000 0.0060163084  -0.02545274    1.4541143 0.0025410132  -0.02545274     1.479567     2678 
 7586000 0.0061129436 -0.023740542    1.4784697 0.0025698843 -0.023740542    1.5022103     2680 
 7587000 0.0061291628 -0.024322207    1.4608159 0.0025792907 -0.024322207    1.4851381     2718 
 7588000 0.0060717313 -0.026082286    1.4704677 0.0025515047 -0.026082286      1.49655     2672 
 7589000 0.0059466206 -0.023837429    1.4380457 0.0024856697 -0.023837429    1.4618831     2679 
 7590000  0.006022242 -0.021259802     1.453708 0.0025778736 -0.021259802    1.4749678     2689 
 7591000 0.0059763576  -0.01948822    1.4601995 0.0025619298  -0.01948822    1.4796877     2660 
 7592000 0.0060004728 -0.018207525    1.4536179 0.0025575448 -0.018207525    1.4718255     2685 
 7593000 0.0060977303 -0.021770851    1.4711303 0.0025887266 -0.021770851    1.4929012     2690 
 7594000 0.0061222606 -0.020904855    1.4713452 0.0025803864 -0.020904855      1.49225     2702 
 7595000 0.0061488861 -0.022724579    1.4787937 0.0026106204 -0.022724579    1.5015183     2697 
 7596000 0.0061430529  -0.02324028    1.4718644 0.0025965233  -0.02324028    1.4951047     2706 
 7597000 0.0060749626 -0.020298906     1.469243 0.0025597679 -0.020298906    1.4895419     2686 
 7598000 0.0061516999 -0.025799255    1.4637037 0.0025911342 -0.025799255     1.489503     2720 
 7599000 0.0061605879 -0.026408589    1.4835659 0.0026077901 -0.026408589    1.5099745     2687 
 7600000 0.0061346119 -0.021978972     1.460661 0.0025823275 -0.021978972      1.48264     2725 
 7601000 0.0061760972 -0.025484717    1.4677296 0.0025926147 -0.025484717    1.4932143     2724 
 7602000 0.0061738699 -0.025273426    1.4527524 0.0025803464 -0.025273426    1.4780258     2751 
 7603000 0.0061558552 -0.017232698    1.4651017  0.002590113 -0.017232698    1.4823344     2735 
 7604000 0.0061845124 -0.021717132    1.4718868 0.0026253801 -0.021717132     1.493604     2727 
 7605000 0.0061920804 -0.020959937    1.4788717 0.0026102292 -0.020959937    1.4998316     2719 
 7606000 0.0060645699 -0.021272805    1.4635098 0.0025690868 -0.021272805    1.4847826     2690 
 7607000 0.0060847765  -0.01929749    1.4726507 0.0026032385  -0.01929749    1.4919482     2686 
 7608000 0.0060461746 -0.019150354     1.461679 0.0025596513 -0.019150354    1.4808294     2689 
 7609000 0.0060886913 -0.021554216    1.4848136 0.0026052034 -0.021554216    1.5063678     2662 
 7610000 0.0061645054 -0.026368561    1.4811998 0.0026035889 -0.026368561    1.5075684     2693 
 7611000 0.0061921936 -0.020758226     1.496963 0.0026133639 -0.020758226    1.5177212     2687 
 7612000 0.0060979388 -0.023284892    1.4769174 0.0025699654 -0.023284892    1.5002023     2677 
 7613000  0.006092115 -0.021967933    1.4728927 0.0025757213 -0.021967933    1.4948607     2684 
 7614000  0.005994313 -0.020790011    1.4550211 0.0025241045 -0.020790011    1.4758111     2675 
 7615000  0.006013186 -0.018663063    1.4617946 0.0025610851 -0.018663063    1.4804576     2675 
 7616000 0.0061407754 -0.021681627    1.4756354 0.0026258494 -0.021681627     1.497317     2701 
 7617000  0.006045628 -0.020530543     1.433666 0.0025805542 -0.020530543    1.4541965     2738 
 7618000 0.0060068724 -0.018451226    1.4473013   0.00253813 -0.018451226    1.4657525     2699 
 7619000 0.0059672382 -0.018735635    1.4250422 0.0025252995 -0.018735635    1.4437779     2722 
 7620000 0.0059242434 -0.016571561     1.436015 0.0025276821 -0.016571561    1.4525865     2686 
 7621000 0.0060229467 -0.020032643    1.4474673 0.0025611784 -0.020032643       1.4675     2703 
 7622000 0.0059801529 -0.018399384    1.4435416 0.0025328133 -0.018399384    1.4619409     2694 
 7623000 0.0060170231 -0.019143183    1.4474561 0.0025543561 -0.019143183    1.4665993     2702 
 7624000 0.0059851021 -0.021270944    1.4435111 0.0025219223 -0.021270944     1.464782     2691 
 7625000 0.0059922325 -0.021649626    1.4508968 0.0025546346 -0.021649626    1.4725464     2680 
 7626000 0.0060112392 -0.020097914    1.4429258 0.0025469978 -0.020097914    1.4630237     2706 
 7627000 0.0060396029  -0.02165115    1.4504518 0.0025525806  -0.02165115    1.4721029     2702 
 7628000 0.0059442091 -0.021119393    1.4439991 0.0025061428 -0.021119393    1.4651185     2672 
 7629000 0.0059861298 -0.019870655     1.458901 0.0025459059 -0.019870655    1.4787717     2666 
 7630000 0.0060622182 -0.018029966    1.4661768 0.0025882527 -0.018029966    1.4842068     2690 
 7631000 0.0058664913 -0.021386873    1.4143666 0.0024563876 -0.021386873    1.4357534     2691 
 7632000 0.0058696373  -0.01909266    1.4168971 0.0024743914  -0.01909266    1.4359898     2692 
 7633000 0.0058333044 -0.017384808    1.4203981 0.0024931415 -0.017384808    1.4377829     2672 
 7634000 0.0059900228 -0.023315874    1.4318553 0.0025202418 -0.023315874    1.4551712     2711 
 7635000 0.0059946613  -0.02258579    1.4262304 0.0025286668  -0.02258579    1.4488161     2725 
 7636000 0.0060142412 -0.022088666      1.42403 0.0025417422 -0.022088666    1.4461187     2739 
 7637000 0.0059442738 -0.022046686    1.4188217 0.0025275667 -0.022046686    1.4408683     2717 
 7638000 0.0059405817 -0.022518785    1.4132272 0.0025041365 -0.022518785    1.4357459     2725 
 7639000 0.0060889947 -0.028009382    1.4517511 0.0025582937 -0.028009382    1.4797605     2710 
 7640000 0.0059839583 -0.020503311    1.4257261 0.0025447941 -0.020503311    1.4462294     2725 
 7641000 0.0059617721 -0.023616729    1.4104094 0.0025544282 -0.023616729    1.4340261     2738 
 7642000 0.0059399412 -0.020096481    1.4309369 0.0025371721 -0.020096481    1.4510333     2696 
 7643000   0.00604933 -0.020289742    1.4482057 0.0025851766 -0.020289742    1.4684955     2713 
 7644000 0.0060494958 -0.020918447    1.4449158 0.0026362016 -0.020918447    1.4658342     2718 
 7645000 0.0060676162 -0.022390761    1.4333729 0.0025848849 -0.022390761    1.4557637     2745 
 7646000 0.0060103084 -0.024376245    1.4368009 0.0025353394 -0.024376245    1.4611772     2709 
 7647000 0.0060401531 -0.027189088    1.4347677 0.0025566953 -0.027189088    1.4619568     2721 
 7648000 0.0059269472 -0.023412663    1.4217662 0.0025348723 -0.023412663    1.4451789     2701 
 7649000 0.0059767981 -0.022339911    1.4349942 0.0025112861 -0.022339911    1.4573341     2701 
 7650000 0.0059519251 -0.025652603    1.4080995     0.002494 -0.025652603    1.4337521     2734 
 7651000 0.0059731406 -0.018074107    1.4186866 0.0025207183 -0.018074107    1.4367607     2738 
 7652000 0.0059463173  -0.02504763    1.4031745  0.002494799  -0.02504763    1.4282221     2742 
 7653000 0.0059926096 -0.025605868    1.4111152 0.0025293411 -0.025605868    1.4367211     2747 
 7654000 0.0061045536  -0.02531034    1.4324119 0.0026068401  -0.02531034    1.4577223     2758 
 7655000 0.0061338992  -0.02520121    1.4384671  0.002597964  -0.02520121    1.4636683     2760 
 7656000 0.0061439336 -0.029348597    1.4308944 0.0025948393 -0.029348597     1.460243     2771 
 7657000 0.0059805864 -0.025966401    1.4104867 0.0025596369 -0.025966401    1.4364531     2742 
 7658000 0.0060507938 -0.024928211    1.4305109 0.0025701297 -0.024928211    1.4554391     2738 
 7659000 0.0060626405 -0.022213111    1.4344795 0.0025782552 -0.022213111    1.4566926     2741 
 7660000 0.0060920187 -0.024215799    1.4284064 0.0025554578 -0.024215799    1.4526222     2762 
 7661000  0.006027485 -0.024001443    1.4332825 0.0025393299 -0.024001443    1.4572839     2724 
 7662000 0.0058752045 -0.023710265    1.4093827 0.0024886715 -0.023710265    1.4330929     2700 
 7663000 0.0058973784 -0.019599721    1.4194349 0.0024857367 -0.019599721    1.4390346     2699 
 7664000 0.0059680851 -0.020639051    1.4164802 0.0025567109 -0.020639051    1.4371193     2735 
 7665000 0.0059489762 -0.021342947    1.4090828 0.0025207439 -0.021342947    1.4304258     2739 
 7666000 0.0060486332 -0.022654733    1.4259159 0.0025729622 -0.022654733    1.4485707     2750 
 7667000 0.0060463894  -0.02265382     1.432789 0.0025503725  -0.02265382    1.4554428     2736 
 7668000  0.006032782 -0.024585865    1.4265207 0.0025243407 -0.024585865    1.4511066     2738 
 7669000 0.0059138182 -0.025821728    1.4193662 0.0024924361 -0.025821728    1.4451879     2695 
 7670000 0.0058419176 -0.020782699    1.4073645 0.0024564168 -0.020782699    1.4281472     2694 
 7671000 0.0058503553 -0.021875482    1.4141981  0.002487063 -0.021875482    1.4360736     2683 
 7672000 0.0059110922 -0.026957858    1.4278202 0.0024753158 -0.026957858    1.4547781     2676 
 7673000 0.0058448852  -0.02557198    1.4113011  0.002456232  -0.02557198    1.4368731     2679 
 7674000 0.0059836444 -0.024412774    1.4351311 0.0025487535 -0.024412774    1.4595438     2700 
 7675000 0.0060899158 -0.024352261    1.4491076 0.0025864191 -0.024352261    1.4734598     2722 
 7676000 0.0059597715 -0.023461471    1.4313369 0.0025523011 -0.023461471    1.4547983     2698 
 7677000 0.0059258664 -0.023914478    1.4258316 0.0024897014 -0.023914478    1.4497461     2692 
 7678000 0.0059873705 -0.026551006    1.4226303 0.0025256716 -0.026551006    1.4491813     2721 
 7679000 0.0059633413 -0.020496668    1.4249936 0.0025286632 -0.020496668    1.4454902     2717 
 7680000 0.0061283413 -0.025646291    1.4430816 0.0025708988 -0.025646291    1.4687279     2748 
 7681000 0.0059893843  -0.02438005    1.4376469 0.0025389768  -0.02438005    1.4620269     2698 
 7682000 0.0058013024 -0.021537129    1.4121138 0.0024454574 -0.021537129    1.4336509     2665 
 7683000 0.0060014314 -0.023255579    1.4250708 0.0025383519 -0.023255579    1.4483264     2729 
 7684000 0.0059644719 -0.025444652    1.4278079 0.0025035955 -0.025444652    1.4532525     2703 
 7685000 0.0058697538 -0.022056752    1.4150292 0.0025053948 -0.022056752    1.4370859     2690 
 7686000 0.0058151548 -0.023206165    1.4015717 0.0024392824 -0.023206165    1.4247778     2688 
 7687000 0.0058692464 -0.020625191    1.4168709 0.0025024194 -0.020625191    1.4374961     2689 
 7688000 0.0060085131  -0.02093091     1.431233 0.0025598416  -0.02093091    1.4521639     2725 
 7689000 0.0059434868 -0.022480545    1.4240534  0.002516364 -0.022480545     1.446534     2706 
 7690000 0.0059109514 -0.020884436    1.4214622 0.0024976463 -0.020884436    1.4423466     2699 
 7691000 0.0059911543  -0.02017641    1.4251402 0.0025483073  -0.02017641    1.4453166     2730 
 7692000 0.0060687872 -0.024163009    1.4340065 0.0025588367 -0.024163009    1.4581695     2741 
 7693000 0.0059507043 -0.022447081    1.4042272 0.0024986356 -0.022447081    1.4266743     2747 
 7694000 0.0058921483 -0.022570407    1.4019927 0.0024783831 -0.022570407    1.4245631     2724 
 7695000 0.0061141849  -0.02412886    1.4327239 0.0026006458  -0.02412886    1.4568528     2764 
 7696000 0.0062126295 -0.021168742     1.452211 0.0026458589 -0.021168742    1.4733798     2777 
 7697000 0.0061298312 -0.020017211     1.424364 0.0025985699 -0.020017211    1.4443812     2795 
 7698000 0.0061500997 -0.021046004    1.4390817 0.0026327109 -0.021046004    1.4601277     2774 
 7699000 0.0062537392 -0.022848983    1.4597465 0.0026523573 -0.022848983    1.4825954     2778 
 7700000 0.0061663299 -0.020207226    1.4501343 0.0025848339 -0.020207226    1.4703415     2762 
 7701000 0.0061524157 -0.020232819    1.4420261 0.0025969389 -0.020232819    1.4622589     2771 
 7702000 0.0061861031 -0.019626798    1.4597144 0.0026356495 -0.019626798    1.4793412     2754 
 7703000 0.0061475646 -0.020299544      1.44239 0.0026070691 -0.020299544    1.4626895     2768 
 7704000 0.0062514982 -0.021041906    1.4567665 0.0026430737 -0.021041906    1.4778084     2786 
 7705000 0.0063618162 -0.020718231    1.4708548 0.0027486297 -0.020718231     1.491573     2809 
 7706000 0.0062342731 -0.019740069    1.4689582 0.0026595402 -0.019740069    1.4886983     2758 
 7707000 0.0062776596 -0.019015283    1.4849512 0.0026613529 -0.019015283    1.5039665     2749 
 7708000 0.0062366395 -0.020178735    1.4647773 0.0026802574 -0.020178735     1.484956     2766 
 7709000 0.0062732211 -0.024340017    1.4769248 0.0026658167 -0.024340017    1.5012648     2752 
 7710000  0.006341673 -0.022177122    1.4604506 0.0027211994 -0.022177122    1.4826278     2817 
 7711000 0.0062644349 -0.021733939    1.4757957 0.0026385865 -0.021733939    1.4975296     2755 
 7712000 0.0062999769 -0.023687606    1.4785216 0.0026548567 -0.023687606    1.5022092     2762 
 7713000 0.0062790535 -0.024319319    1.4658868 0.0026663419 -0.024319319    1.4902061     2775 
 7714000 0.0062169039 -0.020740747     1.453122 0.0026313275 -0.020740747    1.4738628     2778 
 7715000 0.0062745683 -0.021571869    1.4670333 0.0026536723 -0.021571869    1.4886052     2776 
 7716000  0.006265431 -0.024539096    1.4661944 0.0026659816 -0.024539096    1.4907335     2768 
 7717000 0.0062685825 -0.022851209    1.4505341 0.0026727368 -0.022851209    1.4733853     2802 
 7718000 0.0063240812  -0.02498655     1.461974 0.0026775844  -0.02498655    1.4869606     2801 
 7719000  0.006264601 -0.022421226    1.4643548 0.0026460219 -0.022421226    1.4867761     2775 
 7720000 0.0063449766  -0.02626286    1.4645463  0.002671266  -0.02626286    1.4908092     2803 
 7721000  0.006386956 -0.025644422    1.4804012 0.0026977843 -0.025644422    1.5060456     2793 
 7722000 0.0063961579 -0.024628431    1.4955613 0.0027117002 -0.024628431    1.5201897     2771 
 7723000  0.006455577 -0.025104306    1.5014948 0.0027186336 -0.025104306    1.5265991     2785 
 7724000 0.0062853613 -0.022587982    1.4761362 0.0026986212 -0.022587982    1.4987242     2762 
 7725000 0.0064126399 -0.024192652    1.4889928 0.0027144812 -0.024192652    1.5131854     2791 
 7726000 0.0064180954 -0.019162934    1.4947674 0.0027205742 -0.019162934    1.5139303     2792 
 7727000 0.0065298031 -0.019635004    1.5195429 0.0027522903 -0.019635004    1.5391779     2794 
 7728000  0.006489535 -0.018415896    1.5074473 0.0027380338 -0.018415896    1.5258632     2801 
 7729000 0.0066074701 -0.023573633    1.5173661 0.0028002787 -0.023573633    1.5409397     2824 
 7730000 0.0064769139 -0.023553073    1.4998865 0.0027999807 -0.023553073    1.5234395     2800 
 7731000 0.0064220212  -0.02285185    1.4833729 0.0027290633  -0.02285185    1.5062247     2808 
 7732000 0.0064552676 -0.020998078    1.4914084  0.002706408 -0.020998078    1.5124065     2811 
 7733000 0.0065219835  -0.02306821    1.5066017 0.0027652428  -0.02306821    1.5296699     2808 
 7734000 0.0063603039 -0.019507337    1.4749031 0.0027108012 -0.019507337    1.4944105     2803 
 7735000 0.0062490951 -0.022599951    1.4712627 0.0026353865 -0.022599951    1.4938626     2755 
 7736000 0.0063997138 -0.024402403    1.4819548 0.0026859693 -0.024402403    1.5063572     2798 
 7737000 0.0064419756 -0.023976058    1.5015977 0.0027112599 -0.023976058    1.5255738     2781 
 7738000 0.0064124189 -0.023726951    1.4861604 0.0027287433 -0.023726951    1.5098874     2797 
 7739000 0.0063808647 -0.023802461     1.475974 0.0026794726 -0.023802461    1.4997765     2802 
 7740000 0.0063167148 -0.021354286    1.4729436 0.0026780984 -0.021354286    1.4942978     2784 
 7741000 0.0063189926 -0.020542697    1.4694771 0.0026897248 -0.020542697    1.4900198     2793 
 7742000  0.006313397 -0.016561925    1.4599793 0.0026742989 -0.016561925    1.4765412     2816 
 7743000  0.006349733 -0.020535934    1.4756611 0.0027075435 -0.020535934     1.496197     2795 
 7744000 0.0062710135 -0.019391938     1.455091  0.002659489 -0.019391938     1.474483     2801 
 7745000 0.0062976094  -0.02219688    1.4681166 0.0026669286  -0.02219688    1.4903135     2783 
 7746000 0.0062901683 -0.023772155    1.4712267 0.0026475613 -0.023772155    1.4949989     2771 
 7747000 0.0063300447 -0.023180655    1.4758859 0.0026544672 -0.023180655    1.4990666     2781 
 7748000 0.0063074448 -0.020708564     1.467121 0.0026953165 -0.020708564    1.4878295     2792 
 7749000 0.0062704056 -0.022740297    1.4600699 0.0026407971 -0.022740297    1.4828102     2785 
 7750000 0.0062083265 -0.022166888    1.4576528 0.0026150836 -0.022166888    1.4798197     2763 
 7751000 0.0062284544 -0.023583968     1.448777 0.0026551689 -0.023583968     1.472361     2786 
 7752000 0.0062667328 -0.027212297    1.4670699 0.0026499614 -0.027212297    1.4942822     2762 
 7753000 0.0061988725 -0.027038988    1.4451988 0.0026027158 -0.027038988    1.4722378     2773 
 7754000 0.0062869096 -0.025488712    1.4459028 0.0026680009 -0.025488712    1.4713915     2814 
 7755000 0.0061509848 -0.019351629    1.4336531 0.0026642318 -0.019351629    1.4530047     2788 
 7756000  0.006096121 -0.022955388    1.4139968 0.0025825053 -0.022955388    1.4369521     2794 
 7757000  0.006152878 -0.024873378    1.4254573 0.0026045212 -0.024873378    1.4503307     2794 
 7758000 0.0061566965 -0.023571197    1.4281792 0.0025960795 -0.023571197    1.4517504     2793 
 7759000 0.0061967128  -0.02186253    1.4335915 0.0026274791  -0.02186253     1.455454     2804 
 7760000 0.0061405564 -0.023748821    1.4436347 0.0026362747 -0.023748821    1.4673835     2756 
 7761000 0.0060254686 -0.026133942    1.4269284 0.0025344473 -0.026133942    1.4530624     2731 
 7762000  0.006100884 -0.024571693    1.4270111 0.0026000973 -0.024571693    1.4515828     2768 
 7763000 0.0061766735 -0.024114692    1.4386309 0.0026060691 -0.024114692    1.4627456     2781 
 7764000 0.0061984994 -0.023245099    1.4483734 0.0026460384 -0.023245099    1.4716185     2774 
 7765000 0.0061187089 -0.022405797    1.4328923 0.0026363835 -0.022405797    1.4552981     2769 
 7766000  0.006201841 -0.022548281    1.4315174 0.0026128512 -0.022548281    1.4540657     2809 
 7767000 0.0061726123 -0.025562704    1.4393817 0.0026350793 -0.025562704    1.4649444     2775 
 7768000 0.0061472637 -0.028180901    1.4354946 0.0026261134 -0.028180901    1.4636755     2766 
 7769000 0.0062580623 -0.025296983    1.4503555 0.0026762518 -0.025296983    1.4756524     2793 
 7770000 0.0060992935 -0.026335102    1.4290757 0.0025631121 -0.026335102    1.4554108     2760 
 7771000   0.00604353 -0.025362659     1.415176 0.0025401606 -0.025362659    1.4405387     2763 
 7772000  0.006100096 -0.023810231    1.4291598 0.0026043412 -0.023810231    1.4529701     2765 
 7773000 0.0061527859 -0.023479425    1.4420407 0.0026266359 -0.023479425    1.4655202     2765 
 7774000 0.0061691121 -0.024336561    1.4520136 0.0026078563 -0.024336561    1.4763501     2752 
 7775000 0.0061361699 -0.027692398    1.4359875 0.0025830808 -0.027692398    1.4636799     2761 
 7776000 0.0061331743 -0.023724558    1.4403013 0.0025998008 -0.023724558    1.4640258     2759 
 7777000 0.0061667553 -0.025982749      1.43127 0.0025825344 -0.025982749    1.4572527     2787 
 7778000  0.006115761  -0.02316735    1.4319551 0.0025684821  -0.02316735    1.4551225     2768 
 7779000 0.0059835424  -0.02167857     1.392787 0.0025398508  -0.02167857    1.4144656     2786 
 7780000 0.0061048577 -0.021063316    1.4215625  0.002573164 -0.021063316    1.4426258     2787 
 7781000 0.0059323505 -0.022493457    1.4060209 0.0025164129 -0.022493457    1.4285143     2735 
 7782000 0.0060369676 -0.023365217    1.4192641 0.0025781944 -0.023365217    1.4426294     2756 
 7783000 0.0060151072 -0.024114742     1.426449 0.0025574753 -0.024114742    1.4505637     2731 
 7784000 0.0060596087 -0.024300481    1.4327268 0.0025395453 -0.024300481    1.4570273     2739 
 7785000 0.0060294431 -0.027781159    1.4219928 0.0025375629 -0.027781159     1.449774     2739 
 7786000 0.0060971516 -0.027153776    1.4389007 0.0025713931 -0.027153776    1.4660544     2739 
 7787000 0.0061314329 -0.022430654    1.4390606 0.0025912247 -0.022430654    1.4614913     2763 
 7788000 0.0060807055 -0.023732201    1.4383678 0.0025832018 -0.023732201       1.4621     2739 
 7789000 0.0061325993 -0.023748964     1.454607 0.0026304101 -0.023748964     1.478356     2732 
 7790000 0.0061518379 -0.026151836    1.4590164 0.0026120591 -0.026151836    1.4851682     2728 
 7791000 0.0061021599  -0.02691473    1.4403439 0.0026173686  -0.02691473    1.4672587     2739 
 7792000 0.0062176962 -0.023800551    1.4481306 0.0026470171 -0.023800551    1.4719312     2782 
 7793000 0.0061764419 -0.024473187    1.4530942 0.0026175049 -0.024473187    1.4775673     2753 
 7794000 0.0062063394 -0.019330919    1.4718887  0.002631835 -0.019330919    1.4912196     2741 
 7795000 0.0061332896 -0.027732044    1.4448612 0.0025867038 -0.027732044    1.4725932     2743 
 7796000 0.0060933149 -0.022810742    1.4385863 0.0025834982 -0.022810742     1.461397     2746 
 7797000 0.0061320829 -0.021247508    1.4494475 0.0026000058 -0.021247508     1.470695     2746 
 7798000 0.0062629837 -0.020602535    1.4727858 0.0026552217 -0.020602535    1.4933883     2762 
 7799000  0.006166066  -0.02007992    1.4555412  0.002617991  -0.02007992    1.4756212     2752 
 7800000 0.0061428446 -0.019808003     1.453468 0.0026018963 -0.019808003    1.4732761     2746 
 7801000 0.0061163451 -0.019948731    1.4475062  0.002616901 -0.019948731    1.4674549     2745 
 7802000 0.0062487537 -0.020937543    1.4535758 0.0026255095 -0.020937543    1.4745133     2791 
 7803000 0.0062517937 -0.019997982    1.4761389 0.0026751519 -0.019997982    1.4961369     2752 
 7804000 0.0062221955 -0.021354558    1.4731297 0.0026321997 -0.021354558    1.4944842     2742 
 7805000 0.0061830174 -0.023497362    1.4702933 0.0026316867 -0.023497362    1.4937907     2726 
 7806000  0.006154056 -0.018160636    1.4642826 0.0026228763 -0.018160636    1.4824432     2734 
 7807000 0.0060958647  -0.02087901    1.4600046 0.0026084927  -0.02087901    1.4808836     2711 
 7808000 0.0060891724  -0.02162418    1.4521972 0.0025813081  -0.02162418    1.4738214     2721 
 7809000 0.0061644439 -0.024297676    1.4568556 0.0026093772 -0.024297676    1.4811533     2741 
 7810000 0.0061962014 -0.020560084    1.4628119  0.002648013 -0.020560084     1.483372     2751 
 7811000 0.0062606456 -0.022062866     1.456316 0.0026582221 -0.022062866    1.4783788     2789 
 7812000 0.0062252669 -0.022932142    1.4529133 0.0026366809 -0.022932142    1.4758454     2778 
 7813000 0.0063510156  -0.02572518    1.4633155 0.0026807465  -0.02572518    1.4890407     2809 
 7814000 0.0061978023 -0.022504319    1.4666641 0.0026254488 -0.022504319    1.4891684     2741 
 7815000 0.0063740617 -0.022091843    1.4863139 0.0026927259 -0.022091843    1.5084058     2783 
 7816000 0.0063755171 -0.025885873    1.4834067 0.0026893842 -0.025885873    1.5092925     2782 
 7817000 0.0062575766 -0.022110411    1.4662165 0.0026370831 -0.022110411     1.488327     2769 
 7818000 0.0061995502 -0.019389196    1.4535407  0.002623869 -0.019389196    1.4729299     2772 
 7819000 0.0062112524 -0.020634082    1.4550761  0.002618211 -0.020634082    1.4757102     2772 
 7820000 0.0062193509  -0.01782938    1.4544935 0.0026534008  -0.01782938    1.4723229     2782 
 7821000 0.0061786068 -0.022559564    1.4555257 0.0025869534 -0.022559564    1.4780852     2753 
 7822000 0.0060930341 -0.019054198    1.4449412 0.0025858802 -0.019054198    1.4639954     2741 
 7823000 0.0061152628 -0.022280719    1.4411826 0.0026085929 -0.022280719    1.4634633     2752 
 7824000 0.0060762562 -0.020103361    1.4345537 0.0025692488 -0.020103361    1.4546571     2751 
 7825000 0.0060904861 -0.024105259    1.4313132 0.0025594236 -0.024105259    1.4554184     2756 
 7826000 0.0061071851 -0.026349465    1.4262078 0.0025995032 -0.026349465    1.4525572     2769 
 7827000 0.0061375448 -0.023154829    1.4376784 0.0025652843 -0.023154829    1.4608333     2767 
 7828000 0.0061302639 -0.023904303    1.4436822 0.0025910369 -0.023904303    1.4675865     2751 
 7829000 0.0061534539 -0.021519413    1.4404587 0.0026109029 -0.021519413    1.4619781     2772 
 7830000 0.0061565576 -0.029254379    1.4292518 0.0026148749 -0.029254379    1.4585062     2780 
 7831000 0.0060471368 -0.023454831    1.4179436 0.0025928953 -0.023454831    1.4413984     2763 
 7832000 0.0060858892 -0.025140376    1.4223518 0.0025585519 -0.025140376    1.4474921     2769 
 7833000 0.0060935284 -0.024585379    1.4257713 0.0025807115 -0.024585379    1.4503567     2767 
 7834000 0.0060290397 -0.024919845    1.4332753 0.0025349309 -0.024919845    1.4581951     2723 
 7835000 0.0060504102 -0.022625717    1.4159085 0.0025657991 -0.022625717    1.4385342     2770 
 7836000    0.0060408 -0.023011949    1.4268461 0.0025903394 -0.023011949     1.449858     2744 
 7837000 0.0060358573 -0.024521989    1.4167961 0.0025759871 -0.024521989    1.4413181     2758 
 7838000  0.005942872 -0.025893077    1.4046318 0.0025180536 -0.025893077    1.4305249     2736 
 7839000 0.0060650654 -0.023538462    1.4316132 0.0025933932 -0.023538462    1.4551517     2745 
 7840000   0.00607808 -0.024054965    1.4315678 0.0025962847 -0.024054965    1.4556228     2750 
 7841000 0.0059952413 -0.021512754    1.4258501 0.0025463986 -0.021512754    1.4473629     2728 
 7842000 0.0060659368  -0.02330528    1.4341793 0.0025638877  -0.02330528    1.4574846     2741 
 7843000  0.006064512 -0.023471925    1.4363332 0.0025763953 -0.023471925    1.4598052     2736 
 7844000 0.0061029419 -0.025745824    1.4326491   0.00256295 -0.025745824     1.458395     2756 
 7845000 0.0061117455 -0.026177997    1.4300935 0.0026182775 -0.026177997    1.4562715     2764 
 7846000 0.0059511019 -0.018279288    1.4157991 0.0025242416 -0.018279288    1.4340784     2733 
 7847000 0.0061023571 -0.020327724    1.4400471 0.0026044241 -0.020327724    1.4603748     2752 
 7848000 0.0059989996 -0.017599125    1.4175193 0.0025812385 -0.017599125    1.4351185     2753 
 7849000 0.0062099399 -0.021945566    1.4630959 0.0026263665 -0.021945566    1.4850415     2754 
 7850000 0.0060162903 -0.020632642    1.4323445 0.0025323367 -0.020632642    1.4529771     2727 
 7851000 0.0061307969 -0.022426752    1.4399715 0.0025989097 -0.022426752    1.4623982     2761 
 7852000 0.0061063533 -0.022517993    1.4452131 0.0025777835 -0.022517993    1.4677311     2740 
 7853000 0.0060691334 -0.020546135    1.4355816 0.0025849253 -0.020546135    1.4561277     2745 
 7854000 0.0059282023 -0.021047087    1.4217669 0.0025368539 -0.021047087     1.442814     2706 
 7855000 0.0060268851 -0.021296098    1.4374493 0.0025516577 -0.021296098    1.4587454     2721 
 7856000 0.0060238553 -0.022682632    1.4380136 0.0025438835 -0.022682632    1.4606962     2716 
 7857000 0.0059857494 -0.022482872    1.4354146 0.0025521636 -0.022482872    1.4578974     2704 
 7858000 0.0060214104 -0.019917079    1.4412622 0.0025261667 -0.019917079    1.4611793     2714 
 7859000 0.0060762671 -0.020076392     1.437232 0.0025722829 -0.020076392    1.4573083     2746 
 7860000 0.0061292827    -0.022215    1.4494162 0.0026162765    -0.022215    1.4716312     2743 
 7861000 0.0060301455 -0.024171894    1.4316175 0.0025428391 -0.024171894    1.4557894     2728 
 7862000 0.0060352905 -0.020870553    1.4292506 0.0025275997 -0.020870553    1.4501211     2741 
 7863000 0.0060057296  -0.02285504    1.4175359  0.002520524  -0.02285504    1.4403909     2746 
 7864000 0.0061202488 -0.018076739    1.4487117 0.0026127111 -0.018076739    1.4667884     2748 
 7865000  0.006238835 -0.023115151    1.4672129  0.002642344 -0.023115151     1.490328     2757 
 7866000 0.0059623998 -0.020514819    1.4457947 0.0025244058 -0.020514819    1.4663095     2678 
 7867000 0.0061526648  -0.02017377     1.456533 0.0025854247  -0.02017377    1.4767068     2744 
 7868000 0.0062596596   -0.0220756    1.4726848 0.0026733607   -0.0220756    1.4947604     2758 
 7869000 0.0060518351   -0.0184031    1.4436945 0.0025424422   -0.0184031    1.4620976     2726 
 7870000 0.0060264976 -0.020192294    1.4449207 0.0025992997 -0.020192294     1.465113     2709 
 7871000 0.0060532414 -0.023414794    1.4531053 0.0025866783 -0.023414794    1.4765201     2700 
 7872000 0.0061425818 -0.021253636    1.4514231 0.0026306661 -0.021253636    1.4726767     2747 
 7873000 0.0061499344 -0.019854775    1.4540482 0.0026098847 -0.019854775    1.4739029     2748 
 7874000 0.0061425154 -0.024264837    1.4516196 0.0025819366 -0.024264837    1.4758844     2741 
 7875000 0.0061762494 -0.024152171    1.4818145 0.0026170623 -0.024152171    1.5059667     2701 
 7876000 0.0062844025 -0.020727408    1.4854024 0.0026878385 -0.020727408    1.5061298     2748 
 7877000 0.0062336097 -0.022591514    1.4801146 0.0026670899 -0.022591514    1.5027061     2732 
 7878000 0.0063214576 -0.017834249     1.489497 0.0027002565 -0.017834249    1.5073312     2762 
 7879000 0.0062494493 -0.020982675    1.4675616 0.0026470994 -0.020982675    1.4885442     2765 
 7880000  0.006247345 -0.022491348    1.4671679 0.0026560482 -0.022491348    1.4896593     2762 
 7881000 0.0061943849 -0.023582669    1.4631374 0.0026064758 -0.023582669    1.4867201     2744 
 7882000 0.0062481093  -0.02382466    1.4681776 0.0026251428  -0.02382466    1.4920023     2758 
 7883000  0.006375067 -0.019669494    1.4944147 0.0026915662 -0.019669494    1.5140842     2773 
 7884000 0.0062581141 -0.020898641    1.4611335  0.002667326 -0.020898641    1.4820321     2781 
 7885000 0.0060260214 -0.021091881    1.4268021 0.0025680971 -0.021091881     1.447894     2741 
 7886000 0.0060161054  -0.02195457    1.4288498 0.0025606578  -0.02195457    1.4508044     2731 
 7887000 0.0060708285  -0.02053252    1.4493892  0.002573356  -0.02053252    1.4699217     2720 
 7888000 0.0061047494 -0.021204173    1.4323486 0.0025741723 -0.021204173    1.4535527     2766 
 7889000 0.0059702827 -0.023358382    1.4200955 0.0025269841 -0.023358382    1.4434539     2724 
 7890000  0.006010942 -0.023472749    1.4303452 0.0025375294 -0.023472749     1.453818     2723 
 7891000 0.0060339578 -0.024979099    1.4232367 0.0025491075 -0.024979099    1.4482158     2744 
 7892000 0.0061144189  -0.02132087    1.4292898 0.0026158249  -0.02132087    1.4506106     2776 
 7893000 0.0059389575 -0.019379457    1.4191413 0.0025097895 -0.019379457    1.4385208     2719 
 7894000 0.0058523585 -0.020985536    1.4091832 0.0024638538 -0.020985536    1.4301687     2695 
 7895000 0.0059657702 -0.021597348    1.4282169 0.0025387131 -0.021597348    1.4498142     2710 
 7896000 0.0060282965 -0.014887991    1.4447355 0.0026125908 -0.014887991    1.4596235     2720 
 7897000  0.006120616 -0.018742133    1.4476007 0.0026017434 -0.018742133    1.4663428     2749 
 7898000  0.006126795 -0.019714953    1.4545437 0.0025887142 -0.019714953    1.4742586     2737 
 7899000  0.006140264 -0.024043253    1.4561604 0.0025930125 -0.024043253    1.4802037     2732 
 7900000 0.0062768206 -0.022585728    1.4719375 0.0026517661 -0.022585728    1.4945232     2766 
 7901000 0.0062084259 -0.022403396    1.4709521 0.0026101478 -0.022403396    1.4933555     2738 
 7902000 0.0062509212 -0.024071936    1.4664401 0.0026201853 -0.024071936     1.490512     2762 
 7903000 0.0063547432  -0.02410733    1.4977728 0.0026829787  -0.02410733    1.5218801     2750 
 7904000 0.0061777032 -0.017601972    1.4683635 0.0026285532 -0.017601972    1.4859655     2738 
 7905000 0.0062967013 -0.022857849    1.4807478 0.0026458688 -0.022857849    1.5036057     2758 
 7906000 0.0062927165 -0.020237468    1.4802405 0.0026881628 -0.020237468     1.500478     2762 
 7907000 0.0062591267 -0.021178694    1.4723714 0.0026394379 -0.021178694    1.4935501     2760 
 7908000 0.0061251066 -0.019625938    1.4467259 0.0025857246 -0.019625938    1.4663519     2751 
 7909000  0.006156303 -0.020738306    1.4504081 0.0025984647 -0.020738306    1.4711464     2756 
 7910000 0.0061059144 -0.021336518    1.4340722 0.0026067016 -0.021336518    1.4554087     2763 
 7911000 0.0061227421 -0.022730806    1.4356333 0.0026345232 -0.022730806    1.4583641     2765 
 7912000 0.0062527166 -0.022925064    1.4674754 0.0026391064 -0.022925064    1.4904005     2763 
 7913000 0.0061996044 -0.019806407    1.4541999 0.0026379295 -0.019806407    1.4740063     2770 
 7914000 0.0062148728 -0.025196102     1.449778 0.0026303967 -0.025196102    1.4749741     2775 
 7915000 0.0063726756 -0.022429407    1.4738203 0.0027201424 -0.022429407    1.4962497     2805 
 7916000 0.0063260582 -0.023718094     1.462646 0.0026867791 -0.023718094    1.4863641     2803 
 7917000 0.0063692549 -0.023329804    1.4689248 0.0026869648 -0.023329804    1.4922546     2811 
 7918000 0.0062958625 -0.021118498    1.4507992 0.0027263483 -0.021118498    1.4719177     2817 
 7919000 0.0064567546 -0.021880156    1.4701739 0.0027506989 -0.021880156     1.492054     2850 
 7920000 0.0064179493 -0.020495451    1.4736004 0.0027483451 -0.020495451    1.4940959     2829 
 7921000 0.0064905786  -0.02307975    1.4741637 0.0027649964  -0.02307975    1.4972435     2855 
 7922000 0.0064800793  -0.02350346    1.4808023 0.0027189856  -0.02350346    1.5043058     2837 
 7923000 0.0063777061 -0.021492909    1.4802209 0.0027146629 -0.021492909    1.5017138     2797 
 7924000  0.006335661  -0.02242315    1.4715271 0.0026906945  -0.02242315    1.4939502     2793 
 7925000 0.0062804956 -0.019540754     1.456118 0.0026832182 -0.019540754    1.4756588     2803 
 7926000 0.0062800291 -0.021940226    1.4499332  0.002644634 -0.021940226    1.4718734     2810 
 7927000 0.0063367777 -0.023354896    1.4576027 0.0026859414 -0.023354896    1.4809576     2818 
 7928000  0.006273191 -0.024122708     1.451399  0.002656505 -0.024122708    1.4755217     2800 
 7929000 0.0062417029 -0.024041842    1.4488077 0.0026175504 -0.024041842    1.4728496     2791 
 7930000 0.0062680003  -0.02297744    1.4393117 0.0026489395  -0.02297744    1.4622892     2823 
 7931000 0.0061965197 -0.026409879    1.4473951 0.0025955416 -0.026409879    1.4738049     2769 
 7932000 0.0061197759 -0.023340888    1.4306357 0.0025823625 -0.023340888    1.4539766     2772 
 7933000 0.0061691353 -0.023257278    1.4293458 0.0025889603 -0.023257278    1.4526031     2797 
 7934000 0.0061485407 -0.023674687    1.4261525 0.0026254637 -0.023674687    1.4498272     2793 
 7935000 0.0062207624 -0.025544939    1.4428894 0.0026301872 -0.025544939    1.4684344     2790 
 7936000 0.0062895389 -0.022816332    1.4523359 0.0026722917 -0.022816332    1.4751522     2808 
 7937000 0.0063972642 -0.022749815    1.4612848 0.0027342808 -0.022749815    1.4840346     2839 
 7938000 0.0064367753 -0.025668452    1.4524333 0.0026994682 -0.025668452    1.4781018     2868 
 7939000 0.0062933443 -0.023764845     1.440288 0.0026776862 -0.023764845    1.4640529     2831 
 7940000 0.0064264942  -0.02542773    1.4549587 0.0027257042  -0.02542773    1.4803864     2859 
 7941000 0.0062856407 -0.023959331    1.4414071 0.0026604058 -0.023959331    1.4653664     2825 
 7942000 0.0062615522 -0.025490268    1.4404876 0.0026409178 -0.025490268    1.4659779     2813 
 7943000 0.0063324233 -0.022768001    1.4482975 0.0026849989 -0.022768001    1.4710655     2835 
 7944000 0.0064233019 -0.024352474    1.4636259 0.0027080395 -0.024352474    1.4879783     2843 
 7945000 0.0065062289 -0.018746343    1.4758254 0.0027572064 -0.018746343    1.4945718     2867 
 7946000 0.0064789971 -0.021023209    1.4751208 0.0027269314 -0.021023209     1.496144     2852 
 7947000 0.0064862832 -0.023633545    1.4831747 0.0027393807 -0.023633545    1.5068082     2835 
 7948000 0.0065276303 -0.020781214    1.4693512 0.0027571392 -0.020781214    1.4901324     2885 
 7949000 0.0064028149 -0.021681404    1.4625952 0.0027312452 -0.021681404    1.4842766     2841 
 7950000 0.0064148558 -0.019202815    1.4616103 0.0027394757 -0.019202815    1.4808131     2853 
 7951000 0.0065174257 -0.021485971    1.4683826  0.002747508 -0.021485971    1.4898686     2881 
 7952000 0.0065676191 -0.024760999    1.4781467 0.0027577257 -0.024760999    1.5029077     2878 
 7953000 0.0065213214 -0.023597441    1.4723542 0.0027409994 -0.023597441    1.4959516     2871 
 7954000 0.0065083055 -0.023084461    1.4672858 0.0027547943 -0.023084461    1.4903703     2876 
 7955000 0.0065266119 -0.026101416    1.4721075 0.0027490863 -0.026101416    1.4982089     2869 
 7956000 0.0064469451 -0.026535976    1.4467095  0.002703477 -0.026535976    1.4732455     2882 
 7957000 0.0065415443 -0.024958244    1.4861591 0.0027851223 -0.024958244    1.5111174     2851 
 7958000 0.0065253074 -0.025807776    1.4715798 0.0027578256 -0.025807776    1.4973875     2870 
 7959000 0.0064807658 -0.024318763    1.4571695 0.0027516114 -0.024318763    1.4814882     2881 
 7960000 0.0063844036 -0.024493137    1.4607433 0.0026934072 -0.024493137    1.4852364     2831 
 7961000 0.0063009627 -0.025034475    1.4496461 0.0026608621 -0.025034475    1.4746805     2814 
 7962000 0.0064285155 -0.022386082    1.4553647 0.0027264367 -0.022386082    1.4777508     2865 
 7963000 0.0063634065 -0.022530435    1.4531301 0.0027158848 -0.022530435    1.4756605     2840 
 7964000 0.0062897461 -0.021892387    1.4325893 0.0026735854 -0.021892387    1.4544817     2848 
 7965000 0.0063301128 -0.026164799    1.4537603 0.0026655058 -0.026164799    1.4799251     2817 
 7966000 0.0063426114 -0.024041657    1.4457614 0.0027010175 -0.024041657    1.4698031     2842 
 7967000 0.0065016597 -0.022085561    1.4808727 0.0027472251 -0.022085561    1.5029583     2849 
 7968000 0.0063853147 -0.021272007    1.4486002 0.0026999809 -0.021272007    1.4698722     2861 
 7969000 0.0064899799 -0.019819123    1.4778108 0.0027280166 -0.019819123    1.4976299     2854 
 7970000 0.0063356305 -0.020602048    1.4455198 0.0027025646 -0.020602048    1.4661219     2846 
 7971000 0.0064253437 -0.022699382    1.4725894 0.0027441859 -0.022699382    1.4952887     2830 
 7972000 0.0064329361 -0.023796639    1.4669378 0.0027247723 -0.023796639    1.4907345     2842 
 7973000 0.0063820624 -0.020718839    1.4629248 0.0026827196 -0.020718839    1.4836437     2833 
 7974000 0.0065043506 -0.023182941    1.4862252 0.0027544345 -0.023182941    1.5094081     2838 
 7975000 0.0063941067 -0.020831723     1.471406 0.0027156989 -0.020831723    1.4922377     2822 
 7976000 0.0063923364 -0.023216405    1.4824806  0.002715712 -0.023216405     1.505697     2796 
 7977000 0.0062884199  -0.02300289    1.4518869 0.0026725388  -0.02300289    1.4748898     2808 
 7978000  0.006288257 -0.023998866    1.4508527 0.0026431404 -0.023998866    1.4748515     2808 
 7979000 0.0062626775 -0.023060787    1.4416185 0.0026479903 -0.023060787    1.4646792     2816 
 7980000 0.0062743797 -0.021823709    1.4502973 0.0026814466 -0.021823709     1.472121     2807 
 7981000 0.0062955719  -0.02392623    1.4380627 0.0026620952  -0.02392623     1.461989     2836 
 7982000  0.006339954 -0.024136333    1.4507596 0.0026727391 -0.024136333    1.4748959     2831 
 7983000 0.0063047646 -0.020923602    1.4365193 0.0026715801 -0.020923602    1.4574429     2849 
 7984000 0.0062390966  -0.02477852     1.447456 0.0026207637  -0.02477852    1.4722346     2791 
 7985000 0.0063099428 -0.027395545    1.4615565 0.0026475934 -0.027395545    1.4889521     2791 
 7986000 0.0062503607 -0.024723019    1.4592081 0.0026527142 -0.024723019    1.4839312     2774 
 7987000  0.006241853 -0.021061225     1.447614 0.0026299927 -0.021061225    1.4686752     2799 
 7988000 0.0063183056 -0.027008394    1.4682029 0.0026738805 -0.027008394    1.4952113     2783 
 7989000 0.0062982559 -0.026192312    1.4642742 0.0026735842 -0.026192312    1.4904665     2783 
 7990000 0.0062199214  -0.02333401    1.4475378 0.0026179929  -0.02333401    1.4708718     2785 
 7991000  0.006159232 -0.021270523    1.4505758 0.0026216931 -0.021270523    1.4718464     2756 
 7992000 0.0062013722 -0.023136643    1.4550254 0.0026254325 -0.023136643    1.4781621     2763 
 7993000 0.0061419776 -0.023115949    1.4553362 0.0025948791 -0.023115949    1.4784521     2736 
 7994000 0.0061496134 -0.022957152    1.4524796 0.0026349432 -0.022957152    1.4754368     2745 
 7995000 0.0059799752   -0.0224721    1.4265168 0.0025285807   -0.0224721    1.4489889     2718 
 7996000 0.0061209358 -0.021882113    1.4371071 0.0025931725 -0.021882113    1.4589892     2763 
 7997000 0.0059425865 -0.025791156    1.4130795 0.0024974898 -0.025791156    1.4388706     2720 
 7998000 0.0059471495 -0.025638832    1.4033043   0.00255338 -0.025638832    1.4289432     2741 
 7999000 0.0060022889 -0.027276127    1.4149156 0.0025311462 -0.027276127    1.4421917     2741 
 8000000 0.0060088273 -0.023410385    1.4187739 0.0025322953 -0.023410385    1.4421842     2744 
Loop time of 4072.59 on 192 procs for 5000000 steps with 2744 atoms

Performance: 530375.498 tau/day, 1227.721 timesteps/s
98.7% CPU use with 192 MPI tasks x 1 OpenMP threads

MPI task timing breakdown:
Section |  min time  |  avg time  |  max time  |%varavg|  %CPU | %total
-----------------------------------------------------------------------
Pair    | 209.27     | 550.85     | 777.75     | 619.2 |  99.0 | 13.53
Bond    | 3.1708     | 3.3077     | 3.4896     |   3.0 | 100.0 |  0.08
Neigh   | 144.96     | 280.42     | 380.95     | 329.3 |  99.3 |  6.89
Comm    | 830.92     | 1223.1     | 1683.5     | 532.6 |  98.3 | 30.03
Output  | 281.44     | 286.67     | 286.71     |   2.2 |  98.4 |  7.04
Modify  | 1609.8     | 1627.5     | 1749.6     |  80.4 |  98.9 | 39.96
Other   |            | 100.7      |            |       |       |  2.47

Nlocal:        14.2917 ave          26 max           4 min
Histogram: 2 3 23 37 42 44 26 11 3 1
Nghost:        18.7083 ave          30 max           7 min
Histogram: 1 13 12 41 25 36 25 26 5 8
Neighs:        2.12500 ave           8 max           0 min
Histogram: 33 50 39 35 0 15 11 5 2 2

Total # of neighbors = 408
Ave neighs/atom = 0.14868805
Ave special neighs/atom = 0.0000000
Neighbor list builds = 504906
Dangerous builds = 434476

write_restart   restart_write.dat
System init for write_restart ...
write_data	data.write
System init for write_data ...
WARNING: Not all mixed pair coeffs generated from mixing. Use write_data with 'pair ij' option to store all pair coeffs. (src/write_data.cpp:312)

Total wall time: 1:07:58
