LAMMPS (24 Dec 2020)
OMP_NUM_THREADS environment is not set. Defaulting to 1 thread. (src/comm.cpp:94)
  using 1 OpenMP thread(s) per MPI task
# Simple rigid body system
# needed variables:


units		lj
atom_style	full
dimension 	3
boundary	p p f
pair_style	lj/cut/opt 2.5


variable 	sigma		equal 1.0
variable 	epsilon 	equal 1.0

region		box block 0 80 0 80 0 160
create_box 	3 box
Created orthogonal box = (0.0000000 0.0000000 0.0000000) to (80.000000 80.000000 160.00000)
  2 by 3 by 8 MPI processor grid


lattice 	sc 0.66   # fluid phase
Lattice spacing in x,y,z = 1.1485556 1.1485556 1.1485556
region		fluid block EDGE EDGE EDGE EDGE 2 82
create_atoms 	1 region fluid
Created 396900 atoms
  create_atoms CPU = 0.009 seconds

lattice 	sc 0.045    # gas phase
Lattice spacing in x,y,z = 2.8114422 2.8114422 2.8114422
region		gas   block EDGE EDGE EDGE EDGE 83 158
create_atoms	1 region gas
Created 0 atoms
  create_atoms CPU = 0.004 seconds


mass		1 1.0
mass		2 1.0
mass		3 1.0

group		solvent type 1
396900 atoms in group solvent
velocity 	solvent create ${startTemp} 563435 loop geom
velocity 	solvent create 1.0 563435 loop geom

neighbor 	0.4 bin

pair_coeff	1 1 1.0 1.0
pair_coeff	2 2 0.0 0.0
pair_coeff	3 3 0.0 0.0
pair_coeff	2 3 0.0 0.0
pair_coeff	1 2*3 0.0 0.0

pair_modify 	shift yes


balance 	1.05 shift z 10 1.05
Balancing ...
Neighbor list info ...
  update every 1 steps, delay 10 steps, check yes
  max neighbors/atom: 2000, page size: 100000
  master list distance cutoff = 2.9
  ghost atom cutoff = 2.9
  binsize = 1.45, bins = 56 56 111
  1 neighbor lists, perpetual/occasional/extra = 1 0 0
  (1) pair lj/cut/opt, perpetual
      attributes: half, newton on
      pair build: half/bin/newton
      stencil: half/bin/3d/newton
      bin: standard
 rebalancing time: 0.013 seconds
  iteration count = 4
  initial/final maximal load/proc = 15120.000 9240.0000
  initial/final imbalance factor  = 1.8285714 1.1174603
  x cuts: 0.0000000 0.50000000 1.0000000
  y cuts: 0.0000000 0.33333333 0.66666667 1.0000000
  z cuts: 0.0000000 0.085937500 0.16406250 0.23437500 0.29687500 0.36718750 0.44531250 0.52343750 1.0000000


####################### WALLS ###########################


variable       epsilonWall equal 2*${epsilon}
variable       epsilonWall equal 2*1

variable       cutoffTop   equal   0.7147*${sigma}
variable       cutoffTop   equal   0.7147*1

variable       cutoffLow   equal   3*${sigma}
variable       cutoffLow   equal   3*1


fix            topWall all wall/lj93 zhi EDGE                ${epsilonWall} ${sigma} ${cutoffTop} units box
fix            topWall all wall/lj93 zhi EDGE                2 ${sigma} ${cutoffTop} units box
fix            topWall all wall/lj93 zhi EDGE                2 1 ${cutoffTop} units box
fix            topWall all wall/lj93 zhi EDGE                2 1 0.7147 units box

fix            lowWall all wall/lj93 zlo EDGE                ${epsilonWall} ${sigma} ${cutoffLow} units box
fix            lowWall all wall/lj93 zlo EDGE                2 ${sigma} ${cutoffLow} units box
fix            lowWall all wall/lj93 zlo EDGE                2 1 ${cutoffLow} units box
fix            lowWall all wall/lj93 zlo EDGE                2 1 3 units box


###################### COMPUTES ##########################

compute        bin1 solvent chunk/atom bin/1d z upper 1.0


######################	FIXES ############################


fix 		peclet solvent ave/chunk 1000 1 1000 bin1 density/number norm 		 none ave one file density.profile

fix 		 temp solvent ave/chunk 1000 1 1000 bin1 temp norm 		 none ave one file temp.profile

fix 		2 solvent nve


## Thermostat


region		regthermo block EDGE EDGE EDGE EDGE 0 20

group 		thermo dynamic solvent region regthermo every 1000
dynamic group thermo defined

fix 		3 thermo langevin ${startTemp} ${temp} 10 156453
fix 		3 thermo langevin 1.0 ${temp} 10 156453
fix 		3 thermo langevin 1.0 1.2 10 156453



#### Load balancing


fix 		bal all balance 1000 1.05 shift z 10 1.05


############### Diagnostics and computes ###################
#compute 	com cube	  rigid/local	1 mol x y z
#compute 	quat cube	  rigid/local	1 mol quatw quati quatj quatk

thermo 		1000
thermo_style 	custom step temp epair evdwl etotal press pe ke atoms

dump		1 all custom 100000 dump.lammpstrj id mol type x y z
dump 		2 all image 10000 image.*.png type type
dump 		3 all movie 1000 movie.avi type type

#dump 		com cube local 1000 dump.*.xyz c_com[*]
#dump		quat cube      local 1000 dump.*.quat c_quat[*]


restart 	1000000 restart.dat
timestep 	0.005
timer 		full
New timer settings: style=full  mode=nosync  timeout=off

run		3000000
Per MPI rank memory allocation (min/avg/max) = 11.94 | 16.69 | 18.65 Mbytes
Step Temp E_pair E_vdwl TotEng Press PotEng KinEng Atoms 
       0            1   -1.2728193   -1.2728193   0.22717689    3.8122416   -1.2728193    1.4999962   396900 
    1000     1.784647   -3.4592104   -3.4592104  -0.78224661     1.429855   -3.4592104    2.6769638   396900 
    2000    1.5132442   -3.4597171   -3.4597171   -1.1898565   0.66968001   -3.4597171    2.2698606   396900 
    3000    1.3190207   -3.3595972   -3.3595972   -1.3810712   0.33364421   -3.3595972     1.978526   396900 
    4000    1.2475193   -3.3182972   -3.3182972   -1.4470229   0.24747503   -3.3182972    1.8712743   396900 
    5000    1.2173653    -3.287677    -3.287677   -1.4616337   0.19711544    -3.287677    1.8260434   396900 
    6000    1.2008884    -3.251603    -3.251603    -1.450275   0.18278492    -3.251603     1.801328   396900 
    7000    1.1931846   -3.2227773   -3.2227773    -1.433005   0.18092089   -3.2227773    1.7897723   396900 
    8000    1.1954617    -3.202407    -3.202407   -1.4092189   0.18753374    -3.202407    1.7931881   396900 
    9000    1.1940112   -3.1791616   -3.1791616   -1.3881493   0.19183046   -3.1791616    1.7910123   396900 
   10000     1.190529   -3.1530627   -3.1530627   -1.3672736   0.19340252   -3.1530627     1.785789   396900 
   11000    1.1824138   -3.1226745   -3.1226745   -1.3490582   0.18290873   -3.1226745    1.7736163   396900 
   12000    1.1743151   -3.0968075   -3.0968075   -1.3353393   0.18217502   -3.0968075    1.7614682   396900 
   13000    1.1631158   -3.0670526   -3.0670526   -1.3223833   0.17725236   -3.0670526    1.7446693   396900 
   14000    1.1510095   -3.0396287   -3.0396287   -1.3131187   0.16006488   -3.0396287      1.72651   396900 
   15000    1.1397206   -3.0121786   -3.0121786    -1.302602   0.15184225   -3.0121786    1.7095766   396900 
   16000    1.1342426   -2.9941114   -2.9941114   -1.2927518   0.15143432   -2.9941114    1.7013596   396900 
   17000    1.1316819   -2.9885741   -2.9885741   -1.2910555   0.16615856   -2.9885741    1.6975186   396900 
   18000    1.1281494   -2.9956967   -2.9956967   -1.3034769   0.17296701   -2.9956967    1.6922198   396900 
   19000    1.1216369   -3.0071446   -3.0071446   -1.3246936   0.17671014   -3.0071446    1.6824511   396900 
   20000    1.1121633   -3.0180072   -3.0180072   -1.3497665    0.1798479   -3.0180072    1.6682408   396900 
   21000    1.1011211   -3.0268346   -3.0268346   -1.3751571   0.17538309   -3.0268346    1.6516775   396900 
   22000    1.0949817   -3.0383118   -3.0383118   -1.3958433    0.1655239   -3.0383118    1.6424684   396900 
   23000    1.0838273   -3.0413091   -3.0413091   -1.4155722   0.15708509   -3.0413091    1.6257369   396900 
   24000    1.0764871   -3.0450546   -3.0450546    -1.430328   0.15450947   -3.0450546    1.6147266   396900 
   25000     1.072367   -3.0485736   -3.0485736   -1.4400271   0.15002642   -3.0485736    1.6085465   396900 
   26000    1.0657906   -3.0491115   -3.0491115   -1.4504296   0.14526399   -3.0491115    1.5986819   396900 
   27000    1.0599537   -3.0461054   -3.0461054   -1.4561789   0.13952174   -3.0461054    1.5899266   396900 
   28000    1.0578574    -3.047955    -3.047955   -1.4611728   0.13418854    -3.047955    1.5867822   396900 
   29000    1.0551276   -3.0444016   -3.0444016   -1.4617142   0.13219731   -3.0444016    1.5826875   396900 
   30000    1.0534738   -3.0409008   -3.0409008    -1.460694   0.13257814   -3.0409008    1.5802068   396900 
   31000     1.051689   -3.0370491   -3.0370491   -1.4595196   0.12430927   -3.0370491    1.5775295   396900 
   32000     1.051132   -3.0337292   -3.0337292   -1.4570353   0.12828934   -3.0337292     1.576694   396900 
   33000    1.0508257   -3.0311136   -3.0311136    -1.454879   0.11998732   -3.0311136    1.5762346   396900 
   34000     1.048929   -3.0256759   -3.0256759   -1.4522864   0.12461675   -3.0256759    1.5733895   396900 
   35000    1.0483074   -3.0191031   -3.0191031    -1.446646   0.12137471   -3.0191031    1.5724571   396900 
   36000     1.048125   -3.0139138   -3.0139138   -1.4417302   0.11898024   -3.0139138    1.5721836   396900 
   37000     1.045938   -3.0085317   -3.0085317   -1.4396286   0.12047989   -3.0085317     1.568903   396900 
   38000    1.0445084   -3.0041963   -3.0041963   -1.4374376   0.11095595   -3.0041963    1.5667586   396900 
   39000    1.0452157   -2.9995749   -2.9995749   -1.4317553   0.11061493   -2.9995749    1.5678196   396900 
   40000    1.0423209   -2.9959074   -2.9959074     -1.43243   0.10675283   -2.9959074    1.5634775   396900 
   41000    1.0415652   -2.9889615   -2.9889615   -1.4266176   0.10507823   -2.9889615    1.5623439   396900 
   42000    1.0430444   -2.9869058   -2.9869058   -1.4223431   0.10545333   -2.9869058    1.5645627   396900 
   43000    1.0391369   -2.9818165   -2.9818165   -1.4231151   0.10705448   -2.9818165    1.5587014   396900 
   44000    1.0413405    -2.978579    -2.978579   -1.4165723   0.10935186    -2.978579    1.5620068   396900 
   45000    1.0391566   -2.9760895   -2.9760895   -1.4173585   0.10411417   -2.9760895     1.558731   396900 
   46000    1.0372911   -2.9725558   -2.9725558    -1.416623   0.10387895   -2.9725558    1.5559327   396900 
   47000    1.0373222   -2.9726315   -2.9726315   -1.4166522  0.098509169   -2.9726315    1.5559793   396900 
   48000    1.0369198   -2.9732076   -2.9732076   -1.4178318   0.10701023   -2.9732076    1.5553758   396900 
   49000     1.036364   -2.9732249   -2.9732249   -1.4186828   0.10405216   -2.9732249    1.5545421   396900 
   50000    1.0362855   -2.9731261   -2.9731261   -1.4187018   0.10389395   -2.9731261    1.5544244   396900 
   51000    1.0361006   -2.9757555   -2.9757555   -1.4216086   0.10398704   -2.9757555     1.554147   396900 
   52000    1.0350811   -2.9767591   -2.9767591   -1.4241413   0.10304795   -2.9767591    1.5526178   396900 
   53000    1.0363711    -2.977993    -2.977993   -1.4234402  0.099340559    -2.977993    1.5545527   396900 
   54000    1.0338973   -2.9756582   -2.9756582   -1.4248162   0.10441554   -2.9756582     1.550842   396900 
   55000    1.0336172   -2.9769907   -2.9769907   -1.4265687   0.10315785   -2.9769907    1.5504219   396900 
   56000    1.0341598   -2.9763867   -2.9763867   -1.4251508   0.10262979   -2.9763867    1.5512359   396900 
   57000     1.032809   -2.9753227   -2.9753227   -1.4261131   0.10202234   -2.9753227    1.5492096   396900 
   58000    1.0312709   -2.9710487   -2.9710487   -1.4241462   0.10116218   -2.9710487    1.5469025   396900 
   59000    1.0315513   -2.9697672   -2.9697672   -1.4224442   0.10088334   -2.9697672     1.547323   396900 
   60000    1.0296051   -2.9692857   -2.9692857    -1.424882  0.094808103   -2.9692857    1.5444037   396900 
   61000     1.027957   -2.9659267   -2.9659267   -1.4239952  0.097406269   -2.9659267    1.5419316   396900 
   62000    1.0287856   -2.9681837   -2.9681837   -1.4250092  0.091581278   -2.9681837    1.5431745   396900 
   63000    1.0274088   -2.9658761   -2.9658761   -1.4247668  0.096995212   -2.9658761    1.5411093   396900 
   64000    1.0279729   -2.9646985   -2.9646985    -1.422743  0.099991823   -2.9646985    1.5419555   396900 
   65000    1.0279253   -2.9642037   -2.9642037   -1.4223197  0.093947534   -2.9642037     1.541884   396900 
   66000    1.0279302   -2.9667161   -2.9667161   -1.4248246  0.094970318   -2.9667161    1.5418915   396900 
   67000    1.0286119   -2.9654775   -2.9654775   -1.4225636  0.094270721   -2.9654775    1.5429139   396900 
   68000    1.0296125   -2.9678314   -2.9678314   -1.4234166  0.096868009   -2.9678314    1.5444148   396900 
   69000    1.0275237   -2.9630419   -2.9630419   -1.4217602  0.094527655   -2.9630419    1.5412817   396900 
   70000    1.0312273   -2.9669103   -2.9669103   -1.4200733  0.090678255   -2.9669103     1.546837   396900 
   71000    1.0302205   -2.9630491   -2.9630491   -1.4177222  0.094667807   -2.9630491    1.5453268   396900 
   72000    1.0289591   -2.9607947   -2.9607947   -1.4173599  0.093301657   -2.9607947    1.5434347   396900 
   73000    1.0283481   -2.9603815   -2.9603815   -1.4178633  0.091897007   -2.9603815    1.5425182   396900 
   74000     1.026521   -2.9569697   -2.9569697   -1.4171922  0.088102412   -2.9569697    1.5397776   396900 
   75000    1.0267691   -2.9557966   -2.9557966   -1.4156468  0.090168285   -2.9557966    1.5401498   396900 
   76000    1.0276197   -2.9561502   -2.9561502   -1.4147245  0.091663864   -2.9561502    1.5414257   396900 
   77000    1.0288948   -2.9602736   -2.9602736   -1.4169353  0.090437281   -2.9602736    1.5433382   396900 
   78000    1.0278989   -2.9572488   -2.9572488   -1.4154043  0.090909419   -2.9572488    1.5418445   396900 
   79000    1.0265164   -2.9555888   -2.9555888   -1.4158182  0.090851112   -2.9555888    1.5397707   396900 
   80000    1.0257883   -2.9551528   -2.9551528   -1.4164743  0.094179228   -2.9551528    1.5386786   396900 
   81000    1.0272874   -2.9567263   -2.9567263    -1.415799  0.088726301   -2.9567263    1.5409272   396900 
   82000    1.0236329   -2.9523314   -2.9523314   -1.4168859  0.091190542   -2.9523314    1.5354456   396900 
   83000     1.023565   -2.9514768   -2.9514768   -1.4161332  0.089952353   -2.9514768    1.5353436   396900 
   84000    1.0238045   -2.9529606   -2.9529606   -1.4172577  0.089544523   -2.9529606    1.5357029   396900 
   85000    1.0265901   -2.9551745   -2.9551745   -1.4152932  0.092381165   -2.9551745    1.5398813   396900 
   86000    1.0262451   -2.9524985   -2.9524985   -1.4131347  0.092671038   -2.9524985    1.5393638   396900 
   87000    1.0254169   -2.9543923   -2.9543923   -1.4162709  0.086497694   -2.9543923    1.5381214   396900 
   88000    1.0260083   -2.9551925   -2.9551925   -1.4161839  0.092646847   -2.9551925    1.5390085   396900 
   89000     1.025782   -2.9565605   -2.9565605   -1.4178913  0.087452022   -2.9565605    1.5386691   396900 
   90000    1.0250175   -2.9566043   -2.9566043    -1.419082  0.082585734   -2.9566043    1.5375224   396900 
   91000    1.0243171    -2.954132    -2.954132   -1.4176602  0.089162067    -2.954132    1.5364718   396900 
   92000    1.0237972   -2.9560177   -2.9560177   -1.4203257  0.088471712   -2.9560177     1.535692   396900 
   93000    1.0235626   -2.9562547   -2.9562547   -1.4209147   0.08772109   -2.9562547      1.53534   396900 
   94000    1.0246608   -2.9562499   -2.9562499   -1.4192625  0.088312413   -2.9562499    1.5369874   396900 
   95000    1.0246731   -2.9569582   -2.9569582   -1.4199524  0.089188911   -2.9569582    1.5370058   396900 
   96000    1.0234082    -2.952319    -2.952319   -1.4172105  0.086838546    -2.952319    1.5351085   396900 
   97000    1.0250104    -2.955917    -2.955917   -1.4184053  0.087528412    -2.955917    1.5375117   396900 
   98000    1.0224906   -2.9538273   -2.9538273   -1.4200952  0.084113372   -2.9538273    1.5337321   396900 
   99000    1.0233553   -2.9556721   -2.9556721   -1.4206429  0.089002449   -2.9556721    1.5350292   396900 
  100000    1.0248383   -2.9559294   -2.9559294   -1.4186758   0.08683551   -2.9559294    1.5372536   396900 
  101000    1.0241816    -2.956663    -2.956663   -1.4203945    0.0858732    -2.956663    1.5362685   396900 
  102000    1.0217345   -2.9542654   -2.9542654   -1.4216676   0.08749712   -2.9542654    1.5325978   396900 
  103000    1.0245798   -2.9555285   -2.9555285   -1.4186627   0.08821911   -2.9555285    1.5368658   396900 
  104000    1.0260456   -2.9532763   -2.9532763   -1.4142117  0.092652479   -2.9532763    1.5390646   396900 
  105000    1.0245038   -2.9560143   -2.9560143   -1.4192625  0.087756676   -2.9560143    1.5367518   396900 
  106000    1.0231181   -2.9543431   -2.9543431   -1.4196698  0.083978449   -2.9543431    1.5346733   396900 
  107000    1.0259401   -2.9534083   -2.9534083   -1.4145021  0.090240381   -2.9534083    1.5389063   396900 
  108000    1.0250507   -2.9507821   -2.9507821     -1.41321  0.088480443   -2.9507821    1.5375721   396900 
  109000    1.0229941   -2.9512643   -2.9512643    -1.416777  0.087431553   -2.9512643    1.5344873   396900 
  110000    1.0239378   -2.9522041   -2.9522041   -1.4163014  0.088700521   -2.9522041    1.5359028   396900 
  111000    1.0227244   -2.9532685   -2.9532685   -1.4191858  0.081528184   -2.9532685    1.5340827   396900 
  112000    1.0231585   -2.9536812   -2.9536812   -1.4189473   0.08636776   -2.9536812    1.5347339   396900 
  113000     1.023773   -2.9543819   -2.9543819   -1.4187263   0.08640761   -2.9543819    1.5356556   396900 
  114000    1.0241543   -2.9533372   -2.9533372   -1.4171096  0.091395283   -2.9533372    1.5362276   396900 
  115000    1.0241113   -2.9544834   -2.9544834   -1.4183204  0.080802072   -2.9544834     1.536163   396900 
  116000    1.0244852   -2.9553977   -2.9553977   -1.4186737  0.085205315   -2.9553977     1.536724   396900 
  117000    1.0250927   -2.9566817   -2.9566817   -1.4190466  0.085279057   -2.9566817    1.5376351   396900 
  118000    1.0238495   -2.9562325   -2.9562325   -1.4204621  0.085123281   -2.9562325    1.5357703   396900 
  119000    1.0266759   -2.9547827   -2.9547827   -1.4147727  0.087856172   -2.9547827    1.5400099   396900 
  120000    1.0246956   -2.9549953   -2.9549953   -1.4179557  0.083905883   -2.9549953    1.5370396   396900 
  121000    1.0237619   -2.9558533   -2.9558533   -1.4202142   0.08542348   -2.9558533     1.535639   396900 
  122000    1.0227755   -2.9535632   -2.9535632   -1.4194037  0.086352059   -2.9535632    1.5341594   396900 
  123000     1.022798   -2.9511705   -2.9511705   -1.4169774  0.085810154   -2.9511705    1.5341931   396900 
  124000    1.0244439   -2.9519686   -2.9519686   -1.4153067  0.089107338   -2.9519686    1.5366619   396900 
  125000    1.0239523   -2.9520488   -2.9520488   -1.4161242  0.084336534   -2.9520488    1.5359246   396900 
  126000    1.0233344   -2.9513801   -2.9513801   -1.4163823  0.084269263   -2.9513801    1.5349977   396900 
  127000    1.0244724   -2.9536321   -2.9536321   -1.4169274  0.082669226   -2.9536321    1.5367047   396900 
  128000     1.025129   -2.9520104   -2.9520104   -1.4143208  0.087576347   -2.9520104    1.5376896   396900 
  129000    1.0233641   -2.9509965   -2.9509965   -1.4159542  0.083100435   -2.9509965    1.5350423   396900 
  130000    1.0249238   -2.9519015   -2.9519015   -1.4145196  0.087796362   -2.9519015    1.5373819   396900 
  131000    1.0254004   -2.9505119   -2.9505119   -1.4124151  0.089811454   -2.9505119    1.5380968   396900 
  132000    1.0260338   -2.9504025   -2.9504025   -1.4113557  0.088326566   -2.9504025    1.5390468   396900 
  133000    1.0217184   -2.9466333   -2.9466333   -1.4140595  0.081799811   -2.9466333    1.5325738   396900 
  134000    1.0224771   -2.9463857   -2.9463857   -1.4126739  0.085180318   -2.9463857    1.5337118   396900 
  135000    1.0231261     -2.94897     -2.94897   -1.4142848  0.084557725     -2.94897    1.5346852   396900 
  136000    1.0238768    -2.951004    -2.951004   -1.4151926   0.08460571    -2.951004    1.5358114   396900 
  137000    1.0236314   -2.9514214   -2.9514214   -1.4159781  0.081208516   -2.9514214    1.5354433   396900 
  138000    1.0237094   -2.9512603   -2.9512603   -1.4157001  0.085742147   -2.9512603    1.5355602   396900 
  139000    1.0243158   -2.9514006   -2.9514006   -1.4149307  0.083235929   -2.9514006    1.5364698   396900 
  140000    1.0220026   -2.9498034   -2.9498034   -1.4168033   0.08433943   -2.9498034    1.5330001   396900 
  141000    1.0216708   -2.9490579   -2.9490579   -1.4165555  0.086701714   -2.9490579    1.5325024   396900 
  142000    1.0253626   -2.9515969   -2.9515969   -1.4135569  0.085155443   -2.9515969      1.53804   396900 
  143000    1.0260237   -2.9543954   -2.9543954   -1.4153636   0.08556361   -2.9543954    1.5390317   396900 
  144000    1.0244777   -2.9533216   -2.9533216   -1.4166089   0.07863594   -2.9533216    1.5367127   396900 
  145000    1.0231768   -2.9523326   -2.9523326   -1.4175713  0.083077084   -2.9523326    1.5347613   396900 
  146000    1.0244624    -2.953114    -2.953114   -1.4164243  0.087721093    -2.953114    1.5366897   396900 
  147000    1.0267897   -2.9541262   -2.9541262   -1.4139455  0.084957429   -2.9541262    1.5401807   396900 
  148000    1.0251934   -2.9522189   -2.9522189   -1.4144326  0.087459228   -2.9522189    1.5377863   396900 
  149000    1.0266811   -2.9534593   -2.9534593   -1.4134415  0.082297306   -2.9534593    1.5400178   396900 
  150000    1.0224416     -2.95244     -2.95244   -1.4187814  0.082956288     -2.95244    1.5336586   396900 
  151000    1.0240606   -2.9525524   -2.9525524   -1.4164654  0.086252441   -2.9525524     1.536087   396900 
  152000    1.0248128   -2.9549416   -2.9549416   -1.4177262  0.081211071   -2.9549416    1.5372154   396900 
  153000    1.0244191    -2.953956    -2.953956   -1.4173312  0.079237843    -2.953956    1.5366248   396900 
  154000    1.0261581   -2.9562769   -2.9562769   -1.4170437  0.084406946   -2.9562769    1.5392332   396900 
  155000      1.02602   -2.9557573   -2.9557573   -1.4167311  0.081343804   -2.9557573    1.5390262   396900 
  156000    1.0243295   -2.9520897   -2.9520897   -1.4155994  0.080888034   -2.9520897    1.5364904   396900 
  157000    1.0250394   -2.9523102   -2.9523102    -1.414755  0.083574862   -2.9523102    1.5375553   396900 
  158000    1.0248566   -2.9519965   -2.9519965   -1.4147155  0.083184586   -2.9519965     1.537281   396900 
  159000     1.026081   -2.9530544   -2.9530544   -1.4139367  0.083916038   -2.9530544    1.5391177   396900 
  160000    1.0250079   -2.9547176   -2.9547176   -1.4172096  0.083465069   -2.9547176     1.537508   396900 
  161000    1.0245203    -2.952421    -2.952421   -1.4156444  0.083566643    -2.952421    1.5367766   396900 
  162000    1.0231471   -2.9488103   -2.9488103   -1.4140936  0.084879731   -2.9488103    1.5347168   396900 
  163000     1.025039   -2.9515369   -2.9515369   -1.4139823  0.081289441   -2.9515369    1.5375546   396900 
  164000    1.0221453   -2.9506597   -2.9506597   -1.4174457  0.082078352   -2.9506597    1.5332141   396900 
  165000     1.024317   -2.9533827   -2.9533827   -1.4169111   0.08182328   -2.9533827    1.5364716   396900 
  166000    1.0249064   -2.9543596   -2.9543596   -1.4170039  0.083174015   -2.9543596    1.5373557   396900 
  167000    1.0226527   -2.9496096   -2.9496096   -1.4156345  0.082208183   -2.9496096    1.5339752   396900 
  168000    1.0249815    -2.952771    -2.952771   -1.4153026  0.084589562    -2.952771    1.5374684   396900 
  169000     1.023787   -2.9529741   -2.9529741   -1.4172974  0.085525966   -2.9529741    1.5356767   396900 
  170000    1.0263458   -2.9561724   -2.9561724   -1.4166577  0.079931119   -2.9561724    1.5395148   396900 
  171000    1.0257669   -2.9562933   -2.9562933   -1.4176468  0.086540644   -2.9562933    1.5386465   396900 
  172000    1.0239141   -2.9536757   -2.9536757   -1.4178085    0.0880095   -2.9536757    1.5358672   396900 
  173000    1.0213806   -2.9521132   -2.9521132   -1.4200462  0.084382865   -2.9521132     1.532067   396900 
  174000    1.0244115    -2.955189    -2.955189   -1.4185755  0.084117815    -2.955189    1.5366134   396900 
  175000    1.0266796   -2.9552397   -2.9552397   -1.4152242  0.084178957   -2.9552397    1.5400156   396900 
  176000    1.0233184   -2.9521608   -2.9521608   -1.4171871  0.086580783   -2.9521608    1.5349737   396900 
  177000    1.0228721   -2.9535694   -2.9535694   -1.4192652  0.082014002   -2.9535694    1.5343043   396900 
  178000    1.0257286   -2.9542312   -2.9542312   -1.4156422  0.084025318   -2.9542312     1.538589   396900 
  179000    1.0233375   -2.9510142   -2.9510142   -1.4160118  0.088249652   -2.9510142    1.5350024   396900 
  180000    1.0236211    -2.953949    -2.953949   -1.4185212  0.088626618    -2.953949    1.5354278   396900 
  181000    1.0217862    -2.952128    -2.952128   -1.4194525  0.081878675    -2.952128    1.5326755   396900 
  182000    1.0256665   -2.9545719   -2.9545719   -1.4160759  0.087043735   -2.9545719    1.5384959   396900 
  183000    1.0246315   -2.9524283   -2.9524283    -1.415485   0.09054101   -2.9524283    1.5369433   396900 
  184000    1.0235154     -2.95196     -2.95196   -1.4166908  0.084911956     -2.95196    1.5352692   396900 
  185000    1.0249951   -2.9553266   -2.9553266   -1.4178378  0.088806226   -2.9553266    1.5374887   396900 
  186000    1.0246522   -2.9534932   -2.9534932   -1.4165187  0.085278346   -2.9534932    1.5369744   396900 
  187000    1.0236451   -2.9548571   -2.9548571   -1.4193933  0.084765992   -2.9548571    1.5354638   396900 
  188000    1.0229511   -2.9547886   -2.9547886   -1.4203658  0.081684951   -2.9547886    1.5344228   396900 
  189000    1.0232202   -2.9540255   -2.9540255   -1.4191991   0.08233038   -2.9540255    1.5348264   396900 
  190000    1.0244117   -2.9547208   -2.9547208   -1.4181072  0.083177208   -2.9547208    1.5366136   396900 
  191000    1.0250257   -2.9525658   -2.9525658   -1.4150311  0.084294926   -2.9525658    1.5375347   396900 
  192000    1.0220324   -2.9514235   -2.9514235   -1.4183788  0.079236235   -2.9514235    1.5330447   396900 
  193000    1.0223615   -2.9493856   -2.9493856   -1.4158473  0.083845919   -2.9493856    1.5335384   396900 
  194000    1.0229972   -2.9506172   -2.9506172   -1.4161253  0.086567541   -2.9506172    1.5344919   396900 
  195000    1.0254792    -2.952531    -2.952531   -1.4143161  0.080292136    -2.952531    1.5382149   396900 
  196000    1.0259179     -2.95273     -2.95273   -1.4138569  0.090024447     -2.95273     1.538873   396900 
  197000    1.0243893   -2.9530079   -2.9530079   -1.4164279  0.085678273   -2.9530079    1.5365801   396900 
  198000     1.026259   -2.9540735   -2.9540735    -1.414689  0.078476559   -2.9540735    1.5393846   396900 
  199000    1.0246828   -2.9533991   -2.9533991   -1.4163788  0.084626595   -2.9533991    1.5370203   396900 
  200000    1.0230779   -2.9509009   -2.9509009   -1.4162879  0.089310335   -2.9509009     1.534613   396900 
  201000    1.0238767   -2.9523205   -2.9523205   -1.4165093  0.077271986   -2.9523205    1.5358112   396900 
  202000    1.0257323   -2.9528453   -2.9528453   -1.4142506  0.085873978   -2.9528453    1.5385946   396900 
  203000    1.0254594   -2.9505823   -2.9505823   -1.4123972  0.087140414   -2.9505823    1.5381852   396900 
  204000     1.026322   -2.9514272   -2.9514272   -1.4119481  0.083779861   -2.9514272    1.5394791   396900 
  205000    1.0246406    -2.950241    -2.950241    -1.413284  0.080079352    -2.950241     1.536957   396900 
  206000    1.0242873   -2.9484444   -2.9484444   -1.4120172  0.080195983   -2.9484444    1.5364271   396900 
  207000    1.0235553   -2.9467448   -2.9467448   -1.4114158  0.083590018   -2.9467448     1.535329   396900 
  208000    1.0234728   -2.9464953   -2.9464953   -1.4112899  0.073852635   -2.9464953    1.5352054   396900 
  209000    1.0230573   -2.9471439   -2.9471439   -1.4125619  0.075377278   -2.9471439     1.534582   396900 
  210000    1.0233891   -2.9464915   -2.9464915   -1.4114116  0.079634786   -2.9464915    1.5350799   396900 
  211000    1.0231174   -2.9465182   -2.9465182    -1.411846  0.081844306   -2.9465182    1.5346723   396900 
  212000    1.0229766   -2.9437525   -2.9437525   -1.4092915  0.078888933   -2.9437525     1.534461   396900 
  213000    1.0243545   -2.9432091   -2.9432091   -1.4066812  0.082971279   -2.9432091    1.5365279   396900 
  214000    1.0263066   -2.9458338   -2.9458338   -1.4063778  0.081745529   -2.9458338     1.539456   396900 
  215000    1.0255416   -2.9473324   -2.9473324   -1.4090239  0.082568088   -2.9473324    1.5383085   396900 
  216000    1.0245815   -2.9460012   -2.9460012   -1.4091329  0.082606916   -2.9460012    1.5368683   396900 
  217000    1.0267379   -2.9475967   -2.9475967   -1.4074938  0.082116036   -2.9475967    1.5401029   396900 
  218000    1.0261763   -2.9489478   -2.9489478   -1.4096872  0.082213428   -2.9489478    1.5392606   396900 
  219000    1.0257103   -2.9467538   -2.9467538   -1.4081922  0.083588058   -2.9467538    1.5385615   396900 
  220000    1.0243871   -2.9428811   -2.9428811   -1.4063043  0.081913483   -2.9428811    1.5365767   396900 
  221000    1.0246116   -2.9462477   -2.9462477   -1.4093341  0.086368216   -2.9462477    1.5369136   396900 
  222000    1.0233477   -2.9439661   -2.9439661   -1.4089485  0.083993253   -2.9439661    1.5350176   396900 
  223000    1.0258011   -2.9474389   -2.9474389   -1.4087411  0.081425645   -2.9474389    1.5386978   396900 
  224000    1.0250354   -2.9447627   -2.9447627   -1.4072135  0.084455032   -2.9447627    1.5375492   396900 
  225000    1.0260656   -2.9460099   -2.9460099   -1.4069154  0.086712393   -2.9460099    1.5390945   396900 
  226000    1.0273325   -2.9446234   -2.9446234   -1.4036286  0.079271557   -2.9446234    1.5409948   396900 
  227000     1.024373   -2.9446299   -2.9446299   -1.4080742  0.082459965   -2.9446299    1.5365557   396900 
  228000    1.0250172   -2.9454268   -2.9454268   -1.4079048  0.080385105   -2.9454268    1.5375219   396900 
  229000    1.0253405   -2.9462606   -2.9462606   -1.4082537  0.083476076   -2.9462606    1.5380069   396900 
  230000    1.0262409   -2.9464444   -2.9464444   -1.4070869  0.079511158   -2.9464444    1.5393575   396900 
  231000    1.0248553   -2.9448618   -2.9448618   -1.4075828  0.080500585   -2.9448618     1.537279   396900 
  232000    1.0242042   -2.9441209   -2.9441209   -1.4078185  0.080461827   -2.9441209    1.5363025   396900 
  233000     1.025724   -2.9437078   -2.9437078   -1.4051256  0.082262357   -2.9437078    1.5385822   396900 
  234000    1.0272489   -2.9454871   -2.9454871   -1.4046176  0.076825121   -2.9454871    1.5408695   396900 
  235000    1.0272867   -2.9444856   -2.9444856   -1.4035594  0.083936734   -2.9444856    1.5409262   396900 
  236000    1.0256927   -2.9433803   -2.9433803   -1.4048451  0.087473677   -2.9433803    1.5385352   396900 
  237000    1.0242394   -2.9419972   -2.9419972    -1.405642  0.080552044   -2.9419972    1.5363552   396900 
  238000    1.0270196   -2.9424919   -2.9424919   -1.4019663   0.08121111   -2.9424919    1.5405256   396900 
  239000    1.0250167    -2.942481    -2.942481   -1.4049599  0.087678175    -2.942481    1.5375211   396900 
  240000    1.0241464    -2.943365    -2.943365   -1.4071493  0.074575079    -2.943365    1.5362157   396900 
  241000    1.0252349   -2.9425803   -2.9425803   -1.4047318  0.085837198   -2.9425803    1.5378484   396900 
  242000    1.0244232   -2.9421252   -2.9421252   -1.4054942  0.077785269   -2.9421252     1.536631   396900 
  243000    1.0248432   -2.9442644   -2.9442644   -1.4070035  0.084942986   -2.9442644    1.5372609   396900 
  244000    1.0249004   -2.9464661   -2.9464661   -1.4091193  0.084830139   -2.9464661    1.5373467   396900 
  245000    1.0245368   -2.9452914   -2.9452914   -1.4084901  0.077001322   -2.9452914    1.5368013   396900 
  246000    1.0253514   -2.9449722   -2.9449722   -1.4069491  0.078575606   -2.9449722    1.5380232   396900 
  247000    1.0232592   -2.9427442   -2.9427442   -1.4078593  0.084518182   -2.9427442    1.5348849   396900 
  248000    1.0249734   -2.9452142   -2.9452142    -1.407758  0.075849936   -2.9452142    1.5374562   396900 
  249000    1.0247291   -2.9443695   -2.9443695   -1.4072797  0.081542804   -2.9443695    1.5370898   396900 
  250000    1.0254936   -2.9453761   -2.9453761   -1.4071396  0.084590393   -2.9453761    1.5382365   396900 
  251000    1.0247913   -2.9480633   -2.9480633   -1.4108803   0.07778654   -2.9480633     1.537183   396900 
  252000    1.0234205   -2.9473892   -2.9473892   -1.4122624  0.079413255   -2.9473892    1.5351268   396900 
  253000    1.0227846   -2.9453431   -2.9453431     -1.41117  0.082594434   -2.9453431    1.5341731   396900 
  254000    1.0239773   -2.9484144   -2.9484144   -1.4124524  0.082081966   -2.9484144     1.535962   396900 
  255000    1.0241669   -2.9486648   -2.9486648   -1.4124183  0.079346459   -2.9486648    1.5362465   396900 
  256000    1.0255551   -2.9521386   -2.9521386   -1.4138098  0.081329807   -2.9521386    1.5383288   396900 
  257000    1.0247743   -2.9514628   -2.9514628   -1.4143052  0.080394776   -2.9514628    1.5371577   396900 
  258000    1.0247565   -2.9516915   -2.9516915   -1.4145606  0.079770088   -2.9516915    1.5371309   396900 
  259000    1.0228815   -2.9504895   -2.9504895   -1.4161711  0.079670734   -2.9504895    1.5343184   396900 
  260000     1.023769   -2.9518137   -2.9518137   -1.4161641  0.084182992   -2.9518137    1.5356496   396900 
  261000    1.0231984   -2.9520275   -2.9520275   -1.4172338  0.081340032   -2.9520275    1.5347937   396900 
  262000    1.0264981   -2.9516527   -2.9516527   -1.4119093  0.078815621   -2.9516527    1.5397433   396900 
  263000    1.0264511   -2.9523211   -2.9523211   -1.4126483  0.084620904   -2.9523211    1.5396728   396900 
  264000    1.0253022   -2.9507346   -2.9507346   -1.4127851   0.08050864   -2.9507346    1.5379495   396900 
  265000    1.0267128   -2.9526956   -2.9526956   -1.4126303  0.084003913   -2.9526956    1.5400653   396900 
  266000    1.0255106    -2.948682    -2.948682     -1.41042  0.086129677    -2.948682     1.538262   396900 
  267000    1.0252582   -2.9479451   -2.9479451   -1.4100616  0.080819933   -2.9479451    1.5378835   396900 
  268000    1.0256799   -2.9497353   -2.9497353   -1.4112193  0.082197412   -2.9497353     1.538516   396900 
  269000    1.0234484    -2.945859    -2.945859   -1.4106903  0.082754544    -2.945859    1.5351688   396900 
  270000    1.0248918   -2.9458442   -2.9458442   -1.4085103  0.082458291   -2.9458442    1.5373339   396900 
  271000    1.0250548   -2.9469164   -2.9469164   -1.4093381  0.079352332   -2.9469164    1.5375783   396900 
  272000    1.0233529   -2.9451517   -2.9451517   -1.4101261  0.079641866   -2.9451517    1.5350256   396900 
  273000    1.0232008   -2.9450137   -2.9450137   -1.4102165  0.084119502   -2.9450137    1.5347973   396900 
  274000    1.0270151   -2.9479604   -2.9479604   -1.4074417   0.07937562   -2.9479604    1.5405187   396900 
  275000    1.0262927    -2.945001    -2.945001   -1.4055658  0.081126978    -2.945001    1.5394352   396900 
  276000    1.0241918   -2.9424024   -2.9424024   -1.4061186  0.081264745   -2.9424024    1.5362838   396900 
  277000    1.0254517   -2.9431328   -2.9431328   -1.4049592  0.085774515   -2.9431328    1.5381736   396900 
  278000    1.0273841   -2.9444083   -2.9444083   -1.4033361  0.078705618   -2.9444083    1.5410722   396900 
  279000    1.0239615   -2.9393973   -2.9393973   -1.4034589  0.086233815   -2.9393973    1.5359384   396900 
  280000    1.0253875   -2.9425425   -2.9425425   -1.4044652  0.080489262   -2.9425425    1.5380773   396900 
  281000    1.0265968   -2.9422779   -2.9422779   -1.4023866  0.080979353   -2.9422779    1.5398913   396900 
  282000    1.0256882   -2.9410213   -2.9410213   -1.4024929  0.081361138   -2.9410213    1.5385284   396900 
  283000    1.0266841   -2.9416486   -2.9416486   -1.4016264  0.079816945   -2.9416486    1.5400223   396900 
  284000    1.0255878   -2.9390443   -2.9390443   -1.4006664  0.081244317   -2.9390443    1.5383778   396900 
  285000     1.025998   -2.9395704   -2.9395704   -1.4005772  0.083593307   -2.9395704    1.5389931   396900 
  286000    1.0245234   -2.9380784   -2.9380784   -1.4012971  0.082029124   -2.9380784    1.5367813   396900 
  287000    1.0262202   -2.9376109   -2.9376109   -1.3982846  0.084897754   -2.9376109    1.5393263   396900 
  288000    1.0268996   -2.9387494   -2.9387494   -1.3984039  0.079954887   -2.9387494    1.5403455   396900 
  289000    1.0247548   -2.9393547   -2.9393547   -1.4022264  0.077023239   -2.9393547    1.5371283   396900 
  290000    1.0275389   -2.9394234   -2.9394234    -1.398119  0.080731011   -2.9394234    1.5413044   396900 
  291000    1.0292745   -2.9380364   -2.9380364   -1.3941285  0.082266159   -2.9380364    1.5439079   396900 
  292000    1.0262499   -2.9367873   -2.9367873   -1.3974163   0.07774658   -2.9367873     1.539371   396900 
  293000    1.0267624   -2.9359506   -2.9359506    -1.395811  0.085100655   -2.9359506    1.5401396   396900 
  294000    1.0286436   -2.9346656   -2.9346656   -1.3917041  0.078637316   -2.9346656    1.5429615   396900 
  295000     1.027763   -2.9344427   -2.9344427   -1.3928021  0.078937703   -2.9344427    1.5416406   396900 
  296000    1.0249968   -2.9336181   -2.9336181   -1.3961267     0.075706   -2.9336181    1.5374914   396900 
  297000    1.0260324   -2.9320825   -2.9320825   -1.3930378  0.083525806   -2.9320825    1.5390448   396900 
  298000    1.0270659   -2.9344852   -2.9344852   -1.3938903  0.082788859   -2.9344852    1.5405949   396900 
  299000    1.0278551   -2.9336947   -2.9336947   -1.3919159  0.082704546   -2.9336947    1.5417788   396900 
  300000    1.0253209   -2.9320408   -2.9320408   -1.3940634  0.082781356   -2.9320408    1.5379775   396900 
  301000    1.0270921   -2.9337842   -2.9337842     -1.39315  0.080059096   -2.9337842    1.5406342   396900 
  302000    1.0272669     -2.93336     -2.93336   -1.3924636  0.081250195     -2.93336    1.5408964   396900 
  303000    1.0278865   -2.9329641   -2.9329641   -1.3911382  0.081447037   -2.9329641    1.5418259   396900 
  304000    1.0259195   -2.9302695   -2.9302695   -1.3913941  0.084573669   -2.9302695    1.5388754   396900 
  305000    1.0275824   -2.9317946   -2.9317946   -1.3904249  0.079395459   -2.9317946    1.5413697   396900 
  306000    1.0257297   -2.9298313   -2.9298313   -1.3912406  0.079592647   -2.9298313    1.5385906   396900 
  307000    1.0278802   -2.9298921   -2.9298921   -1.3880757  0.083380093   -2.9298921    1.5418164   396900 
  308000    1.0251549   -2.9257857   -2.9257857   -1.3880572  0.079285082   -2.9257857    1.5377285   396900 
  309000    1.0266286   -2.9289496   -2.9289496   -1.3890106  0.081413835   -2.9289496     1.539939   396900 
  310000    1.0264365   -2.9284063   -2.9284063   -1.3887553  0.078022338   -2.9284063    1.5396509   396900 
  311000    1.0274726   -2.9293451   -2.9293451   -1.3881401  0.082229974   -2.9293451     1.541205   396900 
  312000    1.0261394   -2.9260207   -2.9260207   -1.3868154  0.078876609   -2.9260207    1.5392053   396900 
  313000      1.02833   -2.9281252   -2.9281252   -1.3856341  0.078769512   -2.9281252    1.5424911   396900 
  314000    1.0280208   -2.9292984   -2.9292984   -1.3872711  0.078676829   -2.9292984    1.5420274   396900 
  315000    1.0263943   -2.9298497   -2.9298497   -1.3902621  0.078005017   -2.9298497    1.5395876   396900 
  316000    1.0265845    -2.928664    -2.928664   -1.3887911  0.079689803    -2.928664    1.5398729   396900 
  317000    1.0276786   -2.9261276   -2.9261276   -1.3846136  0.082879366   -2.9261276     1.541514   396900 
  318000    1.0262137   -2.9292476   -2.9292476   -1.3899309  0.082744617   -2.9292476    1.5393166   396900 
  319000    1.0266257   -2.9312014   -2.9312014   -1.3912668  0.081444427   -2.9312014    1.5399346   396900 
  320000    1.0255285   -2.9320366   -2.9320366   -1.3937477   0.07535683   -2.9320366    1.5382889   396900 
  321000    1.0258278   -2.9320219   -2.9320219   -1.3932841  0.079882254   -2.9320219    1.5387378   396900 
  322000    1.0263651   -2.9333977   -2.9333977    -1.393854  0.075599442   -2.9333977    1.5395438   396900 
  323000    1.0264699   -2.9327822   -2.9327822   -1.3930812  0.080218606   -2.9327822     1.539701   396900 
  324000    1.0272574   -2.9343452   -2.9343452    -1.393463  0.087761582   -2.9343452    1.5408822   396900 
  325000     1.027938   -2.9347809   -2.9347809   -1.3928777  0.084504881   -2.9347809    1.5419031   396900 
  326000    1.0261357    -2.933834    -2.933834   -1.3946344  0.077518264    -2.933834    1.5391996   396900 
  327000     1.028101   -2.9345332   -2.9345332   -1.3923856  0.082874978   -2.9345332    1.5421476   396900 
  328000    1.0280636   -2.9333875   -2.9333875    -1.391296  0.080485008   -2.9333875    1.5420915   396900 
  329000    1.0281432   -2.9342989   -2.9342989   -1.3920879  0.080276941   -2.9342989     1.542211   396900 
  330000    1.0259921   -2.9313726   -2.9313726   -1.3923883  0.076324324   -2.9313726    1.5389843   396900 
  331000    1.0261466   -2.9330573   -2.9330573   -1.3938414  0.080668746   -2.9330573     1.539216   396900 
  332000    1.0245782   -2.9304516   -2.9304516   -1.3935881  0.079850827   -2.9304516    1.5368634   396900 
  333000    1.0259776   -2.9357452   -2.9357452   -1.3967826  0.081095998   -2.9357452    1.5389625   396900 
  334000    1.0284275   -2.9372573   -2.9372573   -1.3946198  0.080240305   -2.9372573    1.5426374   396900 
  335000    1.0290107   -2.9373602   -2.9373602   -1.3938482  0.084808545   -2.9373602    1.5435121   396900 
  336000     1.029125   -2.9385454   -2.9385454   -1.3948618  0.082386511   -2.9385454    1.5436836   396900 
  337000    1.0274467   -2.9360898   -2.9360898   -1.3949236  0.084954914   -2.9360898    1.5411662   396900 
  338000    1.0264893   -2.9360991   -2.9360991    -1.396369  0.079121156   -2.9360991    1.5397301   396900 
  339000    1.0281257   -2.9354922   -2.9354922   -1.3933076  0.080950072   -2.9354922    1.5421846   396900 
  340000    1.0283277   -2.9373872   -2.9373872   -1.3948995   0.07761503   -2.9373872    1.5424877   396900 
  341000    1.0263747   -2.9350179   -2.9350179   -1.3954598  0.078628557   -2.9350179    1.5395581   396900 
  342000    1.0268765   -2.9346775   -2.9346775   -1.3943667  0.082599809   -2.9346775    1.5403108   396900 
  343000    1.0269249   -2.9366454   -2.9366454    -1.396262  0.080728392   -2.9366454    1.5403834   396900 
  344000    1.0277679   -2.9334116   -2.9334116   -1.3917637  0.079175189   -2.9334116    1.5416479   396900 
  345000    1.0317002   -2.9373919   -2.9373919   -1.3898454  0.079369195   -2.9373919    1.5475465   396900 
  346000    1.0305297    -2.935519    -2.935519   -1.3897283   0.08784963    -2.935519    1.5457907   396900 
  347000    1.0289947   -2.9335976   -2.9335976   -1.3901094   0.08806407   -2.9335976    1.5434882   396900 
  348000    1.0298971   -2.9343926   -2.9343926   -1.3895508  0.082483515   -2.9343926    1.5448418   396900 
  349000    1.0290517     -2.93275     -2.93275   -1.3891763  0.085819605     -2.93275    1.5435737   396900 
  350000    1.0288551   -2.9324284   -2.9324284   -1.3891497  0.082626534   -2.9324284    1.5432787   396900 
  351000    1.0301762   -2.9310508   -2.9310508   -1.3857903  0.081033166   -2.9310508    1.5452605   396900 
  352000    1.0302952    -2.933354    -2.933354   -1.3879152  0.082049116    -2.933354    1.5454388   396900 
  353000    1.0301755    -2.934399    -2.934399   -1.3891397  0.085161241    -2.934399    1.5452593   396900 
  354000     1.031034   -2.9329171   -2.9329171   -1.3863699  0.079453521   -2.9329171    1.5465472   396900 
  355000    1.0289428   -2.9306735   -2.9306735   -1.3872633  0.081098649   -2.9306735    1.5434103   396900 
  356000    1.0277244   -2.9308359   -2.9308359   -1.3892532  0.080900572   -2.9308359    1.5415827   396900 
  357000    1.0283886   -2.9328732   -2.9328732   -1.3902942  0.082856842   -2.9328732     1.542579   396900 
  358000    1.0262056   -2.9324609   -2.9324609   -1.3931564  0.080293584   -2.9324609    1.5393046   396900 
  359000    1.0278283   -2.9319339   -2.9319339   -1.3901954  0.078025466   -2.9319339    1.5417386   396900 
  360000    1.0276829    -2.932696    -2.932696   -1.3911755  0.083411265    -2.932696    1.5415205   396900 
  361000    1.0287263   -2.9321016   -2.9321016    -1.389016  0.083127403   -2.9321016    1.5430856   396900 
  362000    1.0286238   -2.9298815   -2.9298815   -1.3869497   0.08675731   -2.9298815    1.5429318   396900 
  363000    1.0268387   -2.9293983   -2.9293983   -1.3891441  0.079421246   -2.9293983    1.5402542   396900 
  364000    1.0286413   -2.9322636   -2.9322636   -1.3893055  0.080616787   -2.9322636    1.5429581   396900 
  365000    1.0283461   -2.9328792   -2.9328792    -1.390364  0.078613134   -2.9328792    1.5425152   396900 
  366000    1.0286885   -2.9307668   -2.9307668   -1.3877379  0.086084812   -2.9307668    1.5430289   396900 
  367000    1.0287301   -2.9310312   -2.9310312   -1.3879399  0.083405583   -2.9310312    1.5430913   396900 
  368000    1.0271658   -2.9257036   -2.9257036   -1.3849588  0.084932197   -2.9257036    1.5407447   396900 
  369000    1.0291524   -2.9300978   -2.9300978   -1.3863731  0.082655194   -2.9300978    1.5437247   396900 
  370000     1.030172   -2.9305605   -2.9305605   -1.3853063  0.080165588   -2.9305605    1.5452541   396900 
  371000    1.0290031   -2.9281433   -2.9281433   -1.3846426   0.07967437   -2.9281433    1.5435008   396900 
  372000    1.0294617   -2.9291494   -2.9291494   -1.3849607  0.084216418   -2.9291494    1.5441887   396900 
  373000    1.0304614   -2.9320057   -2.9320057   -1.3863175  0.080815169   -2.9320057    1.5456882   396900 
  374000    1.0308567   -2.9303423   -2.9303423   -1.3840611  0.087533747   -2.9303423    1.5462812   396900 
  375000    1.0299939   -2.9321675   -2.9321675   -1.3871805  0.080058024   -2.9321675     1.544987   396900 
  376000    1.0293954   -2.9290757   -2.9290757   -1.3849865    0.0826314   -2.9290757    1.5440892   396900 
  377000    1.0287936   -2.9301691   -2.9301691   -1.3869826  0.081748445   -2.9301691    1.5431865   396900 
  378000    1.0291883   -2.9256756   -2.9256756   -1.3818971  0.080089748   -2.9256756    1.5437785   396900 
  379000    1.0285774   -2.9252449   -2.9252449   -1.3823826  0.083286978   -2.9252449    1.5428623   396900 
  380000    1.0283674   -2.9254099   -2.9254099   -1.3828627   0.08155851   -2.9254099    1.5425473   396900 
  381000    1.0285722   -2.9245757   -2.9245757   -1.3817214  0.079375789   -2.9245757    1.5428544   396900 
  382000    1.0313572   -2.9262506   -2.9262506   -1.3792187  0.083476647   -2.9262506    1.5470319   396900 
  383000    1.0317154   -2.9262082   -2.9262082    -1.378639  0.081741006   -2.9262082    1.5475692   396900 
  384000    1.0308989   -2.9248571   -2.9248571   -1.3785127  0.083341675   -2.9248571    1.5463444   396900 
  385000    1.0310411   -2.9256789   -2.9256789   -1.3791212  0.081854724   -2.9256789    1.5465577   396900 
  386000    1.0307022   -2.9258949   -2.9258949   -1.3798455  0.085166745   -2.9258949    1.5460494   396900 
  387000    1.0310574    -2.927026    -2.927026   -1.3804438  0.081467854    -2.927026    1.5465822   396900 
  388000     1.031015   -2.9259678   -2.9259678   -1.3794492  0.081209588   -2.9259678    1.5465185   396900 
  389000    1.0312273   -2.9268535   -2.9268535   -1.3800165  0.075484831   -2.9268535     1.546837   396900 
  390000    1.0299985   -2.9232889   -2.9232889   -1.3782951  0.081144692   -2.9232889    1.5449938   396900 
  391000    1.0303549    -2.922331    -2.922331   -1.3768026  0.084601349    -2.922331    1.5455284   396900 
  392000    1.0301821   -2.9225829   -2.9225829   -1.3773136  0.082007739   -2.9225829    1.5452693   396900 
  393000    1.0322259   -2.9238044   -2.9238044   -1.3754694  0.084007606   -2.9238044     1.548335   396900 
  394000    1.0304636   -2.9224739   -2.9224739   -1.3767824  0.080750574   -2.9224739    1.5456915   396900 
  395000    1.0294167   -2.9223232   -2.9223232    -1.378202  0.082570868   -2.9223232    1.5441212   396900 
  396000    1.0313077   -2.9210846   -2.9210846    -1.374127  0.083377859   -2.9210846    1.5469576   396900 
  397000    1.0310571   -2.9236864   -2.9236864   -1.3771047  0.079093419   -2.9236864    1.5465817   396900 
  398000    1.0316014   -2.9212515   -2.9212515   -1.3738533  0.083763152   -2.9212515    1.5473982   396900 
  399000    1.0311357   -2.9173483   -2.9173483   -1.3706486  0.081919384   -2.9173483    1.5466997   396900 
  400000    1.0312495   -2.9192857   -2.9192857   -1.3724153  0.079937424   -2.9192857    1.5468704   396900 
  401000    1.0303091   -2.9151431   -2.9151431   -1.3696833  0.081842352   -2.9151431    1.5454598   396900 
  402000    1.0291581   -2.9151158   -2.9151158   -1.3713825  0.091040463   -2.9151158    1.5437333   396900 
  403000    1.0303829   -2.9157013   -2.9157013   -1.3701309  0.085776212   -2.9157013    1.5455704   396900 
  404000    1.0312497   -2.9177927   -2.9177927    -1.370922  0.087031972   -2.9177927    1.5468707   396900 
  405000    1.0317291   -2.9194165   -2.9194165   -1.3718267  0.079798681   -2.9194165    1.5475898   396900 
  406000    1.0285599    -2.916026    -2.916026     -1.37319  0.081255548    -2.916026     1.542836   396900 
  407000    1.0318786   -2.9175861   -2.9175861   -1.3697721  0.085595469   -2.9175861     1.547814   396900 
  408000    1.0293901   -2.9134212   -2.9134212   -1.3693399  0.079572376   -2.9134212    1.5440813   396900 
  409000    1.0313475   -2.9171919   -2.9171919   -1.3701746  0.085642873   -2.9171919    1.5470173   396900 
  410000    1.0331123   -2.9177877   -2.9177877   -1.3681232   0.07983785   -2.9177877    1.5496645   396900 
  411000    1.0321399   -2.9142015   -2.9142015   -1.3659955  0.079418663   -2.9142015     1.548206   396900 
  412000    1.0331369   -2.9167257   -2.9167257   -1.3670243  0.083261051   -2.9167257    1.5497014   396900 
  413000    1.0334479   -2.9169108   -2.9169108   -1.3667429  0.082938662   -2.9169108    1.5501679   396900 
  414000    1.0317415   -2.9158244   -2.9158244    -1.368216  0.082576952   -2.9158244    1.5476083   396900 
  415000    1.0322136   -2.9174665   -2.9174665     -1.36915  0.082990422   -2.9174665    1.5483165   396900 
  416000    1.0314282   -2.9162147   -2.9162147   -1.3690764  0.084145841   -2.9162147    1.5471384   396900 
  417000     1.030886   -2.9160495   -2.9160495   -1.3697243  0.081063853   -2.9160495    1.5463251   396900 
  418000    1.0319098   -2.9153458   -2.9153458    -1.367485  0.082046884   -2.9153458    1.5478608   396900 
  419000    1.0342789   -2.9193548   -2.9193548   -1.3679403  0.084226862   -2.9193548    1.5514145   396900 
  420000    1.0327731   -2.9167371   -2.9167371   -1.3675814  0.081694252   -2.9167371    1.5491557   396900 
  421000    1.0321454   -2.9147581   -2.9147581    -1.366544  0.089373746   -2.9147581    1.5482142   396900 
  422000    1.0324624   -2.9140486   -2.9140486   -1.3653589  0.079656484   -2.9140486    1.5486898   396900 
  423000    1.0320497    -2.913302    -2.913302   -1.3652314  0.081875313    -2.913302    1.5480706   396900 
  424000    1.0334597   -2.9164569   -2.9164569   -1.3662712  0.081218025   -2.9164569    1.5501856   396900 
  425000    1.0329099   -2.9170491   -2.9170491   -1.3676881  0.078241664   -2.9170491    1.5493609   396900 
  426000    1.0316522    -2.915037    -2.915037   -1.3675625  0.079541594    -2.915037    1.5474745   396900 
  427000    1.0312654    -2.913964    -2.913964   -1.3670697  0.084013623    -2.913964    1.5468943   396900 
  428000    1.0310919   -2.9142918   -2.9142918   -1.3676578    0.0869564   -2.9142918    1.5466339   396900 
  429000    1.0313348   -2.9149171   -2.9149171   -1.3679187  0.084318782   -2.9149171    1.5469983   396900 
  430000    1.0326523   -2.9151273   -2.9151273   -1.3661528  0.076361485   -2.9151273    1.5489745   396900 
  431000    1.0322158   -2.9137264   -2.9137264   -1.3654065  0.081269743   -2.9137264    1.5483199   396900 
  432000    1.0323453   -2.9156804   -2.9156804   -1.3671664  0.077058182   -2.9156804     1.548514   396900 
  433000    1.0321054   -2.9131285   -2.9131285   -1.3649743  0.082410524   -2.9131285    1.5481542   396900 
  434000     1.032418   -2.9136705   -2.9136705   -1.3650473  0.081739432   -2.9136705    1.5486232   396900 
  435000    1.0312648   -2.9126188   -2.9126188   -1.3657256  0.078814999   -2.9126188    1.5468933   396900 
  436000    1.0313473   -2.9115707   -2.9115707   -1.3645536  0.083068225   -2.9115707    1.5470171   396900 
  437000    1.0319109   -2.9132814   -2.9132814    -1.365419  0.080685165   -2.9132814    1.5478624   396900 
  438000    1.0311857   -2.9162102   -2.9162102   -1.3694356  0.079214346   -2.9162102    1.5467747   396900 
  439000    1.0322136   -2.9170052   -2.9170052   -1.3686887  0.081671491   -2.9170052    1.5483165   396900 
  440000    1.0311882   -2.9136378   -2.9136378   -1.3668595  0.083833152   -2.9136378    1.5467783   396900 
  441000     1.030698   -2.9132273   -2.9132273   -1.3671843  0.083544207   -2.9132273    1.5460431   396900 
  442000    1.0326776   -2.9178412   -2.9178412   -1.3688288  0.080818845   -2.9178412    1.5490124   396900 
  443000    1.0330817   -2.9141254   -2.9141254   -1.3645068  0.079266645   -2.9141254    1.5496187   396900 
  444000    1.0332917   -2.9150413   -2.9150413   -1.3651077  0.083749587   -2.9150413    1.5499336   396900 
  445000    1.0319003   -2.9132276   -2.9132276   -1.3653812  0.080776689   -2.9132276    1.5478465   396900 
  446000    1.0321563   -2.9131289   -2.9131289   -1.3648984  0.085172693   -2.9131289    1.5482305   396900 
  447000    1.0318845   -2.9126341   -2.9126341   -1.3648112  0.082390965   -2.9126341    1.5478229   396900 
  448000    1.0328353   -2.9166891   -2.9166891     -1.36744  0.080838985   -2.9166891    1.5492491   396900 
  449000    1.0311862   -2.9146043   -2.9146043    -1.367829  0.079556866   -2.9146043    1.5467754   396900 
  450000    1.0308823    -2.913653    -2.913653   -1.3673335  0.083345049    -2.913653    1.5463196   396900 
  451000    1.0342612   -2.9138881   -2.9138881   -1.3625002  0.083288131   -2.9138881    1.5513879   396900 
  452000    1.0342649   -2.9146298   -2.9146298   -1.3632363  0.085866918   -2.9146298    1.5513935   396900 
  453000    1.0344342    -2.914679    -2.914679   -1.3630315  0.081829898    -2.914679    1.5516474   396900 
  454000     1.032835   -2.9130049   -2.9130049   -1.3637564  0.082199089   -2.9130049    1.5492486   396900 
  455000    1.0328389   -2.9119023   -2.9119023   -1.3626479  0.088090739   -2.9119023    1.5492544   396900 
  456000    1.0337248   -2.9148311   -2.9148311   -1.3642477  0.079708896   -2.9148311    1.5505833   396900 
  457000    1.0315469   -2.9108072   -2.9108072   -1.3634907  0.082290061   -2.9108072    1.5473165   396900 
  458000    1.0328096   -2.9096373   -2.9096373   -1.3604268  0.083894177   -2.9096373    1.5492106   396900 
  459000    1.0343278   -2.9109639   -2.9109639   -1.3594762   0.08203997   -2.9109639    1.5514878   396900 
  460000    1.0320801    -2.909203    -2.909203   -1.3610868  0.083284736    -2.909203    1.5481162   396900 
  461000    1.0335175   -2.9105688   -2.9105688   -1.3602964   0.08630199   -2.9105688    1.5502724   396900 
  462000    1.0350646   -2.9121828   -2.9121828   -1.3595898  0.077969286   -2.9121828     1.552593   396900 
  463000        1.036   -2.9117244   -2.9117244   -1.3577284  0.084932384   -2.9117244     1.553996   396900 
  464000    1.0339343   -2.9075362   -2.9075362   -1.3566387  0.084388618   -2.9075362    1.5508975   396900 
  465000    1.0322841   -2.9039737   -2.9039737   -1.3555515  0.085583446   -2.9039737    1.5484222   396900 
  466000    1.0326213   -2.9066496   -2.9066496   -1.3577216  0.079996615   -2.9066496     1.548928   396900 
  467000    1.0325352   -2.9067725   -2.9067725   -1.3579736  0.082749379   -2.9067725     1.548799   396900 
  468000    1.0348052   -2.9085635   -2.9085635   -1.3563596  0.082225427   -2.9085635    1.5522039   396900 
  469000    1.0323391   -2.9060147   -2.9060147     -1.35751  0.082989685   -2.9060147    1.5485047   396900 
  470000    1.0321194   -2.9041794   -2.9041794   -1.3560042  0.081929611   -2.9041794    1.5481752   396900 
  471000    1.0335254   -2.9070185   -2.9070185   -1.3567344  0.078579401   -2.9070185    1.5502841   396900 
  472000    1.0320891   -2.9056046   -2.9056046   -1.3574748  0.078405242   -2.9056046    1.5481298   396900 
  473000    1.0335688   -2.9056146   -2.9056146   -1.3552653  0.075555558   -2.9056146    1.5503493   396900 
  474000    1.0304557   -2.9027289   -2.9027289   -1.3570492  0.078095105   -2.9027289    1.5456797   396900 
  475000    1.0321816   -2.9028638   -2.9028638   -1.3545953  0.082984238   -2.9028638    1.5482685   396900 
  476000    1.0328464   -2.9022662   -2.9022662   -1.3530005    0.0825413   -2.9022662    1.5492656   396900 
  477000    1.0350189   -2.9025047   -2.9025047   -1.3499803  0.085509969   -2.9025047    1.5525244   396900 
  478000    1.0358937   -2.9001464   -2.9001464   -1.3463097  0.083137314   -2.9001464    1.5538367   396900 
  479000    1.0334863   -2.8969837   -2.8969837   -1.3467581  0.086100525   -2.8969837    1.5502256   396900 
  480000    1.0338637    -2.899935    -2.899935   -1.3491433  0.078819995    -2.899935    1.5507917   396900 
  481000     1.032302   -2.8995681   -2.8995681   -1.3511189  0.076510718   -2.8995681    1.5484491   396900 
  482000    1.0318339   -2.8986912   -2.8986912   -1.3509443  0.076813838   -2.8986912    1.5477469   396900 
  483000    1.0326098   -2.8954309   -2.8954309   -1.3465201  0.080079975   -2.8954309    1.5489108   396900 
  484000     1.033251   -2.8944259   -2.8944259   -1.3445533  0.080283432   -2.8944259    1.5498727   396900 
  485000    1.0350757   -2.8962108   -2.8962108   -1.3436011  0.082048874   -2.8962108    1.5526096   396900 
  486000    1.0339987   -2.8956112   -2.8956112   -1.3446171  0.081234756   -2.8956112    1.5509941   396900 
  487000    1.0334761   -2.8945152   -2.8945152   -1.3443049  0.077959055   -2.8945152    1.5502103   396900 
  488000    1.0338967    -2.892549    -2.892549   -1.3417078  0.081773394    -2.892549    1.5508412   396900 
  489000    1.0337671   -2.8900292   -2.8900292   -1.3393825  0.078708549   -2.8900292    1.5506467   396900 
  490000    1.0343208   -2.8911986   -2.8911986   -1.3397214  0.076245721   -2.8911986    1.5514772   396900 
  491000    1.0336923   -2.8906255   -2.8906255   -1.3400909  0.084037411   -2.8906255    1.5505346   396900 
  492000    1.0346598   -2.8880814   -2.8880814   -1.3360956  0.082078456   -2.8880814    1.5519858   396900 
  493000    1.0329811   -2.8878599   -2.8878599   -1.3383921  0.083397316   -2.8878599    1.5494678   396900 
  494000    1.0360586   -2.8916243   -2.8916243   -1.3375403  0.079522171   -2.8916243    1.5540839   396900 
  495000    1.0347328   -2.8901455   -2.8901455   -1.3380501  0.082159071   -2.8901455    1.5520954   396900 
  496000    1.0341857   -2.8892677   -2.8892677   -1.3379931  0.081457694   -2.8892677    1.5512747   396900 
  497000     1.035199   -2.8916608   -2.8916608   -1.3388662  0.080749712   -2.8916608    1.5527946   396900 
  498000    1.0347515   -2.8893615   -2.8893615   -1.3372381  0.078948943   -2.8893615    1.5521234   396900 
  499000    1.0350295   -2.8910857   -2.8910857   -1.3385453  0.078180944   -2.8910857    1.5525404   396900 
  500000    1.0359498   -2.8922697   -2.8922697   -1.3383489  0.086239183   -2.8922697    1.5539208   396900 
  501000    1.0371679   -2.8902227   -2.8902227   -1.3344747  0.087127688   -2.8902227     1.555748   396900 
  502000    1.0361788   -2.8902057   -2.8902057   -1.3359414  0.084617803   -2.8902057    1.5542643   396900 
  503000    1.0351387   -2.8905837   -2.8905837   -1.3378796  0.084582225   -2.8905837    1.5527042   396900 
  504000    1.0357442   -2.8913403   -2.8913403   -1.3377279  0.086363135   -2.8913403    1.5536123   396900 
  505000    1.0381069   -2.8921325   -2.8921325    -1.334976  0.086703371   -2.8921325    1.5571564   396900 
  506000    1.0367275   -2.8912754   -2.8912754    -1.336188  0.083961891   -2.8912754    1.5550874   396900 
  507000    1.0363469    -2.891278    -2.891278   -1.3367616  0.080070228    -2.891278    1.5545164   396900 
  508000    1.0353601    -2.891528    -2.891528   -1.3384917  0.079196919    -2.891528    1.5530363   396900 
  509000    1.0352236   -2.8889109   -2.8889109   -1.3360794  0.082327841   -2.8889109    1.5528315   396900 
  510000    1.0345868   -2.8893979   -2.8893979   -1.3375217  0.078282018   -2.8893979    1.5518762   396900 
  511000    1.0352858   -2.8899718   -2.8899718    -1.337047  0.079864996   -2.8899718    1.5529247   396900 
  512000     1.035323   -2.8887024   -2.8887024   -1.3357218  0.081989326   -2.8887024    1.5529807   396900 
  513000    1.0333523   -2.8886763   -2.8886763   -1.3386517  0.086054141   -2.8886763    1.5500246   396900 
  514000     1.037139   -2.8886187   -2.8886187   -1.3329142  0.082871913   -2.8886187    1.5557045   396900 
  515000    1.0364234   -2.8895992   -2.8895992   -1.3349679  0.084589794   -2.8895992    1.5546312   396900 
  516000     1.036259   -2.8877226   -2.8877226    -1.333338  0.085231659   -2.8877226    1.5543845   396900 
  517000    1.0379245    -2.887799    -2.887799   -1.3309162  0.084922382    -2.887799    1.5568828   396900 
  518000     1.037547   -2.8893202   -2.8893202   -1.3330037  0.083129741   -2.8893202    1.5563165   396900 
  519000    1.0359501   -2.8889992   -2.8889992    -1.335078  0.081317571   -2.8889992    1.5539212   396900 
  520000    1.0352423   -2.8852859   -2.8852859   -1.3324263  0.085810399   -2.8852859    1.5528596   396900 
  521000    1.0343496   -2.8833656   -2.8833656   -1.3318451  0.081139607   -2.8833656    1.5515205   396900 
  522000    1.0357888   -2.8858096   -2.8858096   -1.3321303  0.083634541   -2.8858096    1.5536793   396900 
  523000    1.0366784   -2.8871712   -2.8871712   -1.3321575  0.080157821   -2.8871712    1.5550137   396900 
  524000    1.0347353   -2.8831404   -2.8831404   -1.3310414  0.081127005   -2.8831404    1.5520991   396900 
  525000    1.0365064    -2.885673    -2.885673   -1.3309173  0.088051555    -2.885673    1.5547557   396900 
  526000    1.0362121   -2.8820089   -2.8820089   -1.3276946  0.085880465   -2.8820089    1.5543143   396900 
  527000    1.0383872   -2.8807704   -2.8807704   -1.3231936  0.080907268   -2.8807704    1.5575768   396900 
  528000    1.0364742   -2.8797098   -2.8797098   -1.3250024  0.088016517   -2.8797098    1.5547074   396900 
  529000     1.035628   -2.8809863   -2.8809863   -1.3275482  0.079277451   -2.8809863    1.5534381   396900 
  530000    1.0368326   -2.8827742   -2.8827742   -1.3275293  0.078182397   -2.8827742    1.5552449   396900 
  531000    1.0356816   -2.8797113   -2.8797113   -1.3261929   0.08477573   -2.8797113    1.5535184   396900 
  532000    1.0368306   -2.8802339   -2.8802339   -1.3249919   0.08083016   -2.8802339     1.555242   396900 
  533000    1.0368907   -2.8794003   -2.8794003   -1.3240681    0.0803331   -2.8794003    1.5553322   396900 
  534000    1.0363735   -2.8769828   -2.8769828   -1.3224265  0.086892762   -2.8769828    1.5545564   396900 
  535000    1.0396217   -2.8809604   -2.8809604   -1.3215317  0.088819091   -2.8809604    1.5594286   396900 
  536000    1.0384288   -2.8822956   -2.8822956   -1.3246564  0.079052513   -2.8822956    1.5576392   396900 
  537000    1.0359257   -2.8768438   -2.8768438   -1.3229593  0.080966033   -2.8768438    1.5538846   396900 
  538000       1.0372    -2.878074    -2.878074   -1.3222779   0.08450384    -2.878074     1.555796   396900 
  539000    1.0392663   -2.8809984   -2.8809984    -1.322103  0.081344091   -2.8809984    1.5588955   396900 
  540000    1.0368956   -2.8791766   -2.8791766   -1.3238371  0.082489923   -2.8791766    1.5553395   396900 
  541000    1.0372969   -2.8782992   -2.8782992   -1.3223578  0.080009512   -2.8782992    1.5559415   396900 
  542000    1.0366978   -2.8798679   -2.8798679   -1.3248251  0.084997766   -2.8798679    1.5550427   396900 
  543000    1.0358063   -2.8792247   -2.8792247   -1.3255191  0.082832887   -2.8792247    1.5537056   396900 
  544000    1.0370551   -2.8808069   -2.8808069   -1.3252282  0.077802715   -2.8808069    1.5555787   396900 
  545000    1.0361495   -2.8798161   -2.8798161   -1.3255958   0.08571663   -2.8798161    1.5542203   396900 
  546000    1.0374887    -2.880514    -2.880514   -1.3242849  0.082479948    -2.880514    1.5562291   396900 
  547000    1.0368351   -2.8811111   -2.8811111   -1.3258624  0.083756437   -2.8811111    1.5552487   396900 
  548000    1.0373442     -2.88287     -2.88287   -1.3268576   0.08070323     -2.88287    1.5560124   396900 
  549000    1.0364209   -2.8801845   -2.8801845    -1.325557  0.079908685   -2.8801845    1.5546275   396900 
  550000    1.0350045   -2.8793924   -2.8793924   -1.3268896  0.083169273   -2.8793924    1.5525028   396900 
  551000    1.0347103    -2.878601    -2.878601   -1.3265394  0.082305383    -2.878601    1.5520616   396900 
  552000     1.035602   -2.8792917   -2.8792917   -1.3258926   0.08517227   -2.8792917    1.5533991   396900 
  553000     1.036874   -2.8791023   -2.8791023   -1.3237953  0.083248231   -2.8791023     1.555307   396900 
  554000    1.0355236   -2.8773799   -2.8773799   -1.3240984  0.086986464   -2.8773799    1.5532815   396900 
  555000    1.0351194   -2.8780978   -2.8780978   -1.3254227  0.078740829   -2.8780978    1.5526751   396900 
  556000    1.0362965   -2.8809072   -2.8809072   -1.3264664  0.080477593   -2.8809072    1.5544408   396900 
  557000    1.0376074    -2.881258    -2.881258   -1.3248509  0.083958411    -2.881258    1.5564071   396900 
  558000    1.0363903   -2.8790279   -2.8790279   -1.3244463   0.07614424   -2.8790279    1.5545816   396900 
  559000    1.0357651   -2.8789322   -2.8789322   -1.3252885  0.078832177   -2.8789322    1.5536437   396900 
  560000    1.0357551   -2.8786628   -2.8786628   -1.3250341  0.083246892   -2.8786628    1.5536287   396900 
  561000    1.0380542   -2.8800542   -2.8800542   -1.3229768  0.081977619   -2.8800542    1.5570774   396900 
  562000    1.0396682   -2.8793876   -2.8793876   -1.3198892  0.092538879   -2.8793876    1.5594984   396900 
  563000    1.0370241   -2.8797759   -2.8797759   -1.3242437  0.083061248   -2.8797759    1.5555322   396900 
  564000    1.0377268   -2.8781715   -2.8781715   -1.3215852  0.091908383   -2.8781715    1.5565863   396900 
  565000    1.0370803   -2.8756136   -2.8756136   -1.3199971   0.08724922   -2.8756136    1.5556165   396900 
  566000    1.0363423   -2.8746048   -2.8746048   -1.3200953   0.08400188   -2.8746048    1.5545095   396900 
  567000    1.0393327   -2.8763793   -2.8763793   -1.3173842   0.08366289   -2.8763793    1.5589951   396900 
  568000    1.0386908   -2.8765155   -2.8765155   -1.3184832  0.083970696   -2.8765155    1.5580323   396900 
  569000    1.0386807   -2.8772931   -2.8772931   -1.3192759  0.083835518   -2.8772931    1.5580172   396900 
  570000    1.0382669   -2.8762877   -2.8762877   -1.3188912   0.08466315   -2.8762877    1.5573965   396900 
  571000    1.0377049   -2.8733232   -2.8733232   -1.3167698  0.083956231   -2.8733232    1.5565534   396900 
  572000     1.038236   -2.8711788   -2.8711788   -1.3138288  0.086632321   -2.8711788      1.55735   396900 
  573000    1.0377667   -2.8744726   -2.8744726   -1.3178264  0.080061534   -2.8744726    1.5566462   396900 
  574000    1.0391074   -2.8739169   -2.8739169   -1.3152598  0.079425966   -2.8739169    1.5586571   396900 
  575000    1.0375221   -2.8724677   -2.8724677   -1.3161885  0.079653713   -2.8724677    1.5562792   396900 
  576000    1.0376629   -2.8727953   -2.8727953   -1.3163049  0.085156899   -2.8727953    1.5564904   396900 
  577000    1.0389077   -2.8721907   -2.8721907    -1.313833  0.085269479   -2.8721907    1.5583577   396900 
  578000    1.0396899   -2.8726281   -2.8726281   -1.3130973  0.083196289   -2.8726281    1.5595309   396900 
  579000    1.0387103   -2.8714499   -2.8714499   -1.3133884  0.084343448   -2.8714499    1.5580616   396900 
  580000    1.0388737   -2.8705628   -2.8705628   -1.3122561  0.081405517   -2.8705628    1.5583066   396900 
  581000    1.0399387   -2.8704227   -2.8704227   -1.3105185  0.078823884   -2.8704227    1.5599042   396900 
  582000    1.0371993   -2.8700126   -2.8700126   -1.3142176  0.079449811   -2.8700126     1.555795   396900 
  583000    1.0376078   -2.8706096   -2.8706096   -1.3142018  0.081023891   -2.8706096    1.5564078   396900 
  584000    1.0388943   -2.8697001   -2.8697001   -1.3113626  0.081212187   -2.8697001    1.5583375   396900 
  585000    1.0357625   -2.8669028   -2.8669028   -1.3132629  0.081240146   -2.8669028    1.5536399   396900 
  586000    1.0384503   -2.8661535   -2.8661535   -1.3084821    0.0861277   -2.8661535    1.5576715   396900 
  587000    1.0401519    -2.868215    -2.868215    -1.307991  0.083915283    -2.868215     1.560224   396900 
  588000    1.0397101   -2.8658237   -2.8658237   -1.3062625    0.0828788   -2.8658237    1.5595612   396900 
  589000    1.0407709   -2.8661861   -2.8661861   -1.3050337  0.085248038   -2.8661861    1.5611524   396900 
  590000     1.040303    -2.866611    -2.866611   -1.3061604  0.088513714    -2.866611    1.5604506   396900 
  591000    1.0387555   -2.8662255   -2.8662255   -1.3080961    0.0829907   -2.8662255    1.5581294   396900 
  592000    1.0390537   -2.8648709   -2.8648709   -1.3062942  0.080813794   -2.8648709    1.5585767   396900 
  593000    1.0379201   -2.8644516   -2.8644516   -1.3075753  0.085130389   -2.8644516    1.5568763   396900 
  594000    1.0389714   -2.8652357   -2.8652357   -1.3067825  0.081860507   -2.8652357    1.5584532   396900 
  595000    1.0383537   -2.8634355   -2.8634355   -1.3059089   0.08483271   -2.8634355    1.5575266   396900 
  596000    1.0413904   -2.8644287   -2.8644287   -1.3023471  0.083472411   -2.8644287    1.5620817   396900 
  597000    1.0389609   -2.8640809   -2.8640809   -1.3056435  0.087407021   -2.8640809    1.5584374   396900 
  598000    1.0403832   -2.8651382   -2.8651382   -1.3045674  0.081049282   -2.8651382    1.5605708   396900 
  599000    1.0367334   -2.8591318   -2.8591318   -1.3040356  0.086077695   -2.8591318    1.5550962   396900 
  600000    1.0379669   -2.8592179   -2.8592179   -1.3022715  0.082198939   -2.8592179    1.5569464   396900 
  601000    1.0402535   -2.8641204   -2.8641204   -1.3037442  0.080306936   -2.8641204    1.5603762   396900 
  602000    1.0414927   -2.8613147   -2.8613147   -1.2990796  0.085911853   -2.8613147    1.5622351   396900 
  603000    1.0397823   -2.8589139   -2.8589139   -1.2992444  0.085148758   -2.8589139    1.5596695   396900 
  604000    1.0389375   -2.8595464   -2.8595464    -1.301144  0.082585187   -2.8595464    1.5584024   396900 
  605000    1.0389116   -2.8603872   -2.8603872   -1.3020238  0.083445551   -2.8603872    1.5583634   396900 
  606000     1.038781    -2.857844    -2.857844   -1.2996765  0.077390071    -2.857844    1.5581675   396900 
  607000    1.0387784   -2.8587555   -2.8587555   -1.3005918  0.079689216   -2.8587555    1.5581637   396900 
  608000    1.0413557   -2.8598647   -2.8598647   -1.2978351  0.082886675   -2.8598647    1.5620296   396900 
  609000    1.0396339   -2.8572959   -2.8572959    -1.297849  0.088838849   -2.8572959    1.5594469   396900 
  610000    1.0423101   -2.8601991   -2.8601991    -1.296738  0.080973833   -2.8601991    1.5634612   396900 
  611000    1.0410751   -2.8599789   -2.8599789   -1.2983703   0.08003097   -2.8599789    1.5616087   396900 
  612000    1.0407985   -2.8576738   -2.8576738     -1.29648  0.084943427   -2.8576738    1.5611938   396900 
  613000    1.0383552   -2.8555691   -2.8555691   -1.2980401  0.084346455   -2.8555691    1.5575289   396900 
  614000    1.0405369   -2.8581608   -2.8581608   -1.2973593  0.080883601   -2.8581608    1.5608015   396900 
  615000    1.0411914   -2.8568259   -2.8568259   -1.2950427  0.087674689   -2.8568259    1.5617832   396900 
  616000    1.0407972   -2.8564999   -2.8564999    -1.295308  0.082913111   -2.8564999    1.5611919   396900 
  617000    1.0392234   -2.8576964   -2.8576964   -1.2988653  0.083373837   -2.8576964    1.5588311   396900 
  618000    1.0391329   -2.8584679   -2.8584679   -1.2997724  0.084566439   -2.8584679    1.5586954   396900 
  619000    1.0425411   -2.8604205   -2.8604205   -1.2966128  0.083719323   -2.8604205    1.5638076   396900 
  620000    1.0398994   -2.8561366   -2.8561366   -1.2962914  0.085238515   -2.8561366    1.5598452   396900 
  621000    1.0402416   -2.8571989   -2.8571989   -1.2968404  0.083561878   -2.8571989    1.5603585   396900 
  622000    1.0411978   -2.8599868   -2.8599868   -1.2981941  0.083982823   -2.8599868    1.5617927   396900 
  623000     1.040219   -2.8564606   -2.8564606    -1.296136  0.083743565   -2.8564606    1.5603246   396900 
  624000    1.0398823   -2.8553975   -2.8553975    -1.295578  0.086757102   -2.8553975    1.5598195   396900 
  625000    1.0405608   -2.8559871   -2.8559871   -1.2951498  0.085690591   -2.8559871    1.5608372   396900 
  626000      1.04176   -2.8566699   -2.8566699   -1.2940338  0.081312865   -2.8566699    1.5626361   396900 
  627000    1.0386171   -2.8553972   -2.8553972   -1.2974754  0.079944889   -2.8553972    1.5579217   396900 
  628000    1.0379957     -2.85595     -2.85595   -1.2989603  0.075141852     -2.85595    1.5569897   396900 
  629000    1.0376031     -2.85553     -2.85553   -1.2991292  0.086437559     -2.85553    1.5564007   396900 
  630000    1.0401221   -2.8571144   -2.8571144   -1.2969352  0.081749368   -2.8571144    1.5601792   396900 
  631000    1.0413837   -2.8563615   -2.8563615   -1.2942899  0.086698553   -2.8563615    1.5620716   396900 
  632000    1.0420888   -2.8560322   -2.8560322   -1.2929029  0.086763983   -2.8560322    1.5631293   396900 
  633000    1.0454993   -2.8590184   -2.8590184   -1.2907734  0.086272467   -2.8590184     1.568245   396900 
  634000    1.0420748   -2.8570501   -2.8570501   -1.2939418  0.085491968   -2.8570501    1.5631082   396900 
  635000    1.0406649   -2.8542702   -2.8542702   -1.2932767  0.083205505   -2.8542702    1.5609935   396900 
  636000    1.0404299   -2.8530814   -2.8530814   -1.2924405  0.079223469   -2.8530814    1.5606409   396900 
  637000    1.0405795   -2.8536033   -2.8536033    -1.292738  0.083877582   -2.8536033    1.5608653   396900 
  638000    1.0414639   -2.8547024   -2.8547024   -1.2925105  0.086200573   -2.8547024    1.5621919   396900 
  639000    1.0428873   -2.8546605   -2.8546605   -1.2903335  0.088919179   -2.8546605     1.564327   396900 
  640000    1.0406819   -2.8503443   -2.8503443   -1.2893254  0.084857266   -2.8503443    1.5610189   396900 
  641000    1.0396418   -2.8497898   -2.8497898    -1.290331  0.085626748   -2.8497898    1.5594588   396900 
  642000    1.0431541   -2.8527534   -2.8527534   -1.2880261  0.081661693   -2.8527534    1.5647273   396900 
  643000    1.0423418   -2.8524494   -2.8524494   -1.2889407  0.087237617   -2.8524494    1.5635088   396900 
  644000    1.0415573   -2.8495559   -2.8495559   -1.2872238  0.081678312   -2.8495559    1.5623321   396900 
  645000    1.0435102   -2.8486971   -2.8486971   -1.2834358  0.082353442   -2.8486971    1.5652613   396900 
  646000    1.0425852   -2.8471013   -2.8471013   -1.2832275  0.087202282   -2.8471013    1.5638738   396900 
  647000    1.0422554   -2.8454381   -2.8454381    -1.282059  0.082755069   -2.8454381    1.5633791   396900 
  648000    1.0408774   -2.8444411   -2.8444411    -1.283129  0.082368232   -2.8444411    1.5613122   396900 
  649000    1.0424756   -2.8466399   -2.8466399   -1.2829305  0.091571005   -2.8466399    1.5637094   396900 
  650000    1.0442863   -2.8480809   -2.8480809   -1.2816554  0.088180397   -2.8480809    1.5664255   396900 
  651000    1.0419952   -2.8455871   -2.8455871   -1.2825982  0.084545996   -2.8455871    1.5629889   396900 
  652000    1.0406216   -2.8433295   -2.8433295    -1.282401  0.091180015   -2.8433295    1.5609285   396900 
  653000    1.0404574   -2.8447781   -2.8447781   -1.2840959  0.080201547   -2.8447781    1.5606822   396900 
  654000    1.0408103   -2.8457172   -2.8457172   -1.2845056  0.081334579   -2.8457172    1.5612116   396900 
  655000    1.0421232   -2.8461557   -2.8461557   -1.2829748  0.082573169   -2.8461557    1.5631809   396900 
  656000    1.0421125    -2.844821    -2.844821   -1.2816562   0.08474019    -2.844821    1.5631648   396900 
  657000    1.0417647   -2.8440631   -2.8440631   -1.2814201  0.083875344   -2.8440631    1.5626431   396900 
  658000    1.0421711   -2.8451123   -2.8451123   -1.2818595  0.086793115   -2.8451123    1.5632528   396900 
  659000    1.0429959   -2.8459978   -2.8459978   -1.2815078  0.082157143   -2.8459978    1.5644899   396900 
  660000    1.0422701   -2.8451222   -2.8451222   -1.2817211  0.086224825   -2.8451222    1.5634011   396900 
  661000    1.0416604   -2.8415611   -2.8415611   -1.2790744   0.08183503   -2.8415611    1.5624867   396900 
  662000    1.0416644   -2.8414921   -2.8414921   -1.2789993  0.085291623   -2.8414921    1.5624927   396900 
  663000    1.0412815   -2.8397958   -2.8397958   -1.2778776  0.083532138   -2.8397958    1.5619183   396900 
  664000    1.0424868    -2.841194    -2.841194   -1.2774677  0.091521422    -2.841194    1.5637262   396900 
  665000    1.0430735   -2.8419397   -2.8419397   -1.2773335  0.089883112   -2.8419397    1.5646063   396900 
  666000    1.0433395   -2.8425918   -2.8425918   -1.2775864  0.089383883   -2.8425918    1.5650054   396900 
  667000    1.0426912   -2.8419048   -2.8419048   -1.2778718  0.087603949   -2.8419048    1.5640329   396900 
  668000    1.0427415   -2.8412813   -2.8412813    -1.277173  0.082658122   -2.8412813    1.5641083   396900 
  669000    1.0419876   -2.8398004   -2.8398004   -1.2768229  0.088332121   -2.8398004    1.5629775   396900 
  670000    1.0436438   -2.8398135   -2.8398135   -1.2743518  0.086784018   -2.8398135    1.5654617   396900 
  671000    1.0441528   -2.8390385   -2.8390385   -1.2728132  0.088785735   -2.8390385    1.5662253   396900 
  672000    1.0429008   -2.8374296   -2.8374296   -1.2730824  0.085558904   -2.8374296    1.5643472   396900 
  673000    1.0420539   -2.8377281   -2.8377281   -1.2746513  0.084379901   -2.8377281    1.5630769   396900 
  674000    1.0433876   -2.8369835   -2.8369835   -1.2719061  0.079066588   -2.8369835    1.5650774   396900 
  675000    1.0425125   -2.8353569   -2.8353569   -1.2715922  0.085741063   -2.8353569    1.5637647   396900 
  676000    1.0419456    -2.833896    -2.833896   -1.2709815  0.086082197    -2.833896    1.5629145   396900 
  677000    1.0440303   -2.8353446   -2.8353446   -1.2693031   0.08333442   -2.8353446    1.5660415   396900 
  678000    1.0443027   -2.8340601   -2.8340601     -1.26761  0.087289567   -2.8340601    1.5664501   396900 
  679000    1.0438289   -2.8359088   -2.8359088   -1.2701693  0.082399507   -2.8359088    1.5657395   396900 
  680000    1.0428544   -2.8336196   -2.8336196   -1.2693419  0.085695118   -2.8336196    1.5642777   396900 
  681000    1.0414038   -2.8327725   -2.8327725   -1.2706708  0.084840031   -2.8327725    1.5621017   396900 
  682000    1.0425979    -2.832124    -2.832124   -1.2682311  0.089797932    -2.832124     1.563893   396900 
  683000    1.0425551    -2.834472    -2.834472   -1.2706434  0.085834036    -2.834472    1.5638287   396900 
  684000    1.0417854   -2.8350027   -2.8350027   -1.2723286  0.083682914   -2.8350027    1.5626741   396900 
  685000    1.0422191   -2.8347016   -2.8347016    -1.271377  0.085725645   -2.8347016    1.5633247   396900 
  686000     1.041668   -2.8339524   -2.8339524   -1.2714542  0.085847753   -2.8339524    1.5624981   396900 
  687000    1.0427421   -2.8332621   -2.8332621   -1.2691528  0.088501803   -2.8332621    1.5641092   396900 
  688000    1.0441287   -2.8346054   -2.8346054   -1.2684162  0.086351808   -2.8346054    1.5661892   396900 
  689000    1.0440009   -2.8319909   -2.8319909   -1.2659935  0.082636676   -2.8319909    1.5659974   396900 
  690000    1.0423794   -2.8322711   -2.8322711   -1.2687059  0.086359511   -2.8322711    1.5635651   396900 
  691000    1.0420964   -2.8294636   -2.8294636    -1.266323  0.086243541   -2.8294636    1.5631406   396900 
  692000     1.041874   -2.8321291   -2.8321291   -1.2693221  0.081178191   -2.8321291     1.562807   396900 
  693000    1.0425079   -2.8305974   -2.8305974   -1.2668394  0.085088628   -2.8305974    1.5637579   396900 
  694000    1.0395713   -2.8285932   -2.8285932   -1.2692402   0.08632088   -2.8285932     1.559353   396900 
  695000    1.0406699   -2.8302976   -2.8302976   -1.2692968  0.081745482   -2.8302976    1.5610009   396900 
  696000    1.0435685   -2.8311647   -2.8311647   -1.2658159  0.079674862   -2.8311647    1.5653487   396900 
  697000     1.042474   -2.8280618   -2.8280618   -1.2643547  0.084909609   -2.8280618     1.563707   396900 
  698000    1.0429658   -2.8292794   -2.8292794   -1.2648346  0.083072461   -2.8292794    1.5644448   396900 
  699000    1.0425145   -2.8307714   -2.8307714   -1.2670036  0.085375146   -2.8307714    1.5637678   396900 
  700000    1.0447992   -2.8342423   -2.8342423   -1.2670474  0.085033966   -2.8342423    1.5671949   396900 
  701000    1.0405381    -2.826767    -2.826767   -1.2659637  0.084482187    -2.826767    1.5608033   396900 
  702000    1.0429515     -2.83061     -2.83061   -1.2661868  0.083934635     -2.83061    1.5644233   396900 
  703000    1.0440965   -2.8304734   -2.8304734   -1.2643326  0.085747227   -2.8304734    1.5661408   396900 
  704000    1.0442122   -2.8296759   -2.8296759   -1.2633615  0.085045736   -2.8296759    1.5663144   396900 
  705000    1.0449427   -2.8274469   -2.8274469   -1.2600369  0.083236022   -2.8274469    1.5674101   396900 
  706000    1.0447477   -2.8261371   -2.8261371   -1.2590195  0.082618092   -2.8261371    1.5671176   396900 
  707000    1.0455908    -2.824837    -2.824837   -1.2564548  0.087258872    -2.824837    1.5683822   396900 
  708000    1.0463092   -2.8276908   -2.8276908    -1.258231  0.086420025   -2.8276908    1.5694598   396900 
  709000    1.0444449   -2.8245003   -2.8245003   -1.2578368  0.083306224   -2.8245003    1.5666635   396900 
  710000    1.0445671   -2.8260408   -2.8260408   -1.2591941  0.084376997   -2.8260408    1.5668467   396900 
  711000    1.0447573   -2.8241223   -2.8241223   -1.2569903  0.086361549   -2.8241223     1.567132   396900 
  712000    1.0447819    -2.824808    -2.824808   -1.2576391  0.077460419    -2.824808    1.5671689   396900 
  713000    1.0433967   -2.8235179   -2.8235179   -1.2584268   0.08305573   -2.8235179     1.565091   396900 
  714000    1.0433549   -2.8238597   -2.8238597   -1.2588312   0.08321362   -2.8238597    1.5650284   396900 
  715000    1.0421758   -2.8225974   -2.8225974   -1.2593376   0.08453544   -2.8225974    1.5632598   396900 
  716000    1.0423334   -2.8215493   -2.8215493   -1.2580531  0.082995165   -2.8215493    1.5634962   396900 
  717000     1.044735   -2.8252532   -2.8252532   -1.2581546  0.082188009   -2.8252532    1.5670986   396900 
  718000    1.0444824   -2.8227881   -2.8227881   -1.2560685  0.084334293   -2.8227881    1.5667196   396900 
  719000    1.0463576   -2.8266311   -2.8266311   -1.2570987   0.08462569   -2.8266311    1.5695324   396900 
  720000    1.0448039   -2.8251806   -2.8251806   -1.2579788  0.085229499   -2.8251806    1.5672019   396900 
  721000    1.0453672   -2.8262144   -2.8262144   -1.2581676  0.083514323   -2.8262144    1.5680468   396900 
  722000    1.0440994   -2.8244049   -2.8244049   -1.2582597  0.084977526   -2.8244049    1.5661451   396900 
  723000    1.0430479   -2.8215738   -2.8215738   -1.2570058  0.082907623   -2.8215738    1.5645679   396900 
  724000    1.0440588   -2.8230703   -2.8230703   -1.2569861  0.083269088   -2.8230703    1.5660842   396900 
  725000     1.043598   -2.8228907   -2.8228907   -1.2574977  0.084716354   -2.8228907     1.565393   396900 
  726000    1.0432043   -2.8242748   -2.8242748   -1.2594723   0.08310285   -2.8242748    1.5648024   396900 
  727000    1.0436771   -2.8239369   -2.8239369   -1.2584252  0.082051192   -2.8239369    1.5655118   396900 
  728000    1.0433497   -2.8223048   -2.8223048   -1.2572842   0.08309706   -2.8223048    1.5650206   396900 
  729000    1.0437321   -2.8210104   -2.8210104   -1.2554163  0.091364876   -2.8210104    1.5655942   396900 
  730000    1.0425472   -2.8195735   -2.8195735   -1.2557567  0.085238016   -2.8195735    1.5638169   396900 
  731000    1.0433116   -2.8197005   -2.8197005   -1.2547371  0.086718518   -2.8197005    1.5649634   396900 
  732000    1.0425093   -2.8182922   -2.8182922   -1.2545321  0.091373497   -2.8182922      1.56376   396900 
  733000    1.0430475   -2.8196218   -2.8196218   -1.2550545  0.087427611   -2.8196218    1.5645673   396900 
  734000    1.0451587   -2.8214888   -2.8214888   -1.2537547  0.081971891   -2.8214888    1.5677341   396900 
  735000    1.0456545   -2.8207459   -2.8207459   -1.2522681  0.083042685   -2.8207459    1.5684778   396900 
  736000    1.0437003   -2.8183582   -2.8183582   -1.2528117  0.086311375   -2.8183582    1.5655465   396900 
  737000    1.0463046   -2.8210362   -2.8210362   -1.2515833  0.090278316   -2.8210362    1.5694529   396900 
  738000    1.0438666   -2.8183624   -2.8183624   -1.2525665  0.082092396   -2.8183624    1.5657959   396900 
  739000    1.0457719   -2.8198219   -2.8198219    -1.251168   0.08933826   -2.8198219    1.5686539   396900 
  740000    1.0445381   -2.8199648   -2.8199648   -1.2531615  0.084267662   -2.8199648    1.5668032   396900 
  741000    1.0456459   -2.8169794   -2.8169794   -1.2485145  0.089472491   -2.8169794    1.5684649   396900 
  742000    1.0455537   -2.8168967   -2.8168967   -1.2485702    0.0871818   -2.8168967    1.5683266   396900 
  743000    1.0463144    -2.816562    -2.816562   -1.2470943  0.087249377    -2.816562    1.5694677   396900 
  744000    1.0455806   -2.8150602   -2.8150602   -1.2466933  0.086392173   -2.8150602    1.5683669   396900 
  745000    1.0440439    -2.815245    -2.815245   -1.2491832  0.082867263    -2.815245    1.5660619   396900 
  746000     1.046735   -2.8164788   -2.8164788   -1.2463803  0.085840602   -2.8164788    1.5700985   396900 
  747000    1.0454553   -2.8164146   -2.8164146   -1.2482357  0.083607456   -2.8164146     1.568179   396900 
  748000    1.0467211   -2.8167699   -2.8167699   -1.2466922  0.085202919   -2.8167699    1.5700777   396900 
  749000    1.0459025   -2.8161292   -2.8161292   -1.2472794  0.086736696   -2.8161292    1.5688498   396900 
  750000    1.0451117   -2.8145011   -2.8145011   -1.2468376  0.085570213   -2.8145011    1.5676636   396900 
  751000    1.0451958   -2.8156106   -2.8156106   -1.2478209  0.085348633   -2.8156106    1.5677897   396900 
  752000    1.0465924   -2.8167696   -2.8167696    -1.246885  0.085950433   -2.8167696    1.5698846   396900 
  753000    1.0461358   -2.8163612   -2.8163612   -1.2471615  0.084593046   -2.8163612    1.5691997   396900 
  754000    1.0471276   -2.8166025   -2.8166025   -1.2459151  0.088929636   -2.8166025    1.5706874   396900 
  755000    1.0468341   -2.8162651   -2.8162651   -1.2460179   0.08406204   -2.8162651    1.5702472   396900 
  756000      1.04517   -2.8144251   -2.8144251   -1.2466741  0.081401746   -2.8144251     1.567751   396900 
  757000    1.0464094   -2.8135261   -2.8135261   -1.2439159  0.084484406   -2.8135261    1.5696101   396900 
  758000     1.045756   -2.8126341   -2.8126341   -1.2440041  0.090369212   -2.8126341      1.56863   396900 
  759000    1.0450938    -2.813622    -2.813622   -1.2459852  0.088238197    -2.813622    1.5676367   396900 
  760000    1.0461823   -2.8110815   -2.8110815    -1.241812  0.085645408   -2.8110815    1.5692694   396900 
  761000    1.0452751   -2.8113532   -2.8113532   -1.2434445  0.085059674   -2.8113532    1.5679087   396900 
  762000    1.0474241   -2.8129852   -2.8129852   -1.2418529  0.084277325   -2.8129852    1.5711322   396900 
  763000    1.0442334   -2.8085451   -2.8085451   -1.2421988  0.088479358   -2.8085451    1.5663462   396900 
  764000    1.0477651   -2.8089424   -2.8089424   -1.2372987  0.087969734   -2.8089424    1.5716436   396900 
  765000    1.0475946   -2.8071225   -2.8071225   -1.2357346  0.083009061   -2.8071225     1.571388   396900 
  766000    1.0468252   -2.8068565   -2.8068565   -1.2366227  0.086004795   -2.8068565    1.5702338   396900 
  767000    1.0458459   -2.8056043   -2.8056043   -1.2368394  0.091256682   -2.8056043    1.5687649   396900 
  768000    1.0443165   -2.8056102   -2.8056102   -1.2391394  0.083791099   -2.8056102    1.5664708   396900 
  769000    1.0452028   -2.8055769   -2.8055769   -1.2377767   0.08622307   -2.8055769    1.5678002   396900 
  770000    1.0470157   -2.8063485   -2.8063485    -1.235829  0.087194316   -2.8063485    1.5705195   396900 
  771000     1.048791   -2.8069565   -2.8069565    -1.233774  0.086134722   -2.8069565    1.5731825   396900 
  772000     1.046384   -2.8080744   -2.8080744   -1.2385024  0.083633712   -2.8080744     1.569572   396900 
  773000     1.044753   -2.8060811   -2.8060811   -1.2389556   0.08403871   -2.8060811    1.5671255   396900 
  774000    1.0456755   -2.8048236   -2.8048236   -1.2363144  0.081970349   -2.8048236    1.5685092   396900 
  775000    1.0449416   -2.8036845   -2.8036845    -1.236276  0.084090227   -2.8036845    1.5674085   396900 
  776000    1.0461409   -2.8053375   -2.8053375     -1.23613  0.083521695   -2.8053375    1.5692075   396900 
  777000    1.0461443   -2.8028374   -2.8028374   -1.2336249  0.084817443   -2.8028374    1.5692125   396900 
  778000    1.0486243   -2.8030273   -2.8030273   -1.2300949  0.087019328   -2.8030273    1.5729325   396900 
  779000     1.047028   -2.8024174   -2.8024174   -1.2318794  0.085333678   -2.8024174     1.570538   396900 
  780000    1.0490608   -2.8024607   -2.8024607   -1.2288735  0.094362816   -2.8024607    1.5735872   396900 
  781000    1.0493451   -2.8040214   -2.8040214   -1.2300077  0.084260138   -2.8040214    1.5740137   396900 
  782000    1.0485637   -2.8015458   -2.8015458   -1.2287042  0.087338982   -2.8015458    1.5728416   396900 
  783000    1.0472204   -2.7994341   -2.7994341   -1.2286075  0.083351996   -2.7994341    1.5708266   396900 
  784000    1.0473971   -2.8006006   -2.8006006   -1.2295089  0.085137322   -2.8006006    1.5710917   396900 
  785000    1.0481765   -2.7991904   -2.7991904   -1.2269296   0.08428027   -2.7991904    1.5722607   396900 
  786000    1.0480999   -2.7989112   -2.7989112   -1.2267653  0.084779982   -2.7989112    1.5721459   396900 
  787000    1.0477136   -2.7981334   -2.7981334    -1.226567  0.084610797   -2.7981334    1.5715664   396900 
  788000    1.0487419   -2.7992814   -2.7992814   -1.2261725  0.084241253   -2.7992814    1.5731089   396900 
  789000    1.0484634   -2.8002924   -2.8002924   -1.2276013  0.086379298   -2.8002924    1.5726911   396900 
  790000    1.0475733    -2.796712    -2.796712    -1.225356  0.086995299    -2.796712     1.571356   396900 
  791000    1.0495153   -2.7988351   -2.7988351   -1.2245661  0.090574021   -2.7988351     1.574269   396900 
  792000    1.0491534   -2.7977265   -2.7977265   -1.2240003  0.085911811   -2.7977265    1.5737262   396900 
  793000    1.0483879   -2.7982944   -2.7982944   -1.2257166  0.079636893   -2.7982944    1.5725778   396900 
  794000    1.0483481   -2.7966958   -2.7966958   -1.2241776  0.085364697   -2.7966958    1.5725182   396900 
  795000     1.047414   -2.7957165   -2.7957165   -1.2245994  0.080688542   -2.7957165    1.5711171   396900 
  796000    1.0469546   -2.7935852   -2.7935852   -1.2231572   0.08553687   -2.7935852     1.570428   396900 
  797000    1.0490082   -2.7964942   -2.7964942   -1.2229859  0.086425446   -2.7964942    1.5735083   396900 
  798000    1.0492837   -2.7968905   -2.7968905    -1.222969  0.084878725   -2.7968905    1.5739215   396900 
  799000    1.0483888   -2.7947923   -2.7947923   -1.2222131  0.085597814   -2.7947923    1.5725792   396900 
  800000    1.0472553   -2.7906315   -2.7906315   -1.2197526  0.081432716   -2.7906315    1.5708789   396900 
  801000    1.0491793   -2.7913519   -2.7913519   -1.2175869  0.084135061   -2.7913519     1.573765   396900 
  802000     1.049892   -2.7912061   -2.7912061    -1.216372  0.087662778   -2.7912061    1.5748341   396900 
  803000    1.0487534   -2.7899522   -2.7899522   -1.2168261  0.082797308   -2.7899522    1.5731261   396900 
  804000    1.0485788   -2.7882058   -2.7882058   -1.2153415  0.087118167   -2.7882058    1.5728642   396900 
  805000    1.0506239   -2.7883243   -2.7883243   -1.2123924  0.086030415   -2.7883243    1.5759319   396900 
  806000    1.0514624   -2.7879861   -2.7879861   -1.2107965  0.089765328   -2.7879861    1.5771897   396900 
  807000    1.0485141   -2.7861189   -2.7861189   -1.2133517  0.083326915   -2.7861189    1.5727672   396900 
  808000    1.0484669   -2.7846738   -2.7846738   -1.2119775  0.088825109   -2.7846738    1.5726963   396900 
  809000    1.0477793   -2.7824083   -2.7824083   -1.2107434  0.083165185   -2.7824083    1.5716649   396900 
  810000    1.0464875   -2.7822373   -2.7822373     -1.21251  0.086554591   -2.7822373    1.5697272   396900 
  811000    1.0480582   -2.7839658   -2.7839658   -1.2118825  0.085023059   -2.7839658    1.5720833   396900 
  812000    1.0492029   -2.7832223   -2.7832223   -1.2094219  0.082269116   -2.7832223    1.5738004   396900 
  813000    1.0498617   -2.7842173   -2.7842173   -1.2094287  0.087209427   -2.7842173    1.5747886   396900 
  814000    1.0500499   -2.7844911   -2.7844911   -1.2094203  0.088999469   -2.7844911    1.5750708   396900 
  815000    1.0515567   -2.7840676   -2.7840676   -1.2067366  0.085080181   -2.7840676    1.5773311   396900 
  816000    1.0513553   -2.7830866   -2.7830866   -1.2060576  0.088736602   -2.7830866     1.577029   396900 
  817000    1.0526133   -2.7829449   -2.7829449   -1.2040289  0.088115858   -2.7829449     1.578916   396900 
  818000    1.0497734   -2.7807677   -2.7807677   -1.2061116  0.085949047   -2.7807677    1.5746561   396900 
  819000    1.0498204   -2.7820088   -2.7820088   -1.2072821  0.088841335   -2.7820088    1.5747267   396900 
  820000    1.0499151   -2.7823356   -2.7823356    -1.207467  0.086255854   -2.7823356    1.5748686   396900 
  821000    1.0511592   -2.7806037   -2.7806037   -1.2038689  0.090445373   -2.7806037    1.5767348   396900 
  822000    1.0497904   -2.7789355   -2.7789355   -1.2042538  0.087123298   -2.7789355    1.5746816   396900 
  823000    1.0496432   -2.7785472   -2.7785472   -1.2040865  0.087070304   -2.7785472    1.5744608   396900 
  824000    1.0483412   -2.7776643   -2.7776643   -1.2051564   0.08563229   -2.7776643    1.5725079   396900 
  825000    1.0489781   -2.7749176   -2.7749176   -1.2014544  0.092274382   -2.7749176    1.5734633   396900 
  826000    1.0495294    -2.774605    -2.774605   -1.2003149  0.085823969    -2.774605    1.5742902   396900 
  827000    1.0503121   -2.7757402   -2.7757402    -1.200276  0.086205441   -2.7757402    1.5754642   396900 
  828000    1.0503119   -2.7741899   -2.7741899    -1.198726  0.090181299   -2.7741899    1.5754639   396900 
  829000    1.0500182   -2.7727713   -2.7727713   -1.1977479  0.081267157   -2.7727713    1.5750233   396900 
  830000    1.0497123    -2.770806    -2.770806   -1.1962416  0.081895299    -2.770806    1.5745644   396900 
  831000    1.0526377   -2.7742944   -2.7742944   -1.1953418  0.087207837   -2.7742944    1.5789526   396900 
  832000    1.0502663   -2.7704858   -2.7704858   -1.1950902  0.084754325   -2.7704858    1.5753955   396900 
  833000    1.0516461   -2.7729134   -2.7729134   -1.1954482  0.085168627   -2.7729134    1.5774652   396900 
  834000    1.0501222   -2.7713669   -2.7713669   -1.1961875  0.086196648   -2.7713669    1.5751794   396900 
  835000    1.0478628   -2.7698459   -2.7698459   -1.1980556  0.083382829   -2.7698459    1.5717902   396900 
  836000    1.0500602    -2.773043    -2.773043   -1.1979568  0.086295202    -2.773043    1.5750863   396900 
  837000    1.0500568    -2.769724    -2.769724   -1.1946427  0.087398519    -2.769724    1.5750813   396900 
  838000    1.0485351   -2.7679668   -2.7679668   -1.1951681  0.087492635   -2.7679668    1.5727987   396900 
  839000    1.0501219   -2.7673748   -2.7673748    -1.192196  0.082695179   -2.7673748    1.5751788   396900 
  840000    1.0498141   -2.7680764   -2.7680764   -1.1933591  0.085320432   -2.7680764    1.5747172   396900 
  841000    1.0504841   -2.7712493   -2.7712493   -1.1955271  0.086724005   -2.7712493    1.5757222   396900 
  842000    1.0509721   -2.7715339   -2.7715339   -1.1950797  0.083697586   -2.7715339    1.5764542   396900 
  843000    1.0501391   -2.7692398   -2.7692398   -1.1940351  0.087943579   -2.7692398    1.5752048   396900 
  844000    1.0494761    -2.767139    -2.767139   -1.1929289  0.082814686    -2.767139    1.5742101   396900 
  845000    1.0511001   -2.7673044   -2.7673044   -1.1906583  0.087922667   -2.7673044    1.5766461   396900 
  846000     1.051543   -2.7657223   -2.7657223   -1.1884117  0.081370664   -2.7657223    1.5773106   396900 
  847000    1.0507578   -2.7649881   -2.7649881   -1.1888553  0.084089723   -2.7649881    1.5761328   396900 
  848000    1.0512387   -2.7656009   -2.7656009   -1.1887468   0.08695679   -2.7656009     1.576854   396900 
  849000    1.0520184   -2.7671482   -2.7671482   -1.1891246  0.086039681   -2.7671482    1.5780237   396900 
  850000    1.0514124   -2.7653567   -2.7653567    -1.188242   0.08774863   -2.7653567    1.5771147   396900 
  851000    1.0533909   -2.7667016   -2.7667016   -1.1866192  0.088312943   -2.7667016    1.5800824   396900 
  852000    1.0522273   -2.7643502   -2.7643502   -1.1860132   0.08440616   -2.7643502     1.578337   396900 
  853000    1.0522337   -2.7666972   -2.7666972   -1.1883506  0.086294759   -2.7666972    1.5783466   396900 
  854000     1.048986   -2.7631505   -2.7631505   -1.1896754  0.083555884   -2.7631505     1.573475   396900 
  855000    1.0514683   -2.7649639   -2.7649639   -1.1877655  0.082013429   -2.7649639    1.5771985   396900 
  856000     1.051601   -2.7642714   -2.7642714   -1.1868738  0.083206949   -2.7642714    1.5773976   396900 
  857000    1.0502933   -2.7609844   -2.7609844   -1.1855484  0.086278566   -2.7609844     1.575436   396900 
  858000    1.0500622   -2.7595459   -2.7595459   -1.1844566  0.088271624   -2.7595459    1.5750893   396900 
  859000    1.0515168   -2.7599422   -2.7599422   -1.1826709  0.085638669   -2.7599422    1.5772713   396900 
  860000    1.0510568   -2.7597287   -2.7597287   -1.1831475  0.089088993   -2.7597287    1.5765812   396900 
  861000    1.0509926   -2.7598817   -2.7598817   -1.1833968  0.085829386   -2.7598817    1.5764849   396900 
  862000    1.0528884   -2.7606144   -2.7606144   -1.1812858  0.085761349   -2.7606144    1.5793286   396900 
  863000    1.0525874   -2.7596597   -2.7596597   -1.1807825  0.088833237   -2.7596597    1.5788772   396900 
  864000    1.0545956   -2.7612567   -2.7612567   -1.1793672  0.086669784   -2.7612567    1.5818895   396900 
  865000    1.0533061   -2.7591768   -2.7591768   -1.1792215  0.087790131   -2.7591768    1.5799552   396900 
  866000    1.0539301   -2.7622187   -2.7622187   -1.1813275  0.086774181   -2.7622187    1.5808912   396900 
  867000    1.0509227   -2.7559762   -2.7559762   -1.1795962  0.088828065   -2.7559762      1.57638   396900 
  868000    1.0540134   -2.7584249   -2.7584249   -1.1774088  0.084531883   -2.7584249    1.5810161   396900 
  869000     1.053587   -2.7586703   -2.7586703   -1.1782937  0.091001421   -2.7586703    1.5803766   396900 
  870000    1.0524905   -2.7557044   -2.7557044   -1.1769726  0.084375077   -2.7557044    1.5787318   396900 
  871000    1.0512802   -2.7527972   -2.7527972   -1.1758809  0.085079535   -2.7527972    1.5769163   396900 
  872000    1.0515496   -2.7554517   -2.7554517   -1.1781313  0.084953825   -2.7554517    1.5773204   396900 
  873000    1.0532758   -2.7560219   -2.7560219   -1.1761121  0.088848741   -2.7560219    1.5799097   396900 
  874000    1.0518471   -2.7569025   -2.7569025   -1.1791359  0.087725107   -2.7569025    1.5777667   396900 
  875000    1.0506304   -2.7552718   -2.7552718   -1.1793301  0.080953987   -2.7552718    1.5759417   396900 
  876000    1.0528112   -2.7560992   -2.7560992   -1.1768864   0.09032166   -2.7560992    1.5792128   396900 
  877000    1.0509134   -2.7528113   -2.7528113   -1.1764452  0.091854575   -2.7528113    1.5763661   396900 
  878000    1.0549301    -2.757547    -2.757547   -1.1751559  0.087690645    -2.757547    1.5823911   396900 
  879000    1.0525934   -2.7532891   -2.7532891   -1.1744029  0.083297438   -2.7532891    1.5788862   396900 
  880000     1.052402   -2.7555527   -2.7555527   -1.1769538  0.085890798   -2.7555527     1.578599   396900 
  881000      1.05297   -2.7570695   -2.7570695   -1.1776185  0.082674087   -2.7570695     1.579451   396900 
  882000    1.0527059     -2.75485     -2.75485   -1.1757952  0.088678686     -2.75485    1.5790548   396900 
  883000    1.0519604   -2.7531913   -2.7531913   -1.1752546  0.089967994   -2.7531913    1.5779366   396900 
  884000    1.0514948   -2.7550894   -2.7550894   -1.1778512   0.08547467   -2.7550894    1.5772382   396900 
  885000    1.0504874   -2.7500792   -2.7500792    -1.174352  0.090961953   -2.7500792    1.5757272   396900 
  886000    1.0552205   -2.7550972   -2.7550972   -1.1722705  0.090918878   -2.7550972    1.5828267   396900 
  887000    1.0545611   -2.7512363   -2.7512363   -1.1693986  0.088675429   -2.7512363    1.5818377   396900 
  888000    1.0524237    -2.747738    -2.747738   -1.1691064  0.092537194    -2.747738    1.5786316   396900 
  889000    1.0543505    -2.750464    -2.750464   -1.1689423  0.086767026    -2.750464    1.5815217   396900 
  890000    1.0528411   -2.7492197   -2.7492197   -1.1699621  0.081975419   -2.7492197    1.5792576   396900 
  891000    1.0551358    -2.752205    -2.752205   -1.1695053  0.088279365    -2.752205    1.5826997   396900 
  892000    1.0542615   -2.7533682   -2.7533682   -1.1719799  0.089893933   -2.7533682    1.5813882   396900 
  893000    1.0517963   -2.7509909   -2.7509909   -1.1733004  0.093072034   -2.7509909    1.5776905   396900 
  894000    1.0527012   -2.7488956   -2.7488956   -1.1698478  0.088940635   -2.7488956    1.5790478   396900 
  895000    1.0525739   -2.7493152   -2.7493152   -1.1704583  0.087695499   -2.7493152    1.5788569   396900 
  896000    1.0542661   -2.7520982   -2.7520982   -1.1707031  0.083617307   -2.7520982    1.5813951   396900 
  897000    1.0531086   -2.7506196   -2.7506196   -1.1709607  0.092460281   -2.7506196    1.5796589   396900 
  898000    1.0550875   -2.7519712   -2.7519712   -1.1693439   0.08897453   -2.7519712    1.5826273   396900 
  899000    1.0540704   -2.7508755   -2.7508755   -1.1697739  0.090540789   -2.7508755    1.5811016   396900 
  900000    1.0571433   -2.7506629   -2.7506629    -1.164952  0.088255239   -2.7506629    1.5857109   396900 
  901000    1.0581878   -2.7522979   -2.7522979   -1.1650201  0.086738989   -2.7522979    1.5872778   396900 
  902000    1.0551435   -2.7486693   -2.7486693    -1.165958  0.088182139   -2.7486693    1.5827113   396900 
  903000    1.0563014    -2.750304    -2.750304    -1.165856  0.087488735    -2.750304    1.5844481   396900 
  904000    1.0551715   -2.7492453   -2.7492453    -1.166492  0.087470114   -2.7492453    1.5827533   396900 
  905000     1.054419   -2.7486574   -2.7486574   -1.1670329  0.090730645   -2.7486574    1.5816245   396900 
  906000    1.0548016   -2.7467234   -2.7467234    -1.164525  0.089762713   -2.7467234    1.5821984   396900 
  907000    1.0554438   -2.7444421   -2.7444421   -1.1612804   0.09038806   -2.7444421    1.5831617   396900 
  908000    1.0572286   -2.7458038   -2.7458038   -1.1599649  0.087669732   -2.7458038    1.5858389   396900 
  909000    1.0552197   -2.7445478   -2.7445478   -1.1617222  0.085734002   -2.7445478    1.5828256   396900 
  910000    1.0551023    -2.742968    -2.742968   -1.1603185  0.084039608    -2.742968    1.5826495   396900 
  911000    1.0544674   -2.7402766   -2.7402766   -1.1585795  0.093420659   -2.7402766    1.5816971   396900 
  912000    1.0548756   -2.7424165   -2.7424165   -1.1601071  0.085551562   -2.7424165    1.5823094   396900 
  913000    1.0558976   -2.7422475   -2.7422475   -1.1584052  0.086473509   -2.7422475    1.5838424   396900 
  914000    1.0563237   -2.7426774   -2.7426774   -1.1581958  0.090361414   -2.7426774    1.5844815   396900 
  915000    1.0549225   -2.7417463   -2.7417463   -1.1593666  0.089911273   -2.7417463    1.5823798   396900 
  916000    1.0544864   -2.7417283   -2.7417283   -1.1600027  0.089683623   -2.7417283    1.5817256   396900 
  917000    1.0561909    -2.740468    -2.740468   -1.1561856  0.086153497    -2.740468    1.5842824   396900 
  918000    1.0551603   -2.7406782   -2.7406782   -1.1579418  0.089474046   -2.7406782    1.5827364   396900 
  919000    1.0547588   -2.7403758   -2.7403758   -1.1582415  0.089226536   -2.7403758    1.5821343   396900 
  920000    1.0553594   -2.7398704   -2.7398704   -1.1568353  0.090510247   -2.7398704    1.5830351   396900 
  921000    1.0552354   -2.7396076   -2.7396076   -1.1567586  0.086622183   -2.7396076     1.582849   396900 
  922000    1.0535702   -2.7374498   -2.7374498   -1.1570985  0.089407454   -2.7374498    1.5803513   396900 
  923000    1.0542338   -2.7383101   -2.7383101   -1.1569634  0.088810987   -2.7383101    1.5813467   396900 
  924000    1.0551399   -2.7371441   -2.7371441   -1.1544382  0.091722316   -2.7371441    1.5827059   396900 
  925000    1.0551332   -2.7349642   -2.7349642   -1.1522683  0.089113623   -2.7349642    1.5826959   396900 
  926000    1.0533912   -2.7333196   -2.7333196   -1.1532368  0.089369221   -2.7333196    1.5800828   396900 
  927000    1.0542584    -2.734428    -2.734428   -1.1530443  0.089163092    -2.734428    1.5813837   396900 
  928000    1.0556159   -2.7342897   -2.7342897   -1.1508698  0.089882543   -2.7342897    1.5834199   396900 
  929000    1.0559771   -2.7333518   -2.7333518   -1.1493901  0.092551402   -2.7333518    1.5839617   396900 
  930000      1.05599   -2.7348908   -2.7348908   -1.1509098  0.086399633   -2.7348908     1.583981   396900 
  931000    1.0569539   -2.7362864   -2.7362864   -1.1508596  0.086019627   -2.7362864    1.5854269   396900 
  932000     1.057022   -2.7332194   -2.7332194   -1.1476904   0.08851906   -2.7332194     1.585529   396900 
  933000    1.0569954    -2.731742    -2.731742   -1.1462529  0.086579156    -2.731742    1.5854891   396900 
  934000    1.0579931   -2.7316106   -2.7316106   -1.1446251  0.089828191   -2.7316106    1.5869856   396900 
  935000    1.0569078   -2.7312638   -2.7312638   -1.1459061  0.092616305   -2.7312638    1.5853577   396900 
  936000    1.0558607   -2.7287078   -2.7287078   -1.1449207  0.088630536   -2.7287078     1.583787   396900 
  937000    1.0569616   -2.7279467   -2.7279467   -1.1425083   0.09048488   -2.7279467    1.5854384   396900 
  938000    1.0562708   -2.7265836   -2.7265836   -1.1421815  0.090222487   -2.7265836    1.5844022   396900 
  939000    1.0566083   -2.7273484   -2.7273484     -1.14244  0.091608242   -2.7273484    1.5849084   396900 
  940000    1.0582203   -2.7298374   -2.7298374    -1.142511  0.085517994   -2.7298374    1.5873264   396900 
  941000    1.0575077   -2.7273301   -2.7273301   -1.1410725  0.094645489   -2.7273301    1.5862576   396900 
  942000    1.0561049     -2.72705     -2.72705   -1.1428966  0.090724584     -2.72705    1.5841534   396900 
  943000    1.0565986   -2.7277066   -2.7277066   -1.1428128  0.092612271   -2.7277066    1.5848939   396900 
  944000    1.0568092   -2.7253384   -2.7253384   -1.1401285  0.090528263   -2.7253384    1.5852098   396900 
  945000    1.0576006   -2.7232584   -2.7232584   -1.1368615  0.087518984   -2.7232584    1.5863969   396900 
  946000    1.0573174   -2.7213166   -2.7213166   -1.1353445   0.09233108   -2.7213166     1.585972   396900 
  947000    1.0590669   -2.7229532   -2.7229532   -1.1343568   0.08921058   -2.7229532    1.5885964   396900 
  948000    1.0588294   -2.7240203   -2.7240203   -1.1357802   0.09218329   -2.7240203    1.5882402   396900 
  949000    1.0566908   -2.7199558   -2.7199558   -1.1349235  0.089520429   -2.7199558    1.5850323   396900 
  950000    1.0560444   -2.7209435   -2.7209435   -1.1368809  0.087845673   -2.7209435    1.5840626   396900 
  951000    1.0570091   -2.7203932   -2.7203932   -1.1348836   0.08683582   -2.7203932    1.5855096   396900 
  952000    1.0589151   -2.7199086   -2.7199086   -1.1315399  0.091010139   -2.7199086    1.5883687   396900 
  953000    1.0578061   -2.7183604   -2.7183604   -1.1316552  0.088467181   -2.7183604    1.5867052   396900 
  954000    1.0551639    -2.716709    -2.716709   -1.1339672  0.091127815    -2.716709    1.5827418   396900 
  955000    1.0581641   -2.7178266   -2.7178266   -1.1305844   0.08576704   -2.7178266    1.5872422   396900 
  956000    1.0577481   -2.7161359   -2.7161359   -1.1295177  0.091328359   -2.7161359    1.5866181   396900 
  957000    1.0585976   -2.7152589   -2.7152589   -1.1273665  0.091007451   -2.7152589    1.5878924   396900 
  958000    1.0587034   -2.7167056   -2.7167056   -1.1286545  0.087376517   -2.7167056    1.5880511   396900 
  959000    1.0580287   -2.7161103   -2.7161103   -1.1290712  0.091917816   -2.7161103    1.5870391   396900 
  960000    1.0587364   -2.7169978   -2.7169978   -1.1288972  0.096216077   -2.7169978    1.5881005   396900 
  961000    1.0600651   -2.7166178   -2.7166178   -1.1265241  0.091474698   -2.7166178    1.5900937   396900 
  962000    1.0612681   -2.7166667   -2.7166667   -1.1247686  0.094259084   -2.7166667    1.5918982   396900 
  963000    1.0583866    -2.715335    -2.715335   -1.1277591     0.086163    -2.715335    1.5875759   396900 
  964000    1.0570462   -2.7133823   -2.7133823    -1.127817  0.089561712   -2.7133823    1.5855653   396900 
  965000    1.0584805   -2.7129915   -2.7129915   -1.1252747   0.09020564   -2.7129915    1.5877168   396900 
  966000    1.0591481   -2.7141382   -2.7141382   -1.1254201  0.088590105   -2.7141382    1.5887182   396900 
  967000    1.0566291   -2.7113233   -2.7113233   -1.1263836  0.090674427   -2.7113233    1.5849396   396900 
  968000    1.0594244   -2.7150363   -2.7150363   -1.1259037  0.082927827   -2.7150363    1.5891326   396900 
  969000    1.0599019    -2.714715    -2.714715   -1.1248662  0.088686431    -2.714715    1.5898488   396900 
  970000    1.0571123   -2.7108165   -2.7108165    -1.125152  0.089854843   -2.7108165    1.5856645   396900 
  971000    1.0560257   -2.7111792   -2.7111792   -1.1271446   0.08785213   -2.7111792    1.5840346   396900 
  972000    1.0565653    -2.710225    -2.710225    -1.125381  0.088947658    -2.710225     1.584844   396900 
  973000    1.0584222    -2.714173    -2.714173   -1.1265437  0.090414686    -2.714173    1.5876293   396900 
  974000    1.0575657   -2.7129327   -2.7129327   -1.1265881  0.085567521   -2.7129327    1.5863446   396900 
  975000     1.058585   -2.7125252   -2.7125252   -1.1246518  0.090713376   -2.7125252    1.5878734   396900 
  976000    1.0601821   -2.7130768   -2.7130768   -1.1228077  0.096217233   -2.7130768    1.5902691   396900 
  977000    1.0610705   -2.7120421   -2.7120421   -1.1204404  0.089507488   -2.7120421    1.5916017   396900 
  978000    1.0599548   -2.7109387   -2.7109387   -1.1210106  0.089899767   -2.7109387    1.5899281   396900 
  979000    1.0592429   -2.7097212   -2.7097212   -1.1208608  0.089217789   -2.7097212    1.5888604   396900 
  980000    1.0592964    -2.712074    -2.712074   -1.1231333  0.090681301    -2.712074    1.5889406   396900 
  981000    1.0619667   -2.7126682   -2.7126682   -1.1197222  0.091685791   -2.7126682     1.592946   396900 
  982000     1.060406   -2.7128573   -2.7128573   -1.1222523  0.090208264   -2.7128573    1.5906049   396900 
  983000    1.0583007   -2.7089918   -2.7089918   -1.1215447  0.094944023   -2.7089918    1.5874471   396900 
  984000    1.0595654   -2.7124575   -2.7124575   -1.1231134  0.092642547   -2.7124575    1.5893441   396900 
  985000    1.0587724   -2.7097421   -2.7097421   -1.1215875  0.086945219   -2.7097421    1.5881547   396900 
  986000    1.0581844   -2.7078161   -2.7078161   -1.1205436  0.090644508   -2.7078161    1.5872725   396900 
  987000    1.0615426   -2.7097523   -2.7097523   -1.1174424  0.092297871   -2.7097523    1.5923099   396900 
  988000    1.0604379   -2.7091633   -2.7091633   -1.1185105  0.095360957   -2.7091633    1.5906528   396900 
  989000     1.061985   -2.7113452   -2.7113452   -1.1183717  0.094835832   -2.7113452    1.5929735   396900 
  990000    1.0610643   -2.7099704   -2.7099704   -1.1183779  0.092770862   -2.7099704    1.5915925   396900 
  991000    1.0581175   -2.7064913   -2.7064913   -1.1193191  0.090941062   -2.7064913    1.5871722   396900 
  992000    1.0583342   -2.7062949   -2.7062949   -1.1187975  0.094203749   -2.7062949    1.5874974   396900 
  993000    1.0592012   -2.7074044   -2.7074044   -1.1186066  0.092666084   -2.7074044    1.5887978   396900 
  994000    1.0593358   -2.7068606   -2.7068606   -1.1178608  0.091852605   -2.7068606    1.5889998   396900 
  995000    1.0570447   -2.7040348   -2.7040348   -1.1184718  0.088870609   -2.7040348    1.5855631   396900 
  996000     1.058866   -2.7070754   -2.7070754   -1.1187803   0.09369696   -2.7070754     1.588295   396900 
  997000    1.0584386   -2.7046559   -2.7046559   -1.1170019   0.08934033   -2.7046559     1.587654   396900 
  998000    1.0606298   -2.7083083   -2.7083083   -1.1173676  0.089457228   -2.7083083    1.5909407   396900 
  999000    1.0599462   -2.7081183   -2.7081183    -1.118203  0.088778201   -2.7081183    1.5899153   396900 
 1000000    1.0604795   -2.7090232   -2.7090232    -1.118308  0.092034345   -2.7090232    1.5907152   396900 
 1001000    1.0607557   -2.7063207   -2.7063207   -1.1151912  0.092499585   -2.7063207    1.5911296   396900 
 1002000    1.0601363   -2.7075253   -2.7075253   -1.1173249  0.092707207   -2.7075253    1.5902004   396900 
 1003000     1.060686   -2.7056348   -2.7056348   -1.1146098  0.095869126   -2.7056348     1.591025   396900 
 1004000    1.0580156   -2.7031423   -2.7031423   -1.1161229  0.090209207   -2.7031423    1.5870193   396900 
 1005000    1.0600508   -2.7078294   -2.7078294   -1.1177573  0.094165814   -2.7078294    1.5900721   396900 
 1006000    1.0605988   -2.7058172   -2.7058172    -1.114923  0.088168868   -2.7058172    1.5908942   396900 
 1007000    1.0598391   -2.7026866   -2.7026866   -1.1129319  0.089721959   -2.7026866    1.5897547   396900 
 1008000     1.060585   -2.7053378   -2.7053378   -1.1144642  0.085313811   -2.7053378    1.5908735   396900 
 1009000    1.0598466   -2.7043897   -2.7043897   -1.1146238  0.091398388   -2.7043897    1.5897659   396900 
 1010000     1.060224   -2.7041655   -2.7041655   -1.1138335  0.090123911   -2.7041655     1.590332   396900 
 1011000    1.0565626   -2.7003942   -2.7003942   -1.1155543  0.091718548   -2.7003942      1.58484   396900 
 1012000    1.0611896   -2.7037579   -2.7037579   -1.1119776  0.087518941   -2.7037579    1.5917803   396900 
 1013000    1.0598246   -2.6996876   -2.6996876   -1.1099546  0.091069421   -2.6996876    1.5897329   396900 
 1014000    1.0607664   -2.7013348   -2.7013348   -1.1101892  0.086790813   -2.7013348    1.5911456   396900 
 1015000    1.0586184   -2.6991881   -2.6991881   -1.1112646   0.09170941   -2.6991881    1.5879236   396900 
 1016000    1.0572163   -2.6961397   -2.6961397   -1.1103193  0.094605842   -2.6961397    1.5858204   396900 
 1017000    1.0587984   -2.6962468   -2.6962468   -1.1080532  0.091856802   -2.6962468    1.5881936   396900 
 1018000    1.0603323    -2.698892    -2.698892   -1.1083976  0.093195109    -2.698892    1.5904945   396900 
 1019000     1.060192   -2.6975317   -2.6975317   -1.1072477  0.092220689   -2.6975317     1.590284   396900 
 1020000    1.0594694    -2.697436    -2.697436   -1.1082359  0.089978982    -2.697436    1.5892001   396900 
 1021000    1.0593321   -2.7007717   -2.7007717   -1.1117776  0.092509464   -2.7007717    1.5889942   396900 
 1022000    1.0595485    -2.700804    -2.700804   -1.1114852   0.09172343    -2.700804    1.5893188   396900 
 1023000    1.0605954   -2.6991156   -2.6991156   -1.1082266  0.091690504   -2.6991156    1.5908891   396900 
 1024000    1.0594738   -2.6967343   -2.6967343   -1.1075276  0.091194801   -2.6967343    1.5892067   396900 
 1025000     1.061911   -2.6989314   -2.6989314   -1.1060689  0.089965699   -2.6989314    1.5928625   396900 
 1026000     1.060505   -2.6953285   -2.6953285   -1.1045751  0.095225048   -2.6953285    1.5907534   396900 
 1027000    1.0609595   -2.6946657   -2.6946657   -1.1032304  0.094340418   -2.6946657    1.5914353   396900 
 1028000    1.0636442   -2.6970578   -2.6970578   -1.1015956  0.086488822   -2.6970578    1.5954622   396900 
 1029000    1.0627623      -2.6972      -2.6972   -1.1030606  0.093545472      -2.6972    1.5941394   396900 
 1030000    1.0605246   -2.6924364   -2.6924364   -1.1016535  0.088332873   -2.6924364    1.5907829   396900 
 1031000    1.0616984   -2.6942594   -2.6942594   -1.1017158  0.093958061   -2.6942594    1.5925436   396900 
 1032000    1.0632629   -2.6947364   -2.6947364   -1.0998461  0.090811526   -2.6947364    1.5948903   396900 
 1033000    1.0619728   -2.6929574   -2.6929574   -1.1000022  0.089389431   -2.6929574    1.5929552   396900 
 1034000    1.0620083   -2.6903948   -2.6903948   -1.0973863  0.093022363   -2.6903948    1.5930085   396900 
 1035000     1.063651   -2.6933904   -2.6933904   -1.0979179  0.090412614   -2.6933904    1.5954725   396900 
 1036000    1.0619111   -2.6917861   -2.6917861   -1.0989235  0.091465829   -2.6917861    1.5928626   396900 
 1037000    1.0612642   -2.6913294   -2.6913294   -1.0994372  0.093104969   -2.6913294    1.5918923   396900 
 1038000     1.060581   -2.6899302   -2.6899302   -1.0990627  0.091917103   -2.6899302    1.5908675   396900 
 1039000    1.0606359   -2.6893341   -2.6893341   -1.0983843  0.093673091   -2.6893341    1.5909498   396900 
 1040000    1.0595063   -2.6895816   -2.6895816   -1.1003262  0.087883626   -2.6895816    1.5892554   396900 
 1041000    1.0605424   -2.6875131   -2.6875131   -1.0967035  0.089182053   -2.6875131    1.5908097   396900 
 1042000    1.0614886   -2.6872874   -2.6872874   -1.0950585  0.096957182   -2.6872874    1.5922289   396900 
 1043000    1.0619739   -2.6885437   -2.6885437   -1.0955869  0.092389408   -2.6885437    1.5929568   396900 
 1044000    1.0613882   -2.6865208   -2.6865208   -1.0944424  0.094169696   -2.6865208    1.5920783   396900 
 1045000     1.061687   -2.6890841   -2.6890841   -1.0965575  0.087172536   -2.6890841    1.5925265   396900 
 1046000    1.0603575   -2.6850014   -2.6850014   -1.0944692  0.091174184   -2.6850014    1.5905322   396900 
 1047000    1.0630047   -2.6850062   -2.6850062   -1.0905032  0.092084507   -2.6850062     1.594503   396900 
 1048000     1.064005    -2.685594    -2.685594   -1.0895904  0.096970133    -2.685594    1.5960036   396900 
 1049000    1.0626492   -2.6846648   -2.6846648    -1.090695   0.09191578   -2.6846648    1.5939698   396900 
 1050000    1.0633861   -2.6856237   -2.6856237   -1.0905487  0.091179099   -2.6856237    1.5950751   396900 
 1051000    1.0629508   -2.6855369   -2.6855369   -1.0911147  0.088904183   -2.6855369    1.5944222   396900 
 1052000    1.0603925   -2.6811085   -2.6811085   -1.0905237  0.092154377   -2.6811085    1.5905848   396900 
 1053000    1.0616499   -2.6836549   -2.6836549   -1.0911841  0.092803574   -2.6836549    1.5924708   396900 
 1054000    1.0633974   -2.6833042   -2.6833042   -1.0882121  0.089662665   -2.6833042    1.5950921   396900 
 1055000    1.0633146   -2.6820334   -2.6820334   -1.0870654  0.088889832   -2.6820334    1.5949679   396900 
 1056000    1.0601687   -2.6786942   -2.6786942   -1.0884452  0.097133477   -2.6786942    1.5902491   396900 
 1057000    1.0619952   -2.6808107   -2.6808107   -1.0878219  0.092265055   -2.6808107    1.5929888   396900 
 1058000      1.06341   -2.6804176   -2.6804176   -1.0853067  0.098228699   -2.6804176    1.5951109   396900 
 1059000    1.0616787   -2.6764212   -2.6764212   -1.0839072  0.097644739   -2.6764212     1.592514   396900 
 1060000    1.0646375   -2.6798919   -2.6798919   -1.0829397   0.09257709   -2.6798919    1.5969523   396900 
 1061000    1.0654823   -2.6797991   -2.6797991   -1.0815797  0.092091869   -2.6797991    1.5982195   396900 
 1062000    1.0643255   -2.6763964   -2.6763964   -1.0799121  0.092222539   -2.6763964    1.5964843   396900 
 1063000    1.0625896   -2.6736566   -2.6736566   -1.0797761  0.088693449   -2.6736566    1.5938804   396900 
 1064000    1.0635986   -2.6737573   -2.6737573   -1.0783634  0.091611068   -2.6737573    1.5953939   396900 
 1065000    1.0634628   -2.6748243   -2.6748243   -1.0796341   0.09455524   -2.6748243    1.5951902   396900 
 1066000    1.0607805   -2.6719412   -2.6719412   -1.0807745  0.090924445   -2.6719412    1.5911668   396900 
 1067000    1.0645261   -2.6728761   -2.6728761   -1.0760909  0.092304612   -2.6728761    1.5967851   396900 
 1068000    1.0642016   -2.6709025   -2.6709025   -1.0746041  0.095197606   -2.6709025    1.5962984   396900 
 1069000    1.0621629   -2.6703388   -2.6703388   -1.0770985  0.096141397   -2.6703388    1.5932403   396900 
 1070000    1.0642616   -2.6700505   -2.6700505   -1.0736622  0.095725504   -2.6700505    1.5963883   396900 
 1071000    1.0645551   -2.6710729   -2.6710729   -1.0742443  0.089888962   -2.6710729    1.5968287   396900 
 1072000    1.0631421   -2.6697608   -2.6697608   -1.0750518  0.095500319   -2.6697608    1.5947091   396900 
 1073000     1.066375   -2.6710594   -2.6710594   -1.0715009  0.094505479   -2.6710594    1.5995585   396900 
 1074000    1.0646535   -2.6679335   -2.6679335   -1.0709573  0.097089084   -2.6679335    1.5969762   396900 
 1075000    1.0651009   -2.6664706   -2.6664706   -1.0688232  0.092457795   -2.6664706    1.5976474   396900 
 1076000    1.0656089   -2.6671701   -2.6671701   -1.0687607  0.092303643   -2.6671701    1.5984094   396900 
 1077000    1.0653956   -2.6654374   -2.6654374    -1.067348  0.093156931   -2.6654374    1.5980894   396900 
 1078000    1.0653162   -2.6653349   -2.6653349   -1.0673646  0.090225383   -2.6653349    1.5979703   396900 
 1079000    1.0640655   -2.6662044   -2.6662044   -1.0701102  0.095876475   -2.6662044    1.5960942   396900 
 1080000    1.0633782   -2.6642637   -2.6642637   -1.0692005   0.09402191   -2.6642637    1.5950632   396900 
 1081000    1.0645688    -2.666054    -2.666054   -1.0692048  0.088568155    -2.666054    1.5968492   396900 
 1082000    1.0690452   -2.6680985   -2.6680985   -1.0645347  0.094208344   -2.6680985    1.6035638   396900 
 1083000    1.0660115   -2.6631463   -2.6631463   -1.0641331  0.092537161   -2.6631463    1.5990132   396900 
 1084000    1.0661198   -2.6642357   -2.6642357   -1.0650601  0.094170353   -2.6642357    1.5991756   396900 
 1085000    1.0668714   -2.6655079   -2.6655079   -1.0652048  0.091954245   -2.6655079    1.6003031   396900 
 1086000    1.0666891   -2.6647417   -2.6647417   -1.0647121  0.094504563   -2.6647417    1.6000296   396900 
 1087000      1.06627   -2.6637193   -2.6637193   -1.0643184  0.091898112   -2.6637193    1.5994009   396900 
 1088000    1.0654433   -2.6633137   -2.6633137   -1.0651529  0.093768914   -2.6633137    1.5981609   396900 
 1089000    1.0656755   -2.6621123   -2.6621123   -1.0636031  0.093634955   -2.6621123    1.5985092   396900 
 1090000    1.0663657   -2.6610374   -2.6610374   -1.0614928  0.087795096   -2.6610374    1.5995446   396900 
 1091000    1.0629631   -2.6580022   -2.6580022   -1.0635616  0.092583006   -2.6580022    1.5944407   396900 
 1092000     1.065503    -2.659677    -2.659677   -1.0614265  0.098402905    -2.659677    1.5982505   396900 
 1093000    1.0675181   -2.6605781   -2.6605781   -1.0593051  0.094786607   -2.6605781    1.6012731   396900 
 1094000    1.0655675    -2.657084    -2.657084   -1.0587368  0.091379533    -2.657084    1.5983472   396900 
 1095000    1.0670342   -2.6592488   -2.6592488   -1.0587015  0.094846331   -2.6592488    1.6005473   396900 
 1096000    1.0676325   -2.6595382   -2.6595382   -1.0580934  0.096287324   -2.6595382    1.6014448   396900 
 1097000    1.0695798   -2.6635984   -2.6635984   -1.0592328  0.089271421   -2.6635984    1.6043656   396900 
 1098000    1.0666542   -2.6596798   -2.6596798   -1.0597026  0.093342034   -2.6596798    1.5999772   396900 
 1099000    1.0659361   -2.6584787   -2.6584787   -1.0595785  0.088642771   -2.6584787    1.5989001   396900 
 1100000    1.0671006   -2.6599874   -2.6599874   -1.0593405  0.086838385   -2.6599874    1.6006469   396900 
 1101000     1.066851   -2.6581839   -2.6581839   -1.0579114  0.094745597   -2.6581839    1.6002725   396900 
 1102000    1.0670062   -2.6559709   -2.6559709   -1.0554656  0.093917701   -2.6559709    1.6005052   396900 
 1103000     1.067528   -2.6538613   -2.6538613   -1.0525733  0.098550995   -2.6538613     1.601288   396900 
 1104000    1.0666922   -2.6556345   -2.6556345   -1.0556002  0.094888172   -2.6556345    1.6000343   396900 
 1105000    1.0653538   -2.6517646   -2.6517646    -1.053738  0.096777367   -2.6517646    1.5980266   396900 
 1106000    1.0640058   -2.6521848   -2.6521848   -1.0561801  0.095620942   -2.6521848    1.5960047   396900 
 1107000    1.0659248   -2.6539412   -2.6539412   -1.0550581  0.090118316   -2.6539412    1.5988832   396900 
 1108000    1.0666153    -2.654243    -2.654243   -1.0543241  0.094357203    -2.654243    1.5999189   396900 
 1109000    1.0663487   -2.6527899   -2.6527899   -1.0532709  0.093801318   -2.6527899     1.599519   396900 
 1110000     1.068595   -2.6535527   -2.6535527   -1.0506641  0.090936756   -2.6535527    1.6028885   396900 
 1111000    1.0676622   -2.6531924   -2.6531924   -1.0517032  0.097223534   -2.6531924    1.6014892   396900 
 1112000    1.0680886   -2.6538246   -2.6538246   -1.0516957  0.093697295   -2.6538246    1.6021289   396900 
 1113000    1.0672378   -2.6537733   -2.6537733   -1.0529207  0.096671762   -2.6537733    1.6008526   396900 
 1114000     1.066379   -2.6512211   -2.6512211   -1.0516566  0.089401815   -2.6512211    1.5995644   396900 
 1115000    1.0682275   -2.6521897   -2.6521897   -1.0498525  0.096406861   -2.6521897    1.6023372   396900 
 1116000    1.0696062   -2.6534237   -2.6534237   -1.0490184  0.098926231   -2.6534237    1.6044052   396900 
 1117000    1.0684029   -2.6526744   -2.6526744   -1.0500741  0.099995799   -2.6526744    1.6026003   396900 
 1118000    1.0656788    -2.653089    -2.653089   -1.0545749  0.096722679    -2.653089    1.5985142   396900 
 1119000    1.0662892   -2.6511254   -2.6511254   -1.0516957  0.094792889   -2.6511254    1.5994297   396900 
 1120000    1.0663904   -2.6511389   -2.6511389   -1.0515573  0.096344315   -2.6511389    1.5995816   396900 
 1121000    1.0684459   -2.6516186   -2.6516186   -1.0489538  0.096733372   -2.6516186    1.6026648   396900 
 1122000    1.0684321   -2.6519169   -2.6519169   -1.0492728  0.094990137   -2.6519169    1.6026441   396900 
 1123000    1.0672887   -2.6521539   -2.6521539   -1.0512248  0.094222081   -2.6521539     1.600929   396900 
 1124000    1.0681663   -2.6513589   -2.6513589   -1.0491135    0.0941691   -2.6513589    1.6022454   396900 
 1125000    1.0669902   -2.6510542   -2.6510542   -1.0505728   0.10082591   -2.6510542    1.6004813   396900 
 1126000     1.068946   -2.6519082   -2.6519082   -1.0484933  0.096821399   -2.6519082    1.6034149   396900 
 1127000    1.0657761   -2.6479299   -2.6479299   -1.0492698  0.095074342   -2.6479299    1.5986601   396900 
 1128000    1.0683052   -2.6510525   -2.6510525   -1.0485987  0.095717996   -2.6510525    1.6024538   396900 
 1129000     1.067429   -2.6470878   -2.6470878   -1.0459484  0.092461548   -2.6470878    1.6011394   396900 
 1130000    1.0685205   -2.6488269   -2.6488269   -1.0460501  0.094001291   -2.6488269    1.6027768   396900 
 1131000    1.0692796    -2.648058    -2.648058   -1.0441427   0.09698274    -2.648058    1.6039153   396900 
 1132000    1.0684095   -2.6502829   -2.6502829   -1.0476727  0.096659845   -2.6502829    1.6026102   396900 
 1133000    1.0704712   -2.6495925   -2.6495925   -1.0438898  0.095184417   -2.6495925    1.6057027   396900 
 1134000    1.0702225   -2.6489294   -2.6489294   -1.0435997  0.093368491   -2.6489294    1.6053297   396900 
 1135000      1.06704   -2.6448232   -2.6448232   -1.0442672  0.095897327   -2.6448232     1.600556   396900 
 1136000    1.0680076   -2.6451602   -2.6451602   -1.0431528  0.092634717   -2.6451602    1.6020074   396900 
 1137000    1.0682608   -2.6448089   -2.6448089   -1.0424218  0.095859281   -2.6448089    1.6023871   396900 
 1138000    1.0690095   -2.6468101   -2.6468101   -1.0432998  0.093874275   -2.6468101    1.6035103   396900 
 1139000    1.0672109   -2.6440041   -2.6440041   -1.0431917  0.094621994   -2.6440041    1.6008123   396900 
 1140000    1.0701523   -2.6458197   -2.6458197   -1.0405954   0.09923921   -2.6458197    1.6052243   396900 
 1141000    1.0693559   -2.6454887   -2.6454887    -1.041459  0.090720441   -2.6454887    1.6040298   396900 
 1142000    1.0692277   -2.6436655   -2.6436655    -1.039828  0.097630831   -2.6436655    1.6038375   396900 
 1143000    1.0677185   -2.6448574   -2.6448574   -1.0432837    0.0940072   -2.6448574    1.6015737   396900 
 1144000    1.0683336   -2.6444432   -2.6444432   -1.0419468  0.097929508   -2.6444432    1.6024964   396900 
 1145000     1.068004   -2.6446059   -2.6446059   -1.0426039   0.09863338   -2.6446059     1.602002   396900 
 1146000    1.0695349   -2.6462725   -2.6462725   -1.0419743   0.09793151   -2.6462725    1.6042983   396900 
 1147000    1.0691028   -2.6461146   -2.6461146   -1.0424644  0.097419071   -2.6461146    1.6036501   396900 
 1148000    1.0685441   -2.6438164   -2.6438164   -1.0410043  0.098366078   -2.6438164    1.6028121   396900 
 1149000    1.0671795   -2.6422059   -2.6422059   -1.0414407  0.099359707   -2.6422059    1.6007652   396900 
 1150000    1.0677095    -2.642789    -2.642789   -1.0412288  0.096800073    -2.642789    1.6015602   396900 
 1151000    1.0688662   -2.6442887   -2.6442887   -1.0409934   0.10177218   -2.6442887    1.6032953   396900 
 1152000    1.0698833   -2.6482346   -2.6482346   -1.0434137  0.091169045   -2.6482346    1.6048209   396900 
 1153000    1.0687454   -2.6443685   -2.6443685   -1.0412544  0.096263524   -2.6443685    1.6031141   396900 
 1154000    1.0680773   -2.6445889   -2.6445889    -1.042477  0.092566032   -2.6445889    1.6021119   396900 
 1155000    1.0677773   -2.6435425   -2.6435425   -1.0418806  0.096285336   -2.6435425    1.6016619   396900 
 1156000    1.0693766   -2.6448786   -2.6448786   -1.0408177  0.092941877   -2.6448786    1.6040609   396900 
 1157000    1.0672825   -2.6406567   -2.6406567    -1.039737  0.097743631   -2.6406567    1.6009197   396900 
 1158000    1.0702961   -2.6428648   -2.6428648   -1.0374248  0.096971728   -2.6428648      1.60544   396900 
 1159000    1.0696131   -2.6422322   -2.6422322   -1.0378166   0.09669429   -2.6422322    1.6044156   396900 
 1160000    1.0680844   -2.6395194   -2.6395194   -1.0373968  0.095200641   -2.6395194    1.6021226   396900 
 1161000    1.0693173   -2.6430442   -2.6430442   -1.0390723  0.095552671   -2.6430442    1.6039719   396900 
 1162000    1.0689066   -2.6387152   -2.6387152   -1.0353594  0.099756696   -2.6387152    1.6033559   396900 
 1163000    1.0716399    -2.641495    -2.641495   -1.0340392  0.097476255    -2.641495    1.6074558   396900 
 1164000    1.0705451   -2.6366695   -2.6366695   -1.0308559  0.099615156   -2.6366695    1.6058136   396900 
 1165000    1.0705696   -2.6381328   -2.6381328   -1.0322824    0.1001594   -2.6381328    1.6058504   396900 
 1166000    1.0715528   -2.6406054   -2.6406054   -1.0332802  0.095772594   -2.6406054    1.6073252   396900 
 1167000    1.0705575    -2.637456    -2.637456   -1.0316239  0.099543933    -2.637456    1.6058322   396900 
 1168000     1.070491   -2.6389043   -2.6389043   -1.0331719  0.099386838   -2.6389043    1.6057324   396900 
 1169000    1.0705139   -2.6355632   -2.6355632   -1.0297964   0.10021247   -2.6355632    1.6057668   396900 
 1170000    1.0749674   -2.6408242   -2.6408242   -1.0283772   0.10149687   -2.6408242     1.612447   396900 
 1171000    1.0718557   -2.6356229   -2.6356229   -1.0278434   0.10172397   -2.6356229    1.6077795   396900 
 1172000    1.0714002   -2.6367898   -2.6367898   -1.0296935  0.096624437   -2.6367898    1.6070963   396900 
 1173000    1.0721984   -2.6369966   -2.6369966    -1.028703  0.095380347   -2.6369966    1.6082936   396900 
 1174000    1.0703009   -2.6353516   -2.6353516   -1.0299042  0.097273057   -2.6353516    1.6054474   396900 
 1175000    1.0700876   -2.6340857   -2.6340857   -1.0289582  0.096101288   -2.6340857    1.6051274   396900 
 1176000    1.0708179   -2.6345281   -2.6345281   -1.0283053  0.097422744   -2.6345281    1.6062228   396900 
 1177000    1.0685732   -2.6302548   -2.6302548   -1.0273991  0.098342334   -2.6302548    1.6028558   396900 
 1178000    1.0718307    -2.633413    -2.633413    -1.025671  0.099438757    -2.633413     1.607742   396900 
 1179000    1.0722802   -2.6353933   -2.6353933   -1.0269771  0.096426127   -2.6353933    1.6084162   396900 
 1180000    1.0712573   -2.6322732   -2.6322732   -1.0253913  0.093916847   -2.6322732    1.6068819   396900 
 1181000    1.0714301   -2.6300892   -2.6300892   -1.0229481  0.094366001   -2.6300892    1.6071411   396900 
 1182000    1.0708104   -2.6293727   -2.6293727   -1.0231611  0.093879681   -2.6293727    1.6062116   396900 
 1183000    1.0721732    -2.630908    -2.630908   -1.0226523  0.096674335    -2.630908    1.6082557   396900 
 1184000    1.0703746   -2.6296164   -2.6296164   -1.0240585   0.10189997   -2.6296164    1.6055579   396900 
 1185000    1.0717202    -2.630397    -2.630397   -1.0228207  0.096921929    -2.630397    1.6075763   396900 
 1186000    1.0719397   -2.6331801   -2.6331801   -1.0252745   0.10063786   -2.6331801    1.6079056   396900 
 1187000    1.0698088   -2.6267844   -2.6267844   -1.0220752   0.09930038   -2.6267844    1.6047092   396900 
 1188000    1.0725869   -2.6304515   -2.6304515   -1.0215752  0.094459363   -2.6304515    1.6088763   396900 
 1189000    1.0697866   -2.6251004   -2.6251004   -1.0204245  0.093378649   -2.6251004    1.6046758   396900 
 1190000    1.0713796     -2.62774     -2.62774   -1.0206746  0.096581907     -2.62774    1.6070654   396900 
 1191000      1.07252   -2.6284544   -2.6284544   -1.0196785  0.098130123   -2.6284544     1.608776   396900 
 1192000    1.0692836   -2.6246214   -2.6246214      -1.0207  0.098220401   -2.6246214    1.6039214   396900 
 1193000    1.0710303   -2.6270746   -2.6270746   -1.0205331  0.097962854   -2.6270746    1.6065415   396900 
 1194000    1.0705502   -2.6268926   -2.6268926   -1.0210713  0.099229618   -2.6268926    1.6058213   396900 
 1195000    1.0690198   -2.6250586   -2.6250586    -1.021533  0.098569753   -2.6250586    1.6035256   396900 
 1196000    1.0691425   -2.6242997   -2.6242997   -1.0205899  0.092172396   -2.6242997    1.6037098   396900 
 1197000     1.070846   -2.6251383   -2.6251383   -1.0188734   0.09859633   -2.6251383    1.6062649   396900 
 1198000    1.0725372   -2.6259505   -2.6259505   -1.0171488  0.098934705   -2.6259505    1.6088017   396900 
 1199000    1.0730307   -2.6248382   -2.6248382   -1.0152961  0.092980314   -2.6248382     1.609542   396900 
 1200000    1.0716719   -2.6213225   -2.6213225   -1.0138186   0.09961093   -2.6213225    1.6075039   396900 
 1201000    1.0729588   -2.6218391   -2.6218391   -1.0124049  0.096978263   -2.6218391    1.6094342   396900 
 1202000    1.0708597   -2.6220314   -2.6220314   -1.0157459  0.094872812   -2.6220314    1.6062856   396900 
 1203000    1.0705398   -2.6237381   -2.6237381   -1.0179325  0.093173602   -2.6237381    1.6058056   396900 
 1204000    1.0691613   -2.6239272   -2.6239272   -1.0201893  0.094517122   -2.6239272     1.603738   396900 
 1205000    1.0693082   -2.6225802   -2.6225802    -1.018622  0.099050915   -2.6225802    1.6039582   396900 
 1206000    1.0710861   -2.6234599   -2.6234599   -1.0168349   0.10087079   -2.6234599    1.6066251   396900 
 1207000    1.0729846   -2.6261499   -2.6261499   -1.0166771  0.099314544   -2.6261499    1.6094729   396900 
 1208000    1.0744433    -2.623366    -2.623366    -1.011705  0.099191312    -2.623366     1.611661   396900 
 1209000    1.0745948   -2.6225026   -2.6225026   -1.0106145  0.099934793   -2.6225026    1.6118881   396900 
 1210000    1.0749951   -2.6214642   -2.6214642   -1.0089757   0.10172693   -2.6214642    1.6124885   396900 
 1211000    1.0733069   -2.6187838   -2.6187838   -1.0088275  0.096143287   -2.6187838    1.6099563   396900 
 1212000    1.0733313   -2.6199517   -2.6199517   -1.0099589  0.096808023   -2.6199517    1.6099928   396900 
 1213000    1.0745063   -2.6190264   -2.6190264    -1.007271  0.093854178   -2.6190264    1.6117555   396900 
 1214000    1.0744091   -2.6206519   -2.6206519   -1.0090423  0.097857689   -2.6206519    1.6116096   396900 
 1215000     1.072031   -2.6171124   -2.6171124   -1.0090699  0.097018122   -2.6171124    1.6080425   396900 
 1216000    1.0730833   -2.6173562   -2.6173562   -1.0077353  0.098346698   -2.6173562    1.6096209   396900 
 1217000    1.0741719   -2.6181185   -2.6181185   -1.0068647  0.098036176   -2.6181185    1.6112538   396900 
 1218000    1.0710093   -2.6132166   -2.6132166   -1.0067067  0.098096918   -2.6132166      1.60651   396900 
 1219000    1.0735589   -2.6179123   -2.6179123    -1.007578  0.096370336   -2.6179123    1.6103343   396900 
 1220000    1.0715378   -2.6126645   -2.6126645   -1.0053619   0.10015064   -2.6126645    1.6073026   396900 
 1221000    1.0718436   -2.6135546   -2.6135546   -1.0057932  0.097702589   -2.6135546    1.6077614   396900 
 1222000    1.0734911    -2.614431    -2.614431   -1.0041984  0.098609274    -2.614431    1.6102326   396900 
 1223000    1.0732628   -2.6144693   -2.6144693   -1.0045792  0.099289783   -2.6144693    1.6098901   396900 
 1224000    1.0717666    -2.610979    -2.610979   -1.0033331   0.10230431    -2.610979    1.6076459   396900 
 1225000    1.0711819   -2.6124267   -2.6124267   -1.0056578  0.095671422   -2.6124267    1.6067688   396900 
 1226000     1.073907   -2.6107839   -2.6107839  -0.99992748    0.1018742   -2.6107839    1.6108564   396900 
 1227000    1.0767687   -2.6125208   -2.6125208  -0.99737177    0.1002695   -2.6125208     1.615149   396900 
 1228000    1.0738217   -2.6093855   -2.6093855  -0.99865695  0.097713213   -2.6093855    1.6107286   396900 
 1229000    1.0731361   -2.6104852   -2.6104852   -1.0007851   0.09975977   -2.6104852    1.6097001   396900 
 1230000    1.0731333   -2.6087427   -2.6087427  -0.99904685  0.093508264   -2.6087427    1.6096959   396900 
 1231000    1.0713041   -2.6060556   -2.6060556  -0.99910355   0.10260352   -2.6060556     1.606952   396900 
 1232000     1.073258   -2.6113644   -2.6113644   -1.0014815  0.096549387   -2.6113644    1.6098829   396900 
 1233000    1.0713086   -2.6081684   -2.6081684   -1.0012095  0.099669461   -2.6081684    1.6069589   396900 
 1234000    1.0732681   -2.6090628   -2.6090628  -0.99916465  0.097349619   -2.6090628    1.6098981   396900 
 1235000    1.0740626   -2.6084049   -2.6084049  -0.99731502   0.10318509   -2.6084049    1.6110899   396900 
 1236000    1.0729259    -2.608885    -2.608885  -0.99950019    0.0991766    -2.608885    1.6093848   396900 
 1237000    1.0754082    -2.611703    -2.611703  -0.99859486  0.097867416    -2.611703    1.6131082   396900 
 1238000    1.0749004   -2.6074155   -2.6074155  -0.99506898  0.098470866   -2.6074155    1.6123465   396900 
 1239000     1.073993   -2.6084519   -2.6084519  -0.99746652  0.098632149   -2.6084519    1.6109854   396900 
 1240000    1.0719948   -2.6059401   -2.6059401  -0.99795197  0.094811758   -2.6059401    1.6079881   396900 
 1241000    1.0732206   -2.6086603   -2.6086603   -0.9988335   0.10076295   -2.6086603    1.6098268   396900 
 1242000    1.0749162   -2.6108927   -2.6108927  -0.99852244   0.10085925   -2.6108927    1.6123702   396900 
 1243000    1.0736234   -2.6112088   -2.6112088   -1.0007778  0.099407143   -2.6112088     1.610431   396900 
 1244000    1.0731107   -2.6073448   -2.6073448  -0.99768279  0.096340533   -2.6073448     1.609662   396900 
 1245000    1.0743041   -2.6077205   -2.6077205  -0.99626839  0.096832771   -2.6077205    1.6114521   396900 
 1246000    1.0743848   -2.6084434   -2.6084434  -0.99687032  0.095913552   -2.6084434    1.6115731   396900 
 1247000    1.0767775   -2.6097845   -2.6097845  -0.99462231  0.096208203   -2.6097845    1.6151621   396900 
 1248000    1.0734102   -2.6063567   -2.6063567  -0.99624548  0.096550605   -2.6063567    1.6101112   396900 
 1249000    1.0745202   -2.6083832   -2.6083832  -0.99660691  0.095592925   -2.6083832    1.6117763   396900 
 1250000    1.0720905    -2.607333    -2.607333  -0.99920125  0.096634023    -2.607333    1.6081317   396900 
 1251000     1.073636    -2.607103    -2.607103   -0.9966531  0.096278749    -2.607103    1.6104499   396900 
 1252000    1.0752914   -2.6061404   -2.6061404  -0.99320736  0.097095512   -2.6061404    1.6129331   396900 
 1253000    1.0741693   -2.6043093   -2.6043093  -0.99305938   0.10025252   -2.6043093    1.6112499   396900 
 1254000    1.0740443   -2.6038454   -2.6038454  -0.99278302   0.10244641   -2.6038454    1.6110624   396900 
 1255000    1.0768165   -2.6055335   -2.6055335  -0.99031291   0.09725348   -2.6055335    1.6152206   396900 
 1256000    1.0777966   -2.6072831   -2.6072831  -0.99059224  0.098279131   -2.6072831    1.6166909   396900 
 1257000    1.0751195   -2.6045636   -2.6045636  -0.99188845  0.097658716   -2.6045636    1.6126751   396900 
 1258000    1.0743379   -2.6041885   -2.6041885  -0.99268577  0.092075414   -2.6041885    1.6115028   396900 
 1259000    1.0755134   -2.6032018   -2.6032018   -0.9899358  0.099311501   -2.6032018     1.613266   396900 
 1260000    1.0767373   -2.6045307   -2.6045307  -0.98942879  0.095387733   -2.6045307    1.6151019   396900 
 1261000    1.0747015   -2.6014747   -2.6014747  -0.98942651   0.09896577   -2.6014747    1.6120481   396900 
 1262000    1.0756093   -2.6031287   -2.6031287  -0.98971888   0.10207928   -2.6031287    1.6134098   396900 
 1263000    1.0728618   -2.5986136   -2.5986136  -0.98932487   0.10498348   -2.5986136    1.6092887   396900 
 1264000    1.0761385   -2.6022845   -2.6022845  -0.98808089  0.095501821   -2.6022845    1.6142036   396900 
 1265000    1.0748607   -2.6012566   -2.6012566  -0.98896965  0.099629908   -2.6012566     1.612287   396900 
 1266000    1.0756968    -2.600452    -2.600452  -0.98691088  0.099219823    -2.600452    1.6135411   396900 
 1267000    1.0757224   -2.5982013   -2.5982013  -0.98462171   0.10408795   -2.5982013    1.6135796   396900 
 1268000    1.0763938   -2.5997239   -2.5997239  -0.98513722  0.098112179   -2.5997239    1.6145866   396900 
 1269000    1.0767526   -2.6004283   -2.6004283  -0.98530352  0.099274564   -2.6004283    1.6151248   396900 
 1270000    1.0769371   -2.5986647   -2.5986647  -0.98326305   0.10229991   -2.5986647    1.6154016   396900 
 1271000    1.0764434   -2.5980005   -2.5980005  -0.98333946  0.097599608   -2.5980005    1.6146611   396900 
 1272000    1.0748218   -2.5954333   -2.5954333  -0.98320472   0.10125006   -2.5954333    1.6122286   396900 
 1273000    1.0750663   -2.5941948   -2.5941948  -0.98159943  0.099984025   -2.5941948    1.6125954   396900 
 1274000    1.0745737   -2.5947112   -2.5947112  -0.98285471    0.1017903   -2.5947112    1.6118565   396900 
 1275000    1.0771646   -2.5957195   -2.5957195  -0.97997669   0.10292374   -2.5957195    1.6157428   396900 
 1276000     1.075181   -2.5952603   -2.5952603  -0.98249281   0.09865884   -2.5952603    1.6127675   396900 
 1277000    1.0771383   -2.5977551   -2.5977551  -0.98205173  0.097717233   -2.5977551    1.6157033   396900 
 1278000    1.0741702    -2.592808    -2.592808  -0.98155673  0.098812117    -2.592808    1.6112513   396900 
 1279000    1.0776434   -2.5947423   -2.5947423   -0.9782812  0.097753354   -2.5947423    1.6164611   396900 
 1280000    1.0756344   -2.5896862   -2.5896862  -0.97623875   0.10277822   -2.5896862    1.6134475   396900 
 1281000    1.0760309   -2.5920696   -2.5920696  -0.97802735   0.10247981   -2.5920696    1.6140423   396900 
 1282000    1.0751164   -2.5903687   -2.5903687  -0.97769806   0.09865916   -2.5903687    1.6126706   396900 
 1283000    1.0779183   -2.5900554   -2.5900554  -0.97318202   0.09981411   -2.5900554    1.6168734   396900 
 1284000    1.0774961   -2.5885666   -2.5885666  -0.97232647   0.10021971   -2.5885666    1.6162401   396900 
 1285000     1.078452   -2.5899639   -2.5899639  -0.97229002   0.10575712   -2.5899639    1.6176739   396900 
 1286000     1.078659   -2.5922127   -2.5922127  -0.97422827  0.094729336   -2.5922127    1.6179844   396900 
 1287000    1.0787363   -2.5911352   -2.5911352  -0.97303486  0.099138426   -2.5911352    1.6181003   396900 
 1288000     1.077144   -2.5883724   -2.5883724  -0.97266045   0.10268293   -2.5883724     1.615712   396900 
 1289000    1.0755936   -2.5867352   -2.5867352  -0.97334892   0.10728563   -2.5867352    1.6133863   396900 
 1290000    1.0789105   -2.5933003   -2.5933003  -0.97493872  0.098901586   -2.5933003    1.6183616   396900 
 1291000    1.0761832   -2.5883765   -2.5883765  -0.97410575  0.097836634   -2.5883765    1.6142707   396900 
 1292000     1.076459   -2.5878383   -2.5878383  -0.97315396  0.099959604   -2.5878383    1.6146844   396900 
 1293000    1.0793639   -2.5896604   -2.5896604  -0.97061869  0.097027274   -2.5896604    1.6190417   396900 
 1294000    1.0786113   -2.5895947   -2.5895947  -0.97168173   0.10015427   -2.5895947    1.6179129   396900 
 1295000    1.0778183   -2.5879675   -2.5879675  -0.97124412  0.098665524   -2.5879675    1.6167234   396900 
 1296000     1.079848    -2.588024    -2.588024  -0.96825611   0.10306713    -2.588024    1.6197679   396900 
 1297000    1.0797246   -2.5893391   -2.5893391  -0.96975632  0.098496397   -2.5893391    1.6195828   396900 
 1298000    1.0770254   -2.5831301   -2.5831301   -0.9675961   0.10111644   -2.5831301     1.615534   396900 
 1299000    1.0775741   -2.5845878   -2.5845878  -0.96823073  0.099463854   -2.5845878    1.6163571   396900 
 1300000    1.0776916   -2.5841532   -2.5841532  -0.96761986  0.095174411   -2.5841532    1.6165333   396900 
 1301000    1.0758336   -2.5820926   -2.5820926  -0.96834632  0.099319884   -2.5820926    1.6137463   396900 
 1302000    1.0798512   -2.5879705   -2.5879705  -0.96819783   0.10235103   -2.5879705    1.6197727   396900 
 1303000    1.0787309   -2.5867225   -2.5867225  -0.96863026  0.099658609   -2.5867225    1.6180923   396900 
 1304000    1.0781602   -2.5861505   -2.5861505  -0.96891426   0.10074559   -2.5861505    1.6172362   396900 
 1305000    1.0783515   -2.5855886   -2.5855886  -0.96806546   0.10062719   -2.5855886    1.6175232   396900 
 1306000    1.0786426   -2.5844985   -2.5844985  -0.96653864  0.099413611   -2.5844985    1.6179598   396900 
 1307000    1.0802372   -2.5844994   -2.5844994  -0.96414771   0.10151715   -2.5844994    1.6203517   396900 
 1308000    1.0797138   -2.5851085   -2.5851085  -0.96554186   0.10168564   -2.5851085    1.6195666   396900 
 1309000    1.0791461    -2.586623    -2.586623  -0.96790802   0.09571799    -2.586623     1.618715   396900 
 1310000    1.0803097   -2.5852456   -2.5852456   -0.9647851  0.094038557   -2.5852456    1.6204605   396900 
 1311000    1.0786956   -2.5833881   -2.5833881  -0.96534873   0.10100667   -2.5833881    1.6180394   396900 
 1312000    1.0782122   -2.5828008   -2.5828008  -0.96548658   0.10439991   -2.5828008    1.6173142   396900 
 1313000    1.0789105   -2.5841658   -2.5841658  -0.96580418  0.097972828   -2.5841658    1.6183616   396900 
 1314000    1.0786224   -2.5846377   -2.5846377  -0.96670814   0.09918759   -2.5846377    1.6179296   396900 
 1315000    1.0778783   -2.5828652   -2.5828652  -0.96605179  0.098296439   -2.5828652    1.6168134   396900 
 1316000    1.0781218   -2.5809774   -2.5809774  -0.96379875     0.100461   -2.5809774    1.6171787   396900 
 1317000    1.0782302   -2.5787952   -2.5787952  -0.96145399   0.10401456   -2.5787952    1.6173412   396900 
 1318000    1.0794634   -2.5791974   -2.5791974  -0.96000627   0.10480485   -2.5791974    1.6191911   396900 
 1319000    1.0810303    -2.579643    -2.579643  -0.95810176   0.10361283    -2.579643    1.6215413   396900 
 1320000    1.0822548   -2.5810441   -2.5810441  -0.95766604   0.10204087   -2.5810441     1.623378   396900 
 1321000     1.080985   -2.5780379   -2.5780379  -0.95656456   0.10117465   -2.5780379    1.6214733   396900 
 1322000    1.0806347   -2.5788863   -2.5788863   -0.9579384   0.10050269   -2.5788863    1.6209479   396900 
 1323000    1.0771796   -2.5725372   -2.5725372  -0.95677192   0.10134452   -2.5725372    1.6157653   396900 
 1324000    1.0769501   -2.5725427   -2.5725427  -0.95712169   0.10023395   -2.5725427     1.615421   396900 
 1325000    1.0783129   -2.5756093   -2.5756093  -0.95814407   0.10431695   -2.5756093    1.6174652   396900 
 1326000    1.0791681   -2.5760783   -2.5760783  -0.95733028   0.10509433   -2.5760783     1.618748   396900 
 1327000    1.0787687   -2.5744542   -2.5744542  -0.95630523   0.10680771   -2.5744542    1.6181489   396900 
 1328000    1.0807104   -2.5754356   -2.5754356   -0.9543742    0.1007717   -2.5754356    1.6210614   396900 
 1329000    1.0806724   -2.5756393   -2.5756393  -0.95463485   0.10037722   -2.5756393    1.6210045   396900 
 1330000    1.0808492   -2.5739596   -2.5739596  -0.95268988   0.10412846   -2.5739596    1.6212697   396900 
 1331000    1.0811652   -2.5729691   -2.5729691   -0.9512254   0.10401799   -2.5729691    1.6217437   396900 
 1332000    1.0794462   -2.5700357   -2.5700357  -0.95087042    0.1067213   -2.5700357    1.6191652   396900 
 1333000     1.080928   -2.5736216   -2.5736216  -0.95223378    0.1047502   -2.5736216    1.6213879   396900 
 1334000    1.0816029   -2.5713875   -2.5713875  -0.94898731   0.10770122   -2.5713875    1.6224002   396900 
 1335000    1.0816926   -2.5722256   -2.5722256  -0.94969078   0.10548593   -2.5722256    1.6225348   396900 
 1336000    1.0794174   -2.5706429   -2.5706429  -0.95152078   0.10278212   -2.5706429    1.6191221   396900 
 1337000    1.0809292   -2.5706058   -2.5706058  -0.94921615   0.10185366   -2.5706058    1.6213896   396900 
 1338000    1.0810368   -2.5711599   -2.5711599  -0.94960871   0.10510468   -2.5711599    1.6215512   396900 
 1339000    1.0816587   -2.5710123   -2.5710123  -0.94852833   0.10214909   -2.5710123     1.622484   396900 
 1340000    1.0818205   -2.5724587   -2.5724587    -0.949732   0.10524404   -2.5724587    1.6227267   396900 
 1341000    1.0818374    -2.568447    -2.568447  -0.94569503  0.098362514    -2.568447     1.622752   396900 
 1342000    1.0816053   -2.5692702   -2.5692702  -0.94686642   0.10181559   -2.5692702    1.6224038   396900 
 1343000    1.0825556   -2.5689809   -2.5689809  -0.94515171   0.10372868   -2.5689809    1.6238292   396900 
 1344000    1.0816492    -2.568493    -2.568493  -0.94602331   0.10053459    -2.568493    1.6224697   396900 
 1345000    1.0816292   -2.5667668   -2.5667668  -0.94432715   0.10464637   -2.5667668    1.6224396   396900 
 1346000    1.0813888   -2.5671863   -2.5671863  -0.94510725   0.10564188   -2.5671863    1.6220791   396900 
 1347000     1.081405   -2.5653526   -2.5653526  -0.94324913   0.10319082   -2.5653526    1.6221035   396900 
 1348000    1.0805376   -2.5636479   -2.5636479  -0.94284555  0.099055595   -2.5636479    1.6208023   396900 
 1349000    1.0824438   -2.5656105   -2.5656105  -0.94194883   0.10023332   -2.5656105    1.6236616   396900 
 1350000    1.0839043   -2.5659222   -2.5659222  -0.94006988   0.10715496   -2.5659222    1.6258523   396900 
 1351000    1.0844338   -2.5649211   -2.5649211  -0.93827445   0.10607649   -2.5649211    1.6266466   396900 
 1352000    1.0825564   -2.5609415   -2.5609415  -0.93711089   0.10617427   -2.5609415    1.6238306   396900 
 1353000    1.0838329   -2.5613663   -2.5613663  -0.93562099   0.10159012   -2.5613663    1.6257453   396900 
 1354000    1.0842679   -2.5606381   -2.5606381  -0.93424035    0.1073965   -2.5606381    1.6263977   396900 
 1355000    1.0841319   -2.5596735   -2.5596735  -0.93347971   0.10346322   -2.5596735    1.6261938   396900 
 1356000    1.0849859   -2.5611804   -2.5611804  -0.93370573    0.1021284   -2.5611804    1.6274747   396900 
 1357000    1.0839972   -2.5611101   -2.5611101  -0.93511836   0.10448982   -2.5611101    1.6259917   396900 
 1358000    1.0837683   -2.5617373   -2.5617373  -0.93608891   0.10187246   -2.5617373    1.6256484   396900 
 1359000    1.0812044   -2.5589989   -2.5589989  -0.93719631  0.098618642   -2.5589989    1.6218025   396900 
 1360000    1.0801226   -2.5583091   -2.5583091  -0.93812929   0.10162835   -2.5583091    1.6201798   396900 
 1361000    1.0823614   -2.5586049   -2.5586049  -0.93506686  0.099571766   -2.5586049     1.623538   396900 
 1362000    1.0817021   -2.5557197   -2.5557197  -0.93317071   0.10756341   -2.5557197     1.622549   396900 
 1363000    1.0849799   -2.5587194   -2.5587194  -0.93125369    0.1042369   -2.5587194    1.6274657   396900 
 1364000    1.0825302   -2.5564859   -2.5564859  -0.93269473   0.10657796   -2.5564859    1.6237912   396900 
 1365000    1.0822052     -2.55598     -2.55598  -0.93267634   0.10365177     -2.55598    1.6233037   396900 
 1366000    1.0830713   -2.5574603   -2.5574603  -0.93285744    0.1048007   -2.5574603    1.6246029   396900 
 1367000    1.0820017   -2.5582493   -2.5582493  -0.93525088   0.10474353   -2.5582493    1.6229984   396900 
 1368000     1.081035   -2.5544439   -2.5544439  -0.93289545   0.10162003   -2.5544439    1.6215485   396900 
 1369000    1.0835177   -2.5576019   -2.5576019  -0.93232944   0.10108154   -2.5576019    1.6252725   396900 
 1370000    1.0846093    -2.559032    -2.559032  -0.93212218   0.10740551    -2.559032    1.6269098   396900 
 1371000    1.0847204   -2.5591183   -2.5591183  -0.93204182   0.10349551   -2.5591183    1.6270765   396900 
 1372000    1.0839042   -2.5613659   -2.5613659  -0.93551372   0.10232741   -2.5613659    1.6258522   396900 
 1373000    1.0841021   -2.5589603   -2.5589603  -0.93281127   0.10945118   -2.5589603     1.626149   396900 
 1374000    1.0830897   -2.5561314   -2.5561314  -0.93150099    0.1076461   -2.5561314    1.6246304   396900 
 1375000    1.0835665   -2.5578985   -2.5578985  -0.93255274   0.10004673   -2.5578985    1.6253457   396900 
 1376000    1.0827111   -2.5564235   -2.5564235  -0.93236091   0.10402594   -2.5564235    1.6240626   396900 
 1377000    1.0844123   -2.5557585   -2.5557585  -0.92914414    0.1060364   -2.5557585    1.6266144   396900 
 1378000    1.0840835   -2.5557507   -2.5557507  -0.92962944   0.10174047   -2.5557507    1.6261212   396900 
 1379000    1.0824606   -2.5535155   -2.5535155  -0.92982872   0.10671711   -2.5535155    1.6236868   396900 
 1380000     1.082287   -2.5538033   -2.5538033  -0.93037696   0.10394205   -2.5538033    1.6234263   396900 
 1381000      1.08299   -2.5550295   -2.5550295  -0.93054858    0.1015499   -2.5550295    1.6244809   396900 
 1382000    1.0848627   -2.5558042   -2.5558042  -0.92851415    0.1032537   -2.5558042      1.62729   396900 
 1383000    1.0853299   -2.5542822   -2.5542822  -0.92629147   0.10610292   -2.5542822    1.6279907   396900 
 1384000    1.0867529   -2.5542802   -2.5542802  -0.92415497   0.10915191   -2.5542802    1.6301253   396900 
 1385000    1.0855292   -2.5512205   -2.5512205  -0.92293069   0.10958759   -2.5512205    1.6282898   396900 
 1386000    1.0850307    -2.551674    -2.551674  -0.92413214   0.10578428    -2.551674    1.6275419   396900 
 1387000    1.0847582   -2.5506632   -2.5506632  -0.92353004   0.10235202   -2.5506632    1.6271332   396900 
 1388000    1.0849526    -2.550187    -2.550187  -0.92276217  0.099969136    -2.550187    1.6274248   396900 
 1389000    1.0859257   -2.5502726   -2.5502726  -0.92138809   0.10018236   -2.5502726    1.6288845   396900 
 1390000    1.0850934   -2.5503787   -2.5503787  -0.92274273   0.10649102   -2.5503787     1.627636   396900 
 1391000    1.0855981   -2.5520967   -2.5520967  -0.92370357   0.10737108   -2.5520967    1.6283931   396900 
 1392000    1.0838384   -2.5504278   -2.5504278  -0.92467423   0.10674863   -2.5504278    1.6257536   396900 
 1393000    1.0837748   -2.5494241   -2.5494241  -0.92376599   0.10284803   -2.5494241    1.6256581   396900 
 1394000    1.0852959   -2.5515911   -2.5515911  -0.92365132   0.10355148   -2.5515911    1.6279398   396900 
 1395000    1.0853378   -2.5513236   -2.5513236  -0.92332104   0.10436877   -2.5513236    1.6280026   396900 
 1396000    1.0836521   -2.5491856   -2.5491856   -0.9237116   0.10449784   -2.5491856     1.625474   396900 
 1397000    1.0869468   -2.5506131   -2.5506131  -0.92019704   0.10655692   -2.5506131    1.6304161   396900 
 1398000    1.0857645   -2.5474847   -2.5474847  -0.91884199   0.10738509   -2.5474847    1.6286427   396900 
 1399000    1.0878547   -2.5478499   -2.5478499  -0.91607191   0.10564768   -2.5478499     1.631778   396900 
 1400000     1.084891   -2.5455042   -2.5455042   -0.9181718   0.10502396   -2.5455042    1.6273324   396900 
 1401000     1.086381   -2.5475487   -2.5475487  -0.91798134   0.10703647   -2.5475487    1.6295674   396900 
 1402000    1.0841336   -2.5447225   -2.5447225  -0.91852619   0.10475419   -2.5447225    1.6261963   396900 
 1403000    1.0834466    -2.544708    -2.544708  -0.91954225   0.10285885    -2.544708    1.6251658   396900 
 1404000    1.0853027   -2.5462114   -2.5462114  -0.91826144    0.1040054   -2.5462114    1.6279499   396900 
 1405000    1.0841425   -2.5448909   -2.5448909  -0.91868123   0.10699382   -2.5448909    1.6262097   396900 
 1406000    1.0849912   -2.5442528   -2.5442528  -0.91677006   0.10901964   -2.5442528    1.6274828   396900 
 1407000    1.0887445    -2.546226    -2.546226  -0.91311328    0.1040892    -2.546226    1.6331127   396900 
 1408000    1.0867393   -2.5426183   -2.5426183  -0.91251349   0.10891265   -2.5426183    1.6301048   396900 
 1409000    1.0873381    -2.543473    -2.543473  -0.91246989   0.11018402    -2.543473    1.6310031   396900 
 1410000    1.0866578   -2.5429384   -2.5429384  -0.91295579    0.1061852   -2.5429384    1.6299826   396900 
 1411000    1.0844033   -2.5391582   -2.5391582  -0.91255742   0.10790401   -2.5391582    1.6266008   396900 
 1412000    1.0839707   -2.5390925   -2.5390925  -0.91314062   0.10549759   -2.5390925    1.6259519   396900 
 1413000    1.0861385   -2.5413051   -2.5413051  -0.91210142   0.10698814   -2.5413051    1.6292037   396900 
 1414000    1.0860372   -2.5423627   -2.5423627  -0.91331096   0.10635474   -2.5423627    1.6290517   396900 
 1415000    1.0872585   -2.5410798   -2.5410798  -0.91019612   0.10632362   -2.5410798    1.6308836   396900 
 1416000    1.0872375   -2.5395875   -2.5395875   -0.9087354   0.10747437   -2.5395875    1.6308521   396900 
 1417000    1.0864581   -2.5395374   -2.5395374  -0.90985424   0.10439777   -2.5395374    1.6296831   396900 
 1418000    1.0860322   -2.5384387   -2.5384387  -0.90939453   0.10994556   -2.5384387    1.6290441   396900 
 1419000    1.0888323   -2.5408313   -2.5408313  -0.90758704   0.10699432   -2.5408313    1.6332443   396900 
 1420000    1.0853074   -2.5382919   -2.5382919  -0.91033497  0.099506252   -2.5382919    1.6279569   396900 
 1421000    1.0852597   -2.5387376   -2.5387376  -0.91085217    0.1076037   -2.5387376    1.6278855   396900 
 1422000    1.0862033   -2.5405987   -2.5405987  -0.91129778   0.10640552   -2.5405987    1.6293009   396900 
 1423000     1.086095   -2.5410424   -2.5410424  -0.91190405   0.10701274   -2.5410424    1.6291384   396900 
 1424000    1.0859345   -2.5400539   -2.5400539  -0.91115634    0.1088392   -2.5400539    1.6288976   396900 
 1425000    1.0871917   -2.5389055   -2.5389055  -0.90812203   0.10420486   -2.5389055    1.6307834   396900 
 1426000    1.0874977   -2.5409959   -2.5409959  -0.90975349   0.10273425   -2.5409959    1.6312424   396900 
 1427000    1.0858609   -2.5360447   -2.5360447  -0.90725738   0.10418059   -2.5360447    1.6287873   396900 
 1428000    1.0881054   -2.5382838   -2.5382838  -0.90612984   0.10185625   -2.5382838     1.632154   396900 
 1429000    1.0861893   -2.5367705   -2.5367705  -0.90749069   0.10922141   -2.5367705    1.6292798   396900 
 1430000    1.0879413   -2.5371561   -2.5371561  -0.90524819   0.10753298   -2.5371561    1.6319079   396900 
 1431000    1.0862069   -2.5339864   -2.5339864  -0.90468015   0.10735738   -2.5339864    1.6293062   396900 
 1432000    1.0864659   -2.5344867   -2.5344867  -0.90479186   0.10840512   -2.5344867    1.6296948   396900 
 1433000    1.0886728   -2.5359501   -2.5359501  -0.90294498   0.10471413   -2.5359501    1.6330051   396900 
 1434000    1.0867088    -2.533854    -2.533854  -0.90379492   0.10787289    -2.533854    1.6300591   396900 
 1435000    1.0855447   -2.5328074   -2.5328074  -0.90449443   0.11114707   -2.5328074     1.628313   396900 
 1436000    1.0883764   -2.5337137   -2.5337137  -0.90115317   0.10644692   -2.5337137    1.6325606   396900 
 1437000    1.0877897   -2.5320789   -2.5320789  -0.90039849   0.10912945   -2.5320789    1.6316805   396900 
 1438000    1.0856348   -2.5321989   -2.5321989   -0.9037508   0.10514201   -2.5321989    1.6284481   396900 
 1439000    1.0869394   -2.5338232   -2.5338232   -0.9034182   0.11017786   -2.5338232     1.630405   396900 
 1440000    1.0879257   -2.5356328   -2.5356328  -0.90374828   0.10669625   -2.5356328    1.6318845   396900 
 1441000     1.086555   -2.5310003   -2.5310003  -0.90117182   0.10286062   -2.5310003    1.6298284   396900 
 1442000    1.0880908   -2.5294716   -2.5294716  -0.89733963   0.11000705   -2.5294716     1.632132   396900 
 1443000    1.0890109    -2.528609    -2.528609  -0.89509668   0.11090089    -2.528609    1.6335123   396900 
 1444000    1.0864094   -2.5265142   -2.5265142  -0.89690415   0.10775605   -2.5265142    1.6296101   396900 
 1445000    1.0873767   -2.5288746   -2.5288746  -0.89781373   0.10707341   -2.5288746    1.6310609   396900 
 1446000    1.0896423   -2.5323546   -2.5323546  -0.89789529   0.10558925   -2.5323546    1.6344593   396900 
 1447000    1.0887899   -2.5304765   -2.5304765  -0.89729572   0.10235528   -2.5304765    1.6331808   396900 
 1448000    1.0884184   -2.5286674   -2.5286674  -0.89604395   0.10816526   -2.5286674    1.6326235   396900 
 1449000    1.0879669   -2.5293901   -2.5293901  -0.89744383   0.10360347   -2.5293901    1.6319463   396900 
 1450000    1.0871544   -2.5263162   -2.5263162   -0.8955887   0.10981958   -2.5263162    1.6307275   396900 
 1451000    1.0888376   -2.5278019   -2.5278019  -0.89454971   0.10918664   -2.5278019    1.6332522   396900 
 1452000    1.0871369   -2.5258757   -2.5258757  -0.89517451   0.10829278   -2.5258757    1.6307012   396900 
 1453000    1.0865629   -2.5262946   -2.5262946  -0.89645434   0.10506841   -2.5262946    1.6298403   396900 
 1454000    1.0872276   -2.5260509   -2.5260509  -0.89521352   0.10457252   -2.5260509    1.6308374   396900 
 1455000    1.0897698   -2.5282049   -2.5282049  -0.89355428   0.10665016   -2.5282049    1.6346506   396900 
 1456000    1.0871216   -2.5251447   -2.5251447  -0.89446643   0.10544712   -2.5251447    1.6306783   396900 
 1457000    1.0867533   -2.5237906   -2.5237906  -0.89366473   0.10378216   -2.5237906    1.6301259   396900 
 1458000    1.0894163   -2.5280794   -2.5280794  -0.89395903   0.10887268   -2.5280794    1.6341203   396900 
 1459000    1.0885045   -2.5254001   -2.5254001  -0.89264744   0.10537625   -2.5254001    1.6327526   396900 
 1460000    1.0884957   -2.5237125   -2.5237125  -0.89097299   0.10919533   -2.5237125    1.6327395   396900 
 1461000    1.0893474   -2.5242357   -2.5242357  -0.89021878   0.10594708   -2.5242357    1.6340169   396900 
 1462000    1.0899416    -2.523636    -2.523636  -0.88872779   0.10877052    -2.523636    1.6349082   396900 
 1463000    1.0894289   -2.5216694   -2.5216694  -0.88753017   0.10931041   -2.5216694    1.6341392   396900 
 1464000    1.0879012    -2.522171    -2.522171  -0.89032337   0.10798638    -2.522171    1.6318476   396900 
 1465000    1.0888902   -2.5237289   -2.5237289  -0.89039774   0.10630751   -2.5237289    1.6333311   396900 
 1466000    1.0883331   -2.5204014   -2.5204014   -0.8879059   0.10831421   -2.5204014    1.6324955   396900 
 1467000    1.0925149   -2.5256816   -2.5256816  -0.88691331   0.10538656   -2.5256816    1.6387683   396900 
 1468000     1.088669   -2.5181976   -2.5181976  -0.88519812   0.11267302   -2.5181976    1.6329995   396900 
 1469000     1.091411   -2.5219695   -2.5219695  -0.88485713   0.11042302   -2.5219695    1.6371124   396900 
 1470000    1.0915915    -2.521699    -2.521699  -0.88431597   0.10656292    -2.521699    1.6373831   396900 
 1471000    1.0907782    -2.520789    -2.520789  -0.88462578   0.11167152    -2.520789    1.6361632   396900 
 1472000    1.0909624   -2.5194125   -2.5194125    -0.882973   0.11156977   -2.5194125    1.6364395   396900 
 1473000    1.0911792   -2.5192598   -2.5192598  -0.88249512   0.10847659   -2.5192598    1.6367647   396900 
 1474000     1.091417   -2.5203716   -2.5203716  -0.88325017   0.10041105   -2.5203716    1.6371214   396900 
 1475000    1.0898884    -2.519165    -2.519165  -0.88433654   0.11079218    -2.519165    1.6348285   396900 
 1476000    1.0913962   -2.5212839   -2.5212839  -0.88419371   0.10071974   -2.5212839    1.6370901   396900 
 1477000    1.0913494   -2.5220735   -2.5220735  -0.88505349   0.10235137   -2.5220735      1.63702   396900 
 1478000    1.0906948   -2.5216702   -2.5216702  -0.88563213   0.10903534   -2.5216702     1.636038   396900 
 1479000    1.0900821   -2.5201931   -2.5201931  -0.88507405   0.10707502   -2.5201931    1.6351191   396900 
 1480000    1.0916407   -2.5194256   -2.5194256  -0.88196867   0.10785879   -2.5194256     1.637457   396900 
 1481000    1.0911301   -2.5175058   -2.5175058  -0.88081473   0.10348744   -2.5175058     1.636691   396900 
 1482000    1.0914187   -2.5181874   -2.5181874  -0.88106342   0.10682586   -2.5181874     1.637124   396900 
 1483000    1.0909893   -2.5174594   -2.5174594  -0.88097952   0.10838936   -2.5174594    1.6364799   396900 
 1484000    1.0935023   -2.5206638   -2.5206638  -0.88041448   0.11042337   -2.5206638    1.6402494   396900 
 1485000     1.090697   -2.5157082   -2.5157082  -0.87966679    0.1129138   -2.5157082    1.6360414   396900 
 1486000    1.0916094   -2.5174325   -2.5174325  -0.88002256   0.10399564   -2.5174325    1.6374099   396900 
 1487000    1.0923279   -2.5170486   -2.5170486   -0.8785609   0.10855702   -2.5170486    1.6384877   396900 
 1488000    1.0933493   -2.5190747   -2.5190747  -0.87905491   0.10777496   -2.5190747    1.6400198   396900 
 1489000    1.0928244   -2.5196482   -2.5196482  -0.88041571   0.11024842   -2.5196482    1.6392325   396900 
 1490000    1.0907291   -2.5176164   -2.5176164  -0.88152682   0.10895478   -2.5176164    1.6360896   396900 
 1491000    1.0912119   -2.5152479   -2.5152479   -0.8784342   0.10952814   -2.5152479    1.6368137   396900 
 1492000    1.0915724   -2.5156815   -2.5156815  -0.87832704   0.11140626   -2.5156815    1.6373545   396900 
 1493000    1.0915167   -2.5133816   -2.5133816  -0.87611064   0.11181349   -2.5133816    1.6372709   396900 
 1494000    1.0919228   -2.5123836   -2.5123836  -0.87450358   0.11403528   -2.5123836    1.6378801   396900 
 1495000    1.0943099   -2.5159502   -2.5159502  -0.87448951   0.11058314   -2.5159502    1.6414607   396900 
 1496000    1.0936434   -2.5161418   -2.5161418  -0.87568075   0.11264243   -2.5161418     1.640461   396900 
 1497000    1.0944518   -2.5167033   -2.5167033   -0.8750298   0.10956952   -2.5167033    1.6416735   396900 
 1498000    1.0921587   -2.5148693   -2.5148693  -0.87663539   0.11220549   -2.5148693    1.6382339   396900 
 1499000    1.0916581   -2.5129102   -2.5129102  -0.87542713   0.11105482   -2.5129102    1.6374831   396900 
 1500000    1.0919779   -2.5126462   -2.5126462  -0.87468342   0.10959662   -2.5126462    1.6379628   396900 
 1501000    1.0905982   -2.5106198   -2.5106198  -0.87472659     0.110543   -2.5106198    1.6358932   396900 
 1502000     1.093007   -2.5137156   -2.5137156  -0.87420914   0.10588765   -2.5137156    1.6395064   396900 
 1503000    1.0941892   -2.5147543   -2.5147543  -0.87347466   0.10965602   -2.5147543    1.6412797   396900 
 1504000    1.0908924   -2.5132015   -2.5132015  -0.87686699   0.10519765   -2.5132015    1.6363345   396900 
 1505000    1.0935635   -2.5147965   -2.5147965  -0.87445545   0.10708962   -2.5147965    1.6403411   396900 
 1506000     1.092137   -2.5115911   -2.5115911  -0.87338963   0.10865247   -2.5115911    1.6382014   396900 
 1507000    1.0937426   -2.5112682   -2.5112682  -0.87065836    0.1128171   -2.5112682    1.6406098   396900 
 1508000    1.0935447   -2.5109904   -2.5109904  -0.87067741   0.11130044   -2.5109904    1.6403129   396900 
 1509000    1.0935762   -2.5106269   -2.5106269  -0.87026676   0.11314377   -2.5106269    1.6403601   396900 
 1510000    1.0949954   -2.5109726   -2.5109726  -0.86848371   0.10394423   -2.5109726    1.6424889   396900 
 1511000    1.0940957   -2.5102658   -2.5102658  -0.86912641   0.10767372   -2.5102658    1.6411394   396900 
 1512000    1.0958163   -2.5135063   -2.5135063  -0.86978598   0.10924334   -2.5135063    1.6437203   396900 
 1513000    1.0954652   -2.5126907   -2.5126907  -0.86949704   0.10879832   -2.5126907    1.6431937   396900 
 1514000    1.0922599   -2.5088879   -2.5088879  -0.87050221   0.11760664   -2.5088879    1.6383857   396900 
 1515000    1.0958481   -2.5140688   -2.5140688  -0.87030083    0.1112782   -2.5140688     1.643768   396900 
 1516000    1.0941237   -2.5118298   -2.5118298  -0.87064838   0.10817355   -2.5118298    1.6411814   396900 
 1517000    1.0929485   -2.5083649   -2.5083649  -0.86894625    0.1124399   -2.5083649    1.6394186   396900 
 1518000    1.0949732   -2.5084042   -2.5084042  -0.86594853   0.10602634   -2.5084042    1.6424557   396900 
 1519000    1.0949238   -2.5086901   -2.5086901   -0.8663085   0.11237392   -2.5086901    1.6423816   396900 
 1520000    1.0946892   -2.5079668   -2.5079668  -0.86593718   0.11219559   -2.5079668    1.6420296   396900 
 1521000    1.0941669    -2.506854    -2.506854  -0.86560783   0.11022549    -2.506854    1.6412461   396900 
 1522000    1.0931716   -2.5058288   -2.5058288  -0.86607553   0.11258776   -2.5058288    1.6397533   396900 
 1523000    1.0930747   -2.5056876   -2.5056876  -0.86607971    0.1105947   -2.5056876    1.6396079   396900 
 1524000    1.0943506   -2.5074378   -2.5074378  -0.86591603   0.11408041   -2.5074378    1.6415218   396900 
 1525000    1.0941673   -2.5098545   -2.5098545  -0.86860766   0.11121823   -2.5098545    1.6412468   396900 
 1526000    1.0954505   -2.5094845   -2.5094845  -0.86631294   0.10807339   -2.5094845    1.6431716   396900 
 1527000    1.0946676   -2.5059881   -2.5059881  -0.86399085   0.11343924   -2.5059881    1.6419972   396900 
 1528000    1.0947535   -2.5038744   -2.5038744   -0.8617483   0.11086845   -2.5038744    1.6421261   396900 
 1529000    1.0950579   -2.5036093   -2.5036093  -0.86102654    0.1137975   -2.5036093    1.6425827   396900 
 1530000    1.0963284   -2.5054413   -2.5054413   -0.8609528   0.10956712   -2.5054413    1.6444885   396900 
 1531000    1.0949382   -2.5027381   -2.5027381  -0.86033495   0.11445294   -2.5027381    1.6424032   396900 
 1532000    1.0939317   -2.5036193   -2.5036193  -0.86272595   0.11059412   -2.5036193    1.6408934   396900 
 1533000    1.0945542   -2.5052004   -2.5052004  -0.86337329   0.11089209   -2.5052004    1.6418272   396900 
 1534000    1.0934296   -2.5034355   -2.5034355  -0.86329528   0.10883467   -2.5034355    1.6401402   396900 
 1535000    1.0961088   -2.5049485   -2.5049485  -0.86078948   0.10738409   -2.5049485     1.644159   396900 
 1536000    1.0959373   -2.5048076   -2.5048076  -0.86090584   0.11201582   -2.5048076    1.6439018   396900 
 1537000    1.0926231   -2.5020459   -2.5020459  -0.86311532   0.11468915   -2.5020459    1.6389306   396900 
 1538000    1.0931516   -2.5021515   -2.5021515  -0.86242824   0.11254034   -2.5021515    1.6397232   396900 
 1539000    1.0932001   -2.5031967   -2.5031967   -0.8634007   0.11258563   -2.5031967     1.639796   396900 
 1540000    1.0956761   -2.5063344   -2.5063344  -0.86282438   0.10979348   -2.5063344      1.64351   396900 
 1541000    1.0959365   -2.5059195   -2.5059195  -0.86201887   0.10916687   -2.5059195    1.6439006   396900 
 1542000    1.0941423   -2.4999126   -2.4999126  -0.85870325   0.11289065   -2.4999126    1.6412094   396900 
 1543000    1.0950321   -2.5023311   -2.5023311  -0.85978714   0.11212334   -2.5023311     1.642544   396900 
 1544000    1.0956797   -2.5023256   -2.5023256  -0.85881017   0.11526178   -2.5023256    1.6435154   396900 
 1545000    1.0966634   -2.5033382   -2.5033382  -0.85834726    0.1124481   -2.5033382     1.644991   396900 
 1546000    1.0955068   -2.5026499   -2.5026499   -0.8593939   0.10603056   -2.5026499     1.643256   396900 
 1547000    1.0974677   -2.5026469   -2.5026469  -0.85644943    0.1091042   -2.5026469    1.6461974   396900 
 1548000    1.0960636   -2.4998487   -2.4998487  -0.85575746   0.10991819   -2.4998487    1.6440912   396900 
 1549000    1.0957395   -2.5000572   -2.5000572  -0.85645199   0.11266555   -2.5000572    1.6436052   396900 
 1550000     1.095791   -2.4999954   -2.4999954    -0.856313    0.1093969   -2.4999954    1.6436824   396900 
 1551000    1.0961736   -2.4996505   -2.4996505  -0.85539429   0.11082078   -2.4996505    1.6442562   396900 
 1552000    1.0959685   -2.4995567   -2.4995567  -0.85560817    0.1167864   -2.4995567    1.6439485   396900 
 1553000    1.0974043   -2.4985902   -2.4985902  -0.85248785   0.11088761   -2.4985902    1.6461023   396900 
 1554000    1.0963726   -2.4965735   -2.4965735  -0.85201872    0.1118018   -2.4965735    1.6445548   396900 
 1555000    1.0962339   -2.4989626   -2.4989626    -0.854616   0.11231646   -2.4989626    1.6443467   396900 
 1556000    1.0960504   -2.4989505   -2.4989505  -0.85487899   0.11162521   -2.4989505    1.6440715   396900 
 1557000    1.0979975   -2.5007002   -2.5007002  -0.85370816   0.11492812   -2.5007002    1.6469921   396900 
 1558000    1.0973427     -2.50011     -2.50011  -0.85410015   0.11003136     -2.50011    1.6460099   396900 
 1559000     1.097855   -2.4976892   -2.4976892   -0.8509109   0.11349913   -2.4976892    1.6467783   396900 
 1560000    1.0965931   -2.4977613   -2.4977613  -0.85287571   0.11614237   -2.4977613    1.6448856   396900 
 1561000    1.0977984   -2.5005018   -2.5005018  -0.85380843   0.11358896   -2.5005018    1.6466934   396900 
 1562000     1.096666   -2.4987495   -2.4987495  -0.85375452   0.11613791   -2.4987495    1.6449949   396900 
 1563000    1.0966565   -2.5000551   -2.5000551   -0.8550745   0.11208421   -2.5000551    1.6449806   396900 
 1564000    1.0971301   -2.4983836   -2.4983836  -0.85269252   0.11504727   -2.4983836     1.645691   396900 
 1565000     1.097137   -2.4988879   -2.4988879  -0.85318659   0.11385235   -2.4988879    1.6457014   396900 
 1566000    1.0973768    -2.496498    -2.496498  -0.85043692   0.11330277    -2.496498    1.6460611   396900 
 1567000    1.0992659   -2.5005355   -2.5005355   -0.8516408   0.11441889   -2.5005355    1.6488947   396900 
 1568000     1.095992   -2.4950237   -2.4950237  -0.85103994   0.11789667   -2.4950237    1.6439838   396900 
 1569000     1.099464   -2.5003336   -2.5003336  -0.85114172   0.11271387   -2.5003336    1.6491918   396900 
 1570000    1.0986459   -2.4934276   -2.4934276  -0.84546299   0.11470003   -2.4934276    1.6479646   396900 
 1571000    1.0973654   -2.4937476   -2.4937476  -0.84770368    0.1131889   -2.4937476    1.6460439   396900 
 1572000    1.0974313   -2.4950855   -2.4950855  -0.84894268   0.11789877   -2.4950855    1.6461428   396900 
 1573000    1.0980949   -2.4939841   -2.4939841  -0.84684586   0.11717496   -2.4939841    1.6471382   396900 
 1574000     1.097777   -2.4934323   -2.4934323  -0.84677097   0.11623555   -2.4934323    1.6466613   396900 
 1575000    1.0997546   -2.4964462   -2.4964462   -0.8468184   0.11428516   -2.4964462    1.6496278   396900 
 1576000    1.0982404   -2.4940903   -2.4940903  -0.84673383   0.11244186   -2.4940903    1.6473565   396900 
 1577000     1.098171   -2.4933192   -2.4933192   -0.8460668   0.11544988   -2.4933192    1.6472524   396900 
 1578000    1.0983026   -2.4924174   -2.4924174  -0.84496765   0.11294235   -2.4924174    1.6474497   396900 
 1579000    1.0987451   -2.4914733   -2.4914733  -0.84335974   0.11654115   -2.4914733    1.6481135   396900 
 1580000    1.0980083   -2.4921893   -2.4921893  -0.84518099   0.11117985   -2.4921893    1.6470083   396900 
 1581000    1.1010355   -2.4965829   -2.4965829   -0.8450338   0.11035575   -2.4965829    1.6515491   396900 
 1582000    1.0979052   -2.4941735   -2.4941735  -0.84731986   0.11532421   -2.4941735    1.6468537   396900 
 1583000     1.096596   -2.4930861   -2.4930861  -0.84819622   0.11664669   -2.4930861    1.6448899   396900 
 1584000    1.0978515   -2.4943911   -2.4943911  -0.84761809   0.11324331   -2.4943911     1.646773   396900 
 1585000    1.0993927   -2.4943406   -2.4943406   -0.8452557   0.11118681   -2.4943406    1.6490849   396900 
 1586000     1.098746   -2.4927203   -2.4927203  -0.84460541   0.10863161   -2.4927203    1.6481149   396900 
 1587000    1.0990024   -2.4925929   -2.4925929  -0.84409347    0.1062202   -2.4925929    1.6484994   396900 
 1588000    1.0965829   -2.4899836   -2.4899836  -0.84511342   0.11205024   -2.4899836    1.6448701   396900 
 1589000     1.098937   -2.4934183   -2.4934183  -0.84501689   0.11420325   -2.4934183    1.6484014   396900 
 1590000    1.0988932   -2.4941495   -2.4941495   -0.8458138   0.11691656   -2.4941495    1.6483357   396900 
 1591000    1.0972953   -2.4939447   -2.4939447  -0.84800589   0.11374856   -2.4939447    1.6459388   396900 
 1592000    1.0979593   -2.4947564   -2.4947564  -0.84782159   0.10845134   -2.4947564    1.6469348   396900 
 1593000    1.0963463    -2.492712    -2.492712  -0.84819675   0.11598837    -2.492712    1.6445153   396900 
 1594000    1.0988205   -2.4960638   -2.4960638  -0.84783713   0.11857218   -2.4960638    1.6482266   396900 
 1595000    1.0991174   -2.4938182   -2.4938182  -0.84514632   0.11033312   -2.4938182    1.6486719   396900 
 1596000    1.0994096   -2.4948984   -2.4948984  -0.84578818   0.11161262   -2.4948984    1.6491103   396900 
 1597000    1.0989436   -2.4933204   -2.4933204  -0.84490917   0.11560955   -2.4933204    1.6484112   396900 
 1598000    1.0991859   -2.4919881   -2.4919881  -0.84321338   0.11901462   -2.4919881    1.6487748   396900 
 1599000    1.1009238   -2.4942412   -2.4942412  -0.84285965   0.11314692   -2.4942412    1.6513816   396900 
 1600000     1.099915   -2.4913403   -2.4913403  -0.84147193   0.11471826   -2.4913403    1.6498684   396900 
 1601000    1.1004334    -2.491451    -2.491451  -0.84080497   0.11829658    -2.491451     1.650646   396900 
 1602000    1.0984948   -2.4902755   -2.4902755   -0.8425375   0.11298374   -2.4902755     1.647738   396900 
 1603000    1.1002685    -2.492909    -2.492909  -0.84251045   0.11420487    -2.492909    1.6503985   396900 
 1604000    1.1005807   -2.4906259   -2.4906259  -0.83975898   0.11233967   -2.4906259    1.6508669   396900 
 1605000    1.1029227   -2.4930766   -2.4930766  -0.83869664   0.11284592   -2.4930766    1.6543799   396900 
 1606000    1.1001063   -2.4913978   -2.4913978  -0.84124253   0.11283365   -2.4913978    1.6501552   396900 
 1607000    1.1022189   -2.4929412   -2.4929412  -0.83961706   0.11767832   -2.4929412    1.6533242   396900 
 1608000    1.1030266   -2.4939236   -2.4939236  -0.83938789   0.11452539   -2.4939236    1.6545357   396900 
 1609000    1.1019235     -2.49166     -2.49166  -0.83877891   0.12116346     -2.49166    1.6528811   396900 
 1610000    1.1014883    -2.492926    -2.492926   -0.8406977   0.11607083    -2.492926    1.6522283   396900 
 1611000    1.0999534   -2.4905375   -2.4905375  -0.84061163   0.11127042   -2.4905375    1.6499259   396900 
 1612000    1.0971427   -2.4874849   -2.4874849  -0.84177492   0.11578876   -2.4874849      1.64571   396900 
 1613000    1.1015941   -2.4942698   -2.4942698  -0.84188282   0.11572166   -2.4942698     1.652387   396900 
 1614000    1.1015338   -2.4940569   -2.4940569  -0.84176038   0.11871601   -2.4940569    1.6522966   396900 
 1615000     1.101015   -2.4919674   -2.4919674  -0.84044909   0.11642118   -2.4919674    1.6515183   396900 
 1616000    1.1017305   -2.4911271   -2.4911271  -0.83853549    0.1127139   -2.4911271    1.6525916   396900 
 1617000    1.1002201   -2.4892041   -2.4892041  -0.83887803   0.11617487   -2.4892041     1.650326   396900 
 1618000    1.1012782   -2.4917038   -2.4917038  -0.83979076   0.12067924   -2.4917038    1.6519131   396900 
 1619000    1.0997655   -2.4898401   -2.4898401  -0.84019599   0.11507294   -2.4898401    1.6496441   396900 
 1620000    1.1013176   -2.4919717   -2.4919717  -0.83999952   0.11543249   -2.4919717    1.6519722   396900 
 1621000    1.0993979   -2.4897948   -2.4897948  -0.84070216   0.11857469   -2.4897948    1.6490927   396900 
 1622000    1.0999196   -2.4889418   -2.4889418  -0.83906659   0.11467664   -2.4889418    1.6498752   396900 
 1623000    1.1021108   -2.4902019   -2.4902019  -0.83703982   0.11793432   -2.4902019     1.653162   396900 
 1624000    1.1018688   -2.4918004   -2.4918004  -0.83900132   0.11341658   -2.4918004     1.652799   396900 
 1625000    1.1016128   -2.4919792   -2.4919792  -0.83956409   0.11575414   -2.4919792    1.6524151   396900 
 1626000    1.1005716   -2.4878649   -2.4878649  -0.83701167   0.11762754   -2.4878649    1.6508533   396900 
 1627000    1.1029278   -2.4896149   -2.4896149  -0.83522736   0.11464319   -2.4896149    1.6543875   396900 
 1628000     1.102989   -2.4909246   -2.4909246  -0.83644523   0.11864718   -2.4909246    1.6544794   396900 
 1629000    1.1033016   -2.4896102   -2.4896102  -0.83466207   0.11374722   -2.4896102    1.6549482   396900 
 1630000    1.1028562   -2.4888616   -2.4888616   -0.8345815   0.11968224   -2.4888616    1.6542801   396900 
 1631000    1.1022858   -2.4881288   -2.4881288  -0.83470427   0.11573797   -2.4881288    1.6534246   396900 
 1632000    1.1025202   -2.4882055   -2.4882055   -0.8344294   0.11932511   -2.4882055    1.6537761   396900 
 1633000    1.1023742   -2.4870842   -2.4870842   -0.8335271   0.11871782   -2.4870842    1.6535571   396900 
 1634000    1.1015498   -2.4858789   -2.4858789  -0.83355833    0.1145836   -2.4858789    1.6523205   396900 
 1635000    1.1008732   -2.4855533   -2.4855533  -0.83424767   0.11658564   -2.4855533    1.6513056   396900 
 1636000    1.0995342   -2.4836129   -2.4836129  -0.83431582   0.11690361   -2.4836129    1.6492971   396900 
 1637000    1.1037694   -2.4874301   -2.4874301  -0.83178022   0.11861678   -2.4874301    1.6556499   396900 
 1638000    1.1011287   -2.4857327   -2.4857327  -0.83404379   0.11448636   -2.4857327    1.6516889   396900 
 1639000    1.1003819   -2.4855546   -2.4855546  -0.83498588   0.11604991   -2.4855546    1.6505687   396900 
 1640000    1.1012347    -2.486359    -2.486359  -0.83451118   0.11667871    -2.486359    1.6518479   396900 
 1641000    1.1006053   -2.4846978   -2.4846978    -0.833794   0.11833323   -2.4846978    1.6509038   396900 
 1642000    1.1005355    -2.482303    -2.482303  -0.83150397   0.11381909    -2.482303     1.650799   396900 
 1643000     1.101806   -2.4865924   -2.4865924   -0.8338875   0.11673724   -2.4865924    1.6527049   396900 
 1644000    1.1008502   -2.4848848   -2.4848848  -0.83361361   0.11732811   -2.4848848    1.6512712   396900 
 1645000    1.1012047   -2.4837141   -2.4837141   -0.8319113   0.11426106   -2.4837141    1.6518028   396900 
 1646000     1.102861   -2.4852666   -2.4852666  -0.83097926   0.11858452   -2.4852666    1.6542873   396900 
 1647000    1.1025215   -2.4827717   -2.4827717  -0.82899368   0.12098182   -2.4827717    1.6537781   396900 
 1648000    1.1018519   -2.4816034   -2.4816034  -0.82882966   0.11830831   -2.4816034    1.6527737   396900 
 1649000    1.1033957   -2.4830468   -2.4830468  -0.82795751   0.11697121   -2.4830468    1.6550893   396900 
 1650000    1.1016157   -2.4796743   -2.4796743  -0.82725491    0.1218626   -2.4796743    1.6524194   396900 
 1651000    1.1039381   -2.4803753   -2.4803753  -0.82447236   0.11488886   -2.4803753     1.655903   396900 
 1652000    1.1038931   -2.4784051   -2.4784051  -0.82256969    0.1148262   -2.4784051    1.6558354   396900 
 1653000     1.105218   -2.4805837   -2.4805837  -0.82276098    0.1164705   -2.4805837    1.6578228   396900 
 1654000    1.1038543   -2.4811816   -2.4811816  -0.82540425   0.11319114   -2.4811816    1.6557773   396900 
 1655000    1.1017815   -2.4789565   -2.4789565  -0.82628841   0.11356888   -2.4789565    1.6526681   396900 
 1656000    1.1023617   -2.4779241   -2.4779241  -0.82438573   0.11548517   -2.4779241    1.6535384   396900 
 1657000    1.1037078   -2.4803152   -2.4803152  -0.82475757   0.11406265   -2.4803152    1.6555576   396900 
 1658000    1.1038508   -2.4784588   -2.4784588  -0.82268677   0.11550186   -2.4784588     1.655772   396900 
 1659000    1.1043872    -2.478375    -2.478375  -0.82179847   0.11923542    -2.478375    1.6565766   396900 
 1660000    1.1049539   -2.4794423   -2.4794423  -0.82201567    0.1179114   -2.4794423    1.6574267   396900 
 1661000    1.1038699   -2.4766052   -2.4766052  -0.82080446   0.11848697   -2.4766052    1.6558007   396900 
 1662000    1.1023968   -2.4746496   -2.4746496  -0.82105853   0.11894291   -2.4746496     1.653591   396900 
 1663000    1.1048146   -2.4765922   -2.4765922   -0.8193745   0.12256795   -2.4765922    1.6572177   396900 
 1664000     1.105835    -2.478427    -2.478427  -0.81967869   0.11885966    -2.478427    1.6587483   396900 
 1665000    1.1052544   -2.4771572   -2.4771572  -0.81927979   0.11950451   -2.4771572    1.6578774   396900 
 1666000    1.1066912   -2.4813553   -2.4813553  -0.82132268     0.120121   -2.4813553    1.6600326   396900 
 1667000    1.1062057   -2.4802754   -2.4802754   -0.8209711   0.12426982   -2.4802754    1.6593043   396900 
 1668000    1.1064324   -2.4807611   -2.4807611  -0.82111669   0.11354903   -2.4807611    1.6596444   396900 
 1669000    1.1048121   -2.4815389   -2.4815389  -0.82432497    0.1180902   -2.4815389     1.657214   396900 
 1670000    1.1050543   -2.4784057   -2.4784057  -0.82082839   0.11901069   -2.4784057    1.6575773   396900 
 1671000    1.1045855   -2.4776311   -2.4776311  -0.82075702   0.11664866   -2.4776311    1.6568741   396900 
 1672000    1.1075599   -2.4796181   -2.4796181  -0.81828244   0.11759495   -2.4796181    1.6613356   396900 
 1673000    1.1060542   -2.4777316   -2.4777316  -0.81865441   0.11560111   -2.4777316    1.6590772   396900 
 1674000     1.108691   -2.4785284   -2.4785284  -0.81549617   0.11783342   -2.4785284    1.6630322   396900 
 1675000     1.106421    -2.476568    -2.476568  -0.81694065   0.11654518    -2.476568    1.6596273   396900 
 1676000    1.1068393   -2.4781169   -2.4781169  -0.81786212   0.12019178   -2.4781169    1.6602548   396900 
 1677000    1.1064016   -2.4796651   -2.4796651  -0.82006685   0.12441443   -2.4796651    1.6595982   396900 
 1678000    1.1058304   -2.4800855   -2.4800855  -0.82134406   0.12323245   -2.4800855    1.6587414   396900 
 1679000    1.1057936   -2.4809099   -2.4809099  -0.82222372   0.12420271   -2.4809099    1.6586862   396900 
 1680000    1.1052865   -2.4801458   -2.4801458  -0.82222019   0.12121243   -2.4801458    1.6579256   396900 
 1681000    1.1054008   -2.4805834   -2.4805834  -0.82248647    0.1229166   -2.4805834    1.6580969   396900 
 1682000    1.1057311   -2.4828326   -2.4828326  -0.82424021    0.1227619   -2.4828326    1.6585924   396900 
 1683000    1.1032549   -2.4792656   -2.4792656  -0.82438739   0.12053986   -2.4792656    1.6548782   396900 
 1684000    1.1050447   -2.4794106   -2.4794106   -0.8218477   0.11925944   -2.4794106    1.6575629   396900 
 1685000    1.1048631   -2.4779194   -2.4779194   -0.8206289   0.11926669   -2.4779194    1.6572905   396900 
 1686000    1.1042841   -2.4776783   -2.4776783  -0.82125627   0.11430131   -2.4776783     1.656422   396900 
 1687000    1.1067962   -2.4802395   -2.4802395  -0.82004931      0.11942   -2.4802395    1.6601901   396900 
 1688000      1.10547   -2.4787028   -2.4787028  -0.82050201   0.11926819   -2.4787028    1.6582007   396900 
 1689000    1.1052856   -2.4772423   -2.4772423  -0.81931812   0.11414818   -2.4772423    1.6579242   396900 
 1690000    1.1073123   -2.4779654   -2.4779654   -0.8170011   0.12434618   -2.4779654    1.6609643   396900 
 1691000    1.1050887    -2.478037    -2.478037  -0.82040813   0.12036287    -2.478037    1.6576289   396900 
 1692000    1.1060564   -2.4769724   -2.4769724  -0.81789202   0.11427882   -2.4769724    1.6590804   396900 
 1693000    1.1084699    -2.475397    -2.475397  -0.81269638   0.12331961    -2.475397    1.6627007   396900 
 1694000    1.1072768   -2.4760395   -2.4760395  -0.81512854   0.12488396   -2.4760395     1.660911   396900 
 1695000    1.1070199   -2.4770645   -2.4770645  -0.81653887   0.12005817   -2.4770645    1.6605256   396900 
 1696000    1.1068377   -2.4755513   -2.4755513  -0.81529891   0.11804037   -2.4755513    1.6602524   396900 
 1697000    1.1060143   -2.4734538   -2.4734538  -0.81443657   0.12084886   -2.4734538    1.6590173   396900 
 1698000     1.105844   -2.4751692   -2.4751692   -0.8164073   0.11925102   -2.4751692    1.6587619   396900 
 1699000    1.1053381   -2.4749135   -2.4749135  -0.81691044   0.11668134   -2.4749135     1.658003   396900 
 1700000    1.1064762   -2.4760279   -2.4760279   -0.8163178   0.11784238   -2.4760279    1.6597101   396900 
 1701000    1.1063626   -2.4750395   -2.4750395  -0.81549982   0.11786782   -2.4750395    1.6595397   396900 
 1702000    1.1084041   -2.4739938   -2.4739938  -0.81139187   0.11940066   -2.4739938    1.6626019   396900 
 1703000    1.1092668   -2.4753905   -2.4753905  -0.81149452   0.12164102   -2.4753905     1.663896   396900 
 1704000    1.1105019   -2.4778378   -2.4778378  -0.81208908   0.12137135   -2.4778378    1.6657487   396900 
 1705000    1.1093666   -2.4760305   -2.4760305  -0.81198483   0.12356063   -2.4760305    1.6640457   396900 
 1706000    1.1068291   -2.4738932   -2.4738932  -0.81365379   0.11893599   -2.4738932    1.6602394   396900 
 1707000    1.1062418   -2.4724294   -2.4724294  -0.81307086   0.11130288   -2.4724294    1.6593585   396900 
 1708000    1.1058902   -2.4726554   -2.4726554  -0.81382427   0.12145784   -2.4726554    1.6588312   396900 
 1709000    1.1095246   -2.4754435   -2.4754435  -0.81116078   0.12003258   -2.4754435    1.6642827   396900 
 1710000    1.1072926    -2.470293    -2.470293  -0.80935822     0.121078    -2.470293    1.6609347   396900 
 1711000    1.1097255   -2.4754245   -2.4754245  -0.81084051    0.1225313   -2.4754245     1.664584   396900 
 1712000     1.108397   -2.4738714   -2.4738714  -0.81128011    0.1220384   -2.4738714    1.6625912   396900 
 1713000    1.1085507   -2.4733505   -2.4733505  -0.81052867   0.12127733   -2.4733505    1.6628218   396900 
 1714000    1.1090767   -2.4738312   -2.4738312  -0.81022033   0.12147316   -2.4738312    1.6636109   396900 
 1715000    1.1069136   -2.4711251   -2.4711251  -0.81075893   0.12133225   -2.4711251    1.6603662   396900 
 1716000     1.109358   -2.4732078   -2.4732078  -0.80917502   0.12280399   -2.4732078    1.6640328   396900 
 1717000    1.1081982   -2.4719098   -2.4719098  -0.80961667   0.11840911   -2.4719098    1.6622932   396900 
 1718000    1.1081488   -2.4719152   -2.4719152  -0.80969624   0.11806075   -2.4719152    1.6622189   396900 
 1719000    1.1099238   -2.4745592   -2.4745592  -0.80967767   0.12321659   -2.4745592    1.6648816   396900 
 1720000    1.1075199   -2.4713385   -2.4713385  -0.81006283   0.12102753   -2.4713385    1.6612756   396900 
 1721000    1.1079503   -2.4721029   -2.4721029  -0.81018169    0.1169954   -2.4721029    1.6619212   396900 
 1722000    1.1088741   -2.4719064   -2.4719064  -0.80859932   0.11984696   -2.4719064     1.663307   396900 
 1723000    1.1077689   -2.4695496   -2.4695496  -0.80790047   0.12129332   -2.4695496    1.6616491   396900 
 1724000    1.1089928   -2.4715457   -2.4715457  -0.80806068   0.12059175   -2.4715457     1.663485   396900 
 1725000    1.1095535   -2.4711289   -2.4711289  -0.80680278    0.1188711   -2.4711289    1.6643261   396900 
 1726000    1.1093218   -2.4722312   -2.4722312  -0.80825275   0.12076412   -2.4722312    1.6639784   396900 
 1727000    1.1079876   -2.4738961   -2.4738961  -0.81191893   0.11880646   -2.4738961    1.6619772   396900 
 1728000    1.1061911    -2.468789    -2.468789  -0.80950651   0.12042142    -2.468789    1.6592825   396900 
 1729000    1.1097225   -2.4735533   -2.4735533  -0.80897379    0.1202592   -2.4735533    1.6645795   396900 
 1730000    1.1094229   -2.4726601   -2.4726601  -0.80852993   0.11973125   -2.4726601    1.6641302   396900 
 1731000    1.1107607   -2.4752087   -2.4752087  -0.80907192   0.11754253   -2.4752087    1.6661368   396900 
 1732000    1.1087503   -2.4734606   -2.4734606  -0.81033932   0.11888116   -2.4734606    1.6631213   396900 
 1733000    1.1087219   -2.4725411   -2.4725411  -0.80946249   0.11570169   -2.4725411    1.6630786   396900 
 1734000    1.1065804   -2.4706347   -2.4706347   -0.8107683   0.12171008   -2.4706347    1.6598664   396900 
 1735000    1.1085248   -2.4726152   -2.4726152  -0.80983225   0.11845345   -2.4726152     1.662783   396900 
 1736000    1.1062495   -2.4688307   -2.4688307  -0.80946058    0.1187162   -2.4688307    1.6593701   396900 
 1737000    1.1084162   -2.4687241   -2.4687241  -0.80610397   0.12135285   -2.4687241    1.6626201   396900 
 1738000     1.110184   -2.4716442   -2.4716442   -0.8063725    0.1202263   -2.4716442    1.6652717   396900 
 1739000    1.1080641   -2.4706371   -2.4706371  -0.80854519   0.12065418   -2.4706371    1.6620919   396900 
 1740000    1.1099465   -2.4730881   -2.4730881  -0.80817259   0.11855996   -2.4730881    1.6649155   396900 
 1741000    1.1083535   -2.4708755   -2.4708755   -0.8083495   0.11732262   -2.4708755     1.662526   396900 
 1742000    1.1093794   -2.4707435   -2.4707435  -0.80667866   0.11546999   -2.4707435    1.6640649   396900 
 1743000    1.1106652   -2.4729918   -2.4729918  -0.80699827   0.11814731   -2.4729918    1.6659936   396900 
 1744000    1.1082302   -2.4698399   -2.4698399  -0.80749884   0.11751241   -2.4698399    1.6623411   396900 
 1745000    1.1084627   -2.4690846   -2.4690846  -0.80639471   0.12080273   -2.4690846    1.6626899   396900 
 1746000    1.1095577   -2.4719986   -2.4719986   -0.8076663    0.1240714   -2.4719986    1.6643323   396900 
 1747000    1.1105334   -2.4727299   -2.4727299  -0.80693395   0.12505121   -2.4727299    1.6657959   396900 
 1748000    1.1115183   -2.4720552   -2.4720552  -0.80478185   0.12404057   -2.4720552    1.6672733   396900 
 1749000    1.1105249   -2.4700693   -2.4700693  -0.80428609   0.12225123   -2.4700693    1.6657832   396900 
 1750000    1.1092598   -2.4679211   -2.4679211  -0.80403561   0.11744762   -2.4679211    1.6638855   396900 
 1751000    1.1099488   -2.4688835   -2.4688835  -0.80396458   0.12130209   -2.4688835     1.664919   396900 
 1752000    1.1107118   -2.4685327   -2.4685327  -0.80246918   0.12509337   -2.4685327    1.6660636   396900 
 1753000    1.1104625    -2.468582    -2.468582  -0.80289243   0.12431229    -2.468582    1.6656895   396900 
 1754000     1.111629   -2.4686918   -2.4686918  -0.80125239   0.12717208   -2.4686918    1.6674394   396900 
 1755000    1.1098928   -2.4672936   -2.4672936  -0.80245863    0.1249335   -2.4672936     1.664835   396900 
 1756000    1.1100808   -2.4669573   -2.4669573  -0.80184031   0.11967576   -2.4669573     1.665117   396900 
 1757000    1.1088167   -2.4677962   -2.4677962  -0.80457529    0.1207039   -2.4677962    1.6632209   396900 
 1758000    1.1083506   -2.4672571   -2.4672571  -0.80473536   0.12235455   -2.4672571    1.6625218   396900 
 1759000    1.1090659    -2.465717    -2.465717   -0.8021224   0.11667169    -2.465717    1.6635946   396900 
 1760000    1.1106068   -2.4666692   -2.4666692  -0.80076319   0.12036596   -2.4666692     1.665906   396900 
 1761000    1.1103543   -2.4681538   -2.4681538  -0.80262657   0.12246667   -2.4681538    1.6655272   396900 
 1762000    1.1095851   -2.4643923   -2.4643923  -0.80001889   0.12419536   -2.4643923    1.6643735   396900 
 1763000    1.1110225     -2.46423     -2.46423  -0.79770044   0.12649521     -2.46423    1.6665296   396900 
 1764000    1.1117513   -2.4649302   -2.4649302  -0.79730744    0.1248422   -2.4649302    1.6676227   396900 
 1765000    1.1111481   -2.4669479   -2.4669479  -0.80022993   0.12631746   -2.4669479     1.666718   396900 
 1766000    1.1122667   -2.4668333   -2.4668333  -0.79843752   0.12420097   -2.4668333    1.6683958   396900 
 1767000    1.1122498   -2.4678885   -2.4678885    -0.799518   0.12443891   -2.4678885    1.6683705   396900 
 1768000    1.1106791   -2.4669935   -2.4669935  -0.80097902   0.12563995   -2.4669935    1.6660145   396900 
 1769000    1.1114699   -2.4655123   -2.4655123  -0.79831171   0.12529771   -2.4655123    1.6672006   396900 
 1770000    1.1113696    -2.467161    -2.467161  -0.80011073   0.12093252    -2.467161    1.6670503   396900 
 1771000    1.1117943   -2.4657278   -2.4657278  -0.79804048   0.12224262   -2.4657278    1.6676873   396900 
 1772000    1.1116774   -2.4702649   -2.4702649  -0.80275298   0.11841462   -2.4702649     1.667512   396900 
 1773000    1.1088983   -2.4642524   -2.4642524  -0.80090913   0.12162474   -2.4642524    1.6633433   396900 
 1774000    1.1107704   -2.4657115   -2.4657115  -0.79956007   0.12249037   -2.4657115    1.6661515   396900 
 1775000    1.1122072   -2.4672427   -2.4672427  -0.79893613   0.12698093   -2.4672427    1.6683065   396900 
 1776000    1.1096672   -2.4653826   -2.4653826  -0.80088598   0.12874908   -2.4653826    1.6644967   396900 
 1777000    1.1126963   -2.4688483   -2.4688483  -0.79980813   0.12351573   -2.4688483    1.6690402   396900 
 1778000    1.1107749   -2.4659351   -2.4659351  -0.79977684   0.12255321   -2.4659351    1.6661582   396900 
 1779000    1.1129303   -2.4671205   -2.4671205  -0.79772929   0.12244624   -2.4671205    1.6693912   396900 
 1780000    1.1115992   -2.4681433   -2.4681433  -0.80074863   0.12354673   -2.4681433    1.6673946   396900 
 1781000    1.1110584   -2.4677986   -2.4677986  -0.80121528   0.11763397   -2.4677986    1.6665833   396900 
 1782000    1.1102961   -2.4669564   -2.4669564  -0.80151645    0.1289167   -2.4669564    1.6654399   396900 
 1783000     1.111779   -2.4696074   -2.4696074  -0.80194308   0.12218873   -2.4696074    1.6676643   396900 
 1784000    1.1125355    -2.469871    -2.469871  -0.80107202   0.12813824    -2.469871     1.668799   396900 
 1785000    1.1112124   -2.4674962   -2.4674962  -0.80068182   0.12547656   -2.4674962    1.6668143   396900 
 1786000    1.1151561    -2.468931    -2.468931  -0.79620113   0.12640143    -2.468931    1.6727299   396900 
 1787000    1.1137898   -2.4669032   -2.4669032  -0.79622272   0.11946682   -2.4669032    1.6706805   396900 
 1788000    1.1154481   -2.4669494   -2.4669494  -0.79378147   0.12254246   -2.4669494     1.673168   396900 
 1789000    1.1141097   -2.4649223   -2.4649223  -0.79376199   0.12499391   -2.4649223    1.6711603   396900 
 1790000    1.1155781    -2.467386    -2.467386  -0.79402306   0.12519044    -2.467386    1.6733629   396900 
 1791000    1.1142214   -2.4653676   -2.4653676  -0.79403979   0.12556337   -2.4653676    1.6713278   396900 
 1792000    1.1125749   -2.4624985   -2.4624985  -0.79364041   0.12220544   -2.4624985    1.6688581   396900 
 1793000    1.1143116   -2.4642833   -2.4642833  -0.79282019    0.1250354   -2.4642833    1.6714631   396900 
 1794000    1.1152155    -2.466465    -2.466465  -0.79364592   0.12435272    -2.466465     1.672819   396900 
 1795000    1.1145997   -2.4641289   -2.4641289  -0.79223357   0.12601161   -2.4641289    1.6718953   396900 
 1796000    1.1143405   -2.4639569   -2.4639569  -0.79245047   0.11978348   -2.4639569    1.6715065   396900 
 1797000    1.1138604   -2.4650819   -2.4650819  -0.79429549   0.12346186   -2.4650819    1.6707864   396900 
 1798000    1.1133141   -2.4634103   -2.4634103  -0.79344335   0.12514035   -2.4634103    1.6699669   396900 
 1799000    1.1133368   -2.4650323   -2.4650323  -0.79503132   0.12511669   -2.4650323     1.670001   396900 
 1800000    1.1129454   -2.4633318   -2.4633318  -0.79391792   0.12602182   -2.4633318    1.6694139   396900 
 1801000    1.1137587   -2.4635489   -2.4635489  -0.79291512   0.12364256   -2.4635489    1.6706338   396900 
 1802000     1.113484   -2.4605307   -2.4605307  -0.79030894   0.12448791   -2.4605307    1.6702218   396900 
 1803000    1.1157749   -2.4630757   -2.4630757  -0.78941757   0.12662468   -2.4630757    1.6736582   396900 
 1804000    1.1158394    -2.465708    -2.465708  -0.79195308   0.12275872    -2.465708    1.6737549   396900 
 1805000    1.1143163   -2.4657318   -2.4657318   -0.7942616   0.12930505   -2.4657318    1.6714703   396900 
 1806000    1.1145171   -2.4665125   -2.4665125  -0.79474108    0.1220166   -2.4665125    1.6717715   396900 
 1807000    1.1139061   -2.4628213   -2.4628213  -0.79196639    0.1282165   -2.4628213    1.6708549   396900 
 1808000    1.1139976    -2.463221    -2.463221  -0.79222887   0.12499473    -2.463221    1.6709922   396900 
 1809000    1.1152898   -2.4643839   -2.4643839  -0.79145343    0.1224912   -2.4643839    1.6729305   396900 
 1810000     1.115214   -2.4623562   -2.4623562  -0.78953938   0.12554765   -2.4623562    1.6728169   396900 
 1811000    1.1149198   -2.4622239   -2.4622239  -0.78984836   0.12584252   -2.4622239    1.6723755   396900 
 1812000    1.1164349   -2.4630983   -2.4630983  -0.78845018   0.12787127   -2.4630983    1.6746481   396900 
 1813000    1.1160846   -2.4610561   -2.4610561   -0.7869334    0.1262117   -2.4610561    1.6741227   396900 
 1814000    1.1167606   -2.4639197   -2.4639197  -0.78878299    0.1241546   -2.4639197    1.6751367   396900 
 1815000    1.1123724   -2.4577885   -2.4577885  -0.78923419   0.12961451   -2.4577885    1.6685543   396900 
 1816000    1.1136427   -2.4595255   -2.4595255  -0.78906567   0.12055166   -2.4595255    1.6704598   396900 
 1817000    1.1130659   -2.4572377   -2.4572377  -0.78764317   0.12667361   -2.4572377    1.6695946   396900 
 1818000    1.1168436   -2.4598572   -2.4598572  -0.78459594   0.12744409   -2.4598572    1.6752612   396900 
 1819000    1.1171338   -2.4600025   -2.4600025  -0.78430596   0.12330828   -2.4600025    1.6756965   396900 
 1820000    1.1158517    -2.457236    -2.457236  -0.78346267    0.1292441    -2.457236    1.6737734   396900 
 1821000    1.1149814   -2.4603263   -2.4603263  -0.78785846   0.12403793   -2.4603263    1.6724678   396900 
 1822000    1.1160105   -2.4619992   -2.4619992  -0.78798765   0.12230011   -2.4619992    1.6740116   396900 
 1823000    1.1144093   -2.4578525   -2.4578525   -0.7862427   0.12820749   -2.4578525    1.6716098   396900 
 1824000    1.1155803   -2.4598706   -2.4598706  -0.78650446   0.12306622   -2.4598706    1.6733662   396900 
 1825000    1.1151255   -2.4605177   -2.4605177  -0.78783366   0.12583472   -2.4605177     1.672684   396900 
 1826000    1.1147009   -2.4602277   -2.4602277  -0.78818047   0.12605515   -2.4602277    1.6720472   396900 
 1827000      1.11584   -2.4610717   -2.4610717  -0.78731602   0.12678979   -2.4610717    1.6737557   396900 
 1828000    1.1145012   -2.4594727   -2.4594727  -0.78772511   0.12829582   -2.4594727    1.6717476   396900 
 1829000    1.1153868   -2.4598804   -2.4598804  -0.78680444   0.12542243   -2.4598804     1.673076   396900 
 1830000    1.1141481   -2.4582626   -2.4582626  -0.78704472   0.12472113   -2.4582626    1.6712179   396900 
 1831000    1.1165734   -2.4612332   -2.4612332  -0.78637733    0.1283257   -2.4612332    1.6748558   396900 
 1832000    1.1165501   -2.4614368   -2.4614368  -0.78661578   0.12285055   -2.4614368     1.674821   396900 
 1833000    1.1157932   -2.4588559   -2.4588559  -0.78517039   0.12966664   -2.4588559    1.6736855   396900 
 1834000    1.1151535   -2.4596778   -2.4596778  -0.78695188   0.12462439   -2.4596778     1.672726   396900 
 1835000    1.1155378    -2.460724    -2.460724  -0.78742144   0.12363612    -2.460724    1.6733025   396900 
 1836000    1.1129766   -2.4561281   -2.4561281  -0.78666735   0.12926488   -2.4561281    1.6694607   396900 
 1837000    1.1167845   -2.4609979   -2.4609979  -0.78582532   0.12727792   -2.4609979    1.6751726   396900 
 1838000    1.1153576   -2.4596104   -2.4596104  -0.78657821   0.12737814   -2.4596104    1.6730322   396900 
 1839000    1.1154237    -2.458608    -2.458608  -0.78547666    0.1243273    -2.458608    1.6731314   396900 
 1840000    1.1147977   -2.4588076   -2.4588076  -0.78661537   0.12853118   -2.4588076    1.6721923   396900 
 1841000     1.117425    -2.458583    -2.458583  -0.78244972   0.12521272    -2.458583    1.6761333   396900 
 1842000    1.1174019   -2.4602289   -2.4602289  -0.78413027   0.12629139   -2.4602289    1.6760987   396900 
 1843000    1.1153483   -2.4576758   -2.4576758  -0.78465749   0.12427902   -2.4576758    1.6730183   396900 
 1844000    1.1136265   -2.4557275   -2.4557275  -0.78529188   0.12422043   -2.4557275    1.6704356   396900 
 1845000    1.1179632    -2.457639    -2.457639  -0.78069846    0.1249727    -2.457639    1.6769406   396900 
 1846000    1.1164941   -2.4557996   -2.4557996  -0.78106267   0.12629988   -2.4557996     1.674737   396900 
 1847000    1.1163292   -2.4546682   -2.4546682  -0.78017854   0.12908578   -2.4546682    1.6744896   396900 
 1848000    1.1179321   -2.4571529   -2.4571529   -0.7802589   0.12218047   -2.4571529     1.676894   396900 
 1849000    1.1180492   -2.4581647   -2.4581647  -0.78109508   0.12885985   -2.4581647    1.6770696   396900 
 1850000    1.1174851   -2.4594232   -2.4594232  -0.78319973    0.1241072   -2.4594232    1.6762235   396900 
 1851000    1.1138896   -2.4535445   -2.4535445   -0.7827144   0.12966326   -2.4535445    1.6708301   396900 
 1852000    1.1177959   -2.4587995   -2.4587995  -0.78210993    0.1227241   -2.4587995    1.6766896   396900 
 1853000     1.117184   -2.4566062   -2.4566062  -0.78083437   0.12277017   -2.4566062    1.6757718   396900 
 1854000    1.1191113    -2.456466    -2.456466  -0.77780325    0.1325608    -2.456466    1.6786627   396900 
 1855000     1.117962   -2.4544918   -2.4544918  -0.77755299   0.12775804   -2.4544918    1.6769388   396900 
 1856000    1.1187193   -2.4554231   -2.4554231   -0.7773485    0.1251543   -2.4554231    1.6780746   396900 
 1857000    1.1188461   -2.4557177   -2.4557177   -0.7774528   0.13134626   -2.4557177    1.6782649   396900 
 1858000    1.1171876   -2.4542874   -2.4542874  -0.77851027   0.12822705   -2.4542874    1.6757772   396900 
 1859000    1.1202007   -2.4561944   -2.4561944  -0.77589749   0.12399315   -2.4561944    1.6802969   396900 
 1860000    1.1193652   -2.4541447   -2.4541447   -0.7751011   0.12564765   -2.4541447    1.6790436   396900 
 1861000    1.1209633   -2.4565942   -2.4565942   -0.7751535    0.1302639   -2.4565942    1.6814407   396900 
 1862000    1.1199651   -2.4545974   -2.4545974  -0.77465392   0.13191278   -2.4545974    1.6799435   396900 
 1863000    1.1197333   -2.4562192   -2.4562192  -0.77662341   0.13153504   -2.4562192    1.6795958   396900 
 1864000    1.1191676   -2.4556415   -2.4556415  -0.77689427   0.13123507   -2.4556415    1.6787472   396900 
 1865000    1.1190706   -2.4547204   -2.4547204  -0.77611863   0.12836432   -2.4547204    1.6786017   396900 
 1866000    1.1196206   -2.4547394   -2.4547394  -0.77531266   0.12562295   -2.4547394    1.6794267   396900 
 1867000    1.1176053   -2.4535367   -2.4535367    -0.777133   0.12679014   -2.4535367    1.6764037   396900 
 1868000    1.1174349   -2.4540889   -2.4540889  -0.77794076   0.12919838   -2.4540889    1.6761481   396900 
 1869000    1.1215249    -2.456422    -2.456422  -0.77413888   0.13147046    -2.456422    1.6822831   396900 
 1870000    1.1195546   -2.4530616   -2.4530616  -0.77373385   0.12634222   -2.4530616    1.6793277   396900 
 1871000    1.1181857   -2.4520576   -2.4520576  -0.77478325   0.13059868   -2.4520576    1.6772743   396900 
 1872000    1.1200654   -2.4536665   -2.4536665  -0.77357257    0.1342884   -2.4536665    1.6800939   396900 
 1873000    1.1219512   -2.4537276   -2.4537276  -0.77080499   0.12913113   -2.4537276    1.6829226   396900 
 1874000    1.1198961   -2.4520614   -2.4520614  -0.77222144   0.12760069   -2.4520614      1.67984   396900 
 1875000    1.1195553   -2.4534971   -2.4534971  -0.77416846   0.13378355   -2.4534971    1.6793287   396900 
 1876000    1.1184347    -2.451269    -2.451269  -0.77362122   0.12750667    -2.451269    1.6776478   396900 
 1877000    1.1187527   -2.4521868   -2.4521868  -0.77406204   0.12703211   -2.4521868    1.6781248   396900 
 1878000    1.1194577   -2.4536208   -2.4536208  -0.77443853    0.1267276   -2.4536208    1.6791823   396900 
 1879000    1.1185808   -2.4510212   -2.4510212   -0.7731542   0.12679909   -2.4510212     1.677867   396900 
 1880000    1.1208376   -2.4533598   -2.4533598  -0.77210762   0.12785106   -2.4533598    1.6812522   396900 
 1881000    1.1213382   -2.4536661   -2.4536661  -0.77166313   0.12705782   -2.4536661     1.682003   396900 
 1882000    1.1227195   -2.4555611   -2.4555611  -0.77148607   0.12996571   -2.4555611    1.6840751   396900 
 1883000    1.1210821   -2.4541991   -2.4541991  -0.77258014   0.13324205   -2.4541991     1.681619   396900 
 1884000    1.1215344   -2.4538395   -2.4538395   -0.7715421   0.12965704   -2.4538395    1.6822974   396900 
 1885000     1.119748   -2.4553806   -2.4553806  -0.77576282   0.12980498   -2.4553806    1.6796178   396900 
 1886000    1.1173283   -2.4517051   -2.4517051  -0.77571685    0.1324958   -2.4517051    1.6759882   396900 
 1887000    1.1204243   -2.4536264   -2.4536264   -0.7729941   0.13209937   -2.4536264    1.6806323   396900 
 1888000    1.1198723   -2.4533812   -2.4533812  -0.77357701   0.12904792   -2.4533812    1.6798042   396900 
 1889000    1.1211552    -2.452303    -2.452303  -0.77057446   0.12635043    -2.452303    1.6817285   396900 
 1890000    1.1204759   -2.4520861   -2.4520861  -0.77137651   0.13128407   -2.4520861    1.6807096   396900 
 1891000    1.1205086   -2.4524154   -2.4524154  -0.77165672   0.12999755   -2.4524154    1.6807587   396900 
 1892000    1.1211671    -2.451714    -2.451714  -0.76996753   0.13323792    -2.451714    1.6817465   396900 
 1893000    1.1196622   -2.4514289   -2.4514289  -0.77193975   0.13175234   -2.4514289    1.6794891   396900 
 1894000     1.121246   -2.4547678   -2.4547678  -0.77290309   0.12689607   -2.4547678    1.6818647   396900 
 1895000    1.1203749   -2.4549868   -2.4549868  -0.77442866   0.12866791   -2.4549868    1.6805582   396900 
 1896000    1.1209994   -2.4528911   -2.4528911  -0.77139628   0.13140741   -2.4528911    1.6814948   396900 
 1897000    1.1200674   -2.4514338   -2.4514338    -0.771337   0.12942436   -2.4514338    1.6800968   396900 
 1898000    1.1202117   -2.4507858   -2.4507858  -0.77047249   0.12695763   -2.4507858    1.6803133   396900 
 1899000    1.1227435   -2.4530584   -2.4530584  -0.76894743   0.12730703   -2.4530584    1.6841109   396900 
 1900000    1.1210226   -2.4508586   -2.4508586  -0.76932884   0.13084362   -2.4508586    1.6815297   396900 
 1901000    1.1184102   -2.4495901   -2.4495901  -0.77197901   0.13335396   -2.4495901    1.6776111   396900 
 1902000    1.1226023   -2.4513249   -2.4513249   -0.7674256   0.13107817   -2.4513249    1.6838993   396900 
 1903000    1.1205375   -2.4503882   -2.4503882  -0.76958619   0.12835178   -2.4503882     1.680802   396900 
 1904000    1.1216733   -2.4512183   -2.4512183  -0.76871264   0.13264857   -2.4512183    1.6825057   396900 
 1905000    1.1230466   -2.4523962   -2.4523962  -0.76783054   0.12972906   -2.4523962    1.6845657   396900 
 1906000    1.1217001   -2.4519491   -2.4519491  -0.76940324   0.12945585   -2.4519491    1.6825458   396900 
 1907000    1.1202916   -2.4503403   -2.4503403  -0.76990715   0.13146704   -2.4503403    1.6804331   396900 
 1908000    1.1216774   -2.4515217   -2.4515217  -0.76900991   0.12871974   -2.4515217    1.6825118   396900 
 1909000    1.1211983   -2.4501281   -2.4501281  -0.76833486   0.12994574   -2.4501281    1.6817933   396900 
 1910000    1.1222338   -2.4532331   -2.4532331  -0.76988665   0.13322984   -2.4532331    1.6833465   396900 
 1911000    1.1206458   -2.4505544   -2.4505544  -0.76958989   0.13153956   -2.4505544    1.6809645   396900 
 1912000    1.1224173   -2.4525451   -2.4525451  -0.76892335   0.13156875   -2.4525451    1.6836217   396900 
 1913000     1.121729   -2.4494168   -2.4494168  -0.76682746   0.13248873   -2.4494168    1.6825893   396900 
 1914000    1.1218194   -2.4489581   -2.4489581  -0.76623324   0.13086079   -2.4489581    1.6827248   396900 
 1915000    1.1224827   -2.4481182   -2.4481182  -0.76439839   0.12842898   -2.4481182    1.6837198   396900 
 1916000    1.1239153   -2.4504884   -2.4504884  -0.76461973   0.13071778   -2.4504884    1.6858686   396900 
 1917000    1.1208375   -2.4474486   -2.4474486   -0.7661966   0.12945285   -2.4474486     1.681252   396900 
 1918000    1.1227763   -2.4519704   -2.4519704  -0.76781024   0.12630483   -2.4519704    1.6841602   396900 
 1919000    1.1199767   -2.4452048   -2.4452048  -0.76524395   0.13152213   -2.4452048    1.6799609   396900 
 1920000    1.1222984    -2.450176    -2.450176  -0.76673258   0.13017788    -2.450176    1.6834434   396900 
 1921000    1.1217092   -2.4489882   -2.4489882  -0.76642853   0.13263794   -2.4489882    1.6825596   396900 
 1922000    1.1230189   -2.4489315   -2.4489315  -0.76440744   0.13377589   -2.4489315    1.6845241   396900 
 1923000    1.1206762   -2.4470764   -2.4470764  -0.76606634   0.12587392   -2.4470764    1.6810101   396900 
 1924000     1.121539    -2.449264    -2.449264   -0.7669598   0.12807542    -2.449264    1.6823042   396900 
 1925000    1.1250482   -2.4509167   -2.4509167  -0.76334876   0.12692561   -2.4509167     1.687568   396900 
 1926000    1.1220479   -2.4489737   -2.4489737  -0.76590605   0.12927407   -2.4489737    1.6830677   396900 
 1927000    1.1202213   -2.4487766   -2.4487766  -0.76844884   0.13285482   -2.4487766    1.6803278   396900 
 1928000    1.1222614   -2.4496669   -2.4496669  -0.76627902   0.12992881   -2.4496669    1.6833879   396900 
 1929000    1.1227132    -2.452174    -2.452174  -0.76810855   0.13164151    -2.452174    1.6840655   396900 
 1930000    1.1229812   -2.4491849   -2.4491849  -0.76471736    0.1326751   -2.4491849    1.6844675   396900 
 1931000     1.124029   -2.4491863   -2.4491863  -0.76314706   0.13353388   -2.4491863    1.6860393   396900 
 1932000     1.121833   -2.4483272   -2.4483272   -0.7655819   0.12907441   -2.4483272    1.6827453   396900 
 1933000    1.1220173   -2.4481058   -2.4481058  -0.76508414   0.12642623   -2.4481058    1.6830217   396900 
 1934000    1.1215201   -2.4496624   -2.4496624  -0.76738656   0.13073493   -2.4496624    1.6822759   396900 
 1935000      1.12171   -2.4491038   -2.4491038  -0.76654303   0.12857974   -2.4491038    1.6825607   396900 
 1936000    1.1220659   -2.4483189   -2.4483189  -0.76522425   0.12994548   -2.4483189    1.6830946   396900 
 1937000    1.1206324   -2.4486533   -2.4486533  -0.76770896   0.13355592   -2.4486533    1.6809444   396900 
 1938000     1.121571   -2.4481409   -2.4481409  -0.76578865    0.1302751   -2.4481409    1.6823523   396900 
 1939000    1.1214695   -2.4489089   -2.4489089  -0.76670886   0.12685552   -2.4489089       1.6822   396900 
 1940000    1.1211366    -2.445826    -2.445826  -0.76412538   0.13282291    -2.445826    1.6817006   396900 
 1941000    1.1210826    -2.447272    -2.447272  -0.76565234   0.13221772    -2.447272    1.6816197   396900 
 1942000    1.1224195   -2.4515126   -2.4515126  -0.76788754   0.12949363   -2.4515126     1.683625   396900 
 1943000    1.1235373   -2.4526657   -2.4526657  -0.76736408   0.13119558   -2.4526657    1.6853017   396900 
 1944000    1.1233248   -2.4529568   -2.4529568  -0.76797396    0.1317436   -2.4529568    1.6849829   396900 
 1945000    1.1236504   -2.4504187   -2.4504187   -0.7649474   0.13000326   -2.4504187    1.6854713   396900 
 1946000     1.124531   -2.4503183   -2.4503183  -0.76352609   0.13305718   -2.4503183    1.6867922   396900 
 1947000    1.1209503   -2.4478235   -2.4478235  -0.76640234   0.13375814   -2.4478235    1.6814212   396900 
 1948000    1.1215369   -2.4479463   -2.4479463   -0.7656452   0.12817473   -2.4479463    1.6823011   396900 
 1949000    1.1231498   -2.4507724   -2.4507724  -0.76605196   0.13327581   -2.4507724    1.6847204   396900 
 1950000    1.1214079   -2.4491362   -2.4491362  -0.76702858   0.13238302   -2.4491362    1.6821076   396900 
 1951000    1.1229162   -2.4511172   -2.4511172  -0.76674716    0.1304237   -2.4511172      1.68437   396900 
 1952000    1.1226548   -2.4505421   -2.4505421  -0.76656414   0.13162179   -2.4505421     1.683978   396900 
 1953000    1.1225981   -2.4517619   -2.4517619  -0.76786903   0.13489549   -2.4517619    1.6838928   396900 
 1954000    1.1226853    -2.452083    -2.452083  -0.76805934   0.13035635    -2.452083    1.6840237   396900 
 1955000    1.1229879   -2.4513464   -2.4513464  -0.76686878   0.12879969   -2.4513464    1.6844777   396900 
 1956000    1.1225651   -2.4479173   -2.4479173  -0.76407384   0.12996992   -2.4479173    1.6838434   396900 
 1957000    1.1231229   -2.4491654   -2.4491654  -0.76448528   0.13288631   -2.4491654    1.6846801   396900 
 1958000    1.1229384   -2.4496964   -2.4496964  -0.76529309   0.13399108   -2.4496964    1.6844033   396900 
 1959000    1.1233833   -2.4501893   -2.4501893  -0.76511864   0.12936068   -2.4501893    1.6850706   396900 
 1960000    1.1222803   -2.4499179   -2.4499179  -0.76650174   0.13109027   -2.4499179    1.6834162   396900 
 1961000    1.1223463     -2.45025     -2.45025  -0.76673476   0.13019114     -2.45025    1.6835152   396900 
 1962000     1.123017    -2.450925    -2.450925  -0.76640382   0.12966973    -2.450925    1.6845212   396900 
 1963000    1.1215795   -2.4503315   -2.4503315  -0.76796649   0.12930446   -2.4503315     1.682365   396900 
 1964000    1.1219588    -2.448938    -2.448938  -0.76600405   0.13572263    -2.448938    1.6829339   396900 
 1965000    1.1221471   -2.4494205   -2.4494205  -0.76620403   0.12542328   -2.4494205    1.6832165   396900 
 1966000    1.1246056    -2.451966    -2.451966  -0.76506186   0.13430084    -2.451966    1.6869041   396900 
 1967000    1.1233585   -2.4504668   -2.4504668   -0.7654333   0.13978993   -2.4504668    1.6850335   396900 
 1968000    1.1254825   -2.4517051   -2.4517051  -0.76348555   0.12902547   -2.4517051    1.6882195   396900 
 1969000    1.1233934   -2.4467406   -2.4467406   -0.7616548   0.13240651   -2.4467406    1.6850858   396900 
 1970000     1.125128   -2.4476102   -2.4476102  -0.75992248   0.13259847   -2.4476102    1.6876877   396900 
 1971000    1.1275723   -2.4494637   -2.4494637   -0.7581095   0.13426392   -2.4494637    1.6913542   396900 
 1972000     1.125866   -2.4453888   -2.4453888  -0.75659409   0.13224534   -2.4453888    1.6887947   396900 
 1973000    1.1262372   -2.4472024   -2.4472024  -0.75785088   0.13664019   -2.4472024    1.6893516   396900 
 1974000    1.1255863   -2.4459434   -2.4459434  -0.75756821   0.13565398   -2.4459434    1.6883752   396900 
 1975000    1.1254069   -2.4457634   -2.4457634  -0.75765734   0.13174894   -2.4457634    1.6881061   396900 
 1976000    1.1241836   -2.4440629   -2.4440629  -0.75779182   0.12798868   -2.4440629    1.6862711   396900 
 1977000    1.1257188   -2.4483921   -2.4483921  -0.75981812   0.13126806   -2.4483921     1.688574   396900 
 1978000    1.1254901   -2.4487365   -2.4487365  -0.76050559   0.13262467   -2.4487365    1.6882309   396900 
 1979000    1.1262069   -2.4500293   -2.4500293  -0.76072319    0.1327008   -2.4500293    1.6893061   396900 
 1980000    1.1249138    -2.447053    -2.447053  -0.75968651   0.13376331    -2.447053    1.6873665   396900 
 1981000    1.1260083   -2.4458332   -2.4458332  -0.75682505   0.13506476   -2.4458332    1.6890082   396900 
 1982000    1.1243538   -2.4441551   -2.4441551  -0.75762867   0.13416793   -2.4441551    1.6865264   396900 
 1983000    1.1261785   -2.4454469   -2.4454469  -0.75618342   0.13366247   -2.4454469    1.6892635   396900 
 1984000    1.1244257   -2.4456368   -2.4456368  -0.75900247   0.13472298   -2.4456368    1.6866343   396900 
 1985000    1.1247379   -2.4459344   -2.4459344  -0.75883176   0.13270217   -2.4459344    1.6871027   396900 
 1986000     1.125312    -2.446582    -2.446582  -0.75861826   0.13123326    -2.446582    1.6879637   396900 
 1987000    1.1248173   -2.4470524   -2.4470524  -0.75983076    0.1346464   -2.4470524    1.6872217   396900 
 1988000    1.1240436   -2.4455865   -2.4455865  -0.75952542   0.12963933   -2.4455865    1.6860611   396900 
 1989000    1.1273425   -2.4454598   -2.4454598   -0.7544503   0.13373306   -2.4454598    1.6910095   396900 
 1990000    1.1262981   -2.4434617   -2.4434617  -0.75401884   0.13614793   -2.4434617    1.6894429   396900 
 1991000    1.1266671    -2.444544    -2.444544   -0.7545477   0.13465164    -2.444544    1.6899963   396900 
 1992000    1.1272084   -2.4433758   -2.4433758  -0.75256744   0.13833932   -2.4433758    1.6908084   396900 
 1993000     1.126748    -2.444636    -2.444636   -0.7545183   0.13316445    -2.444636    1.6901177   396900 
 1994000    1.1268895   -2.4455682   -2.4455682  -0.75523813   0.13158884   -2.4455682      1.69033   396900 
 1995000    1.1263975   -2.4448298   -2.4448298  -0.75523774   0.13543508   -2.4448298     1.689592   396900 
 1996000    1.1260857   -2.4444661   -2.4444661  -0.75534184   0.13679641   -2.4444661    1.6891242   396900 
 1997000    1.1247205   -2.4428202   -2.4428202  -0.75574375   0.13146551   -2.4428202    1.6870764   396900 
 1998000     1.128779   -2.4462218   -2.4462218  -0.75305759   0.13341924   -2.4462218    1.6931642   396900 
 1999000    1.1261693   -2.4424943   -2.4424943  -0.75324463   0.12960399   -2.4424943    1.6892497   396900 
 2000000     1.127129   -2.4424525   -2.4424525  -0.75176327   0.13283489   -2.4424525    1.6906892   396900 
 2001000    1.1250866   -2.4417166   -2.4417166   -0.7540909   0.13749491   -2.4417166    1.6876256   396900 
 2002000    1.1260888   -2.4421407   -2.4421407  -0.75301173   0.13324019   -2.4421407    1.6891289   396900 
 2003000    1.1264997   -2.4419945   -2.4419945  -0.75224917    0.1386446   -2.4419945    1.6897453   396900 
 2004000    1.1278414   -2.4421002   -2.4421002  -0.75034237   0.14045692   -2.4421002    1.6917578   396900 
 2005000    1.1265706   -2.4411716   -2.4411716  -0.75132002   0.13368598   -2.4411716    1.6898516   396900 
 2006000     1.130139   -2.4438601   -2.4438601  -0.74865591   0.13344967   -2.4438601    1.6952042   396900 
 2007000    1.1277717   -2.4430574   -2.4430574  -0.75140414   0.13425384   -2.4430574    1.6916533   396900 
 2008000    1.1261834   -2.4408609   -2.4408609  -0.75159002   0.13411452   -2.4408609    1.6892709   396900 
 2009000    1.1250896   -2.4392477   -2.4392477  -0.75161753   0.13354984   -2.4392477    1.6876302   396900 
 2010000    1.1279918   -2.4413378   -2.4413378  -0.74935431   0.13512089   -2.4413378    1.6919835   396900 
 2011000     1.127294   -2.4408612   -2.4408612  -0.74992449   0.13334349   -2.4408612    1.6909367   396900 
 2012000    1.1291474    -2.442724    -2.442724  -0.74900715   0.13670039    -2.442724    1.6937168   396900 
 2013000    1.1279536   -2.4424407   -2.4424407  -0.75051456     0.137245   -2.4424407    1.6919262   396900 
 2014000     1.126209   -2.4410169   -2.4410169  -0.75170761   0.12987161   -2.4410169    1.6893093   396900 
 2015000    1.1272275   -2.4419667   -2.4419667  -0.75112973   0.13467249   -2.4419667     1.690837   396900 
 2016000    1.1267578    -2.441019    -2.441019  -0.75088658   0.13632428    -2.441019    1.6901325   396900 
 2017000    1.1258607   -2.4391202   -2.4391202  -0.75033333   0.13340813   -2.4391202    1.6887868   396900 
 2018000    1.1272355   -2.4409869   -2.4409869  -0.75013794   0.13591693   -2.4409869    1.6908489   396900 
 2019000    1.1267697   -2.4391753   -2.4391753  -0.74902503   0.13773833   -2.4391753    1.6901503   396900 
 2020000    1.1289517   -2.4432581   -2.4432581  -0.74983487   0.13552594   -2.4432581    1.6934232   396900 
 2021000    1.1282301   -2.4416583   -2.4416583  -0.74931738   0.13666211   -2.4416583    1.6923409   396900 
 2022000    1.1279695   -2.4429253   -2.4429253   -0.7509752   0.13817667   -2.4429253    1.6919501   396900 
 2023000    1.1264342   -2.4421969   -2.4421969  -0.75254975   0.13650071   -2.4421969    1.6896471   396900 
 2024000    1.1264062   -2.4414305   -2.4414305  -0.75182553   0.13611058   -2.4414305     1.689605   396900 
 2025000    1.1269695   -2.4397696   -2.4397696  -0.74931958   0.13439723   -2.4397696      1.69045   396900 
 2026000     1.129471   -2.4443797   -2.4443797  -0.75017749    0.1348011   -2.4443797    1.6942022   396900 
 2027000    1.1272477   -2.4414133   -2.4414133  -0.75054599   0.13386175   -2.4414133    1.6908673   396900 
 2028000    1.1274611   -2.4428839   -2.4428839  -0.75169646   0.13576256   -2.4428839    1.6911874   396900 
 2029000    1.1294816   -2.4418701   -2.4418701  -0.74765206   0.13476015   -2.4418701    1.6942181   396900 
 2030000    1.1275424   -2.4399504   -2.4399504  -0.74864109    0.1343359   -2.4399504    1.6913093   396900 
 2031000    1.1280338   -2.4429863   -2.4429863  -0.75093983   0.13575477   -2.4429863    1.6920464   396900 
 2032000    1.1281248   -2.4432176   -2.4432176  -0.75103461   0.13410281   -2.4432176     1.692183   396900 
 2033000    1.1260385   -2.4403298   -2.4403298  -0.75127631     0.130927   -2.4403298    1.6890534   396900 
 2034000    1.1273655   -2.4418729   -2.4418729  -0.75082898   0.13319347   -2.4418729    1.6910439   396900 
 2035000    1.1298155   -2.4425515   -2.4425515  -0.74783257   0.13621292   -2.4425515    1.6947189   396900 
 2036000    1.1278585    -2.439331    -2.439331  -0.74754752    0.1340464    -2.439331    1.6917835   396900 
 2037000    1.1291712   -2.4427051   -2.4427051  -0.74895249   0.13507889   -2.4427051    1.6937526   396900 
 2038000    1.1263765   -2.4391138   -2.4391138  -0.74955332    0.1345758   -2.4391138    1.6895605   396900 
 2039000     1.129078    -2.441861    -2.441861  -0.74824836   0.13171485    -2.441861    1.6936127   396900 
 2040000    1.1272106   -2.4401678   -2.4401678  -0.74935612   0.13099815   -2.4401678    1.6908117   396900 
 2041000    1.1292507   -2.4420955   -2.4420955  -0.74822367   0.13299819   -2.4420955    1.6938718   396900 
 2042000    1.1280955   -2.4423615   -2.4423615  -0.75022246   0.13545473   -2.4423615     1.692139   396900 
 2043000    1.1281454   -2.4415841   -2.4415841  -0.74937019   0.13655769   -2.4415841    1.6922139   396900 
 2044000    1.1279565   -2.4418813   -2.4418813  -0.74995084   0.13550899   -2.4418813    1.6919304   396900 
 2045000    1.1287835   -2.4426272   -2.4426272  -0.74945617   0.13668815   -2.4426272     1.693171   396900 
 2046000    1.1291417   -2.4423077   -2.4423077  -0.74859936   0.13065195   -2.4423077    1.6937083   396900 
 2047000    1.1288582   -2.4413192   -2.4413192  -0.74803605   0.13451062   -2.4413192    1.6932831   396900 
 2048000    1.1297095   -2.4408697   -2.4408697  -0.74630981   0.13372821   -2.4408697    1.6945599   396900 
 2049000    1.1282401   -2.4408099   -2.4408099  -0.74845404   0.13574846   -2.4408099    1.6923559   396900 
 2050000     1.129189   -2.4407082   -2.4407082  -0.74692887   0.13707554   -2.4407082    1.6937793   396900 
 2051000    1.1283995   -2.4396332   -2.4396332  -0.74703817   0.13485955   -2.4396332     1.692595   396900 
 2052000    1.1306532   -2.4412003   -2.4412003  -0.74522473   0.13565859   -2.4412003    1.6959756   396900 
 2053000    1.1292553   -2.4380242   -2.4380242  -0.74414559   0.13867548   -2.4380242    1.6938786   396900 
 2054000    1.1296836   -2.4376319   -2.4376319   -0.7431107   0.13239772   -2.4376319    1.6945212   396900 
 2055000    1.1309981   -2.4391255   -2.4391255  -0.74263256   0.13842709   -2.4391255    1.6964929   396900 
 2056000    1.1319031   -2.4429996   -2.4429996  -0.74514932   0.13785232   -2.4429996    1.6978503   396900 
 2057000    1.1293545   -2.4384148   -2.4384148  -0.74438732   0.13447191   -2.4384148    1.6940275   396900 
 2058000      1.12912   -2.4366738   -2.4366738  -0.74299815   0.13531018   -2.4366738    1.6936757   396900 
 2059000    1.1309906   -2.4381356   -2.4381356  -0.74165394   0.13609817   -2.4381356    1.6964817   396900 
 2060000    1.1304276   -2.4368901   -2.4368901  -0.74125298   0.13744393   -2.4368901    1.6956372   396900 
 2061000    1.1314996   -2.4386097   -2.4386097  -0.74136453   0.13628705   -2.4386097    1.6972452   396900 
 2062000    1.1312058   -2.4368744   -2.4368744  -0.74007007    0.1377727   -2.4368744    1.6968044   396900 
 2063000    1.1291425   -2.4365052   -2.4365052  -0.74279576   0.13353245   -2.4365052    1.6937094   396900 
 2064000     1.130156   -2.4350128   -2.4350128  -0.73978312   0.13978213   -2.4350128    1.6952297   396900 
 2065000    1.1306192   -2.4365764   -2.4365764  -0.74065184   0.13986929   -2.4365764    1.6959246   396900 
 2066000    1.1313544   -2.4379577   -2.4379577  -0.74093038   0.13662379   -2.4379577    1.6970273   396900 
 2067000     1.130482   -2.4371685   -2.4371685  -0.74144978   0.13547886   -2.4371685    1.6957187   396900 
 2068000    1.1307839   -2.4371825   -2.4371825  -0.74101094   0.13873682   -2.4371825    1.6961715   396900 
 2069000     1.131926    -2.434277    -2.434277  -0.73639232   0.13777343    -2.434277    1.6978847   396900 
 2070000    1.1321023   -2.4369775   -2.4369775   -0.7388284   0.13988566   -2.4369775    1.6981492   396900 
 2071000    1.1323148   -2.4391431   -2.4391431  -0.74067514   0.13554251   -2.4391431     1.698468   396900 
 2072000    1.1312793   -2.4383496   -2.4383496  -0.74143489   0.13680475   -2.4383496    1.6969147   396900 
 2073000    1.1315748   -2.4366194   -2.4366194  -0.73926148   0.14217118   -2.4366194     1.697358   396900 
 2074000    1.1315551   -2.4369332   -2.4369332  -0.73960487   0.13804336   -2.4369332    1.6973283   396900 
 2075000    1.1313171    -2.437749    -2.437749  -0.74077766   0.13698875    -2.437749    1.6969714   396900 
 2076000    1.1303732   -2.4375257   -2.4375257  -0.74197026    0.1390039   -2.4375257    1.6955555   396900 
 2077000    1.1312452   -2.4395216   -2.4395216   -0.7426581   0.13612603   -2.4395216    1.6968635   396900 
 2078000    1.1308358   -2.4382498   -2.4382498  -0.74200028   0.13404727   -2.4382498    1.6962495   396900 
 2079000    1.1314859   -2.4396254   -2.4396254  -0.74240087   0.13744144   -2.4396254    1.6972245   396900 
 2080000    1.1293743   -2.4381986   -2.4381986   -0.7441414    0.1371717   -2.4381986    1.6940572   396900 
 2081000     1.129549   -2.4368897   -2.4368897  -0.74257047   0.13857019   -2.4368897    1.6943192   396900 
 2082000    1.1323205    -2.438816    -2.438816  -0.74033952   0.14081185    -2.438816    1.6984765   396900 
 2083000    1.1302623   -2.4361086   -2.4361086  -0.74071943   0.13459628   -2.4361086    1.6953892   396900 
 2084000    1.1303138   -2.4349983   -2.4349983  -0.73953185   0.13403628   -2.4349983    1.6954664   396900 
 2085000    1.1302865   -2.4349414   -2.4349414  -0.73951586   0.13910647   -2.4349414    1.6954255   396900 
 2086000    1.1326502   -2.4361338   -2.4361338  -0.73716285   0.14184454   -2.4361338     1.698971   396900 
 2087000    1.1339704   -2.4393645   -2.4393645   -0.7384132   0.14079646   -2.4393645    1.7009513   396900 
 2088000    1.1323353   -2.4370054   -2.4370054  -0.73850669   0.14369209   -2.4370054    1.6984987   396900 
 2089000    1.1314833   -2.4323112   -2.4323112  -0.73509053   0.14119282   -2.4323112    1.6972207   396900 
 2090000    1.1329815    -2.435414    -2.435414  -0.73594604   0.13637775    -2.435414     1.699468   396900 
 2091000    1.1326266   -2.4358396   -2.4358396  -0.73690395   0.13811389   -2.4358396    1.6989357   396900 
 2092000    1.1346968   -2.4385317   -2.4385317  -0.73649078    0.1403611   -2.4385317     1.702041   396900 
 2093000    1.1312152   -2.4313587   -2.4313587  -0.73454013   0.13909373   -2.4313587    1.6968185   396900 
 2094000    1.1350757   -2.4342365   -2.4342365  -0.73162718   0.14358487   -2.4342365    1.7026093   396900 
 2095000    1.1334851   -2.4346106   -2.4346106  -0.73438729   0.14134615   -2.4346106    1.7002233   396900 
 2096000    1.1334561   -2.4344709   -2.4344709  -0.73429106   0.13935599   -2.4344709    1.7001799   396900 
 2097000    1.1329221   -2.4320405   -2.4320405  -0.73266155    0.1401261   -2.4320405    1.6993789   396900 
 2098000    1.1325336   -2.4327119   -2.4327119  -0.73391576   0.13650451   -2.4327119    1.6987961   396900 
 2099000    1.1348915   -2.4350374   -2.4350374  -0.73270444   0.14100147   -2.4350374     1.702333   396900 
 2100000    1.1350569   -2.4328115   -2.4328115  -0.73023042   0.14459008   -2.4328115    1.7025811   396900 
 2101000    1.1338454   -2.4332824   -2.4332824  -0.73251862    0.1345941   -2.4332824    1.7007638   396900 
 2102000    1.1323567   -2.4309237   -2.4309237  -0.73239289   0.14042503   -2.4309237    1.6985308   396900 
 2103000    1.1334986   -2.4317803   -2.4317803  -0.73153666   0.14011489   -2.4317803    1.7002436   396900 
 2104000    1.1354035   -2.4327152   -2.4327152  -0.72961432   0.13970036   -2.4327152    1.7031009   396900 
 2105000    1.1346684    -2.432984    -2.432984  -0.73098568   0.14340289    -2.432984    1.7019983   396900 
 2106000    1.1327473   -2.4332659   -2.4332659  -0.73414923    0.1407146   -2.4332659    1.6991167   396900 
 2107000    1.1329731   -2.4310768   -2.4310768  -0.73162146   0.14131274   -2.4310768    1.6994554   396900 
 2108000    1.1347043   -2.4320582   -2.4320582  -0.73000599   0.13762078   -2.4320582    1.7020522   396900 
 2109000    1.1335114   -2.4308691   -2.4308691  -0.73060628   0.13932706   -2.4308691    1.7002628   396900 
 2110000    1.1354247   -2.4331169   -2.4331169  -0.72998404   0.13838655   -2.4331169    1.7031328   396900 
 2111000    1.1337825   -2.4329585   -2.4329585  -0.73228911   0.14038368   -2.4329585    1.7006694   396900 
 2112000    1.1317386   -2.4294126   -2.4294126  -0.73180898   0.13591076   -2.4294126    1.6976036   396900 
 2113000     1.132762   -2.4292466   -2.4292466  -0.73010789   0.14382456   -2.4292466    1.6991387   396900 
 2114000    1.1355791    -2.433421    -2.433421  -0.73005658   0.13407953    -2.433421    1.7033644   396900 
 2115000    1.1379535   -2.4333541   -2.4333541   -0.7264281   0.14412437   -2.4333541     1.706926   396900 
 2116000     1.138104   -2.4348416   -2.4348416   -0.7276899   0.14376494   -2.4348416    1.7071517   396900 
 2117000    1.1353017   -2.4304049   -2.4304049  -0.72745661   0.13881645   -2.4304049    1.7029483   396900 
 2118000    1.1329194   -2.4284896   -2.4284896  -0.72911473   0.14031155   -2.4284896    1.6993748   396900 
 2119000    1.1362705   -2.4300809   -2.4300809  -0.72567952   0.13939621   -2.4300809    1.7044014   396900 
 2120000    1.1373755   -2.4290848   -2.4290848  -0.72302585   0.14267973   -2.4290848    1.7060589   396900 
 2121000    1.1371249   -2.4315421   -2.4315421  -0.72585898   0.14307875   -2.4315421    1.7056831   396900 
 2122000    1.1368263   -2.4299371   -2.4299371  -0.72470199   0.14016787   -2.4299371    1.7052351   396900 
 2123000    1.1375275   -2.4308667   -2.4308667  -0.72457975   0.14107928   -2.4308667     1.706287   396900 
 2124000    1.1371758   -2.4313077   -2.4313077  -0.72554831   0.14254729   -2.4313077    1.7057594   396900 
 2125000    1.1365625   -2.4317138   -2.4317138  -0.72687432   0.14044461   -2.4317138    1.7048395   396900 
 2126000    1.1363586   -2.4296592   -2.4296592  -0.72512555   0.14358655   -2.4296592    1.7045337   396900 
 2127000    1.1366879   -2.4298243   -2.4298243  -0.72479669   0.13881114   -2.4298243    1.7050276   396900 
 2128000    1.1373821   -2.4308717   -2.4308717  -0.72480287    0.1378847   -2.4308717    1.7060688   396900 
 2129000    1.1365239    -2.429296    -2.429296  -0.72451448   0.13930021    -2.429296    1.7047815   396900 
 2130000    1.1369937   -2.4292261   -2.4292261  -0.72373983   0.14556346   -2.4292261    1.7054863   396900 
 2131000    1.1382584   -2.4307531   -2.4307531  -0.72336973   0.14396562   -2.4307531    1.7073834   396900 
 2132000    1.1373417   -2.4307005   -2.4307005  -0.72469227   0.14550592   -2.4307005    1.7060082   396900 
 2133000    1.1376082   -2.4301089   -2.4301089  -0.72370092   0.14373809   -2.4301089     1.706408   396900 
 2134000    1.1365818   -2.4289401   -2.4289401  -0.72407168   0.14248296   -2.4289401    1.7048685   396900 
 2135000    1.1369235   -2.4297161   -2.4297161  -0.72433522    0.1436623   -2.4297161    1.7053809   396900 
 2136000    1.1359068   -2.4275934   -2.4275934  -0.72373744   0.14397807   -2.4275934     1.703856   396900 
 2137000    1.1380304   -2.4295149   -2.4295149  -0.72247365    0.1455844   -2.4295149    1.7070413   396900 
 2138000    1.1385782   -2.4312429   -2.4312429  -0.72337993   0.14561091   -2.4312429     1.707863   396900 
 2139000    1.1374207   -2.4293223   -2.4293223  -0.72319549   0.14101073   -2.4293223    1.7061268   396900 
 2140000    1.1383902   -2.4304037   -2.4304037  -0.72282264   0.14276494   -2.4304037     1.707581   396900 
 2141000    1.1369605   -2.4284296   -2.4284296  -0.72299312   0.14362875   -2.4284296    1.7054365   396900 
 2142000    1.1353451   -2.4262247   -2.4262247  -0.72321139   0.14387147   -2.4262247    1.7030133   396900 
 2143000     1.137841   -2.4290418   -2.4290418  -0.72228462    0.1396955   -2.4290418    1.7067572   396900 
 2144000    1.1415261   -2.4314096   -2.4314096  -0.71912483   0.14287885   -2.4314096    1.7122848   396900 
 2145000    1.1383673   -2.4286825   -2.4286825  -0.72113579   0.14625085   -2.4286825    1.7075467   396900 
 2146000    1.1371008   -2.4285947   -2.4285947  -0.72294774   0.13989087   -2.4285947    1.7056469   396900 
 2147000    1.1368229   -2.4317703   -2.4317703  -0.72654022   0.13848673   -2.4317703    1.7052301   396900 
 2148000    1.1368744    -2.429799    -2.429799  -0.72449176   0.14180429    -2.429799    1.7053072   396900 
 2149000    1.1412289   -2.4296797   -2.4296797   -0.7178407   0.14300532   -2.4296797     1.711839   396900 
 2150000    1.1360964   -2.4258267   -2.4258267  -0.72168643   0.14047224   -2.4258267    1.7041403   396900 
 2151000      1.13678   -2.4268849   -2.4268849  -0.72171931   0.14863377   -2.4268849    1.7051656   396900 
 2152000     1.139095   -2.4301393   -2.4301393  -0.72150103   0.14196259   -2.4301393    1.7086383   396900 
 2153000    1.1379406    -2.430059    -2.430059  -0.72315237   0.14237815    -2.430059    1.7069066   396900 
 2154000    1.1393584   -2.4319245   -2.4319245  -0.72289118   0.13703797   -2.4319245    1.7090333   396900 
 2155000    1.1384255   -2.4321328   -2.4321328  -0.72449885   0.14230141   -2.4321328     1.707634   396900 
 2156000    1.1367932   -2.4293335   -2.4293335  -0.72414797   0.14098418   -2.4293335    1.7051856   396900 
 2157000    1.1336162   -2.4276761   -2.4276761  -0.72725612   0.14213633   -2.4276761      1.70042   396900 
 2158000    1.1356874   -2.4290944   -2.4290944  -0.72556762   0.14308345   -2.4290944    1.7035268   396900 
 2159000    1.1372134   -2.4288461   -2.4288461  -0.72303033   0.14036416   -2.4288461    1.7058157   396900 
 2160000    1.1384949   -2.4286912   -2.4286912  -0.72095312   0.13890627   -2.4286912    1.7077381   396900 
 2161000    1.1395508   -2.4300504   -2.4300504  -0.72072847   0.14539438   -2.4300504    1.7093219   396900 
 2162000    1.1385723   -2.4288109   -2.4288109  -0.72095682   0.14171006   -2.4288109    1.7078541   396900 
 2163000    1.1374127   -2.4276204   -2.4276204  -0.72150556   0.14065602   -2.4276204    1.7061148   396900 
 2164000    1.1363045   -2.4272509   -2.4272509  -0.72279837   0.14125562   -2.4272509    1.7044525   396900 
 2165000    1.1343422   -2.4225032   -2.4225032  -0.72099413   0.14392313   -2.4225032    1.7015091   396900 
 2166000    1.1358429    -2.423809    -2.423809  -0.72004887   0.14178657    -2.423809    1.7037601   396900 
 2167000    1.1383223    -2.428499    -2.428499  -0.72101988   0.14447958    -2.428499    1.7074792   396900 
 2168000    1.1379241   -2.4260257   -2.4260257  -0.71914382   0.14502184   -2.4260257    1.7068819   396900 
 2169000      1.13821   -2.4274792   -2.4274792  -0.72016846   0.14211203   -2.4274792    1.7073107   396900 
 2170000    1.1391268    -2.429288    -2.429288  -0.72060207   0.14576241    -2.429288    1.7086859   396900 
 2171000    1.1366233   -2.4275137   -2.4275137  -0.72258308   0.14260353   -2.4275137    1.7049306   396900 
 2172000    1.1373372   -2.4272842   -2.4272842  -0.72128267   0.14141705   -2.4272842    1.7060016   396900 
 2173000    1.1373873   -2.4290552   -2.4290552  -0.72297862   0.14474165   -2.4290552    1.7060766   396900 
 2174000     1.136605   -2.4291986   -2.4291986  -0.72429544   0.14299132   -2.4291986    1.7049032   396900 
 2175000    1.1371684   -2.4312508   -2.4312508  -0.72550251   0.14276689   -2.4312508    1.7057483   396900 
 2176000    1.1348363   -2.4280656   -2.4280656  -0.72581548   0.14511863   -2.4280656    1.7022501   396900 
 2177000    1.1376029   -2.4306501   -2.4306501  -0.72425015   0.13934735   -2.4306501       1.7064   396900 
 2178000    1.1380335   -2.4291029   -2.4291029  -0.72205696   0.13717426   -2.4291029    1.7070459   396900 
 2179000     1.136123    -2.429641    -2.429641  -0.72546075   0.14283283    -2.429641    1.7041802   396900 
 2180000    1.1364232   -2.4301605   -2.4301605  -0.72553002    0.1438135   -2.4301605    1.7046305   396900 
 2181000    1.1364366   -2.4288294   -2.4288294  -0.72417883   0.14491999   -2.4288294    1.7046505   396900 
 2182000    1.1377559     -2.42801     -2.42801  -0.72138047   0.14214073     -2.42801    1.7066295   396900 
 2183000    1.1387211   -2.4281431   -2.4281431  -0.72006572   0.14256917   -2.4281431    1.7080774   396900 
 2184000     1.140102    -2.429897    -2.429897  -0.71974836   0.14400654    -2.429897    1.7101486   396900 
 2185000    1.1386238   -2.4258574   -2.4258574  -0.71792601   0.14321062   -2.4258574    1.7079314   396900 
 2186000    1.1376024    -2.424813    -2.424813  -0.71841364   0.14365912    -2.424813    1.7063994   396900 
 2187000    1.1394379   -2.4261937   -2.4261937  -0.71704112   0.14522389   -2.4261937    1.7091526   396900 
 2188000    1.1382388   -2.4274197   -2.4274197  -0.72006581   0.14804691   -2.4274197    1.7073539   396900 
 2189000    1.1396944   -2.4268976   -2.4268976  -0.71736027   0.14571195   -2.4268976    1.7095373   396900 
 2190000    1.1409055   -2.4279279   -2.4279279  -0.71657408   0.14633104   -2.4279279    1.7113539   396900 
 2191000    1.1408836   -2.4291288   -2.4291288  -0.71780775   0.14237103   -2.4291288    1.7113211   396900 
 2192000    1.1388441   -2.4276435   -2.4276435  -0.71938172   0.13895363   -2.4276435    1.7082618   396900 
 2193000    1.1396724    -2.427661    -2.427661  -0.71815679   0.14644184    -2.427661    1.7095042   396900 
 2194000     1.139208   -2.4270299   -2.4270299  -0.71822219   0.14945653   -2.4270299    1.7088077   396900 
 2195000    1.1410473   -2.4273138   -2.4273138  -0.71574719   0.14463292   -2.4273138    1.7115666   396900 
 2196000    1.1400582   -2.4270007   -2.4270007  -0.71691774    0.1470508   -2.4270007     1.710083   396900 
 2197000    1.1406106   -2.4268166   -2.4268166  -0.71590507   0.15106843   -2.4268166    1.7109116   396900 
 2198000    1.1389418   -2.4233709   -2.4233709  -0.71496245    0.1451723   -2.4233709    1.7084085   396900 
 2199000    1.1395789   -2.4237903   -2.4237903  -0.71442624    0.1443921   -2.4237903     1.709364   396900 
 2200000     1.141008   -2.4245774   -2.4245774  -0.71306975   0.14591431   -2.4245774    1.7115077   396900 
 2201000    1.1416064   -2.4242952   -2.4242952  -0.71188997   0.14648226   -2.4242952    1.7124053   396900 
 2202000    1.1430207   -2.4266007   -2.4266007  -0.71207392   0.14264486   -2.4266007    1.7145267   396900 
 2203000    1.1407041   -2.4238972   -2.4238972  -0.71284534   0.14123144   -2.4238972    1.7110519   396900 
 2204000    1.1414234   -2.4267368   -2.4267368  -0.71460592   0.13984206   -2.4267368    1.7121308   396900 
 2205000     1.140953   -2.4272715   -2.4272715  -0.71584622   0.14826634   -2.4272715    1.7114253   396900 
 2206000    1.1381509   -2.4237002   -2.4237002  -0.71647818   0.14371669   -2.4237002     1.707222   396900 
 2207000    1.1385788   -2.4220313   -2.4220313  -0.71416744   0.14842258   -2.4220313    1.7078638   396900 
 2208000    1.1402102   -2.4249961   -2.4249961  -0.71468514    0.1416985   -2.4249961    1.7103109   396900 
 2209000    1.1411738   -2.4247365   -2.4247365  -0.71298006   0.14395852   -2.4247365    1.7117564   396900 
 2210000    1.1409912   -2.4252403   -2.4252403  -0.71375783   0.14327547   -2.4252403    1.7114825   396900 
 2211000    1.1415972   -2.4256396   -2.4256396  -0.71324803   0.14374231   -2.4256396    1.7123915   396900 
 2212000    1.1413822   -2.4251463   -2.4251463  -0.71307723   0.14469971   -2.4251463    1.7120691   396900 
 2213000    1.1415322   -2.4258588   -2.4258588  -0.71356481    0.1480717   -2.4258588     1.712294   396900 
 2214000    1.1405181   -2.4237178   -2.4237178  -0.71294493   0.14369423   -2.4237178    1.7107729   396900 
 2215000    1.1426645   -2.4274062   -2.4274062  -0.71341378   0.14102039   -2.4274062    1.7139925   396900 
 2216000       1.1399   -2.4236999   -2.4236999  -0.71385413    0.1411306   -2.4236999    1.7098457   396900 
 2217000    1.1421129   -2.4249344   -2.4249344  -0.71176934   0.14560099   -2.4249344    1.7131651   396900 
 2218000    1.1410196   -2.4255239   -2.4255239  -0.71399885   0.13820477   -2.4255239    1.7115251   396900 
 2219000    1.1422416   -2.4243762   -2.4243762  -0.71101807    0.1401625   -2.4243762    1.7133581   396900 
 2220000     1.141836   -2.4227202   -2.4227202  -0.70997051   0.14377566   -2.4227202    1.7127497   396900 
 2221000    1.1423533   -2.4199553   -2.4199553   -0.7064297    0.1469732   -2.4199553    1.7135256   396900 
 2222000    1.1422418   -2.4183801   -2.4183801  -0.70502168   0.14864407   -2.4183801    1.7133584   396900 
 2223000    1.1446716   -2.4218557   -2.4218557   -0.7048526   0.14610657   -2.4218557    1.7170031   396900 
 2224000    1.1425155   -2.4210861   -2.4210861  -0.70731706   0.14740661   -2.4210861     1.713769   396900 
 2225000    1.1413783   -2.4219178   -2.4219178  -0.70985469   0.14159125   -2.4219178    1.7120631   396900 
 2226000    1.1431565   -2.4259488   -2.4259488  -0.71121828   0.14412474   -2.4259488    1.7147305   396900 
 2227000    1.1406555   -2.4228023   -2.4228023  -0.71182342   0.14610244   -2.4228023    1.7109789   396900 
 2228000    1.1413603    -2.423607    -2.423607  -0.71157088   0.14256403    -2.423607    1.7120361   396900 
 2229000    1.1419401   -2.4234649   -2.4234649  -0.71055901   0.14156025   -2.4234649    1.7129059   396900 
 2230000     1.143079   -2.4251358   -2.4251358   -0.7105215     0.143343   -2.4251358    1.7146143   396900 
 2231000    1.1424652   -2.4263356   -2.4263356  -0.71264217   0.14341495   -2.4263356    1.7136935   396900 
 2232000    1.1397292   -2.4241809   -2.4241809  -0.71459142   0.14358073   -2.4241809    1.7095895   396900 
 2233000    1.1434139   -2.4274306   -2.4274306  -0.71231412   0.14159974   -2.4274306    1.7151165   396900 
 2234000    1.1423978   -2.4275035   -2.4275035  -0.71391108   0.14477001   -2.4275035    1.7135924   396900 
 2235000    1.1397036   -2.4213959   -2.4213959  -0.71184474   0.14473849   -2.4213959    1.7095512   396900 
 2236000    1.1411658   -2.4246333   -2.4246333  -0.71288891   0.14165851   -2.4246333    1.7117444   396900 
 2237000    1.1423879   -2.4276708   -2.4276708  -0.71409322   0.13627249   -2.4276708    1.7135776   396900 
 2238000    1.1404298   -2.4207744   -2.4207744  -0.71013395   0.14879394   -2.4207744    1.7106404   396900 
 2239000    1.1412052   -2.4234989   -2.4234989  -0.71169538   0.14403472   -2.4234989    1.7118035   396900 
 2240000    1.1427902   -2.4248714   -2.4248714  -0.71069047   0.14325502   -2.4248714     1.714181   396900 
 2241000    1.1418333   -2.4240298   -2.4240298  -0.71128416   0.14825238   -2.4240298    1.7127456   396900 
 2242000     1.140454   -2.4202027   -2.4202027  -0.70952598   0.14890511   -2.4202027    1.7106767   396900 
 2243000    1.1434468   -2.4237178   -2.4237178  -0.70855194   0.14586734   -2.4237178    1.7151659   396900 
 2244000    1.1432166   -2.4220243   -2.4220243  -0.70720374   0.14361252   -2.4220243    1.7148205   396900 
 2245000    1.1427504   -2.4205778   -2.4205778  -0.70645659   0.14570619   -2.4205778    1.7141212   396900 
 2246000    1.1434628   -2.4226571   -2.4226571  -0.70746727   0.14458562   -2.4226571    1.7151899   396900 
 2247000    1.1425767   -2.4217022   -2.4217022  -0.70784154   0.14303543   -2.4217022    1.7138607   396900 
 2248000    1.1434848   -2.4230884   -2.4230884  -0.70786554   0.15094111   -2.4230884    1.7152229   396900 
 2249000    1.1430709   -2.4225207   -2.4225207  -0.70791858   0.14604802   -2.4225207    1.7146021   396900 
 2250000    1.1452448   -2.4239588   -2.4239588  -0.70609605   0.14832723   -2.4239588    1.7178628   396900 
 2251000    1.1445638   -2.4213197   -2.4213197  -0.70447829   0.14660448   -2.4213197    1.7168414   396900 
 2252000    1.1430162   -2.4202344   -2.4202344  -0.70571441   0.14756095   -2.4202344      1.71452   396900 
 2253000    1.1436494   -2.4215877   -2.4215877  -0.70611794   0.14516663   -2.4215877    1.7154698   396900 
 2254000    1.1423369    -2.419373    -2.419373    -0.705872   0.14516767    -2.419373     1.713501   396900 
 2255000    1.1436967   -2.4218107   -2.4218107  -0.70627001   0.14564817   -2.4218107    1.7155407   396900 
 2256000    1.1441054   -2.4213639   -2.4213639  -0.70521009   0.14633652   -2.4213639    1.7161538   396900 
 2257000    1.1418746   -2.4195699   -2.4195699  -0.70676233   0.14806871   -2.4195699    1.7128076   396900 
 2258000    1.1438345   -2.4214317   -2.4214317  -0.70568433   0.14648115   -2.4214317    1.7157474   396900 
 2259000    1.1436015   -2.4196775   -2.4196775  -0.70427965   0.14664144   -2.4196775    1.7153979   396900 
 2260000    1.1442749   -2.4202321   -2.4202321  -0.70382405   0.14613535   -2.4202321     1.716408   396900 
 2261000    1.1441564   -2.4196807   -2.4196807  -0.70345038   0.14691179   -2.4196807    1.7162303   396900 
 2262000    1.1434651   -2.4194968   -2.4194968  -0.70430349   0.15187986   -2.4194968    1.7151933   396900 
 2263000    1.1458175   -2.4221987   -2.4221987  -0.70347677   0.14394932   -2.4221987    1.7187219   396900 
 2264000    1.1434149    -2.419989    -2.419989  -0.70487103   0.15353422    -2.419989     1.715118   396900 
 2265000    1.1455396   -2.4232071   -2.4232071  -0.70490202    0.1467396   -2.4232071     1.718305   396900 
 2266000    1.1444144   -2.4236423   -2.4236423  -0.70702506   0.14706354   -2.4236423    1.7166172   396900 
 2267000    1.1438716   -2.4227867   -2.4227867  -0.70698371   0.14434826   -2.4227867     1.715803   396900 
 2268000     1.142205   -2.4208584   -2.4208584  -0.70755515   0.14781887   -2.4208584    1.7133032   396900 
 2269000     1.142859   -2.4208501   -2.4208501  -0.70656596   0.14443285   -2.4208501    1.7142842   396900 
 2270000     1.142286   -2.4210801   -2.4210801  -0.70765547   0.14438984   -2.4210801    1.7134246   396900 
 2271000    1.1436741   -2.4213491   -2.4213491  -0.70584233   0.14821097   -2.4213491    1.7155068   396900 
 2272000    1.1449597   -2.4217635   -2.4217635  -0.70432837   0.14645496   -2.4217635    1.7174352   396900 
 2273000    1.1439917    -2.420049    -2.420049  -0.70406574   0.14491354    -2.420049    1.7159832   396900 
 2274000    1.1448547   -2.4218585   -2.4218585  -0.70458072   0.14739189   -2.4218585    1.7172777   396900 
 2275000    1.1452629   -2.4227815   -2.4227815  -0.70489151   0.14552226   -2.4227815      1.71789   396900 
 2276000    1.1448621   -2.4203446   -2.4203446  -0.70305578   0.14454214   -2.4203446    1.7172888   396900 
 2277000    1.1420004   -2.4197893   -2.4197893  -0.70679303   0.14719327   -2.4197893    1.7129963   396900 
 2278000    1.1446555   -2.4216482   -2.4216482  -0.70466929   0.14516432   -2.4216482    1.7169789   396900 
 2279000    1.1431836   -2.4190431   -2.4190431  -0.70427195   0.15127824   -2.4190431    1.7147711   396900 
 2280000    1.1446059   -2.4211827   -2.4211827  -0.70427824   0.15129085   -2.4211827    1.7169045   396900 
 2281000    1.1453801   -2.4212508   -2.4212508  -0.70318501   0.14947603   -2.4212508    1.7180658   396900 
 2282000    1.1462428   -2.4225648   -2.4225648  -0.70320497   0.14482358   -2.4225648    1.7193599   396900 
 2283000    1.1454401   -2.4211803   -2.4211803   -0.7030245    0.1449447   -2.4211803    1.7181558   396900 
 2284000    1.1465537   -2.4237024   -2.4237024  -0.70387616   0.14291544   -2.4237024    1.7198263   396900 
 2285000    1.1442196   -2.4221137   -2.4221137  -0.70578868   0.14679004   -2.4221137     1.716325   396900 
 2286000    1.1448082   -2.4220186   -2.4220186  -0.70481059   0.14737849   -2.4220186     1.717208   396900 
 2287000    1.1469563   -2.4213664   -2.4213664  -0.70093634   0.14422512   -2.4213664    1.7204301   396900 
 2288000    1.1451996   -2.4187677   -2.4187677  -0.70097253   0.15136471   -2.4187677    1.7177951   396900 
 2289000    1.1432908   -2.4166839   -2.4166839  -0.70175202   0.14912844   -2.4166839    1.7149318   396900 
 2290000    1.1439788   -2.4198756   -2.4198756  -0.70391164   0.14778498   -2.4198756    1.7159639   396900 
 2291000    1.1432098   -2.4187471   -2.4187471  -0.70393673   0.14417727   -2.4187471    1.7148104   396900 
 2292000    1.1452174   -2.4189963   -2.4189963  -0.70117457   0.14785298   -2.4189963    1.7178218   396900 
 2293000    1.1456643   -2.4201895   -2.4201895  -0.70169743   0.14652878   -2.4201895    1.7184921   396900 
 2294000    1.1447854   -2.4191222   -2.4191222  -0.70194835   0.14502763   -2.4191222    1.7171738   396900 
 2295000    1.1447709   -2.4200154   -2.4200154  -0.70286339    0.1470542   -2.4200154     1.717152   396900 
 2296000    1.1458395    -2.417409    -2.417409  -0.69865408   0.14920593    -2.417409    1.7187549   396900 
 2297000    1.1457233   -2.4181606   -2.4181606  -0.69958007   0.14786874   -2.4181606    1.7185806   396900 
 2298000    1.1457458   -2.4174213   -2.4174213  -0.69880689   0.15557894   -2.4174213    1.7186144   396900 
 2299000    1.1443973   -2.4170535   -2.4170535  -0.70046189    0.1490894   -2.4170535    1.7165917   396900 
 2300000    1.1444408   -2.4182878   -2.4182878  -0.70163088   0.14260956   -2.4182878    1.7166569   396900 
 2301000    1.1459458   -2.4192022   -2.4192022  -0.70028778   0.14737087   -2.4192022    1.7189144   396900 
 2302000    1.1447923   -2.4180926   -2.4180926  -0.70090838   0.14697206   -2.4180926    1.7171842   396900 
 2303000     1.147068   -2.4188236   -2.4188236  -0.69822605   0.14693944   -2.4188236    1.7205976   396900 
 2304000    1.1493222   -2.4213766   -2.4213766  -0.69739763   0.15454824   -2.4213766    1.7239789   396900 
 2305000    1.1486534   -2.4177735   -2.4177735  -0.69479774   0.15266584   -2.4177735    1.7229758   396900 
 2306000    1.1491355   -2.4171525   -2.4171525  -0.69345359   0.15343104   -2.4171525    1.7236989   396900 
 2307000    1.1480522   -2.4170268   -2.4170268  -0.69495284   0.15411093   -2.4170268    1.7220739   396900 
 2308000    1.1480491   -2.4196032   -2.4196032  -0.69753387   0.15071149   -2.4196032    1.7220693   396900 
 2309000     1.146274   -2.4168566   -2.4168566  -0.69744991   0.14800984   -2.4168566    1.7194067   396900 
 2310000    1.1471788   -2.4175565   -2.4175565  -0.69679256   0.14442727   -2.4175565    1.7207639   396900 
 2311000    1.1475366   -2.4165067   -2.4165067  -0.69520616    0.1504831   -2.4165067    1.7213005   396900 
 2312000    1.1475015   -2.4171083   -2.4171083  -0.69586045   0.14974416   -2.4171083    1.7212479   396900 
 2313000      1.14701   -2.4161877   -2.4161877  -0.69567703   0.14942703   -2.4161877    1.7205107   396900 
 2314000     1.144362   -2.4141658   -2.4141658  -0.69762715   0.15077152   -2.4141658    1.7165386   396900 
 2315000    1.1474462    -2.417224    -2.417224  -0.69605895   0.14773668    -2.417224     1.721165   396900 
 2316000    1.1488497    -2.418862    -2.418862  -0.69559171   0.14737868    -2.418862    1.7232703   396900 
 2317000    1.1472251   -2.4150783   -2.4150783  -0.69424502   0.15117323   -2.4150783    1.7208333   396900 
 2318000    1.1484431   -2.4193182   -2.4193182  -0.69665786   0.14862115   -2.4193182    1.7226603   396900 
 2319000    1.1475784   -2.4159477   -2.4159477  -0.69458434   0.15161696   -2.4159477    1.7213633   396900 
 2320000    1.1470801   -2.4163666   -2.4163666  -0.69575076   0.14966127   -2.4163666    1.7206159   396900 
 2321000    1.1497477   -2.4187772   -2.4187772  -0.69415999   0.14977467   -2.4187772    1.7246172   396900 
 2322000    1.1484994   -2.4166719   -2.4166719  -0.69392719   0.15154103   -2.4166719    1.7227448   396900 
 2323000    1.1470042   -2.4126198   -2.4126198  -0.69211782   0.15281639   -2.4126198     1.720502   396900 
 2324000    1.1489998   -2.4155265   -2.4155265  -0.69203126   0.15186726   -2.4155265    1.7234953   396900 
 2325000    1.1466943   -2.4143517   -2.4143517  -0.69431451   0.15196056   -2.4143517    1.7200372   396900 
 2326000    1.1468028   -2.4153896   -2.4153896  -0.69518977   0.15603188   -2.4153896    1.7201999   396900 
 2327000    1.1489608   -2.4174239   -2.4174239  -0.69398711   0.15166041   -2.4174239    1.7234368   396900 
 2328000    1.1468954   -2.4149701   -2.4149701  -0.69463138   0.15206821   -2.4149701    1.7203387   396900 
 2329000    1.1481192   -2.4173216   -2.4173216  -0.69514722   0.15027953   -2.4173216    1.7221744   396900 
 2330000    1.1475772   -2.4163501   -2.4163501  -0.69498866   0.14871933   -2.4163501    1.7213615   396900 
 2331000    1.1476595   -2.4160172   -2.4160172  -0.69453221   0.15214019   -2.4160172     1.721485   396900 
 2332000     1.147304   -2.4164141   -2.4164141  -0.69546242   0.15613807   -2.4164141    1.7209517   396900 
 2333000    1.1462968   -2.4152391   -2.4152391  -0.69579816   0.15613233   -2.4152391    1.7194409   396900 
 2334000    1.1489203   -2.4150502   -2.4150502   -0.6916741   0.15456103   -2.4150502    1.7233761   396900 
 2335000    1.1469446   -2.4141427   -2.4141427  -0.69373019   0.14877524   -2.4141427    1.7204125   396900 
 2336000    1.1488376   -2.4162323   -2.4162323  -0.69298024   0.15228285   -2.4162323    1.7232521   396900 
 2337000    1.1502077   -2.4165093   -2.4165093  -0.69120207   0.15193194   -2.4165093    1.7253073   396900 
 2338000    1.1504457   -2.4166934   -2.4166934  -0.69102916   0.15440035   -2.4166934    1.7256642   396900 
 2339000    1.1497997   -2.4173284   -2.4173284  -0.69263323   0.14944259   -2.4173284    1.7246951   396900 
 2340000    1.1489797   -2.4170037   -2.4170037  -0.69353847   0.15530635   -2.4170037    1.7234652   396900 
 2341000    1.1474768   -2.4168595   -2.4168595  -0.69564867   0.14908428   -2.4168595    1.7212108   396900 
 2342000    1.1477129   -2.4164988   -2.4164988  -0.69493384   0.15610084   -2.4164988     1.721565   396900 
 2343000    1.1486776    -2.415551    -2.415551  -0.69253892   0.14942918    -2.415551    1.7230121   396900 
 2344000    1.1496992   -2.4174232   -2.4174232  -0.69287871   0.14814023   -2.4174232    1.7245445   396900 
 2345000    1.1479987   -2.4142925   -2.4142925  -0.69229876   0.14975311   -2.4142925    1.7219937   396900 
 2346000    1.1486398   -2.4145491   -2.4145491  -0.69159375   0.15000239   -2.4145491    1.7229553   396900 
 2347000    1.1486005   -2.4156671   -2.4156671   -0.6927707   0.15075908   -2.4156671    1.7228964   396900 
 2348000       1.1476   -2.4133793   -2.4133793  -0.69198358   0.15131056   -2.4133793    1.7213957   396900 
 2349000    1.1493319   -2.4164558   -2.4164558  -0.69246229   0.15107365   -2.4164558    1.7239935   396900 
 2350000    1.1505669   -2.4163462   -2.4163462  -0.69050019   0.15814153   -2.4163462     1.725846   396900 
 2351000    1.1487068   -2.4138007   -2.4138007  -0.69074489   0.15384629   -2.4138007    1.7230558   396900 
 2352000    1.1486722   -2.4134591   -2.4134591  -0.69045513   0.15208478   -2.4134591     1.723004   396900 
 2353000    1.1509064   -2.4152217   -2.4152217  -0.68886644   0.14917919   -2.4152217    1.7263552   396900 
 2354000    1.1513695   -2.4163418   -2.4163418  -0.68929189   0.15033759   -2.4163418    1.7270499   396900 
 2355000    1.1500342   -2.4139748   -2.4139748  -0.68892774   0.15703678   -2.4139748     1.725047   396900 
 2356000    1.1498891   -2.4133585   -2.4133585  -0.68852925   0.15315945   -2.4133585    1.7248292   396900 
 2357000    1.1501533   -2.4142375   -2.4142375  -0.68901183   0.15263378   -2.4142375    1.7252257   396900 
 2358000    1.1520554   -2.4145994   -2.4145994  -0.68652068   0.15650631   -2.4145994    1.7280787   396900 
 2359000    1.1525543   -2.4154485   -2.4154485  -0.68662145   0.14863419   -2.4154485     1.728827   396900 
 2360000    1.1513972   -2.4136731   -2.4136731  -0.68658173   0.15453966   -2.4136731    1.7270914   396900 
 2361000    1.1506529   -2.4115932   -2.4115932  -0.68561823   0.15086648   -2.4115932     1.725975   396900 
 2362000     1.151423   -2.4127174   -2.4127174  -0.68558725   0.15343856   -2.4127174    1.7271301   396900 
 2363000    1.1529375   -2.4150394   -2.4150394  -0.68563749   0.15368642   -2.4150394    1.7294019   396900 
 2364000    1.1501758   -2.4119361   -2.4119361  -0.68667678   0.15500021   -2.4119361    1.7252593   396900 
 2365000     1.151712   -2.4129649   -2.4129649  -0.68540119   0.15173692   -2.4129649    1.7275637   396900 
 2366000    1.1517822   -2.4135274   -2.4135274  -0.68585852   0.15532161   -2.4135274    1.7276689   396900 
 2367000    1.1528836   -2.4147691   -2.4147691  -0.68544798   0.15436548   -2.4147691    1.7293211   396900 
 2368000    1.1535618   -2.4129183   -2.4129183  -0.68258003   0.15600101   -2.4129183    1.7303383   396900 
 2369000    1.1529707   -2.4116432   -2.4116432  -0.68219158   0.15770641   -2.4116432    1.7294516   396900 
 2370000    1.1526639   -2.4152136   -2.4152136  -0.68622217   0.15317405   -2.4152136    1.7289914   396900 
 2371000    1.1525021     -2.41346     -2.41346  -0.68471122   0.15626923     -2.41346    1.7287488   396900 
 2372000    1.1522545   -2.4128405   -2.4128405  -0.68446315   0.15293715   -2.4128405    1.7283773   396900 
 2373000    1.1530642   -2.4114031   -2.4114031   -0.6818112   0.15358547   -2.4114031    1.7295919   396900 
 2374000    1.1536886   -2.4116191   -2.4116191  -0.68109066   0.15426811   -2.4116191    1.7305285   396900 
 2375000    1.1521289    -2.411674    -2.411674  -0.68348502   0.15656207    -2.411674     1.728189   396900 
 2376000    1.1523241   -2.4126421   -2.4126421  -0.68416033   0.15155527   -2.4126421    1.7284818   396900 
 2377000    1.1518562    -2.410703    -2.410703  -0.68292302   0.15038011    -2.410703      1.72778   396900 
 2378000    1.1521113   -2.4097884   -2.4097884  -0.68162577   0.15648393   -2.4097884    1.7281626   396900 
 2379000    1.1530348   -2.4098454   -2.4098454  -0.68029746   0.15420604   -2.4098454    1.7295479   396900 
 2380000    1.1515208   -2.4088871   -2.4088871  -0.68161035   0.15797263   -2.4088871    1.7272768   396900 
 2381000    1.1529539   -2.4109347   -2.4109347  -0.68150825   0.14998616   -2.4109347    1.7294265   396900 
 2382000    1.1532099   -2.4112295   -2.4112295  -0.68141902   0.15451835   -2.4112295    1.7298105   396900 
 2383000    1.1523671   -2.4113303   -2.4113303    -0.682784    0.1591616   -2.4113303    1.7285463   396900 
 2384000    1.1521133   -2.4097407   -2.4097407  -0.68157504   0.15223501   -2.4097407    1.7281657   396900 
 2385000    1.1529208   -2.4127658   -2.4127658  -0.68338896    0.1539028   -2.4127658    1.7293768   396900 
 2386000     1.151596   -2.4104212   -2.4104212   -0.6830316   0.15641203   -2.4104212    1.7273896   396900 
 2387000    1.1531953   -2.4122471   -2.4122471  -0.68245846   0.14918341   -2.4122471    1.7297886   396900 
 2388000    1.1523941   -2.4096745   -2.4096745  -0.68108773   0.15870437   -2.4096745    1.7285867   396900 
 2389000    1.1530253   -2.4113469   -2.4113469  -0.68181329   0.15220413   -2.4113469    1.7295336   396900 
 2390000    1.1516928   -2.4104059   -2.4104059  -0.68287106   0.15296224   -2.4104059    1.7275349   396900 
 2391000    1.1551523   -2.4109638   -2.4109638  -0.67823974    0.1518936   -2.4109638    1.7327241   396900 
 2392000    1.1549885   -2.4096731   -2.4096731  -0.67719477   0.15728882   -2.4096731    1.7324783   396900 
 2393000    1.1548238   -2.4105729   -2.4105729  -0.67834157   0.15996195   -2.4105729    1.7322314   396900 
 2394000    1.1526451   -2.4090872   -2.4090872  -0.68012386   0.15170712   -2.4090872    1.7289633   396900 
 2395000    1.1530799   -2.4090744   -2.4090744  -0.67945886   0.15547174   -2.4090744    1.7296156   396900 
 2396000    1.1529285    -2.408863    -2.408863  -0.67947458   0.15674276    -2.408863    1.7293884   396900 
 2397000    1.1544456   -2.4107361   -2.4107361  -0.67907201   0.15717794   -2.4107361    1.7316641   396900 
 2398000    1.1550879   -2.4125552   -2.4125552  -0.67992779   0.15229742   -2.4125552    1.7326275   396900 
 2399000    1.1520297   -2.4108789   -2.4108789  -0.68283868   0.15097812   -2.4108789    1.7280402   396900 
 2400000    1.1523134    -2.409496    -2.409496  -0.68103031   0.15482902    -2.409496    1.7284657   396900 
 2401000    1.1532523   -2.4126768   -2.4126768  -0.68280276   0.15614812   -2.4126768    1.7298741   396900 
 2402000    1.1525906   -2.4124609   -2.4124609  -0.68357936   0.15254944   -2.4124609    1.7288816   396900 
 2403000    1.1539948   -2.4111977   -2.4111977  -0.68020976   0.15828009   -2.4111977    1.7309879   396900 
 2404000    1.1550661   -2.4130572   -2.4130572  -0.68046247   0.14772448   -2.4130572    1.7325948   396900 
 2405000    1.1514702   -2.4096318   -2.4096318  -0.68243077   0.15654279   -2.4096318     1.727201   396900 
 2406000    1.1519568   -2.4115949   -2.4115949  -0.68366412   0.15248821   -2.4115949    1.7279308   396900 
 2407000    1.1539098   -2.4122935   -2.4122935  -0.68143321   0.15202668   -2.4122935    1.7308603   396900 
 2408000    1.1541542   -2.4134444   -2.4134444  -0.68221746    0.1490042   -2.4134444    1.7312269   396900 
 2409000     1.154968   -2.4124826   -2.4124826  -0.68003502   0.15202459   -2.4124826    1.7324476   396900 
 2410000    1.1528209   -2.4096904   -2.4096904  -0.68046344   0.15082318   -2.4096904     1.729227   396900 
 2411000     1.154058   -2.4109723   -2.4109723  -0.67988969   0.15025019   -2.4109723    1.7310826   396900 
 2412000    1.1524857   -2.4087988   -2.4087988  -0.68007459   0.15645399   -2.4087988    1.7287242   396900 
 2413000    1.1513464   -2.4076008   -2.4076008  -0.68058548   0.15486625   -2.4076008    1.7270153   396900 
 2414000    1.1543468   -2.4082361   -2.4082361  -0.67672032   0.15681113   -2.4082361    1.7315158   396900 
 2415000    1.1552467   -2.4091444   -2.4091444  -0.67627865   0.15393783   -2.4091444    1.7328657   396900 
 2416000    1.1535906   -2.4095541   -2.4095541  -0.67917256   0.15533737   -2.4095541    1.7303816   396900 
 2417000    1.1558954   -2.4113484   -2.4113484  -0.67750969   0.15462042   -2.4113484    1.7338387   396900 
 2418000    1.1543356   -2.4089056   -2.4089056  -0.67740663   0.15613525   -2.4089056     1.731499   396900 
 2419000    1.1546777   -2.4089451   -2.4089451  -0.67693286   0.15547516   -2.4089451    1.7320122   396900 
 2420000    1.1531952    -2.411224    -2.411224  -0.68143555    0.1584466    -2.411224    1.7297884   396900 
 2421000    1.1520847   -2.4099126   -2.4099126  -0.68178991   0.15422123   -2.4099126    1.7281227   396900 
 2422000    1.1538346   -2.4090584   -2.4090584  -0.67831087   0.15395051   -2.4090584    1.7307475   396900 
 2423000    1.1539141   -2.4082155   -2.4082155  -0.67734878   0.15079426   -2.4082155    1.7308668   396900 
 2424000    1.1525932   -2.4080284   -2.4080284  -0.67914292   0.15680933   -2.4080284    1.7288855   396900 
 2425000     1.153702   -2.4085553   -2.4085553  -0.67800669   0.15139397   -2.4085553    1.7305486   396900 
 2426000    1.1549656   -2.4098301   -2.4098301  -0.67738608    0.1590811   -2.4098301    1.7324441   396900 
 2427000    1.1548898   -2.4074647   -2.4074647  -0.67513443   0.15632729   -2.4074647    1.7323303   396900 
 2428000    1.1552787   -2.4087455   -2.4087455  -0.67583179   0.15540312   -2.4087455    1.7329137   396900 
 2429000    1.1553529   -2.4087834   -2.4087834  -0.67575842   0.15128377   -2.4087834    1.7330249   396900 
 2430000    1.1544269    -2.405746    -2.405746  -0.67410996   0.15189166    -2.405746     1.731636   396900 
 2431000    1.1548876   -2.4070214   -2.4070214  -0.67469438    0.1522901   -2.4070214     1.732327   396900 
 2432000    1.1548187   -2.4057407   -2.4057407    -0.673517   0.15871536   -2.4057407    1.7322237   396900 
 2433000    1.1548819   -2.4069396   -2.4069396  -0.67462116   0.15736094   -2.4069396    1.7323185   396900 
 2434000    1.1572463   -2.4108198   -2.4108198   -0.6749548    0.1525399   -2.4108198     1.735865   396900 
 2435000    1.1556101   -2.4072921   -2.4072921  -0.67388136   0.15541801   -2.4072921    1.7334108   396900 
 2436000    1.1576987   -2.4097742   -2.4097742  -0.67323058    0.1591166   -2.4097742    1.7365437   396900 
 2437000    1.1559757   -2.4075544   -2.4075544  -0.67359524   0.15683495   -2.4075544    1.7339592   396900 
 2438000    1.1577168   -2.4102433   -2.4102433  -0.67367257   0.15769765   -2.4102433    1.7365708   396900 
 2439000     1.156205   -2.4081121   -2.4081121  -0.67380898    0.1624319   -2.4081121    1.7343031   396900 
 2440000    1.1532838   -2.4076477   -2.4076477  -0.67772631   0.15360985   -2.4076477    1.7299214   396900 
 2441000    1.1549233   -2.4078184   -2.4078184  -0.67543775   0.15613647   -2.4078184    1.7323806   396900 
 2442000    1.1564458   -2.4098772   -2.4098772  -0.67521288   0.15772692   -2.4098772    1.7346643   396900 
 2443000    1.1547511   -2.4060375   -2.4060375  -0.67391526   0.15750351   -2.4060375    1.7321222   396900 
 2444000    1.1540448   -2.4060239   -2.4060239  -0.67496099   0.15320573   -2.4060239    1.7310629   396900 
 2445000    1.1578061   -2.4104158   -2.4104158  -0.67371103   0.15928855   -2.4104158    1.7367048   396900 
 2446000    1.1544834   -2.4087739   -2.4087739  -0.67705306    0.1528857   -2.4087739    1.7317208   396900 
 2447000    1.1556858   -2.4095113   -2.4095113  -0.67598696   0.15415252   -2.4095113    1.7335244   396900 
 2448000    1.1549508   -2.4092001   -2.4092001  -0.67677829   0.15618097   -2.4092001    1.7324218   396900 
 2449000    1.1542046   -2.4067275   -2.4067275  -0.67542495   0.15781113   -2.4067275    1.7313026   396900 
 2450000    1.1563549   -2.4081933   -2.4081933  -0.67366531   0.15634571   -2.4081933     1.734528   396900 
 2451000    1.1546171     -2.40824     -2.40824  -0.67631866   0.15822417     -2.40824    1.7319213   396900 
 2452000    1.1554669   -2.4101356   -2.4101356  -0.67693965    0.1504214   -2.4101356    1.7331959   396900 
 2453000    1.1541735   -2.4058343   -2.4058343  -0.67457845   0.15462577   -2.4058343    1.7312559   396900 
 2454000    1.1560101   -2.4085674   -2.4085674  -0.67455664   0.15248555   -2.4085674    1.7340107   396900 
 2455000    1.1557228   -2.4074232   -2.4074232  -0.67384334   0.15743678   -2.4074232    1.7335799   396900 
 2456000    1.1559852   -2.4087377   -2.4087377  -0.67476422   0.15661306   -2.4087377    1.7339735   396900 
 2457000    1.1531639   -2.4057959   -2.4057959  -0.67605452   0.15837032   -2.4057959    1.7297414   396900 
 2458000    1.1545488   -2.4054803   -2.4054803   -0.6736615   0.15398572   -2.4054803    1.7318188   396900 
 2459000    1.1550735   -2.4082173   -2.4082173  -0.67561137   0.15380911   -2.4082173    1.7326059   396900 
 2460000    1.1549493   -2.4081195   -2.4081195  -0.67569989   0.15783024   -2.4081195    1.7324196   396900 
 2461000    1.1549521   -2.4085151   -2.4085151  -0.67609129   0.15524494   -2.4085151    1.7324238   396900 
 2462000    1.1562647   -2.4090454   -2.4090454   -0.6746527   0.15831952   -2.4090454    1.7343927   396900 
 2463000    1.1561432   -2.4081172   -2.4081172  -0.67390686    0.1556952   -2.4081172    1.7342104   396900 
 2464000    1.1537817   -2.4046246   -2.4046246  -0.67395645    0.1530138   -2.4046246    1.7306681   396900 
 2465000    1.1576366   -2.4079551   -2.4079551  -0.67150463   0.16138194   -2.4079551    1.7364505   396900 
 2466000    1.1557981    -2.408278    -2.408278  -0.67458529   0.15417734    -2.408278    1.7336928   396900 
 2467000    1.1548813   -2.4055556   -2.4055556  -0.67323798    0.1576535   -2.4055556    1.7323177   396900 
 2468000    1.1588671   -2.4114919   -2.4114919  -0.67319566   0.15561714   -2.4114919    1.7382963   396900 
 2469000    1.1548073   -2.4062782   -2.4062782  -0.67407152   0.15995181   -2.4062782    1.7322066   396900 
 2470000    1.1552294   -2.4083634   -2.4083634  -0.67552367   0.15550479   -2.4083634    1.7328397   396900 
 2471000    1.1534302   -2.4066386   -2.4066386  -0.67649763   0.15857978   -2.4066386     1.730141   396900 
 2472000    1.1548005   -2.4087063   -2.4087063  -0.67650998   0.15353333   -2.4087063    1.7321963   396900 
 2473000    1.1553121    -2.406613    -2.406613  -0.67364923   0.15583172    -2.406613    1.7329637   396900 
 2474000    1.1556243    -2.408217    -2.408217  -0.67478483    0.1576707    -2.408217    1.7334321   396900 
 2475000    1.1568708   -2.4081014   -2.4081014  -0.67279961   0.15803364   -2.4081014    1.7353018   396900 
 2476000    1.1562429   -2.4059499   -2.4059499   -0.6715899    0.1587025   -2.4059499      1.73436   396900 
 2477000    1.1539084   -2.4043007   -2.4043007  -0.67344243    0.1571551   -2.4043007    1.7308583   396900 
 2478000    1.1555741   -2.4065917   -2.4065917  -0.67323494   0.15459799   -2.4065917    1.7333568   396900 
 2479000    1.1566543   -2.4090767   -2.4090767  -0.67409957   0.15516651   -2.4090767    1.7349771   396900 
 2480000    1.1563195   -2.4067026   -2.4067026  -0.67222775   0.16052435   -2.4067026    1.7344749   396900 
 2481000    1.1564097   -2.4071379   -2.4071379  -0.67252781   0.15545735   -2.4071379    1.7346101   396900 
 2482000    1.1565794   -2.4049985   -2.4049985  -0.67013375   0.15112399   -2.4049985    1.7348647   396900 
 2483000    1.1592628   -2.4059338   -2.4059338  -0.66704394   0.16399334   -2.4059338    1.7388898   396900 
 2484000    1.1573508   -2.4041282   -2.4041282  -0.66810639   0.15953022   -2.4041282    1.7360219   396900 
 2485000    1.1580418   -2.4044659   -2.4044659   -0.6674076   0.16264089   -2.4044659    1.7370583   396900 
 2486000    1.1577612    -2.404027    -2.404027  -0.66738953   0.16006273    -2.404027    1.7366375   396900 
 2487000    1.1577523   -2.4019284   -2.4019284  -0.66530432   0.15683189   -2.4019284    1.7366241   396900 
 2488000    1.1612764   -2.4058203   -2.4058203  -0.66391006    0.1601127   -2.4058203    1.7419103   396900 
 2489000    1.1582501   -2.4028536   -2.4028536  -0.66548282   0.15243024   -2.4028536    1.7373707   396900 
 2490000    1.1603133   -2.4042489   -2.4042489  -0.66378328   0.16009418   -2.4042489    1.7404656   396900 
 2491000    1.1602173   -2.4011757   -2.4011757  -0.66085422   0.15691432   -2.4011757    1.7403215   396900 
 2492000    1.1610296   -2.4036918   -2.4036918  -0.66215168   0.16093753   -2.4036918    1.7415401   396900 
 2493000    1.1605783   -2.4013621   -2.4013621  -0.66049902   0.16228525   -2.4013621    1.7408631   396900 
 2494000    1.1610154   -2.4012124   -2.4012124  -0.65969366   0.16069784   -2.4012124    1.7415188   396900 
 2495000    1.1607258    -2.402674    -2.402674  -0.66158974   0.16213587    -2.402674    1.7410843   396900 
 2496000    1.1615054   -2.4026696   -2.4026696  -0.66041584   0.16255114   -2.4026696    1.7422537   396900 
 2497000    1.1612801    -2.401233    -2.401233  -0.65931723   0.16344635    -2.401233    1.7419158   396900 
 2498000     1.159404   -2.3982131   -2.3982131  -0.65911151   0.15881956   -2.3982131    1.7391016   396900 
 2499000    1.1620103   -2.4006864   -2.4006864  -0.65767539   0.16245915   -2.4006864     1.743011   396900 
 2500000    1.1626953   -2.4018134   -2.4018134  -0.65777485   0.16575233   -2.4018134    1.7440385   396900 
 2501000    1.1600239   -2.3972776   -2.3972776  -0.65724605   0.16420097   -2.3972776    1.7400315   396900 
 2502000     1.164417   -2.4012489   -2.4012489  -0.65462784   0.16053905   -2.4012489    1.7466211   396900 
 2503000    1.1638314   -2.4008239   -2.4008239  -0.65508114   0.16382478   -2.4008239    1.7457427   396900 
 2504000    1.1620138   -2.3994972   -2.3994972  -0.65648095   0.16100194   -2.3994972    1.7430163   396900 
 2505000    1.1630371   -2.4036261   -2.4036261  -0.65907481   0.15573023   -2.4036261    1.7445513   396900 
 2506000    1.1633893   -2.4029289   -2.4029289  -0.65784942   0.16100495   -2.4029289    1.7450795   396900 
 2507000    1.1631052   -2.4014095   -2.4014095  -0.65675617   0.16358452   -2.4014095    1.7446534   396900 
 2508000    1.1633092   -2.4011307   -2.4011307  -0.65617121   0.15793574   -2.4011307    1.7449595   396900 
 2509000    1.1609369    -2.398642    -2.398642  -0.65724108   0.16208053    -2.398642     1.741401   396900 
 2510000    1.1612449   -2.4004581   -2.4004581  -0.65859518   0.15808691   -2.4004581    1.7418629   396900 
 2511000    1.1617649   -2.4033792   -2.4033792  -0.66073633   0.16654589   -2.4033792    1.7426429   396900 
 2512000    1.1604846   -2.4002391   -2.4002391  -0.65951657   0.16237584   -2.4002391    1.7407226   396900 
 2513000    1.1608958   -2.4015627   -2.4015627  -0.66022338   0.16061093   -2.4015627    1.7413393   396900 
 2514000    1.1608126   -2.4013814   -2.4013814  -0.66016684   0.16346122   -2.4013814    1.7412145   396900 
 2515000    1.1607047   -2.4016413   -2.4016413  -0.66058856   0.15928865   -2.4016413    1.7410527   396900 
 2516000    1.1607206   -2.4011761   -2.4011761  -0.66009964   0.16226553   -2.4011761    1.7410765   396900 
 2517000    1.1620352   -2.4029137   -2.4029137  -0.65986537    0.1607462   -2.4029137    1.7430484   396900 
 2518000    1.1612232    -2.401121    -2.401121  -0.65929057     0.161846    -2.401121    1.7418304   396900 
 2519000    1.1604773   -2.4011183   -2.4011183  -0.66040674   0.15883306   -2.4011183    1.7407115   396900 
 2520000    1.1604521   -2.4008104   -2.4008104  -0.66013655   0.16147897   -2.4008104    1.7406738   396900 
 2521000    1.1608316   -2.4027353   -2.4027353  -0.66149221   0.15809267   -2.4027353    1.7412431   396900 
 2522000    1.1609411   -2.4044212   -2.4044212  -0.66301395   0.16356754   -2.4044212    1.7414073   396900 
 2523000    1.1580115   -2.4010146   -2.4010146  -0.66400177    0.1637155   -2.4010146    1.7370128   396900 
 2524000    1.1606237   -2.4031991   -2.4031991  -0.66226788   0.16185624   -2.4031991    1.7409312   396900 
 2525000    1.1609208    -2.402294    -2.402294  -0.66091718    0.1691114    -2.402294    1.7413769   396900 
 2526000    1.1621743   -2.4020551   -2.4020551    -0.658798   0.16018209   -2.4020551    1.7432571   396900 
 2527000     1.162712   -2.4017617   -2.4017617  -0.65769813   0.16092063   -2.4017617    1.7440636   396900 
 2528000    1.1615811    -2.401387    -2.401387  -0.65901975   0.16255384    -2.401387    1.7423673   396900 
 2529000    1.1613106   -2.4012275   -2.4012275    -0.659266   0.16127149   -2.4012275    1.7419615   396900 
 2530000    1.1604499   -2.4002726   -2.4002726  -0.65960221   0.15759472   -2.4002726    1.7406704   396900 
 2531000    1.1619887   -2.4026832   -2.4026832  -0.65970455   0.15941404   -2.4026832    1.7429787   396900 
 2532000    1.1598262   -2.4013066   -2.4013066   -0.6615717   0.15831978   -2.4013066    1.7397349   396900 
 2533000    1.1583544   -2.3991724   -2.3991724  -0.66164512   0.16232853   -2.3991724    1.7375273   396900 
 2534000    1.1624058   -2.4023193   -2.4023193  -0.65871494   0.15631166   -2.4023193    1.7436043   396900 
 2535000     1.162589   -2.4025432   -2.4025432  -0.65866416   0.16178667   -2.4025432     1.743879   396900 
 2536000    1.1616689   -2.4010306   -2.4010306  -0.65853159   0.15760752   -2.4010306     1.742499   396900 
 2537000    1.1626112   -2.4017382   -2.4017382   -0.6578257   0.16115237   -2.4017382    1.7439125   396900 
 2538000    1.1631709   -2.4009137   -2.4009137  -0.65616186   0.16170034   -2.4009137    1.7447519   396900 
 2539000    1.1611759   -2.4017704   -2.4017704  -0.66001091   0.16459415   -2.4017704    1.7417595   396900 
 2540000    1.1633329   -2.4034909   -2.4034909  -0.65849583   0.16217669   -2.4034909     1.744995   396900 
 2541000    1.1621963   -2.4013756   -2.4013756  -0.65808548    0.1619132   -2.4013756    1.7432901   396900 
 2542000    1.1612743   -2.4000417   -2.4000417  -0.65813464   0.16001566   -2.4000417    1.7419071   396900 
 2543000    1.1615262   -2.4016971   -2.4016971  -0.65941214   0.16474723   -2.4016971    1.7422849   396900 
 2544000    1.1604351   -2.3985691   -2.3985691  -0.65792092   0.16150874   -2.3985691    1.7406482   396900 
 2545000    1.1635458   -2.4030851   -2.4030851  -0.65777088   0.15866724   -2.4030851    1.7453143   396900 
 2546000    1.1606628     -2.39871     -2.39871  -0.65772017   0.15945766     -2.39871    1.7409898   396900 
 2547000    1.1640175   -2.4016462   -2.4016462  -0.65562435   0.16148633   -2.4016462    1.7460218   396900 
 2548000    1.1628189   -2.4009843   -2.4009843  -0.65676038   0.16300143   -2.4009843    1.7442239   396900 
 2549000    1.1611968   -2.4008459   -2.4008459  -0.65905512   0.16291336   -2.4008459    1.7417907   396900 
 2550000    1.1626235   -2.4009581   -2.4009581  -0.65702724   0.16239112   -2.4009581    1.7439309   396900 
 2551000    1.1626493   -2.4002138   -2.4002138  -0.65624431   0.16175712   -2.4002138    1.7439695   396900 
 2552000    1.1637749   -2.4012934   -2.4012934   -0.6556354   0.16071651   -2.4012934     1.745658   396900 
 2553000    1.1613445   -2.4003937   -2.4003937  -0.65838125   0.16123297   -2.4003937    1.7420124   396900 
 2554000    1.1596665   -2.3974596   -2.3974596   -0.6579642   0.16096363   -2.3974596    1.7394954   396900 
 2555000    1.1648294   -2.4031977   -2.4031977  -0.65595805   0.15491138   -2.4031977    1.7472397   396900 
 2556000    1.1624671   -2.3992049   -2.3992049  -0.65550858   0.16778753   -2.3992049    1.7436963   396900 
 2557000    1.1634272   -2.3994059   -2.3994059   -0.6542696   0.15966683   -2.3994059    1.7451363   396900 
 2558000    1.1626833   -2.3995011   -2.3995011  -0.65548055   0.16590831   -2.3995011    1.7440206   396900 
 2559000    1.1610129   -2.4003995   -2.4003995  -0.65888456   0.15992889   -2.4003995     1.741515   396900 
 2560000    1.1623599    -2.400051    -2.400051  -0.65651553   0.15875869    -2.400051    1.7435355   396900 
 2561000    1.1635855   -2.4017256   -2.4017256  -0.65635174   0.15873608   -2.4017256    1.7453739   396900 
 2562000    1.1640688   -2.4013117   -2.4013117  -0.65521297    0.1616443   -2.4013117    1.7460987   396900 
 2563000    1.1640425   -2.3985321   -2.3985321  -0.65247276   0.16619225   -2.3985321    1.7460593   396900 
 2564000    1.1648903   -2.3985803   -2.3985803  -0.65124933   0.16093448   -2.3985803     1.747331   396900 
 2565000    1.1654698   -2.3997824   -2.3997824  -0.65158211   0.16009835   -2.3997824    1.7482003   396900 
 2566000    1.1646744   -2.3976463   -2.3976463  -0.65063911   0.16046586   -2.3976463    1.7470072   396900 
 2567000     1.162545   -2.3943047   -2.3943047  -0.65049158   0.16683103   -2.3943047    1.7438131   396900 
 2568000    1.1651273   -2.3957615   -2.3957615  -0.64807495   0.16209352   -2.3957615    1.7476865   396900 
 2569000    1.1637369   -2.3957705   -2.3957705  -0.65016962   0.16388223   -2.3957705    1.7456009   396900 
 2570000    1.1630845   -2.3981471   -2.3981471  -0.65352482   0.15869542   -2.3981471    1.7446223   396900 
 2571000    1.1628146   -2.3955437   -2.3955437   -0.6513263   0.15972551   -2.3955437    1.7442174   396900 
 2572000    1.1638776   -2.3962555   -2.3962555  -0.65044347   0.16258456   -2.3962555     1.745812   396900 
 2573000    1.1657864   -2.3982836   -2.3982836  -0.64960845   0.16848183   -2.3982836    1.7486752   396900 
 2574000    1.1664704   -2.4000166   -2.4000166  -0.65031537   0.16455024   -2.4000166    1.7497013   396900 
 2575000     1.165042   -2.3983303   -2.3983303  -0.65077161   0.16680491   -2.3983303    1.7475587   396900 
 2576000    1.1643526   -2.3971152   -2.3971152  -0.65059069   0.16303305   -2.3971152    1.7465246   396900 
 2577000    1.1667809   -2.3998802   -2.3998802  -0.64971315   0.16571177   -2.3998802     1.750167   396900 
 2578000    1.1634842   -2.3963927   -2.3963927  -0.65117085   0.16423631   -2.3963927    1.7452219   396900 
 2579000    1.1646012   -2.3965807   -2.3965807  -0.64968335   0.16362266   -2.3965807    1.7468974   396900 
 2580000    1.1624033   -2.3960521   -2.3960521  -0.65245154   0.16430166   -2.3960521    1.7436005   396900 
 2581000    1.1642702   -2.3988666   -2.3988666   -0.6524656   0.16532728   -2.3988666     1.746401   396900 
 2582000    1.1641182   -2.4012862   -2.4012862  -0.65511342   0.16388941   -2.4012862    1.7461728   396900 
 2583000    1.1647392   -2.4017494   -2.4017494  -0.65464505   0.15830352   -2.4017494    1.7471043   396900 
 2584000    1.1628832   -2.3989026   -2.3989026  -0.65458223   0.15972081   -2.3989026    1.7443204   396900 
 2585000    1.1633439   -2.4000641   -2.4000641  -0.65505264    0.1635672   -2.4000641    1.7450114   396900 
 2586000    1.1648838   -2.3987574   -2.3987574  -0.65143611   0.16152748   -2.3987574    1.7473213   396900 
 2587000    1.1665696   -2.3983218   -2.3983218  -0.64847172   0.16289078   -2.3983218    1.7498501   396900 
 2588000    1.1665312   -2.3977533   -2.3977533  -0.64796085   0.15895593   -2.3977533    1.7497924   396900 
 2589000    1.1647583   -2.3981744   -2.3981744  -0.65104143   0.16411958   -2.3981744     1.747133   396900 
 2590000    1.1653334   -2.3988401   -2.3988401  -0.65084446   0.16577442   -2.3988401    1.7479957   396900 
 2591000    1.1653795   -2.3979956   -2.3979956  -0.64993079   0.16421274   -2.3979956    1.7480648   396900 
 2592000    1.1661377   -2.3981708   -2.3981708  -0.64896867   0.16726899   -2.3981708    1.7492021   396900 
 2593000    1.1664639   -2.3993468   -2.3993468  -0.64965529   0.16247704   -2.3993468    1.7496915   396900 
 2594000    1.1646387   -2.3979577   -2.3979577  -0.65100402   0.16294157   -2.3979577    1.7469537   396900 
 2595000    1.1638908   -2.3952911   -2.3952911  -0.64945923    0.1636169   -2.3952911    1.7458318   396900 
 2596000     1.165496   -2.3968643   -2.3968643  -0.64862473   0.16718584   -2.3968643    1.7482396   396900 
 2597000    1.1653262   -2.3970022   -2.3970022  -0.64901733    0.1614262   -2.3970022    1.7479849   396900 
 2598000    1.1665204   -2.3981968   -2.3981968  -0.64842061   0.16372727   -2.3981968    1.7497762   396900 
 2599000    1.1671735   -2.3968618   -2.3968618  -0.64610593   0.16650671   -2.3968618    1.7507558   396900 
 2600000    1.1670717   -2.3966726   -2.3966726  -0.64606949   0.16626761   -2.3966726    1.7506031   396900 
 2601000    1.1621538   -2.3924642   -2.3924642  -0.64923784   0.16356755   -2.3924642    1.7432264   396900 
 2602000    1.1641779   -2.3941956   -2.3941956  -0.64793321   0.16659647   -2.3941956    1.7462624   396900 
 2603000    1.1658268   -2.3953334   -2.3953334  -0.64659763   0.16526917   -2.3953334    1.7487357   396900 
 2604000    1.1648613   -2.3956113   -2.3956113  -0.64832375   0.16407071   -2.3956113    1.7472875   396900 
 2605000    1.1657426   -2.3974052   -2.3974052  -0.64879561   0.16321544   -2.3974052    1.7486096   396900 
 2606000    1.1668434    -2.398374    -2.398374  -0.64811337   0.15856455    -2.398374    1.7502606   396900 
 2607000    1.1662361   -2.3975081   -2.3975081  -0.64815839   0.16518854   -2.3975081    1.7493497   396900 
 2608000    1.1663158   -2.3956784   -2.3956784  -0.64620908   0.16956551   -2.3956784    1.7494693   396900 
 2609000    1.1669228   -2.3946522   -2.3946522   -0.6442724   0.16137654   -2.3946522    1.7503798   396900 
 2610000    1.1658867   -2.3957981   -2.3957981   -0.6469724   0.16238169   -2.3957981    1.7488257   396900 
 2611000     1.166981    -2.395106    -2.395106  -0.64463901   0.16468901    -2.395106     1.750467   396900 
 2612000     1.167908   -2.3953711   -2.3953711  -0.64351359   0.16921102   -2.3953711    1.7518575   396900 
 2613000    1.1669305   -2.3945966   -2.3945966   -0.6442052   0.16678898   -2.3945966    1.7503914   396900 
 2614000    1.1681518   -2.3918384   -2.3918384  -0.63961511    0.1636764   -2.3918384    1.7522233   396900 
 2615000    1.1693411   -2.3933513   -2.3933513  -0.63934412   0.16593105   -2.3933513    1.7540072   396900 
 2616000    1.1688987   -2.3935857   -2.3935857  -0.64024212   0.16523956   -2.3935857    1.7533436   396900 
 2617000    1.1705879   -2.3949029   -2.3949029  -0.63902549   0.16174897   -2.3949029    1.7558774   396900 
 2618000    1.1686051    -2.392196    -2.392196  -0.63929279   0.16768194    -2.392196    1.7529032   396900 
 2619000    1.1669357   -2.3924932   -2.3924932  -0.64209408    0.1696529   -2.3924932    1.7503991   396900 
 2620000    1.1674446   -2.3939852   -2.3939852  -0.64282277   0.17037963   -2.3939852    1.7511624   396900 
 2621000    1.1682112   -2.3943266   -2.3943266  -0.64201418   0.16435055   -2.3943266    1.7523124   396900 
 2622000    1.1688209   -2.3936201   -2.3936201   -0.6403931   0.16807614   -2.3936201     1.753227   396900 
 2623000    1.1714606   -2.3963997   -2.3963997   -0.6392133   0.16512347   -2.3963997    1.7571864   396900 
 2624000    1.1697396   -2.3924082   -2.3924082  -0.63780327   0.16973904   -2.3924082    1.7546049   396900 
 2625000    1.1697543   -2.3926209   -2.3926209  -0.63799397   0.16846987   -2.3926209     1.754627   396900 
 2626000    1.1708033   -2.3930454   -2.3930454  -0.63684481   0.16481925   -2.3930454    1.7562006   396900 
 2627000     1.170953   -2.3935439   -2.3935439  -0.63711884   0.16522705   -2.3935439     1.756425   396900 
 2628000    1.1708627   -2.3920762   -2.3920762  -0.63578657   0.16933729   -2.3920762    1.7562897   396900 
 2629000    1.1728758   -2.3951007   -2.3951007  -0.63579139   0.16670792   -2.3951007    1.7593093   396900 
 2630000    1.1716939    -2.395628    -2.395628  -0.63809157   0.16667172    -2.395628    1.7575364   396900 
 2631000    1.1727512   -2.3958672   -2.3958672  -0.63674485   0.16157297   -2.3958672    1.7591223   396900 
 2632000    1.1693467    -2.392944    -2.392944  -0.63892833   0.16507357    -2.392944    1.7540157   396900 
 2633000    1.1696322   -2.3946179   -2.3946179  -0.64017393   0.16598335   -2.3946179     1.754444   396900 
 2634000    1.1687263   -2.3910717   -2.3910717  -0.63798663   0.16839687   -2.3910717    1.7530851   396900 
 2635000    1.1682261   -2.3922851   -2.3922851  -0.63995039   0.16541507   -2.3922851    1.7523347   396900 
 2636000    1.1711191   -2.3945948   -2.3945948  -0.63792055   0.16819522   -2.3945948    1.7566743   396900 
 2637000    1.1689928   -2.3921564   -2.3921564  -0.63867158   0.16579938   -2.3921564    1.7534848   396900 
 2638000    1.1695389   -2.3929336   -2.3929336  -0.63862961   0.16706847   -2.3929336     1.754304   396900 
 2639000    1.1694582   -2.3926806   -2.3926806  -0.63849774   0.16541528   -2.3926806    1.7541829   396900 
 2640000    1.1710536    -2.394477    -2.394477  -0.63790108   0.16763958    -2.394477     1.756576   396900 
 2641000    1.1711363   -2.3947818   -2.3947818  -0.63808175   0.16406365   -2.3947818       1.7567   396900 
 2642000    1.1694178   -2.3929672   -2.3929672  -0.63884495   0.16197004   -2.3929672    1.7541223   396900 
 2643000    1.1710335   -2.3917951   -2.3917951  -0.63524922   0.16341151   -2.3917951    1.7565459   396900 
 2644000    1.1713306   -2.3933892   -2.3933892  -0.63639771   0.16892099   -2.3933892    1.7569915   396900 
 2645000      1.17096    -2.393381    -2.393381  -0.63694548   0.16436402    -2.393381    1.7564355   396900 
 2646000    1.1696544   -2.3910829   -2.3910829  -0.63660561   0.16816479   -2.3910829    1.7544773   396900 
 2647000    1.1705723   -2.3925284   -2.3925284   -0.6366744   0.16786585   -2.3925284     1.755854   396900 
 2648000    1.1688227   -2.3911545   -2.3911545  -0.63792491   0.16554235   -2.3911545    1.7532296   396900 
 2649000    1.1694933    -2.391787    -2.391787  -0.63755148   0.16785565    -2.391787    1.7542355   396900 
 2650000     1.170154   -2.3921642   -2.3921642  -0.63693763   0.16848196   -2.3921642    1.7552265   396900 
 2651000    1.1717335    -2.392473    -2.392473  -0.63487717   0.16732089    -2.392473    1.7575958   396900 
 2652000    1.1715245   -2.3936314   -2.3936314  -0.63634898   0.16448319   -2.3936314    1.7572824   396900 
 2653000    1.1706222   -2.3915633   -2.3915633  -0.63563438   0.16908578   -2.3915633    1.7559289   396900 
 2654000    1.1698799   -2.3935575   -2.3935575   -0.6387421   0.16483586   -2.3935575    1.7548154   396900 
 2655000    1.1685041   -2.3922554   -2.3922554  -0.63950373   0.16581089   -2.3922554    1.7527517   396900 
 2656000    1.1700394   -2.3913737   -2.3913737  -0.63631896    0.1672388   -2.3913737    1.7550548   396900 
 2657000    1.1706071   -2.3897604   -2.3897604   -0.6338541   0.17014216   -2.3897604    1.7559063   396900 
 2658000    1.1703704   -2.3885758   -2.3885758  -0.63302467   0.16986939   -2.3885758    1.7555511   396900 
 2659000    1.1730231   -2.3940947   -2.3940947  -0.63456449   0.17031607   -2.3940947    1.7595302   396900 
 2660000    1.1719446   -2.3916121   -2.3916121  -0.63369958   0.16834594   -2.3916121    1.7579125   396900 
 2661000     1.171758   -2.3907463   -2.3907463  -0.63311376   0.16857733   -2.3907463    1.7576325   396900 
 2662000    1.1723152   -2.3906207   -2.3906207  -0.63215233   0.16791205   -2.3906207    1.7584684   396900 
 2663000      1.17215    -2.389523    -2.389523  -0.63130248     0.166668    -2.389523    1.7582206   396900 
 2664000    1.1704171   -2.3873401   -2.3873401  -0.63171892   0.16662643   -2.3873401    1.7556212   396900 
 2665000    1.1740753   -2.3914178   -2.3914178   -0.6303093   0.16855819   -2.3914178    1.7611085   396900 
 2666000    1.1729352   -2.3888757   -2.3888757  -0.62947732   0.16898169   -2.3888757    1.7593984   396900 
 2667000    1.1716332   -2.3889606   -2.3889606  -0.63151527   0.16649687   -2.3889606    1.7574454   396900 
 2668000    1.1733469    -2.389842    -2.389842  -0.62982607    0.1639642    -2.389842    1.7600159   396900 
 2669000    1.1721236   -2.3874057   -2.3874057  -0.62922469   0.16802887   -2.3874057     1.758181   396900 
 2670000    1.1731823    -2.391902    -2.391902  -0.63213299   0.16664901    -2.391902     1.759769   396900 
 2671000    1.1706296   -2.3892214   -2.3892214  -0.63328145   0.17586673   -2.3892214    1.7559399   396900 
 2672000    1.1706082   -2.3896642   -2.3896642  -0.63375641   0.17166612   -2.3896642    1.7559078   396900 
 2673000    1.1721311   -2.3911206   -2.3911206  -0.63292838   0.17140487   -2.3911206    1.7581922   396900 
 2674000    1.1721252   -2.3909681   -2.3909681  -0.63278474   0.16725136   -2.3909681    1.7581833   396900 
 2675000    1.1699224   -2.3890382   -2.3890382    -0.634159   0.16766411   -2.3890382    1.7548792   396900 
 2676000    1.1725077   -2.3930905   -2.3930905  -0.63433342   0.16365468   -2.3930905    1.7587571   396900 
 2677000    1.1723479    -2.390628    -2.390628  -0.63211047   0.17168046    -2.390628    1.7585175   396900 
 2678000    1.1734284   -2.3899758   -2.3899758  -0.62983769   0.16997749   -2.3899758    1.7601382   396900 
 2679000    1.1736516   -2.3902613   -2.3902613  -0.62978844   0.16930181   -2.3902613    1.7604729   396900 
 2680000    1.1727084   -2.3909082   -2.3909082  -0.63185002   0.16683731   -2.3909082    1.7590582   396900 
 2681000    1.1712914   -2.3883813   -2.3883813  -0.63144865   0.16859499   -2.3883813    1.7569326   396900 
 2682000    1.1709933   -2.3903842   -2.3903842  -0.63389867   0.16758778   -2.3903842    1.7564855   396900 
 2683000    1.1717015   -2.3895559   -2.3895559  -0.63200816   0.16984392   -2.3895559    1.7575478   396900 
 2684000     1.173128   -2.3905626   -2.3905626  -0.63087492   0.16846973   -2.3905626    1.7596876   396900 
 2685000    1.1708404   -2.3877627   -2.3877627  -0.63150656    0.1725778   -2.3877627    1.7562561   396900 
 2686000    1.1743275   -2.3902593   -2.3902593  -0.62877245    0.1689462   -2.3902593    1.7614868   396900 
 2687000    1.1736364   -2.3898827   -2.3898827  -0.62943257   0.16640028   -2.3898827    1.7604502   396900 
 2688000    1.1741526   -2.3908939   -2.3908939  -0.62966954   0.17092323   -2.3908939    1.7612244   396900 
 2689000     1.175104   -2.3900214   -2.3900214  -0.62736991   0.17174135   -2.3900214    1.7626515   396900 
 2690000    1.1730606   -2.3901797   -2.3901797  -0.63059325   0.17288505   -2.3901797    1.7595864   396900 
 2691000    1.1728809   -2.3908892   -2.3908892   -0.6315723   0.16781655   -2.3908892    1.7593169   396900 
 2692000    1.1726836   -2.3891347   -2.3891347  -0.63011375   0.17021068   -2.3891347     1.759021   396900 
 2693000    1.1726764   -2.3898513   -2.3898513  -0.63084116   0.16862525   -2.3898513    1.7590101   396900 
 2694000    1.1712202   -2.3898193   -2.3898193   -0.6329934   0.17113915   -2.3898193    1.7568259   396900 
 2695000    1.1723103   -2.3903112   -2.3903112  -0.63185029   0.17170173   -2.3903112     1.758461   396900 
 2696000    1.1723753   -2.3902144   -2.3902144  -0.63165586   0.16817596   -2.3902144    1.7585585   396900 
 2697000    1.1711756   -2.3910752   -2.3910752   -0.6343162   0.16767782   -2.3910752     1.756759   396900 
 2698000     1.171514   -2.3890435   -2.3890435   -0.6317769   0.16771562   -2.3890435    1.7572666   396900 
 2699000    1.1737704   -2.3884324   -2.3884324  -0.62778127   0.17671036   -2.3884324    1.7606511   396900 
 2700000    1.1743972   -2.3877306   -2.3877306  -0.62613925   0.17056228   -2.3877306    1.7615913   396900 
 2701000    1.1742146   -2.3896124   -2.3896124  -0.62829486   0.16985007   -2.3896124    1.7613175   396900 
 2702000    1.1750472   -2.3890331   -2.3890331  -0.62646675   0.16673308   -2.3890331    1.7625663   396900 
 2703000    1.1747601   -2.3890278   -2.3890278  -0.62689206   0.17285098   -2.3890278    1.7621357   396900 
 2704000    1.1741272   -2.3882599   -2.3882599  -0.62707362   0.17114964   -2.3882599    1.7611863   396900 
 2705000     1.172672   -2.3873173   -2.3873173  -0.62831381   0.16929534   -2.3873173    1.7590035   396900 
 2706000    1.1726614   -2.3870904   -2.3870904  -0.62810277    0.1706979   -2.3870904    1.7589876   396900 
 2707000    1.1721874   -2.3878139   -2.3878139  -0.62953728   0.17093154   -2.3878139    1.7582766   396900 
 2708000    1.1735725    -2.388933    -2.388933  -0.62857868   0.16819055    -2.388933    1.7603543   396900 
 2709000    1.1717113   -2.3873426   -2.3873426  -0.62978012   0.16715023   -2.3873426    1.7575625   396900 
 2710000    1.1745342   -2.3877311   -2.3877311  -0.62593427   0.17083887   -2.3877311    1.7617968   396900 
 2711000    1.1729294   -2.3858731   -2.3858731  -0.62648352   0.17386986   -2.3858731    1.7593896   396900 
 2712000    1.1742416   -2.3872561   -2.3872561  -0.62589815   0.16668541   -2.3872561     1.761358   396900 
 2713000    1.1750772   -2.3872943   -2.3872943  -0.62468298   0.17004244   -2.3872943    1.7626113   396900 
 2714000    1.1758266   -2.3893637   -2.3893637  -0.62562831    0.1664837   -2.3893637    1.7637354   396900 
 2715000    1.1747122   -2.3879687   -2.3879687  -0.62590482   0.17190406   -2.3879687    1.7620639   396900 
 2716000    1.1732169   -2.3867488   -2.3867488  -0.62692781   0.17485936   -2.3867488     1.759821   396900 
 2717000    1.1744695   -2.3873321   -2.3873321  -0.62563231   0.16299035   -2.3873321    1.7616998   396900 
 2718000    1.1733442   -2.3875882   -2.3875882  -0.62757636   0.16982355   -2.3875882    1.7600118   396900 
 2719000    1.1731422   -2.3871899   -2.3871899  -0.62748097   0.17262703   -2.3871899    1.7597089   396900 
 2720000    1.1742097     -2.38989     -2.38989  -0.62857995   0.16994174     -2.38989    1.7613101   396900 
 2721000    1.1758732   -2.3876969   -2.3876969  -0.62389161   0.16668024   -2.3876969    1.7638053   396900 
 2722000    1.1716049   -2.3836563   -2.3836563  -0.62625332   0.17225804   -2.3836563     1.757403   396900 
 2723000    1.1745618    -2.389637    -2.389637   -0.6277988   0.17082904    -2.389637    1.7618382   396900 
 2724000    1.1750197   -2.3890548   -2.3890548  -0.62652969   0.17285276   -2.3890548    1.7625251   396900 
 2725000    1.1747817   -2.3886146   -2.3886146  -0.62644651   0.17594979   -2.3886146    1.7621681   396900 
 2726000    1.1745588   -2.3904754   -2.3904754  -0.62864169   0.16998945   -2.3904754    1.7618337   396900 
 2727000    1.1736257   -2.3889761   -2.3889761  -0.62854193   0.17164103   -2.3889761    1.7604341   396900 
 2728000    1.1735125   -2.3874151   -2.3874151  -0.62715071   0.17139072   -2.3874151    1.7602644   396900 
 2729000    1.1742433   -2.3860348   -2.3860348  -0.62467434   0.17348515   -2.3860348    1.7613605   396900 
 2730000    1.1740515   -2.3865741   -2.3865741   -0.6255012   0.16829636   -2.3865741    1.7610729   396900 
 2731000     1.175615   -2.3883328   -2.3883328  -0.62491476   0.17338671   -2.3883328     1.763418   396900 
 2732000    1.1760446    -2.387917    -2.387917  -0.62385454   0.17066443    -2.387917    1.7640624   396900 
 2733000    1.1754982   -2.3891719   -2.3891719  -0.62592907   0.17223251   -2.3891719    1.7632428   396900 
 2734000    1.1753457   -2.3882396   -2.3882396  -0.62522547   0.17265098   -2.3882396    1.7630141   396900 
 2735000    1.1757175   -2.3898438   -2.3898438  -0.62627204   0.16981218   -2.3898438    1.7635718   396900 
 2736000    1.1732362   -2.3859277   -2.3859277  -0.62607786   0.17376287   -2.3859277    1.7598499   396900 
 2737000    1.1722152   -2.3871364   -2.3871364  -0.62881798   0.17038017   -2.3871364    1.7583184   396900 
 2738000    1.1750599   -2.3891685   -2.3891685  -0.62658311   0.16522001   -2.3891685    1.7625854   396900 
 2739000    1.1739443   -2.3864447   -2.3864447  -0.62553265    0.1714127   -2.3864447    1.7609121   396900 
 2740000    1.1738266   -2.3874821   -2.3874821  -0.62674672   0.17562936   -2.3874821    1.7607354   396900 
 2741000    1.1760093    -2.385575    -2.385575  -0.62156549   0.17102273    -2.385575    1.7640095   396900 
 2742000    1.1766239   -2.3847802   -2.3847802  -0.61984881    0.1750215   -2.3847802    1.7649314   396900 
 2743000    1.1756035   -2.3863094   -2.3863094  -0.62290856   0.17249487   -2.3863094    1.7634008   396900 
 2744000    1.1758487   -2.3869914   -2.3869914   -0.6232229    0.1727149   -2.3869914    1.7637685   396900 
 2745000    1.1764569   -2.3860362   -2.3860362  -0.62135519   0.17300481   -2.3860362     1.764681   396900 
 2746000    1.1784747   -2.3874176   -2.3874176     -0.61971   0.16961775   -2.3874176    1.7677076   396900 
 2747000    1.1768856   -2.3868514   -2.3868514  -0.62152744     0.174009   -2.3868514    1.7653239   396900 
 2748000    1.1769884   -2.3881611   -2.3881611  -0.62268288   0.17411329   -2.3881611    1.7654782   396900 
 2749000    1.1759303   -2.3870011   -2.3870011  -0.62311015    0.1715318   -2.3870011    1.7638909   396900 
 2750000     1.177032   -2.3891751   -2.3891751  -0.62363151   0.17386036   -2.3891751    1.7655436   396900 
 2751000    1.1753249   -2.3856149   -2.3856149  -0.62263202   0.17081462   -2.3856149    1.7629829   396900 
 2752000    1.1764108   -2.3881727   -2.3881727  -0.62356097   0.17009511   -2.3881727    1.7646117   396900 
 2753000    1.1745029   -2.3881085   -2.3881085  -0.62635857   0.17075768   -2.3881085    1.7617499   396900 
 2754000    1.1769569   -2.3891802   -2.3891802  -0.62374937   0.17117019   -2.3891802    1.7654308   396900 
 2755000    1.1761524   -2.3872266   -2.3872266  -0.62300254   0.17368573   -2.3872266    1.7642241   396900 
 2756000    1.1743063   -2.3859577   -2.3859577  -0.62450274   0.16880062   -2.3859577     1.761455   396900 
 2757000     1.175593   -2.3877908   -2.3877908  -0.62440571   0.17157807   -2.3877908    1.7633851   396900 
 2758000    1.1739308   -2.3854322   -2.3854322  -0.62454053   0.17105328   -2.3854322    1.7608917   396900 
 2759000    1.1774691   -2.3873218   -2.3873218  -0.62112263   0.17276302   -2.3873218    1.7661992   396900 
 2760000    1.1762339   -2.3871453   -2.3871453  -0.62279895   0.17209999   -2.3871453    1.7643464   396900 
 2761000    1.1770302   -2.3879269   -2.3879269  -0.62238605   0.17737413   -2.3879269    1.7655408   396900 
 2762000    1.1761609   -2.3866926   -2.3866926  -0.62245566    0.1743256   -2.3866926    1.7642369   396900 
 2763000    1.1747007    -2.384942    -2.384942   -0.6228953   0.17239788    -2.384942    1.7620467   396900 
 2764000    1.1753039    -2.384254    -2.384254  -0.62130262   0.17304694    -2.384254    1.7629514   396900 
 2765000    1.1768979   -2.3859977   -2.3859977   -0.6206553   0.16740569   -2.3859977    1.7653424   396900 
 2766000    1.1776726    -2.384857    -2.384857  -0.61835256   0.17588674    -2.384857    1.7665045   396900 
 2767000    1.1762185    -2.386372    -2.386372   -0.6220487   0.17268143    -2.386372    1.7643233   396900 
 2768000    1.1768546   -2.3856175   -2.3856175   -0.6203401   0.16994019   -2.3856175    1.7652774   396900 
 2769000     1.178192   -2.3869778   -2.3869778  -0.61969423   0.16988465   -2.3869778    1.7672836   396900 
 2770000    1.1762611   -2.3870404   -2.3870404  -0.62265312   0.17072667   -2.3870404    1.7643873   396900 
 2771000    1.1775127   -2.3861845   -2.3861845  -0.61991994   0.17047462   -2.3861845    1.7662646   396900 
 2772000    1.1756892   -2.3834158   -2.3834158  -0.61988646   0.17500748   -2.3834158    1.7635293   396900 
 2773000    1.1784568   -2.3868219   -2.3868219  -0.61914123   0.17001415   -2.3868219    1.7676807   396900 
 2774000    1.1753569   -2.3828588   -2.3828588  -0.61982791   0.17465515   -2.3828588    1.7630309   396900 
 2775000    1.1780824   -2.3847638   -2.3847638   -0.6176447   0.17252526   -2.3847638    1.7671191   396900 
 2776000    1.1775451   -2.3854732   -2.3854732     -0.61916   0.17114571   -2.3854732    1.7663132   396900 
 2777000    1.1783724   -2.3851484   -2.3851484  -0.61759434   0.17595645   -2.3851484    1.7675541   396900 
 2778000     1.177254   -2.3844691   -2.3844691  -0.61859249   0.17758106   -2.3844691    1.7658766   396900 
 2779000    1.1784235   -2.3861344   -2.3861344  -0.61850367   0.17596495   -2.3861344    1.7676308   396900 
 2780000    1.1788203   -2.3853804   -2.3853804  -0.61715431   0.16772617   -2.3853804    1.7682261   396900 
 2781000    1.1768253   -2.3845872   -2.3845872  -0.61935366   0.17631999   -2.3845872    1.7652335   396900 
 2782000    1.1805932   -2.3850665   -2.3850665   -0.6141812   0.17510443   -2.3850665    1.7708853   396900 
 2783000    1.1794047   -2.3850702   -2.3850702  -0.61596756   0.17119229   -2.3850702    1.7691026   396900 
 2784000    1.1774257   -2.3826598   -2.3826598  -0.61652567   0.17149082   -2.3826598    1.7661341   396900 
 2785000     1.177645   -2.3810477   -2.3810477  -0.61458466   0.17936387   -2.3810477     1.766463   396900 
 2786000    1.1782496   -2.3837014   -2.3837014  -0.61633146   0.17467296   -2.3837014    1.7673699   396900 
 2787000    1.1784628    -2.382742    -2.382742  -0.61505225   0.17470877    -2.382742    1.7676898   396900 
 2788000    1.1785544   -2.3806055   -2.3806055  -0.61277846   0.17753879   -2.3806055    1.7678271   396900 
 2789000    1.1793122   -2.3836586   -2.3836586  -0.61469478   0.17384024   -2.3836586    1.7689639   396900 
 2790000     1.179036   -2.3827613   -2.3827613  -0.61421185   0.16924087   -2.3827613    1.7685495   396900 
 2791000     1.182739   -2.3837486   -2.3837486  -0.60964457   0.17777349   -2.3837486    1.7741041   396900 
 2792000    1.1829257   -2.3848501   -2.3848501  -0.61046599   0.17423124   -2.3848501    1.7743841   396900 
 2793000    1.1817817     -2.38465     -2.38465   -0.6119819   0.17617655     -2.38465    1.7726681   396900 
 2794000      1.18033   -2.3842257   -2.3842257  -0.61373523   0.17604828   -2.3842257    1.7704905   396900 
 2795000    1.1818768   -2.3848315   -2.3848315  -0.61202071   0.17362887   -2.3848315    1.7728108   396900 
 2796000    1.1798379   -2.3828589   -2.3828589  -0.61310646   0.17672033   -2.3828589    1.7697524   396900 
 2797000    1.1814876   -2.3846394   -2.3846394   -0.6124124   0.17568344   -2.3846394     1.772227   396900 
 2798000    1.1794975   -2.3825556   -2.3825556  -0.61331387   0.17078053   -2.3825556    1.7692417   396900 
 2799000    1.1821052   -2.3843873   -2.3843873  -0.61123397   0.17560303   -2.3843873    1.7731533   396900 
 2800000    1.1798208   -2.3791484   -2.3791484  -0.60942163   0.17787097   -2.3791484    1.7697267   396900 
 2801000    1.1814402   -2.3812788   -2.3812788  -0.60912293   0.17822454   -2.3812788    1.7721559   396900 
 2802000    1.1805566   -2.3783447   -2.3783447  -0.60751425   0.17638721   -2.3783447    1.7708304   396900 
 2803000    1.1820644   -2.3817222   -2.3817222  -0.60863013   0.17241186   -2.3817222    1.7730921   396900 
 2804000    1.1802743    -2.379625    -2.379625  -0.60921795   0.17582146    -2.379625     1.770407   396900 
 2805000    1.1811052   -2.3800591   -2.3800591  -0.60840579   0.18197383   -2.3800591    1.7716533   396900 
 2806000    1.1806053   -2.3767599   -2.3767599  -0.60585642   0.17346374   -2.3767599    1.7709035   396900 
 2807000     1.183041   -2.3787905   -2.3787905  -0.60423352   0.17543365   -2.3787905     1.774557   396900 
 2808000    1.1841161   -2.3804101   -2.3804101   -0.6042404   0.17798502   -2.3804101    1.7761697   396900 
 2809000    1.1831989    -2.381432    -2.381432  -0.60663801   0.17088878    -2.381432    1.7747939   396900 
 2810000    1.1820262   -2.3785825   -2.3785825  -0.60554761   0.17485103   -2.3785825    1.7730348   396900 
 2811000    1.1828507    -2.381507    -2.381507  -0.60723541   0.18061414    -2.381507    1.7742716   396900 
 2812000    1.1827687   -2.3807417   -2.3807417  -0.60659307   0.17666748   -2.3807417    1.7741486   396900 
 2813000    1.1834545   -2.3812064   -2.3812064  -0.60602913   0.17597268   -2.3812064    1.7751772   396900 
 2814000    1.1834555   -2.3781854   -2.3781854  -0.60300657   0.18392426   -2.3781854    1.7751788   396900 
 2815000    1.1848295   -2.3772695   -2.3772695  -0.60002972   0.17839011   -2.3772695    1.7772397   396900 
 2816000    1.1843626   -2.3786994   -2.3786994  -0.60215993   0.17540777   -2.3786994    1.7765395   396900 
 2817000    1.1848639   -2.3796529   -2.3796529  -0.60236157   0.18049549   -2.3796529    1.7772913   396900 
 2818000    1.1826198   -2.3784317   -2.3784317  -0.60450654   0.17866472   -2.3784317    1.7739252   396900 
 2819000    1.1831943   -2.3785876   -2.3785876  -0.60380054   0.17786789   -2.3785876     1.774787   396900 
 2820000    1.1824715   -2.3776564   -2.3776564  -0.60395359   0.18173918   -2.3776564    1.7737028   396900 
 2821000    1.1833925   -2.3803408   -2.3803408  -0.60525655   0.17913531   -2.3803408    1.7750843   396900 
 2822000    1.1833167   -2.3795637   -2.3795637  -0.60459313   0.17565647   -2.3795637    1.7749705   396900 
 2823000    1.1844494   -2.3813744   -2.3813744  -0.60470478   0.17675723   -2.3813744    1.7766696   396900 
 2824000     1.183617   -2.3804023   -2.3804023  -0.60498138   0.17743515   -2.3804023     1.775421   396900 
 2825000    1.1828772   -2.3778396   -2.3778396  -0.60352822   0.17898091   -2.3778396    1.7743114   396900 
 2826000    1.1833213   -2.3789228   -2.3789228  -0.60394533   0.17356928   -2.3789228    1.7749774   396900 
 2827000    1.1853235   -2.3812382   -2.3812382  -0.60325732   0.17445229   -2.3812382    1.7779808   396900 
 2828000      1.18467   -2.3796436   -2.3796436  -0.60264308   0.17509091   -2.3796436    1.7770005   396900 
 2829000    1.1834714   -2.3800178   -2.3800178  -0.60481522   0.18122255   -2.3800178    1.7752026   396900 
 2830000    1.1813802   -2.3763197   -2.3763197  -0.60425388   0.18318386   -2.3763197    1.7720658   396900 
 2831000    1.1840038   -2.3780201   -2.3780201  -0.60201883   0.17809118   -2.3780201    1.7760013   396900 
 2832000    1.1818106    -2.378867    -2.378867  -0.60615561   0.18311667    -2.378867    1.7727114   396900 
 2833000    1.1825077   -2.3808808   -2.3808808  -0.60712375   0.17671189   -2.3808808     1.773757   396900 
 2834000    1.1819213   -2.3787193   -2.3787193   -0.6058419   0.17717456   -2.3787193    1.7728774   396900 
 2835000    1.1815063   -2.3783414   -2.3783414  -0.60608636    0.1796343   -2.3783414    1.7722551   396900 
 2836000    1.1836241   -2.3813633   -2.3813633  -0.60593162   0.17835801   -2.3813633    1.7754316   396900 
 2837000    1.1833126   -2.3786156   -2.3786156   -0.6036512   0.17979418   -2.3786156    1.7749644   396900 
 2838000    1.1844688   -2.3800509   -2.3800509  -0.60335215   0.17843278   -2.3800509    1.7766988   396900 
 2839000    1.1818048   -2.3790192   -2.3790192  -0.60631652   0.17697861   -2.3790192    1.7727027   396900 
 2840000    1.1811671   -2.3795587   -2.3795587  -0.60781246    0.1775637   -2.3795587    1.7717462   396900 
 2841000    1.1818669   -2.3816979   -2.3816979    -0.608902   0.17044614   -2.3816979    1.7727959   396900 
 2842000    1.1825812   -2.3823774   -2.3823774  -0.60851006   0.17580233   -2.3823774    1.7738674   396900 
 2843000    1.1825013   -2.3816423   -2.3816423  -0.60789477   0.17910968   -2.3816423    1.7737475   396900 
 2844000    1.1823557   -2.3811167   -2.3811167  -0.60758767   0.17699944   -2.3811167    1.7735291   396900 
 2845000    1.1825174   -2.3809546   -2.3809546  -0.60718296   0.18074826   -2.3809546    1.7737716   396900 
 2846000    1.1823692   -2.3807554   -2.3807554  -0.60720608   0.18414635   -2.3807554    1.7735493   396900 
 2847000    1.1825814   -2.3801715   -2.3801715  -0.60630387   0.17442398   -2.3801715    1.7738677   396900 
 2848000    1.1821874   -2.3804267   -2.3804267  -0.60715012   0.17910278   -2.3804267    1.7732766   396900 
 2849000    1.1814312   -2.3810472   -2.3810472  -0.60890493   0.17757955   -2.3810472    1.7721423   396900 
 2850000    1.1820964   -2.3796012   -2.3796012  -0.60646115   0.18018886   -2.3796012    1.7731401   396900 
 2851000    1.1846853   -2.3820347   -2.3820347  -0.60501116   0.17243322   -2.3820347    1.7770235   396900 
 2852000    1.1832888   -2.3800591   -2.3800591  -0.60513036   0.18214543   -2.3800591    1.7749288   396900 
 2853000    1.1846675   -2.3791801   -2.3791801  -0.60218338    0.1772455   -2.3791801    1.7769967   396900 
 2854000    1.1837913   -2.3788266   -2.3788266  -0.60314408   0.17311832   -2.3788266    1.7756825   396900 
 2855000    1.1846359   -2.3811793   -2.3811793  -0.60422984   0.17716633   -2.3811793    1.7769494   396900 
 2856000    1.1836843    -2.379367    -2.379367  -0.60384504   0.17608655    -2.379367     1.775522   396900 
 2857000    1.1837339   -2.3795419   -2.3795419  -0.60394563   0.18115422   -2.3795419    1.7755963   396900 
 2858000    1.1830779   -2.3782823   -2.3782823  -0.60366996   0.17691825   -2.3782823    1.7746123   396900 
 2859000    1.1861974   -2.3783691   -2.3783691  -0.59907742   0.17898721   -2.3783691    1.7792917   396900 
 2860000    1.1831065   -2.3766858   -2.3766858  -0.60203058   0.17643043   -2.3766858    1.7746553   396900 
 2861000    1.1830572   -2.3756737   -2.3756737  -0.60109231   0.18015231   -2.3756737    1.7745814   396900 
 2862000    1.1834625   -2.3778367   -2.3778367  -0.60264743    0.1782757   -2.3778367    1.7751893   396900 
 2863000    1.1860239   -2.3794955   -2.3794955  -0.60046408   0.17489233   -2.3794955    1.7790314   396900 
 2864000     1.182883   -2.3772233   -2.3772233  -0.60290321   0.17963995   -2.3772233    1.7743201   396900 
 2865000    1.1837926   -2.3770064   -2.3770064  -0.60132195   0.18025852   -2.3770064    1.7756845   396900 
 2866000    1.1830776   -2.3775477   -2.3775477   -0.6029358   0.17598705   -2.3775477    1.7746119   396900 
 2867000    1.1836121   -2.3760462   -2.3760462  -0.60063257   0.17882352   -2.3760462    1.7754136   396900 
 2868000    1.1864402   -2.3789777   -2.3789777  -0.59932185    0.1801359   -2.3789777    1.7796559   396900 
 2869000    1.1878001   -2.3792786   -2.3792786  -0.59758286   0.18284562   -2.3792786    1.7816957   396900 
 2870000    1.1844582   -2.3740951   -2.3740951  -0.59741224   0.18068619   -2.3740951    1.7766828   396900 
 2871000    1.1872294   -2.3792677   -2.3792677   -0.5984281   0.17810098   -2.3792677    1.7808396   396900 
 2872000    1.1871829   -2.3800597   -2.3800597  -0.59928982    0.1742689   -2.3800597    1.7807699   396900 
 2873000    1.1861435   -2.3770208   -2.3770208  -0.59781009   0.17918593   -2.3770208    1.7792107   396900 
 2874000    1.1858621   -2.3777734   -2.3777734  -0.59898472   0.18046746   -2.3777734    1.7787887   396900 
 2875000    1.1848067   -2.3772772   -2.3772772  -0.60007165   0.17987912   -2.3772772    1.7772055   396900 
 2876000    1.1856862   -2.3762662   -2.3762662  -0.59774131    0.1845846   -2.3762662    1.7785249   396900 
 2877000    1.1859319   -2.3767584   -2.3767584  -0.59786502   0.18570924   -2.3767584    1.7788934   396900 
 2878000    1.1861119   -2.3769872   -2.3769872  -0.59782379   0.18116649   -2.3769872    1.7791634   396900 
 2879000    1.1872352   -2.3765845   -2.3765845   -0.5957362   0.18002944   -2.3765845    1.7808483   396900 
 2880000    1.1869852   -2.3772027   -2.3772027   -0.5967294   0.18306799   -2.3772027    1.7804733   396900 
 2881000    1.1868707   -2.3769855   -2.3769855   -0.5966839   0.17750775   -2.3769855    1.7803016   396900 
 2882000    1.1851243   -2.3777398   -2.3777398  -0.60005776   0.17880192   -2.3777398     1.777682   396900 
 2883000    1.1864235    -2.378772    -2.378772   -0.5991412   0.18250181    -2.378772    1.7796308   396900 
 2884000      1.18609   -2.3775753   -2.3775753  -0.59844474   0.18212477   -2.3775753    1.7791306   396900 
 2885000    1.1845827   -2.3760411   -2.3760411   -0.5991715   0.17917035   -2.3760411    1.7768696   396900 
 2886000     1.184346    -2.378116    -2.378116  -0.60160151   0.17666866    -2.378116    1.7765145   396900 
 2887000    1.1847073   -2.3765043   -2.3765043  -0.59944783   0.17778641   -2.3765043    1.7770565   396900 
 2888000     1.186535   -2.3781936   -2.3781936  -0.59839554   0.18533162   -2.3781936     1.779798   396900 
 2889000     1.186294   -2.3761785   -2.3761785  -0.59674198   0.17855764   -2.3761785    1.7794365   396900 
 2890000    1.1859453   -2.3775222   -2.3775222  -0.59860875    0.1737697   -2.3775222    1.7789135   396900 
 2891000    1.1848156    -2.375029    -2.375029  -0.59781011   0.17838902    -2.375029    1.7772189   396900 
 2892000    1.1844013   -2.3748493   -2.3748493  -0.59825184   0.17652223   -2.3748493    1.7765975   396900 
 2893000    1.1847723    -2.376222    -2.376222  -0.59906804   0.17431072    -2.376222     1.777154   396900 
 2894000    1.1841522   -2.3761157   -2.3761157  -0.59989186   0.17927563   -2.3761157    1.7762238   396900 
 2895000    1.1844274    -2.376286    -2.376286  -0.59964934    0.1802056    -2.376286    1.7766367   396900 
 2896000     1.184811   -2.3763208   -2.3763208  -0.59910872   0.17940712   -2.3763208     1.777212   396900 
 2897000     1.184082   -2.3757033   -2.3757033  -0.59958473   0.18084745   -2.3757033    1.7761186   396900 
 2898000    1.1867403   -2.3778613   -2.3778613  -0.59775538   0.18189339   -2.3778613    1.7801059   396900 
 2899000    1.1857542       -2.378       -2.378  -0.59937316   0.18183528       -2.378    1.7786268   396900 
 2900000    1.1848477   -2.3767627   -2.3767627  -0.59949559   0.17414399   -2.3767627    1.7772671   396900 
 2901000     1.186301   -2.3751032   -2.3751032  -0.59565621   0.18107515   -2.3751032    1.7794469   396900 
 2902000    1.1861235    -2.378821    -2.378821  -0.59964022   0.17370812    -2.378821    1.7791808   396900 
 2903000    1.1842265   -2.3759682   -2.3759682  -0.59963289   0.18013774   -2.3759682    1.7763353   396900 
 2904000    1.1846461   -2.3756725   -2.3756725  -0.59870781   0.17845941   -2.3756725    1.7769647   396900 
 2905000    1.1838512   -2.3747642   -2.3747642  -0.59899192   0.17695419   -2.3747642    1.7757723   396900 
 2906000    1.1852631    -2.375248    -2.375248  -0.59735779   0.18272239    -2.375248    1.7778902   396900 
 2907000    1.1849945   -2.3759001   -2.3759001  -0.59841289   0.18187765   -2.3759001    1.7774872   396900 
 2908000    1.1881736   -2.3813579   -2.3813579  -0.59910202   0.17853493   -2.3813579    1.7822559   396900 
 2909000    1.1885041   -2.3806838   -2.3806838  -0.59793218   0.18193887   -2.3806838    1.7827516   396900 
 2910000    1.1863884   -2.3786755   -2.3786755   -0.5990975   0.17931788   -2.3786755     1.779578   396900 
 2911000    1.1851395    -2.376602    -2.376602  -0.59889726   0.18396151    -2.376602    1.7777047   396900 
 2912000    1.1859405   -2.3751417   -2.3751417  -0.59623545   0.17927885   -2.3751417    1.7789062   396900 
 2913000    1.1857978    -2.376613    -2.376613   -0.5979208   0.17709284    -2.376613    1.7786922   396900 
 2914000    1.1866408   -2.3757704   -2.3757704  -0.59581369   0.18165545   -2.3757704    1.7799567   396900 
 2915000    1.1849274   -2.3737894   -2.3737894  -0.59640272   0.17642477   -2.3737894    1.7773867   396900 
 2916000    1.1869215   -2.3762185   -2.3762185  -0.59584073   0.18264798   -2.3762185    1.7803778   396900 
 2917000    1.1867459   -2.3770948   -2.3770948  -0.59698035   0.18226079   -2.3770948    1.7801144   396900 
 2918000    1.1881928   -2.3772485   -2.3772485  -0.59496373   0.17952254   -2.3772485    1.7822848   396900 
 2919000    1.1874868   -2.3762936   -2.3762936  -0.59506789   0.18295293   -2.3762936    1.7812257   396900 
 2920000    1.1879352   -2.3783613   -2.3783613  -0.59646297   0.18123171   -2.3783613    1.7818983   396900 
 2921000    1.1855995   -2.3752364   -2.3752364  -0.59684165   0.18121853   -2.3752364    1.7783948   396900 
 2922000    1.1898389   -2.3778874   -2.3778874  -0.59313353   0.18252373   -2.3778874    1.7847538   396900 
 2923000    1.1897677    -2.376656    -2.376656  -0.59200898   0.18174388    -2.376656    1.7846471   396900 
 2924000    1.1903994   -2.3782351   -2.3782351  -0.59264042   0.17783918   -2.3782351    1.7855946   396900 
 2925000    1.1879144   -2.3739756   -2.3739756   -0.5921085   0.18113247   -2.3739756    1.7818671   396900 
 2926000    1.1887522   -2.3757094   -2.3757094  -0.59258552    0.1841989   -2.3757094    1.7831239   396900 
 2927000    1.1863925   -2.3760165   -2.3760165  -0.59643221   0.18397303   -2.3760165    1.7795843   396900 
 2928000    1.1861285   -2.3738352   -2.3738352  -0.59464691   0.18591783   -2.3738352    1.7791883   396900 
 2929000    1.1892175   -2.3774415   -2.3774415  -0.59361972    0.1817223   -2.3774415    1.7838217   396900 
 2930000    1.1876987   -2.3752712   -2.3752712  -0.59372768   0.18297716   -2.3752712    1.7815435   396900 
 2931000    1.1889014   -2.3757881   -2.3757881  -0.59244045    0.1815724   -2.3757881    1.7833476   396900 
 2932000    1.1889616   -2.3749289   -2.3749289  -0.59149105   0.18448441   -2.3749289    1.7834379   396900 
 2933000    1.1898762   -2.3758536   -2.3758536  -0.59104386   0.18070189   -2.3758536    1.7848098   396900 
 2934000    1.1890521   -2.3748899   -2.3748899  -0.59131626   0.18442639   -2.3748899    1.7835737   396900 
 2935000    1.1896884   -2.3749407   -2.3749407  -0.59041259   0.18127968   -2.3749407    1.7845281   396900 
 2936000    1.1921338   -2.3763488   -2.3763488  -0.58815263   0.18172111   -2.3763488    1.7881961   396900 
 2937000      1.18989   -2.3738547   -2.3738547   -0.5890243   0.18283533   -2.3738547    1.7848304   396900 
 2938000    1.1880991   -2.3725801   -2.3725801  -0.59043591   0.18682317   -2.3725801    1.7821442   396900 
 2939000    1.1922215   -2.3769054   -2.3769054  -0.58857758   0.18213889   -2.3769054    1.7883278   396900 
 2940000    1.1893281   -2.3735604   -2.3735604  -0.58957267   0.18269869   -2.3735604    1.7839877   396900 
 2941000    1.1903872   -2.3767718   -2.3767718  -0.59119544    0.1816112   -2.3767718    1.7855763   396900 
 2942000    1.1900839    -2.374955    -2.374955  -0.58983364   0.18102634    -2.374955    1.7851214   396900 
 2943000    1.1900488   -2.3761671   -2.3761671  -0.59109836   0.17998712   -2.3761671    1.7850687   396900 
 2944000    1.1878038    -2.373092    -2.373092  -0.59139077   0.18647651    -2.373092    1.7817013   396900 
 2945000    1.1881585    -2.372808    -2.372808  -0.59057463   0.18127712    -2.372808    1.7822333   396900 
 2946000    1.1912703   -2.3761434   -2.3761434  -0.58924247   0.18495268   -2.3761434    1.7869009   396900 
 2947000    1.1894967   -2.3771839   -2.3771839   -0.5929433   0.17994366   -2.3771839    1.7842406   396900 
 2948000    1.1887332   -2.3731723   -2.3731723    -0.590077   0.18352672   -2.3731723    1.7830953   396900 
 2949000     1.189492   -2.3763271   -2.3763271  -0.59209355    0.1779356   -2.3763271    1.7842336   396900 
 2950000    1.1898075   -2.3735306   -2.3735306  -0.58882388   0.18394326   -2.3735306    1.7847067   396900 
 2951000    1.1901599   -2.3736704   -2.3736704  -0.58843504   0.17784921   -2.3736704    1.7852354   396900 
 2952000    1.1917393   -2.3758639   -2.3758639  -0.58825955   0.18273917   -2.3758639    1.7876044   396900 
 2953000    1.1915647   -2.3748385   -2.3748385  -0.58749592   0.18281444   -2.3748385    1.7873426   396900 
 2954000    1.1899554   -2.3734867   -2.3734867  -0.58855813   0.18422194   -2.3734867    1.7849285   396900 
 2955000     1.190189   -2.3744003   -2.3744003  -0.58912131   0.18539322   -2.3744003     1.785279   396900 
 2956000    1.1907184   -2.3733479   -2.3733479   -0.5872747   0.18531912   -2.3733479    1.7860731   396900 
 2957000    1.1885524   -2.3717678   -2.3717678  -0.58894369    0.1797563   -2.3717678    1.7828241   396900 
 2958000    1.1900898   -2.3725737   -2.3725737  -0.58744355   0.18486978   -2.3725737    1.7851301   396900 
 2959000    1.1912492   -2.3754066   -2.3754066  -0.58853735   0.18172263   -2.3754066    1.7868692   396900 
 2960000    1.1902251   -2.3733573   -2.3733573  -0.58802417   0.18684258   -2.3733573    1.7853332   396900 
 2961000    1.1901145   -2.3725477   -2.3725477  -0.58738044    0.1840284   -2.3725477    1.7851672   396900 
 2962000    1.1899258   -2.3720949   -2.3720949  -0.58721077   0.18250075   -2.3720949    1.7848841   396900 
 2963000    1.1897799   -2.3709676   -2.3709676  -0.58630216   0.18515941   -2.3709676    1.7846654   396900 
 2964000     1.191315   -2.3728987   -2.3728987   -0.5859306   0.18223479   -2.3728987    1.7869681   396900 
 2965000    1.1933409   -2.3725739   -2.3725739  -0.58256699   0.18566069   -2.3725739    1.7900069   396900 
 2966000    1.1938666   -2.3722872   -2.3722872  -0.58149184   0.18160718   -2.3722872    1.7907954   396900 
 2967000    1.1926521   -2.3698605   -2.3698605  -0.58088689   0.18522065   -2.3698605    1.7889736   396900 
 2968000    1.1921404   -2.3694861   -2.3694861     -0.58128   0.18565437   -2.3694861    1.7882061   396900 
 2969000    1.1925345   -2.3694507   -2.3694507   -0.5806535   0.18664134   -2.3694507    1.7887972   396900 
 2970000    1.1923798   -2.3708938   -2.3708938  -0.58232866   0.18217173   -2.3708938    1.7885651   396900 
 2971000    1.1947392   -2.3743848   -2.3743848  -0.58228055   0.18651808   -2.3743848    1.7921043   396900 
 2972000    1.1940822   -2.3752899   -2.3752899  -0.58417108   0.18523692   -2.3752899    1.7911188   396900 
 2973000    1.1939039   -2.3728264   -2.3728264  -0.58197514   0.18520804   -2.3728264    1.7908513   396900 
 2974000    1.1926671   -2.3720416   -2.3720416  -0.58304543    0.1855497   -2.3720416    1.7889962   396900 
 2975000    1.1928203   -2.3715156   -2.3715156  -0.58228961   0.18771077   -2.3715156     1.789226   396900 
 2976000     1.193055   -2.3708609   -2.3708609  -0.58128285   0.18573333   -2.3708609     1.789578   396900 
 2977000    1.1928491   -2.3701294   -2.3701294  -0.58086023   0.18826788   -2.3701294    1.7892691   396900 
 2978000     1.192738   -2.3725537   -2.3725537   -0.5834513   0.18332057   -2.3725537    1.7891024   396900 
 2979000    1.1929194   -2.3732615   -2.3732615  -0.58388685   0.18154272   -2.3732615    1.7893746   396900 
 2980000    1.1919324   -2.3703142   -2.3703142  -0.58242015   0.18899577   -2.3703142    1.7878941   396900 
 2981000    1.1930295   -2.3729273   -2.3729273  -0.58338753   0.18183403   -2.3729273    1.7895398   396900 
 2982000    1.1944453   -2.3730616   -2.3730616  -0.58139816   0.18421936   -2.3730616    1.7916634   396900 
 2983000    1.1932444   -2.3717106   -2.3717106  -0.58184852   0.18761555   -2.3717106    1.7898621   396900 
 2984000    1.1966322   -2.3739147   -2.3739147  -0.57897086   0.18874568   -2.3739147    1.7949438   396900 
 2985000    1.1941818   -2.3735616   -2.3735616  -0.58229346   0.18402036   -2.3735616    1.7912681   396900 
 2986000    1.1927944   -2.3738781   -2.3738781  -0.58469101   0.18796213   -2.3738781    1.7891871   396900 
 2987000    1.1924455   -2.3716053   -2.3716053  -0.58294158   0.18857819   -2.3716053    1.7886637   396900 
 2988000    1.1929834   -2.3714085   -2.3714085  -0.58193786    0.1858513   -2.3714085    1.7894706   396900 
 2989000    1.1939296    -2.372861    -2.372861  -0.58197116   0.18135153    -2.372861    1.7908898   396900 
 2990000    1.1952111   -2.3713877   -2.3713877  -0.57857567   0.18823915   -2.3713877    1.7928121   396900 
 2991000    1.1935653   -2.3718379   -2.3718379  -0.58149457   0.19131202   -2.3718379    1.7903434   396900 
 2992000    1.1898909    -2.369495    -2.369495  -0.58466313   0.18840553    -2.369495    1.7848318   396900 
 2993000    1.1900391   -2.3692329   -2.3692329  -0.58417866   0.17825907   -2.3692329    1.7850542   396900 
 2994000    1.1909768    -2.369882    -2.369882   -0.5834214   0.18439676    -2.369882    1.7864606   396900 
 2995000    1.1927079   -2.3711883   -2.3711883  -0.58213092   0.18189509   -2.3711883    1.7890574   396900 
 2996000    1.1942076   -2.3730023   -2.3730023  -0.58169538   0.18279482   -2.3730023    1.7913069   396900 
 2997000    1.1914087   -2.3712731   -2.3712731  -0.58416453   0.18613514   -2.3712731    1.7871086   396900 
 2998000    1.1948839   -2.3728013   -2.3728013  -0.58047987   0.19081732   -2.3728013    1.7923214   396900 
 2999000    1.1921642   -2.3689622   -2.3689622  -0.58072048   0.18180586   -2.3689622    1.7882418   396900 
 3000000    1.1938288   -2.3726558   -2.3726558    -0.581917   0.18530219   -2.3726558    1.7907388   396900 
Loop time of 12710.5 on 48 procs for 3000000 steps with 396900 atoms

Performance: 101962.953 tau/day, 236.025 timesteps/s
92.9% CPU use with 48 MPI tasks x 1 OpenMP threads

MPI task timing breakdown:
Section |  min time  |  avg time  |  max time  |%varavg|  %CPU | %total
-----------------------------------------------------------------------
Pair    | 4473.9     | 5757.3     | 6295.8     | 771.1 |  97.3 | 45.30
Bond    | 2.1479     | 2.2804     | 2.4593     |   3.7 | 100.0 |  0.02
Neigh   | 2670.5     | 3127.7     | 3313.7     | 339.6 |  99.5 | 24.61
Comm    | 1559.8     | 2784.6     | 4904       |1956.6 |  82.0 | 21.91
Output  | 79.31      | 79.551     | 79.559     |   0.4 |  71.4 |  0.63
Modify  | 302.08     | 737.15     | 1373.6     |1666.3 |  88.4 |  5.80
Other   |            | 221.9      |            |       |       |  1.75

Nlocal:        8268.75 ave        8607 max        7965 min
Histogram: 4 1 3 9 11 7 6 3 3 1
Nghost:        6237.10 ave        6996 max        4826 min
Histogram: 9 3 0 0 0 0 0 7 25 4
Neighs:        166900.0 ave      181050 max      142244 min
Histogram: 1 1 0 6 3 6 11 9 8 3

Total # of neighbors = 8011191
Ave neighs/atom = 20.184407
Ave special neighs/atom = 0.0000000
Neighbor list builds = 300000
Dangerous builds = 297000

write_data	data.lj
System init for write_data ...
WARNING: Not all mixed pair coeffs generated from mixing. Use write_data with 'pair ij' option to store all pair coeffs. (src/write_data.cpp:312)
Total wall time: 3:31:51
