LAMMPS (24 Dec 2020)
OMP_NUM_THREADS environment is not set. Defaulting to 1 thread. (src/comm.cpp:94)
  using 1 OpenMP thread(s) per MPI task
# Simple rigid body system
# needed variables: startTemp, temp

units		lj
atom_style	full
dimension 	3
boundary	p p f
pair_style	lj/cut/opt 2.5


variable 	sigma		equal 1.0
variable 	epsilon 	equal 1.0


region		box block 0 160 0 160 0 160
create_box 	3 box
Created orthogonal box = (0.0000000 0.0000000 0.0000000) to (160.00000 160.00000 160.00000)
  6 by 4 by 6 MPI processor grid
lattice 	sc 1.0
Lattice spacing in x,y,z = 1.0000000 1.0000000 1.0000000

create_atoms 	1 region box
Created 4096000 atoms
  create_atoms CPU = 0.062 seconds

mass		1 1.0
mass		2 1.0
mass		3 1.0


group		solvent type 1
4096000 atoms in group solvent


velocity 	solvent create ${startTemp} 563435 loop geom
velocity 	solvent create 0.5 563435 loop geom

read_data	data.vac add append
Reading data file ...
  orthogonal box = (0.0000000 0.0000000 0.0000000) to (160.00000 160.00000 320.00000)
  4 by 4 by 9 MPI processor grid
Finding 1-2 1-3 1-4 neighbors ...
  special bond factors lj:    0        0        0       
  special bond factors coul:  0        0        0       
     0 = max # of 1-2 neighbors
     0 = max # of 1-3 neighbors
     0 = max # of 1-4 neighbors
     1 = max # of special neighbors
  special bonds CPU = 0.905 seconds
  read_data CPU = 0.946 seconds

neighbor 	0.4 bin

pair_coeff	1 1 1.0 1.0
pair_coeff	2 2 0.0 0.0
pair_coeff	3 3 0.0 0.0
pair_coeff	2 3 0.0 0.0
pair_coeff	1 2*3 0.0 0.0

pair_modify 	shift yes


balance 	1.05 shift z 10 1.05
Balancing ...
Neighbor list info ...
  update every 1 steps, delay 10 steps, check yes
  max neighbors/atom: 2000, page size: 100000
  master list distance cutoff = 2.9
  ghost atom cutoff = 2.9
  binsize = 1.45, bins = 111 111 221
  1 neighbor lists, perpetual/occasional/extra = 1 0 0
  (1) pair lj/cut/opt, perpetual
      attributes: half, newton on
      pair build: half/bin/newton
      stencil: half/bin/3d/newton
      bin: standard
 rebalancing time: 0.060 seconds
  iteration count = 5
  initial/final maximal load/proc = 57600.000 41600.000
  initial/final imbalance factor  = 2.0250000 1.4625000
  x cuts: 0.0000000 0.25000000 0.50000000 0.75000000 1.0000000
  y cuts: 0.0000000 0.25000000 0.50000000 0.75000000 1.0000000
  z cuts: 0.0000000 0.052083333 0.10416667 0.15972222 0.22569444 0.27430556 0.31944444 0.37500000 0.45486111 1.0000000


####################### WALLS ###########################


region	       low block  EDGE EDGE EDGE EDGE 0 2

region 	       top block  EDGE EDGE EDGE EDGE 159 160


delete_atoms   region low
WARNING: Ignoring 'compress yes' for molecular system (src/delete_atoms.cpp:125)
Deleted 76800 atoms, new total = 4019200

delete_atoms   region top
WARNING: Ignoring 'compress yes' for molecular system (src/delete_atoms.cpp:125)
Deleted 25600 atoms, new total = 3993600


variable       epsilonWall equal 2*${epsilon}
variable       epsilonWall equal 2*1

variable       cutoffTop   equal   0.7147*${sigma}
variable       cutoffTop   equal   0.7147*1

variable       cutoffLow   equal   3*${sigma}
variable       cutoffLow   equal   3*1


fix            topWall all wall/lj93 zhi EDGE                ${epsilonWall} ${sigma} ${cutoffTop} units box
fix            topWall all wall/lj93 zhi EDGE                2 ${sigma} ${cutoffTop} units box
fix            topWall all wall/lj93 zhi EDGE                2 1 ${cutoffTop} units box
fix            topWall all wall/lj93 zhi EDGE                2 1 0.7147 units box

fix            lowWall all wall/lj93 zlo EDGE                ${epsilonWall} ${sigma} ${cutoffLow} units box
fix            lowWall all wall/lj93 zlo EDGE                2 ${sigma} ${cutoffLow} units box
fix            lowWall all wall/lj93 zlo EDGE                2 1 ${cutoffLow} units box
fix            lowWall all wall/lj93 zlo EDGE                2 1 3 units box


###################### COMPUTES ##########################

compute        bin1 solvent chunk/atom bin/1d z upper 1.0



######################	FIXES ############################


fix 		peclet solvent ave/chunk 1000 1 1000 bin1 density/number norm 		 none ave one file density.profile

fix 		2 solvent nve

## Thermostat


region		regthermo block EDGE EDGE EDGE EDGE 0 20

group 		thermo dynamic solvent region regthermo every 1000
dynamic group thermo defined

fix 		3 thermo langevin ${startTemp} ${temp} 10 156453
fix 		3 thermo langevin 0.5 ${temp} 10 156453
fix 		3 thermo langevin 0.5 .6 10 156453



#### Load balancing


fix 		bal all balance 1000 1.05 shift z 10 1.05


############### Diagnostics and computes ###################
#compute 	com cube	  rigid/local	1 mol x y z
#compute 	quat cube	  rigid/local	1 mol quatw quati quatj quatk

thermo 		1000
thermo_style 	custom step temp epair evdwl etotal press pe ke vol

dump		1 all custom 100000 dump.lammpstrj id mol type x y z
dump 		2 all image 10000 image.*.png type type
dump 		3 all movie 1000 movie.avi type type
#dump 		com cube local 1000 dump.*.xyz c_com[*]
#dump		quat cube      local 1000 dump.*.quat c_quat[*]


#restart 	500000 restart.dat
timestep 	0.005
timer 		full
New timer settings: style=full  mode=nosync  timeout=off


run		1000000
Per MPI rank memory allocation (min/avg/max) = 30.97 | 35.01 | 39.70 Mbytes
Step Temp E_pair E_vdwl TotEng Press PotEng KinEng Volume 
       0   0.49997217   -3.3137429   -3.3137429   -2.5637849    8.4475947   -3.3137429   0.74995807      8192000 
    1000    1.4162804   -4.8191056   -4.8191056   -2.6946856     4.090814   -4.8191056      2.12442      8192000 
    2000    1.3811422   -4.8905362   -4.8905362   -2.8188234    2.8274126   -4.8905362    2.0717128      8192000 
    3000    1.3249476     -4.90296     -4.90296   -2.9155392    1.8432085     -4.90296    1.9874208      8192000 
    4000    1.3032872   -4.9251361   -4.9251361   -2.9702058   0.81473614   -4.9251361    1.9549303      8192000 
    5000    1.2398276   -4.8439072   -4.8439072   -2.9841663   0.13363293   -4.8439072    1.8597409      8192000 
    6000    1.1633336   -4.7250174   -4.7250174   -2.9800173  -0.18274934   -4.7250174        1.745      8192000 
    7000    1.1353239   -4.6731693   -4.6731693   -2.9701839  -0.15920928   -4.6731693    1.7029854      8192000 
    8000    1.1514283   -4.6903432   -4.6903432   -2.9632013  0.010122036   -4.6903432    1.7271419      8192000 
    9000    1.1607581   -4.7056259   -4.7056259   -2.9644892  0.095992151   -4.7056259    1.7411367      8192000 
   10000    1.1614671   -4.7137017   -4.7137017   -2.9715015   0.13134907   -4.7137017    1.7422002      8192000 
   11000    1.1594338   -4.7180854   -4.7180854   -2.9789351   0.14329901   -4.7180854    1.7391503      8192000 
   12000    1.1589737   -4.7225495   -4.7225495   -2.9840894   0.14154876   -4.7225495    1.7384601      8192000 
   13000    1.1643318   -4.7339869   -4.7339869   -2.9874897    0.1798034   -4.7339869    1.7464972      8192000 
   14000    1.1674721   -4.7420223   -4.7420223   -2.9908145   0.21036068   -4.7420223    1.7512077      8192000 
   15000    1.1662811   -4.7441443   -4.7441443    -2.994723   0.21139225   -4.7441443    1.7494212      8192000 
   16000    1.1633692   -4.7436474   -4.7436474   -2.9985941   0.20458054   -4.7436474    1.7450533      8192000 
   17000    1.1624926   -4.7456666   -4.7456666   -3.0019281   0.19845478   -4.7456666    1.7437385      8192000 
   18000    1.1623029   -4.7484191   -4.7484191   -3.0049652   0.20502375   -4.7484191    1.7434539      8192000 
   19000    1.1622027   -4.7514994   -4.7514994   -3.0081958   0.21104333   -4.7514994    1.7433036      8192000 
   20000    1.1619986   -4.7541751   -4.7541751   -3.0111776   0.21715777   -4.7541751    1.7429974      8192000 
   21000    1.1617412   -4.7566192   -4.7566192   -3.0140078   0.22122044   -4.7566192    1.7426113      8192000 
   22000    1.1648096   -4.7652098   -4.7652098   -3.0179958   0.41532519   -4.7652098     1.747214      8192000 
   23000    1.1658211   -4.7696385   -4.7696385   -3.0209073    1.1160508   -4.7696385    1.7487312      8192000 
   24000    1.1677187   -4.7754226   -4.7754226   -3.0238449    1.7807747   -4.7754226    1.7515776      8192000 
   25000    1.1700798   -4.7816981   -4.7816981   -3.0265788    2.4293627   -4.7816981    1.7551193      8192000 
   26000    1.1727997   -4.7885219   -4.7885219   -3.0293228    2.1080828   -4.7885219    1.7591991      8192000 
   27000    1.1705467   -4.7877235   -4.7877235   -3.0319039    1.6140701   -4.7877235    1.7558196      8192000 
   28000    1.1546924   -4.7660725   -4.7660725   -3.0340343    1.1611772   -4.7660725    1.7320382      8192000 
   29000     1.113719   -4.7072158   -4.7072158   -3.0366376   0.79813979   -4.7072158    1.6705781      8192000 
   30000    1.0649336   -4.6370973   -4.6370973   -3.0396973   0.49235464   -4.6370973       1.5974      8192000 
   31000    1.0151586   -4.5656759   -4.5656759   -3.0429383   0.25584179   -4.5656759    1.5227375      8192000 
   32000   0.96421675   -4.4926664   -4.4926664   -3.0463417  0.073020744   -4.4926664    1.4463248      8192000 
   33000   0.91939425   -4.4289877   -4.4289877   -3.0498967 -0.048821818   -4.4289877     1.379091      8192000 
   34000   0.89175616   -4.3911367   -4.3911367   -3.0535028 -0.098082353   -4.3911367    1.3376339      8192000 
   35000   0.88072297   -4.3782775   -4.3782775   -3.0571933 -0.091381157   -4.3782775    1.3210841      8192000 
   36000   0.88278269    -4.385344    -4.385344   -3.0611703 -0.042538879    -4.385344    1.3241737      8192000 
   37000   0.89245157   -4.4041967   -4.4041967   -3.0655197  0.019043452   -4.4041967     1.338677      8192000 
   38000   0.90097876   -4.4218838   -4.4218838    -3.070416  0.072828272   -4.4218838    1.3514678      8192000 
   39000   0.90385267    -4.431372    -4.431372   -3.0755934   0.10802858    -4.431372    1.3557787      8192000 
   40000    0.9034831   -4.4361577   -4.4361577   -3.0809333   0.12598692   -4.4361577    1.3552243      8192000 
   41000   0.89853187   -4.4345755   -4.4345755    -3.086778    0.1178202   -4.4345755    1.3477975      8192000 
   42000   0.89112221   -4.4294225   -4.4294225   -3.0927396  0.098737621   -4.4294225     1.336683      8192000 
   43000    0.8849016   -4.4262054   -4.4262054   -3.0988533  0.084195913   -4.4262054    1.3273521      8192000 
   44000   0.88168948    -4.426893    -4.426893   -3.1043591   0.07490913    -4.426893    1.3225339      8192000 
   45000   0.87956259   -4.4299045   -4.4299045   -3.1105609  0.080278854   -4.4299045    1.3193435      8192000 
   46000   0.87847766   -4.4347011   -4.4347011    -3.116985  0.086035604   -4.4347011    1.3177162      8192000 
   47000   0.87698297   -4.4386212   -4.4386212   -3.1231471  0.086992141   -4.4386212    1.3154741      8192000 
   48000   0.87412477   -4.4405112   -4.4405112   -3.1293244  0.081772973   -4.4405112    1.3111868      8192000 
   49000   0.87220079   -4.4436336   -4.4436336   -3.1353327  0.078421299   -4.4436336    1.3083009      8192000 
   50000   0.86990264   -4.4462755   -4.4462755   -3.1414218  0.074316925   -4.4462755    1.3048536      8192000 
   51000   0.86791261   -4.4492055   -4.4492055   -3.1473369  0.072285326   -4.4492055    1.3018686      8192000 
   52000   0.86590142   -4.4520399   -4.4520399   -3.1531881  0.069931735   -4.4520399    1.2988518      8192000 
   53000   0.86400941   -4.4547608   -4.4547608    -3.158747   0.06705465   -4.4547608    1.2960138      8192000 
   54000   0.86286446   -4.4585886   -4.4585886   -3.1642922  0.062180049   -4.4585886    1.2942964      8192000 
   55000   0.86118719   -4.4613924   -4.4613924   -3.1696119   0.06255823   -4.4613924    1.2917805      8192000 
   56000   0.86023616   -4.4652517   -4.4652517   -3.1748978  0.060651934   -4.4652517    1.2903539      8192000 
   57000   0.85921938   -4.4690142   -4.4690142   -3.1801855  0.060844472   -4.4690142    1.2888287      8192000 
   58000    0.8578508   -4.4719221   -4.4719221   -3.1851462  0.061793229   -4.4719221    1.2867759      8192000 
   59000   0.85769694   -4.4767811   -4.4767811    -3.190236  0.061479858   -4.4767811    1.2865451      8192000 
   60000   0.85762745   -4.4819403   -4.4819403   -3.1954995  0.062135593   -4.4819403    1.2864409      8192000 
   61000   0.85749401   -4.4869107   -4.4869107     -3.20067  0.067470761   -4.4869107    1.2862407      8192000 
   62000   0.85826842   -4.4928584   -4.4928584   -3.2054561  0.070982093   -4.4928584    1.2874023      8192000 
   63000    0.8583029   -4.4980087   -4.4980087   -3.2105547  0.075982769   -4.4980087     1.287454      8192000 
   64000   0.85892186   -4.5038823   -4.5038823   -3.2154999  0.079229771   -4.5038823    1.2883825      8192000 
   65000   0.85991105   -4.5101048   -4.5101048   -3.2202385   0.08413925   -4.5101048    1.2898663      8192000 
   66000   0.86054395   -4.5158671   -4.5158671   -3.2250514  0.090395333   -4.5158671    1.2908156      8192000 
   67000   0.86226128   -4.5233786   -4.5233786    -3.229987  0.097874485   -4.5233786    1.2933916      8192000 
   68000   0.86472756   -4.5318802   -4.5318802   -3.2347891   0.11058347   -4.5318802     1.297091      8192000 
   69000   0.86806364   -4.5420937   -4.5420937   -3.2399986   0.12730046   -4.5420937    1.3020951      8192000 
   70000   0.87330787   -4.5551583   -4.5551583   -3.2451969   0.15579019   -4.5551583    1.3099615      8192000 
   71000   0.88166407   -4.5734314   -4.5734314   -3.2509356   0.19663966   -4.5734314    1.3224958      8192000 
   72000   0.89150704    -4.594509    -4.594509   -3.2572488   0.25866705    -4.594509    1.3372602      8192000 
   73000   0.90347509   -4.6193435   -4.6193435   -3.2641312   0.33730518   -4.6193435    1.3552123      8192000 
   74000   0.91400146   -4.6428919   -4.6428919     -3.27189   0.42763191   -4.6428919    1.3710019      8192000 
   75000   0.92329506   -4.6655476   -4.6655476   -3.2806053   0.51165622   -4.6655476    1.3849422      8192000 
   76000   0.93154454   -4.6866461   -4.6866461   -3.2893296    0.5841947   -4.6866461    1.3973165      8192000 
   77000    0.9365746   -4.7026224   -4.7026224   -3.2977609   0.64084286   -4.7026224    1.4048616      8192000 
   78000    0.9363792   -4.7111791   -4.7111791   -3.3066107   0.66587401   -4.7111791    1.4045684      8192000 
   79000    0.9320002   -4.7132105   -4.7132105   -3.3152106   0.65325834   -4.7132105        1.398      8192000 
   80000   0.92385273   -4.7092522   -4.7092522   -3.3234734   0.61418425   -4.7092522    1.3857787      8192000 
   81000   0.91256266   -4.7003893   -4.7003893   -3.3315456   0.55007186   -4.7003893    1.3688436      8192000 
   82000   0.90015916   -4.6893235   -4.6893235   -3.3390851    0.4680351   -4.6893235    1.3502384      8192000 
   83000   0.88547977   -4.6741221   -4.6741221   -3.3459027   0.38290203   -4.6741221    1.3282193      8192000 
   84000   0.87027961   -4.6571337   -4.6571337   -3.3517146   0.29783831   -4.6571337    1.3054191      8192000 
   85000   0.85432038    -4.637992    -4.637992   -3.3565117   0.21472658    -4.637992    1.2814803      8192000 
   86000   0.83839129   -4.6177756   -4.6177756    -3.360189    0.1361352   -4.6177756    1.2575866      8192000 
   87000   0.82115677     -4.59479     -4.59479   -3.3630552  0.069595024     -4.59479    1.2317349      8192000 
   88000   0.80507034   -4.5730871   -4.5730871   -3.3654819 0.0079978511   -4.5730871    1.2076052      8192000 
   89000   0.79005181   -4.5527813   -4.5527813   -3.3677039 -0.043496632   -4.5527813    1.1850774      8192000 
   90000   0.77715345   -4.5354276   -4.5354276   -3.3696978 -0.080771635   -4.5354276    1.1657299      8192000 
   91000   0.76814442   -4.5236748   -4.5236748   -3.3714584  -0.10438639   -4.5236748    1.1522163      8192000 
   92000   0.76444403   -4.5204663   -4.5204663   -3.3738006  -0.11169607   -4.5204663    1.1466658      8192000 
   93000   0.76528532   -4.5241445   -4.5241445   -3.3762168  -0.10250829   -4.5241445    1.1479277      8192000 
   94000   0.76965342   -4.5332932   -4.5332932   -3.3788134 -0.077917879   -4.5332932    1.1544798      8192000 
   95000   0.77699159   -4.5475328   -4.5475328   -3.3820457 -0.049135462   -4.5475328    1.1654871      8192000 
   96000   0.78507994   -4.5626899   -4.5626899   -3.3850703 -0.016823563   -4.5626899    1.1776196      8192000 
   97000   0.79319737   -4.5777057   -4.5777057     -3.38791  0.016370807   -4.5777057    1.1897958      8192000 
   98000   0.79969827   -4.5902717   -4.5902717   -3.3907246  0.047010029   -4.5902717    1.1995471      8192000 
   99000    0.8046705   -4.6003709   -4.6003709   -3.3933655  0.074729072   -4.6003709    1.2070054      8192000 
  100000   0.80640018   -4.6056379   -4.6056379   -3.3960379  0.084085828   -4.6056379       1.2096      8192000 
  101000   0.80354165   -4.6045505   -4.6045505   -3.3992383  0.073186408   -4.6045505    1.2053122      8192000 
  102000   0.79774487   -4.5986998   -4.5986998   -3.4020828  0.048195752   -4.5986998     1.196617      8192000 
  103000   0.78979731   -4.5895522   -4.5895522   -3.4048565   0.01558665   -4.5895522    1.1846957      8192000 
  104000   0.78203935   -4.5807103   -4.5807103   -3.4076515 -0.014803201   -4.5807103    1.1730587      8192000 
  105000   0.77548475   -4.5735445   -4.5735445   -3.4103177 -0.037570088   -4.5735445    1.1632268      8192000 
  106000    0.7724577    -4.571859    -4.571859   -3.4131727 -0.048223091    -4.571859    1.1586863      8192000 
  107000   0.77263677     -4.57472     -4.57472   -3.4157652 -0.045845856     -4.57472    1.1589549      8192000 
  108000   0.77560183   -4.5817131   -4.5817131   -3.4183106 -0.027173413   -4.5817131    1.1634025      8192000 
  109000   0.78106057   -4.5927247   -4.5927247   -3.4211341 -0.0058681921   -4.5927247    1.1715906      8192000 
  110000   0.78685447   -4.6040867   -4.6040867   -3.4238053  0.025842951   -4.6040867    1.1802814      8192000 
  111000   0.79263599    -4.615407    -4.615407   -3.4264533   0.05012844    -4.615407    1.1889537      8192000 
  112000   0.79529999   -4.6220987   -4.6220987    -3.429149  0.067728826   -4.6220987    1.1929497      8192000 
  113000   0.79490272   -4.6240273   -4.6240273   -3.4316735  0.068722876   -4.6240273    1.1923538      8192000 
  114000   0.79173624   -4.6218103   -4.6218103   -3.4342062  0.052016345   -4.6218103    1.1876041      8192000 
  115000   0.78626254   -4.6160038   -4.6160038   -3.4366103  0.030346676   -4.6160038    1.1793935      8192000 
  116000   0.78025847   -4.6096032   -4.6096032   -3.4392157 0.0034210461   -4.6096032    1.1703874      8192000 
  117000   0.77431945   -4.6032294   -4.6032294   -3.4417505 -0.018670825   -4.6032294    1.1614789      8192000 
  118000   0.77022377   -4.5995964   -4.5995964    -3.444261 -0.028331365   -4.5995964    1.1553354      8192000 
  119000   0.76954963   -4.6009174   -4.6009174   -3.4465932 -0.031648226   -4.6009174    1.1543242      8192000 
  120000   0.77052219   -4.6048708   -4.6048708   -3.4490878 -0.023095373   -4.6048708     1.155783      8192000 
  121000   0.77369149   -4.6120022   -4.6120022   -3.4514653 -0.0066589182   -4.6120022     1.160537      8192000 
  122000   0.77859501   -4.6218225   -4.6218225   -3.4539303  0.015117648   -4.6218225    1.1678922      8192000 
  123000   0.78259476   -4.6301909   -4.6301909    -3.456299  0.035795939   -4.6301909    1.1738918      8192000 
  124000    0.7862515   -4.6381707   -4.6381707   -3.4587937  0.050404637   -4.6381707    1.1793769      8192000 
  125000   0.78649306   -4.6408141   -4.6408141   -3.4610748  0.057804981   -4.6408141    1.1797393      8192000 
  126000   0.78458812   -4.6403674   -4.6403674   -3.4634855  0.049535114   -4.6403674    1.1768819      8192000 
  127000   0.78092476   -4.6370928   -4.6370928   -3.4657059  0.034659751   -4.6370928    1.1713868      8192000 
  128000   0.77617675   -4.6324194   -4.6324194   -3.4681545  0.014326653   -4.6324194    1.1642648      8192000 
  129000    0.7714634   -4.6276324   -4.6276324   -3.4704376 -0.0025236005   -4.6276324    1.1571948      8192000 
  130000   0.76802188   -4.6246494   -4.6246494   -3.4726169 -0.018122984   -4.6246494    1.1520325      8192000 
  131000   0.76635577   -4.6241884   -4.6241884    -3.474655 -0.022269819   -4.6241884    1.1495334      8192000 
  132000    0.7663355   -4.6265538   -4.6265538   -3.4770508 -0.018336298   -4.6265538     1.149503      8192000 
  133000   0.76891341   -4.6327252   -4.6327252   -3.4793554  -0.00734426   -4.6327252    1.1533698      8192000 
  134000   0.77220868   -4.6399338   -4.6399338   -3.4816211  0.011275821   -4.6399338    1.1583127      8192000 
  135000   0.77593376   -4.6477747   -4.6477747   -3.4838744  0.028066053   -4.6477747    1.1639004      8192000 
  136000   0.77874492   -4.6541758   -4.6541758   -3.4860588  0.039721822   -4.6541758    1.1681171      8192000 
  137000   0.77948433   -4.6574238   -4.6574238   -3.4881976  0.047402481   -4.6574238    1.1692262      8192000 
  138000   0.77900438   -4.6586713   -4.6586713    -3.490165  0.046220102   -4.6586713    1.1685063      8192000 
  139000   0.77641513   -4.6568715   -4.6568715   -3.4922491  0.033658528   -4.6568715    1.1646224      8192000 
  140000    0.7725241   -4.6532607   -4.6532607   -3.4944748  0.018630745   -4.6532607    1.1587859      8192000 
  141000   0.76837741   -4.6491412   -4.6491412   -3.4965754 0.0020653574   -4.6491412    1.1525658      8192000 
  142000   0.76550052    -4.646772    -4.646772   -3.4985215 -0.0081746323    -4.646772    1.1482505      8192000 
  143000   0.76357799   -4.6459637   -4.6459637    -3.500597 -0.012460379   -4.6459637    1.1453667      8192000 
  144000    0.7637304   -4.6482635   -4.6482635   -3.5026681 -0.010935193   -4.6482635    1.1455953      8192000 
  145000   0.76510334   -4.6522589   -4.6522589   -3.5046041 -0.0018918316   -4.6522589    1.1476547      8192000 
  146000   0.76790032   -4.6586732   -4.6586732   -3.5068231 0.0087780678   -4.6586732    1.1518502      8192000 
  147000   0.77036276    -4.664172    -4.664172   -3.5086281   0.02302519    -4.664172    1.1555439      8192000 
  148000   0.77311004   -4.6704475   -4.6704475   -3.5107827  0.034586414   -4.6704475    1.1596648      8192000 
  149000   0.77472704   -4.6747363   -4.6747363    -3.512646  0.040687073   -4.6747363    1.1620903      8192000 
  150000   0.77398129   -4.6755897   -4.6755897    -3.514618  0.042391755   -4.6755897    1.1609716      8192000 
  151000   0.77270376   -4.6757831   -4.6757831   -3.5167278  0.036109058   -4.6757831    1.1590554      8192000 
  152000   0.76999025   -4.6735915   -4.6735915   -3.5186064  0.027311113   -4.6735915    1.1549851      8192000 
  153000   0.76817462   -4.6727874   -4.6727874   -3.5205258  0.018705121   -4.6727874    1.1522616      8192000 
  154000   0.76748957   -4.6737183   -4.6737183   -3.5224842  0.022612968   -4.6737183    1.1512341      8192000 
  155000   0.77026937   -4.6801086   -4.6801086   -3.5247049  0.035271139   -4.6801086    1.1554038      8192000 
  156000   0.77591017   -4.6902055   -4.6902055   -3.5263406  0.071628359   -4.6902055     1.163865      8192000 
  157000   0.78527106   -4.7058887   -4.7058887   -3.5279824   0.12251413   -4.7058887    1.1779063      8192000 
  158000   0.79567893   -4.7230804   -4.7230804   -3.5295624   0.18876483   -4.7230804    1.1935181      8192000 
  159000   0.80633385       -4.741       -4.741   -3.5314995   0.24733081       -4.741    1.2095005      8192000 
  160000   0.81301872   -4.7527486   -4.7527486   -3.5332208   0.29052837   -4.7527486    1.2195278      8192000 
  161000   0.81461232   -4.7568851   -4.7568851    -3.534967   0.30164863   -4.7568851    1.2219182      8192000 
  162000   0.80929558   -4.7506902   -4.7506902   -3.5367472   0.26599802   -4.7506902    1.2139431      8192000 
  163000   0.79938329   -4.7374098   -4.7374098   -3.5383351   0.20896408   -4.7374098    1.1990746      8192000 
  164000   0.78891949   -4.7236316   -4.7236316   -3.5402527   0.15359627   -4.7236316    1.1833789      8192000 
  165000   0.77933127   -4.7108545   -4.7108545   -3.5418579   0.10421163   -4.7108545    1.1689966      8192000 
  166000   0.77056142   -4.6991916   -4.6991916   -3.5433498  0.058228962   -4.6991916    1.1558418      8192000 
  167000   0.76323448   -4.6898705   -4.6898705   -3.5450191  0.020314879   -4.6898705    1.1448514      8192000 
  168000   0.75707878   -4.6825437   -4.6825437   -3.5469259 0.0008058376   -4.6825437    1.1356179      8192000 
  169000   0.75425362   -4.6800422   -4.6800422   -3.5486621 -0.0093263699   -4.6800422    1.1313801      8192000 
  170000   0.75322728     -4.68026     -4.68026   -3.5504194 -0.011460674     -4.68026    1.1298406      8192000 
  171000   0.75265873   -4.6812684   -4.6812684   -3.5522806 -0.011860561   -4.6812684    1.1289878      8192000 
  172000   0.75353526   -4.6840098   -4.6840098   -3.5537071 -0.0051223728   -4.6840098    1.1303026      8192000 
  173000    0.7555641   -4.6888302   -4.6888302   -3.5554844 0.0035461625   -4.6888302    1.1333459      8192000 
  174000   0.75897457   -4.6956333   -4.6956333   -3.5571717  0.015569754   -4.6956333    1.1384616      8192000 
  175000    0.7612021    -4.700757    -4.700757   -3.5589541  0.031365413    -4.700757    1.1418029      8192000 
  176000   0.76305444   -4.7051576   -4.7051576   -3.5605763  0.038779223   -4.7051576    1.1445814      8192000 
  177000   0.76332469    -4.707082    -4.707082   -3.5620952   0.04087333    -4.707082    1.1449868      8192000 
  178000   0.76261916   -4.7076995   -4.7076995   -3.5637711  0.036417032   -4.7076995    1.1439285      8192000 
  179000   0.76062454   -4.7063546   -4.7063546   -3.5654181  0.030643803   -4.7063546    1.1409365      8192000 
  180000   0.75736901   -4.7031167   -4.7031167   -3.5670635  0.017201392   -4.7031167    1.1360532      8192000 
  181000   0.75352362   -4.6990731   -4.6990731   -3.5687879 0.0048330584   -4.6990731    1.1302851      8192000 
  182000   0.75083137   -4.6968283   -4.6968283   -3.5705815 -0.0056055237   -4.6968283    1.1262468      8192000 
  183000   0.74889477   -4.6956227   -4.6956227   -3.5722808 -0.014106123   -4.6956227    1.1233419      8192000 
  184000   0.74824573   -4.6961204   -4.6961204   -3.5737521 -0.013524973   -4.6961204    1.1223683      8192000 
  185000   0.74859977   -4.6983919   -4.6983919   -3.5754925 -0.012669778   -4.6983919    1.1228994      8192000 
  186000    0.7501232   -4.7021142   -4.7021142   -3.5769297 -0.003351126   -4.7021142    1.1251845      8192000 
  187000   0.75233343   -4.7067665   -4.7067665   -3.5782667 0.0046936298   -4.7067665    1.1284999      8192000 
  188000   0.75483073   -4.7121588   -4.7121588    -3.579913  0.015784902   -4.7121588    1.1322458      8192000 
  189000   0.75701348    -4.716962    -4.716962   -3.5814421  0.026121289    -4.716962    1.1355199      8192000 
  190000   0.75824525   -4.7203769   -4.7203769   -3.5830093  0.031080845   -4.7203769    1.1373676      8192000 
  191000   0.75858315   -4.7223318   -4.7223318   -3.5844573  0.034833431   -4.7223318    1.1378744      8192000 
  192000   0.75712068   -4.7217495   -4.7217495   -3.5860687  0.029140354   -4.7217495    1.1356807      8192000 
  193000   0.75504918   -4.7201862   -4.7201862   -3.5876127  0.022795788   -4.7201862    1.1325735      8192000 
  194000    0.7527144   -4.7180808   -4.7180808   -3.5890094  0.011023044   -4.7180808    1.1290713      8192000 
  195000   0.74969277   -4.7151054   -4.7151054   -3.5905666 0.0014839173   -4.7151054    1.1245389      8192000 
  196000   0.74724834    -4.712937    -4.712937   -3.5920648 -0.0090282108    -4.712937    1.1208722      8192000 
  197000   0.74586952   -4.7123551   -4.7123551   -3.5935511 -0.013481183   -4.7123551     1.118804      8192000 
  198000   0.74549681   -4.7134313   -4.7134313   -3.5951863 -0.013729668   -4.7134313    1.1182449      8192000 
  199000   0.74595141   -4.7158504   -4.7158504   -3.5969235 -0.010322157   -4.7158504    1.1189268      8192000 
  200000   0.74752959   -4.7193133   -4.7193133   -3.5980192 -0.0046112147   -4.7193133    1.1212941      8192000 
  201000   0.74968855   -4.7240587   -4.7240587   -3.5995262 0.0049477607   -4.7240587    1.1245325      8192000 
  202000   0.75193958   -4.7287106   -4.7287106   -3.6008015  0.015096965   -4.7287106    1.1279091      8192000 
  203000   0.75379671   -4.7330342   -4.7330342   -3.6023394  0.021376889   -4.7330342    1.1306948      8192000 
  204000   0.75392823   -4.7347725   -4.7347725   -3.6038805  0.028618043   -4.7347725    1.1308921      8192000 
  205000   0.75421839   -4.7369091   -4.7369091   -3.6055817    0.0268008   -4.7369091    1.1313273      8192000 
  206000   0.75297581   -4.7365458   -4.7365458   -3.6070823  0.025134729   -4.7365458    1.1294634      8192000 
  207000   0.75120991   -4.7352581   -4.7352581   -3.6084435  0.016718637   -4.7352581    1.1268146      8192000 
  208000   0.74860796    -4.732676    -4.732676   -3.6097643  0.006362648    -4.732676    1.1229117      8192000 
  209000   0.74594541   -4.7299938   -4.7299938    -3.611076 -0.0018563823   -4.7299938    1.1189178      8192000 
  210000   0.74418874   -4.7289696   -4.7289696   -3.6126868 -0.0086548566   -4.7289696    1.1162828      8192000 
  211000   0.74383629   -4.7298418   -4.7298418   -3.6140877  -0.01266753   -4.7298418    1.1157542      8192000 
  212000   0.74398723   -4.7314614   -4.7314614   -3.6154809 -0.011195794   -4.7314614    1.1159806      8192000 
  213000   0.74449682   -4.7336594   -4.7336594   -3.6169145 -0.0070503941   -4.7336594    1.1167449      8192000 
  214000   0.74639364   -4.7376551   -4.7376551   -3.6180649 0.0014853868   -4.7376551    1.1195902      8192000 
  215000   0.74812842   -4.7416943   -4.7416943    -3.619502 0.0083054259   -4.7416943    1.1221923      8192000 
  216000    0.7498634   -4.7456647   -4.7456647   -3.6208699  0.017465738   -4.7456647    1.1247948      8192000 
  217000   0.75070262   -4.7486201   -4.7486201   -3.6225665  0.023033135   -4.7486201    1.1260537      8192000 
  218000   0.75127897   -4.7508832   -4.7508832   -3.6239651  0.024851202   -4.7508832    1.1269182      8192000 
  219000   0.75056701   -4.7512175   -4.7512175   -3.6253673  0.023994823   -4.7512175    1.1258502      8192000 
  220000   0.74947433    -4.751161    -4.751161   -3.6269498  0.016330603    -4.751161    1.1242112      8192000 
  221000   0.74732299   -4.7491672   -4.7491672   -3.6281829  0.010593937   -4.7491672    1.1209842      8192000 
  222000   0.74530874   -4.7475652   -4.7475652   -3.6296024 0.0030866431   -4.7475652    1.1179628      8192000 
  223000   0.74331973   -4.7459989   -4.7459989   -3.6310196 -0.0045968064   -4.7459989    1.1149793      8192000 
  224000   0.74239853   -4.7458017   -4.7458017   -3.6322042 -0.0070875936   -4.7458017    1.1135975      8192000 
  225000   0.74191798   -4.7463148   -4.7463148   -3.6334381 -0.0088417957   -4.7463148    1.1128767      8192000 
  226000   0.74238996   -4.7486541   -4.7486541   -3.6350694 -0.0090330449   -4.7486541    1.1135847      8192000 
  227000   0.74370144   -4.7519257   -4.7519257   -3.6363738 -0.0032579165   -4.7519257    1.1155519      8192000 
  228000   0.74486094   -4.7551999   -4.7551999   -3.6379088 0.0062321869   -4.7551999    1.1172911      8192000 
  229000   0.74643646   -4.7588276   -4.7588276   -3.6391732  0.012864206   -4.7588276    1.1196544      8192000 
  230000   0.74734788   -4.7618639   -4.7618639   -3.6408423  0.018515545   -4.7618639    1.1210215      8192000 
  231000   0.74852671   -4.7646807   -4.7646807   -3.6418909  0.020444819   -4.7646807    1.1227898      8192000 
  232000   0.74818228    -4.765551    -4.765551   -3.6432778  0.021553786    -4.765551    1.1222731      8192000 
  233000   0.74757265   -4.7660085   -4.7660085   -3.6446498  0.019509032   -4.7660085    1.1213587      8192000 
  234000   0.74648484    -4.765986    -4.765986    -3.646259  0.010236569    -4.765986     1.119727      8192000 
  235000   0.74446764   -4.7640569   -4.7640569   -3.6473557 0.0043242139   -4.7640569    1.1167012      8192000 
  236000   0.74238179   -4.7622998   -4.7622998   -3.6487274 -0.001273278   -4.7622998    1.1135724      8192000 
  237000   0.74113461   -4.7617497   -4.7617497   -3.6500481 -0.0049355541   -4.7617497    1.1117016      8192000 
  238000   0.74087794   -4.7625629   -4.7625629   -3.6512463 -0.006355339   -4.7625629    1.1113166      8192000 
  239000   0.74083263   -4.7636045   -4.7636045   -3.6523558 -0.0058381197   -4.7636045    1.1112487      8192000 
  240000   0.74130253   -4.7658878   -4.7658878   -3.6539342  -0.00395577   -4.7658878    1.1119535      8192000 
  241000   0.74225854   -4.7687677   -4.7687677   -3.6553802 0.00028465593   -4.7687677    1.1133875      8192000 
  242000   0.74348428   -4.7720459   -4.7720459   -3.6568198 0.0062459265   -4.7720459    1.1152261      8192000 
  243000   0.74425327   -4.7744971   -4.7744971   -3.6581175  0.013080377   -4.7744971    1.1163796      8192000 
  244000   0.74510874   -4.7772191   -4.7772191   -3.6595562  0.018790811   -4.7772191    1.1176628      8192000 
  245000   0.74575355   -4.7795231   -4.7795231   -3.6608931  0.018200236   -4.7795231      1.11863      8192000 
  246000   0.74521829   -4.7798665   -4.7798665   -3.6620394  0.017167396   -4.7798665    1.1178272      8192000 
  247000   0.74433881    -4.779917    -4.779917   -3.6634091  0.010799087    -4.779917    1.1165079      8192000 
  248000   0.74281083   -4.7788598   -4.7788598   -3.6646439 0.0094615894   -4.7788598     1.114216      8192000 
  249000   0.74118326     -4.77762     -4.77762   -3.6658454 0.0037826342     -4.77762    1.1117746      8192000 
  250000   0.73997774   -4.7772634   -4.7772634   -3.6672971 -0.0029731623   -4.7772634    1.1099663      8192000 
  251000   0.73877513   -4.7768432   -4.7768432   -3.6686808 -0.0069301992   -4.7768432    1.1081624      8192000 
  252000   0.73887804   -4.7782231   -4.7782231   -3.6699063 -0.0063743158   -4.7782231    1.1083168      8192000 
  253000   0.73946759   -4.7803648   -4.7803648   -3.6711637 -0.0037915935   -4.7803648    1.1092011      8192000 
  254000   0.73999909   -4.7823168   -4.7823168   -3.6723184 -0.00046409855   -4.7823168    1.1099984      8192000 
  255000   0.74083664   -4.7850524   -4.7850524   -3.6737978 0.0046477262   -4.7850524    1.1112547      8192000 
  256000   0.74138378   -4.7873353   -4.7873353   -3.6752599 0.0087023941   -4.7873353    1.1120754      8192000 
  257000   0.74272679   -4.7903652   -4.7903652   -3.6762753  0.012130548   -4.7903652    1.1140899      8192000 
  258000   0.74311106   -4.7921017   -4.7921017   -3.6774354  0.016284924   -4.7921017    1.1146663      8192000 
  259000     0.743036   -4.7933695   -4.7933695   -3.6788158  0.015494797   -4.7933695    1.1145537      8192000 
  260000   0.74211763    -4.793317    -4.793317   -3.6801409  0.013804991    -4.793317    1.1131762      8192000 
  261000   0.74076106    -4.792343    -4.792343   -3.6812017 0.0091578574    -4.792343    1.1111413      8192000 
  262000   0.74003442   -4.7923902   -4.7923902   -3.6823389 0.0039443468   -4.7923902    1.1100513      8192000 
  263000   0.73831774   -4.7909589   -4.7909589   -3.6834826 6.7491272e-05   -4.7909589    1.1074763      8192000 
  264000   0.73741452   -4.7911861   -4.7911861   -3.6850646 -0.0023880941   -4.7911861    1.1061215      8192000 
  265000   0.73768195   -4.7925752   -4.7925752   -3.6860525 -0.004810652   -4.7925752    1.1065227      8192000 
  266000    0.7371524   -4.7927716   -4.7927716   -3.6870433 -0.0032098057   -4.7927716    1.1057283      8192000 
  267000   0.73741057   -4.7943465   -4.7943465   -3.6882309 -0.00072242892   -4.7943465    1.1061156      8192000 
  268000    0.7383263   -4.7971233   -4.7971233   -3.6896342 -0.00057084441   -4.7971233    1.1074892      8192000 
  269000   0.73880002   -4.7988696   -4.7988696   -3.6906699 0.0046902501   -4.7988696    1.1081998      8192000 
  270000   0.74026704   -4.8023499   -4.8023499   -3.6919496  0.010403726   -4.8023499    1.1104003      8192000 
  271000   0.74059846   -4.8041346   -4.8041346   -3.6932372  0.014368694   -4.8041346    1.1108974      8192000 
  272000   0.74069697   -4.8054131   -4.8054131   -3.6943679  0.015806834   -4.8054131    1.1110452      8192000 
  273000   0.74050898   -4.8064209   -4.8064209   -3.6956577  0.012811656   -4.8064209    1.1107632      8192000 
  274000   0.73933101   -4.8059985   -4.8059985   -3.6970023 0.0096756638   -4.8059985    1.1089962      8192000 
  275000   0.73848486   -4.8055722   -4.8055722   -3.6978452 0.0059443085   -4.8055722     1.107727      8192000 
  276000    0.7374257   -4.8055246   -4.8055246   -3.6993864 0.0019760511   -4.8055246    1.1061383      8192000 
  277000   0.73669935   -4.8055418   -4.8055418    -3.700493 -0.00010558443   -4.8055418    1.1050487      8192000 
  278000   0.73570685    -4.805083    -4.805083    -3.701523 -0.00046305435    -4.805083      1.10356      8192000 
  279000   0.73555548   -4.8062131   -4.8062131   -3.7028802 -0.0051390915   -4.8062131    1.1033329      8192000 
  280000   0.73569942   -4.8076673   -4.8076673   -3.7041184 -0.0048213265   -4.8076673    1.1035488      8192000 
  281000   0.73632907   -4.8096329   -4.8096329   -3.7051396 0.00065954191   -4.8096329    1.1044933      8192000 
  282000   0.73669117   -4.8114856   -4.8114856   -3.7064491 0.0036479036   -4.8114856    1.1050365      8192000 
  283000   0.73736249   -4.8135809   -4.8135809   -3.7075374 0.0086424791   -4.8135809    1.1060435      8192000 
  284000   0.73800231   -4.8159307   -4.8159307   -3.7089275 0.0093341362   -4.8159307    1.1070032      8192000 
  285000   0.73808282   -4.8170847   -4.8170847   -3.7099607   0.01099063   -4.8170847    1.1071239      8192000 
  286000    0.7385098   -4.8186366   -4.8186366   -3.7108722   0.01149915   -4.8186366    1.1077644      8192000 
  287000   0.73808409   -4.8190146   -4.8190146   -3.7118887  0.010279973   -4.8190146    1.1071259      8192000 
  288000   0.73723857    -4.819092    -4.819092   -3.7132344 0.0090849179    -4.819092    1.1058576      8192000 
  289000   0.73660185    -4.819128    -4.819128   -3.7142255 0.0057734796    -4.819128    1.1049025      8192000 
  290000   0.73557845   -4.8189416   -4.8189416   -3.7155742 0.0024978476   -4.8189416    1.1033674      8192000 
  291000   0.73523716   -4.8194993   -4.8194993   -3.7166438 -0.0014288499   -4.8194993    1.1028555      8192000 
  292000   0.73461037   -4.8196628   -4.8196628   -3.7177475 -0.0022219688   -4.8196628    1.1019153      8192000 
  293000   0.73439988   -4.8205412   -4.8205412   -3.7189416 -0.0025429906   -4.8205412    1.1015995      8192000 
  294000   0.73490414   -4.8226672   -4.8226672   -3.7203113 -0.00024182276   -4.8226672    1.1023559      8192000 
  295000   0.73562222   -4.8248254   -4.8248254   -3.7213923 0.0034889831   -4.8248254    1.1034331      8192000 
  296000   0.73615115   -4.8268267   -4.8268267   -3.7226002 0.0079889437   -4.8268267    1.1042264      8192000 
  297000   0.73731955   -4.8299036   -4.8299036   -3.7239245  0.010397331   -4.8299036     1.105979      8192000 
  298000   0.73847836   -4.8325123   -4.8325123    -3.724795  0.014863033   -4.8325123    1.1077173      8192000 
  299000   0.73849585   -4.8339954   -4.8339954   -3.7262519  0.018804254   -4.8339954    1.1077435      8192000 
  300000   0.73909296    -4.835978    -4.835978   -3.7273388  0.020219469    -4.835978    1.1086392      8192000 
  301000   0.73935282   -4.8378529   -4.8378529    -3.728824  0.021096132   -4.8378529     1.109029      8192000 
  302000   0.73997086   -4.8398814   -4.8398814   -3.7299254   0.02147896   -4.8398814     1.109956      8192000 
  303000   0.74008189   -4.8413549   -4.8413549   -3.7312324  0.025397901   -4.8413549    1.1101226      8192000 
  304000   0.74061086   -4.8434346   -4.8434346   -3.7325186  0.026555691   -4.8434346     1.110916      8192000 
  305000   0.74105595   -4.8453601   -4.8453601   -3.7337765  0.032303338   -4.8453601    1.1115837      8192000 
  306000   0.74208791   -4.8480665   -4.8480665   -3.7349349   0.04088913   -4.8480665    1.1131316      8192000 
  307000   0.74435985   -4.8527538   -4.8527538   -3.7362143  0.045509354   -4.8527538    1.1165395      8192000 
  308000   0.74594668   -4.8566132   -4.8566132   -3.7376934  0.057000845   -4.8566132    1.1189197      8192000 
  309000   0.74874111   -4.8620295   -4.8620295   -3.7389182  0.072598927   -4.8620295    1.1231114      8192000 
  310000   0.75173205   -4.8679126   -4.8679126   -3.7403148  0.095349311   -4.8679126    1.1275978      8192000 
  311000   0.75584766   -4.8756603   -4.8756603   -3.7418891   0.11847694   -4.8756603    1.1337712      8192000 
  312000    0.7586029   -4.8815297   -4.8815297   -3.7436257   0.14304561   -4.8815297    1.1379041      8192000 
  313000    0.7612925   -4.8877734   -4.8877734   -3.7458349   0.15758913   -4.8877734    1.1419385      8192000 
  314000   0.76259615   -4.8915486   -4.8915486   -3.7476547   0.16595221   -4.8915486    1.1438939      8192000 
  315000   0.76284339   -4.8936768   -4.8936768    -3.749412   0.16936807   -4.8936768    1.1442648      8192000 
  316000   0.76167626   -4.8933382   -4.8933382   -3.7508241     0.164675   -4.8933382    1.1425141      8192000 
  317000    0.7594714   -4.8914453   -4.8914453   -3.7522384   0.14827213   -4.8914453    1.1392068      8192000 
  318000   0.75590544   -4.8873863   -4.8873863   -3.7535285    0.1276155   -4.8873863    1.1338579      8192000 
  319000   0.75121736   -4.8816921   -4.8816921   -3.7548664   0.10595698   -4.8816921    1.1268258      8192000 
  320000   0.74559989   -4.8746527   -4.8746527   -3.7562531  0.079090208   -4.8746527    1.1183996      8192000 
  321000   0.73996664   -4.8677825   -4.8677825   -3.7578329  0.049091053   -4.8677825    1.1099497      8192000 
  322000   0.73431485   -4.8601155   -4.8601155   -3.7586435   0.01875657   -4.8601155     1.101472      8192000 
  323000   0.72875843   -4.8525565   -4.8525565   -3.7594192 -0.0093746672   -4.8525565    1.0931374      8192000 
  324000   0.72366664   -4.8454969   -4.8454969   -3.7599972 -0.037125017   -4.8454969    1.0854997      8192000 
  325000    0.7184975    -4.838372    -4.838372    -3.760626 -0.061786525    -4.838372     1.077746      8192000 
  326000   0.71348871   -4.8316859   -4.8316859   -3.7614531  -0.08189538   -4.8316859    1.0702328      8192000 
  327000   0.70985718   -4.8266597   -4.8266597   -3.7618742   -0.1011482   -4.8266597    1.0647855      8192000 
  328000   0.70588555   -4.8211441   -4.8211441    -3.762316  -0.11160232   -4.8211441    1.0588281      8192000 
  329000   0.70337468   -4.8176637   -4.8176637   -3.7626019  -0.12261051   -4.8176637    1.0550618      8192000 
  330000   0.70104911   -4.8147664   -4.8147664   -3.7631929   -0.1281688   -4.8147664    1.0515734      8192000 
  331000   0.70031135   -4.8142136   -4.8142136   -3.7637468  -0.13165274   -4.8142136    1.0504668      8192000 
  332000   0.70056308   -4.8152343   -4.8152343     -3.76439   -0.1302062   -4.8152343    1.0508444      8192000 
  333000   0.70211176   -4.8185525   -4.8185525   -3.7653851   -0.1261766   -4.8185525    1.0531674      8192000 
  334000   0.70431237   -4.8225126   -4.8225126   -3.7660443  -0.11615106   -4.8225126    1.0564683      8192000 
  335000   0.70749403   -4.8282544   -4.8282544   -3.7670136  -0.10124155   -4.8282544    1.0612408      8192000 
  336000   0.71170084   -4.8352456   -4.8352456   -3.7676946 -0.083971396   -4.8352456     1.067551      8192000 
  337000   0.71563164   -4.8421566   -4.8421566   -3.7687094  -0.06271182   -4.8421566    1.0734472      8192000 
  338000   0.72076491   -4.8510438   -4.8510438   -3.7698967  -0.04178095   -4.8510438    1.0811471      8192000 
  339000    0.7257773   -4.8595985   -4.8595985   -3.7709329 -0.015052459   -4.8595985    1.0886657      8192000 
  340000   0.73077651   -4.8681991   -4.8681991   -3.7720346  0.013242633   -4.8681991    1.0961645      8192000 
  341000   0.73563973   -4.8769464   -4.8769464    -3.773487  0.042920495   -4.8769464    1.1034593      8192000 
  342000   0.74017154   -4.8854805   -4.8854805   -3.7752235  0.068606492   -4.8854805     1.110257      8192000 
  343000   0.74444256   -4.8935557   -4.8935557   -3.7768921  0.094057607   -4.8935557    1.1166636      8192000 
  344000   0.74744832    -4.899742    -4.899742   -3.7785698   0.11660499    -4.899742    1.1211722      8192000 
  345000   0.75038303   -4.9059086   -4.9059086   -3.7803344   0.13316802   -4.9059086    1.1255743      8192000 
  346000   0.75174362   -4.9096871   -4.9096871    -3.782072   0.14573142   -4.9096871    1.1276152      8192000 
  347000    0.7527306   -4.9129021   -4.9129021   -3.7838065   0.15203424   -4.9129021    1.1290956      8192000 
  348000   0.75240485   -4.9141906   -4.9141906   -3.7855836   0.15018741   -4.9141906     1.128607      8192000 
  349000   0.75084355   -4.9132854   -4.9132854   -3.7870204    0.1420085   -4.9132854     1.126265      8192000 
  350000    0.7481254   -4.9105481   -4.9105481   -3.7883603   0.12911873   -4.9105481    1.1221878      8192000 
  351000    0.7447876   -4.9066418   -4.9066418   -3.7894607   0.11040217   -4.9066418    1.1171811      8192000 
  352000   0.74044891   -4.9013715   -4.9013715   -3.7906984  0.085920844   -4.9013715    1.1106731      8192000 
  353000   0.73561132   -4.8951771   -4.8951771   -3.7917604  0.059303971   -4.8951771    1.1034167      8192000 
  354000   0.73064346   -4.8887084   -4.8887084   -3.7927435  0.032437313   -4.8887084    1.0959649      8192000 
  355000   0.72538231   -4.8816752   -4.8816752    -3.793602 0.0068491426   -4.8816752    1.0880732      8192000 
  356000   0.72032136   -4.8747435   -4.8747435   -3.7942618 -0.018790995   -4.8747435    1.0804818      8192000 
  357000   0.71579352   -4.8685872   -4.8685872   -3.7948972 -0.044343779   -4.8685872      1.07369      8192000 
  358000   0.71119901   -4.8621076   -4.8621076   -3.7953093 -0.065582839   -4.8621076    1.0667982      8192000 
  359000   0.70710187   -4.8564956   -4.8564956   -3.7958431 -0.082696439   -4.8564956    1.0606525      8192000 
  360000   0.70392345   -4.8524539   -4.8524539   -3.7965689 -0.099188315   -4.8524539    1.0558849      8192000 
  361000    0.7013432   -4.8487941   -4.8487941   -3.7967796  -0.10934434   -4.8487941    1.0520145      8192000 
  362000   0.69973951   -4.8468593   -4.8468593   -3.7972503  -0.11506226   -4.8468593     1.049609      8192000 
  363000   0.69867466   -4.8459919   -4.8459919   -3.7979802  -0.11846373   -4.8459919    1.0480117      8192000 
  364000   0.69865598   -4.8469365   -4.8469365   -3.7989528  -0.11830856   -4.8469365    1.0479837      8192000 
  365000   0.69979915   -4.8490515   -4.8490515    -3.799353  -0.11392764   -4.8490515    1.0496985      8192000 
  366000   0.70170596   -4.8526957   -4.8526957    -3.800137  -0.10336157   -4.8526957    1.0525587      8192000 
  367000   0.70499829   -4.8578221   -4.8578221   -3.8003249 -0.089286145   -4.8578221    1.0574972      8192000 
  368000   0.70834615   -4.8638041   -4.8638041   -3.8012851  -0.07312251   -4.8638041     1.062519      8192000 
  369000   0.71238902   -4.8710168   -4.8710168   -3.8024335 -0.052538932   -4.8710168    1.0685833      8192000 
  370000   0.71678933   -4.8786279   -4.8786279   -3.8034442 -0.030586497   -4.8786279    1.0751837      8192000 
  371000   0.72116537   -4.8863099   -4.8863099   -3.8045621 -0.0047194897   -4.8863099    1.0817478      8192000 
  372000   0.72581306   -4.8944208   -4.8944208   -3.8057015  0.019272628   -4.8944208    1.0887193      8192000 
  373000   0.73008444   -4.9024395   -4.9024395   -3.8073131  0.045215593   -4.9024395    1.0951264      8192000 
  374000   0.73414567   -4.9102285   -4.9102285   -3.8090103  0.068825527   -4.9102285    1.1012182      8192000 
  375000   0.73722922   -4.9162653   -4.9162653   -3.8104218  0.092635583   -4.9162653    1.1058435      8192000 
  376000    0.7404038   -4.9226193   -4.9226193   -3.8120139   0.10955458   -4.9226193    1.1106054      8192000 
  377000   0.74203389   -4.9264535   -4.9264535    -3.813403   0.12549096   -4.9264535    1.1130506      8192000 
  378000   0.74384034   -4.9305306   -4.9305306   -3.8147704   0.13287484   -4.9305306    1.1157602      8192000 
  379000   0.74389179   -4.9323176   -4.9323176   -3.8164802   0.13749859   -4.9323176    1.1158374      8192000 
  380000   0.74302089   -4.9326518   -4.9326518   -3.8181208    0.1338895   -4.9326518    1.1145311      8192000 
  381000   0.74164856   -4.9317353   -4.9317353   -3.8192628   0.12482569   -4.9317353    1.1124726      8192000 
  382000   0.73915589   -4.9291815   -4.9291815    -3.820448    0.1092728   -4.9291815    1.1087336      8192000 
  383000   0.73522647   -4.9244467   -4.9244467   -3.8216073   0.09110049   -4.9244467    1.1028394      8192000 
  384000   0.73127189   -4.9195773   -4.9195773   -3.8226698   0.06737342   -4.9195773    1.0969076      8192000 
  385000   0.72690955   -4.9139802   -4.9139802   -3.8236161  0.043660821   -4.9139802    1.0903641      8192000 
  386000   0.72261604   -4.9083371   -4.9083371   -3.8244133  0.018925231   -4.9083371    1.0839238      8192000 
  387000    0.7175655   -4.9015711   -4.9015711   -3.8252231 -0.0049862535   -4.9015711     1.076348      8192000 
  388000   0.71305857   -4.8955075   -4.8955075   -3.8259199 -0.028950683   -4.8955075    1.0695876      8192000 
  389000   0.70877865   -4.8897891   -4.8897891   -3.8266214 -0.049765068   -4.8897891    1.0631677      8192000 
  390000   0.70557539    -4.885476    -4.885476   -3.8271131 -0.068444907    -4.885476    1.0583628      8192000 
  391000   0.70253753   -4.8813084   -4.8813084   -3.8275024 -0.082774131   -4.8813084     1.053806      8192000 
  392000   0.69977859   -4.8777182   -4.8777182   -3.8280505 -0.094069795   -4.8777182    1.0496676      8192000 
  393000    0.6982073   -4.8758175   -4.8758175   -3.8285068  -0.10170847   -4.8758175    1.0473107      8192000 
  394000   0.69734715   -4.8750423   -4.8750423   -3.8290218   -0.1051734   -4.8750423    1.0460205      8192000 
  395000   0.69705685   -4.8749534   -4.8749534   -3.8293684  -0.10473603   -4.8749534     1.045585      8192000 
  396000    0.6977341   -4.8765942   -4.8765942   -3.8299933  -0.09889615   -4.8765942    1.0466009      8192000 
  397000   0.69938171   -4.8797024   -4.8797024   -3.8306301 -0.092211241   -4.8797024    1.0490723      8192000 
  398000   0.70204313   -4.8845077   -4.8845077   -3.8314433  -0.08043666   -4.8845077    1.0530644      8192000 
  399000   0.70518953   -4.8901817   -4.8901817   -3.8323977 -0.064826852   -4.8901817     1.057784      8192000 
  400000   0.70867557   -4.8960987   -4.8960987   -3.8330856 -0.046415837   -4.8960987    1.0630131      8192000 
  401000   0.71249992      -4.9029      -4.9029   -3.8341504 -0.024697473      -4.9029    1.0687496      8192000 
  402000   0.71681644   -4.9104174   -4.9104174    -3.835193 -0.0026773517   -4.9104174    1.0752244      8192000 
  403000   0.72095593   -4.9178304   -4.9178304   -3.8363967  0.019477721   -4.9178304    1.0814336      8192000 
  404000   0.72440609   -4.9241249   -4.9241249    -3.837516  0.044877167   -4.9241249    1.0866089      8192000 
  405000   0.72796477   -4.9309041   -4.9309041   -3.8389572  0.065989794   -4.9309041    1.0919469      8192000 
  406000   0.73072443   -4.9363672   -4.9363672   -3.8402808  0.086283619   -4.9363672    1.0960864      8192000 
  407000   0.73339032   -4.9419748   -4.9419748   -3.8418896   0.10044261   -4.9419748    1.1000852      8192000 
  408000   0.73497245    -4.945933    -4.945933   -3.8434746   0.11392505    -4.945933    1.1024584      8192000 
  409000   0.73603048   -4.9490158   -4.9490158   -3.8449703   0.12050322   -4.9490158    1.1040454      8192000 
  410000   0.73596816    -4.950006    -4.950006    -3.846054   0.12223284    -4.950006     1.103952      8192000 
  411000   0.73568675   -4.9506368   -4.9506368   -3.8471069   0.11893195   -4.9506368    1.1035299      8192000 
  412000   0.73379983   -4.9489469   -4.9489469   -3.8482474    0.1091734   -4.9489469    1.1006995      8192000 
  413000   0.73144902   -4.9466374   -4.9466374   -3.8494642  0.096283421   -4.9466374    1.0971733      8192000 
  414000    0.7287363   -4.9432269   -4.9432269   -3.8501227  0.077930561   -4.9432269    1.0931042      8192000 
  415000   0.72507463   -4.9387503   -4.9387503   -3.8511386  0.056450428   -4.9387503    1.0876117      8192000 
  416000   0.72077572   -4.9331773   -4.9331773    -3.852014  0.034208469   -4.9331773    1.0811633      8192000 
  417000   0.71658303    -4.927687    -4.927687   -3.8528127  0.013194728    -4.927687    1.0748743      8192000 
  418000   0.71259779   -4.9223259   -4.9223259   -3.8534295 -0.010018661   -4.9223259    1.0688964      8192000 
  419000   0.70880261   -4.9170995   -4.9170995   -3.8538959 -0.031176645   -4.9170995    1.0632037      8192000 
  420000   0.70512256   -4.9119919   -4.9119919   -3.8543084 -0.048920879   -4.9119919    1.0576836      8192000 
  421000   0.70190941   -4.9075588   -4.9075588   -3.8546949 -0.064997995   -4.9075588    1.0528639      8192000 
  422000   0.69884624   -4.9033586   -4.9033586   -3.8550895 -0.076932193   -4.9033586    1.0482691      8192000 
  423000    0.6975444   -4.9017431   -4.9017431   -3.8554268 -0.085801448   -4.9017431    1.0463163      8192000 
  424000   0.69628617   -4.9000366   -4.9000366   -3.8556076 -0.091201065   -4.9000366     1.044429      8192000 
  425000   0.69577106   -4.8998144   -4.8998144    -3.856158    -0.093012   -4.8998144    1.0436563      8192000 
  426000   0.69590012   -4.9006968   -4.9006968   -3.8568469 -0.090811644   -4.9006968    1.0438499      8192000 
  427000   0.69728592   -4.9032692   -4.9032692   -3.8573406 -0.084098007   -4.9032692    1.0459286      8192000 
  428000   0.69874078   -4.9063993   -4.9063993   -3.8582884 -0.074763226   -4.9063993    1.0481109      8192000 
  429000   0.70143967   -4.9111757   -4.9111757   -3.8590165 -0.063336105   -4.9111757    1.0521592      8192000 
  430000   0.70448231   -4.9163559   -4.9163559   -3.8596327  -0.04664987   -4.9163559    1.0567232      8192000 
  431000   0.70773343   -4.9220344   -4.9220344   -3.8604345 -0.028736912   -4.9220344    1.0615999      8192000 
  432000   0.71117585    -4.928101    -4.928101   -3.8613375 -0.0092862803    -4.928101    1.0667635      8192000 
  433000   0.71512098    -4.935115    -4.935115   -3.8624338  0.011008803    -4.935115    1.0726812      8192000 
  434000   0.71871716   -4.9414817   -4.9414817   -3.8634063  0.032895867   -4.9414817    1.0780755      8192000 
  435000   0.72174872    -4.947277    -4.947277   -3.8646542  0.054253644    -4.947277    1.0826228      8192000 
  436000   0.72491136   -4.9533698   -4.9533698    -3.866003   0.07187551   -4.9533698    1.0873668      8192000 
  437000   0.72742179   -4.9581909   -4.9581909   -3.8670585  0.087869609   -4.9581909    1.0911324      8192000 
  438000   0.72884809   -4.9617226   -4.9617226   -3.8684507  0.097936913   -4.9617226    1.0932719      8192000 
  439000   0.72914672   -4.9633744   -4.9633744   -3.8696546   0.10660495   -4.9633744    1.0937198      8192000 
  440000   0.72942473   -4.9652448   -4.9652448    -3.871108   0.10951867   -4.9652448    1.0941368      8192000 
  441000   0.72921103   -4.9659869   -4.9659869   -3.8721706   0.10736409   -4.9659869    1.0938163      8192000 
  442000   0.72775483   -4.9650986   -4.9650986   -3.8734666   0.10120215   -4.9650986     1.091632      8192000 
  443000   0.72581615   -4.9632614   -4.9632614   -3.8745375  0.089219334   -4.9632614     1.088724      8192000 
  444000   0.72321442   -4.9602918   -4.9602918   -3.8754705  0.073352257   -4.9602918    1.0848214      8192000 
  445000   0.72026406   -4.9567141   -4.9567141   -3.8763183  0.054380092   -4.9567141    1.0803958      8192000 
  446000   0.71657405   -4.9517696   -4.9517696   -3.8769088  0.036645964   -4.9517696    1.0748608      8192000 
  447000   0.71315195   -4.9472705   -4.9472705   -3.8775429  0.016396121   -4.9472705    1.0697277      8192000 
  448000   0.70940106   -4.9423559   -4.9423559   -3.8782546 -0.003878478   -4.9423559    1.0641013      8192000 
  449000   0.70595837   -4.9377317   -4.9377317   -3.8787945 -0.024358756   -4.9377317    1.0589373      8192000 
  450000   0.70236507   -4.9329417   -4.9329417   -3.8793943 -0.040286461   -4.9329417    1.0535473      8192000 
  451000   0.69959727   -4.9292164   -4.9292164   -3.8798207 -0.055196974   -4.9292164    1.0493956      8192000 
  452000   0.69764387   -4.9267306   -4.9267306   -3.8802651  -0.06695699   -4.9267306    1.0464655      8192000 
  453000   0.69556685   -4.9241093   -4.9241093   -3.8807593 -0.074416795   -4.9241093      1.04335      8192000 
  454000   0.69489312   -4.9232952   -4.9232952   -3.8809558 -0.080440266   -4.9232952    1.0423394      8192000 
  455000   0.69412606   -4.9226485   -4.9226485   -3.8814597 -0.080909914   -4.9226485    1.0411888      8192000 
  456000   0.69458494   -4.9237643   -4.9237643   -3.8818871 -0.079624594   -4.9237643    1.0418771      8192000 
  457000   0.69541279   -4.9256834   -4.9256834   -3.8825645 -0.072173614   -4.9256834    1.0431189      8192000 
  458000   0.69747564   -4.9293169   -4.9293169   -3.8831037 -0.064686344   -4.9293169    1.0462132      8192000 
  459000   0.69933081   -4.9327249   -4.9327249   -3.8837289 -0.052145542   -4.9327249     1.048996      8192000 
  460000   0.70229427   -4.9378603   -4.9378603   -3.8844191 -0.038206188   -4.9378603    1.0534411      8192000 
  461000   0.70534455   -4.9431142   -4.9431142   -3.8850976 -0.021836629   -4.9431142    1.0580166      8192000 
  462000   0.70820089   -4.9483164   -4.9483164   -3.8860153 -0.0028389886   -4.9483164    1.0623011      8192000 
  463000   0.71146585   -4.9541258   -4.9541258   -3.8869273  0.016800407   -4.9541258    1.0671985      8192000 
  464000    0.7148022   -4.9598267   -4.9598267   -3.8876237  0.036585345   -4.9598267     1.072203      8192000 
  465000   0.71743218   -4.9650845   -4.9650845   -3.8889365  0.053655207   -4.9650845     1.076148      8192000 
  466000   0.71967235   -4.9696488   -4.9696488   -3.8901405   0.07049785   -4.9696488    1.0795083      8192000 
  467000   0.72187026    -4.974056    -4.974056   -3.8912509  0.081933708    -4.974056    1.0828051      8192000 
  468000   0.72297259   -4.9769398   -4.9769398   -3.8924812  0.090762066   -4.9769398    1.0844586      8192000 
  469000   0.72348901    -4.978934    -4.978934   -3.8937007  0.096015285    -4.978934    1.0852332      8192000 
  470000   0.72361187    -4.980271    -4.980271   -3.8948534  0.097550182    -4.980271    1.0854175      8192000 
  471000   0.72291448   -4.9804673   -4.9804673   -3.8960958  0.092766408   -4.9804673    1.0843714      8192000 
  472000   0.72153741   -4.9793934   -4.9793934   -3.8970876   0.08617721   -4.9793934    1.0823058      8192000 
  473000   0.71963075   -4.9774255   -4.9774255   -3.8979797  0.073858971   -4.9774255    1.0794459      8192000 
  474000    0.7166814   -4.9738711   -4.9738711   -3.8988493  0.060710707   -4.9738711    1.0750218      8192000 
  475000   0.71420679    -4.970716    -4.970716   -3.8994061  0.044122053    -4.970716    1.0713099      8192000 
  476000    0.7114636   -4.9673058   -4.9673058   -3.9001107  0.026724378   -4.9673058    1.0671951      8192000 
  477000   0.70834437   -4.9632883   -4.9632883    -3.900772 0.0085523764   -4.9632883    1.0625163      8192000 
  478000   0.70501105   -4.9588258   -4.9588258   -3.9013095 -0.011669909   -4.9588258    1.0575163      8192000 
  479000   0.70183774   -4.9544867   -4.9544867   -3.9017303 -0.026232087   -4.9544867    1.0527564      8192000 
  480000   0.69969922   -4.9515646   -4.9515646    -3.902016 -0.041764611   -4.9515646    1.0495486      8192000 
  481000   0.69700523   -4.9482184   -4.9482184   -3.9027108 -0.053335138   -4.9482184    1.0455076      8192000 
  482000   0.69521564   -4.9456818   -4.9456818   -3.9028586 -0.062031973   -4.9456818    1.0428232      8192000 
  483000   0.69378153   -4.9437936   -4.9437936   -3.9031215 -0.065851191   -4.9437936     1.040672      8192000 
  484000   0.69305514   -4.9429667   -4.9429667   -3.9033843  -0.06765298   -4.9429667    1.0395825      8192000 
  485000   0.69348379   -4.9441379   -4.9441379   -3.9039125 -0.068689719   -4.9441379    1.0402254      8192000 
  486000   0.69425005   -4.9457344   -4.9457344   -3.9043596 -0.065800966   -4.9457344    1.0413748      8192000 
  487000   0.69507144   -4.9475504   -4.9475504   -3.9049435 -0.057895367   -4.9475504    1.0426069      8192000 
  488000   0.69692779   -4.9509468   -4.9509468   -3.9055554 -0.047131778   -4.9509468    1.0453914      8192000 
  489000   0.69929447   -4.9553786   -4.9553786   -3.9064371 -0.036420468   -4.9553786    1.0489414      8192000 
  490000   0.70177435   -4.9594993   -4.9594993   -3.9068381 -0.022006191   -4.9594993    1.0526613      8192000 
  491000   0.70430538   -4.9641015   -4.9641015   -3.9076437 -0.0050385447   -4.9641015    1.0564578      8192000 
  492000   0.70728168   -4.9695806   -4.9695806   -3.9086583  0.010605631   -4.9695806    1.0609223      8192000 
  493000   0.70930103   -4.9736103   -4.9736103    -3.909659  0.029614421   -4.9736103    1.0639513      8192000 
  494000   0.71206461   -4.9787998   -4.9787998   -3.9107031  0.043839239   -4.9787998    1.0680967      8192000 
  495000   0.71462088   -4.9837308   -4.9837308   -3.9117997  0.056297634   -4.9837308    1.0719311      8192000 
  496000   0.71603242    -4.986911    -4.986911   -3.9128626   0.07082113    -4.986911    1.0740484      8192000 
  497000   0.71738452   -4.9898485   -4.9898485    -3.913772   0.08096972   -4.9898485    1.0760765      8192000 
  498000   0.71836402    -4.992418    -4.992418   -3.9148722  0.085633774    -4.992418    1.0775458      8192000 
  499000   0.71807394   -4.9928922   -4.9928922   -3.9157815  0.088687219   -4.9928922    1.0771106      8192000 
  500000   0.71809436   -4.9939139   -4.9939139   -3.9167726  0.084260355   -4.9939139    1.0771413      8192000 
  501000   0.71692869   -4.9929944   -4.9929944   -3.9176016  0.077883781   -4.9929944    1.0753928      8192000 
  502000   0.71545293   -4.9916926   -4.9916926   -3.9185135  0.069232361   -4.9916926    1.0731791      8192000 
  503000    0.7130437     -4.98899     -4.98899   -3.9194247  0.057984169     -4.98899    1.0695653      8192000 
  504000   0.71082578   -4.9863496   -4.9863496   -3.9201112  0.043128507   -4.9863496    1.0662384      8192000 
  505000   0.70819954   -4.9828046   -4.9828046   -3.9205056  0.026752881   -4.9828046     1.062299      8192000 
  506000   0.70525859   -4.9788038   -4.9788038   -3.9209162  0.013460806   -4.9788038    1.0578876      8192000 
  507000   0.70276826    -4.975809    -4.975809   -3.9216569 -0.0033595979    -4.975809    1.0541521      8192000 
  508000   0.69989861   -4.9719491   -4.9719491   -3.9221015 -0.017452392   -4.9719491    1.0498476      8192000 
  509000   0.69792693   -4.9693788   -4.9693788   -3.9224886 -0.032211304   -4.9693788    1.0468901      8192000 
  510000   0.69565187   -4.9664653   -4.9664653   -3.9229877 -0.042567797   -4.9664653    1.0434775      8192000 
  511000    0.6937041   -4.9637307   -4.9637307   -3.9231748 -0.050371997   -4.9637307    1.0405559      8192000 
  512000   0.69278363   -4.9626625   -4.9626625   -3.9234873 -0.054871456   -4.9626625    1.0391752      8192000 
  513000   0.69213001   -4.9619136   -4.9619136   -3.9237189 -0.057959217   -4.9619136    1.0381948      8192000 
  514000    0.6922526   -4.9623983   -4.9623983   -3.9240197 -0.055834755   -4.9623983    1.0383786      8192000 
  515000   0.69297699    -4.963851    -4.963851   -3.9243858 -0.055079673    -4.963851    1.0394652      8192000 
  516000    0.6941336   -4.9661856   -4.9661856   -3.9249854 -0.049329071   -4.9661856    1.0412001      8192000 
  517000    0.6956362    -4.969151    -4.969151    -3.925697 -0.038969664    -4.969151     1.043454      8192000 
  518000   0.69750508   -4.9724874   -4.9724874     -3.92623 -0.028056642   -4.9724874    1.0462574      8192000 
  519000    0.6991176   -4.9755993   -4.9755993   -3.9269231  -0.01578958   -4.9755993    1.0486761      8192000 
  520000   0.70181619   -4.9804954   -4.9804954   -3.9277714 -0.001467422   -4.9804954     1.052724      8192000 
  521000   0.70439987    -4.985185    -4.985185   -3.9285854  0.012580928    -4.985185    1.0565995      8192000 
  522000   0.70638871   -4.9890756   -4.9890756   -3.9294928  0.029077688   -4.9890756    1.0595828      8192000 
  523000   0.70825815    -4.992857    -4.992857     -3.93047  0.041829517    -4.992857     1.062387      8192000 
  524000   0.71005622    -4.996296    -4.996296    -3.931212  0.056339474    -4.996296    1.0650841      8192000 
  525000   0.71199562   -5.0001668   -5.0001668   -3.9321736  0.066223913   -5.0001668    1.0679932      8192000 
  526000    0.7130265    -5.002342    -5.002342   -3.9328025   0.07375568    -5.002342    1.0695395      8192000 
  527000   0.71353729   -5.0039784   -5.0039784   -3.9336727  0.077760686   -5.0039784    1.0703057      8192000 
  528000   0.71357389   -5.0050279   -5.0050279   -3.9346674  0.078654109   -5.0050279    1.0703606      8192000 
  529000    0.7132104    -5.005326    -5.005326   -3.9355107  0.075878123    -5.005326    1.0698153      8192000 
  530000   0.71235247   -5.0049636   -5.0049636   -3.9364352  0.069399228   -5.0049636    1.0685284      8192000 
  531000   0.71073308   -5.0032904   -5.0032904   -3.9371911  0.061084155   -5.0032904    1.0660994      8192000 
  532000   0.70891048   -5.0013924   -5.0013924   -3.9380269  0.050477465   -5.0013924    1.0633654      8192000 
  533000   0.70664565   -4.9985199   -4.9985199   -3.9385517  0.038820343   -4.9985199    1.0599682      8192000 
  534000    0.7044031   -4.9957487   -4.9957487   -3.9391443  0.023444131   -4.9957487    1.0566044      8192000 
  535000   0.70174073     -4.99213     -4.99213   -3.9395191 0.0095743852     -4.99213    1.0526108      8192000 
  536000   0.69963814   -4.9896191   -4.9896191   -3.9401622 -0.0052884037   -4.9896191    1.0494569      8192000 
  537000   0.69723505   -4.9863395   -4.9863395   -3.9404872 -0.016938665   -4.9863395    1.0458523      8192000 
  538000   0.69518098   -4.9836044   -4.9836044   -3.9408331 -0.027576023   -4.9836044    1.0427712      8192000 
  539000   0.69394379    -4.981948    -4.981948   -3.9410326 -0.039387735    -4.981948    1.0409154      8192000 
  540000   0.69250629   -4.9801846   -4.9801846   -3.9414255 -0.044209805   -4.9801846    1.0387592      8192000 
  541000   0.69147648   -4.9788434   -4.9788434   -3.9416289 -0.049070403   -4.9788434    1.0372145      8192000 
  542000   0.69105144   -4.9785436   -4.9785436   -3.9419667 -0.049616535   -4.9785436    1.0365769      8192000 
  543000   0.69096642   -4.9789225   -4.9789225   -3.9424731 -0.047604471   -4.9789225    1.0364494      8192000 
  544000   0.69160537   -4.9804656   -4.9804656   -3.9430578 -0.044034478   -4.9804656    1.0374078      8192000 
  545000   0.69302727   -4.9829124   -4.9829124   -3.9433717 -0.037894509   -4.9829124    1.0395406      8192000 
  546000   0.69445405   -4.9856821   -4.9856821   -3.9440013 -0.028977425   -4.9856821    1.0416808      8192000 
  547000   0.69605023   -4.9885435   -4.9885435   -3.9444685 -0.017456861   -4.9885435    1.0440751      8192000 
  548000   0.69826689   -4.9925281   -4.9925281   -3.9451281 -0.0075481221   -4.9925281    1.0474001      8192000 
  549000   0.70005622   -4.9958859   -4.9958859   -3.9458018  0.007280261   -4.9958859    1.0500841      8192000 
  550000   0.70219657    -4.999942    -4.999942   -3.9466474  0.020078649    -4.999942    1.0532946      8192000 
  551000   0.70434024   -5.0038299   -5.0038299   -3.9473198  0.033648922   -5.0038299    1.0565101      8192000 
  552000   0.70633942   -5.0076664   -5.0076664   -3.9481575  0.043557479   -5.0076664    1.0595089      8192000 
  553000   0.70713491   -5.0097841   -5.0097841    -3.949082   0.05682276   -5.0097841    1.0607021      8192000 
  554000     0.708828   -5.0131023   -5.0131023   -3.9498605  0.062685317   -5.0131023    1.0632417      8192000 
  555000   0.70957259    -5.015035    -5.015035   -3.9506764  0.067220067    -5.015035    1.0643586      8192000 
  556000   0.70938613   -5.0156115   -5.0156115   -3.9515326  0.070727271   -5.0156115    1.0640789      8192000 
  557000   0.70918627   -5.0161241   -5.0161241    -3.952345  0.070727074   -5.0161241    1.0637791      8192000 
  558000    0.7087887   -5.0164573   -5.0164573   -3.9532745  0.066880678   -5.0164573    1.0631828      8192000 
  559000   0.70786203   -5.0157582   -5.0157582   -3.9539654  0.059332238   -5.0157582    1.0617928      8192000 
  560000   0.70627117   -5.0139705   -5.0139705    -3.954564   0.04898314   -5.0139705    1.0594065      8192000 
  561000    0.7044307   -5.0118665   -5.0118665   -3.9552207  0.039644104   -5.0118665    1.0566458      8192000 
  562000   0.70223335   -5.0089994   -5.0089994   -3.9556497  0.029383937   -5.0089994    1.0533498      8192000 
  563000    0.7001953   -5.0066133   -5.0066133   -3.9563206  0.015481205   -5.0066133    1.0502927      8192000 
  564000   0.69815371   -5.0037898   -5.0037898   -3.9565595 0.0045741297   -5.0037898    1.0472303      8192000 
  565000   0.69619841   -5.0011043   -5.0011043    -3.956807 -0.0075114479   -5.0011043    1.0442974      8192000 
  566000   0.69386854   -4.9980809   -4.9980809   -3.9572783 -0.018640332   -4.9980809    1.0408026      8192000 
  567000   0.69268279   -4.9968701   -4.9968701   -3.9578462 -0.028789109   -4.9968701    1.0390239      8192000 
  568000   0.69180352   -4.9955165   -4.9955165   -3.9578115 -0.034436464   -4.9955165     1.037705      8192000 
  569000   0.69071319   -4.9941681   -4.9941681   -3.9580985 -0.038859493   -4.9941681    1.0360695      8192000 
  570000   0.69006172     -4.99365     -4.99365   -3.9585576 -0.040149185     -4.99365    1.0350923      8192000 
  571000   0.69010815   -4.9939609   -4.9939609   -3.9587989  -0.04140418   -4.9939609     1.035162      8192000 
  572000   0.69013107   -4.9946783   -4.9946783    -3.959482  -0.03801294   -4.9946783    1.0351963      8192000 
  573000   0.69099247   -4.9962506   -4.9962506   -3.9597622 -0.032391479   -4.9962506    1.0364884      8192000 
  574000    0.6925132   -4.9989807   -4.9989807   -3.9602111 -0.027410209   -4.9989807    1.0387695      8192000 
  575000   0.69362612    -5.001171    -5.001171   -3.9607321 -0.017294173    -5.001171    1.0404389      8192000 
  576000   0.69527497   -5.0043945   -5.0043945   -3.9614823 -0.0062400259   -5.0043945    1.0429122      8192000 
  577000   0.69714223   -5.0076939   -5.0076939   -3.9619808 0.0044004325   -5.0076939    1.0457131      8192000 
  578000   0.69929677   -5.0115345   -5.0115345   -3.9625896  0.015823082   -5.0115345    1.0489449      8192000 
  579000   0.70168386   -5.0156829   -5.0156829   -3.9631573  0.027603085   -5.0156829    1.0525255      8192000 
  580000   0.70261357   -5.0181491   -5.0181491    -3.964229  0.038788609   -5.0181491    1.0539201      8192000 
  581000   0.70373312   -5.0205613   -5.0205613   -3.9649619   0.04880697   -5.0205613    1.0555994      8192000 
  582000    0.7049376   -5.0233251   -5.0233251   -3.9659189  0.054100474   -5.0233251    1.0574061      8192000 
  583000    0.7053736   -5.0248217   -5.0248217   -3.9667616  0.059592052   -5.0248217    1.0580601      8192000 
  584000   0.70552923   -5.0257365   -5.0257365   -3.9674429  0.065362831   -5.0257365    1.0582936      8192000 
  585000   0.70575129   -5.0268446   -5.0268446    -3.968218  0.062880654   -5.0268446    1.0586267      8192000 
  586000   0.70545425   -5.0272399   -5.0272399   -3.9690588  0.059505825   -5.0272399    1.0581811      8192000 
  587000   0.70463764   -5.0267215   -5.0267215   -3.9697653  0.053028546   -5.0267215    1.0569562      8192000 
  588000   0.70274829   -5.0243399   -5.0243399   -3.9702177  0.049165582   -5.0243399    1.0541222      8192000 
  589000   0.70158523   -5.0232041   -5.0232041   -3.9708265   0.03921389   -5.0232041    1.0523776      8192000 
  590000    0.6999952    -5.021432    -5.021432   -3.9714395  0.028782131    -5.021432    1.0499925      8192000 
  591000    0.6980386   -5.0188008   -5.0188008   -3.9717431  0.017580912   -5.0188008    1.0470576      8192000 
  592000   0.69588068   -5.0157508   -5.0157508   -3.9719301 0.0084511254   -5.0157508    1.0438208      8192000 
  593000   0.69447841   -5.0140033   -5.0140033    -3.972286 -0.002415571   -5.0140033    1.0417174      8192000 
  594000   0.69276876   -5.0118159   -5.0118159   -3.9726631 -0.012496047   -5.0118159    1.0391529      8192000 
  595000   0.69120359   -5.0098342   -5.0098342    -3.973029 -0.020687633   -5.0098342    1.0368051      8192000 
  596000   0.69013768   -5.0085711   -5.0085711   -3.9733648 -0.026395745   -5.0085711    1.0352063      8192000 
  597000   0.68944018   -5.0078947   -5.0078947   -3.9737347 -0.030260417   -5.0078947      1.03416      8192000 
  598000   0.68896911   -5.0077407   -5.0077407   -3.9742873 -0.032695841   -5.0077407    1.0334534      8192000 
  599000   0.68892791   -5.0078477   -5.0078477   -3.9744561 -0.032171848   -5.0078477    1.0333916      8192000 
  600000     0.689334   -5.0088603   -5.0088603   -3.9748595 -0.032059792   -5.0088603    1.0340007      8192000 
  601000   0.68964416   -5.0095768   -5.0095768   -3.9751108 -0.025724259   -5.0095768     1.034466      8192000 
  602000   0.69094727   -5.0117862   -5.0117862   -3.9753656 -0.019993986   -5.0117862    1.0364206      8192000 
  603000   0.69215181   -5.0141538   -5.0141538   -3.9759264 -0.010818851   -5.0141538    1.0382275      8192000 
  604000   0.69353788   -5.0167807   -5.0167807   -3.9764742 -0.0018086323   -5.0167807    1.0403066      8192000 
  605000   0.69496411   -5.0194649   -5.0194649    -3.977019 0.0076717118   -5.0194649    1.0424459      8192000 
  606000   0.69685818   -5.0231346   -5.0231346   -3.9778476  0.015907891   -5.0231346     1.045287      8192000 
  607000   0.69823538   -5.0256936   -5.0256936   -3.9783408  0.026901593   -5.0256936    1.0473528      8192000 
  608000   0.69961981   -5.0284929   -5.0284929   -3.9790634   0.03550526   -5.0284929    1.0494295      8192000 
  609000   0.70071428   -5.0308683   -5.0308683   -3.9797972  0.044446439   -5.0308683    1.0510712      8192000 
  610000   0.70193404   -5.0333521   -5.0333521   -3.9804513  0.050783756   -5.0333521    1.0529008      8192000 
  611000   0.70235443   -5.0347587   -5.0347587   -3.9812273  0.053790239   -5.0347587    1.0535314      8192000 
  612000   0.70259603   -5.0358248   -5.0358248    -3.981931  0.055878633   -5.0358248    1.0538938      8192000 
  613000   0.70212812   -5.0359893   -5.0359893   -3.9827974  0.056427041   -5.0359893    1.0531919      8192000 
  614000   0.70163977   -5.0358658   -5.0358658   -3.9834064  0.052769015   -5.0358658    1.0524594      8192000 
  615000   0.70066776   -5.0351536   -5.0351536   -3.9841523  0.049108191   -5.0351536    1.0510014      8192000 
  616000   0.69977887   -5.0342729   -5.0342729   -3.9846048  0.042143701   -5.0342729     1.049668      8192000 
  617000   0.69861429   -5.0330824   -5.0330824   -3.9851612  0.035177225   -5.0330824    1.0479212      8192000 
  618000   0.69700506   -5.0310012   -5.0310012   -3.9854938    0.0249685   -5.0310012    1.0455073      8192000 
  619000   0.69537996   -5.0288301   -5.0288301   -3.9857604  0.016665949   -5.0288301    1.0430697      8192000 
  620000   0.69373094   -5.0268265   -5.0268265   -3.9862303 0.0065574723   -5.0268265    1.0405962      8192000 
  621000   0.69221238   -5.0249101   -5.0249101   -3.9865917 -0.0029366415   -5.0249101    1.0383183      8192000 
  622000    0.6909548   -5.0232646   -5.0232646   -3.9868327 -0.010724796   -5.0232646    1.0364319      8192000 
  623000   0.68960438   -5.0215346   -5.0215346   -3.9871283 -0.016619803   -5.0215346    1.0344063      8192000 
  624000   0.68873248   -5.0208374   -5.0208374   -3.9877389 -0.023013016   -5.0208374    1.0330985      8192000 
  625000   0.68811057   -5.0201991   -5.0201991   -3.9880335 -0.026278683   -5.0201991    1.0321656      8192000 
  626000   0.68792765   -5.0200327   -5.0200327   -3.9881415 -0.027478293   -5.0200327    1.0318912      8192000 
  627000   0.68811424   -5.0205071   -5.0205071    -3.988336  -0.02725021   -5.0205071    1.0321711      8192000 
  628000   0.68847286   -5.0213256   -5.0213256   -3.9886166 -0.022950109   -5.0213256     1.032709      8192000 
  629000   0.68905139   -5.0225457   -5.0225457   -3.9889689 -0.018443601   -5.0225457    1.0335768      8192000 
  630000   0.68971685   -5.0239841   -5.0239841   -3.9894091 -0.011669007   -5.0239841     1.034575      8192000 
  631000   0.69077739   -5.0262961   -5.0262961   -3.9901303 -0.0060214229   -5.0262961    1.0361658      8192000 
  632000   0.69216639   -5.0288324   -5.0288324   -3.9905831 0.0010495023   -5.0288324    1.0382493      8192000 
  633000   0.69344043   -5.0313901   -5.0313901   -3.9912297  0.011998642   -5.0313901    1.0401604      8192000 
  634000   0.69464893   -5.0339625   -5.0339625   -3.9919894  0.020498183   -5.0339625    1.0419731      8192000 
  635000   0.69641082   -5.0373911   -5.0373911   -3.9927751  0.026791565   -5.0373911     1.044616      8192000 
  636000   0.69781676   -5.0403103   -5.0403103   -3.9935854  0.033832502   -5.0403103    1.0467249      8192000 
  637000   0.69835082   -5.0416528   -5.0416528   -3.9941268   0.04297737   -5.0416528     1.047526      8192000 
  638000   0.69900459   -5.0434204   -5.0434204   -3.9949138  0.046559412   -5.0434204    1.0485066      8192000 
  639000   0.69868401   -5.0436878   -5.0436878    -3.995662   0.05192812   -5.0436878    1.0480258      8192000 
  640000   0.69916436   -5.0449246   -5.0449246   -3.9961784  0.050976309   -5.0449246    1.0487463      8192000 
  641000    0.6991754   -5.0454658   -5.0454658   -3.9967029   0.05094886   -5.0454658    1.0487628      8192000 
  642000    0.6986327   -5.0450582   -5.0450582   -3.9971094  0.047855734   -5.0450582    1.0479488      8192000 
  643000   0.69783789   -5.0444779   -5.0444779   -3.9977213  0.044258132   -5.0444779    1.0467566      8192000 
  644000   0.69645001   -5.0429509   -5.0429509   -3.9982761  0.038333063   -5.0429509    1.0446748      8192000 
  645000   0.69554359   -5.0420775   -5.0420775   -3.9987623  0.031470437   -5.0420775    1.0433151      8192000 
  646000   0.69428437   -5.0405425   -5.0405425   -3.9991162  0.022787394   -5.0405425    1.0414263      8192000 
  647000   0.69290705   -5.0387178   -5.0387178   -3.9993575  0.014390199   -5.0387178    1.0393603      8192000 
  648000   0.69138547   -5.0365619   -5.0365619    -3.999484 0.0064422659   -5.0365619    1.0370779      8192000 
  649000   0.68994596   -5.0348929   -5.0348929   -3.9999743 -0.00087900498   -5.0348929    1.0349187      8192000 
  650000   0.68935787   -5.0341959   -5.0341959   -4.0001594 -0.010094066   -5.0341959    1.0340365      8192000 
  651000   0.68777961   -5.0321063   -5.0321063   -4.0004372 -0.013675655   -5.0321063    1.0316692      8192000 
  652000   0.68695511   -5.0311565   -5.0311565   -4.0007241  -0.01699376   -5.0311565    1.0304324      8192000 
  653000   0.68657988   -5.0310049   -5.0310049   -4.0011353 -0.019564671   -5.0310049    1.0298696      8192000 
  654000   0.68677844   -5.0315896   -5.0315896   -4.0014222 -0.022005591   -5.0315896    1.0301674      8192000 
  655000   0.68638349   -5.0315071   -5.0315071   -4.0019321 -0.020626889   -5.0315071     1.029575      8192000 
  656000   0.68714019   -5.0329055   -5.0329055   -4.0021955 -0.017702739   -5.0329055      1.03071      8192000 
  657000   0.68779984    -5.034156    -5.034156   -4.0024565 -0.014134797    -5.034156    1.0316995      8192000 
  658000   0.68841514   -5.0356675   -5.0356675   -4.0030451 -0.0080533915   -5.0356675    1.0326224      8192000 
  659000   0.68972013   -5.0382234   -5.0382234   -4.0036434 -0.0032207831   -5.0382234    1.0345799      8192000 
  660000   0.69078457   -5.0399385   -5.0399385   -4.0037619 0.0063070397   -5.0399385    1.0361766      8192000 
  661000   0.69220889   -5.0426374   -5.0426374   -4.0043243   0.01415168   -5.0426374    1.0383131      8192000 
  662000   0.69313433   -5.0448618   -5.0448618   -4.0051606  0.022420797   -5.0448618    1.0397012      8192000 
  663000   0.69433425   -5.0474104   -5.0474104   -4.0059093  0.028624711   -5.0474104    1.0415011      8192000 
  664000   0.69505487   -5.0489846   -5.0489846   -4.0064025  0.035626538   -5.0489846     1.042582      8192000 
  665000   0.69566041   -5.0504259   -5.0504259   -4.0069356  0.042802819   -5.0504259    1.0434904      8192000 
  666000   0.69687747   -5.0526635   -5.0526635   -4.0073476  0.045433572   -5.0526635    1.0453159      8192000 
  667000   0.69683924   -5.0530458   -5.0530458   -4.0077872  0.048449768   -5.0530458    1.0452586      8192000 
  668000   0.69700865   -5.0537451   -5.0537451   -4.0082324  0.048707896   -5.0537451    1.0455127      8192000 
  669000   0.69609113   -5.0528363   -5.0528363   -4.0086998  0.047205944   -5.0528363    1.0441364      8192000 
  670000   0.69580397   -5.0530296   -5.0530296   -4.0093239  0.044379299   -5.0530296    1.0437057      8192000 
  671000   0.69495396   -5.0525594   -5.0525594   -4.0101287  0.039095553   -5.0525594    1.0424307      8192000 
  672000   0.69385286   -5.0512137   -5.0512137   -4.0104347  0.035146545   -5.0512137     1.040779      8192000 
  673000   0.69306632    -5.050485    -5.050485   -4.0108858  0.027761317    -5.050485    1.0395992      8192000 
  674000   0.69215012    -5.049399    -5.049399   -4.0111741  0.019075523    -5.049399    1.0382249      8192000 
  675000   0.69074408   -5.0477415   -5.0477415   -4.0116256  0.011739208   -5.0477415    1.0361159      8192000 
  676000   0.68874871   -5.0451909   -5.0451909   -4.0120681 0.0051118133   -5.0451909    1.0331228      8192000 
  677000   0.68817573   -5.0446036   -5.0446036   -4.0123403 -0.0035311693   -5.0446036    1.0322633      8192000 
  678000   0.68694672   -5.0427528   -5.0427528    -4.012333 -0.0078435108   -5.0427528    1.0304198      8192000 
  679000   0.68633253   -5.0421397   -5.0421397   -4.0126412 -0.012449632   -5.0421397    1.0294985      8192000 
  680000   0.68565805   -5.0410725   -5.0410725   -4.0125857 -0.014428191   -5.0410725    1.0284868      8192000 
  681000   0.68545023   -5.0410323   -5.0410323   -4.0128572 -0.017636722   -5.0410323    1.0281751      8192000 
  682000   0.68569911   -5.0420918   -5.0420918   -4.0135434 -0.017240235   -5.0420918    1.0285484      8192000 
  683000   0.68572108   -5.0425802   -5.0425802   -4.0139989 -0.014699402   -5.0425802    1.0285814      8192000 
  684000   0.68656533   -5.0438636   -5.0438636   -4.0140158 -0.011970368   -5.0438636    1.0298477      8192000 
  685000   0.68688419   -5.0447322   -5.0447322   -4.0144062 -0.0059230046   -5.0447322     1.030326      8192000 
  686000   0.68759284   -5.0462433   -5.0462433   -4.0148542 -0.0014578658   -5.0462433     1.031389      8192000 
  687000   0.68881482    -5.048496    -5.048496    -4.015274 0.0034111407    -5.048496     1.033222      8192000 
  688000   0.68986281   -5.0504774   -5.0504774   -4.0156834  0.012242461   -5.0504774    1.0347939      8192000 
  689000   0.69073587   -5.0525035   -5.0525035   -4.0163999  0.019501415   -5.0525035    1.0361036      8192000 
  690000   0.69169035   -5.0543751   -5.0543751   -4.0168399  0.025562662   -5.0543751    1.0375353      8192000 
  691000   0.69279235   -5.0564721   -5.0564721   -4.0172838  0.031706456   -5.0564721    1.0391883      8192000 
  692000   0.69337812   -5.0582497   -5.0582497   -4.0181828  0.036951435   -5.0582497    1.0400669      8192000 
  693000    0.6937772   -5.0592835   -5.0592835    -4.018618  0.040847993   -5.0592835    1.0406655      8192000 
  694000   0.69386281   -5.0601328   -5.0601328   -4.0193389    0.0447986   -5.0601328     1.040794      8192000 
  695000   0.69461833   -5.0615833   -5.0615833   -4.0196561  0.043536386   -5.0615833    1.0419272      8192000 
  696000   0.69412799    -5.061407    -5.061407   -4.0202152  0.044451414    -5.061407    1.0411917      8192000 
  697000   0.69352935   -5.0609355   -5.0609355   -4.0206417  0.041165779   -5.0609355    1.0402938      8192000 
  698000   0.69278012   -5.0606172   -5.0606172   -4.0214473  0.038016823   -5.0606172    1.0391699      8192000 
  699000   0.69192446   -5.0596172   -5.0596172   -4.0217308  0.035017761   -5.0596172    1.0378864      8192000 
  700000    0.6914572   -5.0591272   -5.0591272   -4.0219417  0.026795477   -5.0591272    1.0371855      8192000 
  701000   0.69028682   -5.0576734   -5.0576734   -4.0222434     0.021431   -5.0576734      1.03543      8192000 
  702000   0.68923658   -5.0564785   -5.0564785   -4.0226239  0.015375866   -5.0564785    1.0338546      8192000 
  703000   0.68867236   -5.0558822   -5.0558822   -4.0228739 0.0072109587   -5.0558822    1.0330083      8192000 
  704000   0.68745613   -5.0544096   -5.0544096   -4.0232256 0.0016220783   -5.0544096    1.0311839      8192000 
  705000   0.68649352   -5.0530718   -5.0530718   -4.0233317 -0.0019845449   -5.0530718      1.02974      8192000 
  706000    0.6858766   -5.0526501   -5.0526501   -4.0238354 -0.0072520155   -5.0526501    1.0288146      8192000 
  707000   0.68482098   -5.0512541   -5.0512541   -4.0240229 -0.0087196651   -5.0512541    1.0272312      8192000 
  708000   0.68484852   -5.0514435   -5.0514435    -4.024171 -0.011705517   -5.0514435    1.0272725      8192000 
  709000   0.68467797    -5.051122    -5.051122   -4.0241053 -0.010585728    -5.051122    1.0270167      8192000 
  710000   0.68432708   -5.0510363   -5.0510363   -4.0245459 -0.0082590632   -5.0510363    1.0264904      8192000 
  711000   0.68508998   -5.0523566   -5.0523566   -4.0247219 -0.0063759181   -5.0523566    1.0276347      8192000 
  712000   0.68588882   -5.0538408   -5.0538408   -4.0250079 -0.0027249532   -5.0538408     1.028833      8192000 
  713000   0.68619867   -5.0546765   -5.0546765   -4.0253788 0.0018728496   -5.0546765    1.0292977      8192000 
  714000   0.68708392   -5.0565116   -5.0565116    -4.025886 0.0067749683   -5.0565116    1.0306256      8192000 
  715000   0.68795602   -5.0579825   -5.0579825   -4.0260488  0.011948926   -5.0579825    1.0319338      8192000 
  716000   0.68863091   -5.0595891   -5.0595891    -4.026643  0.018557315   -5.0595891    1.0329461      8192000 
  717000   0.68963228   -5.0616308   -5.0616308   -4.0271827  0.022968153   -5.0616308    1.0344482      8192000 
  718000    0.6905054   -5.0632729   -5.0632729    -4.027515  0.028602524   -5.0632729    1.0357578      8192000 
  719000   0.69126102   -5.0648408   -5.0648408   -4.0279495  0.033179773   -5.0648408    1.0368913      8192000 
  720000   0.69156385   -5.0657431   -5.0657431   -4.0283976  0.037341697   -5.0657431    1.0373455      8192000 
  721000   0.69151551    -5.066311    -5.066311    -4.029038  0.040610637    -5.066311     1.037273      8192000 
  722000   0.69185089   -5.0673509   -5.0673509   -4.0295748  0.039942966   -5.0673509    1.0377761      8192000 
  723000     0.691763   -5.0677023   -5.0677023    -4.030058  0.039412463   -5.0677023    1.0376442      8192000 
  724000   0.69137586   -5.0676006   -5.0676006   -4.0305371  0.037192877   -5.0676006    1.0370635      8192000 
  725000   0.69091446   -5.0671063   -5.0671063   -4.0307348   0.03671555   -5.0671063    1.0363714      8192000 
  726000   0.69028136   -5.0668494   -5.0668494   -4.0314277  0.029434271   -5.0668494    1.0354218      8192000 
  727000   0.68939092   -5.0660362   -5.0660362     -4.03195  0.026441474   -5.0660362    1.0340861      8192000 
  728000   0.68866368   -5.0648389   -5.0648389   -4.0318437  0.021145978   -5.0648389    1.0329953      8192000 
  729000   0.68789203    -5.064033    -5.064033   -4.0321952  0.015796177    -5.064033    1.0318378      8192000 
  730000   0.68691344   -5.0627892   -5.0627892   -4.0324193  0.010466334   -5.0627892    1.0303699      8192000 
  731000   0.68587513   -5.0613492   -5.0613492   -4.0325367 0.0068250007   -5.0613492    1.0288124      8192000 
  732000   0.68490988   -5.0603375   -5.0603375   -4.0329729 0.0022268775   -5.0603375    1.0273646      8192000 
  733000   0.68466464   -5.0601765   -5.0601765   -4.0331798 -0.0038048704   -5.0601765    1.0269967      8192000 
  734000   0.68403336   -5.0593094   -5.0593094   -4.0332596 -0.0047514048   -5.0593094    1.0260498      8192000 
  735000   0.68400224   -5.0598017   -5.0598017   -4.0337986 -0.0061322422   -5.0598017    1.0260031      8192000 
  736000      0.68368   -5.0596511   -5.0596511   -4.0341314 -0.0063769704   -5.0596511    1.0255197      8192000 
  737000   0.68383934    -5.060153    -5.060153   -4.0343942 -0.005466768    -5.060153    1.0257588      8192000 
  738000   0.68397224   -5.0606319   -5.0606319   -4.0346738 -0.0028107182   -5.0606319    1.0259581      8192000 
  739000   0.68454027   -5.0615741   -5.0615741    -4.034764 -0.00083911998   -5.0615741    1.0268102      8192000 
  740000   0.68518816   -5.0630313   -5.0630313   -4.0352493 0.0021717486   -5.0630313     1.027782      8192000 
  741000   0.68596533   -5.0646256   -5.0646256   -4.0356778  0.006423646   -5.0646256    1.0289477      8192000 
  742000   0.68642631   -5.0657565   -5.0657565   -4.0361173  0.014291387   -5.0657565    1.0296392      8192000 
  743000   0.68750612    -5.067768    -5.067768   -4.0365091  0.018699526    -5.067768    1.0312589      8192000 
  744000   0.68794537    -5.068781    -5.068781   -4.0368632  0.022754179    -5.068781    1.0319178      8192000 
  745000   0.68824846   -5.0697336   -5.0697336   -4.0373611  0.028618226   -5.0697336    1.0323724      8192000 
  746000   0.68901243   -5.0713994   -5.0713994    -4.037881  0.032420974   -5.0713994    1.0335184      8192000 
  747000   0.68978012   -5.0731058   -5.0731058   -4.0384359  0.035023837   -5.0731058    1.0346699      8192000 
  748000   0.68966148   -5.0735339   -5.0735339   -4.0390419   0.03720235   -5.0735339     1.034492      8192000 
  749000    0.6900882   -5.0745874   -5.0745874   -4.0394554  0.037739497   -5.0745874     1.035132      8192000 
  750000   0.68966099   -5.0744234   -5.0744234   -4.0399322  0.037439896   -5.0744234    1.0344912      8192000 
  751000   0.68944409    -5.074367    -5.074367   -4.0402012   0.03617375    -5.074367    1.0341659      8192000 
  752000   0.68958654   -5.0749413   -5.0749413   -4.0405617  0.033025515   -5.0749413    1.0343796      8192000 
  753000   0.68872801    -5.073801    -5.073801   -4.0407092  0.031396593    -5.073801    1.0330918      8192000 
  754000   0.68810044   -5.0733022   -5.0733022   -4.0411518  0.027305487   -5.0733022    1.0321504      8192000 
  755000   0.68720495   -5.0723028   -5.0723028   -4.0414956  0.023240149   -5.0723028    1.0308072      8192000 
  756000   0.68656879   -5.0714053   -5.0714053   -4.0415524  0.018480636   -5.0714053    1.0298529      8192000 
  757000   0.68568804   -5.0704456   -5.0704456   -4.0419138  0.014097849   -5.0704456    1.0285318      8192000 
  758000   0.68493881    -5.069746    -5.069746    -4.042338  0.008214518    -5.069746     1.027408      8192000 
  759000   0.68425004   -5.0689379   -5.0689379   -4.0425631   0.00474184   -5.0689379    1.0263748      8192000 
  760000   0.68370408   -5.0682799   -5.0682799    -4.042724 0.0010287202   -5.0682799    1.0255559      8192000 
  761000   0.68336388   -5.0682687   -5.0682687   -4.0432231 -0.0028591567   -5.0682687    1.0250456      8192000 
  762000   0.68294251   -5.0677909   -5.0677909   -4.0433774 -0.0032358442   -5.0677909    1.0244135      8192000 
  763000   0.68246788   -5.0673647   -5.0673647   -4.0436632 -0.0030152356   -5.0673647    1.0237016      8192000 
  764000   0.68267062   -5.0678058   -5.0678058   -4.0438002 -0.0026633694   -5.0678058    1.0240057      8192000 
  765000   0.68322008     -5.06898     -5.06898   -4.0441501 -0.0018483324     -5.06898    1.0248299      8192000 
  766000   0.68338362   -5.0693701   -5.0693701    -4.044295 0.0027709867   -5.0693701    1.0250752      8192000 
  767000   0.68384926   -5.0702832   -5.0702832   -4.0445095  0.005105994   -5.0702832    1.0257736      8192000 
  768000   0.68444398   -5.0715002   -5.0715002   -4.0448345 0.0087934527   -5.0715002    1.0266657      8192000 
  769000   0.68520059   -5.0727117   -5.0727117    -4.044911  0.014134518   -5.0727117    1.0278006      8192000 
  770000   0.68603512   -5.0742518   -5.0742518   -4.0451994  0.017397209   -5.0742518    1.0290524      8192000 
  771000   0.68618322   -5.0749937   -5.0749937   -4.0457191  0.022316945   -5.0749937    1.0292746      8192000 
  772000    0.6868853   -5.0763179   -5.0763179   -4.0459902  0.027633578   -5.0763179    1.0303277      8192000 
  773000   0.68715594   -5.0771962   -5.0771962   -4.0464626  0.030750371   -5.0771962    1.0307337      8192000 
  774000   0.68750653   -5.0783559   -5.0783559   -4.0470963  0.032477509   -5.0783559    1.0312595      8192000 
  775000   0.68782275   -5.0794285   -5.0794285   -4.0476946  0.034881144   -5.0794285    1.0317339      8192000 
  776000   0.68793618    -5.080086    -5.080086    -4.048182  0.035932933    -5.080086     1.031904      8192000 
  777000   0.68820732   -5.0805385   -5.0805385   -4.0482278  0.035034572   -5.0805385    1.0323107      8192000 
  778000   0.68768871   -5.0802356   -5.0802356   -4.0487028  0.034175488   -5.0802356    1.0315328      8192000 
  779000   0.68721431   -5.0798921   -5.0798921   -4.0490709  0.032713644   -5.0798921    1.0308212      8192000 
  780000   0.68682124   -5.0795947   -5.0795947   -4.0493631  0.028847199   -5.0795947    1.0302316      8192000 
  781000   0.68635755   -5.0793388   -5.0793388   -4.0498028  0.025837539   -5.0793388    1.0295361      8192000 
  782000   0.68572634     -5.07867     -5.07867   -4.0500808  0.023591372     -5.07867    1.0285893      8192000 
  783000   0.68503944    -5.078023    -5.078023   -4.0504641  0.018475192    -5.078023    1.0275589      8192000 
  784000   0.68444915   -5.0772011   -5.0772011   -4.0505276  0.013856791   -5.0772011    1.0266735      8192000 
  785000   0.68362416   -5.0760298   -5.0760298   -4.0505939  0.010627056   -5.0760298     1.025436      8192000 
  786000   0.68339106   -5.0760182   -5.0760182   -4.0509318 0.0067328874   -5.0760182    1.0250863      8192000 
  787000   0.68305207   -5.0757885   -5.0757885   -4.0512107 0.0032483265   -5.0757885    1.0245779      8192000 
  788000   0.68210787   -5.0748211   -5.0748211   -4.0516596 0.0025516865   -5.0748211    1.0231615      8192000 
  789000   0.68235972   -5.0752668   -5.0752668   -4.0517275 0.00071433962   -5.0752668    1.0235393      8192000 
  790000   0.68194975   -5.0748702   -5.0748702   -4.0519459 0.0019487709   -5.0748702    1.0229244      8192000 
  791000   0.68225644   -5.0754888   -5.0754888   -4.0521044 0.00071797841   -5.0754888    1.0233844      8192000 
  792000   0.68199154   -5.0754552   -5.0754552   -4.0524682 0.0027705174   -5.0754552    1.0229871      8192000 
  793000   0.68236289   -5.0762872   -5.0762872   -4.0527431 0.0045381194   -5.0762872    1.0235441      8192000 
  794000   0.68305281   -5.0775529   -5.0775529    -4.052974 0.0080470443   -5.0775529     1.024579      8192000 
  795000   0.68377541    -5.078736    -5.078736   -4.0530731 0.0096861781    -5.078736    1.0256629      8192000 
  796000   0.68381876   -5.0792833   -5.0792833   -4.0535554   0.01521674   -5.0792833    1.0257279      8192000 
  797000   0.68435304   -5.0803441   -5.0803441   -4.0538148  0.019144746   -5.0803441    1.0265293      8192000 
  798000   0.68485877   -5.0813968   -5.0813968   -4.0541089   0.02131104   -5.0813968    1.0272879      8192000 
  799000   0.68530614   -5.0823333   -5.0823333   -4.0543743  0.026357056   -5.0823333    1.0279589      8192000 
  800000   0.68600152    -5.083679    -5.083679    -4.054677  0.030154268    -5.083679     1.029002      8192000 
  801000   0.68582201   -5.0840118   -5.0840118   -4.0552791  0.031954364   -5.0840118    1.0287328      8192000 
  802000   0.68629145   -5.0850814   -5.0850814   -4.0556445  0.031140368   -5.0850814    1.0294369      8192000 
  803000   0.68637384   -5.0855787   -5.0855787   -4.0560182  0.032332569   -5.0855787    1.0295605      8192000 
  804000   0.68629073   -5.0857626   -5.0857626   -4.0563268  0.034038065   -5.0857626    1.0294358      8192000 
  805000   0.68609283   -5.0858149   -5.0858149   -4.0566759  0.032183631   -5.0858149     1.029139      8192000 
  806000   0.68585786   -5.0857602   -5.0857602   -4.0569737  0.031122966   -5.0857602    1.0287865      8192000 
  807000   0.68527658   -5.0853277   -5.0853277   -4.0574131  0.028292174   -5.0853277    1.0279146      8192000 
  808000   0.68488089   -5.0851214   -5.0851214   -4.0578003  0.024581717   -5.0851214    1.0273211      8192000 
  809000   0.68410526   -5.0841503   -5.0841503   -4.0579927  0.021064015   -5.0841503    1.0261576      8192000 
  810000   0.68380907   -5.0838465   -5.0838465   -4.0581332  0.017909345   -5.0838465    1.0257134      8192000 
  811000   0.68292382   -5.0827645   -5.0827645    -4.058379  0.017254147   -5.0827645    1.0243855      8192000 
  812000   0.68265414   -5.0825793   -5.0825793   -4.0585984  0.011412733   -5.0825793     1.023981      8192000 
  813000   0.68193122    -5.081849    -5.081849   -4.0589524 0.0098263635    -5.081849    1.0228966      8192000 
  814000   0.68213945   -5.0823953   -5.0823953   -4.0591864 0.0042984652   -5.0823953    1.0232089      8192000 
  815000   0.68165801   -5.0815796   -5.0815796   -4.0590928 0.0051222609   -5.0815796    1.0224868      8192000 
  816000   0.68184077   -5.0820183   -5.0820183   -4.0592574 0.0025640101   -5.0820183    1.0227609      8192000 
  817000   0.68115105   -5.0812435   -5.0812435   -4.0595172 0.0044682568   -5.0812435    1.0217263      8192000 
  818000   0.68120191   -5.0814672   -5.0814672   -4.0596646 0.0051383252   -5.0814672    1.0218026      8192000 
  819000   0.68123689   -5.0821146   -5.0821146   -4.0602595 0.0047327748   -5.0821146    1.0218551      8192000 
  820000   0.68163286    -5.082937    -5.082937    -4.060488  0.006171068    -5.082937     1.022449      8192000 
  821000   0.68237166   -5.0842421   -5.0842421   -4.0606849 0.0073406954   -5.0842421    1.0235572      8192000 
  822000   0.68203321   -5.0841518   -5.0841518   -4.0611022  0.013001195   -5.0841518    1.0230496      8192000 
  823000   0.68300433   -5.0855813   -5.0855813   -4.0610751  0.014893818   -5.0855813    1.0245062      8192000 
  824000   0.68341237   -5.0866988   -5.0866988   -4.0615805  0.018739733   -5.0866988    1.0251183      8192000 
  825000   0.68354985   -5.0869409   -5.0869409   -4.0616164  0.022411302   -5.0869409    1.0253245      8192000 
  826000   0.68393704   -5.0877807   -5.0877807   -4.0618754  0.024815421   -5.0877807    1.0259053      8192000 
  827000   0.68414187   -5.0883316   -5.0883316    -4.062119  0.028268626   -5.0883316    1.0262126      8192000 
  828000   0.68471443   -5.0893994   -5.0893994    -4.062328  0.029913451   -5.0893994    1.0270714      8192000 
  829000   0.68444925   -5.0895895   -5.0895895   -4.0629159  0.030997033   -5.0895895    1.0266736      8192000 
  830000   0.68457906   -5.0901249   -5.0901249   -4.0632565  0.030437333   -5.0901249    1.0268683      8192000 
  831000   0.68471281   -5.0905123   -5.0905123   -4.0634433  0.029512409   -5.0905123     1.027069      8192000 
  832000    0.6843561   -5.0904528   -5.0904528   -4.0639189  0.030210901   -5.0904528    1.0265339      8192000 
  833000   0.68421192   -5.0903531   -5.0903531   -4.0640355  0.027797067   -5.0903531    1.0263176      8192000 
  834000   0.68366599   -5.0895749   -5.0895749   -4.0640762  0.027078216   -5.0895749    1.0254987      8192000 
  835000   0.68327908   -5.0892982   -5.0892982   -4.0643798  0.024260621   -5.0892982    1.0249184      8192000 
  836000   0.68274149   -5.0888965   -5.0888965   -4.0647846  0.021334019   -5.0888965     1.024112      8192000 
  837000   0.68204365   -5.0878703   -5.0878703   -4.0648051   0.01881534   -5.0878703    1.0230652      8192000 
  838000   0.68189063   -5.0879889   -5.0879889   -4.0651532  0.013862471   -5.0879889    1.0228357      8192000 
  839000   0.68137951   -5.0876862   -5.0876862   -4.0656172  0.011348976   -5.0876862     1.022069      8192000 
  840000   0.68045773   -5.0864567   -5.0864567   -4.0657704   0.01142517   -5.0864567    1.0206863      8192000 
  841000   0.68070139   -5.0867693   -5.0867693   -4.0657175 0.0089452314   -5.0867693    1.0210518      8192000 
  842000   0.68040393   -5.0864928   -5.0864928   -4.0658872 0.0077749845   -5.0864928    1.0206056      8192000 
  843000   0.68047534    -5.086598    -5.086598   -4.0658852 0.0078186035    -5.086598    1.0207128      8192000 
  844000   0.68012269   -5.0862087   -5.0862087   -4.0660249  0.007816555   -5.0862087    1.0201838      8192000 
  845000   0.68017066   -5.0863192   -5.0863192   -4.0660635 0.0086243978   -5.0863192    1.0202557      8192000 
  846000   0.68057925   -5.0870556   -5.0870556    -4.066187 0.0099014913   -5.0870556    1.0208686      8192000 
  847000   0.68083232   -5.0874576   -5.0874576   -4.0662093  0.010323503   -5.0874576    1.0212482      8192000 
  848000   0.68080393   -5.0876126   -5.0876126   -4.0664069  0.013973618   -5.0876126    1.0212056      8192000 
  849000   0.68160384   -5.0888583   -5.0888583   -4.0664528  0.015119325   -5.0888583    1.0224055      8192000 
  850000   0.68155501   -5.0892448   -5.0892448   -4.0669126  0.017585683   -5.0892448    1.0223323      8192000 
  851000   0.68243881   -5.0906951   -5.0906951   -4.0670372  0.019753626   -5.0906951     1.023658      8192000 
  852000   0.68256425   -5.0912822   -5.0912822    -4.067436  0.022573509   -5.0912822    1.0238461      8192000 
  853000   0.68283027   -5.0921139   -5.0921139   -4.0678688  0.024637672   -5.0921139    1.0242452      8192000 
  854000   0.68286633   -5.0926026   -5.0926026   -4.0683034  0.027612852   -5.0926026    1.0242992      8192000 
  855000   0.68293523   -5.0930963   -5.0930963   -4.0686938  0.028580301   -5.0930963    1.0244026      8192000 
  856000   0.68322322   -5.0938975   -5.0938975   -4.0690629  0.028477381   -5.0938975    1.0248346      8192000 
  857000   0.68269362   -5.0933148   -5.0933148   -4.0692747  0.029452813   -5.0933148    1.0240402      8192000 
  858000   0.68300598   -5.0941535   -5.0941535   -4.0696448  0.026543903   -5.0941535    1.0245087      8192000 
  859000   0.68263617   -5.0936614   -5.0936614   -4.0697074  0.028125483   -5.0936614     1.023954      8192000 
  860000   0.68286336    -5.094339    -5.094339   -4.0700442  0.025029996    -5.094339    1.0242948      8192000 
  861000   0.68207592   -5.0935077   -5.0935077   -4.0703941   0.02567388   -5.0935077    1.0231136      8192000 
  862000   0.68188205   -5.0932176   -5.0932176   -4.0703948  0.023271247   -5.0932176    1.0228228      8192000 
  863000   0.68161846   -5.0930811   -5.0930811   -4.0706536  0.020041577   -5.0930811    1.0224274      8192000 
  864000   0.68098934   -5.0921542   -5.0921542   -4.0706705  0.019227724   -5.0921542    1.0214838      8192000 
  865000   0.68085464   -5.0920546   -5.0920546   -4.0707729  0.016697879   -5.0920546    1.0212817      8192000 
  866000   0.68061756   -5.0918618   -5.0918618   -4.0709357   0.01276119   -5.0918618    1.0209261      8192000 
  867000   0.68050328   -5.0916122   -5.0916122   -4.0708576   0.01090657   -5.0916122    1.0207547      8192000 
  868000   0.67986637   -5.0909588   -5.0909588   -4.0711595   0.01019749   -5.0909588    1.0197993      8192000 
  869000   0.67991071   -5.0908827   -5.0908827   -4.0710169 0.0097223611   -5.0908827    1.0198658      8192000 
  870000   0.67979473   -5.0910545   -5.0910545   -4.0713627 0.0088430199   -5.0910545    1.0196918      8192000 
  871000   0.67960348   -5.0907984   -5.0907984   -4.0713935 0.0094481975   -5.0907984     1.019405      8192000 
  872000   0.67959939   -5.0911227   -5.0911227   -4.0717239  0.010506664   -5.0911227    1.0193988      8192000 
  873000   0.67989334   -5.0915013   -5.0915013   -4.0716616  0.011576788   -5.0915013    1.0198398      8192000 
  874000   0.68009382   -5.0921614   -5.0921614   -4.0720209  0.012396267   -5.0921614    1.0201405      8192000 
  875000   0.68057124   -5.0932029   -5.0932029   -4.0723463  0.011639913   -5.0932029    1.0208566      8192000 
  876000    0.6805779   -5.0930675   -5.0930675   -4.0722009  0.016570033   -5.0930675    1.0208666      8192000 
  877000   0.68067691   -5.0937145   -5.0937145   -4.0726994   0.01803206   -5.0937145    1.0210151      8192000 
  878000   0.68099299    -5.094812    -5.094812   -4.0733228  0.019348908    -5.094812    1.0214892      8192000 
  879000   0.68142204   -5.0957659   -5.0957659   -4.0736331  0.021485873   -5.0957659    1.0221328      8192000 
  880000   0.68145612   -5.0959349   -5.0959349    -4.073751  0.024147047   -5.0959349    1.0221839      8192000 
  881000   0.68155723   -5.0966234   -5.0966234   -4.0742878  0.025035288   -5.0966234    1.0223356      8192000 
  882000   0.68183724   -5.0971384   -5.0971384   -4.0743828   0.02634709   -5.0971384    1.0227556      8192000 
  883000   0.68163901   -5.0969249   -5.0969249   -4.0744667    0.0279925   -5.0969249    1.0224583      8192000 
  884000   0.68195562   -5.0977194   -5.0977194   -4.0747862  0.025688683   -5.0977194    1.0229332      8192000 
  885000    0.6818077    -5.097854    -5.097854   -4.0751427    0.0264583    -5.097854    1.0227113      8192000 
  886000   0.68170029   -5.0979304   -5.0979304   -4.0753802  0.024508457   -5.0979304    1.0225502      8192000 
  887000   0.68142071    -5.097493    -5.097493   -4.0753622  0.024571619    -5.097493    1.0221308      8192000 
  888000   0.68120517   -5.0974107   -5.0974107   -4.0756032  0.023375374   -5.0974107    1.0218075      8192000 
  889000   0.68051308    -5.096472    -5.096472   -4.0757027  0.021375449    -5.096472    1.0207694      8192000 
  890000   0.68039813   -5.0964353   -5.0964353   -4.0758383  0.020880372   -5.0964353    1.0205969      8192000 
  891000   0.68054014   -5.0968859   -5.0968859    -4.076076  0.017768297   -5.0968859      1.02081      8192000 
  892000   0.68048451    -5.096746    -5.096746   -4.0760195  0.015636578    -5.096746    1.0207265      8192000 
  893000     0.679581    -5.095576    -5.095576   -4.0762048  0.015266262    -5.095576    1.0193712      8192000 
  894000   0.67913771   -5.0951529   -5.0951529   -4.0764466  0.014790441   -5.0951529    1.0187063      8192000 
  895000   0.67889588   -5.0949242   -5.0949242   -4.0765806  0.011090618   -5.0949242    1.0183436      8192000 
  896000   0.67908593   -5.0951765   -5.0951765   -4.0765479  0.010148495   -5.0951765    1.0186286      8192000 
  897000   0.67910674   -5.0954721   -5.0954721   -4.0768123  0.010101884   -5.0954721    1.0186599      8192000 
  898000   0.67880397   -5.0948434   -5.0948434   -4.0766377  0.012367894   -5.0948434    1.0182057      8192000 
  899000   0.67947735   -5.0958164   -5.0958164   -4.0766006  0.010429665   -5.0958164    1.0192158      8192000 
  900000   0.67962266    -5.096049    -5.096049   -4.0766153  0.011767881    -5.096049    1.0194337      8192000 
  901000   0.67942293   -5.0959018   -5.0959018   -4.0767677  0.014716868   -5.0959018    1.0191341      8192000 
  902000   0.67960841   -5.0966376   -5.0966376   -4.0772252  0.016895435   -5.0966376    1.0194124      8192000 
  903000   0.67971031    -5.097162    -5.097162   -4.0775968   0.01770777    -5.097162    1.0195652      8192000 
  904000    0.6797591   -5.0976444   -5.0976444    -4.078006  0.020452295   -5.0976444    1.0196384      8192000 
  905000    0.6801271   -5.0981836   -5.0981836   -4.0779932  0.020413373   -5.0981836    1.0201904      8192000 
  906000   0.68005807   -5.0983492   -5.0983492   -4.0782623  0.021900061   -5.0983492    1.0200868      8192000 
  907000   0.68018341   -5.0986206   -5.0986206   -4.0783457  0.024517076   -5.0986206    1.0202749      8192000 
  908000   0.68076244   -5.0996915   -5.0996915   -4.0785481  0.023821371   -5.0996915    1.0211434      8192000 
  909000    0.6808863   -5.0997604   -5.0997604   -4.0784312  0.025263468   -5.0997604    1.0213292      8192000 
  910000    0.6809752   -5.1002391   -5.1002391   -4.0787765  0.025875552   -5.1002391    1.0214625      8192000 
  911000   0.68067098   -5.1002373   -5.1002373   -4.0792311  0.026807678   -5.1002373    1.0210062      8192000 
  912000   0.68054328   -5.1001455   -5.1001455   -4.0793308   0.02514426   -5.1001455    1.0208147      8192000 
  913000   0.68025841   -5.1000644   -5.1000644    -4.079677  0.024098625   -5.1000644    1.0203874      8192000 
  914000   0.68030116   -5.1004518   -5.1004518   -4.0800003  0.022880145   -5.1004518    1.0204515      8192000 
  915000    0.6797955   -5.0999023   -5.0999023   -4.0802093     0.022393   -5.0999023     1.019693      8192000 
  916000   0.67968447   -5.0997597   -5.0997597   -4.0802333  0.020634308   -5.0997597    1.0195265      8192000 
  917000   0.67983916   -5.0998847   -5.0998847   -4.0801262  0.018758105   -5.0998847    1.0197585      8192000 
  918000    0.6792206   -5.0991667   -5.0991667   -4.0803361  0.018559464   -5.0991667    1.0188306      8192000 
  919000    0.6789802   -5.0989799   -5.0989799   -4.0805099  0.016913599   -5.0989799    1.0184701      8192000 
  920000   0.67906919    -5.099228    -5.099228   -4.0806245  0.014965217    -5.099228    1.0186035      8192000 
  921000    0.6788338   -5.0992454   -5.0992454   -4.0809949  0.015797832   -5.0992454    1.0182505      8192000 
  922000   0.67876255   -5.0989503   -5.0989503   -4.0808067  0.013569731   -5.0989503    1.0181436      8192000 
  923000   0.67872726   -5.0989108   -5.0989108   -4.0808202  0.013332584   -5.0989108    1.0180906      8192000 
  924000   0.67863554    -5.098715    -5.098715    -4.080762  0.013855721    -5.098715    1.0179531      8192000 
  925000   0.67845904   -5.0986131   -5.0986131   -4.0809248   0.01414705   -5.0986131    1.0176883      8192000 
  926000   0.67903833     -5.09934     -5.09934   -4.0807827  0.013608552     -5.09934    1.0185572      8192000 
  927000   0.67899511   -5.0994047   -5.0994047   -4.0809123  0.014571538   -5.0994047    1.0184924      8192000 
  928000   0.67862699   -5.0988163   -5.0988163    -4.080876  0.016910688   -5.0988163    1.0179402      8192000 
  929000   0.67872909   -5.0993624   -5.0993624    -4.081269  0.018188177   -5.0993624    1.0180934      8192000 
  930000   0.67915654   -5.1000613   -5.1000613   -4.0813268  0.018060397   -5.1000613    1.0187345      8192000 
  931000   0.67948232   -5.1007226   -5.1007226   -4.0814994  0.019146358   -5.1007226    1.0192232      8192000 
  932000    0.6792596   -5.1006811   -5.1006811   -4.0817919  0.021183028   -5.1006811    1.0188891      8192000 
  933000   0.67955614   -5.1013465   -5.1013465   -4.0820125  0.020284181   -5.1013465     1.019334      8192000 
  934000   0.67979104   -5.1016228   -5.1016228   -4.0819364  0.023048092   -5.1016228    1.0196863      8192000 
  935000   0.67981201   -5.1019221   -5.1019221   -4.0822044  0.022659183   -5.1019221    1.0197178      8192000 
  936000   0.67999155    -5.101986    -5.101986   -4.0819989  0.024169586    -5.101986    1.0199871      8192000 
  937000   0.67983201    -5.102049    -5.102049   -4.0823013  0.025779679    -5.102049    1.0197478      8192000 
  938000   0.67962065   -5.1018518   -5.1018518    -4.082421  0.024927302   -5.1018518    1.0194307      8192000 
  939000   0.67964518   -5.1022232   -5.1022232   -4.0827557  0.022793521   -5.1022232    1.0194675      8192000 
  940000    0.6791837   -5.1018882   -5.1018882   -4.0831129    0.0239935   -5.1018882    1.0187753      8192000 
  941000   0.67939713   -5.1022216   -5.1022216   -4.0831262  0.022818851   -5.1022216    1.0190954      8192000 
  942000   0.67917599    -5.102102    -5.102102   -4.0833383  0.022148424    -5.102102    1.0187637      8192000 
  943000   0.67895046   -5.1018028   -5.1018028   -4.0833774  0.020595886   -5.1018028    1.0184254      8192000 
  944000   0.67862473   -5.1014514   -5.1014514   -4.0835145  0.020838073   -5.1014514    1.0179368      8192000 
  945000    0.6787236   -5.1015521   -5.1015521   -4.0834669  0.019673344   -5.1015521    1.0180851      8192000 
  946000   0.67868339   -5.1014911   -5.1014911   -4.0834662  0.017376021   -5.1014911    1.0180248      8192000 
  947000   0.67835406   -5.1012505   -5.1012505   -4.0837196  0.016054304   -5.1012505    1.0175308      8192000 
  948000   0.67832724     -5.10124     -5.10124   -4.0837494   0.01485248     -5.10124    1.0174906      8192000 
  949000   0.67815136   -5.1011145   -5.1011145   -4.0838877  0.015140055   -5.1011145    1.0172268      8192000 
  950000   0.67815849   -5.1013145   -5.1013145    -4.084077  0.012977511   -5.1013145    1.0172375      8192000 
  951000   0.67793678   -5.1011448   -5.1011448   -4.0842399  0.013787908   -5.1011448    1.0169049      8192000 
  952000   0.67786177   -5.1010436   -5.1010436   -4.0842512  0.015219872   -5.1010436    1.0167924      8192000 
  953000   0.67788055   -5.1010781   -5.1010781   -4.0842575  0.016081015   -5.1010781    1.0168206      8192000 
  954000   0.67787361    -5.101258    -5.101258   -4.0844479  0.016026833    -5.101258    1.0168102      8192000 
  955000   0.67784464   -5.1013131   -5.1013131   -4.0845464  0.017621037   -5.1013131    1.0167667      8192000 
  956000   0.67823987    -5.102053    -5.102053   -4.0846934  0.017142112    -5.102053    1.0173595      8192000 
  957000   0.67806936   -5.1019323   -5.1019323   -4.0848285  0.018538317   -5.1019323    1.0171038      8192000 
  958000   0.67850181   -5.1024914   -5.1024914   -4.0847389  0.018615002   -5.1024914    1.0177525      8192000 
  959000   0.67842936   -5.1024865   -5.1024865   -4.0848427  0.021740446   -5.1024865    1.0176438      8192000 
  960000   0.67838705    -5.102773    -5.102773   -4.0851927  0.022284903    -5.102773    1.0175803      8192000 
  961000   0.67846844   -5.1028861   -5.1028861   -4.0851837  0.023391609   -5.1028861    1.0177024      8192000 
  962000   0.67851078   -5.1030551   -5.1030551   -4.0852892  0.022578026   -5.1030551    1.0177659      8192000 
  963000   0.67888337   -5.1035363   -5.1035363   -4.0852115  0.023290502   -5.1035363    1.0183248      8192000 
  964000   0.67890866   -5.1037061   -5.1037061   -4.0853434  0.024283173   -5.1037061    1.0183627      8192000 
  965000   0.67873654   -5.1037197   -5.1037197   -4.0856151  0.024075653   -5.1037197    1.0181046      8192000 
  966000   0.67876331   -5.1037936   -5.1037936   -4.0856489  0.023007863   -5.1037936    1.0181447      8192000 
  967000   0.67868099   -5.1038394   -5.1038394   -4.0858181  0.022603162   -5.1038394    1.0180212      8192000 
  968000   0.67843435    -5.103612    -5.103612   -4.0859607  0.021663736    -5.103612    1.0176513      8192000 
  969000   0.67808366   -5.1033359   -5.1033359   -4.0862107  0.022217885   -5.1033359    1.0171252      8192000 
  970000   0.67822461   -5.1034643   -5.1034643   -4.0861276  0.019455772   -5.1034643    1.0173367      8192000 
  971000   0.67811394   -5.1032218   -5.1032218   -4.0860511  0.020092848   -5.1032218    1.0171707      8192000 
  972000   0.67776088   -5.1029939   -5.1029939   -4.0863529   0.01933992   -5.1029939    1.0166411      8192000 
  973000    0.6773159   -5.1025884   -5.1025884   -4.0866148  0.018740052   -5.1025884    1.0159736      8192000 
  974000    0.6775077   -5.1032954   -5.1032954   -4.0870341  0.016388421   -5.1032954    1.0162613      8192000 
  975000   0.67709354   -5.1027373   -5.1027373   -4.0870973  0.016081292   -5.1027373    1.0156401      8192000 
  976000   0.67667245   -5.1021746   -5.1021746   -4.0871662  0.016684961   -5.1021746    1.0150084      8192000 
  977000   0.67705296   -5.1024627   -5.1024627   -4.0868835  0.015676632   -5.1024627    1.0155792      8192000 
  978000   0.67716811   -5.1025046   -5.1025046   -4.0867527  0.016183319   -5.1025046    1.0157519      8192000 
  979000   0.67743999   -5.1032209   -5.1032209   -4.0870612  0.014687544   -5.1032209    1.0161597      8192000 
  980000   0.67724921   -5.1030151   -5.1030151   -4.0871416  0.016493908   -5.1030151    1.0158736      8192000 
  981000   0.67736286   -5.1032273   -5.1032273   -4.0871832  0.017339996   -5.1032273     1.016044      8192000 
  982000   0.67735848   -5.1033809   -5.1033809   -4.0873434  0.018095938   -5.1033809    1.0160375      8192000 
  983000   0.67769259   -5.1037083   -5.1037083   -4.0871697  0.019273903   -5.1037083    1.0165386      8192000 
  984000   0.67784856   -5.1040587   -5.1040587   -4.0872861  0.019719137   -5.1040587    1.0167726      8192000 
  985000   0.67739365   -5.1034535   -5.1034535   -4.0873633  0.022949078   -5.1034535    1.0160902      8192000 
  986000    0.6779776   -5.1045569   -5.1045569   -4.0875908  0.020757656   -5.1045569    1.0169661      8192000 
  987000   0.67799076    -5.104592    -5.104592   -4.0876061   0.02142415    -5.104592    1.0169859      8192000 
  988000   0.67765023   -5.1043137   -5.1043137   -4.0878386    0.0234187   -5.1043137    1.0164751      8192000 
  989000   0.67801558   -5.1049883   -5.1049883   -4.0879651  0.022303981   -5.1049883    1.0170231      8192000 
  990000   0.67766386   -5.1044696   -5.1044696    -4.087974  0.023135318   -5.1044696    1.0164955      8192000 
  991000   0.67777538   -5.1047794   -5.1047794   -4.0881166  0.023011791   -5.1047794    1.0166628      8192000 
  992000   0.67764296   -5.1047513   -5.1047513   -4.0882871  0.022683589   -5.1047513    1.0164642      8192000 
  993000   0.67773071   -5.1048907   -5.1048907   -4.0882949  0.022835611   -5.1048907    1.0165958      8192000 
  994000   0.67754148   -5.1046276   -5.1046276   -4.0883156  0.022432014   -5.1046276     1.016312      8192000 
  995000   0.67728365   -5.1040494   -5.1040494   -4.0881242    0.0227724   -5.1040494    1.0159252      8192000 
  996000   0.67726814   -5.1044273   -5.1044273   -4.0885253   0.01905717   -5.1044273     1.015902      8192000 
  997000   0.67702283   -5.1037598   -5.1037598   -4.0882258  0.019573865   -5.1037598     1.015534      8192000 
  998000     0.677031   -5.1036452   -5.1036452   -4.0880989   0.01894993   -5.1036452    1.0155462      8192000 
  999000   0.67706277   -5.1038486   -5.1038486   -4.0882547  0.018050243   -5.1038486    1.0155939      8192000 
 1000000   0.67718578   -5.1038638   -5.1038638   -4.0880854  0.017451117   -5.1038638    1.0157784      8192000 
Loop time of 25110.2 on 144 procs for 1000000 steps with 3993600 atoms

Performance: 17204.144 tau/day, 39.824 timesteps/s
99.5% CPU use with 144 MPI tasks x 1 OpenMP threads

MPI task timing breakdown:
Section |  min time  |  avg time  |  max time  |%varavg|  %CPU | %total
-----------------------------------------------------------------------
Pair    | 8692.7     | 11526      | 14449      | 990.0 |  99.5 | 45.90
Bond    | 0.8227     | 0.93712    | 1.0468     |   3.8 | 100.0 |  0.00
Neigh   | 3615.6     | 4662.6     | 5812       | 514.9 |  99.5 | 18.57
Comm    | 3758.2     | 7651.9     | 11390      |1702.9 |  99.4 | 30.47
Output  | 50.65      | 51.103     | 51.11      |   0.5 |  98.0 |  0.20
Modify  | 465.43     | 678.89     | 1724.8     |1396.5 |  99.2 |  2.70
Other   |            | 538.9      |            |       |       |  2.15

Nlocal:        27733.3 ave       28402 max       25188 min
Histogram: 1 1 1 5 4 17 6 6 50 53
Nghost:        17457.0 ave       19888 max       12594 min
Histogram: 16 1 15 0 0 0 0 61 32 19
Neighs:    1.10965e+06 ave 1.29582e+06 max      789828 min
Histogram: 7 8 1 0 0 33 47 16 18 14

Total # of neighbors = 1.5979005e+08
Ave neighs/atom = 40.011531
Ave special neighs/atom = 0.0000000
Neighbor list builds = 100000
Dangerous builds = 98998

write_restart	restart.005
System init for write_restart ...
write_data 	data.lj
System init for write_data ...
WARNING: Not all mixed pair coeffs generated from mixing. Use write_data with 'pair ij' option to store all pair coeffs. (src/write_data.cpp:312)
Total wall time: 6:58:39
