LAMMPS (29 Oct 2020)
  using 1 OpenMP thread(s) per MPI task
# Simple rigid body system
# needed variables: startTemp, temp

units		lj
atom_style	full
dimension 	3
boundary	p p f
pair_style	lj/cut/opt 2.5


variable 	sigma		equal 1.0
variable 	epsilon 	equal 1.0


region		box block 0 160 0 160 0 160
create_box 	3 box
Created orthogonal box = (0.0000000 0.0000000 0.0000000) to (160.00000 160.00000 160.00000)
  4 by 4 by 8 MPI processor grid
lattice 	sc 1.0
Lattice spacing in x,y,z = 1.0000000 1.0000000 1.0000000

create_atoms 	1 region box
Created 4096000 atoms
  create_atoms CPU = 0.091 seconds

mass		1 1.0
mass		2 1.0
mass		3 1.0


group		solvent type 1
4096000 atoms in group solvent


velocity 	solvent create ${startTemp} 563435 loop geom
velocity 	solvent create 0.5 563435 loop geom

read_data	data.vac add append
Reading data file ...
  orthogonal box = (0.0000000 0.0000000 0.0000000) to (160.00000 160.00000 320.00000)
  4 by 4 by 8 MPI processor grid
Finding 1-2 1-3 1-4 neighbors ...
  special bond factors lj:    0.0      0.0      0.0     
  special bond factors coul:  0.0      0.0      0.0     
     0 = max # of 1-2 neighbors
     0 = max # of 1-3 neighbors
     0 = max # of 1-4 neighbors
     1 = max # of special neighbors
  special bonds CPU = 3.616 seconds
  read_data CPU = 3.668 seconds

neighbor 	0.4 bin

pair_coeff	1 1 1.0 1.0
pair_coeff	2 2 0.0 0.0
pair_coeff	3 3 0.0 0.0
pair_coeff	2 3 0.0 0.0
pair_coeff	1 2*3 0.0 0.0

pair_modify 	shift yes


balance 	1.05 shift z 10 1.05
Balancing ...
Neighbor list info ...
  update every 1 steps, delay 10 steps, check yes
  max neighbors/atom: 2000, page size: 100000
  master list distance cutoff = 2.9
  ghost atom cutoff = 2.9
  binsize = 1.45, bins = 111 111 221
  1 neighbor lists, perpetual/occasional/extra = 1 0 0
  (1) pair lj/cut/opt, perpetual
      attributes: half, newton on
      pair build: half/bin/newton
      stencil: half/bin/3d/newton
      bin: standard
 rebalancing time: 0.063 seconds
  iteration count = 5
  initial/final maximal load/proc = 64000.000 40000.000
  initial/final imbalance factor  = 2.0000000 1.2500000
  x cuts: 0.0000000 0.25 0.5 0.75 1.0000000
  y cuts: 0.0000000 0.25 0.5 0.75 1.0000000
  z cuts: 0.0000000 0.0625 0.12890625 0.1875 0.2578125 0.30859375 0.38671875 0.4375 1.0000000


####################### WALLS ###########################


region	       low block  EDGE EDGE EDGE EDGE 0 2

region 	       top block  EDGE EDGE EDGE EDGE 159 160


delete_atoms   region low
WARNING: Ignoring 'compress yes' for molecular system (src/delete_atoms.cpp:125)
Deleted 76800 atoms, new total = 4019200

delete_atoms   region top
WARNING: Ignoring 'compress yes' for molecular system (src/delete_atoms.cpp:125)
Deleted 25600 atoms, new total = 3993600


variable       epsilonWall equal 2*${epsilon}
variable       epsilonWall equal 2*1

variable       cutoffTop   equal   0.7147*${sigma}
variable       cutoffTop   equal   0.7147*1

variable       cutoffLow   equal   3*${sigma}
variable       cutoffLow   equal   3*1


fix            topWall all wall/lj93 zhi EDGE                ${epsilonWall} ${sigma} ${cutoffTop} units box
fix            topWall all wall/lj93 zhi EDGE                2 ${sigma} ${cutoffTop} units box
fix            topWall all wall/lj93 zhi EDGE                2 1 ${cutoffTop} units box
fix            topWall all wall/lj93 zhi EDGE                2 1 0.7147 units box

fix            lowWall all wall/lj93 zlo EDGE                ${epsilonWall} ${sigma} ${cutoffLow} units box
fix            lowWall all wall/lj93 zlo EDGE                2 ${sigma} ${cutoffLow} units box
fix            lowWall all wall/lj93 zlo EDGE                2 1 ${cutoffLow} units box
fix            lowWall all wall/lj93 zlo EDGE                2 1 3 units box


###################### COMPUTES ##########################

compute        bin1 solvent chunk/atom bin/1d z upper 1.0



######################	FIXES ############################


fix 		peclet solvent ave/chunk 1000 1 1000 bin1 density/number norm 		 none ave one file density.profile

fix 		2 solvent nve

## Thermostat


region		regthermo block EDGE EDGE EDGE EDGE 0 20

group 		thermo dynamic solvent region regthermo every 1000
dynamic group thermo defined

fix 		3 thermo langevin ${startTemp} ${temp} 10 156453
fix 		3 thermo langevin 0.5 ${temp} 10 156453
fix 		3 thermo langevin 0.5 .6 10 156453



#### Load balancing


fix 		bal all balance 1000 1.05 shift z 10 1.05


############### Diagnostics and computes ###################
#compute 	com cube	  rigid/local	1 mol x y z
#compute 	quat cube	  rigid/local	1 mol quatw quati quatj quatk

thermo 		1000
thermo_style 	custom step temp epair evdwl etotal press pe ke vol

dump		1 all custom 100000 dump.lammpstrj id mol type x y z
dump 		2 all image 10000 image.*.png type type
dump 		3 all movie 1000 movie.avi type type
#dump 		com cube local 1000 dump.*.xyz c_com[*]
#dump		quat cube      local 1000 dump.*.quat c_quat[*]


restart 	500000 restart.dat
timestep 	0.0025
timer 		full
New timer settings: style=full  mode=nosync  timeout=off


run		1000000
Setting up Verlet run ...
  Unit style    : lj
  Current step  : 0
  Time step     : 0.0025
Per MPI rank memory allocation (min/avg/max) = 31.86 | 38.71 | 41.48 Mbytes
Step Temp E_pair E_vdwl TotEng Press PotEng KinEng Volume 
       0   0.49997217   -3.3137429   -3.3137429   -2.5637849    8.4475947   -3.3137429   0.74995807      8192000 
    1000     1.421783   -4.7583992   -4.7583992   -2.6257253    4.8151363   -4.7583992     2.132674      8192000 
    2000    1.4172716   -4.8207702   -4.8207702   -2.6948632    4.0890007   -4.8207702    2.1259069      8192000 
    3000    1.4135327    -4.881775    -4.881775   -2.7614766    3.3777838    -4.881775    2.1202984      8192000 
    4000    1.3813222   -4.8926961   -4.8926961   -2.8207134    2.8241553   -4.8926961    2.0719828      8192000 
    5000    1.3438707   -4.8891037   -4.8891037   -2.8732982    2.3522101   -4.8891037    2.0158055      8192000 
    6000    1.3244923   -4.9047252   -4.9047252   -2.9179873    1.8420293   -4.9047252    1.9867379      8192000 
    7000     1.316652   -4.9263188   -4.9263188   -2.9513414     1.302811   -4.9263188    1.9749775      8192000 
    8000    1.3036288   -4.9272467   -4.9272467    -2.971804   0.81387407   -4.9272467    1.9554428      8192000 
    9000    1.2763032   -4.8963417   -4.8963417   -2.9818874   0.42613513   -4.8963417    1.9144543      8192000 
   10000    1.2393292   -4.8442262   -4.8442262   -2.9852329    0.1370095   -4.8442262    1.8589933      8192000 
   11000    1.1998036   -4.7842087   -4.7842087   -2.9845038 -0.063190394   -4.7842087    1.7997049      8192000 
   12000    1.1626903   -4.7252082   -4.7252082   -2.9811732  -0.18298187   -4.7252082     1.744035      8192000 
   13000    1.1383557   -4.6839077   -4.6839077   -2.9763746  -0.21670948   -4.6839077    1.7075331      8192000 
   14000    1.1353478   -4.6744042   -4.6744042   -2.9713829  -0.15979527   -4.6744042    1.7030213      8192000 
   15000    1.1431013   -4.6815415   -4.6815415   -2.9668901 -0.069057881   -4.6815415    1.7146515      8192000 
   16000    1.1511766   -4.6909844   -4.6909844   -2.9642198  0.010761602   -4.6909844    1.7267645      8192000 
   17000    1.1581401   -4.7010143   -4.7010143   -2.9638046  0.067311282   -4.7010143    1.7372097      8192000 
   18000    1.1617657   -4.7082654   -4.7082654   -2.9656174   0.10115646   -4.7082654     1.742648      8192000 
   19000      1.16357   -4.7141035   -4.7141035   -2.9687489   0.12653038   -4.7141035    1.7453546      8192000 
   20000    1.1631854   -4.7175348   -4.7175348   -2.9727572   0.14019944   -4.7175348    1.7447776      8192000 
   21000    1.1619163   -4.7196122   -4.7196122   -2.9767382   0.14757644   -4.7196122    1.7428741      8192000 
   22000      1.15971   -4.7198454   -4.7198454   -2.9802809   0.14375741   -4.7198454    1.7395646      8192000 
   23000    1.1589526   -4.7215786   -4.7215786   -2.9831502   0.14104386   -4.7215786    1.7384284      8192000 
   24000    1.1596215   -4.7245869   -4.7245869   -2.9851551   0.14383572   -4.7245869    1.7394317      8192000 
   25000    1.1616684   -4.7294242   -4.7294242   -2.9869221   0.15828874   -4.7294242    1.7425021      8192000 
   26000    1.1641963   -4.7348907   -4.7348907   -2.9885967   0.18119509   -4.7348907     1.746294      8192000 
   27000    1.1666911   -4.7403452   -4.7403452    -2.990309    0.2014147   -4.7403452    1.7500362      8192000 
   28000    1.1681909   -4.7444197   -4.7444197   -2.9921338   0.21332201   -4.7444197     1.752286      8192000 
   29000    1.1673286   -4.7452536   -4.7452536   -2.9942611    0.2140768   -4.7452536    1.7509925      8192000 
   30000    1.1662765   -4.7457114   -4.7457114   -2.9962971   0.20878113   -4.7457114    1.7494143      8192000 
   31000    1.1637289   -4.7436355   -4.7436355   -2.9980425   0.20200471   -4.7436355     1.745593      8192000 
   32000    1.1619282   -4.7425761   -4.7425761   -2.9996843    0.1948216   -4.7425761    1.7428918      8192000 
   33000    1.1607066   -4.7424171   -4.7424171   -3.0013577   0.19024432   -4.7424171    1.7410594      8192000 
   34000    1.1601249   -4.7429683   -4.7429683   -3.0027814   0.18947491   -4.7429683    1.7401869      8192000 
   35000    1.1604732   -4.7449167   -4.7449167   -3.0042073   0.19471222   -4.7449167    1.7407094      8192000 
   36000    1.1606852   -4.7467878   -4.7467878   -3.0057604   0.20121466   -4.7467878    1.7410273      8192000 
   37000    1.1619926   -4.7502553   -4.7502553   -3.0072668   0.20845284   -4.7502553    1.7429885      8192000 
   38000    1.1623674   -4.7523943   -4.7523943   -3.0088436   0.21507728   -4.7523943    1.7435507      8192000 
   39000     1.162357   -4.7540757   -4.7540757   -3.0105407   0.22090282   -4.7540757     1.743535      8192000 
   40000     1.162529   -4.7560445   -4.7560445   -3.0122514   0.22454917   -4.7560445    1.7437931      8192000 
   41000    1.1626509   -4.7578312   -4.7578312   -3.0138553    0.2265635   -4.7578312    1.7439759      8192000 
   42000    1.1622173    -4.758666    -4.758666   -3.0153406   0.22856678    -4.758666    1.7433255      8192000 
   43000    1.1626326   -4.7609798   -4.7609798   -3.0170313   0.24000919   -4.7609798    1.7439485      8192000 
   44000     1.164931   -4.7666545   -4.7666545   -3.0192585   0.42503276   -4.7666545     1.747396      8192000 
   45000    1.1659914   -4.7697395   -4.7697395   -3.0207529   0.77265922   -4.7697395    1.7489866      8192000 
   46000    1.1661735   -4.7714342   -4.7714342   -3.0221745    1.1287012   -4.7714342    1.7492598      8192000 
   47000    1.1654901    -4.771934    -4.771934   -3.0236993    1.4695103    -4.771934    1.7482347      8192000 
   48000    1.1645412    -4.771995    -4.771995   -3.0251836    1.8181067    -4.771995    1.7468113      8192000 
   49000    1.1650436   -4.7739999   -4.7739999    -3.026435    2.1811135   -4.7739999     1.747565      8192000 
   50000    1.1669358   -4.7783425   -4.7783425   -3.0279392    2.4784215   -4.7783425    1.7504033      8192000 
   51000    1.1706436   -4.7854822   -4.7854822   -3.0295172     2.385844   -4.7854822     1.755965      8192000 
   52000    1.1703703   -4.7863482   -4.7863482   -3.0307932    2.0963536   -4.7863482     1.755555      8192000 
   53000    1.1691458   -4.7858435   -4.7858435   -3.0321253    1.8290768   -4.7858435    1.7537182      8192000 
   54000    1.1669019   -4.7839205   -4.7839205   -3.0335681    1.5546163   -4.7839205    1.7503524      8192000 
   55000     1.163086   -4.7795985   -4.7795985     -3.03497    1.2987765   -4.7795985    1.7446285      8192000 
   56000    1.1543067   -4.7673218   -4.7673218   -3.0358622     1.063503   -4.7673218    1.7314597      8192000 
   57000    1.1368977   -4.7426615   -4.7426615   -3.0373153   0.88165265   -4.7426615    1.7053461      8192000 
   58000    1.1118345   -4.7066192   -4.7066192   -3.0388678   0.73326865   -4.7066192    1.6677514      8192000 
   59000    1.0868561   -4.6707672   -4.6707672   -3.0404834   0.59652967   -4.6707672    1.6302838      8192000 
   60000    1.0634653   -4.6372986   -4.6372986   -3.0421011   0.48023025   -4.6372986    1.5951976      8192000 
   61000    1.0416675   -4.6064592   -4.6064592   -3.0439584   0.37370668   -4.6064592    1.5625009      8192000 
   62000    1.0191556   -4.5742302   -4.5742302   -3.0454971   0.27423376   -4.5742302    1.5287331      8192000 
   63000   0.99750665   -4.5432628   -4.5432628   -3.0470032    0.1858391   -4.5432628    1.4962596      8192000 
   64000   0.97570705    -4.512365    -4.512365   -3.0488048   0.11542607    -4.512365    1.4635602      8192000 
   65000   0.95512259   -4.4832268   -4.4832268   -3.0505433   0.05197188   -4.4832268    1.4326835      8192000 
   66000   0.93609486   -4.4562311   -4.4562311   -3.0520892 0.0086817128   -4.4562311    1.4041419      8192000 
   67000   0.91970889   -4.4333316   -4.4333316   -3.0537686  -0.02056788   -4.4333316     1.379563      8192000 
   68000    0.9068531   -4.4158288   -4.4158288   -3.0555495 -0.043038665   -4.4158288    1.3602793      8192000 
   69000   0.89764566   -4.4037832   -4.4037832    -3.057315 -0.053214869   -4.4037832    1.3464682      8192000 
   70000   0.89196434   -4.3971162   -4.3971162     -3.05917 -0.053046973   -4.3971162    1.3379462      8192000 
   71000   0.88966259   -4.3956452   -4.3956452   -3.0611516 -0.049737992   -4.3956452    1.3344936      8192000 
   72000    0.8886647   -4.3959769   -4.3959769   -3.0629802 -0.036412808   -4.3959769    1.3329967      8192000 
   73000   0.88957358   -4.3994066   -4.3994066   -3.0650466 -0.019781824   -4.3994066      1.33436      8192000 
   74000   0.89142127    -4.404386    -4.404386   -3.0672544 -0.0031688765    -4.404386    1.3371316      8192000 
   75000   0.89382287   -4.4100141   -4.4100141   -3.0692802  0.014735338   -4.4100141     1.340734      8192000 
   76000   0.89577881   -4.4151334   -4.4151334   -3.0714655  0.030146382   -4.4151334    1.3436679      8192000 
   77000   0.89883303   -4.4219409   -4.4219409   -3.0736917  0.050166716   -4.4219409    1.3482492      8192000 
   78000   0.90128321    -4.427959    -4.427959   -3.0760345  0.072470599    -4.427959    1.3519245      8192000 
   79000   0.90412512   -4.4346294   -4.4346294    -3.078442  0.095051679   -4.4346294    1.3561873      8192000 
   80000   0.90639548   -4.4406594   -4.4406594   -3.0810665   0.11312561   -4.4406594    1.3595929      8192000 
   81000   0.90824252   -4.4460573   -4.4460573   -3.0836939   0.13055621   -4.4460573    1.3623634      8192000 
   82000   0.91004932   -4.4513975   -4.4513975   -3.0863238   0.14402943   -4.4513975    1.3650736      8192000 
   83000   0.91059615   -4.4546728   -4.4546728   -3.0887789   0.15348512   -4.4546728    1.3658939      8192000 
   84000   0.90920392   -4.4552558   -4.4552558   -3.0914502   0.15489842   -4.4552558    1.3638055      8192000 
   85000   0.90701686   -4.4547121   -4.4547121   -3.0941871   0.15022408   -4.4547121     1.360525      8192000 
   86000   0.90362696   -4.4523814   -4.4523814   -3.0969413   0.13713197   -4.4523814    1.3554401      8192000 
   87000   0.89971398   -4.4492817   -4.4492817    -3.099711   0.12216165   -4.4492817    1.3495706      8192000 
   88000   0.89546866   -4.4455961   -4.4455961   -3.1023935   0.10973887   -4.4455961    1.3432026      8192000 
   89000   0.89214713   -4.4433251   -4.4433251   -3.1051047  0.095677009   -4.4433251    1.3382204      8192000 
   90000   0.88847139   -4.4406722   -4.4406722   -3.1079654  0.086573082   -4.4406722    1.3327067      8192000 
   91000   0.88525622   -4.4386363   -4.4386363   -3.1107523  0.077694955   -4.4386363     1.327884      8192000 
   92000   0.88302585   -4.4383115   -4.4383115   -3.1137731   0.07274632   -4.4383115    1.3245384      8192000 
   93000   0.88132746   -4.4385116   -4.4385116   -3.1165208  0.065505329   -4.4385116    1.3219909      8192000 
   94000   0.88022249   -4.4396347   -4.4396347   -3.1193013  0.065378085   -4.4396347    1.3203334      8192000 
   95000   0.87889072   -4.4405033   -4.4405033   -3.1221675  0.065495747   -4.4405033    1.3183357      8192000 
   96000   0.87779806   -4.4416594   -4.4416594   -3.1249627  0.065411061   -4.4416594    1.3166968      8192000 
   97000    0.8763737   -4.4424016   -4.4424016   -3.1278413  0.065321784   -4.4424016    1.3145602      8192000 
   98000   0.87575617   -4.4441794   -4.4441794   -3.1305455  0.063367377   -4.4441794    1.3136339      8192000 
   99000   0.87496774   -4.4458096   -4.4458096   -3.1333583  0.064455602   -4.4458096    1.3124513      8192000 
  100000   0.87381128   -4.4470281   -4.4470281   -3.1363115  0.064005708   -4.4470281    1.3107166      8192000 
  101000   0.87374616   -4.4498233   -4.4498233   -3.1392044  0.064465466   -4.4498233    1.3106189      8192000 
  102000   0.87385057   -4.4527883   -4.4527883   -3.1420128  0.069000113   -4.4527883    1.3107755      8192000 
  103000   0.87410349   -4.4558039   -4.4558039    -3.144649  0.072878721   -4.4558039    1.3111549      8192000 
  104000   0.87389276   -4.4583033   -4.4583033   -3.1474645  0.073901217   -4.4583033    1.3108388      8192000 
  105000   0.87398547   -4.4610901   -4.4610901   -3.1501123  0.076418202   -4.4610901    1.3109779      8192000 
  106000   0.87360357   -4.4633442   -4.4633442   -3.1529391  0.077850161   -4.4633442     1.310405      8192000 
  107000   0.87292395   -4.4650823   -4.4650823   -3.1556967  0.079664748   -4.4650823    1.3093856      8192000 
  108000   0.87269689   -4.4673935   -4.4673935   -3.1583484   0.07761027   -4.4673935     1.309045      8192000 
  109000   0.87176535   -4.4686846   -4.4686846   -3.1610369  0.079901625   -4.4686846    1.3076477      8192000 
  110000   0.87059829   -4.4695612   -4.4695612   -3.1636641  0.079745995   -4.4695612    1.3058971      8192000 
  111000   0.87042025   -4.4719269   -4.4719269   -3.1662969  0.076344629   -4.4719269    1.3056301      8192000 
  112000   0.86958179   -4.4731873   -4.4731873   -3.1688149  0.077969501   -4.4731873    1.3043724      8192000 
  113000   0.86910869   -4.4750419   -4.4750419   -3.1713792  0.075536261   -4.4750419    1.3036627      8192000 
  114000    0.8686332   -4.4770487   -4.4770487   -3.1740992  0.074030018   -4.4770487    1.3029495      8192000 
  115000   0.86832868   -4.4790947   -4.4790947    -3.176602  0.072805589   -4.4790947    1.3024927      8192000 
  116000   0.86732679   -4.4800045   -4.4800045   -3.1790146  0.072632127   -4.4800045    1.3009899      8192000 
  117000   0.86658965   -4.4813619   -4.4813619   -3.1814778  0.072075176   -4.4813619    1.2998841      8192000 
  118000   0.86598797   -4.4830575   -4.4830575   -3.1840758  0.068865278   -4.4830575    1.2989816      8192000 
  119000   0.86540213   -4.4847411   -4.4847411   -3.1866382  0.068390569   -4.4847411    1.2981029      8192000 
  120000     0.865202   -4.4868231   -4.4868231   -3.1890204  0.069053057   -4.4868231    1.2978027      8192000 
  121000   0.86512563   -4.4892795   -4.4892795   -3.1915914  0.069043877   -4.4892795    1.2976881      8192000 
  122000   0.86516368   -4.4917738   -4.4917738   -3.1940287  0.074804662   -4.4917738    1.2977452      8192000 
  123000   0.86574714   -4.4950549   -4.4950549   -3.1964345  0.078237767   -4.4950549    1.2986204      8192000 
  124000   0.86633464   -4.4984902   -4.4984902   -3.1989886  0.081314493   -4.4984902    1.2995016      8192000 
  125000   0.86697688   -4.5019161   -4.5019161   -3.2014512  0.085445002   -4.5019161     1.300465      8192000 
  126000   0.86735502   -4.5048528   -4.5048528   -3.2038206  0.089311158   -4.5048528    1.3010322      8192000 
  127000   0.86892539   -4.5095489   -4.5095489   -3.2061611  0.091746763   -4.5095489    1.3033878      8192000 
  128000   0.86969802   -4.5129833   -4.5129833   -3.2084366  0.099502889   -4.5129833    1.3045467      8192000 
  129000   0.87118068     -4.51755     -4.51755   -3.2107793     0.103632     -4.51755    1.3067707      8192000 
  130000    0.8723481   -4.5217983   -4.5217983   -3.2132765     0.113847   -4.5217983    1.3085218      8192000 
  131000   0.87408093   -4.5268013   -4.5268013   -3.2156802   0.12391703   -4.5268013    1.3111211      8192000 
  132000   0.87584903   -4.5320927   -4.5320927   -3.2183195   0.13315766   -4.5320927    1.3137732      8192000 
  133000   0.87792858   -4.5378863   -4.5378863   -3.2209938   0.14342215   -4.5378863    1.3168925      8192000 
  134000   0.88014277   -4.5439368   -4.5439368    -3.223723   0.15401361   -4.5439368    1.3202138      8192000 
  135000   0.88199834   -4.5495056   -4.5495056   -3.2265084   0.16582442   -4.5495056    1.3229972      8192000 
  136000    0.8845255   -4.5562028   -4.5562028   -3.2294149   0.17700839   -4.5562028    1.3267879      8192000 
  137000   0.88698658   -4.5626473   -4.5626473   -3.2321677   0.19406751   -4.5626473    1.3304795      8192000 
  138000   0.89018195   -4.5703326   -4.5703326     -3.23506   0.21252893   -4.5703326    1.3352726      8192000 
  139000   0.89373239   -4.5786384   -4.5786384   -3.2380402    0.2361753   -4.5786384    1.3405983      8192000 
  140000   0.89838172   -4.5888675   -4.5888675   -3.2412953   0.26158307   -4.5888675    1.3475722      8192000 
  141000   0.90308311   -4.5992982   -4.5992982   -3.2446739   0.29366794   -4.5992982    1.3546243      8192000 
  142000   0.90835767   -4.6106539   -4.6106539   -3.2481178   0.33069395   -4.6106539    1.3625362      8192000 
  143000   0.91380468   -4.6222454   -4.6222454   -3.2515387   0.37219386   -4.6222454    1.3707067      8192000 
  144000   0.91941477   -4.6342351   -4.6342351   -3.2551133   0.41691711   -4.6342351    1.3791218      8192000 
  145000   0.92465013   -4.6459586   -4.6459586   -3.2589837   0.46483874   -4.6459586    1.3869749      8192000 
  146000   0.92990082   -4.6578944   -4.6578944   -3.2630436    0.5123422   -4.6578944    1.3948509      8192000 
  147000   0.93411537   -4.6685962   -4.6685962   -3.2674234   0.55971215   -4.6685962    1.4011727      8192000 
  148000   0.93796295   -4.6788677   -4.6788677   -3.2719236    0.6030199   -4.6788677    1.4069441      8192000 
  149000   0.94050024   -4.6874769   -4.6874769   -3.2767269   0.63762657   -4.6874769      1.41075      8192000 
  150000   0.94216688   -4.6946623   -4.6946623   -3.2814123   0.66169011   -4.6946623      1.41325      8192000 
  151000   0.94315969   -4.7007639   -4.7007639   -3.2860248   0.67059854   -4.7007639    1.4147392      8192000 
  152000   0.94157021   -4.7029273   -4.7029273   -3.2905724   0.67203107   -4.7029273     1.412355      8192000 
  153000   0.93984395   -4.7046324   -4.7046324   -3.2948668    0.6597277   -4.7046324    1.4097656      8192000 
  154000   0.93608953   -4.7032998   -4.7032998   -3.2991659    0.6470908   -4.7032998    1.4041339      8192000 
  155000   0.93209465    -4.701234    -4.701234   -3.3030924   0.63101125    -4.701234    1.3981416      8192000 
  156000   0.92847165   -4.6997835   -4.6997835   -3.3070764   0.60855439   -4.6997835    1.3927071      8192000 
  157000   0.92374494   -4.6967081   -4.6967081   -3.3110911   0.58531597   -4.6967081    1.3856171      8192000 
  158000    0.9185625   -4.6929573   -4.6929573   -3.3151139   0.55852446   -4.6929573    1.3778434      8192000 
  159000   0.91348709   -4.6891783   -4.6891783   -3.3189481   0.52869922   -4.6891783    1.3702303      8192000 
  160000   0.90785193   -4.6843877   -4.6843877   -3.3226102   0.49564069   -4.6843877    1.3617776      8192000 
  161000   0.90204576   -4.6791492   -4.6791492   -3.3260809   0.45888852   -4.6791492    1.3530683      8192000 
  162000   0.89475786   -4.6716172   -4.6716172   -3.3294807   0.41900276   -4.6716172    1.3421365      8192000 
  163000    0.8872373   -4.6634899   -4.6634899   -3.3326343   0.37421567   -4.6634899    1.3308556      8192000 
  164000   0.87914041   -4.6540376   -4.6540376   -3.3353273   0.32715928   -4.6540376    1.3187103      8192000 
  165000   0.87037886   -4.6435503   -4.6435503   -3.3379824   0.27834869   -4.6435503     1.305568      8192000 
  166000    0.8620573   -4.6330259   -4.6330259   -3.3399402   0.23071416   -4.6330259    1.2930856      8192000 
  167000   0.85290736   -4.6209828   -4.6209828    -3.341622   0.18510096   -4.6209828    1.2793607      8192000 
  168000   0.84460156   -4.6099883   -4.6099883   -3.3430862   0.14178065   -4.6099883     1.266902      8192000 
  169000   0.83559244   -4.5976154   -4.5976154   -3.3442271   0.10454431   -4.5976154    1.2533883      8192000 
  170000   0.82714728   -4.5863044   -4.5863044   -3.3455838  0.068385445   -4.5863044    1.2407206      8192000 
  171000   0.81842888   -4.5744855   -4.5744855   -3.3468425  0.034959896   -4.5744855     1.227643      8192000 
  172000   0.81013676   -4.5629916   -4.5629916   -3.3477868 0.0069581225   -4.5629916    1.2152048      8192000 
  173000   0.80247025   -4.5524691   -4.5524691   -3.3487641 -0.017989309   -4.5524691    1.2037051      8192000 
  174000   0.79487829   -4.5420938   -4.5420938   -3.3497767 -0.038538811   -4.5420938    1.1923171      8192000 
  175000   0.78844508   -4.5334523   -4.5334523    -3.350785 -0.056730741   -4.5334523    1.1826673      8192000 
  176000   0.78216151   -4.5251077   -4.5251077   -3.3518657 -0.071202621   -4.5251077     1.173242      8192000 
  177000   0.77765045   -4.5194649   -4.5194649   -3.3529895 -0.085985319   -4.5194649    1.1664754      8192000 
  178000   0.77371954   -4.5145966   -4.5145966   -3.3540176 -0.094013281   -4.5145966     1.160579      8192000 
  179000   0.77190561    -4.512661    -4.512661   -3.3548028  -0.10021478    -4.512661    1.1578581      8192000 
  180000   0.77036573   -4.5113047   -4.5113047   -3.3557564 -0.099476244   -4.5113047    1.1555483      8192000 
  181000   0.77066513   -4.5127257   -4.5127257   -3.3567283 -0.096129316   -4.5127257    1.1559974      8192000 
  182000   0.77216492   -4.5159885   -4.5159885   -3.3577414 -0.088369418   -4.5159885    1.1582471      8192000 
  183000   0.77500149   -4.5213431   -4.5213431   -3.3588411  -0.07864362   -4.5213431    1.1625019      8192000 
  184000   0.77813926   -4.5274268   -4.5274268   -3.3602182 -0.061602447   -4.5274268    1.1672086      8192000 
  185000   0.78228762   -4.5347356   -4.5347356   -3.3613044 -0.044685205   -4.5347356    1.1734311      8192000 
  186000   0.78631302   -4.5421558   -4.5421558   -3.3626866 -0.023626042   -4.5421558    1.1794692      8192000 
  187000   0.79087792   -4.5504423   -4.5504423   -3.3641257 -0.0055783408   -4.5504423    1.1863166      8192000 
  188000   0.79520917   -4.5583598   -4.5583598   -3.3655463  0.011452806   -4.5583598    1.1928135      8192000 
  189000   0.79829656   -4.5645703   -4.5645703   -3.3671258  0.029834045   -4.5645703    1.1974445      8192000 
  190000   0.80130383   -4.5703433   -4.5703433   -3.3683878  0.044739994   -4.5703433    1.2019555      8192000 
  191000    0.8036289   -4.5752834   -4.5752834   -3.3698404  0.053985173   -4.5752834     1.205443      8192000 
  192000   0.80516267   -4.5786749   -4.5786749   -3.3709312  0.060947224   -4.5786749    1.2077437      8192000 
  193000   0.80590926   -4.5810607   -4.5810607   -3.3721972  0.064680427   -4.5810607    1.2088636      8192000 
  194000   0.80553126   -4.5815338   -4.5815338   -3.3732372  0.062232512   -4.5815338    1.2082966      8192000 
  195000   0.80427211   -4.5808776   -4.5808776   -3.3744697  0.058337759   -4.5808776    1.2064079      8192000 
  196000   0.80239038   -4.5793105   -4.5793105   -3.3757252  0.051621763   -4.5793105    1.2035853      8192000 
  197000   0.79972121   -4.5764438   -4.5764438   -3.3768623  0.041333128   -4.5764438    1.1995815      8192000 
  198000   0.79672058   -4.5733959   -4.5733959   -3.3783154  0.029656729   -4.5733959    1.1950806      8192000 
  199000   0.79380628   -4.5704084   -4.5704084   -3.3796993  0.015909536   -4.5704084    1.1907091      8192000 
  200000   0.79072298     -4.56715     -4.56715   -3.3810659 0.0017858915     -4.56715    1.1860842      8192000 
  201000   0.78730945   -4.5632221   -4.5632221   -3.3822582 -0.0063065727   -4.5632221    1.1809639      8192000 
  202000   0.78439654   -4.5602503   -4.5602503   -3.3836558 -0.017195684   -4.5602503    1.1765945      8192000 
  203000     0.781835   -4.5577703   -4.5577703   -3.3850181 -0.024661036   -4.5577703    1.1727522      8192000 
  204000   0.78058479   -4.5573681   -4.5573681   -3.3864912 -0.030609835   -4.5573681    1.1708769      8192000 
  205000   0.77980619   -4.5573087   -4.5573087   -3.3875997 -0.032322476   -4.5573087     1.169709      8192000 
  206000   0.77952285   -4.5582745   -4.5582745   -3.3889905 -0.030749041   -4.5582745     1.169284      8192000 
  207000   0.78085428   -4.5613621   -4.5613621    -3.390081 -0.027021545   -4.5613621    1.1712811      8192000 
  208000   0.78283004   -4.5658398   -4.5658398    -3.391595 -0.019668059   -4.5658398    1.1742448      8192000 
  209000   0.78450255   -4.5695708   -4.5695708   -3.3928173 -0.0077506668   -4.5695708    1.1767535      8192000 
  210000   0.78733055   -4.5750284   -4.5750284   -3.3940329 0.0048739559   -4.5750284    1.1809955      8192000 
  211000   0.79009525   -4.5802952   -4.5802952   -3.3951526  0.017921856   -4.5802952    1.1851426      8192000 
  212000   0.79248955   -4.5852232   -4.5852232   -3.3964892  0.032529571   -4.5852232     1.188734      8192000 
  213000   0.79540969   -4.5907296   -4.5907296   -3.3976154  0.042204439   -4.5907296    1.1931142      8192000 
  214000   0.79707694   -4.5943249   -4.5943249   -3.3987098  0.051616547   -4.5943249    1.1956151      8192000 
  215000   0.79750873    -4.596211    -4.596211   -3.3999482  0.057918585    -4.596211    1.1962628      8192000 
  216000   0.79737622   -4.5970874   -4.5970874   -3.4010234  0.060388233   -4.5970874     1.196064      8192000 
  217000   0.79698249   -4.5977779   -4.5977779   -3.4023044   0.05644575   -4.5977779    1.1954734      8192000 
  218000   0.79521309   -4.5964059   -4.5964059   -3.4035865  0.047851076   -4.5964059    1.1928193      8192000 
  219000    0.7929259   -4.5942002   -4.5942002   -3.4048117  0.036636871   -4.5942002    1.1893885      8192000 
  220000   0.78969528   -4.5904653   -4.5904653   -3.4059227  0.027182074   -4.5904653    1.1845426      8192000 
  221000    0.7873655   -4.5881692   -4.5881692   -3.4071212  0.013670692   -4.5881692     1.181048      8192000 
  222000   0.78417991   -4.5846648   -4.5846648   -3.4083952 0.0026796184   -4.5846648    1.1762696      8192000 
  223000   0.78122431   -4.5813553   -4.5813553   -3.4095191 -0.0064770786   -4.5813553    1.1718362      8192000 
  224000   0.77882866   -4.5790022   -4.5790022   -3.4107595 -0.012624927   -4.5790022    1.1682427      8192000 
  225000   0.77785873   -4.5787269   -4.5787269   -3.4119391 -0.020222573   -4.5787269    1.1667878      8192000 
  226000   0.77709739   -4.5789429   -4.5789429   -3.4132971 -0.022309464   -4.5789429    1.1656458      8192000 
  227000    0.7768592   -4.5797247   -4.5797247   -3.4144361 -0.020136727   -4.5797247    1.1652885      8192000 
  228000   0.77755549   -4.5818514   -4.5818514   -3.4155184 -0.014048716   -4.5818514    1.1663329      8192000 
  229000   0.77969616   -4.5863632   -4.5863632   -3.4168192 -0.0087695577   -4.5863632    1.1695439      8192000 
  230000   0.78078577   -4.5890555   -4.5890555   -3.4178771 0.00021588542   -4.5890555    1.1711784      8192000 
  231000   0.78300665   -4.5936406   -4.5936406   -3.4191309 0.0085627098   -4.5936406    1.1745097      8192000 
  232000   0.78514961   -4.5980573   -4.5980573   -3.4203332  0.016102593   -4.5980573    1.1777241      8192000 
  233000   0.78685934    -4.601643    -4.601643   -3.4213543  0.028900794    -4.601643    1.1802887      8192000 
  234000   0.78822932   -4.6051087   -4.6051087    -3.422765  0.034775612   -4.6051087    1.1823437      8192000 
  235000   0.78902896   -4.6073711   -4.6073711    -3.423828  0.043745423   -4.6073711    1.1835431      8192000 
  236000   0.78981194   -4.6096154   -4.6096154   -3.4248978   0.04632747   -4.6096154    1.1847176      8192000 
  237000   0.78950534   -4.6102501   -4.6102501   -3.4259924  0.046149826   -4.6102501    1.1842577      8192000 
  238000   0.78938526   -4.6113333   -4.6113333   -3.4272557  0.042708386   -4.6113333    1.1840776      8192000 
  239000   0.78798101   -4.6102934   -4.6102934   -3.4283222  0.038730837   -4.6102934    1.1819712      8192000 
  240000    0.7859733   -4.6084721   -4.6084721   -3.4295125  0.032533185   -4.6084721    1.1789597      8192000 
  241000   0.78399938   -4.6067107   -4.6067107   -3.4307119  0.025636827   -4.6067107    1.1759988      8192000 
  242000   0.78233222   -4.6053486   -4.6053486   -3.4318506  0.014793521   -4.6053486     1.173498      8192000 
  243000   0.77999654   -4.6029605   -4.6029605    -3.432966 0.0058602608   -4.6029605    1.1699945      8192000 
  244000   0.77805787   -4.6009075   -4.6009075    -3.433821 -0.00012022001   -4.6009075    1.1670865      8192000 
  245000   0.77670521   -4.5998533   -4.5998533   -3.4347958 -0.003763159   -4.5998533    1.1650575      8192000 
  246000   0.77562804   -4.5992869   -4.5992869   -3.4358451 -0.0088409527   -4.5992869    1.1634418      8192000 
  247000   0.77533794   -4.5998534   -4.5998534   -3.4368468 -0.010194281   -4.5998534    1.1630066      8192000 
  248000   0.77516719   -4.6007096   -4.6007096   -3.4379591 -0.0091168283   -4.6007096    1.1627505      8192000 
  249000   0.77534714   -4.6020761   -4.6020761   -3.4390557 -0.0044410198   -4.6020761    1.1630204      8192000 
  250000   0.77641045   -4.6046958   -4.6046958   -3.4400804 -0.00083305765   -4.6046958    1.1646154      8192000 
  251000   0.77753936    -4.607615    -4.607615   -3.4413062 0.0035061948    -4.607615    1.1663087      8192000 
  252000   0.77912899   -4.6110376   -4.6110376   -3.4423444  0.011305149   -4.6110376    1.1686932      8192000 
  253000   0.78051662   -4.6141811   -4.6141811   -3.4434065  0.020717599   -4.6141811    1.1707746      8192000 
  254000   0.78213798    -4.617654    -4.617654   -3.4444473  0.025043008    -4.617654    1.1732067      8192000 
  255000   0.78259067   -4.6194815   -4.6194815   -3.4455958  0.033884172   -4.6194815    1.1738857      8192000 
  256000   0.78376645    -4.622203    -4.622203   -3.4465536  0.039033663    -4.622203    1.1756494      8192000 
  257000   0.78428502   -4.6240958   -4.6240958   -3.4476686  0.040662679   -4.6240958    1.1764272      8192000 
  258000    0.7841662   -4.6248064   -4.6248064   -3.4485574  0.040949227   -4.6248064     1.176249      8192000 
  259000   0.78340772    -4.624686    -4.624686   -3.4495747  0.036502539    -4.624686    1.1751113      8192000 
  260000   0.78194405    -4.623483    -4.623483   -3.4505672  0.033316022    -4.623483    1.1729158      8192000 
  261000    0.7802521   -4.6218539   -4.6218539    -3.451476   0.02598241   -4.6218539    1.1703779      8192000 
  262000   0.77890127   -4.6208518   -4.6208518   -3.4525002  0.020082592   -4.6208518    1.1683516      8192000 
  263000   0.77688169   -4.6190566   -4.6190566   -3.4537344  0.013007473   -4.6190566    1.1653222      8192000 
  264000   0.77510015   -4.6174194   -4.6174194   -3.4547694 0.0072092024   -4.6174194    1.1626499      8192000 
  265000   0.77350949   -4.6160671   -4.6160671   -3.4558032 0.0019047575   -4.6160671    1.1602639      8192000 
  266000   0.77301471   -4.6161729   -4.6161729   -3.4566511 -0.0026095307   -4.6161729    1.1595218      8192000 
  267000   0.77222149   -4.6159479   -4.6159479    -3.457616 -0.0015659234   -4.6159479    1.1583319      8192000 
  268000   0.77237461   -4.6170278   -4.6170278   -3.4584662 -0.0032584242   -4.6170278    1.1585616      8192000 
  269000   0.77239489   -4.6182494   -4.6182494   -3.4596574 -0.00079936808   -4.6182494     1.158592      8192000 
  270000    0.7729383   -4.6200731   -4.6200731   -3.4606659 0.0017753456   -4.6200731    1.1594072      8192000 
  271000   0.77351582   -4.6218118   -4.6218118   -3.4615383 0.0075562403   -4.6218118    1.1602734      8192000 
  272000   0.77401944   -4.6235632   -4.6235632   -3.4625344  0.012648747   -4.6235632    1.1610289      8192000 
  273000   0.77555806   -4.6267818   -4.6267818    -3.463445  0.017152121   -4.6267818    1.1633368      8192000 
  274000   0.77654834   -4.6293941   -4.6293941   -3.4645719  0.022978888   -4.6293941    1.1648222      8192000 
  275000   0.77736904   -4.6316009   -4.6316009   -3.4655476  0.027697836   -4.6316009    1.1660533      8192000 
  276000   0.77787008   -4.6332329   -4.6332329    -3.466428  0.032276616   -4.6332329    1.1668048      8192000 
  277000   0.77848176   -4.6351849   -4.6351849   -3.4674625  0.033195547   -4.6351849    1.1677224      8192000 
  278000   0.77829371   -4.6358062   -4.6358062   -3.4683659  0.035097251   -4.6358062    1.1674403      8192000 
  279000   0.77832948   -4.6367626   -4.6367626   -3.4692686  0.032722837   -4.6367626    1.1674939      8192000 
  280000   0.77730971   -4.6360589   -4.6360589   -3.4700946  0.031388449   -4.6360589    1.1659643      8192000 
  281000   0.77585976   -4.6348861   -4.6348861   -3.4710967  0.029567603   -4.6348861    1.1637893      8192000 
  282000   0.77542256   -4.6351285   -4.6351285    -3.471995  0.020657224   -4.6351285    1.1631335      8192000 
  283000   0.77367149   -4.6334308   -4.6334308   -3.4729238   0.01651377   -4.6334308    1.1605069      8192000 
  284000   0.77239857   -4.6323512   -4.6323512   -3.4737536  0.011505942   -4.6323512    1.1585976      8192000 
  285000   0.77115488   -4.6314012   -4.6314012   -3.4746692 0.0090948403   -4.6314012     1.156732      8192000 
  286000   0.77037385   -4.6309977   -4.6309977   -3.4754372 0.0040650364   -4.6309977    1.1555605      8192000 
  287000   0.76998347   -4.6313645   -4.6313645   -3.4763896 0.0048057151   -4.6313645    1.1549749      8192000 
  288000   0.76968366   -4.6319832   -4.6319832    -3.477458 0.0034096322   -4.6319832    1.1545252      8192000 
  289000   0.76988478   -4.6332191   -4.6332191   -3.4783922 0.0048304765   -4.6332191    1.1548269      8192000 
  290000   0.77050935   -4.6351784   -4.6351784   -3.4794146   0.00742073   -4.6351784    1.1557637      8192000 
  291000   0.77134517   -4.6374545   -4.6374545    -3.480437  0.013386641   -4.6374545    1.1570175      8192000 
  292000   0.77250904    -4.639934    -4.639934   -3.4811708   0.02041757    -4.639934    1.1587633      8192000 
  293000   0.77436912   -4.6434415   -4.6434415   -3.4818881  0.028211296   -4.6434415    1.1615534      8192000 
  294000   0.77659866   -4.6477644   -4.6477644   -3.4828667  0.037437906   -4.6477644    1.1648977      8192000 
  295000   0.77839625   -4.6513342   -4.6513342   -3.4837402  0.050562544   -4.6513342    1.1675941      8192000 
  296000   0.78085797   -4.6559339   -4.6559339   -3.4846472  0.065031792   -4.6559339    1.1712867      8192000 
  297000   0.78385079    -4.661392    -4.661392   -3.4856161  0.079918575    -4.661392    1.1757759      8192000 
  298000   0.78680375   -4.6666391   -4.6666391   -3.4864338  0.097000043   -4.6666391    1.1802053      8192000 
  299000   0.78990752   -4.6721914   -4.6721914   -3.4873304   0.11740675   -4.6721914     1.184861      8192000 
  300000   0.79315118   -4.6779164   -4.6779164   -3.4881899    0.1426203   -4.6779164    1.1897265      8192000 
  301000   0.79699171   -4.6846211   -4.6846211   -3.4891339    0.1685241   -4.6846211    1.1954873      8192000 
  302000   0.80032953   -4.6907235   -4.6907235   -3.4902295   0.19621014   -4.6907235     1.200494      8192000 
  303000   0.80335172   -4.6960278   -4.6960278   -3.4910005   0.21925617   -4.6960278    1.2050273      8192000 
  304000    0.8061231   -4.7011433   -4.7011433    -3.491959   0.23712697   -4.7011433    1.2091844      8192000 
  305000   0.80860602   -4.7056326   -4.7056326   -3.4927238   0.24711493   -4.7056326    1.2129087      8192000 
  306000   0.80935097   -4.7075109   -4.7075109   -3.4934848   0.25385194   -4.7075109    1.2140262      8192000 
  307000   0.80913546   -4.7080686   -4.7080686   -3.4943657   0.25039118   -4.7080686    1.2137029      8192000 
  308000   0.80734519   -4.7063014   -4.7063014   -3.4952839   0.23926878   -4.7063014    1.2110175      8192000 
  309000   0.80442515   -4.7025633   -4.7025633   -3.4959259   0.21691112   -4.7025633    1.2066374      8192000 
  310000    0.8001412   -4.6971783   -4.6971783   -3.4969668   0.18958526   -4.6971783    1.2002115      8192000 
  311000   0.79453884   -4.6896213   -4.6896213   -3.4978133   0.15697074   -4.6896213     1.191808      8192000 
  312000   0.78859682   -4.6816021   -4.6816021   -3.4987072   0.12298972   -4.6816021    1.1828949      8192000 
  313000   0.78208704   -4.6727453   -4.6727453    -3.499615  0.092705429   -4.6727453    1.1731303      8192000 
  314000   0.77605211   -4.6644132   -4.6644132   -3.5003354  0.062196565   -4.6644132    1.1640779      8192000 
  315000    0.7703994   -4.6566102   -4.6566102   -3.5010113  0.039594865   -4.6566102    1.1555988      8192000 
  316000   0.76562421   -4.6501983   -4.6501983   -3.5017622  0.016659498   -4.6501983     1.148436      8192000 
  317000   0.76171904    -4.645114    -4.645114   -3.5025357 0.0023180547    -4.645114    1.1425783      8192000 
  318000   0.75915541   -4.6421815   -4.6421815   -3.5034487 -0.011725618   -4.6421815    1.1387328      8192000 
  319000   0.75726593   -4.6403182   -4.6403182   -3.5044196 -0.018258008   -4.6403182    1.1358986      8192000 
  320000   0.75585673   -4.6389889   -4.6389889   -3.5052041 -0.020298887   -4.6389889    1.1337848      8192000 
  321000   0.75597095   -4.6398472   -4.6398472    -3.505891 -0.019999525   -4.6398472    1.1339561      8192000 
  322000   0.75582735   -4.6404959   -4.6404959   -3.5067551 -0.016597565   -4.6404959    1.1337407      8192000 
  323000   0.75700226   -4.6431067   -4.6431067   -3.5076036 -0.012544716   -4.6431067    1.1355031      8192000 
  324000   0.75832388   -4.6459456   -4.6459456   -3.5084601 -0.0055203891   -4.6459456    1.1374855      8192000 
  325000    0.7600554    -4.649327    -4.649327   -3.5092441 0.0016195577    -4.649327    1.1400828      8192000 
  326000   0.76239319   -4.6535567   -4.6535567   -3.5099672  0.013545073   -4.6535567    1.1435895      8192000 
  327000   0.76450696   -4.6574872   -4.6574872    -3.510727  0.025573173   -4.6574872    1.1467602      8192000 
  328000   0.76747534   -4.6627127   -4.6627127   -3.5114999  0.035622262   -4.6627127    1.1512127      8192000 
  329000   0.76928372   -4.6661527   -4.6661527   -3.5122274  0.046852445   -4.6661527    1.1539253      8192000 
  330000   0.77127408   -4.6697982   -4.6697982   -3.5128874  0.053388267   -4.6697982    1.1569108      8192000 
  331000   0.77204664   -4.6717227   -4.6717227    -3.513653  0.059709172   -4.6717227    1.1580697      8192000 
  332000   0.77270335   -4.6734644   -4.6734644   -3.5144096  0.059076787   -4.6734644    1.1590547      8192000 
  333000   0.77176596   -4.6728139   -4.6728139   -3.5151652  0.060448149   -4.6728139    1.1576486      8192000 
  334000   0.77090211   -4.6724245   -4.6724245   -3.5160717  0.054437431   -4.6724245    1.1563529      8192000 
  335000   0.76908853   -4.6704252   -4.6704252   -3.5167927  0.048476346   -4.6704252    1.1536325      8192000 
  336000   0.76729104   -4.6684878   -4.6684878   -3.5175515  0.040654946   -4.6684878    1.1509363      8192000 
  337000    0.7647579   -4.6654152   -4.6654152   -3.5182786  0.030190591   -4.6654152    1.1471366      8192000 
  338000   0.76223934   -4.6624631   -4.6624631   -3.5191044  0.019714025   -4.6624631    1.1433587      8192000 
  339000   0.76019429   -4.6601366   -4.6601366   -3.5198455 0.0096971912   -4.6601366    1.1402912      8192000 
  340000   0.75764218   -4.6569483   -4.6569483   -3.5204853 0.00041532393   -4.6569483     1.136463      8192000 
  341000   0.75534188   -4.6542999   -4.6542999   -3.5212874 -0.0085463832   -4.6542999    1.1330125      8192000 
  342000   0.75340863   -4.6521555   -4.6521555   -3.5220428 -0.012354646   -4.6521555    1.1301127      8192000 
  343000   0.75207198   -4.6509131   -4.6509131   -3.5228054 -0.018718506   -4.6509131    1.1281077      8192000 
  344000   0.75160993   -4.6510419   -4.6510419   -3.5236273 -0.019971958   -4.6510419    1.1274146      8192000 
  345000   0.75198447   -4.6522236   -4.6522236   -3.5242472   -0.0217484   -4.6522236    1.1279764      8192000 
  346000   0.75209873   -4.6530244   -4.6530244   -3.5248766 -0.017904591   -4.6530244    1.1281478      8192000 
  347000   0.75285071   -4.6550748   -4.6550748    -3.525799 -0.012369271   -4.6550748    1.1292758      8192000 
  348000   0.75455933   -4.6583806   -4.6583806   -3.5265419 -0.0065055166   -4.6583806    1.1318387      8192000 
  349000   0.75619264   -4.6615911   -4.6615911   -3.5273024 0.0027573513   -4.6615911    1.1342887      8192000 
  350000   0.75787212   -4.6647845   -4.6647845   -3.5279766  0.011214169   -4.6647845    1.1368079      8192000 
  351000   0.75997166   -4.6686764   -4.6686764   -3.5287192  0.018739932   -4.6686764    1.1399572      8192000 
  352000   0.76132285   -4.6714295   -4.6714295   -3.5294456  0.026050105   -4.6714295     1.141984      8192000 
  353000   0.76311767   -4.6747945   -4.6747945   -3.5301183  0.033606104   -4.6747945    1.1446762      8192000 
  354000   0.76395891   -4.6768828   -4.6768828   -3.5309447   0.04014182   -4.6768828    1.1459381      8192000 
  355000   0.76501872   -4.6790413   -4.6790413   -3.5315135  0.045147867   -4.6790413    1.1475278      8192000 
  356000   0.76598069    -4.681389    -4.681389   -3.5324182  0.047486663    -4.681389    1.1489708      8192000 
  357000   0.76601089   -4.6823284   -4.6823284   -3.5333124  0.049264054   -4.6823284    1.1490161      8192000 
  358000   0.76548689   -4.6824233   -4.6824233   -3.5341933  0.046051535   -4.6824233    1.1482301      8192000 
  359000   0.76457418   -4.6817956   -4.6817956   -3.5349346   0.04294426   -4.6817956     1.146861      8192000 
  360000   0.76307374   -4.6802185   -4.6802185   -3.5356081  0.038456976   -4.6802185    1.1446103      8192000 
  361000   0.76122742   -4.6782214   -4.6782214   -3.5363805  0.032452032   -4.6782214    1.1418408      8192000 
  362000   0.75954421   -4.6763475   -4.6763475   -3.5370314  0.023052254   -4.6763475     1.139316      8192000 
  363000   0.75775361    -4.674442    -4.674442   -3.5378119  0.013990984    -4.674442    1.1366301      8192000 
  364000   0.75583146   -4.6722336   -4.6722336   -3.5384867 0.0055317649   -4.6722336    1.1337469      8192000 
  365000   0.75404517   -4.6702166   -4.6702166   -3.5391491 -0.002545015   -4.6702166    1.1310675      8192000 
  366000   0.75225183     -4.66815     -4.66815   -3.5397725 -0.0062942895     -4.66815    1.1283775      8192000 
  367000   0.75132064   -4.6674169   -4.6674169   -3.5404362 -0.011407408   -4.6674169    1.1269807      8192000 
  368000   0.75022453   -4.6664014   -4.6664014   -3.5410649 -0.014570429   -4.6664014    1.1253365      8192000 
  369000   0.74974468   -4.6665226   -4.6665226   -3.5419058 -0.016058594   -4.6665226    1.1246167      8192000 
  370000   0.74975236   -4.6674889   -4.6674889   -3.5428607  -0.01579476   -4.6674889    1.1246283      8192000 
  371000    0.7497819   -4.6681505   -4.6681505   -3.5434779 -0.014897322   -4.6681505    1.1246726      8192000 
  372000   0.75055796   -4.6697995   -4.6697995   -3.5439628 -0.011716922   -4.6697995    1.1258367      8192000 
  373000    0.7516653   -4.6721434   -4.6721434   -3.5446457 -0.006026915   -4.6721434    1.1274977      8192000 
  374000   0.75313675   -4.6751031   -4.6751031   -3.5453982 0.00065297022   -4.6751031    1.1297048      8192000 
  375000   0.75439309   -4.6776581   -4.6776581   -3.5460688 0.0076934768   -4.6776581    1.1315893      8192000 
  376000   0.75548512   -4.6799479   -4.6799479   -3.5467205  0.012222767   -4.6799479    1.1332274      8192000 
  377000   0.75710457    -4.683042    -4.683042   -3.5473855  0.019349232    -4.683042    1.1356566      8192000 
  378000    0.7588516   -4.6861728   -4.6861728   -3.5478957  0.026348359   -4.6861728    1.1382771      8192000 
  379000   0.76013499   -4.6889696   -4.6889696   -3.5487674  0.029819934   -4.6889696    1.1402022      8192000 
  380000   0.76119585   -4.6911164   -4.6911164   -3.5493229  0.033881694   -4.6911164    1.1417935      8192000 
  381000    0.7614604   -4.6921964   -4.6921964   -3.5500061  0.037528602   -4.6921964    1.1421903      8192000 
  382000   0.76192646   -4.6936665   -4.6936665   -3.5507771  0.039154821   -4.6936665    1.1428894      8192000 
  383000   0.76143889   -4.6935581   -4.6935581      -3.5514  0.038051684   -4.6935581     1.142158      8192000 
  384000   0.76013732   -4.6922615   -4.6922615   -3.5520558  0.035432603   -4.6922615    1.1402057      8192000 
  385000   0.75948584   -4.6920078   -4.6920078   -3.5527794  0.031943133   -4.6920078    1.1392285      8192000 
  386000   0.75845796    -4.691303    -4.691303   -3.5536163  0.026284313    -4.691303    1.1376867      8192000 
  387000   0.75687582   -4.6895329   -4.6895329   -3.5542195  0.020363295   -4.6895329    1.1353134      8192000 
  388000   0.75544177   -4.6880897   -4.6880897   -3.5549273  0.014844803   -4.6880897    1.1331624      8192000 
  389000   0.75372786   -4.6859846   -4.6859846   -3.5553931 0.0078386018   -4.6859846    1.1305915      8192000 
  390000   0.75220382   -4.6844154   -4.6844154   -3.5561099 0.0014469546   -4.6844154    1.1283054      8192000 
  391000   0.75099653   -4.6833096   -4.6833096   -3.5568151 -0.003161104   -4.6833096    1.1264945      8192000 
  392000    0.7493022   -4.6814188   -4.6814188   -3.5574658 -0.0064631143   -4.6814188     1.123953      8192000 
  393000   0.74917085   -4.6819865   -4.6819865   -3.5582305 -0.012979966   -4.6819865     1.123756      8192000 
  394000   0.74761107   -4.6803905   -4.6803905   -3.5589742 -0.010912653   -4.6803905    1.1214163      8192000 
  395000   0.74798136   -4.6814934   -4.6814934   -3.5595217 -0.012591422   -4.6814934    1.1219718      8192000 
  396000   0.74809846    -4.682507    -4.682507   -3.5603596 -0.011574284    -4.682507    1.1221474      8192000 
  397000   0.74845131   -4.6839024   -4.6839024   -3.5612257 -0.0082759069   -4.6839024    1.1226767      8192000 
  398000     0.749075   -4.6853276   -4.6853276   -3.5617154 -0.0057299609   -4.6853276    1.1236122      8192000 
  399000   0.74986354   -4.6872415   -4.6872415   -3.5624464 -0.0024661553   -4.6872415     1.124795      8192000 
  400000   0.75117824    -4.690168    -4.690168   -3.5634009 0.0019882594    -4.690168    1.1267671      8192000 
  401000   0.75226857   -4.6922394   -4.6922394   -3.5638369 0.0087869268   -4.6922394    1.1284026      8192000 
  402000   0.75364605   -4.6948208   -4.6948208    -3.564352  0.012911504   -4.6948208    1.1304688      8192000 
  403000   0.75450362   -4.6967777   -4.6967777   -3.5650225  0.019922366   -4.6967777    1.1317551      8192000 
  404000    0.7555026   -4.6988736   -4.6988736   -3.5656199  0.022210919   -4.6988736    1.1332536      8192000 
  405000   0.75637162   -4.7006464   -4.7006464   -3.5660893  0.026854372   -4.7006464    1.1345571      8192000 
  406000   0.75756624   -4.7030759   -4.7030759   -3.5667268  0.028459163   -4.7030759    1.1363491      8192000 
  407000    0.7573548    -4.703618    -4.703618   -3.5675861  0.032872465    -4.703618    1.1360319      8192000 
  408000   0.75775174   -4.7047675   -4.7047675   -3.5681402  0.031133759   -4.7047675    1.1366273      8192000 
  409000   0.75706257   -4.7044158   -4.7044158   -3.5688222  0.030912148   -4.7044158    1.1355936      8192000 
  410000   0.75687271   -4.7046998   -4.7046998    -3.569391  0.029290361   -4.7046998    1.1353088      8192000 
  411000   0.75611463   -4.7042568   -4.7042568   -3.5700851  0.023636018   -4.7042568    1.1341717      8192000 
  412000   0.75460354   -4.7025617   -4.7025617   -3.5706567  0.020053792   -4.7025617     1.131905      8192000 
  413000   0.75381944   -4.7019113   -4.7019113   -3.5711825  0.014295877   -4.7019113    1.1307289      8192000 
  414000   0.75250926     -4.70078     -4.70078   -3.5720164  0.010878141     -4.70078    1.1287636      8192000 
  415000   0.75124031   -4.6994998   -4.6994998   -3.5726397 0.0065069742   -4.6994998    1.1268602      8192000 
  416000   0.74972293   -4.6977058   -4.6977058   -3.5731217 0.0030622414   -4.6977058    1.1245841      8192000 
  417000   0.74847281   -4.6965178   -4.6965178   -3.5738088 -0.0021930129   -4.6965178    1.1227089      8192000 
  418000   0.74764993   -4.6957471   -4.6957471   -3.5742725 -0.0057719102   -4.6957471    1.1214746      8192000 
  419000   0.74749984   -4.6961402   -4.6961402   -3.5748907 -0.0087167432   -4.6961402    1.1212495      8192000 
  420000   0.74669985   -4.6955536   -4.6955536   -3.5755041 -0.009563173   -4.6955536    1.1200495      8192000 
  421000   0.74643399   -4.6960201   -4.6960201   -3.5763694 -0.010002954   -4.6960201    1.1196507      8192000 
  422000   0.74612576   -4.6961826   -4.6961826   -3.5769943 -0.0091388604   -4.6961826    1.1191884      8192000 
  423000   0.74710187   -4.6982473   -4.6982473   -3.5775948 -0.0078140311   -4.6982473    1.1206525      8192000 
  424000    0.7476818   -4.6996797   -4.6996797   -3.5781573 -0.0033598556   -4.6996797    1.1215224      8192000 
  425000   0.74806229   -4.7009477   -4.7009477   -3.5788545 0.0010335466   -4.7009477    1.1220932      8192000 
  426000   0.74891709    -4.702686    -4.702686   -3.5793106 0.0060490388    -4.702686    1.1233754      8192000 
  427000   0.75038744   -4.7055172   -4.7055172   -3.5799363 0.0087091751   -4.7055172    1.1255809      8192000 
  428000   0.75122809   -4.7074388   -4.7074388    -3.580597  0.014263203   -4.7074388    1.1268418      8192000 
  429000   0.75210406   -4.7094882   -4.7094882   -3.5813324  0.018587556   -4.7094882    1.1281558      8192000 
  430000   0.75290301   -4.7110829   -4.7110829   -3.5817287  0.023432659   -4.7110829    1.1293542      8192000 
  431000   0.75368386   -4.7131048   -4.7131048   -3.5825793  0.025664006   -4.7131048    1.1305255      8192000 
  432000   0.75386466   -4.7139066   -4.7139066   -3.5831099  0.025942393   -4.7139066    1.1307967      8192000 
  433000   0.75390086   -4.7147206   -4.7147206   -3.5838695  0.026902062   -4.7147206     1.130851      8192000 
  434000   0.75439751   -4.7160756   -4.7160756   -3.5844796  0.023864729   -4.7160756     1.131596      8192000 
  435000   0.75357387   -4.7154474   -4.7154474   -3.5850869  0.026052051   -4.7154474    1.1303605      8192000 
  436000   0.75274975   -4.7147049   -4.7147049   -3.5855806  0.023724527   -4.7147049    1.1291243      8192000 
  437000   0.75192928   -4.7139671   -4.7139671   -3.5860734  0.020667337   -4.7139671    1.1278936      8192000 
  438000   0.75109866   -4.7133463   -4.7133463   -3.5866985  0.015837936   -4.7133463    1.1266477      8192000 
  439000   0.74999953   -4.7122531   -4.7122531   -3.5872541  0.011969234   -4.7122531     1.124999      8192000 
  440000   0.74919023   -4.7114607   -4.7114607   -3.5876756 0.0075033373   -4.7114607    1.1237851      8192000 
  441000     0.748393   -4.7107138   -4.7107138   -3.5881246 0.0041095662   -4.7107138    1.1225892      8192000 
  442000   0.74725567   -4.7096792   -4.7096792    -3.588796 0.00088790329   -4.7096792    1.1208832      8192000 
  443000   0.74632614   -4.7089498   -4.7089498   -3.5894608 -0.0018820459   -4.7089498    1.1194889      8192000 
  444000   0.74551859   -4.7085807   -4.7085807   -3.5903031 -0.0062543746   -4.7085807    1.1182776      8192000 
  445000   0.74484207   -4.7081909   -4.7081909   -3.5909281 -0.0083970371   -4.7081909    1.1172628      8192000 
  446000   0.74474304   -4.7086744   -4.7086744   -3.5915601 -0.0072585277   -4.7086744    1.1171143      8192000 
  447000   0.74485607   -4.7096156   -4.7096156   -3.5923318 -0.0075285256   -4.7096156    1.1172838      8192000 
  448000   0.74476358   -4.7099639   -4.7099639   -3.5928188 -0.0041369423   -4.7099639    1.1171451      8192000 
  449000   0.74592912   -4.7121784   -4.7121784   -3.5932851 -0.0024071404   -4.7121784    1.1188934      8192000 
  450000    0.7464804   -4.7135262   -4.7135262   -3.5938059 0.0010220941   -4.7135262    1.1197203      8192000 
  451000   0.74711123   -4.7151836   -4.7151836   -3.5945171 0.0034748886   -4.7151836    1.1206666      8192000 
  452000   0.74814766   -4.7173238   -4.7173238   -3.5951026 0.0072455957   -4.7173238    1.1222212      8192000 
  453000   0.74882198    -4.719057    -4.719057   -3.5958243  0.010939135    -4.719057    1.1232327      8192000 
  454000   0.74944676   -4.7204469   -4.7204469    -3.596277  0.014899561   -4.7204469    1.1241699      8192000 
  455000   0.75067239   -4.7228848   -4.7228848   -3.5968765  0.016650391   -4.7228848    1.1260083      8192000 
  456000   0.75121198   -4.7241903   -4.7241903   -3.5973726  0.019963927   -4.7241903    1.1268177      8192000 
  457000   0.75124283   -4.7247248   -4.7247248   -3.5978609  0.022851481   -4.7247248     1.126864      8192000 
  458000   0.75128574   -4.7253348   -4.7253348   -3.5984065  0.024612074   -4.7253348    1.1269283      8192000 
  459000   0.75147635   -4.7262152   -4.7262152    -3.599001  0.023362672   -4.7262152    1.1272142      8192000 
  460000   0.75117879   -4.7262462   -4.7262462   -3.5994783  0.023671392   -4.7262462    1.1267679      8192000 
  461000   0.75080337   -4.7263133   -4.7263133   -3.6001085  0.019886657   -4.7263133    1.1262048      8192000 
  462000   0.74992118   -4.7254768   -4.7254768   -3.6005953  0.018571629   -4.7254768    1.1248815      8192000 
  463000   0.74916846   -4.7250305   -4.7250305   -3.6012781  0.014752584   -4.7250305    1.1237524      8192000 
  464000   0.74829871   -4.7240539   -4.7240539   -3.6016062  0.011848115   -4.7240539    1.1224478      8192000 
  465000   0.74721179   -4.7230539   -4.7230539   -3.6022365 0.0076316993   -4.7230539    1.1208174      8192000 
  466000   0.74645447   -4.7224684   -4.7224684    -3.602787 0.0041045159   -4.7224684    1.1196814      8192000 
  467000    0.7455576   -4.7217335   -4.7217335   -3.6033974 0.0017460804   -4.7217335    1.1183361      8192000 
  468000   0.74494329   -4.7215563   -4.7215563   -3.6041417 -0.00034969912   -4.7215563    1.1174147      8192000 
  469000   0.74420256   -4.7208221   -4.7208221   -3.6045185 -0.0029903917   -4.7208221    1.1163036      8192000 
  470000   0.74398214   -4.7212889   -4.7212889    -3.605316 -0.0032894859   -4.7212889    1.1159729      8192000 
  471000   0.74366156   -4.7213878   -4.7213878   -3.6058957 -0.0046980361   -4.7213878    1.1154921      8192000 
  472000   0.74363973   -4.7218358   -4.7218358   -3.6063765 -0.0035096623   -4.7218358    1.1154593      8192000 
  473000   0.74412584   -4.7232132   -4.7232132   -3.6070247 -0.0029225788   -4.7232132    1.1161885      8192000 
  474000   0.74408923   -4.7237304   -4.7237304   -3.6075969 -0.00037132746   -4.7237304    1.1161336      8192000 
  475000   0.74464446   -4.7250695   -4.7250695   -3.6081031 0.0016296444   -4.7250695    1.1169664      8192000 
  476000   0.74559677   -4.7268288   -4.7268288   -3.6084339 0.0039588552   -4.7268288    1.1183949      8192000 
  477000   0.74623202    -4.728427    -4.728427   -3.6090793 0.0066084317    -4.728427    1.1193478      8192000 
  478000   0.74659484   -4.7295236   -4.7295236   -3.6096316 0.0099066368   -4.7295236     1.119892      8192000 
  479000   0.74728065   -4.7312267   -4.7312267    -3.610306  0.013979161   -4.7312267    1.1209207      8192000 
  480000    0.7476628   -4.7324552   -4.7324552   -3.6109613  0.014543083   -4.7324552    1.1214939      8192000 
  481000   0.74784931   -4.7331918   -4.7331918   -3.6114181   0.01784931   -4.7331918    1.1217737      8192000 
  482000   0.74866844   -4.7349697   -4.7349697   -3.6119674  0.019339736   -4.7349697    1.1230024      8192000 
  483000   0.74956164   -4.7368643   -4.7368643   -3.6125221  0.021554631   -4.7368643    1.1243422      8192000 
  484000   0.74903236   -4.7367222   -4.7367222   -3.6131739  0.019577097   -4.7367222    1.1235483      8192000 
  485000   0.74893864   -4.7369689   -4.7369689   -3.6135612  0.019458895   -4.7369689    1.1234077      8192000 
  486000   0.74860835    -4.736974    -4.736974   -3.6140618  0.017596815    -4.736974    1.1229123      8192000 
  487000   0.74780168   -4.7364011   -4.7364011   -3.6146988  0.018260856   -4.7364011    1.1217022      8192000 
  488000   0.74716076   -4.7358703   -4.7358703   -3.6151295  0.014351249   -4.7358703    1.1207409      8192000 
  489000   0.74653327   -4.7355512   -4.7355512   -3.6157516  0.010133278   -4.7355512    1.1197996      8192000 
  490000   0.74611964   -4.7352776   -4.7352776   -3.6160984 0.0069910921   -4.7352776    1.1191792      8192000 
  491000   0.74515742   -4.7344739   -4.7344739    -3.616738 0.0047615801   -4.7344739    1.1177359      8192000 
  492000   0.74389354   -4.7332098   -4.7332098   -3.6173698 0.0034636089   -4.7332098      1.11584      8192000 
  493000   0.74336347   -4.7328456   -4.7328456   -3.6178007 -0.00082090703   -4.7328456    1.1150449      8192000 
  494000   0.74296211   -4.7325369   -4.7325369    -3.618094 0.00028536634   -4.7325369    1.1144429      8192000 
  495000   0.74250305   -4.7325436   -4.7325436   -3.6187893 -0.0015007393   -4.7325436    1.1137543      8192000 
  496000   0.74249022    -4.733183    -4.733183   -3.6194479 -0.0024272457    -4.733183    1.1137351      8192000 
  497000   0.74276383   -4.7339833   -4.7339833   -3.6198378 -0.0027315781   -4.7339833    1.1141455      8192000 
  498000     0.742694   -4.7345879   -4.7345879   -3.6205472 -0.00099935151   -4.7345879    1.1140407      8192000 
  499000   0.74323134   -4.7359189   -4.7359189   -3.6210722 -0.001917968   -4.7359189    1.1148467      8192000 
  500000   0.74330763   -4.7365213   -4.7365213   -3.6215601 0.0032804116   -4.7365213    1.1149612      8192000 
  501000   0.74397088   -4.7379295   -4.7379295   -3.6219734 0.0062153368   -4.7379295     1.115956      8192000 
  502000   0.74479739   -4.7395688   -4.7395688    -3.622373 0.0081753647   -4.7395688    1.1171958      8192000 
  503000   0.74520034   -4.7409449   -4.7409449   -3.6231447  0.010943769   -4.7409449    1.1178002      8192000 
  504000   0.74597737   -4.7426884   -4.7426884   -3.6237226  0.012632161   -4.7426884    1.1189658      8192000 
  505000   0.74661036   -4.7440169   -4.7440169   -3.6241017    0.0160221   -4.7440169    1.1199153      8192000 
  506000   0.74665402   -4.7447084   -4.7447084   -3.6247277  0.017434853   -4.7447084    1.1199808      8192000 
  507000    0.7470399    -4.745785    -4.745785   -3.6252254  0.018440124    -4.745785    1.1205596      8192000 
  508000   0.74653924   -4.7458328   -4.7458328   -3.6260242  0.018936223   -4.7458328    1.1198086      8192000 
  509000   0.74690053   -4.7467899   -4.7467899   -3.6264394  0.019061442   -4.7467899    1.1203505      8192000 
  510000   0.74676244   -4.7471447   -4.7471447   -3.6270013  0.017322086   -4.7471447    1.1201434      8192000 
  511000   0.74655138   -4.7472774   -4.7472774   -3.6274506  0.015529304   -4.7472774    1.1198268      8192000 
  512000   0.74546924   -4.7462866   -4.7462866    -3.628083  0.016882116   -4.7462866    1.1182036      8192000 
  513000   0.74549696     -4.74671     -4.74671   -3.6284648  0.012058946     -4.74671    1.1182452      8192000 
  514000    0.7448739    -4.746481    -4.746481   -3.6291705  0.010536332    -4.746481    1.1173106      8192000 
  515000   0.74406705   -4.7458253   -4.7458253    -3.629725  0.007792211   -4.7458253    1.1161003      8192000 
  516000   0.74379465   -4.7460006   -4.7460006   -3.6303089 0.0050632059   -4.7460006    1.1156917      8192000 
  517000   0.74287289   -4.7453359   -4.7453359   -3.6310268 0.0036016489   -4.7453359    1.1143091      8192000 
  518000   0.74216649   -4.7447609   -4.7447609   -3.6315114 0.0028779953   -4.7447609    1.1132495      8192000 
  519000   0.74199955   -4.7448128   -4.7448128   -3.6318137 0.0010099596   -4.7448128     1.112999      8192000 
  520000   0.74193554   -4.7449791   -4.7449791    -3.632076 0.00063337694   -4.7449791     1.112903      8192000 
  521000   0.74147153   -4.7446724   -4.7446724   -3.6324654 1.2881242e-05   -4.7446724     1.112207      8192000 
  522000   0.74162155   -4.7453484   -4.7453484   -3.6329163 0.00075045672   -4.7453484    1.1124321      8192000 
  523000   0.74202227   -4.7464965   -4.7464965   -3.6334634 -0.00020830979   -4.7464965    1.1130331      8192000 
  524000   0.74194249   -4.7468527   -4.7468527   -3.6339392 0.0025187283   -4.7468527    1.1129135      8192000 
  525000    0.7428278   -4.7486514   -4.7486514     -3.63441 0.0031797631   -4.7486514    1.1142414      8192000 
  526000   0.74306185   -4.7495654   -4.7495654   -3.6349729 0.0049011737   -4.7495654    1.1145925      8192000 
  527000   0.74306782   -4.7499808   -4.7499808   -3.6353793 0.0069194697   -4.7499808    1.1146015      8192000 
  528000   0.74368819   -4.7513153   -4.7513153   -3.6357833  0.010900572   -4.7513153     1.115532      8192000 
  529000   0.74438428   -4.7529545   -4.7529545   -3.6363784  0.010257153   -4.7529545    1.1165761      8192000 
  530000   0.74455956   -4.7536977   -4.7536977   -3.6368587  0.013074405   -4.7536977    1.1168391      8192000 
  531000   0.74412117   -4.7536125   -4.7536125    -3.637431  0.016105485   -4.7536125    1.1161815      8192000 
  532000   0.74491357   -4.7552417   -4.7552417   -3.6378716  0.016555024   -4.7552417    1.1173701      8192000 
  533000   0.74537776   -4.7562562   -4.7562562   -3.6381898  0.014795968   -4.7562562    1.1180664      8192000 
  534000   0.74536238   -4.7567661   -4.7567661   -3.6387228  0.017033277   -4.7567661    1.1180433      8192000 
  535000   0.74524075   -4.7570527   -4.7570527   -3.6391918   0.01788347   -4.7570527    1.1178608      8192000 
  536000   0.74459867   -4.7567614   -4.7567614   -3.6398637   0.01619779   -4.7567614    1.1168977      8192000 
  537000    0.7439016   -4.7561606   -4.7561606   -3.6403085  0.014903208   -4.7561606    1.1158521      8192000 
  538000   0.74381523   -4.7564141   -4.7564141   -3.6406915  0.011330217   -4.7564141    1.1157226      8192000 
  539000   0.74305926   -4.7557921   -4.7557921   -3.6412035   0.01047448   -4.7557921    1.1145886      8192000 
  540000   0.74229457   -4.7550971   -4.7550971   -3.6416555 0.0095802991   -4.7550971    1.1134416      8192000 
  541000   0.74188232   -4.7548352   -4.7548352    -3.642012 0.0070618442   -4.7548352    1.1128232      8192000 
  542000   0.74183247   -4.7551902   -4.7551902   -3.6424417 0.0035215631   -4.7551902    1.1127484      8192000 
  543000    0.7413698   -4.7548679   -4.7548679   -3.6428135 0.0027757354   -4.7548679    1.1120544      8192000 
  544000   0.74101377   -4.7548718   -4.7548718   -3.6433514 0.0013916852   -4.7548718    1.1115204      8192000 
  545000   0.74045967   -4.7545372   -4.7545372   -3.6438479  0.002466108   -4.7545372    1.1106892      8192000 
  546000   0.74075117    -4.755498    -4.755498   -3.6443715 -0.00065909317    -4.755498    1.1111265      8192000 
  547000   0.74069869   -4.7559519   -4.7559519   -3.6449041 0.0018237041   -4.7559519    1.1110478      8192000 
  548000   0.74061011    -4.756432    -4.756432   -3.6455171 0.0034250559    -4.756432    1.1109149      8192000 
  549000   0.74095159   -4.7572868   -4.7572868   -3.6458597 0.0046269796   -4.7572868    1.1114271      8192000 
  550000   0.74144401   -4.7586027   -4.7586027   -3.6464369 0.0044578972   -4.7586027    1.1121657      8192000 
  551000   0.74177361   -4.7596259   -4.7596259   -3.6469657 0.0055290392   -4.7596259    1.1126601      8192000 
  552000    0.7419323   -4.7602879   -4.7602879   -3.6473897  0.010228507   -4.7602879    1.1128982      8192000 
  553000    0.7428802   -4.7624056   -4.7624056   -3.6480856  0.011930163   -4.7624056      1.11432      8192000 
  554000   0.74293115   -4.7629459   -4.7629459   -3.6485494  0.013436379   -4.7629459    1.1143964      8192000 
  555000   0.74301646   -4.7635399   -4.7635399   -3.6490155  0.016283399   -4.7635399    1.1145244      8192000 
  556000     0.743363   -4.7645346   -4.7645346   -3.6494904  0.015488498   -4.7645346    1.1150442      8192000 
  557000   0.74345514   -4.7652315   -4.7652315   -3.6500491  0.018481729   -4.7652315    1.1151824      8192000 
  558000   0.74346952   -4.7656316   -4.7656316   -3.6504276  0.017423215   -4.7656316     1.115204      8192000 
  559000   0.74335198   -4.7657165   -4.7657165   -3.6506888  0.017392474   -4.7657165    1.1150277      8192000 
  560000   0.74300973   -4.7656444   -4.7656444   -3.6511301  0.016865638   -4.7656444    1.1145143      8192000 
  561000   0.74286425   -4.7658335   -4.7658335   -3.6515374  0.015675714   -4.7658335    1.1142961      8192000 
  562000   0.74255698    -4.765735    -4.765735   -3.6518998  0.012826857    -4.765735    1.1138352      8192000 
  563000   0.74202177   -4.7652686   -4.7652686   -3.6522362  0.010592587   -4.7652686    1.1130324      8192000 
  564000    0.7416031   -4.7651533   -4.7651533   -3.6527489  0.010608858   -4.7651533    1.1124044      8192000 
  565000   0.74107837   -4.7647895   -4.7647895   -3.6531723 0.0086981546   -4.7647895    1.1116173      8192000 
  566000   0.74078408   -4.7646751   -4.7646751   -3.6534992 0.0059842107   -4.7646751    1.1111758      8192000 
  567000   0.74041895    -4.764465    -4.764465   -3.6538368 0.0046241097    -4.764465    1.1106282      8192000 
  568000   0.73959248   -4.7637928   -4.7637928   -3.6544044 0.0045060643   -4.7637928    1.1093884      8192000 
  569000   0.73974286   -4.7645348   -4.7645348   -3.6549207 0.0024347274   -4.7645348     1.109614      8192000 
  570000   0.73946648   -4.7646529   -4.7646529   -3.6554535 0.0030574769   -4.7646529    1.1091994      8192000 
  571000   0.73940636   -4.7650671   -4.7650671   -3.6559579 0.0024272414   -4.7650671    1.1091093      8192000 
  572000    0.7394565   -4.7655455   -4.7655455    -3.656361 0.0018188459   -4.7655455    1.1091845      8192000 
  573000   0.73977507   -4.7663422   -4.7663422   -3.6566799 0.0036945121   -4.7663422    1.1096623      8192000 
  574000   0.74017342   -4.7672457   -4.7672457   -3.6569859 0.0067636951   -4.7672457    1.1102599      8192000 
  575000   0.74013152   -4.7677279   -4.7677279   -3.6575308 0.0078877117   -4.7677279     1.110197      8192000 
  576000   0.74056257   -4.7687318   -4.7687318   -3.6578882 0.0092633945   -4.7687318    1.1108436      8192000 
  577000   0.74095077   -4.7695613   -4.7695613   -3.6581355  0.012167221   -4.7695613    1.1114259      8192000 
  578000    0.7413781   -4.7705861   -4.7705861   -3.6585192  0.011474891   -4.7705861    1.1120669      8192000 
  579000   0.74154535   -4.7713993   -4.7713993   -3.6590815  0.012520471   -4.7713993    1.1123177      8192000 
  580000   0.74184472   -4.7722896   -4.7722896   -3.6595228  0.013828889   -4.7722896    1.1127668      8192000 
  581000   0.74201195   -4.7728269   -4.7728269   -3.6598092  0.015838673   -4.7728269    1.1130176      8192000 
  582000   0.74240406   -4.7737394   -4.7737394   -3.6601335  0.014259889   -4.7737394    1.1136058      8192000 
  583000   0.74232376    -4.773828    -4.773828   -3.6603427  0.016961474    -4.773828    1.1134854      8192000 
  584000   0.74202911   -4.7742281   -4.7742281   -3.6611847  0.014689354   -4.7742281    1.1130434      8192000 
  585000   0.74165814   -4.7740941   -4.7740941   -3.6616072  0.014658665   -4.7740941    1.1124869      8192000 
  586000   0.74125679   -4.7738459   -4.7738459    -3.661961  0.015083449   -4.7738459    1.1118849      8192000 
  587000   0.74139448   -4.7745585   -4.7745585   -3.6624671  0.013237645   -4.7745585    1.1120914      8192000 
  588000   0.74107504   -4.7744003   -4.7744003   -3.6627881  0.012943892   -4.7744003    1.1116123      8192000 
  589000   0.74047572    -4.773682    -4.773682   -3.6629687 0.0096112472    -4.773682    1.1107133      8192000 
  590000   0.73955489   -4.7727354   -4.7727354   -3.6634034  0.010294661   -4.7727354    1.1093321      8192000 
  591000   0.73907589    -4.772506    -4.772506   -3.6638924 0.0088912279    -4.772506    1.1086136      8192000 
  592000   0.73950757   -4.7734302   -4.7734302   -3.6641692 0.0048196737   -4.7734302    1.1092611      8192000 
  593000   0.73881963   -4.7728012   -4.7728012   -3.6645721 0.0047089943   -4.7728012    1.1082292      8192000 
  594000    0.7387762   -4.7731827   -4.7731827   -3.6650187 0.0032571452   -4.7731827     1.108164      8192000 
  595000   0.73839198   -4.7730362   -4.7730362   -3.6654486 0.0044032763   -4.7730362    1.1075877      8192000 
  596000   0.73870375   -4.7738991   -4.7738991   -3.6658438 0.0057262686   -4.7738991    1.1080553      8192000 
  597000   0.73837537   -4.7739317   -4.7739317   -3.6663689 0.0041768601   -4.7739317    1.1075628      8192000 
  598000    0.7388297   -4.7751895   -4.7751895   -3.6669452  0.004438248   -4.7751895    1.1082443      8192000 
  599000   0.73916234   -4.7760742   -4.7760742   -3.6673309 0.0045943003   -4.7760742    1.1087432      8192000 
  600000   0.73937568   -4.7766655   -4.7766655   -3.6676022 0.0068280986   -4.7766655    1.1090632      8192000 
  601000   0.73979168   -4.7776336   -4.7776336   -3.6679463     0.010024   -4.7776336    1.1096872      8192000 
  602000   0.74012924   -4.7785826   -4.7785826    -3.668389  0.011154855   -4.7785826    1.1101936      8192000 
  603000   0.74003896   -4.7789442   -4.7789442    -3.668886  0.013568149   -4.7789442    1.1100582      8192000 
  604000    0.7403304    -4.779777    -4.779777   -3.6692817  0.014517152    -4.779777    1.1104953      8192000 
  605000   0.74023103   -4.7800779   -4.7800779   -3.6697316  0.014441379   -4.7800779    1.1103463      8192000 
  606000   0.74091913   -4.7812152   -4.7812152   -3.6698368  0.012045047   -4.7812152    1.1113784      8192000 
  607000   0.74065311   -4.7812726   -4.7812726   -3.6702932  0.014293583   -4.7812726    1.1109794      8192000 
  608000   0.74028188   -4.7810473   -4.7810473   -3.6706247  0.015543765   -4.7810473    1.1104225      8192000 
  609000    0.7408252   -4.7823351   -4.7823351   -3.6710976  0.014518147   -4.7823351    1.1112375      8192000 
  610000   0.74028359    -4.782011    -4.782011   -3.6715859  0.012925184    -4.782011    1.1104251      8192000 
  611000   0.74000008    -4.782046    -4.782046   -3.6720461  0.013308555    -4.782046    1.1099998      8192000 
  612000   0.73998257   -4.7825484   -4.7825484   -3.6725748  0.010630748   -4.7825484    1.1099736      8192000 
  613000   0.73918615   -4.7818131   -4.7818131   -3.6730342  0.011194546   -4.7818131    1.1087789      8192000 
  614000   0.73903599    -4.781994    -4.781994   -3.6734402 0.0090187466    -4.781994    1.1085537      8192000 
  615000   0.73829014   -4.7813684   -4.7813684   -3.6739335 0.0095935673   -4.7813684    1.1074349      8192000 
  616000   0.73825095   -4.7817576   -4.7817576   -3.6743815 0.0066013283   -4.7817576    1.1073761      8192000 
  617000   0.73823399   -4.7819727   -4.7819727    -3.674622 0.0068892371   -4.7819727    1.1073507      8192000 
  618000   0.73788839   -4.7818275   -4.7818275   -3.6749952  0.006748759   -4.7818275    1.1068323      8192000 
  619000   0.73787041   -4.7820773   -4.7820773   -3.6752719  0.006362744   -4.7820773    1.1068053      8192000 
  620000   0.73773586   -4.7821711   -4.7821711   -3.6755676 0.0056693966   -4.7821711    1.1066035      8192000 
  621000   0.73773963   -4.7825774   -4.7825774   -3.6759682 0.0059831636   -4.7825774    1.1066092      8192000 
  622000   0.73814757   -4.7836495   -4.7836495   -3.6764284 0.0059376767   -4.7836495    1.1072211      8192000 
  623000    0.7380488   -4.7837646   -4.7837646   -3.6766917 0.0055828128   -4.7837646    1.1070729      8192000 
  624000    0.7377565   -4.7838398   -4.7838398   -3.6772053 0.0081138781   -4.7838398    1.1066345      8192000 
  625000   0.73790197   -4.7847328   -4.7847328   -3.6778801 0.0062277205   -4.7847328    1.1068527      8192000 
  626000   0.73794374   -4.7852189   -4.7852189   -3.6783036 0.0085098335   -4.7852189    1.1069153      8192000 
  627000   0.73846596   -4.7861219   -4.7861219   -3.6784233 0.0090238668   -4.7861219    1.1076987      8192000 
  628000   0.73872044   -4.7867953   -4.7867953   -3.6787149 0.0098098494   -4.7867953    1.1080804      8192000 
  629000   0.73884666   -4.7874827   -4.7874827    -3.679213  0.010851375   -4.7874827    1.1082697      8192000 
  630000   0.73908552   -4.7881704   -4.7881704   -3.6795424  0.013048278   -4.7881704     1.108628      8192000 
  631000   0.73902895   -4.7884789   -4.7884789   -3.6799358  0.013644377   -4.7884789    1.1085431      8192000 
  632000   0.73916074   -4.7890232   -4.7890232   -3.6802824  0.015144542   -4.7890232    1.1087408      8192000 
  633000   0.73895433   -4.7894216   -4.7894216   -3.6809904  0.013644245   -4.7894216    1.1084312      8192000 
  634000   0.73868951   -4.7893592   -4.7893592   -3.6813252  0.014900976   -4.7893592     1.108034      8192000 
  635000   0.73870717   -4.7896478   -4.7896478   -3.6815874   0.01384792   -4.7896478    1.1080605      8192000 
  636000   0.73848521   -4.7898383   -4.7898383   -3.6821107  0.011545419   -4.7898383    1.1077275      8192000 
  637000   0.73801984   -4.7895905   -4.7895905   -3.6825611  0.011066654   -4.7895905    1.1070295      8192000 
  638000   0.73828043   -4.7901489   -4.7901489   -3.6827285  0.010498992   -4.7901489    1.1074204      8192000 
  639000   0.73791359   -4.7898966   -4.7898966   -3.6830264 0.0098086828   -4.7898966    1.1068701      8192000 
  640000   0.73760428   -4.7896454   -4.7896454   -3.6832393 0.0083882989   -4.7896454    1.1064061      8192000 
  641000   0.73759892   -4.7898959   -4.7898959   -3.6834978 0.0079823473   -4.7898959    1.1063981      8192000 
  642000   0.73702147   -4.7893587   -4.7893587   -3.6838268 0.0072366613   -4.7893587    1.1055319      8192000 
  643000   0.73698934   -4.7896647   -4.7896647    -3.684181 0.0079648737   -4.7896647    1.1054837      8192000 
  644000    0.7371274   -4.7902612   -4.7902612   -3.6845704 0.0070573222   -4.7902612    1.1056908      8192000 
  645000   0.73689272   -4.7904254   -4.7904254   -3.6850866 0.0068079734   -4.7904254    1.1053388      8192000 
  646000   0.73681005   -4.7903421   -4.7903421   -3.6851273 0.0076174963   -4.7903421    1.1052148      8192000 
  647000    0.7365457    -4.790434    -4.790434   -3.6856157 0.0083506985    -4.790434    1.1048183      8192000 
  648000   0.73654407   -4.7907712   -4.7907712   -3.6859554 0.0082457533   -4.7907712    1.1048158      8192000 
  649000   0.73720596    -4.791931    -4.791931   -3.6861224 0.0074102791    -4.791931    1.1058087      8192000 
  650000   0.73676563   -4.7918219   -4.7918219   -3.6866738  0.008735168   -4.7918219    1.1051482      8192000 
  651000   0.73707561   -4.7926288   -4.7926288   -3.6870156 0.0071272222   -4.7926288    1.1056131      8192000 
  652000   0.73743387   -4.7934345   -4.7934345   -3.6872839 0.0091436182   -4.7934345    1.1061505      8192000 
  653000     0.737328   -4.7938236   -4.7938236   -3.6878319  0.010107532   -4.7938236    1.1059917      8192000 
  654000   0.73769567   -4.7945462   -4.7945462    -3.688003  0.010685282   -4.7945462    1.1065432      8192000 
  655000   0.73791479   -4.7953622   -4.7953622   -3.6884903 0.0098789577   -4.7953622    1.1068719      8192000 
  656000   0.73798451   -4.7958635   -4.7958635    -3.688887  0.010139083   -4.7958635    1.1069765      8192000 
  657000   0.73773156   -4.7957006   -4.7957006   -3.6891036  0.012837062   -4.7957006    1.1065971      8192000 
  658000   0.73771128   -4.7958752   -4.7958752   -3.6893086  0.012712658   -4.7958752    1.1065666      8192000 
  659000   0.73791761   -4.7965959   -4.7965959   -3.6897197  0.013843279   -4.7965959    1.1068761      8192000 
  660000   0.73811471   -4.7972755   -4.7972755   -3.6901037  0.012402079   -4.7972755    1.1071718      8192000 
  661000   0.73800553   -4.7974988   -4.7974988   -3.6904908  0.011225417   -4.7974988     1.107008      8192000 
  662000   0.73727381   -4.7966342   -4.7966342   -3.6907237  0.012026176   -4.7966342    1.1059104      8192000 
  663000   0.73756053   -4.7974614   -4.7974614   -3.6911209  0.010404816   -4.7974614    1.1063405      8192000 
  664000   0.73720811   -4.7972953   -4.7972953   -3.6914834 0.0094297441   -4.7972953    1.1058119      8192000 
  665000   0.73690963    -4.797241    -4.797241   -3.6918768 0.0087399682    -4.797241    1.1053642      8192000 
  666000   0.73680184   -4.7974728   -4.7974728   -3.6922703 0.0078647219   -4.7974728    1.1052025      8192000 
  667000   0.73630173   -4.7970254   -4.7970254    -3.692573 0.0082173812   -4.7970254    1.1044523      8192000 
  668000   0.73652749   -4.7977115   -4.7977115   -3.6929205 0.0062751799   -4.7977115     1.104791      8192000 
  669000   0.73620041   -4.7975302   -4.7975302   -3.6932298 0.0064912713   -4.7975302    1.1043003      8192000 
  670000   0.73628725   -4.7978274   -4.7978274   -3.6933968 0.0067647876   -4.7978274    1.1044306      8192000 
  671000   0.73634031   -4.7981165   -4.7981165   -3.6936063 0.0075694339   -4.7981165    1.1045102      8192000 
  672000   0.73649367   -4.7986718   -4.7986718   -3.6939316  0.006931678   -4.7986718    1.1047402      8192000 
  673000   0.73647513   -4.7990055   -4.7990055   -3.6942931 0.0061300494   -4.7990055    1.1047124      8192000 
  674000    0.7361164   -4.7988369   -4.7988369   -3.6946626 0.0078390736   -4.7988369    1.1041743      8192000 
  675000   0.73660394    -4.799837    -4.799837   -3.6949314 0.0085384771    -4.799837    1.1049056      8192000 
  676000   0.73615559   -4.7997177   -4.7997177   -3.6954846 0.0093288574   -4.7997177    1.1042331      8192000 
  677000   0.73667468   -4.8008892   -4.8008892   -3.6958774 0.0076137473   -4.8008892    1.1050117      8192000 
  678000   0.73660244   -4.8011371   -4.8011371   -3.6962337 0.0079387789   -4.8011371    1.1049034      8192000 
  679000   0.73651285   -4.8013691   -4.8013691   -3.6966001 0.0078848991   -4.8013691     1.104769      8192000 
  680000   0.73656892    -4.801722    -4.801722   -3.6968689  0.010848061    -4.801722    1.1048531      8192000 
  681000   0.73674341   -4.8021445   -4.8021445   -3.6970296  0.012077344   -4.8021445    1.1051148      8192000 
  682000   0.73698607   -4.8028549   -4.8028549   -3.6973761  0.011500162   -4.8028549    1.1054788      8192000 
  683000   0.73684713   -4.8031175   -4.8031175    -3.697847  0.011901076   -4.8031175    1.1052704      8192000 
  684000   0.73717585    -4.803898    -4.803898   -3.6981345  0.010703125    -4.803898    1.1057635      8192000 
  685000   0.73698547   -4.8040613   -4.8040613   -3.6985834   0.01189768   -4.8040613    1.1054779      8192000 
  686000   0.73703205   -4.8046169   -4.8046169   -3.6990691  0.010697499   -4.8046169    1.1055478      8192000 
  687000   0.73709677   -4.8049437   -4.8049437   -3.6992989 0.0094453171   -4.8049437    1.1056449      8192000 
  688000     0.736521   -4.8042915   -4.8042915   -3.6995103  0.012178731   -4.8042915    1.1047812      8192000 
  689000   0.73698532    -4.805091    -4.805091   -3.6996133 0.0088881501    -4.805091    1.1054777      8192000 
  690000   0.73678557   -4.8050549   -4.8050549   -3.6998768  0.011329615   -4.8050549    1.1051781      8192000 
  691000   0.73655662   -4.8049679   -4.8049679   -3.7001333  0.011577539   -4.8049679    1.1048347      8192000 
  692000   0.73659747   -4.8054139   -4.8054139    -3.700518 0.0090544961   -4.8054139    1.1048959      8192000 
  693000   0.73616225    -4.805223    -4.805223   -3.7009799  0.010878868    -4.805223    1.1042431      8192000 
  694000   0.73646949   -4.8060577   -4.8060577   -3.7013537  0.009734961   -4.8060577     1.104704      8192000 
  695000   0.73617864   -4.8058609   -4.8058609   -3.7015932   0.01027869   -4.8058609    1.1042677      8192000 
  696000   0.73611066   -4.8061578   -4.8061578   -3.7019921 0.0087964376   -4.8061578    1.1041657      8192000 
  697000   0.73615462   -4.8065527   -4.8065527   -3.7023211 0.0072472002   -4.8065527    1.1042317      8192000 
  698000   0.73577105   -4.8061938   -4.8061938   -3.7025375 0.0076278294   -4.8061938    1.1036563      8192000 
  699000   0.73633812   -4.8074864   -4.8074864   -3.7029795 0.0075230606   -4.8074864    1.1045069      8192000 
  700000    0.7362747   -4.8076089   -4.8076089   -3.7031972 0.0090429165   -4.8076089    1.1044118      8192000 
  701000   0.73607945   -4.8076625   -4.8076625   -3.7035436 0.0094841998   -4.8076625    1.1041189      8192000 
  702000   0.73617719   -4.8081219   -4.8081219   -3.7038564  0.011472948   -4.8081219    1.1042655      8192000 
  703000   0.73668393   -4.8090331   -4.8090331   -3.7040074   0.01100815   -4.8090331    1.1050256      8192000 
  704000   0.73698289   -4.8096249   -4.8096249   -3.7041508  0.011349026   -4.8096249    1.1054741      8192000 
  705000   0.73763385   -4.8109908   -4.8109908   -3.7045403   0.01093603   -4.8109908    1.1064505      8192000 
  706000   0.73771903   -4.8114446   -4.8114446   -3.7048664  0.013867177   -4.8114446    1.1065783      8192000 
  707000   0.73808567   -4.8124045   -4.8124045   -3.7052762  0.015346971   -4.8124045    1.1071282      8192000 
  708000    0.7383122   -4.8131896   -4.8131896   -3.7057216  0.017128335   -4.8131896     1.107468      8192000 
  709000    0.7383894   -4.8137404   -4.8137404   -3.7061566  0.020530471   -4.8137404    1.1075838      8192000 
  710000   0.73894403   -4.8151128   -4.8151128   -3.7066971  0.018741163   -4.8151128    1.1084158      8192000 
  711000   0.73893075   -4.8155243   -4.8155243   -3.7071284   0.02010301   -4.8155243    1.1083958      8192000 
  712000    0.7386994   -4.8154296   -4.8154296   -3.7073807  0.022727188   -4.8154296    1.1080488      8192000 
  713000   0.73862073   -4.8156083   -4.8156083   -3.7076775  0.022066814   -4.8156083    1.1079308      8192000 
  714000   0.73899343   -4.8164302   -4.8164302   -3.7079403  0.022541627   -4.8164302    1.1084899      8192000 
  715000   0.73885909   -4.8164596   -4.8164596   -3.7081713  0.022192304   -4.8164596    1.1082884      8192000 
  716000   0.73881451   -4.8167066   -4.8167066   -3.7084851   0.02217049   -4.8167066    1.1082215      8192000 
  717000   0.73889396   -4.8172967   -4.8172967    -3.708956  0.019754482   -4.8172967    1.1083407      8192000 
  718000   0.73895673     -4.81745     -4.81745   -3.7090152  0.021093828     -4.81745    1.1084348      8192000 
  719000   0.73890921   -4.8178312   -4.8178312   -3.7094677  0.018844159   -4.8178312    1.1083635      8192000 
  720000   0.73867685    -4.817787    -4.817787    -3.709772  0.018936521    -4.817787     1.108015      8192000 
  721000   0.73831962   -4.8173733   -4.8173733   -3.7098941  0.017311549   -4.8173733    1.1074792      8192000 
  722000   0.73836811   -4.8176299   -4.8176299    -3.710078  0.018219187   -4.8176299    1.1075519      8192000 
  723000   0.73858444   -4.8182667   -4.8182667   -3.7103904  0.017914484   -4.8182667    1.1078764      8192000 
  724000    0.7384979   -4.8183938   -4.8183938   -3.7106473  0.018935166   -4.8183938    1.1077466      8192000 
  725000   0.73846908   -4.8188107   -4.8188107   -3.7111073  0.020073662   -4.8188107    1.1077033      8192000 
  726000   0.73902406   -4.8200387   -4.8200387   -3.7115029  0.018886604   -4.8200387    1.1085358      8192000 
  727000   0.73898733   -4.8203155   -4.8203155   -3.7118348  0.021558679   -4.8203155    1.1084807      8192000 
  728000   0.73947831   -4.8214921   -4.8214921   -3.7122749  0.024050832   -4.8214921    1.1092172      8192000 
  729000   0.73977147    -4.822176    -4.822176   -3.7125191  0.025527949    -4.822176    1.1096569      8192000 
  730000   0.74055269   -4.8237749   -4.8237749   -3.7129462  0.029951233   -4.8237749    1.1108288      8192000 
  731000   0.74140951   -4.8255403   -4.8255403   -3.7134263  0.032994059   -4.8255403     1.112114      8192000 
  732000   0.74155461   -4.8260222   -4.8260222   -3.7136906  0.039382181   -4.8260222    1.1123316      8192000 
  733000   0.74246623   -4.8278654   -4.8278654   -3.7141663  0.044172916   -4.8278654    1.1136991      8192000 
  734000   0.74361352   -4.8298609   -4.8298609   -3.7144408  0.048343754   -4.8298609      1.11542      8192000 
  735000   0.74465127   -4.8319241   -4.8319241   -3.7149475  0.054405628   -4.8319241    1.1169766      8192000 
  736000   0.74626606   -4.8347241   -4.8347241   -3.7153253  0.062911529   -4.8347241    1.1193988      8192000 
  737000   0.74765313   -4.8372915   -4.8372915   -3.7158121  0.071629465   -4.8372915    1.1214794      8192000 
  738000   0.74920331   -4.8400266   -4.8400266   -3.7162219  0.079554092   -4.8400266    1.1238047      8192000 
  739000   0.75049477   -4.8423732   -4.8423732   -3.7166314   0.08807568   -4.8423732    1.1257419      8192000 
  740000   0.75154367   -4.8444517   -4.8444517   -3.7171365  0.096601122   -4.8444517    1.1273152      8192000 
  741000   0.75245332   -4.8463882   -4.8463882   -3.7177085   0.10354565   -4.8463882    1.1286797      8192000 
  742000   0.75366066   -4.8487619   -4.8487619   -3.7182712   0.10676646   -4.8487619    1.1304907      8192000 
  743000   0.75449364   -4.8503778   -4.8503778   -3.7186377   0.11164789   -4.8503778    1.1317402      8192000 
  744000     0.754784   -4.8515811   -4.8515811   -3.7194054   0.11486827   -4.8515811    1.1321757      8192000 
  745000   0.75511662   -4.8526262   -4.8526262   -3.7199515    0.1167391   -4.8526262    1.1326746      8192000 
  746000   0.75508241   -4.8531073   -4.8531073   -3.7204839   0.11835344   -4.8531073    1.1326233      8192000 
  747000   0.75498629   -4.8535578   -4.8535578   -3.7210787   0.11874905   -4.8535578    1.1324792      8192000 
  748000   0.75455102   -4.8534746   -4.8534746   -3.7216483   0.11682457   -4.8534746    1.1318262      8192000 
  749000   0.75417509   -4.8533355   -4.8533355   -3.7220731   0.11135387   -4.8533355    1.1312624      8192000 
  750000   0.75339169   -4.8526344   -4.8526344   -3.7225472   0.10799484   -4.8526344    1.1300873      8192000 
  751000   0.75226541   -4.8513631   -4.8513631   -3.7229653   0.10361574   -4.8513631    1.1283978      8192000 
  752000   0.75116606   -4.8500282   -4.8500282   -3.7232794   0.10025732   -4.8500282    1.1267488      8192000 
  753000    0.7500979   -4.8489689   -4.8489689   -3.7238223  0.093012755   -4.8489689    1.1251466      8192000 
  754000   0.74889436   -4.8474551   -4.8474551   -3.7241139  0.086452416   -4.8474551    1.1233413      8192000 
  755000   0.74759359   -4.8459208   -4.8459208   -3.7245307  0.078689496   -4.8459208    1.1213901      8192000 
  756000   0.74589473    -4.843608    -4.843608   -3.7247662  0.071391904    -4.843608    1.1188418      8192000 
  757000   0.74435401   -4.8418142   -4.8418142   -3.7252835  0.062586204   -4.8418142    1.1165307      8192000 
  758000   0.74248427   -4.8393113   -4.8393113   -3.7255851  0.053764916   -4.8393113    1.1137261      8192000 
  759000   0.74083505   -4.8370828   -4.8370828   -3.7258305  0.043508541   -4.8370828    1.1112523      8192000 
  760000   0.73892266    -4.834443    -4.834443   -3.7260593  0.035184939    -4.834443    1.1083837      8192000 
  761000   0.73716607   -4.8320592   -4.8320592   -3.7263104  0.025571204   -4.8320592    1.1057488      8192000 
  762000   0.73523382    -4.829356    -4.829356   -3.7265055  0.015483544    -4.829356    1.1028505      8192000 
  763000   0.73365079   -4.8269075   -4.8269075   -3.7264316 0.0063838193   -4.8269075    1.1004759      8192000 
  764000   0.73207184   -4.8245526   -4.8245526   -3.7264451 -0.0014425042   -4.8245526    1.0981075      8192000 
  765000   0.73023111   -4.8218303   -4.8218303   -3.7264839 -0.010381993   -4.8218303    1.0953464      8192000 
  766000   0.72867296   -4.8194631   -4.8194631   -3.7264539 -0.017933318   -4.8194631    1.0930092      8192000 
  767000   0.72701851   -4.8171296   -4.8171296   -3.7266021 -0.027014716   -4.8171296    1.0905275      8192000 
  768000   0.72587053   -4.8152829   -4.8152829   -3.7264774 -0.035981276   -4.8152829    1.0888055      8192000 
  769000   0.72410243    -4.812642    -4.812642   -3.7264886 -0.042015422    -4.812642    1.0861534      8192000 
  770000   0.72215511   -4.8100022   -4.8100022   -3.7267698 -0.048571187   -4.8100022    1.0832324      8192000 
  771000   0.72104578   -4.8083139   -4.8083139   -3.7267455 -0.054992094   -4.8083139    1.0815684      8192000 
  772000   0.71988536   -4.8064627   -4.8064627    -3.726635 -0.060022307   -4.8064627    1.0798278      8192000 
  773000   0.71906215   -4.8053976   -4.8053976   -3.7268046 -0.064211857   -4.8053976    1.0785929      8192000 
  774000   0.71790791   -4.8036176   -4.8036176    -3.726756 -0.068859786   -4.8036176    1.0768616      8192000 
  775000   0.71733687   -4.8026272   -4.8026272   -3.7266221 -0.072459797   -4.8026272     1.076005      8192000 
  776000    0.7172691   -4.8027696   -4.8027696   -3.7268662 -0.077183923   -4.8027696    1.0759034      8192000 
  777000    0.7161947   -4.8010557   -4.8010557   -3.7267639 -0.077315913   -4.8010557    1.0742918      8192000 
  778000   0.71591009   -4.8008705   -4.8008705   -3.7270056 -0.078708139   -4.8008705    1.0738649      8192000 
  779000    0.7158417   -4.8007557   -4.8007557   -3.7269934 -0.078733455   -4.8007557    1.0737623      8192000 
  780000    0.7157652   -4.8007173   -4.8007173   -3.7270698 -0.078361198   -4.8007173    1.0736475      8192000 
  781000   0.71620727   -4.8015266   -4.8015266    -3.727216 -0.076853651   -4.8015266    1.0743106      8192000 
  782000   0.71636289   -4.8016367   -4.8016367   -3.7270927 -0.074496913   -4.8016367    1.0745441      8192000 
  783000   0.71673962   -4.8023325   -4.8023325   -3.7272234 -0.070214022   -4.8023325    1.0751092      8192000 
  784000   0.71796161   -4.8041694   -4.8041694   -3.7272273 -0.068505416   -4.8041694    1.0769422      8192000 
  785000   0.71839432   -4.8049262   -4.8049262    -3.727335 -0.062621459   -4.8049262    1.0775912      8192000 
  786000   0.71975203    -4.807187    -4.807187   -3.7275592 -0.060643358    -4.807187    1.0796278      8192000 
  787000   0.72058184   -4.8084786   -4.8084786   -3.7276061 -0.052371562   -4.8084786    1.0808725      8192000 
  788000   0.72198105   -4.8105572   -4.8105572   -3.7275859 -0.047482412   -4.8105572    1.0829713      8192000 
  789000   0.72326415   -4.8126833   -4.8126833   -3.7277873 -0.040703005   -4.8126833     1.084896      8192000 
  790000   0.72469249   -4.8147761   -4.8147761   -3.7277376 -0.033298988   -4.8147761    1.0870385      8192000 
  791000   0.72630655   -4.8174986   -4.8174986   -3.7280391 -0.026593967   -4.8174986    1.0894595      8192000 
  792000   0.72787454   -4.8200247   -4.8200247   -3.7282132 -0.018648646   -4.8200247    1.0918115      8192000 
  793000   0.72905707   -4.8218116   -4.8218116   -3.7282263 -0.0082366783   -4.8218116    1.0935853      8192000 
  794000   0.73080798   -4.8249506   -4.8249506   -3.7287389 -0.0021267657   -4.8249506    1.0962117      8192000 
  795000   0.73253297   -4.8277044   -4.8277044   -3.7289052 0.0070068661   -4.8277044    1.0987992      8192000 
  796000   0.73397313   -4.8303115   -4.8303115   -3.7293521  0.015531132   -4.8303115    1.1009594      8192000 
  797000   0.73538588   -4.8326463   -4.8326463   -3.7295678  0.025804303   -4.8326463    1.1030786      8192000 
  798000   0.73715886    -4.835795    -4.835795    -3.730057  0.032051977    -4.835795     1.105738      8192000 
  799000   0.73816815   -4.8376992   -4.8376992   -3.7304473  0.043361752   -4.8376992     1.107252      8192000 
  800000   0.74014883   -4.8410953   -4.8410953   -3.7308723  0.048985901   -4.8410953     1.110223      8192000 
  801000   0.74128793   -4.8433987   -4.8433987   -3.7314671  0.057971906   -4.8433987    1.1119316      8192000 
  802000   0.74254426   -4.8455908   -4.8455908   -3.7317747  0.066682346   -4.8455908    1.1138161      8192000 
  803000   0.74384552   -4.8479892   -4.8479892   -3.7322212  0.073875726   -4.8479892     1.115768      8192000 
  804000   0.74498821   -4.8503223   -4.8503223   -3.7328403  0.080007871   -4.8503223     1.117482      8192000 
  805000   0.74576221   -4.8519394   -4.8519394   -3.7332963  0.085546585   -4.8519394     1.118643      8192000 
  806000   0.74647275   -4.8534627   -4.8534627   -3.7337539  0.090255853   -4.8534627    1.1197088      8192000 
  807000   0.74695366   -4.8547319   -4.8547319   -3.7343016  0.095765178   -4.8547319    1.1204302      8192000 
  808000   0.74777657   -4.8565188   -4.8565188   -3.7348543  0.098531774   -4.8565188    1.1216646      8192000 
  809000   0.74826489   -4.8577701   -4.8577701    -3.735373   0.10164893   -4.8577701    1.1223971      8192000 
  810000   0.74841101   -4.8582504   -4.8582504   -3.7356342   0.10371599   -4.8582504    1.1226162      8192000 
  811000    0.7484965   -4.8590191   -4.8590191   -3.7362746   0.10305738   -4.8590191    1.1227445      8192000 
  812000   0.74834433   -4.8592912   -4.8592912    -3.736775   0.10416592   -4.8592912    1.1225162      8192000 
  813000    0.7482955    -4.859469    -4.859469    -3.737026   0.10310739    -4.859469     1.122443      8192000 
  814000   0.74794039   -4.8593354   -4.8593354   -3.7374251   0.10087422   -4.8593354    1.1219103      8192000 
  815000   0.74695664   -4.8582883   -4.8582883   -3.7378536  0.098772443   -4.8582883    1.1204347      8192000 
  816000   0.74634042   -4.8578495   -4.8578495   -3.7383391  0.094024049   -4.8578495    1.1195103      8192000 
  817000   0.74568169   -4.8574318   -4.8574318   -3.7389096  0.089032414   -4.8574318    1.1185223      8192000 
  818000   0.74440487   -4.8556269   -4.8556269   -3.7390199  0.084312119   -4.8556269     1.116607      8192000 
  819000   0.74343097   -4.8545027   -4.8545027   -3.7393566  0.076233791   -4.8545027    1.1151462      8192000 
  820000   0.74199739   -4.8525689   -4.8525689   -3.7395731  0.070224164   -4.8525689    1.1129958      8192000 
  821000   0.74041329   -4.8504073   -4.8504073   -3.7397877  0.063554399   -4.8504073    1.1106197      8192000 
  822000   0.73915752   -4.8487607   -4.8487607   -3.7400247  0.055760374   -4.8487607     1.108736      8192000 
  823000   0.73751164   -4.8466163   -4.8466163   -3.7403491  0.048490881   -4.8466163    1.1062672      8192000 
  824000   0.73658423   -4.8453829   -4.8453829   -3.7405068  0.039627392   -4.8453829    1.1048761      8192000 
  825000   0.73466341   -4.8427455   -4.8427455   -3.7407507  0.031626714   -4.8427455    1.1019948      8192000 
  826000   0.73326731   -4.8409041   -4.8409041   -3.7410035  0.023465195   -4.8409041    1.0999007      8192000 
  827000   0.73146499   -4.8384405   -4.8384405   -3.7412433  0.015509584   -4.8384405    1.0971972      8192000 
  828000   0.72977771   -4.8362107   -4.8362107   -3.7415444 0.0066860868   -4.8362107    1.0946663      8192000 
  829000   0.72820679   -4.8338493   -4.8338493   -3.7415394 -0.00056316912   -4.8338493    1.0923099      8192000 
  830000   0.72705483   -4.8320748   -4.8320748   -3.7414928 -0.0091312725   -4.8320748     1.090582      8192000 
  831000   0.72538777   -4.8295397   -4.8295397   -3.7414583  -0.01532251   -4.8295397    1.0880814      8192000 
  832000   0.72416375   -4.8277981   -4.8277981   -3.7415527 -0.023486927   -4.8277981    1.0862454      8192000 
  833000   0.72290253   -4.8259432   -4.8259432   -3.7415897  -0.02912173   -4.8259432    1.0843535      8192000 
  834000   0.72193553   -4.8245123   -4.8245123   -3.7416093 -0.037107323   -4.8245123     1.082903      8192000 
  835000   0.72040463   -4.8221473   -4.8221473   -3.7415406 -0.041446621   -4.8221473    1.0806067      8192000 
  836000   0.71914107   -4.8203432   -4.8203432   -3.7416319 -0.046992756   -4.8203432    1.0787113      8192000 
  837000   0.71824088   -4.8190614   -4.8190614   -3.7417003 -0.052101801   -4.8190614    1.0773611      8192000 
  838000   0.71697646   -4.8171168   -4.8171168   -3.7416524 -0.053971465   -4.8171168    1.0754644      8192000 
  839000   0.71668917   -4.8165217   -4.8165217   -3.7414882 -0.057608501   -4.8165217    1.0750335      8192000 
  840000    0.7162328   -4.8158846   -4.8158846   -3.7415356 -0.060711381   -4.8158846    1.0743489      8192000 
  841000   0.71542065   -4.8146173   -4.8146173   -3.7414865 -0.061003423   -4.8146173    1.0731307      8192000 
  842000   0.71556334   -4.8146246   -4.8146246   -3.7412799 -0.063141397   -4.8146246    1.0733447      8192000 
  843000   0.71565763   -4.8148926   -4.8148926   -3.7414064  -0.06452008   -4.8148926    1.0734862      8192000 
  844000   0.71552564    -4.814724    -4.814724   -3.7414358 -0.063648225    -4.814724    1.0732882      8192000 
  845000   0.71536736   -4.8145666   -4.8145666   -3.7415158 -0.062242316   -4.8145666    1.0730508      8192000 
  846000   0.71582304   -4.8151292   -4.8151292   -3.7413949 -0.060980662   -4.8151292    1.0737343      8192000 
  847000   0.71655974   -4.8162277   -4.8162277   -3.7413883   -0.0591798   -4.8162277    1.0748393      8192000 
  848000    0.7168814   -4.8166487   -4.8166487   -3.7413269 -0.056631112   -4.8166487    1.0753218      8192000 
  849000   0.71784583    -4.817946    -4.817946   -3.7411775 -0.051960177    -4.817946    1.0767685      8192000 
  850000   0.71854109    -4.819098    -4.819098   -3.7412866 -0.046740742    -4.819098    1.0778114      8192000 
  851000   0.71964357   -4.8208282   -4.8208282   -3.7413631 -0.043158859   -4.8208282    1.0794651      8192000 
  852000   0.72063649   -4.8223792   -4.8223792   -3.7414247 -0.037102928   -4.8223792    1.0809545      8192000 
  853000   0.72192267   -4.8245266   -4.8245266   -3.7416429 -0.031988911   -4.8245266    1.0828837      8192000 
  854000   0.72301559     -4.82625     -4.82625   -3.7417269 -0.025992226     -4.82625    1.0845231      8192000 
  855000   0.72444624   -4.8285477   -4.8285477   -3.7418786  -0.01960835   -4.8285477    1.0866691      8192000 
  856000   0.72536371     -4.83012     -4.83012   -3.7420747  -0.01113119     -4.83012    1.0880453      8192000 
  857000   0.72697045   -4.8328529   -4.8328529   -3.7423975 -0.0059669409   -4.8328529    1.0904554      8192000 
  858000   0.72827777   -4.8350614   -4.8350614    -3.742645 0.0014228468   -4.8350614    1.0924164      8192000 
  859000   0.72939432   -4.8368282   -4.8368282    -3.742737  0.011516146   -4.8368282    1.0940912      8192000 
  860000   0.73101021   -4.8398263   -4.8398263   -3.7433112  0.016640301   -4.8398263     1.096515      8192000 
  861000   0.73199413   -4.8413894   -4.8413894   -3.7433985  0.025238847   -4.8413894    1.0979909      8192000 
  862000   0.73367347    -4.844124    -4.844124    -3.743614  0.031744565    -4.844124    1.1005099      8192000 
  863000   0.73472485   -4.8462435   -4.8462435   -3.7441565  0.040476331   -4.8462435     1.102087      8192000 
  864000   0.73578861   -4.8481715   -4.8481715   -3.7444889  0.047061896   -4.8481715    1.1036826      8192000 
  865000   0.73685161   -4.8501108   -4.8501108   -3.7448336  0.054562305   -4.8501108    1.1052771      8192000 
  866000   0.73812402   -4.8524103   -4.8524103   -3.7452245  0.061012263   -4.8524103    1.1071858      8192000 
  867000   0.73904027   -4.8542394   -4.8542394   -3.7456793  0.066781068   -4.8542394    1.1085601      8192000 
  868000   0.73996563   -4.8560549   -4.8560549   -3.7461067  0.072713904   -4.8560549    1.1099482      8192000 
  869000   0.74068689   -4.8575636   -4.8575636   -3.7465335  0.077844918   -4.8575636    1.1110301      8192000 
  870000   0.74150722   -4.8591895   -4.8591895   -3.7469289  0.081210731   -4.8591895    1.1122606      8192000 
  871000   0.74176086   -4.8600278   -4.8600278   -3.7473867  0.086025952   -4.8600278     1.112641      8192000 
  872000   0.74220609   -4.8612499   -4.8612499    -3.747941  0.088684964   -4.8612499    1.1133089      8192000 
  873000   0.74288694   -4.8626964   -4.8626964   -3.7483663   0.08999734   -4.8626964    1.1143301      8192000 
  874000   0.74267681   -4.8628837   -4.8628837   -3.7488688  0.091859527   -4.8628837    1.1140149      8192000 
  875000   0.74280489    -4.863535    -4.863535    -3.749328  0.092388601    -4.863535    1.1142071      8192000 
  876000   0.74271042   -4.8634978   -4.8634978   -3.7494325  0.092188841   -4.8634978    1.1140653      8192000 
  877000   0.74252498   -4.8638165   -4.8638165   -3.7500293  0.088693452   -4.8638165    1.1137872      8192000 
  878000   0.74147514   -4.8626125   -4.8626125   -3.7504001  0.090084275   -4.8626125    1.1122124      8192000 
  879000   0.74163244   -4.8631807   -4.8631807   -3.7507323  0.084528855   -4.8631807    1.1124484      8192000 
  880000   0.74094436   -4.8623097   -4.8623097   -3.7508934  0.081708616   -4.8623097    1.1114163      8192000 
  881000   0.73992264   -4.8611547   -4.8611547    -3.751271  0.078261602   -4.8611547    1.1098837      8192000 
  882000   0.73896076   -4.8599039   -4.8599039    -3.751463  0.073784801   -4.8599039    1.1084409      8192000 
  883000   0.73809108   -4.8589256   -4.8589256   -3.7517893  0.067768839   -4.8589256    1.1071363      8192000 
  884000   0.73736579   -4.8581481   -4.8581481   -3.7520997  0.060851973   -4.8581481    1.1060484      8192000 
  885000   0.73566521   -4.8557407   -4.8557407   -3.7522431  0.057164338   -4.8557407    1.1034975      8192000 
  886000   0.73466952   -4.8544763   -4.8544763   -3.7524723  0.048080367   -4.8544763     1.102004      8192000 
  887000    0.7332855   -4.8526034   -4.8526034   -3.7526754   0.04197726   -4.8526034     1.099928      8192000 
  888000   0.73195888   -4.8507441   -4.8507441   -3.7528061   0.03560757   -4.8507441     1.097938      8192000 
  889000    0.7303222   -4.8486099   -4.8486099   -3.7531269  0.029058554   -4.8486099     1.095483      8192000 
  890000   0.72946683   -4.8474898   -4.8474898   -3.7532898  0.020529417   -4.8474898       1.0942      8192000 
  891000   0.72813418   -4.8456044   -4.8456044   -3.7534034   0.01272422   -4.8456044     1.092201      8192000 
  892000   0.72679879   -4.8437522   -4.8437522   -3.7535542 0.0058761624   -4.8437522    1.0901979      8192000 
  893000   0.72541466   -4.8417996   -4.8417996   -3.7536779 -0.00036228268   -4.8417996    1.0881217      8192000 
  894000   0.72421085   -4.8399969   -4.8399969   -3.7536809 -0.0073278398   -4.8399969     1.086316      8192000 
  895000   0.72302326   -4.8382787   -4.8382787   -3.7537441   -0.0133976   -4.8382787    1.0845346      8192000 
  896000   0.72155716   -4.8358853   -4.8358853   -3.7535498 -0.017661454   -4.8358853    1.0823355      8192000 
  897000   0.72084583   -4.8346962   -4.8346962   -3.7534277 -0.023951732   -4.8346962    1.0812685      8192000 
  898000   0.72002511   -4.8334903   -4.8334903   -3.7534529 -0.029952348   -4.8334903    1.0800374      8192000 
  899000   0.71871075   -4.8314494   -4.8314494   -3.7533835 -0.034091146   -4.8314494    1.0780659      8192000 
  900000   0.71799498   -4.8300799   -4.8300799   -3.7530876 -0.038510255   -4.8300799    1.0769922      8192000 
  901000   0.71742533   -4.8291214   -4.8291214   -3.7529837 -0.043262631   -4.8291214    1.0761377      8192000 
  902000   0.71719172   -4.8288465   -4.8288465   -3.7530592 -0.047416646   -4.8288465    1.0757873      8192000 
  903000   0.71616621   -4.8273757   -4.8273757   -3.7531267 -0.046919579   -4.8273757     1.074249      8192000 
  904000   0.71574619   -4.8266606   -4.8266606   -3.7530415 -0.049221928   -4.8266606     1.073619      8192000 
  905000   0.71549216   -4.8262074   -4.8262074   -3.7529694 -0.051227032   -4.8262074     1.073238      8192000 
  906000   0.71500644   -4.8254052   -4.8254052   -3.7528958 -0.049962347   -4.8254052    1.0725094      8192000 
  907000   0.71562838   -4.8263802   -4.8263802   -3.7529379 -0.052201641   -4.8263802    1.0734423      8192000 
  908000   0.71541419   -4.8260074   -4.8260074   -3.7528864 -0.051722262   -4.8260074     1.073121      8192000 
  909000   0.71536842   -4.8257671   -4.8257671   -3.7527147 -0.047632262   -4.8257671    1.0730524      8192000 
  910000   0.71623585   -4.8270152   -4.8270152   -3.7526617 -0.047374906   -4.8270152    1.0743535      8192000 
  911000    0.7166274   -4.8275474   -4.8275474   -3.7526065 -0.045328439   -4.8275474    1.0749408      8192000 
  912000   0.71724058    -4.828261    -4.828261   -3.7524004 -0.041005652    -4.828261    1.0758606      8192000 
  913000   0.71789364   -4.8293871   -4.8293871   -3.7525469 -0.038033278   -4.8293871    1.0768402      8192000 
  914000   0.71866459   -4.8304338   -4.8304338   -3.7524371 -0.032967344   -4.8304338    1.0779966      8192000 
  915000   0.71937413   -4.8316099   -4.8316099    -3.752549 -0.029985668   -4.8316099    1.0790609      8192000 
  916000   0.72028305   -4.8332057   -4.8332057   -3.7527814 -0.025983873   -4.8332057    1.0804243      8192000 
  917000   0.72112887   -4.8344265   -4.8344265   -3.7527335 -0.018168984   -4.8344265     1.081693      8192000 
  918000   0.72245194   -4.8367022   -4.8367022   -3.7530246 -0.014131704   -4.8367022    1.0836776      8192000 
  919000   0.72355228   -4.8384362   -4.8384362    -3.753108 -0.0082573339   -4.8384362    1.0853281      8192000 
  920000   0.72491329    -4.840611    -4.840611   -3.7532414 -0.0016246661    -4.840611    1.0873697      8192000 
  921000   0.72595248      -4.8422      -4.8422   -3.7532715 0.0055690109      -4.8422    1.0889284      8192000 
  922000   0.72707578   -4.8441672   -4.8441672   -3.7535538  0.010141814   -4.8441672    1.0906134      8192000 
  923000   0.72833986   -4.8464815   -4.8464815    -3.753972  0.016480836   -4.8464815    1.0925095      8192000 
  924000   0.72961325   -4.8484254   -4.8484254   -3.7540058  0.025183241   -4.8484254    1.0944196      8192000 
  925000   0.73029906   -4.8497163   -4.8497163    -3.754268   0.03191352   -4.8497163    1.0954483      8192000 
  926000   0.73125678   -4.8514717   -4.8514717   -3.7545868  0.038431291   -4.8514717    1.0968849      8192000 
  927000   0.73223376      -4.8531      -4.8531   -3.7547496  0.044524854      -4.8531    1.0983504      8192000 
  928000    0.7337652   -4.8556964   -4.8556964   -3.7550489  0.047537648   -4.8556964    1.1006475      8192000 
  929000   0.73434618   -4.8568478   -4.8568478   -3.7553288  0.054608255   -4.8568478     1.101519      8192000 
  930000   0.73494453   -4.8581717   -4.8581717   -3.7557552  0.060045264   -4.8581717    1.1024165      8192000 
  931000   0.73562533   -4.8594916   -4.8594916   -3.7560539  0.065256015   -4.8594916    1.1034377      8192000 
  932000   0.73628691   -4.8609653   -4.8609653   -3.7565352  0.067857289   -4.8609653    1.1044301      8192000 
  933000   0.73665003   -4.8616783   -4.8616783   -3.7567035  0.073345347   -4.8616783    1.1049748      8192000 
  934000   0.73750894   -4.8633856   -4.8633856   -3.7571224  0.075255156   -4.8633856    1.1062631      8192000 
  935000   0.73785164   -4.8642468   -4.8642468   -3.7574697  0.076787214   -4.8642468    1.1067772      8192000 
  936000   0.73774122   -4.8646106   -4.8646106    -3.757999  0.078760238   -4.8646106    1.1066116      8192000 
  937000   0.73788582   -4.8651946   -4.8651946   -3.7583662  0.079884316   -4.8651946    1.1068285      8192000 
  938000    0.7379531   -4.8656143   -4.8656143    -3.758685  0.079362076   -4.8656143    1.1069294      8192000 
  939000   0.73825398   -4.8665757   -4.8665757    -3.759195  0.079162437   -4.8665757    1.1073807      8192000 
  940000   0.73757717   -4.8658871   -4.8658871   -3.7595216  0.079023387   -4.8658871    1.1063655      8192000 
  941000    0.7372312   -4.8658025   -4.8658025   -3.7599559  0.076676529   -4.8658025    1.1058465      8192000 
  942000   0.73660301   -4.8650243   -4.8650243   -3.7601201  0.074524535   -4.8650243    1.1049042      8192000 
  943000   0.73625467   -4.8649883   -4.8649883   -3.7606066  0.071199606   -4.8649883    1.1043817      8192000 
  944000    0.7353396   -4.8636987   -4.8636987   -3.7606896  0.069217188   -4.8636987    1.1030091      8192000 
  945000   0.73475812   -4.8630368   -4.8630368   -3.7608999  0.064043194   -4.8630368    1.1021369      8192000 
  946000   0.73420324   -4.8622994   -4.8622994   -3.7609948  0.059157362   -4.8622994    1.1013046      8192000 
  947000   0.73328758   -4.8611588   -4.8611588   -3.7612277  0.053323046   -4.8611588    1.0999311      8192000 
  948000   0.73200321   -4.8593933   -4.8593933   -3.7613888  0.050161952   -4.8593933    1.0980045      8192000 
  949000   0.73120008   -4.8584725   -4.8584725   -3.7616727  0.043174494   -4.8584725    1.0967998      8192000 
  950000   0.72970549   -4.8564603   -4.8564603   -3.7619024  0.037354083   -4.8564603     1.094558      8192000 
  951000   0.72867068   -4.8550238   -4.8550238    -3.762018   0.03053721   -4.8550238    1.0930058      8192000 
  952000   0.72741323   -4.8531975   -4.8531975   -3.7620779  0.026196491   -4.8531975    1.0911196      8192000 
  953000   0.72664189    -4.852225    -4.852225   -3.7622624  0.019722717    -4.852225    1.0899626      8192000 
  954000   0.72544285   -4.8506217   -4.8506217   -3.7624577  0.012898602   -4.8506217     1.088164      8192000 
  955000   0.72438776    -4.849078    -4.849078   -3.7624966 0.0060358385    -4.849078    1.0865814      8192000 
  956000   0.72319481   -4.8472016   -4.8472016   -3.7624097 0.0013220087   -4.8472016    1.0847919      8192000 
  957000   0.72247427   -4.8461894   -4.8461894   -3.7624782 -0.0052476313   -4.8461894    1.0837111      8192000 
  958000   0.72128711   -4.8442191   -4.8442191   -3.7622888 -0.0096046637   -4.8442191    1.0819304      8192000 
  959000   0.72017561   -4.8427378   -4.8427378   -3.7624746 -0.014561861   -4.8427378    1.0802632      8192000 
  960000   0.71987252   -4.8421019   -4.8421019   -3.7622934  -0.02000118   -4.8421019    1.0798085      8192000 
  961000   0.71863443   -4.8403209   -4.8403209   -3.7623695 -0.023367304   -4.8403209    1.0779514      8192000 
  962000   0.71821325   -4.8397449   -4.8397449   -3.7624253 -0.028817456   -4.8397449    1.0773196      8192000 
  963000   0.71734099   -4.8383958   -4.8383958   -3.7623846 -0.031525674   -4.8383958    1.0760112      8192000 
  964000   0.71656674   -4.8371704   -4.8371704   -3.7623206 -0.033561062   -4.8371704    1.0748498      8192000 
  965000   0.71601335   -4.8360786   -4.8360786   -3.7620588 -0.034357276   -4.8360786    1.0740198      8192000 
  966000   0.71595991   -4.8360199   -4.8360199   -3.7620803 -0.036585811   -4.8360199    1.0739396      8192000 
  967000   0.71556271   -4.8353752   -4.8353752   -3.7620314 -0.037987446   -4.8353752    1.0733438      8192000 
  968000   0.71550123   -4.8350731   -4.8350731   -3.7618215 -0.037765154   -4.8350731    1.0732516      8192000 
  969000   0.71562466   -4.8350424   -4.8350424   -3.7616057  -0.03899842   -4.8350424    1.0734367      8192000 
  970000   0.71560202   -4.8349314   -4.8349314   -3.7615286 -0.039105604   -4.8349314    1.0734028      8192000 
  971000   0.71580361   -4.8349324   -4.8349324   -3.7612273 -0.037479167   -4.8349324    1.0737051      8192000 
  972000   0.71579955    -4.835022    -4.835022   -3.7613229 -0.036754605    -4.835022    1.0736991      8192000 
  973000   0.71647425     -4.83586     -4.83586   -3.7611489 -0.036380757     -4.83586    1.0747111      8192000 
  974000    0.7168998   -4.8364261   -4.8364261   -3.7610767 -0.032962992   -4.8364261    1.0753494      8192000 
  975000   0.71745933    -4.837257    -4.837257   -3.7610683 -0.029855917    -4.837257    1.0761887      8192000 
  976000    0.7183228   -4.8386443   -4.8386443   -3.7611603 -0.027670439   -4.8386443    1.0774839      8192000 
  977000    0.7184918   -4.8389803   -4.8389803   -3.7612428  -0.02387896   -4.8389803    1.0777374      8192000 
  978000   0.71901754   -4.8396822   -4.8396822   -3.7611562 -0.018152873   -4.8396822     1.078526      8192000 
  979000   0.71989034   -4.8409407   -4.8409407   -3.7611055 -0.014600587   -4.8409407    1.0798352      8192000 
  980000   0.72062294   -4.8420304   -4.8420304   -3.7610962 -0.010362565   -4.8420304    1.0809341      8192000 
  981000   0.72183232   -4.8437847   -4.8437847   -3.7610365 -0.0049394479   -4.8437847    1.0827482      8192000 
  982000   0.72287192   -4.8454498   -4.8454498   -3.7611422 -0.0011420667   -4.8454498    1.0843076      8192000 
  983000   0.72308022   -4.8460774   -4.8460774   -3.7614573 0.0071633401   -4.8460774    1.0846201      8192000 
  984000    0.7245642   -4.8484008   -4.8484008   -3.7615548  0.011016718   -4.8484008     1.086846      8192000 
  985000   0.72539573   -4.8500645   -4.8500645   -3.7619712  0.015177669   -4.8500645    1.0880933      8192000 
  986000   0.72598657   -4.8511442   -4.8511442   -3.7621646  0.021989856   -4.8511442    1.0889796      8192000 
  987000   0.72716022   -4.8531151   -4.8531151   -3.7623751  0.025361815   -4.8531151    1.0907401      8192000 
  988000    0.7281284   -4.8546118   -4.8546118   -3.7624195  0.031122726   -4.8546118    1.0921923      8192000 
  989000   0.72856089   -4.8554622   -4.8554622   -3.7626212  0.038055001   -4.8554622    1.0928411      8192000 
  990000   0.72958756   -4.8572164   -4.8572164   -3.7628353  0.040396518   -4.8572164    1.0943811      8192000 
  991000   0.73045521   -4.8587181   -4.8587181   -3.7630356  0.045550376   -4.8587181    1.0956825      8192000 
  992000   0.73081742   -4.8595122   -4.8595122   -3.7632864  0.051495844   -4.8595122    1.0962259      8192000 
  993000    0.7315597   -4.8608129   -4.8608129   -3.7634736   0.05430019   -4.8608129    1.0973393      8192000 
  994000   0.73191615   -4.8615086   -4.8615086   -3.7636346  0.059962904   -4.8615086    1.0978739      8192000 
  995000   0.73283991   -4.8632347   -4.8632347   -3.7639751   0.05992664   -4.8632347    1.0992596      8192000 
  996000   0.73291397   -4.8636882   -4.8636882   -3.7643175  0.063361853   -4.8636882    1.0993707      8192000 
  997000   0.73343477   -4.8650847   -4.8650847   -3.7649328   0.06356044   -4.8650847    1.1001519      8192000 
  998000   0.73319319   -4.8648677   -4.8648677   -3.7650781   0.06699107   -4.8648677    1.0997895      8192000 
  999000   0.73324533   -4.8654991   -4.8654991   -3.7656314  0.068137254   -4.8654991    1.0998677      8192000 
 1000000   0.73399329   -4.8668516   -4.8668516   -3.7658619  0.066259732   -4.8668516    1.1009897      8192000 
Loop time of 42664.2 on 128 procs for 1000000 steps with 3993600 atoms

Performance: 5062.798 tau/day, 23.439 timesteps/s
99.6% CPU use with 128 MPI tasks x 1 OpenMP threads

MPI task timing breakdown:
Section |  min time  |  avg time  |  max time  |%varavg|  %CPU | %total
-----------------------------------------------------------------------
Pair    | 10429      | 15589      | 27640      |1807.7 |  99.7 | 36.54
Bond    | 0.62686    | 0.94094    | 1.5182     |  32.1 | 100.0 |  0.00
Neigh   | 2261.3     | 3339.9     | 5292.4     | 710.2 | 100.0 |  7.83
Comm    | 5150       | 19102      | 26869      |1959.8 |  99.4 | 44.77
Output  | 1215.2     | 1695.1     | 1698.9     | 103.4 |  99.2 |  3.97
Modify  | 399.8      | 759.79     | 2646.3     |1825.2 |  99.7 |  1.78
Other   |            | 2178       |            |       |       |  5.10

Nlocal:        31200.0 ave       32239 max       26535 min
Histogram: 2 2 7 5 0 0 1 10 30 71
Nghost:        18112.3 ave       20701 max       13037 min
Histogram: 16 0 3 13 0 0 0 48 32 16
Neighs:    1.20789e+06 ave 1.46692e+06 max      833306 min
Histogram: 11 5 0 0 0 48 33 11 6 14

Total # of neighbors = 1.5460966e+08
Ave neighs/atom = 38.714358
Ave special neighs/atom = 0.0000000
Neighbor list builds = 65868
Dangerous builds = 2288
Total wall time: 11:51:10
