LAMMPS (24 Dec 2020)
OMP_NUM_THREADS environment is not set. Defaulting to 1 thread. (src/comm.cpp:94)
  using 1 OpenMP thread(s) per MPI task
# Simple rigid body system
# needed variables:

units		lj
atom_style	full
dimension 	3
boundary	p p f
pair_style	lj/cut/opt 2.5


variable 	sigma		equal 1.0
variable 	epsilon 	equal 1.0


region		box block 0 80 0 80 0 80
create_box 	3 box
Created orthogonal box = (0.0000000 0.0000000 0.0000000) to (80.000000 80.000000 80.000000)
  2 by 4 by 4 MPI processor grid
lattice 	sc 1.0
Lattice spacing in x,y,z = 1.0000000 1.0000000 1.0000000

create_atoms 	1 region box
Created 512000 atoms
  create_atoms CPU = 0.034 seconds

mass		1 1.0
mass		2 1.0
mass		3 1.0


group		solvent type 1
512000 atoms in group solvent


velocity 	solvent create ${startTemp} 563435 loop geom
velocity 	solvent create 0.5 563435 loop geom

read_data	data.vac add append
Reading data file ...
  orthogonal box = (0.0000000 0.0000000 0.0000000) to (80.000000 80.000000 160.00000)
  2 by 2 by 8 MPI processor grid
Finding 1-2 1-3 1-4 neighbors ...
  special bond factors lj:    0        0        0       
  special bond factors coul:  0        0        0       
     0 = max # of 1-2 neighbors
     0 = max # of 1-3 neighbors
     0 = max # of 1-4 neighbors
     1 = max # of special neighbors
  special bonds CPU = 0.081 seconds
  read_data CPU = 0.089 seconds

neighbor 	0.4 bin

pair_coeff	1 1 1.0 1.0
pair_coeff	2 2 0.0 0.0
pair_coeff	3 3 0.0 0.0
pair_coeff	2 3 0.0 0.0
pair_coeff	1 2*3 0.0 0.0

pair_modify 	shift yes


balance 	1.05 shift z 10 1.05
Balancing ...
Neighbor list info ...
  update every 1 steps, delay 10 steps, check yes
  max neighbors/atom: 2000, page size: 100000
  master list distance cutoff = 2.9
  ghost atom cutoff = 2.9
  binsize = 1.45, bins = 56 56 111
  1 neighbor lists, perpetual/occasional/extra = 1 0 0
  (1) pair lj/cut/opt, perpetual
      attributes: half, newton on
      pair build: half/bin/newton
      stencil: half/bin/3d/newton
      bin: standard
 rebalancing time: 0.016 seconds
  iteration count = 5
  initial/final maximal load/proc = 32000.000 19200.000
  initial/final imbalance factor  = 2.0000000 1.2000000
  x cuts: 0.0000000 0.50000000 1.0000000
  y cuts: 0.0000000 0.50000000 1.0000000
  z cuts: 0.0000000 0.062500000 0.12890625 0.18750000 0.25781250 0.30859375 0.38671875 0.43750000 1.0000000


####################### WALLS ###########################


region	       low block  EDGE EDGE EDGE EDGE 0 2

region 	       top block  EDGE EDGE EDGE EDGE 159 160


delete_atoms   region low
WARNING: Ignoring 'compress yes' for molecular system (src/delete_atoms.cpp:125)
Deleted 19200 atoms, new total = 492800

delete_atoms   region top
WARNING: Ignoring 'compress yes' for molecular system (src/delete_atoms.cpp:125)
Deleted 0 atoms, new total = 492800


variable       epsilonWall equal 2*${epsilon}
variable       epsilonWall equal 2*1

variable       cutoffTop   equal   0.7147*${sigma}
variable       cutoffTop   equal   0.7147*1

variable       cutoffLow   equal   3*${sigma}
variable       cutoffLow   equal   3*1


fix            topWall all wall/lj93 zhi EDGE                ${epsilonWall} ${sigma} ${cutoffTop} units box
fix            topWall all wall/lj93 zhi EDGE                2 ${sigma} ${cutoffTop} units box
fix            topWall all wall/lj93 zhi EDGE                2 1 ${cutoffTop} units box
fix            topWall all wall/lj93 zhi EDGE                2 1 0.7147 units box

fix            lowWall all wall/lj93 zlo EDGE                ${epsilonWall} ${sigma} ${cutoffLow} units box
fix            lowWall all wall/lj93 zlo EDGE                2 ${sigma} ${cutoffLow} units box
fix            lowWall all wall/lj93 zlo EDGE                2 1 ${cutoffLow} units box
fix            lowWall all wall/lj93 zlo EDGE                2 1 3 units box


###################### COMPUTES ##########################

compute        bin1 solvent chunk/atom bin/1d z upper 1.0



######################	FIXES ############################


fix 		peclet solvent ave/chunk 1000 1 1000 bin1 density/number norm 		 none ave one file density.profile

fix 		2 solvent nve

## Thermostat


region		regthermo block EDGE EDGE EDGE EDGE 0 20

group 		thermo dynamic solvent region regthermo every 1000
dynamic group thermo defined

fix 		3 thermo langevin ${startTemp} ${temp} 10 156453
fix 		3 thermo langevin 0.5 ${temp} 10 156453
fix 		3 thermo langevin 0.5 .8 10 156453



#### Load balancing


fix 		bal all balance 1000 1.05 shift z 10 1.05


############### Diagnostics and computes ###################
#compute 	com cube	  rigid/local	1 mol x y z
#compute 	quat cube	  rigid/local	1 mol quatw quati quatj quatk

thermo 		1000
thermo_style 	custom step temp epair evdwl etotal press pe ke vol

dump		1 all custom 100000 dump.lammpstrj id mol type x y z
dump 		2 all image 10000 image.*.png type type
dump 		3 all movie 1000 movie.avi type type
#dump 		com cube local 1000 dump.*.xyz c_com[*]
#dump		quat cube      local 1000 dump.*.quat c_quat[*]


restart 	500000 restart.dat
timestep 	0.0025
timer 		full
New timer settings: style=full  mode=nosync  timeout=off


run		1000000
Per MPI rank memory allocation (min/avg/max) = 21.45 | 22.19 | 22.73 Mbytes
Step Temp E_pair E_vdwl TotEng Press PotEng KinEng Volume 
       0   0.49998514   -3.2974116   -3.2974116   -2.5474355    8.3319627   -3.2974116   0.74997619      1024000 
    1000    1.4274971   -4.8137548   -4.8137548   -2.6725135    3.6866942   -4.8137548    2.1412413      1024000 
    2000    1.3646909   -4.8597253   -4.8597253   -2.8126931    2.4761974   -4.8597253    2.0470322      1024000 
    3000    1.2650288   -4.8388569   -4.8388569   -2.9413175    1.6271786   -4.8388569    1.8975394      1024000 
    4000    1.2130081   -4.8489293   -4.8489293   -3.0294208   0.72231626   -4.8489293    1.8195085      1024000 
    5000     1.142687   -4.7871924   -4.7871924   -3.0731654  0.083303425   -4.7871924    1.7140271      1024000 
    6000    1.0640102   -4.6840847   -4.6840847   -3.0880727  -0.25461658   -4.6840847     1.596012      1024000 
    7000    1.0040169   -4.5959699   -4.5959699   -3.0899475  -0.35392371   -4.5959699    1.5060224      1024000 
    8000   0.98955429   -4.5745037   -4.5745037   -3.0901753  -0.24626994   -4.5745037    1.4843284      1024000 
    9000    1.0024697   -4.5987261   -4.5987261   -3.0950245 -0.097601285   -4.5987261    1.5037015      1024000 
   10000    1.0092939   -4.6202747   -4.6202747    -3.106337 -0.010771643   -4.6202747    1.5139377      1024000 
   11000    1.0094198   -4.6326251   -4.6326251   -3.1184984  0.019973707   -4.6326251    1.5141267      1024000 
   12000    1.0097026   -4.6429054   -4.6429054   -3.1283546  0.040183955   -4.6429054    1.5145508      1024000 
   13000    1.0107144   -4.6530478   -4.6530478   -3.1369793   0.07073667   -4.6530478    1.5160686      1024000 
   14000    1.0126974   -4.6643334   -4.6643334   -3.1452904  0.094194513   -4.6643334     1.519043      1024000 
   15000    1.0095711    -4.667176    -4.667176   -3.1528224  0.086164635    -4.667176    1.5143536      1024000 
   16000    1.0053419    -4.667065    -4.667065   -3.1590552  0.093821925    -4.667065    1.5080098      1024000 
   17000    1.0039936   -4.6709476   -4.6709476   -3.1649604  0.094730214   -4.6709476    1.5059873      1024000 
   18000    1.0029756   -4.6746659   -4.6746659   -3.1702055  0.094903761   -4.6746659    1.5044603      1024000 
   19000    1.0026653   -4.6787586   -4.6787586   -3.1747636   0.10426064   -4.6787586    1.5039949      1024000 
   20000    1.0034019   -4.6833445   -4.6833445   -3.1782447   0.11641344   -4.6833445    1.5050998      1024000 
   21000    1.0017301   -4.6848375   -4.6848375   -3.1822453   0.10668042   -4.6848375    1.5025922      1024000 
   22000    1.0008249   -4.6866338   -4.6866338   -3.1853995   0.10987654   -4.6866338    1.5012344      1024000 
   23000   0.99901597   -4.6873775   -4.6873775   -3.1888566   0.12236827   -4.6873775    1.4985209      1024000 
   24000      1.00648   -4.7026054   -4.7026054   -3.1928884   0.27739636   -4.7026054     1.509717      1024000 
   25000    1.0202824    -4.725712    -4.725712   -3.1952916   0.75301838    -4.725712    1.5304204      1024000 
   26000    1.0326498   -4.7463985   -4.7463985    -3.197427    1.0256654   -4.7463985    1.5489715      1024000 
   27000      1.04039    -4.759834    -4.759834   -3.1992522    1.3647869    -4.759834    1.5605818      1024000 
   28000    1.0418761   -4.7639246   -4.7639246   -3.2011135    1.6153171   -4.7639246     1.562811      1024000 
   29000    1.0187225   -4.7313043   -4.7313043   -3.2032236    1.2625266   -4.7313043    1.5280807      1024000 
   30000   0.99495874   -4.6969435   -4.6969435   -3.2045084   0.91810131   -4.6969435    1.4924351      1024000 
   31000    0.9756684   -4.6686623   -4.6686623   -3.2051627   0.58400313   -4.6686623    1.4634996      1024000 
   32000   0.95124166   -4.6334474   -4.6334474   -3.2065878   0.35302747   -4.6334474    1.4268596      1024000 
   33000   0.92027612   -4.5884816   -4.5884816   -3.2080702   0.20827023   -4.5884816    1.3804114      1024000 
   34000   0.88414737    -4.536168    -4.536168   -3.2099496  0.063869973    -4.536168    1.3262184      1024000 
   35000   0.85563632   -4.4947844   -4.4947844   -3.2113325 -0.039099316   -4.4947844    1.2834519      1024000 
   36000   0.83565284   -4.4662523   -4.4662523   -3.2127756 -0.083638649   -4.4662523    1.2534767      1024000 
   37000    0.8244367   -4.4511182   -4.4511182   -3.2144657 -0.086317959   -4.4511182    1.2366525      1024000 
   38000   0.82459402   -4.4529106   -4.4529106   -3.2160221 -0.076413682   -4.4529106    1.2368885      1024000 
   39000   0.82879256   -4.4602806   -4.4602806   -3.2170943 -0.060563613   -4.4602806    1.2431863      1024000 
   40000    0.8372673   -4.4743138   -4.4743138   -3.2184154 -0.021974664   -4.4743138    1.2558984      1024000 
   41000   0.84972815     -4.49481     -4.49481   -3.2202204  0.024546251     -4.49481    1.2745896      1024000 
   42000   0.86126314   -4.5132251   -4.5132251    -3.221333  0.078238441   -4.5132251    1.2918921      1024000 
   43000    0.8689685   -4.5262368   -4.5262368   -3.2227867    0.1144718   -4.5262368    1.3034501      1024000 
   44000   0.87440662   -4.5357807   -4.5357807   -3.2241734   0.13539966   -4.5357807    1.3116073      1024000 
   45000   0.87603571   -4.5400621   -4.5400621   -3.2260112   0.15042709   -4.5400621    1.3140509      1024000 
   46000   0.87617235   -4.5416732   -4.5416732   -3.2274173   0.14514841   -4.5416732    1.3142559      1024000 
   47000   0.87026638   -4.5345391   -4.5345391   -3.2291421   0.12552939   -4.5345391    1.3053969      1024000 
   48000   0.86172578   -4.5231821   -4.5231821   -3.2305961  0.087414023   -4.5231821     1.292586      1024000 
   49000    0.8514999   -4.5093753   -4.5093753   -3.2321281  0.044449169   -4.5093753    1.2772473      1024000 
   50000   0.84092766   -4.4953624   -4.4953624   -3.2339735 0.0060126189   -4.4953624    1.2613889      1024000 
   51000   0.83284809   -4.4849207   -4.4849207   -3.2356511 -0.021778855   -4.4849207    1.2492696      1024000 
   52000   0.83066828   -4.4829097   -4.4829097   -3.2369098 -0.022610645   -4.4829097    1.2459999      1024000 
   53000   0.83071162   -4.4846081   -4.4846081   -3.2385432   -0.0160781   -4.4846081    1.2460649      1024000 
   54000   0.83316882   -4.4905776   -4.4905776   -3.2408269 -0.0046526003   -4.4905776    1.2497507      1024000 
   55000   0.84041281   -4.5041358   -4.5041358   -3.2435192  0.029049265   -4.5041358    1.2606167      1024000 
   56000   0.84972422   -4.5209162   -4.5209162   -3.2463325  0.057302078   -4.5209162    1.2745837      1024000 
   57000   0.85734634   -4.5351684   -4.5351684   -3.2491515  0.084014491   -4.5351684    1.2860169      1024000 
   58000   0.86269363   -4.5450056   -4.5450056   -3.2509678   0.11631002   -4.5450056    1.2940378      1024000 
   59000   0.86676053   -4.5538603   -4.5538603   -3.2537221   0.13774189   -4.5538603    1.3001382      1024000 
   60000   0.86914234   -4.5598842   -4.5598842   -3.2561734   0.14221009   -4.5598842    1.3037109      1024000 
   61000   0.86696622   -4.5598178   -4.5598178   -3.2593711    0.1479181   -4.5598178    1.3004467      1024000 
   62000   0.86498083   -4.5597424   -4.5597424   -3.2622737   0.14250859   -4.5597424    1.2974686      1024000 
   63000   0.86514792   -4.5646122   -4.5646122   -3.2668929   0.14429859   -4.5646122    1.2977192      1024000 
   64000   0.86628128   -4.5712618   -4.5712618   -3.2718425   0.16454998   -4.5712618    1.2994193      1024000 
   65000   0.86969068   -4.5819244   -4.5819244   -3.2773911   0.20246816   -4.5819244    1.3045334      1024000 
   66000    0.8752206   -4.5962699   -4.5962699   -3.2834417   0.25885887   -4.5962699    1.3128282      1024000 
   67000   0.88041746   -4.6135581   -4.6135581   -3.2929346   0.31551511   -4.6135581    1.3206235      1024000 
   68000   0.88356568   -4.6298106   -4.6298106   -3.3044647    0.3530581   -4.6298106    1.3253458      1024000 
   69000   0.88320306   -4.6413626   -4.6413626   -3.3165607   0.35282722   -4.6413626    1.3248019      1024000 
   70000   0.87357058   -4.6388126   -4.6388126   -3.3284594   0.33754237   -4.6388126    1.3103532      1024000 
   71000    0.8612248   -4.6282497   -4.6282497   -3.3364151   0.28069258   -4.6282497    1.2918346      1024000 
   72000   0.84760109   -4.6181672   -4.6181672   -3.3467682   0.29757199   -4.6181672    1.2713991      1024000 
   73000    0.8375912   -4.6252124   -4.6252124   -3.3688281   0.37382325   -4.6252124    1.2563842      1024000 
   74000    0.8293317   -4.6390705   -4.6390705   -3.3950754   0.42206131   -4.6390705     1.243995      1024000 
   75000    0.8238633   -4.6557648   -4.6557648   -3.4199724   0.43076781   -4.6557648    1.2357924      1024000 
   76000    0.8248558   -4.6781903   -4.6781903   -3.4409091   0.42194077   -4.6781903    1.2372812      1024000 
   77000   0.82771359   -4.6988715   -4.6988715   -3.4573036   0.41607186   -4.6988715    1.2415679      1024000 
   78000   0.83241871   -4.7174981   -4.7174981   -3.4688726   0.42884601   -4.7174981    1.2486255      1024000 
   79000   0.83981431   -4.7371172   -4.7371172   -3.4773983   0.45413747   -4.7371172    1.2597189      1024000 
   80000   0.83404401   -4.7348263   -4.7348263   -3.4837629    0.4248356   -4.7348263    1.2510635      1024000 
   81000   0.81716789   -4.7140886   -4.7140886   -3.4883393   0.31602769   -4.7140886    1.2257493      1024000 
   82000    0.7967223   -4.6887433   -4.6887433   -3.4936623   0.22365712   -4.6887433     1.195081      1024000 
   83000   0.77811208   -4.6667403   -4.6667403   -3.4995746   0.15204295   -4.6667403    1.1671657      1024000 
   84000   0.76175949   -4.6480715   -4.6480715   -3.5054346   0.10379416   -4.6480715    1.1426369      1024000 
   85000   0.74765786   -4.6337753   -4.6337753   -3.5122908  0.054870475   -4.6337753    1.1214845      1024000 
   86000   0.73372285   -4.6196512   -4.6196512   -3.5190692 0.0035503172   -4.6196512     1.100582      1024000 
   87000   0.72478018   -4.6100503   -4.6100503   -3.5228822 -0.066041418   -4.6100503    1.0871681      1024000 
   88000   0.71586068   -4.5985971   -4.5985971   -3.5248083  -0.12274253   -4.5985971    1.0737888      1024000 
   89000   0.70832916   -4.5859225   -4.5859225   -3.5234309  -0.16930858   -4.5859225    1.0624916      1024000 
   90000   0.70364476   -4.5762148   -4.5762148   -3.5207498  -0.19986598   -4.5762148     1.055465      1024000 
   91000   0.69879991   -4.5642389   -4.5642389   -3.5160411  -0.21848871   -4.5642389    1.0481977      1024000 
   92000   0.69576925   -4.5548361   -4.5548361   -3.5111844  -0.22576489   -4.5548361    1.0436518      1024000 
   93000   0.69468356   -4.5487917   -4.5487917   -3.5067685  -0.22700265   -4.5487917    1.0420232      1024000 
   94000   0.69363079   -4.5444019   -4.5444019   -3.5039578  -0.22296439   -4.5444019    1.0404441      1024000 
   95000   0.69569372   -4.5457167   -4.5457167   -3.5021782  -0.21443604   -4.5457167    1.0435385      1024000 
   96000   0.69775219   -4.5488132   -4.5488132    -3.502187  -0.18633993   -4.5488132    1.0466262      1024000 
   97000   0.70276421   -4.5582932   -4.5582932    -3.504149   -0.1546486   -4.5582932    1.0541442      1024000 
   98000   0.70879364   -4.5702211   -4.5702211   -3.5070328  -0.11577755   -4.5702211    1.0631883      1024000 
   99000   0.71677297   -4.5862026   -4.5862026   -3.5110453 -0.079589987   -4.5862026    1.0751573      1024000 
  100000   0.72413859   -4.6021442   -4.6021442   -3.5159385 -0.040822769   -4.6021442    1.0862057      1024000 
  101000   0.73119745   -4.6180575   -4.6180575   -3.5212636 -0.012335785   -4.6180575    1.0967939      1024000 
  102000   0.73646348   -4.6313146   -4.6313146   -3.5266216 0.0062108328   -4.6313146     1.104693      1024000 
  103000   0.73932334   -4.6394279   -4.6394279   -3.5304451  0.020985795   -4.6394279    1.1089828      1024000 
  104000   0.73901599   -4.6429642   -4.6429642   -3.5344425  0.015376656   -4.6429642    1.1085217      1024000 
  105000   0.73524243   -4.6408773   -4.6408773   -3.5380159  0.011914378   -4.6408773    1.1028614      1024000 
  106000    0.7338035    -4.641512    -4.641512    -3.540809 -0.0040923445    -4.641512     1.100703      1024000 
  107000    0.7295505   -4.6378387   -4.6378387   -3.5435152 -0.013000049   -4.6378387    1.0943235      1024000 
  108000   0.72668249    -4.636353    -4.636353   -3.5463315 -0.016667023    -4.636353    1.0900215      1024000 
  109000   0.72493296   -4.6369943   -4.6369943   -3.5495971  -0.01426884   -4.6369943    1.0873972      1024000 
  110000   0.72554685   -4.6408263   -4.6408263   -3.5525082 -0.0095067126   -4.6408263    1.0883181      1024000 
  111000    0.7265961   -4.6456402   -4.6456402   -3.5557483 -0.0086719913   -4.6456402    1.0898919      1024000 
  112000   0.72790098   -4.6504611   -4.6504611   -3.5586118 0.0036966477   -4.6504611    1.0918492      1024000 
  113000   0.73136158   -4.6584854   -4.6584854   -3.5614452 0.0075344103   -4.6584854    1.0970401      1024000 
  114000   0.73176894   -4.6620787   -4.6620787   -3.5644275  0.012302322   -4.6620787    1.0976512      1024000 
  115000   0.73292231   -4.6652667   -4.6652667   -3.5658854  0.015453724   -4.6652667    1.0993812      1024000 
  116000   0.73286223   -4.6672544   -4.6672544   -3.5679632  0.012691524   -4.6672544    1.0992911      1024000 
  117000   0.73178414   -4.6680136   -4.6680136   -3.5703396  0.015684625   -4.6680136     1.097674      1024000 
  118000   0.73061112   -4.6683736   -4.6683736   -3.5724591  0.016603903   -4.6683736    1.0959145      1024000 
  119000   0.73037827   -4.6704057   -4.6704057   -3.5748406  0.011238823   -4.6704057    1.0955652      1024000 
  120000   0.72899311   -4.6714656   -4.6714656   -3.5779781 0.0095966797   -4.6714656    1.0934874      1024000 
  121000   0.72764881   -4.6725588   -4.6725588   -3.5810878  0.010488519   -4.6725588     1.091471      1024000 
  122000   0.72730616    -4.674703    -4.674703    -3.583746 0.0069931731    -4.674703     1.090957      1024000 
  123000   0.72690091   -4.6764034   -4.6764034   -3.5860542 0.0033091141   -4.6764034    1.0903491      1024000 
  124000   0.72786866   -4.6802781   -4.6802781   -3.5884773 0.0043134074   -4.6802781    1.0918008      1024000 
  125000   0.72770534    -4.682238    -4.682238   -3.5906822 0.0084207896    -4.682238    1.0915558      1024000 
  126000    0.7286235   -4.6851391   -4.6851391   -3.5922061  0.010290094   -4.6851391     1.092933      1024000 
  127000   0.72917862   -4.6877902   -4.6877902   -3.5940245  0.021230658   -4.6877902    1.0937657      1024000 
  128000   0.72975662   -4.6908265   -4.6908265   -3.5961938  0.017941726   -4.6908265    1.0946327      1024000 
  129000    0.7292943   -4.6925073   -4.6925073   -3.5985681  0.020982237   -4.6925073    1.0939392      1024000 
  130000   0.72948327   -4.6945958   -4.6945958   -3.6003731  0.017189842   -4.6945958    1.0942227      1024000 
  131000   0.72913523   -4.6962995   -4.6962995   -3.6025988   0.02601892   -4.6962995    1.0937006      1024000 
  132000   0.72731558   -4.6960096   -4.6960096   -3.6050384  0.029705287   -4.6960096    1.0909712      1024000 
  133000   0.72790781   -4.6995011   -4.6995011   -3.6076416  0.027080319   -4.6995011    1.0918595      1024000 
  134000   0.72813021   -4.7020021   -4.7020021    -3.609809  0.031530475   -4.7020021    1.0921931      1024000 
  135000   0.72867157   -4.7050284   -4.7050284   -3.6120232  0.035398246   -4.7050284    1.0930051      1024000 
  136000   0.72799151   -4.7064554   -4.7064554   -3.6144704  0.037337191   -4.7064554     1.091985      1024000 
  137000   0.72846898   -4.7094166   -4.7094166   -3.6167153    0.0392398   -4.7094166    1.0927013      1024000 
  138000   0.73076946   -4.7149274   -4.7149274   -3.6187754  0.037749064   -4.7149274     1.096152      1024000 
  139000   0.73164268   -4.7181823   -4.7181823   -3.6207205  0.043493135   -4.7181823    1.0974618      1024000 
  140000   0.73198801   -4.7205438   -4.7205438    -3.622564  0.044627393   -4.7205438    1.0979798      1024000 
  141000   0.73210947   -4.7226182   -4.7226182   -3.6244562  0.053258924   -4.7226182     1.098162      1024000 
  142000   0.73023481   -4.7227114   -4.7227114   -3.6273614  0.055589977   -4.7227114      1.09535      1024000 
  143000   0.73032643   -4.7256347   -4.7256347   -3.6301472  0.053368832   -4.7256347    1.0954874      1024000 
  144000   0.72907276   -4.7266109   -4.7266109    -3.633004  0.051495337   -4.7266109    1.0936069      1024000 
  145000   0.72612594   -4.7243656   -4.7243656   -3.6351789  0.053657783   -4.7243656    1.0891867      1024000 
  146000   0.72629293    -4.727158    -4.727158   -3.6377208  0.045802153    -4.727158    1.0894372      1024000 
  147000   0.72397563   -4.7264823   -4.7264823   -3.6405211  0.042045622   -4.7264823    1.0859612      1024000 
  148000   0.72373192   -4.7276409   -4.7276409   -3.6420452  0.033473066   -4.7276409    1.0855957      1024000 
  149000   0.72282136    -4.728275    -4.728275   -3.6440452  0.022566318    -4.728275    1.0842298      1024000 
  150000   0.72138352   -4.7273867   -4.7273867   -3.6453136  0.016258252   -4.7273867    1.0820731      1024000 
  151000    0.7195464     -4.72516     -4.72516   -3.6458425 0.0066595504     -4.72516    1.0793174      1024000 
  152000   0.71794081   -4.7233829   -4.7233829   -3.6464739 0.0046370147   -4.7233829     1.076909      1024000 
  153000   0.71647685   -4.7222849   -4.7222849   -3.6475718 -0.00053813934   -4.7222849    1.0747131      1024000 
  154000   0.71416943   -4.7201967   -4.7201967   -3.6489448 -0.0046845067   -4.7201967     1.071252      1024000 
  155000   0.71202816   -4.7188944   -4.7188944   -3.6508543 -0.011364544   -4.7188944    1.0680401      1024000 
  156000   0.71288665   -4.7207948   -4.7207948    -3.651467 -0.022849936   -4.7207948    1.0693278      1024000 
  157000   0.71147563   -4.7197042   -4.7197042   -3.6524929 -0.022468505   -4.7197042    1.0672113      1024000 
  158000   0.71153559   -4.7212705   -4.7212705   -3.6539693 -0.017459917   -4.7212705    1.0673012      1024000 
  159000    0.7117607   -4.7222214   -4.7222214   -3.6545825  -0.02151565   -4.7222214    1.0676389      1024000 
  160000   0.71188445   -4.7226003   -4.7226003   -3.6547758  -0.02539401   -4.7226003    1.0678245      1024000 
  161000   0.71200253   -4.7236583   -4.7236583   -3.6556567 -0.019253954   -4.7236583    1.0680016      1024000 
  162000   0.71224817   -4.7243755   -4.7243755   -3.6560054 -0.018366896   -4.7243755    1.0683701      1024000 
  163000   0.71338219   -4.7268578   -4.7268578   -3.6567867 -0.015462544   -4.7268578    1.0700711      1024000 
  164000   0.71354299   -4.7285665   -4.7285665   -3.6582542 -0.0096985552   -4.7285665    1.0703123      1024000 
  165000   0.71436444   -4.7314942   -4.7314942   -3.6599498 -0.0032437609   -4.7314942    1.0715445      1024000 
  166000   0.71386543   -4.7322204   -4.7322204   -3.6614244 0.0010994033   -4.7322204     1.070796      1024000 
  167000   0.71540466   -4.7362663   -4.7362663   -3.6631615 0.0044629512   -4.7362663    1.0731048      1024000 
  168000    0.7154192   -4.7378079   -4.7378079   -3.6646813  0.014153315   -4.7378079    1.0731266      1024000 
  169000   0.71705746   -4.7419677   -4.7419677   -3.6663837  0.015010025   -4.7419677     1.075584      1024000 
  170000   0.71754053   -4.7439081   -4.7439081   -3.6675995    0.0248566   -4.7439081    1.0763086      1024000 
  171000   0.71800743   -4.7466159   -4.7466159    -3.669607  0.032604901   -4.7466159     1.077009      1024000 
  172000     0.719486   -4.7503487   -4.7503487   -3.6711219  0.029215102   -4.7503487    1.0792268      1024000 
  173000   0.71858959   -4.7515319   -4.7515319   -3.6736497   0.03598784   -4.7515319    1.0778822      1024000 
  174000   0.71800157   -4.7520611   -4.7520611   -3.6750609  0.041812886   -4.7520611    1.0770002      1024000 
  175000    0.7190154    -4.755716    -4.755716   -3.6771951  0.034336255    -4.755716    1.0785209      1024000 
  176000    0.7183608   -4.7566996   -4.7566996   -3.6791606  0.034439316   -4.7566996     1.077539      1024000 
  177000   0.71611023   -4.7547875   -4.7547875   -3.6806243  0.037730824   -4.7547875    1.0741632      1024000 
  178000   0.71564067    -4.755393    -4.755393   -3.6819342  0.036142034    -4.755393    1.0734588      1024000 
  179000   0.71488194   -4.7560901   -4.7560901   -3.6837693  0.034188258   -4.7560901    1.0723207      1024000 
  180000   0.71482295   -4.7587715   -4.7587715   -3.6865393  0.026030145   -4.7587715    1.0722323      1024000 
  181000   0.71322435   -4.7579445   -4.7579445   -3.6881101  0.021776148   -4.7579445    1.0698343      1024000 
  182000   0.71245772   -4.7581312   -4.7581312   -3.6894468  0.015792845   -4.7581312    1.0686844      1024000 
  183000   0.71119471   -4.7573426   -4.7573426   -3.6905527  0.014564372   -4.7573426    1.0667899      1024000 
  184000   0.71160641   -4.7587062   -4.7587062   -3.6912987 0.0039436616   -4.7587062    1.0674075      1024000 
  185000   0.70984691   -4.7568532   -4.7568532    -3.692085 0.0074528246   -4.7568532    1.0647682      1024000 
  186000   0.70857391   -4.7562684   -4.7562684   -3.6934097 -0.00024688158   -4.7562684    1.0628587      1024000 
  187000   0.70723608   -4.7553255   -4.7553255   -3.6944735 -0.0021771815   -4.7553255     1.060852      1024000 
  188000    0.7070822   -4.7561788   -4.7561788   -3.6955577 -0.0052813299   -4.7561788    1.0606211      1024000 
  189000   0.70637224   -4.7562797   -4.7562797   -3.6967235 -0.0077221293   -4.7562797    1.0595562      1024000 
  190000   0.70518904   -4.7550208   -4.7550208   -3.6972394 -0.0057410704   -4.7550208    1.0577814      1024000 
  191000    0.7068379   -4.7583576   -4.7583576   -3.6981029 -0.013349491   -4.7583576    1.0602547      1024000 
  192000   0.70640178   -4.7582843   -4.7582843   -3.6986838 -0.0092810999   -4.7582843    1.0596005      1024000 
  193000   0.70606989    -4.758291    -4.758291   -3.6991883 -0.0083367786    -4.758291    1.0591027      1024000 
  194000   0.70649662   -4.7596812   -4.7596812   -3.6999385 -0.0074992148   -4.7596812    1.0597428      1024000 
  195000   0.70699108   -4.7611132   -4.7611132   -3.7006287 -0.0053154488   -4.7611132    1.0604845      1024000 
  196000   0.70584671   -4.7608529   -4.7608529    -3.702085 -0.0010816882   -4.7608529    1.0587679      1024000 
  197000   0.70792219   -4.7638276   -4.7638276   -3.7019465 0.00019011422   -4.7638276    1.0618811      1024000 
  198000   0.70779762   -4.7652487   -4.7652487   -3.7035544 0.0075511562   -4.7652487    1.0616943      1024000 
  199000   0.70750378   -4.7666934   -4.7666934   -3.7054399  0.011576863   -4.7666934    1.0612535      1024000 
  200000   0.70861044   -4.7691945   -4.7691945    -3.706281  0.011721049   -4.7691945    1.0629135      1024000 
  201000   0.70797501   -4.7697852   -4.7697852   -3.7078249   0.01991551   -4.7697852    1.0619604      1024000 
  202000   0.70864567   -4.7724409   -4.7724409   -3.7094746  0.018409323   -4.7724409    1.0629664      1024000 
  203000   0.70917594   -4.7748243   -4.7748243   -3.7110625   0.02286108   -4.7748243    1.0637617      1024000 
  204000   0.70870063   -4.7755512   -4.7755512   -3.7125024  0.025427146   -4.7755512    1.0630488      1024000 
  205000   0.70835245   -4.7764632   -4.7764632   -3.7139366  0.027145187   -4.7764632    1.0625265      1024000 
  206000    0.7096293   -4.7800094   -4.7800094   -3.7155676  0.023257015   -4.7800094    1.0644418      1024000 
  207000   0.70817459    -4.779193    -4.779193   -3.7169333  0.031577503    -4.779193    1.0622597      1024000 
  208000   0.70778597    -4.778812    -4.778812   -3.7171352  0.030925802    -4.778812    1.0616768      1024000 
  209000   0.70793565   -4.7807972   -4.7807972   -3.7188958    0.0279048   -4.7807972    1.0619013      1024000 
  210000   0.70646745   -4.7800499   -4.7800499   -3.7203509  0.027108293   -4.7800499     1.059699      1024000 
  211000   0.70788092   -4.7831477   -4.7831477   -3.7213285  0.020579663   -4.7831477    1.0618192      1024000 
  212000   0.70691305   -4.7824784   -4.7824784   -3.7221109  0.024516553   -4.7824784    1.0603674      1024000 
  213000   0.70686999   -4.7826107   -4.7826107   -3.7223079  0.015916923   -4.7826107    1.0603028      1024000 
  214000   0.70530893   -4.7809215   -4.7809215   -3.7229602  0.020660091   -4.7809215    1.0579612      1024000 
  215000   0.70541983   -4.7822719   -4.7822719   -3.7241443 0.0063890445   -4.7822719    1.0581276      1024000 
  216000   0.70488879    -4.781906    -4.781906   -3.7245749 0.0098338428    -4.781906     1.057331      1024000 
  217000   0.70333346   -4.7805749   -4.7805749   -3.7255768 0.0087045973   -4.7805749     1.054998      1024000 
  218000   0.70366547    -4.781875    -4.781875   -3.7263789 0.0032096375    -4.781875    1.0554961      1024000 
  219000   0.70279247   -4.7816005   -4.7816005    -3.727414 0.0026435766   -4.7816005    1.0541866      1024000 
  220000   0.70178802   -4.7806895   -4.7806895   -3.7280096 0.0028040808   -4.7806895    1.0526799      1024000 
  221000   0.70234522   -4.7819934   -4.7819934   -3.7284777 -0.0027815167   -4.7819934    1.0535157      1024000 
  222000   0.70177419   -4.7817085   -4.7817085   -3.7290494 -0.0017817963   -4.7817085    1.0526591      1024000 
  223000   0.70117445   -4.7817058   -4.7817058   -3.7299463 -0.0045611434   -4.7817058    1.0517595      1024000 
  224000   0.70148632   -4.7823728   -4.7823728   -3.7301455 0.0013388011   -4.7823728    1.0522273      1024000 
  225000   0.70088723   -4.7822301   -4.7822301   -3.7309014  0.002537862   -4.7822301    1.0513287      1024000 
  226000   0.70087967   -4.7827898   -4.7827898   -3.7314725 0.0011602592   -4.7827898    1.0513174      1024000 
  227000   0.70152642   -4.7851511   -4.7851511   -3.7328636 -0.00013428935   -4.7851511    1.0522875      1024000 
  228000   0.70157761   -4.7857455   -4.7857455   -3.7333812 0.0070123826   -4.7857455    1.0523643      1024000 
  229000   0.70152762    -4.785826    -4.785826   -3.7335367 0.0086200005    -4.785826    1.0522893      1024000 
  230000   0.70283098   -4.7881362   -4.7881362   -3.7338919  0.010450262   -4.7881362    1.0542443      1024000 
  231000   0.70265602   -4.7891906   -4.7891906   -3.7352087  0.013246341   -4.7891906    1.0539819      1024000 
  232000   0.70336819   -4.7911835   -4.7911835   -3.7361334  0.011617838   -4.7911835    1.0550501      1024000 
  233000    0.7031266   -4.7920874   -4.7920874   -3.7373996  0.017068538   -4.7920874    1.0546878      1024000 
  234000   0.70295551   -4.7925249   -4.7925249   -3.7380937   0.02000374   -4.7925249    1.0544311      1024000 
  235000   0.70338584   -4.7937848   -4.7937848   -3.7387082  0.025850825   -4.7937848    1.0550766      1024000 
  236000    0.7028215   -4.7944973   -4.7944973   -3.7402672  0.020254166   -4.7944973    1.0542301      1024000 
  237000    0.7017336   -4.7943765   -4.7943765   -3.7417783  0.026524071   -4.7943765    1.0525983      1024000 
  238000    0.7035874   -4.7984267   -4.7984267   -3.7430477  0.016591796   -4.7984267     1.055379      1024000 
  239000   0.70220695   -4.7975892   -4.7975892   -3.7442809  0.023434086   -4.7975892    1.0533083      1024000 
  240000   0.70194536   -4.7980909   -4.7980909    -3.745175  0.023361927   -4.7980909    1.0529159      1024000 
  241000   0.70313954    -4.800705    -4.800705   -3.7459979   0.01601109    -4.800705    1.0547072      1024000 
  242000   0.70173157   -4.7993638   -4.7993638   -3.7467686  0.021219752   -4.7993638    1.0525952      1024000 
  243000   0.70120627   -4.7999946   -4.7999946   -3.7481874  0.019953646   -4.7999946    1.0518073      1024000 
  244000   0.70083397   -4.8002124   -4.8002124   -3.7489636  0.020208621   -4.8002124    1.0512488      1024000 
  245000   0.70028125   -4.7995975   -4.7995975   -3.7491777  0.020731833   -4.7995975    1.0504197      1024000 
  246000    0.6997073   -4.8002347   -4.8002347   -3.7506759   0.01243817   -4.8002347    1.0495588      1024000 
  247000   0.70034254   -4.8012813   -4.8012813   -3.7507696 0.0083432021   -4.8012813    1.0505117      1024000 
  248000   0.69883275   -4.7990709   -4.7990709   -3.7508239    0.0130018   -4.7990709     1.048247      1024000 
  249000   0.69902225    -4.800055    -4.800055   -3.7515238  0.011690224    -4.800055    1.0485313      1024000 
  250000   0.69915418   -4.8006234   -4.8006234   -3.7518943 0.0074895553   -4.8006234    1.0487291      1024000 
  251000    0.6993316   -4.8017428   -4.8017428   -3.7527476 0.0057131036   -4.8017428    1.0489953      1024000 
  252000   0.69805069   -4.8004647   -4.8004647   -3.7533908 0.0069554715   -4.8004647    1.0470739      1024000 
  253000    0.6977339   -4.8002492   -4.8002492   -3.7536505 0.0068037083   -4.8002492    1.0465987      1024000 
  254000   0.69729124   -4.8004321   -4.8004321   -3.7544974 0.0043413486   -4.8004321    1.0459347      1024000 
  255000   0.69789857   -4.8016656   -4.8016656   -3.7548199 0.0063763226   -4.8016656    1.0468457      1024000 
  256000   0.69731666   -4.8014441   -4.8014441   -3.7554712 0.0043420012   -4.8014441    1.0459729      1024000 
  257000   0.69740662   -4.8016413   -4.8016413   -3.7555335 0.0073757049   -4.8016413    1.0461078      1024000 
  258000   0.69825577   -4.8030679   -4.8030679   -3.7556864   0.00570419   -4.8030679    1.0473815      1024000 
  259000   0.69763801   -4.8023255   -4.8023255   -3.7558706 0.0092311403   -4.8023255    1.0464549      1024000 
  260000   0.69867155   -4.8038133   -4.8038133   -3.7558081 0.0093634006   -4.8038133    1.0480052      1024000 
  261000     0.698923   -4.8054274   -4.8054274   -3.7570451 0.0069135053   -4.8054274    1.0483824      1024000 
  262000   0.69799274   -4.8049506   -4.8049506   -3.7579636  0.010067702   -4.8049506     1.046987      1024000 
  263000   0.69774947   -4.8054741   -4.8054741    -3.758852  0.011843741   -4.8054741    1.0466221      1024000 
  264000   0.69808077   -4.8065609   -4.8065609   -3.7594419   0.01648567   -4.8065609     1.047119      1024000 
  265000   0.69770534   -4.8074363   -4.8074363   -3.7608804  0.012206145   -4.8074363    1.0465559      1024000 
  266000   0.69764329   -4.8085313   -4.8085313   -3.7620685  0.014181006   -4.8085313    1.0464628      1024000 
  267000   0.69815236   -4.8093819   -4.8093819   -3.7621555  0.011516215   -4.8093819    1.0472264      1024000 
  268000   0.69696827   -4.8083848   -4.8083848   -3.7629345  0.013426714   -4.8083848    1.0454503      1024000 
  269000   0.69735048   -4.8107406   -4.8107406    -3.764717  0.011131454   -4.8107406    1.0460236      1024000 
  270000   0.69765355   -4.8111022   -4.8111022    -3.764624  0.016121629   -4.8111022    1.0464782      1024000 
  271000   0.69738353   -4.8109559   -4.8109559   -3.7648827  0.018174569   -4.8109559    1.0460732      1024000 
  272000   0.69732942    -4.811311    -4.811311    -3.765319  0.020576712    -4.811311     1.045992      1024000 
  273000   0.69787675   -4.8129249   -4.8129249    -3.766112  0.019754823   -4.8129249     1.046813      1024000 
  274000   0.69827028   -4.8146036   -4.8146036   -3.7672003  0.018823154   -4.8146036    1.0474033      1024000 
  275000   0.69783277   -4.8151132   -4.8151132   -3.7683661   0.01502108   -4.8151132     1.046747      1024000 
  276000   0.69770715   -4.8150812   -4.8150812   -3.7685226  0.017544088   -4.8150812    1.0465586      1024000 
  277000   0.69749826   -4.8157947   -4.8157947   -3.7695494  0.015269774   -4.8157947    1.0462453      1024000 
  278000   0.69650072   -4.8148354   -4.8148354   -3.7700864  0.013974396   -4.8148354     1.044749      1024000 
  279000    0.6957325   -4.8138575   -4.8138575   -3.7702608  0.018011273   -4.8138575    1.0435966      1024000 
  280000   0.69660545   -4.8157069   -4.8157069   -3.7708009  0.013670366   -4.8157069    1.0449061      1024000 
  281000   0.69613738   -4.8152099   -4.8152099   -3.7710059  0.010648576   -4.8152099     1.044204      1024000 
  282000   0.69513441   -4.8135826   -4.8135826   -3.7708831  0.013189579   -4.8135826    1.0426995      1024000 
  283000   0.69625326   -4.8154629   -4.8154629   -3.7710851  0.012314412   -4.8154629    1.0443778      1024000 
  284000   0.69518496   -4.8140961   -4.8140961   -3.7713208  0.014609984   -4.8140961    1.0427753      1024000 
  285000   0.69595996   -4.8159107   -4.8159107   -3.7719729   0.01078045   -4.8159107    1.0439378      1024000 
  286000   0.69577361   -4.8162212   -4.8162212   -3.7725629   0.01091362   -4.8162212    1.0436583      1024000 
  287000   0.69495916   -4.8159031   -4.8159031   -3.7734665 0.0066382466   -4.8159031    1.0424366      1024000 
  288000   0.69462345   -4.8150783   -4.8150783   -3.7731452 0.0078586418   -4.8150783    1.0419331      1024000 
  289000   0.69432805   -4.8151464   -4.8151464   -3.7736564 0.0096059408   -4.8151464      1.04149      1024000 
  290000   0.69423796   -4.8157511   -4.8157511   -3.7743962  0.011131325   -4.8157511    1.0413548      1024000 
  291000   0.69390155   -4.8158458   -4.8158458   -3.7749956 0.0099567096   -4.8158458    1.0408502      1024000 
  292000   0.69469108   -4.8175265   -4.8175265    -3.775492 0.0065703875   -4.8175265    1.0420345      1024000 
  293000   0.69458272   -4.8173862   -4.8173862   -3.7755143 0.0083793388   -4.8173862     1.041872      1024000 
  294000   0.69533858   -4.8188731   -4.8188731   -3.7758674 0.0082450039   -4.8188731    1.0430058      1024000 
  295000   0.69514217   -4.8190486   -4.8190486   -3.7763375  0.013329143   -4.8190486    1.0427111      1024000 
  296000   0.69566533    -4.819392    -4.819392   -3.7758961  0.011879461    -4.819392    1.0434959      1024000 
  297000   0.69470337    -4.818829    -4.818829   -3.7767761  0.014583197    -4.818829    1.0420529      1024000 
  298000    0.6950657    -4.819829    -4.819829   -3.7772326   0.01456768    -4.819829    1.0425964      1024000 
  299000   0.69603917   -4.8217441   -4.8217441   -3.7776875  0.010779794   -4.8217441    1.0440566      1024000 
  300000   0.69502282   -4.8212301   -4.8212301    -3.778698  0.011992382   -4.8212301    1.0425321      1024000 
  301000   0.69465207   -4.8221542   -4.8221542   -3.7801782  0.015765621   -4.8221542     1.041976      1024000 
  302000   0.69390774   -4.8208613   -4.8208613   -3.7800018  0.018463389   -4.8208613    1.0408595      1024000 
  303000   0.69420522   -4.8222966   -4.8222966   -3.7809909   0.01439042   -4.8222966    1.0413057      1024000 
  304000   0.69347943   -4.8219914   -4.8219914   -3.7817744  0.013158846   -4.8219914     1.040217      1024000 
  305000   0.69376886   -4.8223861   -4.8223861   -3.7817349  0.013445278   -4.8223861    1.0406512      1024000 
  306000   0.69472011   -4.8242578   -4.8242578   -3.7821797  0.013706787   -4.8242578    1.0420781      1024000 
  307000   0.69455267   -4.8246015   -4.8246015   -3.7827746  0.016618765   -4.8246015    1.0418269      1024000 
  308000   0.69604463   -4.8262372   -4.8262372   -3.7821724  0.014383203   -4.8262372    1.0440648      1024000 
  309000   0.69551729   -4.8261469   -4.8261469   -3.7828731  0.015890353   -4.8261469    1.0432738      1024000 
  310000   0.69387533   -4.8249845   -4.8249845   -3.7841736  0.019159688   -4.8249845    1.0408109      1024000 
  311000   0.69424979    -4.825689    -4.825689   -3.7843164  0.015626643    -4.825689    1.0413726      1024000 
  312000   0.69465505   -4.8260616   -4.8260616   -3.7840811  0.017053231   -4.8260616    1.0419805      1024000 
  313000   0.69475768   -4.8268332   -4.8268332   -3.7846988  0.014475164   -4.8268332    1.0421344      1024000 
  314000   0.69468007   -4.8263445   -4.8263445   -3.7843265  0.011967017   -4.8263445     1.042018      1024000 
  315000   0.69253417   -4.8241505   -4.8241505   -3.7853513  0.017827975   -4.8241505    1.0387992      1024000 
  316000    0.6935144   -4.8265413   -4.8265413   -3.7862718  0.011646797   -4.8265413    1.0402695      1024000 
  317000   0.69313901   -4.8261454   -4.8261454    -3.786439  0.011664476   -4.8261454    1.0397064      1024000 
  318000    0.6925798   -4.8255918   -4.8255918   -3.7867242  0.015629138   -4.8255918    1.0388676      1024000 
  319000   0.69327673   -4.8267138   -4.8267138   -3.7868008  0.010994577   -4.8267138     1.039913      1024000 
  320000   0.69237877   -4.8261911   -4.8261911    -3.787625  0.010389544   -4.8261911    1.0385661      1024000 
  321000   0.69365442   -4.8270229   -4.8270229   -3.7865434  0.011719427   -4.8270229    1.0404795      1024000 
  322000   0.69261493   -4.8255725   -4.8255725   -3.7866522  0.013267033   -4.8255725    1.0389203      1024000 
  323000   0.69307331   -4.8260134   -4.8260134   -3.7864055  0.013321781   -4.8260134    1.0396079      1024000 
  324000   0.69325833   -4.8274064   -4.8274064   -3.7875211  0.010266408   -4.8274064    1.0398854      1024000 
  325000   0.69394334   -4.8283977   -4.8283977   -3.7874849 0.0089203605   -4.8283977    1.0409129      1024000 
  326000    0.6923392   -4.8260123   -4.8260123   -3.7875056  0.014527576   -4.8260123    1.0385067      1024000 
  327000    0.6931187   -4.8276103   -4.8276103   -3.7879344  0.010906324   -4.8276103    1.0396759      1024000 
  328000   0.69303623   -4.8273716   -4.8273716   -3.7878194 0.0089540515   -4.8273716    1.0395522      1024000 
  329000   0.69292442   -4.8269564   -4.8269564   -3.7875719 0.0093049641   -4.8269564    1.0393845      1024000 
  330000   0.69317706   -4.8274649   -4.8274649   -3.7877014  0.010380002   -4.8274649    1.0397635      1024000 
  331000   0.69261288    -4.827285    -4.827285   -3.7883678  0.013475711    -4.827285    1.0389172      1024000 
  332000   0.69313549   -4.8276284   -4.8276284   -3.7879273  0.012243026   -4.8276284    1.0397011      1024000 
  333000   0.69200163   -4.8261198   -4.8261198   -3.7881195  0.010418696   -4.8261198    1.0380003      1024000 
  334000   0.69298494   -4.8278719   -4.8278719   -3.7883966  0.011120774   -4.8278719    1.0394753      1024000 
  335000   0.69308585   -4.8282987   -4.8282987   -3.7886721 0.0093413142   -4.8282987    1.0396267      1024000 
  336000   0.69319009    -4.828937    -4.828937    -3.789154  0.013878841    -4.828937     1.039783      1024000 
  337000   0.69381929   -4.8306486   -4.8306486   -3.7899218 0.0067438968   -4.8306486    1.0407268      1024000 
  338000   0.69208589   -4.8285713   -4.8285713   -3.7904446  0.013840512   -4.8285713    1.0381267      1024000 
  339000   0.69202385   -4.8290267   -4.8290267   -3.7909931  0.012744777   -4.8290267    1.0380337      1024000 
  340000   0.69198516   -4.8296133   -4.8296133   -3.7916376  0.010725441   -4.8296133    1.0379756      1024000 
  341000    0.6923287   -4.8301789   -4.8301789   -3.7916879  0.012487882   -4.8301789    1.0384909      1024000 
  342000   0.69269467   -4.8310297   -4.8310297   -3.7919898  0.010063116   -4.8310297    1.0390399      1024000 
  343000   0.69230217   -4.8308445   -4.8308445   -3.7923934  0.012491826   -4.8308445    1.0384512      1024000 
  344000   0.69226245   -4.8305514   -4.8305514   -3.7921599  0.016151671   -4.8305514    1.0383916      1024000 
  345000    0.6924606   -4.8315968   -4.8315968    -3.792908  0.012533139   -4.8315968    1.0386888      1024000 
  346000   0.69304463   -4.8326509   -4.8326509   -3.7930861  0.011023675   -4.8326509    1.0395648      1024000 
  347000   0.69269526   -4.8329487   -4.8329487    -3.793908  0.010722635   -4.8329487    1.0390408      1024000 
  348000   0.69187408   -4.8322953   -4.8322953   -3.7944863 0.0096391782   -4.8322953     1.037809      1024000 
  349000   0.69316592   -4.8338243   -4.8338243   -3.7940775  0.012963121   -4.8338243    1.0397468      1024000 
  350000   0.69241885    -4.832967    -4.832967   -3.7943408  0.012003219    -4.832967    1.0386262      1024000 
  351000   0.69218692   -4.8331676   -4.8331676   -3.7948893   0.01312566   -4.8331676    1.0382783      1024000 
  352000   0.69157145   -4.8323085   -4.8323085   -3.7949535  0.014302232   -4.8323085    1.0373551      1024000 
  353000   0.69249913   -4.8344042   -4.8344042   -3.7956576 0.0081585784   -4.8344042    1.0387466      1024000 
  354000   0.69254459   -4.8350353   -4.8350353   -3.7962205  0.010983109   -4.8350353    1.0388148      1024000 
  355000   0.69109499   -4.8325545   -4.8325545   -3.7959141  0.019976057   -4.8325545    1.0366404      1024000 
  356000    0.6919611   -4.8343883   -4.8343883   -3.7964488  0.011654399   -4.8343883    1.0379395      1024000 
  357000   0.69166168   -4.8337907   -4.8337907   -3.7963003  0.012940097   -4.8337907    1.0374904      1024000 
  358000   0.69216847    -4.834748    -4.834748   -3.7964974  0.012084163    -4.834748    1.0382506      1024000 
  359000   0.69236027   -4.8359297   -4.8359297   -3.7973914  0.015686736   -4.8359297    1.0385383      1024000 
  360000   0.69208768   -4.8350622   -4.8350622   -3.7969328  0.012624976   -4.8350622    1.0381294      1024000 
  361000   0.69154954   -4.8341655   -4.8341655   -3.7968433  0.016027202   -4.8341655    1.0373222      1024000 
  362000    0.6910142    -4.834412    -4.834412   -3.7978928  0.014026364    -4.834412    1.0365192      1024000 
  363000   0.69054783   -4.8329385   -4.8329385   -3.7971188    0.0192995   -4.8329385    1.0358196      1024000 
  364000   0.69155671   -4.8352387   -4.8352387   -3.7979057  0.010990507   -4.8352387     1.037333      1024000 
  365000   0.69149146   -4.8357499   -4.8357499   -3.7985148 0.0069913387   -4.8357499    1.0372351      1024000 
  366000    0.6911981   -4.8349979   -4.8349979   -3.7982029  0.011268423   -4.8349979     1.036795      1024000 
  367000   0.69137731   -4.8356863   -4.8356863   -3.7986225 0.0077412846   -4.8356863    1.0370639      1024000 
  368000    0.6908527   -4.8349199   -4.8349199   -3.7986429  0.011753078   -4.8349199     1.036277      1024000 
  369000   0.69113407   -4.8359084   -4.8359084   -3.7992094 0.0084137114   -4.8359084     1.036699      1024000 
  370000    0.6908157    -4.835299    -4.835299   -3.7990776  0.010474618    -4.835299    1.0362214      1024000 
  371000   0.69144638   -4.8369135   -4.8369135    -3.799746 0.0087204863   -4.8369135    1.0371675      1024000 
  372000   0.69023354   -4.8349683   -4.8349683   -3.7996201  0.010459033   -4.8349683    1.0353482      1024000 
  373000   0.68974872   -4.8345134   -4.8345134   -3.7998924 0.0098875953   -4.8345134     1.034621      1024000 
  374000   0.69080092   -4.8355696   -4.8355696   -3.7993703  0.010926565   -4.8355696    1.0361993      1024000 
  375000   0.68952734   -4.8341254   -4.8341254   -3.7998365  0.014558062   -4.8341254    1.0342889      1024000 
  376000   0.69024957   -4.8349363   -4.8349363    -3.799564  0.015937812   -4.8349363    1.0353723      1024000 
  377000   0.69121973   -4.8359969   -4.8359969   -3.7991694  0.014515761   -4.8359969    1.0368275      1024000 
  378000    0.6909511   -4.8359459   -4.8359459   -3.7995214  0.014693673   -4.8359459    1.0364246      1024000 
  379000   0.69179327   -4.8374012   -4.8374012   -3.7997134  0.012240687   -4.8374012    1.0376878      1024000 
  380000   0.69161201   -4.8372033   -4.8372033   -3.7997874  0.017936067   -4.8372033    1.0374159      1024000 
  381000   0.69192824   -4.8378532   -4.8378532    -3.799963  0.012741354   -4.8378532    1.0378902      1024000 
  382000   0.69201008   -4.8382307   -4.8382307   -3.8002177  0.012398861   -4.8382307     1.038013      1024000 
  383000   0.69234436   -4.8384563   -4.8384563   -3.7999419  0.013419212   -4.8384563    1.0385144      1024000 
  384000   0.69146402   -4.8367855   -4.8367855   -3.7995916  0.014887099   -4.8367855    1.0371939      1024000 
  385000   0.69160659   -4.8370919   -4.8370919   -3.7996841  0.014325538   -4.8370919    1.0374078      1024000 
  386000    0.6926845   -4.8394413   -4.8394413   -3.8004166 0.0068559696   -4.8394413    1.0390246      1024000 
  387000   0.69164272   -4.8379306   -4.8379306   -3.8004687  0.011392108   -4.8379306     1.037462      1024000 
  388000   0.69078719   -4.8376543   -4.8376543   -3.8014756   0.00965421   -4.8376543    1.0361787      1024000 
  389000   0.69134794   -4.8376987   -4.8376987   -3.8006789  0.010998597   -4.8376987    1.0370198      1024000 
  390000   0.69100479   -4.8366307   -4.8366307   -3.8001256  0.016583122   -4.8366307    1.0365051      1024000 
  391000   0.69154751   -4.8375928   -4.8375928   -3.8002737  0.012842402   -4.8375928    1.0373192      1024000 
  392000   0.69082532   -4.8376527   -4.8376527   -3.8014169  0.012625047   -4.8376527    1.0362359      1024000 
  393000   0.69072755   -4.8373189   -4.8373189   -3.8012297  0.013392771   -4.8373189    1.0360892      1024000 
  394000   0.69129418   -4.8378618   -4.8378618   -3.8009227 0.0071958534   -4.8378618    1.0369392      1024000 
  395000   0.69070038   -4.8370474   -4.8370474   -3.8009989  0.011393071   -4.8370474    1.0360485      1024000 
  396000   0.69143335   -4.8376992   -4.8376992   -3.8005512  0.010641951   -4.8376992    1.0371479      1024000 
  397000   0.69031084   -4.8364757   -4.8364757   -3.8010115  0.013560049   -4.8364757    1.0354642      1024000 
  398000   0.69077681    -4.837246    -4.837246   -3.8010828  0.009944873    -4.837246    1.0361631      1024000 
  399000   0.69092441   -4.8370351   -4.8370351   -3.8006506 0.0091642867   -4.8370351    1.0363845      1024000 
  400000   0.69000079   -4.8360364   -4.8360364   -3.8010373    0.0149219   -4.8360364    1.0349991      1024000 
  401000   0.69109882   -4.8373613   -4.8373613   -3.8007151  0.011617607   -4.8373613    1.0366461      1024000 
  402000   0.69156532   -4.8375052   -4.8375052   -3.8001594  0.010630652   -4.8375052    1.0373459      1024000 
  403000   0.69058742   -4.8360539   -4.8360539   -3.8001748    0.0173894   -4.8360539     1.035879      1024000 
  404000      0.69138   -4.8372823   -4.8372823   -3.8002144  0.012979683   -4.8372823    1.0370679      1024000 
  405000   0.69034959    -4.836132    -4.836132   -3.8006097  0.013176216    -4.836132    1.0355223      1024000 
  406000   0.69071542   -4.8366534   -4.8366534   -3.8005824  0.011869585   -4.8366534     1.036071      1024000 
  407000   0.69154626   -4.8381865   -4.8381865   -3.8008692  0.010997483   -4.8381865    1.0373173      1024000 
  408000   0.69149499   -4.8377443   -4.8377443   -3.8005039   0.01064414   -4.8377443    1.0372404      1024000 
  409000   0.69144063   -4.8377733   -4.8377733   -3.8006145  0.010677709   -4.8377733    1.0371588      1024000 
  410000   0.69050641   -4.8371315   -4.8371315    -3.801374  0.014042019   -4.8371315    1.0357575      1024000 
  411000    0.6909386   -4.8373922   -4.8373922   -3.8009864  0.010898757   -4.8373922    1.0364058      1024000 
  412000   0.69093736   -4.8365827   -4.8365827   -3.8001788  0.011336421   -4.8365827    1.0364039      1024000 
  413000   0.69071587   -4.8362809   -4.8362809   -3.8002092  0.012829236   -4.8362809    1.0360717      1024000 
  414000   0.69147705   -4.8373456   -4.8373456   -3.8001321 0.0097395083   -4.8373456    1.0372135      1024000 
  415000   0.69107822    -4.837489    -4.837489   -3.8008737  0.010566646    -4.837489    1.0366152      1024000 
  416000   0.69206002   -4.8385711   -4.8385711   -3.8004832 0.0083916021   -4.8385711    1.0380879      1024000 
  417000   0.69153191   -4.8377775   -4.8377775   -3.8004817   0.01098819   -4.8377775    1.0372958      1024000 
  418000   0.69097248   -4.8370742   -4.8370742   -3.8006176  0.010759439   -4.8370742    1.0364566      1024000 
  419000   0.69085973   -4.8372201   -4.8372201   -3.8009326  0.013553807   -4.8372201    1.0362875      1024000 
  420000   0.69059738   -4.8363999   -4.8363999   -3.8005059  0.013140315   -4.8363999     1.035894      1024000 
  421000   0.69139426    -4.837541    -4.837541   -3.8004517  0.012050093    -4.837541    1.0370893      1024000 
  422000   0.69094861   -4.8384515   -4.8384515   -3.8020307 0.0084029458   -4.8384515    1.0364208      1024000 
  423000   0.69058132   -4.8377265   -4.8377265   -3.8018566  0.010561194   -4.8377265    1.0358699      1024000 
  424000   0.69140423   -4.8381338   -4.8381338   -3.8010295 0.0083549098   -4.8381338    1.0371042      1024000 
  425000   0.69201406   -4.8389372   -4.8389372   -3.8009183  0.011090249   -4.8389372     1.038019      1024000 
  426000   0.69176468   -4.8390087   -4.8390087   -3.8013638  0.013981237   -4.8390087    1.0376449      1024000 
  427000   0.69209956   -4.8387329   -4.8387329   -3.8005857  0.014614044   -4.8387329    1.0381472      1024000 
  428000   0.69206655   -4.8384033   -4.8384033   -3.8003056  0.013081393   -4.8384033    1.0380977      1024000 
  429000   0.69172589   -4.8378246   -4.8378246   -3.8002379  0.016367063   -4.8378246    1.0375867      1024000 
  430000   0.69205338   -4.8379919   -4.8379919    -3.799914  0.015645891   -4.8379919     1.038078      1024000 
  431000   0.69271715   -4.8397242   -4.8397242   -3.8006506 0.0059378572   -4.8397242    1.0390736      1024000 
  432000   0.69137317   -4.8382619   -4.8382619   -3.8012042  0.011014841   -4.8382619    1.0370576      1024000 
  433000   0.69101627   -4.8377169   -4.8377169   -3.8011946  0.014927453   -4.8377169    1.0365223      1024000 
  434000   0.69194585   -4.8395146   -4.8395146    -3.801598  0.006180409   -4.8395146    1.0379167      1024000 
  435000   0.69093755   -4.8378033   -4.8378033    -3.801399   0.01310441   -4.8378033    1.0364042      1024000 
  436000    0.6908656   -4.8374692   -4.8374692   -3.8011729  0.011614707   -4.8374692    1.0362963      1024000 
  437000   0.69123394   -4.8378239   -4.8378239   -3.8009751 0.0073801256   -4.8378239    1.0368488      1024000 
  438000   0.69116756   -4.8375846   -4.8375846   -3.8008353  0.007743483   -4.8375846    1.0367492      1024000 
  439000    0.6911156   -4.8379259   -4.8379259   -3.8012546 0.0078458709   -4.8379259    1.0366713      1024000 
  440000   0.69214299    -4.839688    -4.839688   -3.8014756 -3.7076324e-05    -4.839688    1.0382124      1024000 
  441000   0.69093271   -4.8373592   -4.8373592   -3.8009623  0.011482821   -4.8373592     1.036397      1024000 
  442000   0.69133211   -4.8384166   -4.8384166   -3.8014206 0.0061161611   -4.8384166    1.0369961      1024000 
  443000   0.69000971   -4.8360249   -4.8360249   -3.8010124 0.0089309973   -4.8360249    1.0350125      1024000 
  444000   0.69084726   -4.8369607   -4.8369607   -3.8006919 0.0057361744   -4.8369607    1.0362688      1024000 
  445000   0.69060024   -4.8369588   -4.8369588   -3.8010606 0.0045123686   -4.8369588    1.0358983      1024000 
  446000   0.69087827   -4.8370809   -4.8370809   -3.8007656 0.0058264227   -4.8370809    1.0363153      1024000 
  447000   0.69151729   -4.8378794   -4.8378794   -3.8006056 0.0068551072   -4.8378794    1.0372738      1024000 
  448000   0.69115304   -4.8369432   -4.8369432   -3.8002158  0.012852504   -4.8369432    1.0367275      1024000 
  449000   0.69259412   -4.8384908   -4.8384908   -3.7996017 0.0088935184   -4.8384908    1.0388891      1024000 
  450000   0.69204096   -4.8377877   -4.8377877   -3.7997284  0.011089352   -4.8377877    1.0380593      1024000 
  451000   0.69223992    -4.837642    -4.837642   -3.7992842  0.016979158    -4.837642    1.0383578      1024000 
  452000   0.69251291   -4.8372934   -4.8372934   -3.7985261  0.019296015   -4.8372934    1.0387673      1024000 
  453000   0.69208255   -4.8365402   -4.8365402   -3.7984185    0.0170389   -4.8365402    1.0381217      1024000 
  454000   0.69281964   -4.8377892   -4.8377892   -3.7985618   0.01779234   -4.8377892    1.0392274      1024000 
  455000   0.69319385   -4.8381968   -4.8381968   -3.7984081  0.015767063   -4.8381968    1.0397887      1024000 
  456000   0.69395528   -4.8392163   -4.8392163   -3.7982855  0.012839123   -4.8392163    1.0409308      1024000 
  457000   0.69318957   -4.8380757   -4.8380757   -3.7982934  0.014067713   -4.8380757    1.0397823      1024000 
  458000   0.69201635    -4.837212    -4.837212   -3.7991896  0.013646602    -4.837212    1.0380224      1024000 
  459000    0.6925428   -4.8373224   -4.8373224   -3.7985103  0.011873332   -4.8373224    1.0388121      1024000 
  460000   0.69205153   -4.8361503   -4.8361503   -3.7980751  0.013732412   -4.8361503    1.0380752      1024000 
  461000   0.69133883   -4.8346875   -4.8346875   -3.7976813   0.01535611   -4.8346875    1.0370061      1024000 
  462000   0.69139456   -4.8355235   -4.8355235   -3.7984337 0.0078778929   -4.8355235    1.0370897      1024000 
  463000   0.69145781   -4.8359786   -4.8359786    -3.798794 0.0065996138   -4.8359786    1.0371846      1024000 
  464000   0.69183044   -4.8361713   -4.8361713   -3.7984278 0.0085885311   -4.8361713    1.0377435      1024000 
  465000   0.69150964   -4.8354116   -4.8354116   -3.7981492   0.01035091   -4.8354116    1.0372624      1024000 
  466000   0.69183153   -4.8355656   -4.8355656   -3.7978204 0.0092898459   -4.8355656    1.0377452      1024000 
  467000   0.69135345   -4.8345723   -4.8345723   -3.7975442 0.0080032224   -4.8345723    1.0370281      1024000 
  468000   0.69177633    -4.835183    -4.835183   -3.7975206 0.0084083195    -4.835183    1.0376624      1024000 
  469000   0.69250085   -4.8352703   -4.8352703   -3.7965211 0.0088223037   -4.8352703    1.0387492      1024000 
  470000   0.69314481   -4.8360316   -4.8360316   -3.7963165 0.0028087919   -4.8360316    1.0397151      1024000 
  471000   0.69292154   -4.8357782   -4.8357782    -3.796398 0.0076754362   -4.8357782    1.0393802      1024000 
  472000   0.69224678   -4.8349303   -4.8349303   -3.7965622  0.012399653   -4.8349303    1.0383681      1024000 
  473000   0.69355427   -4.8361567   -4.8361567   -3.7958274 0.0078081973   -4.8361567    1.0403293      1024000 
  474000   0.69263436   -4.8352292   -4.8352292   -3.7962798  0.010525673   -4.8352292    1.0389494      1024000 
  475000   0.69340652   -4.8358901   -4.8358901   -3.7957824  0.007727797   -4.8358901    1.0401077      1024000 
  476000   0.69323338   -4.8359016   -4.8359016   -3.7960537   0.01021782   -4.8359016     1.039848      1024000 
  477000   0.69204027   -4.8337822   -4.8337822   -3.7957239  0.011516762   -4.8337822    1.0380583      1024000 
  478000   0.69253524   -4.8348644   -4.8348644   -3.7960637  0.010040399   -4.8348644    1.0388008      1024000 
  479000   0.69282711   -4.8351717   -4.8351717   -3.7959332  0.009311773   -4.8351717    1.0392386      1024000 
  480000   0.69350022   -4.8361027   -4.8361027   -3.7958545 0.0063475947   -4.8361027    1.0402482      1024000 
  481000   0.69345955   -4.8352734   -4.8352734   -3.7950862  0.010305403   -4.8352734    1.0401872      1024000 
  482000   0.69307053   -4.8340307   -4.8340307   -3.7944271  0.012051319   -4.8340307    1.0396037      1024000 
  483000   0.69273423   -4.8338543   -4.8338543    -3.794755  0.012279695   -4.8338543    1.0390992      1024000 
  484000   0.69241758   -4.8335851   -4.8335851   -3.7949608  0.016230964   -4.8335851    1.0386243      1024000 
  485000   0.69299926   -4.8342379   -4.8342379   -3.7947411  0.012437882   -4.8342379    1.0394968      1024000 
  486000   0.69219905   -4.8326877   -4.8326877   -3.7943912  0.015117082   -4.8326877    1.0382965      1024000 
  487000   0.69347297   -4.8344302   -4.8344302   -3.7942228  0.012718314   -4.8344302    1.0402073      1024000 
  488000   0.69347953   -4.8341492   -4.8341492    -3.793932   0.00851265   -4.8341492    1.0402172      1024000 
  489000    0.6928094   -4.8336583   -4.8336583   -3.7944463   0.01148474   -4.8336583     1.039212      1024000 
  490000   0.69325576   -4.8335779   -4.8335779   -3.7936963  0.011283088   -4.8335779    1.0398815      1024000 
  491000   0.69369205   -4.8340038   -4.8340038   -3.7934679  0.007737353   -4.8340038     1.040536      1024000 
  492000   0.69372776   -4.8343223   -4.8343223   -3.7937328 0.0078988759   -4.8343223    1.0405895      1024000 
  493000    0.6938539   -4.8337409   -4.8337409   -3.7929622   0.01090912   -4.8337409    1.0407787      1024000 
  494000    0.6943057   -4.8336333   -4.8336333   -3.7921769  0.011146518   -4.8336333    1.0414564      1024000 
  495000    0.6949864   -4.8347229   -4.8347229   -3.7922454  0.010277322   -4.8347229    1.0424775      1024000 
  496000   0.69413556   -4.8338503   -4.8338503   -3.7926491  0.012166685   -4.8338503    1.0412012      1024000 
  497000   0.69493809   -4.8355839   -4.8355839   -3.7931789 0.0069129189   -4.8355839     1.042405      1024000 
  498000   0.69240645   -4.8317339   -4.8317339   -3.7931263  0.014282093   -4.8317339    1.0386076      1024000 
  499000   0.69296779   -4.8315976   -4.8315976    -3.792148 0.0098987138   -4.8315976    1.0394496      1024000 
  500000   0.69366304   -4.8324347   -4.8324347   -3.7919423  0.009131396   -4.8324347    1.0404925      1024000 
  501000   0.69339712    -4.832109    -4.832109   -3.7920155  0.010666193    -4.832109    1.0400936      1024000 
  502000   0.69371635    -4.831907    -4.831907   -3.7913346 0.0063984242    -4.831907    1.0405724      1024000 
  503000   0.69228213   -4.8310886   -4.8310886   -3.7926675 0.0065302593   -4.8310886    1.0384211      1024000 
  504000   0.69304684   -4.8323753   -4.8323753   -3.7928072 0.0076193943   -4.8323753    1.0395681      1024000 
  505000   0.69337016     -4.83126     -4.83126   -3.7912069 0.0083129847     -4.83126    1.0400531      1024000 
  506000   0.69358278   -4.8315879   -4.8315879   -3.7912158 0.0097822324   -4.8315879    1.0403721      1024000 
  507000   0.69426563   -4.8317252   -4.8317252   -3.7903289 0.0087010674   -4.8317252    1.0413963      1024000 
  508000   0.69377622   -4.8307499   -4.8307499   -3.7900877  0.011195936   -4.8307499    1.0406622      1024000 
  509000   0.69330096   -4.8305824   -4.8305824    -3.790633  0.011048996   -4.8305824    1.0399493      1024000 
  510000   0.69362228   -4.8308792   -4.8308792   -3.7904479 0.0072203608   -4.8308792    1.0404313      1024000 
  511000   0.69401132   -4.8307413   -4.8307413   -3.7897264  0.010038863   -4.8307413    1.0410149      1024000 
  512000   0.69417363   -4.8313884   -4.8313884   -3.7901301 0.0091371295   -4.8313884    1.0412583      1024000 
  513000   0.69428754    -4.830648    -4.830648   -3.7892188  0.010643382    -4.830648    1.0414292      1024000 
  514000   0.69348474   -4.8298139   -4.8298139   -3.7895889 0.0099362213   -4.8298139     1.040225      1024000 
  515000   0.69319575   -4.8290336   -4.8290336   -3.7892421 0.0099380589   -4.8290336    1.0397915      1024000 
  516000   0.69452596   -4.8307667   -4.8307667   -3.7889799 0.0069755658   -4.8307667    1.0417868      1024000 
  517000   0.69429868   -4.8304874   -4.8304874   -3.7890415 0.0098152028   -4.8304874    1.0414459      1024000 
  518000    0.6943279    -4.830464    -4.830464   -3.7889743  0.007652349    -4.830464    1.0414897      1024000 
  519000   0.69427734   -4.8305713   -4.8305713   -3.7891574 0.0095052926   -4.8305713    1.0414139      1024000 
  520000   0.69535982   -4.8322609   -4.8322609   -3.7892232 0.0069800976   -4.8322609    1.0430376      1024000 
  521000   0.69434651   -4.8312932   -4.8312932   -3.7897755 0.0076235884   -4.8312932    1.0415177      1024000 
  522000   0.69421539   -4.8302168   -4.8302168   -3.7888958  0.011082083   -4.8302168     1.041321      1024000 
  523000   0.69361822   -4.8297866   -4.8297866   -3.7893614  0.010741911   -4.8297866    1.0404252      1024000 
  524000   0.69424276   -4.8305742   -4.8305742   -3.7892122  0.010484088   -4.8305742     1.041362      1024000 
  525000   0.69461599   -4.8307404   -4.8307404   -3.7888185  0.011053735   -4.8307404    1.0419219      1024000 
  526000    0.6945094   -4.8299483   -4.8299483   -3.7881863  0.015349455   -4.8299483     1.041762      1024000 
  527000    0.6947816   -4.8294525   -4.8294525   -3.7872823  0.014474125   -4.8294525    1.0421703      1024000 
  528000   0.69456889   -4.8294423   -4.8294423   -3.7875911  0.011126624   -4.8294423    1.0418512      1024000 
  529000   0.69482997   -4.8295999   -4.8295999    -3.787357  0.013948052   -4.8295999    1.0422428      1024000 
  530000   0.69504592   -4.8299163   -4.8299163   -3.7873496  0.015647564   -4.8299163    1.0425668      1024000 
  531000   0.69563653   -4.8294129   -4.8294129   -3.7859602  0.015172371   -4.8294129    1.0434527      1024000 
  532000   0.69562539   -4.8295379   -4.8295379    -3.786102  0.016151233   -4.8295379     1.043436      1024000 
  533000   0.69524114   -4.8289363   -4.8289363   -3.7860767  0.011347344   -4.8289363    1.0428596      1024000 
  534000   0.69507692   -4.8285603   -4.8285603    -3.785947  0.010559965   -4.8285603    1.0426133      1024000 
  535000   0.69445095   -4.8275387   -4.8275387   -3.7858644 0.0099689641   -4.8275387    1.0416743      1024000 
  536000   0.69585707   -4.8292825   -4.8292825    -3.785499 0.0091080787   -4.8292825    1.0437835      1024000 
  537000    0.6951475   -4.8274922   -4.8274922    -3.784773  0.012759152   -4.8274922    1.0427191      1024000 
  538000   0.69551606    -4.827611    -4.827611    -3.784339  0.010032288    -4.827611     1.043272      1024000 
  539000   0.69571271   -4.8277761   -4.8277761   -3.7842092 0.0096946398   -4.8277761     1.043567      1024000 
  540000   0.69418105   -4.8261951   -4.8261951   -3.7849256  0.015133494   -4.8261951    1.0412695      1024000 
  541000   0.69504541   -4.8268868   -4.8268868   -3.7843208 0.0094924611   -4.8268868     1.042566      1024000 
  542000   0.69469035   -4.8253032   -4.8253032   -3.7832698 0.0090524147   -4.8253032    1.0420334      1024000 
  543000   0.69478849   -4.8253828   -4.8253828   -3.7832021  0.010823123   -4.8253828    1.0421806      1024000 
  544000   0.69570079   -4.8262874   -4.8262874   -3.7827383 0.0061944819   -4.8262874    1.0435491      1024000 
  545000   0.69553978   -4.8252889   -4.8252889   -3.7819813 0.0081225457   -4.8252889    1.0433076      1024000 
  546000   0.69632205    -4.825415    -4.825415    -3.780934 0.0059362884    -4.825415     1.044481      1024000 
  547000   0.69589346   -4.8239394   -4.8239394   -3.7801014  0.011370822   -4.8239394    1.0438381      1024000 
  548000   0.69673324   -4.8243232   -4.8243232   -3.7792255  0.013967248   -4.8243232    1.0450977      1024000 
  549000   0.69702251   -4.8250961   -4.8250961   -3.7795645 0.0080991912   -4.8250961    1.0455316      1024000 
  550000   0.69683962    -4.823202    -4.823202   -3.7779447  0.013684683    -4.823202    1.0452573      1024000 
  551000   0.69672831   -4.8229322   -4.8229322   -3.7778419  0.014495391   -4.8229322    1.0450904      1024000 
  552000   0.69941687   -4.8267756   -4.8267756   -3.7776524 0.0035559996   -4.8267756    1.0491232      1024000 
  553000   0.69682019   -4.8228433   -4.8228433   -3.7776151 0.0082606591   -4.8228433    1.0452282      1024000 
  554000   0.69695404   -4.8228234   -4.8228234   -3.7773945 0.0060908425   -4.8228234    1.0454289      1024000 
  555000   0.69711993   -4.8222214   -4.8222214   -3.7765436  0.011382105   -4.8222214    1.0456778      1024000 
  556000   0.69720173   -4.8212512   -4.8212512   -3.7754508 0.0048012022   -4.8212512    1.0458005      1024000 
  557000   0.69699952   -4.8211086   -4.8211086   -3.7756115 0.0050029545   -4.8211086    1.0454972      1024000 
  558000   0.69659238   -4.8202125   -4.8202125    -3.775326 0.0042421637   -4.8202125    1.0448865      1024000 
  559000   0.69714704   -4.8214125   -4.8214125   -3.7756941 0.0036601804   -4.8214125    1.0457184      1024000 
  560000   0.69759311   -4.8216477   -4.8216477   -3.7752601 0.0032995961   -4.8216477    1.0463875      1024000 
  561000   0.69689095    -4.819991    -4.819991   -3.7746567 0.0078141475    -4.819991    1.0453343      1024000 
  562000   0.69658726   -4.8191405   -4.8191405   -3.7742617 0.0093845809   -4.8191405    1.0448788      1024000 
  563000   0.69786704    -4.821083    -4.821083   -3.7742845 0.0049612819    -4.821083    1.0467984      1024000 
  564000   0.69672892     -4.81905     -4.81905   -3.7739588  0.010632615     -4.81905    1.0450913      1024000 
  565000   0.69673493   -4.8184065   -4.8184065   -3.7733063 0.0097601303   -4.8184065    1.0451003      1024000 
  566000   0.69788811   -4.8195852   -4.8195852   -3.7727552 0.0058399658   -4.8195852      1.04683      1024000 
  567000   0.69787732   -4.8194813   -4.8194813   -3.7726674 0.0098035932   -4.8194813    1.0468139      1024000 
  568000   0.69778663   -4.8198645   -4.8198645   -3.7731867 0.0070992967   -4.8198645    1.0466778      1024000 
  569000   0.69810267   -4.8195821   -4.8195821   -3.7724302 0.0070941199   -4.8195821    1.0471519      1024000 
  570000   0.69741515   -4.8183821   -4.8183821   -3.7722615  0.010253478   -4.8183821    1.0461206      1024000 
  571000   0.69746314   -4.8177226   -4.8177226     -3.77153  0.011123554   -4.8177226    1.0461926      1024000 
  572000   0.70005841   -4.8205655   -4.8205655   -3.7704801 0.0070116885   -4.8205655    1.0500855      1024000 
  573000   0.69914508   -4.8185974   -4.8185974   -3.7698819  0.014468812   -4.8185974    1.0487155      1024000 
  574000   0.69904784    -4.819023    -4.819023   -3.7704534  0.011542091    -4.819023    1.0485696      1024000 
  575000   0.69853947    -4.818549    -4.818549   -3.7707419 0.0086960059    -4.818549    1.0478071      1024000 
  576000    0.6978565   -4.8170938   -4.8170938   -3.7703111  0.014110885   -4.8170938    1.0467826      1024000 
  577000   0.69911297   -4.8179198   -4.8179198   -3.7692525  0.010792592   -4.8179198    1.0486673      1024000 
  578000   0.69819838   -4.8162354   -4.8162354     -3.76894  0.015169354   -4.8162354    1.0472954      1024000 
  579000   0.69922414   -4.8174394   -4.8174394   -3.7686053 0.0091264549   -4.8174394    1.0488341      1024000 
  580000   0.70035153   -4.8190537   -4.8190537   -3.7685285 0.0096972295   -4.8190537    1.0505252      1024000 
  581000   0.69995384   -4.8184564   -4.8184564   -3.7685278 0.0083342903   -4.8184564    1.0499286      1024000 
  582000   0.69895842   -4.8165426   -4.8165426    -3.768107  0.011190169   -4.8165426    1.0484355      1024000 
  583000   0.69896517   -4.8162688   -4.8162688   -3.7678232  0.011244904   -4.8162688    1.0484456      1024000 
  584000   0.69845433     -4.81489     -4.81489   -3.7672107  0.017763388     -4.81489    1.0476794      1024000 
  585000   0.69840138   -4.8154754   -4.8154754   -3.7678755  0.011528003   -4.8154754    1.0475999      1024000 
  586000   0.69822802   -4.8148221   -4.8148221   -3.7674822 0.0085788732   -4.8148221    1.0473399      1024000 
  587000   0.69799803   -4.8153331   -4.8153331   -3.7683381 0.0010827439   -4.8153331    1.0469949      1024000 
  588000   0.69792107   -4.8149238   -4.8149238   -3.7680444 0.0029786477   -4.8149238    1.0468795      1024000 
  589000   0.69744506   -4.8145091   -4.8145091   -3.7683436 0.0032577376   -4.8145091    1.0461655      1024000 
  590000   0.69784937   -4.8143206   -4.8143206   -3.7675486 0.0055090529   -4.8143206    1.0467719      1024000 
  591000   0.69885476   -4.8142807   -4.8142807   -3.7660006 0.0057829434   -4.8142807      1.04828      1024000 
  592000   0.69852376   -4.8140994   -4.8140994   -3.7663158 0.0082107501   -4.8140994    1.0477835      1024000 
  593000   0.69893784   -4.8144848   -4.8144848   -3.7660801  0.007939294   -4.8144848    1.0484046      1024000 
  594000   0.69903257   -4.8142388   -4.8142388    -3.765692  0.011395881   -4.8142388    1.0485467      1024000 
  595000   0.69956098   -4.8147091   -4.8147091   -3.7653698  0.010796117   -4.8147091    1.0493393      1024000 
  596000   0.70076145   -4.8157498   -4.8157498   -3.7646097 0.0067243729   -4.8157498      1.05114      1024000 
  597000     0.699737   -4.8137505   -4.8137505   -3.7641472  0.011300389   -4.8137505    1.0496034      1024000 
  598000   0.70012487   -4.8137074   -4.8137074   -3.7635222  0.013962378   -4.8137074    1.0501852      1024000 
  599000   0.70082332   -4.8146397   -4.8146397   -3.7634069  0.010924726   -4.8146397    1.0512328      1024000 
  600000   0.69972339   -4.8127816   -4.8127816   -3.7631986  0.014829695   -4.8127816     1.049583      1024000 
  601000   0.70076523   -4.8131968   -4.8131968   -3.7620511   0.01285083   -4.8131968    1.0511457      1024000 
  602000   0.70076696   -4.8133575   -4.8133575   -3.7622092 0.0091640408   -4.8133575    1.0511483      1024000 
  603000   0.70130086   -4.8138315   -4.8138315   -3.7618824  0.013985939   -4.8138315    1.0519492      1024000 
  604000   0.70117134    -4.813251    -4.813251   -3.7614961  0.014115537    -4.813251    1.0517549      1024000 
  605000   0.70059208   -4.8113434   -4.8113434   -3.7604574  0.019432128   -4.8113434     1.050886      1024000 
  606000   0.70126814   -4.8115854   -4.8115854   -3.7596853   0.01639178   -4.8115854    1.0519001      1024000 
  607000   0.70136085   -4.8112085   -4.8112085   -3.7591694   0.01339009   -4.8112085    1.0520391      1024000 
  608000   0.70086568   -4.8098931   -4.8098931   -3.7585967  0.013544361   -4.8098931    1.0512964      1024000 
  609000   0.70132338   -4.8103519   -4.8103519    -3.758369 0.0088500466   -4.8103519    1.0519829      1024000 
  610000   0.70136651   -4.8099637   -4.8099637    -3.757916 0.0084183083   -4.8099637    1.0520476      1024000 
  611000   0.70109579   -4.8092432   -4.8092432   -3.7576017 0.0078734491   -4.8092432    1.0516415      1024000 
  612000   0.70024881   -4.8078705   -4.8078705   -3.7574994 0.0084796274   -4.8078705    1.0503711      1024000 
  613000   0.70092248   -4.8087724   -4.8087724   -3.7573908 0.0013926801   -4.8087724    1.0513816      1024000 
  614000   0.69986385   -4.8072994   -4.8072994   -3.7575057 0.0062338515   -4.8072994    1.0497936      1024000 
  615000   0.70027384   -4.8069339   -4.8069339   -3.7565253 0.0039180891   -4.8069339    1.0504086      1024000 
  616000    0.7006808   -4.8074665   -4.8074665   -3.7564474 0.0016616941   -4.8074665    1.0510191      1024000 
  617000   0.69957232   -4.8057907   -4.8057907   -3.7564344 0.0046972698   -4.8057907    1.0493564      1024000 
  618000   0.70162852   -4.8080226   -4.8080226    -3.755582 -0.0028564731   -4.8080226    1.0524406      1024000 
  619000   0.70006627   -4.8057365   -4.8057365   -3.7556392 0.0017887493   -4.8057365    1.0500973      1024000 
  620000   0.70097607   -4.8061943   -4.8061943   -3.7547323 0.00041821069   -4.8061943     1.051462      1024000 
  621000   0.70023329   -4.8048151   -4.8048151   -3.7544673 0.0028367868   -4.8048151    1.0503478      1024000 
  622000   0.70124599   -4.8058762   -4.8058762   -3.7540094 0.0041629023   -4.8058762    1.0518668      1024000 
  623000   0.70239643   -4.8060907   -4.8060907   -3.7524982 0.0095976119   -4.8060907    1.0535925      1024000 
  624000   0.70232793   -4.8048239   -4.8048239   -3.7513342  0.011372871   -4.8048239    1.0534898      1024000 
  625000   0.70254789   -4.8052991   -4.8052991   -3.7514794  0.006390284   -4.8052991    1.0538197      1024000 
  626000   0.70267975   -4.8050102   -4.8050102   -3.7509928  0.012050367   -4.8050102    1.0540175      1024000 
  627000   0.70271401   -4.8041356   -4.8041356   -3.7500667  0.012009534   -4.8041356    1.0540689      1024000 
  628000   0.70292962   -4.8038825   -4.8038825   -3.7494902  0.015369975   -4.8038825    1.0543923      1024000 
  629000   0.70300383   -4.8046624   -4.8046624   -3.7501588  0.013446479   -4.8046624    1.0545036      1024000 
  630000    0.7046566   -4.8077706   -4.8077706   -3.7507879  0.010292373   -4.8077706    1.0569827      1024000 
  631000   0.70381262   -4.8064964   -4.8064964   -3.7507796    0.0126961   -4.8064964    1.0557168      1024000 
  632000   0.70286912   -4.8042464   -4.8042464   -3.7499449  0.012028361   -4.8042464    1.0543015      1024000 
  633000    0.7037325   -4.8053453   -4.8053453   -3.7497486  0.011494997   -4.8053453    1.0555966      1024000 
  634000   0.70292395   -4.8040316   -4.8040316   -3.7496478  0.013304537   -4.8040316    1.0543838      1024000 
  635000   0.70299006   -4.8039045   -4.8039045   -3.7494215   0.01079153   -4.8039045     1.054483      1024000 
  636000   0.70222679   -4.8028621   -4.8028621    -3.749524  0.011690167   -4.8028621     1.053338      1024000 
  637000   0.70325574   -4.8049091   -4.8049091   -3.7500276 0.0075987119   -4.8049091    1.0548815      1024000 
  638000    0.7013039   -4.8020158   -4.8020158   -3.7500621  0.013855034   -4.8020158    1.0519537      1024000 
  639000   0.70237076   -4.8020767   -4.8020767   -3.7485227  0.011366129   -4.8020767     1.053554      1024000 
  640000    0.7033301     -4.80292     -4.80292    -3.747927 0.0052692432     -4.80292     1.054993      1024000 
  641000   0.70227348   -4.8016203   -4.8016203   -3.7482122  0.011421253   -4.8016203    1.0534081      1024000 
  642000   0.70286756   -4.8016363   -4.8016363   -3.7473371 0.0090562765   -4.8016363    1.0542992      1024000 
  643000   0.70232451   -4.8008571   -4.8008571   -3.7473725  0.004394555   -4.8008571    1.0534846      1024000 
  644000   0.70221489    -4.801237    -4.801237   -3.7479168 0.0049294235    -4.801237    1.0533202      1024000 
  645000   0.70279452   -4.8010373   -4.8010373   -3.7468477  0.004369256   -4.8010373    1.0541896      1024000 
  646000   0.70230069   -4.8001969   -4.8001969    -3.746748 0.0071731398   -4.8001969    1.0534489      1024000 
  647000   0.70130719   -4.7995089   -4.7995089   -3.7475503 0.0044244642   -4.7995089    1.0519587      1024000 
  648000     0.700988   -4.7977615   -4.7977615   -3.7462816 0.0091267973   -4.7977615    1.0514799      1024000 
  649000   0.70272534   -4.7988322   -4.7988322   -3.7447464 0.0085492098   -4.7988322    1.0540859      1024000 
  650000   0.70394299   -4.7994741   -4.7994741   -3.7435618 0.0084342365   -4.7994741    1.0559123      1024000 
  651000   0.70463442   -4.8001503   -4.8001503   -3.7432008 0.0072659485   -4.8001503    1.0569495      1024000 
  652000   0.70316644   -4.7977446   -4.7977446   -3.7429971  0.012509272   -4.7977446    1.0547475      1024000 
  653000   0.70550997    -4.800983    -4.800983   -3.7427202 0.0066777554    -4.800983    1.0582628      1024000 
  654000     0.704873   -4.7984463   -4.7984463   -3.7411389  0.011625975   -4.7984463    1.0573074      1024000 
  655000   0.70552452   -4.7997034   -4.7997034   -3.7414188    0.0107393   -4.7997034    1.0582846      1024000 
  656000   0.70513234    -4.798946    -4.798946   -3.7412496  0.011050392    -4.798946    1.0576964      1024000 
  657000   0.70552658   -4.7982482   -4.7982482   -3.7399605  0.014033913   -4.7982482    1.0582877      1024000 
  658000   0.70527109   -4.7976876   -4.7976876   -3.7397831 0.0061475794   -4.7976876    1.0579045      1024000 
  659000   0.70452164    -4.795883    -4.795883   -3.7391027 0.0087882367    -4.795883    1.0567803      1024000 
  660000   0.70492122   -4.7960638   -4.7960638   -3.7386842 0.0093516499   -4.7960638    1.0573797      1024000 
  661000   0.70510711   -4.7959964   -4.7959964   -3.7383379  0.013007152   -4.7959964    1.0576585      1024000 
  662000   0.70559812   -4.7968563   -4.7968563   -3.7384612 0.0051920748   -4.7968563     1.058395      1024000 
  663000   0.70512216   -4.7960271   -4.7960271    -3.738346  0.012459436   -4.7960271    1.0576811      1024000 
  664000   0.70613166   -4.7964499   -4.7964499   -3.7372546  0.012012038   -4.7964499    1.0591953      1024000 
  665000   0.70499726   -4.7942359   -4.7942359   -3.7367422  0.010896196   -4.7942359    1.0574937      1024000 
  666000   0.70469029   -4.7939398   -4.7939398   -3.7369065  0.011462107   -4.7939398    1.0570333      1024000 
  667000   0.70476658   -4.7936889   -4.7936889   -3.7365412 0.0062165252   -4.7936889    1.0571477      1024000 
  668000   0.70538355   -4.7937018   -4.7937018   -3.7356286 0.0069292158   -4.7937018    1.0580732      1024000 
  669000    0.7057753   -4.7937207   -4.7937207   -3.7350599 0.0018646869   -4.7937207    1.0586608      1024000 
  670000   0.70461191   -4.7916524   -4.7916524   -3.7347367  0.003898169   -4.7916524    1.0569157      1024000 
  671000   0.70485107   -4.7916993   -4.7916993   -3.7344248 0.00076053428   -4.7916993    1.0572745      1024000 
  672000    0.7041247   -4.7899455   -4.7899455   -3.7337606 0.0062553834   -4.7899455    1.0561849      1024000 
  673000   0.70449112   -4.7901223   -4.7901223   -3.7333877 0.0068304351   -4.7901223    1.0567345      1024000 
  674000   0.70415715   -4.7889495   -4.7889495    -3.732716  0.009610701   -4.7889495    1.0562336      1024000 
  675000   0.70597339    -4.790827    -4.790827   -3.7318691 0.0054615924    -4.790827    1.0589579      1024000 
  676000   0.70486428   -4.7886229   -4.7886229   -3.7313286 0.0075016279   -4.7886229    1.0572943      1024000 
  677000   0.70590461   -4.7900077   -4.7900077   -3.7311529 0.0051036773   -4.7900077    1.0588548      1024000 
  678000   0.70639062   -4.7898072   -4.7898072   -3.7302234 0.0050594042   -4.7898072    1.0595838      1024000 
  679000   0.70625085   -4.7889388   -4.7889388   -3.7295647 0.0044893414   -4.7889388    1.0593741      1024000 
  680000   0.70505537   -4.7869529   -4.7869529    -3.729372  0.010175563   -4.7869529    1.0575809      1024000 
  681000   0.70612895   -4.7879183   -4.7879183    -3.728727 0.0082539724   -4.7879183    1.0591913      1024000 
  682000    0.7073631   -4.7892735   -4.7892735    -3.728231 0.0049767677   -4.7892735    1.0610425      1024000 
  683000   0.70683694   -4.7881388   -4.7881388   -3.7278855 0.0097152309   -4.7881388    1.0602533      1024000 
  684000   0.70609888   -4.7871745   -4.7871745   -3.7280283  0.010001313   -4.7871745    1.0591462      1024000 
  685000    0.7076731   -4.7890507   -4.7890507   -3.7275432 0.0075262555   -4.7890507    1.0615075      1024000 
  686000   0.70795356   -4.7882458   -4.7882458   -3.7263176  0.011093567   -4.7882458    1.0619282      1024000 
  687000   0.70787987    -4.788137    -4.788137   -3.7263193 0.0097737537    -4.788137    1.0618176      1024000 
  688000    0.7082259   -4.7877083   -4.7877083   -3.7253716 0.0052674762   -4.7877083    1.0623367      1024000 
  689000   0.70734517   -4.7865179   -4.7865179   -3.7255023    0.0119995   -4.7865179    1.0610156      1024000 
  690000   0.70704817   -4.7858461   -4.7858461    -3.725276  0.012977581   -4.7858461    1.0605701      1024000 
  691000   0.70772179   -4.7864544   -4.7864544   -3.7248739 0.0093927976   -4.7864544    1.0615805      1024000 
  692000   0.70689325   -4.7839735   -4.7839735   -3.7236358  0.012170311   -4.7839735    1.0603377      1024000 
  693000   0.70780833   -4.7848956   -4.7848956   -3.7231853  0.012003402   -4.7848956    1.0617103      1024000 
  694000   0.70687802   -4.7830007   -4.7830007   -3.7226858   0.01355705   -4.7830007    1.0603149      1024000 
  695000   0.70779018   -4.7843236   -4.7843236   -3.7226405 0.0089017596   -4.7843236    1.0616831      1024000 
  696000   0.70807151     -4.78403     -4.78403   -3.7219249 0.0034249838     -4.78403    1.0621051      1024000 
  697000   0.70703725   -4.7819502   -4.7819502   -3.7213964  0.013105653   -4.7819502    1.0605537      1024000 
  698000   0.70795393   -4.7824975   -4.7824975   -3.7205687  0.012129729   -4.7824975    1.0619287      1024000 
  699000   0.70824829   -4.7821526   -4.7821526   -3.7197823 0.0090410695   -4.7821526    1.0623703      1024000 
  700000   0.70925321   -4.7829952   -4.7829952   -3.7191176 0.0057113854   -4.7829952    1.0638777      1024000 
  701000   0.70746822   -4.7800446   -4.7800446   -3.7188444 0.0064770969   -4.7800446    1.0612002      1024000 
  702000   0.70904131   -4.7822623   -4.7822623   -3.7187025 0.0017173417   -4.7822623    1.0635598      1024000 
  703000   0.70864035   -4.7807282   -4.7807282   -3.7177699 0.0083310327   -4.7807282    1.0629584      1024000 
  704000   0.70792913    -4.779502    -4.779502   -3.7176105 0.0078561645    -4.779502    1.0618915      1024000 
  705000    0.7096165   -4.7812079   -4.7812079   -3.7167853 0.0074609139   -4.7812079    1.0644226      1024000 
  706000   0.70971321   -4.7809268   -4.7809268   -3.7163591 0.0054139856   -4.7809268    1.0645676      1024000 
  707000   0.70823708   -4.7784234   -4.7784234     -3.71607 0.0065139773   -4.7784234    1.0623535      1024000 
  708000   0.70949067   -4.7793217   -4.7793217   -3.7150878 0.0046318462   -4.7793217    1.0642338      1024000 
  709000   0.70888485    -4.778789    -4.778789   -3.7154639 0.0069563512    -4.778789    1.0633251      1024000 
  710000   0.70854702   -4.7780961   -4.7780961   -3.7152777 -0.0003685745   -4.7780961    1.0628184      1024000 
  711000   0.70964614   -4.7789823   -4.7789823   -3.7145153  0.005328429   -4.7789823    1.0644671      1024000 
  712000   0.70884616   -4.7775003   -4.7775003   -3.7142332 0.0054556178   -4.7775003    1.0632671      1024000 
  713000   0.70963259   -4.7772926   -4.7772926   -3.7128458 0.0057194092   -4.7772926    1.0644467      1024000 
  714000   0.70994582   -4.7772197   -4.7772197   -3.7123031 0.0068616991   -4.7772197    1.0649166      1024000 
  715000    0.7104908   -4.7770687   -4.7770687   -3.7113346 0.0043124083   -4.7770687     1.065734      1024000 
  716000   0.71148658   -4.7781583   -4.7781583   -3.7109306 0.0064653776   -4.7781583    1.0672277      1024000 
  717000    0.7099806   -4.7764133   -4.7764133   -3.7114446 0.0060014279   -4.7764133    1.0649687      1024000 
  718000   0.71074902   -4.7766586   -4.7766586   -3.7105372  0.010945773   -4.7766586    1.0661214      1024000 
  719000   0.70846637   -4.7733911   -4.7733911   -3.7106937  0.017678984   -4.7733911    1.0626974      1024000 
  720000   0.71070003   -4.7754038   -4.7754038    -3.709356  0.013480245   -4.7754038    1.0660479      1024000 
  721000   0.71089331   -4.7749242   -4.7749242   -3.7085864   0.01444519   -4.7749242    1.0663378      1024000 
  722000   0.71066882   -4.7746756   -4.7746756   -3.7086746 0.0070260029   -4.7746756    1.0660011      1024000 
  723000   0.71080178   -4.7741737   -4.7741737   -3.7079732  0.011804434   -4.7741737    1.0662005      1024000 
  724000   0.71145911   -4.7743388   -4.7743388   -3.7071523  0.015393208   -4.7743388    1.0671865      1024000 
  725000   0.71131667   -4.7740791   -4.7740791   -3.7071063  0.014625195   -4.7740791    1.0669728      1024000 
  726000   0.71096508   -4.7734272   -4.7734272   -3.7069817  0.012638416   -4.7734272    1.0664455      1024000 
  727000    0.7118154    -4.774209    -4.774209   -3.7064881 0.0083923106    -4.774209    1.0677209      1024000 
  728000   0.71242318   -4.7745937   -4.7745937   -3.7059611 0.0058536151   -4.7745937    1.0686326      1024000 
  729000    0.7119018   -4.7732964   -4.7732964   -3.7054458 0.0096762804   -4.7732964    1.0678505      1024000 
  730000   0.71107829    -4.771951    -4.771951   -3.7053357 0.0098801897    -4.771951    1.0666153      1024000 
  731000   0.71119529   -4.7718519   -4.7718519   -3.7050611 0.0088459087   -4.7718519    1.0667908      1024000 
  732000    0.7107958    -4.769939    -4.769939   -3.7037475 0.0062106781    -4.769939    1.0661915      1024000 
  733000   0.71065192   -4.7698691   -4.7698691   -3.7038934 0.0077739563   -4.7698691    1.0659757      1024000 
  734000   0.71129428   -4.7700432   -4.7700432   -3.7031039 0.0058174951   -4.7700432    1.0669393      1024000 
  735000   0.71124641   -4.7692961   -4.7692961   -3.7024286 0.0069669636   -4.7692961    1.0668674      1024000 
  736000   0.71152132   -4.7691582   -4.7691582   -3.7018784  0.009342572   -4.7691582    1.0672798      1024000 
  737000   0.71175771   -4.7687491   -4.7687491   -3.7011147 0.0080181475   -4.7687491    1.0676344      1024000 
  738000   0.71204984   -4.7684229   -4.7684229   -3.7003504 0.0070966776   -4.7684229    1.0680726      1024000 
  739000   0.71223103   -4.7678203   -4.7678203   -3.6994759 0.0075973458   -4.7678203    1.0683444      1024000 
  740000   0.71231925   -4.7668688   -4.7668688   -3.6983921  0.011487889   -4.7668688    1.0684767      1024000 
  741000   0.71280071   -4.7673131   -4.7673131   -3.6981142 0.0078259857   -4.7673131    1.0691989      1024000 
  742000   0.71279421    -4.766771    -4.766771   -3.6975818  0.010373898    -4.766771    1.0691891      1024000 
  743000   0.71372253    -4.767362    -4.767362   -3.6967804 0.0045270231    -4.767362    1.0705816      1024000 
  744000    0.7121041   -4.7640516   -4.7640516   -3.6958976 0.0076347139   -4.7640516     1.068154      1024000 
  745000   0.71298549   -4.7660921   -4.7660921   -3.6966161  0.002705583   -4.7660921    1.0694761      1024000 
  746000   0.71311712   -4.7656706   -4.7656706    -3.695997 0.0067139351   -4.7656706    1.0696735      1024000 
  747000   0.71378441   -4.7655138   -4.7655138   -3.6948393 0.0070937943   -4.7655138    1.0706744      1024000 
  748000   0.71349461   -4.7654904   -4.7654904   -3.6952507 0.0082425849   -4.7654904    1.0702397      1024000 
  749000   0.71329264   -4.7639846   -4.7639846   -3.6940478 0.0091018645   -4.7639846    1.0699368      1024000 
  750000   0.71367937   -4.7645246   -4.7645246   -3.6940077 0.0093879428   -4.7645246    1.0705169      1024000 
  751000     0.713697   -4.7629153   -4.7629153   -3.6923719 0.0088979001   -4.7629153    1.0705433      1024000 
  752000   0.71360508   -4.7631183   -4.7631183   -3.6927128 0.0060444978   -4.7631183    1.0704055      1024000 
  753000   0.71417488   -4.7638498   -4.7638498   -3.6925896 0.0029206726   -4.7638498    1.0712601      1024000 
  754000    0.7139908   -4.7627227   -4.7627227   -3.6917387 0.0055371295   -4.7627227     1.070984      1024000 
  755000    0.7125659   -4.7604019   -4.7604019   -3.6915552  0.011868455   -4.7604019    1.0688467      1024000 
  756000   0.71261743   -4.7612083   -4.7612083   -3.6922844  0.005919411   -4.7612083     1.068924      1024000 
  757000   0.71383135   -4.7627095   -4.7627095   -3.6919646 0.0062000537   -4.7627095    1.0707449      1024000 
  758000   0.71309882   -4.7600569   -4.7600569   -3.6904108  0.007946153   -4.7600569    1.0696461      1024000 
  759000   0.71372207   -4.7612792   -4.7612792   -3.6906983 0.0046305301   -4.7612792    1.0705809      1024000 
  760000   0.71340803   -4.7600561   -4.7600561   -3.6899462 0.0036933369   -4.7600561    1.0701099      1024000 
  761000   0.71486678   -4.7611823   -4.7611823   -3.6888843 0.0035107008   -4.7611823     1.072298      1024000 
  762000   0.71446766   -4.7595961   -4.7595961   -3.6878968 0.0084505831   -4.7595961    1.0716993      1024000 
  763000   0.71498434   -4.7598623   -4.7598623    -3.687388 0.0097622519   -4.7598623    1.0724743      1024000 
  764000    0.7159265    -4.761431    -4.761431   -3.6875435 0.0062190673    -4.761431    1.0738876      1024000 
  765000   0.71529342   -4.7604507   -4.7604507   -3.6875127  0.011360977   -4.7604507     1.072938      1024000 
  766000    0.7157877   -4.7601921   -4.7601921   -3.6865127 0.0096671267   -4.7601921    1.0736794      1024000 
  767000   0.71602728   -4.7598051   -4.7598051   -3.6857663  0.013369927   -4.7598051    1.0740387      1024000 
  768000   0.71571932   -4.7580992   -4.7580992   -3.6845224  0.015593716   -4.7580992    1.0735768      1024000 
  769000    0.7156429   -4.7572222   -4.7572222     -3.68376  0.010264621   -4.7572222    1.0734622      1024000 
  770000   0.71601593   -4.7570626   -4.7570626   -3.6830409 0.0079106417   -4.7570626    1.0740217      1024000 
  771000   0.71638635   -4.7564066   -4.7564066   -3.6818292 0.0094786069   -4.7564066    1.0745773      1024000 
  772000   0.71746293   -4.7581638   -4.7581638   -3.6819716 0.0057910635   -4.7581638    1.0761922      1024000 
  773000     0.717039   -4.7569417   -4.7569417   -3.6813853 0.0052719069   -4.7569417    1.0755563      1024000 
  774000   0.71575007   -4.7552162   -4.7552162   -3.6815933 0.0095427774   -4.7552162    1.0736229      1024000 
  775000    0.7161888   -4.7549043   -4.7549043   -3.6806233  0.010186505   -4.7549043     1.074281      1024000 
  776000   0.71604325   -4.7537719   -4.7537719   -3.6797092  0.011072355   -4.7537719    1.0740627      1024000 
  777000    0.7169067   -4.7547662   -4.7547662   -3.6794084 0.0095772044   -4.7547662    1.0753579      1024000 
  778000   0.71668063   -4.7538899   -4.7538899   -3.6788711 0.0074559205   -4.7538899    1.0750188      1024000 
  779000   0.71677803   -4.7533237   -4.7533237   -3.6781588 0.0050494399   -4.7533237    1.0751649      1024000 
  780000   0.71613791   -4.7511794   -4.7511794   -3.6769748 0.0083771456   -4.7511794    1.0742047      1024000 
  781000   0.71581452   -4.7511039   -4.7511039   -3.6773843 0.0073428882   -4.7511039    1.0737196      1024000 
  782000   0.71661261   -4.7510114   -4.7510114   -3.6760946 0.0033529151   -4.7510114    1.0749167      1024000 
  783000    0.7170478   -4.7507334   -4.7507334   -3.6751639 0.0051540913   -4.7507334    1.0755695      1024000 
  784000   0.71731648   -4.7497107   -4.7497107   -3.6737382 0.0076274059   -4.7497107    1.0759725      1024000 
  785000   0.71712215   -4.7494598   -4.7494598   -3.6737787 0.0053103224   -4.7494598     1.075681      1024000 
  786000   0.71761314   -4.7492402   -4.7492402   -3.6728227 0.0044255572   -4.7492402    1.0764175      1024000 
  787000   0.71666881   -4.7466479   -4.7466479   -3.6716469  0.010595368   -4.7466479     1.075001      1024000 
  788000   0.71825217   -4.7476778   -4.7476778   -3.6703017 0.0083098447   -4.7476778    1.0773761      1024000 
  789000   0.71803556   -4.7460493   -4.7460493   -3.6689981 0.0091977136   -4.7460493    1.0770512      1024000 
  790000   0.71762024   -4.7456378   -4.7456378   -3.6692096   0.01095531   -4.7456378    1.0764282      1024000 
  791000   0.71817811   -4.7463131   -4.7463131   -3.6690481  0.005920072   -4.7463131     1.077265      1024000 
  792000   0.71727998   -4.7447239   -4.7447239   -3.6688061  0.006777739   -4.7447239    1.0759178      1024000 
  793000   0.71803106   -4.7452695   -4.7452695   -3.6682251 0.0067683969   -4.7452695    1.0770444      1024000 
  794000   0.71800763   -4.7443778   -4.7443778   -3.6673685 0.0023907903   -4.7443778    1.0770093      1024000 
  795000   0.71864338   -4.7446305   -4.7446305   -3.6666676 0.0037616896   -4.7446305    1.0779629      1024000 
  796000   0.71791854   -4.7434587   -4.7434587    -3.666583 0.0038197939   -4.7434587    1.0768756      1024000 
  797000   0.71815377   -4.7428284   -4.7428284   -3.6655999 0.0074918979   -4.7428284    1.0772285      1024000 
  798000    0.7185196     -4.74222     -4.74222   -3.6644428 0.0068041922     -4.74222    1.0777772      1024000 
  799000   0.71846276   -4.7419889   -4.7419889   -3.6642969 0.0062254249   -4.7419889     1.077692      1024000 
  800000    0.7184448   -4.7417092   -4.7417092   -3.6640442 0.0038059566   -4.7417092     1.077665      1024000 
  801000   0.71865812   -4.7401333   -4.7401333   -3.6621483 0.0087626885   -4.7401333     1.077985      1024000 
  802000    0.7193065      -4.7401      -4.7401   -3.6611425 0.0091023457      -4.7401    1.0789576      1024000 
  803000   0.71967819   -4.7404758   -4.7404758   -3.6609607  0.010510035   -4.7404758    1.0795151      1024000 
  804000   0.71961142   -4.7388766   -4.7388766   -3.6594617  0.012364588   -4.7388766    1.0794149      1024000 
  805000    0.7206922   -4.7408434   -4.7408434   -3.6598073 0.0089663625   -4.7408434    1.0810361      1024000 
  806000   0.71919465   -4.7378323   -4.7378323   -3.6590426  0.016200766   -4.7378323    1.0787898      1024000 
  807000   0.72060704   -4.7394331   -4.7394331   -3.6585248   0.00770801   -4.7394331    1.0809084      1024000 
  808000   0.72053234   -4.7388965   -4.7388965   -3.6581001  0.013100688   -4.7388965    1.0807963      1024000 
  809000    0.7218714    -4.739572    -4.739572   -3.6567671 0.0082735198    -4.739572    1.0828049      1024000 
  810000   0.72068789   -4.7380494   -4.7380494   -3.6570198  0.011855404   -4.7380494    1.0810296      1024000 
  811000   0.72037472   -4.7374512   -4.7374512   -3.6568913 0.0084824971   -4.7374512    1.0805599      1024000 
  812000   0.72068986   -4.7378006   -4.7378006    -3.656768  0.008489039   -4.7378006    1.0810326      1024000 
  813000   0.72015808   -4.7376231   -4.7376231   -3.6573882 0.0045429053   -4.7376231    1.0802349      1024000 
  814000   0.72005584   -4.7369741   -4.7369741   -3.6568925 0.0069432115   -4.7369741    1.0800816      1024000 
  815000   0.72062545   -4.7368809   -4.7368809    -3.655945 0.0015836023   -4.7368809     1.080936      1024000 
  816000   0.72117429   -4.7369808   -4.7369808   -3.6552215  0.002680616   -4.7369808    1.0817592      1024000 
  817000    0.7205941   -4.7359175   -4.7359175   -3.6550285 0.0064899443   -4.7359175     1.080889      1024000 
  818000   0.72158302   -4.7358129   -4.7358129   -3.6534406 0.0070102448   -4.7358129    1.0823723      1024000 
  819000    0.7210971   -4.7347283   -4.7347283   -3.6530848 0.0023715074   -4.7347283    1.0816434      1024000 
  820000   0.72027027   -4.7323923   -4.7323923   -3.6519891 0.0083887977   -4.7323923    1.0804032      1024000 
  821000    0.7211826   -4.7326758   -4.7326758   -3.6509041 0.0098728966   -4.7326758    1.0817717      1024000 
  822000   0.72229063   -4.7330323   -4.7330323   -3.6495986 0.0070540892   -4.7330323    1.0834337      1024000 
  823000   0.72210885   -4.7321368   -4.7321368   -3.6489757 0.0091518064   -4.7321368    1.0831611      1024000 
  824000   0.72150179    -4.731474    -4.731474   -3.6492235 0.0078433308    -4.731474    1.0822505      1024000 
  825000   0.72169706   -4.7310829   -4.7310829   -3.6485395 0.0089092979   -4.7310829    1.0825434      1024000 
  826000   0.72228347   -4.7312281   -4.7312281   -3.6478051 0.0035205991   -4.7312281     1.083423      1024000 
  827000   0.72142084   -4.7288725   -4.7288725   -3.6467434  0.010345551   -4.7288725    1.0821291      1024000 
  828000    0.7221875   -4.7304135   -4.7304135   -3.6471344 0.0073990593   -4.7304135    1.0832791      1024000 
  829000   0.72266479   -4.7307239   -4.7307239   -3.6467289 0.0021945791   -4.7307239     1.083995      1024000 
  830000   0.72126307   -4.7282783   -4.7282783   -3.6463859  0.004973635   -4.7282783    1.0818924      1024000 
  831000   0.72254516   -4.7291083   -4.7291083   -3.6452928 0.0028630259   -4.7291083    1.0838155      1024000 
  832000   0.72168543    -4.727246    -4.727246   -3.6447201 0.0070024389    -4.727246    1.0825259      1024000 
  833000   0.72144717   -4.7273492   -4.7273492   -3.6451806 0.0030563824   -4.7273492    1.0821686      1024000 
  834000   0.72280427   -4.7280049   -4.7280049   -3.6438007 0.0048279588   -4.7280049    1.0842042      1024000 
  835000   0.72286495   -4.7268185   -4.7268185   -3.6425233  0.011328832   -4.7268185    1.0842952      1024000 
  836000   0.72393016   -4.7288166   -4.7288166   -3.6429236 0.0045615577   -4.7288166     1.085893      1024000 
  837000   0.72292322   -4.7261744   -4.7261744   -3.6417918 0.0082818038   -4.7261744    1.0843826      1024000 
  838000   0.72293869   -4.7250905   -4.7250905   -3.6406847 0.0084059006   -4.7250905    1.0844058      1024000 
  839000   0.72357412   -4.7254856   -4.7254856   -3.6401266  0.010578779   -4.7254856     1.085359      1024000 
  840000   0.72470343   -4.7268513   -4.7268513   -3.6397984 0.0073482908   -4.7268513    1.0870529      1024000 
  841000   0.72360973   -4.7243713   -4.7243713    -3.638959  0.011737424   -4.7243713    1.0854124      1024000 
  842000    0.7235227   -4.7231682   -4.7231682   -3.6378863 0.0099093434   -4.7231682    1.0852819      1024000 
  843000   0.72375629   -4.7239622   -4.7239622     -3.63833 0.0054645534   -4.7239622    1.0856322      1024000 
  844000   0.72445616   -4.7236582   -4.7236582   -3.6369762  0.010874108   -4.7236582     1.086682      1024000 
  845000   0.72399487   -4.7230065   -4.7230065   -3.6370164 0.0086533494   -4.7230065    1.0859901      1024000 
  846000   0.72344883    -4.722888    -4.722888    -3.637717  0.011268109    -4.722888     1.085171      1024000 
  847000   0.72315147   -4.7221059   -4.7221059   -3.6373809 0.0086707357   -4.7221059     1.084725      1024000 
  848000   0.72391293   -4.7225009   -4.7225009   -3.6366337  0.010592403   -4.7225009    1.0858672      1024000 
  849000   0.72419286    -4.722599    -4.722599   -3.6363119 0.0080394452    -4.722599    1.0862871      1024000 
  850000    0.7237961   -4.7225482   -4.7225482   -3.6368563 0.0028817688   -4.7225482    1.0856919      1024000 
  851000   0.72489608   -4.7233696   -4.7233696   -3.6360276 -0.0022359682   -4.7233696    1.0873419      1024000 
  852000   0.72401166   -4.7205021   -4.7205021   -3.6344868 0.0061447744   -4.7205021    1.0860153      1024000 
  853000   0.72434828   -4.7201061   -4.7201061   -3.6335859 0.0050506503   -4.7201061    1.0865202      1024000 
  854000    0.7246245   -4.7193955   -4.7193955    -3.632461 0.0068725745   -4.7193955    1.0869345      1024000 
  855000   0.72472033   -4.7195863   -4.7195863    -3.632508 0.0090078035   -4.7195863    1.0870783      1024000 
  856000   0.72538641   -4.7196815   -4.7196815   -3.6316041 0.0075199605   -4.7196815    1.0880774      1024000 
  857000   0.72464361    -4.717656    -4.717656   -3.6306928  0.011166541    -4.717656    1.0869632      1024000 
  858000   0.72543862    -4.717811    -4.717811   -3.6296553 0.0098938854    -4.717811    1.0881557      1024000 
  859000   0.72609534   -4.7178359   -4.7178359   -3.6286951  0.010002129   -4.7178359    1.0891408      1024000 
  860000    0.7268567   -4.7184112   -4.7184112   -3.6281283 0.0083125758   -4.7184112    1.0902828      1024000 
  861000   0.72592773   -4.7166018   -4.7166018   -3.6277125  0.010980606   -4.7166018    1.0888894      1024000 
  862000   0.72640316   -4.7165527   -4.7165527   -3.6269502 0.0076271186   -4.7165527    1.0896025      1024000 
  863000    0.7268462   -4.7161627   -4.7161627   -3.6258956 0.0096470903   -4.7161627    1.0902671      1024000 
  864000   0.72587626   -4.7142789   -4.7142789   -3.6254667 0.0094340776   -4.7142789    1.0888122      1024000 
  865000   0.72656931   -4.7138628   -4.7138628    -3.624011 0.0087154987   -4.7138628    1.0898518      1024000 
  866000   0.72762519   -4.7151146   -4.7151146   -3.6236791 0.0098139623   -4.7151146    1.0914356      1024000 
  867000   0.72749912   -4.7133368   -4.7133368   -3.6220904 0.0077161638   -4.7133368    1.0912465      1024000 
  868000   0.72666825   -4.7117274   -4.7117274   -3.6217273 0.0045236604   -4.7117274    1.0900002      1024000 
  869000   0.72678526   -4.7109407   -4.7109407    -3.620765  0.008655214   -4.7109407    1.0901757      1024000 
  870000   0.72683625   -4.7101512   -4.7101512    -3.619899  0.008292205   -4.7101512    1.0902522      1024000 
  871000   0.72669593   -4.7093425   -4.7093425   -3.6193008 0.0078312346   -4.7093425    1.0900417      1024000 
  872000    0.7270995   -4.7095734   -4.7095734   -3.6189264 0.0065290152   -4.7095734     1.090647      1024000 
  873000   0.72646485   -4.7082915   -4.7082915   -3.6185965 0.0029908849   -4.7082915    1.0896951      1024000 
  874000   0.72651331   -4.7076668   -4.7076668   -3.6178991 0.0028638044   -4.7076668    1.0897678      1024000 
  875000     0.726501   -4.7074799   -4.7074799   -3.6177307 0.0057141359   -4.7074799    1.0897493      1024000 
  876000   0.72663158   -4.7062575   -4.7062575   -3.6163124 0.0033863949   -4.7062575    1.0899452      1024000 
  877000   0.72723866    -4.706281    -4.706281   -3.6154252 0.0016276583    -4.706281    1.0908558      1024000 
  878000   0.72764361    -4.705664    -4.705664   -3.6142008 0.0030274135    -4.705664    1.0914632      1024000 
  879000   0.72637726   -4.7034887   -4.7034887    -3.613925 0.0069974114   -4.7034887    1.0895637      1024000 
  880000   0.72810467   -4.7057827   -4.7057827   -3.6136279 0.0010829614   -4.7057827    1.0921548      1024000 
  881000   0.72712998   -4.7032994   -4.7032994   -3.6126067 0.0064081581   -4.7032994    1.0906928      1024000 
  882000   0.72752946   -4.7034616   -4.7034616   -3.6121697 0.0064405337   -4.7034616     1.091292      1024000 
  883000   0.72839181   -4.7035301   -4.7035301   -3.6109446 0.0088331959   -4.7035301    1.0925855      1024000 
  884000    0.7296295   -4.7047894   -4.7047894   -3.6103473 0.0057565643   -4.7047894     1.094442      1024000 
  885000   0.72840704   -4.7026516   -4.7026516   -3.6100433 0.0078681294   -4.7026516    1.0926083      1024000 
  886000   0.72913892   -4.7026945   -4.7026945   -3.6089883  0.006939254   -4.7026945    1.0937062      1024000 
  887000   0.72949938   -4.7015911   -4.7015911   -3.6073442 0.0085691039   -4.7015911    1.0942469      1024000 
  888000   0.72906848   -4.7004761   -4.7004761   -3.6068756   0.01095763   -4.7004761    1.0936005      1024000 
  889000   0.72993458   -4.7016752   -4.7016752   -3.6067755  0.011177284   -4.7016752    1.0948996      1024000 
  890000   0.72999631   -4.7008169   -4.7008169   -3.6058246  0.010308363   -4.7008169    1.0949922      1024000 
  891000   0.73080386   -4.7019328   -4.7019328   -3.6057292  0.010512488   -4.7019328    1.0962036      1024000 
  892000   0.72992668   -4.7000718   -4.7000718    -3.605184 0.0094218013   -4.7000718    1.0948878      1024000 
  893000   0.73025964   -4.6996562   -4.6996562   -3.6042689 0.0099032347   -4.6996562    1.0953872      1024000 
  894000   0.73020235   -4.6986478   -4.6986478   -3.6033465  0.012834806   -4.6986478    1.0953013      1024000 
  895000    0.7305389   -4.6981581   -4.6981581    -3.602352  0.014681924   -4.6981581    1.0958061      1024000 
  896000   0.73107061   -4.6983423   -4.6983423   -3.6017386  0.014569859   -4.6983423    1.0966037      1024000 
  897000   0.73180825   -4.6984982   -4.6984982    -3.600788  0.014510732   -4.6984982    1.0977101      1024000 
  898000   0.73112043   -4.6968652   -4.6968652   -3.6001867  0.012150979   -4.6968652    1.0966784      1024000 
  899000   0.73140341   -4.6971428   -4.6971428   -3.6000399 0.0069176963   -4.6971428    1.0971029      1024000 
  900000   0.73170792   -4.6968272   -4.6968272   -3.5992676 0.0065887656   -4.6968272    1.0975597      1024000 
  901000   0.73094059   -4.6945102   -4.6945102   -3.5981015 0.0050029961   -4.6945102    1.0964087      1024000 
  902000   0.73028697   -4.6936968   -4.6936968   -3.5982686 0.0080944084   -4.6936968    1.0954282      1024000 
  903000   0.73005289    -4.692049    -4.692049   -3.5969719 0.0042384362    -4.692049    1.0950771      1024000 
  904000   0.73162536   -4.6940022   -4.6940022   -3.5965663 -0.00022089215   -4.6940022    1.0974358      1024000 
  905000   0.73012244   -4.6906845   -4.6906845   -3.5955031 0.0081239627   -4.6906845    1.0951814      1024000 
  906000   0.73075733   -4.6906569   -4.6906569   -3.5945231 0.0038912171   -4.6906569    1.0961338      1024000 
  907000   0.73105371   -4.6902681   -4.6902681   -3.5936898 0.0034058783   -4.6902681    1.0965783      1024000 
  908000   0.73056379   -4.6885329   -4.6885329   -3.5926895 0.0082405669   -4.6885329    1.0958435      1024000 
  909000   0.73111365   -4.6886837   -4.6886837   -3.5920155 0.0032152789   -4.6886837    1.0966682      1024000 
  910000   0.73114953   -4.6876172   -4.6876172   -3.5908951 0.0086076589   -4.6876172    1.0967221      1024000 
  911000   0.73186394   -4.6878893   -4.6878893   -3.5900956 0.0033485785   -4.6878893    1.0977937      1024000 
  912000   0.73120374   -4.6867166   -4.6867166   -3.5899133 0.0039478764   -4.6867166    1.0968034      1024000 
  913000   0.73178493   -4.6865436   -4.6865436   -3.5888685 0.0033801003   -4.6865436    1.0976752      1024000 
  914000   0.73174589   -4.6851911   -4.6851911   -3.5875745 0.0094392576   -4.6851911    1.0976166      1024000 
  915000    0.7324098   -4.6851447   -4.6851447   -3.5865322 0.0064666862   -4.6851447    1.0986125      1024000 
  916000   0.73171219   -4.6840307   -4.6840307   -3.5864647 0.0036594439   -4.6840307    1.0975661      1024000 
  917000   0.73254449   -4.6851995   -4.6851995    -3.586385 0.0029915763   -4.6851995    1.0988145      1024000 
  918000   0.73239881   -4.6844607   -4.6844607   -3.5858647 0.0052165909   -4.6844607     1.098596      1024000 
  919000   0.73211696   -4.6832374   -4.6832374   -3.5850641  0.013189938   -4.6832374    1.0981732      1024000 
  920000   0.73222594   -4.6832138   -4.6832138   -3.5848771 0.0081216894   -4.6832138    1.0983367      1024000 
  921000    0.7334038   -4.6841638   -4.6841638   -3.5840603   0.01132429   -4.6841638    1.1001035      1024000 
  922000    0.7325545   -4.6823627   -4.6823627   -3.5835332 0.0070715996   -4.6823627    1.0988295      1024000 
  923000   0.73338162   -4.6819167   -4.6819167   -3.5818465 0.0027680936   -4.6819167    1.1000702      1024000 
  924000   0.73299329   -4.6814262   -4.6814262   -3.5819385 0.0060374007   -4.6814262    1.0994877      1024000 
  925000   0.73368856   -4.6815551   -4.6815551   -3.5810245 0.0054250915   -4.6815551    1.1005306      1024000 
  926000   0.73389229   -4.6814175   -4.6814175   -3.5805813 0.0079808869   -4.6814175    1.1008362      1024000 
  927000   0.73520005   -4.6827963   -4.6827963   -3.5799984 0.0040984794   -4.6827963    1.1027978      1024000 
  928000   0.73499556   -4.6811054   -4.6811054   -3.5786143  0.010874079   -4.6811054    1.1024911      1024000 
  929000   0.73430649   -4.6799406   -4.6799406   -3.5784831   0.01451273   -4.6799406    1.1014575      1024000 
  930000    0.7358835   -4.6814244   -4.6814244   -3.5776013  0.012728801   -4.6814244     1.103823      1024000 
  931000   0.73620579   -4.6812927   -4.6812927   -3.5769863  0.014812626   -4.6812927    1.1043064      1024000 
  932000   0.73568143   -4.6800725   -4.6800725   -3.5765526  0.013227468   -4.6800725    1.1035199      1024000 
  933000    0.7355055   -4.6792125   -4.6792125   -3.5759565  0.017335044   -4.6792125     1.103256      1024000 
  934000   0.73589765   -4.6783307   -4.6783307   -3.5744864   0.01517772   -4.6783307    1.1038442      1024000 
  935000   0.73684212    -4.679402    -4.679402   -3.5741411  0.013986058    -4.679402    1.1052609      1024000 
  936000    0.7358467   -4.6769085   -4.6769085   -3.5731407  0.011840719   -4.6769085    1.1037678      1024000 
  937000   0.73670405   -4.6782183   -4.6782183   -3.5731645 0.0086896339   -4.6782183    1.1050538      1024000 
  938000   0.73523624   -4.6757861   -4.6757861    -3.572934 0.0076493766   -4.6757861    1.1028521      1024000 
  939000    0.7360119    -4.676234    -4.676234   -3.5722184 0.0082409433    -4.676234    1.1040156      1024000 
  940000   0.73516287   -4.6736459   -4.6736459   -3.5709039 0.0052953863   -4.6736459    1.1027421      1024000 
  941000   0.73609955    -4.674277    -4.674277     -3.57013 0.0061820778    -4.674277    1.1041471      1024000 
  942000   0.73621615   -4.6738996   -4.6738996   -3.5695776  0.012006339   -4.6738996     1.104322      1024000 
  943000   0.73657893   -4.6744166   -4.6744166   -3.5695504 0.0090338277   -4.6744166    1.1048662      1024000 
  944000    0.7360576   -4.6736168   -4.6736168   -3.5695327 0.0037475799   -4.6736168    1.1040842      1024000 
  945000   0.73678563   -4.6724362   -4.6724362     -3.56726 0.0051333408   -4.6724362    1.1051762      1024000 
  946000   0.73605318   -4.6713139   -4.6713139   -3.5672364 0.0071533767   -4.6713139    1.1040775      1024000 
  947000   0.73740271   -4.6719906   -4.6719906   -3.5658888 -0.0014536404   -4.6719906    1.1061018      1024000 
  948000   0.73673721   -4.6700389   -4.6700389   -3.5649353 0.0029917282   -4.6700389    1.1051036      1024000 
  949000   0.73767373   -4.6699872   -4.6699872   -3.5634788 0.0010849594   -4.6699872    1.1065083      1024000 
  950000   0.73726227   -4.6678917   -4.6678917   -3.5620005 0.0072325665   -4.6678917    1.1058912      1024000 
  951000   0.73609098   -4.6650925   -4.6650925   -3.5609583  0.012945775   -4.6650925    1.1041342      1024000 
  952000   0.73773322   -4.6674397   -4.6674397   -3.5608421 0.0028710189   -4.6674397    1.1065976      1024000 
  953000   0.73859023   -4.6678204   -4.6678204   -3.5599373 0.0060221974   -4.6678204    1.1078831      1024000 
  954000   0.73898501   -4.6671848   -4.6671848   -3.5587095 0.0033327857   -4.6671848    1.1084753      1024000 
  955000   0.73778002   -4.6645908   -4.6645908   -3.5579231  0.012657051   -4.6645908    1.1066678      1024000 
  956000   0.73935132   -4.6660629   -4.6660629   -3.5570381 0.0016191768   -4.6660629    1.1090247      1024000 
  957000   0.73920816   -4.6650838   -4.6650838   -3.5562738 0.0064110761   -4.6650838      1.10881      1024000 
  958000   0.73873004   -4.6645626   -4.6645626   -3.5564698  0.010805056   -4.6645626    1.1080928      1024000 
  959000   0.73922844   -4.6642095   -4.6642095   -3.5553691  0.006805543   -4.6642095    1.1088404      1024000 
  960000   0.73860086   -4.6622908   -4.6622908   -3.5543917 0.0051884938   -4.6622908     1.107899      1024000 
  961000    0.7385315   -4.6613033   -4.6613033   -3.5535083 0.0048674287   -4.6613033     1.107795      1024000 
  962000   0.73941991   -4.6618307   -4.6618307   -3.5527031 0.0057986598   -4.6618307    1.1091276      1024000 
  963000   0.73875856   -4.6596394   -4.6596394   -3.5515038 0.0069735785   -4.6596394    1.1081356      1024000 
  964000   0.73952617   -4.6600175   -4.6600175   -3.5507305  0.001363068   -4.6600175     1.109287      1024000 
  965000   0.73924294   -4.6590664   -4.6590664   -3.5502042 0.0052251308   -4.6590664    1.1088622      1024000 
  966000   0.73939822   -4.6585548   -4.6585548   -3.5494597 0.0071347616   -4.6585548    1.1090951      1024000 
  967000    0.7405899   -4.6593188   -4.6593188   -3.5484362 0.0041980024   -4.6593188    1.1108826      1024000 
  968000   0.74126284   -4.6578822   -4.6578822   -3.5459902 0.0080805953   -4.6578822     1.111892      1024000 
  969000   0.74088568   -4.6565763   -4.6565763     -3.54525  0.010300191   -4.6565763    1.1113263      1024000 
  970000   0.74180618   -4.6570061   -4.6570061    -3.544299 0.0080277003   -4.6570061     1.112707      1024000 
  971000   0.74128158   -4.6563496   -4.6563496   -3.5444295 0.0060566813   -4.6563496    1.1119201      1024000 
  972000   0.74086178   -4.6549336   -4.6549336   -3.5436431 0.0096081018   -4.6549336    1.1112904      1024000 
  973000   0.74050242   -4.6535689   -4.6535689   -3.5428175 0.0097828882   -4.6535689    1.1107514      1024000 
  974000   0.74029677   -4.6531112   -4.6531112   -3.5426683 0.0072714195   -4.6531112    1.1104429      1024000 
  975000   0.74063314   -4.6522401   -4.6522401   -3.5412926 0.0066388499   -4.6522401    1.1109475      1024000 
  976000   0.74101271   -4.6532672   -4.6532672   -3.5417504 0.0024641945   -4.6532672    1.1115168      1024000 
  977000   0.74049901   -4.6519383   -4.6519383   -3.5411921 0.0010060897   -4.6519383    1.1107463      1024000 
  978000   0.74007026    -4.650444    -4.650444   -3.5403409 0.0064182945    -4.650444    1.1101031      1024000 
  979000   0.74035999   -4.6501853   -4.6501853   -3.5396476  0.010062658   -4.6501853    1.1105377      1024000 
  980000   0.74034758   -4.6495991   -4.6495991   -3.5390799 0.0046555158   -4.6495991    1.1105191      1024000 
  981000   0.74098732   -4.6491875   -4.6491875   -3.5377088 0.0051033386   -4.6491875    1.1114787      1024000 
  982000   0.74061087   -4.6484072   -4.6484072   -3.5374932 0.0093103888   -4.6484072    1.1109141      1024000 
  983000   0.74121443   -4.6493257   -4.6493257   -3.5375063 0.0039848221   -4.6493257    1.1118194      1024000 
  984000   0.74152674   -4.6481692   -4.6481692   -3.5358814 0.0059623983   -4.6481692    1.1122879      1024000 
  985000   0.74215147   -4.6476244   -4.6476244   -3.5343994 0.0034863544   -4.6476244    1.1132249      1024000 
  986000   0.74183352   -4.6457333   -4.6457333   -3.5329853 0.0076295763   -4.6457333     1.112748      1024000 
  987000   0.74219187   -4.6457746   -4.6457746    -3.532489 0.0083857579   -4.6457746    1.1132855      1024000 
  988000   0.74392532   -4.6482311   -4.6482311   -3.5323454 0.0067613576   -4.6482311    1.1158857      1024000 
  989000      0.74173   -4.6443418   -4.6443418   -3.5317491  0.010403423   -4.6443418    1.1125927      1024000 
  990000   0.74224264   -4.6440105   -4.6440105   -3.5306488 0.0096261555   -4.6440105    1.1133617      1024000 
  991000   0.74266747   -4.6440311   -4.6440311   -3.5300321  0.013186812   -4.6440311    1.1139989      1024000 
  992000   0.74389176    -4.644509    -4.644509   -3.5286736  0.012555834    -4.644509    1.1158354      1024000 
  993000   0.74421664   -4.6441472   -4.6441472   -3.5278245 0.0076069977   -4.6441472    1.1163227      1024000 
  994000   0.74367221   -4.6423837   -4.6423837   -3.5268777  0.010492121   -4.6423837    1.1155061      1024000 
  995000   0.74445757    -4.642514    -4.642514   -3.5258299  0.011298868    -4.642514    1.1166841      1024000 
  996000   0.74357503   -4.6402154   -4.6402154   -3.5248552   0.01294373   -4.6402154    1.1153603      1024000 
  997000   0.74474006   -4.6416867   -4.6416867   -3.5245789 0.0083790789   -4.6416867    1.1171078      1024000 
  998000    0.7452604   -4.6413659   -4.6413659   -3.5234776 0.0087838369   -4.6413659    1.1178883      1024000 
  999000   0.74358698   -4.6385568   -4.6385568   -3.5231786 0.0063978115   -4.6385568    1.1153782      1024000 
 1000000   0.74474387   -4.6399277   -4.6399277   -3.5228142  0.004062647   -4.6399277    1.1171135      1024000 
Loop time of 7818.15 on 32 procs for 1000000 steps with 492800 atoms

Performance: 27628.005 tau/day, 127.907 timesteps/s
99.7% CPU use with 32 MPI tasks x 1 OpenMP threads

MPI task timing breakdown:
Section |  min time  |  avg time  |  max time  |%varavg|  %CPU | %total
-----------------------------------------------------------------------
Pair    | 4088.7     | 5108.9     | 5375.7     | 534.6 |  99.7 | 65.35
Bond    | 0.62076    | 0.64976    | 0.67645    |   1.6 | 100.0 |  0.01
Neigh   | 1001.2     | 1204.6     | 1258.1     | 219.1 |  99.8 | 15.41
Comm    | 461.21     | 919.4      | 2127.4     |1546.6 |  99.4 | 11.76
Output  | 22.313     | 22.5       | 22.507     |   0.7 |  98.3 |  0.29
Modify  | 156.53     | 268.82     | 729.98     |1194.5 |  99.2 |  3.44
Other   |            | 293.3      |            |       |       |  3.75

Nlocal:        15400.0 ave       15858 max       15173 min
Histogram: 5 6 11 2 3 0 0 0 1 4
Nghost:        12909.1 ave       14375 max        9139 min
Histogram: 8 0 0 0 0 0 0 0 4 20
Neighs:        574318.0 ave      616505 max      509667 min
Histogram: 3 1 0 3 1 4 6 6 4 4

Total # of neighbors = 18378173
Ave neighs/atom = 37.293371
Ave special neighs/atom = 0.0000000
Neighbor list builds = 57730
Dangerous builds = 593
Total wall time: 2:10:19
