LAMMPS (29 Oct 2020)
  using 1 OpenMP thread(s) per MPI task
# Simple rigid body system
# needed variables:

#variable	startTemp equal 0.5
#variable 	temp 	  equal 0.8

units		lj
atom_style	full
dimension 	3
boundary	p p f
pair_style	lj/cut/opt 2.5

variable 	sigma		equal 1.0
variable 	epsilon 	equal 1.0

region		box block 0 80 0 80 0 160
create_box 	3 box
Created orthogonal box = (0.0000000 0.0000000 0.0000000) to (80.000000 80.000000 160.00000)
  2 by 4 by 8 MPI processor grid



lattice 	sc 0.66
Lattice spacing in x,y,z = 1.1485556 1.1485556 1.1485556
region		fluid block EDGE EDGE EDGE EDGE 2 100 units box
create_atoms 	1 region fluid
Created 421400 atoms
  create_atoms CPU = 0.007 seconds

lattice 	sc 0.045
Lattice spacing in x,y,z = 2.8114422 2.8114422 2.8114422
region		gas block EDGE EDGE EDGE EDGE 101 158 units box
create_atoms    1 region gas
Created 17661 atoms
  create_atoms CPU = 0.006 seconds

group		solvent type 1
439061 atoms in group solvent

mass		1 1.0
mass		2 1.0
mass		3 1.0



neighbor 	0.4 bin

pair_coeff	1 1 1.0 1.0
pair_coeff	2 2 0.0 0.0
pair_coeff	3 3 0.0 0.0
pair_coeff	2 3 0.0 0.0
pair_coeff	1 2*3 0.0 0.0

pair_modify 	shift yes

delete_atoms	overlap 0.5 solvent solvent
System init for delete_atoms ...
Neighbor list info ...
  update every 1 steps, delay 10 steps, check yes
  max neighbors/atom: 2000, page size: 100000
  master list distance cutoff = 2.9
  ghost atom cutoff = 2.9
  binsize = 1.45, bins = 56 56 111
  2 neighbor lists, perpetual/occasional/extra = 1 1 0
  (1) command delete_atoms, occasional
      attributes: full, newton on
      pair build: full/bin
      stencil: full/bin/3d
      bin: standard
  (2) pair lj/cut/opt, perpetual
      attributes: half, newton on
      pair build: half/bin/newton
      stencil: half/bin/3d/newton
      bin: standard
WARNING: Ignoring 'compress yes' for molecular system (src/delete_atoms.cpp:125)
Deleted 0 atoms, new total = 439061

velocity 	solvent create ${startTemp} 563435 loop geom
velocity 	solvent create .90 563435 loop geom

balance 	1.05 shift z 10 1.05
Balancing ...
Neighbor list info ...
  update every 1 steps, delay 10 steps, check yes
  max neighbors/atom: 2000, page size: 100000
  master list distance cutoff = 2.9
  ghost atom cutoff = 2.9
  binsize = 1.45, bins = 56 56 111
  1 neighbor lists, perpetual/occasional/extra = 1 0 0
  (1) pair lj/cut/opt, perpetual
      attributes: half, newton on
      pair build: half/bin/newton
      stencil: half/bin/3d/newton
      bin: standard
 rebalancing time: 0.038 seconds
  iteration count = 5
  initial/final maximal load/proc = 11340.000 8190.0000
  initial/final imbalance factor  = 1.6529822 1.1938204
  x cuts: 0.0000000 0.5 1.0000000
  y cuts: 0.0000000 0.25 0.5 0.75 1.0000000
  z cuts: 0.0000000 0.08984375 0.17578125 0.25390625 0.3359375 0.4140625 0.50390625 0.58203125 1.0000000


####################### WALLS ###########################


variable       epsilonWall equal 2*${epsilon}
variable       epsilonWall equal 2*1

variable       cutoffTop   equal   0.7147*${sigma}
variable       cutoffTop   equal   0.7147*1

variable       cutoffLow   equal   3*${sigma}
variable       cutoffLow   equal   3*1


fix            topWall all wall/lj93 zhi EDGE                ${epsilonWall} ${sigma} ${cutoffTop} units box
fix            topWall all wall/lj93 zhi EDGE                2 ${sigma} ${cutoffTop} units box
fix            topWall all wall/lj93 zhi EDGE                2 1 ${cutoffTop} units box
fix            topWall all wall/lj93 zhi EDGE                2 1 0.7147 units box

fix            lowWall all wall/lj93 zlo EDGE                ${epsilonWall} ${sigma} ${cutoffLow} units box
fix            lowWall all wall/lj93 zlo EDGE                2 ${sigma} ${cutoffLow} units box
fix            lowWall all wall/lj93 zlo EDGE                2 1 ${cutoffLow} units box
fix            lowWall all wall/lj93 zlo EDGE                2 1 3 units box


###################### COMPUTES ##########################

compute        bin1 solvent chunk/atom bin/1d z upper 1.0


######################	FIXES ############################


fix 		peclet solvent ave/chunk 1000 1 1000 bin1 density/number norm 		 none ave one file density.profile

fix 		 temp solvent ave/chunk 1000 1 1000 bin1 temp norm 		 none ave one file temp.profile

fix 		2 solvent nve


## Thermostat


region		regthermo block EDGE EDGE EDGE EDGE 0 20 units box

group 		thermo dynamic solvent region regthermo every 1000
dynamic group thermo defined

fix 		3 thermo langevin ${startTemp} ${temp} 10 156453
fix 		3 thermo langevin .90 ${temp} 10 156453
fix 		3 thermo langevin .90 .90 10 156453



#### Load balancing


fix 		bal all balance 1000 1.05 shift z 10 1.05


############### Diagnostics and computes ###################
#compute 	com cube	  rigid/local	1 mol x y z
#compute 	quat cube	  rigid/local	1 mol quatw quati quatj quatk

thermo 		1000
thermo_style 	custom step temp epair evdwl etotal press pe ke atoms

dump		1 all custom 100000 dump.lammpstrj id mol type x y z
dump 		2 all image 10000 image.*.png type type
dump 		3 all movie 1000 movie.avi type type

#dump 		com cube local 1000 dump.*.xyz c_com[*]
#dump		quat cube      local 1000 dump.*.quat c_quat[*]


restart 	1000000 restart.dat
timestep 	0.005
timer 		full
New timer settings: style=full  mode=nosync  timeout=off

run		5000000
Per MPI rank memory allocation (min/avg/max) = 11.32 | 15.17 | 18.40 Mbytes
Step Temp E_pair E_vdwl TotEng Press PotEng KinEng Atoms 
       0          0.9   -1.2273921   -1.2273921   0.12260487    4.0177464   -1.2273921    1.3499969   439061 
    1000    1.9346262     -3.26164     -3.26164  -0.35970724    1.9849872     -3.26164    2.9019328   439061 
    2000    1.8046093   -3.2530309   -3.2530309  -0.54612322    1.1387141   -3.2530309    2.7069077   439061 
    3000      1.62024    -3.137809    -3.137809  -0.70745455    0.7902376    -3.137809    2.4303545   439061 
    4000    1.5303945   -3.1162979   -3.1162979  -0.82071136   0.61581484   -3.1162979    2.2955866   439061 
    5000    1.4749575   -3.0862916   -3.0862916  -0.87386038   0.48610873   -3.0862916    2.2124313   439061 
    6000      1.43508   -3.0377088   -3.0377088  -0.88509364   0.38374056   -3.0377088    2.1526152   439061 
    7000    1.4070594   -2.9926961   -2.9926961  -0.88211184   0.34367028   -2.9926961    2.1105843   439061 
    8000    1.3942879   -2.9641912   -2.9641912  -0.87276416   0.35710636   -2.9641912     2.091427   439061 
    9000    1.4020348   -2.9659981   -2.9659981  -0.86295072   0.40505573   -2.9659981    2.1030474   439061 
   10000    1.4142925   -2.9785674   -2.9785674  -0.85713353   0.45531382   -2.9785674    2.1214339   439061 
   11000    1.4257943   -2.9925735   -2.9925735  -0.85388689   0.48380192   -2.9925735    2.1386866   439061 
   12000    1.4308611   -2.9999765   -2.9999765  -0.85368979   0.50234719   -2.9999765    2.1462868   439061 
   13000    1.4252281   -2.9932587   -2.9932587  -0.85542138   0.49920835   -2.9932587    2.1378374   439061 
   14000    1.4102267   -2.9714658   -2.9714658  -0.85613058   0.46501083   -2.9714658    2.1153352   439061 
   15000    1.3849008   -2.9343975   -2.9343975  -0.85705103   0.40942054   -2.9343975    2.0773464   439061 
   16000    1.3607458   -2.8982434   -2.8982434  -0.85712928   0.37212824   -2.8982434    2.0411141   439061 
   17000    1.3424498   -2.8722945   -2.8722945   -0.8586243    0.3516316   -2.8722945    2.0136702   439061 
   18000    1.3321915   -2.8587373   -2.8587373  -0.86045454   0.35315522   -2.8587373    1.9982827   439061 
   19000    1.3250686   -2.8627973   -2.8627973  -0.87519898   0.37258088   -2.8627973    1.9875984   439061 
   20000    1.3114127    -2.875187    -2.875187  -0.90807247   0.39613974    -2.875187    1.9671145   439061 
   21000    1.2943378   -2.8882336   -2.8882336  -0.94673144   0.39684059   -2.8882336    1.9415022   439061 
   22000    1.2804915   -2.8978978   -2.8978978  -0.97716489   0.38092316   -2.8978978    1.9207329   439061 
   23000    1.2697505   -2.9067168   -2.9067168   -1.0020954    0.3747942   -2.9067168    1.9046214   439061 
   24000    1.2649956    -2.921647    -2.921647    -1.024158   0.38295618    -2.921647    1.8974891   439061 
   25000     1.259522   -2.9344805   -2.9344805   -1.0452018   0.38742823   -2.9344805    1.8892787   439061 
   26000    1.2554781   -2.9472424   -2.9472424   -1.0640295   0.39079566   -2.9472424    1.8832129   439061 
   27000    1.2488145   -2.9538203   -2.9538203   -1.0806028   0.38172777   -2.9538203    1.8732175   439061 
   28000    1.2397907   -2.9538941   -2.9538941   -1.0942124   0.35527436   -2.9538941    1.8596818   439061 
   29000    1.2284867   -2.9485844   -2.9485844   -1.1058585   0.34926087   -2.9485844    1.8427259   439061 
   30000    1.2168465   -2.9404948   -2.9404948   -1.1152292    0.3252674   -2.9404948    1.8252655   439061 
   31000    1.2060724   -2.9327228   -2.9327228   -1.1236183    0.3117629   -2.9327228    1.8091045   439061 
   32000    1.1953407   -2.9242561   -2.9242561    -1.131249   0.28589615   -2.9242561     1.793007   439061 
   33000    1.1817284   -2.9097264   -2.9097264   -1.1371379    0.2629698   -2.9097264    1.7725885   439061 
   34000    1.1729893   -2.8985346   -2.8985346   -1.1390546    0.2443025   -2.8985346      1.75948   439061 
   35000    1.1609701   -2.8825027   -2.8825027   -1.1410516   0.23110957   -2.8825027    1.7414511   439061 
   36000    1.1529574    -2.873079    -2.873079   -1.1436469   0.21711908    -2.873079    1.7294321   439061 
   37000    1.1484638   -2.8689536   -2.8689536   -1.1462619   0.20898083   -2.8689536    1.7226917   439061 
   38000    1.1444918   -2.8643353   -2.8643353   -1.1476015   0.20618241   -2.8643353    1.7167338   439061 
   39000    1.1433207   -2.8629934   -2.8629934   -1.1480162   0.19861969   -2.8629934    1.7149772   439061 
   40000    1.1408005   -2.8597888   -2.8597888    -1.148592   0.20156609   -2.8597888    1.7111968   439061 
   41000     1.139251   -2.8579992   -2.8579992   -1.1491267   0.19901445   -2.8579992    1.7088725   439061 
   42000    1.1394461   -2.8575863   -2.8575863   -1.1484211   0.19739898   -2.8575863    1.7091653   439061 
   43000     1.139512   -2.8581153   -2.8581153   -1.1488511   0.19674448   -2.8581153    1.7092642   439061 
   44000    1.1391794   -2.8586625   -2.8586625   -1.1498972   0.19067083   -2.8586625    1.7087652   439061 
   45000     1.140674    -2.860379    -2.860379   -1.1493719   0.19739813    -2.860379    1.7110072   439061 
   46000    1.1396457   -2.8594908   -2.8594908   -1.1500261   0.19153126   -2.8594908    1.7094647   439061 
   47000    1.1382728   -2.8574965   -2.8574965   -1.1500911   0.18950861   -2.8574965    1.7074053   439061 
   48000    1.1358215   -2.8558809   -2.8558809   -1.1521525   0.18713464   -2.8558809    1.7037284   439061 
   49000    1.1335169   -2.8523279   -2.8523279   -1.1520564   0.18351505   -2.8523279    1.7002714   439061 
   50000    1.1305908   -2.8499789   -2.8499789   -1.1540965   0.17884957   -2.8499789    1.6958824   439061 
   51000    1.1297383   -2.8521026   -2.8521026   -1.1574989   0.18097701   -2.8521026    1.6946036   439061 
   52000    1.1271206   -2.8522572   -2.8522572   -1.1615803   0.18419954   -2.8522572     1.690677   439061 
   53000    1.1245363   -2.8555582   -2.8555582   -1.1687575   0.18666583   -2.8555582    1.6868006   439061 
   54000    1.1251499   -2.8636898   -2.8636898   -1.1759688   0.20249551   -2.8636898     1.687721   439061 
   55000    1.1244592   -2.8738419   -2.8738419    -1.187157   0.20326298   -2.8738419    1.6866849   439061 
   56000    1.1218583   -2.8799552   -2.8799552   -1.1971716   0.19796447   -2.8799552    1.6827836   439061 
   57000    1.1186094     -2.88412     -2.88412   -1.2062097   0.19805779     -2.88412    1.6779103   439061 
   58000    1.1162519   -2.8882592   -2.8882592   -1.2138853   0.19344298   -2.8882592     1.674374   439061 
   59000    1.1166374    -2.895118    -2.895118   -1.2201656   0.19790436    -2.895118    1.6749524   439061 
   60000    1.1154035   -2.8985869   -2.8985869   -1.2254854   0.20468029   -2.8985869    1.6731014   439061 
   61000    1.1167454   -2.9069199   -2.9069199   -1.2318056   0.20461984   -2.9069199    1.6751144   439061 
   62000    1.1153519   -2.9114352   -2.9114352   -1.2384111   0.19920147   -2.9114352    1.6730241   439061 
   63000    1.1147315   -2.9153599   -2.9153599   -1.2432665   0.19985092   -2.9153599    1.6720934   439061 
   64000    1.1110856   -2.9148949   -2.9148949   -1.2482703    0.1989018   -2.9148949    1.6666246   439061 
   65000    1.1111768   -2.9178255   -2.9178255   -1.2510642   0.19124016   -2.9178255    1.6667614   439061 
   66000    1.1091164    -2.918398    -2.918398   -1.2547272     0.188239    -2.918398    1.6636708   439061 
   67000    1.1042547   -2.9139778   -2.9139778   -1.2575996   0.19020099   -2.9139778    1.6563783   439061 
   68000    1.1013737   -2.9117464   -2.9117464   -1.2596896   0.18753587   -2.9117464    1.6520568   439061 
   69000    1.0981653    -2.909998    -2.909998   -1.2627538    0.1760801    -2.909998    1.6472441   439061 
   70000    1.0939243   -2.9054654   -2.9054654   -1.2645827   0.16642695   -2.9054654    1.6408827   439061 
   71000    1.0902219   -2.9011939   -2.9011939   -1.2658648   0.16743094   -2.9011939    1.6353291   439061 
   72000    1.0861958   -2.8972443   -2.8972443   -1.2679544   0.16332585   -2.8972443    1.6292899   439061 
   73000    1.0847272   -2.8959703   -2.8959703   -1.2688832   0.15419457   -2.8959703    1.6270871   439061 
   74000    1.0800943   -2.8914288   -2.8914288    -1.271291   0.14452209   -2.8914288    1.6201378   439061 
   75000    1.0790181   -2.8896072   -2.8896072   -1.2710837   0.14571241   -2.8896072    1.6185234   439061 
   76000    1.0777299   -2.8891682   -2.8891682    -1.272577   0.13569175   -2.8891682    1.6165912   439061 
   77000    1.0758275    -2.887879    -2.887879   -1.2741414   0.14166562    -2.887879    1.6137376   439061 
   78000    1.0738138    -2.886186    -2.886186    -1.275469   0.14102138    -2.886186     1.610717   439061 
   79000    1.0762199   -2.8896956   -2.8896956   -1.2753695    0.1319849   -2.8896956    1.6143261   439061 
   80000    1.0730109   -2.8865073   -2.8865073   -1.2769947   0.13781498   -2.8865073    1.6095126   439061 
   81000    1.0743405   -2.8886133   -2.8886133   -1.2771062   0.13524942   -2.8886133    1.6115071   439061 
   82000    1.0722011   -2.8856224   -2.8856224   -1.2773244   0.13758317   -2.8856224     1.608298   439061 
   83000    1.0716649   -2.8862109   -2.8862109   -1.2787172   0.13342682   -2.8862109    1.6074937   439061 
   84000    1.0715857   -2.8867624   -2.8867624   -1.2793875   0.13230998   -2.8867624    1.6073749   439061 
   85000     1.071665   -2.8870384   -2.8870384   -1.2795446   0.13167749   -2.8870384    1.6074939   439061 
   86000    1.0701995   -2.8862812   -2.8862812   -1.2809855   0.13079819   -2.8862812    1.6052957   439061 
   87000    1.0709409   -2.8881097   -2.8881097    -1.281702    0.1278336   -2.8881097    1.6064077   439061 
   88000    1.0708737   -2.8889748   -2.8889748   -1.2826679   0.13088662   -2.8889748    1.6063069   439061 
   89000    1.0689922   -2.8868816   -2.8868816    -1.283397   0.13284554   -2.8868816    1.6034847   439061 
   90000    1.0704524   -2.8901914   -2.8901914   -1.2845164   0.12768389   -2.8901914     1.605675   439061 
   91000    1.0716157    -2.894486    -2.894486    -1.287066   0.13478856    -2.894486    1.6074199   439061 
   92000    1.0707418   -2.8972347   -2.8972347   -1.2911256    0.1399073   -2.8972347    1.6061091   439061 
   93000    1.0706726   -2.8994597   -2.8994597   -1.2934544   0.14128842   -2.8994597    1.6060053   439061 
   94000    1.0714697   -2.9051369   -2.9051369    -1.297936   0.14463506   -2.9051369    1.6072009   439061 
   95000    1.0717203   -2.9089649   -2.9089649   -1.3013881   0.14434541   -2.9089649    1.6075768   439061 
   96000    1.0693728   -2.9098212   -2.9098212   -1.3057657   0.14173466   -2.9098212    1.6040555   439061 
   97000    1.0690525   -2.9140593   -2.9140593   -1.3104842   0.14136649   -2.9140593    1.6035751   439061 
   98000    1.0690439   -2.9181692   -2.9181692    -1.314607   0.14318443   -2.9181692    1.6035621   439061 
   99000    1.0699881   -2.9222179   -2.9222179   -1.3172393   0.14661951   -2.9222179    1.6049786   439061 
  100000    1.0689172   -2.9256515   -2.9256515   -1.3222794   0.14053864   -2.9256515    1.6033721   439061 
  101000    1.0682196   -2.9281601   -2.9281601   -1.3258343   0.14440074   -2.9281601    1.6023258   439061 
  102000    1.0678665   -2.9307942   -2.9307942   -1.3289981   0.15168773   -2.9307942    1.6017961   439061 
  103000    1.0684309   -2.9345029   -2.9345029   -1.3318602   0.14586158   -2.9345029    1.6026427   439061 
  104000     1.067828   -2.9372119   -2.9372119   -1.3354736   0.14327068   -2.9372119    1.6017383   439061 
  105000    1.0647955   -2.9357641   -2.9357641   -1.3385744   0.14450234   -2.9357641    1.5971897   439061 
  106000     1.065107   -2.9377988   -2.9377988   -1.3401419   0.14475545   -2.9377988    1.5976569   439061 
  107000     1.064274   -2.9381694   -2.9381694    -1.341762    0.1459948   -2.9381694    1.5964074   439061 
  108000    1.0635865   -2.9389646   -2.9389646   -1.3435884    0.1372066   -2.9389646    1.5953762   439061 
  109000    1.0612795   -2.9379622   -2.9379622   -1.3460467   0.13499491   -2.9379622    1.5919156   439061 
  110000      1.05929   -2.9369388   -2.9369388   -1.3480074   0.13955926   -2.9369388    1.5889315   439061 
  111000    1.0595653   -2.9388232   -2.9388232   -1.3494789   0.13513075   -2.9388232    1.5893443   439061 
  112000    1.0569898   -2.9373485   -2.9373485   -1.3518674   0.13337417   -2.9373485    1.5854812   439061 
  113000    1.0553808    -2.936389    -2.936389   -1.3533214   0.12418374    -2.936389    1.5830676   439061 
  114000    1.0530099   -2.9350649   -2.9350649   -1.3555537   0.12652761   -2.9350649    1.5795112   439061 
  115000    1.0514121    -2.933056    -2.933056   -1.3559415   0.12306385    -2.933056    1.5771145   439061 
  116000    1.0511061   -2.9322365   -2.9322365   -1.3555809   0.12063166   -2.9322365    1.5766556   439061 
  117000     1.049745   -2.9309119   -2.9309119   -1.3562979   0.11870954   -2.9309119     1.574614   439061 
  118000    1.0499715   -2.9318154   -2.9318154   -1.3568617   0.11757415   -2.9318154    1.5749537   439061 
  119000    1.0478168   -2.9304535   -2.9304535   -1.3587318   0.11580911   -2.9304535    1.5717216   439061 
  120000    1.0466344   -2.9293649   -2.9293649   -1.3594168   0.11505582   -2.9293649    1.5699481   439061 
  121000    1.0455675   -2.9279268   -2.9279268    -1.359579   0.11645371   -2.9279268    1.5683477   439061 
  122000    1.0464415   -2.9309214   -2.9309214   -1.3612627   0.11503059   -2.9309214    1.5696587   439061 
  123000    1.0450751   -2.9287369   -2.9287369   -1.3611278   0.11463676   -2.9287369    1.5676091   439061 
  124000    1.0460991   -2.9317893   -2.9317893   -1.3626442   0.11363257   -2.9317893    1.5691451   439061 
  125000    1.0438316   -2.9312564   -2.9312564   -1.3655126    0.1124916   -2.9312564    1.5657439   439061 
  126000    1.0442532   -2.9335398   -2.9335398   -1.3671637   0.11469272   -2.9335398    1.5663762   439061 
  127000    1.0438879   -2.9342259   -2.9342259   -1.3683977   0.11050153   -2.9342259    1.5658283   439061 
  128000    1.0428387    -2.936082    -2.936082   -1.3718275    0.1159034    -2.936082    1.5642545   439061 
  129000    1.0444014   -2.9375351   -2.9375351   -1.3709366   0.11562435   -2.9375351    1.5665985   439061 
  130000    1.0428067   -2.9377818   -2.9377818   -1.3735754   0.11279713   -2.9377818    1.5642065   439061 
  131000    1.0426757   -2.9387732   -2.9387732   -1.3747632   0.11156943   -2.9387732      1.56401   439061 
  132000    1.0431184   -2.9428947   -2.9428947   -1.3782207   0.11571158   -2.9428947     1.564674   439061 
  133000    1.0447381   -2.9456487   -2.9456487    -1.378545   0.11444001   -2.9456487    1.5671036   439061 
  134000    1.0437629   -2.9467635   -2.9467635   -1.3811227   0.11645601   -2.9467635    1.5656408   439061 
  135000    1.0432354   -2.9478533   -2.9478533   -1.3830037   0.11781544   -2.9478533    1.5648496   439061 
  136000    1.0443497   -2.9502394   -2.9502394   -1.3837184   0.11901588   -2.9502394     1.566521   439061 
  137000     1.043453   -2.9523536   -2.9523536   -1.3871777   0.11520407   -2.9523536    1.5651759   439061 
  138000     1.044093   -2.9539129   -2.9539129   -1.3877769    0.1198716   -2.9539129     1.566136   439061 
  139000    1.0448727   -2.9583615   -2.9583615    -1.391056    0.1183571   -2.9583615    1.5673055   439061 
  140000    1.0442695   -2.9594243   -2.9594243   -1.3930235   0.11993257   -2.9594243    1.5664007   439061 
  141000    1.0429518   -2.9607593   -2.9607593   -1.3963352   0.12650146   -2.9607593    1.5644242   439061 
  142000    1.0427352   -2.9631348   -2.9631348   -1.3990356    0.1175673   -2.9631348    1.5640993   439061 
  143000    1.0439157   -2.9668065   -2.9668065   -1.4009365   0.11785156   -2.9668065      1.56587   439061 
  144000    1.0425786   -2.9656718   -2.9656718   -1.4018074   0.12368165   -2.9656718    1.5638644   439061 
  145000    1.0420231   -2.9674831   -2.9674831    -1.404452   0.11877108   -2.9674831    1.5630311   439061 
  146000    1.0418032   -2.9698729   -2.9698729   -1.4071717   0.12038792   -2.9698729    1.5627012   439061 
  147000    1.0398742   -2.9709201   -2.9709201   -1.4111124    0.1156379   -2.9709201    1.5598078   439061 
  148000    1.0406333   -2.9725557   -2.9725557   -1.4116093   0.11973113   -2.9725557    1.5609464   439061 
  149000    1.0415174   -2.9753815   -2.9753815    -1.413109   0.12011401   -2.9753815    1.5622725   439061 
  150000    1.0404514   -2.9765794   -2.9765794   -1.4159058   0.11618933   -2.9765794    1.5606736   439061 
  151000    1.0394382   -2.9767153   -2.9767153   -1.4175615    0.1175475   -2.9767153    1.5591538   439061 
  152000    1.0385271   -2.9767737   -2.9767737   -1.4189866   0.11730687   -2.9767737    1.5577871   439061 
  153000    1.0378397   -2.9764616   -2.9764616   -1.4197057   0.11754467   -2.9764616    1.5567559   439061 
  154000    1.0369388   -2.9766937   -2.9766937   -1.4212892   0.11624813   -2.9766937    1.5554046   439061 
  155000    1.0373325   -2.9780666   -2.9780666   -1.4220714   0.11105999   -2.9780666    1.5559952   439061 
  156000    1.0354898   -2.9753169   -2.9753169   -1.4220857   0.11927011   -2.9753169    1.5532312   439061 
  157000    1.0331882   -2.9740341   -2.9740341   -1.4242553   0.11257457   -2.9740341    1.5497788   439061 
  158000    1.0327932   -2.9749966   -2.9749966   -1.4258103   0.10854091   -2.9749966    1.5491863   439061 
  159000    1.0348177   -2.9766054   -2.9766054   -1.4243824   0.11338773   -2.9766054     1.552223   439061 
  160000     1.033323   -2.9745714   -2.9745714   -1.4245904   0.11247652   -2.9745714     1.549981   439061 
  161000     1.033284    -2.975477    -2.975477   -1.4255546   0.10784629    -2.975477    1.5499224   439061 
  162000    1.0304378   -2.9732211   -2.9732211   -1.4275679   0.10519207   -2.9732211    1.5456532   439061 
  163000    1.0294827   -2.9718234   -2.9718234   -1.4276028   0.10497945   -2.9718234    1.5442206   439061 
  164000    1.0303265   -2.9739555   -2.9739555   -1.4284693    0.1023331   -2.9739555    1.5454862   439061 
  165000    1.0316395   -2.9763905   -2.9763905   -1.4289348   0.10325249   -2.9763905    1.5474557   439061 
  166000    1.0289194   -2.9728497   -2.9728497   -1.4294741   0.10401292   -2.9728497    1.5433755   439061 
  167000    1.0295485   -2.9744294   -2.9744294   -1.4301102   0.10237534   -2.9744294    1.5443193   439061 
  168000    1.0302415    -2.977842    -2.977842   -1.4324832     0.100923    -2.977842    1.5453588   439061 
  169000    1.0292351   -2.9776511   -2.9776511    -1.433802   0.10628849   -2.9776511    1.5438491   439061 
  170000    1.0298127   -2.9794668   -2.9794668   -1.4347513   0.10387727   -2.9794668    1.5447155   439061 
  171000    1.0292772   -2.9813376   -2.9813376   -1.4374254   0.10553719   -2.9813376    1.5439122   439061 
  172000    1.0297449   -2.9832944   -2.9832944   -1.4386805   0.10553048   -2.9832944    1.5446139   439061 
  173000    1.0278889   -2.9832647   -2.9832647   -1.4414349   0.10213656   -2.9832647    1.5418298   439061 
  174000    1.0286923   -2.9854252   -2.9854252   -1.4423903   0.10652693   -2.9854252    1.5430349   439061 
  175000    1.0302978   -2.9887633   -2.9887633   -1.4433202   0.10709248   -2.9887633    1.5454432   439061 
  176000    1.0283016   -2.9875696   -2.9875696   -1.4451207   0.10653182   -2.9875696    1.5424488   439061 
  177000    1.0290421   -2.9898325   -2.9898325   -1.4462728   0.10519319   -2.9898325    1.5435597   439061 
  178000    1.0299396   -2.9917906   -2.9917906   -1.4468846   0.10597219   -2.9917906    1.5449059   439061 
  179000    1.0298338   -2.9929172   -2.9929172     -1.44817   0.11005833   -2.9929172    1.5447472   439061 
  180000    1.0297048   -2.9941431   -2.9941431   -1.4495894    0.1055929   -2.9941431    1.5445537   439061 
  181000    1.0290178   -2.9953484   -2.9953484   -1.4518253   0.10598313   -2.9953484    1.5435232   439061 
  182000    1.0293162    -2.998359    -2.998359   -1.4543883    0.1029018    -2.998359    1.5439708   439061 
  183000    1.0276647   -2.9974097   -2.9974097    -1.455916   0.10814646   -2.9974097    1.5414936   439061 
  184000    1.0273631   -2.9982011   -2.9982011   -1.4571599   0.10925294   -2.9982011    1.5410412   439061 
  185000    1.0281344   -3.0009245   -3.0009245   -1.4587264   0.10420633   -3.0009245    1.5421981   439061 
  186000    1.0281316   -3.0008913   -3.0008913   -1.4586974   0.10883717   -3.0008913     1.542194   439061 
  187000    1.0267098   -3.0013375   -3.0013375   -1.4612764   0.10551881   -3.0013375    1.5400611   439061 
  188000    1.0253597   -3.0005695   -3.0005695   -1.4625335     0.106189   -3.0005695     1.538036   439061 
  189000    1.0242907   -3.0019059   -3.0019059   -1.4654733   0.10333766   -3.0019059    1.5364325   439061 
  190000    1.0253122   -3.0051473   -3.0051473   -1.4671825   0.10669122   -3.0051473    1.5379648   439061 
  191000    1.0243841   -3.0057442   -3.0057442   -1.4691717   0.10310705   -3.0057442    1.5365726   439061 
  192000    1.0249465   -3.0085943   -3.0085943    -1.471178   0.10491134   -3.0085943    1.5374163   439061 
  193000    1.0240857   -3.0091187   -3.0091187   -1.4729936   0.10538984   -3.0091187    1.5361251   439061 
  194000     1.024028   -3.0091039   -3.0091039   -1.4730654   0.11119634   -3.0091039    1.5360384   439061 
  195000    1.0223023   -3.0085885   -3.0085885   -1.4751386   0.11317898   -3.0085885    1.5334499   439061 
  196000    1.0233428   -3.0117776   -3.0117776   -1.4767669   0.10944567   -3.0117776    1.5350108   439061 
  197000     1.024699   -3.0145211   -3.0145211   -1.4774761   0.10154569   -3.0145211     1.537045   439061 
  198000    1.0227165   -3.0132987   -3.0132987   -1.4792275   0.10187711   -3.0132987    1.5340712   439061 
  199000    1.0242354   -3.0145344   -3.0145344   -1.4781847   0.10627613   -3.0145344    1.5363496   439061 
  200000    1.0231287   -3.0153502   -3.0153502   -1.4806606   0.10559597   -3.0153502    1.5346896   439061 
  201000    1.0222409   -3.0165744   -3.0165744   -1.4832166   0.10163811   -3.0165744    1.5333578   439061 
  202000     1.021702   -3.0159042   -3.0159042   -1.4833547   0.10172342   -3.0159042    1.5325495   439061 
  203000    1.0210799   -3.0175598   -3.0175598   -1.4859435   0.10028251   -3.0175598    1.5316164   439061 
  204000    1.0198212    -3.017269    -3.017269   -1.4875407  0.099935342    -3.017269    1.5297283   439061 
  205000    1.0207952   -3.0177502   -3.0177502   -1.4865609  0.099583883   -3.0177502    1.5311893   439061 
  206000    1.0195129   -3.0177667   -3.0177667   -1.4885008   0.10193754   -3.0177667    1.5292659   439061 
  207000    1.0203812   -3.0202253   -3.0202253   -1.4896569  0.099343141   -3.0202253    1.5305683   439061 
  208000    1.0189118   -3.0191884   -3.0191884   -1.4908241   0.10136538   -3.0191884    1.5283642   439061 
  209000    1.0174644   -3.0180811   -3.0180811   -1.4918879   0.10395897   -3.0180811    1.5261932   439061 
  210000    1.0213206   -3.0239338   -3.0239338   -1.4919564   0.10127677   -3.0239338    1.5319775   439061 
  211000    1.0210212   -3.0235871   -3.0235871   -1.4920587   0.10360589   -3.0235871    1.5315283   439061 
  212000    1.0207774   -3.0253048   -3.0253048   -1.4941421  0.096612529   -3.0253048    1.5311627   439061 
  213000     1.020078   -3.0240764   -3.0240764   -1.4939629   0.10406487   -3.0240764    1.5301135   439061 
  214000    1.0190802   -3.0235484   -3.0235484   -1.4949316   0.10086699   -3.0235484    1.5286168   439061 
  215000    1.0182677   -3.0240818   -3.0240818   -1.4966837   0.09680864   -3.0240818    1.5273981   439061 
  216000    1.0158578    -3.021335    -3.021335   -1.4975518  0.098121848    -3.021335    1.5237832   439061 
  217000    1.0171533   -3.0230483   -3.0230483   -1.4973218  0.096592805   -3.0230483    1.5257265   439061 
  218000    1.0174071   -3.0259955   -3.0259955   -1.4998884  0.094594567   -3.0259955    1.5261071   439061 
  219000    1.0162705   -3.0266705   -3.0266705   -1.5022682  0.099657779   -3.0266705    1.5244023   439061 
  220000    1.0169495   -3.0278059   -3.0278059   -1.5023852  0.097943062   -3.0278059    1.5254207   439061 
  221000    1.0171231   -3.0291391   -3.0291391    -1.503458  0.096777257   -3.0291391    1.5256811   439061 
  222000    1.0160503   -3.0293424   -3.0293424   -1.5052704  0.096718634   -3.0293424     1.524072   439061 
  223000    1.0163634    -3.030615    -3.030615   -1.5060734   0.10110754    -3.030615    1.5245416   439061 
  224000    1.0163844   -3.0311706   -3.0311706   -1.5065974  0.096676372   -3.0311706    1.5245731   439061 
  225000    1.0155966   -3.0320902   -3.0320902   -1.5086988  0.095015391   -3.0320902    1.5233915   439061 
  226000    1.0133593   -3.0305635   -3.0305635   -1.5105281   0.09799613   -3.0305635    1.5200354   439061 
  227000    1.0152605   -3.0330213   -3.0330213   -1.5101339  0.095610139   -3.0330213    1.5228873   439061 
  228000    1.0154059   -3.0341841   -3.0341841   -1.5110787  0.091475922   -3.0341841    1.5231054   439061 
  229000    1.0161621    -3.037596    -3.037596   -1.5133563  0.095865456    -3.037596    1.5242397   439061 
  230000    1.0159503   -3.0369999   -3.0369999   -1.5130779  0.097951068   -3.0369999     1.523922   439061 
  231000    1.0161799   -3.0376862   -3.0376862   -1.5134197   0.10208567   -3.0376862    1.5242664   439061 
  232000    1.0166338    -3.039514    -3.039514   -1.5145668   0.10026981    -3.039514    1.5249472   439061 
  233000    1.0152344   -3.0397362   -3.0397362    -1.516888   0.09914502   -3.0397362    1.5228481   439061 
  234000    1.0150172   -3.0429597   -3.0429597   -1.5204374  0.098866054   -3.0429597    1.5225223   439061 
  235000    1.0149605   -3.0445068   -3.0445068   -1.5220695  0.094030699   -3.0445068    1.5224373   439061 
  236000    1.0148035   -3.0454608   -3.0454608   -1.5232591  0.098055775   -3.0454608    1.5222018   439061 
  237000    1.0144125   -3.0452874   -3.0452874   -1.5236722   0.10259519   -3.0452874    1.5216152   439061 
  238000     1.014927   -3.0461591   -3.0461591   -1.5237721   0.10080312   -3.0461591     1.522387   439061 
  239000    1.0131086   -3.0461094   -3.0461094   -1.5264499  0.098411079   -3.0461094    1.5196595   439061 
  240000    1.0142507   -3.0469297   -3.0469297   -1.5255571  0.099023946   -3.0469297    1.5213726   439061 
  241000     1.015324   -3.0501839   -3.0501839   -1.5272013  0.099338553   -3.0501839    1.5229826   439061 
  242000    1.0142754   -3.0505666   -3.0505666    -1.529157  0.094937593   -3.0505666    1.5214097   439061 
  243000    1.0134937   -3.0502524   -3.0502524   -1.5300152  0.099923845   -3.0502524    1.5202371   439061 
  244000    1.0118807   -3.0497004   -3.0497004   -1.5318828   0.09437424   -3.0497004    1.5178176   439061 
  245000    1.0128257    -3.049777    -3.049777   -1.5305419  0.097293536    -3.049777    1.5192351   439061 
  246000    1.0117616   -3.0503842   -3.0503842   -1.5327451  0.095773212   -3.0503842     1.517639   439061 
  247000    1.0110385     -3.05116     -3.05116   -1.5346057  0.097980815     -3.05116    1.5165543   439061 
  248000    1.0113927   -3.0526035   -3.0526035    -1.535518    0.0949617   -3.0526035    1.5170856   439061 
  249000    1.0119017   -3.0550799   -3.0550799   -1.5372308   0.08926989   -3.0550799    1.5178491   439061 
  250000    1.0118134   -3.0543046   -3.0543046   -1.5365879  0.099296292   -3.0543046    1.5177166   439061 
  251000    1.0106997   -3.0529384   -3.0529384   -1.5368924  0.095242761   -3.0529384    1.5160461   439061 
  252000    1.0116561    -3.055399    -3.055399   -1.5379184  0.097473007    -3.055399    1.5174806   439061 
  253000    1.0113332   -3.0567422   -3.0567422   -1.5397458  0.093200769   -3.0567422    1.5169964   439061 
  254000    1.0093742   -3.0563042   -3.0563042   -1.5422464  0.091289024   -3.0563042    1.5140578   439061 
  255000    1.0098492   -3.0567028   -3.0567028   -1.5419325  0.095920731   -3.0567028    1.5147703   439061 
  256000    1.0101538   -3.0569364   -3.0569364   -1.5417092  0.096106267   -3.0569364    1.5152272   439061 
  257000    1.0110001   -3.0603396   -3.0603396   -1.5438429  0.093851815   -3.0603396    1.5164967   439061 
  258000    1.0091772   -3.0582665   -3.0582665   -1.5445041  0.096588167   -3.0582665    1.5137623   439061 
  259000    1.0096438    -3.060066    -3.060066   -1.5456037  0.088518175    -3.060066    1.5144623   439061 
  260000    1.0094008   -3.0605005   -3.0605005   -1.5464028  0.092250696   -3.0605005    1.5140978   439061 
  261000    1.0106424   -3.0630565   -3.0630565   -1.5470964  0.094656577   -3.0630565    1.5159601   439061 
  262000    1.0091776   -3.0621526   -3.0621526   -1.5483896   0.09230005   -3.0621526     1.513763   439061 
  263000    1.0083367   -3.0618729   -3.0618729   -1.5493713   0.09583701   -3.0618729    1.5125016   439061 
  264000    1.0088758     -3.06356     -3.06356   -1.5502498  0.096060487     -3.06356    1.5133103   439061 
  265000    1.0093205   -3.0648862   -3.0648862   -1.5509089  0.096661191   -3.0648862    1.5139773   439061 
  266000    1.0107872   -3.0679982   -3.0679982   -1.5518208  0.095136943   -3.0679982    1.5161773   439061 
  267000    1.0095826   -3.0679197   -3.0679197   -1.5535493  0.096429648   -3.0679197    1.5143704   439061 
  268000    1.0096675   -3.0683219   -3.0683219   -1.5538241  0.088542369   -3.0683219    1.5144979   439061 
  269000    1.0075993   -3.0667342   -3.0667342   -1.5553388  0.096334442   -3.0667342    1.5113955   439061 
  270000    1.0094888   -3.0703521   -3.0703521   -1.5561224  0.096569547   -3.0703521    1.5142297   439061 
  271000    1.0095676   -3.0716693   -3.0716693   -1.5573213  0.093088639   -3.0716693     1.514348   439061 
  272000    1.0084249    -3.071178    -3.071178    -1.558544  0.092168353    -3.071178    1.5126339   439061 
  273000    1.0075458   -3.0710971   -3.0710971   -1.5597818  0.084224508   -3.0710971    1.5113153   439061 
  274000    1.0096932   -3.0750135   -3.0750135   -1.5604771  0.090732685   -3.0750135    1.5145364   439061 
  275000    1.0076894   -3.0739364   -3.0739364   -1.5624058  0.096409765   -3.0739364    1.5115306   439061 
  276000    1.0079222   -3.0740647   -3.0740647   -1.5621849  0.092107459   -3.0740647    1.5118799   439061 
  277000    1.0066289   -3.0732395   -3.0732395   -1.5632995  0.093290838   -3.0732395      1.50994   439061 
  278000    1.0073206   -3.0739406   -3.0739406   -1.5629631  0.098288992   -3.0739406    1.5109775   439061 
  279000    1.0076869   -3.0754044   -3.0754044   -1.5638775  0.095467826   -3.0754044    1.5115269   439061 
  280000    1.0084937   -3.0789423   -3.0789423   -1.5662053  0.090552289   -3.0789423    1.5127371   439061 
  281000    1.0071515   -3.0780773   -3.0780773   -1.5673534  0.094423007   -3.0780773    1.5107239   439061 
  282000    1.0072677   -3.0788394   -3.0788394   -1.5679413   0.09763023   -3.0788394    1.5108981   439061 
  283000    1.0082053   -3.0815568   -3.0815568   -1.5692522  0.090691798   -3.0815568    1.5123045   439061 
  284000    1.0070517   -3.0801348   -3.0801348   -1.5695606  0.090204285   -3.0801348    1.5105742   439061 
  285000    1.0085598   -3.0829492   -3.0829492   -1.5701129  0.090452059   -3.0829492    1.5128363   439061 
  286000    1.0079466   -3.0825719   -3.0825719   -1.5706555  0.095548833   -3.0825719    1.5119164   439061 
  287000    1.0060535   -3.0820389   -3.0820389   -1.5729621   0.08849208   -3.0820389    1.5090768   439061 
  288000    1.0077447   -3.0849067   -3.0849067   -1.5732931  0.091975668   -3.0849067    1.5116136   439061 
  289000    1.0066524   -3.0844478   -3.0844478   -1.5744726  0.088415596   -3.0844478    1.5099752   439061 
  290000     1.006178   -3.0849036   -3.0849036     -1.57564  0.085204582   -3.0849036    1.5092636   439061 
  291000    1.0041817   -3.0837823   -3.0837823   -1.5775131  0.088106973   -3.0837823    1.5062692   439061 
  292000     1.004162   -3.0832556   -3.0832556    -1.577016  0.096239501   -3.0832556    1.5062396   439061 
  293000    1.0044471   -3.0848992   -3.0848992    -1.578232  0.087680789   -3.0848992    1.5066672   439061 
  294000    1.0044368   -3.0855212   -3.0855212   -1.5788693  0.092766855   -3.0855212    1.5066518   439061 
  295000    1.0054421   -3.0867914   -3.0867914   -1.5786317  0.093196027   -3.0867914    1.5081597   439061 
  296000    1.0051431   -3.0883314   -3.0883314   -1.5806202  0.096188631   -3.0883314    1.5077112   439061 
  297000    1.0042266   -3.0879739   -3.0879739   -1.5816375  0.091427239   -3.0879739    1.5063365   439061 
  298000    1.0040362   -3.0878522   -3.0878522   -1.5818013  0.092279816   -3.0878522    1.5060509   439061 
  299000    1.0040418   -3.0895023   -3.0895023   -1.5834431  0.086518114   -3.0895023    1.5060593   439061 
  300000    1.0048142   -3.0894636   -3.0894636   -1.5822458  0.090544827   -3.0894636    1.5072178   439061 
  301000    1.0049372   -3.0911365   -3.0911365   -1.5837341  0.087219583   -3.0911365    1.5074024   439061 
  302000    1.0066592   -3.0932997   -3.0932997   -1.5833143  0.089621591   -3.0932997    1.5099854   439061 
  303000    1.0044571   -3.0922084   -3.0922084   -1.5855261  0.087462671   -3.0922084    1.5066823   439061 
  304000    1.0041491    -3.093644    -3.093644   -1.5874238  0.090588792    -3.093644    1.5062202   439061 
  305000    1.0027636   -3.0928071   -3.0928071   -1.5886652  0.092116958   -3.0928071    1.5041419   439061 
  306000    1.0045834   -3.0951882   -3.0951882   -1.5883165  0.090185774   -3.0951882    1.5068716   439061 
  307000     1.003311   -3.0948004   -3.0948004   -1.5898372  0.092326987   -3.0948004    1.5049631   439061 
  308000    1.0038815   -3.0945624   -3.0945624   -1.5887436  0.099446199   -3.0945624    1.5058188   439061 
  309000    1.0059326   -3.0994407   -3.0994407   -1.5905453  0.091012032   -3.0994407    1.5088954   439061 
  310000    1.0039736   -3.0979355   -3.0979355   -1.5919785  0.087881155   -3.0979355     1.505957   439061 
  311000    1.0020157   -3.0967089   -3.0967089   -1.5936888  0.087827706   -3.0967089    1.5030202   439061 
  312000    1.0024084   -3.0985212   -3.0985212    -1.594912  0.083617976   -3.0985212    1.5036092   439061 
  313000    1.0040508   -3.1021937   -3.1021937   -1.5961209  0.090228571   -3.1021937    1.5060728   439061 
  314000    1.0029093   -3.1008154   -3.1008154    -1.596455  0.090180775   -3.1008154    1.5043605   439061 
  315000    1.0035392   -3.1033475   -3.1033475   -1.5980421  0.088834091   -3.1033475    1.5053054   439061 
  316000    1.0029731   -3.1028553   -3.1028553   -1.5983992  0.089541967   -3.1028553    1.5044561   439061 
  317000    1.0012524   -3.1023853   -3.1023853   -1.6005101   0.09149932   -3.1023853    1.5018752   439061 
  318000    1.0018063   -3.1033707   -3.1033707   -1.6006647  0.086435927   -3.1033707    1.5027061   439061 
  319000    1.0015965   -3.1047809   -3.1047809   -1.6023896  0.089481809   -3.1047809    1.5023913   439061 
  320000    1.0015787   -3.1068002   -3.1068002   -1.6044356  0.087784987   -3.1068002    1.5023646   439061 
  321000    1.0033691   -3.1094167   -3.1094167   -1.6043665  0.091524046   -3.1094167    1.5050502   439061 
  322000    1.0009335   -3.1069809   -3.1069809   -1.6055842  0.089466973   -3.1069809    1.5013968   439061 
  323000    1.0026168   -3.1106623   -3.1106623   -1.6067405  0.086976007   -3.1106623    1.5039217   439061 
  324000    1.0036348   -3.1113856   -3.1113856   -1.6059368  0.092636166   -3.1113856    1.5054488   439061 
  325000    1.0026739   -3.1112669   -3.1112669   -1.6072594  0.089005237   -3.1112669    1.5040075   439061 
  326000     1.003456   -3.1126692   -3.1126692   -1.6074887  0.094998025   -3.1126692    1.5051805   439061 
  327000    1.0034676   -3.1136202   -3.1136202   -1.6084222  0.094404852   -3.1136202     1.505198   439061 
  328000     1.003124   -3.1150263   -3.1150263   -1.6103437  0.092007301   -3.1150263    1.5046826   439061 
  329000    1.0019932   -3.1124723   -3.1124723    -1.609486   0.09059225   -3.1124723    1.5029863   439061 
  330000    1.0020145   -3.1138894   -3.1138894   -1.6108711  0.092799092   -3.1138894    1.5030183   439061 
  331000    1.0010179   -3.1151993   -3.1151993   -1.6136759  0.087438776   -3.1151993    1.5015234   439061 
  332000    0.9988897    -3.113048    -3.113048   -1.6147169  0.084026565    -3.113048    1.4983311   439061 
  333000    0.9987851   -3.1129868   -3.1129868   -1.6148125  0.087150307   -3.1129868    1.4981742   439061 
  334000   0.99873002   -3.1138158   -3.1138158   -1.6157242   0.08350463   -3.1138158    1.4980916   439061 
  335000   0.99984807   -3.1156439   -3.1156439   -1.6158752  0.087198997   -3.1156439    1.4997687   439061 
  336000   0.99839458   -3.1127336   -3.1127336   -1.6151451  0.088067889   -3.1127336    1.4975885   439061 
  337000   0.99813134   -3.1139156   -3.1139156    -1.616722  0.089465967   -3.1139156    1.4971936   439061 
  338000   0.99831808   -3.1159892   -3.1159892   -1.6185155  0.083901145   -3.1159892    1.4974737   439061 
  339000   0.99784184   -3.1134479   -3.1134479   -1.6166885  0.094769306   -3.1134479    1.4967594   439061 
  340000   0.99894899    -3.115961    -3.115961    -1.617541  0.087884267    -3.115961    1.4984201   439061 
  341000   0.99792789   -3.1170129   -3.1170129   -1.6201245  0.084518317   -3.1170129    1.4968884   439061 
  342000   0.99977703   -3.1203915   -3.1203915   -1.6207294  0.086510172   -3.1203915    1.4996621   439061 
  343000   0.99625323   -3.1168076   -3.1168076   -1.6224312  0.089559155   -3.1168076    1.4943764   439061 
  344000   0.99733666   -3.1186315   -3.1186315   -1.6226299  0.087873433   -3.1186315    1.4960016   439061 
  345000   0.99868838   -3.1217241   -3.1217241   -1.6236949  0.086531069   -3.1217241    1.4980292   439061 
  346000   0.99924988   -3.1246871   -3.1246871   -1.6258157  0.086895352   -3.1246871    1.4988714   439061 
  347000   0.99719278   -3.1217284   -3.1217284   -1.6259427  0.086801961   -3.1217284    1.4957858   439061 
  348000   0.99873443   -3.1256356   -3.1256356   -1.6275374  0.083521702   -3.1256356    1.4980982   439061 
  349000   0.99785405   -3.1235832   -3.1235832   -1.6268055  0.090880495   -3.1235832    1.4967777   439061 
  350000   0.99872123   -3.1268891   -3.1268891   -1.6288107  0.091105572   -3.1268891    1.4980784   439061 
  351000   0.99915348   -3.1282412   -3.1282412   -1.6295144  0.092424376   -3.1282412    1.4987268   439061 
  352000   0.99975035   -3.1306286   -3.1306286   -1.6310065  0.090652572   -3.1306286    1.4996221   439061 
  353000   0.99802066   -3.1281826   -3.1281826    -1.631155  0.090313553   -3.1281826    1.4970276   439061 
  354000    0.9985254    -3.130432    -3.130432   -1.6326474  0.091096566    -3.130432    1.4977847   439061 
  355000   0.99842187   -3.1309799   -3.1309799   -1.6333505  0.090147503   -3.1309799    1.4976294   439061 
  356000   0.99774886   -3.1315311   -3.1315311   -1.6349112  0.088852031   -3.1315311    1.4966199   439061 
  357000   0.99693283   -3.1310843   -3.1310843   -1.6356885  0.085537081   -3.1310843    1.4953958   439061 
  358000   0.99567171   -3.1308335   -3.1308335   -1.6373293  0.086378731   -3.1308335    1.4935042   439061 
  359000   0.99612313   -3.1314081   -3.1314081   -1.6372268  0.091198402   -3.1314081    1.4941813   439061 
  360000   0.99714687   -3.1336871   -3.1336871   -1.6379702  0.085191102   -3.1336871    1.4957169   439061 
  361000   0.99726364   -3.1347821   -3.1347821   -1.6388901  0.085485931   -3.1347821     1.495892   439061 
  362000   0.99658696   -3.1337909   -3.1337909   -1.6389139  0.083661253   -3.1337909     1.494877   439061 
  363000   0.99736002   -3.1362908   -3.1362908   -1.6402542  0.086265968   -3.1362908    1.4960366   439061 
  364000   0.99521317   -3.1360905   -3.1360905   -1.6432742  0.087755552   -3.1360905    1.4928164   439061 
  365000   0.99362889   -3.1340351   -3.1340351   -1.6435952   0.08772132   -3.1340351    1.4904399   439061 
  366000   0.99612186   -3.1378801   -3.1378801   -1.6437008  0.088470352   -3.1378801    1.4941794   439061 
  367000    0.9961363   -3.1394951   -3.1394951   -1.6452941  0.090725028   -3.1394951     1.494201   439061 
  368000   0.99563856    -3.138751    -3.138751   -1.6452966  0.086992102    -3.138751    1.4934544   439061 
  369000   0.99668317   -3.1415714   -3.1415714     -1.64655  0.086167505   -3.1415714    1.4950213   439061 
  370000   0.99546076    -3.140883    -3.140883   -1.6476953  0.087633655    -3.140883    1.4931877   439061 
  371000   0.99641412   -3.1419374   -3.1419374   -1.6473196  0.086084147   -3.1419374    1.4946178   439061 
  372000   0.99769329   -3.1436073   -3.1436073   -1.6470708  0.090030307   -3.1436073    1.4965365   439061 
  373000   0.99775121   -3.1436878   -3.1436878   -1.6470644   0.09180238   -3.1436878    1.4966234   439061 
  374000   0.99654505   -3.1418779   -3.1418779   -1.6470637  0.087403803   -3.1418779    1.4948142   439061 
  375000     0.996211    -3.142703    -3.142703   -1.6483899  0.087244311    -3.142703    1.4943131   439061 
  376000   0.99433209   -3.1420896   -3.1420896   -1.6505949  0.090219159   -3.1420896    1.4914947   439061 
  377000   0.99455783   -3.1419032   -3.1419032   -1.6500698  0.086274876   -3.1419032    1.4918334   439061 
  378000   0.99563728   -3.1446661   -3.1446661   -1.6512136  0.083088444   -3.1446661    1.4934525   439061 
  379000   0.99280762   -3.1415018   -3.1415018   -1.6522938  0.084893623   -3.1415018     1.489208   439061 
  380000   0.99214423    -3.141423    -3.141423   -1.6532101  0.085452878    -3.141423     1.488213   439061 
  381000    0.9937313   -3.1448805   -3.1448805    -1.654287  0.087531083   -3.1448805    1.4905936   439061 
  382000   0.99358174   -3.1444748   -3.1444748   -1.6541056  0.088187005   -3.1444748    1.4903692   439061 
  383000   0.99572432     -3.14862     -3.14862    -1.655037   0.08124328     -3.14862    1.4935831   439061 
  384000   0.99455996   -3.1473988   -3.1473988   -1.6555622  0.083505649   -3.1473988    1.4918365   439061 
  385000   0.99693783   -3.1515847   -3.1515847   -1.6561814  0.083740522   -3.1515847    1.4954033   439061 
  386000   0.99571148   -3.1513946   -3.1513946   -1.6578307  0.087082378   -3.1513946    1.4935638   439061 
  387000    0.9944959    -3.152211    -3.152211   -1.6604706  0.087726314    -3.152211    1.4917404   439061 
  388000    0.9943697   -3.1517605   -3.1517605   -1.6602094  0.085065427   -3.1517605    1.4915511   439061 
  389000    0.9936104   -3.1519481   -3.1519481   -1.6615359  0.083768596   -3.1519481    1.4904122   439061 
  390000   0.99401453    -3.154427    -3.154427   -1.6634086  0.082571985    -3.154427    1.4910184   439061 
  391000   0.99648471   -3.1581303   -3.1581303   -1.6634067  0.089611025   -3.1581303    1.4947237   439061 
  392000   0.99598735   -3.1582288   -3.1582288   -1.6642512   0.08430524   -3.1582288    1.4939776   439061 
  393000   0.99501252   -3.1580647   -3.1580647   -1.6655494  0.087781171   -3.1580647    1.4925154   439061 
  394000    0.9951809   -3.1601247   -3.1601247   -1.6673567  0.088790053   -3.1601247    1.4927679   439061 
  395000   0.99492643   -3.1598641   -3.1598641   -1.6674779  0.090046384   -3.1598641    1.4923862   439061 
  396000   0.99403204   -3.1598867   -3.1598867    -1.668842   0.08580001   -3.1598867    1.4910447   439061 
  397000   0.99348815   -3.1611549   -3.1611549   -1.6709261  0.089826168   -3.1611549    1.4902288   439061 
  398000   0.99390089   -3.1616056   -3.1616056   -1.6707577  0.087119581   -3.1616056    1.4908479   439061 
  399000   0.99365817   -3.1628761   -3.1628761   -1.6723923  0.089033377   -3.1628761    1.4904839   439061 
  400000   0.99187837   -3.1602947   -3.1602947   -1.6724806  0.087047837   -3.1602947    1.4878142   439061 
  401000   0.99301784   -3.1623112   -3.1623112   -1.6727878  0.083928736   -3.1623112    1.4895234   439061 
  402000   0.99403415   -3.1632924   -3.1632924   -1.6722445   0.08483796   -3.1632924    1.4910478   439061 
  403000   0.99298061   -3.1611473   -3.1611473   -1.6716798  0.087305893   -3.1611473    1.4894675   439061 
  404000   0.99265434   -3.1623354   -3.1623354   -1.6733573  0.089167147   -3.1623354    1.4889781   439061 
  405000   0.99309001   -3.1643828   -3.1643828   -1.6747512  0.083816464   -3.1643828    1.4896316   439061 
  406000   0.99252877   -3.1640759   -3.1640759   -1.6752861  0.085941033   -3.1640759    1.4887898   439061 
  407000   0.99205949   -3.1638893   -3.1638893   -1.6758035  0.090376695   -3.1638893    1.4880858   439061 
  408000   0.99249254   -3.1647644   -3.1647644   -1.6760289  0.083426592   -3.1647644    1.4887354   439061 
  409000   0.99191107    -3.164111    -3.164111   -1.6762477  0.090556393    -3.164111    1.4878632   439061 
  410000   0.99174898    -3.164627    -3.164627    -1.677007   0.08421479    -3.164627    1.4876201   439061 
  411000    0.9920859   -3.1653971   -3.1653971   -1.6772716  0.086343196   -3.1653971    1.4881255   439061 
  412000   0.99213518   -3.1664755   -3.1664755   -1.6782761   0.08657799   -3.1664755    1.4881994   439061 
  413000   0.99270796   -3.1687058   -3.1687058   -1.6796473  0.085766199   -3.1687058    1.4890586   439061 
  414000   0.99210313   -3.1684542   -3.1684542   -1.6803029  0.084906926   -3.1684542    1.4881513   439061 
  415000   0.99168162   -3.1680156   -3.1680156   -1.6804966  0.080460343   -3.1680156     1.487519   439061 
  416000   0.99122526   -3.1677985   -3.1677985    -1.680964  0.085604659   -3.1677985    1.4868345   439061 
  417000   0.99277402   -3.1702656   -3.1702656    -1.681108  0.087417558   -3.1702656    1.4891576   439061 
  418000   0.99223525   -3.1702196   -3.1702196   -1.6818701  0.084313897   -3.1702196    1.4883495   439061 
  419000   0.99200768   -3.1709408   -3.1709408   -1.6829326  0.078828644   -3.1709408    1.4880081   439061 
  420000   0.99052235   -3.1700155   -3.1700155   -1.6842354  0.083029266   -3.1700155    1.4857801   439061 
  421000   0.99161826   -3.1720744   -3.1720744   -1.6846504  0.082493775   -3.1720744     1.487424   439061 
  422000   0.98999954   -3.1703987   -3.1703987   -1.6854027  0.087676164   -3.1703987    1.4849959   439061 
  423000   0.99236468   -3.1750933   -3.1750933   -1.6865497  0.086782183   -3.1750933    1.4885436   439061 
  424000   0.99252839   -3.1749214   -3.1749214   -1.6861322  0.084317269   -3.1749214    1.4887892   439061 
  425000   0.99099938   -3.1749214   -3.1749214   -1.6884257  0.093112541   -3.1749214    1.4864957   439061 
  426000   0.99018901   -3.1767149   -3.1767149   -1.6914348  0.081156094   -3.1767149    1.4852801   439061 
  427000   0.99101289   -3.1772036   -3.1772036   -1.6906876     0.079623   -3.1772036    1.4865159   439061 
  428000   0.99077635   -3.1782405   -3.1782405   -1.6920793  0.083803541   -3.1782405    1.4861611   439061 
  429000   0.99019607   -3.1785153   -3.1785153   -1.6932246  0.080912001   -3.1785153    1.4852907   439061 
  430000   0.99154827   -3.1799825   -3.1799825   -1.6926635  0.082689245   -3.1799825     1.487319   439061 
  431000   0.98995238    -3.178719    -3.178719   -1.6937939  0.087109523    -3.178719    1.4849252   439061 
  432000   0.98973285   -3.1793491   -3.1793491   -1.6947532  0.087139645   -3.1793491    1.4845959   439061 
  433000   0.99057777   -3.1814888   -3.1814888   -1.6956255  0.086980339   -3.1814888    1.4858633   439061 
  434000    0.9895016   -3.1810184   -3.1810184   -1.6967694  0.084069546   -3.1810184     1.484249   439061 
  435000   0.98830763   -3.1803801   -3.1803801    -1.697922  0.081336041   -3.1803801    1.4824581   439061 
  436000   0.98891698   -3.1816711   -3.1816711    -1.698299  0.086033673   -3.1816711    1.4833721   439061 
  437000   0.98719951   -3.1801548   -3.1801548   -1.6993589  0.082277557   -3.1801548    1.4807959   439061 
  438000   0.98811468   -3.1816418   -3.1816418   -1.6994731  0.086266067   -3.1816418    1.4821686   439061 
  439000    0.9888891   -3.1831908   -3.1831908   -1.6998605  0.085139698   -3.1831908    1.4833303   439061 
  440000   0.98958239   -3.1857168   -3.1857168   -1.7013466  0.084098025   -3.1857168    1.4843702   439061 
  441000   0.98856756   -3.1847421   -3.1847421   -1.7018942  0.089326445   -3.1847421     1.482848   439061 
  442000    0.9881535   -3.1841406   -3.1841406   -1.7019137  0.086671265   -3.1841406    1.4822269   439061 
  443000   0.98919279   -3.1882868   -3.1882868    -1.704501  0.084159087   -3.1882868    1.4837858   439061 
  444000   0.98961508   -3.1894453   -3.1894453   -1.7050261  0.086472719   -3.1894453    1.4844192   439061 
  445000   0.99064047   -3.1902748   -3.1902748   -1.7043175  0.087831377   -3.1902748    1.4859573   439061 
  446000   0.98945545   -3.1892953   -3.1892953   -1.7051155  0.086081501   -3.1892953    1.4841798   439061 
  447000   0.99005166   -3.1905331   -3.1905331    -1.705459  0.086994901   -3.1905331    1.4850741   439061 
  448000   0.98982938   -3.1908522   -3.1908522   -1.7061116  0.084562105   -3.1908522    1.4847407   439061 
  449000   0.98864575   -3.1914419   -3.1914419   -1.7084766  0.088699297   -3.1914419    1.4829652   439061 
  450000   0.98781472   -3.1900318   -3.1900318   -1.7083131  0.088877192   -3.1900318    1.4817187   439061 
  451000   0.98975328   -3.1930518   -3.1930518   -1.7084252    0.0884771   -3.1930518    1.4846265   439061 
  452000   0.98927854   -3.1928141   -3.1928141   -1.7088996  0.087796216   -3.1928141    1.4839144   439061 
  453000   0.98873714   -3.1936371   -3.1936371   -1.7105348  0.078492363   -3.1936371    1.4831023   439061 
  454000   0.98924121   -3.1946287   -3.1946287   -1.7107703  0.086836844   -3.1946287    1.4838584   439061 
  455000   0.98808877   -3.1933071   -3.1933071   -1.7111773   0.08451752   -3.1933071    1.4821298   439061 
  456000   0.98889211   -3.1951483   -3.1951483   -1.7118135  0.081564318   -3.1951483    1.4833348   439061 
  457000   0.98878148   -3.1954715   -3.1954715   -1.7123027  0.083549625   -3.1954715    1.4831688   439061 
  458000   0.98835897   -3.1954494   -3.1954494   -1.7129143  0.084745059   -3.1954494    1.4825351   439061 
  459000   0.98873359   -3.1954726   -3.1954726   -1.7123756  0.086039738   -3.1954726     1.483097   439061 
  460000   0.98726802   -3.1946701   -3.1946701   -1.7137715  0.087322046   -3.1946701    1.4808987   439061 
  461000   0.98762653   -3.1952836   -3.1952836   -1.7138472  0.090246701   -3.1952836    1.4814364   439061 
  462000   0.98824523   -3.1964103   -3.1964103   -1.7140458  0.087937524   -3.1964103    1.4823645   439061 
  463000   0.98695858   -3.1965177   -3.1965177   -1.7160832  0.077650079   -3.1965177    1.4804345   439061 
  464000   0.98749847   -3.1989403   -3.1989403    -1.717696  0.079922272   -3.1989403    1.4812443   439061 
  465000   0.98696609   -3.1982808   -3.1982808    -1.717835  0.078676989   -3.1982808    1.4804458   439061 
  466000   0.98660055   -3.1977802   -3.1977802   -1.7178828  0.079190298   -3.1977802    1.4798975   439061 
  467000   0.98725614   -3.2002627   -3.2002627   -1.7193819  0.082102865   -3.2002627    1.4808808   439061 
  468000   0.98703327   -3.1989554   -3.1989554   -1.7184089  0.084650795   -3.1989554    1.4805465   439061 
  469000    0.9877968   -3.2000777   -3.2000777   -1.7183859  0.083965969   -3.2000777    1.4816918   439061 
  470000    0.9879846   -3.2001486   -3.2001486   -1.7181751  0.083564356   -3.2001486    1.4819735   439061 
  471000   0.98850689    -3.203604    -3.203604   -1.7208471  0.082558961    -3.203604     1.482757   439061 
  472000   0.98698346    -3.201416    -3.201416   -1.7209441  0.081464915    -3.201416    1.4804718   439061 
  473000     0.987559   -3.2050762   -3.2050762   -1.7237411  0.086101986   -3.2050762    1.4813351   439061 
  474000   0.98742884   -3.2051194   -3.2051194   -1.7239795  0.085450517   -3.2051194    1.4811399   439061 
  475000   0.98574895   -3.2051491   -3.2051491   -1.7265291  0.078061822   -3.2051491    1.4786201   439061 
  476000   0.98801247    -3.207828    -3.207828   -1.7258126  0.088995508    -3.207828    1.4820153   439061 
  477000   0.98922781   -3.2103662   -3.2103662   -1.7265279  0.083816657   -3.2103662    1.4838383   439061 
  478000   0.98592416   -3.2066455   -3.2066455   -1.7277627  0.088568873   -3.2066455    1.4788829   439061 
  479000   0.98831894   -3.2105966   -3.2105966   -1.7281216  0.087600779   -3.2105966     1.482475   439061 
  480000   0.98809503   -3.2108619   -3.2108619   -1.7287227  0.081734211   -3.2108619    1.4821392   439061 
  481000   0.98652318   -3.2097135   -3.2097135   -1.7299321  0.089009854   -3.2097135    1.4797814   439061 
  482000   0.98707054   -3.2117788   -3.2117788   -1.7311764  0.080012456   -3.2117788    1.4806024   439061 
  483000    0.9852445   -3.2118051   -3.2118051   -1.7339417  0.078488868   -3.2118051    1.4778634   439061 
  484000   0.98654731   -3.2135178   -3.2135178   -1.7337002  0.081511163   -3.2135178    1.4798176   439061 
  485000   0.98607673   -3.2145827   -3.2145827    -1.735471  0.082679105   -3.2145827    1.4791117   439061 
  486000   0.98573203   -3.2144343   -3.2144343   -1.7358396  0.085855439   -3.2144343    1.4785947   439061 
  487000   0.98492822   -3.2138994   -3.2138994   -1.7365104  0.084268568   -3.2138994     1.477389   439061 
  488000   0.98676814   -3.2184633   -3.2184633   -1.7383145  0.084760117   -3.2184633    1.4801488   439061 
  489000   0.98558732   -3.2150332   -3.2150332   -1.7366556  0.083256825   -3.2150332    1.4783776   439061 
  490000    0.9855785   -3.2174157   -3.2174157   -1.7390513  0.080678466   -3.2174157    1.4783644   439061 
  491000   0.98503878   -3.2176853   -3.2176853   -1.7401305  0.082516315   -3.2176853    1.4775548   439061 
  492000   0.98651774   -3.2213363   -3.2213363   -1.7415631  0.082967085   -3.2213363    1.4797732   439061 
  493000   0.98568617   -3.2203133   -3.2203133   -1.7417874   0.08107125   -3.2203133    1.4785259   439061 
  494000   0.98516285   -3.2185543   -3.2185543   -1.7408134  0.085192509   -3.2185543    1.4777409   439061 
  495000    0.9869719   -3.2219198   -3.2219198   -1.7414653   0.08619185   -3.2219198    1.4804545   439061 
  496000    0.9857936     -3.22159     -3.22159   -1.7429029  0.092132035     -3.22159     1.478687   439061 
  497000   0.98560385   -3.2224594   -3.2224594    -1.744057  0.087432564   -3.2224594    1.4784024   439061 
  498000   0.98545622   -3.2228218   -3.2228218   -1.7446408  0.087200094   -3.2228218     1.478181   439061 
  499000   0.98500673      -3.2222      -3.2222   -1.7446933  0.085625343      -3.2222    1.4775067   439061 
  500000   0.98506694   -3.2239122   -3.2239122   -1.7463152  0.080938429   -3.2239122     1.477597   439061 
  501000   0.98466382   -3.2228634   -3.2228634   -1.7458711  0.084434046   -3.2228634    1.4769924   439061 
  502000    0.9841359   -3.2234251   -3.2234251   -1.7472246  0.077209784   -3.2234251    1.4762005   439061 
  503000   0.98382674   -3.2231367   -3.2231367      -1.7474  0.080848097   -3.2231367    1.4757368   439061 
  504000   0.98402414   -3.2237617   -3.2237617   -1.7477289   0.08166676   -3.2237617    1.4760329   439061 
  505000   0.98353742   -3.2236689   -3.2236689   -1.7483661  0.080884929   -3.2236689    1.4753028   439061 
  506000    0.9829768   -3.2241385   -3.2241385   -1.7496767  0.081627307   -3.2241385    1.4744618   439061 
  507000   0.98229146   -3.2244111   -3.2244111   -1.7509773   0.08302275   -3.2244111    1.4734338   439061 
  508000   0.98325386   -3.2261186   -3.2261186   -1.7512411  0.086416385   -3.2261186    1.4748774   439061 
  509000   0.98390169   -3.2264489   -3.2264489   -1.7505997   0.07997431   -3.2264489    1.4758492   439061 
  510000   0.98442699   -3.2285675   -3.2285675   -1.7519304  0.081813007   -3.2285675    1.4766371   439061 
  511000   0.98340531    -3.226195    -3.226195   -1.7510904  0.081241191    -3.226195    1.4751046   439061 
  512000   0.98355064   -3.2263244   -3.2263244   -1.7510018  0.089238482   -3.2263244    1.4753226   439061 
  513000   0.98491448   -3.2285306   -3.2285306   -1.7511622  0.085840536   -3.2285306    1.4773684   439061 
  514000   0.98504206   -3.2301206   -3.2301206   -1.7525609  0.085773374   -3.2301206    1.4775597   439061 
  515000   0.98467591   -3.2309514   -3.2309514   -1.7539409  0.080957152   -3.2309514    1.4770105   439061 
  516000   0.98468254   -3.2312571   -3.2312571   -1.7542367  0.085545186   -3.2312571    1.4770204   439061 
  517000   0.98500313   -3.2337241   -3.2337241   -1.7562228  0.075329305   -3.2337241    1.4775013   439061 
  518000   0.98500411   -3.2332668   -3.2332668    -1.755764  0.079084766   -3.2332668    1.4775028   439061 
  519000   0.98351969    -3.232958    -3.232958   -1.7576818  0.082781292    -3.232958    1.4752762   439061 
  520000   0.98501376   -3.2351792   -3.2351792   -1.7576619  0.078159108   -3.2351792    1.4775173   439061 
  521000   0.98235211   -3.2330314   -3.2330314   -1.7595066  0.079448289   -3.2330314    1.4735248   439061 
  522000   0.98438404    -3.236854    -3.236854   -1.7602813  0.079674229    -3.236854    1.4765727   439061 
  523000    0.9840661    -3.235387    -3.235387   -1.7592912  0.080323679    -3.235387    1.4760958   439061 
  524000   0.98367014   -3.2357317   -3.2357317   -1.7602298  0.079972206   -3.2357317    1.4755019   439061 
  525000   0.98332828   -3.2375601   -3.2375601    -1.762571  0.087207995   -3.2375601    1.4749891   439061 
  526000   0.98176818   -3.2355015   -3.2355015   -1.7628526  0.080616428   -3.2355015    1.4726489   439061 
  527000   0.98293742   -3.2375842   -3.2375842   -1.7631814  0.084305179   -3.2375842    1.4744028   439061 
  528000   0.98343748   -3.2390503   -3.2390503   -1.7638974  0.083210126   -3.2390503    1.4751529   439061 
  529000   0.98304231   -3.2395872   -3.2395872   -1.7650271  0.082548192   -3.2395872    1.4745601   439061 
  530000   0.98317313   -3.2407808   -3.2407808   -1.7660245  0.079183811   -3.2407808    1.4747563   439061 
  531000   0.98166632   -3.2390062   -3.2390062     -1.76651  0.084377936   -3.2390062    1.4724961   439061 
  532000   0.98285851   -3.2401982   -3.2401982   -1.7659138  0.079697667   -3.2401982    1.4742844   439061 
  533000   0.98354328   -3.2421714   -3.2421714   -1.7668598  0.083772814   -3.2421714    1.4753116   439061 
  534000   0.98157235   -3.2399578   -3.2399578   -1.7676026  0.082585002   -3.2399578    1.4723552   439061 
  535000   0.98241535   -3.2418959   -3.2418959   -1.7682762  0.080292866   -3.2418959    1.4736197   439061 
  536000   0.98417214   -3.2425396   -3.2425396   -1.7662847  0.077672392   -3.2425396    1.4762548   439061 
  537000   0.98162531   -3.2405463   -3.2405463   -1.7681117  0.082373536   -3.2405463    1.4724346   439061 
  538000   0.98163198    -3.240759    -3.240759   -1.7683144  0.083979747    -3.240759    1.4724446   439061 
  539000   0.98207396   -3.2414324   -3.2414324   -1.7683248  0.083404927   -3.2414324    1.4731076   439061 
  540000   0.98187106   -3.2418786   -3.2418786   -1.7690754  0.077965031   -3.2418786    1.4728032   439061 
  541000   0.98148699   -3.2426176   -3.2426176   -1.7703905  0.076485746   -3.2426176    1.4722271   439061 
  542000   0.98248863   -3.2448119   -3.2448119   -1.7710823  0.076624094   -3.2448119    1.4737296   439061 
  543000   0.98256153    -3.244432    -3.244432   -1.7705931  0.081814662    -3.244432    1.4738389   439061 
  544000   0.98194194   -3.2451179   -3.2451179   -1.7722083  0.082611924   -3.2451179    1.4729096   439061 
  545000   0.97989793   -3.2431761   -3.2431761   -1.7733326  0.085093468   -3.2431761    1.4698436   439061 
  546000   0.98134475   -3.2463847   -3.2463847    -1.774371  0.078831599   -3.2463847    1.4720138   439061 
  547000   0.98235274   -3.2488673   -3.2488673   -1.7753415  0.078027926   -3.2488673    1.4735258   439061 
  548000   0.98155303   -3.2488505   -3.2488505   -1.7765243  0.084026938   -3.2488505    1.4723262   439061 
  549000    0.9833251   -3.2513875   -3.2513875   -1.7764033  0.085952496   -3.2513875    1.4749843   439061 
  550000   0.98391389   -3.2515545   -3.2515545    -1.775687  0.081083051   -3.2515545    1.4758675   439061 
  551000   0.98339442   -3.2523354   -3.2523354   -1.7772472  0.080990425   -3.2523354    1.4750883   439061 
  552000   0.98245361   -3.2519117   -3.2519117   -1.7782347  0.082374593   -3.2519117    1.4736771   439061 
  553000   0.98149195    -3.250094    -3.250094   -1.7778594  0.083016485    -3.250094    1.4722346   439061 
  554000   0.98317824   -3.2552272   -3.2552272   -1.7804631  0.079504766   -3.2552272     1.474764   439061 
  555000   0.98217814   -3.2549903   -3.2549903   -1.7817264  0.078990908   -3.2549903    1.4732639   439061 
  556000   0.98216464   -3.2536973   -3.2536973   -1.7804537   0.08334606   -3.2536973    1.4732436   439061 
  557000   0.98090022    -3.254032    -3.254032    -1.782685  0.080625004    -3.254032     1.471347   439061 
  558000   0.98056106   -3.2545781   -3.2545781   -1.7837399  0.084154968   -3.2545781    1.4708382   439061 
  559000   0.98004979   -3.2537241   -3.2537241   -1.7836528  0.079805655   -3.2537241    1.4700713   439061 
  560000   0.98101495   -3.2571439   -3.2571439   -1.7856249  0.079026126   -3.2571439    1.4715191   439061 
  561000   0.97966805    -3.255374    -3.255374   -1.7858753   0.08180796    -3.255374    1.4694987   439061 
  562000   0.98016567   -3.2570391   -3.2570391    -1.786794  0.077823007   -3.2570391    1.4702452   439061 
  563000   0.97980634   -3.2578754   -3.2578754   -1.7881692  0.077624111   -3.2578754    1.4697062   439061 
  564000   0.98030958   -3.2578314   -3.2578314   -1.7873704  0.079006511   -3.2578314     1.470461   439061 
  565000   0.98044432   -3.2583983   -3.2583983   -1.7877351  0.076362929   -3.2583983    1.4706631   439061 
  566000   0.98000834   -3.2582658   -3.2582658   -1.7882567  0.081147573   -3.2582658    1.4700092   439061 
  567000   0.98073376    -3.259892    -3.259892   -1.7887947  0.082480435    -3.259892    1.4710973   439061 
  568000    0.9810116   -3.2597067   -3.2597067   -1.7881926   0.08119591   -3.2597067     1.471514   439061 
  569000     0.980314   -3.2594742   -3.2594742   -1.7890066  0.082985957   -3.2594742    1.4704677   439061 
  570000   0.98009167   -3.2605493   -3.2605493   -1.7904151  0.080001747   -3.2605493    1.4701342   439061 
  571000   0.98094985   -3.2627251   -3.2627251   -1.7913036  0.081612712   -3.2627251    1.4714214   439061 
  572000   0.98009682   -3.2615304   -3.2615304   -1.7913885  0.081398275   -3.2615304    1.4701419   439061 
  573000   0.97995845   -3.2628359   -3.2628359   -1.7929016  0.081494343   -3.2628359    1.4699343   439061 
  574000   0.98096956   -3.2632896   -3.2632896   -1.7918386  0.084213576   -3.2632896     1.471451   439061 
  575000   0.98125251   -3.2641503   -3.2641503   -1.7922749  0.080061185   -3.2641503    1.4718754   439061 
  576000   0.98046198   -3.2634702   -3.2634702   -1.7927806  0.080220189   -3.2634702    1.4706896   439061 
  577000    0.9795527   -3.2629579   -3.2629579   -1.7936322  0.080869799   -3.2629579    1.4693257   439061 
  578000   0.97908688   -3.2640285   -3.2640285   -1.7954016  0.075722234   -3.2640285     1.468627   439061 
  579000   0.97895006   -3.2641937   -3.2641937   -1.7957719  0.078869156   -3.2641937    1.4684217   439061 
  580000    0.9781918   -3.2647205   -3.2647205   -1.7974362  0.077377779   -3.2647205    1.4672844   439061 
  581000   0.97971167   -3.2661982   -3.2661982   -1.7966341  0.081841498   -3.2661982    1.4695642   439061 
  582000   0.98059969   -3.2677461   -3.2677461   -1.7968499  0.078507681   -3.2677461    1.4708962   439061 
  583000   0.98187997   -3.2696273   -3.2696273   -1.7968107  0.080183321   -3.2696273    1.4728166   439061 
  584000   0.98066265   -3.2672421   -3.2672421   -1.7962514  0.083315173   -3.2672421    1.4709906   439061 
  585000   0.98130005   -3.2694878   -3.2694878   -1.7975411  0.086637037   -3.2694878    1.4719467   439061 
  586000   0.98103067   -3.2697527   -3.2697527     -1.79821  0.086827187   -3.2697527    1.4715427   439061 
  587000   0.98083098   -3.2709442   -3.2709442   -1.7997011  0.086300238   -3.2709442    1.4712431   439061 
  588000   0.98023241   -3.2710921   -3.2710921   -1.8007469   0.08820202   -3.2710921    1.4703453   439061 
  589000   0.98013194   -3.2721322   -3.2721322   -1.8019376  0.080784433   -3.2721322    1.4701946   439061 
  590000     0.979071   -3.2710214   -3.2710214   -1.8024183  0.082031672   -3.2710214    1.4686032   439061 
  591000   0.97761825   -3.2691758   -3.2691758   -1.8027518   0.08094935   -3.2691758     1.466424   439061 
  592000    0.9795844   -3.2730597   -3.2730597   -1.8036864   0.08296351   -3.2730597    1.4693733   439061 
  593000   0.97754931   -3.2696229   -3.2696229   -1.8033023  0.081340734   -3.2696229    1.4663206   439061 
  594000   0.97735746   -3.2708472   -3.2708472   -1.8048144  0.083637662   -3.2708472    1.4660328   439061 
  595000   0.97685874   -3.2701026   -3.2701026   -1.8048178  0.078132598   -3.2701026    1.4652848   439061 
  596000   0.97842918   -3.2721416   -3.2721416   -1.8045012  0.078610371   -3.2721416    1.4676404   439061 
  597000   0.97981135   -3.2730325   -3.2730325   -1.8033188  0.077344323   -3.2730325    1.4697137   439061 
  598000   0.97827518   -3.2715531   -3.2715531   -1.8041437  0.083731299   -3.2715531    1.4674094   439061 
  599000   0.97803777   -3.2724248   -3.2724248   -1.8053714  0.078380442   -3.2724248    1.4670533   439061 
  600000   0.97931375   -3.2745769   -3.2745769   -1.8056096  0.081709062   -3.2745769    1.4689673   439061 
  601000   0.97650252   -3.2714152   -3.2714152   -1.8066647  0.081708048   -3.2714152    1.4647504   439061 
  602000   0.97949616   -3.2756809   -3.2756809   -1.8064401  0.077255962   -3.2756809    1.4692409   439061 
  603000   0.98026703   -3.2760799   -3.2760799   -1.8056827  0.077508898   -3.2760799    1.4703972   439061 
  604000   0.98078812   -3.2784363   -3.2784363   -1.8072574  0.080268524   -3.2784363    1.4711788   439061 
  605000   0.97907374   -3.2773021   -3.2773021   -1.8086948  0.080113398   -3.2773021    1.4686073   439061 
  606000   0.97986162   -3.2794151   -3.2794151   -1.8096261   0.07801867   -3.2794151    1.4697891   439061 
  607000   0.97910863   -3.2786361   -3.2786361   -1.8099765  0.079507451   -3.2786361    1.4686596   439061 
  608000   0.98061056   -3.2811385   -3.2811385    -1.810226  0.078059222   -3.2811385    1.4709125   439061 
  609000   0.97898051   -3.2803226   -3.2803226   -1.8118552  0.080402976   -3.2803226    1.4684674   439061 
  610000   0.97954609   -3.2814277   -3.2814277   -1.8121119  0.081103584   -3.2814277    1.4693158   439061 
  611000   0.97663437   -3.2784719   -3.2784719   -1.8135237  0.083811361   -3.2784719    1.4649482   439061 
  612000   0.97813238   -3.2809672   -3.2809672    -1.813772  0.080858988   -3.2809672    1.4671952   439061 
  613000   0.97958659   -3.2841036   -3.2841036    -1.814727    0.0854201   -3.2841036    1.4693765   439061 
  614000   0.97935305   -3.2843418   -3.2843418   -1.8153156  0.085667339   -3.2843418    1.4690262   439061 
  615000   0.97893604    -3.285099    -3.285099   -1.8166983  0.081832482    -3.285099    1.4684007   439061 
  616000   0.97807859   -3.2844629   -3.2844629   -1.8173484   0.07564079   -3.2844629    1.4671145   439061 
  617000   0.97739497   -3.2840777   -3.2840777   -1.8179886  0.073707175   -3.2840777    1.4660891   439061 
  618000   0.97866228    -3.285212    -3.285212   -1.8172219  0.081813013    -3.285212    1.4679901   439061 
  619000   0.97793532   -3.2849621   -3.2849621   -1.8180624  0.084690752   -3.2849621    1.4668996   439061 
  620000   0.97697779   -3.2854268   -3.2854268   -1.8199635  0.078926162   -3.2854268    1.4654633   439061 
  621000   0.97627147   -3.2847147   -3.2847147   -1.8203109  0.085772372   -3.2847147    1.4644039   439061 
  622000   0.97550203   -3.2849445   -3.2849445   -1.8216948  0.079595638   -3.2849445    1.4632497   439061 
  623000    0.9763609   -3.2849142   -3.2849142   -1.8203762  0.084947313   -3.2849142     1.464538   439061 
  624000   0.97604921   -3.2863437   -3.2863437   -1.8222732  0.079623129   -3.2863437    1.4640705   439061 
  625000   0.97580326   -3.2872894   -3.2872894   -1.8235879   0.08188998   -3.2872894    1.4637016   439061 
  626000   0.97779227   -3.2887222   -3.2887222   -1.8220371  0.079018301   -3.2887222    1.4666851   439061 
  627000   0.97682095   -3.2880336   -3.2880336   -1.8228055   0.07771683   -3.2880336    1.4652281   439061 
  628000   0.97767511    -3.290123    -3.290123   -1.8236137  0.080480485    -3.290123    1.4665093   439061 
  629000    0.9771795   -3.2897754   -3.2897754   -1.8240095  0.080976271   -3.2897754    1.4657659   439061 
  630000   0.97697544   -3.2914948   -3.2914948   -1.8260349  0.084347175   -3.2914948    1.4654598   439061 
  631000   0.97767715   -3.2931529   -3.2931529   -1.8266405  0.076114743   -3.2931529    1.4665124   439061 
  632000   0.97579931    -3.291293    -3.291293   -1.8275974  0.080888712    -3.291293    1.4636956   439061 
  633000   0.97649671   -3.2925868   -3.2925868   -1.8278451  0.074975546   -3.2925868    1.4647417   439061 
  634000   0.97665688   -3.2927853   -3.2927853   -1.8278033  0.077295997   -3.2927853     1.464982   439061 
  635000   0.97625145    -3.294617    -3.294617   -1.8302431  0.080162343    -3.294617    1.4643738   439061 
  636000   0.97701793   -3.2961945   -3.2961945   -1.8306709  0.084916784   -3.2961945    1.4655236   439061 
  637000   0.97703164   -3.2960984   -3.2960984   -1.8305543  0.082901327   -3.2960984    1.4655441   439061 
  638000     0.976402   -3.2962298   -3.2962298   -1.8316302  0.076468931   -3.2962298    1.4645997   439061 
  639000   0.97687443   -3.2981048   -3.2981048   -1.8327965  0.080698368   -3.2981048    1.4653083   439061 
  640000   0.97570776   -3.2989587   -3.2989587   -1.8354003  0.073793244   -3.2989587    1.4635583   439061 
  641000   0.97498492   -3.2980853   -3.2980853   -1.8356112  0.077860487   -3.2980853    1.4624741   439061 
  642000   0.97381036   -3.2972413   -3.2972413   -1.8365291  0.074856153   -3.2972413    1.4607122   439061 
  643000   0.97374973   -3.2968674   -3.2968674   -1.8362461  0.078016916   -3.2968674    1.4606213   439061 
  644000   0.97438814   -3.2979643   -3.2979643   -1.8363854  0.074716191   -3.2979643    1.4615789   439061 
  645000   0.97401729   -3.2976529   -3.2976529   -1.8366303  0.077365022   -3.2976529    1.4610226   439061 
  646000   0.97538756   -3.2997737   -3.2997737   -1.8366957  0.075591189   -3.2997737     1.463078   439061 
  647000   0.97530275   -3.2992651   -3.2992651   -1.8363143   0.07566122   -3.2992651    1.4629508   439061 
  648000   0.97486003   -3.2985456   -3.2985456   -1.8362589  0.079537661   -3.2985456    1.4622867   439061 
  649000   0.97478478   -3.2995237   -3.2995237   -1.8373498  0.076037315   -3.2995237    1.4621738   439061 
  650000   0.97535879   -3.3015832   -3.3015832   -1.8385483  0.078474157   -3.3015832    1.4630349   439061 
  651000    0.9762192   -3.3031194   -3.3031194   -1.8387939  0.080247932   -3.3031194    1.4643255   439061 
  652000   0.97598222   -3.3022662   -3.3022662   -1.8382962  0.082325192   -3.3022662      1.46397   439061 
  653000   0.97529193   -3.3027974   -3.3027974   -1.8398628   0.07617902   -3.3027974    1.4629346   439061 
  654000   0.97574194   -3.3028396   -3.3028396     -1.83923  0.082510644   -3.3028396    1.4636096   439061 
  655000   0.97393873   -3.3020262   -3.3020262   -1.8411214  0.082342376   -3.3020262    1.4609048   439061 
  656000   0.97493044   -3.3049009   -3.3049009   -1.8425086  0.078768936   -3.3049009    1.4623923   439061 
  657000   0.97416259   -3.3046336   -3.3046336    -1.843393  0.077402304   -3.3046336    1.4612406   439061 
  658000     0.976385   -3.3097191   -3.3097191   -1.8451449  0.073995048   -3.3097191    1.4645742   439061 
  659000   0.97508955   -3.3081894   -3.3081894   -1.8455584  0.077043377   -3.3081894     1.462631   439061 
  660000   0.97362701   -3.3069527   -3.3069527   -1.8465155  0.077637336   -3.3069527    1.4604372   439061 
  661000   0.97467703   -3.3088006   -3.3088006   -1.8467884  0.076557244   -3.3088006    1.4620122   439061 
  662000   0.97547263   -3.3086663   -3.3086663   -1.8454607  0.076246711   -3.3086663    1.4632056   439061 
  663000   0.97534981   -3.3093181   -3.3093181   -1.8462967  0.082385786   -3.3093181    1.4630214   439061 
  664000    0.9740293   -3.3072686   -3.3072686    -1.846228    0.0834666   -3.3072686    1.4610406   439061 
  665000   0.97602411   -3.3108291   -3.3108291   -1.8467962  0.075898428   -3.3108291    1.4640328   439061 
  666000   0.97405122    -3.309401    -3.309401   -1.8483275  0.079608048    -3.309401    1.4610735   439061 
  667000   0.97471702   -3.3100274   -3.3100274   -1.8479552  0.079049837   -3.3100274    1.4620722   439061 
  668000   0.97518199   -3.3102325   -3.3102325   -1.8474628  0.081276492   -3.3102325    1.4627696   439061 
  669000   0.97441669   -3.3096384   -3.3096384   -1.8480167  0.085135604   -3.3096384    1.4616217   439061 
  670000   0.97345054   -3.3093823   -3.3093823   -1.8492099  0.077123767   -3.3093823    1.4601725   439061 
  671000   0.97348713   -3.3097123   -3.3097123   -1.8494849  0.082212931   -3.3097123    1.4602274   439061 
  672000   0.97342479   -3.3109992   -3.3109992   -1.8508654   0.07816601   -3.3109992    1.4601339   439061 
  673000   0.97145005   -3.3088462   -3.3088462   -1.8516744   0.07756498   -3.3088462    1.4571718   439061 
  674000   0.97233064   -3.3103346   -3.3103346    -1.851842  0.077131126   -3.3103346    1.4584926   439061 
  675000    0.9724397   -3.3110791   -3.3110791   -1.8524229  0.075586139   -3.3110791    1.4586562   439061 
  676000   0.97302939   -3.3125596   -3.3125596   -1.8530189  0.071244377   -3.3125596    1.4595408   439061 
  677000   0.97233063   -3.3123236   -3.3123236   -1.8538309  0.074812858   -3.3123236    1.4584926   439061 
  678000   0.97323835   -3.3122592   -3.3122592    -1.852405  0.082005879   -3.3122592    1.4598542   439061 
  679000   0.97273624   -3.3137387   -3.3137387   -1.8546377  0.076602348   -3.3137387     1.459101   439061 
  680000   0.97135608   -3.3127648   -3.3127648    -1.855734  0.072177063   -3.3127648    1.4570308   439061 
  681000   0.97425889   -3.3167773   -3.3167773   -1.8553923  0.073364972   -3.3167773     1.461385   439061 
  682000   0.97426924   -3.3180906   -3.3180906     -1.85669  0.078431876   -3.3180906    1.4614005   439061 
  683000   0.97441049     -3.31819     -3.31819   -1.8565776  0.079210345     -3.31819    1.4616124   439061 
  684000   0.97411151   -3.3179416   -3.3179416   -1.8567777  0.081874087   -3.3179416    1.4611639   439061 
  685000   0.97542156   -3.3195546   -3.3195546   -1.8564256  0.079591511   -3.3195546     1.463129   439061 
  686000   0.97487377   -3.3196698   -3.3196698   -1.8573624  0.081132067   -3.3196698    1.4623073   439061 
  687000   0.97360079   -3.3208289   -3.3208289    -1.860431  0.075567696   -3.3208289    1.4603979   439061 
  688000   0.97438852   -3.3223281   -3.3223281   -1.8607486  0.083019767   -3.3223281    1.4615795   439061 
  689000   0.97461658   -3.3228879   -3.3228879   -1.8609663  0.084933615   -3.3228879    1.4619215   439061 
  690000   0.97435354   -3.3224038   -3.3224038   -1.8608768  0.083797941   -3.3224038     1.461527   439061 
  691000   0.97308491   -3.3219007   -3.3219007   -1.8622767  0.083274311   -3.3219007     1.459624   439061 
  692000   0.97310767   -3.3226883   -3.3226883   -1.8630301  0.079065736   -3.3226883    1.4596582   439061 
  693000      0.97365   -3.3226842   -3.3226842   -1.8622126  0.080914685   -3.3226842    1.4604717   439061 
  694000    0.9739272   -3.3251617   -3.3251617   -1.8642742   0.07953723   -3.3251617    1.4608875   439061 
  695000     0.971972   -3.3232121   -3.3232121   -1.8652574  0.079530742   -3.3232121    1.4579547   439061 
  696000   0.97351997    -3.326187    -3.326187   -1.8659103  0.077518675    -3.326187    1.4602766   439061 
  697000   0.97393407    -3.327084    -3.327084   -1.8661862   0.07714561    -3.327084    1.4608978   439061 
  698000   0.97222587   -3.3248711   -3.3248711   -1.8665356  0.074740386   -3.3248711    1.4583355   439061 
  699000   0.97232934   -3.3256556   -3.3256556   -1.8671649  0.073213651   -3.3256556    1.4584907   439061 
  700000   0.97273828   -3.3252222   -3.3252222   -1.8661181   0.07770848   -3.3252222    1.4591041   439061 
  701000   0.97369335   -3.3273417   -3.3273417    -1.866805  0.077359533   -3.3273417    1.4605367   439061 
  702000   0.97218097   -3.3252174   -3.3252174   -1.8669493  0.081966878   -3.3252174    1.4582681   439061 
  703000   0.97211876   -3.3269045   -3.3269045   -1.8687296  0.078534498   -3.3269045    1.4581748   439061 
  704000   0.97414191   -3.3305801   -3.3305801   -1.8693705  0.078303666   -3.3305801    1.4612095   439061 
  705000   0.97270152   -3.3282844   -3.3282844   -1.8692355  0.080110663   -3.3282844     1.459049   439061 
  706000   0.97449878   -3.3311926   -3.3311926   -1.8694478  0.073146531   -3.3311926    1.4617448   439061 
  707000   0.97189765   -3.3295881   -3.3295881    -1.871745  0.078795033   -3.3295881    1.4578431   439061 
  708000   0.96997177   -3.3270476   -3.3270476   -1.8720933   0.08064073   -3.3270476    1.4549543   439061 
  709000   0.97101923    -3.328268    -3.328268   -1.8717424  0.072174119    -3.328268    1.4565255   439061 
  710000   0.97223958   -3.3308154   -3.3308154   -1.8724594  0.074654603   -3.3308154     1.458356   439061 
  711000    0.9714675   -3.3294271   -3.3294271   -1.8722292  0.081010959   -3.3294271    1.4571979   439061 
  712000   0.97256914   -3.3321359   -3.3321359   -1.8732856  0.078582495   -3.3321359    1.4588504   439061 
  713000   0.97184888   -3.3317859   -3.3317859   -1.8740159  0.078585611   -3.3317859      1.45777   439061 
  714000    0.9736883    -3.335853    -3.335853   -1.8753239   0.07711152    -3.335853    1.4605291   439061 
  715000   0.97221298   -3.3333607   -3.3333607   -1.8750446  0.073082888   -3.3333607    1.4583161   439061 
  716000   0.97230878   -3.3340933   -3.3340933   -1.8756334  0.075685394   -3.3340933    1.4584599   439061 
  717000   0.97254426    -3.333019    -3.333019    -1.874206  0.083194354    -3.333019    1.4588131   439061 
  718000   0.97218851   -3.3354618   -3.3354618   -1.8771824  0.082217791   -3.3354618    1.4582794   439061 
  719000   0.97313534   -3.3360722   -3.3360722   -1.8763725  0.077994602   -3.3360722    1.4596997   439061 
  720000   0.97357363   -3.3354479   -3.3354479   -1.8750908  0.078313425   -3.3354479    1.4603571   439061 
  721000   0.97216031   -3.3360649   -3.3360649   -1.8778277  0.080022087   -3.3360649    1.4582371   439061 
  722000   0.97119131   -3.3360256   -3.3360256    -1.879242  0.077314462   -3.3360256    1.4567836   439061 
  723000   0.97111318   -3.3373066   -3.3373066   -1.8806402  0.076223126   -3.3373066    1.4566665   439061 
  724000   0.97100913   -3.3373991   -3.3373991   -1.8808887  0.080864296   -3.3373991    1.4565104   439061 
  725000    0.9704561   -3.3374083   -3.3374083   -1.8817275  0.073604307   -3.3374083    1.4556808   439061 
  726000   0.97139838   -3.3390078   -3.3390078   -1.8819135  0.074697325   -3.3390078    1.4570943   439061 
  727000   0.96990223   -3.3385684   -3.3385684   -1.8837184  0.077172338   -3.3385684      1.45485   439061 
  728000   0.97202922    -3.340892    -3.340892   -1.8828514  0.076975562    -3.340892    1.4580405   439061 
  729000   0.97130814   -3.3400091   -3.3400091   -1.8830502  0.078869437   -3.3400091    1.4569589   439061 
  730000   0.97105575   -3.3402767   -3.3402767   -1.8836964  0.080633022   -3.3402767    1.4565803   439061 
  731000   0.97281125   -3.3426434   -3.3426434   -1.8834298  0.079995655   -3.3426434    1.4592136   439061 
  732000   0.97233195   -3.3419492   -3.3419492   -1.8834546  0.081880129   -3.3419492    1.4584946   439061 
  733000   0.97273094    -3.343907    -3.343907    -1.884814  0.076256209    -3.343907    1.4590931   439061 
  734000   0.97156621     -3.34333     -3.34333    -1.885984  0.078566426     -3.34333     1.457346   439061 
  735000   0.97002186    -3.342633    -3.342633   -1.8876035  0.076105376    -3.342633    1.4550295   439061 
  736000   0.97075771   -3.3435994   -3.3435994   -1.8874662  0.079986143   -3.3435994    1.4561332   439061 
  737000   0.97086931   -3.3423483   -3.3423483   -1.8860477   0.07950807   -3.3423483    1.4563006   439061 
  738000   0.97192553   -3.3441607   -3.3441607   -1.8862758  0.079765964   -3.3441607     1.457885   439061 
  739000   0.97315935   -3.3463351   -3.3463351   -1.8865994  0.081662635   -3.3463351    1.4597357   439061 
  740000   0.97286603    -3.347417    -3.347417   -1.8881213  0.081901631    -3.347417    1.4592957   439061 
  741000    0.9728467   -3.3467641   -3.3467641   -1.8874973  0.077794446   -3.3467641    1.4592667   439061 
  742000   0.96962051   -3.3448245   -3.3448245    -1.890397  0.081884751   -3.3448245    1.4544275   439061 
  743000   0.97098965   -3.3474429   -3.3474429   -1.8909618  0.075129802   -3.3474429    1.4564812   439061 
  744000   0.96987029   -3.3457862   -3.3457862    -1.890984  0.080030954   -3.3457862    1.4548021   439061 
  745000   0.97039471   -3.3468054   -3.3468054   -1.8912166  0.078782998   -3.3468054    1.4555888   439061 
  746000   0.96919004   -3.3458438   -3.3458438    -1.892062  0.078900353   -3.3458438    1.4537818   439061 
  747000   0.96918398   -3.3453643   -3.3453643   -1.8915916  0.078969373   -3.3453643    1.4537727   439061 
  748000   0.96985862   -3.3463418   -3.3463418   -1.8915572  0.072591561   -3.3463418    1.4547846   439061 
  749000   0.96923898   -3.3455465   -3.3455465   -1.8916913  0.082230653   -3.3455465    1.4538552   439061 
  750000   0.97072695   -3.3483726   -3.3483726   -1.8922855  0.074831547   -3.3483726    1.4560871   439061 
  751000   0.97041224   -3.3487228   -3.3487228   -1.8931077  0.074055417   -3.3487228    1.4556151   439061 
  752000   0.97039007   -3.3487176   -3.3487176   -1.8931358  0.076179692   -3.3487176    1.4555818   439061 
  753000   0.96933264   -3.3475756   -3.3475756   -1.8935799  0.076449921   -3.3475756    1.4539956   439061 
  754000   0.97001393   -3.3488394   -3.3488394   -1.8938219  0.078991085   -3.3488394    1.4550176   439061 
  755000   0.97020754   -3.3493159   -3.3493159   -1.8940079  0.076692768   -3.3493159     1.455308   439061 
  756000   0.96935056   -3.3507747   -3.3507747   -1.8967521  0.079921014   -3.3507747    1.4540225   439061 
  757000   0.96757431   -3.3486083   -3.3486083   -1.8972502  0.078123043   -3.3486083    1.4513582   439061 
  758000   0.97013723   -3.3526169   -3.3526169   -1.8974144  0.078625415   -3.3526169    1.4552025   439061 
  759000   0.96896827   -3.3526927   -3.3526927   -1.8992436  0.079289516   -3.3526927    1.4534491   439061 
  760000   0.96944161   -3.3544682   -3.3544682   -1.9003091  0.073381629   -3.3544682    1.4541591   439061 
  761000   0.96838203   -3.3540378   -3.3540378    -1.901468   0.07026575   -3.3540378    1.4525697   439061 
  762000   0.96840294   -3.3540745   -3.3540745   -1.9014734  0.078994866   -3.3540745    1.4526011   439061 
  763000    0.9677473   -3.3549407   -3.3549407    -1.903323  0.078323108   -3.3549407    1.4516176   439061 
  764000   0.96918773   -3.3565459   -3.3565459   -1.9027676  0.080440113   -3.3565459    1.4537783   439061 
  765000   0.96901669   -3.3561244   -3.3561244   -1.9026027  0.078993806   -3.3561244    1.4535217   439061 
  766000   0.96876289   -3.3576304   -3.3576304   -1.9044894  0.081131458   -3.3576304     1.453141   439061 
  767000   0.96912171   -3.3588353   -3.3588353    -1.905156  0.075537256   -3.3588353    1.4536793   439061 
  768000   0.96905226   -3.3589641   -3.3589641    -1.905389  0.081666446   -3.3589641    1.4535751   439061 
  769000   0.96950835    -3.361073    -3.361073   -1.9068138  0.072211086    -3.361073    1.4542592   439061 
  770000   0.96742575   -3.3585803   -3.3585803    -1.907445  0.083577465   -3.3585803    1.4511353   439061 
  771000   0.96797675   -3.3602676   -3.3602676   -1.9083058  0.077876463   -3.3602676    1.4519618   439061 
  772000   0.96807067   -3.3616674   -3.3616674   -1.9095647  0.077351049   -3.3616674    1.4521027   439061 
  773000   0.96792618    -3.360957    -3.360957   -1.9090711  0.075538135    -3.360957     1.451886   439061 
  774000   0.96861133   -3.3614256   -3.3614256   -1.9085119  0.071524301   -3.3614256    1.4529137   439061 
  775000   0.96679144   -3.3586566   -3.3586566   -1.9084727  0.077411474   -3.3586566    1.4501839   439061 
  776000   0.96770959   -3.3595257   -3.3595257   -1.9079646  0.075116896   -3.3595257    1.4515611   439061 
  777000   0.96878323   -3.3619172   -3.3619172   -1.9087457  0.075296126   -3.3619172    1.4531715   439061 
  778000   0.96753673   -3.3629795   -3.3629795   -1.9116777  0.074292492   -3.3629795    1.4513018   439061 
  779000   0.96700216   -3.3626484   -3.3626484   -1.9121485   0.07541438   -3.3626484    1.4504999   439061 
  780000   0.96767874    -3.362156    -3.362156   -1.9106412  0.075250062    -3.362156    1.4515148   439061 
  781000   0.96673297   -3.3620274   -3.3620274   -1.9119312  0.073875856   -3.3620274    1.4500962   439061 
  782000   0.96711008   -3.3631186   -3.3631186   -1.9124568  0.077280893   -3.3631186    1.4506618   439061 
  783000   0.96604408   -3.3617385   -3.3617385   -1.9126757  0.079949667   -3.3617385    1.4490628   439061 
  784000   0.96801773   -3.3656722   -3.3656722   -1.9136489  0.075286644   -3.3656722    1.4520233   439061 
  785000   0.96677144   -3.3636629   -3.3636629    -1.913509  0.075106337   -3.3636629    1.4501539   439061 
  786000   0.96926511   -3.3679157   -3.3679157   -1.9140213   0.07580468   -3.3679157    1.4538944   439061 
  787000   0.96748808   -3.3662543   -3.3662543   -1.9150255   0.07957057   -3.3662543    1.4512288   439061 
  788000   0.96774279   -3.3657686   -3.3657686   -1.9141577  0.079187393   -3.3657686    1.4516109   439061 
  789000   0.96707083   -3.3650558   -3.3650558   -1.9144529  0.079498884   -3.3650558    1.4506029   439061 
  790000    0.9663957   -3.3640569   -3.3640569   -1.9144667  0.080204113   -3.3640569    1.4495902   439061 
  791000   0.96609885   -3.3656947   -3.3656947   -1.9165498  0.074486092   -3.3656947     1.449145   439061 
  792000   0.96487714   -3.3640307   -3.3640307   -1.9167183  0.072372816   -3.3640307    1.4473124   439061 
  793000   0.96675181   -3.3684679   -3.3684679   -1.9183435  0.069099007   -3.3684679    1.4501244   439061 
  794000   0.96530031    -3.366094    -3.366094   -1.9181469  0.072686268    -3.366094    1.4479472   439061 
  795000   0.96479598   -3.3639098   -3.3639098   -1.9167192  0.077300921   -3.3639098    1.4471907   439061 
  796000   0.96626506    -3.367476    -3.367476   -1.9180817  0.074779301    -3.367476    1.4493943   439061 
  797000   0.96616315   -3.3676629   -3.3676629   -1.9184215   0.07147055   -3.3676629    1.4492414   439061 
  798000   0.96714585   -3.3683949   -3.3683949   -1.9176794  0.072060583   -3.3683949    1.4507155   439061 
  799000   0.96497802   -3.3655613   -3.3655613   -1.9180975     0.077379   -3.3655613    1.4474637   439061 
  800000   0.96681857   -3.3690816   -3.3690816   -1.9188571  0.072629902   -3.3690816    1.4502245   439061 
  801000   0.96632944   -3.3691396   -3.3691396   -1.9196487  0.073941275   -3.3691396    1.4494909   439061 
  802000   0.96625439   -3.3703924   -3.3703924   -1.9210141  0.072210998   -3.3703924    1.4493783   439061 
  803000     0.966317   -3.3726069   -3.3726069   -1.9231347   0.07381925   -3.3726069    1.4494722   439061 
  804000   0.96668359    -3.373228    -3.373228   -1.9232059  0.073657709    -3.373228    1.4500221   439061 
  805000   0.96553581   -3.3718464   -3.3718464    -1.923546  0.076104791   -3.3718464    1.4483004   439061 
  806000   0.96579359   -3.3724434   -3.3724434   -1.9237563  0.072438554   -3.3724434    1.4486871   439061 
  807000   0.96631525   -3.3740775   -3.3740775    -1.924608  0.074877983   -3.3740775    1.4494696   439061 
  808000   0.96433222   -3.3713646   -3.3713646   -1.9248695  0.073722031   -3.3713646     1.446495   439061 
  809000   0.96515955   -3.3729963   -3.3729963   -1.9252603  0.076479744   -3.3729963     1.447736   439061 
  810000   0.96416704   -3.3728944   -3.3728944   -1.9266471  0.079866091   -3.3728944    1.4462473   439061 
  811000   0.96477125   -3.3739925   -3.3739925   -1.9268389  0.079633938   -3.3739925    1.4471536   439061 
  812000   0.96597926    -3.375711    -3.375711   -1.9267454  0.076221735    -3.375711    1.4489656   439061 
  813000   0.96593989   -3.3749901   -3.3749901   -1.9260836  0.075969291   -3.3749901    1.4489065   439061 
  814000   0.96504496   -3.3744624   -3.3744624   -1.9268982  0.078194686   -3.3744624    1.4475641   439061 
  815000   0.96580954   -3.3772288   -3.3772288   -1.9285178   0.07154163   -3.3772288     1.448711   439061 
  816000   0.96472063   -3.3745196   -3.3745196    -1.927442  0.074237646   -3.3745196    1.4470776   439061 
  817000   0.96523331   -3.3764696   -3.3764696   -1.9286229  0.072640983   -3.3764696    1.4478467   439061 
  818000   0.96544626   -3.3751907   -3.3751907   -1.9270246  0.073982698   -3.3751907    1.4481661   439061 
  819000   0.96413081   -3.3738305   -3.3738305   -1.9276376  0.075823834   -3.3738305    1.4461929   439061 
  820000   0.96298618   -3.3722187   -3.3722187   -1.9277427  0.075032157   -3.3722187     1.444476   439061 
  821000   0.96633426   -3.3765311   -3.3765311    -1.927033  0.074991248   -3.3765311    1.4494981   439061 
  822000   0.96414619   -3.3740226   -3.3740226   -1.9278066  0.075089855   -3.3740226     1.446216   439061 
  823000   0.96440777   -3.3748974   -3.3748974    -1.928289  0.068027693   -3.3748974    1.4466084   439061 
  824000   0.96423939   -3.3756814   -3.3756814   -1.9293257  0.070726517   -3.3756814    1.4463558   439061 
  825000   0.96503475   -3.3763988   -3.3763988     -1.92885  0.074989999   -3.3763988    1.4475488   439061 
  826000   0.96567509   -3.3773784   -3.3773784   -1.9288691  0.072393166   -3.3773784    1.4485093   439061 
  827000   0.96403904   -3.3757048   -3.3757048   -1.9296496  0.075389937   -3.3757048    1.4460553   439061 
  828000   0.96473395   -3.3762364   -3.3762364   -1.9291387   0.07499773   -3.3762364    1.4470976   439061 
  829000   0.96519166   -3.3777597   -3.3777597   -1.9299755  0.073126648   -3.3777597    1.4477842   439061 
  830000   0.96509776   -3.3788809   -3.3788809   -1.9312375  0.073221612   -3.3788809    1.4476433   439061 
  831000   0.96497955   -3.3800843   -3.3800843   -1.9326182  0.067846249   -3.3800843     1.447466   439061 
  832000   0.96368954   -3.3793756   -3.3793756   -1.9338446  0.073815566   -3.3793756     1.445531   439061 
  833000   0.96450594   -3.3816315   -3.3816315   -1.9348759   0.06850039   -3.3816315    1.4467556   439061 
  834000   0.96562579   -3.3831504   -3.3831504    -1.934715  0.074276779   -3.3831504    1.4484354   439061 
  835000   0.96471227   -3.3822756   -3.3822756   -1.9352105  0.078706693   -3.3822756    1.4470651   439061 
  836000    0.9647629   -3.3823701   -3.3823701    -1.935229  0.073386508   -3.3823701    1.4471411   439061 
  837000    0.9630734   -3.3809265   -3.3809265   -1.9363197  0.077678232   -3.3809265    1.4446068   439061 
  838000   0.96574318    -3.386689    -3.386689   -1.9380775  0.067304515    -3.386689    1.4486115   439061 
  839000   0.96489997   -3.3865172   -3.3865172   -1.9391705  0.074884029   -3.3865172    1.4473467   439061 
  840000   0.96442727    -3.386339    -3.386339   -1.9397014  0.067692074    -3.386339    1.4466376   439061 
  841000    0.9651165   -3.3880036   -3.3880036   -1.9403321  0.071960137   -3.3880036    1.4476714   439061 
  842000   0.96428044   -3.3859965   -3.3859965   -1.9395791  0.074542516   -3.3859965    1.4464174   439061 
  843000   0.96397798   -3.3855843   -3.3855843   -1.9396206  0.068360618   -3.3855843    1.4459637   439061 
  844000   0.96301608   -3.3858743   -3.3858743   -1.9413534  0.074702015   -3.3858743    1.4445208   439061 
  845000    0.9625911   -3.3857561   -3.3857561   -1.9418727  0.070493291   -3.3857561    1.4438834   439061 
  846000   0.96380746   -3.3865343   -3.3865343   -1.9408264  0.067870959   -3.3865343    1.4457079   439061 
  847000   0.96433582   -3.3871918   -3.3871918   -1.9406914  0.072771918   -3.3871918    1.4465004   439061 
  848000   0.96299416   -3.3858301   -3.3858301   -1.9413422  0.073277681   -3.3858301     1.444488   439061 
  849000   0.96502808   -3.3888211   -3.3888211   -1.9412823  0.072676564   -3.3888211    1.4475388   439061 
  850000   0.96458595    -3.389521    -3.389521   -1.9426453  0.072217325    -3.389521    1.4468756   439061 
  851000   0.96505663   -3.3890051   -3.3890051   -1.9414234  0.073804859   -3.3890051    1.4475816   439061 
  852000   0.96438968   -3.3889742   -3.3889742    -1.942393  0.071016712   -3.3889742    1.4465812   439061 
  853000   0.96376725   -3.3893668   -3.3893668   -1.9437192  0.075531113   -3.3893668    1.4456476   439061 
  854000    0.9644762    -3.390964    -3.390964    -1.944253   0.06847541    -3.390964     1.446711   439061 
  855000   0.96098486   -3.3875646   -3.3875646   -1.9460906   0.07510259   -3.3875646     1.441474   439061 
  856000   0.96156174   -3.3882041   -3.3882041   -1.9458648  0.069650183   -3.3882041    1.4423393   439061 
  857000   0.96260448   -3.3891581   -3.3891581   -1.9452547  0.069787932   -3.3891581    1.4439034   439061 
  858000   0.96229891   -3.3898035   -3.3898035   -1.9463584  0.070701022   -3.3898035    1.4434451   439061 
  859000   0.96141832   -3.3896649   -3.3896649   -1.9475407  0.070342775   -3.3896649    1.4421242   439061 
  860000   0.96231126   -3.3904737   -3.3904737   -1.9470101  0.071383292   -3.3904737    1.4434636   439061 
  861000   0.96193304   -3.3900055   -3.3900055   -1.9471092  0.065201288   -3.3900055    1.4428963   439061 
  862000   0.96077567   -3.3903381   -3.3903381   -1.9491779  0.066007491   -3.3903381    1.4411602   439061 
  863000   0.96068835   -3.3909979   -3.3909979   -1.9499686  0.071628858   -3.3909979    1.4410292   439061 
  864000   0.96139972   -3.3923318   -3.3923318   -1.9502355  0.067638478   -3.3923318    1.4420963   439061 
  865000   0.96281197   -3.3946556   -3.3946556    -1.950441  0.070020043   -3.3946556    1.4442147   439061 
  866000   0.96144302   -3.3940967   -3.3940967   -1.9519355  0.070512187   -3.3940967    1.4421612   439061 
  867000   0.96334575   -3.3960925   -3.3960925   -1.9510772  0.070634908   -3.3960925    1.4450153   439061 
  868000   0.96196495   -3.3948033   -3.3948033   -1.9518592  0.074728618   -3.3948033    1.4429441   439061 
  869000   0.96328313   -3.3980012   -3.3980012   -1.9530798  0.074214969   -3.3980012    1.4449214   439061 
  870000   0.96324375   -3.3984509   -3.3984509   -1.9535886  0.072448363   -3.3984509    1.4448623   439061 
  871000   0.96160873   -3.3972294   -3.3972294   -1.9548196  0.071620486   -3.3972294    1.4424098   439061 
  872000   0.96202885   -3.3983348   -3.3983348   -1.9552948  0.070235756   -3.3983348      1.44304   439061 
  873000   0.96316053   -3.4003036   -3.4003036   -1.9555661  0.073828066   -3.4003036    1.4447375   439061 
  874000   0.96247304   -3.3986631   -3.3986631   -1.9549568  0.071890323   -3.3986631    1.4437063   439061 
  875000   0.96144073   -3.3978296   -3.3978296   -1.9556718  0.072272714   -3.3978296    1.4421578   439061 
  876000   0.96099196    -3.397115    -3.397115   -1.9556304  0.070347867    -3.397115    1.4414847   439061 
  877000   0.96284159   -3.4000472   -3.4000472   -1.9557881  0.067657709   -3.4000472    1.4442591   439061 
  878000   0.96096642   -3.3989462   -3.3989462   -1.9574999  0.071888531   -3.3989462    1.4414463   439061 
  879000     0.960801   -3.4000906   -3.4000906   -1.9588924  0.067123822   -3.4000906    1.4411982   439061 
  880000   0.96086476   -3.4003581   -3.4003581   -1.9590643    0.0693212   -3.4003581    1.4412939   439061 
  881000   0.96111421   -3.3996905   -3.3996905   -1.9580225  0.072470686   -3.3996905     1.441668   439061 
  882000   0.96153849   -3.4008299   -3.4008299   -1.9585254  0.069794836   -3.4008299    1.4423045   439061 
  883000   0.95991285    -3.399369    -3.399369    -1.959503  0.069096984    -3.399369     1.439866   439061 
  884000     0.960038   -3.4000164   -3.4000164   -1.9599627  0.070255527   -3.4000164    1.4400537   439061 
  885000   0.95966871   -3.4009938   -3.4009938   -1.9614941  0.071803685   -3.4009938    1.4394998   439061 
  886000   0.95871092   -3.4005044   -3.4005044   -1.9624413  0.069092725   -3.4005044    1.4380631   439061 
  887000   0.96051645   -3.4033131   -3.4033131   -1.9625417  0.068506404   -3.4033131    1.4407714   439061 
  888000   0.95931768   -3.4035623   -3.4035623   -1.9645891  0.070648467   -3.4035623    1.4389732   439061 
  889000   0.95992039   -3.4045885   -3.4045885   -1.9647112  0.066880195   -3.4045885    1.4398773   439061 
  890000    0.9593731   -3.4049583   -3.4049583   -1.9659019  0.069969598   -3.4049583    1.4390564   439061 
  891000    0.9589074   -3.4038165   -3.4038165   -1.9654587  0.073407965   -3.4038165    1.4383578   439061 
  892000   0.96121106   -3.4085441   -3.4085441   -1.9667308  0.071712046   -3.4085441    1.4418133   439061 
  893000   0.96083628   -3.4076776   -3.4076776   -1.9664265  0.072596094   -3.4076776    1.4412511   439061 
  894000   0.95914744   -3.4060293   -3.4060293   -1.9673114  0.074994976   -3.4060293    1.4387179   439061 
  895000   0.96227703   -3.4110398   -3.4110398   -1.9676276  0.071979171   -3.4110398    1.4434123   439061 
  896000   0.96100095   -3.4096971   -3.4096971    -1.968199  0.076078799   -3.4096971    1.4414981   439061 
  897000   0.96104632   -3.4095199   -3.4095199   -1.9679537  0.072838254   -3.4095199    1.4415662   439061 
  898000     0.960366   -3.4092795   -3.4092795   -1.9687337  0.068225313   -3.4092795    1.4405457   439061 
  899000    0.9615902   -3.4108195   -3.4108195   -1.9684374  0.071582305   -3.4108195     1.442382   439061 
  900000   0.95955914    -3.409481    -3.409481   -1.9701456  0.068580613    -3.409481    1.4393354   439061 
  901000   0.96005789   -3.4097017   -3.4097017   -1.9696182  0.071146978   -3.4097017    1.4400836   439061 
  902000   0.95916754   -3.4086593   -3.4086593   -1.9699112  0.071917519   -3.4086593     1.438748   439061 
  903000   0.95936147   -3.4100774   -3.4100774   -1.9710384  0.074574797   -3.4100774    1.4390389   439061 
  904000   0.95854384    -3.409029    -3.409029   -1.9712165  0.077604712    -3.409029    1.4378125   439061 
  905000   0.96065546   -3.4127018   -3.4127018   -1.9717219  0.069795235   -3.4127018    1.4409799   439061 
  906000   0.95922411   -3.4108787   -3.4108787   -1.9720458  0.067660782   -3.4108787    1.4388329   439061 
  907000   0.96022102   -3.4114676   -3.4114676   -1.9711394  0.070935113   -3.4114676    1.4403283   439061 
  908000   0.95938832   -3.4125783   -3.4125783   -1.9734991  0.065985583   -3.4125783    1.4390792   439061 
  909000   0.95969774   -3.4133721   -3.4133721   -1.9738287  0.073483156   -3.4133721    1.4395433   439061 
  910000   0.95919299   -3.4134855   -3.4134855   -1.9746993  0.067666519   -3.4134855    1.4387862   439061 
  911000   0.95888565   -3.4131568   -3.4131568   -1.9748316  0.072662824   -3.4131568    1.4383252   439061 
  912000   0.95824148   -3.4128138   -3.4128138   -1.9754549   0.07098369   -3.4128138    1.4373589   439061 
  913000   0.95991798   -3.4151951   -3.4151951   -1.9753214  0.068612849   -3.4151951    1.4398737   439061 
  914000   0.95863757   -3.4140999   -3.4140999   -1.9761468  0.074285977   -3.4140999    1.4379531   439061 
  915000   0.95917331   -3.4155071   -3.4155071   -1.9767504  0.070180089   -3.4155071    1.4387567   439061 
  916000   0.95867953   -3.4150326   -3.4150326   -1.9770166  0.072151133   -3.4150326     1.438016   439061 
  917000   0.96082411   -3.4168207   -3.4168207   -1.9755878  0.068889319   -3.4168207    1.4412329   439061 
  918000    0.9610191   -3.4164344   -3.4164344    -1.974909  0.070043584   -3.4164344    1.4415254   439061 
  919000   0.95813303   -3.4127162   -3.4127162     -1.97552  0.074437727   -3.4127162    1.4371963   439061 
  920000   0.95947761   -3.4139963   -3.4139963   -1.9747832  0.073350865   -3.4139963    1.4392131   439061 
  921000   0.95979701   -3.4150818   -3.4150818   -1.9753896  0.068894924   -3.4150818    1.4396922   439061 
  922000    0.9576326   -3.4126637   -3.4126637   -1.9762181   0.07770036   -3.4126637    1.4364456   439061 
  923000   0.95827045   -3.4136762   -3.4136762   -1.9762738  0.072725218   -3.4136762    1.4374024   439061 
  924000   0.95906975   -3.4155933   -3.4155933    -1.976992  0.067527442   -3.4155933    1.4386014   439061 
  925000   0.95829358   -3.4150398   -3.4150398   -1.9776027  0.070444269   -3.4150398    1.4374371   439061 
  926000   0.95632118   -3.4133515   -3.4133515    -1.978873  0.072290826   -3.4133515    1.4344785   439061 
  927000    0.9576525   -3.4152569   -3.4152569   -1.9787814  0.062984467   -3.4152569    1.4364755   439061 
  928000   0.95806844   -3.4165643   -3.4165643   -1.9794649  0.067603491   -3.4165643    1.4370994   439061 
  929000   0.95810631   -3.4186086   -3.4186086   -1.9814524  0.063317071   -3.4186086    1.4371562   439061 
  930000   0.95644637   -3.4162392   -3.4162392    -1.981573    0.0640843   -3.4162392    1.4346663   439061 
  931000   0.95709981   -3.4169261   -3.4169261   -1.9812797  0.065563901   -3.4169261    1.4356464   439061 
  932000   0.95710885   -3.4190418   -3.4190418   -1.9833818  0.064623241   -3.4190418      1.43566   439061 
  933000   0.95876957   -3.4212266   -3.4212266   -1.9830755  0.069243075   -3.4212266    1.4381511   439061 
  934000   0.95839785   -3.4205142   -3.4205142   -1.9829207  0.070155659   -3.4205142    1.4375935   439061 
  935000   0.96082327   -3.4242494   -3.4242494   -1.9830178  0.065056514   -3.4242494    1.4412316   439061 
  936000   0.95861279   -3.4229236   -3.4229236   -1.9850077  0.076888818   -3.4229236    1.4379159   439061 
  937000   0.95892014   -3.4224286   -3.4224286   -1.9840517  0.081239893   -3.4224286    1.4383769   439061 
  938000   0.95774968   -3.4229257   -3.4229257   -1.9863044  0.073059089   -3.4229257    1.4366213   439061 
  939000   0.95885529   -3.4245928   -3.4245928   -1.9863132  0.069909192   -3.4245928    1.4382797   439061 
  940000   0.95934072     -3.42484     -3.42484   -1.9858321  0.074120746     -3.42484    1.4390078   439061 
  941000   0.95906092   -3.4249507   -3.4249507   -1.9863626  0.073502226   -3.4249507    1.4385881   439061 
  942000   0.95809283   -3.4249536   -3.4249536   -1.9878177  0.069392683   -3.4249536     1.437136   439061 
  943000   0.95937289   -3.4258058   -3.4258058   -1.9867498  0.069334698   -3.4258058    1.4390561   439061 
  944000   0.95877084   -3.4250396   -3.4250396   -1.9868866  0.069796396   -3.4250396     1.438153   439061 
  945000   0.95769737   -3.4226303   -3.4226303   -1.9860875  0.068986175   -3.4226303    1.4365428   439061 
  946000   0.95911652   -3.4251611   -3.4251611   -1.9864896   0.06894222   -3.4251611    1.4386715   439061 
  947000   0.95793992    -3.422997    -3.422997   -1.9860904  0.074577826    -3.422997    1.4369066   439061 
  948000   0.95811273   -3.4234492   -3.4234492   -1.9862834  0.067687839   -3.4234492    1.4371658   439061 
  949000   0.95801987   -3.4238301   -3.4238301   -1.9868035  0.065680838   -3.4238301    1.4370265   439061 
  950000   0.95757447   -3.4232082   -3.4232082   -1.9868498  0.069054892   -3.4232082    1.4363584   439061 
  951000   0.95644975   -3.4235591   -3.4235591   -1.9888878  0.066741008   -3.4235591    1.4346714   439061 
  952000   0.95706969   -3.4231838   -3.4231838   -1.9875825  0.069470626   -3.4231838    1.4356013   439061 
  953000   0.95718989   -3.4249932   -3.4249932   -1.9892116  0.069244005   -3.4249932    1.4357816   439061 
  954000   0.95440865   -3.4207224   -3.4207224   -1.9891127  0.066444051   -3.4207224    1.4316097   439061 
  955000   0.95612248   -3.4228872   -3.4228872   -1.9887068  0.064911055   -3.4228872    1.4341805   439061 
  956000   0.95697947   -3.4255891   -3.4255891   -1.9901232  0.063159684   -3.4255891    1.4354659   439061 
  957000   0.95770933   -3.4270032   -3.4270032   -1.9904424  0.063937203   -3.4270032    1.4365607   439061 
  958000   0.95756141   -3.4273719   -3.4273719    -1.991033  0.070018595   -3.4273719    1.4363388   439061 
  959000   0.95709778   -3.4270643   -3.4270643   -1.9914209  0.067169793   -3.4270643    1.4356434   439061 
  960000   0.95702906   -3.4272547   -3.4272547   -1.9917144  0.069648342   -3.4272547    1.4355403   439061 
  961000   0.95658154   -3.4278418   -3.4278418   -1.9929728  0.071619178   -3.4278418     1.434869   439061 
  962000   0.95673901   -3.4292344   -3.4292344   -1.9941291  0.073290291   -3.4292344    1.4351052   439061 
  963000   0.95623249   -3.4300861   -3.4300861   -1.9957407   0.07108802   -3.4300861    1.4343455   439061 
  964000    0.9570199   -3.4324464   -3.4324464   -1.9969198  0.067037401   -3.4324464    1.4355266   439061 
  965000   0.95719384   -3.4332282   -3.4332282   -1.9974407  0.065344197   -3.4332282    1.4357875   439061 
  966000   0.95635473   -3.4318044   -3.4318044   -1.9972756  0.070195551   -3.4318044    1.4345288   439061 
  967000   0.95574733   -3.4322311   -3.4322311   -1.9986133  0.065980809   -3.4322311    1.4336177   439061 
  968000   0.95607856   -3.4334299   -3.4334299   -1.9993154  0.069350128   -3.4334299    1.4341146   439061 
  969000   0.95685613   -3.4343062   -3.4343062   -1.9990253  0.067328312   -3.4343062    1.4352809   439061 
  970000   0.95557716   -3.4335649   -3.4335649   -2.0002024  0.071856355   -3.4335649    1.4333625   439061 
  971000    0.9575777   -3.4362865   -3.4362865   -1.9999233  0.067916603   -3.4362865    1.4363633   439061 
  972000   0.95476988   -3.4341009   -3.4341009   -2.0019493  0.065740338   -3.4341009    1.4321516   439061 
  973000   0.95491873   -3.4342356   -3.4342356   -2.0018608  0.073910207   -3.4342356    1.4323748   439061 
  974000   0.95546949     -3.43441     -3.43441    -2.001209  0.068880748     -3.43441     1.433201   439061 
  975000   0.95768858   -3.4390686   -3.4390686    -2.002539  0.065931481   -3.4390686    1.4365296   439061 
  976000   0.95623344   -3.4391651   -3.4391651   -2.0048182    0.0665319   -3.4391651    1.4343469   439061 
  977000    0.9551491   -3.4371852   -3.4371852   -2.0044648  0.071200964   -3.4371852    1.4327204   439061 
  978000    0.9560743   -3.4383314   -3.4383314   -2.0042232  0.067281257   -3.4383314    1.4341082   439061 
  979000   0.95599859    -3.438734    -3.438734   -2.0047394  0.066930007    -3.438734    1.4339946   439061 
  980000   0.95474085   -3.4366454   -3.4366454   -2.0045373  0.071503299   -3.4366454     1.432108   439061 
  981000   0.95679825   -3.4396712   -3.4396712   -2.0044771  0.074183887   -3.4396712    1.4351941   439061 
  982000   0.95542263   -3.4387442   -3.4387442   -2.0056135  0.072812677   -3.4387442    1.4331307   439061 
  983000   0.95733761   -3.4414986   -3.4414986   -2.0054954  0.063374868   -3.4414986    1.4360031   439061 
  984000   0.95566802   -3.4384419   -3.4384419   -2.0049431  0.075737959   -3.4384419    1.4334988   439061 
  985000   0.95596509   -3.4406794   -3.4406794    -2.006735  0.069538333   -3.4406794    1.4339444   439061 
  986000   0.95516327    -3.440341    -3.440341   -2.0075994   0.07147976    -3.440341    1.4327416   439061 
  987000   0.95649111   -3.4412644   -3.4412644    -2.006531  0.064631189   -3.4412644    1.4347334   439061 
  988000   0.95855224   -3.4425557   -3.4425557   -2.0047306  0.069296726   -3.4425557    1.4378251   439061 
  989000   0.95686359   -3.4426448   -3.4426448   -2.0073527  0.068512704   -3.4426448    1.4352921   439061 
  990000   0.95422738   -3.4386068   -3.4386068    -2.007269  0.070224721   -3.4386068    1.4313378   439061 
  991000    0.9563849   -3.4426878   -3.4426878   -2.0081137   0.06570198   -3.4426878    1.4345741   439061 
  992000   0.95460589    -3.440917    -3.440917   -2.0090115  0.064574994    -3.440917    1.4319056   439061 
  993000   0.95444285   -3.4401535   -3.4401535   -2.0084924  0.064868018   -3.4401535     1.431661   439061 
  994000   0.95518451   -3.4411602   -3.4411602   -2.0083867  0.066169757   -3.4411602    1.4327735   439061 
  995000   0.95575158   -3.4420537   -3.4420537   -2.0084296    0.0642035   -3.4420537    1.4336241   439061 
  996000   0.95456086   -3.4421939   -3.4421939   -2.0103559  0.063899958   -3.4421939     1.431838   439061 
  997000   0.95482907    -3.443276    -3.443276   -2.0110357  0.066320084    -3.443276    1.4322403   439061 
  998000   0.95425789   -3.4430675   -3.4430675   -2.0116839  0.066079313   -3.4430675    1.4313836   439061 
  999000   0.95449702   -3.4440312   -3.4440312   -2.0122889  0.065321466   -3.4440312    1.4317423   439061 
 1000000   0.95606215    -3.445035    -3.445035   -2.0109451  0.068680792    -3.445035      1.43409   439061 
 1001000    0.9566169   -3.4468885   -3.4468885   -2.0119664  0.071789714   -3.4468885    1.4349221   439061 
 1002000   0.95559592   -3.4459734   -3.4459734   -2.0125828  0.072521003   -3.4459734    1.4333906   439061 
 1003000   0.95438865   -3.4453041   -3.4453041   -2.0137244  0.070532415   -3.4453041    1.4315797   439061 
 1004000   0.95402886   -3.4453052   -3.4453052   -2.0142652   0.06938893   -3.4453052      1.43104   439061 
 1005000   0.95258648    -3.442787    -3.442787   -2.0139106   0.07416912    -3.442787    1.4288765   439061 
 1006000   0.95389918   -3.4459018   -3.4459018   -2.0150563  0.074180388   -3.4459018    1.4308455   439061 
 1007000   0.95322603   -3.4459115   -3.4459115   -2.0160757  0.066402751   -3.4459115    1.4298358   439061 
 1008000   0.95292032   -3.4459541   -3.4459541   -2.0165768  0.070357437   -3.4459541    1.4293772   439061 
 1009000   0.95373521   -3.4473465   -3.4473465    -2.016747  0.066531012   -3.4473465    1.4305996   439061 
 1010000   0.95515285   -3.4493224   -3.4493224   -2.0165964  0.070324982   -3.4493224     1.432726   439061 
 1011000   0.95602429   -3.4499882   -3.4499882    -2.015955  0.069081259   -3.4499882    1.4340332   439061 
 1012000   0.95428478   -3.4474054   -3.4474054   -2.0159815  0.069904659   -3.4474054    1.4314239   439061 
 1013000   0.95341452   -3.4493394   -3.4493394   -2.0192209  0.072092494   -3.4493394    1.4301185   439061 
 1014000   0.95358159   -3.4501024   -3.4501024   -2.0197333  0.066963735   -3.4501024    1.4303691   439061 
 1015000   0.95410877   -3.4513303   -3.4513303   -2.0201704  0.062766098   -3.4513303    1.4311599   439061 
 1016000   0.95365777   -3.4520379   -3.4520379   -2.0215545  0.062688352   -3.4520379    1.4304834   439061 
 1017000    0.9526344   -3.4497489   -3.4497489   -2.0208005  0.067967158   -3.4497489    1.4289484   439061 
 1018000   0.95230433   -3.4507577   -3.4507577   -2.0223045  0.071893468   -3.4507577    1.4284532   439061 
 1019000   0.95407226   -3.4515395   -3.4515395   -2.0204344  0.069250088   -3.4515395    1.4311051   439061 
 1020000   0.95291864   -3.4507387   -3.4507387    -2.021364  0.072469188   -3.4507387    1.4293747   439061 
 1021000    0.9553705   -3.4553095   -3.4553095    -2.022257  0.069653705   -3.4553095    1.4330525   439061 
 1022000   0.95463527   -3.4538109   -3.4538109   -2.0218612  0.066916373   -3.4538109    1.4319496   439061 
 1023000   0.95514606   -3.4563467   -3.4563467   -2.0236309  0.070096315   -3.4563467    1.4327158   439061 
 1024000   0.95302298   -3.4544264   -3.4544264   -2.0248951  0.071185884   -3.4544264    1.4295312   439061 
 1025000   0.95493246   -3.4566372   -3.4566372   -2.0242418  0.063697733   -3.4566372    1.4323954   439061 
 1026000   0.95340159   -3.4534009   -3.4534009   -2.0233018  0.074181454   -3.4534009    1.4300991   439061 
 1027000   0.95441701   -3.4544318   -3.4544318   -2.0228096  0.073939121   -3.4544318    1.4316223   439061 
 1028000   0.95348829   -3.4545427   -3.4545427   -2.0243136  0.064132062   -3.4545427    1.4302292   439061 
 1029000   0.95167194   -3.4520747   -3.4520747     -2.02457  0.067456626   -3.4520747    1.4275047   439061 
 1030000   0.95330218    -3.455332    -3.455332    -2.025382  0.064597135    -3.455332      1.42995   439061 
 1031000   0.95257704   -3.4553541   -3.4553541   -2.0264918  0.066899257   -3.4553541    1.4288623   439061 
 1032000    0.9542982   -3.4571443   -3.4571443   -2.0257003  0.064657516   -3.4571443     1.431444   439061 
 1033000   0.95407706   -3.4564129   -3.4564129   -2.0253005  0.066809711   -3.4564129    1.4311123   439061 
 1034000   0.95394353   -3.4558407   -3.4558407   -2.0249287  0.065877036   -3.4558407     1.430912   439061 
 1035000   0.95401282   -3.4558852   -3.4558852   -2.0248692  0.065047535   -3.4558852     1.431016   439061 
 1036000   0.95452278    -3.456249    -3.456249   -2.0244681  0.064322528    -3.456249    1.4317809   439061 
 1037000   0.95311028   -3.4548973   -3.4548973   -2.0252352  0.066373198   -3.4548973    1.4296622   439061 
 1038000   0.95095499   -3.4527114   -3.4527114   -2.0262822  0.067206542   -3.4527114    1.4264292   439061 
 1039000   0.95135214   -3.4542481   -3.4542481   -2.0272231  0.068484224   -3.4542481     1.427025   439061 
 1040000   0.95090017   -3.4548484   -3.4548484   -2.0285014  0.061106379   -3.4548484     1.426347   439061 
 1041000   0.95185039   -3.4552152   -3.4552152   -2.0274428  0.061632219   -3.4552152    1.4277723   439061 
 1042000   0.95201142   -3.4556686   -3.4556686   -2.0276548  0.061861407   -3.4556686    1.4280139   439061 
 1043000   0.95153307   -3.4555889   -3.4555889   -2.0282925  0.068312053   -3.4555889    1.4272964   439061 
 1044000   0.95160917   -3.4558008   -3.4558008   -2.0283903  0.058880234   -3.4558008    1.4274105   439061 
 1045000   0.95242693   -3.4578716   -3.4578716   -2.0292344  0.062003059   -3.4578716    1.4286371   439061 
 1046000   0.95262414   -3.4577822   -3.4577822   -2.0288492  0.070520099   -3.4577822     1.428933   439061 
 1047000   0.95260832   -3.4568577   -3.4568577   -2.0279485  0.072800464   -3.4568577    1.4289092   439061 
 1048000    0.9515169   -3.4558047   -3.4558047   -2.0285326  0.073681646   -3.4558047    1.4272721   439061 
 1049000   0.95312814   -3.4603088   -3.4603088   -2.0306198  0.063714758   -3.4603088     1.429689   439061 
 1050000   0.95284709   -3.4601902   -3.4601902   -2.0309228  0.067637052   -3.4601902    1.4292674   439061 
 1051000    0.9527992   -3.4606762   -3.4606762   -2.0314807  0.072377223   -3.4606762    1.4291956   439061 
 1052000   0.95466349   -3.4641058   -3.4641058   -2.0321138  0.064435946   -3.4641058     1.431992   439061 
 1053000   0.95298477   -3.4616645   -3.4616645   -2.0321906  0.069001505   -3.4616645    1.4294739   439061 
 1054000   0.95240464   -3.4617826   -3.4617826   -2.0331789  0.069917979   -3.4617826    1.4286037   439061 
 1055000   0.95469638   -3.4650915   -3.4650915   -2.0330502  0.070763184   -3.4650915    1.4320413   439061 
 1056000   0.95463705   -3.4638318   -3.4638318   -2.0318795  0.070149991   -3.4638318    1.4319523   439061 
 1057000   0.95460259   -3.4655426   -3.4655426    -2.033642  0.065565281   -3.4655426    1.4319006   439061 
 1058000   0.95468962   -3.4642389   -3.4642389   -2.0322078  0.073973062   -3.4642389    1.4320312   439061 
 1059000    0.9534989   -3.4630082   -3.4630082   -2.0327631  0.069157995   -3.4630082    1.4302451   439061 
 1060000   0.95381985   -3.4650621   -3.4650621   -2.0343356  0.058996678   -3.4650621    1.4307265   439061 
 1061000   0.95271423   -3.4643969   -3.4643969   -2.0353288  0.062549546   -3.4643969    1.4290681   439061 
 1062000   0.95043254   -3.4617357   -3.4617357   -2.0360902  0.062529271   -3.4617357    1.4256456   439061 
 1063000   0.95236701   -3.4643228   -3.4643228   -2.0357755  0.061021012   -3.4643228    1.4285473   439061 
 1064000   0.95046826   -3.4611306   -3.4611306   -2.0354314  0.069307957   -3.4611306    1.4256991   439061 
 1065000    0.9506607   -3.4617146   -3.4617146   -2.0357268  0.064176345   -3.4617146    1.4259878   439061 
 1066000   0.95202855   -3.4631783   -3.4631783   -2.0351388  0.065453015   -3.4631783    1.4280396   439061 
 1067000    0.9518155   -3.4616722   -3.4616722   -2.0339522   0.06450943   -3.4616722      1.42772   439061 
 1068000   0.95085837   -3.4620002   -3.4620002   -2.0357159  0.067655137   -3.4620002    1.4262843   439061 
 1069000   0.95178662   -3.4642298   -3.4642298   -2.0365532  0.066310628   -3.4642298    1.4276767   439061 
 1070000   0.95175761   -3.4644188   -3.4644188   -2.0367856  0.066722939   -3.4644188    1.4276332   439061 
 1071000   0.95253514   -3.4658899   -3.4658899   -2.0370904  0.060913439   -3.4658899    1.4287995   439061 
 1072000    0.9525626   -3.4668086   -3.4668086    -2.037968  0.061486381   -3.4668086    1.4288406   439061 
 1073000   0.95266449   -3.4672662   -3.4672662   -2.0382727  0.064817072   -3.4672662    1.4289935   439061 
 1074000   0.95181524   -3.4669374   -3.4669374   -2.0392178  0.067409061   -3.4669374    1.4277196   439061 
 1075000   0.95143078   -3.4661338   -3.4661338   -2.0389909  0.062164417   -3.4661338    1.4271429   439061 
 1076000    0.9508333    -3.466632    -3.466632   -2.0403853  0.074093964    -3.466632    1.4262467   439061 
 1077000   0.95183032   -3.4691316   -3.4691316   -2.0413893    0.0688096   -3.4691316    1.4277422   439061 
 1078000   0.95195711   -3.4708784   -3.4708784    -2.042946  0.063548896   -3.4708784    1.4279324   439061 
 1079000   0.95241545   -3.4710992   -3.4710992   -2.0424793  0.067900879   -3.4710992    1.4286199   439061 
 1080000   0.95216743   -3.4705293   -3.4705293   -2.0422814   0.06718228   -3.4705293    1.4282479   439061 
 1081000   0.95291718   -3.4715672   -3.4715672   -2.0421947  0.065879902   -3.4715672    1.4293725   439061 
 1082000   0.95146505   -3.4695942   -3.4695942   -2.0423998  0.065702559   -3.4695942    1.4271943   439061 
 1083000   0.95094884   -3.4688316   -3.4688316   -2.0424116  0.067140733   -3.4688316      1.42642   439061 
 1084000   0.95354049   -3.4727872   -3.4727872   -2.0424797  0.067996585   -3.4727872    1.4303075   439061 
 1085000   0.95135917   -3.4705132   -3.4705132   -2.0434777  0.071307334   -3.4705132    1.4270355   439061 
 1086000   0.95202668   -3.4722142   -3.4722142   -2.0441775  0.063481046   -3.4722142    1.4280368   439061 
 1087000    0.9503408   -3.4704044   -3.4704044   -2.0448965  0.065321168   -3.4704044     1.425508   439061 
 1088000   0.95191609   -3.4715202   -3.4715202   -2.0436493  0.066548942   -3.4715202    1.4278709   439061 
 1089000   0.95117356   -3.4719774   -3.4719774   -2.0452203  0.061790156   -3.4719774    1.4267571   439061 
 1090000   0.95142677   -3.4710641   -3.4710641   -2.0439272  0.065287285   -3.4710641    1.4271369   439061 
 1091000   0.95118338    -3.471169    -3.471169   -2.0443972  0.065466375    -3.471169    1.4267718   439061 
 1092000   0.95292975   -3.4733947   -3.4733947   -2.0440033  0.063194031   -3.4733947    1.4293914   439061 
 1093000   0.95251965   -3.4733751   -3.4733751   -2.0445989  0.065621133   -3.4733751    1.4287762   439061 
 1094000   0.95225398   -3.4733717   -3.4733717    -2.044994  0.065012291   -3.4733717    1.4283777   439061 
 1095000   0.95015389   -3.4719434   -3.4719434   -2.0467158  0.070463007   -3.4719434    1.4252276   439061 
 1096000   0.94984383   -3.4719336   -3.4719336   -2.0471711  0.066660198   -3.4719336    1.4247625   439061 
 1097000   0.95179723   -3.4744683   -3.4744683   -2.0467757  0.066048528   -3.4744683    1.4276926   439061 
 1098000    0.9503429   -3.4733619   -3.4733619   -2.0478508  0.063321036   -3.4733619    1.4255111   439061 
 1099000   0.95175921   -3.4761636   -3.4761636    -2.048528  0.058334786   -3.4761636    1.4276356   439061 
 1100000   0.94931083   -3.4736848   -3.4736848   -2.0497218  0.067538298   -3.4736848     1.423963   439061 
 1101000   0.95051359   -3.4747209   -3.4747209   -2.0489537  0.064774764   -3.4747209    1.4257671   439061 
 1102000   0.95387518   -3.4783997   -3.4783997   -2.0475901  0.063023896   -3.4783997    1.4308095   439061 
 1103000    0.9517187   -3.4752778   -3.4752778    -2.047703  0.068031247   -3.4752778    1.4275748   439061 
 1104000   0.95173948   -3.4762199   -3.4762199   -2.0486139  0.067170262   -3.4762199     1.427606   439061 
 1105000   0.95185185   -3.4772849   -3.4772849   -2.0495104  0.067213071   -3.4772849    1.4277745   439061 
 1106000   0.95218448   -3.4787369   -3.4787369   -2.0504634  0.066825858   -3.4787369    1.4282735   439061 
 1107000   0.95028067   -3.4762736   -3.4762736   -2.0508558  0.067928344   -3.4762736    1.4254178   439061 
 1108000   0.95210164   -3.4796705   -3.4796705   -2.0515213  0.061142964   -3.4796705    1.4281492   439061 
 1109000   0.95024352   -3.4758354   -3.4758354   -2.0504734  0.064933498   -3.4758354     1.425362   439061 
 1110000   0.95017482   -3.4759994   -3.4759994   -2.0507404  0.063341648   -3.4759994     1.425259   439061 
 1111000   0.95185554   -3.4787818   -3.4787818   -2.0510017  0.063445829   -3.4787818    1.4277801   439061 
 1112000   0.95142346   -3.4769673   -3.4769673   -2.0498354  0.063680804   -3.4769673    1.4271319   439061 
 1113000   0.95078604   -3.4766592   -3.4766592   -2.0504834  0.068870859   -3.4766592    1.4261758   439061 
 1114000   0.95082398   -3.4761934   -3.4761934   -2.0499607  0.068641947   -3.4761934    1.4262327   439061 
 1115000   0.95031227   -3.4774526   -3.4774526   -2.0519874  0.067517823   -3.4774526    1.4254652   439061 
 1116000   0.95075674   -3.4785403   -3.4785403   -2.0524084  0.059598319   -3.4785403    1.4261319   439061 
 1117000   0.94959621   -3.4775926   -3.4775926   -2.0532015   0.06383786   -3.4775926    1.4243911   439061 
 1118000   0.95056972    -3.481132    -3.481132   -2.0552807  0.066206279    -3.481132    1.4258513   439061 
 1119000   0.95032228   -3.4787545   -3.4787545   -2.0532743  0.067800623   -3.4787545    1.4254802   439061 
 1120000   0.95088922   -3.4811902   -3.4811902   -2.0548596  0.064472867   -3.4811902    1.4263306   439061 
 1121000   0.95100613   -3.4817248   -3.4817248   -2.0552188  0.065468203   -3.4817248    1.4265059   439061 
 1122000   0.95034924   -3.4803153   -3.4803153   -2.0547947  0.068247569   -3.4803153    1.4255206   439061 
 1123000   0.95233927   -3.4831456   -3.4831456     -2.05464  0.065031294   -3.4831456    1.4285057   439061 
 1124000   0.95040671   -3.4819342   -3.4819342   -2.0563274  0.065637803   -3.4819342    1.4256068   439061 
 1125000   0.94966174   -3.4818892   -3.4818892   -2.0573999  0.069777553   -3.4818892    1.4244894   439061 
 1126000   0.95015251   -3.4834979   -3.4834979   -2.0582723  0.063761519   -3.4834979    1.4252255   439061 
 1127000   0.95007536   -3.4824714   -3.4824714   -2.0573616  0.067591766   -3.4824714    1.4251098   439061 
 1128000    0.9504903   -3.4833969   -3.4833969   -2.0576647  0.066023312   -3.4833969    1.4257322   439061 
 1129000   0.94991608   -3.4834935   -3.4834935   -2.0586226  0.062898112   -3.4834935    1.4248709   439061 
 1130000   0.94986769   -3.4836207   -3.4836207   -2.0588224  0.062688595   -3.4836207    1.4247983   439061 
 1131000   0.94963399   -3.4839698   -3.4839698    -2.059522  0.064363725   -3.4839698    1.4244477   439061 
 1132000   0.94802848   -3.4822505   -3.4822505    -2.060211  0.062636669   -3.4822505    1.4220395   439061 
 1133000   0.94908387   -3.4835043   -3.4835043   -2.0598817  0.064612751   -3.4835043    1.4236226   439061 
 1134000   0.94972199   -3.4847971   -3.4847971   -2.0602173  0.059082325   -3.4847971    1.4245797   439061 
 1135000   0.94894925   -3.4839644   -3.4839644   -2.0605438  0.057531863   -3.4839644    1.4234206   439061 
 1136000   0.95080623   -3.4866086   -3.4866086   -2.0604025  0.061978592   -3.4866086    1.4262061   439061 
 1137000   0.94893904   -3.4840333   -3.4840333    -2.060628  0.068379524   -3.4840333    1.4234053   439061 
 1138000   0.94962809   -3.4854944   -3.4854944   -2.0610556   0.06334311   -3.4854944    1.4244389   439061 
 1139000   0.94929001   -3.4851832   -3.4851832   -2.0612514  0.065300457   -3.4851832    1.4239318   439061 
 1140000   0.94984693   -3.4869412   -3.4869412   -2.0621741  0.064177266   -3.4869412    1.4247672   439061 
 1141000   0.95021307   -3.4880644   -3.4880644   -2.0627481   0.06995907   -3.4880644    1.4253164   439061 
 1142000   0.94917853   -3.4872075   -3.4872075    -2.063443  0.063994928   -3.4872075    1.4237645   439061 
 1143000   0.94915539   -3.4875281   -3.4875281   -2.0637983  0.069756152   -3.4875281    1.4237298   439061 
 1144000   0.94885922   -3.4889729   -3.4889729   -2.0656873  0.065977096   -3.4889729    1.4232856   439061 
 1145000   0.94910326   -3.4893449   -3.4893449   -2.0656932  0.066375654   -3.4893449    1.4236517   439061 
 1146000   0.94989873    -3.491383    -3.491383   -2.0665382  0.058136049    -3.491383    1.4248449   439061 
 1147000   0.94830116   -3.4894658   -3.4894658   -2.0670173  0.062026978   -3.4894658    1.4224485   439061 
 1148000   0.95032241   -3.4927958   -3.4927958   -2.0673155  0.064031176   -3.4927958    1.4254804   439061 
 1149000   0.94811093   -3.4901704   -3.4901704   -2.0680072  0.065021438   -3.4901704    1.4221631   439061 
 1150000    0.9489157    -3.490453    -3.490453   -2.0670827  0.062863272    -3.490453    1.4233703   439061 
 1151000   0.94870274   -3.4905912   -3.4905912   -2.0675403  0.060717499   -3.4905912    1.4230509   439061 
 1152000   0.94728069   -3.4901851   -3.4901851   -2.0692673  0.060704254   -3.4901851    1.4209178   439061 
 1153000    0.9492914   -3.4909861   -3.4909861   -2.0670523  0.062342957   -3.4909861    1.4239339   439061 
 1154000   0.94948274   -3.4909471   -3.4909471   -2.0667262  0.068404668   -3.4909471    1.4242209   439061 
 1155000   0.94882507   -3.4906079   -3.4906079   -2.0673735  0.064337041   -3.4906079    1.4232344   439061 
 1156000   0.94674497   -3.4884938   -3.4884938   -2.0683796  0.064499495   -3.4884938    1.4201142   439061 
 1157000   0.94788204   -3.4899982   -3.4899982   -2.0681783  0.062480771   -3.4899982    1.4218198   439061 
 1158000   0.94657559   -3.4902398   -3.4902398   -2.0703796  0.060827766   -3.4902398    1.4198601   439061 
 1159000   0.94697274   -3.4910146   -3.4910146   -2.0705587   0.06516531   -3.4910146    1.4204559   439061 
 1160000   0.94689648   -3.4907603   -3.4907603   -2.0704188    0.0662903   -3.4907603    1.4203415   439061 
 1161000   0.94707857   -3.4917863   -3.4917863   -2.0711717  0.067564721   -3.4917863    1.4206146   439061 
 1162000   0.94819465    -3.492028    -3.492028   -2.0697392  0.058731155    -3.492028    1.4222887   439061 
 1163000   0.94893101   -3.4938868   -3.4938868   -2.0704935  0.062664422   -3.4938868    1.4233933   439061 
 1164000   0.94948706   -3.4951707   -3.4951707   -2.0709434  0.057574266   -3.4951707    1.4242273   439061 
 1165000   0.94966425   -3.4968675   -3.4968675   -2.0723743  0.055941156   -3.4968675    1.4244931   439061 
 1166000   0.94832739   -3.4932464   -3.4932464   -2.0707586  0.064288536   -3.4932464    1.4224878   439061 
 1167000   0.94843479     -3.49302     -3.49302    -2.070371  0.064439836     -3.49302    1.4226489   439061 
 1168000   0.94851132   -3.4946616   -3.4946616   -2.0718978  0.064707902   -3.4946616    1.4227637   439061 
 1169000   0.94702044   -3.4926904   -3.4926904    -2.072163  0.061184901   -3.4926904    1.4205274   439061 
 1170000   0.94783637   -3.4939422   -3.4939422   -2.0721909  0.063015937   -3.4939422    1.4217513   439061 
 1171000   0.94617252   -3.4943653   -3.4943653   -2.0751097   0.06320147   -3.4943653    1.4192555   439061 
 1172000   0.94703975   -3.4957779   -3.4957779   -2.0752215  0.061635215   -3.4957779    1.4205564   439061 
 1173000   0.94705789   -3.4960287   -3.4960287   -2.0754451  0.063609036   -3.4960287    1.4205836   439061 
 1174000   0.94938892   -3.4997319   -3.4997319   -2.0756518  0.062613075   -3.4997319    1.4240801   439061 
 1175000   0.94728697   -3.4975078   -3.4975078   -2.0765806  0.065372996   -3.4975078    1.4209272   439061 
 1176000   0.94738846   -3.4970821   -3.4970821   -2.0760026  0.066373717   -3.4970821    1.4210795   439061 
 1177000   0.94853196   -3.4987573   -3.4987573   -2.0759626  0.062887857   -3.4987573    1.4227947   439061 
 1178000   0.94808972   -3.4980804   -3.4980804   -2.0759491  0.067548768   -3.4980804    1.4221313   439061 
 1179000   0.94898452     -3.50041     -3.50041   -2.0769364  0.065020402     -3.50041    1.4234735   439061 
 1180000   0.94941635   -3.5015555   -3.5015555   -2.0774342   0.06727154   -3.5015555    1.4241213   439061 
 1181000   0.94995392   -3.5023202   -3.5023202   -2.0773925  0.062305124   -3.5023202    1.4249276   439061 
 1182000   0.94977051   -3.5023396   -3.5023396    -2.077687  0.070264184   -3.5023396    1.4246525   439061 
 1183000   0.94941179   -3.5014774   -3.5014774   -2.0773629  0.070098996   -3.5014774    1.4241144   439061 
 1184000   0.94830347   -3.5020851   -3.5020851   -2.0796331  0.068159988   -3.5020851     1.422452   439061 
 1185000   0.94719242   -3.5018664   -3.5018664    -2.081081  0.069414122   -3.5018664    1.4207854   439061 
 1186000   0.94711982    -3.501125    -3.501125   -2.0804486  0.068414146    -3.501125    1.4206765   439061 
 1187000   0.94702876   -3.5022724   -3.5022724   -2.0817325  0.064749014   -3.5022724    1.4205399   439061 
 1188000   0.94758469   -3.5028794   -3.5028794   -2.0815056   0.06379294   -3.5028794    1.4213738   439061 
 1189000    0.9484934   -3.5051547   -3.5051547   -2.0824178  0.064305183   -3.5051547    1.4227369   439061 
 1190000   0.94786644   -3.5047989   -3.5047989   -2.0830024  0.060121668   -3.5047989    1.4217964   439061 
 1191000   0.94685578   -3.5038479   -3.5038479   -2.0835675  0.062581482   -3.5038479    1.4202804   439061 
 1192000   0.94762519   -3.5034748   -3.5034748   -2.0820402  0.062008324   -3.5034748    1.4214345   439061 
 1193000   0.94815632   -3.5018832   -3.5018832    -2.079652  0.061809117   -3.5018832    1.4222312   439061 
 1194000   0.94746435   -3.5023626   -3.5023626   -2.0811693  0.062948571   -3.5023626    1.4211933   439061 
 1195000   0.94914003    -3.504985    -3.504985   -2.0812782  0.060930619    -3.504985    1.4237068   439061 
 1196000   0.94694941   -3.5023221   -3.5023221   -2.0819012  0.062594906   -3.5023221    1.4204209   439061 
 1197000   0.94625273   -3.5020913   -3.5020913   -2.0827155  0.063095846   -3.5020913    1.4193759   439061 
 1198000   0.94812975   -3.5044643   -3.5044643   -2.0822729  0.058065236   -3.5044643    1.4221914   439061 
 1199000   0.94720589   -3.5039287   -3.5039287   -2.0831231  0.058315378   -3.5039287    1.4208056   439061 
 1200000   0.94752078   -3.5038256   -3.5038256   -2.0825477  0.063145653   -3.5038256    1.4212779   439061 
 1201000   0.94707164   -3.5042335   -3.5042335   -2.0836292  0.059316441   -3.5042335    1.4206042   439061 
 1202000   0.94697927   -3.5043112   -3.5043112   -2.0838456  0.061839816   -3.5043112    1.4204657   439061 
 1203000   0.94709024   -3.5046352   -3.5046352   -2.0840031  0.063289761   -3.5046352    1.4206321   439061 
 1204000    0.9478198   -3.5063458   -3.5063458   -2.0846193  0.063670536   -3.5063458    1.4217265   439061 
 1205000   0.94604458   -3.5049136   -3.5049136   -2.0858499  0.062181264   -3.5049136    1.4190636   439061 
 1206000   0.94788022   -3.5070396   -3.5070396   -2.0852225  0.062590359   -3.5070396    1.4218171   439061 
 1207000   0.94933709   -3.5093896   -3.5093896   -2.0853872  0.061896485   -3.5093896    1.4240024   439061 
 1208000   0.95008941   -3.5090888   -3.5090888    -2.083958  0.062712077   -3.5090888    1.4251309   439061 
 1209000   0.94982274   -3.5085926   -3.5085926   -2.0838618  0.066009963   -3.5085926    1.4247309   439061 
 1210000   0.94749411   -3.5055555   -3.5055555   -2.0843175  0.072948002   -3.5055555    1.4212379   439061 
 1211000   0.94945487   -3.5105792   -3.5105792   -2.0864001  0.065925789   -3.5105792    1.4241791   439061 
 1212000   0.94925914   -3.5111055   -3.5111055     -2.08722  0.067591352   -3.5111055    1.4238855   439061 
 1213000   0.94716618     -3.51034     -3.51034    -2.089594  0.058436874     -3.51034     1.420746   439061 
 1214000   0.94711669   -3.5109152   -3.5109152   -2.0902434   0.05886982   -3.5109152    1.4206718   439061 
 1215000   0.94700698     -3.51025     -3.51025   -2.0897428  0.058852193     -3.51025    1.4205072   439061 
 1216000   0.94524228   -3.5085677   -3.5085677   -2.0907075  0.063634983   -3.5085677    1.4178602   439061 
 1217000   0.94652529   -3.5102923   -3.5102923   -2.0905076  0.061882065   -3.5102923    1.4197847   439061 
 1218000   0.94574629   -3.5115666   -3.5115666   -2.0929504   0.06133645   -3.5115666    1.4186162   439061 
 1219000   0.94699659   -3.5123259   -3.5123259   -2.0918343  0.054061247   -3.5123259    1.4204917   439061 
 1220000   0.94675049    -3.510712    -3.510712   -2.0905895  0.068335224    -3.510712    1.4201225   439061 
 1221000   0.94771455   -3.5118833   -3.5118833   -2.0903147  0.064156062   -3.5118833    1.4215686   439061 
 1222000   0.94765976   -3.5130398   -3.5130398   -2.0915534  0.063973608   -3.5130398    1.4214864   439061 
 1223000   0.94748683   -3.5125118   -3.5125118   -2.0912848   0.06386515   -3.5125118     1.421227   439061 
 1224000   0.94734876   -3.5122447   -3.5122447   -2.0912248  0.066127654   -3.5122447    1.4210199   439061 
 1225000   0.94830294   -3.5125621   -3.5125621   -2.0901109  0.061044294   -3.5125621    1.4224512   439061 
 1226000   0.94666303   -3.5117368   -3.5117368   -2.0917455    0.0646325   -3.5117368    1.4199913   439061 
 1227000   0.94692106   -3.5130034   -3.5130034    -2.092625  0.064774575   -3.5130034    1.4203784   439061 
 1228000   0.94432949   -3.5103166   -3.5103166   -2.0938256  0.063135695   -3.5103166     1.416491   439061 
 1229000   0.94613262   -3.5126709   -3.5126709   -2.0934752  0.060025105   -3.5126709    1.4191957   439061 
 1230000   0.94653308   -3.5124184   -3.5124184    -2.092622  0.063144952   -3.5124184    1.4197964   439061 
 1231000   0.94538482   -3.5120237   -3.5120237   -2.0939497  0.061690895   -3.5120237     1.418074   439061 
 1232000   0.94448273   -3.5109946   -3.5109946   -2.0942737  0.059980933   -3.5109946    1.4167209   439061 
 1233000    0.9460182   -3.5126217   -3.5126217   -2.0935977  0.060737437   -3.5126217    1.4190241   439061 
 1234000    0.9480955   -3.5143695   -3.5143695   -2.0922295  0.063166525   -3.5143695      1.42214   439061 
 1235000   0.94671236   -3.5142778   -3.5142778   -2.0942125  0.057904091   -3.5142778    1.4200653   439061 
 1236000   0.94647297    -3.514597    -3.514597   -2.0948908  0.058710727    -3.514597    1.4197062   439061 
 1237000   0.94551772   -3.5150043   -3.5150043    -2.096731  0.066071333   -3.5150043    1.4182734   439061 
 1238000   0.94723937    -3.517254    -3.517254   -2.0963982   0.05636819    -3.517254    1.4208558   439061 
 1239000   0.94645011   -3.5158691   -3.5158691   -2.0961972  0.059149081   -3.5158691    1.4196719   439061 
 1240000   0.94486167   -3.5152782   -3.5152782   -2.0979889  0.057916721   -3.5152782    1.4172893   439061 
 1241000   0.94535937    -3.516509    -3.516509   -2.0984732  0.061540751    -3.516509    1.4180358   439061 
 1242000   0.94508986   -3.5166014   -3.5166014   -2.0989698   0.05946731   -3.5166014    1.4176316   439061 
 1243000   0.94640442   -3.5199185   -3.5199185   -2.1003151  0.056822649   -3.5199185    1.4196034   439061 
 1244000   0.94518605   -3.5177705   -3.5177705   -2.0999946  0.059622004   -3.5177705    1.4177758   439061 
 1245000   0.94548987    -3.519421    -3.519421   -2.1011894  0.058664311    -3.519421    1.4182316   439061 
 1246000   0.94554377   -3.5211302   -3.5211302   -2.1028178  0.058098164   -3.5211302    1.4183124   439061 
 1247000   0.94580662    -3.519741    -3.519741   -2.1010343  0.062027686    -3.519741    1.4187067   439061 
 1248000   0.94654435   -3.5206466   -3.5206466   -2.1008333  0.061390836   -3.5206466    1.4198133   439061 
 1249000   0.94573552   -3.5194428   -3.5194428   -2.1008428  0.068066934   -3.5194428       1.4186   439061 
 1250000   0.94636853   -3.5217693   -3.5217693   -2.1022198   0.05907447   -3.5217693    1.4195496   439061 
 1251000   0.94626651   -3.5214334   -3.5214334   -2.1020368  0.061990246   -3.5214334    1.4193965   439061 
 1252000   0.94658417   -3.5212155   -3.5212155   -2.1013425  0.058768567   -3.5212155     1.419873   439061 
 1253000   0.94510467   -3.5204982   -3.5204982   -2.1028445  0.063164974   -3.5204982    1.4176538   439061 
 1254000   0.94601666   -3.5215565   -3.5215565   -2.1025348  0.062376032   -3.5215565    1.4190218   439061 
 1255000   0.94568238   -3.5218694   -3.5218694   -2.1033491  0.062780599   -3.5218694    1.4185203   439061 
 1256000   0.94575902   -3.5223349   -3.5223349   -2.1036996  0.062371283   -3.5223349    1.4186353   439061 
 1257000   0.94615018    -3.522962    -3.522962     -2.10374  0.065835326    -3.522962     1.419222   439061 
 1258000   0.94459092   -3.5220148   -3.5220148   -2.1051317  0.056202674   -3.5220148    1.4168831   439061 
 1259000   0.94342439   -3.5203558   -3.5203558   -2.1052224   0.05853981   -3.5203558    1.4151334   439061 
 1260000    0.9439663   -3.5200402   -3.5200402   -2.1040939  0.057995053   -3.5200402    1.4159462   439061 
 1261000   0.94252963   -3.5192436   -3.5192436   -2.1054524  0.058053094   -3.5192436    1.4137912   439061 
 1262000   0.94362138   -3.5220356   -3.5220356   -2.1066068  0.056984821   -3.5220356    1.4154288   439061 
 1263000   0.94359264   -3.5220214   -3.5220214   -2.1066356   0.05535481   -3.5220214    1.4153857   439061 
 1264000   0.94392709   -3.5222843   -3.5222843   -2.1063969  0.059550006   -3.5222843    1.4158874   439061 
 1265000    0.9448552   -3.5232007   -3.5232007   -2.1059212  0.064486885   -3.5232007    1.4172796   439061 
 1266000   0.94489763   -3.5237834   -3.5237834   -2.1064402  0.064489645   -3.5237834    1.4173432   439061 
 1267000   0.94505944   -3.5232743   -3.5232743   -2.1056884  0.061211633   -3.5232743    1.4175859   439061 
 1268000   0.94549119   -3.5238324   -3.5238324   -2.1055988  0.057157713   -3.5238324    1.4182336   439061 
 1269000   0.94428861   -3.5230048   -3.5230048   -2.1065751  0.064436146   -3.5230048    1.4164297   439061 
 1270000   0.94407051   -3.5234316   -3.5234316    -2.107329  0.063881623   -3.5234316    1.4161025   439061 
 1271000   0.94566238   -3.5245498   -3.5245498   -2.1060594  0.065227839   -3.5245498    1.4184903   439061 
 1272000   0.94561497   -3.5245549   -3.5245549   -2.1061356  0.060868178   -3.5245549    1.4184192   439061 
 1273000   0.94424229   -3.5237248   -3.5237248   -2.1073646  0.066681555   -3.5237248    1.4163602   439061 
 1274000   0.94634601   -3.5257354   -3.5257354   -2.1062196  0.061139906   -3.5257354    1.4195158   439061 
 1275000   0.94411694   -3.5232839   -3.5232839   -2.1071118  0.063030786   -3.5232839    1.4161722   439061 
 1276000   0.94518217   -3.5254016   -3.5254016   -2.1076316  0.060747617   -3.5254016      1.41777   439061 
 1277000   0.94404373   -3.5262707   -3.5262707   -2.1102084  0.058830661   -3.5262707    1.4160624   439061 
 1278000   0.94390629   -3.5249706   -3.5249706   -2.1091144  0.060360686   -3.5249706    1.4158562   439061 
 1279000   0.94317401   -3.5242464   -3.5242464   -2.1094886  0.055532383   -3.5242464    1.4147578   439061 
 1280000   0.94312818   -3.5254249   -3.5254249   -2.1107359  0.057586839   -3.5254249     1.414689   439061 
 1281000   0.94325172   -3.5252142   -3.5252142   -2.1103399  0.060697164   -3.5252142    1.4148744   439061 
 1282000   0.94369181   -3.5258564   -3.5258564   -2.1103219  0.062094595   -3.5258564    1.4155345   439061 
 1283000   0.94214387   -3.5246561   -3.5246561   -2.1114435  0.056446471   -3.5246561    1.4132126   439061 
 1284000   0.94252662   -3.5249845   -3.5249845   -2.1111977  0.065307527   -3.5249845    1.4137867   439061 
 1285000   0.94310286   -3.5267653   -3.5267653   -2.1121142  0.059012141   -3.5267653    1.4146511   439061 
 1286000   0.94415809   -3.5283702   -3.5283702   -2.1121362   0.06065378   -3.5283702    1.4162339   439061 
 1287000   0.94334146   -3.5266479   -3.5266479   -2.1116389  0.066357114   -3.5266479     1.415009   439061 
 1288000   0.94392127   -3.5286775   -3.5286775   -2.1127988  0.058083634   -3.5286775    1.4158787   439061 
 1289000   0.94425098   -3.5293866   -3.5293866   -2.1130133  0.062120442   -3.5293866    1.4163733   439061 
 1290000   0.94466181   -3.5304583   -3.5304583   -2.1134688  0.059581044   -3.5304583    1.4169895   439061 
 1291000   0.94563163   -3.5326365   -3.5326365   -2.1141923  0.057580628   -3.5326365    1.4184442   439061 
 1292000   0.94454151   -3.5301684   -3.5301684   -2.1133594  0.061451436   -3.5301684     1.416809   439061 
 1293000   0.94468866   -3.5316907   -3.5316907   -2.1146609  0.061960167   -3.5316907    1.4170298   439061 
 1294000   0.94430337   -3.5308831   -3.5308831   -2.1144313  0.063062848   -3.5308831    1.4164518   439061 
 1295000   0.94494984   -3.5305052   -3.5305052   -2.1130837  0.060375527   -3.5305052    1.4174215   439061 
 1296000   0.94529388   -3.5337708   -3.5337708   -2.1158332  0.062380731   -3.5337708    1.4179376   439061 
 1297000   0.94530393   -3.5330649   -3.5330649   -2.1151122  0.059019557   -3.5330649    1.4179527   439061 
 1298000   0.94477218   -3.5317684   -3.5317684   -2.1146134  0.065819052   -3.5317684     1.417155   439061 
 1299000   0.94452486    -3.530978    -3.530978   -2.1141939  0.060534908    -3.530978    1.4167841   439061 
 1300000   0.94345752   -3.5303863   -3.5303863   -2.1152032  0.060884653   -3.5303863    1.4151831   439061 
 1301000   0.94403393   -3.5318034   -3.5318034   -2.1157557  0.055282747   -3.5318034    1.4160477   439061 
 1302000   0.94244596   -3.5307354   -3.5307354   -2.1170697  0.057362207   -3.5307354    1.4136657   439061 
 1303000   0.94247055   -3.5313144   -3.5313144   -2.1176118  0.061361893   -3.5313144    1.4137026   439061 
 1304000   0.94438777   -3.5329193   -3.5329193   -2.1163409  0.062067974   -3.5329193    1.4165784   439061 
 1305000   0.94371103   -3.5323334   -3.5323334   -2.1167701  0.059269019   -3.5323334    1.4155633   439061 
 1306000   0.94278241   -3.5321083   -3.5321083   -2.1179379  0.062066989   -3.5321083    1.4141704   439061 
 1307000   0.94320368   -3.5328048   -3.5328048   -2.1180025  0.058903438   -3.5328048    1.4148023   439061 
 1308000   0.94320221   -3.5315008   -3.5315008   -2.1167007  0.066960436   -3.5315008    1.4148001   439061 
 1309000   0.94311391   -3.5328145   -3.5328145   -2.1181468  0.060004059   -3.5328145    1.4146676   439061 
 1310000   0.94328373   -3.5336101   -3.5336101   -2.1186878  0.061516838   -3.5336101    1.4149224   439061 
 1311000   0.94347418    -3.535504    -3.535504   -2.1202959  0.056555053    -3.535504     1.415208   439061 
 1312000   0.94274913   -3.5338164   -3.5338164   -2.1196959  0.061301121   -3.5338164    1.4141205   439061 
 1313000   0.94408198   -3.5356594   -3.5356594   -2.1195397  0.059892506   -3.5356594    1.4161197   439061 
 1314000   0.94252911   -3.5332123   -3.5332123   -2.1194219  0.059758443   -3.5332123    1.4137904   439061 
 1315000   0.94392504   -3.5373846   -3.5373846   -2.1215002  0.060681627   -3.5373846    1.4158843   439061 
 1316000   0.94322919    -3.536737    -3.536737   -2.1218964   0.06177521    -3.536737    1.4148406   439061 
 1317000   0.94389757   -3.5384209   -3.5384209   -2.1225778  0.056207266   -3.5384209    1.4158431   439061 
 1318000   0.94319958   -3.5370954   -3.5370954   -2.1222993  0.057671607   -3.5370954    1.4147961   439061 
 1319000   0.94375436   -3.5390095   -3.5390095   -2.1233812  0.054255833   -3.5390095    1.4156283   439061 
 1320000    0.9414301   -3.5349179   -3.5349179   -2.1227759  0.052158425   -3.5349179    1.4121419   439061 
 1321000   0.94386713   -3.5398194   -3.5398194   -2.1240219  0.050433795   -3.5398194    1.4157975   439061 
 1322000   0.94131496   -3.5379344   -3.5379344   -2.1259652  0.062792048   -3.5379344    1.4119692   439061 
 1323000    0.9428969   -3.5393674   -3.5393674   -2.1250252  0.061985177   -3.5393674    1.4143421   439061 
 1324000   0.94400521   -3.5389945   -3.5389945   -2.1229899  0.063920812   -3.5389945    1.4160046   439061 
 1325000   0.94404745   -3.5396114   -3.5396114   -2.1235435  0.059943481   -3.5396114     1.416068   439061 
 1326000   0.94413915   -3.5395132   -3.5395132   -2.1233077  0.061178432   -3.5395132    1.4162055   439061 
 1327000   0.94333961   -3.5379911   -3.5379911   -2.1229849  0.060457201   -3.5379911    1.4150062   439061 
 1328000   0.94432619   -3.5396146   -3.5396146   -2.1231286  0.062785171   -3.5396146    1.4164861   439061 
 1329000   0.94379202   -3.5382126   -3.5382126   -2.1225278  0.057986319   -3.5382126    1.4156848   439061 
 1330000   0.94285581     -3.53858     -3.53858   -2.1242995  0.062784015     -3.53858    1.4142805   439061 
 1331000   0.94345481   -3.5393832   -3.5393832   -2.1242042  0.062498314   -3.5393832     1.415179   439061 
 1332000   0.94141578   -3.5387763   -3.5387763   -2.1266559  0.058518646   -3.5387763    1.4121205   439061 
 1333000   0.94273726   -3.5405754   -3.5405754   -2.1264727  0.058142656   -3.5405754    1.4141027   439061 
 1334000   0.94120863   -3.5386995   -3.5386995   -2.1268898  0.057547984   -3.5386995    1.4118097   439061 
 1335000   0.94158182   -3.5387654   -3.5387654   -2.1263959  0.056016553   -3.5387654    1.4123695   439061 
 1336000   0.94114439   -3.5397271   -3.5397271   -2.1280137  0.060902033   -3.5397271    1.4117134   439061 
 1337000   0.94086145   -3.5387147   -3.5387147   -2.1274257  0.058756795   -3.5387147     1.411289   439061 
 1338000   0.94058633   -3.5396435   -3.5396435   -2.1287673    0.0553405   -3.5396435    1.4108763   439061 
 1339000   0.94232943   -3.5413393   -3.5413393   -2.1278483  0.062120526   -3.5413393    1.4134909   439061 
 1340000   0.94301912   -3.5428823   -3.5428823   -2.1283569  0.057215124   -3.5428823    1.4145255   439061 
 1341000   0.94194726   -3.5410031   -3.5410031   -2.1280854   0.06141305   -3.5410031    1.4129177   439061 
 1342000   0.94192059   -3.5407677   -3.5407677     -2.12789  0.062385306   -3.5407677    1.4128777   439061 
 1343000   0.94344046   -3.5434578   -3.5434578   -2.1283003  0.060858426   -3.5434578    1.4151575   439061 
 1344000   0.94356431   -3.5439315   -3.5439315   -2.1285882   0.06278881   -3.5439315    1.4153432   439061 
 1345000   0.94256046   -3.5434699   -3.5434699   -2.1296324  0.062141779   -3.5434699    1.4138375   439061 
 1346000   0.94353067   -3.5449294   -3.5449294   -2.1296366  0.058102175   -3.5449294    1.4152928   439061 
 1347000   0.94235475   -3.5431414   -3.5431414   -2.1296125  0.058855832   -3.5431414    1.4135289   439061 
 1348000   0.94310829   -3.5436785   -3.5436785   -2.1290193   0.06265478   -3.5436785    1.4146592   439061 
 1349000    0.9406848   -3.5414483   -3.5414483   -2.1304243  0.057189852   -3.5414483     1.411024   439061 
 1350000   0.94053936   -3.5416933   -3.5416933   -2.1308875  0.065091476   -3.5416933    1.4108058   439061 
 1351000   0.94191645    -3.544411    -3.544411   -2.1315396  0.059484985    -3.544411    1.4128715   439061 
 1352000   0.94168054   -3.5439573   -3.5439573   -2.1314398  0.059389239   -3.5439573    1.4125176   439061 
 1353000   0.94055675   -3.5422089   -3.5422089   -2.1313769  0.056968625   -3.5422089    1.4108319   439061 
 1354000   0.94060675   -3.5415066   -3.5415066   -2.1305997  0.062317768   -3.5415066    1.4109069   439061 
 1355000   0.94075912   -3.5426246   -3.5426246   -2.1314891   0.05845319   -3.5426246    1.4111355   439061 
 1356000   0.94047468   -3.5428356   -3.5428356   -2.1321268  0.058160255   -3.5428356    1.4107088   439061 
 1357000   0.94157419   -3.5447968   -3.5447968   -2.1324388  0.054975379   -3.5447968    1.4123581   439061 
 1358000   0.93961053    -3.541756    -3.541756   -2.1323434  0.056029943    -3.541756    1.4094126   439061 
 1359000   0.94102641   -3.5445461   -3.5445461   -2.1330097  0.061643058   -3.5445461    1.4115364   439061 
 1360000   0.94111076   -3.5444057   -3.5444057   -2.1327428  0.062403794   -3.5444057    1.4116629   439061 
 1361000   0.94092246   -3.5436744   -3.5436744   -2.1322939  0.058752541   -3.5436744    1.4113805   439061 
 1362000   0.94263962   -3.5462958   -3.5462958   -2.1323396  0.059490053   -3.5462958    1.4139562   439061 
 1363000   0.94098133   -3.5459993   -3.5459993   -2.1345305  0.061766815   -3.5459993    1.4114688   439061 
 1364000   0.94160719   -3.5471823   -3.5471823   -2.1347748  0.058796175   -3.5471823    1.4124076   439061 
 1365000   0.94048542   -3.5469261   -3.5469261   -2.1362011  0.059208658   -3.5469261    1.4107249   439061 
 1366000   0.94209138   -3.5483462   -3.5483462   -2.1352124  0.060322077   -3.5483462    1.4131339   439061 
 1367000   0.94116806   -3.5468609   -3.5468609    -2.135112  0.059570252   -3.5468609    1.4117489   439061 
 1368000   0.94031441   -3.5470035   -3.5470035   -2.1365351  0.057661426   -3.5470035    1.4104684   439061 
 1369000   0.94089375    -3.549785    -3.549785   -2.1384476  0.056676768    -3.549785    1.4113374   439061 
 1370000   0.94054396   -3.5488177   -3.5488177    -2.138005  0.057078812   -3.5488177    1.4108127   439061 
 1371000   0.94063522   -3.5487373   -3.5487373   -2.1377877  0.059484251   -3.5487373    1.4109496   439061 
 1372000   0.94096607   -3.5522645   -3.5522645   -2.1408186  0.056459857   -3.5522645    1.4114459   439061 
 1373000    0.9408622   -3.5496064   -3.5496064   -2.1383164  0.057705133   -3.5496064    1.4112901   439061 
 1374000   0.94056985   -3.5511907   -3.5511907   -2.1403391  0.055945121   -3.5511907    1.4108516   439061 
 1375000   0.94011698   -3.5504638   -3.5504638   -2.1402915   0.05457436   -3.5504638    1.4101723   439061 
 1376000   0.93978995   -3.5510019   -3.5510019   -2.1413202  0.059212563   -3.5510019    1.4096817   439061 
 1377000   0.94116311   -3.5529043   -3.5529043   -2.1411628  0.054459631   -3.5529043    1.4117415   439061 
 1378000   0.94052419   -3.5532517   -3.5532517   -2.1424686  0.055318988   -3.5532517    1.4107831   439061 
 1379000   0.94174201   -3.5542264   -3.5542264   -2.1416166  0.056093177   -3.5542264    1.4126098   439061 
 1380000   0.94097722   -3.5521317   -3.5521317   -2.1406691  0.063532948   -3.5521317    1.4114626   439061 
 1381000   0.94140754   -3.5531077   -3.5531077   -2.1409996  0.060620742   -3.5531077    1.4121081   439061 
 1382000    0.9404574   -3.5512456   -3.5512456   -2.1405627  0.062972641   -3.5512456    1.4106829   439061 
 1383000   0.94081166   -3.5527811   -3.5527811   -2.1415669  0.063494082   -3.5527811    1.4112143   439061 
 1384000   0.94037186   -3.5530177   -3.5530177   -2.1424631  0.061921025   -3.5530177    1.4105546   439061 
 1385000   0.94072092   -3.5537888   -3.5537888   -2.1427106  0.055250045   -3.5537888    1.4110782   439061 
 1386000   0.93954792   -3.5541579   -3.5541579   -2.1448392  0.059267642   -3.5541579    1.4093187   439061 
 1387000   0.93956712   -3.5552799   -3.5552799   -2.1459325  0.058948109   -3.5552799    1.4093475   439061 
 1388000   0.94174954   -3.5572913   -3.5572913   -2.1446702  0.054626555   -3.5572913    1.4126211   439061 
 1389000   0.93983707   -3.5549618   -3.5549618   -2.1452094  0.055709412   -3.5549618    1.4097524   439061 
 1390000   0.94008821   -3.5550891   -3.5550891     -2.14496  0.057421048   -3.5550891    1.4101291   439061 
 1391000    0.9402132   -3.5567368   -3.5567368   -2.1464202  0.057701317   -3.5567368    1.4103166   439061 
 1392000   0.93988021   -3.5555983   -3.5555983   -2.1457812  0.057885114   -3.5555983    1.4098171   439061 
 1393000   0.93914303    -3.555608    -3.555608   -2.1468967  0.062307875    -3.555608    1.4087113   439061 
 1394000   0.93991156   -3.5563982   -3.5563982   -2.1465341   0.05607581   -3.5563982    1.4098641   439061 
 1395000   0.93988461   -3.5575505   -3.5575505   -2.1477268  0.057225635   -3.5575505    1.4098237   439061 
 1396000   0.94017013   -3.5576822   -3.5576822   -2.1474302  0.053916519   -3.5576822     1.410252   439061 
 1397000   0.93977163   -3.5582229   -3.5582229   -2.1485687  0.057026412   -3.5582229    1.4096542   439061 
 1398000     0.940261   -3.5594668   -3.5594668   -2.1490785  0.057087879   -3.5594668    1.4103883   439061 
 1399000    0.9383994    -3.555866    -3.555866   -2.1482701   0.05886335    -3.555866    1.4075959   439061 
 1400000   0.93870038   -3.5559818   -3.5559818   -2.1479344  0.058108198   -3.5559818    1.4080474   439061 
 1401000    0.9392856   -3.5562109   -3.5562109   -2.1472858  0.061379083   -3.5562109    1.4089252   439061 
 1402000    0.9395218   -3.5565767   -3.5565767   -2.1472972  0.059553342   -3.5565767    1.4092795   439061 
 1403000   0.93984473   -3.5585958   -3.5585958   -2.1488319  0.059843102   -3.5585958    1.4097639   439061 
 1404000   0.94034516   -3.5592597   -3.5592597   -2.1487452  0.057117546   -3.5592597    1.4105145   439061 
 1405000   0.94093699   -3.5593114   -3.5593114   -2.1479091   0.06017139   -3.5593114    1.4114023   439061 
 1406000   0.93932153   -3.5564817   -3.5564817   -2.1475026  0.059234089   -3.5564817    1.4089791   439061 
 1407000    0.9384108    -3.557267    -3.557267    -2.149654  0.058296338    -3.557267     1.407613   439061 
 1408000   0.94046998   -3.5594035   -3.5594035   -2.1487017  0.052724923   -3.5594035    1.4107018   439061 
 1409000   0.93917531   -3.5575632   -3.5575632   -2.1488034  0.061069796   -3.5575632    1.4087598   439061 
 1410000   0.93913437   -3.5601347   -3.5601347   -2.1514363  0.052750999   -3.5601347    1.4086983   439061 
 1411000   0.94026651     -3.56053     -3.56053   -2.1501335  0.055065711     -3.56053    1.4103966   439061 
 1412000    0.9384455   -3.5603912   -3.5603912   -2.1527261   0.05383523   -3.5603912     1.407665   439061 
 1413000   0.93822003   -3.5602072   -3.5602072   -2.1528804  0.054501161   -3.5602072    1.4073268   439061 
 1414000    0.9393085   -3.5609716   -3.5609716   -2.1520121  0.054554468   -3.5609716    1.4089595   439061 
 1415000   0.93957671   -3.5611133   -3.5611133   -2.1517514  0.060131997   -3.5611133    1.4093618   439061 
 1416000   0.93814176   -3.5613863   -3.5613863   -2.1541769  0.054317909   -3.5613863    1.4072094   439061 
 1417000   0.93906635   -3.5619263   -3.5619263   -2.1533299  0.059355696   -3.5619263    1.4085963   439061 
 1418000   0.93977153   -3.5625697   -3.5625697   -2.1529157  0.058791941   -3.5625697    1.4096541   439061 
 1419000   0.93980408   -3.5639085   -3.5639085   -2.1542056  0.058885921   -3.5639085    1.4097029   439061 
 1420000   0.94080015    -3.564825    -3.564825    -2.153628  0.058262498    -3.564825     1.411197   439061 
 1421000   0.94031258   -3.5656845   -3.5656845   -2.1552188  0.058849981   -3.5656845    1.4104657   439061 
 1422000   0.94004386   -3.5653222   -3.5653222   -2.1552596   0.06223883   -3.5653222    1.4100626   439061 
 1423000   0.94154139   -3.5670424   -3.5670424   -2.1547336  0.058639277   -3.5670424    1.4123089   439061 
 1424000   0.93963542   -3.5647589   -3.5647589   -2.1553089   0.06234274   -3.5647589    1.4094499   439061 
 1425000   0.94130717    -3.568247    -3.568247   -2.1562894  0.058352771    -3.568247    1.4119575   439061 
 1426000   0.94109081   -3.5678308   -3.5678308   -2.1561978  0.055078656   -3.5678308     1.411633   439061 
 1427000   0.93968163     -3.56679     -3.56679   -2.1572708  0.054089771     -3.56679    1.4095192   439061 
 1428000   0.93857176   -3.5663262   -3.5663262   -2.1584718   0.05434971   -3.5663262    1.4078544   439061 
 1429000   0.93809302   -3.5657555   -3.5657555   -2.1586192  0.058309516   -3.5657555    1.4071363   439061 
 1430000   0.93884641   -3.5679229   -3.5679229   -2.1596565  0.056469665   -3.5679229    1.4082664   439061 
 1431000   0.93906649   -3.5666685   -3.5666685    -2.158072  0.055701798   -3.5666685    1.4085965   439061 
 1432000   0.93798904   -3.5657238   -3.5657238   -2.1587435  0.057089052   -3.5657238    1.4069804   439061 
 1433000   0.93749893   -3.5662062   -3.5662062    -2.159961  0.054422902   -3.5662062    1.4062452   439061 
 1434000   0.93691417   -3.5644853   -3.5644853   -2.1591172  0.060056491   -3.5644853    1.4053681   439061 
 1435000   0.93834359   -3.5652772   -3.5652772    -2.157765  0.053358628   -3.5652772    1.4075122   439061 
 1436000   0.93958582   -3.5668278   -3.5668278   -2.1574523   0.05868217   -3.5668278    1.4093755   439061 
 1437000   0.93998986   -3.5682069   -3.5682069   -2.1582253  0.056616944   -3.5682069    1.4099816   439061 
 1438000   0.93986598   -3.5676296   -3.5676296   -2.1578338   0.05524676   -3.5676296    1.4097958   439061 
 1439000   0.93969632    -3.568511    -3.568511   -2.1589697  0.055813563    -3.568511    1.4095413   439061 
 1440000   0.93842507   -3.5669914   -3.5669914    -2.159357  0.055000423   -3.5669914    1.4076344   439061 
 1441000   0.93921171   -3.5677655   -3.5677655   -2.1589511  0.056198154   -3.5677655    1.4088144   439061 
 1442000   0.93936253   -3.5670806   -3.5670806     -2.15804  0.056872803   -3.5670806    1.4090406   439061 
 1443000   0.93772803   -3.5663425   -3.5663425   -2.1597537  0.054480224   -3.5663425    1.4065888   439061 
 1444000   0.93696721   -3.5670498   -3.5670498   -2.1616022  0.059165247   -3.5670498    1.4054476   439061 
 1445000   0.93811485   -3.5690241   -3.5690241   -2.1618551  0.056417997   -3.5690241    1.4071691   439061 
 1446000   0.93703592   -3.5693149   -3.5693149   -2.1637642  0.051642395   -3.5693149    1.4055507   439061 
 1447000   0.93842597   -3.5706621   -3.5706621   -2.1630263  0.053027728   -3.5706621    1.4076358   439061 
 1448000   0.93846964   -3.5692367   -3.5692367   -2.1615354  0.058164785   -3.5692367    1.4077013   439061 
 1449000    0.9395181   -3.5706498   -3.5706498   -2.1613759  0.055799688   -3.5706498    1.4092739   439061 
 1450000   0.93880546   -3.5703234   -3.5703234   -2.1621184  0.062238668   -3.5703234     1.408205   439061 
 1451000   0.93846295   -3.5719198   -3.5719198   -2.1642286  0.057323437   -3.5719198    1.4076912   439061 
 1452000   0.93840383   -3.5725972   -3.5725972   -2.1649947  0.059738164   -3.5725972    1.4076025   439061 
 1453000   0.93997937   -3.5735999   -3.5735999   -2.1636341  0.061147675   -3.5735999    1.4099658   439061 
 1454000    0.9389573   -3.5743457   -3.5743457    -2.165913  0.049862701   -3.5743457    1.4084327   439061 
 1455000   0.93803379   -3.5737041   -3.5737041   -2.1666566  0.058573445   -3.5737041    1.4070475   439061 
 1456000   0.93954949   -3.5758539   -3.5758539   -2.1665329  0.053612737   -3.5758539     1.409321   439061 
 1457000    0.9399343   -3.5758469   -3.5758469   -2.1659487  0.063191617   -3.5758469    1.4098982   439061 
 1458000    0.9393373   -3.5761141   -3.5761141   -2.1671113  0.060163984   -3.5761141    1.4090027   439061 
 1459000   0.93826897   -3.5760118   -3.5760118   -2.1686116  0.057202369   -3.5760118    1.4074002   439061 
 1460000   0.93841642   -3.5764663   -3.5764663   -2.1688449  0.053984337   -3.5764663    1.4076214   439061 
 1461000   0.93760678   -3.5776049   -3.5776049   -2.1711979  0.055534775   -3.5776049     1.406407   439061 
 1462000     0.936423   -3.5751377   -3.5751377   -2.1705064  0.056385651   -3.5751377    1.4046313   439061 
 1463000   0.93723863   -3.5761825   -3.5761825   -2.1703277  0.053178817   -3.5761825    1.4058547   439061 
 1464000   0.93582497   -3.5734532   -3.5734532   -2.1697189  0.053902022   -3.5734532    1.4037343   439061 
 1465000   0.93610314   -3.5736387   -3.5736387   -2.1694871  0.057876976   -3.5736387    1.4041515   439061 
 1466000   0.93712358   -3.5759663   -3.5759663   -2.1702841  0.055156072   -3.5759663    1.4056822   439061 
 1467000   0.93656989   -3.5748667   -3.5748667    -2.170015  0.054621074   -3.5748667    1.4048516   439061 
 1468000   0.93724924   -3.5748626   -3.5748626   -2.1689919  0.056973755   -3.5748626    1.4058707   439061 
 1469000   0.93784767   -3.5754421   -3.5754421   -2.1686738  0.056786491   -3.5754421    1.4067683   439061 
 1470000   0.93727577   -3.5757501   -3.5757501   -2.1698396  0.053340776   -3.5757501    1.4059105   439061 
 1471000   0.93861566   -3.5776415   -3.5776415   -2.1697213  0.051873648   -3.5776415    1.4079203   439061 
 1472000   0.93648018   -3.5754313   -3.5754313   -2.1707142  0.057808143   -3.5754313    1.4047171   439061 
 1473000   0.93698748   -3.5783222   -3.5783222   -2.1728442  0.055165626   -3.5783222     1.405478   439061 
 1474000   0.93691851    -3.578317    -3.578317   -2.1729424  0.051982184    -3.578317    1.4053746   439061 
 1475000   0.93707177   -3.5771657   -3.5771657   -2.1715613  0.058874971   -3.5771657    1.4056045   439061 
 1476000   0.93654593   -3.5778782   -3.5778782   -2.1730625  0.054821123   -3.5778782    1.4048157   439061 
 1477000   0.93636909   -3.5769215   -3.5769215    -2.172371  0.062467843   -3.5769215    1.4045504   439061 
 1478000   0.93759733   -3.5784198   -3.5784198    -2.172027  0.059046161   -3.5784198    1.4063928   439061 
 1479000   0.93721997    -3.580006    -3.580006   -2.1741793  0.058907377    -3.580006    1.4058267   439061 
 1480000   0.93738898    -3.579029    -3.579029   -2.1729487  0.057795173    -3.579029    1.4060803   439061 
 1481000    0.9360801   -3.5789478   -3.5789478   -2.1748309   0.05542566   -3.5789478     1.404117   439061 
 1482000   0.93683855   -3.5788617   -3.5788617   -2.1736071  0.058104537   -3.5788617    1.4052546   439061 
 1483000   0.93678007   -3.5789901   -3.5789901   -2.1738232  0.060497856   -3.5789901    1.4051669   439061 
 1484000   0.93572745   -3.5785535   -3.5785535   -2.1749655  0.058538296   -3.5785535     1.403588   439061 
 1485000   0.93714131   -3.5809989   -3.5809989   -2.1752902  0.055961914   -3.5809989    1.4057088   439061 
 1486000    0.9383454   -3.5798512   -3.5798512   -2.1723363  0.060525679   -3.5798512    1.4075149   439061 
 1487000   0.93756117   -3.5795417   -3.5795417   -2.1732031  0.056987928   -3.5795417    1.4063386   439061 
 1488000   0.93758182   -3.5796287   -3.5796287   -2.1732591  0.056689937   -3.5796287    1.4063695   439061 
 1489000    0.9358095   -3.5791638   -3.5791638   -2.1754527   0.05599117   -3.5791638     1.403711   439061 
 1490000   0.93589283   -3.5803524   -3.5803524   -2.1765164   0.05078249   -3.5803524     1.403836   439061 
 1491000   0.93572694   -3.5811785   -3.5811785   -2.1775913  0.053460047   -3.5811785    1.4035872   439061 
 1492000   0.93588187   -3.5802379   -3.5802379   -2.1764183  0.053524341   -3.5802379    1.4038196   439061 
 1493000   0.93514668   -3.5814897   -3.5814897   -2.1787728  0.049693412   -3.5814897    1.4027168   439061 
 1494000    0.9346028   -3.5798699   -3.5798699   -2.1779689  0.054294147   -3.5798699     1.401901   439061 
 1495000   0.93520347   -3.5818279   -3.5818279   -2.1790258  0.053332548   -3.5818279     1.402802   439061 
 1496000   0.93508342   -3.5822712   -3.5822712   -2.1796493  0.055951912   -3.5822712    1.4026219   439061 
 1497000   0.93557159   -3.5829455   -3.5829455   -2.1795913  0.060122149   -3.5829455    1.4033542   439061 
 1498000   0.93742716   -3.5862069   -3.5862069   -2.1800693  0.055637406   -3.5862069    1.4061375   439061 
 1499000    0.9370637   -3.5857782   -3.5857782   -2.1801858  0.057026039   -3.5857782    1.4055924   439061 
 1500000   0.93637392   -3.5846803   -3.5846803   -2.1801226  0.057404382   -3.5846803    1.4045577   439061 
 1501000   0.93737487   -3.5866869   -3.5866869   -2.1806278  0.057060905   -3.5866869    1.4060591   439061 
 1502000   0.93655531   -3.5841466   -3.5841466   -2.1793168   0.06503369   -3.5841466    1.4048298   439061 
 1503000   0.93680252    -3.586491    -3.586491   -2.1812904  0.060744851    -3.586491    1.4052006   439061 
 1504000   0.93656927   -3.5865981   -3.5865981   -2.1817474  0.058466926   -3.5865981    1.4048507   439061 
 1505000   0.93619612   -3.5857034   -3.5857034   -2.1814124   0.05530696   -3.5857034     1.404291   439061 
 1506000   0.93519962   -3.5862669   -3.5862669   -2.1834707  0.054754669   -3.5862669    1.4027962   439061 
 1507000   0.93624402   -3.5869412   -3.5869412   -2.1825784  0.053643458   -3.5869412    1.4043628   439061 
 1508000   0.93704437   -3.5886786   -3.5886786   -2.1831152  0.053288317   -3.5886786    1.4055634   439061 
 1509000   0.93546204    -3.586735    -3.586735   -2.1835451    0.0549334    -3.586735    1.4031899   439061 
 1510000    0.9347366   -3.5862996   -3.5862996   -2.1841978  0.050459326   -3.5862996    1.4021017   439061 
 1511000   0.93445857    -3.586728    -3.586728   -2.1850433  0.050176709    -3.586728    1.4016847   439061 
 1512000   0.93417881   -3.5859154   -3.5859154   -2.1846504    0.0577064   -3.5859154     1.401265   439061 
 1513000   0.93458125   -3.5868559   -3.5868559   -2.1849872  0.055209406   -3.5868559    1.4018687   439061 
 1514000   0.93540209   -3.5883353   -3.5883353   -2.1852353  0.048786057   -3.5883353    1.4030999   439061 
 1515000   0.93460498    -3.587205    -3.587205   -2.1853007  0.054872341    -3.587205    1.4019043   439061 
 1516000   0.93511053   -3.5879937   -3.5879937   -2.1853311  0.052875099   -3.5879937    1.4026626   439061 
 1517000   0.93541838   -3.5883151   -3.5883151   -2.1851907  0.053060757   -3.5883151    1.4031244   439061 
 1518000   0.93588889   -3.5895611   -3.5895611    -2.185731  0.057263327   -3.5895611    1.4038301   439061 
 1519000   0.93651261   -3.5902819   -3.5902819   -2.1855162  0.051952052   -3.5902819    1.4047657   439061 
 1520000   0.93522777   -3.5880395   -3.5880395    -2.185201  0.055567351   -3.5880395    1.4028385   439061 
 1521000   0.93642134   -3.5889841   -3.5889841   -2.1843553  0.056707408   -3.5889841    1.4046288   439061 
 1522000   0.93570756   -3.5889076   -3.5889076   -2.1853495  0.060539327   -3.5889076    1.4035581   439061 
 1523000   0.93557587   -3.5883901   -3.5883901   -2.1850295  0.058858803   -3.5883901    1.4033606   439061 
 1524000   0.93460396   -3.5873798   -3.5873798    -2.185477  0.060385119   -3.5873798    1.4019027   439061 
 1525000    0.9355508   -3.5883015   -3.5883015   -2.1849785   0.06130339   -3.5883015     1.403323   439061 
 1526000   0.93585303    -3.588722    -3.588722   -2.1849457  0.056367511    -3.588722    1.4037763   439061 
 1527000   0.93662732   -3.5904672   -3.5904672   -2.1855294   0.05326924   -3.5904672    1.4049378   439061 
 1528000   0.93450371   -3.5878632   -3.5878632   -2.1861108  0.060757621   -3.5878632    1.4017524   439061 
 1529000   0.93457003   -3.5885017   -3.5885017   -2.1866499  0.055727492   -3.5885017    1.4018519   439061 
 1530000   0.93428144   -3.5884309   -3.5884309    -2.187012  0.054513311   -3.5884309     1.401419   439061 
 1531000   0.93353588   -3.5881616   -3.5881616    -2.187861  0.053836461   -3.5881616    1.4003006   439061 
 1532000   0.93361483   -3.5877853   -3.5877853   -2.1873662  0.055491993   -3.5877853    1.4004191   439061 
 1533000   0.93416354   -3.5884519   -3.5884519   -2.1872098  0.053593343   -3.5884519    1.4012421   439061 
 1534000   0.93440296   -3.5885194   -3.5885194   -2.1869182  0.052559812   -3.5885194    1.4016012   439061 
 1535000   0.93554838   -3.5909492   -3.5909492   -2.1876298  0.054590987   -3.5909492    1.4033194   439061 
 1536000    0.9364594   -3.5915912   -3.5915912   -2.1869053  0.047182179   -3.5915912    1.4046859   439061 
 1537000   0.93632329    -3.590375    -3.590375   -2.1858933   0.05671235    -3.590375    1.4044817   439061 
 1538000     0.937228   -3.5913981   -3.5913981   -2.1855593  0.056341549   -3.5913981    1.4058388   439061 
 1539000    0.9362766   -3.5898821   -3.5898821   -2.1854704  0.055051306   -3.5898821    1.4044117   439061 
 1540000   0.93490145   -3.5894549   -3.5894549    -2.187106  0.053067966   -3.5894549     1.402349   439061 
 1541000   0.93483784   -3.5897148   -3.5897148   -2.1874612  0.051065257   -3.5897148    1.4022536   439061 
 1542000   0.93446885   -3.5913777   -3.5913777   -2.1896776  0.049824649   -3.5913777    1.4017001   439061 
 1543000   0.93485564   -3.5911394   -3.5911394   -2.1888591  0.051270869   -3.5911394    1.4022803   439061 
 1544000   0.93460293   -3.5920529   -3.5920529   -2.1901517  0.047716736   -3.5920529    1.4019012   439061 
 1545000   0.93421528   -3.5926361   -3.5926361   -2.1913164  0.049095292   -3.5926361    1.4013197   439061 
 1546000   0.93252361   -3.5918431   -3.5918431   -2.1930608  0.048734281   -3.5918431    1.3987822   439061 
 1547000   0.93383072   -3.5922746   -3.5922746   -2.1915317  0.050919931   -3.5922746    1.4007429   439061 
 1548000   0.93508143   -3.5930217   -3.5930217   -2.1904028  0.054677858   -3.5930217     1.402619   439061 
 1549000   0.93489568    -3.593034    -3.593034   -2.1906937  0.053903561    -3.593034    1.4023403   439061 
 1550000   0.93463733   -3.5928759   -3.5928759   -2.1909231  0.054567787   -3.5928759    1.4019528   439061 
 1551000   0.93513418   -3.5928931   -3.5928931    -2.190195  0.056229573   -3.5928931    1.4026981   439061 
 1552000   0.93524387   -3.5929769   -3.5929769   -2.1901143  0.061636083   -3.5929769    1.4028626   439061 
 1553000   0.93637138   -3.5935546   -3.5935546   -2.1890007  0.058840517   -3.5935546    1.4045539   439061 
 1554000    0.9370233   -3.5957163   -3.5957163   -2.1901846  0.047467446   -3.5957163    1.4055317   439061 
 1555000   0.93519505   -3.5936144   -3.5936144   -2.1908251  0.055828537   -3.5936144    1.4027894   439061 
 1556000   0.93505375   -3.5952574   -3.5952574     -2.19268  0.053038827   -3.5952574    1.4025774   439061 
 1557000   0.93441891   -3.5955936   -3.5955936   -2.1939684  0.054278753   -3.5955936    1.4016252   439061 
 1558000   0.93349298   -3.5942436   -3.5942436   -2.1940073  0.047029495   -3.5942436    1.4002363   439061 
 1559000   0.93363945   -3.5944831   -3.5944831   -2.1940271  0.050777708   -3.5944831     1.400456   439061 
 1560000   0.93373478    -3.595388    -3.595388    -2.194789  0.049746333    -3.595388     1.400599   439061 
 1561000   0.93303357   -3.5969535   -3.5969535   -2.1974064  0.055177619   -3.5969535    1.3995472   439061 
 1562000   0.93331193   -3.5951364   -3.5951364   -2.1951717  0.052951782   -3.5951364    1.3999647   439061 
 1563000   0.93459429   -3.5979037   -3.5979037   -2.1960154  0.051267435   -3.5979037    1.4018882   439061 
 1564000    0.9338526   -3.5971064   -3.5971064   -2.1963307  0.049717452   -3.5971064    1.4007757   439061 
 1565000   0.93335233   -3.5959953   -3.5959953     -2.19597  0.053120011   -3.5959953    1.4000253   439061 
 1566000   0.93315291   -3.5970118   -3.5970118   -2.1972856  0.056452501   -3.5970118    1.3997262   439061 
 1567000   0.93463556   -3.5980322   -3.5980322   -2.1960821  0.052441524   -3.5980322    1.4019501   439061 
 1568000   0.93411589   -3.5990965   -3.5990965   -2.1979259  0.052638563   -3.5990965    1.4011706   439061 
 1569000   0.93396667   -3.5996816   -3.5996816   -2.1987348  0.052428986   -3.5996816    1.4009468   439061 
 1570000   0.93314505    -3.597995    -3.597995   -2.1982806  0.054359574    -3.597995    1.3997144   439061 
 1571000   0.93213903   -3.5981275   -3.5981275   -2.1999222  0.055169557   -3.5981275    1.3982054   439061 
 1572000   0.93224248    -3.597958    -3.597958   -2.1995975    0.0543803    -3.597958    1.3983605   439061 
 1573000   0.93350727   -3.6009327   -3.6009327    -2.200675   0.04690103   -3.6009327    1.4002577   439061 
 1574000   0.93387866   -3.6004838   -3.6004838    -2.199669  0.055782357   -3.6004838    1.4008148   439061 
 1575000   0.93431457   -3.5996031   -3.5996031   -2.1981345  0.054184888   -3.5996031    1.4014687   439061 
 1576000   0.93312207   -3.5991777   -3.5991777   -2.1994978  0.055576611   -3.5991777    1.3996799   439061 
 1577000   0.93516484   -3.6020508   -3.6020508   -2.1993067  0.051484879   -3.6020508    1.4027441   439061 
 1578000    0.9344506   -3.6001111   -3.6001111   -2.1984384  0.058455255   -3.6001111    1.4016727   439061 
 1579000    0.9343441   -3.6015508   -3.6015508   -2.2000379  0.049772444   -3.6015508     1.401513   439061 
 1580000   0.93380338   -3.6013573   -3.6013573   -2.2006554  0.056520117   -3.6013573    1.4007019   439061 
 1581000   0.93402477   -3.6018954   -3.6018954   -2.2008615  0.051219335   -3.6018954     1.401034   439061 
 1582000   0.93366748   -3.6006499   -3.6006499   -2.2001519  0.053474903   -3.6006499     1.400498   439061 
 1583000   0.93308059   -3.6003478   -3.6003478   -2.2007301  0.052909166   -3.6003478    1.3996177   439061 
 1584000   0.93220584   -3.5992442   -3.5992442   -2.2009386  0.053054248   -3.5992442    1.3983056   439061 
 1585000   0.93395527   -3.6024614   -3.6024614   -2.2015317  0.052710276   -3.6024614    1.4009297   439061 
 1586000   0.93392114   -3.6018309   -3.6018309   -2.2009523  0.051811266   -3.6018309    1.4008785   439061 
 1587000   0.93418609   -3.6025114   -3.6025114   -2.2012355  0.050140523   -3.6025114    1.4012759   439061 
 1588000   0.93443563   -3.6028932   -3.6028932    -2.201243  0.052573484   -3.6028932    1.4016502   439061 
 1589000   0.93413747   -3.6013273   -3.6013273   -2.2001243  0.050405987   -3.6013273     1.401203   439061 
 1590000   0.93300237   -3.6015523   -3.6015523   -2.2020519  0.048738093   -3.6015523    1.3995004   439061 
 1591000   0.93388519   -3.6025933   -3.6025933   -2.2017687  0.051148179   -3.6025933    1.4008246   439061 
 1592000   0.93456725   -3.6042267   -3.6042267    -2.202379  0.046089519   -3.6042267    1.4018477   439061 
 1593000   0.93179563   -3.6002425   -3.6002425   -2.2025523  0.052610074   -3.6002425    1.3976903   439061 
 1594000   0.93366682   -3.6025097   -3.6025097   -2.2020126  0.053891115   -3.6025097     1.400497   439061 
 1595000   0.93472945    -3.602805    -3.602805    -2.200714  0.053497886    -3.602805     1.402091   439061 
 1596000   0.93608479   -3.6053562   -3.6053562   -2.2012322  0.056522614   -3.6053562     1.404124   439061 
 1597000   0.93478526   -3.6050708   -3.6050708   -2.2028961  0.050750379   -3.6050708    1.4021747   439061 
 1598000   0.93651519   -3.6062894   -3.6062894   -2.2015198  0.054777086   -3.6062894    1.4047696   439061 
 1599000   0.93461043   -3.6049351   -3.6049351   -2.2030226  0.053426333   -3.6049351    1.4019124   439061 
 1600000   0.93483126   -3.6049245   -3.6049245   -2.2026808  0.047260326   -3.6049245    1.4022437   439061 
 1601000    0.9343542   -3.6045011   -3.6045011    -2.202973  0.053323221   -3.6045011    1.4015281   439061 
 1602000   0.93446186   -3.6052094   -3.6052094   -2.2035198  0.051242451   -3.6052094    1.4016896   439061 
 1603000   0.93534746   -3.6062378   -3.6062378   -2.2032198  0.048260674   -3.6062378     1.403018   439061 
 1604000   0.93307894   -3.6041027   -3.6041027   -2.2044874  0.057801669   -3.6041027    1.3996152   439061 
 1605000    0.9325957    -3.602383    -3.602383   -2.2034926  0.058087052    -3.602383    1.3988904   439061 
 1606000   0.93433211   -3.6049043   -3.6049043   -2.2034093  0.048370855   -3.6049043     1.401495   439061 
 1607000   0.93335733   -3.6030807   -3.6030807   -2.2030478  0.055844489   -3.6030807    1.4000328   439061 
 1608000   0.93412196   -3.6043015   -3.6043015   -2.2031218  0.060076162   -3.6043015    1.4011797   439061 
 1609000   0.93575619   -3.6061319   -3.6061319   -2.2025008  0.054755164   -3.6061319    1.4036311   439061 
 1610000   0.93309937   -3.6037079   -3.6037079    -2.204062  0.053161618   -3.6037079    1.3996459   439061 
 1611000   0.93387916   -3.6038564   -3.6038564   -2.2030409  0.052548024   -3.6038564    1.4008156   439061 
 1612000   0.93512634    -3.606766    -3.606766   -2.2040797  0.049847352    -3.606766    1.4026863   439061 
 1613000   0.93398963   -3.6040122   -3.6040122   -2.2030309   0.05503787   -3.6040122    1.4009813   439061 
 1614000   0.93367166   -3.6039874   -3.6039874   -2.2034831  0.046900345   -3.6039874    1.4005043   439061 
 1615000    0.9342803   -3.6049305   -3.6049305   -2.2035133  0.050256277   -3.6049305    1.4014173   439061 
 1616000   0.93529315   -3.6066665   -3.6066665     -2.20373  0.052183933   -3.6066665    1.4029365   439061 
 1617000   0.93326017   -3.6044922   -3.6044922   -2.2046052  0.049568343   -3.6044922    1.3998871   439061 
 1618000   0.93298934   -3.6055273   -3.6055273   -2.2060464   0.04787456   -3.6055273    1.3994808   439061 
 1619000   0.93266539   -3.6053315   -3.6053315   -2.2063366  0.051041243   -3.6053315    1.3989949   439061 
 1620000    0.9328434    -3.606051    -3.606051   -2.2067891  0.051669305    -3.606051    1.3992619   439061 
 1621000   0.93405776   -3.6065369   -3.6065369   -2.2054535  0.052525122   -3.6065369    1.4010835   439061 
 1622000   0.93281808   -3.6056604   -3.6056604   -2.2064365  0.050188299   -3.6056604    1.3992239   439061 
 1623000   0.93355695   -3.6071675   -3.6071675   -2.2068352  0.050934416   -3.6071675    1.4003322   439061 
 1624000   0.93371835   -3.6087808   -3.6087808   -2.2082064  0.047840193   -3.6087808    1.4005743   439061 
 1625000   0.93264774   -3.6082002   -3.6082002   -2.2092318  0.050955285   -3.6082002    1.3989684   439061 
 1626000   0.93356048   -3.6093953   -3.6093953   -2.2090578  0.056722461   -3.6093953    1.4003375   439061 
 1627000   0.93214361   -3.6074347   -3.6074347   -2.2092225  0.054180652   -3.6074347    1.3982122   439061 
 1628000   0.93161836    -3.607174    -3.607174   -2.2097496  0.057471269    -3.607174    1.3974244   439061 
 1629000   0.93250984    -3.608866    -3.608866   -2.2101044  0.051134343    -3.608866    1.3987616   439061 
 1630000   0.93319951   -3.6099612   -3.6099612   -2.2101651  0.055357929   -3.6099612    1.3997961   439061 
 1631000   0.93223023    -3.610273    -3.610273   -2.2119309  0.054164231    -3.610273    1.3983422   439061 
 1632000   0.93323615   -3.6115088   -3.6115088   -2.2116577  0.054228748   -3.6115088     1.399851   439061 
 1633000    0.9331483   -3.6114217   -3.6114217   -2.2117024  0.054446624   -3.6114217    1.3997193   439061 
 1634000    0.9327887   -3.6107468   -3.6107468   -2.2115669  0.055293984   -3.6107468    1.3991799   439061 
 1635000    0.9328599   -3.6112653   -3.6112653   -2.2119787  0.057779775   -3.6112653    1.3992867   439061 
 1636000   0.93402452   -3.6135477   -3.6135477   -2.2125141  0.050288907   -3.6135477    1.4010336   439061 
 1637000   0.93151092   -3.6107812   -3.6107812    -2.213518  0.054291703   -3.6107812    1.3972632   439061 
 1638000   0.93189539   -3.6114593   -3.6114593   -2.2136194  0.051906359   -3.6114593    1.3978399   439061 
 1639000   0.93204497    -3.612097    -3.612097   -2.2140327  0.052518385    -3.612097    1.3980643   439061 
 1640000   0.93273401   -3.6133681   -3.6133681   -2.2142702  0.049479487   -3.6133681    1.3990978   439061 
 1641000    0.9314829   -3.6124085   -3.6124085   -2.2151873  0.047773494   -3.6124085    1.3972212   439061 
 1642000   0.93109429   -3.6105221   -3.6105221   -2.2138839  0.053525202   -3.6105221    1.3966383   439061 
 1643000   0.93190704   -3.6110829   -3.6110829   -2.2132255  0.055920728   -3.6110829    1.3978574   439061 
 1644000   0.93158707   -3.6118867   -3.6118867   -2.2145093  0.051641739   -3.6118867    1.3973774   439061 
 1645000   0.93058895   -3.6109091   -3.6109091   -2.2150288   0.05392252   -3.6109091    1.3958802   439061 
 1646000   0.93193487   -3.6123111   -3.6123111    -2.214412  0.049647598   -3.6123111    1.3978991   439061 
 1647000   0.93088386   -3.6102919   -3.6102919   -2.2139693  0.053805369   -3.6102919    1.3963226   439061 
 1648000   0.93039497   -3.6118247   -3.6118247   -2.2162354    0.0576761   -3.6118247    1.3955893   439061 
 1649000   0.93016513   -3.6125267   -3.6125267   -2.2172822  0.050957174   -3.6125267    1.3952445   439061 
 1650000   0.93092633   -3.6127849   -3.6127849   -2.2163986  0.049700395   -3.6127849    1.3963863   439061 
 1651000   0.93134076   -3.6136211   -3.6136211   -2.2166132  0.051847996   -3.6136211     1.397008   439061 
 1652000   0.92986265   -3.6138925   -3.6138925   -2.2191017  0.052208246   -3.6138925    1.3947908   439061 
 1653000   0.93031771   -3.6148274   -3.6148274    -2.219354  0.047764319   -3.6148274    1.3954734   439061 
 1654000   0.93079073   -3.6138385   -3.6138385   -2.2176556  0.053499204   -3.6138385    1.3961829   439061 
 1655000   0.93195321   -3.6148176   -3.6148176    -2.216891  0.053699006   -3.6148176    1.3979266   439061 
 1656000   0.93237777   -3.6153764   -3.6153764   -2.2168129  0.055669999   -3.6153764    1.3985635   439061 
 1657000   0.93327455   -3.6171316   -3.6171316    -2.217223  0.058632372   -3.6171316    1.3999086   439061 
 1658000   0.93239152   -3.6162477   -3.6162477   -2.2176636  0.055173505   -3.6162477    1.3985841   439061 
 1659000   0.93225942   -3.6164372   -3.6164372   -2.2180512  0.052514691   -3.6164372    1.3983859   439061 
 1660000   0.93121394   -3.6148243   -3.6148243   -2.2180066  0.057978256   -3.6148243    1.3968177   439061 
 1661000   0.93200504   -3.6172018   -3.6172018   -2.2191974  0.052978404   -3.6172018    1.3980044   439061 
 1662000   0.93141293   -3.6167872   -3.6167872    -2.219671  0.051426994   -3.6167872    1.3971162   439061 
 1663000    0.9317292   -3.6164378   -3.6164378   -2.2188472  0.047375897   -3.6164378    1.3975906   439061 
 1664000   0.93136865   -3.6169058   -3.6169058    -2.219856  0.051484889   -3.6169058    1.3970498   439061 
 1665000   0.93238146   -3.6172512   -3.6172512   -2.2186822  0.050229957   -3.6172512     1.398569   439061 
 1666000   0.93254649    -3.617291    -3.617291   -2.2184744  0.052728199    -3.617291    1.3988166   439061 
 1667000   0.93372373    -3.617318    -3.617318   -2.2167356  0.055483645    -3.617318    1.4005824   439061 
 1668000   0.93344344   -3.6173289   -3.6173289    -2.217167  0.052666955   -3.6173289     1.400162   439061 
 1669000   0.93232455   -3.6145138   -3.6145138   -2.2160302  0.056632475   -3.6145138    1.3984836   439061 
 1670000   0.93300313   -3.6175849   -3.6175849   -2.2180834  0.049904361   -3.6175849    1.3995015   439061 
 1671000   0.93365504   -3.6181515   -3.6181515   -2.2176721  0.051520862   -3.6181515    1.4004794   439061 
 1672000   0.93230409   -3.6161876   -3.6161876   -2.2177347  0.053593803   -3.6161876    1.3984529   439061 
 1673000   0.93158912   -3.6157631   -3.6157631   -2.2183826  0.054419595   -3.6157631    1.3973805   439061 
 1674000    0.9306115   -3.6147739   -3.6147739   -2.2188598  0.047696698   -3.6147739    1.3959141   439061 
 1675000   0.93083365   -3.6150889   -3.6150889   -2.2188416  0.049665766   -3.6150889    1.3962473   439061 
 1676000   0.93201467   -3.6163997   -3.6163997   -2.2183809  0.046514974   -3.6163997    1.3980188   439061 
 1677000   0.93008467   -3.6149069   -3.6149069    -2.219783  0.050576145   -3.6149069    1.3951238   439061 
 1678000   0.92995998   -3.6157369   -3.6157369   -2.2208001  0.052227258   -3.6157369    1.3949368   439061 
 1679000   0.93016026   -3.6157273   -3.6157273     -2.22049  0.052078925   -3.6157273    1.3952372   439061 
 1680000   0.93132406   -3.6187361   -3.6187361   -2.2217532  0.048706792   -3.6187361    1.3969829   439061 
 1681000     0.931968   -3.6205519   -3.6205519   -2.2226031  0.045710575   -3.6205519    1.3979488   439061 
 1682000   0.93019641   -3.6172442   -3.6172442   -2.2219527  0.048784064   -3.6172442    1.3952914   439061 
 1683000   0.93031211   -3.6169613   -3.6169613   -2.2214964  0.054703016   -3.6169613     1.395465   439061 
 1684000   0.93052798   -3.6190234   -3.6190234   -2.2232346  0.050318364   -3.6190234    1.3957888   439061 
 1685000   0.93154599   -3.6212553   -3.6212553   -2.2239395  0.048694717   -3.6212553    1.3973158   439061 
 1686000   0.93086977    -3.620651    -3.620651   -2.2243496  0.056598363    -3.620651    1.3963015   439061 
 1687000   0.93169754   -3.6224583   -3.6224583   -2.2249152  0.050486381   -3.6224583    1.3975431   439061 
 1688000   0.93222378   -3.6235066   -3.6235066   -2.2251741   0.04491194   -3.6235066    1.3983325   439061 
 1689000   0.93052259   -3.6220772   -3.6220772   -2.2262965   0.05215284   -3.6220772    1.3957807   439061 
 1690000   0.93084264   -3.6231685   -3.6231685   -2.2269077  0.053422169   -3.6231685    1.3962608   439061 
 1691000   0.93106471   -3.6233588   -3.6233588   -2.2267649  0.057379074   -3.6233588    1.3965939   439061 
 1692000   0.93117198   -3.6241955   -3.6241955   -2.2274408   0.05252252   -3.6241955    1.3967548   439061 
 1693000   0.93147707   -3.6251554   -3.6251554    -2.227943  0.056040147   -3.6251554    1.3972124   439061 
 1694000   0.93157854   -3.6265281   -3.6265281   -2.2291635  0.059210401   -3.6265281    1.3973646   439061 
 1695000   0.93089784   -3.6264699   -3.6264699   -2.2301264   0.05364865   -3.6264699    1.3963436   439061 
 1696000   0.93109138   -3.6269561   -3.6269561   -2.2303222  0.056827027   -3.6269561    1.3966339   439061 
 1697000    0.9316569   -3.6278524   -3.6278524   -2.2303702  0.056197896   -3.6278524    1.3974822   439061 
 1698000   0.93165913   -3.6268028   -3.6268028   -2.2293173  0.055626355   -3.6268028    1.3974855   439061 
 1699000   0.93299499   -3.6295307   -3.6295307   -2.2300414  0.051414995   -3.6295307    1.3994893   439061 
 1700000   0.93243234   -3.6276638   -3.6276638   -2.2290185  0.055462791   -3.6276638    1.3986453   439061 
 1701000   0.93225981   -3.6278888   -3.6278888   -2.2295023  0.058616458   -3.6278888    1.3983865   439061 
 1702000   0.93128657    -3.627221    -3.627221   -2.2302944  0.046546063    -3.627221    1.3969267   439061 
 1703000   0.93057744   -3.6263457   -3.6263457   -2.2304827  0.051406774   -3.6263457     1.395863   439061 
 1704000   0.92955485   -3.6255153   -3.6255153   -2.2311862  0.048363447   -3.6255153    1.3943291   439061 
 1705000   0.92984917   -3.6263121   -3.6263121   -2.2315415  0.047020676   -3.6263121    1.3947706   439061 
 1706000   0.92894011   -3.6249759   -3.6249759   -2.2315689  0.047517231   -3.6249759     1.393407   439061 
 1707000   0.92873236   -3.6260853   -3.6260853   -2.2329899  0.045625202   -3.6260853    1.3930954   439061 
 1708000   0.92788455   -3.6251521   -3.6251521   -2.2333284  0.047478495   -3.6251521    1.3918237   439061 
 1709000   0.92972742    -3.626588    -3.626588       -2.232  0.046950907    -3.626588     1.394588   439061 
 1710000   0.92947436   -3.6265625   -3.6265625   -2.2323541  0.047573024   -3.6265625    1.3942084   439061 
 1711000   0.92893197    -3.625717    -3.625717   -2.2323222  0.050346656    -3.625717    1.3933948   439061 
 1712000   0.93128117   -3.6280614   -3.6280614   -2.2311429     0.052686   -3.6280614    1.3969186   439061 
 1713000   0.93064023    -3.626504    -3.626504   -2.2305469  0.054236221    -3.626504    1.3959572   439061 
 1714000   0.93107491   -3.6273519   -3.6273519   -2.2307427  0.053954776   -3.6273519    1.3966092   439061 
 1715000   0.93236484    -3.628943    -3.628943   -2.2303989  0.053282481    -3.628943    1.3985441   439061 
 1716000   0.93085268   -3.6278462   -3.6278462   -2.2315704  0.056117144   -3.6278462    1.3962758   439061 
 1717000   0.93148937   -3.6286614   -3.6286614   -2.2314305  0.053785141   -3.6286614    1.3972309   439061 
 1718000   0.93110256     -3.62953     -3.62953   -2.2328793  0.053832799     -3.62953    1.3966507   439061 
 1719000   0.93045733    -3.629861    -3.629861   -2.2341782  0.053518802    -3.629861    1.3956828   439061 
 1720000   0.93160309   -3.6294459   -3.6294459   -2.2320445  0.056026715   -3.6294459    1.3974015   439061 
 1721000   0.93047476   -3.6287301   -3.6287301   -2.2330212  0.053331773   -3.6287301     1.395709   439061 
 1722000   0.93009316   -3.6295233   -3.6295233   -2.2343867  0.054578976   -3.6295233    1.3951366   439061 
 1723000   0.93004867   -3.6299966   -3.6299966   -2.2349268  0.052387348   -3.6299966    1.3950698   439061 
 1724000   0.92964553   -3.6294241   -3.6294241    -2.234959  0.050904391   -3.6294241    1.3944651   439061 
 1725000   0.92975165   -3.6281987   -3.6281987   -2.2335744  0.049932488   -3.6281987    1.3946243   439061 
 1726000   0.93065285   -3.6301532   -3.6301532   -2.2341771  0.051898746   -3.6301532    1.3959761   439061 
 1727000   0.92930096   -3.6278877   -3.6278877   -2.2339395  0.054705632   -3.6278877    1.3939483   439061 
 1728000   0.93137163    -3.630344    -3.630344   -2.2332897  0.052579033    -3.630344    1.3970543   439061 
 1729000   0.93066197   -3.6304744   -3.6304744   -2.2344846  0.054606657   -3.6304744    1.3959898   439061 
 1730000   0.92964538   -3.6282425   -3.6282425   -2.2337776  0.048597021   -3.6282425    1.3944649   439061 
 1731000   0.92986438   -3.6282156   -3.6282156   -2.2334222  0.041232484   -3.6282156    1.3947934   439061 
 1732000   0.92930465   -3.6271471   -3.6271471   -2.2331933  0.049989412   -3.6271471    1.3939538   439061 
 1733000   0.92951605    -3.628106    -3.628106   -2.2338351  0.047033173    -3.628106    1.3942709   439061 
 1734000   0.93039455   -3.6289789   -3.6289789   -2.2333903  0.050723553   -3.6289789    1.3955886   439061 
 1735000   0.92936891   -3.6269166   -3.6269166   -2.2328665  0.054276828   -3.6269166    1.3940502   439061 
 1736000    0.9307993   -3.6289688   -3.6289688    -2.232773  0.054677311   -3.6289688    1.3961958   439061 
 1737000   0.93169936   -3.6304389   -3.6304389    -2.232893  0.047834391   -3.6304389    1.3975459   439061 
 1738000   0.93198726   -3.6319837   -3.6319837    -2.234006  0.046614961   -3.6319837    1.3979777   439061 
 1739000   0.92846373   -3.6291022   -3.6291022   -2.2364098   0.04554351   -3.6291022    1.3926924   439061 
 1740000   0.92932825   -3.6317084   -3.6317084   -2.2377192  0.046489951   -3.6317084    1.3939892   439061 
 1741000   0.92956145   -3.6322252   -3.6322252   -2.2378862  0.043466681   -3.6322252     1.394339   439061 
 1742000   0.92951551   -3.6316644   -3.6316644   -2.2373943  0.043422689   -3.6316644    1.3942701   439061 
 1743000    0.9295162   -3.6319615   -3.6319615   -2.2376903  0.047208581   -3.6319615    1.3942711   439061 
 1744000   0.92949257   -3.6338137   -3.6338137    -2.239578  0.048656954   -3.6338137    1.3942357   439061 
 1745000   0.92925886   -3.6335668   -3.6335668   -2.2396817  0.048154445   -3.6335668    1.3938851   439061 
 1746000   0.93054075   -3.6341385   -3.6341385   -2.2383305  0.051653336   -3.6341385     1.395808   439061 
 1747000   0.92962508   -3.6339541   -3.6339541   -2.2395196  0.051918831   -3.6339541    1.3944344   439061 
 1748000   0.93102111    -3.635591    -3.635591   -2.2390625  0.052023027    -3.635591    1.3965285   439061 
 1749000   0.93025735   -3.6355882   -3.6355882   -2.2402054  0.047225112   -3.6355882    1.3953828   439061 
 1750000   0.93022887    -3.636114    -3.636114   -2.2407739  0.050474889    -3.636114    1.3953401   439061 
 1751000   0.93011686   -3.6349297   -3.6349297   -2.2397576  0.050334692   -3.6349297    1.3951721   439061 
 1752000   0.92990216   -3.6363922   -3.6363922   -2.2415421  0.050454914   -3.6363922    1.3948501   439061 
 1753000   0.93039841   -3.6381104   -3.6381104    -2.242516  0.043846907   -3.6381104    1.3955944   439061 
 1754000   0.93019299   -3.6377599   -3.6377599   -2.2424736  0.050206605   -3.6377599    1.3952863   439061 
 1755000   0.92992733   -3.6386566   -3.6386566   -2.2437688  0.049740748   -3.6386566    1.3948878   439061 
 1756000   0.92879545   -3.6373825   -3.6373825   -2.2441925  0.048185296   -3.6373825      1.39319   439061 
 1757000    0.9269536   -3.6353027   -3.6353027   -2.2448754  0.049596056   -3.6353027    1.3904272   439061 
 1758000   0.92811908    -3.636029    -3.636029   -2.2438536  0.048951365    -3.636029    1.3921755   439061 
 1759000   0.92782102   -3.6358918   -3.6358918   -2.2441634  0.048483248   -3.6358918    1.3917284   439061 
 1760000   0.93028512   -3.6399485   -3.6399485    -2.244524  0.046230368   -3.6399485    1.3954245   439061 
 1761000   0.92925145     -3.63881     -3.63881    -2.244936  0.050129995     -3.63881     1.393874   439061 
 1762000   0.92923014   -3.6391649   -3.6391649   -2.2453228  0.052058639   -3.6391649     1.393842   439061 
 1763000   0.93001387   -3.6399907   -3.6399907   -2.2449731  0.053382667   -3.6399907    1.3950176   439061 
 1764000   0.92912093   -3.6390124   -3.6390124   -2.2453342  0.049786905   -3.6390124    1.3936782   439061 
 1765000   0.92940696   -3.6393278   -3.6393278   -2.2452206  0.048915536   -3.6393278    1.3941073   439061 
 1766000   0.93027658   -3.6396893   -3.6396893   -2.2442776  0.048632779   -3.6396893    1.3954117   439061 
 1767000   0.92791472    -3.638075    -3.638075   -2.2462061  0.047402173    -3.638075    1.3918689   439061 
 1768000   0.92885538   -3.6398917   -3.6398917   -2.2466118  0.047703863   -3.6398917    1.3932799   439061 
 1769000   0.92846051   -3.6385164   -3.6385164   -2.2458288  0.043542014   -3.6385164    1.3926876   439061 
 1770000   0.92845947   -3.6394528   -3.6394528   -2.2467668  0.048861085   -3.6394528     1.392686   439061 
 1771000    0.9287888   -3.6393455   -3.6393455   -2.2461655  0.049215005   -3.6393455      1.39318   439061 
 1772000   0.92783841     -3.63942     -3.63942   -2.2476655  0.047864566     -3.63942    1.3917544   439061 
 1773000   0.92759868   -3.6390813   -3.6390813   -2.2476864  0.045135126   -3.6390813    1.3913949   439061 
 1774000   0.92614499    -3.637496    -3.637496   -2.2482816  0.047510527    -3.637496    1.3892143   439061 
 1775000   0.92486994   -3.6370741   -3.6370741   -2.2497724  0.045467923   -3.6370741    1.3873017   439061 
 1776000   0.92923691   -3.6416514   -3.6416514   -2.2477992  0.046287077   -3.6416514    1.3938522   439061 
 1777000   0.92858522   -3.6409528   -3.6409528   -2.2480781  0.046670119   -3.6409528    1.3928747   439061 
 1778000   0.93092354   -3.6439646   -3.6439646   -2.2475825  0.049224133   -3.6439646    1.3963821   439061 
 1779000   0.92984738   -3.6430561   -3.6430561   -2.2482882  0.047919271   -3.6430561    1.3947679   439061 
 1780000    0.9304637     -3.64418     -3.64418   -2.2484876  0.051546567     -3.64418    1.3956924   439061 
 1781000   0.93027618   -3.6439743   -3.6439743   -2.2485632  0.052143737   -3.6439743    1.3954111   439061 
 1782000   0.92972991   -3.6438568   -3.6438568   -2.2492651  0.052773502   -3.6438568    1.3945917   439061 
 1783000   0.92979038   -3.6435153   -3.6435153   -2.2488329  0.050697599   -3.6435153    1.3946824   439061 
 1784000   0.93102888   -3.6445019   -3.6445019   -2.2479618  0.057785332   -3.6445019    1.3965401   439061 
 1785000   0.92968148   -3.6431861   -3.6431861    -2.248667  0.055004643   -3.6431861     1.394519   439061 
 1786000   0.92993915   -3.6457491   -3.6457491   -2.2508435  0.049487086   -3.6457491    1.3949056   439061 
 1787000    0.9282306   -3.6439916   -3.6439916   -2.2516488  0.046219534   -3.6439916    1.3923427   439061 
 1788000   0.92761385   -3.6410871   -3.6410871   -2.2496695  0.053493445   -3.6410871    1.3914176   439061 
 1789000   0.92734257   -3.6410797   -3.6410797    -2.250069  0.058907736   -3.6410797    1.3910107   439061 
 1790000   0.92912812   -3.6440575   -3.6440575   -2.2503685   0.04871912   -3.6440575     1.393689   439061 
 1791000   0.92823345   -3.6434053   -3.6434053   -2.2510584  0.051381245   -3.6434053     1.392347   439061 
 1792000   0.92680654   -3.6413612   -3.6413612   -2.2511546  0.053704135   -3.6413612    1.3902066   439061 
 1793000   0.92657768   -3.6418377   -3.6418377   -2.2519743  0.044299796   -3.6418377    1.3898634   439061 
 1794000   0.92785299   -3.6422224   -3.6422224    -2.250446  0.046693908   -3.6422224    1.3917763   439061 
 1795000   0.92687479   -3.6412496   -3.6412496   -2.2509406  0.046945218   -3.6412496     1.390309   439061 
 1796000   0.92852546   -3.6424852   -3.6424852   -2.2497002   0.04769349   -3.6424852     1.392785   439061 
 1797000   0.92804882   -3.6420742   -3.6420742   -2.2500042  0.050916537   -3.6420742    1.3920701   439061 
 1798000   0.92788198   -3.6417367   -3.6417367   -2.2499169  0.046439787   -3.6417367    1.3918198   439061 
 1799000   0.92713771   -3.6402464   -3.6402464    -2.249543  0.055488574   -3.6402464    1.3907034   439061 
 1800000   0.92905663   -3.6428803   -3.6428803   -2.2492985  0.048005441   -3.6428803    1.3935818   439061 
 1801000   0.92819526   -3.6409723   -3.6409723   -2.2486826  0.054050106   -3.6409723    1.3922897   439061 
 1802000   0.92843389   -3.6417919   -3.6417919   -2.2491443  0.046950854   -3.6417919    1.3926477   439061 
 1803000   0.92877904   -3.6415145   -3.6415145   -2.2483491  0.044321003   -3.6415145    1.3931654   439061 
 1804000   0.92771271   -3.6400164   -3.6400164   -2.2484505  0.048992915   -3.6400164    1.3915659   439061 
 1805000   0.92813635   -3.6395048   -3.6395048   -2.2473034  0.051023407   -3.6395048    1.3922014   439061 
 1806000   0.92881578    -3.641744    -3.641744   -2.2485235  0.051179779    -3.641744    1.3932205   439061 
 1807000      0.92898   -3.6426965   -3.6426965   -2.2492297  0.045646024   -3.6426965    1.3934668   439061 
 1808000   0.92879739   -3.6425891   -3.6425891   -2.2493962  0.043500545   -3.6425891    1.3931929   439061 
 1809000   0.92890126   -3.6416685   -3.6416685   -2.2483198  0.048102771   -3.6416685    1.3933487   439061 
 1810000   0.92727689   -3.6408551   -3.6408551   -2.2499429  0.043242273   -3.6408551    1.3909122   439061 
 1811000    0.9284917   -3.6420589   -3.6420589   -2.2493245  0.047890172   -3.6420589    1.3927344   439061 
 1812000   0.92798504    -3.641974    -3.641974   -2.2499996  0.048180454    -3.641974    1.3919744   439061 
 1813000   0.92783561   -3.6420761   -3.6420761   -2.2503259  0.047864955   -3.6420761    1.3917503   439061 
 1814000    0.9276239   -3.6423765   -3.6423765   -2.2509438  0.048658895   -3.6423765    1.3914327   439061 
 1815000   0.92736812   -3.6418252   -3.6418252   -2.2507762  0.050160821   -3.6418252     1.391049   439061 
 1816000   0.92755321   -3.6430801   -3.6430801   -2.2517535  0.052458415   -3.6430801    1.3913266   439061 
 1817000   0.92889671   -3.6458272   -3.6458272   -2.2524853  0.050250735   -3.6458272    1.3933419   439061 
 1818000   0.92841686   -3.6446174   -3.6446174   -2.2519953  0.050370992   -3.6446174    1.3926221   439061 
 1819000   0.92733557   -3.6441531   -3.6441531   -2.2531529  0.055405065   -3.6441531    1.3910002   439061 
 1820000   0.92698631   -3.6451264   -3.6451264   -2.2546501  0.049937323   -3.6451264    1.3904763   439061 
 1821000   0.92747714   -3.6466036   -3.6466036   -2.2553911  0.049567992   -3.6466036    1.3912125   439061 
 1822000   0.92925656   -3.6494204   -3.6494204   -2.2555387  0.047566406   -3.6494204    1.3938817   439061 
 1823000   0.92884553    -3.648146    -3.648146   -2.2548808  0.047830888    -3.648146    1.3932651   439061 
 1824000   0.92849925   -3.6475658   -3.6475658   -2.2548201  0.058215713   -3.6475658    1.3927457   439061 
 1825000    0.9294404   -3.6485789   -3.6485789   -2.2544214  0.052268346   -3.6485789    1.3941574   439061 
 1826000   0.92964533   -3.6480388   -3.6480388    -2.253574  0.050671561   -3.6480388    1.3944648   439061 
 1827000   0.92936367   -3.6486681   -3.6486681   -2.2546258  0.050381678   -3.6486681    1.3940423   439061 
 1828000   0.92815931   -3.6475789   -3.6475789   -2.2553431  0.050862116   -3.6475789    1.3922358   439061 
 1829000   0.92752947   -3.6455847   -3.6455847   -2.2542936  0.053714046   -3.6455847     1.391291   439061 
 1830000   0.92720363   -3.6465736   -3.6465736   -2.2557713  0.048807206   -3.6465736    1.3908023   439061 
 1831000   0.92603562    -3.644995    -3.644995   -2.2559447  0.051268807    -3.644995    1.3890503   439061 
 1832000   0.92779263   -3.6472849   -3.6472849   -2.2555992   0.04607572   -3.6472849    1.3916858   439061 
 1833000   0.92588208   -3.6444233   -3.6444233   -2.2556033  0.053008049   -3.6444233      1.38882   439061 
 1834000   0.92706017   -3.6468442   -3.6468442   -2.2562571  0.045367368   -3.6468442    1.3905871   439061 
 1835000    0.9269271   -3.6472918   -3.6472918   -2.2569043  0.042341542   -3.6472918    1.3903875   439061 
 1836000   0.92807889    -3.647479    -3.647479   -2.2553639  0.048897866    -3.647479    1.3921152   439061 
 1837000   0.92767452   -3.6475134   -3.6475134   -2.2560048  0.045756077   -3.6475134    1.3915086   439061 
 1838000   0.92649476   -3.6455861   -3.6455861   -2.2558471  0.052624557   -3.6455861     1.389739   439061 
 1839000   0.92723426   -3.6479352   -3.6479352    -2.257087  0.047865383   -3.6479352    1.3908482   439061 
 1840000    0.9271873   -3.6490724   -3.6490724   -2.2582946  0.048058278   -3.6490724    1.3907778   439061 
 1841000   0.92538119   -3.6477186   -3.6477186     -2.25965   0.04815153   -3.6477186    1.3880686   439061 
 1842000   0.92507689   -3.6468691   -3.6468691   -2.2592569  0.049771859   -3.6468691    1.3876122   439061 
 1843000   0.92578189    -3.649656    -3.649656   -2.2609863  0.043736919    -3.649656    1.3886697   439061 
 1844000   0.92683437   -3.6498715   -3.6498715   -2.2596231  0.051320464   -3.6498715    1.3902484   439061 
 1845000   0.92678801   -3.6495917   -3.6495917   -2.2594129  0.051596312   -3.6495917    1.3901788   439061 
 1846000    0.9273285   -3.6500869   -3.6500869   -2.2590973   0.04880825   -3.6500869    1.3909896   439061 
 1847000   0.92878855   -3.6524021   -3.6524021   -2.2592225  0.046146197   -3.6524021    1.3931797   439061 
 1848000   0.93064864   -3.6555391   -3.6555391   -2.2595693  0.051939912   -3.6555391    1.3959698   439061 
 1849000   0.92687634   -3.6514547   -3.6514547   -2.2611434  0.052437528   -3.6514547    1.3903114   439061 
 1850000   0.92736134   -3.6525322   -3.6525322   -2.2614933  0.045437625   -3.6525322    1.3910388   439061 
 1851000   0.92789735   -3.6535279   -3.6535279    -2.261685   0.04580537   -3.6535279    1.3918429   439061 
 1852000    0.9263123   -3.6521454   -3.6521454   -2.2626801  0.047733669   -3.6521454    1.3894653   439061 
 1853000   0.92594753   -3.6507261   -3.6507261   -2.2618079  0.048748564   -3.6507261    1.3889181   439061 
 1854000   0.92759971   -3.6538248   -3.6538248   -2.2624284  0.051615328   -3.6538248    1.3913964   439061 
 1855000   0.92662802   -3.6525326   -3.6525326   -2.2625937  0.049741054   -3.6525326    1.3899389   439061 
 1856000   0.92677442   -3.6528496   -3.6528496   -2.2626912  0.045421265   -3.6528496    1.3901585   439061 
 1857000   0.92718259    -3.652604    -3.652604   -2.2618333  0.048255192    -3.652604    1.3907707   439061 
 1858000   0.92565539   -3.6523681   -3.6523681   -2.2638881  0.045146443   -3.6523681    1.3884799   439061 
 1859000    0.9264872   -3.6537783   -3.6537783   -2.2640506  0.043978109   -3.6537783    1.3897276   439061 
 1860000   0.92424198   -3.6524582   -3.6524582   -2.2660984  0.050291364   -3.6524582    1.3863598   439061 
 1861000    0.9263683   -3.6536501   -3.6536501   -2.2641008  0.049591571   -3.6536501    1.3895493   439061 
 1862000    0.9246602   -3.6514512   -3.6514512    -2.264464  0.049433584   -3.6514512    1.3869871   439061 
 1863000   0.92640114   -3.6547783   -3.6547783   -2.2651798  0.052803558   -3.6547783    1.3895985   439061 
 1864000   0.92591869   -3.6547046   -3.6547046   -2.2658298  0.048744434   -3.6547046    1.3888749   439061 
 1865000   0.92593594   -3.6554926   -3.6554926   -2.2665919  0.052903298   -3.6554926    1.3889007   439061 
 1866000   0.92816823   -3.6570201   -3.6570201   -2.2647709  0.051608983   -3.6570201    1.3922492   439061 
 1867000   0.92926972   -3.6582171   -3.6582171   -2.2643157  0.047093418   -3.6582171    1.3939014   439061 
 1868000   0.92763201   -3.6570804   -3.6570804   -2.2656355  0.049246888   -3.6570804    1.3914449   439061 
 1869000   0.92811419   -3.6558571   -3.6558571    -2.263689  0.050466377   -3.6558571    1.3921681   439061 
 1870000   0.92698321   -3.6548748   -3.6548748   -2.2644031  0.051944456   -3.6548748    1.3904716   439061 
 1871000   0.92785139   -3.6572028   -3.6572028   -2.2654289  0.052191604   -3.6572028    1.3917739   439061 
 1872000   0.92724544   -3.6563596   -3.6563596   -2.2654946  0.052439769   -3.6563596     1.390865   439061 
 1873000   0.92613382   -3.6550301   -3.6550301   -2.2658326   0.04852277   -3.6550301    1.3891976   439061 
 1874000    0.9252288   -3.6537092   -3.6537092   -2.2658692  0.043961448   -3.6537092      1.38784   439061 
 1875000   0.92667868    -3.655987    -3.655987   -2.2659721  0.040397092    -3.655987    1.3900149   439061 
 1876000   0.92458484   -3.6538955   -3.6538955   -2.2670214  0.052131827   -3.6538955    1.3868741   439061 
 1877000   0.92664652   -3.6556674   -3.6556674   -2.2657008  0.046211386   -3.6556674    1.3899666   439061 
 1878000   0.92484054   -3.6531849   -3.6531849   -2.2659273  0.050961118   -3.6531849    1.3872576   439061 
 1879000   0.92610737   -3.6542013   -3.6542013   -2.2650434  0.047800784   -3.6542013    1.3891579   439061 
 1880000   0.92573415   -3.6551212   -3.6551212   -2.2665232  0.051204311   -3.6551212    1.3885981   439061 
 1881000   0.92590378   -3.6550807   -3.6550807   -2.2662282  0.048934392   -3.6550807    1.3888525   439061 
 1882000   0.92651412   -3.6544713   -3.6544713   -2.2647033    0.0504834   -3.6544713     1.389768   439061 
 1883000   0.92729455   -3.6572303   -3.6572303   -2.2662917  0.045821487   -3.6572303    1.3909387   439061 
 1884000   0.92655699   -3.6565426   -3.6565426   -2.2667103  0.049481921   -3.6565426    1.3898323   439061 
 1885000   0.92660142   -3.6562935   -3.6562935   -2.2663946  0.053392766   -3.6562935     1.389899   439061 
 1886000   0.92559579   -3.6554052   -3.6554052   -2.2670147  0.048817746   -3.6554052    1.3883905   439061 
 1887000   0.92633932   -3.6562689   -3.6562689   -2.2667631  0.051469956   -3.6562689    1.3895058   439061 
 1888000   0.92648061    -3.656272    -3.656272   -2.2665542  0.049552584    -3.656272    1.3897177   439061 
 1889000   0.92786505   -3.6585124   -3.6585124    -2.266718  0.050567327   -3.6585124    1.3917944   439061 
 1890000   0.92603169   -3.6579408   -3.6579408   -2.2688964  0.048078938   -3.6579408    1.3890444   439061 
 1891000   0.92515737   -3.6577021   -3.6577021   -2.2699692  0.046113659   -3.6577021    1.3877329   439061 
 1892000   0.92659004   -3.6583221   -3.6583221   -2.2684402  0.050880395   -3.6583221    1.3898819   439061 
 1893000   0.92633577    -3.658603    -3.658603   -2.2691025  0.049869696    -3.658603    1.3895005   439061 
 1894000   0.92609066   -3.6579916   -3.6579916   -2.2688588  0.049135609   -3.6579916    1.3891328   439061 
 1895000   0.92690731   -3.6597346   -3.6597346   -2.2693768  0.050706996   -3.6597346    1.3903578   439061 
 1896000   0.92637661   -3.6592207   -3.6592207    -2.269659  0.051508851   -3.6592207    1.3895617   439061 
 1897000   0.92551748   -3.6588445   -3.6588445   -2.2705714  0.049877334   -3.6588445    1.3882731   439061 
 1898000   0.92702702   -3.6603468   -3.6603468   -2.2698094  0.053561054   -3.6603468    1.3905374   439061 
 1899000   0.92759337   -3.6619238   -3.6619238   -2.2705369  0.054947302   -3.6619238    1.3913869   439061 
 1900000   0.92608041   -3.6602085   -3.6602085    -2.271091  0.050182195   -3.6602085    1.3891175   439061 
 1901000   0.92557763   -3.6599149   -3.6599149   -2.2715516  0.050715816   -3.6599149    1.3883633   439061 
 1902000   0.92670879   -3.6606273   -3.6606273   -2.2705673  0.048622447   -3.6606273      1.39006   439061 
 1903000    0.9271005   -3.6609845   -3.6609845   -2.2703369  0.050161592   -3.6609845    1.3906476   439061 
 1904000   0.92758597   -3.6610947   -3.6610947   -2.2697189  0.048382858   -3.6610947    1.3913758   439061 
 1905000   0.92624459   -3.6590796   -3.6590796   -2.2697159   0.05508094   -3.6590796    1.3893637   439061 
 1906000   0.92640746   -3.6597053   -3.6597053   -2.2700972  0.052044731   -3.6597053     1.389608   439061 
 1907000   0.92659428   -3.6603341   -3.6603341   -2.2704459  0.044928694   -3.6603341    1.3898883   439061 
 1908000   0.92379567   -3.6564982   -3.6564982   -2.2708079  0.052095998   -3.6564982    1.3856903   439061 
 1909000    0.9254443   -3.6581464   -3.6581464   -2.2699831  0.044454726   -3.6581464    1.3881633   439061 
 1910000   0.92406531   -3.6578061   -3.6578061   -2.2717113  0.047047695   -3.6578061    1.3860948   439061 
 1911000   0.92502628   -3.6605793   -3.6605793    -2.273043  0.044905445   -3.6605793    1.3875363   439061 
 1912000   0.92583311    -3.660844    -3.660844   -2.2720975  0.043457417    -3.660844    1.3887465   439061 
 1913000    0.9249676   -3.6605101   -3.6605101   -2.2730619  0.046727246   -3.6605101    1.3874482   439061 
 1914000   0.92528156   -3.6611594   -3.6611594   -2.2732402  0.038810975   -3.6611594    1.3879192   439061 
 1915000   0.92494927   -3.6618024   -3.6618024   -2.2743816  0.046088899   -3.6618024    1.3874207   439061 
 1916000   0.92380742   -3.6608017   -3.6608017   -2.2750937   0.04950885   -3.6608017     1.385708   439061 
 1917000   0.92371209   -3.6609048   -3.6609048   -2.2753398  0.046584428   -3.6609048     1.385565   439061 
 1918000   0.92585061    -3.664668    -3.664668   -2.2758953  0.042553951    -3.664668    1.3887728   439061 
 1919000   0.92794255   -3.6669274   -3.6669274   -2.2750167  0.047975549   -3.6669274    1.3919107   439061 
 1920000   0.92761922    -3.667075    -3.667075   -2.2756493  0.045597326    -3.667075    1.3914257   439061 
 1921000   0.92813131   -3.6685021   -3.6685021   -2.2763083  0.049723887   -3.6685021    1.3921938   439061 
 1922000    0.9279108   -3.6688933   -3.6688933   -2.2770303  0.051502953   -3.6688933     1.391863   439061 
 1923000   0.92902152   -3.6701288   -3.6701288   -2.2765997  0.050730097   -3.6701288    1.3935291   439061 
 1924000   0.92705998   -3.6691717   -3.6691717   -2.2785849   0.05200318   -3.6691717    1.3905868   439061 
 1925000   0.92696974   -3.6705356   -3.6705356   -2.2800841  0.051397728   -3.6705356    1.3904514   439061 
 1926000   0.92484677   -3.6677583   -3.6677583   -2.2804913  0.053276791   -3.6677583     1.387267   439061 
 1927000   0.92511775   -3.6691462   -3.6691462   -2.2814727  0.044334241   -3.6691462    1.3876735   439061 
 1928000    0.9262091   -3.6700617   -3.6700617   -2.2807512  0.049793834   -3.6700617    1.3893105   439061 
 1929000   0.92657834    -3.670562    -3.670562   -2.2806976  0.046868218    -3.670562    1.3898643   439061 
 1930000   0.92820341   -3.6709393   -3.6709393   -2.2786374  0.047123863   -3.6709393     1.392302   439061 
 1931000   0.92773956   -3.6694365   -3.6694365   -2.2778303  0.050860103   -3.6694365    1.3916062   439061 
 1932000   0.92663254    -3.668318    -3.668318   -2.2783723  0.048369619    -3.668318    1.3899456   439061 
 1933000   0.92510507   -3.6684596   -3.6684596   -2.2808051  0.048617035   -3.6684596    1.3876544   439061 
 1934000   0.92392036   -3.6669799   -3.6669799   -2.2811025  0.048614924   -3.6669799    1.3858774   439061 
 1935000   0.92447482    -3.668087    -3.668087   -2.2813779  0.047481932    -3.668087    1.3867091   439061 
 1936000   0.92485119   -3.6687683   -3.6687683   -2.2814947   0.04131852   -3.6687683    1.3872736   439061 
 1937000   0.92513894    -3.667795    -3.667795   -2.2800898  0.046267987    -3.667795    1.3877052   439061 
 1938000   0.92419158     -3.66643     -3.66643   -2.2801458  0.045319512     -3.66643    1.3862842   439061 
 1939000   0.92553796   -3.6686527   -3.6686527    -2.280349  0.043390316   -3.6686527    1.3883038   439061 
 1940000   0.92575496     -3.66772     -3.66772   -2.2790907  0.046713149     -3.66772    1.3886293   439061 
 1941000   0.92573305   -3.6672643   -3.6672643   -2.2786679  0.047135966   -3.6672643    1.3885964   439061 
 1942000   0.92566243   -3.6678099   -3.6678099   -2.2793195  0.044953242   -3.6678099    1.3884905   439061 
 1943000   0.92393454   -3.6659121   -3.6659121   -2.2800135  0.046049128   -3.6659121    1.3858986   439061 
 1944000   0.92552462    -3.667068    -3.667068   -2.2787842  0.044736349    -3.667068    1.3882838   439061 
 1945000   0.92445261   -3.6671308   -3.6671308   -2.2804551  0.050275328   -3.6671308    1.3866758   439061 
 1946000   0.92456325   -3.6682189   -3.6682189   -2.2813772  0.048286555   -3.6682189    1.3868417   439061 
 1947000   0.92410833   -3.6687072   -3.6687072   -2.2825478  0.045361383   -3.6687072    1.3861593   439061 
 1948000   0.92288482   -3.6674322   -3.6674322   -2.2831081  0.046636681   -3.6674322    1.3843241   439061 
 1949000   0.92525959   -3.6704827   -3.6704827   -2.2825965  0.044876748   -3.6704827    1.3878862   439061 
 1950000   0.92639799   -3.6711087   -3.6711087   -2.2815149  0.044901878   -3.6711087    1.3895938   439061 
 1951000   0.92712157   -3.6719236   -3.6719236   -2.2812444  0.047817471   -3.6719236    1.3906792   439061 
 1952000   0.92649009   -3.6716205   -3.6716205   -2.2818885  0.053300361   -3.6716205     1.389732   439061 
 1953000   0.92654206   -3.6716923   -3.6716923   -2.2818823  0.045521645   -3.6716923    1.3898099   439061 
 1954000   0.92543023   -3.6695811   -3.6695811   -2.2814389  0.053993432   -3.6695811    1.3881422   439061 
 1955000   0.92557178    -3.670217    -3.670217   -2.2818625  0.050579495    -3.670217    1.3883545   439061 
 1956000   0.92584418    -3.670839    -3.670839   -2.2820759  0.049491659    -3.670839    1.3887631   439061 
 1957000   0.92692394   -3.6741043   -3.6741043   -2.2837216  0.047419499   -3.6741043    1.3903827   439061 
 1958000   0.92525115   -3.6713941   -3.6713941   -2.2835205   0.04789212   -3.6713941    1.3878736   439061 
 1959000   0.92559694    -3.672785    -3.672785   -2.2843927  0.047386273    -3.672785    1.3883923   439061 
 1960000   0.92503263   -3.6725255   -3.6725255   -2.2849797  0.047199263   -3.6725255    1.3875458   439061 
 1961000   0.92450914   -3.6712161   -3.6712161   -2.2844556  0.043819527   -3.6712161    1.3867606   439061 
 1962000   0.92449539   -3.6712014   -3.6712014   -2.2844615  0.043870688   -3.6712014    1.3867399   439061 
 1963000   0.92371476   -3.6701715   -3.6701715   -2.2846025  0.045004911   -3.6701715     1.385569   439061 
 1964000   0.92414542   -3.6716539   -3.6716539   -2.2854389  0.045899652   -3.6716539     1.386215   439061 
 1965000   0.92405683   -3.6725513   -3.6725513   -2.2864692  0.043841746   -3.6725513    1.3860821   439061 
 1966000   0.92246049   -3.6698385   -3.6698385   -2.2861509   0.04895309   -3.6698385    1.3836876   439061 
 1967000   0.92447261   -3.6738814   -3.6738814   -2.2871757  0.047037403   -3.6738814    1.3867058   439061 
 1968000   0.92490165   -3.6735385   -3.6735385   -2.2861892  0.046644478   -3.6735385    1.3873493   439061 
 1969000    0.9247863   -3.6737771   -3.6737771   -2.2866008  0.050455819   -3.6737771    1.3871763   439061 
 1970000   0.92255183   -3.6719714   -3.6719714   -2.2881468  0.053335988   -3.6719714    1.3838246   439061 
 1971000   0.92548921    -3.676133    -3.676133   -2.2879024  0.048822885    -3.676133    1.3882307   439061 
 1972000    0.9251911   -3.6761288   -3.6761288   -2.2883453  0.044309603   -3.6761288    1.3877835   439061 
 1973000   0.92540537   -3.6767485   -3.6767485   -2.2886436  0.047169213   -3.6767485    1.3881049   439061 
 1974000   0.92488571   -3.6773387   -3.6773387   -2.2900133  0.048150189   -3.6773387    1.3873254   439061 
 1975000   0.92416492   -3.6759373   -3.6759373   -2.2896931  0.048631079   -3.6759373    1.3862442   439061 
 1976000   0.92348679   -3.6764065   -3.6764065   -2.2911794   0.04712398   -3.6764065     1.385227   439061 
 1977000   0.92552939   -3.6802748   -3.6802748   -2.2919839  0.042694038   -3.6802748    1.3882909   439061 
 1978000    0.9241508   -3.6782039   -3.6782039   -2.2919808  0.048732224   -3.6782039     1.386223   439061 
 1979000   0.92479466   -3.6797138   -3.6797138   -2.2925249  0.050205049   -3.6797138    1.3871888   439061 
 1980000   0.92637474   -3.6813157   -3.6813157   -2.2917567  0.050199608   -3.6813157    1.3895589   439061 
 1981000   0.92484177   -3.6796023   -3.6796023   -2.2923428  0.053431305   -3.6796023    1.3872595   439061 
 1982000   0.92432588   -3.6790883   -3.6790883   -2.2926026  0.052291617   -3.6790883    1.3864857   439061 
 1983000   0.92551838   -3.6804225   -3.6804225   -2.2921481  0.049961454   -3.6804225    1.3882744   439061 
 1984000   0.92427848   -3.6778288   -3.6778288   -2.2914142  0.051090392   -3.6778288    1.3864146   439061 
 1985000   0.92464065   -3.6796635   -3.6796635   -2.2927057  0.046648809   -3.6796635    1.3869578   439061 
 1986000   0.92513927   -3.6795694   -3.6795694   -2.2918637  0.047853307   -3.6795694    1.3877057   439061 
 1987000   0.92472006   -3.6802603   -3.6802603   -2.2931834  0.044778735   -3.6802603    1.3870769   439061 
 1988000   0.92387779   -3.6795229   -3.6795229   -2.2937094  0.045750498   -3.6795229    1.3858135   439061 
 1989000   0.92406315   -3.6796091   -3.6796091   -2.2935175  0.045809157   -3.6796091    1.3860916   439061 
 1990000   0.92316177   -3.6782235   -3.6782235    -2.293484  0.043643351   -3.6782235    1.3847395   439061 
 1991000   0.92183378   -3.6771693   -3.6771693   -2.2944217  0.043586977   -3.6771693    1.3827475   439061 
 1992000   0.92121352   -3.6756644   -3.6756644   -2.2938473   0.04741074   -3.6756644    1.3818171   439061 
 1993000   0.92413789   -3.6800762   -3.6800762   -2.2938725  0.043986308   -3.6800762    1.3862037   439061 
 1994000   0.92341235   -3.6783338   -3.6783338   -2.2932184  0.046042491   -3.6783338    1.3851154   439061 
 1995000    0.9238668   -3.6785176   -3.6785176   -2.2927206  0.043014287   -3.6785176     1.385797   439061 
 1996000   0.92394132   -3.6768942   -3.6768942   -2.2909854  0.045758528   -3.6768942    1.3859088   439061 
 1997000   0.92406354   -3.6789241   -3.6789241    -2.292832  0.043214858   -3.6789241    1.3860921   439061 
 1998000   0.92407257   -3.6792959   -3.6792959   -2.2931902  0.046447014   -3.6792959    1.3861057   439061 
 1999000   0.92246049   -3.6773466   -3.6773466    -2.293659   0.04642205   -3.6773466    1.3836876   439061 
 2000000   0.92163123    -3.678274    -3.678274   -2.2958303  0.047234073    -3.678274    1.3824437   439061 
 2001000   0.92169859   -3.6770076   -3.6770076   -2.2944629  0.043974739   -3.6770076    1.3825447   439061 
 2002000   0.92182797   -3.6774085   -3.6774085   -2.2946697  0.046147481   -3.6774085    1.3827388   439061 
 2003000   0.92356732   -3.6808661   -3.6808661   -2.2955183  0.044427782   -3.6808661    1.3853478   439061 
 2004000   0.92294272   -3.6800856   -3.6800856   -2.2956747  0.053110451   -3.6800856    1.3844109   439061 
 2005000   0.92473353   -3.6822736   -3.6822736   -2.2951765  0.047676553   -3.6822736    1.3870971   439061 
 2006000   0.92380483   -3.6809088   -3.6809088   -2.2952047   0.05031737   -3.6809088    1.3857041   439061 
 2007000    0.9240507   -3.6807601   -3.6807601   -2.2946872  0.050429334   -3.6807601    1.3860729   439061 
 2008000   0.92462368   -3.6825206   -3.6825206   -2.2955882  0.051855305   -3.6825206    1.3869324   439061 
 2009000   0.92558247   -3.6839335   -3.6839335   -2.2955629  0.049924371   -3.6839335    1.3883705   439061 
 2010000   0.92543816   -3.6848127   -3.6848127   -2.2966587  0.043131225   -3.6848127    1.3881541   439061 
 2011000   0.92392022   -3.6838413   -3.6838413   -2.2979641  0.050698492   -3.6838413    1.3858772   439061 
 2012000   0.92476478   -3.6855437   -3.6855437   -2.2983997  0.044108216   -3.6855437     1.387144   439061 
 2013000   0.92448982   -3.6858652   -3.6858652   -2.2991336  0.046413721   -3.6858652    1.3867316   439061 
 2014000   0.92379121   -3.6832278   -3.6832278   -2.2975441  0.050266394   -3.6832278    1.3856837   439061 
 2015000   0.92526255   -3.6854695   -3.6854695   -2.2975788  0.048101461   -3.6854695    1.3878907   439061 
 2016000   0.92261042   -3.6818626   -3.6818626   -2.2979501  0.049478292   -3.6818626    1.3839125   439061 
 2017000    0.9239799   -3.6841874   -3.6841874   -2.2982207  0.051278935   -3.6841874    1.3859667   439061 
 2018000   0.92571061   -3.6865882   -3.6865882   -2.2980254  0.047620681   -3.6865882    1.3885628   439061 
 2019000   0.92339733   -3.6843587   -3.6843587   -2.2992659   0.04322125   -3.6843587    1.3850928   439061 
 2020000   0.92350418   -3.6829265   -3.6829265   -2.2976734  0.044503863   -3.6829265    1.3852531   439061 
 2021000   0.92231508   -3.6823272   -3.6823272   -2.2988577  0.046492853   -3.6823272    1.3834695   439061 
 2022000   0.92303843   -3.6815778   -3.6815778   -2.2970233  0.044685303   -3.6815778    1.3845545   439061 
 2023000   0.92140225   -3.6804313   -3.6804313   -2.2983311  0.044472535   -3.6804313    1.3821002   439061 
 2024000   0.92274581   -3.6827038   -3.6827038   -2.2985883  0.044104732   -3.6827038    1.3841156   439061 
 2025000   0.92187248   -3.6809574   -3.6809574   -2.2981518  0.046351682   -3.6809574    1.3828056   439061 
 2026000   0.92291274   -3.6819185   -3.6819185   -2.2975526  0.043595334   -3.6819185    1.3843659   439061 
 2027000   0.92337228    -3.681752    -3.681752   -2.2966967  0.044453985    -3.681752    1.3850553   439061 
 2028000   0.92339709   -3.6825537   -3.6825537   -2.2974612  0.039769011   -3.6825537    1.3850925   439061 
 2029000   0.92162468   -3.6824281   -3.6824281   -2.2999942  0.042903456   -3.6824281    1.3824339   439061 
 2030000    0.9223279   -3.6826395   -3.6826395   -2.2991508  0.040895768   -3.6826395    1.3834887   439061 
 2031000   0.92288857   -3.6832104   -3.6832104   -2.2988807  0.049406296   -3.6832104    1.3843297   439061 
 2032000   0.92431405   -3.6853076   -3.6853076   -2.2988396  0.047127068   -3.6853076    1.3864679   439061 
 2033000   0.92561555   -3.6853162   -3.6853162    -2.296896  0.045229508   -3.6853162    1.3884202   439061 
 2034000   0.92536563   -3.6848653   -3.6848653     -2.29682  0.049394424   -3.6848653    1.3880453   439061 
 2035000   0.92391839   -3.6831836   -3.6831836   -2.2973092  0.056525664   -3.6831836    1.3858744   439061 
 2036000   0.92366511   -3.6844975   -3.6844975    -2.299003  0.050177579   -3.6844975    1.3854945   439061 
 2037000   0.92355994   -3.6849781   -3.6849781   -2.2996413  0.047358128   -3.6849781    1.3853368   439061 
 2038000   0.92153831   -3.6840728   -3.6840728   -2.3017685  0.049082967   -3.6840728    1.3823043   439061 
 2039000   0.92140862   -3.6858166   -3.6858166   -2.3037068  0.044412894   -3.6858166    1.3821098   439061 
 2040000    0.9206898   -3.6846106   -3.6846106    -2.303579  0.047623004   -3.6846106    1.3810316   439061 
 2041000   0.92028904   -3.6845812   -3.6845812   -2.3041508  0.042241775   -3.6845812    1.3804304   439061 
 2042000   0.92091827   -3.6852426   -3.6852426   -2.3038684  0.045157913   -3.6852426    1.3813743   439061 
 2043000   0.92241421   -3.6882938   -3.6882938   -2.3046757  0.041789905   -3.6882938    1.3836182   439061 
 2044000    0.9229616    -3.688569    -3.688569   -2.3041298  0.047028644    -3.688569    1.3844392   439061 
 2045000   0.92351537     -3.68954     -3.68954   -2.3042701  0.049846132     -3.68954    1.3852699   439061 
 2046000   0.92412736   -3.6900224   -3.6900224   -2.3038345  0.046398386   -3.6900224    1.3861879   439061 
 2047000   0.92320492   -3.6890664   -3.6890664   -2.3042622  0.053444108   -3.6890664    1.3848042   439061 
 2048000    0.9229811    -3.689902    -3.689902   -2.3054335  0.052993759    -3.689902    1.3844685   439061 
 2049000   0.92361866   -3.6896873   -3.6896873   -2.3042625  0.050670163   -3.6896873    1.3854248   439061 
 2050000   0.92265922   -3.6891963   -3.6891963   -2.3052106   0.04865012   -3.6891963    1.3839857   439061 
 2051000   0.92309784   -3.6897607   -3.6897607    -2.305117  0.042569918   -3.6897607    1.3846436   439061 
 2052000   0.92265031   -3.6871769   -3.6871769   -2.3032046  0.054097672   -3.6871769    1.3839723   439061 
 2053000   0.92301126   -3.6880429   -3.6880429   -2.3035291  0.050302896   -3.6880429    1.3845137   439061 
 2054000   0.92307232   -3.6892185   -3.6892185   -2.3046131  0.050652295   -3.6892185    1.3846053   439061 
 2055000    0.9236406    -3.688597    -3.688597   -2.3031392  0.051237771    -3.688597    1.3854577   439061 
 2056000   0.92385696    -3.688929    -3.688929   -2.3031467  0.054083325    -3.688929    1.3857823   439061 
 2057000   0.92489083   -3.6899397   -3.6899397   -2.3026066  0.047595361   -3.6899397    1.3873331   439061 
 2058000   0.92229598   -3.6875298   -3.6875298    -2.304089  0.045425476   -3.6875298    1.3834408   439061 
 2059000    0.9205297   -3.6865208   -3.6865208   -2.3057294  0.040416257   -3.6865208    1.3807914   439061 
 2060000   0.91969844   -3.6859276   -3.6859276   -2.3063831  0.041127333   -3.6859276    1.3795445   439061 
 2061000   0.91926214   -3.6859645   -3.6859645   -2.3070745  0.041637962   -3.6859645    1.3788901   439061 
 2062000   0.91927745    -3.687852    -3.687852    -2.308939  0.035781271    -3.687852     1.378913   439061 
 2063000   0.91940267   -3.6871098   -3.6871098    -2.308009  0.047161476   -3.6871098    1.3791009   439061 
 2064000   0.91907778   -3.6864866   -3.6864866   -2.3078731   0.03981378   -3.6864866    1.3786135   439061 
 2065000   0.92127148   -3.6879755   -3.6879755   -2.3060714  0.041674193   -3.6879755    1.3819041   439061 
 2066000   0.92135717   -3.6889962   -3.6889962   -2.3069636  0.047358669   -3.6889962    1.3820326   439061 
 2067000   0.92083042   -3.6881016   -3.6881016   -2.3068591  0.047007498   -3.6881016    1.3812425   439061 
 2068000   0.92236244   -3.6892979   -3.6892979   -2.3057574  0.048521985   -3.6892979    1.3835405   439061 
 2069000   0.92416279   -3.6915321   -3.6915321   -2.3052911  0.047142579   -3.6915321     1.386241   439061 
 2070000   0.92459568   -3.6926055   -3.6926055   -2.3057151  0.049438259   -3.6926055    1.3868904   439061 
 2071000   0.92464781   -3.6926736   -3.6926736    -2.305705  0.047361664   -3.6926736    1.3869686   439061 
 2072000   0.92332515   -3.6912989   -3.6912989   -2.3063144  0.047815333   -3.6912989    1.3849846   439061 
 2073000   0.92247795     -3.69045     -3.69045   -2.3067363  0.044655072     -3.69045    1.3837138   439061 
 2074000   0.92229217   -3.6907378   -3.6907378   -2.3073027  0.048473977   -3.6907378    1.3834351   439061 
 2075000   0.92078157   -3.6901658   -3.6901658   -2.3089965  0.047670999   -3.6901658    1.3811692   439061 
 2076000   0.92256781   -3.6920419   -3.6920419   -2.3081933  0.040764082   -3.6920419    1.3838486   439061 
 2077000    0.9218902   -3.6898851   -3.6898851   -2.3070529  0.044953945   -3.6898851    1.3828321   439061 
 2078000   0.92208946   -3.6883368   -3.6883368   -2.3052057  0.046788026   -3.6883368     1.383131   439061 
 2079000   0.92289044   -3.6901489   -3.6901489   -2.3058164  0.047229613   -3.6901489    1.3843325   439061 
 2080000   0.92289701   -3.6895164   -3.6895164   -2.3051741  0.048025947   -3.6895164    1.3843424   439061 
 2081000   0.92270503   -3.6888295   -3.6888295   -2.3047751  0.045869786   -3.6888295    1.3840544   439061 
 2082000   0.92285968   -3.6896154   -3.6896154   -2.3053291  0.045482262   -3.6896154    1.3842864   439061 
 2083000   0.92270567   -3.6897867   -3.6897867   -2.3057314  0.042270826   -3.6897867    1.3840553   439061 
 2084000   0.92231474   -3.6887102   -3.6887102   -2.3052412   0.04443334   -3.6887102     1.383469   439061 
 2085000   0.92157487   -3.6874096   -3.6874096   -2.3050505  0.040942568   -3.6874096    1.3823592   439061 
 2086000   0.92023419   -3.6852979   -3.6852979   -2.3049498  0.043853837   -3.6852979    1.3803481   439061 
 2087000   0.92166048   -3.6874812   -3.6874812   -2.3049936  0.045337775   -3.6874812    1.3824876   439061 
 2088000   0.92242678   -3.6891235   -3.6891235   -2.3054865  0.043174707   -3.6891235     1.383637   439061 
 2089000   0.92319098     -3.68947     -3.68947   -2.3046867  0.043236759     -3.68947    1.3847833   439061 
 2090000   0.92058985   -3.6874246   -3.6874246    -2.306543  0.046733829   -3.6874246    1.3808816   439061 
 2091000   0.92331646    -3.689172    -3.689172   -2.3042005    0.0366153    -3.689172    1.3849715   439061 
 2092000   0.92183198   -3.6876753   -3.6876753   -2.3049305  0.045595103   -3.6876753    1.3827448   439061 
 2093000   0.91982067   -3.6856772   -3.6856772   -2.3059494  0.044919374   -3.6856772    1.3797279   439061 
 2094000    0.9214958    -3.688768    -3.688768   -2.3065275  0.042721603    -3.688768    1.3822406   439061 
 2095000     0.921738   -3.6908433   -3.6908433   -2.3082394  0.045740086   -3.6908433    1.3826039   439061 
 2096000   0.92189315   -3.6902551   -3.6902551   -2.3074185  0.044213461   -3.6902551    1.3828366   439061 
 2097000   0.92242501   -3.6906897   -3.6906897   -2.3070553  0.047320224   -3.6906897    1.3836344   439061 
 2098000   0.92319032   -3.6914739   -3.6914739   -2.3066916  0.043441638   -3.6914739    1.3847823   439061 
 2099000   0.92279022    -3.691138    -3.691138   -2.3069558  0.040661174    -3.691138    1.3841822   439061 
 2100000   0.92266419   -3.6897943   -3.6897943   -2.3058012  0.045325635   -3.6897943    1.3839931   439061 
 2101000   0.92183793    -3.690021    -3.690021   -2.3072673  0.046531425    -3.690021    1.3827538   439061 
 2102000   0.92368692   -3.6944132   -3.6944132    -2.308886  0.043347165   -3.6944132    1.3855272   439061 
 2103000   0.92205064   -3.6934347   -3.6934347   -2.3103619  0.043136361   -3.6934347    1.3830728   439061 
 2104000   0.92131697   -3.6923548   -3.6923548   -2.3103825  0.046510856   -3.6923548    1.3819723   439061 
 2105000   0.92207029   -3.6938279   -3.6938279   -2.3107256  0.041347871   -3.6938279    1.3831023   439061 
 2106000    0.9218009   -3.6921866   -3.6921866   -2.3094884  0.050653185   -3.6921866    1.3826982   439061 
 2107000   0.92228461   -3.6947723   -3.6947723   -2.3113485  0.044402876   -3.6947723    1.3834238   439061 
 2108000   0.92342497   -3.6962908   -3.6962908   -2.3111565   0.04270294   -3.6962908    1.3851343   439061 
 2109000   0.92248523   -3.6954207   -3.6954207    -2.311696   0.04201943   -3.6954207    1.3837247   439061 
 2110000    0.9225039   -3.6957272   -3.6957272   -2.3119745  0.044560193   -3.6957272    1.3837527   439061 
 2111000   0.92171474    -3.693745    -3.693745    -2.311176  0.050135136    -3.693745     1.382569   439061 
 2112000   0.92158269   -3.6950572   -3.6950572   -2.3126863  0.045950896   -3.6950572    1.3823709   439061 
 2113000   0.92101823   -3.6955535   -3.6955535   -2.3140293  0.048048396   -3.6955535    1.3815242   439061 
 2114000   0.92255962   -3.6974271   -3.6974271   -2.3135908  0.045111782   -3.6974271    1.3838363   439061 
 2115000   0.92226323    -3.696548    -3.696548   -2.3131563  0.043613914    -3.696548    1.3833917   439061 
 2116000   0.92071739   -3.6949773   -3.6949773   -2.3139043  0.043029064   -3.6949773    1.3810729   439061 
 2117000   0.92013493   -3.6942414   -3.6942414   -2.3140421   0.04363908   -3.6942414    1.3801992   439061 
 2118000   0.92117997   -3.6963467   -3.6963467   -2.3145799   0.04284788   -3.6963467    1.3817668   439061 
 2119000   0.92110746   -3.6948152   -3.6948152   -2.3131572  0.043914102   -3.6948152     1.381658   439061 
 2120000   0.92083852    -3.695559    -3.695559   -2.3143044  0.044105872    -3.695559    1.3812546   439061 
 2121000   0.92060426    -3.695872    -3.695872   -2.3149687  0.048352811    -3.695872    1.3809032   439061 
 2122000   0.92033809   -3.6952864   -3.6952864   -2.3147824  0.047289174   -3.6952864     1.380504   439061 
 2123000   0.92151524   -3.6964555   -3.6964555   -2.3141858  0.045085263   -3.6964555    1.3822697   439061 
 2124000   0.92040299    -3.694669    -3.694669   -2.3140676   0.04568297    -3.694669    1.3806013   439061 
 2125000   0.91928039   -3.6934988   -3.6934988   -2.3145814  0.041635404   -3.6934988    1.3789175   439061 
 2126000   0.92064078   -3.6959536   -3.6959536   -2.3149955  0.042597581   -3.6959536     1.380958   439061 
 2127000   0.92208784   -3.6986785   -3.6986785   -2.3155499  0.042045497   -3.6986785    1.3831286   439061 
 2128000   0.92162959   -3.6990193   -3.6990193    -2.316578  0.043605942   -3.6990193    1.3824412   439061 
 2129000   0.91996941   -3.6969286   -3.6969286   -2.3169776  0.042155277   -3.6969286     1.379951   439061 
 2130000   0.92048495    -3.697448    -3.697448   -2.3167237  0.042682009    -3.697448    1.3807243   439061 
 2131000   0.92086845   -3.6978898   -3.6978898   -2.3165903   0.04359604   -3.6978898    1.3812995   439061 
 2132000   0.92056615    -3.697737    -3.697737   -2.3168909  0.046784185    -3.697737    1.3808461   439061 
 2133000   0.92029435   -3.6955402   -3.6955402   -2.3151018  0.048610364   -3.6955402    1.3804384   439061 
 2134000   0.92140269   -3.6974275   -3.6974275   -2.3153266  0.048438708   -3.6974275    1.3821009   439061 
 2135000   0.92073016   -3.6981107   -3.6981107   -2.3170186    0.0441349   -3.6981107    1.3810921   439061 
 2136000   0.92139106   -3.6987364   -3.6987364   -2.3166529  0.044249636   -3.6987364    1.3820834   439061 
 2137000   0.92233095   -3.6999561   -3.6999561   -2.3164628  0.047077097   -3.6999561    1.3834933   439061 
 2138000   0.92191165   -3.6988676   -3.6988676   -2.3160033  0.048612703   -3.6988676    1.3828643   439061 
 2139000   0.92163306   -3.6974652   -3.6974652   -2.3150187  0.042279669   -3.6974652    1.3824464   439061 
 2140000    0.9200363   -3.6972732   -3.6972732   -2.3172219  0.050165105   -3.6972732    1.3800513   439061 
 2141000   0.92207152   -3.6990008   -3.6990008   -2.3158966  0.041804404   -3.6990008    1.3831041   439061 
 2142000   0.92021425   -3.6961714   -3.6961714   -2.3158531  0.047396686   -3.6961714    1.3803182   439061 
 2143000   0.92091835   -3.6967795   -3.6967795   -2.3154051  0.044074512   -3.6967795    1.3813744   439061 
 2144000   0.92026173   -3.6958783   -3.6958783   -2.3154888  0.047617476   -3.6958783    1.3803895   439061 
 2145000   0.92101013   -3.6957395   -3.6957395   -2.3142275  0.047698889   -3.6957395     1.381512   439061 
 2146000   0.92229045   -3.6969498   -3.6969498   -2.3135173  0.047105465   -3.6969498    1.3834325   439061 
 2147000   0.92024238   -3.6958499   -3.6958499   -2.3154895  0.049738136   -3.6958499    1.3803604   439061 
 2148000   0.92039577   -3.6964927   -3.6964927   -2.3159022    0.0404549   -3.6964927    1.3805905   439061 
 2149000   0.92006827   -3.6957062   -3.6957062   -2.3156069  0.040841181   -3.6957062    1.3800993   439061 
 2150000   0.91853528   -3.6939408   -3.6939408    -2.316141  0.045647144   -3.6939408    1.3777998   439061 
 2151000   0.92064841   -3.6964933   -3.6964933   -2.3155238  0.049005532   -3.6964933    1.3809695   439061 
 2152000   0.92127647   -3.6961435   -3.6961435   -2.3142319  0.043250844   -3.6961435    1.3819116   439061 
 2153000   0.92142133   -3.6965558   -3.6965558   -2.3144269  0.042808841   -3.6965558    1.3821288   439061 
 2154000   0.92145852   -3.6978899   -3.6978899   -2.3157053  0.039037351   -3.6978899    1.3821846   439061 
 2155000   0.92181084   -3.6979834   -3.6979834   -2.3152702  0.040822836   -3.6979834    1.3827131   439061 
 2156000   0.92114876   -3.6985252   -3.6985252   -2.3168053  0.044359866   -3.6985252      1.38172   439061 
 2157000   0.91984013   -3.6981154   -3.6981154   -2.3183584   0.04262943   -3.6981154    1.3797571   439061 
 2158000   0.91902909   -3.6981089   -3.6981089   -2.3195684  0.039069245   -3.6981089    1.3785405   439061 
 2159000   0.91951523   -3.6985723   -3.6985723   -2.3193026  0.042336772   -3.6985723    1.3792697   439061 
 2160000   0.91926269   -3.6990831   -3.6990831   -2.3201922  0.040595091   -3.6990831    1.3788909   439061 
 2161000   0.92052473    -3.701221    -3.701221   -2.3204371  0.042384123    -3.701221    1.3807839   439061 
 2162000   0.92024001   -3.7001339   -3.7001339    -2.319777  0.045840088   -3.7001339    1.3803569   439061 
 2163000   0.92108021   -3.7006128   -3.7006128   -2.3189956  0.044391512   -3.7006128    1.3816172   439061 
 2164000   0.92090942   -3.7016917   -3.7016917   -2.3203307  0.043889822   -3.7016917     1.381361   439061 
 2165000   0.92069917   -3.7022451   -3.7022451   -2.3211995  0.051723911   -3.7022451    1.3810456   439061 
 2166000   0.92195668   -3.7038282   -3.7038282   -2.3208963  0.047908982   -3.7038282    1.3829319   439061 
 2167000   0.92095445   -3.7026658   -3.7026658   -2.3212373  0.047246232   -3.7026658    1.3814285   439061 
 2168000   0.92200262   -3.7044248   -3.7044248    -2.321424  0.050215787   -3.7044248    1.3830008   439061 
 2169000   0.92061326   -3.7044998   -3.7044998    -2.323583  0.043674542   -3.7044998    1.3809168   439061 
 2170000   0.91969806   -3.7031192   -3.7031192   -2.3235753  0.049849617   -3.7031192    1.3795439   439061 
 2171000   0.92159172   -3.7058432   -3.7058432   -2.3234588  0.044258517   -3.7058432    1.3823844   439061 
 2172000   0.92109696   -3.7052739   -3.7052739   -2.3236316  0.044349585   -3.7052739    1.3816423   439061 
 2173000   0.92003788   -3.7035885   -3.7035885   -2.3235348   0.04581838   -3.7035885    1.3800537   439061 
 2174000   0.91948924   -3.7023501   -3.7023501   -2.3231194  0.046139662   -3.7023501    1.3792307   439061 
 2175000   0.92083667   -3.7042736   -3.7042736   -2.3230217  0.040190611   -3.7042736    1.3812519   439061 
 2176000    0.9196775    -3.701513    -3.701513   -2.3219999  0.047892275    -3.701513    1.3795131   439061 
 2177000   0.92097216   -3.7027554   -3.7027554   -2.3213003  0.044998871   -3.7027554    1.3814551   439061 
 2178000   0.92081918   -3.7037623   -3.7037623   -2.3225367  0.044383643   -3.7037623    1.3812256   439061 
 2179000   0.92092045   -3.7025582   -3.7025582   -2.3211807  0.048397218   -3.7025582    1.3813775   439061 
 2180000   0.92049144   -3.7027145   -3.7027145   -2.3219805  0.042664716   -3.7027145     1.380734   439061 
 2181000   0.91944932   -3.7008809   -3.7008809   -2.3217101  0.046464387   -3.7008809    1.3791708   439061 
 2182000   0.91928293   -3.7012626   -3.7012626   -2.3223414  0.045489221   -3.7012626    1.3789213   439061 
 2183000    0.9197556    -3.701653    -3.701653   -2.3220227  0.043837807    -3.701653    1.3796303   439061 
 2184000   0.92005411   -3.7013625   -3.7013625   -2.3212844  0.044305476   -3.7013625     1.380078   439061 
 2185000   0.91982122   -3.7015809   -3.7015809   -2.3218522  0.043496453   -3.7015809    1.3797287   439061 
 2186000   0.92053406   -3.7020428   -3.7020428   -2.3212449  0.044358541   -3.7020428    1.3807979   439061 
 2187000   0.92069846   -3.7007502   -3.7007502   -2.3197057  0.045791932   -3.7007502    1.3810446   439061 
 2188000   0.92199449   -3.7021991   -3.7021991   -2.3192106  0.048486504   -3.7021991    1.3829886   439061 
 2189000   0.92062723   -3.7020046   -3.7020046   -2.3210669  0.047134971   -3.7020046    1.3809377   439061 
 2190000   0.92048617   -3.7030797   -3.7030797   -2.3223536  0.041566477   -3.7030797    1.3807261   439061 
 2191000    0.9198643   -3.7021255   -3.7021255   -2.3223322  0.043343529   -3.7021255    1.3797933   439061 
 2192000   0.92116106   -3.7045987   -3.7045987   -2.3228602  0.042862859   -3.7045987    1.3817384   439061 
 2193000   0.91999801   -3.7044127   -3.7044127   -2.3244188  0.040056318   -3.7044127    1.3799939   439061 
 2194000   0.91993792   -3.7043296   -3.7043296   -2.3244259  0.045978109   -3.7043296    1.3799037   439061 
 2195000    0.9196474   -3.7037827   -3.7037827   -2.3243148  0.044386837   -3.7037827     1.379468   439061 
 2196000   0.92017078   -3.7047831   -3.7047831   -2.3245301  0.044054874   -3.7047831     1.380253   439061 
 2197000   0.92126617    -3.705391    -3.705391   -2.3234949  0.044177496    -3.705391    1.3818961   439061 
 2198000   0.92072746   -3.7052335   -3.7052335   -2.3241455  0.044845678   -3.7052335     1.381088   439061 
 2199000     0.921313   -3.7055184   -3.7055184   -2.3235521  0.049359267   -3.7055184    1.3819663   439061 
 2200000   0.92159163   -3.7070947   -3.7070947   -2.3247104  0.047659279   -3.7070947    1.3823843   439061 
 2201000   0.92169424   -3.7072856   -3.7072856   -2.3247473  0.048137758   -3.7072856    1.3825382   439061 
 2202000   0.92186388   -3.7084659   -3.7084659   -2.3256732  0.043242304   -3.7084659    1.3827927   439061 
 2203000   0.92097277   -3.7065164   -3.7065164   -2.3250604  0.045973165   -3.7065164     1.381456   439061 
 2204000   0.92202277   -3.7075905   -3.7075905   -2.3245595  0.044213094   -3.7075905     1.383031   439061 
 2205000    0.9209484   -3.7076134   -3.7076134    -2.326194  0.043920624   -3.7076134    1.3814195   439061 
 2206000   0.91991658   -3.7053744   -3.7053744   -2.3255027  0.050762567   -3.7053744    1.3798717   439061 
 2207000   0.92239015   -3.7086265   -3.7086265   -2.3250444  0.045915747   -3.7086265    1.3835821   439061 
 2208000   0.92126829   -3.7076107   -3.7076107   -2.3257114  0.046412849   -3.7076107    1.3818993   439061 
 2209000   0.92114656   -3.7077394   -3.7077394   -2.3260227  0.047849885   -3.7077394    1.3817167   439061 
 2210000   0.92192342   -3.7076595   -3.7076595   -2.3247776  0.046128727   -3.7076595     1.382882   439061 
 2211000   0.92077466   -3.7058399   -3.7058399   -2.3246811  0.045391494   -3.7058399    1.3811588   439061 
 2212000   0.91991469   -3.7048295   -3.7048295   -2.3249606  0.047765895   -3.7048295    1.3798689   439061 
 2213000   0.92047411   -3.7038992   -3.7038992   -2.3231912  0.047345607   -3.7038992     1.380708   439061 
 2214000   0.92113931   -3.7048927   -3.7048927   -2.3231869  0.046042196   -3.7048927    1.3817058   439061 
 2215000   0.92092629   -3.7053168   -3.7053168   -2.3239305  0.042732692   -3.7053168    1.3813863   439061 
 2216000   0.92086946    -3.705608    -3.705608   -2.3243069  0.042935311    -3.705608     1.381301   439061 
 2217000   0.91961785    -3.704981    -3.704981   -2.3255573  0.039897099    -3.704981    1.3794236   439061 
 2218000   0.92017103   -3.7069849   -3.7069849   -2.3267315  0.037688466   -3.7069849    1.3802534   439061 
 2219000   0.91959431   -3.7055783   -3.7055783     -2.32619  0.037449125   -3.7055783    1.3793883   439061 
 2220000   0.91724089   -3.7040101   -3.7040101   -2.3281518  0.041233292   -3.7040101    1.3758582   439061 
 2221000    0.9191388   -3.7054423   -3.7054423   -2.3267372  0.036493939   -3.7054423    1.3787051   439061 
 2222000   0.92031767   -3.7067532   -3.7067532   -2.3262798  0.044046465   -3.7067532    1.3804734   439061 
 2223000   0.92063258   -3.7078137   -3.7078137   -2.3268679  0.044738539   -3.7078137    1.3809457   439061 
 2224000   0.92187729   -3.7097861   -3.7097861   -2.3269733  0.047849509   -3.7097861    1.3828128   439061 
 2225000   0.92264098   -3.7109379   -3.7109379   -2.3269796  0.044182271   -3.7109379    1.3839583   439061 
 2226000   0.92222665   -3.7097167   -3.7097167   -2.3263799  0.048574826   -3.7097167    1.3833368   439061 
 2227000   0.92241806   -3.7106855   -3.7106855   -2.3270615  0.048393082   -3.7106855    1.3836239   439061 
 2228000    0.9197856   -3.7089026   -3.7089026   -2.3292273  0.051754554   -3.7089026    1.3796753   439061 
 2229000   0.91946061   -3.7095936   -3.7095936   -2.3304059  0.044083381   -3.7095936    1.3791878   439061 
 2230000   0.91924198   -3.7105967   -3.7105967   -2.3317368  0.047690965   -3.7105967    1.3788598   439061 
 2231000   0.92129021   -3.7111018   -3.7111018   -2.3291697  0.045440351   -3.7111018    1.3819322   439061 
 2232000   0.92101144   -3.7102514   -3.7102514   -2.3287373   0.05097344   -3.7102514     1.381514   439061 
 2233000    0.9227005    -3.712954    -3.712954   -2.3289064  0.046007139    -3.712954    1.3840476   439061 
 2234000   0.92150214   -3.7109231   -3.7109231    -2.328673  0.046476016   -3.7109231    1.3822501   439061 
 2235000   0.92130611   -3.7113452   -3.7113452   -2.3293891  0.049633643   -3.7113452     1.381956   439061 
 2236000   0.92072559   -3.7114821   -3.7114821   -2.3303968  0.038962707   -3.7114821    1.3810852   439061 
 2237000   0.92065454    -3.710325    -3.710325   -2.3293463  0.047051581    -3.710325    1.3809787   439061 
 2238000   0.91882346   -3.7085662   -3.7085662   -2.3303342   0.04466614   -3.7085662    1.3782321   439061 
 2239000   0.91861027   -3.7089417   -3.7089417   -2.3310294  0.044542503   -3.7089417    1.3779123   439061 
 2240000    0.9198396   -3.7107797   -3.7107797   -2.3310235  0.040419114   -3.7107797    1.3797563   439061 
 2241000   0.91982472   -3.7114012   -3.7114012   -2.3316673  0.039672983   -3.7114012    1.3797339   439061 
 2242000   0.91843435   -3.7090025   -3.7090025   -2.3313541  0.041099137   -3.7090025    1.3776484   439061 
 2243000   0.91822074   -3.7076327   -3.7076327   -2.3303047  0.038938403   -3.7076327     1.377328   439061 
 2244000   0.91961264   -3.7094907   -3.7094907   -2.3300749  0.040026315   -3.7094907    1.3794158   439061 
 2245000   0.92093557   -3.7106262   -3.7106262    -2.329226  0.040681332   -3.7106262    1.3814002   439061 
 2246000   0.91907649   -3.7079861   -3.7079861   -2.3293745  0.046317964   -3.7079861    1.3786116   439061 
 2247000   0.91901039   -3.7095573   -3.7095573   -2.3310448   0.04592531   -3.7095573    1.3785125   439061 
 2248000   0.91942295   -3.7100054   -3.7100054   -2.3308741  0.041290418   -3.7100054    1.3791313   439061 
 2249000   0.91887357   -3.7099614   -3.7099614   -2.3316541  0.040414327   -3.7099614    1.3783072   439061 
 2250000   0.91861146   -3.7097903   -3.7097903   -2.3318762  0.045269803   -3.7097903    1.3779141   439061 
 2251000   0.91911782   -3.7102899   -3.7102899   -2.3316163  0.046179022   -3.7102899    1.3786736   439061 
 2252000   0.91943362   -3.7113144   -3.7113144   -2.3321671  0.044874302   -3.7113144    1.3791473   439061 
 2253000   0.91909938   -3.7106817   -3.7106817   -2.3320357  0.038884715   -3.7106817    1.3786459   439061 
 2254000   0.91944667   -3.7106688   -3.7106688   -2.3315019  0.047757155   -3.7106688    1.3791669   439061 
 2255000    0.9201994   -3.7129973   -3.7129973   -2.3327013  0.040787716   -3.7129973     1.380296   439061 
 2256000   0.92061666   -3.7129569   -3.7129569    -2.332035  0.043887344   -3.7129569    1.3809218   439061 
 2257000   0.91964615    -3.711363    -3.711363   -2.3318969  0.047684931    -3.711363    1.3794661   439061 
 2258000   0.92134255   -3.7140355   -3.7140355   -2.3320248  0.041519762   -3.7140355    1.3820107   439061 
 2259000   0.91915137   -3.7112933   -3.7112933   -2.3325694  0.043614409   -3.7112933    1.3787239   439061 
 2260000   0.91987243   -3.7123295   -3.7123295    -2.332524  0.043129244   -3.7123295    1.3798055   439061 
 2261000   0.91850841   -3.7117801   -3.7117801   -2.3340206  0.048094388   -3.7117801    1.3777595   439061 
 2262000   0.91872249   -3.7114811   -3.7114811   -2.3334006  0.049428852   -3.7114811    1.3780806   439061 
 2263000   0.91978634   -3.7138509   -3.7138509   -2.3341746  0.042086667   -3.7138509    1.3796764   439061 
 2264000   0.91891639   -3.7119184   -3.7119184    -2.333547  0.043881985   -3.7119184    1.3783714   439061 
 2265000   0.91795203   -3.7117668   -3.7117668   -2.3348419  0.036368133   -3.7117668    1.3769249   439061 
 2266000   0.92045229   -3.7145515   -3.7145515   -2.3338762  0.041203268   -3.7145515    1.3806753   439061 
 2267000   0.91935551   -3.7132773   -3.7132773   -2.3342472  0.045381921   -3.7132773    1.3790301   439061 
 2268000   0.91920426   -3.7135793   -3.7135793   -2.3347761  0.048506772   -3.7135793    1.3788033   439061 
 2269000   0.91858241   -3.7115288   -3.7115288   -2.3336583  0.045495564   -3.7115288    1.3778705   439061 
 2270000   0.91813346   -3.7121255   -3.7121255   -2.3349284  0.045365687   -3.7121255    1.3771971   439061 
 2271000   0.91946173   -3.7155459   -3.7155459   -2.3363565  0.041243041   -3.7155459    1.3791895   439061 
 2272000   0.91802692   -3.7137526   -3.7137526   -2.3367154  0.040406968   -3.7137526    1.3770372   439061 
 2273000   0.91709422   -3.7129403   -3.7129403   -2.3373021  0.042808662   -3.7129403    1.3756382   439061 
 2274000   0.91869829   -3.7159047   -3.7159047   -2.3378604  0.035002416   -3.7159047    1.3780443   439061 
 2275000   0.91819072   -3.7119149   -3.7119149   -2.3346319  0.043283846   -3.7119149    1.3772829   439061 
 2276000   0.91711054    -3.711377    -3.711377   -2.3357144  0.045563739    -3.711377    1.3756627   439061 
 2277000   0.91920575   -3.7147258   -3.7147258   -2.3359203  0.042288366   -3.7147258    1.3788055   439061 
 2278000   0.91864797   -3.7158663   -3.7158663   -2.3378975  0.039193185   -3.7158663    1.3779688   439061 
 2279000   0.91870693   -3.7144148   -3.7144148   -2.3363575  0.048084302   -3.7144148    1.3780573   439061 
 2280000   0.92011407   -3.7160902   -3.7160902   -2.3359223  0.047385373   -3.7160902     1.380168   439061 
 2281000   0.92001867   -3.7172753   -3.7172753   -2.3372504  0.043540049   -3.7172753    1.3800249   439061 
 2282000   0.91935375   -3.7167528   -3.7167528   -2.3377253  0.047951744   -3.7167528    1.3790275   439061 
 2283000   0.91960375   -3.7158078   -3.7158078   -2.3364053  0.043798154   -3.7158078    1.3794025   439061 
 2284000   0.92071753   -3.7179236   -3.7179236   -2.3368504  0.044833056   -3.7179236    1.3810732   439061 
 2285000   0.91945565   -3.7151882   -3.7151882   -2.3360079  0.045329202   -3.7151882    1.3791803   439061 
 2286000    0.9201371   -3.7173305   -3.7173305    -2.337128  0.041661417   -3.7173305    1.3802025   439061 
 2287000   0.91911942    -3.716734    -3.716734    -2.338058  0.043607386    -3.716734     1.378676   439061 
 2288000   0.91896383   -3.7159375   -3.7159375   -2.3374949  0.042591627   -3.7159375    1.3784426   439061 
 2289000   0.91934051   -3.7153842   -3.7153842   -2.3363766  0.047226743   -3.7153842    1.3790076   439061 
 2290000   0.91846299   -3.7146335   -3.7146335   -2.3369421  0.047321669   -3.7146335    1.3776913   439061 
 2291000   0.91857294   -3.7146191   -3.7146191   -2.3367629  0.041849821   -3.7146191    1.3778563   439061 
 2292000   0.91919979   -3.7149612   -3.7149612   -2.3361647  0.039549076   -3.7149612    1.3787965   439061 
 2293000   0.91742602   -3.7127562   -3.7127562   -2.3366203  0.042301711   -3.7127562    1.3761359   439061 
 2294000   0.91745105   -3.7124784   -3.7124784   -2.3363049  0.043433562   -3.7124784    1.3761734   439061 
 2295000   0.91886843   -3.7142016   -3.7142016   -2.3359021  0.039124534   -3.7142016    1.3782995   439061 
 2296000   0.91737426   -3.7121768   -3.7121768   -2.3361186  0.045514851   -3.7121768    1.3760583   439061 
 2297000   0.91712284   -3.7129175   -3.7129175   -2.3372364  0.042465998   -3.7129175    1.3756811   439061 
 2298000    0.9174142   -3.7126068   -3.7126068   -2.3364887  0.041779726   -3.7126068    1.3761182   439061 
 2299000   0.91820382   -3.7130967   -3.7130967   -2.3357941  0.045493842   -3.7130967    1.3773026   439061 
 2300000   0.91971003    -3.715466    -3.715466   -2.3359041  0.034030544    -3.715466    1.3795619   439061 
 2301000   0.91850002   -3.7141596   -3.7141596   -2.3364127  0.037851961   -3.7141596    1.3777469   439061 
 2302000     0.919322   -3.7152872   -3.7152872   -2.3363073  0.042418045   -3.7152872    1.3789799   439061 
 2303000   0.91961603   -3.7153906   -3.7153906   -2.3359697  0.043439439   -3.7153906    1.3794209   439061 
 2304000   0.91943092   -3.7163057   -3.7163057   -2.3371625  0.039808941   -3.7163057    1.3791432   439061 
 2305000   0.91871362    -3.715089    -3.715089   -2.3370217  0.043789414    -3.715089    1.3780673   439061 
 2306000   0.91953466   -3.7170886   -3.7170886   -2.3377897  0.038632523   -3.7170886    1.3792989   439061 
 2307000   0.91813329   -3.7159897   -3.7159897   -2.3387929  0.046701529   -3.7159897    1.3771968   439061 
 2308000   0.91857344   -3.7173219   -3.7173219   -2.3394648  0.041129427   -3.7173219     1.377857   439061 
 2309000   0.91880997   -3.7163335   -3.7163335   -2.3381217    0.0429484   -3.7163335    1.3782118   439061 
 2310000   0.91787574   -3.7157546   -3.7157546   -2.3389442  0.046747921   -3.7157546    1.3768105   439061 
 2311000   0.91862117   -3.7169062   -3.7169062   -2.3389776  0.042589172   -3.7169062    1.3779286   439061 
 2312000   0.92018465   -3.7198954   -3.7198954   -2.3396216  0.043341663   -3.7198954    1.3802738   439061 
 2313000   0.91993323   -3.7185453   -3.7185453   -2.3386486  0.047176669   -3.7185453    1.3798967   439061 
 2314000    0.9199987   -3.7189852   -3.7189852   -2.3389903   0.04592241   -3.7189852    1.3799949   439061 
 2315000   0.92035898   -3.7203612   -3.7203612   -2.3398259  0.045240582   -3.7203612    1.3805353   439061 
 2316000   0.92004258   -3.7194984   -3.7194984   -2.3394377  0.046256199   -3.7194984    1.3800607   439061 
 2317000   0.91924504   -3.7184491   -3.7184491   -2.3395847  0.042884682   -3.7184491    1.3788644   439061 
 2318000    0.9201109   -3.7195271   -3.7195271   -2.3393639  0.042516011   -3.7195271    1.3801632   439061 
 2319000    0.9173871   -3.7160346   -3.7160346   -2.3399571  0.049918668   -3.7160346    1.3760775   439061 
 2320000   0.91868163   -3.7180942   -3.7180942   -2.3400749  0.045092675   -3.7180942    1.3780193   439061 
 2321000   0.91816899   -3.7168689   -3.7168689   -2.3396186  0.042554231   -3.7168689    1.3772503   439061 
 2322000   0.91974928   -3.7195841   -3.7195841   -2.3399633   0.04125669   -3.7195841    1.3796208   439061 
 2323000   0.91770266   -3.7184137   -3.7184137   -2.3418628  0.034249213   -3.7184137    1.3765509   439061 
 2324000   0.91747387   -3.7189164   -3.7189164   -2.3427088   0.03881192   -3.7189164    1.3762077   439061 
 2325000   0.91848129   -3.7196981   -3.7196981   -2.3419793  0.038342272   -3.7196981    1.3777188   439061 
 2326000   0.91782003   -3.7181048   -3.7181048   -2.3413779  0.040097137   -3.7181048    1.3767269   439061 
 2327000   0.91832022   -3.7183069   -3.7183069   -2.3408297  0.039293728   -3.7183069    1.3774772   439061 
 2328000   0.91779421   -3.7186941   -3.7186941   -2.3420059  0.044361184   -3.7186941    1.3766882   439061 
 2329000   0.91864351   -3.7203476   -3.7203476   -2.3423855  0.040861456   -3.7203476    1.3779621   439061 
 2330000   0.91935809   -3.7208261   -3.7208261   -2.3417921    0.0417032   -3.7208261     1.379034   439061 
 2331000   0.91778073   -3.7192845   -3.7192845   -2.3426165  0.043075456   -3.7192845     1.376668   439061 
 2332000   0.91800987   -3.7183658   -3.7183658   -2.3413542  0.041029163   -3.7183658    1.3770117   439061 
 2333000   0.92014204   -3.7212669   -3.7212669    -2.341057  0.044936912   -3.7212669    1.3802099   439061 
 2334000    0.9200726   -3.7215029   -3.7215029   -2.3413971  0.048021396   -3.7215029    1.3801058   439061 
 2335000   0.91858662   -3.7202992   -3.7202992   -2.3424224  0.045182138   -3.7202992    1.3778768   439061 
 2336000   0.91956258   -3.7211134   -3.7211134   -2.3417726  0.045096553   -3.7211134    1.3793407   439061 
 2337000   0.91885541    -3.720707    -3.720707    -2.342427  0.040169989    -3.720707      1.37828   439061 
 2338000   0.91907305   -3.7211281   -3.7211281   -2.3425217  0.042602344   -3.7211281    1.3786064   439061 
 2339000   0.91994331   -3.7224204   -3.7224204   -2.3425086  0.039531365   -3.7224204    1.3799118   439061 
 2340000   0.91775307   -3.7195651   -3.7195651   -2.3429386  0.041054156   -3.7195651    1.3766265   439061 
 2341000   0.91929731   -3.7211166   -3.7211166   -2.3421738  0.044377291   -3.7211166    1.3789428   439061 
 2342000   0.91916516   -3.7183376   -3.7183376    -2.339593  0.044590631   -3.7183376    1.3787446   439061 
 2343000   0.91800775   -3.7167269   -3.7167269   -2.3397184  0.043918346   -3.7167269    1.3770085   439061 
 2344000   0.91837311   -3.7185125   -3.7185125   -2.3409559  0.047680591   -3.7185125    1.3775565   439061 
 2345000   0.91822909   -3.7183552   -3.7183552   -2.3410147  0.045904941   -3.7183552    1.3773405   439061 
 2346000   0.91748737   -3.7178452   -3.7178452   -2.3416173  0.046223473   -3.7178452    1.3762279   439061 
 2347000   0.91721249   -3.7171742   -3.7171742   -2.3413586    0.0414469   -3.7171742    1.3758156   439061 
 2348000   0.91707057   -3.7167401   -3.7167401   -2.3411374  0.038494441   -3.7167401    1.3756027   439061 
 2349000   0.91700927   -3.7173171   -3.7173171   -2.3418063  0.044163384   -3.7173171    1.3755108   439061 
 2350000   0.91598963   -3.7162805   -3.7162805   -2.3422992  0.045075715   -3.7162805    1.3739813   439061 
 2351000   0.91615912   -3.7159271   -3.7159271   -2.3416916  0.043538683   -3.7159271    1.3742356   439061 
 2352000   0.91694201   -3.7175377   -3.7175377   -2.3421278  0.037332928   -3.7175377    1.3754099   439061 
 2353000   0.91906647   -3.7199724   -3.7199724   -2.3413758  0.038064755   -3.7199724    1.3785966   439061 
 2354000   0.91862715   -3.7197881   -3.7197881   -2.3418506  0.041142413   -3.7197881    1.3779376   439061 
 2355000   0.91985336   -3.7210182   -3.7210182   -2.3412413  0.043666438   -3.7210182    1.3797769   439061 
 2356000   0.91953201   -3.7202643   -3.7202643   -2.3409695  0.040964456   -3.7202643    1.3792949   439061 
 2357000   0.91785437   -3.7202379   -3.7202379   -2.3434595  0.043530661   -3.7202379    1.3767784   439061 
 2358000   0.91760209   -3.7194824   -3.7194824   -2.3430824  0.041127147   -3.7194824       1.3764   439061 
 2359000   0.91659797   -3.7189436   -3.7189436   -2.3440497  0.045612621   -3.7189436    1.3748938   439061 
 2360000   0.91769792   -3.7204193   -3.7204193   -2.3438756  0.040939834   -3.7204193    1.3765437   439061 
 2361000   0.91892729   -3.7226536   -3.7226536   -2.3442658   0.04509476   -3.7226536    1.3783878   439061 
 2362000   0.91835364   -3.7225344   -3.7225344   -2.3450071  0.043250315   -3.7225344    1.3775273   439061 
 2363000   0.91837243   -3.7231058   -3.7231058   -2.3455503  0.042717077   -3.7231058    1.3775555   439061 
 2364000   0.91713936   -3.7217402   -3.7217402   -2.3460343  0.043548246   -3.7217402    1.3757059   439061 
 2365000   0.91811108   -3.7221552   -3.7221552   -2.3449917  0.042614333   -3.7221552    1.3771635   439061 
 2366000   0.91758521   -3.7221691   -3.7221691   -2.3457944   0.03885609   -3.7221691    1.3763747   439061 
 2367000    0.9182968   -3.7227327   -3.7227327   -2.3452906  0.045452041   -3.7227327    1.3774421   439061 
 2368000   0.91809222   -3.7229031   -3.7229031   -2.3457679  0.045895292   -3.7229031    1.3771352   439061 
 2369000   0.91841663    -3.724123    -3.724123   -2.3465012  0.045909846    -3.724123    1.3776218   439061 
 2370000   0.91744533   -3.7238797   -3.7238797   -2.3477148  0.040482868   -3.7238797    1.3761649   439061 
 2371000   0.91656858   -3.7215773   -3.7215773   -2.3467276  0.043396482   -3.7215773    1.3748497   439061 
 2372000   0.91776342   -3.7224257   -3.7224257   -2.3457837  0.044205967   -3.7224257     1.376642   439061 
 2373000   0.91709029   -3.7226247   -3.7226247   -2.3469924  0.042192622   -3.7226247    1.3756323   439061 
 2374000   0.91556873   -3.7223972   -3.7223972   -2.3490472  0.040233673   -3.7223972      1.37335   439061 
 2375000   0.91685003   -3.7243065   -3.7243065   -2.3490346  0.038902207   -3.7243065    1.3752719   439061 
 2376000   0.91669911   -3.7232212   -3.7232212   -2.3481757  0.040394997   -3.7232212    1.3750455   439061 
 2377000   0.91619708   -3.7218465   -3.7218465   -2.3475541  0.041869946   -3.7218465    1.3742925   439061 
 2378000   0.91793803   -3.7239411   -3.7239411   -2.3470372  0.039699605   -3.7239411    1.3769039   439061 
 2379000   0.91754654   -3.7237489   -3.7237489   -2.3474322   0.04519258   -3.7237489    1.3763167   439061 
 2380000   0.91776013    -3.725493    -3.725493   -2.3488559  0.036918085    -3.725493    1.3766371   439061 
 2381000   0.91835621   -3.7260366   -3.7260366   -2.3485054  0.041718216   -3.7260366    1.3775312   439061 
 2382000   0.91907298   -3.7260026   -3.7260026   -2.3473963  0.044365051   -3.7260026    1.3786063   439061 
 2383000   0.91994018   -3.7263926   -3.7263926   -2.3464854    0.0400338   -3.7263926    1.3799071   439061 
 2384000   0.91783857   -3.7248585   -3.7248585   -2.3481037  0.039506716   -3.7248585    1.3767547   439061 
 2385000   0.91771171   -3.7251768   -3.7251768   -2.3486123  0.044128484   -3.7251768    1.3765644   439061 
 2386000   0.91718827   -3.7249918   -3.7249918   -2.3492126  0.039665466   -3.7249918    1.3757793   439061 
 2387000   0.91695396   -3.7250222   -3.7250222   -2.3495944  0.040002329   -3.7250222    1.3754278   439061 
 2388000    0.9173854   -3.7264884   -3.7264884   -2.3504134  0.042183319   -3.7264884     1.376075   439061 
 2389000   0.91740133   -3.7269988   -3.7269988      -2.3509  0.035879929   -3.7269988    1.3760989   439061 
 2390000   0.91624688   -3.7256843   -3.7256843   -2.3513171  0.041589917   -3.7256843    1.3743672   439061 
 2391000   0.91641231   -3.7255198   -3.7255198   -2.3509044  0.040959462   -3.7255198    1.3746153   439061 
 2392000   0.91727794   -3.7283027   -3.7283027   -2.3523889  0.038850563   -3.7283027    1.3759138   439061 
 2393000   0.91666837   -3.7250225   -3.7250225   -2.3500231  0.042242541   -3.7250225    1.3749994   439061 
 2394000   0.91631639    -3.723777    -3.723777   -2.3493055  0.047253045    -3.723777    1.3744715   439061 
 2395000   0.91813426   -3.7255804   -3.7255804   -2.3483821  0.042092918   -3.7255804    1.3771983   439061 
 2396000   0.91829246    -3.725453    -3.725453   -2.3480174  0.041231098    -3.725453    1.3774356   439061 
 2397000   0.91689644   -3.7234083   -3.7234083   -2.3480667    0.0458283   -3.7234083    1.3753415   439061 
 2398000   0.91753919   -3.7241508   -3.7241508   -2.3478451  0.045743978   -3.7241508    1.3763056   439061 
 2399000   0.91757868   -3.7248787   -3.7248787   -2.3485138  0.048188491   -3.7248787    1.3763649   439061 
 2400000    0.9192663   -3.7268741   -3.7268741   -2.3479778  0.041278822   -3.7268741    1.3788963   439061 
 2401000   0.91706419     -3.72426     -3.72426   -2.3486668  0.044448889     -3.72426    1.3755932   439061 
 2402000   0.91697382   -3.7236238   -3.7236238   -2.3481662  0.045195525   -3.7236238    1.3754576   439061 
 2403000   0.91687422   -3.7230597   -3.7230597   -2.3477515  0.043451635   -3.7230597    1.3753082   439061 
 2404000   0.91746347   -3.7249943   -3.7249943   -2.3488023  0.038411479   -3.7249943    1.3761921   439061 
 2405000   0.91587985   -3.7233182   -3.7233182   -2.3495015  0.045436841   -3.7233182    1.3738166   439061 
 2406000   0.91691692   -3.7247357   -3.7247357   -2.3493635  0.043617324   -3.7247357    1.3753722   439061 
 2407000   0.91642158    -3.723887    -3.723887   -2.3492578  0.041409242    -3.723887    1.3746292   439061 
 2408000   0.91566071   -3.7236251   -3.7236251   -2.3501371  0.038060306   -3.7236251    1.3734879   439061 
 2409000   0.91617153   -3.7238593   -3.7238593   -2.3496052  0.039971151   -3.7238593    1.3742542   439061 
 2410000   0.91511161   -3.7242435   -3.7242435   -2.3515792  0.039994967   -3.7242435    1.3726643   439061 
 2411000   0.91390413   -3.7239842   -3.7239842   -2.3531311   0.03766228   -3.7239842    1.3708531   439061 
 2412000   0.91591027   -3.7272802   -3.7272802   -2.3534179  0.034828896   -3.7272802    1.3738623   439061 
 2413000   0.91530282   -3.7257411   -3.7257411     -2.35279  0.037545384   -3.7257411    1.3729511   439061 
 2414000   0.91514444    -3.726289    -3.726289   -2.3535754   0.03704497    -3.726289    1.3727135   439061 
 2415000   0.91572664    -3.726884    -3.726884   -2.3532971  0.041996816    -3.726884    1.3735868   439061 
 2416000   0.91662546    -3.728087    -3.728087   -2.3531519  0.043268479    -3.728087    1.3749351   439061 
 2417000   0.91860974   -3.7308072   -3.7308072   -2.3528957   0.04153732   -3.7308072    1.3779115   439061 
 2418000   0.91808722   -3.7310612   -3.7310612   -2.3539335  0.041094696   -3.7310612    1.3771277   439061 
 2419000   0.91779445   -3.7298475   -3.7298475   -2.3531589  0.046509128   -3.7298475    1.3766885   439061 
 2420000   0.91723686   -3.7310404   -3.7310404   -2.3551883  0.044090673   -3.7310404    1.3758522   439061 
 2421000   0.91766578   -3.7310755   -3.7310755     -2.35458  0.045169777   -3.7310755    1.3764955   439061 
 2422000    0.9179053   -3.7328975   -3.7328975   -2.3560427  0.046109342   -3.7328975    1.3768548   439061 
 2423000   0.91568872   -3.7291735   -3.7291735   -2.3556435  0.048124384   -3.7291735    1.3735299   439061 
 2424000   0.91604114   -3.7303671   -3.7303671   -2.3563085  0.050211489   -3.7303671    1.3740586   439061 
 2425000   0.91783494   -3.7335299   -3.7335299   -2.3567806  0.049832867   -3.7335299    1.3767493   439061 
 2426000   0.91793166   -3.7347315   -3.7347315   -2.3578371  0.043663639   -3.7347315    1.3768944   439061 
 2427000   0.91632433   -3.7316203   -3.7316203    -2.357137   0.04647741   -3.7316203    1.3744834   439061 
 2428000   0.91508488   -3.7289679   -3.7289679   -2.3563437  0.045825625   -3.7289679    1.3726242   439061 
 2429000   0.91516135   -3.7290568   -3.7290568   -2.3563179  0.042405868   -3.7290568    1.3727389   439061 
 2430000   0.91765361   -3.7307446   -3.7307446   -2.3542673  0.041352456   -3.7307446    1.3764773   439061 
 2431000   0.91672784   -3.7301129   -3.7301129   -2.3550243  0.044416543   -3.7301129    1.3750886   439061 
 2432000   0.91670622   -3.7291199   -3.7291199   -2.3540637  0.046867645   -3.7291199    1.3750562   439061 
 2433000     0.916262   -3.7296662   -3.7296662   -2.3552763  0.044229241   -3.7296662    1.3743899   439061 
 2434000   0.91624628   -3.7306422   -3.7306422   -2.3562759  0.037549344   -3.7306422    1.3743663   439061 
 2435000   0.91446708   -3.7280928   -3.7280928   -2.3563953  0.042035005   -3.7280928    1.3716975   439061 
 2436000   0.91537913    -3.728969    -3.728969   -2.3559035  0.032567465    -3.728969    1.3730656   439061 
 2437000   0.91621472    -3.727682    -3.727682   -2.3533631  0.039740428    -3.727682    1.3743189   439061 
 2438000    0.9154602   -3.7271537   -3.7271537   -2.3539665  0.041395637   -3.7271537    1.3731872   439061 
 2439000   0.91610864   -3.7275497   -3.7275497   -2.3533899  0.042968844   -3.7275497    1.3741598   439061 
 2440000   0.91534515   -3.7272943   -3.7272943   -2.3542797  0.045136321   -3.7272943    1.3730146   439061 
 2441000   0.91615279    -3.729885    -3.729885    -2.355659   0.04630483    -3.729885    1.3742261   439061 
 2442000   0.91649135   -3.7301206   -3.7301206   -2.3553867  0.037523365   -3.7301206    1.3747339   439061 
 2443000   0.91759059   -3.7299644   -3.7299644   -2.3535817  0.044508175   -3.7299644    1.3763828   439061 
 2444000   0.91551612   -3.7289057   -3.7289057   -2.3556346  0.044446805   -3.7289057     1.373271   439061 
 2445000   0.91515307   -3.7297674   -3.7297674    -2.357041  0.042299168   -3.7297674    1.3727265   439061 
 2446000   0.91684252   -3.7310979   -3.7310979   -2.3558373  0.044352073   -3.7310979    1.3752607   439061 
 2447000   0.91559265   -3.7302952   -3.7302952   -2.3569094  0.042873981   -3.7302952    1.3733859   439061 
 2448000   0.91644073   -3.7324696   -3.7324696   -2.3578117   0.04142211   -3.7324696     1.374658   439061 
 2449000   0.91733522   -3.7338885   -3.7338885   -2.3578888  0.037231399   -3.7338885    1.3759997   439061 
 2450000   0.91555789    -3.731576    -3.731576   -2.3582423   0.04471428    -3.731576    1.3733337   439061 
 2451000   0.91639491   -3.7317993   -3.7317993   -2.3572101   0.04658272   -3.7317993    1.3745892   439061 
 2452000   0.91649284   -3.7315989   -3.7315989   -2.3568628  0.038092419   -3.7315989    1.3747361   439061 
 2453000   0.91698893   -3.7324038   -3.7324038   -2.3569235  0.041563001   -3.7324038    1.3754803   439061 
 2454000   0.91624532   -3.7327362   -3.7327362   -2.3583713  0.043541709   -3.7327362    1.3743649   439061 
 2455000   0.91635223   -3.7326779   -3.7326779   -2.3581527  0.045193598   -3.7326779    1.3745252   439061 
 2456000   0.91606576     -3.73282     -3.73282   -2.3587245  0.047402822     -3.73282    1.3740955   439061 
 2457000   0.91731745   -3.7350465   -3.7350465   -2.3590734  0.043477244   -3.7350465     1.375973   439061 
 2458000   0.91599739   -3.7334194   -3.7334194   -2.3594264  0.038687447   -3.7334194     1.373993   439061 
 2459000   0.91517744   -3.7327317   -3.7327317   -2.3599686   0.04272261   -3.7327317     1.372763   439061 
 2460000   0.91544243   -3.7334424   -3.7334424   -2.3602819  0.038316613   -3.7334424    1.3731605   439061 
 2461000   0.91572173   -3.7344423   -3.7344423   -2.3608628  0.041327145   -3.7344423    1.3735795   439061 
 2462000    0.9152009   -3.7326119   -3.7326119   -2.3598137  0.044415457   -3.7326119    1.3727982   439061 
 2463000   0.91618121   -3.7328833   -3.7328833   -2.3586146  0.046656038   -3.7328833    1.3742687   439061 
 2464000   0.91588025   -3.7337601   -3.7337601   -2.3599429  0.045662188   -3.7337601    1.3738172   439061 
 2465000   0.91745415   -3.7351483   -3.7351483   -2.3589702  0.040531011   -3.7351483    1.3761781   439061 
 2466000   0.91654067   -3.7343813   -3.7343813   -2.3595735  0.043237357   -3.7343813    1.3748079   439061 
 2467000   0.91666084   -3.7350114   -3.7350114   -2.3600232  0.039811741   -3.7350114    1.3749881   439061 
 2468000   0.91461708   -3.7321992   -3.7321992   -2.3602767  0.044320044   -3.7321992    1.3719225   439061 
 2469000   0.91456685   -3.7316351   -3.7316351   -2.3597879  0.043685328   -3.7316351    1.3718472   439061 
 2470000    0.9145722   -3.7317521   -3.7317521   -2.3598969  0.039098696   -3.7317521    1.3718552   439061 
 2471000   0.91371481   -3.7313388   -3.7313388   -2.3607697  0.041714067   -3.7313388    1.3705691   439061 
 2472000   0.91518024   -3.7341318   -3.7341318   -2.3613645  0.039731704   -3.7341318    1.3727672   439061 
 2473000    0.9164175   -3.7347305   -3.7347305   -2.3601074  0.045514107   -3.7347305    1.3746231   439061 
 2474000   0.91667338    -3.735108    -3.735108    -2.360101   0.03873542    -3.735108    1.3750069   439061 
 2475000    0.9159024   -3.7342702   -3.7342702   -2.3604197  0.042004975   -3.7342702    1.3738505   439061 
 2476000   0.91504445   -3.7342999   -3.7342999   -2.3617364  0.033706024   -3.7342999    1.3725635   439061 
 2477000   0.91531626   -3.7331241   -3.7331241   -2.3601528  0.043365835   -3.7331241    1.3729713   439061 
 2478000   0.91553073   -3.7335799   -3.7335799    -2.360287  0.043831021   -3.7335799     1.373293   439061 
 2479000   0.91619746   -3.7343898   -3.7343898   -2.3600967  0.039224336   -3.7343898    1.3742931   439061 
 2480000   0.91345419   -3.7314752   -3.7314752   -2.3612971  0.040731811   -3.7314752    1.3701782   439061 
 2481000   0.91447628   -3.7336012   -3.7336012   -2.3618899  0.038706697   -3.7336012    1.3717113   439061 
 2482000   0.91360037     -3.73303     -3.73303   -2.3626325  0.040721905     -3.73303    1.3703974   439061 
 2483000   0.91517153   -3.7369238   -3.7369238   -2.3641696  0.032878221   -3.7369238    1.3727542   439061 
 2484000   0.91505961   -3.7363244   -3.7363244   -2.3637381  0.036937057   -3.7363244    1.3725863   439061 
 2485000   0.91641915   -3.7363229   -3.7363229   -2.3616973  0.042887256   -3.7363229    1.3746256   439061 
 2486000   0.91643129    -3.736495    -3.736495   -2.3618512  0.043331584    -3.736495    1.3746438   439061 
 2487000   0.91645356   -3.7384635   -3.7384635   -2.3637863  0.039068598   -3.7384635    1.3746772   439061 
 2488000   0.91512655   -3.7376294   -3.7376294   -2.3649427  0.041880282   -3.7376294    1.3726867   439061 
 2489000   0.91559239   -3.7385035   -3.7385035   -2.3651181  0.044547912   -3.7385035    1.3733855   439061 
 2490000   0.91585062   -3.7388657   -3.7388657   -2.3650929  0.043414351   -3.7388657    1.3737728   439061 
 2491000    0.9154352   -3.7382605   -3.7382605   -2.3651108  0.040687615   -3.7382605    1.3731497   439061 
 2492000   0.91476598   -3.7376585   -3.7376585   -2.3655126   0.04603558   -3.7376585    1.3721458   439061 
 2493000   0.91567107   -3.7386447   -3.7386447   -2.3651412  0.041990561   -3.7386447    1.3735035   439061 
 2494000   0.91522417   -3.7378512   -3.7378512    -2.365018  0.043005795   -3.7378512    1.3728331   439061 
 2495000   0.91559527   -3.7399286   -3.7399286   -2.3665388  0.036157968   -3.7399286    1.3733898   439061 
 2496000   0.91526463   -3.7401236   -3.7401236   -2.3672298   0.03716193   -3.7401236    1.3728938   439061 
 2497000   0.91495176    -3.737957    -3.737957   -2.3655325  0.039965508    -3.737957    1.3724245   439061 
 2498000   0.91387492   -3.7368887   -3.7368887   -2.3660795  0.036731468   -3.7368887    1.3708093   439061 
 2499000   0.91304779   -3.7363963   -3.7363963   -2.3668277  0.040867731   -3.7363963    1.3695686   439061 
 2500000   0.91479798   -3.7389049   -3.7389049    -2.366711  0.036704783   -3.7389049    1.3721939   439061 
 2501000   0.91515229   -3.7394599   -3.7394599   -2.3667345  0.034967885   -3.7394599    1.3727253   439061 
 2502000   0.91323045   -3.7375572   -3.7375572   -2.3677147  0.040618439   -3.7375572    1.3698426   439061 
 2503000   0.91495192   -3.7402082   -3.7402082   -2.3677835   0.03693486   -3.7402082    1.3724247   439061 
 2504000   0.91471928    -3.739792    -3.739792   -2.3677162  0.040956817    -3.739792    1.3720758   439061 
 2505000   0.91506237   -3.7407882   -3.7407882   -2.3681978   0.03900181   -3.7407882    1.3725904   439061 
 2506000   0.91418937   -3.7396838   -3.7396838   -2.3684029  0.042470618   -3.7396838    1.3712809   439061 
 2507000   0.91640729    -3.741866    -3.741866   -2.3672582  0.041620027    -3.741866    1.3746078   439061 
 2508000   0.91551359   -3.7412548   -3.7412548   -2.3679876  0.042712317   -3.7412548    1.3732673   439061 
 2509000   0.91615985   -3.7414768   -3.7414768   -2.3672402  0.045453645   -3.7414768    1.3742366   439061 
 2510000   0.91671523   -3.7430626   -3.7430626   -2.3679929  0.046796706   -3.7430626    1.3750697   439061 
 2511000   0.91633299   -3.7427945   -3.7427945   -2.3682981  0.043704041   -3.7427945    1.3744964   439061 
 2512000   0.91585528   -3.7410209   -3.7410209   -2.3672411  0.049184031   -3.7410209    1.3737798   439061 
 2513000   0.91628279   -3.7420235   -3.7420235   -2.3676025  0.050782679   -3.7420235    1.3744211   439061 
 2514000   0.91536961   -3.7416545   -3.7416545   -2.3686032  0.048241028   -3.7416545    1.3730513   439061 
 2515000   0.91667298    -3.743357    -3.743357   -2.3683506  0.039640934    -3.743357    1.3750063   439061 
 2516000   0.91510858   -3.7414192   -3.7414192   -2.3687595  0.041477082   -3.7414192    1.3726597   439061 
 2517000   0.91358755   -3.7397271   -3.7397271   -2.3693489  0.038280208   -3.7397271    1.3703782   439061 
 2518000   0.91472811   -3.7405788   -3.7405788   -2.3684897   0.03738369   -3.7405788     1.372089   439061 
 2519000     0.914195   -3.7380098   -3.7380098   -2.3667204  0.041428139   -3.7380098    1.3712894   439061 
 2520000   0.91529359   -3.7391937   -3.7391937   -2.3662565  0.042792405   -3.7391937    1.3729373   439061 
 2521000   0.91501474   -3.7388146   -3.7388146   -2.3662957   0.03897331   -3.7388146     1.372519   439061 
 2522000   0.91609895   -3.7407982   -3.7407982   -2.3666529  0.040881595   -3.7407982    1.3741453   439061 
 2523000   0.91609947   -3.7395023   -3.7395023   -2.3653562  0.038820455   -3.7395023    1.3741461   439061 
 2524000   0.91349958   -3.7362794   -3.7362794   -2.3660331  0.041029057   -3.7362794    1.3702463   439061 
 2525000   0.91373947   -3.7360152   -3.7360152   -2.3654091  0.042372151   -3.7360152    1.3706061   439061 
 2526000   0.91482436   -3.7377417   -3.7377417   -2.3655083   0.03958071   -3.7377417    1.3722334   439061 
 2527000   0.91658007   -3.7393848   -3.7393848   -2.3645178  0.038144875   -3.7393848     1.374867   439061 
 2528000   0.91502982   -3.7377858   -3.7377858   -2.3652442  0.040403954   -3.7377858    1.3725416   439061 
 2529000   0.91467454   -3.7388637   -3.7388637    -2.366855  0.037917776   -3.7388637    1.3720087   439061 
 2530000    0.9152434   -3.7405402   -3.7405402   -2.3676782  0.035596575   -3.7405402     1.372862   439061 
 2531000   0.91442307   -3.7402475   -3.7402475    -2.368616  0.039792823   -3.7402475    1.3716315   439061 
 2532000   0.91606325    -3.741339    -3.741339   -2.3672473  0.040366422    -3.741339    1.3740918   439061 
 2533000   0.91551074    -3.740768    -3.740768    -2.367505  0.046307417    -3.740768     1.373263   439061 
 2534000   0.91515641   -3.7409174   -3.7409174   -2.3681859  0.043089152   -3.7409174    1.3727315   439061 
 2535000   0.91567536   -3.7431738   -3.7431738   -2.3696639  0.036062097   -3.7431738    1.3735099   439061 
 2536000   0.91558778   -3.7416044   -3.7416044   -2.3682259  0.044776883   -3.7416044    1.3733785   439061 
 2537000   0.91620387   -3.7437439   -3.7437439   -2.3694412  0.039497934   -3.7437439    1.3743027   439061 
 2538000   0.91457755   -3.7404391   -3.7404391   -2.3685759  0.048183766   -3.7404391    1.3718632   439061 
 2539000   0.91540095    -3.742149    -3.742149   -2.3690507  0.048472196    -3.742149    1.3730983   439061 
 2540000   0.91558733   -3.7433836   -3.7433836   -2.3700057   0.04173383   -3.7433836    1.3733779   439061 
 2541000   0.91523368   -3.7435533   -3.7435533   -2.3707059  0.042959302   -3.7435533    1.3728474   439061 
 2542000   0.91610402   -3.7442624   -3.7442624   -2.3701095   0.04187307   -3.7442624    1.3741529   439061 
 2543000   0.91595048   -3.7432564   -3.7432564   -2.3693339  0.040575481   -3.7432564    1.3739226   439061 
 2544000   0.91444414   -3.7438943   -3.7438943   -2.3722313   0.04086232   -3.7438943    1.3716631   439061 
 2545000   0.91570348   -3.7438178   -3.7438178   -2.3702657  0.042612441   -3.7438178    1.3735521   439061 
 2546000   0.91483612   -3.7419151   -3.7419151    -2.369664  0.043721829   -3.7419151     1.372251   439061 
 2547000   0.91495293   -3.7425237   -3.7425237   -2.3700975   0.04009238   -3.7425237    1.3724263   439061 
 2548000   0.91586799   -3.7424292   -3.7424292   -2.3686304  0.044413548   -3.7424292    1.3737989   439061 
 2549000   0.91727901   -3.7432322   -3.7432322   -2.3673169  0.045159962   -3.7432322    1.3759154   439061 
 2550000   0.91553113   -3.7412009   -3.7412009   -2.3679073  0.042170775   -3.7412009    1.3732936   439061 
 2551000    0.9153726   -3.7415827   -3.7415827    -2.368527  0.042898929   -3.7415827    1.3730558   439061 
 2552000   0.91607433   -3.7419999   -3.7419999   -2.3678915   0.04193693   -3.7419999    1.3741084   439061 
 2553000   0.91516066   -3.7413745   -3.7413745   -2.3686366  0.034352426   -3.7413745    1.3727379   439061 
 2554000   0.91350206   -3.7390301   -3.7390301   -2.3687802  0.040582302   -3.7390301      1.37025   439061 
 2555000   0.91370751   -3.7390382   -3.7390382   -2.3684801  0.039924234   -3.7390382    1.3705581   439061 
 2556000   0.91257795   -3.7388074   -3.7388074   -2.3699436  0.043248463   -3.7388074    1.3688638   439061 
 2557000   0.91517861   -3.7417321   -3.7417321   -2.3689673   0.03245152   -3.7417321    1.3727648   439061 
 2558000   0.91268666   -3.7389309   -3.7389309   -2.3699041  0.037934536   -3.7389309    1.3690269   439061 
 2559000    0.9132242   -3.7386989   -3.7386989   -2.3688658  0.041386575   -3.7386989    1.3698332   439061 
 2560000    0.9143774   -3.7396709   -3.7396709   -2.3681079  0.039713036   -3.7396709     1.371563   439061 
 2561000   0.91436856   -3.7391241   -3.7391241   -2.3675743  0.044162529   -3.7391241    1.3715497   439061 
 2562000   0.91571405   -3.7413306   -3.7413306   -2.3677626  0.042513788   -3.7413306    1.3735679   439061 
 2563000   0.91545804   -3.7417393   -3.7417393   -2.3685554    0.0403117   -3.7417393    1.3731839   439061 
 2564000   0.91542953   -3.7407015   -3.7407015   -2.3675603  0.048654139   -3.7407015    1.3731412   439061 
 2565000   0.91580971   -3.7412533   -3.7412533   -2.3675419  0.046335527   -3.7412533    1.3737114   439061 
 2566000   0.91535138   -3.7415617   -3.7415617   -2.3685377  0.042718992   -3.7415617    1.3730239   439061 
 2567000    0.9155416   -3.7423406   -3.7423406   -2.3690313  0.044170102   -3.7423406    1.3733093   439061 
 2568000   0.91599393   -3.7432534   -3.7432534   -2.3692656  0.042311878   -3.7432534    1.3739878   439061 
 2569000   0.91599763   -3.7427772   -3.7427772   -2.3687838  0.042422549   -3.7427772    1.3739933   439061 
 2570000   0.91543602   -3.7423512   -3.7423512   -2.3692003   0.04473512   -3.7423512    1.3731509   439061 
 2571000   0.91505511   -3.7420304   -3.7420304   -2.3694509  0.046300487   -3.7420304    1.3725795   439061 
 2572000   0.91506591   -3.7406251   -3.7406251   -2.3680294  0.046316267   -3.7406251    1.3725957   439061 
 2573000   0.91515549   -3.7415219   -3.7415219   -2.3687918  0.041759101   -3.7415219    1.3727301   439061 
 2574000   0.91393924   -3.7401257   -3.7401257   -2.3692199  0.040357593   -3.7401257    1.3709057   439061 
 2575000   0.91535936   -3.7410502   -3.7410502   -2.3680143  0.040450947   -3.7410502    1.3730359   439061 
 2576000   0.91496772   -3.7413236   -3.7413236   -2.3688752  0.040833587   -3.7413236    1.3724485   439061 
 2577000   0.91488838   -3.7413513   -3.7413513   -2.3690219  0.036635215   -3.7413513    1.3723294   439061 
 2578000   0.91399318   -3.7397553   -3.7397553   -2.3687687  0.042541901   -3.7397553    1.3709867   439061 
 2579000   0.91518666   -3.7416737   -3.7416737   -2.3688968  0.039185635   -3.7416737    1.3727769   439061 
 2580000   0.91266936   -3.7395459   -3.7395459    -2.370545  0.045207911   -3.7395459    1.3690009   439061 
 2581000   0.91290976   -3.7390997   -3.7390997   -2.3697382  0.042098268   -3.7390997    1.3693615   439061 
 2582000   0.91348862   -3.7412694   -3.7412694   -2.3710396  0.040880631   -3.7412694    1.3702298   439061 
 2583000   0.91371016   -3.7415858   -3.7415858   -2.3710237  0.038167416   -3.7415858    1.3705621   439061 
 2584000   0.91398624   -3.7414667   -3.7414667   -2.3704905  0.038125203   -3.7414667    1.3709762   439061 
 2585000   0.91425936   -3.7420829   -3.7420829    -2.370697  0.039833083   -3.7420829    1.3713859   439061 
 2586000   0.91359372   -3.7413745   -3.7413745   -2.3709871  0.040238054   -3.7413745    1.3703875   439061 
 2587000   0.91466332   -3.7425727   -3.7425727   -2.3705809  0.043973603   -3.7425727    1.3719919   439061 
 2588000   0.91523453   -3.7432523   -3.7432523   -2.3704036  0.041739388   -3.7432523    1.3728487   439061 
 2589000   0.91600903   -3.7441207   -3.7441207   -2.3701103  0.039959771   -3.7441207    1.3740104   439061 
 2590000   0.91553152   -3.7434647   -3.7434647   -2.3701705  0.039219366   -3.7434647    1.3732942   439061 
 2591000   0.91492751    -3.743074    -3.743074   -2.3706858  0.042405364    -3.743074    1.3723881   439061 
 2592000   0.91427516    -3.742715    -3.742715   -2.3713054  0.044087309    -3.742715    1.3714096   439061 
 2593000   0.91500204   -3.7445464   -3.7445464   -2.3720465  0.046374479   -3.7445464    1.3724999   439061 
 2594000   0.91608147   -3.7463636   -3.7463636   -2.3722445  0.039026911   -3.7463636    1.3741191   439061 
 2595000   0.91544849   -3.7443883   -3.7443883   -2.3712187  0.040873138   -3.7443883    1.3731696   439061 
 2596000   0.91391911   -3.7431788   -3.7431788   -2.3723033  0.045075804   -3.7431788    1.3708755   439061 
 2597000   0.91505441   -3.7466723   -3.7466723   -2.3740938  0.034338774   -3.7466723    1.3725785   439061 
 2598000    0.9142671   -3.7443089   -3.7443089   -2.3729114  0.043705342   -3.7443089    1.3713975   439061 
 2599000   0.91477394   -3.7454372   -3.7454372   -2.3732794  0.041801813   -3.7454372    1.3721578   439061 
 2600000   0.91442832   -3.7444467   -3.7444467   -2.3728074  0.040747025   -3.7444467    1.3716393   439061 
 2601000   0.91389277   -3.7425381   -3.7425381   -2.3717021  0.039967375   -3.7425381     1.370836   439061 
 2602000   0.91368728   -3.7439099   -3.7439099   -2.3733821  0.041033131   -3.7439099    1.3705278   439061 
 2603000   0.91523365   -3.7464429   -3.7464429   -2.3735955  0.039867493   -3.7464429    1.3728474   439061 
 2604000    0.9124067   -3.7416708   -3.7416708   -2.3730639  0.042595214   -3.7416708    1.3686069   439061 
 2605000   0.91477069   -3.7460968   -3.7460968   -2.3739439  0.036420229   -3.7460968    1.3721529   439061 
 2606000   0.91446751   -3.7447314   -3.7447314   -2.3730333  0.042258214   -3.7447314    1.3716981   439061 
 2607000   0.91479484     -3.74539     -3.74539   -2.3732009   0.04056284     -3.74539    1.3721891   439061 
 2608000   0.91477016   -3.7457059   -3.7457059   -2.3735538  0.046332028   -3.7457059    1.3721521   439061 
 2609000   0.91572885   -3.7458752   -3.7458752    -2.372285  0.035473056   -3.7458752    1.3735901   439061 
 2610000   0.91626126   -3.7462883   -3.7462883   -2.3718996  0.038293341   -3.7462883    1.3743888   439061 
 2611000   0.91516168   -3.7453554   -3.7453554    -2.372616  0.039067833   -3.7453554    1.3727394   439061 
 2612000    0.9149288   -3.7458783   -3.7458783   -2.3734882  0.039884484   -3.7458783    1.3723901   439061 
 2613000   0.91499949   -3.7458007   -3.7458007   -2.3733046  0.038963848   -3.7458007    1.3724961   439061 
 2614000   0.91442224   -3.7460866   -3.7460866   -2.3744564  0.037607553   -3.7460866    1.3716302   439061 
 2615000   0.91324153   -3.7449007   -3.7449007   -2.3750415  0.038615653   -3.7449007    1.3698592   439061 
 2616000   0.91403049   -3.7455181   -3.7455181   -2.3744755  0.037590902   -3.7455181    1.3710426   439061 
 2617000   0.91321425   -3.7436575   -3.7436575   -2.3738393  0.042077046   -3.7436575    1.3698182   439061 
 2618000   0.91478905   -3.7456992   -3.7456992   -2.3735188  0.041591071   -3.7456992    1.3721804   439061 
 2619000   0.91543939   -3.7453632   -3.7453632   -2.3722073  0.043426146   -3.7453632     1.373156   439061 
 2620000   0.91480943   -3.7439119   -3.7439119   -2.3717008   0.04111099   -3.7439119     1.372211   439061 
 2621000   0.91501131    -3.745359    -3.745359   -2.3728452  0.044356129    -3.745359    1.3725138   439061 
 2622000   0.91451009   -3.7462168   -3.7462168   -2.3744548  0.038678341   -3.7462168     1.371762   439061 
 2623000   0.91481223   -3.7460704   -3.7460704   -2.3738552  0.042374184   -3.7460704    1.3722152   439061 
 2624000   0.91508057   -3.7491298   -3.7491298   -2.3765121  0.035746102   -3.7491298    1.3726177   439061 
 2625000   0.91509989    -3.747651    -3.747651   -2.3750043  0.040710406    -3.747651    1.3726467   439061 
 2626000   0.91573703   -3.7502849   -3.7502849   -2.3766825  0.037940259   -3.7502849    1.3736024   439061 
 2627000   0.91371232   -3.7473898   -3.7473898   -2.3768245  0.038863142   -3.7473898    1.3705654   439061 
 2628000    0.9145436   -3.7491668   -3.7491668   -2.3773545  0.038374993   -3.7491668    1.3718123   439061 
 2629000   0.91284802   -3.7456215   -3.7456215   -2.3763526  0.038251475   -3.7456215    1.3692689   439061 
 2630000    0.9151702   -3.7493136   -3.7493136   -2.3765614  0.034309276   -3.7493136    1.3727522   439061 
 2631000   0.91506871   -3.7491162   -3.7491162   -2.3765163  0.033565903   -3.7491162    1.3725999   439061 
 2632000   0.91313173   -3.7478576   -3.7478576   -2.3781631  0.037613955   -3.7478576    1.3696945   439061 
 2633000   0.91496408   -3.7489583   -3.7489583   -2.3765153  0.043496169   -3.7489583     1.372443   439061 
 2634000   0.91522816   -3.7492017   -3.7492017   -2.3763626  0.042076734   -3.7492017    1.3728391   439061 
 2635000   0.91426539   -3.7495492   -3.7495492   -2.3781543  0.039798834   -3.7495492     1.371395   439061 
 2636000   0.91278434    -3.746724    -3.746724   -2.3775506  0.042843946    -3.746724    1.3691734   439061 
 2637000   0.91320387   -3.7496373   -3.7496373   -2.3798346  0.035763159   -3.7496373    1.3698027   439061 
 2638000   0.91261992   -3.7493499   -3.7493499   -2.3804232  0.036966659   -3.7493499    1.3689268   439061 
 2639000    0.9133086    -3.750485    -3.750485   -2.3805252  0.038149353    -3.750485    1.3699598   439061 
 2640000    0.9145924   -3.7519555   -3.7519555     -2.38007  0.040811452   -3.7519555    1.3718855   439061 
 2641000   0.91279701   -3.7497397   -3.7497397   -2.3805473  0.044144037   -3.7497397    1.3691924   439061 
 2642000   0.91434451   -3.7507548   -3.7507548   -2.3792411  0.037812673   -3.7507548    1.3715136   439061 
 2643000   0.91393059   -3.7498939   -3.7498939   -2.3790011  0.043570283   -3.7498939    1.3708928   439061 
 2644000   0.91502038   -3.7511421   -3.7511421   -2.3786146  0.040151676   -3.7511421    1.3725274   439061 
 2645000   0.91380067   -3.7490268   -3.7490268   -2.3783289  0.042960581   -3.7490268    1.3706979   439061 
 2646000   0.91355569   -3.7494935   -3.7494935   -2.3791631  0.041050832   -3.7494935    1.3703304   439061 
 2647000   0.91385004    -3.749648    -3.749648    -2.378876  0.042163238    -3.749648    1.3707719   439061 
 2648000   0.91287668    -3.749227    -3.749227   -2.3799151  0.039849129    -3.749227    1.3693119   439061 
 2649000   0.91223756   -3.7484302   -3.7484302    -2.380077  0.044344014   -3.7484302    1.3683532   439061 
 2650000   0.91380251   -3.7490335   -3.7490335   -2.3783329  0.040095902   -3.7490335    1.3707006   439061 
 2651000   0.91303635   -3.7487962   -3.7487962   -2.3792448  0.039301748   -3.7487962    1.3695514   439061 
 2652000   0.91313768   -3.7485677   -3.7485677   -2.3788643  0.041019852   -3.7485677    1.3697034   439061 
 2653000   0.91337074    -3.748463    -3.748463     -2.37841   0.03916915    -3.748463     1.370053   439061 
 2654000   0.91330802   -3.7479084   -3.7479084   -2.3779495  0.040590724   -3.7479084    1.3699589   439061 
 2655000   0.91589053   -3.7519076   -3.7519076   -2.3780749   0.03267538   -3.7519076    1.3738327   439061 
 2656000   0.91436884   -3.7496618   -3.7496618   -2.3781116  0.044579642   -3.7496618    1.3715501   439061 
 2657000   0.91300133   -3.7468233   -3.7468233   -2.3773245   0.03764672   -3.7468233    1.3694989   439061 
 2658000   0.91419831   -3.7491138   -3.7491138   -2.3778195  0.037311016   -3.7491138    1.3712943   439061 
 2659000    0.9133586   -3.7490678   -3.7490678    -2.379033  0.039236385   -3.7490678    1.3700348   439061 
 2660000    0.9122818   -3.7481264   -3.7481264   -2.3797069   0.04257511   -3.7481264    1.3684196   439061 
 2661000   0.91318433    -3.748327    -3.748327   -2.3785536   0.04307702    -3.748327    1.3697734   439061 
 2662000   0.91363976   -3.7484541   -3.7484541   -2.3779976   0.03987012   -3.7484541    1.3704565   439061 
 2663000   0.91376162   -3.7485492   -3.7485492   -2.3779099  0.041794401   -3.7485492    1.3706393   439061 
 2664000   0.91417982   -3.7484093   -3.7484093   -2.3771426  0.042866274   -3.7484093    1.3712666   439061 
 2665000   0.91449043   -3.7480936   -3.7480936   -2.3763611  0.041774264   -3.7480936    1.3717325   439061 
 2666000   0.91540771   -3.7487604   -3.7487604    -2.375652  0.042619658   -3.7487604    1.3731084   439061 
 2667000   0.91524005   -3.7488469   -3.7488469     -2.37599  0.042972874   -3.7488469    1.3728569   439061 
 2668000   0.91565744    -3.749254    -3.749254   -2.3757709  0.040689146    -3.749254     1.373483   439061 
 2669000   0.91287527   -3.7466167   -3.7466167   -2.3773069  0.041543452   -3.7466167    1.3693098   439061 
 2670000    0.9131342   -3.7474611   -3.7474611   -2.3777629  0.037818526   -3.7474611    1.3696982   439061 
 2671000   0.91212497   -3.7455378   -3.7455378   -2.3773534  0.038866706   -3.7455378    1.3681843   439061 
 2672000   0.91168594   -3.7461053   -3.7461053   -2.3785795  0.037121442   -3.7461053    1.3675258   439061 
 2673000    0.9136034    -3.748178    -3.748178    -2.377776  0.034762722    -3.748178     1.370402   439061 
 2674000   0.91274582   -3.7473305   -3.7473305   -2.3782149   0.04186729   -3.7473305    1.3691156   439061 
 2675000    0.9147521   -3.7496693   -3.7496693   -2.3775442  0.034933868   -3.7496693     1.372125   439061 
 2676000   0.91272286   -3.7485811   -3.7485811      -2.3795  0.041811224   -3.7485811    1.3690812   439061 
 2677000   0.91289689   -3.7492581   -3.7492581   -2.3799159  0.040495856   -3.7492581    1.3693422   439061 
 2678000   0.91227792   -3.7480432   -3.7480432   -2.3796294  0.042614598   -3.7480432    1.3684138   439061 
 2679000     0.913883   -3.7513359   -3.7513359   -2.3805145  0.035302217   -3.7513359    1.3708214   439061 
 2680000   0.91208696   -3.7497099   -3.7497099   -2.3815826  0.039952525   -3.7497099    1.3681273   439061 
 2681000   0.91268257   -3.7519072   -3.7519072   -2.3828865  0.038483675   -3.7519072    1.3690207   439061 
 2682000   0.91240896   -3.7505565   -3.7505565   -2.3819462  0.038520806   -3.7505565    1.3686103   439061 
 2683000   0.91305949   -3.7530694   -3.7530694   -2.3834833  0.037956939   -3.7530694    1.3695861   439061 
 2684000   0.91231099   -3.7526277   -3.7526277   -2.3841643  0.042972008   -3.7526277    1.3684634   439061 
 2685000    0.9135791   -3.7554841   -3.7554841   -2.3851186  0.040632275   -3.7554841    1.3703655   439061 
 2686000   0.91348213   -3.7545172   -3.7545172   -2.3842971  0.040608921   -3.7545172    1.3702201   439061 
 2687000   0.91296545   -3.7541338   -3.7541338   -2.3846887  0.039414858   -3.7541338    1.3694451   439061 
 2688000   0.91356925   -3.7542261   -3.7542261   -2.3838754  0.043310593   -3.7542261    1.3703508   439061 
 2689000   0.91570634   -3.7578809   -3.7578809   -2.3843245  0.039168636   -3.7578809    1.3735564   439061 
 2690000   0.91545261   -3.7557237   -3.7557237    -2.382548  0.047024787   -3.7557237    1.3731758   439061 
 2691000   0.91538855   -3.7560456   -3.7560456   -2.3829659  0.047176206   -3.7560456    1.3730797   439061 
 2692000   0.91451971   -3.7542722   -3.7542722   -2.3824958  0.050171687   -3.7542722    1.3717764   439061 
 2693000   0.91415979   -3.7542925   -3.7542925   -2.3830559  0.042175791   -3.7542925    1.3712366   439061 
 2694000   0.91325188   -3.7526114   -3.7526114   -2.3827367  0.044688674   -3.7526114    1.3698747   439061 
 2695000   0.91318932   -3.7531753   -3.7531753   -2.3833944  0.038742432   -3.7531753    1.3697809   439061 
 2696000   0.91309503   -3.7534391   -3.7534391   -2.3837997  0.038418947   -3.7534391    1.3696394   439061 
 2697000   0.91178926   -3.7498087   -3.7498087   -2.3821279  0.039982849   -3.7498087    1.3676808   439061 
 2698000   0.91157483   -3.7483149   -3.7483149   -2.3809558  0.039617148   -3.7483149    1.3673591   439061 
 2699000   0.91232503    -3.749026    -3.749026   -2.3805416  0.040211905    -3.749026    1.3684844   439061 
 2700000   0.91315248   -3.7503927   -3.7503927   -2.3806671  0.039869772   -3.7503927    1.3697256   439061 
 2701000   0.91324938   -3.7497728   -3.7497728   -2.3799018  0.039004722   -3.7497728    1.3698709   439061 
 2702000   0.91341328   -3.7497504   -3.7497504   -2.3796336  0.035531625   -3.7497504    1.3701168   439061 
 2703000   0.91001224   -3.7462998   -3.7462998   -2.3812845  0.037208612   -3.7462998    1.3650153   439061 
 2704000    0.9101789   -3.7463076   -3.7463076   -2.3810424  0.034546601   -3.7463076    1.3652652   439061 
 2705000   0.91140053   -3.7483735   -3.7483735   -2.3812758  0.035457277   -3.7483735    1.3670977   439061 
 2706000   0.91164251   -3.7480885   -3.7480885   -2.3806278  0.033722756   -3.7480885    1.3674607   439061 
 2707000   0.91255371   -3.7500039   -3.7500039   -2.3811764  0.038536848   -3.7500039    1.3688274   439061 
 2708000   0.91350378    -3.750269    -3.750269   -2.3800165   0.03835512    -3.750269    1.3702525   439061 
 2709000   0.91409482   -3.7500539   -3.7500539   -2.3789147  0.038538335   -3.7500539    1.3711391   439061 
 2710000   0.91524793   -3.7525512   -3.7525512   -2.3796824  0.039136954   -3.7525512    1.3728688   439061 
 2711000   0.91347098   -3.7519219   -3.7519219   -2.3817186  0.035687541   -3.7519219    1.3702033   439061 
 2712000   0.91349461    -3.752203    -3.752203   -2.3819642  0.040189873    -3.752203    1.3702388   439061 
 2713000   0.91205826   -3.7513297   -3.7513297   -2.3832454  0.044647092   -3.7513297    1.3680843   439061 
 2714000   0.91325335   -3.7538712   -3.7538712   -2.3839943  0.038979812   -3.7538712    1.3698769   439061 
 2715000   0.91274242   -3.7533845   -3.7533845    -2.384274  0.041451896   -3.7533845    1.3691105   439061 
 2716000   0.91386593    -3.756273    -3.756273   -2.3854772  0.040911362    -3.756273    1.3707958   439061 
 2717000   0.91379338   -3.7548247   -3.7548247   -2.3841377  0.044298436   -3.7548247    1.3706869   439061 
 2718000   0.91333673   -3.7557986   -3.7557986   -2.3857966  0.040505169   -3.7557986     1.370002   439061 
 2719000   0.91432314   -3.7558682   -3.7558682   -2.3843866   0.04802632   -3.7558682    1.3714816   439061 
 2720000   0.91444009   -3.7549236   -3.7549236   -2.3832665  0.048742341   -3.7549236     1.371657   439061 
 2721000   0.91293428   -3.7542586   -3.7542586   -2.3848603  0.041843761   -3.7542586    1.3693983   439061 
 2722000   0.91352004   -3.7559816   -3.7559816   -2.3857046  0.039295496   -3.7559816    1.3702769   439061 
 2723000   0.91218029   -3.7546615   -3.7546615   -2.3863942   0.04047429   -3.7546615    1.3682673   439061 
 2724000   0.91300734   -3.7555306   -3.7555306   -2.3860227  0.041186614   -3.7555306    1.3695079   439061 
 2725000   0.91264936   -3.7568032   -3.7568032   -2.3878322  0.034350237   -3.7568032    1.3689709   439061 
 2726000   0.91426138   -3.7568655   -3.7568655   -2.3854766  0.038392421   -3.7568655    1.3713889   439061 
 2727000   0.91371384   -3.7556999   -3.7556999   -2.3851323  0.043325694   -3.7556999    1.3705676   439061 
 2728000   0.91301304   -3.7549665   -3.7549665   -2.3854501  0.034882375   -3.7549665    1.3695164   439061 
 2729000   0.91399356   -3.7559362   -3.7559362   -2.3849489  0.037882003   -3.7559362    1.3709872   439061 
 2730000    0.9134691   -3.7535032   -3.7535032   -2.3833026  0.039859804   -3.7535032    1.3702005   439061 
 2731000   0.91231202    -3.753459    -3.753459   -2.3849941  0.043507913    -3.753459    1.3684649   439061 
 2732000   0.91268124   -3.7543161   -3.7543161   -2.3852974   0.03450174   -3.7543161    1.3690187   439061 
 2733000   0.91205294   -3.7542836   -3.7542836   -2.3862073  0.034273498   -3.7542836    1.3680763   439061 
 2734000   0.91183136    -3.753692    -3.753692   -2.3859481  0.043258388    -3.753692    1.3677439   439061 
 2735000   0.91246207   -3.7543416   -3.7543416   -2.3856516  0.038267321   -3.7543416      1.36869   439061 
 2736000   0.91168212   -3.7523541   -3.7523541   -2.3848341  0.042245113   -3.7523541    1.3675201   439061 
 2737000   0.91229996   -3.7524265   -3.7524265   -2.3839796  0.038586222   -3.7524265    1.3684468   439061 
 2738000   0.91226476   -3.7523793   -3.7523793   -2.3839853  0.040941262   -3.7523793     1.368394   439061 
 2739000   0.91393229   -3.7564068   -3.7564068   -2.3855115  0.039107496   -3.7564068    1.3708953   439061 
 2740000   0.91295837   -3.7536847   -3.7536847   -2.3842502  0.044715783   -3.7536847    1.3694344   439061 
 2741000   0.91437479   -3.7556823   -3.7556823   -2.3841232  0.041492641   -3.7556823    1.3715591   439061 
 2742000   0.91385835   -3.7562739   -3.7562739   -2.3854895  0.039154145   -3.7562739    1.3707844   439061 
 2743000   0.91260447   -3.7547825   -3.7547825    -2.385879  0.043003477   -3.7547825    1.3689036   439061 
 2744000   0.91238822   -3.7550642   -3.7550642    -2.386485  0.041243497   -3.7550642    1.3685792   439061 
 2745000   0.91282561   -3.7560699   -3.7560699   -2.3868346  0.033486452   -3.7560699    1.3692353   439061 
 2746000   0.91358903   -3.7558872   -3.7558872   -2.3855068  0.043714248   -3.7558872    1.3703804   439061 
 2747000   0.91320025   -3.7559303   -3.7559303    -2.386133  0.039033298   -3.7559303    1.3697973   439061 
 2748000   0.91378289   -3.7559155   -3.7559155   -2.3852442  0.036461383   -3.7559155    1.3706712   439061 
 2749000   0.91324377   -3.7549394   -3.7549394   -2.3850769   0.04255331   -3.7549394    1.3698625   439061 
 2750000   0.91382293   -3.7545853   -3.7545853   -2.3838541  0.043770331   -3.7545853    1.3707313   439061 
 2751000   0.91345649   -3.7556999   -3.7556999   -2.3855183  0.041183858   -3.7556999    1.3701816   439061 
 2752000   0.91269907   -3.7557762   -3.7557762   -2.3867308  0.038379182   -3.7557762    1.3690455   439061 
 2753000    0.9132409   -3.7557646   -3.7557646   -2.3859064  0.040246368   -3.7557646    1.3698582   439061 
 2754000   0.91270004   -3.7557643   -3.7557643   -2.3867173  0.035388794   -3.7557643    1.3690469   439061 
 2755000   0.91155809    -3.754283    -3.754283    -2.386949  0.045190655    -3.754283     1.367334   439061 
 2756000   0.91171169   -3.7553024   -3.7553024    -2.387738   0.04351209   -3.7553024    1.3675644   439061 
 2757000   0.91304021   -3.7558495   -3.7558495   -2.3862923  0.039635474   -3.7558495    1.3695572   439061 
 2758000   0.91286299   -3.7557552   -3.7557552   -2.3864638  0.037746197   -3.7557552    1.3692914   439061 
 2759000   0.91300292   -3.7550967   -3.7550967   -2.3855954  0.041454197   -3.7550967    1.3695013   439061 
 2760000   0.91347187   -3.7563061   -3.7563061   -2.3861014  0.038482605   -3.7563061    1.3702047   439061 
 2761000    0.9118018    -3.752725    -3.752725   -2.3850254  0.047668177    -3.752725    1.3676996   439061 
 2762000   0.91347583   -3.7545784   -3.7545784   -2.3843677  0.041826737   -3.7545784    1.3702106   439061 
 2763000   0.91337011   -3.7559598   -3.7559598   -2.3859077  0.040384051   -3.7559598     1.370052   439061 
 2764000   0.91269144   -3.7565839   -3.7565839   -2.3875498  0.040900219   -3.7565839     1.369034   439061 
 2765000   0.91455922   -3.7583479   -3.7583479   -2.3865122  0.039958297   -3.7583479    1.3718357   439061 
 2766000   0.91274468   -3.7575282   -3.7575282   -2.3884143   0.04062309   -3.7575282    1.3691139   439061 
 2767000    0.9113547   -3.7547184   -3.7547184   -2.3876895  0.040363582   -3.7547184    1.3670289   439061 
 2768000   0.91210098   -3.7545448   -3.7545448   -2.3863965  0.041520224   -3.7545448    1.3681483   439061 
 2769000   0.91236547   -3.7552246   -3.7552246   -2.3866795  0.042210149   -3.7552246    1.3685451   439061 
 2770000    0.9131898   -3.7558833   -3.7558833   -2.3861017  0.041296003   -3.7558833    1.3697816   439061 
 2771000   0.91281039   -3.7546627   -3.7546627   -2.3854502  0.050743453   -3.7546627    1.3692125   439061 
 2772000   0.91260889   -3.7536599   -3.7536599   -2.3847497  0.045728574   -3.7536599    1.3689102   439061 
 2773000   0.91311677   -3.7554314   -3.7554314   -2.3857594  0.038757036   -3.7554314     1.369672   439061 
 2774000   0.91168753   -3.7533972   -3.7533972    -2.385869  0.043197506   -3.7533972    1.3675282   439061 
 2775000   0.91230343   -3.7544055   -3.7544055   -2.3859535  0.037178286   -3.7544055     1.368452   439061 
 2776000   0.91191433   -3.7542972   -3.7542972   -2.3864288  0.036737547   -3.7542972    1.3678684   439061 
 2777000   0.91095444   -3.7548422   -3.7548422   -2.3884136  0.036064172   -3.7548422    1.3664285   439061 
 2778000   0.91057294   -3.7544159   -3.7544159   -2.3885596  0.038805701   -3.7544159    1.3658563   439061 
 2779000   0.91134036   -3.7531764   -3.7531764    -2.386169  0.039744109   -3.7531764    1.3670074   439061 
 2780000   0.91215239   -3.7542058   -3.7542058   -2.3859804  0.037685747   -3.7542058    1.3682255   439061 
 2781000   0.91203875   -3.7544935   -3.7544935   -2.3864385  0.039252897   -3.7544935     1.368055   439061 
 2782000   0.91101833   -3.7537941   -3.7537941   -2.3872698  0.033891197   -3.7537941    1.3665244   439061 
 2783000   0.91160011   -3.7564292   -3.7564292   -2.3890322  0.039699599   -3.7564292     1.367397   439061 
 2784000   0.91216982   -3.7564078   -3.7564078   -2.3881562  0.033472152   -3.7564078    1.3682516   439061 
 2785000   0.91023805   -3.7540097   -3.7540097   -2.3886557  0.038646634   -3.7540097     1.365354   439061 
 2786000   0.91196111   -3.7556969   -3.7556969   -2.3877584  0.038350993   -3.7556969    1.3679386   439061 
 2787000   0.91296124   -3.7582421   -3.7582421   -2.3888033  0.041558648   -3.7582421    1.3694387   439061 
 2788000   0.91303705   -3.7583134   -3.7583134    -2.388761  0.041304232   -3.7583134    1.3695525   439061 
 2789000   0.91362406   -3.7587032   -3.7587032   -2.3882702  0.041028592   -3.7587032     1.370433   439061 
 2790000   0.91269566   -3.7584506   -3.7584506   -2.3894103  0.040427444   -3.7584506    1.3690404   439061 
 2791000   0.91259362   -3.7589513   -3.7589513    -2.390064   0.04188915   -3.7589513    1.3688873   439061 
 2792000   0.91212376    -3.757996    -3.757996   -2.3898134  0.042930838    -3.757996    1.3681825   439061 
 2793000   0.91267934   -3.7599755   -3.7599755   -2.3909596  0.037064364   -3.7599755    1.3690159   439061 
 2794000   0.91151322   -3.7595956   -3.7595956   -2.3923289  0.038199275   -3.7595956    1.3672667   439061 
 2795000   0.91295601   -3.7620869   -3.7620869    -2.392656  0.037019684   -3.7620869    1.3694309   439061 
 2796000   0.91250563   -3.7612812   -3.7612812   -2.3925258  0.042274606   -3.7612812    1.3687553   439061 
 2797000   0.91089589   -3.7590809   -3.7590809   -2.3927402  0.042147427   -3.7590809    1.3663407   439061 
 2798000    0.9119101   -3.7612503   -3.7612503   -2.3933882  0.038097196   -3.7612503     1.367862   439061 
 2799000   0.91082137   -3.7597386   -3.7597386   -2.3935096  0.044452384   -3.7597386    1.3662289   439061 
 2800000   0.91130121    -3.761096    -3.761096   -2.3941473  0.036728925    -3.761096    1.3669487   439061 
 2801000   0.91113351    -3.761332    -3.761332   -2.3946348  0.039949933    -3.761332    1.3666972   439061 
 2802000   0.91357975   -3.7639949   -3.7639949   -2.3936284  0.040115918   -3.7639949    1.3703665   439061 
 2803000   0.91198358   -3.7623015   -3.7623015   -2.3943293  0.041893371   -3.7623015    1.3679723   439061 
 2804000   0.91233207   -3.7639075   -3.7639075   -2.3954125  0.041693277   -3.7639075     1.368495   439061 
 2805000    0.9113972   -3.7629736   -3.7629736    -2.395881  0.039651537   -3.7629736    1.3670927   439061 
 2806000   0.91095562   -3.7629198   -3.7629198   -2.3964895  0.042878678   -3.7629198    1.3664303   439061 
 2807000   0.90990662   -3.7626171   -3.7626171   -2.3977603  0.039155581   -3.7626171    1.3648568   439061 
 2808000   0.91008414   -3.7624506   -3.7624506   -2.3973275  0.038718168   -3.7624506    1.3651231   439061 
 2809000   0.91134712   -3.7636997   -3.7636997   -2.3966821  0.035999011   -3.7636997    1.3670176   439061 
 2810000   0.91085625   -3.7633349   -3.7633349   -2.3970537  0.039827861   -3.7633349    1.3662813   439061 
 2811000   0.91127685   -3.7626128   -3.7626128   -2.3957007  0.045208562   -3.7626128    1.3669122   439061 
 2812000   0.91171622   -3.7638752   -3.7638752    -2.396304  0.042204376   -3.7638752    1.3675712   439061 
 2813000   0.91053635   -3.7628237   -3.7628237   -2.3970222  0.035917272   -3.7628237    1.3658014   439061 
 2814000   0.91168374   -3.7642081   -3.7642081   -2.3966856  0.035180182   -3.7642081    1.3675225   439061 
 2815000   0.91039978   -3.7625739   -3.7625739   -2.3969774  0.041013556   -3.7625739    1.3655966   439061 
 2816000   0.91105532   -3.7643462   -3.7643462   -2.3977663  0.041600981   -3.7643462    1.3665799   439061 
 2817000   0.91199898   -3.7647985   -3.7647985   -2.3968031  0.037283951   -3.7647985    1.3679954   439061 
 2818000   0.91188183   -3.7640497   -3.7640497   -2.3962301  0.036911336   -3.7640497    1.3678196   439061 
 2819000    0.9126347   -3.7639923   -3.7639923   -2.3950434  0.043313196   -3.7639923    1.3689489   439061 
 2820000   0.91228894   -3.7639613   -3.7639613    -2.395531  0.044328907   -3.7639613    1.3684303   439061 
 2821000   0.91192245   -3.7640905   -3.7640905     -2.39621  0.043522011   -3.7640905    1.3678806   439061 
 2822000   0.91044665   -3.7628465   -3.7628465   -2.3971796  0.043395522   -3.7628465    1.3656669   439061 
 2823000   0.90967769    -3.763852    -3.763852   -2.3993386  0.038732357    -3.763852    1.3645134   439061 
 2824000   0.91106511   -3.7641506   -3.7641506   -2.3975561  0.042516286   -3.7641506    1.3665945   439061 
 2825000   0.91018531   -3.7644786   -3.7644786   -2.3992037  0.037325874   -3.7644786    1.3652749   439061 
 2826000   0.90932815   -3.7624818   -3.7624818   -2.3984926  0.041357433   -3.7624818    1.3639891   439061 
 2827000   0.90915167   -3.7622773   -3.7622773   -2.3985529  0.037289916   -3.7622773    1.3637244   439061 
 2828000   0.91021976   -3.7624972   -3.7624972   -2.3971707  0.039006353   -3.7624972    1.3653265   439061 
 2829000   0.91119036   -3.7640364   -3.7640364   -2.3972539  0.035444742   -3.7640364    1.3667824   439061 
 2830000   0.90979788   -3.7610673   -3.7610673   -2.3963736  0.039590458   -3.7610673    1.3646937   439061 
 2831000   0.91174544   -3.7626839   -3.7626839   -2.3950689  0.040104414   -3.7626839     1.367615   439061 
 2832000   0.91053121   -3.7623492   -3.7623492   -2.3965554  0.043951163   -3.7623492    1.3657937   439061 
 2833000   0.91113123    -3.761355    -3.761355   -2.3946613  0.040675042    -3.761355    1.3666937   439061 
 2834000   0.91230662   -3.7626942   -3.7626942   -2.3942373  0.039182267   -3.7626942    1.3684568   439061 
 2835000   0.90949304   -3.7605421   -3.7605421   -2.3963057  0.039544301   -3.7605421    1.3642365   439061 
 2836000   0.91099224   -3.7620739   -3.7620739   -2.3955887   0.04053179   -3.7620739    1.3664852   439061 
 2837000   0.91000279   -3.7610514   -3.7610514   -2.3960503  0.038471898   -3.7610514    1.3650011   439061 
 2838000   0.91161174   -3.7625451   -3.7625451   -2.3951306  0.036491908   -3.7625451    1.3674145   439061 
 2839000   0.91142121   -3.7627032   -3.7627032   -2.3955745  0.040606308   -3.7627032    1.3671287   439061 
 2840000   0.91089326   -3.7620282   -3.7620282   -2.3956915  0.040681804   -3.7620282    1.3663368   439061 
 2841000   0.91140692   -3.7620599   -3.7620599   -2.3949526  0.038284415   -3.7620599    1.3671073   439061 
 2842000   0.91069341   -3.7620268   -3.7620268   -2.3959898    0.0376906   -3.7620268     1.366037   439061 
 2843000   0.91084899   -3.7619805   -3.7619805   -2.3957101  0.042592975   -3.7619805    1.3662704   439061 
 2844000   0.91258769   -3.7642685   -3.7642685     -2.39539  0.039773688   -3.7642685    1.3688784   439061 
 2845000   0.91197703   -3.7631496   -3.7631496   -2.3951871   0.04069696   -3.7631496    1.3679624   439061 
 2846000   0.91092317   -3.7624874   -3.7624874   -2.3961057  0.041238724   -3.7624874    1.3663816   439061 
 2847000   0.91184253   -3.7630237   -3.7630237    -2.395263   0.03888322   -3.7630237    1.3677607   439061 
 2848000   0.91081825   -3.7623004   -3.7623004   -2.3960761  0.042992254   -3.7623004    1.3662243   439061 
 2849000   0.91039768     -3.76059     -3.76059   -2.3949966  0.046904668     -3.76059    1.3655934   439061 
 2850000   0.91097026   -3.7633913   -3.7633913    -2.396939  0.045586689   -3.7633913    1.3664523   439061 
 2851000   0.91146721   -3.7628076   -3.7628076   -2.3956099  0.040085235   -3.7628076    1.3671977   439061 
 2852000   0.91175398   -3.7637282   -3.7637282   -2.3961003  0.043632648   -3.7637282    1.3676279   439061 
 2853000   0.91380635   -3.7648775   -3.7648775   -2.3941711   0.04083523   -3.7648775    1.3707064   439061 
 2854000   0.91180935   -3.7627048   -3.7627048   -2.3949939  0.037806391   -3.7627048    1.3677109   439061 
 2855000   0.91077407   -3.7617979   -3.7617979   -2.3956399  0.041333798   -3.7617979     1.366158   439061 
 2856000   0.91142327   -3.7617723   -3.7617723   -2.3946405  0.039889643   -3.7617723    1.3671318   439061 
 2857000   0.90986445   -3.7598935   -3.7598935   -2.3950999  0.040925247   -3.7598935    1.3647936   439061 
 2858000   0.91007364   -3.7602355   -3.7602355   -2.3951282  0.042341383   -3.7602355    1.3651073   439061 
 2859000   0.91062426   -3.7608048   -3.7608048   -2.3948715  0.040436723   -3.7608048    1.3659333   439061 
 2860000   0.91185966   -3.7622874   -3.7622874    -2.394501  0.038032869   -3.7622874    1.3677864   439061 
 2861000   0.91051457   -3.7602329   -3.7602329   -2.3944642  0.040294305   -3.7602329    1.3657687   439061 
 2862000   0.91061249   -3.7596199   -3.7596199   -2.3937043   0.03827726   -3.7596199    1.3659156   439061 
 2863000   0.91153319   -3.7609202   -3.7609202   -2.3936235  0.038550446   -3.7609202    1.3672967   439061 
 2864000   0.91212672   -3.7616148   -3.7616148   -2.3934279   0.04118455   -3.7616148     1.368187   439061 
 2865000   0.91084248   -3.7609089   -3.7609089   -2.3946483  0.039408042   -3.7609089    1.3662606   439061 
 2866000   0.90991397   -3.7603777   -3.7603777   -2.3955099  0.041524607   -3.7603777    1.3648678   439061 
 2867000   0.91088741   -3.7621969   -3.7621969   -2.3958689   0.03336654   -3.7621969     1.366328   439061 
 2868000   0.91044783   -3.7609381   -3.7609381   -2.3952695  0.039575136   -3.7609381    1.3656686   439061 
 2869000   0.90975561   -3.7612078   -3.7612078   -2.3965775  0.034749863   -3.7612078    1.3646303   439061 
 2870000   0.90989581   -3.7625728   -3.7625728   -2.3977322    0.0372664   -3.7625728    1.3648406   439061 
 2871000   0.91097542   -3.7631402   -3.7631402   -2.3966802  0.036527973   -3.7631402      1.36646   439061 
 2872000   0.91220275    -3.765065    -3.765065   -2.3967639  0.042633306    -3.765065     1.368301   439061 
 2873000   0.91344366   -3.7658497   -3.7658497   -2.3956874  0.039095221   -3.7658497    1.3701624   439061 
 2874000   0.91392454   -3.7666709   -3.7666709   -2.3957872  0.041429289   -3.7666709    1.3708837   439061 
 2875000   0.91352851   -3.7650872   -3.7650872   -2.3947975  0.045258368   -3.7650872    1.3702896   439061 
 2876000   0.91341988     -3.76629     -3.76629   -2.3961633  0.040127875     -3.76629    1.3701267   439061 
 2877000   0.91189607   -3.7657614   -3.7657614   -2.3979205  0.043025417   -3.7657614     1.367841   439061 
 2878000   0.91253526   -3.7671959   -3.7671959   -2.3983961  0.040837819   -3.7671959    1.3687998   439061 
 2879000   0.91233124   -3.7674146   -3.7674146   -2.3989209   0.03487185   -3.7674146    1.3684937   439061 
 2880000   0.91165652    -3.766834    -3.766834   -2.3993523  0.040077739    -3.766834    1.3674817   439061 
 2881000   0.90984396   -3.7640462   -3.7640462   -2.3992833   0.03733961   -3.7640462    1.3647628   439061 
 2882000   0.90976948   -3.7629703   -3.7629703   -2.3983192  0.042303358   -3.7629703    1.3646511   439061 
 2883000   0.91121903   -3.7657893   -3.7657893   -2.3989639  0.039006684   -3.7657893    1.3668254   439061 
 2884000   0.91209206   -3.7664317   -3.7664317   -2.3982967  0.034393003   -3.7664317     1.368135   439061 
 2885000   0.90982002   -3.7631999   -3.7631999    -2.398473  0.036246828   -3.7631999    1.3647269   439061 
 2886000   0.91112333   -3.7647917   -3.7647917   -2.3981098  0.036684249   -3.7647917    1.3666819   439061 
 2887000   0.91237678    -3.766421    -3.766421    -2.397859  0.034591098    -3.766421    1.3685621   439061 
 2888000   0.90937823   -3.7627198   -3.7627198   -2.3986555  0.042958113   -3.7627198    1.3640642   439061 
 2889000   0.91124148   -3.7646143   -3.7646143   -2.3977552  0.035308553   -3.7646143    1.3668591   439061 
 2890000   0.91070595   -3.7653786   -3.7653786   -2.3993227  0.033392891   -3.7653786    1.3660558   439061 
 2891000    0.9111564   -3.7666073   -3.7666073   -2.3998758  0.037084648   -3.7666073    1.3667315   439061 
 2892000   0.91124478   -3.7671146   -3.7671146   -2.4002505  0.032949673   -3.7671146    1.3668641   439061 
 2893000   0.91208893   -3.7675927   -3.7675927   -2.3994624  0.035585447   -3.7675927    1.3681303   439061 
 2894000   0.90973656    -3.764036    -3.764036   -2.3994343  0.039493051    -3.764036    1.3646017   439061 
 2895000   0.91048724   -3.7655616   -3.7655616   -2.3998338  0.039286057   -3.7655616    1.3657277   439061 
 2896000   0.91019158   -3.7661434   -3.7661434   -2.4008591  0.041846922   -3.7661434    1.3652843   439061 
 2897000   0.91188875   -3.7680196   -3.7680196   -2.4001896  0.042502049   -3.7680196      1.36783   439061 
 2898000   0.91102404   -3.7678718   -3.7678718   -2.4013389  0.042401236   -3.7678718    1.3665329   439061 
 2899000    0.9124792   -3.7703027   -3.7703027   -2.4015871  0.042787372   -3.7703027    1.3687157   439061 
 2900000   0.91256154   -3.7699821   -3.7699821   -2.4011429  0.046332484   -3.7699821    1.3688392   439061 
 2901000   0.91085583   -3.7678607   -3.7678607   -2.4015801  0.041216543   -3.7678607    1.3662806   439061 
 2902000   0.91266544   -3.7692448   -3.7692448   -2.4002497  0.043532607   -3.7692448     1.368995   439061 
 2903000    0.9114989   -3.7686407   -3.7686407   -2.4013955  0.049703839   -3.7686407    1.3672452   439061 
 2904000   0.91208274   -3.7697517   -3.7697517   -2.4016307  0.039470891   -3.7697517     1.368121   439061 
 2905000    0.9123472   -3.7703858   -3.7703858   -2.4018681  0.039761729   -3.7703858    1.3685177   439061 
 2906000   0.91173658   -3.7693685   -3.7693685   -2.4017667  0.041588954   -3.7693685    1.3676018   439061 
 2907000    0.9108907   -3.7684013   -3.7684013   -2.4020684  0.034289546   -3.7684013    1.3663329   439061 
 2908000   0.91014676   -3.7662312   -3.7662312   -2.4010142   0.04035819   -3.7662312     1.365217   439061 
 2909000   0.91008823   -3.7661599   -3.7661599   -2.4010307  0.038965729   -3.7661599    1.3651292   439061 
 2910000   0.91078421   -3.7675702   -3.7675702    -2.401397  0.038268033   -3.7675702    1.3661732   439061 
 2911000   0.91061616   -3.7674548   -3.7674548   -2.4015337  0.039016226   -3.7674548    1.3659211   439061 
 2912000   0.90917456   -3.7654274   -3.7654274   -2.4016687  0.040640089   -3.7654274    1.3637587   439061 
 2913000   0.91031142   -3.7668684   -3.7668684   -2.4014044  0.036876386   -3.7668684     1.365464   439061 
 2914000   0.90966458   -3.7662222   -3.7662222   -2.4017285  0.034242761   -3.7662222    1.3644938   439061 
 2915000   0.90999865   -3.7662786   -3.7662786   -2.4012837  0.031616757   -3.7662786    1.3649949   439061 
 2916000    0.9090229   -3.7659172   -3.7659172   -2.4023859  0.034724934   -3.7659172    1.3635312   439061 
 2917000   0.91060398   -3.7674728   -3.7674728   -2.4015699  0.034136645   -3.7674728    1.3659029   439061 
 2918000   0.91052021   -3.7670412   -3.7670412    -2.401264  0.040377151   -3.7670412    1.3657772   439061 
 2919000   0.91041437   -3.7667627   -3.7667627   -2.4011443  0.036774184   -3.7667627    1.3656184   439061 
 2920000   0.91049699   -3.7662343   -3.7662343   -2.4004919  0.036463236   -3.7662343    1.3657424   439061 
 2921000   0.91138599   -3.7669746   -3.7669746   -2.3998987  0.041883416   -3.7669746    1.3670759   439061 
 2922000   0.91041961    -3.765849    -3.765849   -2.4002227  0.041933268    -3.765849    1.3656263   439061 
 2923000   0.91154847   -3.7669537   -3.7669537   -2.3996342   0.04328857   -3.7669537    1.3673196   439061 
 2924000   0.91075472    -3.767565    -3.767565    -2.401436  0.040975497    -3.767565     1.366129   439061 
 2925000   0.91189725   -3.7689374   -3.7689374   -2.4010947  0.035219685   -3.7689374    1.3678428   439061 
 2926000   0.91098562   -3.7666623   -3.7666623    -2.400187  0.041604984   -3.7666623    1.3664753   439061 
 2927000   0.91041537   -3.7672455   -3.7672455   -2.4016256  0.037932318   -3.7672455    1.3656199   439061 
 2928000   0.91082953   -3.7673105   -3.7673105   -2.4010693  0.037916215   -3.7673105    1.3662412   439061 
 2929000   0.91078971    -3.768337    -3.768337   -2.4021555  0.041548285    -3.768337    1.3661815   439061 
 2930000   0.90978248   -3.7679138   -3.7679138   -2.4032432  0.044073872   -3.7679138    1.3646706   439061 
 2931000   0.90930641   -3.7676501   -3.7676501   -2.4036936  0.041186641   -3.7676501    1.3639565   439061 
 2932000   0.90979261   -3.7688995   -3.7688995   -2.4042137  0.038076472   -3.7688995    1.3646858   439061 
 2933000   0.90982585   -3.7687897   -3.7687897    -2.404054  0.039090377   -3.7687897    1.3647357   439061 
 2934000   0.91196538    -3.770934    -3.770934   -2.4029891  0.038836091    -3.770934     1.367945   439061 
 2935000   0.91140007   -3.7700142   -3.7700142   -2.4029172  0.035518089   -3.7700142     1.367097   439061 
 2936000   0.91099722   -3.7698727   -3.7698727     -2.40338  0.042801617   -3.7698727    1.3664927   439061 
 2937000   0.91077968   -3.7689093   -3.7689093   -2.4027428  0.043772996   -3.7689093    1.3661664   439061 
 2938000   0.90940486   -3.7684077   -3.7684077   -2.4043036  0.041421996   -3.7684077    1.3641042   439061 
 2939000   0.91094122   -3.7695556   -3.7695556   -2.4031469  0.038205829   -3.7695556    1.3664087   439061 
 2940000   0.91084219   -3.7690946   -3.7690946   -2.4028344  0.040079082   -3.7690946    1.3662602   439061 
 2941000   0.91030338   -3.7705121   -3.7705121   -2.4050602  0.036026186   -3.7705121     1.365452   439061 
 2942000   0.91162801   -3.7717558   -3.7717558   -2.4043169  0.039352794   -3.7717558    1.3674389   439061 
 2943000   0.91010761   -3.7695277   -3.7695277   -2.4043694  0.046784543   -3.7695277    1.3651583   439061 
 2944000   0.91057422   -3.7699865   -3.7699865   -2.4041282  0.042514815   -3.7699865    1.3658582   439061 
 2945000   0.91029919   -3.7707316   -3.7707316   -2.4052859  0.038544618   -3.7707316    1.3654457   439061 
 2946000   0.90996333   -3.7687265   -3.7687265   -2.4037846  0.044902292   -3.7687265    1.3649419   439061 
 2947000    0.9085278   -3.7675257   -3.7675257   -2.4047371  0.040463933   -3.7675257    1.3627886   439061 
 2948000   0.90798972   -3.7671157   -3.7671157   -2.4051342  0.040751689   -3.7671157    1.3619815   439061 
 2949000    0.9105276   -3.7709504   -3.7709504   -2.4051622  0.033871723   -3.7709504    1.3657883   439061 
 2950000   0.90885459    -3.769696    -3.769696   -2.4064172  0.039677524    -3.769696    1.3632788   439061 
 2951000   0.90990466   -3.7703043   -3.7703043   -2.4054504   0.04319552   -3.7703043    1.3648539   439061 
 2952000   0.90914419   -3.7699286   -3.7699286   -2.4062155   0.04047493   -3.7699286    1.3637132   439061 
 2953000   0.90944023   -3.7709555   -3.7709555   -2.4067982  0.038689435   -3.7709555    1.3641572   439061 
 2954000   0.90942562   -3.7697784   -3.7697784   -2.4056431  0.038622077   -3.7697784    1.3641353   439061 
 2955000   0.90897757   -3.7694194   -3.7694194   -2.4059561  0.038976187   -3.7694194    1.3634632   439061 
 2956000   0.90985437   -3.7713058   -3.7713058   -2.4065274  0.038502669   -3.7713058    1.3647784   439061 
 2957000   0.91155874   -3.7742861   -3.7742861   -2.4069512  0.038024806   -3.7742861     1.367335   439061 
 2958000   0.90944077   -3.7705887   -3.7705887   -2.4064307  0.045073105   -3.7705887     1.364158   439061 
 2959000   0.91012114   -3.7725551   -3.7725551   -2.4073765  0.045814471   -3.7725551    1.3651786   439061 
 2960000   0.91036575   -3.7725053   -3.7725053   -2.4069598  0.041618963   -3.7725053    1.3655455   439061 
 2961000   0.91143742   -3.7731278   -3.7731278   -2.4059748  0.046456673   -3.7731278     1.367153   439061 
 2962000   0.91073552   -3.7730839   -3.7730839   -2.4069838  0.041364732   -3.7730839    1.3661002   439061 
 2963000   0.91146442   -3.7734152   -3.7734152   -2.4062217  0.044802061   -3.7734152    1.3671935   439061 
 2964000   0.91054692    -3.772082    -3.772082   -2.4062647  0.040541265    -3.772082    1.3658173   439061 
 2965000   0.91104854   -3.7726912   -3.7726912   -2.4061215  0.042633139   -3.7726912    1.3665697   439061 
 2966000   0.91013022   -3.7716609   -3.7716609   -2.4064687  0.042601154   -3.7716609    1.3651922   439061 
 2967000   0.91102099   -3.7714513   -3.7714513    -2.404923  0.040244728   -3.7714513    1.3665284   439061 
 2968000   0.91060201   -3.7700941   -3.7700941   -2.4041942  0.039433851   -3.7700941    1.3658999   439061 
 2969000   0.91041687   -3.7713301   -3.7713301   -2.4057079  0.038507878   -3.7713301    1.3656222   439061 
 2970000   0.91106882   -3.7705782   -3.7705782    -2.403978  0.036255771   -3.7705782    1.3666001   439061 
 2971000   0.91057531   -3.7691933   -3.7691933   -2.4033335  0.037651838   -3.7691933    1.3658598   439061 
 2972000   0.91033168   -3.7691271   -3.7691271   -2.4036327  0.039858661   -3.7691271    1.3654944   439061 
 2973000   0.91011506   -3.7687027   -3.7687027   -2.4035332  0.038133548   -3.7687027    1.3651695   439061 
 2974000   0.91077497   -3.7697681   -3.7697681   -2.4036088  0.038637116   -3.7697681    1.3661593   439061 
 2975000   0.91026281   -3.7692613   -3.7692613   -2.4038702  0.035365993   -3.7692613    1.3653911   439061 
 2976000   0.90858035   -3.7664033   -3.7664033   -2.4035359  0.034569085   -3.7664033    1.3628674   439061 
 2977000   0.90925193   -3.7668346   -3.7668346   -2.4029598  0.035510908   -3.7668346    1.3638748   439061 
 2978000   0.90915915   -3.7668463   -3.7668463   -2.4031107  0.035821322   -3.7668463    1.3637356   439061 
 2979000   0.90897931   -3.7663327   -3.7663327   -2.4028668   0.04026419   -3.7663327    1.3634659   439061 
 2980000   0.91053832   -3.7673098   -3.7673098   -2.4015055  0.033643408   -3.7673098    1.3658044   439061 
 2981000   0.91073871   -3.7676858   -3.7676858   -2.4015808  0.041706021   -3.7676858     1.366105   439061 
 2982000   0.91070903   -3.7683693   -3.7683693   -2.4023088  0.044135098   -3.7683693    1.3660604   439061 
 2983000   0.91050352   -3.7680189   -3.7680189   -2.4022667  0.039567921   -3.7680189    1.3657522   439061 
 2984000   0.91191418   -3.7701073   -3.7701073   -2.4022391  0.037376481   -3.7701073    1.3678682   439061 
 2985000   0.91133364   -3.7702841   -3.7702841   -2.4032868  0.037612316   -3.7702841    1.3669973   439061 
 2986000   0.91137911   -3.7709978   -3.7709978   -2.4039323  0.036999835   -3.7709978    1.3670655   439061 
 2987000   0.91228043   -3.7715335   -3.7715335    -2.403116  0.037415243   -3.7715335    1.3684175   439061 
 2988000   0.91007037   -3.7697227   -3.7697227   -2.4046203  0.040952509   -3.7697227    1.3651024   439061 
 2989000   0.90882085   -3.7672439   -3.7672439   -2.4040158   0.04261347   -3.7672439    1.3632282   439061 
 2990000    0.9105528   -3.7689875   -3.7689875   -2.4031614  0.039957076   -3.7689875    1.3658261   439061 
 2991000   0.91115298   -3.7704974   -3.7704974   -2.4037711  0.042046996   -3.7704974    1.3667264   439061 
 2992000    0.9106689    -3.770327    -3.770327   -2.4043267    0.0452546    -3.770327    1.3660002   439061 
 2993000   0.91048848   -3.7703465   -3.7703465   -2.4046169  0.034108544   -3.7703465    1.3657296   439061 
 2994000   0.91079804   -3.7709296   -3.7709296   -2.4047357  0.036148942   -3.7709296    1.3661939   439061 
 2995000   0.90794593   -3.7676467   -3.7676467   -2.4057309  0.039451799   -3.7676467    1.3619158   439061 
 2996000   0.90802023   -3.7677514   -3.7677514   -2.4057242  0.038379478   -3.7677514    1.3620272   439061 
 2997000   0.90911865   -3.7683445   -3.7683445   -2.4046696  0.040278827   -3.7683445    1.3636749   439061 
 2998000   0.91104112   -3.7705033   -3.7705033   -2.4039447  0.038017446   -3.7705033    1.3665586   439061 
 2999000   0.90946577   -3.7683601   -3.7683601   -2.4041645  0.039735786   -3.7683601    1.3641955   439061 
 3000000    0.9112935   -3.7701325   -3.7701325   -2.4031954  0.037160694   -3.7701325    1.3669371   439061 
 3001000   0.91109974   -3.7689908   -3.7689908   -2.4023443  0.042768997   -3.7689908    1.3666465   439061 
 3002000   0.91084233    -3.770388    -3.770388   -2.4041277  0.037599633    -3.770388    1.3662604   439061 
 3003000    0.9100874   -3.7700691   -3.7700691   -2.4049411  0.036544548   -3.7700691     1.365128   439061 
 3004000   0.91053542   -3.7708591   -3.7708591   -2.4050591  0.038604201   -3.7708591       1.3658   439061 
 3005000   0.90992891   -3.7697517   -3.7697517   -2.4048615  0.037342581   -3.7697517    1.3648903   439061 
 3006000   0.91018888   -3.7701486   -3.7701486   -2.4048684   0.03552574   -3.7701486    1.3652802   439061 
 3007000   0.91102003   -3.7706014   -3.7706014   -2.4040745  0.034978111   -3.7706014    1.3665269   439061 
 3008000   0.91025345   -3.7700564   -3.7700564   -2.4046793  0.037015154   -3.7700564    1.3653771   439061 
 3009000   0.91037769   -3.7692834   -3.7692834     -2.40372  0.043218204   -3.7692834    1.3655634   439061 
 3010000   0.91153779   -3.7710033   -3.7710033   -2.4036998    0.0405138   -3.7710033    1.3673036   439061 
 3011000   0.91013058   -3.7697013   -3.7697013   -2.4045085  0.039356177   -3.7697013    1.3651928   439061 
 3012000   0.91162545   -3.7719816   -3.7719816   -2.4045465  0.039394571   -3.7719816    1.3674351   439061 
 3013000   0.91121737   -3.7700681   -3.7700681   -2.4032452  0.043351524   -3.7700681    1.3668229   439061 
 3014000   0.91050337   -3.7696383   -3.7696383   -2.4038864  0.043938991   -3.7696383     1.365752   439061 
 3015000   0.91131717    -3.770193    -3.770193   -2.4032204  0.040403396    -3.770193    1.3669726   439061 
 3016000   0.91170819   -3.7719149   -3.7719149   -2.4043558  0.040212066   -3.7719149    1.3675592   439061 
 3017000   0.91057754   -3.7692542   -3.7692542   -2.4033909  0.041454739   -3.7692542    1.3658632   439061 
 3018000   0.90976019   -3.7682318   -3.7682318   -2.4035946  0.035959344   -3.7682318    1.3646372   439061 
 3019000   0.91065248   -3.7702513   -3.7702513   -2.4042757  0.034948045   -3.7702513    1.3659756   439061 
 3020000    0.9105558   -3.7699656   -3.7699656    -2.404135  0.033657754   -3.7699656    1.3658306   439061 
 3021000   0.90982232   -3.7689325   -3.7689325   -2.4042021  0.034439611   -3.7689325    1.3647304   439061 
 3022000   0.90944765    -3.768523    -3.768523   -2.4043547    0.0381803    -3.768523    1.3641684   439061 
 3023000   0.90869657   -3.7682054   -3.7682054   -2.4051636  0.039072353   -3.7682054    1.3630417   439061 
 3024000    0.9076738    -3.766565    -3.766565   -2.4050575  0.032931869    -3.766565    1.3615076   439061 
 3025000   0.90956527    -3.768452    -3.768452   -2.4041072  0.034194697    -3.768452    1.3643448   439061 
 3026000   0.91022434   -3.7696833   -3.7696833   -2.4043499  0.038605468   -3.7696833    1.3653334   439061 
 3027000   0.90960353   -3.7695106   -3.7695106   -2.4051084  0.031387578   -3.7695106    1.3644022   439061 
 3028000   0.91048833   -3.7693761   -3.7693761   -2.4036467  0.039924957   -3.7693761    1.3657294   439061 
 3029000   0.91268395   -3.7716204   -3.7716204   -2.4025976  0.038263974   -3.7716204    1.3690228   439061 
 3030000   0.91151929   -3.7723935   -3.7723935   -2.4051176  0.036064138   -3.7723935    1.3672758   439061 
 3031000   0.91124436   -3.7713913   -3.7713913   -2.4045279  0.039667879   -3.7713913    1.3668634   439061 
 3032000   0.91128105   -3.7728707   -3.7728707   -2.4059523  0.039056238   -3.7728707    1.3669185   439061 
 3033000   0.91181457   -3.7725991   -3.7725991   -2.4048804  0.045601593   -3.7725991    1.3677187   439061 
 3034000    0.9113218   -3.7723484   -3.7723484   -2.4053689  0.040133147   -3.7723484    1.3669796   439061 
 3035000    0.9109314   -3.7721422   -3.7721422   -2.4057482  0.042959956   -3.7721422     1.366394   439061 
 3036000   0.91209976   -3.7747009   -3.7747009   -2.4065543  0.041391381   -3.7747009    1.3681465   439061 
 3037000   0.91269323   -3.7746065   -3.7746065   -2.4055697  0.039649834   -3.7746065    1.3690367   439061 
 3038000   0.91248488   -3.7739476   -3.7739476   -2.4052234  0.037756033   -3.7739476    1.3687242   439061 
 3039000   0.91046843   -3.7725807   -3.7725807   -2.4068812  0.042906601   -3.7725807    1.3656995   439061 
 3040000   0.91115571   -3.7723732   -3.7723732   -2.4056428  0.042193799   -3.7723732    1.3667304   439061 
 3041000   0.91064838   -3.7721151   -3.7721151   -2.4061457  0.038752674   -3.7721151    1.3659695   439061 
 3042000    0.9098455   -3.7719029   -3.7719029   -2.4071378  0.034573657   -3.7719029    1.3647651   439061 
 3043000   0.90963423   -3.7713337   -3.7713337   -2.4068855  0.038671717   -3.7713337    1.3644482   439061 
 3044000    0.9095281   -3.7699527   -3.7699527   -2.4056637  0.032525901   -3.7699527     1.364289   439061 
 3045000   0.90943076   -3.7702883   -3.7702883   -2.4061453  0.034664004   -3.7702883     1.364143   439061 
 3046000   0.91138668   -3.7728775   -3.7728775   -2.4058006  0.037439696   -3.7728775    1.3670769   439061 
 3047000   0.91008616   -3.7693701   -3.7693701    -2.404244  0.039863082   -3.7693701    1.3651261   439061 
 3048000   0.91156072   -3.7714644   -3.7714644   -2.4041264  0.039151316   -3.7714644     1.367338   439061 
 3049000   0.91159552   -3.7721173   -3.7721173   -2.4047271  0.034423097   -3.7721173    1.3673902   439061 
 3050000   0.91076244    -3.770443    -3.770443   -2.4043024  0.037882707    -3.770443    1.3661405   439061 
 3051000   0.91004989   -3.7703535   -3.7703535   -2.4052818  0.033015112   -3.7703535    1.3650717   439061 
 3052000   0.90992575   -3.7710401   -3.7710401   -2.4061546  0.035587777   -3.7710401    1.3648855   439061 
 3053000   0.90979277   -3.7710039   -3.7710039   -2.4063178  0.032130423   -3.7710039     1.364686   439061 
 3054000   0.90973954   -3.7699704   -3.7699704   -2.4053642  0.038283376   -3.7699704    1.3646062   439061 
 3055000   0.90905601   -3.7694277   -3.7694277   -2.4058468  0.035480316   -3.7694277    1.3635809   439061 
 3056000   0.90883478    -3.770052    -3.770052    -2.406803   0.03530011    -3.770052    1.3632491   439061 
 3057000   0.90926506   -3.7705369   -3.7705369   -2.4066424   0.03961167   -3.7705369    1.3638945   439061 
 3058000   0.91094642   -3.7728871   -3.7728871   -2.4064706  0.034815425   -3.7728871    1.3664165   439061 
 3059000   0.91000254   -3.7710338   -3.7710338   -2.4060331  0.042010164   -3.7710338    1.3650007   439061 
 3060000   0.90891065   -3.7712987   -3.7712987   -2.4079358  0.036345521   -3.7712987    1.3633629   439061 
 3061000   0.91200264   -3.7743104   -3.7743104   -2.4063095  0.033464234   -3.7743104    1.3680008   439061 
 3062000   0.91114755   -3.7713257   -3.7713257   -2.4046074  0.042186676   -3.7713257    1.3667182   439061 
 3063000   0.91087542   -3.7732413   -3.7732413   -2.4069313  0.036543567   -3.7732413      1.36631   439061 
 3064000   0.90999564   -3.7720311   -3.7720311   -2.4070408  0.042774571   -3.7720311    1.3649903   439061 
 3065000   0.90940686   -3.7729855   -3.7729855   -2.4088783  0.037327461   -3.7729855    1.3641072   439061 
 3066000   0.90815422   -3.7723385   -3.7723385   -2.4101103  0.037462873   -3.7723385    1.3622282   439061 
 3067000   0.90941759   -3.7732478   -3.7732478   -2.4091245  0.039040337   -3.7732478    1.3641233   439061 
 3068000   0.90897681   -3.7742338   -3.7742338   -2.4107717  0.037999109   -3.7742338    1.3634621   439061 
 3069000   0.90990623   -3.7746795   -3.7746795   -2.4098232  0.040638418   -3.7746795    1.3648562   439061 
 3070000   0.90840862   -3.7720232   -3.7720232   -2.4094134  0.037428777   -3.7720232    1.3626098   439061 
 3071000   0.91013326   -3.7746338   -3.7746338    -2.409437  0.040168417   -3.7746338    1.3651968   439061 
 3072000   0.91076929   -3.7770917   -3.7770917   -2.4109409  0.037876195   -3.7770917    1.3661508   439061 
 3073000   0.90959888    -3.775287    -3.775287   -2.4108918   0.03877073    -3.775287    1.3643952   439061 
 3074000   0.90961067   -3.7757889   -3.7757889    -2.411376  0.038395167   -3.7757889    1.3644129   439061 
 3075000   0.91038447   -3.7775164   -3.7775164   -2.4119428  0.032950662   -3.7775164    1.3655736   439061 
 3076000   0.91095317   -3.7778459   -3.7778459   -2.4114193  0.036314141   -3.7778459    1.3664266   439061 
 3077000    0.9096263   -3.7760374   -3.7760374   -2.4116011  0.036375451   -3.7760374    1.3644363   439061 
 3078000    0.9113335   -3.7779494   -3.7779494   -2.4109522  0.039480412   -3.7779494    1.3669971   439061 
 3079000    0.9104804   -3.7767322   -3.7767322   -2.4110147  0.042023645   -3.7767322    1.3657175   439061 
 3080000   0.90902884    -3.776166    -3.776166   -2.4126258  0.040817771    -3.776166    1.3635401   439061 
 3081000    0.9099065   -3.7774936   -3.7774936    -2.412637  0.039137057   -3.7774936    1.3648566   439061 
 3082000   0.90904027   -3.7763006   -3.7763006   -2.4127433  0.043714899   -3.7763006    1.3635573   439061 
 3083000   0.90960518   -3.7773471   -3.7773471   -2.4129425  0.036005423   -3.7773471    1.3644047   439061 
 3084000   0.91079066   -3.7783413   -3.7783413   -2.4121584  0.035729844   -3.7783413    1.3661829   439061 
 3085000   0.90916098   -3.7758172   -3.7758172   -2.4120789  0.035297414   -3.7758172    1.3637384   439061 
 3086000   0.90860465   -3.7762371   -3.7762371   -2.4133332  0.035625073   -3.7762371    1.3629039   439061 
 3087000   0.90779254   -3.7756353   -3.7756353   -2.4139496  0.034850635   -3.7756353    1.3616857   439061 
 3088000   0.90886091   -3.7765449   -3.7765449   -2.4132566  0.041118511   -3.7765449    1.3632883   439061 
 3089000   0.90927924   -3.7783283   -3.7783283   -2.4144126  0.034068694   -3.7783283    1.3639158   439061 
 3090000    0.9076611   -3.7761431   -3.7761431   -2.4146545  0.033379713   -3.7761431    1.3614886   439061 
 3091000   0.90971451    -3.776883    -3.776883   -2.4123144  0.036884574    -3.776883    1.3645687   439061 
 3092000    0.9091011   -3.7764298   -3.7764298   -2.4127813  0.040043769   -3.7764298    1.3636485   439061 
 3093000    0.9098465   -3.7767382   -3.7767382   -2.4119715  0.044533098   -3.7767382    1.3647666   439061 
 3094000   0.90955918   -3.7773137   -3.7773137   -2.4129781  0.032955578   -3.7773137    1.3643357   439061 
 3095000    0.9096069    -3.778018    -3.778018   -2.4136107  0.034891416    -3.778018    1.3644072   439061 
 3096000    0.9092588   -3.7769815   -3.7769815   -2.4130964  0.038688848   -3.7769815    1.3638851   439061 
 3097000   0.90994065   -3.7788223   -3.7788223   -2.4139144  0.035615378   -3.7788223    1.3649079   439061 
 3098000   0.90874111   -3.7796676   -3.7796676    -2.416559  0.031576104   -3.7796676    1.3631086   439061 
 3099000   0.90838192   -3.7786837   -3.7786837    -2.416114  0.036121808   -3.7786837    1.3625698   439061 
 3100000   0.90970891   -3.7794409   -3.7794409   -2.4148807  0.041853978   -3.7794409    1.3645603   439061 
 3101000   0.90968752   -3.7792518   -3.7792518   -2.4147237  0.039281239   -3.7792518    1.3645282   439061 
 3102000   0.90961579   -3.7779655   -3.7779655    -2.413545  0.038657794   -3.7779655    1.3644206   439061 
 3103000   0.91076527   -3.7788783   -3.7788783   -2.4127335  0.044571181   -3.7788783    1.3661448   439061 
 3104000   0.91114425   -3.7800951   -3.7800951   -2.4133818  0.038500415   -3.7800951    1.3667133   439061 
 3105000   0.90975191   -3.7789026   -3.7789026   -2.4142779  0.040468714   -3.7789026    1.3646248   439061 
 3106000   0.91072292   -3.7800788   -3.7800788   -2.4139975  0.041128398   -3.7800788    1.3660813   439061 
 3107000   0.91094443   -3.7800856   -3.7800856   -2.4136721   0.03820142   -3.7800856    1.3664135   439061 
 3108000   0.91041713    -3.778991    -3.778991   -2.4133684  0.037102198    -3.778991    1.3656226   439061 
 3109000   0.90887576   -3.7766437   -3.7766437   -2.4133332  0.036251039   -3.7766437    1.3633105   439061 
 3110000   0.90947533    -3.776977    -3.776977   -2.4127671  0.035832748    -3.776977    1.3642099   439061 
 3111000   0.90869264    -3.777298    -3.777298   -2.4142622  0.036118613    -3.777298    1.3630358   439061 
 3112000   0.90952013   -3.7766946   -3.7766946   -2.4124175  0.036867426   -3.7766946    1.3642771   439061 
 3113000   0.90915282   -3.7762441   -3.7762441   -2.4125179  0.034370149   -3.7762441    1.3637261   439061 
 3114000   0.90858795   -3.7762596   -3.7762596   -2.4133807  0.039015048   -3.7762596    1.3628788   439061 
 3115000   0.90867328   -3.7769618   -3.7769618    -2.413955  0.035600994   -3.7769618    1.3630068   439061 
 3116000   0.90823728   -3.7757703   -3.7757703   -2.4134175  0.034471755   -3.7757703    1.3623528   439061 
 3117000   0.90722916   -3.7763204   -3.7763204   -2.4154798  0.029002746   -3.7763204    1.3608406   439061 
 3118000    0.9086142   -3.7755514   -3.7755514   -2.4126332  0.029242748   -3.7755514    1.3629182   439061 
 3119000   0.90795094   -3.7756388   -3.7756388   -2.4137155  0.034368731   -3.7756388    1.3619233   439061 
 3120000    0.9098721   -3.7777277   -3.7777277   -2.4129227  0.034776638   -3.7777277     1.364805   439061 
 3121000   0.90962074   -3.7781925   -3.7781925   -2.4137645   0.03426047   -3.7781925     1.364428   439061 
 3122000   0.91060249   -3.7795676   -3.7795676   -2.4136669  0.036386621   -3.7795676    1.3659006   439061 
 3123000   0.91022798   -3.7800496   -3.7800496   -2.4147107  0.032873814   -3.7800496    1.3653389   439061 
 3124000   0.90944572    -3.778085    -3.778085   -2.4139195  0.043211142    -3.778085    1.3641655   439061 
 3125000   0.91024969   -3.7797857   -3.7797857   -2.4144143  0.036917717   -3.7797857    1.3653714   439061 
 3126000   0.90894891   -3.7788789   -3.7788789   -2.4154586  0.038431565   -3.7788789    1.3634203   439061 
 3127000   0.90884512   -3.7791669   -3.7791669   -2.4159023  0.042115465   -3.7791669    1.3632646   439061 
 3128000   0.90963638   -3.7802563   -3.7802563   -2.4158048  0.041951184   -3.7802563    1.3644515   439061 
 3129000   0.91077502   -3.7812455   -3.7812455   -2.4150861  0.040095085   -3.7812455    1.3661594   439061 
 3130000   0.90952207    -3.779363    -3.779363    -2.415083  0.040515208    -3.779363      1.36428   439061 
 3131000   0.90946111   -3.7794965   -3.7794965    -2.415308   0.03740975   -3.7794965    1.3641886   439061 
 3132000   0.90854464   -3.7779668   -3.7779668   -2.4151529  0.038793829   -3.7779668    1.3628139   439061 
 3133000   0.90974238   -3.7795404   -3.7795404   -2.4149299  0.034432959   -3.7795404    1.3646105   439061 
 3134000   0.90939369   -3.7797502   -3.7797502   -2.4156628  0.039031279   -3.7797502    1.3640874   439061 
 3135000   0.90807673   -3.7782463   -3.7782463   -2.4161343  0.044385095   -3.7782463     1.362112   439061 
 3136000   0.91046067   -3.7812831   -3.7812831   -2.4155952   0.03420892   -3.7812831    1.3656879   439061 
 3137000   0.90948566   -3.7795274   -3.7795274    -2.415302  0.035171414   -3.7795274    1.3642254   439061 
 3138000   0.90886126   -3.7790197   -3.7790197   -2.4157309  0.032251061   -3.7790197    1.3632888   439061 
 3139000   0.90818729   -3.7778515   -3.7778515   -2.4155736  0.037556464   -3.7778515    1.3622778   439061 
 3140000   0.90904596   -3.7782202   -3.7782202   -2.4146544  0.035196497   -3.7782202    1.3635658   439061 
 3141000   0.90902501   -3.7783657   -3.7783657   -2.4148313  0.033876549   -3.7783657    1.3635344   439061 
 3142000   0.90867843    -3.779083    -3.779083   -2.4160685  0.034444152    -3.779083    1.3630145   439061 
 3143000   0.90846598    -3.778211    -3.778211   -2.4155152  0.034493888    -3.778211    1.3626959   439061 
 3144000   0.90880205   -3.7783891   -3.7783891   -2.4151891  0.036054488   -3.7783891       1.3632   439061 
 3145000   0.90975302   -3.7790451   -3.7790451   -2.4144187  0.037945797   -3.7790451    1.3646264   439061 
 3146000   0.91056436    -3.780558    -3.780558   -2.4147145  0.036542913    -3.780558    1.3658434   439061 
 3147000   0.91033069   -3.7807107   -3.7807107   -2.4152178  0.035009793   -3.7807107    1.3654929   439061 
 3148000   0.90776989   -3.7767488   -3.7767488   -2.4150971  0.038988159   -3.7767488    1.3616517   439061 
 3149000   0.90726845   -3.7769211   -3.7769211   -2.4160215  0.039945534   -3.7769211    1.3608996   439061 
 3150000   0.90933178   -3.7800376   -3.7800376   -2.4160431  0.030515659   -3.7800376    1.3639946   439061 
 3151000   0.90822494   -3.7795942   -3.7795942   -2.4172599  0.034304765   -3.7795942    1.3623343   439061 
 3152000   0.90766195   -3.7796817   -3.7796817   -2.4181919  0.035639173   -3.7796817    1.3614898   439061 
 3153000   0.90747013   -3.7789281   -3.7789281    -2.417726  0.040551367   -3.7789281    1.3612021   439061 
 3154000   0.90818501   -3.7803647   -3.7803647   -2.4180903     0.038919   -3.7803647    1.3622744   439061 
 3155000   0.90896818   -3.7814209   -3.7814209   -2.4179717   0.03852191   -3.7814209    1.3634492   439061 
 3156000   0.90825881   -3.7802069   -3.7802069   -2.4178217  0.042427373   -3.7802069    1.3623851   439061 
 3157000   0.90883419   -3.7805474   -3.7805474   -2.4172993  0.044628453   -3.7805474    1.3632482   439061 
 3158000    0.9087032   -3.7823607   -3.7823607   -2.4193091  0.035774571   -3.7823607    1.3630517   439061 
 3159000   0.90685802   -3.7801645   -3.7801645   -2.4198805  0.038592168   -3.7801645    1.3602839   439061 
 3160000    0.9073534   -3.7800493   -3.7800493   -2.4190223  0.042694561   -3.7800493     1.361027   439061 
 3161000   0.90956771   -3.7822423   -3.7822423   -2.4178938  0.038127087   -3.7822423    1.3643485   439061 
 3162000   0.90976886   -3.7832346   -3.7832346   -2.4185844   0.03992782   -3.7832346    1.3646502   439061 
 3163000   0.90946197   -3.7821763   -3.7821763   -2.4179865  0.038805207   -3.7821763    1.3641898   439061 
 3164000   0.91036448   -3.7830949   -3.7830949   -2.4175512   0.04150358   -3.7830949    1.3655436   439061 
 3165000   0.91024126   -3.7835986   -3.7835986   -2.4182398  0.042513173   -3.7835986    1.3653588   439061 
 3166000   0.91037566   -3.7834136   -3.7834136   -2.4178532  0.036432937   -3.7834136    1.3655604   439061 
 3167000      0.90953   -3.7819287   -3.7819287   -2.4176368  0.036018243   -3.7819287    1.3642919   439061 
 3168000   0.90838911   -3.7793965   -3.7793965   -2.4168159  0.036447086   -3.7793965    1.3625806   439061 
 3169000   0.90782975   -3.7795823   -3.7795823   -2.4178408  0.035107219   -3.7795823    1.3617415   439061 
 3170000   0.90807785   -3.7787661   -3.7787661   -2.4166524  0.034226981   -3.7787661    1.3621137   439061 
 3171000   0.90790923   -3.7792097   -3.7792097   -2.4173489  0.035548026   -3.7792097    1.3618607   439061 
 3172000   0.90914192   -3.7803184   -3.7803184   -2.4166086  0.036713765   -3.7803184    1.3637098   439061 
 3173000   0.90850783   -3.7782239   -3.7782239   -2.4154653  0.035429775   -3.7782239    1.3627586   439061 
 3174000   0.90917491   -3.7776334   -3.7776334   -2.4138742  0.033292165   -3.7776334    1.3637593   439061 
 3175000   0.90797206   -3.7781661   -3.7781661   -2.4162111  0.033998484   -3.7781661     1.361955   439061 
 3176000   0.90642164   -3.7764953   -3.7764953   -2.4168659  0.037932053   -3.7764953    1.3596294   439061 
 3177000   0.90770521   -3.7779793   -3.7779793   -2.4164246  0.035121894   -3.7779793    1.3615547   439061 
 3178000   0.90843431   -3.7775977   -3.7775977   -2.4149494  0.033592411   -3.7775977    1.3626484   439061 
 3179000   0.90747204   -3.7763619   -3.7763619   -2.4151569  0.036839215   -3.7763619     1.361205   439061 
 3180000   0.90839807   -3.7783198   -3.7783198   -2.4157258   0.03589045   -3.7783198     1.362594   439061 
 3181000   0.90790433   -3.7770673   -3.7770673   -2.4152139  0.044121462   -3.7770673    1.3618534   439061 
 3182000   0.91024103   -3.7804603   -3.7804603   -2.4151019  0.038608589   -3.7804603    1.3653584   439061 
 3183000   0.90899335   -3.7796405   -3.7796405   -2.4161536  0.039821885   -3.7796405    1.3634869   439061 
 3184000   0.90911416    -3.780596    -3.780596   -2.4169278  0.039420253    -3.780596    1.3636681   439061 
 3185000   0.90806681   -3.7790866   -3.7790866   -2.4169895  0.043638222   -3.7790866    1.3620971   439061 
 3186000   0.90892016   -3.7804271   -3.7804271     -2.41705  0.038509293   -3.7804271    1.3633771   439061 
 3187000   0.90894184   -3.7806069   -3.7806069   -2.4171973  0.034089705   -3.7806069    1.3634097   439061 
 3188000   0.91092443    -3.783712    -3.783712   -2.4173285  0.039734184    -3.783712    1.3663835   439061 
 3189000   0.90902238   -3.7823877   -3.7823877   -2.4188573  0.041802816   -3.7823877    1.3635305   439061 
 3190000   0.90910861   -3.7818813   -3.7818813   -2.4182215  0.041403999   -3.7818813    1.3636598   439061 
 3191000   0.90955636   -3.7818035   -3.7818035   -2.4174721  0.039078393   -3.7818035    1.3643314   439061 
 3192000   0.91060101   -3.7833709   -3.7833709   -2.4174725  0.036752457   -3.7833709    1.3658984   439061 
 3193000   0.90913872   -3.7821716   -3.7821716   -2.4184666  0.045118357   -3.7821716     1.363705   439061 
 3194000   0.90754849   -3.7815633   -3.7815633   -2.4202437   0.03692853   -3.7815633    1.3613196   439061 
 3195000   0.90708059   -3.7810746   -3.7810746   -2.4204569  0.037125271   -3.7810746    1.3606178   439061 
 3196000   0.90859549   -3.7827424   -3.7827424   -2.4198523  0.033848157   -3.7827424    1.3628901   439061 
 3197000   0.90767976   -3.7836302   -3.7836302   -2.4221137   0.03131035   -3.7836302    1.3615165   439061 
 3198000   0.90537566   -3.7806841   -3.7806841   -2.4226237  0.036962186   -3.7806841    1.3580604   439061 
 3199000    0.9078875   -3.7837788   -3.7837788   -2.4219507  0.027710467   -3.7837788    1.3618281   439061 
 3200000   0.90729042   -3.7823233   -3.7823233   -2.4213907  0.036242117   -3.7823233    1.3609325   439061 
 3201000   0.90695639   -3.7808424   -3.7808424   -2.4204109  0.038445192   -3.7808424    1.3604315   439061 
 3202000   0.90929593   -3.7839669   -3.7839669   -2.4200261  0.033019052   -3.7839669    1.3639408   439061 
 3203000   0.91014397   -3.7857098   -3.7857098   -2.4204969  0.034632306   -3.7857098    1.3652128   439061 
 3204000    0.9085792   -3.7832627   -3.7832627    -2.420397  0.040987292   -3.7832627    1.3628657   439061 
 3205000   0.91030739   -3.7853756   -3.7853756   -2.4199176  0.046083627   -3.7853756     1.365458   439061 
 3206000    0.9109357   -3.7866516   -3.7866516   -2.4202512  0.038474361   -3.7866516    1.3664004   439061 
 3207000   0.90924894   -3.7847503   -3.7847503     -2.42088   0.03916286   -3.7847503    1.3638703   439061 
 3208000   0.90902412   -3.7836725   -3.7836725   -2.4201395  0.039976985   -3.7836725    1.3635331   439061 
 3209000   0.90956875     -3.78547     -3.78547     -2.42112  0.037387676     -3.78547      1.36435   439061 
 3210000   0.90789371   -3.7833817   -3.7833817   -2.4215443  0.040701986   -3.7833817    1.3618375   439061 
 3211000    0.9079438   -3.7828788   -3.7828788   -2.4209662  0.034238723   -3.7828788    1.3619126   439061 
 3212000   0.90950739   -3.7841199   -3.7841199   -2.4198619  0.040727555   -3.7841199     1.364258   439061 
 3213000   0.91036898   -3.7865887   -3.7865887   -2.4210384  0.034059915   -3.7865887    1.3655504   439061 
 3214000   0.90813598    -3.782696    -3.782696   -2.4204951  0.038056845    -3.782696    1.3622009   439061 
 3215000   0.90786706   -3.7821797   -3.7821797   -2.4203822  0.040650747   -3.7821797    1.3617975   439061 
 3216000   0.90733373   -3.7831805   -3.7831805    -2.422183  0.032221735   -3.7831805    1.3609975   439061 
 3217000   0.90855479   -3.7841961   -3.7841961    -2.421367  0.035276022   -3.7841961    1.3628291   439061 
 3218000   0.90674226   -3.7818343   -3.7818343    -2.421724  0.038518207   -3.7818343    1.3601103   439061 
 3219000   0.90705215    -3.780845    -3.780845   -2.4202699   0.03700636    -3.780845    1.3605751   439061 
 3220000   0.90726351   -3.7819453   -3.7819453   -2.4210532  0.039461672   -3.7819453    1.3608922   439061 
 3221000   0.90912586   -3.7843207   -3.7843207   -2.4206351  0.034002653   -3.7843207    1.3636857   439061 
 3222000   0.90690582   -3.7812843   -3.7812843   -2.4209286  0.036074897   -3.7812843    1.3603556   439061 
 3223000   0.90685839   -3.7813004   -3.7813004    -2.421016  0.039287925   -3.7813004    1.3602845   439061 
 3224000    0.9085612   -3.7840309   -3.7840309   -2.4211922  0.030988482   -3.7840309    1.3628387   439061 
 3225000   0.90772316   -3.7834752   -3.7834752   -2.4218935  0.032267456   -3.7834752    1.3615816   439061 
 3226000   0.90788738    -3.785429    -3.785429   -2.4236011  0.031122273    -3.785429     1.361828   439061 
 3227000   0.90827926   -3.7840236   -3.7840236   -2.4216078  0.034976979   -3.7840236    1.3624158   439061 
 3228000   0.90965061    -3.784477    -3.784477   -2.4200042  0.040819622    -3.784477    1.3644728   439061 
 3229000   0.90893636   -3.7854507   -3.7854507   -2.4220493  0.040152527   -3.7854507    1.3634014   439061 
 3230000   0.90795114   -3.7831676   -3.7831676    -2.421244  0.037076022   -3.7831676    1.3619236   439061 
 3231000   0.90810843   -3.7839619   -3.7839619   -2.4218023  0.041317006   -3.7839619    1.3621595   439061 
 3232000   0.91041616   -3.7862472   -3.7862472   -2.4206261  0.041135852   -3.7862472    1.3656211   439061 
 3233000   0.90978171   -3.7840322   -3.7840322   -2.4193628  0.042361384   -3.7840322    1.3646695   439061 
 3234000   0.90906129   -3.7828874   -3.7828874   -2.4192986  0.043216603   -3.7828874    1.3635888   439061 
 3235000     0.910705   -3.7851563   -3.7851563   -2.4191019  0.041302257   -3.7851563    1.3660544   439061 
 3236000   0.91003005   -3.7845796   -3.7845796   -2.4195377  0.039261536   -3.7845796     1.365042   439061 
 3237000   0.90820589   -3.7835147   -3.7835147    -2.421209  0.036319742   -3.7835147    1.3623057   439061 
 3238000   0.90743569   -3.7811027   -3.7811027   -2.4199523  0.038912679   -3.7811027    1.3611504   439061 
 3239000   0.90645438   -3.7809323   -3.7809323   -2.4212538  0.037190217   -3.7809323    1.3596785   439061 
 3240000    0.9068828   -3.7814149   -3.7814149   -2.4210938  0.033975126   -3.7814149    1.3603211   439061 
 3241000   0.90627456   -3.7801639   -3.7801639   -2.4207552   0.03464295   -3.7801639    1.3594087   439061 
 3242000   0.90648629   -3.7812725   -3.7812725   -2.4215462  0.032991513   -3.7812725    1.3597263   439061 
 3243000    0.9071841   -3.7804857   -3.7804857   -2.4197127  0.036036159   -3.7804857     1.360773   439061 
 3244000   0.90785263   -3.7814671   -3.7814671   -2.4196912  0.035339429   -3.7814671    1.3617758   439061 
 3245000   0.90669802   -3.7800528   -3.7800528   -2.4200088  0.033065115   -3.7800528    1.3600439   439061 
 3246000   0.90801017   -3.7821431   -3.7821431   -2.4201309  0.034845276   -3.7821431    1.3620122   439061 
 3247000   0.90826832   -3.7814736   -3.7814736   -2.4190742  0.036840042   -3.7814736    1.3623994   439061 
 3248000   0.90779375   -3.7800374   -3.7800374   -2.4183499   0.03937185   -3.7800374    1.3616875   439061 
 3249000   0.90771753    -3.781193    -3.781193   -2.4196198  0.036073179    -3.781193    1.3615732   439061 
 3250000   0.90805093   -3.7814115   -3.7814115   -2.4193382  0.038972557   -3.7814115    1.3620733   439061 
 3251000   0.90884099   -3.7833803   -3.7833803   -2.4201219  0.038071931   -3.7833803    1.3632584   439061 
 3252000    0.9085492   -3.7839095   -3.7839095   -2.4210888  0.038169821   -3.7839095    1.3628207   439061 
 3253000   0.90846627   -3.7842352   -3.7842352   -2.4215389  0.035304622   -3.7842352    1.3626963   439061 
 3254000    0.9084845   -3.7844058   -3.7844058   -2.4216822  0.041567956   -3.7844058    1.3627236   439061 
 3255000   0.90853675   -3.7832707   -3.7832707   -2.4204687  0.040206757   -3.7832707     1.362802   439061 
 3256000   0.90907605   -3.7838381   -3.7838381   -2.4202272  0.039907166   -3.7838381     1.363611   439061 
 3257000   0.90968984   -3.7860576   -3.7860576   -2.4215259  0.040358434   -3.7860576    1.3645316   439061 
 3258000   0.90852017   -3.7852333   -3.7852333   -2.4224561  0.043887053   -3.7852333    1.3627772   439061 
 3259000   0.90871875   -3.7859451   -3.7859451   -2.4228701  0.035983549   -3.7859451     1.363075   439061 
 3260000   0.90730127   -3.7838836   -3.7838836   -2.4229348  0.041964694   -3.7838836    1.3609488   439061 
 3261000   0.90838285   -3.7851329   -3.7851329   -2.4225618   0.03755292   -3.7851329    1.3625712   439061 
 3262000   0.90851922    -3.785492    -3.785492   -2.4227162  0.039590472    -3.785492    1.3627757   439061 
 3263000   0.90770319   -3.7836779   -3.7836779   -2.4221262  0.037832711   -3.7836779    1.3615517   439061 
 3264000   0.90803491   -3.7850548   -3.7850548   -2.4230055    0.0336929   -3.7850548    1.3620493   439061 
 3265000   0.90847763   -3.7853086   -3.7853086   -2.4225953  0.031718029   -3.7853086    1.3627133   439061 
 3266000   0.90679684   -3.7835346   -3.7835346   -2.4233424  0.033627507   -3.7835346    1.3601922   439061 
 3267000   0.90679737   -3.7820528   -3.7820528   -2.4218599  0.036653244   -3.7820528    1.3601929   439061 
 3268000   0.90762281   -3.7831673   -3.7831673   -2.4217362  0.040844503   -3.7831673    1.3614311   439061 
 3269000   0.90829882   -3.7834071   -3.7834071   -2.4209619  0.036397348   -3.7834071    1.3624451   439061 
 3270000   0.90892523   -3.7853202   -3.7853202   -2.4219354  0.038037962   -3.7853202    1.3633847   439061 
 3271000   0.90865387   -3.7836822   -3.7836822   -2.4207045   0.03319118   -3.7836822    1.3629777   439061 
 3272000   0.90854341   -3.7843705   -3.7843705   -2.4215584  0.035339679   -3.7843705     1.362812   439061 
 3273000   0.90807579   -3.7827281   -3.7827281   -2.4206175  0.036253289   -3.7827281    1.3621106   439061 
 3274000   0.90850159   -3.7847146   -3.7847146   -2.4219653  0.033459762   -3.7847146    1.3627493   439061 
 3275000   0.90712244   -3.7844924   -3.7844924   -2.4238118  0.036383715   -3.7844924    1.3606806   439061 
 3276000   0.90868208    -3.784745    -3.784745    -2.421725  0.039497436    -3.784745      1.36302   439061 
 3277000   0.90805105    -3.784631    -3.784631   -2.4225575  0.037071032    -3.784631    1.3620735   439061 
 3278000   0.90801109   -3.7832171   -3.7832171   -2.4212036   0.03433297   -3.7832171    1.3620135   439061 
 3279000   0.90812316   -3.7840663   -3.7840663   -2.4218847  0.039615906   -3.7840663    1.3621816   439061 
 3280000   0.90943862   -3.7854206   -3.7854206   -2.4212658  0.037552416   -3.7854206    1.3641548   439061 
 3281000   0.90932985   -3.7842887   -3.7842887    -2.420297  0.039173254   -3.7842887    1.3639917   439061 
 3282000   0.90838866   -3.7834378   -3.7834378   -2.4208579  0.040998545   -3.7834378    1.3625799   439061 
 3283000   0.90825285   -3.7835206   -3.7835206   -2.4211444  0.041276755   -3.7835206    1.3623762   439061 
 3284000   0.90786201   -3.7839005   -3.7839005   -2.4221105  0.036582991   -3.7839005    1.3617899   439061 
 3285000    0.9068081   -3.7838352   -3.7838352   -2.4236261  0.040641751   -3.7838352    1.3602091   439061 
 3286000   0.90776103   -3.7856189   -3.7856189   -2.4239804  0.033293922   -3.7856189    1.3616384   439061 
 3287000   0.90652306   -3.7833132   -3.7833132   -2.4235317  0.036631861   -3.7833132    1.3597815   439061 
 3288000   0.90712564   -3.7834788   -3.7834788   -2.4227934  0.035529936   -3.7834788    1.3606854   439061 
 3289000   0.90629628    -3.784289    -3.784289   -2.4248477  0.037264726    -3.784289    1.3594413   439061 
 3290000   0.90737024   -3.7847455   -3.7847455   -2.4236932   0.03788365   -3.7847455    1.3610523   439061 
 3291000   0.90739084   -3.7843693   -3.7843693   -2.4232861  0.033697341   -3.7843693    1.3610832   439061 
 3292000   0.90951057   -3.7869863   -3.7869863   -2.4227235  0.032957802   -3.7869863    1.3642627   439061 
 3293000   0.90885738   -3.7865279   -3.7865279   -2.4232449  0.039470482   -3.7865279     1.363283   439061 
 3294000   0.90857195   -3.7867227   -3.7867227   -2.4238678  0.039444597   -3.7867227    1.3628548   439061 
 3295000   0.90748912   -3.7862284   -3.7862284   -2.4249979  0.035235595   -3.7862284    1.3612306   439061 
 3296000   0.90814156   -3.7878756   -3.7878756   -2.4256664  0.031871203   -3.7878756    1.3622092   439061 
 3297000   0.90563902   -3.7836595   -3.7836595   -2.4252041  0.037700217   -3.7836595    1.3584554   439061 
 3298000   0.90706274   -3.7856804   -3.7856804   -2.4250894  0.035258953   -3.7856804     1.360591   439061 
 3299000   0.90741548   -3.7866212   -3.7866212   -2.4255011  0.034457291   -3.7866212    1.3611201   439061 
 3300000   0.90668774   -3.7845766   -3.7845766   -2.4245481  0.038960639   -3.7845766    1.3600285   439061 
 3301000   0.90631105   -3.7856623   -3.7856623   -2.4261989  0.031264044   -3.7856623    1.3594635   439061 
 3302000    0.9078016   -3.7866246   -3.7866246   -2.4249253  0.038696333   -3.7866246    1.3616993   439061 
 3303000   0.90827947   -3.7884878   -3.7884878   -2.4260717  0.035905909   -3.7884878    1.3624161   439061 
 3304000   0.90755796   -3.7858077   -3.7858077   -2.4244738  0.041239955   -3.7858077    1.3613338   439061 
 3305000   0.90704301   -3.7855189   -3.7855189   -2.4249575  0.038261142   -3.7855189    1.3605614   439061 
 3306000   0.90792086   -3.7863552   -3.7863552    -2.424477  0.036113913   -3.7863552    1.3618782   439061 
 3307000   0.90586409   -3.7857312   -3.7857312   -2.4269382   0.03395621   -3.7857312     1.358793   439061 
 3308000   0.90580898   -3.7857493   -3.7857493   -2.4270389  0.038061803   -3.7857493    1.3587104   439061 
 3309000   0.90739103   -3.7880616   -3.7880616   -2.4269782  0.038134239   -3.7880616    1.3610834   439061 
 3310000   0.90604087   -3.7856992   -3.7856992    -2.426641  0.039734852   -3.7856992    1.3590582   439061 
 3311000   0.90788208   -3.7878012   -3.7878012   -2.4259812  0.037255496   -3.7878012      1.36182   439061 
 3312000   0.90583359   -3.7853175   -3.7853175   -2.4265702  0.035643355   -3.7853175    1.3587473   439061 
 3313000   0.90599475    -3.786324    -3.786324    -2.427335  0.033891484    -3.786324     1.358989   439061 
 3314000   0.90634137    -3.786434    -3.786434    -2.426925  0.041789817    -3.786434     1.359509   439061 
 3315000   0.90570858   -3.7862432   -3.7862432   -2.4276835  0.035907084   -3.7862432    1.3585598   439061 
 3316000    0.9071695   -3.7877758   -3.7877758   -2.4270246  0.036249491   -3.7877758    1.3607512   439061 
 3317000   0.90731077   -3.7889247   -3.7889247   -2.4279616   0.03311648   -3.7889247     1.360963   439061 
 3318000   0.90672926   -3.7874848   -3.7874848    -2.427394   0.03853866   -3.7874848    1.3600908   439061 
 3319000   0.90843495   -3.7894492   -3.7894492   -2.4267999  0.037337934   -3.7894492    1.3626493   439061 
 3320000   0.90844326   -3.7888465   -3.7888465   -2.4261847  0.039414146   -3.7888465    1.3626618   439061 
 3321000   0.90825413    -3.789575    -3.789575    -2.427197  0.037390836    -3.789575    1.3623781   439061 
 3322000    0.9076742   -3.7889413   -3.7889413   -2.4274331   0.03981023   -3.7889413    1.3615082   439061 
 3323000   0.90683723   -3.7890239   -3.7890239   -2.4287712   0.04140223   -3.7890239    1.3602527   439061 
 3324000   0.90687224   -3.7881137   -3.7881137   -2.4278084  0.037400418   -3.7881137    1.3603053   439061 
 3325000   0.90792765   -3.7894516   -3.7894516   -2.4275633  0.032544822   -3.7894516    1.3618884   439061 
 3326000   0.90599889   -3.7875704   -3.7875704   -2.4285752  0.039618913   -3.7875704    1.3589952   439061 
 3327000   0.90738406   -3.7890995   -3.7890995   -2.4280266  0.032501361   -3.7890995     1.361073   439061 
 3328000   0.90702946   -3.7891531   -3.7891531    -2.428612  0.038516077   -3.7891531    1.3605411   439061 
 3329000   0.90674301   -3.7878775   -3.7878775   -2.4277661  0.034081282   -3.7878775    1.3601114   439061 
 3330000   0.90737887   -3.7880264   -3.7880264   -2.4269612  0.038482798   -3.7880264    1.3610652   439061 
 3331000   0.90737384    -3.787279    -3.787279   -2.4262213  0.040279385    -3.787279    1.3610577   439061 
 3332000   0.90815995   -3.7870135   -3.7870135   -2.4247767  0.041238575   -3.7870135    1.3622368   439061 
 3333000   0.90862247   -3.7871412   -3.7871412   -2.4242106  0.039667274   -3.7871412    1.3629306   439061 
 3334000   0.90783796   -3.7862973   -3.7862973   -2.4245435  0.040465389   -3.7862973    1.3617538   439061 
 3335000   0.90701488   -3.7864647   -3.7864647   -2.4259454  0.036791383   -3.7864647    1.3605192   439061 
 3336000   0.90731002   -3.7872678   -3.7872678   -2.4263059  0.035347214   -3.7872678    1.3609619   439061 
 3337000   0.90475922   -3.7855349   -3.7855349   -2.4283991  0.036548097   -3.7855349    1.3571357   439061 
 3338000   0.90512169    -3.785464    -3.785464   -2.4277845  0.036592273    -3.785464    1.3576794   439061 
 3339000   0.90412226   -3.7837747   -3.7837747   -2.4275944  0.034458755   -3.7837747    1.3561803   439061 
 3340000   0.90589298   -3.7845658   -3.7845658   -2.4257294  0.038147805   -3.7845658    1.3588364   439061 
 3341000    0.9065115   -3.7861406   -3.7861406   -2.4263764  0.035891071   -3.7861406    1.3597641   439061 
 3342000   0.90624579   -3.7857124   -3.7857124   -2.4263468  0.040794154   -3.7857124    1.3593656   439061 
 3343000   0.90800887   -3.7871123   -3.7871123   -2.4251021  0.039271051   -3.7871123    1.3620102   439061 
 3344000   0.90680788    -3.785959    -3.785959   -2.4257503  0.038579471    -3.785959    1.3602087   439061 
 3345000   0.90871354   -3.7875044   -3.7875044   -2.4244372  0.037320723   -3.7875044    1.3630672   439061 
 3346000    0.9073577   -3.7859456   -3.7859456   -2.4249122  0.036789465   -3.7859456    1.3610334   439061 
 3347000   0.90818514   -3.7886519   -3.7886519   -2.4263773  0.035722011   -3.7886519    1.3622746   439061 
 3348000   0.90695064    -3.787863    -3.787863   -2.4274401  0.032682007    -3.787863    1.3604229   439061 
 3349000   0.90764045   -3.7878486   -3.7878486    -2.426391    0.0355045   -3.7878486    1.3614576   439061 
 3350000   0.90712058   -3.7879799   -3.7879799   -2.4273021  0.032800187   -3.7879799    1.3606778   439061 
 3351000   0.90838856   -3.7875731   -3.7875731   -2.4249933  0.040502318   -3.7875731    1.3625797   439061 
 3352000   0.90984021   -3.7897559   -3.7897559   -2.4249987  0.042039254   -3.7897559    1.3647572   439061 
 3353000    0.9092258   -3.7894443   -3.7894443   -2.4256088  0.041362776   -3.7894443    1.3638356   439061 
 3354000   0.90881747    -3.789962    -3.789962   -2.4267389  0.036761958    -3.789962    1.3632231   439061 
 3355000   0.90624414   -3.7861577   -3.7861577   -2.4267946  0.042373662   -3.7861577    1.3593631   439061 
 3356000   0.90527312   -3.7845951   -3.7845951   -2.4266885  0.037316917   -3.7845951    1.3579066   439061 
 3357000   0.90644481    -3.787527    -3.787527   -2.4278629  0.033293958    -3.787527    1.3596641   439061 
 3358000   0.90520011   -3.7848416   -3.7848416   -2.4270445  0.036621364   -3.7848416    1.3577971   439061 
 3359000   0.90586693   -3.7871608   -3.7871608   -2.4283635  0.029486515   -3.7871608    1.3587973   439061 
 3360000   0.90571725   -3.7862945   -3.7862945   -2.4277217  0.038522659   -3.7862945    1.3585728   439061 
 3361000    0.9075999   -3.7888048   -3.7888048    -2.427408  0.035465457   -3.7888048    1.3613967   439061 
 3362000   0.90767567   -3.7887071   -3.7887071   -2.4271966  0.035759517   -3.7887071    1.3615104   439061 
 3363000   0.90724319   -3.7880533   -3.7880533   -2.4271916  0.036068084   -3.7880533    1.3608617   439061 
 3364000   0.90641131   -3.7868166   -3.7868166   -2.4272027  0.035292445   -3.7868166    1.3596139   439061 
 3365000     0.907344   -3.7896206   -3.7896206   -2.4286077  0.034649868   -3.7896206    1.3610129   439061 
 3366000   0.90583799   -3.7877369   -3.7877369    -2.428983  0.042729777   -3.7877369    1.3587539   439061 
 3367000   0.90849809   -3.7898437   -3.7898437   -2.4270997  0.038490206   -3.7898437     1.362744   439061 
 3368000   0.90827912   -3.7901724   -3.7901724   -2.4277568  0.040894734   -3.7901724    1.3624156   439061 
 3369000   0.90823722     -3.79095     -3.79095   -2.4285972  0.039154463     -3.79095    1.3623527   439061 
 3370000    0.9090806   -3.7921867   -3.7921867   -2.4285689  0.037754073   -3.7921867    1.3636178   439061 
 3371000   0.90697819    -3.789361    -3.789361   -2.4288968  0.038498123    -3.789361    1.3604642   439061 
 3372000   0.90618552   -3.7889027   -3.7889027   -2.4296275  0.037678457   -3.7889027    1.3592752   439061 
 3373000   0.90610599    -3.788273    -3.788273   -2.4291171  0.038394444    -3.788273    1.3591559   439061 
 3374000   0.90761127   -3.7900804   -3.7900804   -2.4286666  0.039664421   -3.7900804    1.3614138   439061 
 3375000   0.90775444   -3.7893342   -3.7893342   -2.4277057  0.042347697   -3.7893342    1.3616286   439061 
 3376000   0.90778324   -3.7896528   -3.7896528    -2.427981  0.035432186   -3.7896528    1.3616718   439061 
 3377000   0.90693896    -3.789477    -3.789477   -2.4290716  0.041357884    -3.789477    1.3604053   439061 
 3378000   0.90813077   -3.7900399   -3.7900399   -2.4278468  0.039987333   -3.7900399    1.3621931   439061 
 3379000   0.90618087   -3.7874054   -3.7874054   -2.4281372  0.032748948   -3.7874054    1.3592682   439061 
 3380000    0.9053121   -3.7879162   -3.7879162   -2.4299511  0.033268668   -3.7879162    1.3579651   439061 
 3381000   0.90555862   -3.7874052   -3.7874052   -2.4290703  0.033719213   -3.7874052    1.3583348   439061 
 3382000   0.90624644   -3.7892801   -3.7892801   -2.4299135  0.033364187   -3.7892801    1.3593666   439061 
 3383000   0.90591322   -3.7880457   -3.7880457    -2.429179  0.038666223   -3.7880457    1.3588667   439061 
 3384000   0.90782442   -3.7895354   -3.7895354   -2.4278019  0.035577582   -3.7895354    1.3617335   439061 
 3385000   0.90800137   -3.7901432   -3.7901432   -2.4281443  0.035203706   -3.7901432    1.3619989   439061 
 3386000   0.90663475   -3.7873818   -3.7873818   -2.4274328  0.037831352   -3.7873818     1.359949   439061 
 3387000   0.90762916   -3.7897957   -3.7897957    -2.428355    0.0380691   -3.7897957    1.3614406   439061 
 3388000   0.90789146   -3.7901702   -3.7901702   -2.4283361    0.0375193   -3.7901702    1.3618341   439061 
 3389000   0.90605902   -3.7891074   -3.7891074    -2.430022  0.038654161   -3.7891074    1.3590854   439061 
 3390000   0.90745413    -3.791123    -3.791123   -2.4299449  0.037333856    -3.791123    1.3611781   439061 
 3391000   0.90702934   -3.7904357   -3.7904357   -2.4298948  0.038795583   -3.7904357    1.3605409   439061 
 3392000   0.90667997   -3.7900655   -3.7900655   -2.4300486   0.03652384   -3.7900655    1.3600169   439061 
 3393000   0.90705111   -3.7911785   -3.7911785   -2.4306049  0.039956311   -3.7911785    1.3605736   439061 
 3394000   0.90650191   -3.7899406   -3.7899406   -2.4301908  0.040322777   -3.7899406    1.3597498   439061 
 3395000   0.90743757   -3.7909986   -3.7909986   -2.4298454  0.037959434   -3.7909986    1.3611533   439061 
 3396000   0.90684329   -3.7883923   -3.7883923   -2.4281305  0.036020215   -3.7883923    1.3602618   439061 
 3397000    0.9073216   -3.7899326   -3.7899326   -2.4289533  0.038743899   -3.7899326    1.3609793   439061 
 3398000   0.90645113   -3.7889532   -3.7889532   -2.4292796  0.037260267   -3.7889532    1.3596736   439061 
 3399000   0.90550378   -3.7890514   -3.7890514   -2.4307988  0.035250667   -3.7890514    1.3582526   439061 
 3400000   0.90627086   -3.7898938   -3.7898938   -2.4304906   0.03590011   -3.7898938    1.3594032   439061 
 3401000   0.90595928   -3.7897482   -3.7897482   -2.4308123  0.035934788   -3.7897482    1.3589358   439061 
 3402000   0.90622679   -3.7898684   -3.7898684   -2.4305313  0.034966744   -3.7898684    1.3593371   439061 
 3403000   0.90589007   -3.7893984   -3.7893984   -2.4305663  0.034786997   -3.7893984     1.358832   439061 
 3404000   0.90690039   -3.7912174   -3.7912174   -2.4308699  0.036809644   -3.7912174    1.3603475   439061 
 3405000   0.90843513   -3.7925612   -3.7925612   -2.4299116  0.035768062   -3.7925612    1.3626496   439061 
 3406000   0.90718487   -3.7905346   -3.7905346   -2.4297604  0.039082615   -3.7905346    1.3607742   439061 
 3407000   0.90793802   -3.7924945   -3.7924945   -2.4305905  0.034982221   -3.7924945    1.3619039   439061 
 3408000   0.90759889   -3.7916449   -3.7916449   -2.4302497  0.033980512   -3.7916449    1.3613952   439061 
 3409000   0.90734072   -3.7923357   -3.7923357   -2.4313277  0.037281907   -3.7923357     1.361008   439061 
 3410000   0.90788951    -3.792534    -3.792534   -2.4307028  0.037479675    -3.792534    1.3618312   439061 
 3411000   0.90678012   -3.7905071   -3.7905071   -2.4303401  0.040177108   -3.7905071    1.3601671   439061 
 3412000   0.90591468   -3.7889542   -3.7889542   -2.4300853  0.043238379   -3.7889542    1.3588689   439061 
 3413000   0.90805869   -3.7911367   -3.7911367   -2.4290518  0.037342196   -3.7911367    1.3620849   439061 
 3414000   0.90968646   -3.7934627   -3.7934627   -2.4289361  0.038410567   -3.7934627    1.3645266   439061 
 3415000   0.90762745   -3.7913824   -3.7913824   -2.4299443   0.03547978   -3.7913824    1.3614381   439061 
 3416000   0.90620461   -3.7891685   -3.7891685   -2.4298647  0.040689166   -3.7891685    1.3593038   439061 
 3417000   0.90631704     -3.79061     -3.79061   -2.4311375  0.034678944     -3.79061    1.3594725   439061 
 3418000    0.9060381   -3.7893502   -3.7893502   -2.4302961   0.03176893   -3.7893502     1.359054   439061 
 3419000    0.9056222   -3.7889623   -3.7889623   -2.4305321  0.036640301   -3.7889623    1.3584302   439061 
 3420000   0.90680663   -3.7907917   -3.7907917   -2.4305848  0.031439455   -3.7907917    1.3602068   439061 
 3421000   0.90631405    -3.789839    -3.789839    -2.430371  0.034606983    -3.789839     1.359468   439061 
 3422000   0.90654009   -3.7896268   -3.7896268   -2.4298197  0.032772278   -3.7896268     1.359807   439061 
 3423000   0.90758293   -3.7915304   -3.7915304   -2.4301591  0.028917986   -3.7915304    1.3613713   439061 
 3424000   0.90599556   -3.7888844   -3.7888844   -2.4298942  0.041316782   -3.7888844    1.3589902   439061 
 3425000   0.90685008    -3.790961    -3.790961    -2.430689  0.038257346    -3.790961     1.360272   439061 
 3426000   0.90579251   -3.7910364   -3.7910364   -2.4323507   0.03458387   -3.7910364    1.3586857   439061 
 3427000   0.90495105   -3.7897678   -3.7897678   -2.4323443  0.040984833   -3.7897678    1.3574235   439061 
 3428000   0.90741805   -3.7928671   -3.7928671   -2.4317431  0.034762508   -3.7928671     1.361124   439061 
 3429000   0.90574162   -3.7916623   -3.7916623    -2.433053  0.036191924   -3.7916623    1.3586093   439061 
 3430000   0.90652632   -3.7929075   -3.7929075   -2.4331211   0.03401951   -3.7929075    1.3597864   439061 
 3431000   0.90910539   -3.7951256   -3.7951256   -2.4314706  0.034961426   -3.7951256     1.363655   439061 
 3432000    0.9081421   -3.7941557   -3.7941557   -2.4319457  0.042105067   -3.7941557      1.36221   439061 
 3433000   0.90777128   -3.7928811   -3.7928811   -2.4312273  0.038771739   -3.7928811    1.3616538   439061 
 3434000   0.90653066   -3.7915442   -3.7915442   -2.4317513  0.045765535   -3.7915442    1.3597929   439061 
 3435000   0.90690411   -3.7926111   -3.7926111    -2.432258  0.037905736   -3.7926111    1.3603531   439061 
 3436000   0.90574716   -3.7928355   -3.7928355   -2.4342178   0.03604619   -3.7928355    1.3586177   439061 
 3437000   0.90523201   -3.7929185   -3.7929185   -2.4350736  0.038855051   -3.7929185    1.3578449   439061 
 3438000   0.90577766   -3.7934576   -3.7934576   -2.4347942  0.038775052   -3.7934576    1.3586634   439061 
 3439000   0.90568465   -3.7934351   -3.7934351   -2.4349112   0.03410039   -3.7934351    1.3585239   439061 
 3440000   0.90537704   -3.7932625   -3.7932625      -2.4352  0.031768145   -3.7932625    1.3580625   439061 
 3441000   0.90639579   -3.7934569   -3.7934569   -2.4338663  0.036001815   -3.7934569    1.3595906   439061 
 3442000   0.90510959   -3.7917661   -3.7917661   -2.4341048  0.038908078   -3.7917661    1.3576613   439061 
 3443000   0.90575655    -3.793844    -3.793844   -2.4352123  0.034709517    -3.793844    1.3586317   439061 
 3444000    0.9061642   -3.7939126   -3.7939126   -2.4346694  0.034271775   -3.7939126    1.3592432   439061 
 3445000   0.90590014   -3.7947704   -3.7947704   -2.4359233  0.036122782   -3.7947704    1.3588471   439061 
 3446000   0.90678899   -3.7947521   -3.7947521   -2.4345717  0.034199803   -3.7947521    1.3601804   439061 
 3447000   0.90454156   -3.7926786   -3.7926786   -2.4358693  0.035763032   -3.7926786    1.3568092   439061 
 3448000   0.90673477   -3.7943883   -3.7943883   -2.4342892  0.039851479   -3.7943883    1.3600991   439061 
 3449000   0.90647101   -3.7938075   -3.7938075   -2.4341041  0.033333581   -3.7938075    1.3597034   439061 
 3450000   0.90597545   -3.7925015   -3.7925015   -2.4335414  0.037557131   -3.7925015    1.3589601   439061 
 3451000   0.90766845   -3.7955926   -3.7955926    -2.434093  0.034819964   -3.7955926    1.3614996   439061 
 3452000   0.90654328    -3.795174    -3.795174   -2.4353622  0.035964117    -3.795174    1.3598118   439061 
 3453000   0.90559027   -3.7937159   -3.7937159   -2.4353336  0.041425856   -3.7937159    1.3583823   439061 
 3454000   0.90688201   -3.7955032   -3.7955032   -2.4351833  0.036816109   -3.7955032    1.3603199   439061 
 3455000   0.90584311   -3.7935398   -3.7935398   -2.4347782  0.036621056   -3.7935398    1.3587616   439061 
 3456000   0.90757184   -3.7956221   -3.7956221   -2.4342675  0.032308434   -3.7956221    1.3613547   439061 
 3457000   0.90711797   -3.7956003   -3.7956003   -2.4349265  0.034806425   -3.7956003    1.3606739   439061 
 3458000   0.90648327   -3.7945736   -3.7945736   -2.4348517  0.039208655   -3.7945736    1.3597218   439061 
 3459000   0.90649236   -3.7933138   -3.7933138   -2.4335783  0.041030611   -3.7933138    1.3597354   439061 
 3460000   0.90591171   -3.7936323   -3.7936323   -2.4347678  0.042652949   -3.7936323    1.3588645   439061 
 3461000   0.90703085   -3.7947161   -3.7947161   -2.4341729  0.034653852   -3.7947161    1.3605432   439061 
 3462000   0.90804444   -3.7961398   -3.7961398   -2.4340762  0.031012894   -3.7961398    1.3620636   439061 
 3463000   0.90554381   -3.7951027   -3.7951027   -2.4367901  0.033690732   -3.7951027    1.3583126   439061 
 3464000    0.9052206   -3.7935318   -3.7935318    -2.435704  0.031469528   -3.7935318    1.3578278   439061 
 3465000   0.90716353   -3.7950894   -3.7950894   -2.4343472  0.039056564   -3.7950894    1.3607422   439061 
 3466000   0.90636011   -3.7942525   -3.7942525   -2.4347154  0.037471883   -3.7942525    1.3595371   439061 
 3467000   0.90756116   -3.7951021   -3.7951021   -2.4337635  0.040269886   -3.7951021    1.3613386   439061 
 3468000    0.9058723    -3.792314    -3.792314   -2.4335087  0.039824741    -3.792314    1.3588054   439061 
 3469000   0.90743607   -3.7957531   -3.7957531   -2.4346021  0.035305716   -3.7957531     1.361151   439061 
 3470000   0.90599967   -3.7945011   -3.7945011   -2.4355046  0.035510769   -3.7945011    1.3589964   439061 
 3471000   0.90627989   -3.7944029   -3.7944029   -2.4349862  0.037693787   -3.7944029    1.3594167   439061 
 3472000   0.90691074   -3.7951337   -3.7951337   -2.4347707  0.039912941   -3.7951337     1.360363   439061 
 3473000   0.90545474   -3.7923833   -3.7923833   -2.4342043   0.03907189   -3.7923833     1.358179   439061 
 3474000   0.90647379   -3.7946814   -3.7946814   -2.4349738  0.037826022   -3.7946814    1.3597076   439061 
 3475000    0.9053472   -3.7931245   -3.7931245   -2.4351068  0.037415147   -3.7931245    1.3580177   439061 
 3476000   0.90484116   -3.7944528   -3.7944528   -2.4371941  0.033280246   -3.7944528    1.3572587   439061 
 3477000    0.9057487   -3.7953876   -3.7953876   -2.4367676  0.034360903   -3.7953876      1.35862   439061 
 3478000   0.90580253   -3.7946282   -3.7946282   -2.4359275  0.039215792   -3.7946282    1.3587007   439061 
 3479000   0.90595184   -3.7946595   -3.7946595   -2.4357348  0.035723076   -3.7946595    1.3589247   439061 
 3480000   0.90599991   -3.7950818   -3.7950818    -2.436085  0.034818382   -3.7950818    1.3589968   439061 
 3481000   0.90619261   -3.7953023   -3.7953023   -2.4360164  0.039286118   -3.7953023    1.3592858   439061 
 3482000   0.90607602    -3.794779    -3.794779    -2.435668  0.035613408    -3.794779    1.3591109   439061 
 3483000   0.90636212   -3.7942998   -3.7942998   -2.4347597  0.038602592   -3.7942998    1.3595401   439061 
 3484000   0.90537541      -3.7944      -3.7944     -2.43634  0.036263182      -3.7944      1.35806   439061 
 3485000    0.9062421   -3.7946647   -3.7946647   -2.4353047  0.040144294   -3.7946647    1.3593601   439061 
 3486000   0.90745532    -3.794482    -3.794482   -2.4333021  0.039241512    -3.794482    1.3611799   439061 
 3487000   0.90701789    -3.793072    -3.793072   -2.4325483  0.038562439    -3.793072    1.3605237   439061 
 3488000   0.90669129   -3.7941777   -3.7941777   -2.4341439  0.034102597   -3.7941777    1.3600338   439061 
 3489000   0.90665578   -3.7945777   -3.7945777   -2.4345971  0.040067461   -3.7945777    1.3599806   439061 
 3490000   0.90785438    -3.796306    -3.796306   -2.4345275  0.035070361    -3.796306    1.3617785   439061 
 3491000   0.90678111   -3.7947631   -3.7947631   -2.4345945   0.03584209   -3.7947631    1.3601686   439061 
 3492000   0.90519219   -3.7934849   -3.7934849   -2.4356997  0.032181705   -3.7934849    1.3577852   439061 
 3493000   0.90534743   -3.7945417   -3.7945417   -2.4365237  0.035039657   -3.7945417     1.358018   439061 
 3494000   0.90539157   -3.7932055   -3.7932055   -2.4351212  0.037558118   -3.7932055    1.3580843   439061 
 3495000   0.90374854   -3.7915825   -3.7915825   -2.4359628  0.035402746   -3.7915825    1.3556197   439061 
 3496000    0.9050399   -3.7952647   -3.7952647    -2.437708  0.030594532   -3.7952647    1.3575568   439061 
 3497000   0.90534228   -3.7957247   -3.7957247   -2.4377144   0.03279796   -3.7957247    1.3580103   439061 
 3498000    0.9065095   -3.7957119   -3.7957119   -2.4359507  0.038716564   -3.7957119    1.3597611   439061 
 3499000   0.90784146   -3.7970077   -3.7970077   -2.4352486  0.035021176   -3.7970077    1.3617591   439061 
 3500000   0.90723008   -3.7960499   -3.7960499   -2.4352078  0.041987382   -3.7960499     1.360842   439061 
 3501000    0.9068049   -3.7967106   -3.7967106   -2.4365063  0.031311748   -3.7967106    1.3602043   439061 
 3502000   0.90696435    -3.796106    -3.796106   -2.4356626  0.031874485    -3.796106    1.3604434   439061 
 3503000   0.90560867   -3.7949048   -3.7949048   -2.4364949  0.043829621   -3.7949048    1.3584099   439061 
 3504000   0.90771131   -3.7973612   -3.7973612   -2.4357974  0.035195711   -3.7973612    1.3615639   439061 
 3505000   0.90662268   -3.7957546   -3.7957546   -2.4358237  0.037826186   -3.7957546    1.3599309   439061 
 3506000   0.90787246   -3.7982085   -3.7982085    -2.436403  0.039855144   -3.7982085    1.3618056   439061 
 3507000   0.90566167   -3.7966757   -3.7966757   -2.4381863  0.037426828   -3.7966757    1.3584894   439061 
 3508000   0.90701853     -3.79885     -3.79885   -2.4383253  0.039568458     -3.79885    1.3605247   439061 
 3509000   0.90815496    -3.799668    -3.799668   -2.4374387  0.041026549    -3.799668    1.3622293   439061 
 3510000   0.90653608   -3.7977255   -3.7977255   -2.4379245  0.038381682   -3.7977255     1.359801   439061 
 3511000   0.90628949   -3.7973259   -3.7973259   -2.4378948  0.036112007   -3.7973259    1.3594311   439061 
 3512000   0.90618458   -3.7966186   -3.7966186   -2.4373449  0.040271942   -3.7966186    1.3592738   439061 
 3513000   0.90634624    -3.796737    -3.796737   -2.4372208  0.038520741    -3.796737    1.3595163   439061 
 3514000   0.90596173   -3.7962104   -3.7962104   -2.4372709  0.037550416   -3.7962104    1.3589395   439061 
 3515000    0.9052306   -3.7949288   -3.7949288    -2.437086  0.042117437   -3.7949288    1.3578428   439061 
 3516000    0.9067333   -3.7961815   -3.7961815   -2.4360846  0.037710925   -3.7961815    1.3600969   439061 
 3517000   0.90737852   -3.7972326   -3.7972326   -2.4361679  0.038931544   -3.7972326    1.3610647   439061 
 3518000   0.90633398   -3.7964432   -3.7964432   -2.4369454  0.043805106   -3.7964432    1.3594979   439061 
 3519000   0.90500337   -3.7940605   -3.7940605   -2.4365585  0.039732294   -3.7940605     1.357502   439061 
 3520000   0.90678245   -3.7963849   -3.7963849   -2.4362143  0.029529904   -3.7963849    1.3601706   439061 
 3521000   0.90602238   -3.7949372   -3.7949372   -2.4359068  0.032746037   -3.7949372    1.3590305   439061 
 3522000   0.90385599   -3.7926188   -3.7926188   -2.4368379  0.037892987   -3.7926188    1.3557809   439061 
 3523000   0.90541732   -3.7953411   -3.7953411   -2.4372182  0.037442647   -3.7953411    1.3581229   439061 
 3524000   0.90464455   -3.7941416   -3.7941416   -2.4371779  0.033311574   -3.7941416    1.3569637   439061 
 3525000   0.90457096   -3.7951931   -3.7951931   -2.4383397  0.034454821   -3.7951931    1.3568534   439061 
 3526000   0.90625989   -3.7967827   -3.7967827   -2.4373959  0.032257473   -3.7967827    1.3593867   439061 
 3527000   0.90525216   -3.7950054   -3.7950054   -2.4371303  0.031197925   -3.7950054    1.3578751   439061 
 3528000   0.90512053   -3.7956766   -3.7956766   -2.4379989  0.031707788   -3.7956766    1.3576777   439061 
 3529000   0.90546576   -3.7968692   -3.7968692   -2.4386737  0.032329494   -3.7968692    1.3581955   439061 
 3530000   0.90686738   -3.7970791   -3.7970791   -2.4367811  0.036274184   -3.7970791     1.360298   439061 
 3531000   0.90751747   -3.8001095   -3.8001095   -2.4388364  0.031125561   -3.8001095    1.3612731   439061 
 3532000   0.90650952   -3.7991791   -3.7991791    -2.439418  0.039315582   -3.7991791    1.3597612   439061 
 3533000   0.90743145   -3.7990376   -3.7990376   -2.4378935  0.040514723   -3.7990376    1.3611441   439061 
 3534000   0.90730518   -3.7990177   -3.7990177    -2.438063  0.042781696   -3.7990177    1.3609547   439061 
 3535000   0.90764863   -3.7992875   -3.7992875   -2.4378176  0.037146445   -3.7992875    1.3614698   439061 
 3536000   0.90604035   -3.7984265   -3.7984265   -2.4393691  0.042337811   -3.7984265    1.3590574   439061 
 3537000   0.90538209    -3.798329    -3.798329   -2.4402589  0.036894628    -3.798329      1.35807   439061 
 3538000   0.90634962    -3.799655    -3.799655   -2.4401337  0.035455981    -3.799655    1.3595213   439061 
 3539000   0.90672025   -3.8009056   -3.8009056   -2.4408283  0.035665994   -3.8009056    1.3600773   439061 
 3540000   0.90619362   -3.7984347   -3.7984347   -2.4391474  0.040274839   -3.7984347    1.3592873   439061 
 3541000   0.90648291    -3.799334    -3.799334   -2.4396128  0.034942309    -3.799334    1.3597213   439061 
 3542000   0.90665985   -3.7983931   -3.7983931   -2.4384064  0.035587309   -3.7983931    1.3599867   439061 
 3543000   0.90453976   -3.7964232   -3.7964232   -2.4396167  0.033988276   -3.7964232    1.3568066   439061 
 3544000   0.90360632   -3.7951814   -3.7951814   -2.4397751  0.039300456   -3.7951814    1.3554064   439061 
 3545000   0.90475367    -3.797414    -3.797414   -2.4402865  0.029376223    -3.797414    1.3571274   439061 
 3546000   0.90476024   -3.7965832   -3.7965832   -2.4394459  0.033960924   -3.7965832    1.3571373   439061 
 3547000   0.90554412   -3.7965213   -3.7965213   -2.4382082  0.033703138   -3.7965213    1.3583131   439061 
 3548000      0.90424   -3.7940763   -3.7940763   -2.4377194  0.039261187   -3.7940763    1.3563569   439061 
 3549000   0.90570211    -3.796001    -3.796001   -2.4374509  0.036791796    -3.796001    1.3585501   439061 
 3550000   0.90585462   -3.7963693   -3.7963693   -2.4375905   0.03679206   -3.7963693    1.3587788   439061 
 3551000   0.90683907     -3.79667     -3.79667   -2.4364145  0.038223864     -3.79667    1.3602555   439061 
 3552000   0.90456786   -3.7931417   -3.7931417    -2.436293  0.041355026   -3.7931417    1.3568487   439061 
 3553000   0.90635013   -3.7954239   -3.7954239   -2.4359018   0.03473983   -3.7954239    1.3595221   439061 
 3554000    0.9048735   -3.7942703   -3.7942703   -2.4369631   0.03929356   -3.7942703    1.3573072   439061 
 3555000   0.90503126   -3.7945887   -3.7945887   -2.4370449   0.03364696   -3.7945887    1.3575438   439061 
 3556000   0.90621168   -3.7975301   -3.7975301   -2.4382157  0.028034787   -3.7975301    1.3593144   439061 
 3557000   0.90599116   -3.7953651   -3.7953651   -2.4363815  0.034180571   -3.7953651    1.3589836   439061 
 3558000   0.90503723   -3.7947614   -3.7947614   -2.4372087  0.037366183   -3.7947614    1.3575527   439061 
 3559000   0.90533328   -3.7951644   -3.7951644   -2.4371676  0.034032623   -3.7951644    1.3579968   439061 
 3560000   0.90553682   -3.7958409   -3.7958409   -2.4375387  0.034064676   -3.7958409    1.3583021   439061 
 3561000   0.90667776   -3.7942917   -3.7942917   -2.4342781  0.038371023   -3.7942917    1.3600135   439061 
 3562000   0.90627111   -3.7935195   -3.7935195   -2.4341159  0.037004314   -3.7935195    1.3594036   439061 
 3563000   0.90590361   -3.7930879   -3.7930879   -2.4342356  0.039694479   -3.7930879    1.3588523   439061 
 3564000   0.90636007   -3.7950719   -3.7950719   -2.4355349   0.03464423   -3.7950719     1.359537   439061 
 3565000   0.90592138   -3.7949766   -3.7949766   -2.4360977  0.032118082   -3.7949766     1.358879   439061 
 3566000   0.90520055   -3.7930856   -3.7930856   -2.4352879  0.035787338   -3.7930856    1.3577977   439061 
 3567000   0.90568392    -3.794209    -3.794209   -2.4356862     0.037961    -3.794209    1.3585228   439061 
 3568000   0.90511803   -3.7937263   -3.7937263   -2.4360524   0.03441121   -3.7937263     1.357674   439061 
 3569000   0.90527242   -3.7949578   -3.7949578   -2.4370523  0.032203295   -3.7949578    1.3579055   439061 
 3570000   0.90565788   -3.7946032   -3.7946032   -2.4361194  0.032932709   -3.7946032    1.3584837   439061 
 3571000    0.9050649   -3.7946695   -3.7946695   -2.4370752   0.03445714   -3.7946695    1.3575943   439061 
 3572000   0.90628143   -3.7965989   -3.7965989   -2.4371798  0.034557869   -3.7965989     1.359419   439061 
 3573000   0.90575959   -3.7959005   -3.7959005   -2.4372642  0.032965003   -3.7959005    1.3586363   439061 
 3574000   0.90630586   -3.7956389   -3.7956389   -2.4361832  0.034787322   -3.7956389    1.3594557   439061 
 3575000   0.90665004   -3.7960149   -3.7960149    -2.436043   0.03599879   -3.7960149     1.359972   439061 
 3576000   0.90673694    -3.796769    -3.796769   -2.4366667  0.041458966    -3.796769    1.3601023   439061 
 3577000     0.906367   -3.7964393   -3.7964393   -2.4368919  0.040596902   -3.7964393    1.3595474   439061 
 3578000   0.90762362   -3.7984087   -3.7984087   -2.4369763  0.041461434   -3.7984087    1.3614323   439061 
 3579000   0.90797514   -3.7989233   -3.7989233   -2.4369637  0.041501016   -3.7989233    1.3619596   439061 
 3580000   0.90627916   -3.7973495   -3.7973495   -2.4379338  0.040698374   -3.7973495    1.3594156   439061 
 3581000   0.90679687   -3.7977465   -3.7977465   -2.4375543  0.037267351   -3.7977465    1.3601922   439061 
 3582000   0.90795885   -3.7998481   -3.7998481   -2.4379129  0.032287334   -3.7998481    1.3619352   439061 
 3583000   0.90561279   -3.7967633   -3.7967633   -2.4383472  0.037606557   -3.7967633    1.3584161   439061 
 3584000   0.90451469   -3.7962759   -3.7962759   -2.4395069  0.040118444   -3.7962759    1.3567689   439061 
 3585000   0.90428766   -3.7960144   -3.7960144    -2.439586  0.036828072   -3.7960144    1.3564284   439061 
 3586000    0.9055288   -3.7978702   -3.7978702   -2.4395801  0.034932541   -3.7978702    1.3582901   439061 
 3587000   0.90569439   -3.7970747   -3.7970747   -2.4385362  0.037649005   -3.7970747    1.3585385   439061 
 3588000   0.90433847   -3.7960029   -3.7960029   -2.4394983  0.040178509   -3.7960029    1.3565046   439061 
 3589000   0.90497259   -3.7961237   -3.7961237   -2.4386679  0.033989245   -3.7961237    1.3574558   439061 
 3590000   0.90462025   -3.7958341   -3.7958341   -2.4389069  0.037043629   -3.7958341    1.3569273   439061 
 3591000   0.90479176   -3.7965195   -3.7965195    -2.439335  0.037539941   -3.7965195    1.3571846   439061 
 3592000   0.90622442   -3.7967475   -3.7967475    -2.437414  0.039387847   -3.7967475    1.3593335   439061 
 3593000   0.90472101   -3.7965375   -3.7965375   -2.4394591  0.039027472   -3.7965375    1.3570784   439061 
 3594000   0.90567769   -3.7990741   -3.7990741   -2.4405607  0.028854791   -3.7990741    1.3585134   439061 
 3595000    0.9042703   -3.7968832   -3.7968832   -2.4404809  0.035189985   -3.7968832    1.3564024   439061 
 3596000   0.90342988   -3.7968217   -3.7968217   -2.4416799  0.031745633   -3.7968217    1.3551417   439061 
 3597000    0.9044222   -3.7982159   -3.7982159   -2.4415857  0.036590674   -3.7982159    1.3566302   439061 
 3598000   0.90429141   -3.7984695   -3.7984695   -2.4420355  0.035976284   -3.7984695     1.356434   439061 
 3599000      0.90437   -3.7989499   -3.7989499    -2.442398  0.035500147   -3.7989499    1.3565519   439061 
 3600000   0.90524376   -3.7993684   -3.7993684   -2.4415058  0.041271172   -3.7993684    1.3578625   439061 
 3601000   0.90566618   -3.7995396   -3.7995396   -2.4410434  0.039707163   -3.7995396    1.3584962   439061 
 3602000   0.90642774   -3.8001924   -3.8001924   -2.4405539  0.039129494   -3.8001924    1.3596385   439061 
 3603000   0.90686892   -3.8016562   -3.8016562   -2.4413559  0.039165484   -3.8016562    1.3603003   439061 
 3604000   0.90638085   -3.8018417   -3.8018417   -2.4422735  0.040368777   -3.8018417    1.3595682   439061 
 3605000   0.90596378   -3.8011565   -3.8011565   -2.4422139   0.03839036   -3.8011565    1.3589426   439061 
 3606000   0.90655613   -3.8024167   -3.8024167   -2.4425856   0.04220879   -3.8024167    1.3598311   439061 
 3607000   0.90681533   -3.8030508   -3.8030508   -2.4428309  0.041140141   -3.8030508    1.3602199   439061 
 3608000   0.90587366   -3.8009479   -3.8009479   -2.4421405  0.036558104   -3.8009479    1.3588074   439061 
 3609000   0.90457456   -3.8012834   -3.8012834   -2.4444246  0.036491028   -3.8012834    1.3568587   439061 
 3610000   0.90390231    -3.799644    -3.799644   -2.4437936  0.038274183    -3.799644    1.3558504   439061 
 3611000   0.90381725   -3.8012377   -3.8012377   -2.4455149  0.036941535   -3.8012377    1.3557228   439061 
 3612000   0.90451389   -3.8000293   -3.8000293   -2.4432616  0.036820101   -3.8000293    1.3567677   439061 
 3613000   0.90459709   -3.7993179   -3.7993179   -2.4424254  0.040849523   -3.7993179    1.3568926   439061 
 3614000   0.90513289   -3.8001184   -3.8001184   -2.4424221  0.036787158   -3.8001184    1.3576962   439061 
 3615000   0.90637366   -3.8006453   -3.8006453   -2.4410879  0.037475175   -3.8006453    1.3595574   439061 
 3616000   0.90547082   -3.7989879   -3.7989879   -2.4407848   0.03591721   -3.7989879    1.3582031   439061 
 3617000   0.90460139   -3.7997487   -3.7997487   -2.4428497  0.039780672   -3.7997487     1.356899   439061 
 3618000   0.90586563   -3.7996149   -3.7996149   -2.4408195  0.036689822   -3.7996149    1.3587954   439061 
 3619000   0.90486367    -3.798846    -3.798846   -2.4415536  0.033996853    -3.798846    1.3572924   439061 
 3620000   0.90556267   -3.7992576   -3.7992576   -2.4409167  0.036916985   -3.7992576    1.3583409   439061 
 3621000   0.90571212   -3.7995087   -3.7995087   -2.4409436  0.038770964   -3.7995087    1.3585651   439061 
 3622000    0.9045995   -3.7987916   -3.7987916   -2.4418954  0.031236253   -3.7987916    1.3568962   439061 
 3623000   0.90314129   -3.7968002   -3.7968002   -2.4420914  0.040025155   -3.7968002    1.3547089   439061 
 3624000   0.90568117   -3.7991619   -3.7991619   -2.4406432  0.033173648   -3.7991619    1.3585187   439061 
 3625000   0.90578189   -3.7992848   -3.7992848    -2.440615  0.035923407   -3.7992848    1.3586697   439061 
 3626000   0.90545112   -3.7982401   -3.7982401   -2.4400666  0.034919231   -3.7982401    1.3581736   439061 
 3627000   0.90675898   -3.7981384   -3.7981384    -2.438003  0.036049593   -3.7981384    1.3601354   439061 
 3628000   0.90595221   -3.7977339   -3.7977339   -2.4388087  0.040632519   -3.7977339    1.3589252   439061 
 3629000   0.90635198   -3.7991309   -3.7991309    -2.439606  0.036589476   -3.7991309    1.3595249   439061 
 3630000    0.9053906   -3.7978621   -3.7978621   -2.4397793  0.040906871   -3.7978621    1.3580828   439061 
 3631000    0.9057418   -3.7982019   -3.7982019   -2.4395923  0.041638996   -3.7982019    1.3586096   439061 
 3632000   0.90363672   -3.7954148   -3.7954148   -2.4399628  0.036208966   -3.7954148     1.355452   439061 
 3633000   0.90531726    -3.797534    -3.797534   -2.4395612  0.033191673    -3.797534    1.3579728   439061 
 3634000   0.90506232   -3.7972544   -3.7972544    -2.439664  0.037426505   -3.7972544    1.3575904   439061 
 3635000   0.90503977   -3.7964174   -3.7964174   -2.4388608  0.038768535   -3.7964174    1.3575566   439061 
 3636000    0.9063319   -3.7982538   -3.7982538   -2.4387591  0.032725902   -3.7982538    1.3594948   439061 
 3637000    0.9053569   -3.7974603   -3.7974603   -2.4394281  0.033211308   -3.7974603    1.3580323   439061 
 3638000   0.90718804   -3.7988766   -3.7988766   -2.4380976  0.033472904   -3.7988766     1.360779   439061 
 3639000   0.90724723   -3.7996507   -3.7996507    -2.438783  0.032930387   -3.7996507    1.3608677   439061 
 3640000     0.907225   -3.8003929   -3.8003929   -2.4395585  0.030449169   -3.8003929    1.3608344   439061 
 3641000   0.90534122   -3.7968303   -3.7968303   -2.4388215  0.038303718   -3.7968303    1.3580087   439061 
 3642000   0.90602916   -3.7975729   -3.7975729   -2.4385323  0.041751512   -3.7975729    1.3590406   439061 
 3643000   0.90628037   -3.7991328   -3.7991328   -2.4397153  0.037251076   -3.7991328    1.3594175   439061 
 3644000    0.9057771   -3.7987245   -3.7987245   -2.4400619  0.032406545   -3.7987245    1.3586626   439061 
 3645000    0.9066156   -3.7988695   -3.7988695   -2.4389492  0.037751031   -3.7988695    1.3599203   439061 
 3646000   0.90733376   -3.7982846   -3.7982846    -2.437287  0.042542889   -3.7982846    1.3609975   439061 
 3647000   0.90810661    -3.798607    -3.798607   -2.4364502  0.036351734    -3.798607    1.3621568   439061 
 3648000   0.90803137   -3.7995568   -3.7995568   -2.4375129  0.035688356   -3.7995568     1.362044   439061 
 3649000   0.90723939   -3.7993534   -3.7993534   -2.4384974  0.034712227   -3.7993534     1.360856   439061 
 3650000   0.90573215   -3.7964573   -3.7964573   -2.4378622  0.039041734   -3.7964573    1.3585951   439061 
 3651000   0.90403732   -3.7955403   -3.7955403   -2.4394874  0.034119609   -3.7955403    1.3560529   439061 
 3652000   0.90536748   -3.7971263   -3.7971263   -2.4390782  0.030503613   -3.7971263    1.3580481   439061 
 3653000    0.9053793   -3.7983268   -3.7983268   -2.4402609  0.037280294   -3.7983268    1.3580659   439061 
 3654000   0.90480501   -3.7961123   -3.7961123   -2.4389078  0.034776543   -3.7961123    1.3572044   439061 
 3655000   0.90501235   -3.7966437   -3.7966437   -2.4391283  0.038800205   -3.7966437    1.3575154   439061 
 3656000   0.90469076   -3.7967939   -3.7967939   -2.4397608  0.034457408   -3.7967939    1.3570331   439061 
 3657000   0.90751971   -3.7990591   -3.7990591   -2.4377827  0.034668723   -3.7990591    1.3612765   439061 
 3658000   0.90689924    -3.798365    -3.798365   -2.4380192   0.03781774    -3.798365    1.3603458   439061 
 3659000   0.90543482   -3.7990173   -3.7990173   -2.4408682  0.034792127   -3.7990173    1.3581491   439061 
 3660000   0.90609614   -3.7988036   -3.7988036   -2.4396625  0.036583733   -3.7988036    1.3591411   439061 
 3661000   0.90574426   -3.7991167   -3.7991167   -2.4405034  0.034382995   -3.7991167    1.3586133   439061 
 3662000   0.90473281   -3.7976121   -3.7976121   -2.4405159  0.038998456   -3.7976121    1.3570961   439061 
 3663000   0.90447778   -3.7980389   -3.7980389   -2.4413253  0.039329726   -3.7980389    1.3567136   439061 
 3664000   0.90534837   -3.7990308   -3.7990308   -2.4410113   0.03966838   -3.7990308    1.3580195   439061 
 3665000   0.90616557   -3.8011874   -3.8011874   -2.4419421  0.043167076   -3.8011874    1.3592453   439061 
 3666000   0.90796897   -3.8028883   -3.8028883   -2.4409379  0.037304403   -3.8028883    1.3619504   439061 
 3667000   0.90763961    -3.802701    -3.802701   -2.4412446   0.04243965    -3.802701    1.3614563   439061 
 3668000   0.90811412   -3.8017786   -3.8017786   -2.4396105  0.041129882   -3.8017786    1.3621681   439061 
 3669000   0.90830583   -3.8018356   -3.8018356     -2.43938  0.039687255   -3.8018356    1.3624556   439061 
 3670000   0.90850264   -3.8016639   -3.8016639    -2.438913     0.039502   -3.8016639    1.3627509   439061 
 3671000   0.90641382   -3.7992773   -3.7992773   -2.4396596  0.040955134   -3.7992773    1.3596176   439061 
 3672000   0.90843695   -3.8028488   -3.8028488   -2.4401965  0.036399539   -3.8028488    1.3626523   439061 
 3673000    0.9050482   -3.7996181   -3.7996181   -2.4420489  0.039971429   -3.7996181    1.3575692   439061 
 3674000   0.90531454   -3.7994334   -3.7994334   -2.4414647  0.035495382   -3.7994334    1.3579687   439061 
 3675000   0.90491522   -3.7988263   -3.7988263   -2.4414566    0.0358646   -3.7988263    1.3573697   439061 
 3676000    0.9046705   -3.7986472   -3.7986472   -2.4416446  0.030875145   -3.7986472    1.3570027   439061 
 3677000    0.9044877   -3.7989974   -3.7989974    -2.442269  0.030142409   -3.7989974    1.3567285   439061 
 3678000   0.90408125   -3.7984552   -3.7984552   -2.4423365  0.035609581   -3.7984552    1.3561188   439061 
 3679000   0.90425844   -3.7983793   -3.7983793   -2.4419947  0.028734565   -3.7983793    1.3563846   439061 
 3680000   0.90537776    -3.797843    -3.797843   -2.4397795  0.036094298    -3.797843    1.3580635   439061 
 3681000   0.90518654   -3.7966361   -3.7966361   -2.4388594  0.038180209   -3.7966361    1.3577767   439061 
 3682000   0.90603902   -3.7981179   -3.7981179   -2.4390624  0.036643181   -3.7981179    1.3590554   439061 
 3683000   0.90572487   -3.7986437   -3.7986437   -2.4400595  0.041707898   -3.7986437    1.3585842   439061 
 3684000    0.9057298   -3.7990047   -3.7990047   -2.4404131  0.037623592   -3.7990047    1.3585916   439061 
 3685000   0.90630726   -3.7990909   -3.7990909   -2.4396332   0.03699268   -3.7990909    1.3594578   439061 
 3686000   0.90758381    -3.801729    -3.801729   -2.4403564  0.039014915    -3.801729    1.3613726   439061 
 3687000   0.90762643   -3.8023157   -3.8023157   -2.4408792   0.03474137   -3.8023157    1.3614365   439061 
 3688000   0.90638363   -3.7999819   -3.7999819   -2.4404096    0.0388311   -3.7999819    1.3595723   439061 
 3689000   0.90630602   -3.7999129   -3.7999129   -2.4404569  0.036911323   -3.7999129    1.3594559   439061 
 3690000    0.9055677    -3.799393    -3.799393   -2.4410445  0.036974934    -3.799393    1.3583485   439061 
 3691000   0.90574058   -3.7996962   -3.7996962   -2.4410885  0.035533016   -3.7996962    1.3586078   439061 
 3692000   0.90478476   -3.7989204   -3.7989204   -2.4417464  0.032668242   -3.7989204    1.3571741   439061 
 3693000   0.90542419   -3.8004346   -3.8004346   -2.4423014  0.033007663   -3.8004346    1.3581332   439061 
 3694000   0.90530771   -3.7994149   -3.7994149   -2.4414564  0.034553416   -3.7994149    1.3579585   439061 
 3695000   0.90645508   -3.7988725   -3.7988725    -2.439193  0.035819771   -3.7988725    1.3596795   439061 
 3696000   0.90657069   -3.7989229   -3.7989229   -2.4390699  0.041622774   -3.7989229    1.3598529   439061 
 3697000    0.9068824   -3.7987731   -3.7987731   -2.4384526  0.038586982   -3.7987731    1.3603205   439061 
 3698000   0.90596681   -3.7984905   -3.7984905   -2.4395434  0.036016425   -3.7984905    1.3589471   439061 
 3699000   0.90525418    -3.798566    -3.798566   -2.4406878  0.033797732    -3.798566    1.3578782   439061 
 3700000   0.90557731   -3.7976169   -3.7976169    -2.439254  0.033977571   -3.7976169    1.3583629   439061 
 3701000   0.90557247   -3.7975507   -3.7975507   -2.4391951  0.031909403   -3.7975507    1.3583556   439061 
 3702000   0.90590195   -3.7969486   -3.7969486   -2.4380988  0.031964628   -3.7969486    1.3588498   439061 
 3703000   0.90559912   -3.7981276   -3.7981276    -2.439732  0.034400112   -3.7981276    1.3583956   439061 
 3704000    0.9058117    -3.798524    -3.798524   -2.4398095  0.039103495    -3.798524    1.3587145   439061 
 3705000   0.90624099   -3.7992484   -3.7992484     -2.43989  0.030931185   -3.7992484    1.3593584   439061 
 3706000   0.90612435    -3.798557    -3.798557   -2.4393736  0.036911832    -3.798557    1.3591834   439061 
 3707000   0.90620837   -3.7978717   -3.7978717   -2.4385623  0.037418872   -3.7978717    1.3593095   439061 
 3708000   0.90687049   -3.7997313   -3.7997313   -2.4394286  0.034836726   -3.7997313    1.3603026   439061 
 3709000   0.90609663   -3.7987128   -3.7987128    -2.439571  0.034131823   -3.7987128    1.3591419   439061 
 3710000   0.90507373   -3.7977749   -3.7977749   -2.4401673  0.039044836   -3.7977749    1.3576075   439061 
 3711000   0.90472478   -3.7987141   -3.7987141     -2.44163  0.039867528   -3.7987141    1.3570841   439061 
 3712000   0.90337639   -3.7975841   -3.7975841   -2.4425226  0.033879093   -3.7975841    1.3550615   439061 
 3713000   0.90278865   -3.7964901   -3.7964901   -2.4423102  0.030190241   -3.7964901    1.3541799   439061 
 3714000   0.90412824   -3.7989019   -3.7989019   -2.4427126  0.038264417   -3.7989019    1.3561893   439061 
 3715000   0.90519406   -3.8005433   -3.8005433   -2.4427553  0.035856612   -3.8005433     1.357788   439061 
 3716000   0.90489207   -3.8006371   -3.8006371   -2.4433021  0.035396037   -3.8006371     1.357335   439061 
 3717000   0.90466651   -3.8016665   -3.8016665   -2.4446698  0.032003406   -3.8016665    1.3569967   439061 
 3718000   0.90603894   -3.8029395   -3.8029395   -2.4438842  0.039945443   -3.8029395    1.3590553   439061 
 3719000   0.90604082   -3.8017924   -3.8017924   -2.4427342  0.040874441   -3.8017924    1.3590581   439061 
 3720000   0.90531698   -3.8019758   -3.8019758   -2.4440034  0.038861214   -3.8019758    1.3579724   439061 
 3721000   0.90672157   -3.8053039   -3.8053039   -2.4452247  0.037964026   -3.8053039    1.3600793   439061 
 3722000   0.90619664   -3.8031056   -3.8031056   -2.4438137  0.042594879   -3.8031056    1.3592919   439061 
 3723000   0.90560163    -3.803601    -3.803601   -2.4452017   0.04091795    -3.803601    1.3583994   439061 
 3724000   0.90631068   -3.8045635   -3.8045635   -2.4451006  0.037385612   -3.8045635    1.3594629   439061 
 3725000   0.90633809   -3.8024592   -3.8024592   -2.4429551  0.042643099   -3.8024592     1.359504   439061 
 3726000   0.90661698   -3.8037789   -3.8037789   -2.4438565   0.04106438   -3.8037789    1.3599224   439061 
 3727000   0.90704598   -3.8037334   -3.8037334   -2.4431676  0.039583427   -3.8037334    1.3605659   439061 
 3728000   0.90670615   -3.8014685   -3.8014685   -2.4414124  0.035771858   -3.8014685    1.3600561   439061 
 3729000   0.90723215   -3.8030153   -3.8030153   -2.4421702  0.037531103   -3.8030153    1.3608451   439061 
 3730000   0.90593152   -3.8007619   -3.8007619   -2.4418677  0.037206551   -3.8007619    1.3588942   439061 
 3731000   0.90572098   -3.8001532   -3.8001532   -2.4415749  0.038143224   -3.8001532    1.3585784   439061 
 3732000   0.90399628   -3.7987552   -3.7987552   -2.4427639  0.037591309   -3.7987552    1.3559913   439061 
 3733000   0.90362446   -3.7965516   -3.7965516    -2.441118  0.029052965   -3.7965516    1.3554336   439061 
 3734000   0.90539017   -3.7987859   -3.7987859   -2.4407037  0.033166547   -3.7987859    1.3580822   439061 
 3735000   0.90383067   -3.7969677   -3.7969677   -2.4412247  0.032513603   -3.7969677    1.3557429   439061 
 3736000    0.9055466   -3.7996356   -3.7996356   -2.4413188  0.022046478   -3.7996356    1.3583168   439061 
 3737000   0.90460722   -3.7985173   -3.7985173   -2.4416096  0.029507072   -3.7985173    1.3569077   439061 
 3738000   0.90515317   -3.7988268   -3.7988268   -2.4411001  0.033265076   -3.7988268    1.3577267   439061 
 3739000   0.90449882   -3.7969537   -3.7969537   -2.4402085  0.031472675   -3.7969537    1.3567451   439061 
 3740000   0.90623052   -3.7995019   -3.7995019   -2.4401592  0.033130509   -3.7995019    1.3593427   439061 
 3741000   0.90587273   -3.7994769   -3.7994769   -2.4406709   0.03309206   -3.7994769     1.358806   439061 
 3742000   0.90543037   -3.7994008   -3.7994008   -2.4412583  0.034357163   -3.7994008    1.3581425   439061 
 3743000   0.90537217   -3.8005369   -3.8005369   -2.4424818  0.034434116   -3.8005369    1.3580552   439061 
 3744000   0.90526467    -3.800362    -3.800362   -2.4424681  0.036095484    -3.800362    1.3578939   439061 
 3745000   0.90631739   -3.8025204   -3.8025204   -2.4430474  0.035617526   -3.8025204     1.359473   439061 
 3746000    0.9058502   -3.8017583   -3.8017583   -2.4429861  0.039184343   -3.8017583    1.3587722   439061 
 3747000   0.90577694   -3.8027227   -3.8027227   -2.4440604  0.037851216   -3.8027227    1.3586623   439061 
 3748000   0.90413205   -3.8018232   -3.8018232   -2.4456283   0.04021499   -3.8018232     1.356195   439061 
 3749000   0.90409888   -3.8026941   -3.8026941   -2.4465488  0.044607775   -3.8026941    1.3561452   439061 
 3750000   0.90314271   -3.8026798   -3.8026798   -2.4479688  0.039546867   -3.8026798     1.354711   439061 
 3751000   0.90558807   -3.8056014   -3.8056014   -2.4472224  0.035162349   -3.8056014     1.358379   439061 
 3752000   0.90522998    -3.804144    -3.804144   -2.4463022  0.036916713    -3.804144    1.3578419   439061 
 3753000   0.90465267    -3.803716    -3.803716   -2.4467401  0.035305148    -3.803716    1.3569759   439061 
 3754000   0.90469958   -3.8039429   -3.8039429   -2.4468966  0.035918197   -3.8039429    1.3570463   439061 
 3755000   0.90702531   -3.8053833   -3.8053833   -2.4448484  0.039964786   -3.8053833    1.3605349   439061 
 3756000   0.90579385   -3.8038649   -3.8038649   -2.4451772  0.045001066   -3.8038649    1.3586877   439061 
 3757000   0.90691087   -3.8075254   -3.8075254   -2.4471622  0.042459773   -3.8075254    1.3603632   439061 
 3758000    0.9052366   -3.8043103   -3.8043103   -2.4464585  0.040758529   -3.8043103    1.3578518   439061 
 3759000   0.90490589   -3.8043811   -3.8043811   -2.4470254  0.038502835   -3.8043811    1.3573557   439061 
 3760000   0.90436848   -3.8028352   -3.8028352   -2.4462855  0.037429027   -3.8028352    1.3565496   439061 
 3761000   0.90369759   -3.8018143   -3.8018143    -2.446271    0.0384339   -3.8018143    1.3555433   439061 
 3762000   0.90428995   -3.8036221   -3.8036221   -2.4471903  0.039396948   -3.8036221    1.3564318   439061 
 3763000   0.90334312   -3.8030054   -3.8030054   -2.4479938  0.032982882   -3.8030054    1.3550116   439061 
 3764000   0.90437196   -3.8051708   -3.8051708   -2.4486159   0.03712034   -3.8051708    1.3565548   439061 
 3765000   0.90423617   -3.8028669   -3.8028669   -2.4465157  0.033341858   -3.8028669    1.3563512   439061 
 3766000   0.90534727   -3.8038381   -3.8038381   -2.4458203  0.028654232   -3.8038381    1.3580178   439061 
 3767000   0.90331421   -3.8012293   -3.8012293   -2.4462611  0.038901795   -3.8012293    1.3549682   439061 
 3768000   0.90565991   -3.8030088   -3.8030088    -2.444522  0.033370247   -3.8030088    1.3584868   439061 
 3769000   0.90475547   -3.8023984   -3.8023984   -2.4452682  0.031174183   -3.8023984    1.3571301   439061 
 3770000   0.90436945   -3.8011308   -3.8011308   -2.4445797  0.036955403   -3.8011308    1.3565511   439061 
 3771000   0.90434899   -3.8020684   -3.8020684    -2.445548  0.038368775   -3.8020684    1.3565204   439061 
 3772000   0.90295055     -3.80054     -3.80054   -2.4461172  0.037274248     -3.80054    1.3544227   439061 
 3773000   0.90431111   -3.8032644   -3.8032644   -2.4468009  0.034457793   -3.8032644    1.3564636   439061 
 3774000   0.90325285   -3.8026686   -3.8026686   -2.4477924  0.035044784   -3.8026686    1.3548762   439061 
 3775000   0.90438996   -3.8039451   -3.8039451   -2.4473633  0.026867507   -3.8039451    1.3565819   439061 
 3776000   0.90442409   -3.8037573   -3.8037573   -2.4471243  0.025835113   -3.8037573     1.356633   439061 
 3777000   0.90411246   -3.8028907   -3.8028907   -2.4467251  0.039808245   -3.8028907    1.3561656   439061 
 3778000   0.90319412   -3.8012493   -3.8012493   -2.4464612  0.038798059   -3.8012493    1.3547881   439061 
 3779000   0.90356572   -3.8039137   -3.8039137   -2.4485683  0.032997765   -3.8039137    1.3553455   439061 
 3780000   0.90488656   -3.8046499   -3.8046499   -2.4473232  0.034534632   -3.8046499    1.3573267   439061 
 3781000   0.90462663   -3.8043766   -3.8043766   -2.4474398  0.032529911   -3.8043766    1.3569369   439061 
 3782000   0.90538834   -3.8044346   -3.8044346   -2.4463552  0.040362119   -3.8044346    1.3580794   439061 
 3783000   0.90520198   -3.8049575   -3.8049575   -2.4471576  0.041037736   -3.8049575    1.3577999   439061 
 3784000    0.9060391   -3.8056861   -3.8056861   -2.4466305  0.037760153   -3.8056861    1.3590556   439061 
 3785000   0.90710293   -3.8055549   -3.8055549   -2.4449036   0.04055506   -3.8055549    1.3606513   439061 
 3786000   0.90591761   -3.8041901   -3.8041901   -2.4453168  0.044698165   -3.8041901    1.3588733   439061 
 3787000   0.90644045   -3.8042854   -3.8042854   -2.4446279  0.044345346   -3.8042854    1.3596576   439061 
 3788000   0.90556027   -3.8040488   -3.8040488   -2.4457115  0.043923139   -3.8040488    1.3583373   439061 
 3789000    0.9058265   -3.8051371   -3.8051371   -2.4464005  0.038943626   -3.8051371    1.3587367   439061 
 3790000   0.90596354   -3.8055529   -3.8055529   -2.4466107  0.031991508   -3.8055529    1.3589422   439061 
 3791000   0.90568103   -3.8045693   -3.8045693   -2.4460508  0.034563563   -3.8045693    1.3585185   439061 
 3792000   0.90340334   -3.8015499   -3.8015499    -2.446448  0.034177034   -3.8015499    1.3551019   439061 
 3793000   0.90432176    -3.802204    -3.802204   -2.4457245    0.0341336    -3.802204    1.3564796   439061 
 3794000    0.9045259   -3.8023578   -3.8023578    -2.445572  0.033507284   -3.8023578    1.3567858   439061 
 3795000   0.90352473   -3.8007062   -3.8007062   -2.4454222  0.029158751   -3.8007062     1.355284   439061 
 3796000   0.90330571   -3.8008251   -3.8008251   -2.4458696  0.031091932   -3.8008251    1.3549555   439061 
 3797000   0.90455605   -3.8019655   -3.8019655   -2.4451345  0.029704138   -3.8019655     1.356831   439061 
 3798000   0.90402313   -3.7995617   -3.7995617   -2.4435301  0.038503993   -3.7995617    1.3560316   439061 
 3799000   0.90594744   -3.8013955   -3.8013955   -2.4424774  0.032292745   -3.8013955    1.3589181   439061 
 3800000   0.90451875   -3.7988126   -3.7988126   -2.4420376    0.0361579   -3.7988126     1.356775   439061 
 3801000    0.9061009   -3.7999865   -3.7999865   -2.4408382  0.032417713   -3.7999865    1.3591483   439061 
 3802000   0.90584009   -3.8016471   -3.8016471   -2.4428901  0.031332525   -3.8016471     1.358757   439061 
 3803000   0.90514096   -3.8004625   -3.8004625   -2.4427541  0.036245134   -3.8004625    1.3577084   439061 
 3804000   0.90567737   -3.8006978   -3.8006978   -2.4421848  0.034122217   -3.8006978     1.358513   439061 
 3805000    0.9038042   -3.7993631   -3.7993631   -2.4436599  0.031285304   -3.7993631    1.3557032   439061 
 3806000   0.90312131   -3.8002895   -3.8002895   -2.4456106  0.035168741   -3.8002895    1.3546789   439061 
 3807000   0.90550747   -3.8033382   -3.8033382   -2.4450801  0.031369883   -3.8033382    1.3582581   439061 
 3808000   0.90352351    -3.799898    -3.799898   -2.4446158  0.041579847    -3.799898    1.3552822   439061 
 3809000   0.90603174   -3.8027478   -3.8027478   -2.4437033  0.039188251   -3.8027478    1.3590445   439061 
 3810000   0.90708307   -3.8051617   -3.8051617   -2.4445402  0.038816809   -3.8051617    1.3606215   439061 
 3811000   0.90692261   -3.8041231   -3.8041231   -2.4437423  0.040651239   -3.8041231    1.3603808   439061 
 3812000   0.90550627   -3.8027095   -3.8027095   -2.4444532  0.038152136   -3.8027095    1.3582563   439061 
 3813000   0.90692557   -3.8047724   -3.8047724   -2.4443871   0.03767704   -3.8047724    1.3603853   439061 
 3814000   0.90547614   -3.8031656   -3.8031656   -2.4449545  0.039557858   -3.8031656    1.3582111   439061 
 3815000   0.90598904   -3.8041462   -3.8041462   -2.4451658  0.035333586   -3.8041462    1.3589805   439061 
 3816000   0.90489699   -3.8038207   -3.8038207   -2.4464783  0.035924003   -3.8038207    1.3573424   439061 
 3817000   0.90586385    -3.804516    -3.804516   -2.4457233  0.033000412    -3.804516    1.3587927   439061 
 3818000   0.90603386   -3.8040294   -3.8040294   -2.4449817  0.036567717   -3.8040294    1.3590477   439061 
 3819000   0.90596321   -3.8037815   -3.8037815   -2.4448398  0.032463825   -3.8037815    1.3589417   439061 
 3820000   0.90384675   -3.8011214   -3.8011214   -2.4453543  0.033090474   -3.8011214     1.355767   439061 
 3821000   0.90447287   -3.8030413   -3.8030413    -2.446335   0.03047848   -3.8030413    1.3567062   439061 
 3822000   0.90506974   -3.8034908   -3.8034908   -2.4458893   0.03017434   -3.8034908    1.3576015   439061 
 3823000    0.9036309   -3.8017958   -3.8017958   -2.4463526  0.030000477   -3.8017958    1.3554433   439061 
 3824000   0.90406489   -3.8033744   -3.8033744   -2.4472801  0.029702189   -3.8033744    1.3560942   439061 
 3825000   0.90447374   -3.8026835   -3.8026835    -2.445976  0.033517415   -3.8026835    1.3567075   439061 
 3826000   0.90636709   -3.8046667   -3.8046667   -2.4451191  0.028733029   -3.8046667    1.3595475   439061 
 3827000   0.90483594   -3.8013072   -3.8013072   -2.4440563  0.038641677   -3.8013072    1.3572508   439061 
 3828000   0.90494094   -3.8016818   -3.8016818   -2.4442735  0.037257902   -3.8016818    1.3574083   439061 
 3829000   0.90620029   -3.8049619   -3.8049619   -2.4456646  0.032979879   -3.8049619    1.3592973   439061 
 3830000   0.90618052   -3.8046277   -3.8046277     -2.44536  0.031576662   -3.8046277    1.3592677   439061 
 3831000    0.9048502   -3.8035968   -3.8035968   -2.4463246  0.036394045   -3.8035968    1.3572722   439061 
 3832000     0.904385   -3.8030961   -3.8030961   -2.4465217   0.03839927   -3.8030961    1.3565744   439061 
 3833000   0.90359753   -3.8028026   -3.8028026   -2.4474094  0.037909495   -3.8028026    1.3553932   439061 
 3834000   0.90420944   -3.8042863   -3.8042863   -2.4479752  0.035077129   -3.8042863    1.3563111   439061 
 3835000   0.90538293   -3.8055688   -3.8055688   -2.4474975  0.035563085   -3.8055688    1.3580713   439061 
 3836000   0.90509117    -3.805097    -3.805097   -2.4474634  0.040850403    -3.805097    1.3576337   439061 
 3837000    0.9060972   -3.8076286   -3.8076286   -2.4484859  0.035065476   -3.8076286    1.3591427   439061 
 3838000   0.90683444   -3.8081508   -3.8081508   -2.4479022  0.035738367   -3.8081508    1.3602486   439061 
 3839000   0.90557106   -3.8064455   -3.8064455    -2.448092  0.042220777   -3.8064455    1.3583535   439061 
 3840000   0.90554143    -3.807275    -3.807275   -2.4489659  0.035799709    -3.807275    1.3583091   439061 
 3841000   0.90586547   -3.8075772   -3.8075772   -2.4487821  0.032944303   -3.8075772    1.3587951   439061 
 3842000   0.90437935   -3.8045027   -3.8045027   -2.4479367  0.037974993   -3.8045027    1.3565659   439061 
 3843000   0.90499761   -3.8066119   -3.8066119   -2.4491186  0.036361193   -3.8066119    1.3574933   439061 
 3844000   0.90469386    -3.805489    -3.805489   -2.4484513  0.037392211    -3.805489    1.3570377   439061 
 3845000   0.90388565   -3.8058484   -3.8058484   -2.4500231   0.03628065   -3.8058484    1.3558254   439061 
 3846000   0.90555031   -3.8071381   -3.8071381   -2.4488158  0.030598747   -3.8071381    1.3583224   439061 
 3847000    0.9036851   -3.8052916   -3.8052916   -2.4497671  0.035987428   -3.8052916    1.3555246   439061 
 3848000   0.90376086   -3.8055904   -3.8055904   -2.4499522   0.03561423   -3.8055904    1.3556382   439061 
 3849000   0.90417337   -3.8048176   -3.8048176   -2.4485606  0.032423802   -3.8048176     1.356257   439061 
 3850000   0.90306932    -3.803688    -3.803688   -2.4490871  0.031831255    -3.803688    1.3546009   439061 
 3851000    0.9051334    -3.804751    -3.804751    -2.447054  0.031650716    -3.804751     1.357697   439061 
 3852000   0.90529265   -3.8060395   -3.8060395   -2.4481036  0.030309051   -3.8060395    1.3579359   439061 
 3853000    0.9054008   -3.8059223   -3.8059223   -2.4478242   0.03719535   -3.8059223    1.3580981   439061 
 3854000   0.90467252   -3.8059395   -3.8059395   -2.4489338  0.029457717   -3.8059395    1.3570057   439061 
 3855000   0.90461919   -3.8065494   -3.8065494   -2.4496237  0.033134739   -3.8065494    1.3569257   439061 
 3856000   0.90473093   -3.8059592   -3.8059592   -2.4488659  0.032280142   -3.8059592    1.3570933   439061 
 3857000   0.90447963   -3.8056965   -3.8056965   -2.4489801  0.036385203   -3.8056965    1.3567164   439061 
 3858000    0.9033524   -3.8038356   -3.8038356   -2.4488101  0.031816447   -3.8038356    1.3550255   439061 
 3859000   0.90424142   -3.8059593   -3.8059593   -2.4496003   0.03330684   -3.8059593     1.356359   439061 
 3860000   0.90465249   -3.8057214   -3.8057214   -2.4487457  0.036370939   -3.8057214    1.3569756   439061 
 3861000   0.90622894   -3.8083238   -3.8083238   -2.4489835  0.038492109   -3.8083238    1.3593403   439061 
 3862000    0.9050824   -3.8072432   -3.8072432   -2.4496227  0.036313362   -3.8072432    1.3576205   439061 
 3863000   0.90418058   -3.8080616   -3.8080616   -2.4517938  0.031035818   -3.8080616    1.3562678   439061 
 3864000   0.90496254   -3.8086549   -3.8086549   -2.4512142  0.030814246   -3.8086549    1.3574407   439061 
 3865000   0.90555308   -3.8074124   -3.8074124   -2.4490858  0.040687858   -3.8074124    1.3583265   439061 
 3866000   0.90584843   -3.8095062   -3.8095062   -2.4507367  0.032511537   -3.8095062    1.3587695   439061 
 3867000   0.90480575   -3.8071587   -3.8071587   -2.4499532  0.038890048   -3.8071587    1.3572055   439061 
 3868000   0.90550536   -3.8093076   -3.8093076   -2.4510526  0.034825257   -3.8093076    1.3582549   439061 
 3869000    0.9041979   -3.8072026   -3.8072026   -2.4509088  0.042105887   -3.8072026    1.3562938   439061 
 3870000   0.90405633   -3.8068288   -3.8068288   -2.4507474  0.036666334   -3.8068288    1.3560814   439061 
 3871000   0.90619108    -3.809006    -3.809006   -2.4497225  0.031757987    -3.809006    1.3592835   439061 
 3872000   0.90452017   -3.8070697   -3.8070697   -2.4502926  0.037042742   -3.8070697    1.3567772   439061 
 3873000    0.9046847   -3.8087008   -3.8087008   -2.4516769  0.035298612   -3.8087008     1.357024   439061 
 3874000   0.90424837   -3.8075622   -3.8075622   -2.4511927   0.03500736   -3.8075622    1.3563695   439061 
 3875000   0.90479469   -3.8077807   -3.8077807   -2.4505917  0.034880797   -3.8077807    1.3571889   439061 
 3876000    0.9030249   -3.8059743   -3.8059743   -2.4514401  0.028422638   -3.8059743    1.3545343   439061 
 3877000   0.90368876    -3.805594    -3.805594    -2.450064  0.038160169    -3.805594      1.35553   439061 
 3878000   0.90560531   -3.8081971   -3.8081971   -2.4497922  0.031279339   -3.8081971    1.3584049   439061 
 3879000   0.90381111    -3.806085    -3.806085   -2.4503714  0.035753622    -3.806085    1.3557136   439061 
 3880000    0.9036651   -3.8054364   -3.8054364   -2.4499418   0.03411869   -3.8054364    1.3554946   439061 
 3881000    0.9048463   -3.8067566   -3.8067566   -2.4494902   0.03373518   -3.8067566    1.3572664   439061 
 3882000   0.90348654   -3.8036899   -3.8036899   -2.4484632  0.040753844   -3.8036899    1.3552267   439061 
 3883000   0.90440948   -3.8053142   -3.8053142    -2.448703  0.036270814   -3.8053142    1.3566111   439061 
 3884000   0.90507625   -3.8060987   -3.8060987   -2.4484874  0.036498307   -3.8060987    1.3576113   439061 
 3885000   0.90695714   -3.8083416   -3.8083416    -2.447909  0.036145389   -3.8083416    1.3604326   439061 
 3886000   0.90300629   -3.8033088   -3.8033088   -2.4488025  0.037296009   -3.8033088    1.3545063   439061 
 3887000     0.904524   -3.8055819   -3.8055819    -2.448799  0.039902358   -3.8055819    1.3567829   439061 
 3888000   0.90353884   -3.8055785   -3.8055785   -2.4502733  0.034037161   -3.8055785    1.3553052   439061 
 3889000   0.90316776   -3.8056475   -3.8056475    -2.450899  0.040079617   -3.8056475    1.3547485   439061 
 3890000   0.90279037   -3.8049934   -3.8049934   -2.4508109  0.038313605   -3.8049934    1.3541825   439061 
 3891000   0.90443984   -3.8069744   -3.8069744   -2.4503177  0.040851607   -3.8069744    1.3566567   439061 
 3892000   0.90440691   -3.8081666   -3.8081666   -2.4515593  0.034862655   -3.8081666    1.3566073   439061 
 3893000   0.90542084   -3.8090096   -3.8090096   -2.4508814  0.033757959   -3.8090096    1.3581282   439061 
 3894000   0.90445474   -3.8086347   -3.8086347   -2.4519557  0.034670666   -3.8086347     1.356679   439061 
 3895000   0.90521399   -3.8087289   -3.8087289    -2.450911  0.037782693   -3.8087289    1.3578179   439061 
 3896000   0.90329917   -3.8061138   -3.8061138   -2.4511681  0.041583496   -3.8061138    1.3549457   439061 
 3897000   0.90575821   -3.8085705   -3.8085705   -2.4499363   0.04071126   -3.8085705    1.3586342   439061 
 3898000   0.90547895   -3.8083122   -3.8083122   -2.4500969  0.036410597   -3.8083122    1.3582153   439061 
 3899000   0.90677742   -3.8107352   -3.8107352   -2.4505722  0.036821465   -3.8107352     1.360163   439061 
 3900000   0.90597433   -3.8098454   -3.8098454    -2.450887  0.038081047   -3.8098454    1.3589584   439061 
 3901000   0.90502647   -3.8094643   -3.8094643   -2.4519277  0.040093297   -3.8094643    1.3575366   439061 
 3902000   0.90420658   -3.8079799   -3.8079799   -2.4516731  0.037521844   -3.8079799    1.3563068   439061 
 3903000   0.90297881   -3.8068692   -3.8068692   -2.4524041  0.030004066   -3.8068692    1.3544651   439061 
 3904000   0.90281597   -3.8068874   -3.8068874   -2.4526666  0.034191444   -3.8068874    1.3542209   439061 
 3905000   0.90380169   -3.8070617   -3.8070617   -2.4513623  0.030117421   -3.8070617    1.3556994   439061 
 3906000   0.90577807   -3.8095605   -3.8095605   -2.4508965  0.031681642   -3.8095605     1.358664   439061 
 3907000   0.90461536   -3.8094908   -3.8094908   -2.4525709  0.034146887   -3.8094908      1.35692   439061 
 3908000   0.90474905   -3.8081703   -3.8081703   -2.4510498  0.041012599   -3.8081703    1.3571205   439061 
 3909000   0.90552611   -3.8083809   -3.8083809   -2.4500948  0.031732076   -3.8083809    1.3582861   439061 
 3910000   0.90497384   -3.8076982   -3.8076982   -2.4502405  0.036921911   -3.8076982    1.3574577   439061 
 3911000   0.90378061    -3.807764    -3.807764   -2.4520961  0.037696778    -3.807764    1.3556678   439061 
 3912000   0.90413131    -3.806869    -3.806869   -2.4506752  0.039158041    -3.806869    1.3561939   439061 
 3913000   0.90486852   -3.8078979   -3.8078979   -2.4505982   0.03521732   -3.8078979    1.3572997   439061 
 3914000   0.90446527   -3.8083255   -3.8083255   -2.4516307  0.033948587   -3.8083255    1.3566948   439061 
 3915000   0.90486914   -3.8089966   -3.8089966    -2.451696  0.036656728   -3.8089966    1.3573006   439061 
 3916000   0.90527229   -3.8084531   -3.8084531   -2.4505478  0.038600943   -3.8084531    1.3579053   439061 
 3917000   0.90465904   -3.8080974   -3.8080974   -2.4511119  0.037796676   -3.8080974    1.3569855   439061 
 3918000   0.90377925   -3.8059012   -3.8059012   -2.4502354  0.041717193   -3.8059012    1.3556658   439061 
 3919000    0.9045712   -3.8084597   -3.8084597    -2.451606  0.033875784   -3.8084597    1.3568537   439061 
 3920000   0.90274638   -3.8072765   -3.8072765     -2.45316  0.035958156   -3.8072765    1.3541165   439061 
 3921000   0.90264482   -3.8064603   -3.8064603   -2.4524961  0.038209038   -3.8064603    1.3539641   439061 
 3922000   0.90378573   -3.8075974   -3.8075974   -2.4519219  0.036129056   -3.8075974    1.3556755   439061 
 3923000   0.90329547   -3.8074711   -3.8074711    -2.452531  0.039624149   -3.8074711    1.3549401   439061 
 3924000    0.9054008   -3.8099582   -3.8099582   -2.4518601  0.029355502   -3.8099582    1.3580981   439061 
 3925000   0.90428288   -3.8082514   -3.8082514   -2.4518301  0.038712463   -3.8082514    1.3564212   439061 
 3926000   0.90551901   -3.8106948   -3.8106948   -2.4524193  0.035522134   -3.8106948    1.3582754   439061 
 3927000   0.90494502   -3.8098248   -3.8098248   -2.4524103  0.033473273   -3.8098248    1.3574144   439061 
 3928000   0.90389476   -3.8077088   -3.8077088   -2.4518698  0.040079402   -3.8077088    1.3558391   439061 
 3929000   0.90550862    -3.810257    -3.810257   -2.4519972  0.037912158    -3.810257    1.3582598   439061 
 3930000   0.90537952   -3.8093723   -3.8093723   -2.4513061  0.040826836   -3.8093723    1.3580662   439061 
 3931000   0.90555216    -3.809717    -3.809717   -2.4513918  0.038078018    -3.809717    1.3583252   439061 
 3932000   0.90386501   -3.8088531   -3.8088531   -2.4530587   0.03600491   -3.8088531    1.3557944   439061 
 3933000   0.90324445   -3.8066784   -3.8066784   -2.4518148  0.032246782   -3.8066784    1.3548636   439061 
 3934000   0.90368544   -3.8078821   -3.8078821   -2.4523571  0.031570498   -3.8078821    1.3555251   439061 
 3935000   0.90289617   -3.8066792   -3.8066792    -2.452338  0.034423575   -3.8066792    1.3543412   439061 
 3936000   0.90370824   -3.8078449   -3.8078449   -2.4522856  0.036384917   -3.8078449    1.3555593   439061 
 3937000   0.90444887    -3.808357    -3.808357   -2.4516868   0.03626524    -3.808357    1.3566702   439061 
 3938000   0.90391454   -3.8080631   -3.8080631   -2.4521944   0.03447949   -3.8080631    1.3558687   439061 
 3939000    0.9047405   -3.8094538   -3.8094538   -2.4523462  0.035106055   -3.8094538    1.3571077   439061 
 3940000   0.90484187   -3.8081109   -3.8081109   -2.4508512  0.038701651   -3.8081109    1.3572597   439061 
 3941000   0.90384468   -3.8079267   -3.8079267   -2.4521627  0.036952343   -3.8079267    1.3557639   439061 
 3942000   0.90491584   -3.8100774   -3.8100774   -2.4527067  0.033635912   -3.8100774    1.3573707   439061 
 3943000   0.90414927   -3.8088173   -3.8088173   -2.4525965  0.035690368   -3.8088173    1.3562208   439061 
 3944000   0.90371174   -3.8086568   -3.8086568   -2.4530923  0.035194864   -3.8086568    1.3555645   439061 
 3945000   0.90469757   -3.8094528   -3.8094528   -2.4524096   0.03774139   -3.8094528    1.3570433   439061 
 3946000   0.90537278   -3.8106221   -3.8106221    -2.452566   0.03706102   -3.8106221    1.3580561   439061 
 3947000   0.90361464   -3.8093311   -3.8093311   -2.4539123  0.035400877   -3.8093311    1.3554189   439061 
 3948000   0.90442442   -3.8105592   -3.8105592   -2.4539257  0.031805923   -3.8105592    1.3566335   439061 
 3949000   0.90367941    -3.809484    -3.809484    -2.453968  0.030188287    -3.809484     1.355516   439061 
 3950000   0.90407384   -3.8101284   -3.8101284   -2.4540208  0.034275733   -3.8101284    1.3561077   439061 
 3951000   0.90449663   -3.8104189   -3.8104189    -2.453677  0.034196643   -3.8104189    1.3567419   439061 
 3952000   0.90447221   -3.8102915   -3.8102915   -2.4535863  0.035660476   -3.8102915    1.3567052   439061 
 3953000   0.90373241   -3.8094842   -3.8094842   -2.4538887  0.029576517   -3.8094842    1.3555955   439061 
 3954000   0.90474105   -3.8092699   -3.8092699   -2.4521614  0.032882582   -3.8092699    1.3571085   439061 
 3955000   0.90514908   -3.8105296   -3.8105296   -2.4528091  0.035711366   -3.8105296    1.3577205   439061 
 3956000   0.90411221   -3.8096727   -3.8096727   -2.4535075  0.035429149   -3.8096727    1.3561652   439061 
 3957000   0.90401239     -3.81003     -3.81003   -2.4540145  0.030401949     -3.81003    1.3560155   439061 
 3958000   0.90323725   -3.8094946   -3.8094946   -2.4546418  0.034866528   -3.8094946    1.3548528   439061 
 3959000   0.90345601   -3.8084721   -3.8084721   -2.4532912  0.034845782   -3.8084721    1.3551809   439061 
 3960000   0.90197783   -3.8083627   -3.8083627    -2.455399  0.032844662   -3.8083627    1.3529637   439061 
 3961000   0.90284632   -3.8084856   -3.8084856   -2.4542192  0.034941778   -3.8084856    1.3542664   439061 
 3962000   0.90222369   -3.8087258   -3.8087258   -2.4553933  0.038834129   -3.8087258    1.3533325   439061 
 3963000   0.90356896   -3.8108761   -3.8108761   -2.4555258  0.034041294   -3.8108761    1.3553503   439061 
 3964000   0.90466279   -3.8118665   -3.8118665   -2.4548754  0.033048468   -3.8118665    1.3569911   439061 
 3965000   0.90410384   -3.8103942   -3.8103942   -2.4542415  0.038486063   -3.8103942    1.3561527   439061 
 3966000   0.90294549   -3.8093615   -3.8093615   -2.4549463  0.040312693   -3.8093615    1.3544152   439061 
 3967000   0.90494894    -3.812426    -3.812426   -2.4550057   0.03320693    -3.812426    1.3574203   439061 
 3968000   0.90479079   -3.8110141   -3.8110141    -2.453831  0.038635397   -3.8110141    1.3571831   439061 
 3969000   0.90343703   -3.8081674   -3.8081674   -2.4530149  0.038325327   -3.8081674    1.3551525   439061 
 3970000   0.90480705   -3.8115866   -3.8115866   -2.4543791  0.034778527   -3.8115866    1.3572075   439061 
 3971000   0.90410132   -3.8110952   -3.8110952   -2.4549463  0.038143164   -3.8110952    1.3561489   439061 
 3972000   0.90361552   -3.8096071   -3.8096071   -2.4541869    0.0364075   -3.8096071    1.3554202   439061 
 3973000   0.90362541   -3.8084201   -3.8084201   -2.4529851  0.039613619   -3.8084201     1.355435   439061 
 3974000   0.90567632   -3.8116233   -3.8116233   -2.4531119   0.03429756   -3.8116233    1.3585114   439061 
 3975000   0.90447422   -3.8106634   -3.8106634   -2.4539552  0.032509884   -3.8106634    1.3567082   439061 
 3976000   0.90371773   -3.8090745   -3.8090745    -2.453501  0.038398829   -3.8090745    1.3555735   439061 
 3977000   0.90430196   -3.8089106   -3.8089106   -2.4524607  0.032619725   -3.8089106    1.3564499   439061 
 3978000   0.90522784   -3.8095256   -3.8095256    -2.451687  0.037086519   -3.8095256    1.3578387   439061 
 3979000   0.90344543   -3.8071226   -3.8071226   -2.4519575  0.036337709   -3.8071226    1.3551651   439061 
 3980000   0.90401652   -3.8086335   -3.8086335   -2.4526119   0.03747421   -3.8086335    1.3560217   439061 
 3981000   0.90360461   -3.8086485   -3.8086485   -2.4532446  0.030830943   -3.8086485    1.3554038   439061 
 3982000   0.90329797   -3.8065286   -3.8065286   -2.4515847  0.038374413   -3.8065286    1.3549439   439061 
 3983000   0.90294371    -3.806379    -3.806379   -2.4519665  0.033255152    -3.806379    1.3544125   439061 
 3984000   0.90335355   -3.8056867   -3.8056867   -2.4506595  0.035088003   -3.8056867    1.3550272   439061 
 3985000   0.90331908   -3.8062796   -3.8062796   -2.4513041  0.034405383   -3.8062796    1.3549755   439061 
 3986000   0.90535361   -3.8092397   -3.8092397   -2.4512124  0.029720308   -3.8092397    1.3580273   439061 
 3987000   0.90370748    -3.806446    -3.806446   -2.4508879  0.038036054    -3.806446    1.3555581   439061 
 3988000   0.90360318   -3.8054879   -3.8054879   -2.4500863  0.034350831   -3.8054879    1.3554017   439061 
 3989000    0.9035828   -3.8054193   -3.8054193   -2.4500482  0.037805013   -3.8054193    1.3553711   439061 
 3990000   0.90270478    -3.805455    -3.805455   -2.4514009  0.036522862    -3.805455    1.3540541   439061 
 3991000   0.90354773   -3.8065601   -3.8065601   -2.4512416  0.028617006   -3.8065601    1.3553185   439061 
 3992000    0.9047177    -3.808926    -3.808926   -2.4518525  0.032086755    -3.808926    1.3570735   439061 
 3993000   0.90465578   -3.8085247   -3.8085247   -2.4515441  0.034423631   -3.8085247    1.3569806   439061 
 3994000   0.90464164   -3.8090545   -3.8090545   -2.4520952  0.032348067   -3.8090545    1.3569594   439061 
 3995000   0.90288021   -3.8057335   -3.8057335   -2.4514163  0.039490717   -3.8057335    1.3543172   439061 
 3996000   0.90344044   -3.8066907   -3.8066907   -2.4515331  0.041056729   -3.8066907    1.3551576   439061 
 3997000   0.90409535   -3.8078705   -3.8078705   -2.4517306  0.032294424   -3.8078705    1.3561399   439061 
 3998000   0.90348747   -3.8078131   -3.8078131    -2.452585  0.031639033   -3.8078131    1.3552281   439061 
 3999000   0.90491657   -3.8086082   -3.8086082   -2.4512364  0.038907196   -3.8086082    1.3573718   439061 
 4000000   0.90444654   -3.8087398   -3.8087398   -2.4520731  0.037822472   -3.8087398    1.3566667   439061 
 4001000   0.90456223   -3.8092075   -3.8092075   -2.4523673   0.03607908   -3.8092075    1.3568403   439061 
 4002000   0.90476908   -3.8095848   -3.8095848   -2.4524343  0.041337815   -3.8095848    1.3571505   439061 
 4003000   0.90432498    -3.809463    -3.809463   -2.4529786   0.03730594    -3.809463    1.3564844   439061 
 4004000   0.90411248   -3.8088032   -3.8088032   -2.4526376  0.039307114   -3.8088032    1.3561656   439061 
 4005000   0.90396087   -3.8089167   -3.8089167   -2.4529785  0.037990478   -3.8089167    1.3559382   439061 
 4006000   0.90396695   -3.8083983   -3.8083983   -2.4524509  0.039799635   -3.8083983    1.3559473   439061 
 4007000   0.90457492   -3.8101215   -3.8101215   -2.4532622  0.035343589   -3.8101215    1.3568593   439061 
 4008000   0.90339166   -3.8075894   -3.8075894    -2.452505  0.038032756   -3.8075894    1.3550844   439061 
 4009000   0.90486077   -3.8089421   -3.8089421    -2.451654  0.039185156   -3.8089421    1.3572881   439061 
 4010000   0.90276847   -3.8071566   -3.8071566    -2.453007  0.036829428   -3.8071566    1.3541496   439061 
 4011000    0.9021387   -3.8084692   -3.8084692   -2.4552643   0.04124984   -3.8084692     1.353205   439061 
 4012000    0.9046245   -3.8115799   -3.8115799   -2.4546463  0.034758863   -3.8115799    1.3569337   439061 
 4013000    0.9036374   -3.8095254   -3.8095254   -2.4540724  0.035754297   -3.8095254     1.355453   439061 
 4014000   0.90338285   -3.8107764   -3.8107764   -2.4557052  0.032033451   -3.8107764    1.3550712   439061 
 4015000   0.90232285   -3.8095093   -3.8095093   -2.4560281  0.039634128   -3.8095093    1.3534812   439061 
 4016000   0.90246605   -3.8089606   -3.8089606   -2.4552646  0.034619812   -3.8089606     1.353696   439061 
 4017000   0.90311664   -3.8099675   -3.8099675   -2.4552957  0.030604675   -3.8099675    1.3546719   439061 
 4018000   0.90425271    -3.812634    -3.812634    -2.456258  0.031666887    -3.812634     1.356376   439061 
 4019000   0.90395827   -3.8120756   -3.8120756   -2.4561413  0.036129218   -3.8120756    1.3559343   439061 
 4020000   0.90305786   -3.8108614   -3.8108614   -2.4562777   0.03583781   -3.8108614    1.3545837   439061 
 4021000   0.90413931   -3.8121705   -3.8121705   -2.4559647   0.03355466   -3.8121705    1.3562059   439061 
 4022000   0.90526066   -3.8136357   -3.8136357   -2.4557479  0.033711251   -3.8136357    1.3578879   439061 
 4023000   0.90364986   -3.8119261   -3.8119261   -2.4564544  0.036658748   -3.8119261    1.3554717   439061 
 4024000   0.90282436   -3.8102282   -3.8102282   -2.4559948  0.042425058   -3.8102282    1.3542334   439061 
 4025000   0.90248447   -3.8107414   -3.8107414   -2.4570178  0.039818702   -3.8107414    1.3537236   439061 
 4026000   0.90385192   -3.8124301   -3.8124301   -2.4566553   0.03594997   -3.8124301    1.3557748   439061 
 4027000   0.90470259   -3.8128531   -3.8128531   -2.4558023  0.034312243   -3.8128531    1.3570508   439061 
 4028000   0.90491193   -3.8138917   -3.8138917   -2.4565269  0.042020459   -3.8138917    1.3573648   439061 
 4029000   0.90561142   -3.8150203   -3.8150203   -2.4566063  0.031702788   -3.8150203     1.358414   439061 
 4030000   0.90479805   -3.8136778   -3.8136778   -2.4564838  0.033432574   -3.8136778     1.357194   439061 
 4031000   0.90353119   -3.8112973   -3.8112973   -2.4560036  0.039710965   -3.8112973    1.3552937   439061 
 4032000   0.90377297   -3.8116044   -3.8116044    -2.455948  0.035157943   -3.8116044    1.3556564   439061 
 4033000   0.90368627   -3.8114812   -3.8114812   -2.4559549  0.033867456   -3.8114812    1.3555263   439061 
 4034000   0.90391213   -3.8126012   -3.8126012   -2.4567361  0.032356446   -3.8126012    1.3558651   439061 
 4035000   0.90334212   -3.8106638   -3.8106638   -2.4556537  0.036159833   -3.8106638    1.3550101   439061 
 4036000   0.90537018   -3.8126703   -3.8126703   -2.4546182  0.033852423   -3.8126703    1.3580522   439061 
 4037000   0.90438137   -3.8103962   -3.8103962   -2.4538273  0.038425778   -3.8103962     1.356569   439061 
 4038000   0.90383297    -3.810637    -3.810637   -2.4548906  0.038599902    -3.810637    1.3557464   439061 
 4039000   0.90380971   -3.8103716   -3.8103716   -2.4546602  0.038923396   -3.8103716    1.3557115   439061 
 4040000   0.90331559   -3.8094221   -3.8094221   -2.4544518  0.035168524   -3.8094221    1.3549703   439061 
 4041000   0.90250975   -3.8090449   -3.8090449   -2.4552833  0.036894627   -3.8090449    1.3537615   439061 
 4042000   0.90230965   -3.8102097   -3.8102097   -2.4567483  0.030502548   -3.8102097    1.3534614   439061 
 4043000   0.90139373   -3.8100524   -3.8100524   -2.4579649   0.03140578   -3.8100524    1.3520875   439061 
 4044000   0.90265546   -3.8110409   -3.8110409   -2.4570608  0.036083868   -3.8110409    1.3539801   439061 
 4045000   0.90427634   -3.8119138   -3.8119138   -2.4555024  0.033927417   -3.8119138    1.3564114   439061 
 4046000   0.90445387   -3.8113941   -3.8113941   -2.4547164  0.037793119   -3.8113941    1.3566777   439061 
 4047000   0.90505249   -3.8129055   -3.8129055   -2.4553298   0.03915059   -3.8129055    1.3575756   439061 
 4048000   0.90367571   -3.8116469   -3.8116469   -2.4561364  0.038690156   -3.8116469    1.3555105   439061 
 4049000   0.90347254   -3.8108161   -3.8108161   -2.4556104  0.043772125   -3.8108161    1.3552057   439061 
 4050000   0.90326493    -3.812338    -3.812338   -2.4574437  0.035051944    -3.812338    1.3548943   439061 
 4051000   0.90398556   -3.8116198   -3.8116198   -2.4556445  0.035626602   -3.8116198    1.3559753   439061 
 4052000   0.90373879   -3.8117277   -3.8117277   -2.4561226  0.034040092   -3.8117277    1.3556051   439061 
 4053000   0.90294827   -3.8110147   -3.8110147   -2.4565954   0.03393242   -3.8110147    1.3544193   439061 
 4054000   0.90275579   -3.8113881   -3.8113881   -2.4572575  0.040739344   -3.8113881    1.3541306   439061 
 4055000   0.90300691   -3.8116613   -3.8116613    -2.457154  0.036448676   -3.8116613    1.3545073   439061 
 4056000   0.90260131   -3.8110745   -3.8110745   -2.4571756  0.033171446   -3.8110745    1.3538989   439061 
 4057000   0.90242292   -3.8120807   -3.8120807   -2.4584494  0.033670194   -3.8120807    1.3536313   439061 
 4058000   0.90187446   -3.8112473   -3.8112473   -2.4584387  0.034233275   -3.8112473    1.3528086   439061 
 4059000   0.90162892     -3.81012     -3.81012   -2.4576797   0.03437618     -3.81012    1.3524403   439061 
 4060000   0.90240264   -3.8110212   -3.8110212   -2.4574203  0.030713315   -3.8110212    1.3536009   439061 
 4061000   0.90207479   -3.8102363   -3.8102363   -2.4571272  0.033934597   -3.8102363    1.3531091   439061 
 4062000   0.90325512   -3.8128813   -3.8128813   -2.4580017   0.03160538   -3.8128813    1.3548796   439061 
 4063000   0.90268142   -3.8135053   -3.8135053   -2.4594863  0.032140805   -3.8135053    1.3540191   439061 
 4064000   0.90244066   -3.8124355   -3.8124355   -2.4587776  0.035393248   -3.8124355    1.3536579   439061 
 4065000   0.90180429   -3.8101354   -3.8101354   -2.4574321  0.038055284   -3.8101354    1.3527034   439061 
 4066000   0.90439024   -3.8137119   -3.8137119   -2.4571296  0.036133202   -3.8137119    1.3565823   439061 
 4067000   0.90214616   -3.8102273   -3.8102273   -2.4570111  0.039575548   -3.8102273    1.3532162   439061 
 4068000   0.90387234   -3.8140067   -3.8140067   -2.4582013  0.038655983   -3.8140067    1.3558054   439061 
 4069000   0.90193776   -3.8110851   -3.8110851   -2.4581815  0.040457384   -3.8110851    1.3529036   439061 
 4070000   0.90341804   -3.8134038   -3.8134038   -2.4582798  0.034975254   -3.8134038     1.355124   439061 
 4071000   0.90368776   -3.8137414   -3.8137414   -2.4582128  0.034126429   -3.8137414    1.3555285   439061 
 4072000   0.90319236   -3.8119878   -3.8119878   -2.4572023  0.032822126   -3.8119878    1.3547855   439061 
 4073000   0.90279886   -3.8128858   -3.8128858   -2.4586906  0.033773713   -3.8128858    1.3541952   439061 
 4074000   0.90263348   -3.8122701   -3.8122701   -2.4583229   0.03671188   -3.8122701    1.3539471   439061 
 4075000   0.90275024   -3.8137612   -3.8137612   -2.4596389  0.037571813   -3.8137612    1.3541223   439061 
 4076000   0.90349325   -3.8142678   -3.8142678    -2.459031  0.034205797   -3.8142678    1.3552368   439061 
 4077000   0.90351143   -3.8127217   -3.8127217   -2.4574576  0.038724515   -3.8127217    1.3552641   439061 
 4078000   0.90386254   -3.8136149   -3.8136149   -2.4578241  0.039794017   -3.8136149    1.3557907   439061 
 4079000   0.90232096   -3.8105979   -3.8105979   -2.4571195  0.038557319   -3.8105979    1.3534784   439061 
 4080000   0.90310499    -3.812501    -3.812501   -2.4578466  0.033454306    -3.812501    1.3546544   439061 
 4081000   0.90277378   -3.8125109   -3.8125109   -2.4583533  0.031409585   -3.8125109    1.3541576   439061 
 4082000   0.90177074   -3.8107725   -3.8107725   -2.4581195  0.032940405   -3.8107725     1.352653   439061 
 4083000    0.9023832   -3.8117641   -3.8117641   -2.4581924  0.034925287   -3.8117641    1.3535717   439061 
 4084000    0.9032268   -3.8114364   -3.8114364   -2.4565993  0.037224687   -3.8114364    1.3548371   439061 
 4085000   0.90346749   -3.8127928   -3.8127928   -2.4575947  0.036073915   -3.8127928    1.3551982   439061 
 4086000   0.90387091   -3.8136245   -3.8136245   -2.4578212  0.038147682   -3.8136245    1.3558033   439061 
 4087000   0.90254635   -3.8116977   -3.8116977   -2.4578812  0.036873876   -3.8116977    1.3538164   439061 
 4088000   0.90301663   -3.8116186   -3.8116186   -2.4570967  0.034315406   -3.8116186    1.3545219   439061 
 4089000   0.90287538   -3.8107302   -3.8107302   -2.4564202  0.035826546   -3.8107302      1.35431   439061 
 4090000   0.90314078   -3.8120232   -3.8120232   -2.4573152  0.040413398   -3.8120232    1.3547081   439061 
 4091000   0.90242575   -3.8103503   -3.8103503   -2.4567148  0.034446303   -3.8103503    1.3536355   439061 
 4092000   0.90283367   -3.8111777   -3.8111777   -2.4569303  0.032175242   -3.8111777    1.3542474   439061 
 4093000   0.90271461   -3.8119921   -3.8119921   -2.4579233  0.035140401   -3.8119921    1.3540688   439061 
 4094000   0.90306529   -3.8126061   -3.8126061   -2.4580112  0.030982698   -3.8126061    1.3545949   439061 
 4095000   0.90238232   -3.8105899   -3.8105899   -2.4570195  0.037392083   -3.8105899    1.3535704   439061 
 4096000   0.90268917   -3.8121514   -3.8121514   -2.4581207  0.031530691   -3.8121514    1.3540307   439061 
 4097000   0.90300891   -3.8113392   -3.8113392    -2.456829  0.038354876   -3.8113392    1.3545103   439061 
 4098000   0.90361557   -3.8122343   -3.8122343    -2.456814  0.034064942   -3.8122343    1.3554203   439061 
 4099000   0.90418983   -3.8141508   -3.8141508   -2.4578691  0.032009024   -3.8141508    1.3562817   439061 
 4100000   0.90369105   -3.8123135   -3.8123135     -2.45678  0.036846174   -3.8123135    1.3555335   439061 
 4101000   0.90499373   -3.8130325   -3.8130325    -2.455545  0.038012315   -3.8130325    1.3574875   439061 
 4102000   0.90509138   -3.8134928   -3.8134928   -2.4558588   0.03469855   -3.8134928     1.357634   439061 
 4103000   0.90507327    -3.813266    -3.813266   -2.4556592  0.037434133    -3.813266    1.3576068   439061 
 4104000   0.90359659   -3.8118618   -3.8118618     -2.45647   0.04236597   -3.8118618    1.3553918   439061 
 4105000   0.90466624   -3.8130456   -3.8130456   -2.4560494  0.038892785   -3.8130456    1.3569963   439061 
 4106000   0.90381752   -3.8125487   -3.8125487   -2.4568255  0.037484492   -3.8125487    1.3557232   439061 
 4107000   0.90447378   -3.8120868   -3.8120868   -2.4553792   0.03453543   -3.8120868    1.3567076   439061 
 4108000   0.90315358   -3.8113928   -3.8113928   -2.4566656   0.03456591   -3.8113928    1.3547273   439061 
 4109000   0.90448257   -3.8135896   -3.8135896   -2.4568688  0.031289328   -3.8135896    1.3567208   439061 
 4110000   0.90360356   -3.8113565   -3.8113565   -2.4559542  0.031763576   -3.8113565    1.3554023   439061 
 4111000   0.90288711   -3.8112199   -3.8112199   -2.4568923  0.037738418   -3.8112199    1.3543276   439061 
 4112000   0.90240447   -3.8092113   -3.8092113   -2.4556077  0.038786522   -3.8092113    1.3536036   439061 
 4113000   0.90320249    -3.811076    -3.811076   -2.4562753  0.031505078    -3.811076    1.3548007   439061 
 4114000   0.90267262    -3.808719    -3.808719   -2.4547131  0.037239045    -3.808719    1.3540059   439061 
 4115000   0.90238012   -3.8107259   -3.8107259   -2.4571588  0.035039807   -3.8107259    1.3535671   439061 
 4116000   0.90293911   -3.8113321   -3.8113321   -2.4569265  0.035538224   -3.8113321    1.3544056   439061 
 4117000   0.90321485   -3.8107933   -3.8107933   -2.4559741  0.033454516   -3.8107933    1.3548192   439061 
 4118000   0.90099424   -3.8085688   -3.8085688   -2.4570805  0.033492351   -3.8085688    1.3514883   439061 
 4119000   0.90345237   -3.8117524   -3.8117524    -2.456577  0.034576648   -3.8117524    1.3551755   439061 
 4120000   0.90334457   -3.8116828   -3.8116828   -2.4566691  0.035768879   -3.8116828    1.3550138   439061 
 4121000   0.90243675   -3.8108419   -3.8108419   -2.4571898  0.036183923   -3.8108419     1.353652   439061 
 4122000   0.90313992    -3.810558    -3.810558   -2.4558512  0.032853724    -3.810558    1.3547068   439061 
 4123000   0.90332631   -3.8112415   -3.8112415   -2.4562552  0.025678755   -3.8112415    1.3549864   439061 
 4124000   0.90256952   -3.8112028   -3.8112028   -2.4573516     0.031212   -3.8112028    1.3538512   439061 
 4125000   0.90323636   -3.8121874   -3.8121874    -2.457336  0.037864449   -3.8121874    1.3548514   439061 
 4126000   0.90308961   -3.8120167   -3.8120167   -2.4573854   0.03860227   -3.8120167    1.3546313   439061 
 4127000   0.90204601   -3.8108965   -3.8108965   -2.4578306  0.034740508   -3.8108965    1.3530659   439061 
 4128000   0.90313298   -3.8122833   -3.8122833   -2.4575869  0.037376475   -3.8122833    1.3546964   439061 
 4129000   0.90327377   -3.8121282   -3.8121282   -2.4572207  0.037885449   -3.8121282    1.3549076   439061 
 4130000     0.903598    -3.812988    -3.812988   -2.4575941   0.03810696    -3.812988    1.3553939   439061 
 4131000   0.90480985   -3.8135498   -3.8135498   -2.4563381  0.038077201   -3.8135498    1.3572117   439061 
 4132000   0.90520322   -3.8152339   -3.8152339   -2.4574322  0.034283526   -3.8152339    1.3578017   439061 
 4133000   0.90449929   -3.8141684   -3.8141684   -2.4574225  0.036856939   -3.8141684    1.3567458   439061 
 4134000   0.90351522   -3.8139017   -3.8139017   -2.4586319  0.038164726   -3.8139017    1.3552697   439061 
 4135000   0.90352739   -3.8142562   -3.8142562   -2.4589682  0.034305679   -3.8142562     1.355288   439061 
 4136000   0.90178399    -3.812913    -3.812913   -2.4602401  0.034943374    -3.812913    1.3526729   439061 
 4137000   0.90196043   -3.8130864   -3.8130864   -2.4601489  0.033097898   -3.8130864    1.3529376   439061 
 4138000   0.90225693   -3.8137769   -3.8137769   -2.4603946  0.033395371   -3.8137769    1.3533823   439061 
 4139000   0.90161575   -3.8132765   -3.8132765   -2.4608559  0.029143204   -3.8132765    1.3524205   439061 
 4140000   0.90095236    -3.811917    -3.811917   -2.4604915  0.034550598    -3.811917    1.3514255   439061 
 4141000   0.90234902   -3.8146461   -3.8146461   -2.4611257  0.032335674   -3.8146461    1.3535205   439061 
 4142000   0.90214213   -3.8138015   -3.8138015   -2.4605914  0.030786184   -3.8138015    1.3532101   439061 
 4143000   0.90380262   -3.8146947   -3.8146947   -2.4589939  0.041215183   -3.8146947    1.3557008   439061 
 4144000   0.90349682   -3.8130318   -3.8130318   -2.4577896   0.04072689   -3.8130318    1.3552421   439061 
 4145000   0.90363121   -3.8132325   -3.8132325   -2.4577888   0.04187753   -3.8132325    1.3554437   439061 
 4146000   0.90406664   -3.8144171   -3.8144171   -2.4583202  0.036032532   -3.8144171    1.3560969   439061 
 4147000   0.90389693   -3.8141345   -3.8141345   -2.4582922  0.035404112   -3.8141345    1.3558423   439061 
 4148000   0.90438322   -3.8159535   -3.8159535   -2.4593818   0.03398003   -3.8159535    1.3565717   439061 
 4149000   0.90402064    -3.815694    -3.815694   -2.4596662  0.034645394    -3.815694    1.3560279   439061 
 4150000   0.90361035   -3.8131605   -3.8131605   -2.4577481  0.037949243   -3.8131605    1.3554124   439061 
 4151000   0.90429546   -3.8150957   -3.8150957   -2.4586556  0.035760406   -3.8150957    1.3564401   439061 
 4152000   0.90297926   -3.8135427   -3.8135427   -2.4590769  0.030370164   -3.8135427    1.3544658   439061 
 4153000   0.90268341   -3.8128644   -3.8128644   -2.4588424  0.031586631   -3.8128644     1.354022   439061 
 4154000   0.90123856   -3.8104531   -3.8104531   -2.4585984  0.035546877   -3.8104531    1.3518548   439061 
 4155000   0.90172732   -3.8126214   -3.8126214   -2.4600335  0.034860232   -3.8126214    1.3525879   439061 
 4156000   0.90149196   -3.8113374   -3.8113374   -2.4591026  0.031901861   -3.8113374    1.3522349   439061 
 4157000   0.90227656   -3.8126919   -3.8126919   -2.4592801  0.036989559   -3.8126919    1.3534118   439061 
 4158000   0.90213807   -3.8108152   -3.8108152   -2.4576112  0.036392327   -3.8108152     1.353204   439061 
 4159000   0.90257468   -3.8115464   -3.8115464   -2.4576875  0.031104583   -3.8115464    1.3538589   439061 
 4160000   0.90190753    -3.810265    -3.810265   -2.4574068   0.03624634    -3.810265    1.3528582   439061 
 4161000   0.90297837   -3.8123072   -3.8123072   -2.4578427  0.032100603   -3.8123072    1.3544645   439061 
 4162000   0.90284083   -3.8115025   -3.8115025   -2.4572444  0.038377713   -3.8115025    1.3542582   439061 
 4163000   0.90378445   -3.8134653   -3.8134653   -2.4577918  0.037128859   -3.8134653    1.3556736   439061 
 4164000   0.90490983    -3.814188    -3.814188   -2.4568263   0.03554223    -3.814188    1.3573617   439061 
 4165000   0.90499751   -3.8134448   -3.8134448   -2.4559516  0.037293091   -3.8134448    1.3574932   439061 
 4166000   0.90454628   -3.8131523   -3.8131523    -2.456336  0.042859905   -3.8131523    1.3568163   439061 
 4167000   0.90375651   -3.8141254   -3.8141254   -2.4584938  0.042374311   -3.8141254    1.3556317   439061 
 4168000   0.90359581    -3.814629    -3.814629   -2.4592384  0.035587819    -3.814629    1.3553906   439061 
 4169000   0.90318567   -3.8138609   -3.8138609   -2.4590854  0.032199663   -3.8138609    1.3547754   439061 
 4170000   0.90112491   -3.8108066   -3.8108066   -2.4591223  0.034001168   -3.8108066    1.3516843   439061 
 4171000   0.90183162   -3.8114588   -3.8114588   -2.4587144  0.030855863   -3.8114588    1.3527443   439061 
 4172000   0.90379099   -3.8143199   -3.8143199   -2.4586365  0.032675376   -3.8143199    1.3556834   439061 
 4173000   0.90330217   -3.8135625   -3.8135625   -2.4586123   0.03397662   -3.8135625    1.3549502   439061 
 4174000   0.90254416   -3.8119028   -3.8119028   -2.4580896   0.04082763   -3.8119028    1.3538132   439061 
 4175000    0.9039469   -3.8132991   -3.8132991   -2.4573818  0.030953516   -3.8132991    1.3559173   439061 
 4176000   0.90390286   -3.8132947   -3.8132947   -2.4574435  0.033684642   -3.8132947    1.3558512   439061 
 4177000   0.90374662   -3.8121184   -3.8121184   -2.4565016  0.032688217   -3.8121184    1.3556168   439061 
 4178000   0.90283931   -3.8124636   -3.8124636   -2.4582077  0.034847773   -3.8124636    1.3542559   439061 
 4179000   0.90202457   -3.8121364   -3.8121364   -2.4591027  0.036084111   -3.8121364    1.3530338   439061 
 4180000   0.90245811   -3.8136677   -3.8136677   -2.4599836  0.029489426   -3.8136677    1.3536841   439061 
 4181000   0.90224764   -3.8147858   -3.8147858   -2.4614174  0.033572689   -3.8147858    1.3533684   439061 
 4182000   0.90378826   -3.8163365   -3.8163365   -2.4606572  0.033845221   -3.8163365    1.3556793   439061 
 4183000   0.90352523   -3.8147381   -3.8147381   -2.4594533  0.042877595   -3.8147381    1.3552848   439061 
 4184000   0.90377202   -3.8156408   -3.8156408   -2.4599859  0.040257763   -3.8156408    1.3556549   439061 
 4185000   0.90332584   -3.8151594   -3.8151594   -2.4601737  0.037473245   -3.8151594    1.3549857   439061 
 4186000   0.90368208   -3.8162173   -3.8162173   -2.4606973  0.036686819   -3.8162173      1.35552   439061 
 4187000     0.903096   -3.8144564   -3.8144564   -2.4598154  0.039575601   -3.8144564    1.3546409   439061 
 4188000   0.90492724   -3.8187263   -3.8187263   -2.4613385  0.029450173   -3.8187263    1.3573878   439061 
 4189000   0.90291664   -3.8157591   -3.8157591   -2.4613872  0.037294876   -3.8157591    1.3543719   439061 
 4190000   0.90285652   -3.8156248   -3.8156248   -2.4613431   0.03728836   -3.8156248    1.3542817   439061 
 4191000    0.9036861   -3.8171107   -3.8171107   -2.4615846  0.035025452   -3.8171107    1.3555261   439061 
 4192000   0.90183848   -3.8142809   -3.8142809   -2.4615262  0.036812075   -3.8142809    1.3527546   439061 
 4193000    0.9016242   -3.8145986   -3.8145986   -2.4621654    0.0357464   -3.8145986    1.3524332   439061 
 4194000   0.90317147   -3.8160233   -3.8160233   -2.4612692  0.031924258   -3.8160233    1.3547541   439061 
 4195000   0.90448336   -3.8157523   -3.8157523   -2.4590304  0.031834356   -3.8157523     1.356722   439061 
 4196000   0.90373995   -3.8158062   -3.8158062   -2.4601993  0.038432548   -3.8158062    1.3556068   439061 
 4197000   0.90383513   -3.8152397   -3.8152397   -2.4594901  0.033095786   -3.8152397    1.3557496   439061 
 4198000   0.90425876   -3.8162461   -3.8162461    -2.459861  0.033539948   -3.8162461    1.3563851   439061 
 4199000    0.9020996   -3.8139521   -3.8139521   -2.4608057  0.039413207   -3.8139521    1.3531463   439061 
 4200000   0.90409257   -3.8152051   -3.8152051   -2.4590693    0.0311335   -3.8152051    1.3561358   439061 
 4201000   0.90267432   -3.8126511   -3.8126511   -2.4586427  0.035877954   -3.8126511    1.3540084   439061 
 4202000   0.90357715   -3.8136772   -3.8136772   -2.4583146  0.034618888   -3.8136772    1.3553626   439061 
 4203000   0.90310033   -3.8127145   -3.8127145   -2.4580671  0.028281598   -3.8127145    1.3546474   439061 
 4204000   0.90268064   -3.8121492   -3.8121492   -2.4581314  0.034870482   -3.8121492    1.3540179   439061 
 4205000   0.90378761   -3.8136158   -3.8136158   -2.4579374  0.038163357   -3.8136158    1.3556783   439061 
 4206000   0.90303166   -3.8142234   -3.8142234    -2.459679  0.039018663   -3.8142234    1.3545444   439061 
 4207000   0.90405708   -3.8147787   -3.8147787   -2.4586962   0.02968621   -3.8147787    1.3560825   439061 
 4208000   0.90150539   -3.8118347   -3.8118347   -2.4595797  0.030755886   -3.8118347     1.352255   439061 
 4209000   0.90228946   -3.8124541   -3.8124541    -2.459023   0.03017799   -3.8124541    1.3534311   439061 
 4210000   0.90084406   -3.8114536   -3.8114536   -2.4601906  0.039713091   -3.8114536     1.351263   439061 
 4211000   0.90282644    -3.814567    -3.814567   -2.4603304  0.028615532    -3.814567    1.3542366   439061 
 4212000   0.90163103   -3.8132278   -3.8132278   -2.4607844  0.034063537   -3.8132278    1.3524435   439061 
 4213000   0.90210828   -3.8131453   -3.8131453    -2.459986  0.032690063   -3.8131453    1.3531593   439061 
 4214000   0.90308376   -3.8135962   -3.8135962   -2.4589736  0.039642424   -3.8135962    1.3546225   439061 
 4215000   0.90482933    -3.815103    -3.815103   -2.4578621  0.036233074    -3.815103    1.3572409   439061 
 4216000   0.90278553   -3.8140217   -3.8140217   -2.4598465  0.036410574   -3.8140217    1.3541752   439061 
 4217000    0.9047708   -3.8154322   -3.8154322   -2.4582791   0.03850173   -3.8154322    1.3571531   439061 
 4218000   0.90333862    -3.813765    -3.813765   -2.4587601  0.038187143    -3.813765    1.3550048   439061 
 4219000   0.90344605   -3.8140859   -3.8140859     -2.45892   0.03798031   -3.8140859     1.355166   439061 
 4220000   0.90382596   -3.8151897   -3.8151897   -2.4594539  0.037818001   -3.8151897    1.3557359   439061 
 4221000   0.90233204   -3.8126735   -3.8126735   -2.4591785  0.034191425   -3.8126735     1.353495   439061 
 4222000   0.90301711   -3.8138861   -3.8138861   -2.4593635  0.032275007   -3.8138861    1.3545226   439061 
 4223000    0.9033804   -3.8145342   -3.8145342   -2.4594667  0.032163657   -3.8145342    1.3550675   439061 
 4224000   0.90427158   -3.8143139   -3.8143139   -2.4579096  0.036155124   -3.8143139    1.3564043   439061 
 4225000   0.90247781   -3.8108924   -3.8108924   -2.4571788  0.043020707   -3.8108924    1.3537136   439061 
 4226000   0.90407378   -3.8123327   -3.8123327   -2.4562251  0.036814384   -3.8123327    1.3561076   439061 
 4227000   0.90441616   -3.8127432   -3.8127432   -2.4561221   0.03417793   -3.8127432    1.3566212   439061 
 4228000   0.90362562   -3.8125695   -3.8125695   -2.4571342  0.038069198   -3.8125695    1.3554353   439061 
 4229000   0.90422324    -3.811904    -3.811904   -2.4555722   0.03833368    -3.811904    1.3563318   439061 
 4230000   0.90298512   -3.8101105   -3.8101105   -2.4556359  0.032481083   -3.8101105    1.3544746   439061 
 4231000   0.90282571   -3.8100509   -3.8100509   -2.4558154  0.033986524   -3.8100509    1.3542355   439061 
 4232000   0.90274003   -3.8098679   -3.8098679   -2.4557609  0.031747031   -3.8098679     1.354107   439061 
 4233000   0.90220984   -3.8102753   -3.8102753   -2.4569636  0.030278789   -3.8102753    1.3533117   439061 
 4234000    0.9021311   -3.8088612   -3.8088612   -2.4556677  0.029938075   -3.8088612    1.3531936   439061 
 4235000   0.90302487   -3.8112254   -3.8112254   -2.4566912  0.029367683   -3.8112254    1.3545342   439061 
 4236000   0.90239975   -3.8109772   -3.8109772   -2.4573806  0.023669265   -3.8109772    1.3535965   439061 
 4237000   0.90111086   -3.8095971   -3.8095971   -2.4579339  0.029044918   -3.8095971    1.3516632   439061 
 4238000   0.90180209   -3.8101284   -3.8101284   -2.4574283  0.035186944   -3.8101284    1.3527001   439061 
 4239000   0.90371494   -3.8126173   -3.8126173   -2.4570479  0.035103492   -3.8126173    1.3555693   439061 
 4240000   0.90262184   -3.8114597   -3.8114597     -2.45753  0.035132877   -3.8114597    1.3539297   439061 
 4241000   0.90336633   -3.8130253   -3.8130253   -2.4579789  0.036548026   -3.8130253    1.3550464   439061 
 4242000   0.90345632   -3.8128771   -3.8128771   -2.4576957  0.037652748   -3.8128771    1.3551814   439061 
 4243000   0.90349249   -3.8134963   -3.8134963   -2.4582606   0.03542186   -3.8134963    1.3552357   439061 
 4244000   0.90338856   -3.8132606   -3.8132606   -2.4581808  0.040057576   -3.8132606    1.3550798   439061 
 4245000   0.90384911   -3.8145032   -3.8145032   -2.4587327  0.039532707   -3.8145032    1.3557706   439061 
 4246000   0.90407475   -3.8147308   -3.8147308   -2.4586218  0.035938126   -3.8147308     1.356109   439061 
 4247000   0.90468764   -3.8153991   -3.8153991   -2.4583708   0.03867191   -3.8153991    1.3570284   439061 
 4248000   0.90369465   -3.8141336   -3.8141336   -2.4585947  0.036883332   -3.8141336    1.3555389   439061 
 4249000   0.90376684   -3.8151265   -3.8151265   -2.4594793  0.037338941   -3.8151265    1.3556472   439061 
 4250000   0.90310385    -3.815967    -3.815967   -2.4613143  0.032996713    -3.815967    1.3546527   439061 
 4251000   0.90199986   -3.8139429   -3.8139429   -2.4609462  0.035696085   -3.8139429    1.3529967   439061 
 4252000   0.90130335   -3.8119335   -3.8119335   -2.4599816  0.038276994   -3.8119335    1.3519519   439061 
 4253000   0.90245448   -3.8140294   -3.8140294   -2.4603508  0.032394064   -3.8140294    1.3536786   439061 
 4254000   0.90294555   -3.8146465   -3.8146465   -2.4602313  0.031083402   -3.8146465    1.3544152   439061 
 4255000    0.9030379   -3.8145937   -3.8145937   -2.4600399  0.035470453   -3.8145937    1.3545538   439061 
 4256000   0.90248579   -3.8149656   -3.8149656     -2.46124  0.028852729   -3.8149656    1.3537256   439061 
 4257000   0.90000946    -3.809773    -3.809773   -2.4597619  0.035071519    -3.809773    1.3500111   439061 
 4258000   0.90293943    -3.814601    -3.814601   -2.4601949  0.028628898    -3.814601    1.3544061   439061 
 4259000   0.90274447   -3.8146281   -3.8146281   -2.4605145  0.036609506   -3.8146281    1.3541136   439061 
 4260000   0.90310644   -3.8127415   -3.8127415   -2.4580849  0.035496825   -3.8127415    1.3546566   439061 
 4261000   0.90190389   -3.8127245   -3.8127245   -2.4598717  0.035498116   -3.8127245    1.3528528   439061 
 4262000   0.90192439   -3.8127791   -3.8127791   -2.4598956  0.032780083   -3.8127791    1.3528835   439061 
 4263000   0.90199162   -3.8124187   -3.8124187   -2.4594344  0.034298258   -3.8124187    1.3529844   439061 
 4264000   0.90401602   -3.8140158   -3.8140158   -2.4579949  0.036435905   -3.8140158    1.3560209   439061 
 4265000   0.90296577   -3.8134427   -3.8134427   -2.4589972  0.036520427   -3.8134427    1.3544456   439061 
 4266000   0.90448528   -3.8152908   -3.8152908    -2.458566  0.034576382   -3.8152908    1.3567248   439061 
 4267000    0.9035909   -3.8144976   -3.8144976   -2.4591144  0.043516312   -3.8144976    1.3553833   439061 
 4268000   0.90381564   -3.8130611   -3.8130611   -2.4573408  0.042432925   -3.8130611    1.3557204   439061 
 4269000   0.90316214   -3.8137195   -3.8137195   -2.4589793  0.041684545   -3.8137195    1.3547401   439061 
 4270000   0.90305842   -3.8151447   -3.8151447   -2.4605602  0.038412564   -3.8151447    1.3545846   439061 
 4271000   0.90375419   -3.8162918   -3.8162918   -2.4606636  0.032811907   -3.8162918    1.3556282   439061 
 4272000    0.9016983   -3.8138906   -3.8138906   -2.4613462  0.038608787   -3.8138906    1.3525444   439061 
 4273000   0.90365132   -3.8149544   -3.8149544   -2.4594805  0.036139097   -3.8149544    1.3554739   439061 
 4274000    0.9040956   -3.8154178   -3.8154178   -2.4592775  0.030954217   -3.8154178    1.3561403   439061 
 4275000   0.90322784   -3.8138924   -3.8138924   -2.4590537  0.039677213   -3.8138924    1.3548387   439061 
 4276000   0.90339466   -3.8145271   -3.8145271   -2.4594382  0.038478169   -3.8145271    1.3550889   439061 
 4277000   0.90263503    -3.813917    -3.813917   -2.4599675  0.032717489    -3.813917    1.3539495   439061 
 4278000   0.90316765   -3.8144108   -3.8144108   -2.4596624  0.028775425   -3.8144108    1.3547484   439061 
 4279000   0.90335597   -3.8131135   -3.8131135   -2.4580826  0.032900137   -3.8131135    1.3550309   439061 
 4280000   0.90191227   -3.8104083   -3.8104083    -2.457543  0.039051035   -3.8104083    1.3528653   439061 
 4281000   0.90154738   -3.8104023   -3.8104023   -2.4580843  0.033128245   -3.8104023     1.352318   439061 
 4282000   0.90296969   -3.8124524   -3.8124524    -2.458001  0.031432155   -3.8124524    1.3544514   439061 
 4283000   0.90249576   -3.8112858   -3.8112858   -2.4575452  0.034295486   -3.8112858    1.3537406   439061 
 4284000   0.90278156   -3.8121463   -3.8121463   -2.4579771  0.032753872   -3.8121463    1.3541693   439061 
 4285000   0.90316473   -3.8126288   -3.8126288   -2.4578848  0.034145465   -3.8126288     1.354744   439061 
 4286000   0.90271609    -3.811233    -3.811233   -2.4571619  0.032384706    -3.811233     1.354071   439061 
 4287000   0.90379828   -3.8129392   -3.8129392   -2.4572449  0.031600934   -3.8129392    1.3556943   439061 
 4288000   0.90417297   -3.8143632   -3.8143632   -2.4581068  0.028338501   -3.8143632    1.3562564   439061 
 4289000   0.90267514   -3.8119895   -3.8119895   -2.4579799  0.036902625   -3.8119895    1.3540096   439061 
 4290000   0.90405253   -3.8134356   -3.8134356   -2.4573598  0.037611003   -3.8134356    1.3560757   439061 
 4291000   0.90349169   -3.8151076   -3.8151076   -2.4598731  0.031640319   -3.8151076    1.3552344   439061 
 4292000   0.90327758   -3.8147505   -3.8147505   -2.4598372  0.028699189   -3.8147505    1.3549133   439061 
 4293000   0.90171149   -3.8124104   -3.8124104   -2.4598463  0.034643592   -3.8124104    1.3525642   439061 
 4294000   0.90337229   -3.8139461   -3.8139461   -2.4588907  0.037200086   -3.8139461    1.3550554   439061 
 4295000   0.90280452   -3.8152019   -3.8152019   -2.4609982  0.038399003   -3.8152019    1.3542037   439061 
 4296000   0.90165159   -3.8130586   -3.8130586   -2.4605843  0.042838194   -3.8130586    1.3524743   439061 
 4297000   0.90349052   -3.8144382   -3.8144382   -2.4592055  0.041476234   -3.8144382    1.3552327   439061 
 4298000    0.9040544   -3.8145078   -3.8145078   -2.4584293  0.038796338   -3.8145078    1.3560785   439061 
 4299000   0.90378327    -3.814381    -3.814381   -2.4587092  0.038470046    -3.814381    1.3556718   439061 
 4300000   0.90412507     -3.81396     -3.81396   -2.4577755  0.036666053     -3.81396    1.3561845   439061 
 4301000   0.90429424   -3.8149785   -3.8149785   -2.4585402  0.036246237   -3.8149785    1.3564383   439061 
 4302000   0.90381572   -3.8143239   -3.8143239   -2.4586034  0.035479426   -3.8143239    1.3557205   439061 
 4303000    0.9026507   -3.8135774   -3.8135774   -2.4596044  0.038094934   -3.8135774     1.353973   439061 
 4304000   0.90300438   -3.8137371   -3.8137371   -2.4592336  0.034420856   -3.8137371    1.3545035   439061 
 4305000   0.90227386   -3.8114132   -3.8114132   -2.4580055   0.03440213   -3.8114132    1.3534077   439061 
 4306000   0.90200732   -3.8116128   -3.8116128   -2.4586049  0.033425374   -3.8116128    1.3530079   439061 
 4307000   0.90271646    -3.812255    -3.812255   -2.4581834  0.028987521    -3.812255    1.3540716   439061 
 4308000   0.90178987   -3.8114237   -3.8114237   -2.4587419  0.033283059   -3.8114237    1.3526817   439061 
 4309000   0.90168329   -3.8108726   -3.8108726   -2.4583508  0.032040441   -3.8108726    1.3525219   439061 
 4310000   0.90132735   -3.8095146   -3.8095146   -2.4575266  0.032704114   -3.8095146    1.3519879   439061 
 4311000   0.90278434   -3.8113043   -3.8113043   -2.4571309   0.03177615   -3.8113043    1.3541734   439061 
 4312000   0.90341407   -3.8113789   -3.8113789   -2.4562608  0.031906963   -3.8113789     1.355118   439061 
 4313000   0.90345809   -3.8117003   -3.8117003   -2.4565162  0.032748768   -3.8117003     1.355184   439061 
 4314000   0.90280411   -3.8098299   -3.8098299   -2.4556269  0.036375361   -3.8098299    1.3542031   439061 
 4315000   0.90378649   -3.8120597   -3.8120597    -2.456383  0.032264363   -3.8120597    1.3556766   439061 
 4316000   0.90331671   -3.8094876   -3.8094876   -2.4545156   0.03258784   -3.8094876     1.354972   439061 
 4317000   0.90276488   -3.8093467   -3.8093467   -2.4552025  0.032915197   -3.8093467    1.3541442   439061 
 4318000   0.90301788   -3.8104607   -3.8104607    -2.455937  0.036708467   -3.8104607    1.3545237   439061 
 4319000   0.90365338   -3.8118761   -3.8118761   -2.4563991  0.034540265   -3.8118761     1.355477   439061 
 4320000   0.90254803   -3.8110954   -3.8110954   -2.4572765  0.034127181   -3.8110954     1.353819   439061 
 4321000   0.90304763   -3.8112987   -3.8112987   -2.4567303  0.034574389   -3.8112987    1.3545684   439061 
 4322000   0.90295597    -3.811141    -3.811141   -2.4567101  0.031016395    -3.811141    1.3544309   439061 
 4323000   0.90390712   -3.8121089   -3.8121089   -2.4562514  0.039585603   -3.8121089    1.3558576   439061 
 4324000   0.90318072   -3.8106561   -3.8106561   -2.4558881  0.036651796   -3.8106561     1.354768   439061 
 4325000   0.90318306   -3.8107437   -3.8107437   -2.4559722  0.034253861   -3.8107437    1.3547715   439061 
 4326000   0.90446022   -3.8125103   -3.8125103    -2.455823  0.032173338   -3.8125103    1.3566872   439061 
 4327000   0.90406214   -3.8121713   -3.8121713   -2.4560812  0.033948414   -3.8121713    1.3560901   439061 
 4328000   0.90439008   -3.8132332   -3.8132332   -2.4566512  0.033619494   -3.8132332     1.356582   439061 
 4329000   0.90391571   -3.8129481   -3.8129481   -2.4570776  0.041096459   -3.8129481    1.3558705   439061 
 4330000   0.90380206   -3.8138474   -3.8138474   -2.4581474  0.034068045   -3.8138474       1.3557   439061 
 4331000   0.90342904   -3.8141082   -3.8141082   -2.4589677  0.035213174   -3.8141082    1.3551405   439061 
 4332000   0.90302291   -3.8144824   -3.8144824   -2.4599512  0.030163901   -3.8144824    1.3545313   439061 
 4333000   0.90123543   -3.8113812   -3.8113812   -2.4595312  0.035117947   -3.8113812    1.3518501   439061 
 4334000   0.90291226   -3.8142793   -3.8142793    -2.459914  0.037201273   -3.8142793    1.3543653   439061 
 4335000   0.90372541   -3.8144602   -3.8144602   -2.4588751  0.033979205   -3.8144602     1.355585   439061 
 4336000   0.90393105   -3.8139779   -3.8139779   -2.4580844  0.036308573   -3.8139779    1.3558935   439061 
 4337000    0.9044663   -3.8157394   -3.8157394   -2.4590431  0.036956135   -3.8157394    1.3566964   439061 
 4338000   0.90519404    -3.816944    -3.816944    -2.459156  0.038622957    -3.816944     1.357788   439061 
 4339000    0.9048926   -3.8170427   -3.8170427   -2.4597069  0.034295796   -3.8170427    1.3573358   439061 
 4340000   0.90503936   -3.8169664   -3.8169664   -2.4594104  0.035820326   -3.8169664    1.3575559   439061 
 4341000   0.90352848   -3.8158149   -3.8158149   -2.4605253  0.036853708   -3.8158149    1.3552896   439061 
 4342000   0.90243012   -3.8141489   -3.8141489   -2.4605068   0.03320424   -3.8141489    1.3536421   439061 
 4343000   0.90322303   -3.8163317   -3.8163317   -2.4615002  0.033466415   -3.8163317    1.3548315   439061 
 4344000   0.90362595   -3.8163747   -3.8163747   -2.4609389  0.035408466   -3.8163747    1.3554358   439061 
 4345000   0.90387168   -3.8152481   -3.8152481   -2.4594437   0.02972058   -3.8152481    1.3558044   439061 
 4346000   0.90365086   -3.8149149   -3.8149149   -2.4594417  0.030629571   -3.8149149    1.3554732   439061 
 4347000   0.90321356   -3.8132742   -3.8132742    -2.458457  0.035493407   -3.8132742    1.3548173   439061 
 4348000   0.90313882   -3.8142189   -3.8142189   -2.4595138  0.033218663   -3.8142189    1.3547051   439061 
 4349000   0.90264786   -3.8133622   -3.8133622   -2.4593935  0.028193377   -3.8133622    1.3539687   439061 
 4350000   0.90241968   -3.8130446   -3.8130446   -2.4594182  0.030815703   -3.8130446    1.3536264   439061 
 4351000   0.90049125   -3.8111588   -3.8111588    -2.460425  0.032571605   -3.8111588    1.3507338   439061 
 4352000    0.9040802   -3.8149151   -3.8149151   -2.4587979  0.026734467   -3.8149151    1.3561172   439061 
 4353000   0.90164005   -3.8111627   -3.8111627   -2.4587057  0.033281257   -3.8111627     1.352457   439061 
 4354000   0.90232145   -3.8147221   -3.8147221    -2.461243  0.030801278   -3.8147221    1.3534791   439061 
 4355000   0.90287458   -3.8141552   -3.8141552   -2.4598464  0.027063218   -3.8141552    1.3543088   439061 
 4356000   0.90327368   -3.8137266   -3.8137266   -2.4588192  0.036482336   -3.8137266    1.3549074   439061 
 4357000   0.90317864   -3.8133112   -3.8133112   -2.4585464  0.040262101   -3.8133112    1.3547649   439061 
 4358000   0.90246309   -3.8128623   -3.8128623   -2.4591708  0.039594912   -3.8128623    1.3536916   439061 
 4359000   0.90260639   -3.8140608   -3.8140608   -2.4601543  0.032267002   -3.8140608    1.3539065   439061 
 4360000   0.90221565   -3.8148185   -3.8148185   -2.4614981  0.031389074   -3.8148185    1.3533204   439061 
 4361000   0.90133088   -3.8137538   -3.8137538   -2.4617606   0.03719122   -3.8137538    1.3519932   439061 
 4362000   0.90235342   -3.8161384   -3.8161384   -2.4626113  0.032595749   -3.8161384    1.3535271   439061 
 4363000   0.90163228   -3.8163636   -3.8163636   -2.4639183  0.036384991   -3.8163636    1.3524453   439061 
 4364000   0.90311908   -3.8177249   -3.8177249   -2.4630494  0.035547191   -3.8177249    1.3546755   439061 
 4365000   0.90333908   -3.8174261   -3.8174261   -2.4624206  0.034468366   -3.8174261    1.3550055   439061 
 4366000   0.90412125   -3.8177239   -3.8177239   -2.4615451  0.042301945   -3.8177239    1.3561788   439061 
 4367000   0.90550997   -3.8205859   -3.8205859    -2.462324  0.034601594   -3.8205859    1.3582619   439061 
 4368000   0.90606846   -3.8203936   -3.8203936    -2.461294  0.036722929   -3.8203936    1.3590996   439061 
 4369000   0.90338575   -3.8180214   -3.8180214   -2.4629459  0.040386282   -3.8180214    1.3550755   439061 
 4370000   0.90333373   -3.8185929   -3.8185929   -2.4635954  0.036010362   -3.8185929    1.3549975   439061 
 4371000   0.90199875   -3.8167693   -3.8167693   -2.4637743  0.039355511   -3.8167693     1.352995   439061 
 4372000   0.90252364   -3.8179044   -3.8179044    -2.464122  0.035701044   -3.8179044    1.3537824   439061 
 4373000   0.90241796   -3.8169787   -3.8169787   -2.4633548  0.030986261   -3.8169787    1.3536239   439061 
 4374000   0.90155391   -3.8155754   -3.8155754   -2.4632476  0.034240327   -3.8155754    1.3523278   439061 
 4375000   0.90249894   -3.8166642   -3.8166642   -2.4629189  0.030390073   -3.8166642    1.3537453   439061 
 4376000   0.90328502   -3.8167231   -3.8167231   -2.4617987  0.034099763   -3.8167231    1.3549244   439061 
 4377000    0.9027775   -3.8169003   -3.8169003   -2.4627372  0.034533521   -3.8169003    1.3541632   439061 
 4378000   0.90293755   -3.8163775   -3.8163775   -2.4619742  0.033073496   -3.8163775    1.3544032   439061 
 4379000    0.9017361   -3.8151876   -3.8151876   -2.4625865  0.032640612   -3.8151876    1.3526011   439061 
 4380000   0.90248573    -3.815156    -3.815156   -2.4614305  0.030890622    -3.815156    1.3537255   439061 
 4381000   0.90198512   -3.8150742   -3.8150742   -2.4620996  0.028857246   -3.8150742    1.3529746   439061 
 4382000   0.90264332   -3.8157969   -3.8157969    -2.461835  0.029481817   -3.8157969    1.3539619   439061 
 4383000   0.90090387   -3.8137205   -3.8137205   -2.4623677  0.034587176   -3.8137205    1.3513527   439061 
 4384000   0.90052867   -3.8124796   -3.8124796   -2.4616897  0.034334303   -3.8124796    1.3507899   439061 
 4385000   0.90246541   -3.8145618   -3.8145618   -2.4608668  0.040073051   -3.8145618     1.353695   439061 
 4386000    0.9023329   -3.8150973   -3.8150973   -2.4616011  0.037140377   -3.8150973    1.3534963   439061 
 4387000   0.90420706   -3.8182352   -3.8182352   -2.4619277  0.033168956   -3.8182352    1.3563075   439061 
 4388000   0.90350942   -3.8159952   -3.8159952   -2.4607342  0.041391988   -3.8159952     1.355261   439061 
 4389000   0.90330503   -3.8172263   -3.8172263   -2.4622719  0.034801575   -3.8172263    1.3549545   439061 
 4390000    0.9028523     -3.81542     -3.81542   -2.4611447  0.035081169     -3.81542    1.3542754   439061 
 4391000   0.90273453   -3.8156462   -3.8156462   -2.4615475  0.032573858   -3.8156462    1.3540987   439061 
 4392000   0.90263322    -3.815185    -3.815185   -2.4612382  0.036360059    -3.815185    1.3539467   439061 
 4393000   0.90215565   -3.8155199   -3.8155199   -2.4622895   0.03545135   -3.8155199    1.3532304   439061 
 4394000   0.90255781   -3.8163625   -3.8163625   -2.4625288  0.037563309   -3.8163625    1.3538336   439061 
 4395000   0.90370611   -3.8167647   -3.8167647   -2.4612087  0.036368263   -3.8167647    1.3555561   439061 
 4396000   0.90375837   -3.8167106   -3.8167106   -2.4610761    0.0352229   -3.8167106    1.3556345   439061 
 4397000   0.90422489   -3.8174317   -3.8174317   -2.4610975  0.035534624   -3.8174317    1.3563342   439061 
 4398000   0.90342966   -3.8169637   -3.8169637   -2.4618223  0.034021389   -3.8169637    1.3551414   439061 
 4399000   0.90324156   -3.8164533   -3.8164533    -2.461594  0.032930243   -3.8164533    1.3548592   439061 
 4400000   0.90162284   -3.8150375   -3.8150375   -2.4626063  0.037298852   -3.8150375    1.3524312   439061 
 4401000   0.90321925   -3.8175422   -3.8175422   -2.4627164  0.030826624   -3.8175422    1.3548258   439061 
 4402000   0.90333169   -3.8174808   -3.8174808   -2.4624864  0.033261443   -3.8174808    1.3549944   439061 
 4403000   0.90289368   -3.8181527   -3.8181527   -2.4638152  0.036339479   -3.8181527    1.3543374   439061 
 4404000    0.9018283   -3.8164422   -3.8164422   -2.4637029  0.033481862   -3.8164422    1.3527394   439061 
 4405000   0.90130774   -3.8149981   -3.8149981   -2.4630396  0.032638084   -3.8149981    1.3519585   439061 
 4406000   0.90103255   -3.8158081   -3.8158081   -2.4642624  0.029557427   -3.8158081    1.3515457   439061 
 4407000   0.90310577   -3.8192539   -3.8192539   -2.4645984  0.032348709   -3.8192539    1.3546556   439061 
 4408000    0.9038816   -3.8198533   -3.8198533    -2.464034  0.034249735   -3.8198533    1.3558193   439061 
 4409000   0.90263643   -3.8181574   -3.8181574   -2.4642058  0.034578391   -3.8181574    1.3539516   439061 
 4410000   0.90305175    -3.818975    -3.818975   -2.4644005  0.036177351    -3.818975    1.3545745   439061 
 4411000   0.90380791   -3.8196496   -3.8196496   -2.4639408   0.03095699   -3.8196496    1.3557088   439061 
 4412000   0.90242264   -3.8174219   -3.8174219    -2.463791  0.040676808   -3.8174219    1.3536309   439061 
 4413000   0.90375778   -3.8186958   -3.8186958   -2.4630622  0.036761095   -3.8186958    1.3556336   439061 
 4414000   0.90191238    -3.816181    -3.816181   -2.4633156  0.040994401    -3.816181    1.3528655   439061 
 4415000   0.90448509   -3.8188286   -3.8188286    -2.462104  0.037426049   -3.8188286    1.3567245   439061 
 4416000   0.90384224   -3.8189516   -3.8189516   -2.4631913  0.037933082   -3.8189516    1.3557603   439061 
 4417000   0.90454043    -3.820147    -3.820147   -2.4633395  0.035501899    -3.820147    1.3568075   439061 
 4418000   0.90335404   -3.8171374   -3.8171374   -2.4621094  0.035599247   -3.8171374     1.355028   439061 
 4419000   0.90229801   -3.8150454   -3.8150454   -2.4616015  0.037272561   -3.8150454    1.3534439   439061 
 4420000   0.90263533   -3.8173248   -3.8173248   -2.4633749  0.032309026   -3.8173248    1.3539499   439061 
 4421000   0.90117199   -3.8140581   -3.8140581   -2.4623032  0.039467812   -3.8140581    1.3517549   439061 
 4422000   0.90165242   -3.8159043   -3.8159043   -2.4634288  0.030074398   -3.8159043    1.3524755   439061 
 4423000   0.90104829   -3.8137906   -3.8137906   -2.4622213  0.033657127   -3.8137906    1.3515694   439061 
 4424000   0.90195366   -3.8155191   -3.8155191   -2.4625917   0.03274872   -3.8155191    1.3529274   439061 
 4425000   0.90264412    -3.817134    -3.817134   -2.4631709  0.028905359    -3.817134    1.3539631   439061 
 4426000   0.90273532   -3.8169606   -3.8169606   -2.4628607  0.029034442   -3.8169606    1.3540999   439061 
 4427000   0.90262306   -3.8151993   -3.8151993   -2.4612678  0.035312337   -3.8151993    1.3539315   439061 
 4428000   0.90135854   -3.8140234   -3.8140234   -2.4619886  0.036599203   -3.8140234    1.3520347   439061 
 4429000   0.90255238   -3.8147164   -3.8147164   -2.4608909  0.031878011   -3.8147164    1.3538255   439061 
 4430000   0.90356944   -3.8153288   -3.8153288   -2.4599778  0.032464697   -3.8153288    1.3553511   439061 
 4431000   0.90476768   -3.8173241   -3.8173241   -2.4601757  0.030785614   -3.8173241    1.3571484   439061 
 4432000   0.90142971   -3.8131792   -3.8131792   -2.4610377   0.03919612   -3.8131792    1.3521415   439061 
 4433000   0.90348197   -3.8168877   -3.8168877   -2.4616678  0.032401007   -3.8168877    1.3552199   439061 
 4434000   0.90396513   -3.8174579   -3.8174579   -2.4615133  0.033860413   -3.8174579    1.3559446   439061 
 4435000    0.9034371   -3.8162697   -3.8162697   -2.4611172  0.031592279   -3.8162697    1.3551526   439061 
 4436000   0.90314245   -3.8157705   -3.8157705   -2.4610599   0.03535024   -3.8157705    1.3547106   439061 
 4437000   0.90201062   -3.8139139   -3.8139139   -2.4609011  0.038309164   -3.8139139    1.3530128   439061 
 4438000   0.90241491   -3.8153665   -3.8153665   -2.4617472  0.032544277   -3.8153665    1.3536193   439061 
 4439000   0.90147741   -3.8137886   -3.8137886   -2.4615756  0.037027209   -3.8137886     1.352213   439061 
 4440000    0.9029795    -3.817456    -3.817456   -2.4629898  0.031897862    -3.817456    1.3544662   439061 
 4441000   0.90354397   -3.8169644   -3.8169644   -2.4616516  0.038282224   -3.8169644    1.3553129   439061 
 4442000   0.90332757   -3.8164689   -3.8164689   -2.4614806  0.036709822   -3.8164689    1.3549883   439061 
 4443000   0.90370937   -3.8169696   -3.8169696   -2.4614086  0.032319483   -3.8169696     1.355561   439061 
 4444000   0.90194828   -3.8137185   -3.8137185   -2.4607991  0.039954967   -3.8137185    1.3529193   439061 
 4445000   0.90433582   -3.8164122   -3.8164122   -2.4599116  0.036244182   -3.8164122    1.3565006   439061 
 4446000   0.90235874   -3.8152335   -3.8152335   -2.4616984  0.035581619   -3.8152335     1.353535   439061 
 4447000   0.90330559    -3.816191    -3.816191   -2.4612357   0.03426147    -3.816191    1.3549553   439061 
 4448000   0.90348514   -3.8152445   -3.8152445   -2.4600199  0.037943624   -3.8152445    1.3552246   439061 
 4449000   0.90346887   -3.8158775   -3.8158775   -2.4606773  0.034771335   -3.8158775    1.3552002   439061 
 4450000   0.90284421    -3.814746    -3.814746   -2.4604828  0.033256085    -3.814746    1.3542632   439061 
 4451000   0.90219624   -3.8126265   -3.8126265   -2.4593352  0.031553953   -3.8126265    1.3532913   439061 
 4452000   0.90258497   -3.8136395   -3.8136395   -2.4597652  0.031825518   -3.8136395    1.3538744   439061 
 4453000   0.90269401   -3.8130898   -3.8130898   -2.4590519  0.035182233   -3.8130898    1.3540379   439061 
 4454000    0.9028319   -3.8125855   -3.8125855   -2.4583407  0.031319687   -3.8125855    1.3542448   439061 
 4455000   0.90275366   -3.8121534   -3.8121534    -2.458026  0.032090541   -3.8121534    1.3541274   439061 
 4456000   0.90379162   -3.8128354   -3.8128354   -2.4571511  0.032864116   -3.8128354    1.3556843   439061 
 4457000   0.90292206   -3.8115837   -3.8115837   -2.4572037  0.033898464   -3.8115837      1.35438   439061 
 4458000   0.90266333   -3.8119685   -3.8119685   -2.4579766  0.034182935   -3.8119685    1.3539919   439061 
 4459000   0.90230594   -3.8123385   -3.8123385   -2.4588827  0.034244367   -3.8123385    1.3534558   439061 
 4460000   0.90177063    -3.810606    -3.810606   -2.4579532  0.033352397    -3.810606    1.3526529   439061 
 4461000    0.9021821   -3.8113977   -3.8113977   -2.4581276  0.031048487   -3.8113977    1.3532701   439061 
 4462000   0.90274338   -3.8119243   -3.8119243   -2.4578123   0.02923502   -3.8119243     1.354112   439061 
 4463000   0.90297749   -3.8119069   -3.8119069   -2.4574438  0.036035195   -3.8119069    1.3544632   439061 
 4464000   0.90244573   -3.8125592   -3.8125592   -2.4588937  0.035977755   -3.8125592    1.3536655   439061 
 4465000   0.90411709   -3.8143646   -3.8143646   -2.4581921  0.037592408   -3.8143646    1.3561725   439061 
 4466000   0.90441465    -3.814522    -3.814522   -2.4579031  0.031852361    -3.814522    1.3566189   439061 
 4467000   0.90244268   -3.8127337   -3.8127337   -2.4590727  0.040947585   -3.8127337    1.3536609   439061 
 4468000   0.90280404   -3.8131025   -3.8131025   -2.4588995  0.037218619   -3.8131025     1.354203   439061 
 4469000   0.90262317   -3.8119081   -3.8119081   -2.4579764  0.039491578   -3.8119081    1.3539317   439061 
 4470000   0.90443032   -3.8161171   -3.8161171   -2.4594747  0.036693799   -3.8161171    1.3566424   439061 
 4471000   0.90564206   -3.8181543   -3.8181543   -2.4596943  0.036671376   -3.8181543      1.35846   439061 
 4472000   0.90360582   -3.8161576   -3.8161576   -2.4607519  0.035489966   -3.8161576    1.3554056   439061 
 4473000   0.90366245   -3.8157813   -3.8157813   -2.4602907  0.036683289   -3.8157813    1.3554906   439061 
 4474000   0.90323023   -3.8146791   -3.8146791   -2.4598368  0.035129902   -3.8146791    1.3548423   439061 
 4475000   0.90335785   -3.8152421   -3.8152421   -2.4602084  0.035370474   -3.8152421    1.3550337   439061 
 4476000   0.90456401    -3.815909    -3.815909    -2.459066  0.035984284    -3.815909    1.3568429   439061 
 4477000   0.90451713   -3.8160277   -3.8160277   -2.4592551  0.032901065   -3.8160277    1.3567726   439061 
 4478000   0.90313471   -3.8134659   -3.8134659   -2.4587669  0.034738551   -3.8134659     1.354699   439061 
 4479000   0.90169314   -3.8102349   -3.8102349   -2.4576983  0.036264267   -3.8102349    1.3525366   439061 
 4480000   0.90269243   -3.8130731   -3.8130731   -2.4590375  0.031840059   -3.8130731    1.3540356   439061 
 4481000   0.90157139   -3.8113352   -3.8113352   -2.4589812  0.032786906   -3.8113352     1.352354   439061 
 4482000   0.90301956   -3.8135925   -3.8135925   -2.4590663  0.030299902   -3.8135925    1.3545263   439061 
 4483000    0.9014105   -3.8121107   -3.8121107    -2.459998  0.035256586   -3.8121107    1.3521127   439061 
 4484000   0.90067924   -3.8109008   -3.8109008    -2.459885  0.029288721   -3.8109008    1.3510158   439061 
 4485000   0.90197555   -3.8138622   -3.8138622    -2.460902  0.027051812   -3.8138622    1.3529602   439061 
 4486000   0.90213854   -3.8133934   -3.8133934   -2.4601887  0.028255713   -3.8133934    1.3532047   439061 
 4487000    0.9010461    -3.813169    -3.813169   -2.4616029  0.031736996    -3.813169    1.3515661   439061 
 4488000   0.90298516   -3.8146936   -3.8146936    -2.460219  0.032465469   -3.8146936    1.3544747   439061 
 4489000   0.90246924   -3.8136066   -3.8136066   -2.4599058  0.038482771   -3.8136066    1.3537008   439061 
 4490000    0.9030473   -3.8139543   -3.8139543   -2.4593864  0.037486529   -3.8139543    1.3545679   439061 
 4491000   0.90398708   -3.8162207   -3.8162207   -2.4602432  0.037368734   -3.8162207    1.3559775   439061 
 4492000   0.90395524   -3.8166383   -3.8166383   -2.4607085  0.038687875   -3.8166383    1.3559298   439061 
 4493000   0.90493322   -3.8175333   -3.8175333   -2.4601366  0.035119073   -3.8175333    1.3573967   439061 
 4494000   0.90555749   -3.8199392   -3.8199392   -2.4616061  0.034129356   -3.8199392    1.3583331   439061 
 4495000   0.90413507   -3.8189404   -3.8189404   -2.4627409  0.036245855   -3.8189404    1.3561995   439061 
 4496000   0.90390937   -3.8175604   -3.8175604   -2.4616994  0.034862158   -3.8175604     1.355861   439061 
 4497000   0.90290084   -3.8172795   -3.8172795   -2.4629313  0.035602885   -3.8172795    1.3543482   439061 
 4498000   0.90505225   -3.8194199   -3.8194199   -2.4618446  0.032732268   -3.8194199    1.3575753   439061 
 4499000   0.90438065   -3.8186915   -3.8186915   -2.4621236   0.03618275   -3.8186915    1.3565679   439061 
 4500000   0.90330062   -3.8168421   -3.8168421   -2.4618943   0.03862667   -3.8168421    1.3549478   439061 
 4501000   0.90349379   -3.8178626   -3.8178626    -2.462625  0.035979826   -3.8178626    1.3552376   439061 
 4502000   0.90233435   -3.8169321   -3.8169321   -2.4634336    0.0321048   -3.8169321    1.3534984   439061 
 4503000   0.90065444     -3.81499     -3.81499   -2.4640114  0.034590447     -3.81499    1.3509786   439061 
 4504000   0.90253097   -3.8157267   -3.8157267   -2.4619333  0.033532439   -3.8157267    1.3537934   439061 
 4505000   0.90232947   -3.8149679   -3.8149679   -2.4614768  0.038726529   -3.8149679    1.3534911   439061 
 4506000   0.90187755   -3.8149704   -3.8149704   -2.4621572  0.030925051   -3.8149704    1.3528132   439061 
 4507000   0.90187152   -3.8148329   -3.8148329   -2.4620287  0.031929956   -3.8148329    1.3528042   439061 
 4508000    0.9019017   -3.8138443   -3.8138443   -2.4609949  0.032521689   -3.8138443    1.3528495   439061 
 4509000   0.90158775   -3.8126472   -3.8126472   -2.4602687  0.033065299   -3.8126472    1.3523785   439061 
 4510000   0.90089968   -3.8126259   -3.8126259   -2.4612794  0.038273307   -3.8126259    1.3513464   439061 
 4511000   0.90165672    -3.813081    -3.813081    -2.460599  0.037526716    -3.813081     1.352482   439061 
 4512000   0.90307919   -3.8139719   -3.8139719   -2.4593562  0.033232073   -3.8139719    1.3546157   439061 
 4513000    0.9036418   -3.8147273   -3.8147273   -2.4592677  0.035416695   -3.8147273    1.3554596   439061 
 4514000   0.90386441   -3.8159763   -3.8159763   -2.4601827  0.029066822   -3.8159763    1.3557935   439061 
 4515000   0.90364337   -3.8163598   -3.8163598   -2.4608979  0.033550444   -3.8163598     1.355462   439061 
 4516000   0.90291848   -3.8168635   -3.8168635   -2.4624889  0.034860606   -3.8168635    1.3543746   439061 
 4517000   0.90324133   -3.8162165   -3.8162165   -2.4613576  0.033156779   -3.8162165    1.3548589   439061 
 4518000   0.90388198   -3.8168595   -3.8168595   -2.4610396  0.033313707   -3.8168595    1.3558199   439061 
 4519000   0.90219659   -3.8158607   -3.8158607   -2.4625689  0.034437878   -3.8158607    1.3532918   439061 
 4520000     0.900927   -3.8154097   -3.8154097   -2.4640222  0.036012274   -3.8154097    1.3513874   439061 
 4521000   0.90131814   -3.8170927   -3.8170927   -2.4651185  0.029938018   -3.8170927    1.3519741   439061 
 4522000   0.90148802   -3.8171426   -3.8171426   -2.4649137  0.030841911   -3.8171426     1.352229   439061 
 4523000   0.90360408   -3.8191181   -3.8191181   -2.4637151  0.034993284   -3.8191181     1.355403   439061 
 4524000   0.90420714   -3.8183404   -3.8183404   -2.4620327  0.036032772   -3.8183404    1.3563076   439061 
 4525000   0.90383809   -3.8182487   -3.8182487   -2.4624947  0.038765363   -3.8182487    1.3557541   439061 
 4526000   0.90305224     -3.81792     -3.81792   -2.4633447  0.037181635     -3.81792    1.3545753   439061 
 4527000    0.9048496   -3.8209988   -3.8209988   -2.4637275  0.031766822   -3.8209988    1.3572713   439061 
 4528000   0.90444983   -3.8198015   -3.8198015   -2.4631299  0.036872282   -3.8198015    1.3566717   439061 
 4529000   0.90429036   -3.8199725   -3.8199725   -2.4635401  0.037960731   -3.8199725    1.3564324   439061 
 4530000   0.90273636    -3.817906    -3.817906   -2.4638046  0.038059453    -3.817906    1.3541014   439061 
 4531000   0.90166662   -3.8164769   -3.8164769   -2.4639801  0.039021597   -3.8164769    1.3524968   439061 
 4532000   0.90280942   -3.8177932   -3.8177932   -2.4635821  0.030093161   -3.8177932     1.354211   439061 
 4533000   0.90297481   -3.8183165   -3.8183165   -2.4638574  0.031022555   -3.8183165    1.3544591   439061 
 4534000   0.90238602   -3.8172823   -3.8172823   -2.4637063  0.031854031   -3.8172823    1.3535759   439061 
 4535000   0.90224295   -3.8159006   -3.8159006   -2.4625393   0.03362279   -3.8159006    1.3533613   439061 
 4536000   0.90153914   -3.8148779   -3.8148779   -2.4625723  0.033976163   -3.8148779    1.3523056   439061 
 4537000   0.90248571   -3.8171293   -3.8171293   -2.4634038  0.031889499   -3.8171293    1.3537255   439061 
 4538000   0.90229694   -3.8165229   -3.8165229   -2.4630806  0.032458251   -3.8165229    1.3534423   439061 
 4539000   0.90158116    -3.814726    -3.814726   -2.4623574  0.035690204    -3.814726    1.3523687   439061 
 4540000   0.90363753   -3.8173517   -3.8173517   -2.4618985  0.035160866   -3.8173517    1.3554532   439061 
 4541000   0.90384003   -3.8183564   -3.8183564   -2.4625994  0.032653204   -3.8183564     1.355757   439061 
 4542000   0.90242133   -3.8173986   -3.8173986   -2.4637697  0.033752059   -3.8173986    1.3536289   439061 
 4543000   0.90471737   -3.8183237   -3.8183237   -2.4612507  0.033971054   -3.8183237     1.357073   439061 
 4544000   0.90351175   -3.8160111   -3.8160111   -2.4607466  0.040197602   -3.8160111    1.3552645   439061 
 4545000   0.90375202   -3.8165315   -3.8165315   -2.4609065   0.03534928   -3.8165315    1.3556249   439061 
 4546000    0.9030266   -3.8153802   -3.8153802   -2.4608434  0.037154473   -3.8153802    1.3545368   439061 
 4547000   0.90330417   -3.8164462   -3.8164462    -2.461493   0.02902725   -3.8164462    1.3549532   439061 
 4548000   0.90182799   -3.8136521   -3.8136521   -2.4609132  0.031112415   -3.8136521    1.3527389   439061 
 4549000   0.90217312   -3.8130761   -3.8130761   -2.4598195  0.037190196   -3.8130761    1.3532566   439061 
 4550000   0.90346432     -3.81367     -3.81367   -2.4584766  0.038152802     -3.81367    1.3551934   439061 
 4551000   0.90540322   -3.8159707   -3.8159707    -2.457869  0.033917116   -3.8159707    1.3581017   439061 
 4552000   0.90390642   -3.8152929   -3.8152929   -2.4594363  0.038563327   -3.8152929    1.3558565   439061 
 4553000   0.90453061   -3.8164833   -3.8164833   -2.4596905  0.036661412   -3.8164833    1.3567928   439061 
 4554000   0.90263512   -3.8137674   -3.8137674   -2.4598178  0.033494472   -3.8137674    1.3539496   439061 
 4555000   0.90306441   -3.8142621   -3.8142621   -2.4596685  0.028984372   -3.8142621    1.3545935   439061 
 4556000   0.90158306   -3.8122973   -3.8122973   -2.4599257  0.033954773   -3.8122973    1.3523715   439061 
 4557000   0.90254411   -3.8135538   -3.8135538   -2.4597407  0.030436513   -3.8135538    1.3538131   439061 
 4558000   0.90166376   -3.8127153   -3.8127153   -2.4602228  0.036692657   -3.8127153    1.3524926   439061 
 4559000   0.90203208   -3.8138097   -3.8138097   -2.4607647  0.034572189   -3.8138097     1.353045   439061 
 4560000    0.9027222    -3.814542    -3.814542   -2.4604618  0.037034024    -3.814542    1.3540802   439061 
 4561000   0.90381831   -3.8148587   -3.8148587   -2.4591343  0.037265128   -3.8148587    1.3557244   439061 
 4562000    0.9030263   -3.8142258   -3.8142258   -2.4596895  0.035806128   -3.8142258    1.3545364   439061 
 4563000   0.90335988   -3.8138885   -3.8138885   -2.4588518  0.038242712   -3.8138885    1.3550367   439061 
 4564000     0.903306   -3.8147592   -3.8147592   -2.4598033  0.034003033   -3.8147592    1.3549559   439061 
 4565000   0.90206697   -3.8134621   -3.8134621   -2.4603648  0.037234642   -3.8134621    1.3530974   439061 
 4566000   0.90310465   -3.8159707   -3.8159707   -2.4613168  0.032467421   -3.8159707    1.3546539   439061 
 4567000   0.90319888   -3.8164458   -3.8164458   -2.4616505  0.031905885   -3.8164458    1.3547952   439061 
 4568000   0.90206787   -3.8152331   -3.8152331   -2.4621343  0.032283282   -3.8152331    1.3530987   439061 
 4569000   0.90280098   -3.8162539   -3.8162539   -2.4620555  0.031431314   -3.8162539    1.3541984   439061 
 4570000   0.90359444   -3.8162545   -3.8162545    -2.460866  0.035701075   -3.8162545    1.3553886   439061 
 4571000   0.90265122   -3.8130188   -3.8130188   -2.4590451    0.0376046   -3.8130188    1.3539737   439061 
 4572000   0.90448334   -3.8163566   -3.8163566   -2.4596346  0.037276765   -3.8163566    1.3567219   439061 
 4573000   0.90422188   -3.8151897   -3.8151897     -2.45886  0.037850253   -3.8151897    1.3563297   439061 
 4574000   0.90433417   -3.8162228   -3.8162228   -2.4597246  0.039421181   -3.8162228    1.3564982   439061 
 4575000   0.90475382   -3.8181797   -3.8181797    -2.461052  0.038901884   -3.8181797    1.3571276   439061 
 4576000    0.9020178   -3.8151249   -3.8151249   -2.4621012  0.034635568   -3.8151249    1.3530236   439061 
 4577000   0.90244601   -3.8148334   -3.8148334   -2.4611675  0.029993782   -3.8148334    1.3536659   439061 
 4578000   0.90179749    -3.813989    -3.813989   -2.4612958  0.029425698    -3.813989    1.3526932   439061 
 4579000   0.90241648   -3.8154313   -3.8154313   -2.4618097  0.028153395   -3.8154313    1.3536216   439061 
 4580000   0.90117279   -3.8142823   -3.8142823   -2.4625262  0.033765212   -3.8142823    1.3517561   439061 
 4581000   0.90117447   -3.8139484   -3.8139484   -2.4621898  0.030292628   -3.8139484    1.3517586   439061 
 4582000   0.90364655    -3.815971    -3.815971   -2.4605042  0.037906791    -3.815971    1.3554667   439061 
 4583000   0.90374999   -3.8156477   -3.8156477   -2.4600258  0.036802283   -3.8156477    1.3556219   439061 
 4584000   0.90406626   -3.8172318   -3.8172318   -2.4611355  0.037013934   -3.8172318    1.3560963   439061 
 4585000    0.9032487   -3.8163506   -3.8163506   -2.4614806  0.034150225   -3.8163506      1.35487   439061 
 4586000   0.90285372   -3.8173206   -3.8173206   -2.4630431  0.034987499   -3.8173206    1.3542775   439061 
 4587000   0.90293961   -3.8175239   -3.8175239   -2.4631176  0.031710569   -3.8175239    1.3544063   439061 
 4588000   0.90295179   -3.8165046   -3.8165046     -2.46208  0.033478206   -3.8165046    1.3544246   439061 
 4589000    0.9027834   -3.8168532   -3.8168532   -2.4626812  0.032319955   -3.8168532     1.354172   439061 
 4590000   0.90209211   -3.8154257   -3.8154257   -2.4622906  0.036771801   -3.8154257    1.3531351   439061 
 4591000   0.90417747   -3.8183306   -3.8183306   -2.4620675  0.031272516   -3.8183306    1.3562631   439061 
 4592000   0.90395486    -3.816858    -3.816858   -2.4609288  0.031599937    -3.816858    1.3559292   439061 
 4593000   0.90418196   -3.8167136   -3.8167136   -2.4604437  0.031629481   -3.8167136    1.3562698   439061 
 4594000   0.90149992   -3.8147724   -3.8147724   -2.4625256  0.038873769   -3.8147724    1.3522468   439061 
 4595000   0.90490341   -3.8192641   -3.8192641   -2.4619121  0.031461581   -3.8192641     1.357352   439061 
 4596000   0.90336051   -3.8163593   -3.8163593   -2.4613216  0.030028063   -3.8163593    1.3550377   439061 
 4597000   0.90254872   -3.8153565   -3.8153565   -2.4615365  0.033964308   -3.8153565      1.35382   439061 
 4598000   0.90184747   -3.8151995   -3.8151995   -2.4624314  0.032512229   -3.8151995    1.3527681   439061 
 4599000   0.90141593   -3.8148019   -3.8148019    -2.462681  0.039719381   -3.8148019    1.3521208   439061 
 4600000   0.90228897    -3.817381    -3.817381   -2.4639507  0.031693264    -3.817381    1.3534304   439061 
 4601000   0.90279987   -3.8175697   -3.8175697   -2.4633729  0.032333159   -3.8175697    1.3541967   439061 
 4602000   0.90315146   -3.8177812   -3.8177812   -2.4630571  0.039599434   -3.8177812    1.3547241   439061 
 4603000   0.90286227   -3.8160511   -3.8160511   -2.4617607  0.037988531   -3.8160511    1.3542903   439061 
 4604000    0.9049062   -3.8187547   -3.8187547   -2.4613985  0.029495899   -3.8187547    1.3573562   439061 
 4605000   0.90383018    -3.818036    -3.818036   -2.4622939  0.033090623    -3.818036    1.3557422   439061 
 4606000    0.9032449    -3.817094    -3.817094   -2.4622298  0.035605279    -3.817094    1.3548643   439061 
 4607000   0.90297271   -3.8181487   -3.8181487   -2.4636927  0.036847352   -3.8181487     1.354456   439061 
 4608000   0.90181362   -3.8156155   -3.8156155   -2.4628981  0.043418804   -3.8156155    1.3527174   439061 
 4609000   0.90233253   -3.8170601   -3.8170601   -2.4635644  0.033549923   -3.8170601    1.3534957   439061 
 4610000   0.90141815   -3.8156319   -3.8156319   -2.4635078   0.03419665   -3.8156319    1.3521241   439061 
 4611000   0.90191898   -3.8159619   -3.8159619   -2.4630865  0.033729245   -3.8159619    1.3528754   439061 
 4612000   0.90139767   -3.8150717   -3.8150717   -2.4629783  0.036240311   -3.8150717    1.3520934   439061 
 4613000    0.9034386    -3.818625    -3.818625   -2.4634702  0.039967413    -3.818625    1.3551548   439061 
 4614000   0.90388764   -3.8193359   -3.8193359   -2.4635075  0.030760336   -3.8193359    1.3558284   439061 
 4615000   0.90331261   -3.8174884   -3.8174884   -2.4625226  0.032039779   -3.8174884    1.3549658   439061 
 4616000   0.90291187   -3.8167337   -3.8167337    -2.462369  0.031723847   -3.8167337    1.3543647   439061 
 4617000   0.90208211   -3.8165692   -3.8165692   -2.4634491  0.034226116   -3.8165692    1.3531201   439061 
 4618000   0.90301283   -3.8164999   -3.8164999   -2.4619837  0.033059789   -3.8164999    1.3545162   439061 
 4619000   0.90227872   -3.8174093   -3.8174093   -2.4639943  0.030291654   -3.8174093     1.353415   439061 
 4620000   0.90210007    -3.817407    -3.817407     -2.46426  0.033924524    -3.817407     1.353147   439061 
 4621000   0.90220473   -3.8171448   -3.8171448   -2.4638408  0.033719201   -3.8171448     1.353304   439061 
 4622000   0.90231513   -3.8155625   -3.8155625   -2.4620929  0.036669449   -3.8155625    1.3534696   439061 
 4623000   0.90329375   -3.8169626   -3.8169626    -2.462025  0.034591264   -3.8169626    1.3549375   439061 
 4624000   0.90205151   -3.8163054   -3.8163054   -2.4632312  0.034537904   -3.8163054    1.3530742   439061 
 4625000   0.90415114    -3.817601    -3.817601   -2.4613774  0.031782524    -3.817601    1.3562236   439061 
 4626000   0.90298558    -3.815992    -3.815992   -2.4615167  0.038450767    -3.815992    1.3544753   439061 
 4627000   0.90383341   -3.8168282   -3.8168282   -2.4610811  0.040113195   -3.8168282     1.355747   439061 
 4628000   0.90302888   -3.8162624   -3.8162624   -2.4617221  0.035554654   -3.8162624    1.3545402   439061 
 4629000   0.90154778   -3.8141023   -3.8141023   -2.4617837  0.035591768   -3.8141023    1.3523186   439061 
 4630000   0.90331221   -3.8171525   -3.8171525   -2.4621873  0.029622969   -3.8171525    1.3549652   439061 
 4631000   0.90370009   -3.8158143   -3.8158143   -2.4602672  0.036371096   -3.8158143     1.355547   439061 
 4632000   0.90283541   -3.8173426   -3.8173426   -2.4630926  0.026804995   -3.8173426      1.35425   439061 
 4633000   0.90198937   -3.8155722   -3.8155722   -2.4625913  0.033937202   -3.8155722     1.352981   439061 
 4634000   0.90226127   -3.8155106   -3.8155106   -2.4621217  0.030766207   -3.8155106    1.3533888   439061 
 4635000    0.9020014    -3.815978    -3.815978    -2.462979  0.027006958    -3.815978     1.352999   439061 
 4636000     0.902554   -3.8154797   -3.8154797   -2.4616517  0.032810706   -3.8154797    1.3538279   439061 
 4637000    0.9028239   -3.8152763   -3.8152763   -2.4610435  0.035398836   -3.8152763    1.3542328   439061 
 4638000    0.9045818   -3.8167894   -3.8167894   -2.4599198  0.033812346   -3.8167894    1.3568696   439061 
 4639000   0.90326862   -3.8144444   -3.8144444   -2.4595446  0.034116914   -3.8144444    1.3548999   439061 
 4640000   0.90320152   -3.8144054   -3.8144054   -2.4596062  0.029902729   -3.8144054    1.3547992   439061 
 4641000   0.90384235   -3.8160777   -3.8160777   -2.4603173  0.035569316   -3.8160777    1.3557604   439061 
 4642000   0.90396723   -3.8162326   -3.8162326   -2.4602849  0.030387534   -3.8162326    1.3559478   439061 
 4643000   0.90270837   -3.8154322   -3.8154322   -2.4613728  0.034503247   -3.8154322    1.3540595   439061 
 4644000   0.90198858   -3.8148915   -3.8148915   -2.4619117  0.034268524   -3.8148915    1.3529798   439061 
 4645000   0.90128534    -3.814221    -3.814221   -2.4622961  0.035811186    -3.814221    1.3519249   439061 
 4646000   0.90140292    -3.814971    -3.814971   -2.4628697  0.035067848    -3.814971    1.3521013   439061 
 4647000   0.90244642   -3.8161543   -3.8161543   -2.4624878  0.032169723   -3.8161543    1.3536665   439061 
 4648000    0.9034928   -3.8170102   -3.8170102   -2.4617741  0.034727999   -3.8170102    1.3552361   439061 
 4649000   0.90266871   -3.8155014   -3.8155014   -2.4615014  0.038860763   -3.8155014        1.354   439061 
 4650000    0.9035217    -3.817699    -3.817699   -2.4624196  0.033896908    -3.817699    1.3552795   439061 
 4651000   0.90285986   -3.8186635   -3.8186635   -2.4643767  0.036720378   -3.8186635    1.3542867   439061 
 4652000   0.90277219   -3.8189694   -3.8189694   -2.4648142  0.036999975   -3.8189694    1.3541552   439061 
 4653000   0.90224322    -3.819137    -3.819137   -2.4657753   0.03384369    -3.819137    1.3533617   439061 
 4654000   0.90284625   -3.8194692   -3.8194692   -2.4652029  0.033741994   -3.8194692    1.3542663   439061 
 4655000   0.90197053   -3.8183808   -3.8183808   -2.4654281  0.040200293   -3.8183808    1.3529527   439061 
 4656000   0.90312368   -3.8203952   -3.8203952   -2.4657127  0.035747632   -3.8203952    1.3546824   439061 
 4657000   0.90357205   -3.8223777   -3.8223777   -2.4670227   0.03757361   -3.8223777     1.355355   439061 
 4658000   0.90323569   -3.8210041   -3.8210041   -2.4661537  0.039122192   -3.8210041    1.3548505   439061 
 4659000   0.90439514   -3.8221213   -3.8221213   -2.4655317  0.037490674   -3.8221213    1.3565896   439061 
 4660000   0.90355562   -3.8216713   -3.8216713    -2.466341   0.03508935   -3.8216713    1.3553303   439061 
 4661000   0.90223566   -3.8208997   -3.8208997   -2.4675493  0.031956576   -3.8208997    1.3533504   439061 
 4662000   0.90206943   -3.8186267   -3.8186267   -2.4655257   0.03675917   -3.8186267    1.3531011   439061 
 4663000   0.90199455   -3.8210404   -3.8210404   -2.4680516  0.032357709   -3.8210404    1.3529887   439061 
 4664000   0.90049263   -3.8190979   -3.8190979   -2.4683621  0.032522284   -3.8190979    1.3507359   439061 
 4665000   0.90166448   -3.8197505   -3.8197505   -2.4672569  0.030293151   -3.8197505    1.3524936   439061 
 4666000   0.90167253   -3.8194566   -3.8194566   -2.4669509  0.035078052   -3.8194566    1.3525057   439061 
 4667000   0.90111927   -3.8183478   -3.8183478    -2.466672  0.034910537   -3.8183478    1.3516758   439061 
 4668000   0.90112437   -3.8193406   -3.8193406   -2.4676571  0.031457416   -3.8193406    1.3516835   439061 
 4669000   0.90133271   -3.8202753   -3.8202753   -2.4682793  0.033362062   -3.8202753     1.351996   439061 
 4670000   0.90152923   -3.8201913   -3.8201913   -2.4679005  0.034634079   -3.8201913    1.3522908   439061 
 4671000    0.9008283   -3.8191106   -3.8191106   -2.4678713  0.033934995   -3.8191106    1.3512394   439061 
 4672000   0.90051596   -3.8190202   -3.8190202   -2.4682493  0.033902208   -3.8190202    1.3507709   439061 
 4673000   0.90079565   -3.8191554   -3.8191554   -2.4679651  0.030278559   -3.8191554    1.3511904   439061 
 4674000   0.90151003   -3.8198106   -3.8198106   -2.4675486  0.037668321   -3.8198106     1.352262   439061 
 4675000   0.90209726   -3.8197754   -3.8197754   -2.4666325  0.032043511   -3.8197754    1.3531428   439061 
 4676000   0.90309943   -3.8214177   -3.8214177   -2.4667716  0.035892069   -3.8214177    1.3546461   439061 
 4677000   0.90310499   -3.8217266   -3.8217266   -2.4670722  0.038086786   -3.8217266    1.3546544   439061 
 4678000   0.90352234   -3.8218429   -3.8218429   -2.4665625  0.035537314   -3.8218429    1.3552804   439061 
 4679000   0.90429625   -3.8241818   -3.8241818   -2.4677405  0.034402138   -3.8241818    1.3564413   439061 
 4680000    0.9030159   -3.8219864   -3.8219864   -2.4674656  0.044223004   -3.8219864    1.3545208   439061 
 4681000    0.9019384   -3.8224335   -3.8224335    -2.469529  0.033141547   -3.8224335    1.3529045   439061 
 4682000   0.90175582   -3.8211719   -3.8211719   -2.4685412  0.032894187   -3.8211719    1.3526306   439061 
 4683000   0.90285012   -3.8229891   -3.8229891    -2.468717  0.031943046   -3.8229891    1.3542721   439061 
 4684000   0.90175597    -3.821723    -3.821723   -2.4690922  0.040776599    -3.821723    1.3526309   439061 
 4685000   0.90367824   -3.8236557   -3.8236557   -2.4681415  0.034777112   -3.8236557    1.3555143   439061 
 4686000     0.901749   -3.8210436   -3.8210436   -2.4684231  0.038411664   -3.8210436    1.3526204   439061 
 4687000   0.90209815   -3.8206373   -3.8206373   -2.4674931  0.037640114   -3.8206373    1.3531441   439061 
 4688000   0.90163397   -3.8187521   -3.8187521   -2.4663042  0.035489816   -3.8187521    1.3524479   439061 
 4689000   0.90236511   -3.8184233   -3.8184233   -2.4648787  0.040208816   -3.8184233    1.3535446   439061 
 4690000   0.90196989   -3.8185259   -3.8185259   -2.4655742  0.032735557   -3.8185259    1.3529517   439061 
 4691000   0.90299782   -3.8196825   -3.8196825   -2.4651889  0.035939764   -3.8196825    1.3544936   439061 
 4692000   0.90240551   -3.8185346   -3.8185346   -2.4649295  0.035754667   -3.8185346    1.3536052   439061 
 4693000   0.90036515   -3.8166685   -3.8166685   -2.4661238  0.035357507   -3.8166685    1.3505446   439061 
 4694000   0.90214236   -3.8180916   -3.8180916   -2.4648811  0.035544863   -3.8180916    1.3532105   439061 
 4695000   0.90196132   -3.8183519   -3.8183519    -2.465413  0.033727652   -3.8183519    1.3529389   439061 
 4696000   0.90095116      -3.8172      -3.8172   -2.4657763  0.030580392      -3.8172    1.3514237   439061 
 4697000   0.90208632   -3.8189511   -3.8189511   -2.4658247  0.026067155   -3.8189511    1.3531264   439061 
 4698000   0.90138266    -3.816753    -3.816753   -2.4646821  0.033845608    -3.816753    1.3520709   439061 
 4699000   0.90253147   -3.8171663   -3.8171663   -2.4633722   0.03008596   -3.8171663    1.3537941   439061 
 4700000   0.90281427    -3.817859    -3.817859   -2.4636407  0.031932767    -3.817859    1.3542183   439061 
 4701000   0.90229637    -3.816735    -3.816735   -2.4632935  0.037394513    -3.816735    1.3534415   439061 
 4702000   0.90321789   -3.8175737   -3.8175737   -2.4627499    0.0399799   -3.8175737    1.3548237   439061 
 4703000   0.90193674   -3.8173744   -3.8173744   -2.4644724  0.036104005   -3.8173744     1.352902   439061 
 4704000    0.9039455    -3.819594    -3.819594   -2.4636789  0.032131007    -3.819594    1.3559152   439061 
 4705000    0.9025302   -3.8174335   -3.8174335   -2.4636413  0.033359411   -3.8174335    1.3537922   439061 
 4706000   0.90381254   -3.8200144   -3.8200144   -2.4642987  0.032868285   -3.8200144    1.3557157   439061 
 4707000   0.90224826   -3.8175967   -3.8175967   -2.4642274  0.039360804   -3.8175967    1.3533693   439061 
 4708000   0.90267747   -3.8179321   -3.8179321    -2.463919  0.036626726   -3.8179321    1.3540131   439061 
 4709000   0.90353507   -3.8198709   -3.8198709   -2.4645714  0.034369694   -3.8198709    1.3552995   439061 
 4710000   0.90300475   -3.8203865   -3.8203865   -2.4658824  0.036863279   -3.8203865     1.354504   439061 
 4711000   0.90182548   -3.8183845   -3.8183845   -2.4656493   0.03474047   -3.8183845    1.3527351   439061 
 4712000      0.90396   -3.8205734   -3.8205734   -2.4646364  0.035817519   -3.8205734    1.3559369   439061 
 4713000   0.90395454   -3.8208565   -3.8208565   -2.4649277  0.030622247   -3.8208565    1.3559287   439061 
 4714000   0.90390115   -3.8200715   -3.8200715   -2.4642229  0.031222308   -3.8200715    1.3558486   439061 
 4715000    0.9038139   -3.8216376   -3.8216376   -2.4659199  0.026874868   -3.8216376    1.3557178   439061 
 4716000   0.90285824   -3.8196583   -3.8196583   -2.4653741  0.034881483   -3.8196583    1.3542843   439061 
 4717000   0.90353925   -3.8208686   -3.8208686   -2.4655629   0.03751258   -3.8208686    1.3553058   439061 
 4718000   0.90325331   -3.8190252   -3.8190252   -2.4641483  0.032840402   -3.8190252    1.3548769   439061 
 4719000   0.90203427   -3.8175279   -3.8175279   -2.4644796  0.034445857   -3.8175279    1.3530483   439061 
 4720000   0.90314732   -3.8177932   -3.8177932   -2.4630754  0.041846236   -3.8177932    1.3547179   439061 
 4721000   0.90443493   -3.8206394   -3.8206394   -2.4639901  0.030313008   -3.8206394    1.3566493   439061 
 4722000   0.90454694   -3.8213227   -3.8213227   -2.4645053  0.034313215   -3.8213227    1.3568173   439061 
 4723000   0.90333087   -3.8189012   -3.8189012    -2.463908  0.039309151   -3.8189012    1.3549932   439061 
 4724000   0.90231308   -3.8180637   -3.8180637   -2.4645972  0.028096673   -3.8180637    1.3534665   439061 
 4725000   0.90271522   -3.8180654   -3.8180654   -2.4639957  0.032328664   -3.8180654    1.3540697   439061 
 4726000   0.90227789   -3.8175109   -3.8175109   -2.4640971  0.039555504   -3.8175109    1.3534138   439061 
 4727000   0.90298127   -3.8199083   -3.8199083   -2.4654395  0.032647918   -3.8199083    1.3544688   439061 
 4728000   0.90289358   -3.8193869   -3.8193869   -2.4650496  0.033148467   -3.8193869    1.3543373   439061 
 4729000   0.90168708   -3.8171828   -3.8171828   -2.4646553  0.037455026   -3.8171828    1.3525275   439061 
 4730000   0.90242019   -3.8166562   -3.8166562    -2.463029  0.036431678   -3.8166562    1.3536272   439061 
 4731000   0.90375207   -3.8189038   -3.8189038   -2.4632788  0.034859474   -3.8189038     1.355625   439061 
 4732000   0.90121626    -3.817001    -3.817001   -2.4651797  0.038149971    -3.817001    1.3518213   439061 
 4733000   0.90119329   -3.8165276   -3.8165276   -2.4647407  0.033961135   -3.8165276    1.3517869   439061 
 4734000   0.90312919   -3.8190932   -3.8190932   -2.4644025  0.032062735   -3.8190932    1.3546907   439061 
 4735000   0.90359766   -3.8204689   -3.8204689   -2.4650755  0.033730185   -3.8204689    1.3553934   439061 
 4736000   0.90269117   -3.8194762   -3.8194762   -2.4654425  0.033617659   -3.8194762    1.3540337   439061 
 4737000   0.90190776   -3.8171333   -3.8171333   -2.4642747  0.037985356   -3.8171333    1.3528586   439061 
 4738000   0.90356493   -3.8178997   -3.8178997   -2.4625554  0.036045825   -3.8178997    1.3553443   439061 
 4739000   0.90321204    -3.818258    -3.818258    -2.463443  0.038180663    -3.818258     1.354815   439061 
 4740000   0.90322668   -3.8195777   -3.8195777   -2.4647408  0.032366939   -3.8195777    1.3548369   439061 
 4741000   0.90332094   -3.8197241   -3.8197241   -2.4647458  0.032126794   -3.8197241    1.3549783   439061 
 4742000   0.90464581   -3.8210983   -3.8210983   -2.4641326  0.033308538   -3.8210983    1.3569656   439061 
 4743000   0.90250515    -3.817981    -3.817981   -2.4642264   0.03645902    -3.817981    1.3537546   439061 
 4744000   0.90274621   -3.8189727   -3.8189727   -2.4648564  0.032602826   -3.8189727    1.3541162   439061 
 4745000   0.90055309   -3.8159841   -3.8159841   -2.4651576  0.037939492   -3.8159841    1.3508266   439061 
 4746000   0.90131593   -3.8167878   -3.8167878    -2.464817  0.037488592   -3.8167878    1.3519708   439061 
 4747000   0.90196517   -3.8195935   -3.8195935   -2.4666488  0.033517389   -3.8195935    1.3529447   439061 
 4748000   0.90394002   -3.8212526   -3.8212526   -2.4653457   0.02845343   -3.8212526    1.3559069   439061 
 4749000   0.90206341   -3.8167584   -3.8167584   -2.4636664  0.038384578   -3.8167584     1.353092   439061 
 4750000    0.9020211   -3.8177904   -3.8177904   -2.4647618  0.036569378   -3.8177904    1.3530286   439061 
 4751000   0.90330235   -3.8197723   -3.8197723   -2.4648218  0.036647039   -3.8197723    1.3549504   439061 
 4752000   0.90475669   -3.8204753   -3.8204753   -2.4633434  0.034631008   -3.8204753    1.3571319   439061 
 4753000    0.9020328   -3.8180041   -3.8180041    -2.464958  0.040864292   -3.8180041    1.3530461   439061 
 4754000   0.90433619   -3.8207343   -3.8207343   -2.4642331  0.035798837   -3.8207343    1.3565012   439061 
 4755000   0.90203273   -3.8185397   -3.8185397   -2.4654937  0.040148014   -3.8185397     1.353046   439061 
 4756000   0.90233113   -3.8209031   -3.8209031   -2.4674095  0.033187792   -3.8209031    1.3534936   439061 
 4757000   0.90134327   -3.8194692   -3.8194692   -2.4674573  0.037787511   -3.8194692    1.3520118   439061 
 4758000    0.9042348   -3.8221721   -3.8221721    -2.465823  0.031128292   -3.8221721    1.3563491   439061 
 4759000   0.90379841   -3.8208153   -3.8208153   -2.4651208  0.040930137   -3.8208153    1.3556945   439061 
 4760000   0.90313344   -3.8201022   -3.8201022   -2.4654051  0.035107233   -3.8201022    1.3546971   439061 
 4761000   0.90357142   -3.8198942   -3.8198942   -2.4645402  0.035757462   -3.8198942     1.355354   439061 
 4762000   0.90301858   -3.8199364   -3.8199364   -2.4654116  0.036166812   -3.8199364    1.3545248   439061 
 4763000   0.90319773   -3.8197619   -3.8197619   -2.4649684  0.035224594   -3.8197619    1.3547935   439061 
 4764000   0.90270522   -3.8195219   -3.8195219   -2.4654671    0.0354666   -3.8195219    1.3540548   439061 
 4765000   0.90164787    -3.817659    -3.817659   -2.4651902  0.035294283    -3.817659    1.3524687   439061 
 4766000   0.90167689   -3.8167485   -3.8167485   -2.4642363  0.031754006   -3.8167485    1.3525122   439061 
 4767000   0.90179433   -3.8187686   -3.8187686   -2.4660802  0.031519992   -3.8187686    1.3526884   439061 
 4768000   0.90310197   -3.8198103   -3.8198103   -2.4651604  0.025972244   -3.8198103    1.3546499   439061 
 4769000   0.90296513   -3.8195885   -3.8195885   -2.4651439   0.03082407   -3.8195885    1.3544446   439061 
 4770000   0.90358229   -3.8192961   -3.8192961   -2.4639257  0.031015249   -3.8192961    1.3553704   439061 
 4771000   0.90300331   -3.8171648   -3.8171648   -2.4626629  0.033562835   -3.8171648    1.3545019   439061 
 4772000   0.90236383   -3.8180169   -3.8180169   -2.4644743  0.037911854   -3.8180169    1.3535427   439061 
 4773000   0.90411446   -3.8187568   -3.8187568   -2.4625882   0.03683885   -3.8187568    1.3561686   439061 
 4774000   0.90226978    -3.817253    -3.817253   -2.4638514  0.034070904    -3.817253    1.3534016   439061 
 4775000   0.90297541    -3.817859    -3.817859    -2.463399  0.033427083    -3.817859      1.35446   439061 
 4776000     0.902663     -3.81807     -3.81807   -2.4640786  0.033466423     -3.81807    1.3539914   439061 
 4777000   0.90306652   -3.8197847   -3.8197847    -2.465188  0.031849705   -3.8197847    1.3545967   439061 
 4778000   0.90262918   -3.8191951   -3.8191951   -2.4652544    0.0347242   -3.8191951    1.3539407   439061 
 4779000   0.90183333   -3.8187792   -3.8187792   -2.4660323  0.032812133   -3.8187792    1.3527469   439061 
 4780000   0.90257958   -3.8200665   -3.8200665   -2.4662002  0.030840528   -3.8200665    1.3538663   439061 
 4781000   0.90279508    -3.819126    -3.819126   -2.4649365  0.035693801    -3.819126    1.3541895   439061 
 4782000   0.90304592   -3.8190602   -3.8190602   -2.4644945  0.033992012   -3.8190602    1.3545658   439061 
 4783000   0.90202788   -3.8188181   -3.8188181   -2.4657793  0.039756594   -3.8188181    1.3530387   439061 
 4784000   0.90190083   -3.8177138   -3.8177138   -2.4648657  0.036753065   -3.8177138    1.3528482   439061 
 4785000   0.90265024   -3.8188987   -3.8188987   -2.4649264  0.035085926   -3.8188987    1.3539723   439061 
 4786000   0.90394258   -3.8196778   -3.8196778    -2.463767     0.036585   -3.8196778    1.3559108   439061 
 4787000   0.90283965   -3.8182521   -3.8182521   -2.4639957  0.038960831   -3.8182521    1.3542564   439061 
 4788000   0.90548507   -3.8217456   -3.8217456   -2.4635211  0.034341036   -3.8217456    1.3582245   439061 
 4789000   0.90397285   -3.8186789   -3.8186789   -2.4627227   0.03823295   -3.8186789    1.3559562   439061 
 4790000   0.90373251   -3.8182405   -3.8182405   -2.4626448  0.036522774   -3.8182405    1.3555957   439061 
 4791000   0.90431073   -3.8179377   -3.8179377   -2.4614747  0.036859657   -3.8179377     1.356463   439061 
 4792000   0.90440551   -3.8181583   -3.8181583   -2.4615531  0.034911342   -3.8181583    1.3566052   439061 
 4793000   0.90337086   -3.8176566   -3.8176566   -2.4626034  0.035341616   -3.8176566    1.3550532   439061 
 4794000   0.90205569   -3.8165295   -3.8165295    -2.463449    0.0301223   -3.8165295    1.3530805   439061 
 4795000   0.90087738   -3.8153405   -3.8153405   -2.4640275   0.03103433   -3.8153405     1.351313   439061 
 4796000   0.90204202   -3.8159738   -3.8159738   -2.4629139    0.0327247   -3.8159738    1.3530599   439061 
 4797000   0.90117814   -3.8140372   -3.8140372    -2.462273  0.039431778   -3.8140372    1.3517641   439061 
 4798000   0.90233401    -3.815856    -3.815856   -2.4623581  0.030419516    -3.815856    1.3534979   439061 
 4799000   0.90255459   -3.8173505   -3.8173505   -2.4635217  0.030270141   -3.8173505    1.3538288   439061 
 4800000   0.90120515   -3.8149581   -3.8149581   -2.4631535  0.034850597   -3.8149581    1.3518046   439061 
 4801000   0.90196146   -3.8168124   -3.8168124   -2.4638733  0.027438844   -3.8168124    1.3529391   439061 
 4802000   0.90251236   -3.8179482   -3.8179482   -2.4641828  0.031864317   -3.8179482    1.3537655   439061 
 4803000    0.9015002   -3.8156054   -3.8156054   -2.4633581  0.032123906   -3.8156054    1.3522472   439061 
 4804000    0.9031009   -3.8180456   -3.8180456   -2.4633973  0.031386165   -3.8180456    1.3546483   439061 
 4805000   0.90395212   -3.8195045   -3.8195045   -2.4635794  0.035019039   -3.8195045    1.3559251   439061 
 4806000   0.90405945   -3.8195497   -3.8195497   -2.4634636  0.032551918   -3.8195497    1.3560861   439061 
 4807000    0.9044011   -3.8206018   -3.8206018   -2.4640033  0.037889744   -3.8206018    1.3565986   439061 
 4808000   0.90392731   -3.8197009   -3.8197009    -2.463813   0.03434527   -3.8197009    1.3558879   439061 
 4809000    0.9017953   -3.8168891   -3.8168891   -2.4641993  0.038115779   -3.8168891    1.3526899   439061 
 4810000   0.90323534   -3.8191257   -3.8191257   -2.4642758  0.033307561   -3.8191257    1.3548499   439061 
 4811000   0.90143954   -3.8178185   -3.8178185   -2.4656623  0.036464441   -3.8178185    1.3521562   439061 
 4812000   0.90326721   -3.8211075   -3.8211075   -2.4662098  0.032518278   -3.8211075    1.3548977   439061 
 4813000   0.90225691   -3.8203154   -3.8203154   -2.4669331  0.032311249   -3.8203154    1.3533823   439061 
 4814000   0.90135947   -3.8185956   -3.8185956   -2.4665595  0.032714598   -3.8185956    1.3520361   439061 
 4815000   0.90237672   -3.8194429   -3.8194429   -2.4658809   0.03465022   -3.8194429     1.353562   439061 
 4816000   0.90097244   -3.8188709   -3.8188709   -2.4674154   0.03454118   -3.8188709    1.3514556   439061 
 4817000   0.90211545   -3.8209614   -3.8209614   -2.4677913  0.032001336   -3.8209614    1.3531701   439061 
 4818000   0.90182244   -3.8192953   -3.8192953   -2.4665647  0.033120025   -3.8192953    1.3527306   439061 
 4819000   0.90258517   -3.8203597   -3.8203597   -2.4664851  0.036907264   -3.8203597    1.3538747   439061 
 4820000   0.90251577   -3.8198137   -3.8198137   -2.4660432  0.039412163   -3.8198137    1.3537706   439061 
 4821000   0.90537119   -3.8224035   -3.8224035   -2.4643498   0.03889277   -3.8224035    1.3580537   439061 
 4822000   0.90324431   -3.8189078   -3.8189078   -2.4640444  0.043302943   -3.8189078    1.3548634   439061 
 4823000   0.90456228     -3.82132     -3.82132   -2.4644797  0.034593127     -3.82132    1.3568403   439061 
 4824000   0.90456635   -3.8207156   -3.8207156   -2.4638692  0.042812412   -3.8207156    1.3568464   439061 
 4825000   0.90415865   -3.8217155   -3.8217155   -2.4654806   0.04154295   -3.8217155    1.3562349   439061 
 4826000   0.90435294   -3.8215823   -3.8215823    -2.465056  0.033817873   -3.8215823    1.3565263   439061 
 4827000   0.90318853   -3.8190783   -3.8190783   -2.4642986  0.034632065   -3.8190783    1.3547797   439061 
 4828000   0.90273787   -3.8186756   -3.8186756   -2.4645719  0.033446388   -3.8186756    1.3541037   439061 
 4829000     0.903593    -3.819537    -3.819537   -2.4641505  0.029817205    -3.819537    1.3553864   439061 
 4830000   0.90145261   -3.8159262   -3.8159262   -2.4637504  0.030454202   -3.8159262    1.3521758   439061 
 4831000    0.9020205   -3.8168362   -3.8168362   -2.4638086  0.026547396   -3.8168362    1.3530277   439061 
 4832000   0.90184095   -3.8150111   -3.8150111   -2.4622527  0.034379474   -3.8150111    1.3527584   439061 
 4833000   0.90282302   -3.8171255   -3.8171255   -2.4628941  0.032565458   -3.8171255    1.3542314   439061 
 4834000   0.90206393   -3.8148564   -3.8148564   -2.4617636  0.035274041   -3.8148564    1.3530928   439061 
 4835000   0.90247199   -3.8152607   -3.8152607   -2.4615558  0.034600365   -3.8152607    1.3537049   439061 
 4836000   0.90437622   -3.8170327   -3.8170327   -2.4604714  0.030041776   -3.8170327    1.3565612   439061 
 4837000   0.90273149   -3.8144398   -3.8144398   -2.4603456  0.036831016   -3.8144398    1.3540942   439061 
 4838000   0.90185703   -3.8137729   -3.8137729   -2.4609904  0.036110504   -3.8137729    1.3527825   439061 
 4839000   0.90339476    -3.816463    -3.816463   -2.4613739  0.032249336    -3.816463     1.355089   439061 
 4840000   0.90369709   -3.8178641   -3.8178641   -2.4623216  0.032289847   -3.8178641    1.3555426   439061 
 4841000   0.90250424    -3.816211    -3.816211   -2.4624577  0.038488464    -3.816211    1.3537533   439061 
 4842000   0.90281152   -3.8163401   -3.8163401   -2.4621259   0.03190705   -3.8163401    1.3542142   439061 
 4843000   0.90232067   -3.8172737   -3.8172737   -2.4637958  0.031143888   -3.8172737    1.3534779   439061 
 4844000   0.90263707   -3.8172634   -3.8172634   -2.4633109  0.031259656   -3.8172634    1.3539525   439061 
 4845000    0.9016304    -3.815787    -3.815787   -2.4633444  0.032910838    -3.815787    1.3524425   439061 
 4846000   0.90333567   -3.8187613   -3.8187613   -2.4637608  0.031477208   -3.8187613    1.3550004   439061 
 4847000    0.9033844   -3.8182952   -3.8182952   -2.4632217  0.037314412   -3.8182952    1.3550735   439061 
 4848000   0.90318202   -3.8190969   -3.8190969   -2.4643269   0.03508491   -3.8190969    1.3547699   439061 
 4849000   0.90216138    -3.817242    -3.817242    -2.464003  0.033266807    -3.817242     1.353239   439061 
 4850000    0.9016675   -3.8168019   -3.8168019   -2.4643038  0.038108903   -3.8168019    1.3524982   439061 
 4851000    0.9028432   -3.8175818   -3.8175818   -2.4633201  0.041090269   -3.8175818    1.3542617   439061 
 4852000   0.90283492   -3.8185347   -3.8185347   -2.4642854   0.03698306   -3.8185347    1.3542493   439061 
 4853000   0.90220615   -3.8192024   -3.8192024   -2.4658963  0.035630687   -3.8192024    1.3533061   439061 
 4854000   0.90178693   -3.8185579   -3.8185579   -2.4658805  0.034457588   -3.8185579    1.3526773   439061 
 4855000     0.902683   -3.8185964   -3.8185964    -2.464575  0.037438941   -3.8185964    1.3540214   439061 
 4856000    0.9034994   -3.8189743   -3.8189743   -2.4637283  0.038822071   -3.8189743     1.355246   439061 
 4857000   0.90416528   -3.8194887   -3.8194887   -2.4632439  0.033755156   -3.8194887    1.3562448   439061 
 4858000   0.90295447   -3.8178029   -3.8178029   -2.4633743  0.034905361   -3.8178029    1.3544286   439061 
 4859000   0.90247471   -3.8177416   -3.8177416   -2.4640326  0.033010256   -3.8177416     1.353709   439061 
 4860000   0.90224596    -3.818028    -3.818028   -2.4646622  0.030492143    -3.818028    1.3533659   439061 
 4861000    0.9030279   -3.8195608   -3.8195608   -2.4650221  0.030398562   -3.8195608    1.3545388   439061 
 4862000   0.90175395   -3.8181621   -3.8181621   -2.4655343  0.031611728   -3.8181621    1.3526278   439061 
 4863000   0.90093195   -3.8166857   -3.8166857   -2.4652909  0.032191658   -3.8166857    1.3513949   439061 
 4864000   0.90142014   -3.8176893   -3.8176893   -2.4655621  0.034470872   -3.8176893    1.3521271   439061 
 4865000   0.90326495   -3.8204374   -3.8204374   -2.4655431  0.037448776   -3.8204374    1.3548943   439061 
 4866000   0.90294644   -3.8197633   -3.8197633   -2.4653467  0.035869593   -3.8197633    1.3544166   439061 
 4867000   0.90310551   -3.8205523   -3.8205523   -2.4658971  0.036680054   -3.8205523    1.3546552   439061 
 4868000   0.90058695   -3.8185185   -3.8185185   -2.4676412  0.030089753   -3.8185185    1.3508773   439061 
 4869000   0.90174412   -3.8193431   -3.8193431     -2.46673  0.037950046   -3.8193431    1.3526131   439061 
 4870000   0.90157157   -3.8181563   -3.8181563    -2.465802  0.036405725   -3.8181563    1.3523543   439061 
 4871000   0.90233654    -3.820333    -3.820333   -2.4668312  0.031444685    -3.820333    1.3535017   439061 
 4872000   0.90227637   -3.8206678   -3.8206678   -2.4672563  0.034958854   -3.8206678    1.3534115   439061 
 4873000   0.90296537   -3.8224738   -3.8224738   -2.4680289  0.035774447   -3.8224738     1.354445   439061 
 4874000   0.90299443   -3.8222987   -3.8222987   -2.4678101  0.032420945   -3.8222987    1.3544886   439061 
 4875000   0.90432205    -3.824662    -3.824662   -2.4681821   0.03646516    -3.824662      1.35648   439061 
 4876000    0.9029118    -3.822335    -3.822335   -2.4679704  0.041597403    -3.822335    1.3543646   439061 
 4877000   0.90197966   -3.8202781   -3.8202781   -2.4673117   0.03531113   -3.8202781    1.3529664   439061 
 4878000   0.90293488   -3.8228197   -3.8228197   -2.4684205  0.038380819   -3.8228197    1.3543992   439061 
 4879000   0.90337826   -3.8236298   -3.8236298   -2.4685655  0.035447735   -3.8236298    1.3550643   439061 
 4880000   0.90072685   -3.8210386   -3.8210386   -2.4699514  0.039187197   -3.8210386    1.3510872   439061 
 4881000   0.90217823   -3.8225082   -3.8225082   -2.4692439  0.031623727   -3.8225082    1.3532643   439061 
 4882000   0.90098146   -3.8210267   -3.8210267   -2.4695576   0.03372819   -3.8210267    1.3514691   439061 
 4883000   0.90186725   -3.8218678   -3.8218678     -2.46907  0.036374878   -3.8218678    1.3527978   439061 
 4884000   0.90205915   -3.8209996   -3.8209996    -2.467914  0.037242526   -3.8209996    1.3530856   439061 
 4885000   0.90279931    -3.822211    -3.822211   -2.4680151  0.035163407    -3.822211    1.3541959   439061 
 4886000   0.90229939   -3.8190121   -3.8190121   -2.4655661  0.035513517   -3.8190121     1.353446   439061 
 4887000   0.90439704   -3.8208096   -3.8208096   -2.4642171  0.040517157   -3.8208096    1.3565925   439061 
 4888000   0.90333728    -3.819755    -3.819755   -2.4647522  0.037269684    -3.819755    1.3550028   439061 
 4889000   0.90315499   -3.8197664   -3.8197664    -2.465037  0.034318469   -3.8197664    1.3547294   439061 
 4890000   0.90248864   -3.8181374   -3.8181374   -2.4644075  0.036159744   -3.8181374    1.3537299   439061 
 4891000   0.90377772   -3.8189321   -3.8189321   -2.4632686  0.032962368   -3.8189321    1.3556635   439061 
 4892000   0.90305366   -3.8183516   -3.8183516   -2.4637742  0.036648849   -3.8183516    1.3545774   439061 
 4893000   0.90255254   -3.8171623   -3.8171623   -2.4633366  0.032772173   -3.8171623    1.3538257   439061 
 4894000   0.90195289   -3.8169956   -3.8169956   -2.4640694  0.033308657   -3.8169956    1.3529263   439061 
 4895000   0.90366503   -3.8183587   -3.8183587   -2.4628643  0.032950403   -3.8183587    1.3554945   439061 
 4896000   0.90248736   -3.8170601   -3.8170601   -2.4633321  0.029536833   -3.8170601     1.353728   439061 
 4897000   0.90242983   -3.8156694   -3.8156694   -2.4620278  0.035472873   -3.8156694    1.3536417   439061 
 4898000   0.90350663   -3.8177329   -3.8177329    -2.462476  0.034640581   -3.8177329    1.3552569   439061 
 4899000   0.90351264   -3.8187847   -3.8187847   -2.4635188  0.031560032   -3.8187847    1.3552659   439061 
 4900000   0.90298039   -3.8177353   -3.8177353   -2.4632678  0.032802573   -3.8177353    1.3544675   439061 
 4901000   0.90153415   -3.8164161   -3.8164161    -2.464118  0.031504168   -3.8164161    1.3522981   439061 
 4902000   0.90248478    -3.817373    -3.817373    -2.463649  0.025844343    -3.817373    1.3537241   439061 
 4903000   0.90197192   -3.8162407   -3.8162407   -2.4632859  0.031460819   -3.8162407    1.3529548   439061 
 4904000   0.90197312   -3.8169536   -3.8169536    -2.463997  0.031072273   -3.8169536    1.3529566   439061 
 4905000   0.90115184   -3.8182073   -3.8182073   -2.4664826  0.035018851   -3.8182073    1.3517247   439061 
 4906000   0.90307432   -3.8194199   -3.8194199   -2.4648115  0.033981515   -3.8194199    1.3546084   439061 
 4907000   0.90266955   -3.8184964   -3.8184964   -2.4644952  0.039274266   -3.8184964    1.3540012   439061 
 4908000   0.90336399   -3.8203657   -3.8203657   -2.4653228  0.030362494   -3.8203657    1.3550429   439061 
 4909000   0.90309457   -3.8193679   -3.8193679   -2.4647291  0.042508162   -3.8193679    1.3546388   439061 
 4910000   0.90260891   -3.8200013   -3.8200013    -2.466091   0.03576583   -3.8200013    1.3539103   439061 
 4911000   0.90132444   -3.8182773   -3.8182773   -2.4662938  0.036591296   -3.8182773    1.3519836   439061 
 4912000   0.90237464   -3.8205184   -3.8205184   -2.4669595  0.035438056   -3.8205184    1.3535589   439061 
 4913000   0.90263877   -3.8214078   -3.8214078   -2.4674527  0.034717666   -3.8214078    1.3539551   439061 
 4914000   0.90095087   -3.8192294   -3.8192294   -2.4678062  0.038113503   -3.8192294    1.3514232   439061 
 4915000   0.90325513   -3.8217663   -3.8217663   -2.4668867  0.031610506   -3.8217663    1.3548796   439061 
 4916000   0.90280314   -3.8201091   -3.8201091   -2.4659075  0.037491589   -3.8201091    1.3542016   439061 
 4917000   0.90370648   -3.8221133   -3.8221133   -2.4665566  0.030332846   -3.8221133    1.3555566   439061 
 4918000   0.90282544   -3.8202079   -3.8202079   -2.4659728  0.041122132   -3.8202079    1.3542351   439061 
 4919000   0.90233737    -3.818652    -3.818652    -2.465149  0.039084254    -3.818652     1.353503   439061 
 4920000   0.90098674   -3.8181192   -3.8181192   -2.4666422  0.034677311   -3.8181192     1.351477   439061 
 4921000   0.90228275   -3.8192435   -3.8192435   -2.4658225  0.032530036   -3.8192435     1.353421   439061 
 4922000   0.90353898    -3.820865    -3.820865   -2.4655596  0.031399984    -3.820865    1.3553054   439061 
 4923000   0.90130257   -3.8169328   -3.8169328    -2.464982  0.034652266   -3.8169328    1.3519508   439061 
 4924000   0.90182935   -3.8187877   -3.8187877   -2.4660467  0.034202792   -3.8187877     1.352741   439061 
 4925000   0.90109688   -3.8189735   -3.8189735   -2.4673312  0.030328062   -3.8189735    1.3516422   439061 
 4926000    0.9015194   -3.8182252   -3.8182252   -2.4659492  0.033710734   -3.8182252     1.352276   439061 
 4927000   0.90243086   -3.8190457   -3.8190457   -2.4654025  0.035154685   -3.8190457    1.3536432   439061 
 4928000   0.90189621   -3.8191007   -3.8191007   -2.4662594  0.028547332   -3.8191007    1.3528412   439061 
 4929000   0.90249689   -3.8196084   -3.8196084   -2.4658662  0.031186413   -3.8196084    1.3537422   439061 
 4930000    0.9012749   -3.8168541   -3.8168541   -2.4649449  0.037326188   -3.8168541    1.3519093   439061 
 4931000   0.90224441    -3.817098    -3.817098   -2.4637344  0.038551764    -3.817098    1.3533635   439061 
 4932000   0.90232992   -3.8181811   -3.8181811   -2.4646893  0.032563935   -3.8181811    1.3534918   439061 
 4933000   0.90369146   -3.8205898   -3.8205898   -2.4650557  0.035053891   -3.8205898    1.3555341   439061 
 4934000   0.90241343   -3.8174211   -3.8174211   -2.4638041  0.037249761   -3.8174211    1.3536171   439061 
 4935000   0.90274498   -3.8192462   -3.8192462   -2.4651318  0.031732096   -3.8192462    1.3541144   439061 
 4936000   0.90275402   -3.8182758   -3.8182758   -2.4641478  0.036910689   -3.8182758     1.354128   439061 
 4937000   0.90316908   -3.8190606   -3.8190606     -2.46431  0.033279081   -3.8190606    1.3547505   439061 
 4938000   0.90301872   -3.8197943   -3.8197943   -2.4652693  0.029374589   -3.8197943     1.354525   439061 
 4939000   0.90153998   -3.8178612   -3.8178612   -2.4655543  0.036003668   -3.8178612    1.3523069   439061 
 4940000   0.90325348   -3.8192067   -3.8192067   -2.4643295  0.036036325   -3.8192067    1.3548771   439061 
 4941000   0.90274044    -3.819878    -3.819878   -2.4657704  0.033413153    -3.819878    1.3541076   439061 
 4942000   0.90192528   -3.8199783   -3.8199783   -2.4670935  0.035008342   -3.8199783    1.3528848   439061 
 4943000    0.9014933   -3.8168355   -3.8168355   -2.4645987  0.034097274   -3.8168355    1.3522369   439061 
 4944000   0.90123879   -3.8165259   -3.8165259   -2.4646708  0.036122394   -3.8165259    1.3518551   439061 
 4945000    0.9015128   -3.8169305   -3.8169305   -2.4646643  0.038013266   -3.8169305    1.3522661   439061 
 4946000   0.90230778    -3.819319    -3.819319   -2.4658604  0.033219947    -3.819319    1.3534586   439061 
 4947000   0.90291012   -3.8189915   -3.8189915   -2.4646295  0.031816493   -3.8189915    1.3543621   439061 
 4948000   0.90245772    -3.817901    -3.817901   -2.4642175  0.036305987    -3.817901    1.3536835   439061 
 4949000   0.90104322   -3.8174724   -3.8174724   -2.4659107   0.03677371   -3.8174724    1.3515618   439061 
 4950000   0.89948554   -3.8157034   -3.8157034   -2.4664782  0.031372497   -3.8157034    1.3492252   439061 
 4951000   0.90127584   -3.8180121   -3.8180121   -2.4661014  0.027465085   -3.8180121    1.3519107   439061 
 4952000   0.90074012   -3.8167137   -3.8167137   -2.4656066  0.028320212   -3.8167137    1.3511071   439061 
 4953000   0.90129617     -3.81763     -3.81763   -2.4656889   0.03337014     -3.81763    1.3519412   439061 
 4954000   0.90285695    -3.819424    -3.819424   -2.4651417  0.034719097    -3.819424    1.3542823   439061 
 4955000   0.90163304     -3.81844     -3.81844   -2.4659935  0.030886778     -3.81844    1.3524465   439061 
 4956000   0.90097531    -3.816742    -3.816742   -2.4652821   0.03623869    -3.816742    1.3514599   439061 
 4957000   0.90136963   -3.8181807   -3.8181807   -2.4661293  0.033097141   -3.8181807    1.3520514   439061 
 4958000   0.90272513   -3.8193617   -3.8193617   -2.4652771  0.031928206   -3.8193617    1.3540846   439061 
 4959000   0.90188711   -3.8189047   -3.8189047   -2.4660771   0.03458001   -3.8189047    1.3528276   439061 
 4960000   0.90175194   -3.8187658   -3.8187658    -2.466141  0.039021227   -3.8187658    1.3526248   439061 
 4961000   0.90241029   -3.8191523   -3.8191523   -2.4655399  0.037304042   -3.8191523    1.3536124   439061 
 4962000   0.90301286   -3.8204861   -3.8204861   -2.4659699  0.038024098   -3.8204861    1.3545162   439061 
 4963000   0.90336166   -3.8206593   -3.8206593   -2.4656199  0.039906365   -3.8206593    1.3550394   439061 
 4964000   0.90421366   -3.8222885   -3.8222885   -2.4659711  0.036929297   -3.8222885    1.3563174   439061 
 4965000   0.90383246   -3.8214441   -3.8214441   -2.4656985  0.034800306   -3.8214441    1.3557456   439061 
 4966000   0.90197445   -3.8187716   -3.8187716    -2.465813  0.034706087   -3.8187716    1.3529586   439061 
 4967000   0.90243181   -3.8195193   -3.8195193   -2.4658747  0.032105469   -3.8195193    1.3536446   439061 
 4968000    0.9018676   -3.8190117   -3.8190117   -2.4662134  0.037327101   -3.8190117    1.3527983   439061 
 4969000   0.90148434   -3.8198811   -3.8198811   -2.4676577  0.036760307   -3.8198811    1.3522234   439061 
 4970000   0.90170987   -3.8189861   -3.8189861   -2.4664244  0.037885913   -3.8189861    1.3525617   439061 
 4971000   0.90185218   -3.8196202   -3.8196202    -2.466845  0.036215192   -3.8196202    1.3527752   439061 
 4972000    0.9017029   -3.8191908   -3.8191908   -2.4666396  0.037031117   -3.8191908    1.3525513   439061 
 4973000   0.90378852   -3.8214484   -3.8214484   -2.4657687  0.032555698   -3.8214484    1.3556797   439061 
 4974000   0.90093835   -3.8176189   -3.8176189   -2.4662144  0.034453777   -3.8176189    1.3514045   439061 
 4975000   0.90272004   -3.8190863   -3.8190863   -2.4650093  0.034689893   -3.8190863     1.354077   439061 
 4976000   0.90173353   -3.8183883   -3.8183883   -2.4657911  0.031007146   -3.8183883    1.3525972   439061 
 4977000   0.90261034   -3.8198093   -3.8198093   -2.4658969  0.035534096   -3.8198093    1.3539124   439061 
 4978000   0.90219847   -3.8198424   -3.8198424   -2.4665478  0.033077773   -3.8198424    1.3532946   439061 
 4979000   0.90097373   -3.8195686   -3.8195686   -2.4681111  0.033082333   -3.8195686    1.3514575   439061 
 4980000    0.9021046   -3.8186508   -3.8186508    -2.465497  0.031949721   -3.8186508    1.3531538   439061 
 4981000   0.90237589    -3.819125    -3.819125   -2.4655642  0.036477011    -3.819125    1.3535608   439061 
 4982000   0.90247787   -3.8199372   -3.8199372   -2.4662235  0.036027566   -3.8199372    1.3537137   439061 
 4983000   0.90279152   -3.8201027   -3.8201027   -2.4659185   0.03527708   -3.8201027    1.3541842   439061 
 4984000   0.90318149   -3.8204246   -3.8204246   -2.4656555  0.034213454   -3.8204246    1.3547691   439061 
 4985000   0.90232267   -3.8196735   -3.8196735   -2.4661926  0.036662976   -3.8196735    1.3534809   439061 
 4986000   0.90364194   -3.8218466   -3.8218466   -2.4663868  0.029133491   -3.8218466    1.3554598   439061 
 4987000   0.90120478    -3.819319    -3.819319   -2.4675149  0.034447415    -3.819319    1.3518041   439061 
 4988000   0.90185232   -3.8189633   -3.8189633   -2.4661879  0.036536569   -3.8189633    1.3527754   439061 
 4989000   0.90181755   -3.8191072   -3.8191072    -2.466384  0.034827107   -3.8191072    1.3527232   439061 
 4990000   0.90241668   -3.8205355   -3.8205355   -2.4669136  0.033258514   -3.8205355    1.3536219   439061 
 4991000   0.90227153   -3.8184194   -3.8184194   -2.4650152  0.039849148   -3.8184194    1.3534042   439061 
 4992000   0.90349063   -3.8197152   -3.8197152   -2.4644823   0.03423645   -3.8197152    1.3552329   439061 
 4993000   0.90336887   -3.8196325   -3.8196325   -2.4645823  0.034009677   -3.8196325    1.3550502   439061 
 4994000   0.90270908   -3.8188099   -3.8188099   -2.4647494  0.035872641   -3.8188099    1.3540605   439061 
 4995000   0.90089842   -3.8183652   -3.8183652   -2.4670207  0.029676577   -3.8183652    1.3513446   439061 
 4996000     0.901157   -3.8183479   -3.8183479   -2.4666155  0.032504889   -3.8183479    1.3517324   439061 
 4997000   0.90044015   -3.8173872   -3.8173872     -2.46673  0.034098079   -3.8173872    1.3506572   439061 
 4998000   0.90271608   -3.8210474   -3.8210474   -2.4669764  0.033634973   -3.8210474     1.354071   439061 
 4999000   0.90250305   -3.8214675   -3.8214675    -2.467716  0.034224636   -3.8214675    1.3537515   439061 
 5000000   0.90384069   -3.8225952   -3.8225952   -2.4668372  0.027451965   -3.8225952     1.355758   439061 
Loop time of 26191.4 on 64 procs for 5000000 steps with 439061 atoms

Performance: 82469.970 tau/day, 190.903 timesteps/s
98.8% CPU use with 64 MPI tasks x 1 OpenMP threads

MPI task timing breakdown:
Section |  min time  |  avg time  |  max time  |%varavg|  %CPU | %total
-----------------------------------------------------------------------
Pair    | 7377.9     | 13400      | 14967      |1953.0 |  98.7 | 51.16
Bond    | 1.9154     | 2.3811     | 5.7594     |  31.7 | 100.0 |  0.01
Neigh   | 3007.2     | 4805.7     | 5204.3     | 948.1 |  99.6 | 18.35
Comm    | 3633.5     | 6524.9     | 14457      |3779.4 |  98.1 | 24.91
Output  | 208.11     | 208.53     | 208.58     |   0.4 |  99.1 |  0.80
Modify  | 491.04     | 845.4      | 2221       |2030.4 |  99.1 |  3.23
Other   |            | 404.2      |            |       |       |  1.54

Nlocal:        6860.33 ave        7342 max        6382 min
Histogram: 2 0 0 1 29 29 1 0 1 1
Nghost:        7230.66 ave        7952 max        5339 min
Histogram: 15 1 0 0 0 0 0 0 0 48
Neighs:       216626.0 ave      232276 max      124770 min
Histogram: 3 3 1 1 0 0 0 0 0 56

Total # of neighbors = 13864050
Ave neighs/atom = 31.576592
Ave special neighs/atom = 0.0000000
Neighbor list builds = 500000
Dangerous builds = 495000
write_data	data.lj
System init for write_data ...
WARNING: Not all mixed pair coeffs generated from mixing. Use write_data with 'pair ij' option to store all pair coeffs. (src/write_data.cpp:312)


## Evaporation
#region          regevap block EDGE EDGE EDGE EDGE 140 EDGE units box
#fix             4 solvent evaporate ${evap} 1 regevap 156415

#run 		20000000
Total wall time: 7:16:35
