LAMMPS (24 Dec 2020)
OMP_NUM_THREADS environment is not set. Defaulting to 1 thread. (src/comm.cpp:94)
  using 1 OpenMP thread(s) per MPI task
# Simple rigid body system
# needed variables:


units		lj
atom_style	full
dimension 	3
boundary	p p f
pair_style	lj/cut/opt 2.5


variable 	sigma		equal 1.0
variable 	epsilon 	equal 1.0

region		box block 0 80 0 80 0 160
create_box 	3 box
Created orthogonal box = (0.0000000 0.0000000 0.0000000) to (80.000000 80.000000 160.00000)
  2 by 3 by 8 MPI processor grid


lattice 	sc 0.66   # fluid phase
Lattice spacing in x,y,z = 1.1485556 1.1485556 1.1485556
region		fluid block EDGE EDGE EDGE EDGE 2 82
create_atoms 	1 region fluid
Created 396900 atoms
  create_atoms CPU = 0.009 seconds

lattice 	sc 0.045    # gas phase
Lattice spacing in x,y,z = 2.8114422 2.8114422 2.8114422
region		gas   block EDGE EDGE EDGE EDGE 83 158
create_atoms	1 region gas
Created 0 atoms
  create_atoms CPU = 0.004 seconds


mass		1 1.0
mass		2 1.0
mass		3 1.0

group		solvent type 1
396900 atoms in group solvent
velocity 	solvent create ${startTemp} 563435 loop geom
velocity 	solvent create 1.0 563435 loop geom

neighbor 	0.4 bin

pair_coeff	1 1 1.0 1.0
pair_coeff	2 2 0.0 0.0
pair_coeff	3 3 0.0 0.0
pair_coeff	2 3 0.0 0.0
pair_coeff	1 2*3 0.0 0.0

pair_modify 	shift yes


balance 	1.05 shift z 10 1.05
Balancing ...
Neighbor list info ...
  update every 1 steps, delay 10 steps, check yes
  max neighbors/atom: 2000, page size: 100000
  master list distance cutoff = 2.9
  ghost atom cutoff = 2.9
  binsize = 1.45, bins = 56 56 111
  1 neighbor lists, perpetual/occasional/extra = 1 0 0
  (1) pair lj/cut/opt, perpetual
      attributes: half, newton on
      pair build: half/bin/newton
      stencil: half/bin/3d/newton
      bin: standard
 rebalancing time: 0.013 seconds
  iteration count = 4
  initial/final maximal load/proc = 15120.000 9240.0000
  initial/final imbalance factor  = 1.8285714 1.1174603
  x cuts: 0.0000000 0.50000000 1.0000000
  y cuts: 0.0000000 0.33333333 0.66666667 1.0000000
  z cuts: 0.0000000 0.085937500 0.16406250 0.23437500 0.29687500 0.36718750 0.44531250 0.52343750 1.0000000


####################### WALLS ###########################


variable       epsilonWall equal 2*${epsilon}
variable       epsilonWall equal 2*1

variable       cutoffTop   equal   0.7147*${sigma}
variable       cutoffTop   equal   0.7147*1

variable       cutoffLow   equal   3*${sigma}
variable       cutoffLow   equal   3*1


fix            topWall all wall/lj93 zhi EDGE                ${epsilonWall} ${sigma} ${cutoffTop} units box
fix            topWall all wall/lj93 zhi EDGE                2 ${sigma} ${cutoffTop} units box
fix            topWall all wall/lj93 zhi EDGE                2 1 ${cutoffTop} units box
fix            topWall all wall/lj93 zhi EDGE                2 1 0.7147 units box

fix            lowWall all wall/lj93 zlo EDGE                ${epsilonWall} ${sigma} ${cutoffLow} units box
fix            lowWall all wall/lj93 zlo EDGE                2 ${sigma} ${cutoffLow} units box
fix            lowWall all wall/lj93 zlo EDGE                2 1 ${cutoffLow} units box
fix            lowWall all wall/lj93 zlo EDGE                2 1 3 units box


###################### COMPUTES ##########################

compute        bin1 solvent chunk/atom bin/1d z upper 1.0


######################	FIXES ############################


fix 		peclet solvent ave/chunk 1000 1 1000 bin1 density/number norm 		 none ave one file density.profile

fix 		 temp solvent ave/chunk 1000 1 1000 bin1 temp norm 		 none ave one file temp.profile

fix 		2 solvent nve


## Thermostat


region		regthermo block EDGE EDGE EDGE EDGE 0 20

group 		thermo dynamic solvent region regthermo every 1000
dynamic group thermo defined

fix 		3 thermo langevin ${startTemp} ${temp} 10 156453
fix 		3 thermo langevin 1.0 ${temp} 10 156453
fix 		3 thermo langevin 1.0 1.1 10 156453



#### Load balancing


fix 		bal all balance 1000 1.05 shift z 10 1.05


############### Diagnostics and computes ###################
#compute 	com cube	  rigid/local	1 mol x y z
#compute 	quat cube	  rigid/local	1 mol quatw quati quatj quatk

thermo 		1000
thermo_style 	custom step temp epair evdwl etotal press pe ke atoms

dump		1 all custom 100000 dump.lammpstrj id mol type x y z
dump 		2 all image 10000 image.*.png type type
dump 		3 all movie 1000 movie.avi type type

#dump 		com cube local 1000 dump.*.xyz c_com[*]
#dump		quat cube      local 1000 dump.*.quat c_quat[*]


restart 	1000000 restart.dat
timestep 	0.005
timer 		full
New timer settings: style=full  mode=nosync  timeout=off

run		3000000
Per MPI rank memory allocation (min/avg/max) = 11.94 | 16.69 | 18.65 Mbytes
Step Temp E_pair E_vdwl TotEng Press PotEng KinEng Atoms 
       0            1   -1.2728193   -1.2728193   0.22717689    3.8122416   -1.2728193    1.4999962   396900 
    1000    1.7838788   -3.4602197   -3.4602197  -0.78440823    1.4200283   -3.4602197    2.6758114   396900 
    2000    1.5113141   -3.4564007   -3.4564007   -1.1894354   0.67703076   -3.4564007    2.2669654   396900 
    3000    1.3207218   -3.3602492   -3.3602492   -1.3791715   0.33695979   -3.3602492    1.9810778   396900 
    4000    1.2457371    -3.315523    -3.315523    -1.446922   0.24378624    -3.315523    1.8686009   396900 
    5000    1.2146947    -3.283293    -3.283293   -1.4612555   0.20823785    -3.283293    1.8220375   396900 
    6000    1.1992213   -3.2523311   -3.2523311   -1.4535037   0.17983866   -3.2523311    1.7988274   396900 
    7000    1.1923957   -3.2226426   -3.2226426   -1.4340536   0.17216124   -3.2226426     1.788589   396900 
    8000    1.1943971   -3.2006613   -3.2006613   -1.4090701   0.19054705   -3.2006613    1.7915912   396900 
    9000     1.194234   -3.1777074   -3.1777074   -1.3863609   0.19150053   -3.1777074    1.7913465   396900 
   10000    1.1891105   -3.1547326   -3.1547326   -1.3710713   0.19081421   -3.1547326    1.7836613   396900 
   11000    1.1829624   -3.1275891   -3.1275891     -1.35315   0.19131992   -3.1275891    1.7744391   396900 
   12000    1.1730203   -3.0970852   -3.0970852   -1.3375591   0.18479944   -3.0970852     1.759526   396900 
   13000    1.1635687   -3.0669812   -3.0669812   -1.3216325   0.17128132   -3.0669812    1.7453487   396900 
   14000    1.1514469   -3.0382529   -3.0382529   -1.3110869   0.16152463   -3.0382529     1.727166   396900 
   15000    1.1424025   -3.0139176   -3.0139176   -1.3003182    0.1556473   -3.0139176    1.7135994   396900 
   16000    1.1349365   -2.9946111   -2.9946111   -1.2922108   0.15539637   -2.9946111    1.7024004   396900 
   17000    1.1322545   -2.9902165   -2.9902165    -1.291839   0.15828927   -2.9902165    1.6983775   396900 
   18000    1.1261463   -2.9964358   -2.9964358   -1.3072206   0.17214016   -2.9964358    1.6892152   396900 
   19000     1.119381   -3.0083912   -3.0083912    -1.329324   0.17656655   -3.0083912    1.6790672   396900 
   20000    1.1091287   -3.0193354   -3.0193354   -1.3556466   0.17583464   -3.0193354    1.6636888   396900 
   21000    1.1016675   -3.0306295   -3.0306295   -1.3781324   0.16550582   -3.0306295    1.6524971   396900 
   22000    1.0909269   -3.0362853   -3.0362853   -1.3998991   0.16108009   -3.0362853    1.6363863   396900 
   23000    1.0828351   -3.0421184   -3.0421184   -1.4178698   0.15263643   -3.0421184    1.6242486   396900 
   24000     1.074271   -3.0454543   -3.0454543   -1.4340519   0.15145069   -3.0454543    1.6114024   396900 
   25000    1.0685836   -3.0480536   -3.0480536   -1.4451822   0.14415286   -3.0480536    1.6028714   396900 
   26000    1.0601131   -3.0467361   -3.0467361   -1.4565705   0.14622331   -3.0467361    1.5901656   396900 
   27000    1.0575402   -3.0486665   -3.0486665   -1.4623602   0.14069602   -3.0486665    1.5863062   396900 
   28000    1.0539736   -3.0471818   -3.0471818   -1.4662254   0.13241828   -3.0471818    1.5809564   396900 
   29000    1.0504622   -3.0433964   -3.0433964    -1.467707   0.12588987   -3.0433964    1.5756893   396900 
   30000      1.05029   -3.0427023   -3.0427023   -1.4672713    0.1319297   -3.0427023     1.575431   396900 
   31000    1.0474674   -3.0405311   -3.0405311    -1.469334   0.12543217   -3.0405311    1.5711971   396900 
   32000    1.0478806   -3.0368574   -3.0368574   -1.4650405   0.11953909   -3.0368574    1.5718169   396900 
   33000    1.0459058   -3.0309533   -3.0309533   -1.4620986   0.12311781   -3.0309533    1.5688547   396900 
   34000    1.0468428   -3.0276547   -3.0276547   -1.4573944   0.12330556   -3.0276547    1.5702603   396900 
   35000    1.0449942    -3.022406    -3.022406   -1.4549186   0.11973738    -3.022406    1.5674874   396900 
   36000    1.0453317   -3.0194023   -3.0194023   -1.4514087   0.11937133   -3.0194023    1.5679936   396900 
   37000    1.0435424   -3.0132566   -3.0132566   -1.4479469    0.1144665   -3.0132566    1.5653097   396900 
   38000    1.0437934   -3.0108226   -3.0108226   -1.4451365   0.11569759   -3.0108226    1.5656861   396900 
   39000    1.0446094   -3.0062635   -3.0062635   -1.4393533   0.10988265   -3.0062635    1.5669102   396900 
   40000    1.0412911    -2.998477    -2.998477   -1.4365443   0.10680032    -2.998477    1.5619327   396900 
   41000     1.039792   -2.9938305   -2.9938305   -1.4341464   0.10322542   -2.9938305     1.559684   396900 
   42000    1.0395371   -2.9904584   -2.9904584   -1.4311567   0.10243948   -2.9904584    1.5593017   396900 
   43000    1.0360554   -2.9834934   -2.9834934   -1.4294141   0.10882113   -2.9834934    1.5540792   396900 
   44000    1.0354446   -2.9817231   -2.9817231   -1.4285602   0.10313254   -2.9817231     1.553163   396900 
   45000    1.0368861   -2.9815274   -2.9815274   -1.4262023  0.099206497   -2.9815274    1.5553252   396900 
   46000     1.036044   -2.9802754   -2.9802754   -1.4262134   0.10197716   -2.9802754     1.554062   396900 
   47000    1.0357466   -2.9775008   -2.9775008   -1.4238847    0.1010217   -2.9775008     1.553616   396900 
   48000    1.0350907   -2.9770396   -2.9770396   -1.4244074  0.099067318   -2.9770396    1.5526322   396900 
   49000     1.034538   -2.9748418   -2.9748418   -1.4230387   0.10751873   -2.9748418    1.5518031   396900 
   50000    1.0353546   -2.9775671   -2.9775671   -1.4245391   0.10623886   -2.9775671     1.553028   396900 
   51000    1.0360377   -2.9765825   -2.9765825   -1.4225298   0.10345099   -2.9765825    1.5540527   396900 
   52000    1.0345516   -2.9767117   -2.9767117   -1.4248881   0.10019398   -2.9767117    1.5518235   396900 
   53000     1.032682    -2.974726    -2.974726   -1.4257069   0.10025119    -2.974726    1.5490192   396900 
   54000    1.0308595   -2.9758756   -2.9758756   -1.4295903  0.096860109   -2.9758756    1.5462853   396900 
   55000    1.0300485   -2.9790049   -2.9790049   -1.4339361  0.099656062   -2.9790049    1.5450688   396900 
   56000    1.0302831   -2.9757191   -2.9757191   -1.4302984  0.098859799   -2.9757191    1.5454207   396900 
   57000    1.0313185   -2.9792748   -2.9792748    -1.432301  0.097473245   -2.9792748    1.5469738   396900 
   58000    1.0281069   -2.9736246   -2.9736246   -1.4314682   0.10120461   -2.9736246    1.5421564   396900 
   59000    1.0294024   -2.9748627   -2.9748627   -1.4307631  0.094958124   -2.9748627    1.5440996   396900 
   60000    1.0301407   -2.9734793   -2.9734793   -1.4282721   0.10096076   -2.9734793    1.5452072   396900 
   61000    1.0309507    -2.974353    -2.974353   -1.4279309  0.091213239    -2.974353    1.5464221   396900 
   62000    1.0287249   -2.9736833   -2.9736833   -1.4305998   0.10028673   -2.9736833    1.5430835   396900 
   63000    1.0276651   -2.9726686   -2.9726686   -1.4311748  0.088347249   -2.9726686    1.5414938   396900 
   64000    1.0277607   -2.9731884   -2.9731884   -1.4315511  0.093912165   -2.9731884    1.5416372   396900 
   65000    1.0263074    -2.970088    -2.970088   -1.4306308  0.095956092    -2.970088    1.5394572   396900 
   66000    1.0273786   -2.9689538   -2.9689538   -1.4278898  0.094718704   -2.9689538     1.541064   396900 
   67000    1.0273033   -2.9695169   -2.9695169   -1.4285658  0.092640419   -2.9695169     1.540951   396900 
   68000    1.0261278   -2.9671284   -2.9671284   -1.4279405  0.087939375   -2.9671284    1.5391879   396900 
   69000    1.0276786   -2.9670818   -2.9670818   -1.4255677  0.098170973   -2.9670818     1.541514   396900 
   70000    1.0271763   -2.9676969   -2.9676969   -1.4269364  0.092922218   -2.9676969    1.5407605   396900 
   71000     1.025356   -2.9674132   -2.9674132   -1.4293831  0.088160415   -2.9674132    1.5380301   396900 
   72000     1.024047    -2.966787    -2.966787   -1.4307204  0.088604161    -2.966787    1.5360666   396900 
   73000    1.0263477   -2.9681549   -2.9681549   -1.4286373  0.089854229   -2.9681549    1.5395176   396900 
   74000    1.0261668   -2.9652855   -2.9652855   -1.4260392  0.091528489   -2.9652855    1.5392463   396900 
   75000    1.0264448   -2.9658041   -2.9658041   -1.4261408  0.088511917   -2.9658041    1.5396633   396900 
   76000    1.0258947     -2.96823     -2.96823   -1.4293917   0.09263275     -2.96823    1.5388382   396900 
   77000    1.0253799   -2.9670889   -2.9670889   -1.4290228  0.088170507   -2.9670889     1.538066   396900 
   78000     1.024602   -2.9676263   -2.9676263   -1.4307271  0.082797365   -2.9676263    1.5368992   396900 
   79000    1.0255612   -2.9679173   -2.9679173   -1.4295794  0.092973645   -2.9679173    1.5383378   396900 
   80000    1.0231997   -2.9645523   -2.9645523   -1.4297566  0.085679969   -2.9645523    1.5347957   396900 
   81000    1.0218893   -2.9605693   -2.9605693   -1.4277392  0.087444322   -2.9605693    1.5328301   396900 
   82000    1.0246673   -2.9626318   -2.9626318   -1.4256348  0.088214806   -2.9626318     1.536997   396900 
   83000     1.023923    -2.961159    -2.961159   -1.4252784  0.088346565    -2.961159    1.5358807   396900 
   84000    1.0221237   -2.9609164   -2.9609164   -1.4277347  0.088774748   -2.9609164    1.5331816   396900 
   85000    1.0225554   -2.9612627   -2.9612627   -1.4274334  0.086480913   -2.9612627    1.5338293   396900 
   86000    1.0224847   -2.9627387   -2.9627387   -1.4290154  0.091442488   -2.9627387    1.5337232   396900 
   87000    1.0226361   -2.9625493   -2.9625493    -1.428599  0.088005698   -2.9625493    1.5339503   396900 
   88000    1.0228806   -2.9666488   -2.9666488   -1.4323318  0.084864503   -2.9666488    1.5343171   396900 
   89000    1.0202858   -2.9644824   -2.9644824   -1.4340576  0.082976692   -2.9644824    1.5304249   396900 
   90000    1.0212529   -2.9666975   -2.9666975    -1.434822  0.080367352   -2.9666975    1.5318754   396900 
   91000    1.0211062   -2.9653507   -2.9653507   -1.4336952  0.084885478   -2.9653507    1.5316555   396900 
   92000    1.0232818   -2.9670825   -2.9670825   -1.4321635  0.084429303   -2.9670825    1.5349189   396900 
   93000    1.0218688   -2.9656245   -2.9656245   -1.4328252  0.088991523   -2.9656245    1.5327993   396900 
   94000    1.0221083   -2.9659233   -2.9659233   -1.4327647   0.08819264   -2.9659233    1.5331586   396900 
   95000    1.0222548   -2.9680371   -2.9680371   -1.4346588  0.084147179   -2.9680371    1.5333783   396900 
   96000    1.0227339   -2.9690959   -2.9690959   -1.4349989  0.086709435   -2.9690959     1.534097   396900 
   97000    1.0210985   -2.9661085   -2.9661085   -1.4344646   0.08570271   -2.9661085    1.5316439   396900 
   98000    1.0203335   -2.9662079   -2.9662079   -1.4357115  0.087791757   -2.9662079    1.5304964   396900 
   99000    1.0215046   -2.9684006   -2.9684006   -1.4361475  0.082287703   -2.9684006     1.532253   396900 
  100000    1.0207362   -2.9671664   -2.9671664   -1.4360659  0.080655657   -2.9671664    1.5311005   396900 
  101000    1.0217703   -2.9688362   -2.9688362   -1.4361845  0.086231112   -2.9688362    1.5326516   396900 
  102000    1.0228414   -2.9690883   -2.9690883     -1.43483  0.087275797   -2.9690883    1.5342582   396900 
  103000    1.0241182   -2.9707056   -2.9707056   -1.4345321   0.08938491   -2.9707056    1.5361735   396900 
  104000    1.0220177   -2.9674126   -2.9674126   -1.4343898  0.090251876   -2.9674126    1.5330227   396900 
  105000    1.0218892   -2.9689974   -2.9689974   -1.4361675  0.081702443   -2.9689974    1.5328299   396900 
  106000    1.0217679   -2.9701303   -2.9701303   -1.4374822  0.080883211   -2.9701303     1.532648   396900 
  107000    1.0202506   -2.9659946   -2.9659946   -1.4356226  0.083412503   -2.9659946    1.5303721   396900 
  108000    1.0211173   -2.9694693   -2.9694693   -1.4377972  0.087679329   -2.9694693    1.5316721   396900 
  109000    1.0213372    -2.967993    -2.967993   -1.4359912  0.085876554    -2.967993    1.5320019   396900 
  110000    1.0199951   -2.9663706   -2.9663706   -1.4363818    0.0877079   -2.9663706    1.5299888   396900 
  111000    1.0204485   -2.9659981   -2.9659981   -1.4353292  0.082751817   -2.9659981    1.5306689   396900 
  112000    1.0220209   -2.9673051   -2.9673051   -1.4342776  0.085707125   -2.9673051    1.5330276   396900 
  113000    1.0218197   -2.9665054   -2.9665054   -1.4337798  0.083134601   -2.9665054    1.5327257   396900 
  114000    1.0196114   -2.9648961   -2.9648961   -1.4354829  0.085278559   -2.9648961    1.5294132   396900 
  115000    1.0219963   -2.9653002   -2.9653002   -1.4323096  0.084952482   -2.9653002    1.5329905   396900 
  116000    1.0193772   -2.9659123   -2.9659123   -1.4368503  0.083744069   -2.9659123     1.529062   396900 
  117000    1.0199812   -2.9684845   -2.9684845   -1.4385166  0.076385601   -2.9684845    1.5299679   396900 
  118000    1.0187354   -2.9650187   -2.9650187   -1.4369194  0.080016699   -2.9650187    1.5280993   396900 
  119000    1.0194298   -2.9662171   -2.9662171   -1.4370762  0.088658194   -2.9662171    1.5291409   396900 
  120000    1.0200605   -2.9646174   -2.9646174   -1.4345305  0.086907765   -2.9646174    1.5300869   396900 
  121000     1.020208      -2.9661      -2.9661   -1.4357918   0.08640793      -2.9661    1.5303082   396900 
  122000     1.018766   -2.9658614   -2.9658614   -1.4377162  0.081199021   -2.9658614    1.5281451   396900 
  123000    1.0186979   -2.9652607   -2.9652607   -1.4372176  0.084923388   -2.9652607    1.5280431   396900 
  124000    1.0192235   -2.9654902   -2.9654902   -1.4366587  0.083104673   -2.9654902    1.5288314   396900 
  125000    1.0184626   -2.9650192   -2.9650192   -1.4373292  0.080332577   -2.9650192    1.5276901   396900 
  126000    1.0206716    -2.967326    -2.967326   -1.4363224  0.081275896    -2.967326    1.5310036   396900 
  127000    1.0193663   -2.9641416   -2.9641416    -1.435096  0.078850718   -2.9641416    1.5290457   396900 
  128000    1.0201805   -2.9644543   -2.9644543   -1.4341874  0.081100221   -2.9644543    1.5302668   396900 
  129000    1.0202267   -2.9660026   -2.9660026   -1.4356664  0.083137003   -2.9660026    1.5303362   396900 
  130000    1.0193007   -2.9610064   -2.9610064   -1.4320593  0.081226535   -2.9610064    1.5289472   396900 
  131000    1.0186455   -2.9633413   -2.9633413    -1.435377  0.086647038   -2.9633413    1.5279643   396900 
  132000    1.0200569   -2.9659436   -2.9659436   -1.4358621   0.08254672   -2.9659436    1.5300815   396900 
  133000     1.021475   -2.9651601   -2.9651601   -1.4329515  0.078835944   -2.9651601    1.5322087   396900 
  134000    1.0205146   -2.9673384   -2.9673384   -1.4365703  0.082279854   -2.9673384    1.5307681   396900 
  135000    1.0191283   -2.9638059   -2.9638059   -1.4351172  0.079582885   -2.9638059    1.5286887   396900 
  136000    1.0194685   -2.9639386   -2.9639386   -1.4347397  0.084681063   -2.9639386    1.5291989   396900 
  137000     1.019318   -2.9637787   -2.9637787   -1.4348055  0.084960851   -2.9637787    1.5289732   396900 
  138000    1.0208622   -2.9643662   -2.9643662   -1.4330769  0.079864169   -2.9643662    1.5312894   396900 
  139000    1.0199583   -2.9657234   -2.9657234   -1.4357899  0.082615341   -2.9657234    1.5299336   396900 
  140000    1.0197937   -2.9651383   -2.9651383   -1.4354516  0.085431489   -2.9651383    1.5296868   396900 
  141000    1.0196354   -2.9647092   -2.9647092   -1.4352599  0.082080702   -2.9647092    1.5294492   396900 
  142000    1.0204232   -2.9630801   -2.9630801   -1.4324492  0.083601302   -2.9630801    1.5306309   396900 
  143000    1.0189424    -2.963477    -2.963477   -1.4350672  0.081640795    -2.963477    1.5284098   396900 
  144000    1.0193481   -2.9647756   -2.9647756   -1.4357573  0.090042153   -2.9647756    1.5290183   396900 
  145000    1.0198785   -2.9668689   -2.9668689    -1.437055  0.079976373   -2.9668689    1.5298139   396900 
  146000     1.018039   -2.9644888   -2.9644888    -1.437434   0.07943787   -2.9644888    1.5270547   396900 
  147000    1.0188649   -2.9619136   -2.9619136     -1.43362  0.082480499   -2.9619136    1.5282936   396900 
  148000    1.0204333   -2.9659845   -2.9659845   -1.4353383  0.083532912   -2.9659845    1.5306462   396900 
  149000    1.0200842   -2.9688219   -2.9688219   -1.4386994  0.081557975   -2.9688219    1.5301225   396900 
  150000    1.0188424   -2.9691992   -2.9691992   -1.4409394  0.082930508   -2.9691992    1.5282598   396900 
  151000    1.0179817   -2.9658297   -2.9658297    -1.438861  0.079458508   -2.9658297    1.5269687   396900 
  152000    1.0183648    -2.966484    -2.966484   -1.4389407  0.087313919    -2.966484    1.5275433   396900 
  153000    1.0210325   -2.9693516   -2.9693516   -1.4378067  0.077555663   -2.9693516    1.5315449   396900 
  154000    1.0210734   -2.9685796   -2.9685796   -1.4369733  0.082020037   -2.9685796    1.5316063   396900 
  155000    1.0184393   -2.9650938   -2.9650938   -1.4374386  0.083113146   -2.9650938    1.5276552   396900 
  156000    1.0192995   -2.9634233   -2.9634233    -1.434478  0.079387324   -2.9634233    1.5289454   396900 
  157000    1.0204637    -2.966161    -2.966161   -1.4354693   0.08402567    -2.966161    1.5306917   396900 
  158000    1.0177961   -2.9618291   -2.9618291   -1.4351388  0.083965298   -2.9618291    1.5266903   396900 
  159000    1.0202791   -2.9679868   -2.9679868   -1.4375719  0.081975788   -2.9679868    1.5304149   396900 
  160000    1.0188422   -2.9660063   -2.9660063   -1.4377469  0.081907489   -2.9660063    1.5282594   396900 
  161000    1.0186983   -2.9679927   -2.9679927    -1.439949  0.082685136   -2.9679927    1.5280436   396900 
  162000    1.0187748    -2.968644    -2.968644   -1.4404857  0.078482345    -2.968644    1.5281583   396900 
  163000    1.0188837   -2.9695778   -2.9695778   -1.4412561  0.082495409   -2.9695778    1.5283218   396900 
  164000    1.0190676   -2.9674794   -2.9674794   -1.4388818  0.078832773   -2.9674794    1.5285976   396900 
  165000     1.018295   -2.9679779   -2.9679779   -1.4405392  0.075282533   -2.9679779    1.5274387   396900 
  166000    1.0191336   -2.9712215   -2.9712215    -1.442525  0.079838047   -2.9712215    1.5286965   396900 
  167000    1.0181333   -2.9698262   -2.9698262   -1.4426302  0.077855656   -2.9698262    1.5271961   396900 
  168000    1.0187465   -2.9703726   -2.9703726   -1.4422568  0.081036886   -2.9703726    1.5281158   396900 
  169000    1.0179139   -2.9688335   -2.9688335   -1.4419665  0.081577955   -2.9688335    1.5268669   396900 
  170000    1.0177785   -2.9679545   -2.9679545   -1.4412906  0.084742796   -2.9679545    1.5266639   396900 
  171000    1.0191598   -2.9694213   -2.9694213   -1.4406855   0.08141973   -2.9694213    1.5287358   396900 
  172000    1.0192783   -2.9697585   -2.9697585    -1.440845  0.077757644   -2.9697585    1.5289136   396900 
  173000    1.0176677   -2.9670952   -2.9670952   -1.4405976  0.079456126   -2.9670952    1.5264976   396900 
  174000      1.01931   -2.9686386   -2.9686386   -1.4396774  0.078595899   -2.9686386    1.5289612   396900 
  175000     1.020245   -2.9690472   -2.9690472   -1.4386836  0.083524269   -2.9690472    1.5303636   396900 
  176000    1.0181432   -2.9692272   -2.9692272   -1.4420163  0.083363392   -2.9692272     1.527211   396900 
  177000    1.0194205   -2.9705938   -2.9705938    -1.441467  0.079196413   -2.9705938    1.5291269   396900 
  178000    1.0181149   -2.9684387   -2.9684387   -1.4412701  0.080089076   -2.9684387    1.5271686   396900 
  179000    1.0174658   -2.9690762   -2.9690762   -1.4428813  0.081924462   -2.9690762    1.5261949   396900 
  180000    1.0175932   -2.9692791   -2.9692791   -1.4428932  0.077608038   -2.9692791    1.5263859   396900 
  181000    1.0176288   -2.9699956   -2.9699956   -1.4435562  0.079719085   -2.9699956    1.5264394   396900 
  182000    1.0195428   -2.9702629   -2.9702629   -1.4409525  0.080917996   -2.9702629    1.5293104   396900 
  183000    1.0191518   -2.9704326   -2.9704326   -1.4417087  0.082034337   -2.9704326    1.5287239   396900 
  184000     1.020982   -2.9727619   -2.9727619   -1.4412928  0.084722397   -2.9727619    1.5314691   396900 
  185000    1.0181428   -2.9718446   -2.9718446   -1.4446343  0.080660679   -2.9718446    1.5272103   396900 
  186000    1.0177038   -2.9723106   -2.9723106   -1.4457588  0.081255691   -2.9723106    1.5265518   396900 
  187000    1.0180938   -2.9739665   -2.9739665   -1.4468297  0.078245086   -2.9739665    1.5271368   396900 
  188000    1.0171336   -2.9735056   -2.9735056   -1.4478091  0.086629604   -2.9735056    1.5256966   396900 
  189000    1.0176777    -2.973966    -2.973966   -1.4474534  0.081184206    -2.973966    1.5265126   396900 
  190000    1.0188867    -2.973251    -2.973251   -1.4449248  0.081738738    -2.973251    1.5283263   396900 
  191000    1.0186846    -2.971879    -2.971879    -1.443856  0.076667986    -2.971879     1.528023   396900 
  192000    1.0178015   -2.9712471   -2.9712471   -1.4445487  0.082505859   -2.9712471    1.5266983   396900 
  193000    1.0173368    -2.970048    -2.970048   -1.4440465  0.085598032    -2.970048    1.5260014   396900 
  194000    1.0198263   -2.9729188   -2.9729188   -1.4431832  0.082720171   -2.9729188    1.5297355   396900 
  195000    1.0177701   -2.9731991   -2.9731991   -1.4465477  0.078491578   -2.9731991    1.5266513   396900 
  196000    1.0173101   -2.9750999   -2.9750999   -1.4491386  0.081046401   -2.9750999    1.5259613   396900 
  197000    1.0192502   -2.9767614   -2.9767614     -1.44789   0.08000394   -2.9767614    1.5288714   396900 
  198000    1.0189423    -2.974417    -2.974417   -1.4460075   0.07982914    -2.974417    1.5284095   396900 
  199000     1.020088   -2.9774372   -2.9774372    -1.447309  0.080787382   -2.9774372    1.5301282   396900 
  200000    1.0180434   -2.9747618   -2.9747618   -1.4477005  0.082555309   -2.9747618    1.5270612   396900 
  201000    1.0173965   -2.9735707   -2.9735707   -1.4474799  0.082429018   -2.9735707    1.5260909   396900 
  202000    1.0167169   -2.9737933   -2.9737933   -1.4487218   0.07431096   -2.9737933    1.5250715   396900 
  203000    1.0181414   -2.9738966   -2.9738966   -1.4466884   0.08321389   -2.9738966    1.5272082   396900 
  204000    1.0196039   -2.9759147   -2.9759147   -1.4465128  0.082674597   -2.9759147     1.529402   396900 
  205000    1.0191554   -2.9761691   -2.9761691   -1.4474399  0.076507679   -2.9761691    1.5287292   396900 
  206000    1.0194853   -2.9748779   -2.9748779   -1.4456538  0.081966798   -2.9748779    1.5292241   396900 
  207000    1.0201673   -2.9782462   -2.9782462   -1.4479991  0.078699014   -2.9782462    1.5302472   396900 
  208000    1.0188675   -2.9770439   -2.9770439   -1.4487466  0.082536338   -2.9770439    1.5282973   396900 
  209000    1.0195646   -2.9776849   -2.9776849   -1.4483418  0.084020469   -2.9776849     1.529343   396900 
  210000    1.0194307    -2.977894    -2.977894   -1.4487518   0.08388023    -2.977894    1.5291421   396900 
  211000    1.0191513   -2.9795729   -2.9795729   -1.4508497  0.077544213   -2.9795729    1.5287231   396900 
  212000    1.0173318   -2.9772188   -2.9772188    -1.451225  0.076324689   -2.9772188    1.5259939   396900 
  213000    1.0183269   -2.9763603   -2.9763603   -1.4488738  0.080335085   -2.9763603    1.5274865   396900 
  214000    1.0188927   -2.9777326   -2.9777326   -1.4493975  0.077104843   -2.9777326    1.5283351   396900 
  215000    1.0180164   -2.9782283   -2.9782283   -1.4512075  0.082612128   -2.9782283    1.5270208   396900 
  216000    1.0165571   -2.9760429   -2.9760429    -1.451211  0.077748711   -2.9760429    1.5248319   396900 
  217000    1.0178336   -2.9776018   -2.9776018   -1.4508552  0.078685134   -2.9776018    1.5267466   396900 
  218000     1.018197   -2.9777027   -2.9777027   -1.4504111  0.078760521   -2.9777027    1.5272916   396900 
  219000    1.0170902   -2.9757315   -2.9757315   -1.4501001  0.078414099   -2.9757315    1.5256314   396900 
  220000    1.0192538   -2.9804372   -2.9804372   -1.4515603  0.079003974   -2.9804372    1.5288769   396900 
  221000    1.0193313   -2.9790384   -2.9790384   -1.4500454  0.078978098   -2.9790384    1.5289931   396900 
  222000    1.0188477   -2.9784342   -2.9784342   -1.4501666  0.082809069   -2.9784342    1.5282676   396900 
  223000    1.0194545   -2.9799406   -2.9799406   -1.4507627  0.075645915   -2.9799406    1.5291778   396900 
  224000    1.0177444   -2.9782216   -2.9782216   -1.4516088  0.077519868   -2.9782216    1.5266127   396900 
  225000    1.0183933   -2.9782223   -2.9782223   -1.4506361  0.083488298   -2.9782223    1.5275861   396900 
  226000    1.0191043   -2.9785795   -2.9785795   -1.4499269  0.082824424   -2.9785795    1.5286526   396900 
  227000    1.0178005   -2.9795461   -2.9795461   -1.4528492  0.078923514   -2.9795461    1.5266969   396900 
  228000    1.0182289   -2.9806359   -2.9806359   -1.4532965  0.081637004   -2.9806359    1.5273394   396900 
  229000    1.0180164   -2.9797671   -2.9797671   -1.4527462  0.080462811   -2.9797671    1.5270208   396900 
  230000    1.0172885   -2.9776442   -2.9776442   -1.4517153  0.081387255   -2.9776442    1.5259289   396900 
  231000    1.0181799   -2.9794026   -2.9794026   -1.4521366  0.083167933   -2.9794026     1.527266   396900 
  232000    1.0174028   -2.9832189   -2.9832189   -1.4571186  0.075933094   -2.9832189    1.5261003   396900 
  233000    1.0173175   -2.9812283   -2.9812283   -1.4552558  0.078019249   -2.9812283    1.5259725   396900 
  234000    1.0169929   -2.9795128   -2.9795128   -1.4540273  0.079478646   -2.9795128    1.5254855   396900 
  235000    1.0181393   -2.9818847   -2.9818847   -1.4546796   0.08035103   -2.9818847    1.5272051   396900 
  236000    1.0172363     -2.98053     -2.98053   -1.4546795  0.081557471     -2.98053    1.5258505   396900 
  237000     1.017596   -2.9811224   -2.9811224   -1.4547323  0.081610895   -2.9811224    1.5263901   396900 
  238000    1.0173904   -2.9825386   -2.9825386   -1.4564569  0.080276655   -2.9825386    1.5260817   396900 
  239000    1.0182884   -2.9808369   -2.9808369   -1.4534082  0.081320369   -2.9808369    1.5274287   396900 
  240000    1.0171115    -2.980838    -2.980838   -1.4551746  0.079265536    -2.980838    1.5256634   396900 
  241000    1.0156207   -2.9776115   -2.9776115   -1.4541842  0.079993614   -2.9776115    1.5234273   396900 
  242000    1.0177736   -2.9799645   -2.9799645    -1.453308  0.077059526   -2.9799645    1.5266566   396900 
  243000    1.0152687   -2.9795927   -2.9795927   -1.4566936  0.079458782   -2.9795927    1.5228992   396900 
  244000    1.0179482   -2.9819415   -2.9819415    -1.455023  0.079878618   -2.9819415    1.5269185   396900 
  245000    1.0172998   -2.9815007   -2.9815007   -1.4555548  0.080281714   -2.9815007    1.5259459   396900 
  246000    1.0169875   -2.9813813   -2.9813813   -1.4559038  0.078106008   -2.9813813    1.5254774   396900 
  247000    1.0158063   -2.9795845   -2.9795845   -1.4558788  0.076710848   -2.9795845    1.5237057   396900 
  248000    1.0154485   -2.9767503   -2.9767503   -1.4535814  0.080238388   -2.9767503    1.5231689   396900 
  249000    1.0212566   -2.9823573   -2.9823573   -1.4504763  0.080554009   -2.9823573     1.531881   396900 
  250000    1.0210182   -2.9829633   -2.9829633   -1.4514398  0.080519661   -2.9829633    1.5315235   396900 
  251000    1.0201795   -2.9829382   -2.9829382   -1.4526729  0.081638722   -2.9829382    1.5302654   396900 
  252000    1.0204456   -2.9849881   -2.9849881   -1.4543235  0.079382442   -2.9849881    1.5306645   396900 
  253000    1.0191334   -2.9817389   -2.9817389   -1.4530427  0.080020161   -2.9817389    1.5286962   396900 
  254000    1.0188847   -2.9826687   -2.9826687   -1.4543455  0.080730269   -2.9826687    1.5283233   396900 
  255000    1.0205784   -2.9835614   -2.9835614   -1.4526976  0.082612354   -2.9835614    1.5308637   396900 
  256000    1.0177758   -2.9847684   -2.9847684   -1.4581086  0.080760311   -2.9847684    1.5266598   396900 
  257000    1.0168003   -2.9862554   -2.9862554   -1.4610588  0.079791347   -2.9862554    1.5251966   396900 
  258000    1.0168819   -2.9860482   -2.9860482   -1.4607292  0.076126074   -2.9860482     1.525319   396900 
  259000     1.017533   -2.9879243   -2.9879243   -1.4616286  0.079104888   -2.9879243    1.5262957   396900 
  260000    1.0178454   -2.9877633   -2.9877633   -1.4609991  0.077209423   -2.9877633    1.5267642   396900 
  261000    1.0172509   -2.9874479   -2.9874479   -1.4615754  0.081156739   -2.9874479    1.5258725   396900 
  262000    1.0174098   -2.9864792   -2.9864792   -1.4603683   0.07555587   -2.9864792    1.5261109   396900 
  263000    1.0176646   -2.9861436   -2.9861436   -1.4596506  0.081001463   -2.9861436     1.526493   396900 
  264000    1.0175374   -2.9842604   -2.9842604   -1.4579581  0.084058165   -2.9842604    1.5263023   396900 
  265000    1.0169369   -2.9873464   -2.9873464   -1.4619449  0.079666796   -2.9873464    1.5254015   396900 
  266000    1.0182013   -2.9877899   -2.9877899   -1.4604918  0.079295889   -2.9877899    1.5272981   396900 
  267000    1.0163986   -2.9849128   -2.9849128   -1.4603187  0.080669943   -2.9849128    1.5245941   396900 
  268000    1.0180403   -2.9866916   -2.9866916    -1.459635  0.079374471   -2.9866916    1.5270566   396900 
  269000    1.0183187    -2.986312    -2.986312   -1.4588379  0.077208739    -2.986312    1.5274741   396900 
  270000    1.0171612   -2.9846106   -2.9846106   -1.4588727  0.079248713   -2.9846106    1.5257379   396900 
  271000    1.0170104   -2.9848452   -2.9848452   -1.4593335  0.077806646   -2.9848452    1.5255117   396900 
  272000    1.0195603   -2.9877568   -2.9877568   -1.4584203  0.080174177   -2.9877568    1.5293365   396900 
  273000    1.0187203   -2.9851604   -2.9851604   -1.4570838  0.085406384   -2.9851604    1.5280766   396900 
  274000    1.0204682   -2.9868702   -2.9868702   -1.4561717  0.080450691   -2.9868702    1.5306985   396900 
  275000    1.0214712   -2.9856616   -2.9856616   -1.4534588  0.080284791   -2.9856616    1.5322029   396900 
  276000     1.022493    -2.990343    -2.990343   -1.4566074  0.081075135    -2.990343    1.5337356   396900 
  277000    1.0194403   -2.9863388   -2.9863388   -1.4571822  0.078286985   -2.9863388    1.5291566   396900 
  278000    1.0184125   -2.9847098   -2.9847098   -1.4570948  0.076017989   -2.9847098    1.5276149   396900 
  279000    1.0179749   -2.9853434   -2.9853434   -1.4583849  0.079129625   -2.9853434    1.5269585   396900 
  280000    1.0184986   -2.9862349   -2.9862349   -1.4584908  0.079762117   -2.9862349     1.527744   396900 
  281000    1.0183068   -2.9856481   -2.9856481   -1.4581917  0.081367593   -2.9856481    1.5274564   396900 
  282000    1.0158322   -2.9813184   -2.9813184   -1.4575739  0.076267154   -2.9813184    1.5237445   396900 
  283000     1.017999   -2.9838209   -2.9838209   -1.4568262  0.071239251   -2.9838209    1.5269947   396900 
  284000    1.0186774   -2.9850992   -2.9850992    -1.457087   0.07769374   -2.9850992    1.5280123   396900 
  285000    1.0171356   -2.9808439   -2.9808439   -1.4551443  0.082727183   -2.9808439    1.5256996   396900 
  286000     1.019693   -2.9831133   -2.9831133   -1.4535777  0.076517259   -2.9831133    1.5295356   396900 
  287000    1.0183667   -2.9831501   -2.9831501   -1.4556038  0.082141405   -2.9831501    1.5275463   396900 
  288000    1.0175815   -2.9817922   -2.9817922   -1.4554237  0.079298982   -2.9817922    1.5263685   396900 
  289000    1.0191231   -2.9837868   -2.9837868   -1.4551061  0.077838335   -2.9837868    1.5286807   396900 
  290000    1.0180178   -2.9852271   -2.9852271   -1.4582043  0.076547998   -2.9852271    1.5270229   396900 
  291000    1.0177974   -2.9828042   -2.9828042   -1.4561119  0.077280632   -2.9828042    1.5266923   396900 
  292000    1.0195412   -2.9842273   -2.9842273   -1.4549193  0.080811495   -2.9842273     1.529308   396900 
  293000    1.0180874   -2.9842422   -2.9842422    -1.457115  0.081713439   -2.9842422    1.5271272   396900 
  294000    1.0206446   -2.9840092   -2.9840092   -1.4530462   0.08160028   -2.9840092     1.530963   396900 
  295000    1.0178582   -2.9823295   -2.9823295    -1.455546  0.077332585   -2.9823295    1.5267835   396900 
  296000    1.0182414   -2.9815481   -2.9815481   -1.4541897  0.083547159   -2.9815481    1.5273583   396900 
  297000    1.0199565   -2.9820085   -2.9820085   -1.4520777   0.08264791   -2.9820085    1.5299308   396900 
  298000    1.0201631   -2.9844142   -2.9844142   -1.4541733  0.079720195   -2.9844142    1.5302408   396900 
  299000    1.0200352   -2.9855666   -2.9855666   -1.4555177  0.077330647   -2.9855666    1.5300489   396900 
  300000     1.017341   -2.9847309   -2.9847309   -1.4587233  0.083268522   -2.9847309    1.5260076   396900 
  301000    1.0177218   -2.9838161   -2.9838161   -1.4572372  0.075487355   -2.9838161    1.5265789   396900 
  302000    1.0190756   -2.9847951   -2.9847951   -1.4561855  0.081464337   -2.9847951    1.5286096   396900 
  303000    1.0189383   -2.9834736   -2.9834736     -1.45507  0.075867249   -2.9834736    1.5284036   396900 
  304000    1.0173897    -2.981829    -2.981829   -1.4557483  0.072725846    -2.981829    1.5260807   396900 
  305000    1.0175939   -2.9826802   -2.9826802   -1.4562931  0.076704097   -2.9826802     1.526387   396900 
  306000    1.0201178   -2.9835306   -2.9835306   -1.4533578  0.077604933   -2.9835306    1.5301728   396900 
  307000    1.0201535   -2.9836396   -2.9836396   -1.4534132  0.078527359   -2.9836396    1.5302264   396900 
  308000    1.0205211   -2.9838618   -2.9838618    -1.453084  0.081690346   -2.9838618    1.5307777   396900 
  309000    1.0192666   -2.9800055   -2.9800055   -1.4511094  0.079707232   -2.9800055    1.5288961   396900 
  310000    1.0187257   -2.9789919   -2.9789919   -1.4509072  0.083410745   -2.9789919    1.5280847   396900 
  311000    1.0171152   -2.9784692   -2.9784692   -1.4528002  0.076641667   -2.9784692     1.525669   396900 
  312000    1.0179044   -2.9790584   -2.9790584   -1.4522056  0.078402769   -2.9790584    1.5268528   396900 
  313000    1.0178384   -2.9797593   -2.9797593   -1.4530055  0.079418711   -2.9797593    1.5267538   396900 
  314000    1.0185294   -2.9812458   -2.9812458   -1.4534555  0.077632949   -2.9812458    1.5277903   396900 
  315000    1.0180188   -2.9811648   -2.9811648   -1.4541405  0.082670895   -2.9811648    1.5270243   396900 
  316000    1.0188681   -2.9838359   -2.9838359   -1.4555376  0.076841838   -2.9838359    1.5282982   396900 
  317000    1.0187009   -2.9808401   -2.9808401   -1.4527926  0.079948243   -2.9808401    1.5280475   396900 
  318000    1.0192337   -2.9814003   -2.9814003   -1.4525535  0.075333214   -2.9814003    1.5288467   396900 
  319000    1.0174411   -2.9810744   -2.9810744   -1.4549165    0.0810899   -2.9810744    1.5261579   396900 
  320000    1.0176652   -2.9826969   -2.9826969    -1.456203  0.077273514   -2.9826969     1.526494   396900 
  321000    1.0195989    -2.983776    -2.983776   -1.4543814  0.077226528    -2.983776    1.5293946   396900 
  322000    1.0196506   -2.9829068   -2.9829068   -1.4534347  0.077164653   -2.9829068    1.5294721   396900 
  323000    1.0189302   -2.9834166   -2.9834166   -1.4550251  0.078100286   -2.9834166    1.5283915   396900 
  324000    1.0186751   -2.9834173   -2.9834173   -1.4554084  0.073768527   -2.9834173    1.5280089   396900 
  325000     1.019907   -2.9853565   -2.9853565      -1.4555  0.080386569   -2.9853565    1.5298566   396900 
  326000    1.0170322   -2.9789554   -2.9789554   -1.4534109  0.085706333   -2.9789554    1.5255444   396900 
  327000    1.0179044   -2.9817607   -2.9817607    -1.454908  0.077258632   -2.9817607    1.5268527   396900 
  328000    1.0187153   -2.9832928   -2.9832928   -1.4552238  0.076398051   -2.9832928    1.5280691   396900 
  329000    1.0180433   -2.9835695   -2.9835695   -1.4565084  0.078511203   -2.9835695    1.5270611   396900 
  330000    1.0175369   -2.9822388   -2.9822388   -1.4559372  0.079735139   -2.9822388    1.5263015   396900 
  331000    1.0185151   -2.9827434   -2.9827434   -1.4549745   0.07679356   -2.9827434    1.5277689   396900 
  332000    1.0191317   -2.9839863   -2.9839863   -1.4552927  0.078815443   -2.9839863    1.5286937   396900 
  333000    1.0176889   -2.9810469   -2.9810469   -1.4545173   0.07972229   -2.9810469    1.5265295   396900 
  334000    1.0192795   -2.9806629   -2.9806629   -1.4517475  0.083419071   -2.9806629    1.5289153   396900 
  335000    1.0185473   -2.9827523   -2.9827523   -1.4549351  0.083179433   -2.9827523    1.5278172   396900 
  336000    1.0170381    -2.983466    -2.983466   -1.4579128  0.080737396    -2.983466    1.5255533   396900 
  337000     1.019026    -2.985342    -2.985342   -1.4568068  0.074438663    -2.985342    1.5285352   396900 
  338000    1.0180323   -2.9836672   -2.9836672   -1.4566226  0.077227625   -2.9836672    1.5270446   396900 
  339000    1.0185472   -2.9875268   -2.9875268   -1.4597099  0.073621981   -2.9875268    1.5278169   396900 
  340000    1.0160448   -2.9846875   -2.9846875   -1.4606242  0.074375052   -2.9846875    1.5240633   396900 
  341000     1.017377   -2.9834741   -2.9834741   -1.4574124  0.077190612   -2.9834741    1.5260617   396900 
  342000    1.0174643   -2.9849179   -2.9849179   -1.4587252  0.078718662   -2.9849179    1.5261926   396900 
  343000    1.0157811   -2.9844834   -2.9844834   -1.4608155  0.079988255   -2.9844834    1.5236679   396900 
  344000    1.0170647   -2.9866536   -2.9866536   -1.4610603  0.079126094   -2.9866536    1.5255932   396900 
  345000    1.0198188   -2.9871267   -2.9871267   -1.4574024  0.075308867   -2.9871267    1.5297243   396900 
  346000    1.0185289   -2.9872166   -2.9872166    -1.459427  0.076573518   -2.9872166    1.5277896   396900 
  347000    1.0177324   -2.9856339   -2.9856339    -1.459039  0.079915933   -2.9856339    1.5265948   396900 
  348000    1.0174222   -2.9852146   -2.9852146   -1.4590851  0.079722968   -2.9852146    1.5261295   396900 
  349000     1.021053   -2.9895395   -2.9895395   -1.4579638  0.081855726   -2.9895395    1.5315756   396900 
  350000    1.0191782   -2.9896758   -2.9896758   -1.4609124  0.077861623   -2.9896758    1.5287635   396900 
  351000    1.0196663   -2.9875431   -2.9875431   -1.4580474  0.081912837   -2.9875431    1.5294957   396900 
  352000    1.0197608   -2.9871498   -2.9871498   -1.4575124  0.077770862   -2.9871498    1.5296373   396900 
  353000    1.0192041   -2.9866012   -2.9866012   -1.4577989  0.079452515   -2.9866012    1.5288023   396900 
  354000    1.0178893    -2.987535    -2.987535   -1.4607049  0.074357912    -2.987535    1.5268302   396900 
  355000    1.0184582   -2.9879093   -2.9879093   -1.4602258  0.081231566   -2.9879093    1.5276834   396900 
  356000    1.0213479    -2.989518    -2.989518      -1.4575  0.084184047    -2.989518    1.5320181   396900 
  357000     1.019275   -2.9873982   -2.9873982   -1.4584895  0.083776616   -2.9873982    1.5289087   396900 
  358000    1.0207435   -2.9885306   -2.9885306   -1.4574193  0.074517929   -2.9885306    1.5311113   396900 
  359000    1.0180888   -2.9854482   -2.9854482   -1.4583189  0.078741082   -2.9854482    1.5271293   396900 
  360000    1.0193677   -2.9867886   -2.9867886    -1.457741  0.082462864   -2.9867886    1.5290477   396900 
  361000    1.0178329     -2.98565     -2.98565   -1.4589045  0.079586802     -2.98565    1.5267455   396900 
  362000    1.0189322   -2.9900297   -2.9900297   -1.4616352  0.079521742   -2.9900297    1.5283945   396900 
  363000    1.0187318   -2.9877628   -2.9877628   -1.4596689  0.075384959   -2.9877628    1.5280939   396900 
  364000    1.0181382   -2.9878262   -2.9878262   -1.4606227  0.080327929   -2.9878262    1.5272035   396900 
  365000    1.0194557   -2.9905458   -2.9905458   -1.4613662  0.073317228   -2.9905458    1.5291796   396900 
  366000    1.0189249   -2.9905044   -2.9905044   -1.4621209  0.082697605   -2.9905044    1.5283835   396900 
  367000    1.0189895    -2.990247    -2.990247   -1.4617665  0.083449494    -2.990247    1.5284805   396900 
  368000    1.0190745   -2.9916002   -2.9916002   -1.4629923  0.083775246   -2.9916002    1.5286079   396900 
  369000    1.0197757   -2.9939037   -2.9939037    -1.464244  0.075467935   -2.9939037    1.5296597   396900 
  370000    1.0179609   -2.9920614   -2.9920614   -1.4651238  0.077404401   -2.9920614    1.5269376   396900 
  371000     1.020245   -2.9914218   -2.9914218   -1.4610582   0.08125239   -2.9914218    1.5303636   396900 
  372000    1.0208066   -2.9912466   -2.9912466   -1.4600406  0.075004424   -2.9912466    1.5312061   396900 
  373000    1.0183484   -2.9896484   -2.9896484   -1.4621297   0.07443201   -2.9896484    1.5275187   396900 
  374000     1.017905   -2.9906618   -2.9906618   -1.4638082  0.079143469   -2.9906618    1.5268536   396900 
  375000    1.0184607   -2.9893295   -2.9893295   -1.4616423  0.079031661   -2.9893295    1.5276871   396900 
  376000    1.0210261   -2.9910705   -2.9910705   -1.4595351  0.080477052   -2.9910705    1.5315353   396900 
  377000    1.0202993   -2.9888933   -2.9888933   -1.4584482  0.079984157   -2.9888933    1.5304451   396900 
  378000    1.0183496   -2.9873455   -2.9873455   -1.4598249   0.07781708   -2.9873455    1.5275205   396900 
  379000    1.0192448   -2.9845776   -2.9845776   -1.4557142  0.079059914   -2.9845776    1.5288634   396900 
  380000     1.018417   -2.9866097   -2.9866097   -1.4589881  0.078970163   -2.9866097    1.5276216   396900 
  381000    1.0181559    -2.985584    -2.985584   -1.4583539  0.082320416    -2.985584      1.52723   396900 
  382000    1.0193579   -2.9858116   -2.9858116   -1.4567786  0.074228938   -2.9858116     1.529033   396900 
  383000    1.0211192   -2.9866557   -2.9866557   -1.4549808  0.079321426   -2.9866557    1.5316749   396900 
  384000    1.0199564   -2.9857317   -2.9857317    -1.455801  0.078342936   -2.9857317    1.5299307   396900 
  385000    1.0188756   -2.9817706   -2.9817706   -1.4534611  0.077766978   -2.9817706    1.5283095   396900 
  386000    1.0184096   -2.9834443   -2.9834443   -1.4558337   0.07754012   -2.9834443    1.5276106   396900 
  387000     1.019279   -2.9838284   -2.9838284   -1.4549138  0.081344839   -2.9838284    1.5289146   396900 
  388000    1.0200715    -2.981971    -2.981971   -1.4518676  0.082377407    -2.981971    1.5301034   396900 
  389000    1.0202511   -2.9837732   -2.9837732   -1.4534004  0.078499017   -2.9837732    1.5303728   396900 
  390000    1.0212153   -2.9847979   -2.9847979   -1.4529788  0.079459097   -2.9847979    1.5318191   396900 
  391000     1.019579   -2.9824551   -2.9824551   -1.4530905  0.074802302   -2.9824551    1.5293646   396900 
  392000    1.0203941   -2.9835505   -2.9835505   -1.4529631  0.078708298   -2.9835505    1.5305874   396900 
  393000    1.0208494   -2.9844498   -2.9844498   -1.4531795  0.077842809   -2.9844498    1.5312703   396900 
  394000    1.0185818   -2.9810559   -2.9810559   -1.4531871  0.076830709   -2.9810559    1.5278689   396900 
  395000    1.0194791   -2.9827535   -2.9827535   -1.4535387  0.078397511   -2.9827535    1.5292148   396900 
  396000    1.0203248   -2.9838555   -2.9838555   -1.4533721  0.077924264   -2.9838555    1.5304834   396900 
  397000    1.0195245   -2.9823329   -2.9823329     -1.45305  0.077393794   -2.9823329    1.5292829   396900 
  398000    1.0182811   -2.9817587   -2.9817587   -1.4543409  0.074210394   -2.9817587    1.5274178   396900 
  399000    1.0188382   -2.9826358   -2.9826358   -1.4543823  0.077443885   -2.9826358    1.5282535   396900 
  400000     1.020768   -2.9830976   -2.9830976   -1.4519495  0.080830438   -2.9830976    1.5311481   396900 
  401000    1.0202708   -2.9825696   -2.9825696   -1.4521673  0.079236902   -2.9825696    1.5304023   396900 
  402000    1.0199203   -2.9842789   -2.9842789   -1.4544022  0.074646682   -2.9842789    1.5298767   396900 
  403000    1.0183324   -2.9821283   -2.9821283   -1.4546336   0.07411556   -2.9821283    1.5274947   396900 
  404000    1.0200404   -2.9825128   -2.9825128    -1.452456  0.070557366   -2.9825128    1.5300568   396900 
  405000    1.0202974   -2.9836971   -2.9836971   -1.4532549  0.076889126   -2.9836971    1.5304422   396900 
  406000    1.0214661   -2.9830504   -2.9830504    -1.450855  0.078211506   -2.9830504    1.5321953   396900 
  407000    1.0204255   -2.9807508   -2.9807508   -1.4501165  0.076560643   -2.9807508    1.5306343   396900 
  408000    1.0189123   -2.9799242   -2.9799242   -1.4515596  0.076914462   -2.9799242    1.5283646   396900 
  409000    1.0186542   -2.9795895   -2.9795895   -1.4516121  0.076899132   -2.9795895    1.5279774   396900 
  410000    1.0223945    -2.983402    -2.983402    -1.449814  0.077845125    -2.983402    1.5335879   396900 
  411000    1.0209766   -2.9821002   -2.9821002   -1.4506392  0.078928466   -2.9821002     1.531461   396900 
  412000    1.0200367   -2.9816242   -2.9816242    -1.451573  0.075850754   -2.9816242    1.5300512   396900 
  413000    1.0221959   -2.9868223   -2.9868223   -1.4535323  0.078313132   -2.9868223      1.53329   396900 
  414000    1.0205138   -2.9839148   -2.9839148   -1.4531479  0.075266998   -2.9839148    1.5307668   396900 
  415000    1.0197956   -2.9859944   -2.9859944   -1.4563049  0.076845091   -2.9859944    1.5296895   396900 
  416000    1.0196276   -2.9835142   -2.9835142   -1.4540766  0.081427945   -2.9835142    1.5294376   396900 
  417000    1.0201283   -2.9835723   -2.9835723   -1.4533837  0.075905243   -2.9835723    1.5301886   396900 
  418000    1.0194955   -2.9826648   -2.9826648   -1.4534255  0.078058378   -2.9826648    1.5292393   396900 
  419000    1.0200651    -2.983875    -2.983875   -1.4537811  0.080057155    -2.983875    1.5300938   396900 
  420000    1.0197016    -2.984193    -2.984193   -1.4546444  0.075962502    -2.984193    1.5295486   396900 
  421000    1.0179454   -2.9816054   -2.9816054   -1.4546912  0.078227507   -2.9816054    1.5269142   396900 
  422000    1.0185147   -2.9845669   -2.9845669   -1.4567986  0.076047515   -2.9845669    1.5277683   396900 
  423000    1.0208476    -2.989255    -2.989255   -1.4579875  0.074996962    -2.989255    1.5312675   396900 
  424000     1.019926   -2.9861486   -2.9861486   -1.4562634  0.076400431   -2.9861486    1.5298852   396900 
  425000    1.0200007   -2.9865316   -2.9865316   -1.4565343  0.068674929   -2.9865316    1.5299973   396900 
  426000    1.0208126   -2.9869053   -2.9869053   -1.4556903  0.076760391   -2.9869053     1.531215   396900 
  427000    1.0233277   -2.9882347   -2.9882347    -1.453247   0.07719698   -2.9882347    1.5349877   396900 
  428000     1.021161    -2.983657    -2.983657   -1.4519193  0.076344099    -2.983657    1.5317377   396900 
  429000    1.0193317   -2.9831717   -2.9831717    -1.454178  0.079424468   -2.9831717    1.5289937   396900 
  430000    1.0228836   -2.9886714   -2.9886714   -1.4543498  0.078904216   -2.9886714    1.5343216   396900 
  431000    1.0212988   -2.9883705   -2.9883705   -1.4564261  0.074235772   -2.9883705    1.5319444   396900 
  432000    1.0193015   -2.9849029   -2.9849029   -1.4559544  0.074080719   -2.9849029    1.5289485   396900 
  433000    1.0177448   -2.9836266   -2.9836266   -1.4570133  0.076370481   -2.9836266    1.5266133   396900 
  434000     1.019359   -2.9863129   -2.9863129   -1.4572782  0.075300834   -2.9863129    1.5290347   396900 
  435000    1.0188863   -2.9873806   -2.9873806    -1.459055  0.071283572   -2.9873806    1.5283255   396900 
  436000    1.0200452   -2.9856223   -2.9856223   -1.4555583  0.076868257   -2.9856223     1.530064   396900 
  437000    1.0202329    -2.986403    -2.986403   -1.4560575  0.081901498    -2.986403    1.5303455   396900 
  438000     1.019597   -2.9861113   -2.9861113   -1.4567196  0.078590058   -2.9861113    1.5293917   396900 
  439000     1.018856   -2.9840294   -2.9840294   -1.4557492  0.081471258   -2.9840294    1.5282802   396900 
  440000    1.0217716   -2.9869492   -2.9869492   -1.4542957  0.078965659   -2.9869492    1.5326536   396900 
  441000     1.021815   -2.9865788   -2.9865788   -1.4538601  0.083101134   -2.9865788    1.5327186   396900 
  442000    1.0217395   -2.9855037   -2.9855037   -1.4528984   0.08107348   -2.9855037    1.5326053   396900 
  443000    1.0215628   -2.9865075   -2.9865075   -1.4541672  0.076841813   -2.9865075    1.5323403   396900 
  444000    1.0209739   -2.9859619   -2.9859619    -1.454505  0.078021586   -2.9859619    1.5314569   396900 
  445000    1.0206172   -2.9882203   -2.9882203   -1.4572984  0.074023986   -2.9882203    1.5309219   396900 
  446000    1.0175854   -2.9844128   -2.9844128   -1.4580385  0.081338845   -2.9844128    1.5263742   396900 
  447000    1.0196105   -2.9830164   -2.9830164   -1.4536044  0.082005526   -2.9830164     1.529412   396900 
  448000    1.0203418   -2.9876901   -2.9876901   -1.4571813  0.074499351   -2.9876901    1.5305088   396900 
  449000    1.0201874    -2.988126    -2.988126   -1.4578487  0.076576609    -2.988126    1.5302773   396900 
  450000    1.0213239   -2.9852796   -2.9852796   -1.4532977  0.077749519   -2.9852796    1.5319819   396900 
  451000    1.0212598    -2.986768    -2.986768   -1.4548821  0.081347569    -2.986768    1.5318859   396900 
  452000    1.0199432   -2.9867754   -2.9867754   -1.4568644  0.077293267   -2.9867754     1.529911   396900 
  453000     1.021312   -2.9881945   -2.9881945   -1.4562304  0.077138375   -2.9881945    1.5319641   396900 
  454000    1.0199405   -2.9877783   -2.9877783   -1.4578713   0.07942722   -2.9877783     1.529907   396900 
  455000    1.0220872    -2.990064    -2.990064    -1.456937  0.078206022    -2.990064     1.533127   396900 
  456000    1.0215079   -2.9883031   -2.9883031   -1.4560451  0.074323443   -2.9883031     1.532258   396900 
  457000     1.021225   -2.9888574   -2.9888574   -1.4570237  0.073351473   -2.9888574    1.5318337   396900 
  458000     1.017868   -2.9860784   -2.9860784   -1.4592802  0.077155333   -2.9860784    1.5267981   396900 
  459000    1.0195106   -2.9866325   -2.9866325   -1.4573704  0.076463691   -2.9866325    1.5292621   396900 
  460000    1.0194412    -2.984521    -2.984521    -1.455363  0.081226192    -2.984521     1.529158   396900 
  461000    1.0220156   -2.9895423   -2.9895423   -1.4565228  0.081657008   -2.9895423    1.5330195   396900 
  462000    1.0201409   -2.9873636   -2.9873636   -1.4571562  0.077322285   -2.9873636    1.5302075   396900 
  463000    1.0179799   -2.9854133   -2.9854133   -1.4584473  0.082630905   -2.9854133     1.526966   396900 
  464000    1.0204914   -2.9880673   -2.9880673    -1.457334  0.077519431   -2.9880673    1.5307332   396900 
  465000    1.0198826   -2.9869106   -2.9869106   -1.4570906  0.074619216   -2.9869106    1.5298201   396900 
  466000     1.021117   -2.9865601   -2.9865601   -1.4548885  0.075980297   -2.9865601    1.5316716   396900 
  467000    1.0184878   -2.9852312   -2.9852312   -1.4575033  0.080444772   -2.9852312    1.5277279   396900 
  468000    1.0202233   -2.9881035   -2.9881035   -1.4577724  0.081024943   -2.9881035    1.5303311   396900 
  469000     1.020144   -2.9888159   -2.9888159   -1.4586038  0.075804511   -2.9888159    1.5302121   396900 
  470000    1.0192098   -2.9874104   -2.9874104   -1.4585995  0.076051186   -2.9874104    1.5288109   396900 
  471000    1.0210681   -2.9881148   -2.9881148   -1.4565165   0.07813255   -2.9881148    1.5315983   396900 
  472000    1.0200592   -2.9872988   -2.9872988   -1.4572139   0.08129513   -2.9872988    1.5300849   396900 
  473000    1.0211021   -2.9881357   -2.9881357   -1.4564864  0.083294316   -2.9881357    1.5316494   396900 
  474000    1.0208829   -2.9884219   -2.9884219   -1.4571014  0.076225114   -2.9884219    1.5313205   396900 
  475000    1.0199773   -2.9861381   -2.9861381    -1.456176  0.077833598   -2.9861381    1.5299621   396900 
  476000    1.0182852   -2.9840472   -2.9840472   -1.4566233  0.078060743   -2.9840472    1.5274239   396900 
  477000    1.0208714   -2.9853124   -2.9853124   -1.4540091  0.077274736   -2.9853124    1.5313033   396900 
  478000    1.0178874   -2.9828516   -2.9828516   -1.4560244  0.074776411   -2.9828516    1.5268272   396900 
  479000    1.0187638   -2.9834171   -2.9834171   -1.4552752  0.075926933   -2.9834171    1.5281419   396900 
  480000    1.0182179   -2.9838495   -2.9838495   -1.4565265  0.076486979   -2.9838495     1.527323   396900 
  481000    1.0164039   -2.9817779   -2.9817779   -1.4571759  0.073842069   -2.9817779     1.524602   396900 
  482000    1.0188508   -2.9823107   -2.9823107   -1.4540384  0.073066384   -2.9823107    1.5282723   396900 
  483000    1.0192978   -2.9830198   -2.9830198    -1.454077  0.074243409   -2.9830198    1.5289428   396900 
  484000    1.0202695   -2.9854114   -2.9854114   -1.4550111  0.074591394   -2.9854114    1.5304003   396900 
  485000    1.0205445   -2.9844698   -2.9844698   -1.4536569  0.074882195   -2.9844698    1.5308128   396900 
  486000    1.0177501   -2.9814499   -2.9814499   -1.4548286  0.075954844   -2.9814499    1.5266213   396900 
  487000    1.0203724   -2.9824174   -2.9824174   -1.4518628  0.071648366   -2.9824174    1.5305547   396900 
  488000    1.0218854   -2.9819801   -2.9819801   -1.4491558  0.080934637   -2.9819801    1.5328243   396900 
  489000    1.0215456    -2.981971    -2.981971   -1.4496565  0.076332376    -2.981971    1.5323145   396900 
  490000    1.0214699   -2.9826639   -2.9826639   -1.4504629  0.079099183   -2.9826639     1.532201   396900 
  491000    1.0201683   -2.9810436   -2.9810436    -1.450795  0.077914866   -2.9810436    1.5302487   396900 
  492000    1.0181703   -2.9794775   -2.9794775   -1.4522259  0.080779852   -2.9794775    1.5272516   396900 
  493000    1.0214342   -2.9839537   -2.9839537   -1.4518063  0.073659005   -2.9839537    1.5321474   396900 
  494000    1.0218756    -2.984481    -2.984481   -1.4516715  0.078847247    -2.984481    1.5328095   396900 
  495000    1.0223153   -2.9841503   -2.9841503   -1.4506813   0.07935394   -2.9841503     1.533469   396900 
  496000    1.0208147   -2.9834905   -2.9834905   -1.4522724  0.075561291   -2.9834905    1.5312182   396900 
  497000    1.0212344   -2.9838532   -2.9838532   -1.4520055  0.077087107   -2.9838532    1.5318477   396900 
  498000    1.0225248   -2.9856462   -2.9856462   -1.4518628  0.077922333   -2.9856462    1.5337834   396900 
  499000    1.0198109   -2.9821602   -2.9821602   -1.4524478  0.073906869   -2.9821602    1.5297125   396900 
  500000    1.0190817   -2.9823903   -2.9823903   -1.4537716  0.079607602   -2.9823903    1.5286188   396900 
  501000    1.0201479   -2.9842078   -2.9842078   -1.4539899  0.074917349   -2.9842078    1.5302179   396900 
  502000    1.0194508   -2.9837945   -2.9837945   -1.4546221  0.073533285   -2.9837945    1.5291724   396900 
  503000     1.019717    -2.984159    -2.984159   -1.4545874  0.070464356    -2.984159    1.5295716   396900 
  504000    1.0173164   -2.9798182   -2.9798182   -1.4538474  0.070845885   -2.9798182    1.5259708   396900 
  505000    1.0191598   -2.9834517   -2.9834517   -1.4547159  0.077555517   -2.9834517    1.5287358   396900 
  506000    1.0193219   -2.9831309   -2.9831309    -1.454152  0.081341318   -2.9831309    1.5289789   396900 
  507000    1.0210985   -2.9858089   -2.9858089    -1.454165  0.079635213   -2.9858089     1.531644   396900 
  508000     1.020093     -2.98575     -2.98575   -1.4556143  0.078485172     -2.98575    1.5301357   396900 
  509000    1.0202475   -2.9854486   -2.9854486   -1.4550812  0.076051019   -2.9854486    1.5303674   396900 
  510000    1.0199778   -2.9848421   -2.9848421   -1.4548792  0.077751731   -2.9848421    1.5299628   396900 
  511000    1.0223354   -2.9881412   -2.9881412    -1.454642  0.077188582   -2.9881412    1.5334992   396900 
  512000    1.0209043    -2.987225    -2.987225   -1.4558725    0.0758874    -2.987225    1.5313526   396900 
  513000    1.0223109   -2.9855519   -2.9855519   -1.4520894  0.079753084   -2.9855519    1.5334625   396900 
  514000    1.0215346   -2.9873293   -2.9873293   -1.4550313  0.076508866   -2.9873293     1.532298   396900 
  515000    1.0212225   -2.9879724   -2.9879724   -1.4561426  0.078908928   -2.9879724    1.5318298   396900 
  516000    1.0214766   -2.9880239   -2.9880239   -1.4558129  0.072479039   -2.9880239     1.532211   396900 
  517000    1.0204361   -2.9830568   -2.9830568   -1.4524065  0.082080371   -2.9830568    1.5306503   396900 
  518000    1.0196868   -2.9826153   -2.9826153   -1.4530889  0.078906569   -2.9826153    1.5295264   396900 
  519000    1.0201589   -2.9812239   -2.9812239   -1.4509895  0.078423805   -2.9812239    1.5302344   396900 
  520000     1.020757   -2.9841831   -2.9841831   -1.4530515  0.079970828   -2.9841831    1.5311316   396900 
  521000    1.0223483   -2.9843064   -2.9843064   -1.4507878   0.07983606   -2.9843064    1.5335186   396900 
  522000    1.0222574   -2.9863693   -2.9863693   -1.4529871  0.078945284   -2.9863693    1.5333822   396900 
  523000    1.0208387   -2.9832888   -2.9832888   -1.4520346  0.080600267   -2.9832888    1.5312541   396900 
  524000    1.0199305    -2.979407    -2.979407   -1.4495151  0.077383625    -2.979407    1.5298919   396900 
  525000    1.0206227   -2.9811163   -2.9811163   -1.4501861   0.07421203   -2.9811163    1.5309301   396900 
  526000    1.0220209     -2.98078     -2.98078   -1.4477525  0.080084409     -2.98078    1.5330275   396900 
  527000    1.0224741   -2.9814507   -2.9814507   -1.4477434  0.076144758   -2.9814507    1.5337073   396900 
  528000     1.021316   -2.9786418   -2.9786418   -1.4466716  0.080805597   -2.9786418    1.5319702   396900 
  529000    1.0200886   -2.9774523   -2.9774523   -1.4473233  0.082147632   -2.9774523     1.530129   396900 
  530000    1.0218447   -2.9806398   -2.9806398   -1.4478767  0.075561331   -2.9806398    1.5327632   396900 
  531000     1.020627   -2.9800879   -2.9800879   -1.4491512  0.078461869   -2.9800879    1.5309366   396900 
  532000    1.0203249   -2.9811407   -2.9811407   -1.4506572  0.077618178   -2.9811407    1.5304835   396900 
  533000     1.019979   -2.9798804   -2.9798804   -1.4499158  0.076843355   -2.9798804    1.5299646   396900 
  534000    1.0224435   -2.9827494   -2.9827494   -1.4490879   0.07758734   -2.9827494    1.5336614   396900 
  535000    1.0225493   -2.9816223   -2.9816223   -1.4478022  0.074604893   -2.9816223    1.5338201   396900 
  536000     1.021634   -2.9807269   -2.9807269   -1.4482798  0.079205388   -2.9807269    1.5324472   396900 
  537000    1.0228561   -2.9824466   -2.9824466   -1.4481663  0.080647429   -2.9824466    1.5342803   396900 
  538000    1.0202231   -2.9810145   -2.9810145   -1.4506837  0.074652222   -2.9810145    1.5303308   396900 
  539000    1.0207964   -2.9808511   -2.9808511   -1.4496603  0.073570353   -2.9808511    1.5311907   396900 
  540000    1.0220639   -2.9808252   -2.9808252   -1.4477331  0.081273571   -2.9808252     1.533092   396900 
  541000    1.0227036   -2.9791806   -2.9791806    -1.445129  0.083625793   -2.9791806    1.5340516   396900 
  542000    1.0211014   -2.9786908   -2.9786908   -1.4470425  0.078703816   -2.9786908    1.5316483   396900 
  543000    1.0213595   -2.9800839   -2.9800839   -1.4480485  0.080062806   -2.9800839    1.5320354   396900 
  544000    1.0208936   -2.9807348   -2.9807348   -1.4493982  0.077648832   -2.9807348    1.5313366   396900 
  545000    1.0229974   -2.9813325   -2.9813325   -1.4468402   0.07688082   -2.9813325    1.5344923   396900 
  546000    1.0217328   -2.9797492   -2.9797492   -1.4471538  0.082995595   -2.9797492    1.5325954   396900 
  547000    1.0192882   -2.9781389   -2.9781389   -1.4492105   0.07982475   -2.9781389    1.5289284   396900 
  548000    1.0213851   -2.9812738   -2.9812738      -1.4492  0.078969917   -2.9812738    1.5320739   396900 
  549000    1.0226956   -2.9784215   -2.9784215    -1.444382  0.078039514   -2.9784215    1.5340395   396900 
  550000    1.0249572   -2.9810281   -2.9810281   -1.4435962  0.075654412   -2.9810281    1.5374319   396900 
  551000    1.0243728   -2.9788598   -2.9788598   -1.4423044  0.081341092   -2.9788598    1.5365554   396900 
  552000    1.0241491   -2.9808495   -2.9808495   -1.4446297   0.07524015   -2.9808495    1.5362198   396900 
  553000    1.0236319    -2.979757    -2.979757    -1.444313  0.074253312    -2.979757     1.535444   396900 
  554000    1.0206746   -2.9750775   -2.9750775   -1.4440695  0.079437951   -2.9750775     1.531008   396900 
  555000    1.0237813   -2.9796804   -2.9796804   -1.4440123  0.077424384   -2.9796804    1.5356681   396900 
  556000    1.0206606     -2.97534     -2.97534    -1.444353  0.081295441     -2.97534     1.530987   396900 
  557000    1.0233057   -2.9811126   -2.9811126    -1.446158  0.078071621   -2.9811126    1.5349547   396900 
  558000    1.0223506   -2.9786548   -2.9786548   -1.4451328  0.080663386   -2.9786548     1.533522   396900 
  559000    1.0248993   -2.9796171   -2.9796171    -1.442272  0.082602992   -2.9796171     1.537345   396900 
  560000    1.0247973   -2.9809814   -2.9809814   -1.4437893  0.082001055   -2.9809814    1.5371921   396900 
  561000    1.0242126   -2.9801914   -2.9801914   -1.4438765  0.079179471   -2.9801914     1.536315   396900 
  562000    1.0218565   -2.9798032   -2.9798032   -1.4470223   0.07735982   -2.9798032    1.5327809   396900 
  563000    1.0221989   -2.9809892   -2.9809892   -1.4476947  0.073515261   -2.9809892    1.5332945   396900 
  564000     1.020362   -2.9773393   -2.9773393   -1.4468002   0.07816599   -2.9773393    1.5305391   396900 
  565000     1.020115   -2.9769152   -2.9769152   -1.4467466  0.075424727   -2.9769152    1.5301686   396900 
  566000    1.0224335    -2.978015    -2.978015   -1.4443685  0.080133489    -2.978015    1.5336465   396900 
  567000    1.0215324   -2.9781614   -2.9781614   -1.4458666  0.075569888   -2.9781614    1.5322947   396900 
  568000    1.0235274   -2.9793149   -2.9793149   -1.4440277  0.073564544   -2.9793149    1.5352872   396900 
  569000    1.0238973   -2.9793567   -2.9793567   -1.4435147  0.077587067   -2.9793567     1.535842   396900 
  570000    1.0234154   -2.9756449   -2.9756449   -1.4405257  0.078193741   -2.9756449    1.5351192   396900 
  571000    1.0235789   -2.9744726   -2.9744726    -1.439108  0.079140205   -2.9744726    1.5353645   396900 
  572000    1.0229188    -2.975113    -2.975113   -1.4407388  0.079015287    -2.975113    1.5343743   396900 
  573000     1.023279    -2.974459    -2.974459   -1.4395444  0.077090085    -2.974459    1.5349146   396900 
  574000    1.0249187   -2.9743216   -2.9743216   -1.4369474  0.079347056   -2.9743216    1.5373741   396900 
  575000    1.0221316   -2.9723632   -2.9723632   -1.4391697  0.081454084   -2.9723632    1.5331935   396900 
  576000    1.0227206   -2.9730824   -2.9730824   -1.4390054  0.079464449   -2.9730824     1.534077   396900 
  577000    1.0238886   -2.9734575   -2.9734575   -1.4376285   0.07438567   -2.9734575     1.535829   396900 
  578000    1.0231099   -2.9721652   -2.9721652   -1.4375042  0.078434149   -2.9721652     1.534661   396900 
  579000    1.0236649   -2.9725903   -2.9725903   -1.4370968  0.077392722   -2.9725903    1.5354935   396900 
  580000     1.023106   -2.9726159   -2.9726159   -1.4379608  0.075992008   -2.9726159    1.5346551   396900 
  581000    1.0230869   -2.9746159   -2.9746159   -1.4399894  0.076662215   -2.9746159    1.5346265   396900 
  582000    1.0237779   -2.9742992   -2.9742992   -1.4386362  0.077586476   -2.9742992     1.535663   396900 
  583000    1.0218996   -2.9730061   -2.9730061   -1.4401606  0.075725052   -2.9730061    1.5328455   396900 
  584000     1.020872   -2.9697695   -2.9697695   -1.4384653  0.075467662   -2.9697695    1.5313042   396900 
  585000    1.0225079   -2.9707023   -2.9707023   -1.4369442  0.080048261   -2.9707023     1.533758   396900 
  586000    1.0233474   -2.9720938   -2.9720938   -1.4370765  0.076257598   -2.9720938    1.5350173   396900 
  587000    1.0224593   -2.9711089   -2.9711089   -1.4374238  0.079881402   -2.9711089    1.5336851   396900 
  588000    1.0233548   -2.9734362   -2.9734362   -1.4384079  0.078853186   -2.9734362    1.5350283   396900 
  589000    1.0236472   -2.9714461   -2.9714461   -1.4359792  0.082174255   -2.9714461     1.535467   396900 
  590000    1.0214887   -2.9712355   -2.9712355   -1.4390064  0.072996064   -2.9712355    1.5322292   396900 
  591000    1.0232742   -2.9723282   -2.9723282   -1.4374208   0.07850802   -2.9723282    1.5349074   396900 
  592000    1.0228006   -2.9719478   -2.9719478   -1.4377509  0.079970387   -2.9719478     1.534197   396900 
  593000    1.0245331   -2.9756425   -2.9756425   -1.4388467  0.082373872   -2.9756425    1.5367958   396900 
  594000    1.0237764   -2.9744668   -2.9744668    -1.438806  0.082593814   -2.9744668    1.5356608   396900 
  595000    1.0213009   -2.9708134   -2.9708134   -1.4388659   0.07973488   -2.9708134    1.5319475   396900 
  596000     1.021643   -2.9741277   -2.9741277   -1.4416669  0.078940094   -2.9741277    1.5324607   396900 
  597000    1.0204961   -2.9723372   -2.9723372   -1.4415969  0.078758222   -2.9723372    1.5307402   396900 
  598000    1.0228108   -2.9767366   -2.9767366   -1.4425242  0.077195315   -2.9767366    1.5342124   396900 
  599000    1.0221908   -2.9746567   -2.9746567   -1.4413744  0.075990278   -2.9746567    1.5332823   396900 
  600000     1.021776    -2.974938    -2.974938   -1.4422778  0.075864824    -2.974938    1.5326601   396900 
  601000    1.0221439   -2.9722592   -2.9722592   -1.4390471   0.08149164   -2.9722592     1.533212   396900 
  602000    1.0231579   -2.9731875   -2.9731875   -1.4384545  0.079388181   -2.9731875    1.5347329   396900 
  603000    1.0258777   -2.9736624   -2.9736624   -1.4348497  0.080067843   -2.9736624    1.5388127   396900 
  604000    1.0243391   -2.9743566   -2.9743566   -1.4378518  0.075987973   -2.9743566    1.5365048   396900 
  605000    1.0225038   -2.9726057   -2.9726057   -1.4388538  0.080611806   -2.9726057    1.5337519   396900 
  606000    1.0237212   -2.9734959   -2.9734959    -1.437918  0.074363542   -2.9734959    1.5355779   396900 
  607000    1.0227187   -2.9725552   -2.9725552   -1.4384811  0.076421769   -2.9725552    1.5340742   396900 
  608000    1.0213828   -2.9724344   -2.9724344   -1.4403641  0.078211028   -2.9724344    1.5320703   396900 
  609000      1.02252   -2.9750068   -2.9750068   -1.4412306   0.07589425   -2.9750068    1.5337762   396900 
  610000    1.0216883   -2.9751558   -2.9751558   -1.4426272  0.072564166   -2.9751558    1.5325286   396900 
  611000    1.0213192   -2.9725898   -2.9725898   -1.4406149  0.075746076   -2.9725898    1.5319749   396900 
  612000    1.0222884   -2.9745347   -2.9745347    -1.441106  0.076553186   -2.9745347    1.5334287   396900 
  613000     1.021897   -2.9743524   -2.9743524   -1.4415108  0.076330126   -2.9743524    1.5328417   396900 
  614000    1.0224093     -2.97311     -2.97311   -1.4394999  0.077956942     -2.97311    1.5336101   396900 
  615000    1.0251279   -2.9733871   -2.9733871   -1.4356992  0.081011395   -2.9733871    1.5376879   396900 
  616000    1.0244463   -2.9733593   -2.9733593   -1.4366938  0.081154105   -2.9733593    1.5366655   396900 
  617000    1.0236189   -2.9723536   -2.9723536   -1.4369291  0.081123958   -2.9723536    1.5354245   396900 
  618000    1.0239343   -2.9737207   -2.9737207    -1.437823  0.077418546   -2.9737207    1.5358976   396900 
  619000    1.0220968   -2.9718777   -2.9718777   -1.4387364  0.072480399   -2.9718777    1.5331413   396900 
  620000     1.021706   -2.9696581   -2.9696581    -1.437103  0.075125929   -2.9696581    1.5325552   396900 
  621000    1.0224263   -2.9708638   -2.9708638   -1.4372282  0.080162389   -2.9708638    1.5336356   396900 
  622000    1.0243875   -2.9741263   -2.9741263    -1.437549  0.075993334   -2.9741263    1.5365773   396900 
  623000     1.022598   -2.9722651   -2.9722651   -1.4383719  0.076656565   -2.9722651    1.5338932   396900 
  624000    1.0228686   -2.9717602   -2.9717602   -1.4374611  0.082348443   -2.9717602    1.5342991   396900 
  625000    1.0250267    -2.975073    -2.975073   -1.4375368  0.080739473    -2.975073    1.5375362   396900 
  626000    1.0234111   -2.9726873   -2.9726873   -1.4375745  0.079973476   -2.9726873    1.5351129   396900 
  627000    1.0200078   -2.9690548   -2.9690548   -1.4390469  0.078296453   -2.9690548    1.5300079   396900 
  628000    1.0248835   -2.9727017   -2.9727017   -1.4353804   0.08001446   -2.9727017    1.5373213   396900 
  629000    1.0242173   -2.9724951   -2.9724951   -1.4361731  0.079061721   -2.9724951     1.536322   396900 
  630000    1.0235289   -2.9721543   -2.9721543   -1.4368647  0.076842602   -2.9721543    1.5352895   396900 
  631000    1.0213715    -2.971096    -2.971096   -1.4390426  0.079512275    -2.971096    1.5320534   396900 
  632000    1.0222482   -2.9705278   -2.9705278   -1.4371594  0.074719336   -2.9705278    1.5333684   396900 
  633000    1.0229845   -2.9698856   -2.9698856   -1.4354127  0.078675768   -2.9698856    1.5344729   396900 
  634000    1.0237669   -2.9729321   -2.9729321   -1.4372856  0.075478081   -2.9729321    1.5356465   396900 
  635000    1.0243831   -2.9728334   -2.9728334   -1.4362627    0.0789481   -2.9728334    1.5365707   396900 
  636000    1.0239116   -2.9674508   -2.9674508   -1.4315873  0.084654192   -2.9674508    1.5358635   396900 
  637000    1.0254155   -2.9694992   -2.9694992   -1.4313798  0.079246085   -2.9694992    1.5381194   396900 
  638000    1.0241071   -2.9701605   -2.9701605   -1.4340037  0.073328435   -2.9701605    1.5361568   396900 
  639000    1.0243252   -2.9718076   -2.9718076   -1.4353237  0.077906539   -2.9718076    1.5364839   396900 
  640000    1.0217714   -2.9685728   -2.9685728   -1.4359196  0.077324884   -2.9685728    1.5326532   396900 
  641000    1.0225669   -2.9696649   -2.9696649   -1.4358184  0.073244052   -2.9696649    1.5338465   396900 
  642000    1.0239521    -2.970404    -2.970404   -1.4344797  0.072973222    -2.970404    1.5359243   396900 
  643000    1.0248326   -2.9707518   -2.9707518   -1.4335067  0.074734193   -2.9707518    1.5372451   396900 
  644000    1.0234655   -2.9671368   -2.9671368   -1.4319424  0.077448876   -2.9671368    1.5351943   396900 
  645000    1.0252069   -2.9690733   -2.9690733   -1.4312669  0.080479694   -2.9690733    1.5378065   396900 
  646000     1.024696   -2.9673707   -2.9673707   -1.4303305  0.078480311   -2.9673707    1.5370402   396900 
  647000     1.022201   -2.9644025   -2.9644025   -1.4311049  0.080446502   -2.9644025    1.5332976   396900 
  648000    1.0225941   -2.9638722   -2.9638722   -1.4299849  0.077462513   -2.9638722    1.5338873   396900 
  649000    1.0230898   -2.9647135   -2.9647135   -1.4300827  0.073754242   -2.9647135    1.5346308   396900 
  650000    1.0226299   -2.9649713   -2.9649713   -1.4310304  0.074731143   -2.9649713     1.533941   396900 
  651000    1.0267336   -2.9687669   -2.9687669   -1.4286703  0.080152865   -2.9687669    1.5400966   396900 
  652000     1.024431    -2.967648    -2.967648   -1.4310053  0.071903064    -2.967648    1.5366426   396900 
  653000    1.0242239   -2.9663216   -2.9663216   -1.4299896  0.076888181   -2.9663216     1.536332   396900 
  654000    1.0233577   -2.9664958   -2.9664958   -1.4314631  0.078028687   -2.9664958    1.5350327   396900 
  655000    1.0216899   -2.9649312   -2.9649312   -1.4324002  0.077909256   -2.9649312     1.532531   396900 
  656000    1.0246134   -2.9649595   -2.9649595   -1.4280434  0.079636142   -2.9649595    1.5369162   396900 
  657000     1.025834   -2.9677913   -2.9677913   -1.4290441  0.076851514   -2.9677913    1.5387472   396900 
  658000    1.0226322   -2.9652884   -2.9652884   -1.4313441  0.072422203   -2.9652884    1.5339444   396900 
  659000    1.0236495   -2.9644332   -2.9644332   -1.4289628   0.07897507   -2.9644332    1.5354704   396900 
  660000    1.0228446   -2.9650659   -2.9650659   -1.4308029  0.078368465   -2.9650659     1.534263   396900 
  661000    1.0210877   -2.9623169   -2.9623169   -1.4306893  0.076685203   -2.9623169    1.5316277   396900 
  662000    1.0237195   -2.9678933   -2.9678933   -1.4323179  0.077152378   -2.9678933    1.5355754   396900 
  663000    1.0228281   -2.9654595   -2.9654595   -1.4312212  0.078019795   -2.9654595    1.5342383   396900 
  664000    1.0244937   -2.9666769   -2.9666769   -1.4299402  0.080848938   -2.9666769    1.5367367   396900 
  665000    1.0260535   -2.9679643   -2.9679643    -1.428888  0.073358986   -2.9679643    1.5390764   396900 
  666000    1.0245885   -2.9657582   -2.9657582   -1.4288792  0.082012262   -2.9657582    1.5368789   396900 
  667000      1.02564   -2.9671727   -2.9671727   -1.4287166  0.076200803   -2.9671727    1.5384562   396900 
  668000    1.0222696   -2.9620695   -2.9620695    -1.428669  0.078893811   -2.9620695    1.5334005   396900 
  669000    1.0248745   -2.9653064   -2.9653064   -1.4279986  0.077930775   -2.9653064    1.5373078   396900 
  670000    1.0237287    -2.960813    -2.960813   -1.4252239  0.075082933    -2.960813    1.5355892   396900 
  671000    1.0248439    -2.961933    -2.961933    -1.424671  0.077993616    -2.961933     1.537262   396900 
  672000    1.0234672   -2.9625093   -2.9625093   -1.4273123  0.074594531   -2.9625093     1.535197   396900 
  673000    1.0240335   -2.9628551   -2.9628551   -1.4268087  0.079651086   -2.9628551    1.5360464   396900 
  674000    1.0239949   -2.9621769   -2.9621769   -1.4261884  0.074389838   -2.9621769    1.5359885   396900 
  675000    1.0228193   -2.9610979   -2.9610979   -1.4268728  0.074557862   -2.9610979     1.534225   396900 
  676000    1.0238872   -2.9605499   -2.9605499    -1.424723  0.076935076   -2.9605499     1.535827   396900 
  677000    1.0258609   -2.9616534   -2.9616534   -1.4228659  0.078573909   -2.9616534    1.5387875   396900 
  678000    1.0248989   -2.9646656   -2.9646656   -1.4273212  0.072442325   -2.9646656    1.5373444   396900 
  679000     1.023139   -2.9638128   -2.9638128   -1.4291081  0.069500592   -2.9638128    1.5347047   396900 
  680000    1.0247111   -2.9641887   -2.9641887   -1.4271259  0.080209671   -2.9641887    1.5370628   396900 
  681000    1.0212202   -2.9618908   -2.9618908   -1.4300643  0.073897519   -2.9618908    1.5318264   396900 
  682000    1.0204682   -2.9605799   -2.9605799   -1.4298815  0.075389267   -2.9605799    1.5306984   396900 
  683000    1.0227199   -2.9661445   -2.9661445   -1.4320685  0.068698201   -2.9661445     1.534076   396900 
  684000    1.0249633   -2.9675559   -2.9675559   -1.4301148  0.079121744   -2.9675559    1.5374411   396900 
  685000    1.0241168   -2.9656224   -2.9656224    -1.429451  0.076620573   -2.9656224    1.5361714   396900 
  686000    1.0249481   -2.9665669   -2.9665669   -1.4291486  0.080298051   -2.9665669    1.5374183   396900 
  687000    1.0260601   -2.9656081   -2.9656081   -1.4265218  0.078550404   -2.9656081    1.5390863   396900 
  688000    1.0239852   -2.9615879   -2.9615879   -1.4256139  0.078607965   -2.9615879     1.535974   396900 
  689000    1.0226751   -2.9609825   -2.9609825   -1.4269736  0.077656884   -2.9609825    1.5340088   396900 
  690000    1.0227337   -2.9636332   -2.9636332   -1.4295366  0.082688181   -2.9636332    1.5340966   396900 
  691000    1.0224612   -2.9621704   -2.9621704   -1.4284824  0.078415472   -2.9621704     1.533688   396900 
  692000    1.0237907   -2.9629835   -2.9629835   -1.4273014  0.075639844   -2.9629835    1.5356822   396900 
  693000    1.0237953    -2.961232    -2.961232   -1.4255429  0.077911215    -2.961232    1.5356891   396900 
  694000    1.0236829   -2.9619274   -2.9619274   -1.4264069  0.074591216   -2.9619274    1.5355205   396900 
  695000    1.0244144   -2.9617504   -2.9617504   -1.4251327  0.078049647   -2.9617504    1.5366178   396900 
  696000    1.0221062   -2.9598407   -2.9598407   -1.4266852  0.079240071   -2.9598407    1.5331555   396900 
  697000    1.0237896   -2.9595113   -2.9595113   -1.4238308  0.080755261   -2.9595113    1.5356805   396900 
  698000    1.0244169   -2.9601305   -2.9601305    -1.423509  0.072061361   -2.9601305    1.5366215   396900 
  699000    1.0206278   -2.9581727   -2.9581727   -1.4272348  0.070405667   -2.9581727    1.5309379   396900 
  700000    1.0232613   -2.9594796   -2.9594796   -1.4245915   0.08124979   -2.9594796    1.5348881   396900 
  701000     1.025222   -2.9618408   -2.9618408   -1.4240118  0.069077977   -2.9618408    1.5378291   396900 
  702000    1.0231782   -2.9601011   -2.9601011   -1.4253376  0.083773723   -2.9601011    1.5347635   396900 
  703000    1.0245705   -2.9603959   -2.9603959    -1.423544  0.074619176   -2.9603959    1.5368519   396900 
  704000    1.0259713   -2.9620917   -2.9620917   -1.4231387  0.083609552   -2.9620917     1.538953   396900 
  705000    1.0225714   -2.9584779   -2.9584779   -1.4246247  0.078042733   -2.9584779    1.5338532   396900 
  706000    1.0250055   -2.9608513   -2.9608513   -1.4233468  0.075041953   -2.9608513    1.5375044   396900 
  707000     1.025431    -2.962097    -2.962097   -1.4239544  0.081918719    -2.962097    1.5381426   396900 
  708000    1.0257163   -2.9615766   -2.9615766   -1.4230061  0.081114667   -2.9615766    1.5385705   396900 
  709000    1.0245641   -2.9614548   -2.9614548   -1.4246125  0.076076273   -2.9614548    1.5368423   396900 
  710000    1.0262568   -2.9621946   -2.9621946   -1.4228133  0.081180062   -2.9621946    1.5393813   396900 
  711000    1.0249832   -2.9624479   -2.9624479    -1.424977  0.080070491   -2.9624479    1.5374709   396900 
  712000    1.0260392   -2.9633258   -2.9633258   -1.4242708  0.076379675   -2.9633258     1.539055   396900 
  713000    1.0265275    -2.959476    -2.959476   -1.4196885  0.083376699    -2.959476    1.5397874   396900 
  714000    1.0256443   -2.9572465   -2.9572465    -1.418784  0.079144086   -2.9572465    1.5384625   396900 
  715000    1.0251084   -2.9573761   -2.9573761   -1.4197173  0.079301954   -2.9573761    1.5376588   396900 
  716000     1.026489    -2.960847    -2.960847   -1.4211174  0.076035845    -2.960847    1.5397296   396900 
  717000    1.0259981   -2.9605652   -2.9605652   -1.4215719  0.080116784   -2.9605652    1.5389933   396900 
  718000    1.0250045   -2.9600842   -2.9600842   -1.4225813  0.080500395   -2.9600842    1.5375029   396900 
  719000    1.0261814   -2.9615603   -2.9615603    -1.422292  0.075455881   -2.9615603    1.5392683   396900 
  720000    1.0247973   -2.9590542   -2.9590542    -1.421862  0.078522724   -2.9590542    1.5371921   396900 
  721000    1.0237528   -2.9593313   -2.9593313    -1.423706  0.074299589   -2.9593313    1.5356253   396900 
  722000    1.0259512   -2.9600415   -2.9600415   -1.4211186  0.077298342   -2.9600415    1.5389229   396900 
  723000    1.0268673    -2.960674    -2.960674   -1.4203769  0.078258688    -2.960674    1.5402971   396900 
  724000    1.0255814   -2.9577546   -2.9577546   -1.4193864  0.078562116   -2.9577546    1.5383682   396900 
  725000    1.0246048   -2.9558849   -2.9558849   -1.4189815   0.08035626   -2.9558849    1.5369034   396900 
  726000    1.0266771   -2.9591274   -2.9591274   -1.4191156  0.078446903   -2.9591274    1.5400118   396900 
  727000    1.0266835   -2.9604101   -2.9604101   -1.4203888  0.078574058   -2.9604101    1.5400213   396900 
  728000    1.0255815   -2.9605366   -2.9605366   -1.4221682  0.075823681   -2.9605366    1.5383684   396900 
  729000    1.0249991   -2.9589864   -2.9589864   -1.4214915  0.078115019   -2.9589864    1.5374948   396900 
  730000    1.0243861   -2.9596358   -2.9596358   -1.4230605  0.076626295   -2.9596358    1.5365753   396900 
  731000    1.0257201   -2.9610131   -2.9610131   -1.4224368  0.083559695   -2.9610131    1.5385763   396900 
  732000    1.0250741   -2.9583026   -2.9583026   -1.4206954  0.077665593   -2.9583026    1.5376072   396900 
  733000    1.0278442   -2.9607106   -2.9607106   -1.4189482  0.078744281   -2.9607106    1.5417624   396900 
  734000    1.0270126   -2.9620372   -2.9620372   -1.4215221  0.078136859   -2.9620372    1.5405151   396900 
  735000    1.0253347   -2.9598828   -2.9598828   -1.4218847  0.079986748   -2.9598828    1.5379981   396900 
  736000     1.025487   -2.9606933   -2.9606933   -1.4224667   0.07698695   -2.9606933    1.5382266   396900 
  737000    1.0250495   -2.9592976   -2.9592976   -1.4217273  0.081029747   -2.9592976    1.5375703   396900 
  738000    1.0251293   -2.9595183   -2.9595183   -1.4218282  0.078784462   -2.9595183    1.5376901   396900 
  739000    1.0258029     -2.96095     -2.96095   -1.4222496  0.076459757     -2.96095    1.5387005   396900 
  740000    1.0240773   -2.9576825   -2.9576825   -1.4215703  0.078496756   -2.9576825    1.5361121   396900 
  741000    1.0236657   -2.9596724   -2.9596724   -1.4241778  0.079424332   -2.9596724    1.5354947   396900 
  742000     1.025397   -2.9591628   -2.9591628   -1.4210712  0.076484242   -2.9591628    1.5380916   396900 
  743000    1.0233686   -2.9586854   -2.9586854   -1.4236364  0.079420639   -2.9586854    1.5350491   396900 
  744000    1.0250584    -2.958078    -2.958078   -1.4204943  0.078587129    -2.958078    1.5375837   396900 
  745000     1.026339   -2.9587315   -2.9587315   -1.4192268  0.072194894   -2.9587315    1.5395047   396900 
  746000    1.0244285   -2.9537871   -2.9537871   -1.4171483  0.078473909   -2.9537871    1.5366389   396900 
  747000     1.025808   -2.9563132   -2.9563132   -1.4176052  0.080014968   -2.9563132    1.5387081   396900 
  748000    1.0257025    -2.954938    -2.954938    -1.416388  0.079975036    -2.954938    1.5385499   396900 
  749000    1.0260305   -2.9543527   -2.9543527   -1.4153108  0.075178609   -2.9543527    1.5390419   396900 
  750000    1.0246469   -2.9533795   -2.9533795    -1.416413  0.078714252   -2.9533795    1.5369665   396900 
  751000    1.0257799    -2.954254    -2.954254    -1.415588  0.077216874    -2.954254     1.538666   396900 
  752000    1.0252617   -2.9547897   -2.9547897   -1.4169011  0.078868164   -2.9547897    1.5378886   396900 
  753000    1.0265315   -2.9541804   -2.9541804   -1.4143871  0.078147261   -2.9541804    1.5397933   396900 
  754000    1.0255078    -2.956022    -2.956022   -1.4177641  0.078006909    -2.956022    1.5382579   396900 
  755000    1.0277874   -2.9577306   -2.9577306   -1.4160533  0.072458848   -2.9577306    1.5416772   396900 
  756000    1.0256778   -2.9549156   -2.9549156   -1.4164029  0.082008726   -2.9549156    1.5385128   396900 
  757000    1.0246083   -2.9547715   -2.9547715    -1.417863  0.077206057   -2.9547715    1.5369085   396900 
  758000    1.0260343   -2.9556861   -2.9556861   -1.4166385  0.084211937   -2.9556861    1.5390476   396900 
  759000    1.0267146   -2.9579467   -2.9579467   -1.4178786  0.077384743   -2.9579467     1.540068   396900 
  760000    1.0270305   -2.9588732   -2.9588732   -1.4183313  0.077752257   -2.9588732    1.5405419   396900 
  761000    1.0257068   -2.9560643   -2.9560643    -1.417508  0.078043088   -2.9560643    1.5385563   396900 
  762000      1.02534   -2.9558337   -2.9558337   -1.4178275  0.076305681   -2.9558337    1.5380062   396900 
  763000    1.0246594   -2.9554412   -2.9554412    -1.418456  0.078398432   -2.9554412    1.5369852   396900 
  764000    1.0264294   -2.9580948   -2.9580948   -1.4184547  0.078297724   -2.9580948    1.5396401   396900 
  765000    1.0277487   -2.9576774   -2.9576774   -1.4160582  0.079502952   -2.9576774    1.5416192   396900 
  766000    1.0262321   -2.9550687   -2.9550687   -1.4157244  0.079765319   -2.9550687    1.5393443   396900 
  767000    1.0258507    -2.955996    -2.955996   -1.4172238  0.078759611    -2.955996    1.5387722   396900 
  768000    1.0274512   -2.9570611   -2.9570611   -1.4158882  0.075577136   -2.9570611    1.5411729   396900 
  769000    1.0256258   -2.9543518   -2.9543518    -1.415917  0.076128768   -2.9543518    1.5384348   396900 
  770000    1.0285087   -2.9542003   -2.9542003   -1.4114411  0.077716315   -2.9542003    1.5427592   396900 
  771000    1.0279863   -2.9513137   -2.9513137   -1.4093381  0.078593317   -2.9513137    1.5419756   396900 
  772000     1.028732   -2.9508786   -2.9508786   -1.4077845  0.078479945   -2.9508786    1.5430941   396900 
  773000    1.0281524   -2.9496078   -2.9496078    -1.407383  0.077373287   -2.9496078    1.5422247   396900 
  774000    1.0286286   -2.9494155   -2.9494155   -1.4064765  0.082326371   -2.9494155     1.542939   396900 
  775000    1.0287502   -2.9498269   -2.9498269   -1.4067055  0.084116404   -2.9498269    1.5431215   396900 
  776000    1.0304076   -2.9501759   -2.9501759   -1.4045683   0.07768252   -2.9501759    1.5456076   396900 
  777000    1.0252256     -2.94618     -2.94618   -1.4083455  0.075542559     -2.94618    1.5378345   396900 
  778000    1.0248907   -2.9460329   -2.9460329   -1.4087007  0.075415881   -2.9460329    1.5373322   396900 
  779000    1.0244787   -2.9453188   -2.9453188   -1.4086045  0.072876638   -2.9453188    1.5367142   396900 
  780000    1.0271239   -2.9440536   -2.9440536   -1.4033717  0.077092361   -2.9440536    1.5406819   396900 
  781000    1.0280552    -2.946564    -2.946564    -1.404485  0.078224134    -2.946564     1.542079   396900 
  782000    1.0261544   -2.9455149   -2.9455149   -1.4062871  0.072452038   -2.9455149    1.5392278   396900 
  783000     1.025888    -2.943208    -2.943208   -1.4043799  0.080437399    -2.943208    1.5388282   396900 
  784000    1.0258134   -2.9428743   -2.9428743    -1.404158  0.080575484   -2.9428743    1.5387163   396900 
  785000    1.0280247   -2.9433259   -2.9433259   -1.4012927  0.079333782   -2.9433259    1.5420332   396900 
  786000    1.0262544   -2.9420879   -2.9420879   -1.4027101  0.081626573   -2.9420879    1.5393778   396900 
  787000    1.0270095   -2.9440271   -2.9440271   -1.4035168  0.078043398   -2.9440271    1.5405103   396900 
  788000    1.0251786   -2.9411708   -2.9411708   -1.4034067  0.080024154   -2.9411708    1.5377641   396900 
  789000     1.024534   -2.9412128   -2.9412128   -1.4044157  0.071782725   -2.9412128    1.5367972   396900 
  790000    1.0264316   -2.9411921   -2.9411921   -1.4015486  0.074610091   -2.9411921    1.5396435   396900 
  791000    1.0275035   -2.9398789   -2.9398789   -1.3986275   0.08249447   -2.9398789    1.5412514   396900 
  792000    1.0265501   -2.9422979   -2.9422979   -1.4024766  0.079756866   -2.9422979    1.5398212   396900 
  793000    1.0257768   -2.9440278   -2.9440278   -1.4053664  0.074572596   -2.9440278    1.5386614   396900 
  794000    1.0246142   -2.9422118   -2.9422118   -1.4052943  0.079080328   -2.9422118    1.5369175   396900 
  795000    1.0259311   -2.9416613   -2.9416613   -1.4027685  0.079142753   -2.9416613    1.5388928   396900 
  796000    1.0275645   -2.9415548   -2.9415548   -1.4002119  0.074213685   -2.9415548    1.5413429   396900 
  797000    1.0276088   -2.9440761   -2.9440761   -1.4026668  0.073077008   -2.9440761    1.5414094   396900 
  798000    1.0265317   -2.9432309   -2.9432309   -1.4034372  0.077549781   -2.9432309    1.5397937   396900 
  799000    1.0273361   -2.9466748   -2.9466748   -1.4056746  0.073334293   -2.9466748    1.5410002   396900 
  800000    1.0240553    -2.944025    -2.944025   -1.4079458  0.074685405    -2.944025    1.5360791   396900 
  801000    1.0275123   -2.9450953   -2.9450953   -1.4038308  0.078757397   -2.9450953    1.5412645   396900 
  802000    1.0268562   -2.9454489   -2.9454489   -1.4051685  0.080935736   -2.9454489    1.5402805   396900 
  803000     1.025969   -2.9458386   -2.9458386    -1.406889  0.077751465   -2.9458386    1.5389496   396900 
  804000    1.0273304   -2.9462334   -2.9462334   -1.4052417  0.077428648   -2.9462334    1.5409917   396900 
  805000    1.0255464   -2.9447853   -2.9447853   -1.4064697  0.072335109   -2.9447853    1.5383157   396900 
  806000    1.0254276   -2.9449205   -2.9449205   -1.4067829  0.076847365   -2.9449205    1.5381376   396900 
  807000    1.0271063   -2.9454328   -2.9454328   -1.4047773  0.077186555   -2.9454328    1.5406555   396900 
  808000     1.026196   -2.9436699   -2.9436699   -1.4043797  0.080253478   -2.9436699    1.5392902   396900 
  809000    1.0289617   -2.9481032   -2.9481032   -1.4046645  0.081350222   -2.9481032    1.5434387   396900 
  810000    1.0257407   -2.9444359   -2.9444359   -1.4058287  0.075004367   -2.9444359    1.5386071   396900 
  811000    1.0268046   -2.9436427   -2.9436427   -1.4034397  0.078921658   -2.9436427     1.540203   396900 
  812000    1.0250848   -2.9440338   -2.9440338   -1.4064105  0.075212705   -2.9440338    1.5376233   396900 
  813000    1.0265508   -2.9448552   -2.9448552   -1.4050329  0.078855364   -2.9448552    1.5398224   396900 
  814000    1.0244692   -2.9427485   -2.9427485   -1.4060485  0.077274668   -2.9427485       1.5367   396900 
  815000    1.0271643    -2.945446    -2.945446   -1.4047034  0.082809533    -2.945446    1.5407426   396900 
  816000    1.0295583   -2.9478167   -2.9478167   -1.4034832  0.078073117   -2.9478167    1.5443335   396900 
  817000    1.0264691   -2.9427806   -2.9427806   -1.4030808  0.077718466   -2.9427806    1.5396998   396900 
  818000     1.028392   -2.9445297   -2.9445297   -1.4019456  0.077898475   -2.9445297    1.5425841   396900 
  819000     1.027841   -2.9443568   -2.9443568   -1.4025991  0.076880321   -2.9443568    1.5417577   396900 
  820000        1.029   -2.9448958   -2.9448958   -1.4013997  0.079173537   -2.9448958    1.5434961   396900 
  821000    1.0262742   -2.9424108   -2.9424108   -1.4030034   0.08072564   -2.9424108    1.5394074   396900 
  822000    1.0281741   -2.9443116   -2.9443116   -1.4020543  0.076764002   -2.9443116    1.5422572   396900 
  823000    1.0272345   -2.9414603   -2.9414603   -1.4006124  0.077934195   -2.9414603    1.5408479   396900 
  824000    1.0280788   -2.9413883   -2.9413883    -1.399274  0.075339195   -2.9413883    1.5421143   396900 
  825000    1.0286713   -2.9406672   -2.9406672   -1.3976641  0.078988682   -2.9406672    1.5430031   396900 
  826000    1.0276046   -2.9428463   -2.9428463   -1.4014432  0.075855075   -2.9428463     1.541403   396900 
  827000     1.026655   -2.9416477   -2.9416477    -1.401669  0.074543999   -2.9416477    1.5399787   396900 
  828000    1.0278291   -2.9415684   -2.9415684   -1.3998286   0.07592366   -2.9415684    1.5417398   396900 
  829000    1.0263256    -2.938412    -2.938412   -1.3989275  0.071434549    -2.938412    1.5394845   396900 
  830000    1.0263572   -2.9410324   -2.9410324   -1.4015004  0.073583539   -2.9410324     1.539532   396900 
  831000    1.0292945   -2.9425268   -2.9425268   -1.3985888   0.07234887   -2.9425268    1.5439379   396900 
  832000    1.0292179   -2.9402337   -2.9402337   -1.3964108  0.076381657   -2.9402337     1.543823   396900 
  833000    1.0305169   -2.9406502   -2.9406502   -1.3948787  0.075002736   -2.9406502    1.5457714   396900 
  834000    1.0290585   -2.9386744   -2.9386744   -1.3950905  0.076370122   -2.9386744    1.5435839   396900 
  835000    1.0275297    -2.938766    -2.938766   -1.3974755  0.081284528    -2.938766    1.5412906   396900 
  836000    1.0266099   -2.9374685   -2.9374685   -1.3975575  0.075626162   -2.9374685     1.539911   396900 
  837000    1.0257548   -2.9369762   -2.9369762   -1.3983478  0.074498752   -2.9369762    1.5386283   396900 
  838000    1.0253813    -2.934948    -2.934948     -1.39688  0.080435926    -2.934948     1.538068   396900 
  839000    1.0285055   -2.9366853   -2.9366853    -1.393931  0.073211574   -2.9366853    1.5427544   396900 
  840000     1.027842     -2.93529     -2.93529    -1.393531  0.076278505     -2.93529    1.5417591   396900 
  841000    1.0292144   -2.9360288   -2.9360288    -1.392211  0.077942024   -2.9360288    1.5438177   396900 
  842000    1.0290211   -2.9359438   -2.9359438    -1.392416  0.075910391   -2.9359438    1.5435278   396900 
  843000    1.0276991   -2.9306184   -2.9306184   -1.3890736  0.079436731   -2.9306184    1.5415448   396900 
  844000    1.0295975   -2.9325814   -2.9325814   -1.3881891  0.075080452   -2.9325814    1.5443923   396900 
  845000    1.0291753   -2.9339758   -2.9339758   -1.3902167  0.071677489   -2.9339758    1.5437591   396900 
  846000    1.0291104    -2.932694    -2.932694   -1.3890323  0.076036532    -2.932694    1.5436618   396900 
  847000    1.0274583   -2.9324386   -2.9324386    -1.391255  0.081033241   -2.9324386    1.5411836   396900 
  848000    1.0253766   -2.9309693   -2.9309693   -1.3929083  0.075830462   -2.9309693     1.538061   396900 
  849000    1.0254462   -2.9318481   -2.9318481   -1.3936827  0.074085354   -2.9318481    1.5381654   396900 
  850000    1.0271066   -2.9333169   -2.9333169   -1.3926609  0.074648383   -2.9333169     1.540656   396900 
  851000    1.0280575   -2.9321756   -2.9321756   -1.3900933  0.075564256   -2.9321756    1.5420823   396900 
  852000     1.027218   -2.9310729   -2.9310729   -1.3902498   0.07230784   -2.9310729    1.5408231   396900 
  853000    1.0284371   -2.9316572   -2.9316572   -1.3890054  0.074802804   -2.9316572    1.5426518   396900 
  854000    1.0274542   -2.9328658   -2.9328658   -1.3916883  0.072818726   -2.9328658    1.5411775   396900 
  855000    1.0260966   -2.9325409   -2.9325409   -1.3933999  0.077302897   -2.9325409     1.539141   396900 
  856000    1.0277599   -2.9319719   -2.9319719    -1.390336  0.079529985   -2.9319719    1.5416359   396900 
  857000    1.0281252   -2.9314552   -2.9314552   -1.3892713  0.077062618   -2.9314552     1.542184   396900 
  858000    1.0271876   -2.9305926   -2.9305926   -1.3898151  0.081753456   -2.9305926    1.5407775   396900 
  859000    1.0278054   -2.9322528   -2.9322528   -1.3905485  0.079387079   -2.9322528    1.5417043   396900 
  860000     1.027064   -2.9305401   -2.9305401   -1.3899479  0.081945769   -2.9305401    1.5405921   396900 
  861000    1.0270704   -2.9320466   -2.9320466   -1.3914449  0.075317668   -2.9320466    1.5406017   396900 
  862000    1.0273614   -2.9310349   -2.9310349   -1.3899966  0.078080728   -2.9310349    1.5410383   396900 
  863000    1.0301786   -2.9303891   -2.9303891   -1.3851252   0.08017231   -2.9303891     1.545264   396900 
  864000    1.0274482   -2.9283374   -2.9283374    -1.387169   0.08190302   -2.9283374    1.5411684   396900 
  865000    1.0282391   -2.9325803   -2.9325803   -1.3902255   0.07654545   -2.9325803    1.5423548   396900 
  866000     1.027767   -2.9316204   -2.9316204   -1.3899738  0.074571126   -2.9316204    1.5416466   396900 
  867000    1.0281094   -2.9298225   -2.9298225   -1.3876622  0.081480821   -2.9298225    1.5421603   396900 
  868000    1.0288007   -2.9295328   -2.9295328   -1.3863357  0.080295033   -2.9295328    1.5431971   396900 
  869000    1.0290342   -2.9314889   -2.9314889   -1.3879414  0.080212752   -2.9314889    1.5435475   396900 
  870000    1.0271378    -2.927778    -2.927778   -1.3870752  0.079714527    -2.927778    1.5407028   396900 
  871000    1.0290289   -2.9322765   -2.9322765   -1.3887371   0.07506013   -2.9322765    1.5435394   396900 
  872000    1.0283316   -2.9326761   -2.9326761   -1.3901826  0.077336044   -2.9326761    1.5424935   396900 
  873000    1.0253946   -2.9287115   -2.9287115   -1.3906235  0.075534733   -2.9287115    1.5380881   396900 
  874000    1.0272897   -2.9311577   -2.9311577    -1.390227  0.078878279   -2.9311577    1.5409307   396900 
  875000    1.0272737   -2.9300056   -2.9300056    -1.389099  0.079688759   -2.9300056    1.5409066   396900 
  876000    1.0282591   -2.9319536   -2.9319536   -1.3895688  0.075083697   -2.9319536    1.5423848   396900 
  877000     1.028416   -2.9308442   -2.9308442   -1.3882241   0.08112296   -2.9308442    1.5426201   396900 
  878000    1.0280536   -2.9299473   -2.9299473   -1.3878708  0.075975818   -2.9299473    1.5420765   396900 
  879000    1.0286403    -2.931121    -2.931121   -1.3881645  0.081198444    -2.931121    1.5429566   396900 
  880000    1.0293671   -2.9308781   -2.9308781   -1.3868314  0.079705807   -2.9308781    1.5440467   396900 
  881000    1.0312071   -2.9311501   -2.9311501   -1.3843433  0.078978103   -2.9311501    1.5468068   396900 
  882000     1.029876   -2.9326728   -2.9326728   -1.3878627  0.077821961   -2.9326728    1.5448101   396900 
  883000    1.0281676   -2.9306731   -2.9306731   -1.3884256  0.073052704   -2.9306731    1.5422475   396900 
  884000    1.0278112   -2.9295242   -2.9295242   -1.3878113  0.075804337   -2.9295242     1.541713   396900 
  885000    1.0272406   -2.9281142   -2.9281142   -1.3872572  0.075302124   -2.9281142     1.540857   396900 
  886000    1.0258924   -2.9276673   -2.9276673   -1.3888326  0.081343081   -2.9276673    1.5388347   396900 
  887000    1.0273803   -2.9271793   -2.9271793   -1.3861127   0.07951344   -2.9271793    1.5410666   396900 
  888000    1.0319928   -2.9291296   -2.9291296   -1.3811443  0.080518559   -2.9291296    1.5479853   396900 
  889000    1.0269371   -2.9256803   -2.9256803   -1.3852785  0.080972589   -2.9256803    1.5404017   396900 
  890000    1.0286204   -2.9272426   -2.9272426   -1.3843159  0.081159035   -2.9272426    1.5429267   396900 
  891000    1.0280249   -2.9278545   -2.9278545    -1.385821  0.074375668   -2.9278545    1.5420334   396900 
  892000    1.0306376   -2.9287774   -2.9287774    -1.382825  0.076724193   -2.9287774    1.5459525   396900 
  893000    1.0275147   -2.9248026   -2.9248026   -1.3835344  0.080327536   -2.9248026    1.5412682   396900 
  894000    1.0278173   -2.9255148   -2.9255148   -1.3837928  0.077333037   -2.9255148     1.541722   396900 
  895000    1.0275934    -2.924869    -2.924869   -1.3834828  0.080335902    -2.924869    1.5413862   396900 
  896000      1.02902   -2.9279438   -2.9279438   -1.3844177  0.075594888   -2.9279438    1.5435261   396900 
  897000    1.0290396   -2.9259097   -2.9259097   -1.3823542  0.076869201   -2.9259097    1.5435555   396900 
  898000    1.0265198   -2.9210859   -2.9210859   -1.3813101  0.077860687   -2.9210859    1.5397758   396900 
  899000    1.0275635   -2.9244756   -2.9244756   -1.3831342  0.072471507   -2.9244756    1.5413413   396900 
  900000    1.0295343   -2.9258038   -2.9258038   -1.3815063   0.07659758   -2.9258038    1.5442975   396900 
  901000      1.02731    -2.923161    -2.923161   -1.3821999  0.074309771    -2.923161    1.5409611   396900 
  902000     1.027948   -2.9236318   -2.9236318   -1.3817137  0.074614406   -2.9236318    1.5419181   396900 
  903000    1.0291942   -2.9250619   -2.9250619   -1.3812744  0.077323298   -2.9250619    1.5437875   396900 
  904000     1.028793   -2.9238065   -2.9238065   -1.3806209  0.074482557   -2.9238065    1.5431857   396900 
  905000    1.0284867   -2.9243805   -2.9243805   -1.3816543  0.079858756   -2.9243805    1.5427262   396900 
  906000    1.0305783   -2.9250563   -2.9250563   -1.3791928  0.077029962   -2.9250563    1.5458635   396900 
  907000    1.0299393   -2.9231222   -2.9231222   -1.3782172  0.084852176   -2.9231222    1.5449051   396900 
  908000    1.0288317   -2.9222033   -2.9222033   -1.3789595  0.077312651   -2.9222033    1.5432437   396900 
  909000     1.028181   -2.9222253   -2.9222253   -1.3799578  0.084851555   -2.9222253    1.5422676   396900 
  910000    1.0273955   -2.9218467   -2.9218467   -1.3807573  0.077118114   -2.9218467    1.5410893   396900 
  911000    1.0281944   -2.9238323   -2.9238323   -1.3815446  0.076952275   -2.9238323    1.5422877   396900 
  912000    1.0279346   -2.9234442   -2.9234442   -1.3815462  0.081729991   -2.9234442    1.5418981   396900 
  913000    1.0288859   -2.9234967   -2.9234967   -1.3801717  0.079695313   -2.9234967     1.543325   396900 
  914000    1.0290822   -2.9236215   -2.9236215   -1.3800021  0.077564881   -2.9236215    1.5436194   396900 
  915000    1.0301284   -2.9230035   -2.9230035   -1.3778148  0.081859463   -2.9230035    1.5451886   396900 
  916000    1.0280367   -2.9203692   -2.9203692    -1.378318   0.07641397   -2.9203692    1.5420512   396900 
  917000    1.0289885   -2.9211442   -2.9211442   -1.3776653  0.081569063   -2.9211442    1.5434789   396900 
  918000    1.0296297   -2.9232296   -2.9232296    -1.378789  0.077332183   -2.9232296    1.5444406   396900 
  919000    1.0285894   -2.9202125   -2.9202125   -1.3773323  0.078064596   -2.9202125    1.5428802   396900 
  920000    1.0289904    -2.920165    -2.920165   -1.3766833  0.077603462    -2.920165    1.5434817   396900 
  921000    1.0286734    -2.918557    -2.918557   -1.3755508  0.077566268    -2.918557    1.5430063   396900 
  922000    1.0293935   -2.9215706   -2.9215706   -1.3774843   0.07844415   -2.9215706    1.5440863   396900 
  923000    1.0286782   -2.9189368   -2.9189368   -1.3759233  0.078779405   -2.9189368    1.5430135   396900 
  924000    1.0293366   -2.9173432   -2.9173432   -1.3733423  0.079624867   -2.9173432     1.544001   396900 
  925000    1.0296332   -2.9198004   -2.9198004   -1.3753545  0.075448339   -2.9198004    1.5444459   396900 
  926000    1.0297065   -2.9198311   -2.9198311   -1.3752753  0.080942295   -2.9198311    1.5445559   396900 
  927000    1.0275608   -2.9183583   -2.9183583    -1.377021  0.078455653   -2.9183583    1.5413373   396900 
  928000     1.029437   -2.9198764   -2.9198764   -1.3757247   0.07710471   -2.9198764    1.5441517   396900 
  929000    1.0299402   -2.9201216   -2.9201216   -1.3752152  0.079113914   -2.9201216    1.5449065   396900 
  930000    1.0298015   -2.9169461   -2.9169461   -1.3722477  0.081401533   -2.9169461    1.5446984   396900 
  931000    1.0323604   -2.9214176   -2.9214176   -1.3728808  0.075006776   -2.9214176    1.5485367   396900 
  932000    1.0311894   -2.9198704   -2.9198704   -1.3730902  0.077311313   -2.9198704    1.5467802   396900 
  933000    1.0298446   -2.9197557   -2.9197557   -1.3749928  0.076654311   -2.9197557     1.544763   396900 
  934000    1.0284769   -2.9191276   -2.9191276   -1.3764161  0.082770537   -2.9191276    1.5427115   396900 
  935000     1.029501   -2.9212676   -2.9212676     -1.37702  0.079690401   -2.9212676    1.5442476   396900 
  936000      1.03078   -2.9241551   -2.9241551   -1.3779891  0.080973197   -2.9241551     1.546166   396900 
  937000    1.0280517    -2.919437    -2.919437   -1.3773634  0.075934777    -2.919437    1.5420736   396900 
  938000    1.0308365   -2.9220112   -2.9220112   -1.3757604  0.082654611   -2.9220112    1.5462509   396900 
  939000    1.0303579    -2.920699    -2.920699    -1.375166  0.080144674    -2.920699    1.5455329   396900 
  940000    1.0316364   -2.9197936   -2.9197936   -1.3723428  0.080971529   -2.9197936    1.5474508   396900 
  941000    1.0290881   -2.9189305   -2.9189305   -1.3753022  0.075411705   -2.9189305    1.5436283   396900 
  942000    1.0305997   -2.9194428   -2.9194428   -1.3735471  0.080019019   -2.9194428    1.5458957   396900 
  943000     1.028245   -2.9178628   -2.9178628   -1.3754991  0.077696168   -2.9178628    1.5423637   396900 
  944000    1.0298996   -2.9208842   -2.9208842   -1.3760387   0.08647277   -2.9208842    1.5448455   396900 
  945000    1.0295201   -2.9190003   -2.9190003   -1.3747241  0.079045119   -2.9190003    1.5442763   396900 
  946000    1.0325042   -2.9229217   -2.9229217   -1.3741693  0.079037942   -2.9229217    1.5487524   396900 
  947000    1.0335543   -2.9242861   -2.9242861   -1.3739585    0.0777156   -2.9242861    1.5503276   396900 
  948000    1.0305893   -2.9208975   -2.9208975   -1.3750175  0.078699075   -2.9208975      1.54588   396900 
  949000     1.028378   -2.9195041   -2.9195041   -1.3769411  0.077186584   -2.9195041     1.542563   396900 
  950000    1.0280964   -2.9213797   -2.9213797   -1.3792391  0.077463418   -2.9213797    1.5421406   396900 
  951000    1.0316336    -2.922707    -2.922707   -1.3752606  0.076241365    -2.922707    1.5474465   396900 
  952000    1.0308001    -2.922889    -2.922889   -1.3766927  0.080121967    -2.922889    1.5461963   396900 
  953000    1.0302266   -2.9206774   -2.9206774   -1.3753414  0.080269056   -2.9206774     1.545336   396900 
  954000    1.0317161   -2.9220888   -2.9220888   -1.3745186  0.084941062   -2.9220888    1.5475702   396900 
  955000    1.0291495   -2.9191996   -2.9191996   -1.3754791  0.079980034   -2.9191996    1.5437204   396900 
  956000    1.0275623   -2.9194907   -2.9194907   -1.3781512  0.077545268   -2.9194907    1.5413395   396900 
  957000     1.027695   -2.9213614   -2.9213614   -1.3798227  0.072979376   -2.9213614    1.5415387   396900 
  958000    1.0280639    -2.919517    -2.919517   -1.3774251  0.078827945    -2.919517    1.5420919   396900 
  959000    1.0308257   -2.9233819   -2.9233819   -1.3771471  0.076069772   -2.9233819    1.5462347   396900 
  960000    1.0302799   -2.9219969   -2.9219969    -1.376581  0.084753983   -2.9219969    1.5454159   396900 
  961000    1.0282004   -2.9189324   -2.9189324   -1.3766357  0.080159258   -2.9189324    1.5422966   396900 
  962000    1.0270205   -2.9169398   -2.9169398   -1.3764129   0.07760672   -2.9169398    1.5405269   396900 
  963000    1.0303619   -2.9207462   -2.9207462   -1.3752072   0.07974308   -2.9207462     1.545539   396900 
  964000    1.0314585   -2.9212136   -2.9212136   -1.3740298  0.080139708   -2.9212136    1.5471838   396900 
  965000    1.0289292   -2.9191781   -2.9191781   -1.3757882  0.078709826   -2.9191781    1.5433899   396900 
  966000     1.029355   -2.9170901   -2.9170901   -1.3730615  0.076083962   -2.9170901    1.5440286   396900 
  967000    1.0289534   -2.9181977   -2.9181977   -1.3747715  0.080725317   -2.9181977    1.5434262   396900 
  968000    1.0274267   -2.9191947   -2.9191947   -1.3780586  0.076210508   -2.9191947    1.5411361   396900 
  969000    1.0296236   -2.9191006   -2.9191006   -1.3746691  0.080735926   -2.9191006    1.5444315   396900 
  970000    1.0304691   -2.9195309   -2.9195309   -1.3738312  0.079939847   -2.9195309    1.5456998   396900 
  971000    1.0303387   -2.9183463   -2.9183463   -1.3728421  0.077716464   -2.9183463    1.5455042   396900 
  972000     1.028648   -2.9177423   -2.9177423   -1.3747742  0.077444596   -2.9177423    1.5429681   396900 
  973000    1.0303545   -2.9216902   -2.9216902   -1.3761623  0.081783458   -2.9216902    1.5455278   396900 
  974000    1.0306253   -2.9211035   -2.9211035   -1.3751695  0.082055682   -2.9211035     1.545934   396900 
  975000    1.0307832   -2.9235214   -2.9235214   -1.3773505   0.07829739   -2.9235214    1.5461709   396900 
  976000    1.0303051   -2.9236683   -2.9236683   -1.3782145  0.077180138   -2.9236683    1.5454537   396900 
  977000    1.0302969    -2.921777    -2.921777   -1.3763355  0.079071505    -2.921777    1.5454415   396900 
  978000    1.0294511   -2.9245481   -2.9245481   -1.3803754  0.077820089   -2.9245481    1.5441727   396900 
  979000    1.0287926   -2.9209463   -2.9209463   -1.3777613  0.077183239   -2.9209463    1.5431849   396900 
  980000    1.0285056   -2.9214982   -2.9214982   -1.3787437   0.07671247   -2.9214982    1.5427545   396900 
  981000     1.031142   -2.9245032   -2.9245032   -1.3777941  0.083137878   -2.9245032    1.5467091   396900 
  982000    1.0322412   -2.9227694   -2.9227694   -1.3744115  0.076801911   -2.9227694    1.5483579   396900 
  983000    1.0311982   -2.9218022   -2.9218022   -1.3750088  0.077025978   -2.9218022    1.5467933   396900 
  984000    1.0322503   -2.9232474   -2.9232474   -1.3748758  0.079123363   -2.9232474    1.5483716   396900 
  985000    1.0314063   -2.9214138   -2.9214138   -1.3743082  0.077081605   -2.9214138    1.5471056   396900 
  986000    1.0316609   -2.9206841   -2.9206841   -1.3731967  0.078686714   -2.9206841    1.5474874   396900 
  987000    1.0309238   -2.9217321   -2.9217321   -1.3753502  0.081591326   -2.9217321    1.5463819   396900 
  988000    1.0312958   -2.9233205   -2.9233205   -1.3763808  0.074640142   -2.9233205    1.5469398   396900 
  989000    1.0300305   -2.9210497   -2.9210497   -1.3760079  0.080814108   -2.9210497    1.5450418   396900 
  990000     1.031654   -2.9213798   -2.9213798   -1.3739027  0.079000924   -2.9213798    1.5474771   396900 
  991000    1.0294239   -2.9187376   -2.9187376   -1.3746055  0.079442793   -2.9187376     1.544132   396900 
  992000    1.0320989   -2.9194861   -2.9194861   -1.3713416   0.08419077   -2.9194861    1.5481444   396900 
  993000    1.0306284   -2.9193957   -2.9193957    -1.373457  0.079449199   -2.9193957    1.5459387   396900 
  994000     1.031746   -2.9195955   -2.9195955   -1.3719804  0.084686742   -2.9195955     1.547615   396900 
  995000    1.0310053   -2.9196717   -2.9196717   -1.3731677  0.081310121   -2.9196717    1.5465041   396900 
  996000    1.0310685   -2.9200336   -2.9200336   -1.3734347  0.075741465   -2.9200336    1.5465989   396900 
  997000    1.0304556   -2.9201235   -2.9201235   -1.3744439  0.078929331   -2.9201235    1.5456795   396900 
  998000     1.032717   -2.9209571   -2.9209571   -1.3718855  0.080852934   -2.9209571    1.5490716   396900 
  999000    1.0329249   -2.9201859   -2.9201859   -1.3708025  0.082889763   -2.9201859    1.5493834   396900 
 1000000    1.0311309   -2.9170656   -2.9170656   -1.3703732  0.077453276   -2.9170656    1.5466924   396900 
 1001000    1.0312902   -2.9192737   -2.9192737   -1.3723422  0.077776688   -2.9192737    1.5469315   396900 
 1002000     1.031574   -2.9165574   -2.9165574   -1.3692002  0.080074466   -2.9165574    1.5473571   396900 
 1003000    1.0309081   -2.9173551   -2.9173551   -1.3709969  0.080725695   -2.9173551    1.5463582   396900 
 1004000    1.0310651   -2.9170256   -2.9170256   -1.3704318  0.076299829   -2.9170256    1.5465938   396900 
 1005000    1.0315508   -2.9157691   -2.9157691   -1.3684468  0.083668546   -2.9157691    1.5473223   396900 
 1006000    1.0320242    -2.916153    -2.916153   -1.3681206  0.078204938    -2.916153    1.5480323   396900 
 1007000      1.03105   -2.9141024   -2.9141024   -1.3675312  0.078715094   -2.9141024    1.5465712   396900 
 1008000    1.0318754    -2.915364    -2.915364   -1.3675548  0.074631425    -2.915364    1.5478092   396900 
 1009000    1.0310165   -2.9137945   -2.9137945   -1.3672737  0.078105579   -2.9137945    1.5465209   396900 
 1010000    1.0315896   -2.9152765   -2.9152765    -1.367896  0.081954768   -2.9152765    1.5473805   396900 
 1011000    1.0295726   -2.9135418   -2.9135418   -1.3691868  0.078851139   -2.9135418     1.544355   396900 
 1012000    1.0311448   -2.9103737   -2.9103737   -1.3636604    0.0762477   -2.9103737    1.5467132   396900 
 1013000    1.0327186   -2.9132751   -2.9132751    -1.364201  0.080227189   -2.9132751     1.549074   396900 
 1014000    1.0319173   -2.9115533   -2.9115533   -1.3636812  0.077783915   -2.9115533    1.5478721   396900 
 1015000    1.0321649   -2.9083191   -2.9083191   -1.3600756  0.081677448   -2.9083191    1.5482435   396900 
 1016000    1.0332838   -2.9090256   -2.9090256   -1.3591039  0.078856616   -2.9090256    1.5499217   396900 
 1017000     1.031934   -2.9058923   -2.9058923   -1.3579952  0.076779556   -2.9058923    1.5478971   396900 
 1018000    1.0314029   -2.9053092   -2.9053092   -1.3582087   0.08069435   -2.9053092    1.5471005   396900 
 1019000    1.0327689   -2.9081321   -2.9081321   -1.3589826   0.08391536   -2.9081321    1.5491494   396900 
 1020000    1.0338043   -2.9095754   -2.9095754   -1.3588728  0.079010506   -2.9095754    1.5507026   396900 
 1021000    1.0314954   -2.9065119   -2.9065119   -1.3592727  0.081355467   -2.9065119    1.5472392   396900 
 1022000    1.0320893   -2.9071514   -2.9071514   -1.3590213  0.082351744   -2.9071514      1.54813   396900 
 1023000    1.0340296   -2.9075238   -2.9075238   -1.3564833  0.077181905   -2.9075238    1.5510405   396900 
 1024000    1.0315128   -2.9045281   -2.9045281   -1.3572629  0.079713944   -2.9045281    1.5472652   396900 
 1025000    1.0306466   -2.9059271   -2.9059271   -1.3599611  0.078133764   -2.9059271     1.545966   396900 
 1026000    1.0293969   -2.9036122   -2.9036122   -1.3595207  0.077460105   -2.9036122    1.5440915   396900 
 1027000    1.0306693   -2.9059062   -2.9059062   -1.3599061  0.076049675   -2.9059062    1.5460001   396900 
 1028000    1.0316445   -2.9061353   -2.9061353   -1.3586724  0.080156087   -2.9061353    1.5474629   396900 
 1029000    1.0312929   -2.9062133   -2.9062133   -1.3592779  0.077652505   -2.9062133    1.5469354   396900 
 1030000    1.0315697   -2.9078209   -2.9078209   -1.3604702  0.076870019   -2.9078209    1.5473507   396900 
 1031000    1.0320215   -2.9068335   -2.9068335   -1.3588051  0.078501103   -2.9068335    1.5480284   396900 
 1032000    1.0311412   -2.9078286   -2.9078286   -1.3611206  0.078005686   -2.9078286    1.5467079   396900 
 1033000    1.0324418   -2.9068584   -2.9068584   -1.3581996  0.077685314   -2.9068584    1.5486588   396900 
 1034000    1.0318161   -2.9065964   -2.9065964   -1.3588762  0.082375024   -2.9065964    1.5477202   396900 
 1035000    1.0327582   -2.9064144   -2.9064144    -1.357281  0.079481775   -2.9064144    1.5491334   396900 
 1036000    1.0325539   -2.9073785   -2.9073785   -1.3585515   0.08101021   -2.9073785     1.548827   396900 
 1037000    1.0316652   -2.9064257   -2.9064257   -1.3589318  0.079551786   -2.9064257    1.5474939   396900 
 1038000    1.0317165   -2.9039389   -2.9039389   -1.3563681  0.077598471   -2.9039389    1.5475708   396900 
 1039000    1.0319135   -2.9056781   -2.9056781   -1.3578118  0.075192593   -2.9056781    1.5478664   396900 
 1040000    1.0311107   -2.9031707   -2.9031707   -1.3565085  0.076750834   -2.9031707    1.5466622   396900 
 1041000     1.034289   -2.9052492   -2.9052492   -1.3538196  0.080615877   -2.9052492    1.5514296   396900 
 1042000    1.0327144   -2.9022412   -2.9022412   -1.3531735  0.074844976   -2.9022412    1.5490677   396900 
 1043000    1.0320971   -2.9014647   -2.9014647    -1.353323  0.081749896   -2.9014647    1.5481417   396900 
 1044000    1.0321878   -2.8989932   -2.8989932   -1.3507154  0.081866123   -2.8989932    1.5482778   396900 
 1045000     1.034845   -2.9035351   -2.9035351   -1.3512715  0.080781128   -2.9035351    1.5522636   396900 
 1046000    1.0356044   -2.9053077   -2.9053077    -1.351905  0.075469899   -2.9053077    1.5534027   396900 
 1047000    1.0334351   -2.9044237   -2.9044237    -1.354275  0.076506837   -2.9044237    1.5501487   396900 
 1048000    1.0328967   -2.9008746   -2.9008746   -1.3515335  0.078889771   -2.9008746    1.5493411   396900 
 1049000    1.0373714   -2.9053148   -2.9053148   -1.3492616  0.077623907   -2.9053148    1.5560532   396900 
 1050000    1.0345669   -2.9020966   -2.9020966   -1.3502501  0.080953066   -2.9020966    1.5518464   396900 
 1051000    1.0348231   -2.9018162   -2.9018162   -1.3495855  0.081416718   -2.9018162    1.5522307   396900 
 1052000    1.0341983    -2.902938    -2.902938   -1.3516444  0.080594893    -2.902938    1.5512936   396900 
 1053000    1.0322967   -2.9014538   -2.9014538   -1.3530126  0.083233384   -2.9014538    1.5484412   396900 
 1054000    1.0330773   -2.9014589   -2.9014589   -1.3518469  0.076981103   -2.9014589     1.549612   396900 
 1055000    1.0318716   -2.9000101   -2.9000101   -1.3522066  0.084358859   -2.9000101    1.5478035   396900 
 1056000     1.030282   -2.9000411   -2.9000411   -1.3546221  0.079264214   -2.9000411    1.5454191   396900 
 1057000    1.0344034   -2.9042522   -2.9042522    -1.352651  0.077922865   -2.9042522    1.5516012   396900 
 1058000    1.0328625   -2.9035329   -2.9035329   -1.3542431  0.078547506   -2.9035329    1.5492898   396900 
 1059000    1.0313413   -2.9020903   -2.9020903   -1.3550822  0.075377948   -2.9020903    1.5470081   396900 
 1060000    1.0323998   -2.9025532   -2.9025532   -1.3539574  0.080906862   -2.9025532    1.5485958   396900 
 1061000    1.0302426   -2.9024867   -2.9024867   -1.3571266  0.080145891   -2.9024867      1.54536   396900 
 1062000    1.0322792   -2.9065366   -2.9065366   -1.3581217  0.081100656   -2.9065366    1.5484149   396900 
 1063000    1.0307937   -2.9047834   -2.9047834   -1.3585968  0.084442314   -2.9047834    1.5461866   396900 
 1064000    1.0337714   -2.9062501   -2.9062501    -1.355597  0.080624512   -2.9062501    1.5506532   396900 
 1065000    1.0325183   -2.9023874   -2.9023874   -1.3536138  0.082894391   -2.9023874    1.5487736   396900 
 1066000    1.0343493   -2.9036857   -2.9036857   -1.3521657  0.080544057   -2.9036857      1.55152   396900 
 1067000    1.0340138   -2.9054487   -2.9054487   -1.3544319  0.074799269   -2.9054487    1.5510168   396900 
 1068000    1.0333002   -2.9042357   -2.9042357   -1.3542893  0.081686596   -2.9042357    1.5499464   396900 
 1069000    1.0343587    -2.905152    -2.905152   -1.3536179  0.081953129    -2.905152    1.5515341   396900 
 1070000    1.0339124   -2.9044045   -2.9044045   -1.3535398  0.081073329   -2.9044045    1.5508648   396900 
 1071000    1.0350691   -2.9029928   -2.9029928   -1.3503931  0.085349305   -2.9029928    1.5525997   396900 
 1072000    1.0347448   -2.9049313   -2.9049313    -1.352818  0.080013559   -2.9049313    1.5521133   396900 
 1073000    1.0316994   -2.9023606   -2.9023606   -1.3548154  0.082816285   -2.9023606    1.5475452   396900 
 1074000    1.0311874    -2.903217    -2.903217   -1.3564398  0.073216045    -2.903217    1.5467773   396900 
 1075000    1.0315296   -2.9023179   -2.9023179   -1.3550274  0.075940929   -2.9023179    1.5472905   396900 
 1076000    1.0314873   -2.9024322   -2.9024322   -1.3552053  0.080780576   -2.9024322     1.547227   396900 
 1077000    1.0315814   -2.9017706   -2.9017706   -1.3544023   0.07799897   -2.9017706    1.5473683   396900 
 1078000    1.0297786   -2.8994337   -2.8994337   -1.3547697  0.079422172   -2.8994337     1.544664   396900 
 1079000    1.0314359   -2.9027531   -2.9027531   -1.3556032  0.075491876   -2.9027531      1.54715   396900 
 1080000    1.0317242   -2.9020591   -2.9020591   -1.3544767  0.072058954   -2.9020591    1.5475824   396900 
 1081000    1.0315809   -2.8994228   -2.8994228   -1.3520554  0.085232438   -2.8994228    1.5473674   396900 
 1082000    1.0319717   -2.9017229   -2.9017229   -1.3537692  0.077636175   -2.9017229    1.5479537   396900 
 1083000    1.0328021   -2.9039274   -2.9039274   -1.3547282  0.080299225   -2.9039274    1.5491992   396900 
 1084000    1.0311103   -2.8991558   -2.8991558   -1.3524943  0.082899437   -2.8991558    1.5466615   396900 
 1085000    1.0332493   -2.9003948   -2.9003948   -1.3505248   0.08150608   -2.9003948      1.54987   396900 
 1086000    1.0329626   -2.8997569   -2.8997569   -1.3503169  0.081711223   -2.8997569      1.54944   396900 
 1087000    1.0335722   -2.9012499   -2.9012499   -1.3508955  0.082512835   -2.9012499    1.5503544   396900 
 1088000    1.0341325   -2.9009024   -2.9009024   -1.3497076  0.081258858   -2.9009024    1.5511949   396900 
 1089000    1.0331141   -2.8972171   -2.8972171   -1.3475498   0.08454341   -2.8972171    1.5496672   396900 
 1090000    1.0338573    -2.898402    -2.898402   -1.3476199  0.080628932    -2.898402    1.5507821   396900 
 1091000     1.034564   -2.8987191   -2.8987191    -1.346877  0.079785446   -2.8987191    1.5518421   396900 
 1092000    1.0323547   -2.8966546   -2.8966546   -1.3481265   0.07973673   -2.8966546    1.5485281   396900 
 1093000     1.032965   -2.8999883   -2.8999883   -1.3505447  0.079104929   -2.8999883    1.5494437   396900 
 1094000    1.0314544   -2.8987983   -2.8987983   -1.3516206  0.077355012   -2.8987983    1.5471777   396900 
 1095000     1.030139   -2.8951807   -2.8951807   -1.3499761  0.081792398   -2.8951807    1.5452046   396900 
 1096000    1.0333584   -2.8988823   -2.8988823   -1.3488486  0.083692651   -2.8988823    1.5500336   396900 
 1097000    1.0328797   -2.8975293   -2.8975293   -1.3482136  0.082477166   -2.8975293    1.5493157   396900 
 1098000    1.0343006   -2.9003535   -2.9003535   -1.3489065    0.0849783   -2.9003535     1.551447   396900 
 1099000    1.0337057   -2.8981113   -2.8981113   -1.3475567  0.080925833   -2.8981113    1.5505546   396900 
 1100000      1.03494   -2.8994906   -2.8994906   -1.3470845   0.08107082   -2.8994906    1.5524061   396900 
 1101000    1.0326203   -2.8987447   -2.8987447   -1.3498182  0.081450966   -2.8987447    1.5489265   396900 
 1102000    1.0310579   -2.8978668   -2.8978668   -1.3512838  0.081807615   -2.8978668     1.546583   396900 
 1103000    1.0341211   -2.9005536   -2.9005536   -1.3493759  0.079151393   -2.9005536    1.5511777   396900 
 1104000     1.034265   -2.9007287   -2.9007287   -1.3493351  0.080221377   -2.9007287    1.5513936   396900 
 1105000    1.0337654   -2.8968963   -2.8968963   -1.3462522  0.082849587   -2.8968963    1.5506441   396900 
 1106000    1.0322059   -2.8988334   -2.8988334   -1.3505284  0.079662992   -2.8988334     1.548305   396900 
 1107000    1.0321349   -2.8984781   -2.8984781   -1.3502796   0.07647851   -2.8984781    1.5481985   396900 
 1108000    1.0328837   -2.8954438   -2.8954438   -1.3461221  0.082631087   -2.8954438    1.5493216   396900 
 1109000    1.0329807   -2.8972548   -2.8972548   -1.3477877  0.085506622   -2.8972548    1.5494671   396900 
 1110000    1.0360843   -2.9012197   -2.9012197   -1.3470971  0.075851349   -2.9012197    1.5541226   396900 
 1111000    1.0335025   -2.8962271   -2.8962271   -1.3459773  0.082047874   -2.8962271    1.5502498   396900 
 1112000    1.0334794    -2.896715    -2.896715   -1.3464998  0.083137819    -2.896715    1.5502152   396900 
 1113000    1.0339929   -2.8982347   -2.8982347   -1.3472493  0.077189978   -2.8982347    1.5509854   396900 
 1114000    1.0315124   -2.8962949   -2.8962949   -1.3490302  0.078736003   -2.8962949    1.5472647   396900 
 1115000    1.0348094   -2.8976837   -2.8976837   -1.3454736  0.080294685   -2.8976837    1.5522101   396900 
 1116000    1.0332473   -2.8967693   -2.8967693   -1.3469022   0.07948931   -2.8967693    1.5498671   396900 
 1117000     1.033343   -2.8973196   -2.8973196    -1.347309  0.079360563   -2.8973196    1.5500106   396900 
 1118000    1.0327676   -2.8957779   -2.8957779   -1.3466304  0.074048557   -2.8957779    1.5491475   396900 
 1119000    1.0335195   -2.8972212   -2.8972212   -1.3469458  0.076978975   -2.8972212    1.5502754   396900 
 1120000    1.0339184   -2.8974328   -2.8974328   -1.3465592  0.081209875   -2.8974328    1.5508736   396900 
 1121000    1.0328651   -2.8946908   -2.8946908    -1.345397  0.078755838   -2.8946908    1.5492938   396900 
 1122000    1.0319738   -2.8923295   -2.8923295   -1.3443727   0.08377785   -2.8923295    1.5479568   396900 
 1123000    1.0350975   -2.8958194   -2.8958194    -1.343177  0.081132645   -2.8958194    1.5526424   396900 
 1124000    1.0341986   -2.8950753   -2.8950753   -1.3437814  0.079955898   -2.8950753    1.5512939   396900 
 1125000    1.0333575   -2.8947554   -2.8947554   -1.3447231  0.079149927   -2.8947554    1.5500324   396900 
 1126000    1.0326333    -2.892312    -2.892312   -1.3433661  0.084009745    -2.892312     1.548946   396900 
 1127000    1.0333566   -2.8923674   -2.8923674   -1.3423363  0.080515655   -2.8923674    1.5500311   396900 
 1128000    1.0321611   -2.8921526   -2.8921526   -1.3439148  0.081797433   -2.8921526    1.5482377   396900 
 1129000    1.0340138   -2.8930901   -2.8930901   -1.3420734  0.077445428   -2.8930901    1.5510168   396900 
 1130000    1.0352453   -2.8949085   -2.8949085   -1.3420444   0.08082324   -2.8949085    1.5528641   396900 
 1131000    1.0360116   -2.8949233   -2.8949233   -1.3409099  0.080242775   -2.8949233    1.5540134   396900 
 1132000    1.0349032   -2.8950615   -2.8950615   -1.3427105  0.082930488   -2.8950615    1.5523509   396900 
 1133000    1.0338935   -2.8938218   -2.8938218   -1.3429855  0.078720003   -2.8938218    1.5508363   396900 
 1134000    1.0341533   -2.8920571   -2.8920571   -1.3408311  0.078607532   -2.8920571     1.551226   396900 
 1135000    1.0357361    -2.896635    -2.896635   -1.3430347  0.077176752    -2.896635    1.5536002   396900 
 1136000    1.0352046   -2.8942607   -2.8942607   -1.3414578  0.082435457   -2.8942607     1.552803   396900 
 1137000     1.035017   -2.8927103   -2.8927103   -1.3401888  0.081386735   -2.8927103    1.5525215   396900 
 1138000    1.0357084   -2.8904618   -2.8904618   -1.3369031  0.082041543   -2.8904618    1.5535587   396900 
 1139000    1.0345483   -2.8893136   -2.8893136    -1.337495  0.083501041   -2.8893136    1.5518186   396900 
 1140000    1.0357829   -2.8899359   -2.8899359   -1.3362655  0.079395262   -2.8899359    1.5536704   396900 
 1141000     1.032509   -2.8867242   -2.8867242   -1.3379647  0.081006765   -2.8867242    1.5487595   396900 
 1142000     1.032898   -2.8860929   -2.8860929   -1.3367498  0.079459681   -2.8860929    1.5493431   396900 
 1143000    1.0351021   -2.8878151   -2.8878151   -1.3351658  0.078736913   -2.8878151    1.5526493   396900 
 1144000    1.0345616   -2.8889724   -2.8889724   -1.3371339  0.075834153   -2.8889724    1.5518385   396900 
 1145000     1.036653   -2.8899281   -2.8899281   -1.3349525  0.080889354   -2.8899281    1.5549756   396900 
 1146000    1.0364272   -2.8876909   -2.8876909   -1.3330541  0.078745602   -2.8876909    1.5546369   396900 
 1147000    1.0353181   -2.8853916   -2.8853916   -1.3324183   0.07930543   -2.8853916    1.5529732   396900 
 1148000    1.0354222   -2.8836876   -2.8836876   -1.3305582  0.079853904   -2.8836876    1.5531294   396900 
 1149000    1.0344065   -2.8818111   -2.8818111   -1.3302052  0.080240555   -2.8818111    1.5516059   396900 
 1150000    1.0348817   -2.8850676   -2.8850676   -1.3327489  0.085045561   -2.8850676    1.5523187   396900 
 1151000     1.033492   -2.8830014   -2.8830014   -1.3327674    0.0799277   -2.8830014     1.550234   396900 
 1152000    1.0339439   -2.8847897   -2.8847897   -1.3338777  0.081455676   -2.8847897     1.550912   396900 
 1153000    1.0359162   -2.8839796   -2.8839796   -1.3301091   0.08283316   -2.8839796    1.5538705   396900 
 1154000     1.035604   -2.8872094   -2.8872094   -1.3338073  0.073377186   -2.8872094    1.5534021   396900 
 1155000    1.0357936   -2.8849595   -2.8849595   -1.3312729   0.08263863   -2.8849595    1.5536865   396900 
 1156000    1.0373987   -2.8848439   -2.8848439   -1.3287498  0.080304578   -2.8848439    1.5560941   396900 
 1157000    1.0349271   -2.8829086   -2.8829086   -1.3305219  0.082499761   -2.8829086    1.5523867   396900 
 1158000    1.0365487   -2.8851589   -2.8851589   -1.3303398  0.085945317   -2.8851589    1.5548191   396900 
 1159000    1.0376008   -2.8863965   -2.8863965   -1.3299992  0.076989606   -2.8863965    1.5563973   396900 
 1160000    1.0361171   -2.8843666   -2.8843666   -1.3301948    0.0797405   -2.8843666    1.5541718   396900 
 1161000    1.0383568   -2.8850656   -2.8850656   -1.3275343  0.076717511   -2.8850656    1.5575312   396900 
 1162000    1.0355004   -2.8822876   -2.8822876   -1.3290409  0.080857916   -2.8822876    1.5532467   396900 
 1163000    1.0359236   -2.8815945   -2.8815945   -1.3277131  0.080145968   -2.8815945    1.5538814   396900 
 1164000    1.0361462   -2.8816538   -2.8816538   -1.3274384  0.077891419   -2.8816538    1.5542153   396900 
 1165000    1.0342745   -2.8803018   -2.8803018   -1.3288939   0.08386383   -2.8803018    1.5514079   396900 
 1166000    1.0334257   -2.8801117   -2.8801117   -1.3299771  0.078976109   -2.8801117    1.5501347   396900 
 1167000    1.0351551   -2.8843976   -2.8843976   -1.3316688  0.078653267   -2.8843976    1.5527288   396900 
 1168000    1.0343885    -2.880373    -2.880373   -1.3287941   0.07766398    -2.880373    1.5515788   396900 
 1169000    1.0361284   -2.8810869   -2.8810869   -1.3268982  0.076976643   -2.8810869    1.5541886   396900 
 1170000    1.0372041   -2.8789052   -2.8789052    -1.323103  0.081072274   -2.8789052    1.5558022   396900 
 1171000    1.0373654   -2.8814869   -2.8814869   -1.3254428   0.08036026   -2.8814869    1.5560441   396900 
 1172000    1.0343644   -2.8796482   -2.8796482   -1.3281055  0.082093634   -2.8796482    1.5515427   396900 
 1173000    1.0331264   -2.8767061   -2.8767061   -1.3270204  0.083686055   -2.8767061    1.5496857   396900 
 1174000    1.0359877   -2.8811988   -2.8811988   -1.3272211  0.078011604   -2.8811988    1.5539777   396900 
 1175000     1.035295   -2.8805678   -2.8805678   -1.3276292  0.086944137   -2.8805678    1.5529386   396900 
 1176000    1.0360133   -2.8804483   -2.8804483   -1.3264322  0.081177917   -2.8804483    1.5540161   396900 
 1177000    1.0371126    -2.881375    -2.881375     -1.32571  0.086494565    -2.881375     1.555665   396900 
 1178000    1.0372883   -2.8810288   -2.8810288   -1.3251003  0.079303722   -2.8810288    1.5559286   396900 
 1179000    1.0357391    -2.882972    -2.882972   -1.3293674  0.077065697    -2.882972    1.5536047   396900 
 1180000    1.0363641   -2.8824793   -2.8824793   -1.3279372  0.076752328   -2.8824793    1.5545422   396900 
 1181000    1.0339555    -2.879361    -2.879361   -1.3284317  0.079353531    -2.879361    1.5509293   396900 
 1182000    1.0346227   -2.8793945   -2.8793945   -1.3274643  0.075666614   -2.8793945    1.5519302   396900 
 1183000    1.0341674   -2.8799228   -2.8799228   -1.3286756  0.079649693   -2.8799228    1.5512472   396900 
 1184000    1.0359535   -2.8797507   -2.8797507   -1.3258243  0.085289411   -2.8797507    1.5539264   396900 
 1185000    1.0325058   -2.8770468   -2.8770468    -1.328292  0.087530471   -2.8770468    1.5487548   396900 
 1186000     1.035567   -2.8822552   -2.8822552   -1.3289086  0.078857584   -2.8822552    1.5533465   396900 
 1187000    1.0352632   -2.8788392   -2.8788392   -1.3259484  0.078889067   -2.8788392    1.5528908   396900 
 1188000    1.0358261   -2.8800794   -2.8800794   -1.3263442  0.078787445   -2.8800794    1.5537352   396900 
 1189000    1.0336977   -2.8767265   -2.8767265   -1.3261839  0.081181252   -2.8767265    1.5505426   396900 
 1190000    1.0370353   -2.8792426   -2.8792426   -1.3236935  0.087088766   -2.8792426    1.5555491   396900 
 1191000    1.0372509   -2.8778754   -2.8778754    -1.322003  0.083032287   -2.8778754    1.5558724   396900 
 1192000    1.0369567   -2.8783047   -2.8783047   -1.3228736  0.086127749   -2.8783047    1.5554312   396900 
 1193000    1.0361014   -2.8786944   -2.8786944   -1.3245462  0.078670697   -2.8786944    1.5541482   396900 
 1194000    1.0357123   -2.8783456   -2.8783456   -1.3247811  0.076643766   -2.8783456    1.5535645   396900 
 1195000    1.0343901    -2.875458    -2.875458   -1.3238768  0.086565758    -2.875458    1.5515812   396900 
 1196000    1.0361718   -2.8770608   -2.8770608   -1.3228071  0.084698341   -2.8770608    1.5542537   396900 
 1197000    1.0370609   -2.8779441   -2.8779441   -1.3223567  0.084226129   -2.8779441    1.5555874   396900 
 1198000    1.0354381   -2.8775504   -2.8775504   -1.3243971  0.082449393   -2.8775504    1.5531533   396900 
 1199000    1.0350761   -2.8758613   -2.8758613   -1.3232511  0.083742779   -2.8758613    1.5526103   396900 
 1200000    1.0360419     -2.87573     -2.87573    -1.321671  0.076888605     -2.87573     1.554059   396900 
 1201000    1.0328815   -2.8712414   -2.8712414    -1.321923  0.081652058   -2.8712414    1.5493184   396900 
 1202000    1.0358859   -2.8742546   -2.8742546   -1.3204296  0.079488711   -2.8742546     1.553825   396900 
 1203000    1.0348604   -2.8745046   -2.8745046    -1.322218  0.081400808   -2.8745046    1.5522867   396900 
 1204000    1.0369654    -2.874672    -2.874672   -1.3192278  0.082391833    -2.874672    1.5554442   396900 
 1205000    1.0357597   -2.8701752   -2.8701752   -1.3165395  0.085047914   -2.8701752    1.5536357   396900 
 1206000    1.0376829   -2.8723229   -2.8723229   -1.3158024  0.077785461   -2.8723229    1.5565205   396900 
 1207000    1.0368419   -2.8712566   -2.8712566   -1.3159977  0.087212601   -2.8712566    1.5552589   396900 
 1208000    1.0365272   -2.8712706   -2.8712706   -1.3164837  0.082221272   -2.8712706    1.5547869   396900 
 1209000    1.0378501   -2.8725804   -2.8725804   -1.3158092  0.077717387   -2.8725804    1.5567713   396900 
 1210000    1.0358908   -2.8684955   -2.8684955   -1.3146632  0.082121774   -2.8684955    1.5538323   396900 
 1211000    1.0384286   -2.8713446   -2.8713446   -1.3137056  0.077434971   -2.8713446     1.557639   396900 
 1212000    1.0355859   -2.8675686   -2.8675686   -1.3141936  0.079890676   -2.8675686     1.553375   396900 
 1213000    1.0359366   -2.8664099   -2.8664099   -1.3125089  0.083824513   -2.8664099     1.553901   396900 
 1214000     1.035654   -2.8667842   -2.8667842   -1.3133071  0.080383522   -2.8667842    1.5534771   396900 
 1215000    1.0351263   -2.8655018   -2.8655018   -1.3128163  0.076475988   -2.8655018    1.5526855   396900 
 1216000    1.0343921   -2.8656244   -2.8656244   -1.3140401  0.082921534   -2.8656244    1.5515843   396900 
 1217000    1.0372714   -2.8686276   -2.8686276   -1.3127245  0.085696582   -2.8686276    1.5559031   396900 
 1218000    1.0356158   -2.8659029   -2.8659029   -1.3124832  0.079395985   -2.8659029    1.5534197   396900 
 1219000    1.0375441   -2.8653332   -2.8653332   -1.3090211  0.075427229   -2.8653332    1.5563122   396900 
 1220000    1.0372069   -2.8647357   -2.8647357   -1.3089293  0.080522422   -2.8647357    1.5558064   396900 
 1221000    1.0357149   -2.8646322   -2.8646322   -1.3110638  0.078888539   -2.8646322    1.5535685   396900 
 1222000    1.0351131   -2.8640568   -2.8640568    -1.311391  0.081675518   -2.8640568    1.5526657   396900 
 1223000    1.0329464   -2.8632345   -2.8632345   -1.3138188  0.076171174   -2.8632345    1.5494157   396900 
 1224000    1.0376184   -2.8668605   -2.8668605   -1.3104369  0.083197148   -2.8668605    1.5564236   396900 
 1225000    1.0374409   -2.8658928   -2.8658928   -1.3097355  0.079209872   -2.8658928    1.5561574   396900 
 1226000    1.0386033   -2.8671801   -2.8671801    -1.309279  0.079463803   -2.8671801    1.5579011   396900 
 1227000      1.03547   -2.8627368   -2.8627368   -1.3095358  0.081693327   -2.8627368     1.553201   396900 
 1228000    1.0360434   -2.8621484   -2.8621484   -1.3080872  0.083838091   -2.8621484    1.5540612   396900 
 1229000    1.0360823   -2.8604274   -2.8604274   -1.3063079  0.078607356   -2.8604274    1.5541195   396900 
 1230000    1.0380835    -2.865599    -2.865599   -1.3084777   0.07398698    -2.865599    1.5571213   396900 
 1231000    1.0367489   -2.8662474   -2.8662474   -1.3111281  0.072786266   -2.8662474    1.5551194   396900 
 1232000    1.0388861   -2.8670342   -2.8670342    -1.308709  0.075220288   -2.8670342    1.5583252   396900 
 1233000    1.0388472   -2.8636384   -2.8636384   -1.3053716  0.086721662   -2.8636384    1.5582668   396900 
 1234000    1.0361433   -2.8631875   -2.8631875   -1.3089764  0.079978371   -2.8631875     1.554211   396900 
 1235000    1.0372868   -2.8636453   -2.8636453    -1.307719  0.078836063   -2.8636453    1.5559262   396900 
 1236000    1.0369677   -2.8654372   -2.8654372   -1.3099896   0.08138438   -2.8654372    1.5554476   396900 
 1237000    1.0407466   -2.8682916   -2.8682916   -1.3071755  0.079179378   -2.8682916     1.561116   396900 
 1238000     1.039603    -2.864608    -2.864608   -1.3052074  0.084700655    -2.864608    1.5594006   396900 
 1239000    1.0367952   -2.8617354   -2.8617354   -1.3065465  0.081441038   -2.8617354    1.5551889   396900 
 1240000    1.0384823   -2.8619437   -2.8619437   -1.3042243  0.079099273   -2.8619437    1.5577195   396900 
 1241000    1.0393317   -2.8639928   -2.8639928   -1.3049992  0.078553042   -2.8639928    1.5589936   396900 
 1242000    1.0348216   -2.8594179   -2.8594179   -1.3071894  0.078580543   -2.8594179    1.5522285   396900 
 1243000    1.0373857   -2.8620253   -2.8620253   -1.3059506  0.084331712   -2.8620253    1.5560746   396900 
 1244000    1.0396188   -2.8664122   -2.8664122   -1.3069879  0.076549143   -2.8664122    1.5594243   396900 
 1245000     1.038361   -2.8640304   -2.8640304   -1.3064929  0.077711422   -2.8640304    1.5575376   396900 
 1246000    1.0409461   -2.8656755   -2.8656755   -1.3042603  0.080189473   -2.8656755    1.5614153   396900 
 1247000    1.0370456   -2.8628628   -2.8628628   -1.3072983  0.078780049   -2.8628628    1.5555645   396900 
 1248000    1.0369531   -2.8617427   -2.8617427   -1.3063169   0.07640206   -2.8617427    1.5554258   396900 
 1249000    1.0375002   -2.8631328   -2.8631328   -1.3068864  0.076121464   -2.8631328    1.5562464   396900 
 1250000    1.0395982   -2.8637502   -2.8637502   -1.3043567   0.07708917   -2.8637502    1.5593934   396900 
 1251000    1.0378289   -2.8636149   -2.8636149   -1.3068755  0.079023031   -2.8636149    1.5567394   396900 
 1252000    1.0390543   -2.8629112   -2.8629112   -1.3043337  0.087328315   -2.8629112    1.5585775   396900 
 1253000    1.0374445   -2.8586125   -2.8586125   -1.3024498  0.084432669   -2.8586125    1.5561628   396900 
 1254000    1.0392644   -2.8619141   -2.8619141   -1.3030215  0.083214808   -2.8619141    1.5588926   396900 
 1255000    1.0375635   -2.8612248   -2.8612248   -1.3048835  0.079077952   -2.8612248    1.5563414   396900 
 1256000    1.0357871    -2.858452    -2.858452   -1.3047752  0.078554899    -2.858452    1.5536768   396900 
 1257000     1.038775   -2.8602527   -2.8602527   -1.3020941  0.077713197   -2.8602527    1.5581586   396900 
 1258000    1.0376136   -2.8583118   -2.8583118   -1.3018953  0.083395192   -2.8583118    1.5564165   396900 
 1259000    1.0377085   -2.8598284   -2.8598284   -1.3032696  0.082659533   -2.8598284    1.5565588   396900 
 1260000    1.0390767   -2.8579476   -2.8579476   -1.2993364  0.081159541   -2.8579476    1.5586112   396900 
 1261000    1.0392723   -2.8606227   -2.8606227   -1.3017182  0.083640679   -2.8606227    1.5589045   396900 
 1262000    1.0382491   -2.8615185   -2.8615185   -1.3041488  0.082023057   -2.8615185    1.5573697   396900 
 1263000    1.0390688    -2.862708    -2.862708   -1.3041087  0.081366231    -2.862708    1.5585993   396900 
 1264000    1.0401452   -2.8631797   -2.8631797   -1.3029659  0.085264871   -2.8631797    1.5602139   396900 
 1265000    1.0397586   -2.8629885   -2.8629885   -1.3033545  0.082946996   -2.8629885     1.559634   396900 
 1266000     1.037802   -2.8620999   -2.8620999   -1.3054008   0.08285129   -2.8620999    1.5566991   396900 
 1267000    1.0384802   -2.8635664   -2.8635664   -1.3058501  0.076839292   -2.8635664    1.5577164   396900 
 1268000    1.0349658   -2.8614263   -2.8614263   -1.3089814  0.085802082   -2.8614263    1.5524449   396900 
 1269000    1.0352661   -2.8606662   -2.8606662   -1.3077709  0.081243294   -2.8606662    1.5528953   396900 
 1270000    1.0350709   -2.8596027   -2.8596027   -1.3070002   0.08039376   -2.8596027    1.5526025   396900 
 1271000    1.0374431   -2.8607629   -2.8607629   -1.3046022   0.08037294   -2.8607629    1.5561607   396900 
 1272000    1.0380143    -2.859429    -2.859429   -1.3024115  0.080495011    -2.859429    1.5570175   396900 
 1273000    1.0375605   -2.8583534   -2.8583534   -1.3020165  0.077449867   -2.8583534    1.5563368   396900 
 1274000    1.0382789   -2.8571961   -2.8571961   -1.2997817  0.078318187   -2.8571961    1.5574144   396900 
 1275000    1.0396368   -2.8577474   -2.8577474   -1.2982962  0.079898092   -2.8577474    1.5594512   396900 
 1276000    1.0393931   -2.8551667   -2.8551667   -1.2960809  0.082409895   -2.8551667    1.5590857   396900 
 1277000     1.037691   -2.8562667   -2.8562667   -1.2997341  0.080090921   -2.8562667    1.5565326   396900 
 1278000    1.0381704   -2.8572836   -2.8572836   -1.3000319  0.078374831   -2.8572836    1.5572517   396900 
 1279000    1.0377663   -2.8545101   -2.8545101   -1.2978646  0.080406666   -2.8545101    1.5566455   396900 
 1280000    1.0400191   -2.8555468   -2.8555468   -1.2955222  0.076682632   -2.8555468    1.5600247   396900 
 1281000    1.0391017   -2.8536303   -2.8536303   -1.2949817  0.083322158   -2.8536303    1.5586487   396900 
 1282000    1.0393987   -2.8533774   -2.8533774   -1.2942833  0.082477818   -2.8533774    1.5590941   396900 
 1283000    1.0412645   -2.8545493   -2.8545493   -1.2926565  0.082705601   -2.8545493    1.5618928   396900 
 1284000    1.0400091   -2.8510227   -2.8510227   -1.2910131  0.085974535   -2.8510227    1.5600097   396900 
 1285000    1.0413514   -2.8521988   -2.8521988   -1.2901757  0.079550869   -2.8521988    1.5620231   396900 
 1286000    1.0400708   -2.8496934   -2.8496934   -1.2895911   0.08016098   -2.8496934    1.5601023   396900 
 1287000    1.0395705   -2.8512963   -2.8512963   -1.2919444  0.081672127   -2.8512963    1.5593518   396900 
 1288000    1.0396092   -2.8530225   -2.8530225   -1.2936126  0.081282607   -2.8530225    1.5594099   396900 
 1289000    1.0409663   -2.8537617   -2.8537617   -1.2923162  0.084692519   -2.8537617    1.5614455   396900 
 1290000     1.041407   -2.8509879   -2.8509879   -1.2888814  0.082791096   -2.8509879    1.5621065   396900 
 1291000    1.0386969    -2.847959    -2.847959   -1.2899176  0.082557679    -2.847959    1.5580415   396900 
 1292000    1.0393467   -2.8496892   -2.8496892   -1.2906731   0.08165431   -2.8496892    1.5590161   396900 
 1293000    1.0383344   -2.8500347   -2.8500347   -1.2925371  0.081915646   -2.8500347    1.5574976   396900 
 1294000    1.0386164   -2.8484018   -2.8484018   -1.2904812  0.082447763   -2.8484018    1.5579206   396900 
 1295000     1.040207   -2.8496259   -2.8496259   -1.2893193  0.079094663   -2.8496259    1.5603065   396900 
 1296000    1.0395224   -2.8494366   -2.8494366   -1.2901569  0.084933868   -2.8494366    1.5592797   396900 
 1297000    1.0368704   -2.8465438   -2.8465438   -1.2912421  0.082341051   -2.8465438    1.5553017   396900 
 1298000    1.0381566   -2.8491102   -2.8491102   -1.2918793  0.082953678   -2.8491102     1.557231   396900 
 1299000    1.0393654   -2.8484348   -2.8484348   -1.2893906   0.08234418   -2.8484348    1.5590442   396900 
 1300000    1.0386134   -2.8491685   -2.8491685   -1.2912523  0.080397183   -2.8491685    1.5579162   396900 
 1301000    1.0375759   -2.8475028   -2.8475028   -1.2911429  0.084676663   -2.8475028    1.5563599   396900 
 1302000    1.0399111   -2.8479977   -2.8479977    -1.288135  0.084186412   -2.8479977    1.5598627   396900 
 1303000    1.0373532   -2.8465395   -2.8465395   -1.2905136  0.076933173   -2.8465395    1.5560259   396900 
 1304000    1.0384081   -2.8474162   -2.8474162    -1.289808    0.0786854   -2.8474162    1.5576082   396900 
 1305000    1.0373006   -2.8469982   -2.8469982   -1.2910513  0.082527586   -2.8469982     1.555947   396900 
 1306000    1.0389599    -2.847411    -2.847411    -1.288975   0.08264173    -2.847411     1.558436   396900 
 1307000    1.0404723   -2.8488457   -2.8488457   -1.2881412  0.081840324   -2.8488457    1.5607045   396900 
 1308000    1.0374766   -2.8438923   -2.8438923   -1.2876814  0.081098677   -2.8438923     1.556211   396900 
 1309000    1.0402841    -2.844527    -2.844527   -1.2841047   0.08223125    -2.844527    1.5604223   396900 
 1310000     1.041744   -2.8470111   -2.8470111    -1.284399   0.08179579   -2.8470111     1.562612   396900 
 1311000    1.0395238   -2.8444384   -2.8444384   -1.2851566  0.084263634   -2.8444384    1.5592818   396900 
 1312000    1.0417955   -2.8419873   -2.8419873    -1.279298  0.085676397   -2.8419873    1.5626893   396900 
 1313000    1.0409802    -2.843442    -2.843442   -1.2819756  0.083273436    -2.843442    1.5614664   396900 
 1314000    1.0389253   -2.8427295   -2.8427295   -1.2843455  0.078632036   -2.8427295     1.558384   396900 
 1315000    1.0386428   -2.8425006   -2.8425006   -1.2845404  0.078585054   -2.8425006    1.5579602   396900 
 1316000    1.0406971   -2.8441293   -2.8441293   -1.2830875  0.079487592   -2.8441293    1.5610418   396900 
 1317000    1.0401948   -2.8439687   -2.8439687   -1.2836805  0.078578995   -2.8439687    1.5602882   396900 
 1318000    1.0392212   -2.8419122   -2.8419122   -1.2830844  0.081173851   -2.8419122    1.5588279   396900 
 1319000     1.039586   -2.8418617   -2.8418617   -1.2824866  0.080013636   -2.8418617    1.5593751   396900 
 1320000    1.0413934   -2.8419236   -2.8419236   -1.2798374  0.081635135   -2.8419236    1.5620862   396900 
 1321000    1.0411863   -2.8404618   -2.8404618   -1.2786863  0.086017124   -2.8404618    1.5617755   396900 
 1322000    1.0413852    -2.841616    -2.841616   -1.2795421  0.083654255    -2.841616    1.5620739   396900 
 1323000    1.0408503    -2.842157    -2.842157   -1.2808855  0.080406247    -2.842157    1.5612715   396900 
 1324000    1.0393538   -2.8373581   -2.8373581   -1.2783313  0.083537984   -2.8373581    1.5590268   396900 
 1325000    1.0409106   -2.8401541   -2.8401541    -1.278792  0.080561067   -2.8401541     1.561362   396900 
 1326000     1.041677   -2.8428809   -2.8428809   -1.2803693  0.078731624   -2.8428809    1.5625116   396900 
 1327000    1.0425121   -2.8433502   -2.8433502    -1.279586  0.082981098   -2.8433502    1.5637642   396900 
 1328000    1.0408954   -2.8420974   -2.8420974   -1.2807582  0.078326092   -2.8420974    1.5613392   396900 
 1329000    1.0404874   -2.8404375   -2.8404375   -1.2797103  0.082517638   -2.8404375    1.5607272   396900 
 1330000    1.0403586   -2.8425276   -2.8425276   -1.2819936  0.082366749   -2.8425276     1.560534   396900 
 1331000    1.0405822   -2.8426466   -2.8426466   -1.2817772  0.083060226   -2.8426466    1.5608694   396900 
 1332000    1.0394453   -2.8414124   -2.8414124   -1.2822485  0.080518608   -2.8414124     1.559164   396900 
 1333000    1.0386107   -2.8396346   -2.8396346   -1.2817224  0.077638664   -2.8396346    1.5579121   396900 
 1334000    1.0413101    -2.842658    -2.842658   -1.2806969  0.085694085    -2.842658    1.5619611   396900 
 1335000     1.040563   -2.8404749   -2.8404749   -1.2796344   0.07891131   -2.8404749    1.5608405   396900 
 1336000    1.0406343   -2.8395106   -2.8395106    -1.278563  0.078833213   -2.8395106    1.5609476   396900 
 1337000     1.042668   -2.8425838   -2.8425838   -1.2785858  0.081758859   -2.8425838     1.563998   396900 
 1338000    1.0422501   -2.8422738   -2.8422738   -1.2789025  0.078467176   -2.8422738    1.5633713   396900 
 1339000    1.0407491   -2.8419747   -2.8419747   -1.2808551  0.080493189   -2.8419747    1.5611196   396900 
 1340000    1.0400985   -2.8406028   -2.8406028   -1.2804589  0.082246891   -2.8406028    1.5601439   396900 
 1341000    1.0428319   -2.8440405   -2.8440405   -1.2797967  0.075029143   -2.8440405    1.5642439   396900 
 1342000    1.0422221     -2.84258     -2.84258   -1.2792508  0.084368948     -2.84258    1.5633292   396900 
 1343000    1.0395991    -2.839602    -2.839602   -1.2802072  0.078716047    -2.839602    1.5593948   396900 
 1344000    1.0407782   -2.8417862   -2.8417862   -1.2806229  0.086528912   -2.8417862    1.5611633   396900 
 1345000    1.0415198   -2.8422114   -2.8422114   -1.2799357  0.084449563   -2.8422114    1.5622757   396900 
 1346000    1.0402352   -2.8382947   -2.8382947   -1.2779459   0.08317502   -2.8382947    1.5603489   396900 
 1347000    1.0404369   -2.8384769   -2.8384769   -1.2778255  0.086241815   -2.8384769    1.5606514   396900 
 1348000    1.0389024    -2.838862    -2.838862   -1.2805124  0.080895853    -2.838862    1.5583496   396900 
 1349000    1.0408192   -2.8407578   -2.8407578   -1.2795329  0.084350012   -2.8407578    1.5612249   396900 
 1350000     1.041556   -2.8404024   -2.8404024   -1.2780724  0.084743066   -2.8404024      1.56233   396900 
 1351000    1.0416782   -2.8420593   -2.8420593    -1.279546  0.083166297   -2.8420593    1.5625134   396900 
 1352000    1.0411089   -2.8424689   -2.8424689   -1.2808095  0.077761714   -2.8424689    1.5616595   396900 
 1353000     1.040661   -2.8417748   -2.8417748   -1.2807872  0.084084295   -2.8417748    1.5609876   396900 
 1354000    1.0394668   -2.8402265   -2.8402265   -1.2810302  0.082741632   -2.8402265    1.5591963   396900 
 1355000    1.0414331   -2.8412125   -2.8412125   -1.2790668  0.080166917   -2.8412125    1.5621457   396900 
 1356000    1.0427342   -2.8416505   -2.8416505   -1.2775532  0.089619591   -2.8416505    1.5640973   396900 
 1357000    1.0409345   -2.8380054   -2.8380054   -1.2766076  0.085560549   -2.8380054    1.5613978   396900 
 1358000    1.0432428   -2.8394538   -2.8394538   -1.2745936  0.077997655   -2.8394538    1.5648602   396900 
 1359000    1.0407671   -2.8367602   -2.8367602   -1.2756135  0.085593177   -2.8367602    1.5611467   396900 
 1360000    1.0416247   -2.8386923   -2.8386923   -1.2762591  0.076573725   -2.8386923    1.5624331   396900 
 1361000    1.0401779   -2.8385736   -2.8385736   -1.2783107    0.0804007   -2.8385736     1.560263   396900 
 1362000    1.0422626    -2.839316    -2.839316   -1.2759261  0.083843272    -2.839316    1.5633899   396900 
 1363000    1.0408959   -2.8360576   -2.8360576   -1.2747177  0.079131104   -2.8360576    1.5613399   396900 
 1364000    1.0412504   -2.8367819   -2.8367819   -1.2749102  0.084160309   -2.8367819    1.5618717   396900 
 1365000    1.0413817   -2.8376764   -2.8376764   -1.2756077  0.080712939   -2.8376764    1.5620687   396900 
 1366000    1.0430743   -2.8380929   -2.8380929   -1.2734854  0.081027777   -2.8380929    1.5646074   396900 
 1367000    1.0404152    -2.837641    -2.837641   -1.2770222  0.081532209    -2.837641    1.5606188   396900 
 1368000     1.040893   -2.8370653   -2.8370653   -1.2757297  0.078976154   -2.8370653    1.5613356   396900 
 1369000    1.0381679   -2.8351799   -2.8351799   -1.2779319  0.083563916   -2.8351799    1.5572479   396900 
 1370000    1.0414956   -2.8391739   -2.8391739   -1.2769345  0.080809758   -2.8391739    1.5622394   396900 
 1371000    1.0402202   -2.8378918   -2.8378918   -1.2775653  0.079429766   -2.8378918    1.5603264   396900 
 1372000    1.0420384   -2.8405592   -2.8405592   -1.2775056  0.082466545   -2.8405592    1.5630536   396900 
 1373000    1.0412996    -2.840209    -2.840209   -1.2782635  0.077105874    -2.840209    1.5619455   396900 
 1374000    1.0423849    -2.837651    -2.837651   -1.2740775  0.085311773    -2.837651    1.5635735   396900 
 1375000    1.0404573   -2.8372536   -2.8372536   -1.2765715  0.084679067   -2.8372536     1.560682   396900 
 1376000    1.0398519   -2.8356805   -2.8356805   -1.2759065  0.081787004   -2.8356805    1.5597739   396900 
 1377000    1.0412946   -2.8389426   -2.8389426   -1.2770046  0.082472486   -2.8389426     1.561938   396900 
 1378000     1.040645   -2.8370946   -2.8370946    -1.276131   0.08434493   -2.8370946    1.5609636   396900 
 1379000    1.0420779   -2.8369693   -2.8369693   -1.2738564  0.082867953   -2.8369693    1.5631129   396900 
 1380000    1.0434896   -2.8365478   -2.8365478   -1.2713174  0.085107872   -2.8365478    1.5652304   396900 
 1381000    1.0407711    -2.835076    -2.835076   -1.2739233  0.079638395    -2.835076    1.5611527   396900 
 1382000    1.0406537   -2.8328759   -2.8328759   -1.2718993  0.081442885   -2.8328759    1.5609766   396900 
 1383000    1.0410755   -2.8348805   -2.8348805   -1.2732711  0.079516879   -2.8348805    1.5616094   396900 
 1384000    1.0428793   -2.8361645   -2.8361645   -1.2718494  0.082832814   -2.8361645    1.5643151   396900 
 1385000    1.0436534   -2.8381251   -2.8381251   -1.2726489  0.086461971   -2.8381251    1.5654762   396900 
 1386000    1.0407243   -2.8345895   -2.8345895    -1.273507  0.080307256   -2.8345895    1.5610825   396900 
 1387000    1.0419476   -2.8383589   -2.8383589   -1.2754414  0.078473369   -2.8383589    1.5629175   396900 
 1388000    1.0423958   -2.8367368   -2.8367368    -1.273147  0.085741685   -2.8367368    1.5635898   396900 
 1389000    1.0423898    -2.837957    -2.837957   -1.2743762  0.081482949    -2.837957    1.5635808   396900 
 1390000    1.0426201    -2.835997    -2.835997   -1.2720708  0.083255365    -2.835997    1.5639262   396900 
 1391000    1.0438901   -2.8352881   -2.8352881   -1.2694569  0.084143949   -2.8352881    1.5658312   396900 
 1392000    1.0406875   -2.8359843   -2.8359843    -1.274957  0.083619097   -2.8359843    1.5610273   396900 
 1393000    1.0418093   -2.8386723   -2.8386723   -1.2759623  0.085924795   -2.8386723      1.56271   396900 
 1394000    1.0424338   -2.8382659   -2.8382659   -1.2746192  0.086474055   -2.8382659    1.5636467   396900 
 1395000    1.0418457   -2.8365737   -2.8365737   -1.2738091  0.084098356   -2.8365737    1.5627646   396900 
 1396000    1.0416769   -2.8378242   -2.8378242   -1.2753128  0.081643962   -2.8378242    1.5625114   396900 
 1397000    1.0410184   -2.8364303   -2.8364303   -1.2749066  0.083448307   -2.8364303    1.5615237   396900 
 1398000    1.0413832   -2.8366896   -2.8366896   -1.2746188   0.08227613   -2.8366896    1.5620708   396900 
 1399000    1.0413556    -2.837604    -2.837604   -1.2755745  0.085928097    -2.837604    1.5620295   396900 
 1400000    1.0428253   -2.8388106   -2.8388106   -1.2745766  0.083142581   -2.8388106     1.564234   396900 
 1401000    1.0446732   -2.8390449   -2.8390449   -1.2720391  0.080865787   -2.8390449    1.5670058   396900 
 1402000     1.043963   -2.8389682   -2.8389682   -1.2730277  0.086456111   -2.8389682    1.5659405   396900 
 1403000    1.0421703   -2.8403417   -2.8403417   -1.2770902  0.083181264   -2.8403417    1.5632515   396900 
 1404000    1.0428251   -2.8400146   -2.8400146   -1.2757809  0.081167834   -2.8400146    1.5642337   396900 
 1405000    1.0401061   -2.8368739   -2.8368739   -1.2767187  0.081599156   -2.8368739    1.5601552   396900 
 1406000    1.0414925   -2.8349108   -2.8349108    -1.272676  0.086008603   -2.8349108    1.5622347   396900 
 1407000     1.043081   -2.8355461   -2.8355461   -1.2709286  0.084832958   -2.8355461    1.5646175   396900 
 1408000    1.0436991   -2.8373201   -2.8373201   -1.2717755  0.085720122   -2.8373201    1.5655447   396900 
 1409000    1.0424601   -2.8374124   -2.8374124   -1.2737262  0.083709031   -2.8374124    1.5636863   396900 
 1410000    1.0417752   -2.8380993   -2.8380993   -1.2754405  0.083039841   -2.8380993    1.5626588   396900 
 1411000    1.0424545   -2.8385887   -2.8385887   -1.2749109  0.080521043   -2.8385887    1.5636777   396900 
 1412000    1.0432064   -2.8395771   -2.8395771   -1.2747715  0.083745027   -2.8395771    1.5648057   396900 
 1413000    1.0407629   -2.8349205   -2.8349205   -1.2737801  0.086384706   -2.8349205    1.5611405   396900 
 1414000    1.0425694   -2.8375093   -2.8375093   -1.2736591  0.081437878   -2.8375093    1.5638502   396900 
 1415000    1.0430403   -2.8350813   -2.8350813   -1.2705247  0.084040746   -2.8350813    1.5645565   396900 
 1416000    1.0434931   -2.8363945   -2.8363945   -1.2711589   0.08149316   -2.8363945    1.5652356   396900 
 1417000    1.0428487   -2.8349844   -2.8349844   -1.2707153   0.07930869   -2.8349844    1.5642691   396900 
 1418000    1.0413084   -2.8330013   -2.8330013   -1.2710427  0.082970705   -2.8330013    1.5619586   396900 
 1419000    1.0420879   -2.8334695   -2.8334695   -1.2703416  0.085487018   -2.8334695    1.5631279   396900 
 1420000    1.0401138   -2.8318459   -2.8318459   -1.2716791  0.086929247   -2.8318459    1.5601668   396900 
 1421000    1.0434889   -2.8347212   -2.8347212   -1.2694918  0.083780701   -2.8347212    1.5652293   396900 
 1422000     1.041327   -2.8305416   -2.8305416   -1.2685551  0.082292739   -2.8305416    1.5619866   396900 
 1423000    1.0434652   -2.8333278   -2.8333278    -1.268134   0.08392877   -2.8333278    1.5651938   396900 
 1424000    1.0437012   -2.8309762   -2.8309762   -1.2654283  0.082567202   -2.8309762    1.5655479   396900 
 1425000    1.0419776   -2.8272178   -2.8272178   -1.2642553  0.079173927   -2.8272178    1.5629625   396900 
 1426000    1.0422367   -2.8298117   -2.8298117   -1.2664605  0.080454102   -2.8298117    1.5633512   396900 
 1427000    1.0433731   -2.8305314   -2.8305314   -1.2654757  0.077226205   -2.8305314    1.5650558   396900 
 1428000    1.0441051   -2.8306999   -2.8306999   -1.2645462  0.091978092   -2.8306999    1.5661536   396900 
 1429000    1.0428015   -2.8285334   -2.8285334    -1.264335  0.086455547   -2.8285334    1.5641984   396900 
 1430000    1.0426834   -2.8275619   -2.8275619   -1.2635408  0.085888251   -2.8275619    1.5640211   396900 
 1431000    1.0413289   -2.8261132   -2.8261132   -1.2641238  0.085372504   -2.8261132    1.5619894   396900 
 1432000    1.0433111   -2.8281435   -2.8281435   -1.2631808  0.087712859   -2.8281435    1.5649627   396900 
 1433000    1.0415597   -2.8270494   -2.8270494   -1.2647138  0.082071767   -2.8270494    1.5623356   396900 
 1434000    1.0435637   -2.8294944   -2.8294944   -1.2641529  0.083375381   -2.8294944    1.5653415   396900 
 1435000    1.0431842    -2.827624    -2.827624   -1.2628516  0.086432067    -2.827624    1.5647724   396900 
 1436000    1.0441608   -2.8270397   -2.8270397   -1.2608025  0.086227803   -2.8270397    1.5662372   396900 
 1437000    1.0459071   -2.8299171   -2.8299171   -1.2610604  0.083554614   -2.8299171    1.5688567   396900 
 1438000    1.0454816   -2.8277991   -2.8277991   -1.2595807  0.086887814   -2.8277991    1.5682184   396900 
 1439000    1.0442654   -2.8269704   -2.8269704   -1.2605763  0.083839947   -2.8269704    1.5663941   396900 
 1440000    1.0430738     -2.82654     -2.82654   -1.2619332  0.085290924     -2.82654    1.5646068   396900 
 1441000    1.0438281   -2.8281126   -2.8281126   -1.2623744  0.079811506   -2.8281126    1.5657382   396900 
 1442000    1.0442604   -2.8262289   -2.8262289   -1.2598423  0.090126736   -2.8262289    1.5663866   396900 
 1443000    1.0457049   -2.8284137   -2.8284137   -1.2598603  0.085275465   -2.8284137    1.5685534   396900 
 1444000    1.0454966   -2.8264207   -2.8264207   -1.2581797  0.086633953   -2.8264207     1.568241   396900 
 1445000    1.0457265   -2.8242563   -2.8242563   -1.2556705  0.089114421   -2.8242563    1.5685858   396900 
 1446000    1.0475963   -2.8259704   -2.8259704     -1.25458  0.087171349   -2.8259704    1.5713904   396900 
 1447000    1.0449282   -2.8236919   -2.8236919   -1.2563036  0.084807512   -2.8236919    1.5673883   396900 
 1448000    1.0462631   -2.8237724   -2.8237724   -1.2543817  0.086446671   -2.8237724    1.5693907   396900 
 1449000    1.0454123   -2.8222596   -2.8222596   -1.2541451   0.08657673   -2.8222596    1.5681145   396900 
 1450000     1.045145   -2.8219216   -2.8219216   -1.2542081  0.080462491   -2.8219216    1.5677135   396900 
 1451000    1.0429433   -2.8201055   -2.8201055   -1.2556945  0.081883473   -2.8201055     1.564411   396900 
 1452000    1.0441203   -2.8224836   -2.8224836   -1.2563071  0.086683192   -2.8224836    1.5661764   396900 
 1453000     1.044265    -2.822531    -2.822531   -1.2561375  0.086344764    -2.822531    1.5663935   396900 
 1454000    1.0445313   -2.8221392   -2.8221392   -1.2553462  0.081798879   -2.8221392     1.566793   396900 
 1455000    1.0439733   -2.8225459   -2.8225459   -1.2565898  0.081665877   -2.8225459    1.5659561   396900 
 1456000    1.0443487   -2.8234643   -2.8234643   -1.2569452  0.082291462   -2.8234643    1.5665192   396900 
 1457000    1.0460317   -2.8234313   -2.8234313   -1.2543877  0.084580381   -2.8234313    1.5690436   396900 
 1458000    1.0464586   -2.8222635   -2.8222635   -1.2525795  0.085013571   -2.8222635     1.569684   396900 
 1459000    1.0471908   -2.8227816   -2.8227816   -1.2519993  0.084229935   -2.8227816    1.5707822   396900 
 1460000    1.0448037   -2.8218745   -2.8218745   -1.2546729  0.084104327   -2.8218745    1.5672016   396900 
 1461000    1.0445622   -2.8223319   -2.8223319   -1.2554926  0.080687142   -2.8223319    1.5668394   396900 
 1462000     1.045024    -2.819668    -2.819668    -1.252136  0.088552931    -2.819668     1.567532   396900 
 1463000    1.0446539    -2.818098    -2.818098   -1.2511211  0.091462973    -2.818098    1.5669769   396900 
 1464000    1.0445255   -2.8209985   -2.8209985   -1.2542142  0.085337896   -2.8209985    1.5667843   396900 
 1465000    1.0429203   -2.8197276   -2.8197276   -1.2553511   0.08629201   -2.8197276    1.5643766   396900 
 1466000    1.0414741   -2.8178088   -2.8178088   -1.2556015  0.083781801   -2.8178088    1.5622073   396900 
 1467000    1.0420883   -2.8198737   -2.8198737   -1.2567451  0.082213553   -2.8198737    1.5631285   396900 
 1468000    1.0435791   -2.8203325   -2.8203325   -1.2549677  0.085466005   -2.8203325    1.5653648   396900 
 1469000    1.0438201   -2.8205698   -2.8205698   -1.2548435  0.085265268   -2.8205698    1.5657263   396900 
 1470000    1.0453131     -2.82332     -2.82332   -1.2553543  0.090617838     -2.82332    1.5679657   396900 
 1471000    1.0419707   -2.8199781   -2.8199781   -1.2570261  0.083830992   -2.8199781     1.562952   396900 
 1472000    1.0462615   -2.8230675   -2.8230675   -1.2536793  0.088087836   -2.8230675    1.5693882   396900 
 1473000    1.0437054   -2.8177929   -2.8177929   -1.2522387  0.085829468   -2.8177929    1.5655542   396900 
 1474000    1.0448884   -2.8207043   -2.8207043   -1.2533757   0.08338289   -2.8207043    1.5673287   396900 
 1475000    1.0424059   -2.8174311   -2.8174311   -1.2538261  0.081051425   -2.8174311     1.563605   396900 
 1476000    1.0446459   -2.8194517   -2.8194517   -1.2524869  0.079809209   -2.8194517    1.5669648   396900 
 1477000    1.0463752   -2.8222364   -2.8222364   -1.2526776  0.084054304   -2.8222364    1.5695588   396900 
 1478000    1.0446056    -2.818624    -2.818624   -1.2517196  0.085386857    -2.818624    1.5669044   396900 
 1479000    1.0470794   -2.8212776   -2.8212776   -1.2506625  0.082593824   -2.8212776    1.5706151   396900 
 1480000    1.0440372   -2.8180533   -2.8180533   -1.2520015  0.082925391   -2.8180533    1.5660518   396900 
 1481000    1.0464717   -2.8200803   -2.8200803   -1.2503766  0.083375355   -2.8200803    1.5697037   396900 
 1482000    1.0462483   -2.8179106   -2.8179106   -1.2485421  0.087308167   -2.8179106    1.5693686   396900 
 1483000    1.0467361    -2.816179    -2.816179   -1.2460788  0.084710376    -2.816179    1.5701002   396900 
 1484000    1.0465333   -2.8165431   -2.8165431   -1.2467471  0.084093115   -2.8165431     1.569796   396900 
 1485000    1.0446511   -2.8151126   -2.8151126   -1.2481399  0.092838095   -2.8151126    1.5669727   396900 
 1486000    1.0459541   -2.8174834   -2.8174834   -1.2485562  0.087036805   -2.8174834    1.5689271   396900 
 1487000    1.0441734   -2.8145112   -2.8145112   -1.2482551  0.084605044   -2.8145112    1.5662561   396900 
 1488000     1.044872   -2.8162484   -2.8162484   -1.2489444  0.080970646   -2.8162484     1.567304   396900 
 1489000    1.0443023   -2.8176132   -2.8176132   -1.2511638  0.079239609   -2.8176132    1.5664494   396900 
 1490000    1.0447146   -2.8169036   -2.8169036   -1.2498356  0.086747602   -2.8169036     1.567068   396900 
 1491000    1.0447079   -2.8154788   -2.8154788   -1.2484209  0.085432253   -2.8154788    1.5670579   396900 
 1492000    1.0438561   -2.8142069   -2.8142069   -1.2484268  0.084995581   -2.8142069    1.5657802   396900 
 1493000    1.0446933   -2.8160053   -2.8160053   -1.2489693  0.084706054   -2.8160053     1.567036   396900 
 1494000    1.0446834   -2.8132611   -2.8132611     -1.24624  0.083900829   -2.8132611    1.5670211   396900 
 1495000     1.044078   -2.8163813   -2.8163813   -1.2502682  0.084379082   -2.8163813    1.5661131   396900 
 1496000    1.0442621   -2.8162994   -2.8162994   -1.2499102  0.084672655   -2.8162994    1.5663892   396900 
 1497000    1.0453727   -2.8179281   -2.8179281    -1.249873  0.078181582   -2.8179281    1.5680551   396900 
 1498000    1.0460819   -2.8187631   -2.8187631   -1.2496442   0.08547962   -2.8187631    1.5691189   396900 
 1499000    1.0458264   -2.8189475   -2.8189475   -1.2502119  0.081335884   -2.8189475    1.5687356   396900 
 1500000    1.0445448    -2.815982    -2.815982   -1.2491687    0.0800954    -2.815982    1.5668133   396900 
 1501000    1.0444461    -2.816772    -2.816772   -1.2501069   0.08467433    -2.816772    1.5666651   396900 
 1502000    1.0434856   -2.8141401   -2.8141401   -1.2489157  0.085518397   -2.8141401    1.5652244   396900 
 1503000    1.0450825   -2.8161278   -2.8161278    -1.248508  0.088096962   -2.8161278    1.5676198   396900 
 1504000    1.0468349   -2.8159896   -2.8159896   -1.2457412  0.084784093   -2.8159896    1.5702484   396900 
 1505000    1.0437657   -2.8116255   -2.8116255    -1.245981  0.086013738   -2.8116255    1.5656445   396900 
 1506000    1.0464032   -2.8159564   -2.8159564   -1.2463556  0.080666942   -2.8159564    1.5696008   396900 
 1507000    1.0461895    -2.812587    -2.812587   -1.2433067  0.084852717    -2.812587    1.5692803   396900 
 1508000     1.046736   -2.8129565   -2.8129565   -1.2428565  0.079351175   -2.8129565       1.5701   396900 
 1509000    1.0456465    -2.812281    -2.812281   -1.2438152   0.08563804    -2.812281    1.5684658   396900 
 1510000    1.0454045   -2.8135677   -2.8135677   -1.2454649  0.083839715   -2.8135677    1.5681029   396900 
 1511000    1.0432673   -2.8099549   -2.8099549   -1.2450579  0.081482429   -2.8099549     1.564897   396900 
 1512000    1.0442793   -2.8106662   -2.8106662   -1.2442513   0.08015075   -2.8106662    1.5664149   396900 
 1513000    1.0435627    -2.808507    -2.808507   -1.2431668  0.083705765    -2.808507    1.5653401   396900 
 1514000    1.0455596   -2.8072544   -2.8072544   -1.2389189  0.087227966   -2.8072544    1.5683355   396900 
 1515000    1.0451779   -2.8065843   -2.8065843   -1.2388214  0.084162973   -2.8065843    1.5677629   396900 
 1516000    1.0464409   -2.8067763   -2.8067763   -1.2371189  0.082953382   -2.8067763    1.5696574   396900 
 1517000    1.0459894   -2.8072934   -2.8072934   -1.2383133   0.08924882   -2.8072934    1.5689802   396900 
 1518000    1.0456459   -2.8086739   -2.8086739   -1.2402089  0.084879235   -2.8086739     1.568465   396900 
 1519000    1.0453933    -2.806647    -2.806647   -1.2385609  0.084367692    -2.806647    1.5680861   396900 
 1520000    1.0452742     -2.80931     -2.80931   -1.2414026  0.087937236     -2.80931    1.5679073   396900 
 1521000    1.0456315   -2.8066277   -2.8066277   -1.2381844  0.090296195   -2.8066277    1.5684434   396900 
 1522000    1.0450559    -2.807446    -2.807446    -1.239866  0.084987049    -2.807446      1.56758   396900 
 1523000    1.0468771   -2.8104735   -2.8104735   -1.2401618  0.086433306   -2.8104735    1.5703117   396900 
 1524000    1.0469234   -2.8098167   -2.8098167   -1.2394356  0.081993158   -2.8098167    1.5703811   396900 
 1525000    1.0462611   -2.8070123   -2.8070123   -1.2376246  0.086040137   -2.8070123    1.5693877   396900 
 1526000    1.0462919   -2.8099233   -2.8099233   -1.2404893  0.084078871   -2.8099233    1.5694339   396900 
 1527000    1.0461026   -2.8057383   -2.8057383   -1.2365884  0.085437435   -2.8057383      1.56915   396900 
 1528000    1.0464071   -2.8059342   -2.8059342   -1.2363275   0.08409817   -2.8059342    1.5696066   396900 
 1529000    1.0484304   -2.8077285   -2.8077285   -1.2350869  0.080937174   -2.8077285    1.5726416   396900 
 1530000    1.0480607   -2.8074738   -2.8074738   -1.2353867  0.084541631   -2.8074738    1.5720871   396900 
 1531000    1.0469073   -2.8053354   -2.8053354   -1.2349784  0.086988493   -2.8053354    1.5703569   396900 
 1532000    1.0450807   -2.8026644   -2.8026644   -1.2350473  0.082761062   -2.8026644    1.5676171   396900 
 1533000    1.0445536   -2.8001692   -2.8001692   -1.2333428  0.082595759   -2.8001692    1.5668264   396900 
 1534000    1.0454034   -2.8040798   -2.8040798   -1.2359787  0.083263437   -2.8040798    1.5681011   396900 
 1535000    1.0453128   -2.8037815   -2.8037815   -1.2358162  0.082271992   -2.8037815    1.5679653   396900 
 1536000    1.0490833   -2.8055895   -2.8055895   -1.2319685  0.089524957   -2.8055895     1.573621   396900 
 1537000    1.0455527   -2.8013573   -2.8013573   -1.2330322  0.084635271   -2.8013573    1.5683251   396900 
 1538000    1.0480901   -2.8026911   -2.8026911   -1.2305598  0.087208797   -2.8026911    1.5721312   396900 
 1539000     1.045352   -2.8018388   -2.8018388   -1.2338147  0.085642121   -2.8018388     1.568024   396900 
 1540000    1.0450333   -2.8000873   -2.8000873   -1.2325413  0.081855072   -2.8000873     1.567546   396900 
 1541000     1.046282   -2.8009196   -2.8009196   -1.2315006  0.088885993   -2.8009196     1.569419   396900 
 1542000    1.0480024   -2.8037874   -2.8037874   -1.2317878  0.084719531   -2.8037874    1.5719996   396900 
 1543000    1.0482504   -2.8010381   -2.8010381   -1.2286665   0.08276099   -2.8010381    1.5723716   396900 
 1544000    1.0462173   -2.8006462   -2.8006462   -1.2313242   0.08789912   -2.8006462     1.569322   396900 
 1545000     1.046233   -2.8016247   -2.8016247   -1.2322791   0.08662756   -2.8016247    1.5693456   396900 
 1546000    1.0460584   -2.8010107   -2.8010107   -1.2319271  0.081260966   -2.8010107    1.5690836   396900 
 1547000    1.0447807   -2.7995467   -2.7995467   -1.2323796  0.083805782   -2.7995467    1.5671672   396900 
 1548000    1.0462356   -2.7975514   -2.7975514    -1.228202  0.085900465   -2.7975514    1.5693495   396900 
 1549000      1.04646   -2.7990889   -2.7990889   -1.2294029  0.084493733   -2.7990889     1.569686   396900 
 1550000    1.0475205   -2.7986015   -2.7986015   -1.2273247  0.082567592   -2.7986015    1.5712768   396900 
 1551000    1.0422742   -2.7918723   -2.7918723    -1.228465  0.083555294   -2.7918723    1.5634073   396900 
 1552000    1.0446503   -2.7932186   -2.7932186   -1.2262471  0.081417072   -2.7932186    1.5669715   396900 
 1553000    1.0461134   -2.7934781   -2.7934781   -1.2243119  0.086825821   -2.7934781    1.5691662   396900 
 1554000    1.0473459   -2.7950639   -2.7950639    -1.224049  0.087353124   -2.7950639    1.5710149   396900 
 1555000    1.0469833   -2.7972215   -2.7972215   -1.2267506  0.081785885   -2.7972215     1.570471   396900 
 1556000    1.0442727   -2.7916988   -2.7916988   -1.2252937   0.09145825   -2.7916988    1.5664051   396900 
 1557000    1.0482228   -2.7954238   -2.7954238   -1.2230936  0.087087306   -2.7954238    1.5723302   396900 
 1558000    1.0484554   -2.7951258   -2.7951258   -1.2224466  0.083903486   -2.7951258    1.5726792   396900 
 1559000    1.0481018   -2.7932474   -2.7932474   -1.2210987   0.08563851   -2.7932474    1.5721487   396900 
 1560000    1.0484571   -2.7949762   -2.7949762   -1.2222945  0.083347118   -2.7949762    1.5726817   396900 
 1561000    1.0475331    -2.793718    -2.793718   -1.2224223  0.082474406    -2.793718    1.5712957   396900 
 1562000     1.046548   -2.7930259   -2.7930259   -1.2232078  0.085025083   -2.7930259     1.569818   396900 
 1563000    1.0479124   -2.7947707   -2.7947707    -1.222906  0.082853982   -2.7947707    1.5718647   396900 
 1564000    1.0478859   -2.7923072   -2.7923072   -1.2204823  0.083406846   -2.7923072    1.5718249   396900 
 1565000    1.0483885   -2.7937885   -2.7937885   -1.2212097   0.08578183   -2.7937885    1.5725788   396900 
 1566000    1.0492889   -2.7931699   -2.7931699   -1.2192406  0.085038055   -2.7931699    1.5739294   396900 
 1567000    1.0494613   -2.7956164   -2.7956164   -1.2214285  0.087219833   -2.7956164    1.5741879   396900 
 1568000    1.0487238   -2.7951696   -2.7951696   -1.2220878  0.078344469   -2.7951696    1.5730817   396900 
 1569000    1.0481562   -2.7914314   -2.7914314   -1.2192012  0.087530292   -2.7914314    1.5722303   396900 
 1570000    1.0490719   -2.7916093   -2.7916093   -1.2180054  0.084061843   -2.7916093     1.573604   396900 
 1571000    1.0471076   -2.7901092   -2.7901092   -1.2194518  0.087606154   -2.7901092    1.5706575   396900 
 1572000     1.046646   -2.7903026   -2.7903026   -1.2203376  0.086138761   -2.7903026     1.569965   396900 
 1573000    1.0471595   -2.7906059   -2.7906059   -1.2198706   0.08093642   -2.7906059    1.5707353   396900 
 1574000    1.0479945   -2.7902214   -2.7902214   -1.2182337  0.082639946   -2.7902214    1.5719878   396900 
 1575000    1.0477045   -2.7908602   -2.7908602   -1.2193074   0.08239876   -2.7908602    1.5715528   396900 
 1576000    1.0467846   -2.7907253   -2.7907253   -1.2205524  0.084463398   -2.7907253    1.5701729   396900 
 1577000    1.0474314   -2.7894383   -2.7894383   -1.2182951  0.091951099   -2.7894383    1.5711432   396900 
 1578000    1.0472244    -2.790213    -2.790213   -1.2193803  0.087281004    -2.790213    1.5708327   396900 
 1579000    1.0491673   -2.7910531   -2.7910531   -1.2173061   0.08329738   -2.7910531     1.573747   396900 
 1580000    1.0486426   -2.7897832   -2.7897832   -1.2168233  0.087666772   -2.7897832    1.5729599   396900 
 1581000    1.0466801   -2.7872295   -2.7872295   -1.2172133   0.08505782   -2.7872295    1.5700162   396900 
 1582000    1.0474036   -2.7903436   -2.7903436   -1.2192422  0.087187992   -2.7903436    1.5711015   396900 
 1583000    1.0466923   -2.7858965   -2.7858965   -1.2158621  0.085902502   -2.7858965    1.5700344   396900 
 1584000     1.047213   -2.7871854   -2.7871854   -1.2163698   0.08601384   -2.7871854    1.5708155   396900 
 1585000    1.0476005   -2.7856151   -2.7856151   -1.2142183  0.085560164   -2.7856151    1.5713968   396900 
 1586000    1.0475135   -2.7867051   -2.7867051   -1.2154389  0.083269352   -2.7867051    1.5712663   396900 
 1587000    1.0474357   -2.7835854   -2.7835854   -1.2124358  0.084314984   -2.7835854    1.5711496   396900 
 1588000    1.0495057   -2.7857174   -2.7857174   -1.2114629  0.081274929   -2.7857174    1.5742546   396900 
 1589000    1.0477049   -2.7843187   -2.7843187   -1.2127653  0.086368665   -2.7843187    1.5715534   396900 
 1590000    1.0472561   -2.7822468   -2.7822468   -1.2113666  0.084266735   -2.7822468    1.5708802   396900 
 1591000    1.0467014   -2.7824027   -2.7824027   -1.2123546  0.083282797   -2.7824027    1.5700481   396900 
 1592000    1.0478631   -2.7838345   -2.7838345   -1.2120437  0.085436751   -2.7838345    1.5717908   396900 
 1593000    1.0474261   -2.7840629   -2.7840629   -1.2129277  0.086242986   -2.7840629    1.5711352   396900 
 1594000    1.0465211   -2.7818406   -2.7818406   -1.2120628   0.07930617   -2.7818406    1.5697777   396900 
 1595000    1.0468327   -2.7802785   -2.7802785   -1.2100333  0.080493759   -2.7802785    1.5702451   396900 
 1596000    1.0486376    -2.781231    -2.781231   -1.2082786  0.083087507    -2.781231    1.5729524   396900 
 1597000    1.0471031   -2.7804113   -2.7804113   -1.2097606  0.088864612   -2.7804113    1.5706507   396900 
 1598000    1.0484595   -2.7800203   -2.7800203   -1.2073351  0.082468443   -2.7800203    1.5726852   396900 
 1599000    1.0476863   -2.7780572   -2.7780572   -1.2065316  0.080200541   -2.7780572    1.5715255   396900 
 1600000    1.0482998   -2.7799459   -2.7799459   -1.2075001  0.084050852   -2.7799459    1.5724457   396900 
 1601000    1.0469113    -2.777227    -2.777227    -1.206864  0.088295876    -2.777227    1.5703629   396900 
 1602000    1.0488316   -2.7784112   -2.7784112   -1.2051677  0.084125816   -2.7784112    1.5732435   396900 
 1603000    1.0467192   -2.7777191   -2.7777191   -1.2076442  0.081216475   -2.7777191    1.5700749   396900 
 1604000    1.0487007   -2.7803173   -2.7803173   -1.2072701  0.081270775   -2.7803173    1.5730471   396900 
 1605000    1.0496114   -2.7814058   -2.7814058   -1.2069927  0.084268806   -2.7814058    1.5744131   396900 
 1606000    1.0475732   -2.7793662   -2.7793662   -1.2080103  0.084612896   -2.7793662    1.5713559   396900 
 1607000     1.046889   -2.7782325   -2.7782325   -1.2079029  0.081079519   -2.7782325    1.5703295   396900 
 1608000    1.0489504   -2.7808144   -2.7808144   -1.2073927   0.08091955   -2.7808144    1.5734217   396900 
 1609000    1.0476274   -2.7784641   -2.7784641   -1.2070271  0.086477667   -2.7784641    1.5714371   396900 
 1610000    1.0480167   -2.7773364   -2.7773364   -1.2053153  0.082320447   -2.7773364    1.5720211   396900 
 1611000    1.0470227   -2.7764471   -2.7764471    -1.205917  0.089432719   -2.7764471    1.5705301   396900 
 1612000     1.047384    -2.780196    -2.780196   -1.2091239  0.083937636    -2.780196    1.5710721   396900 
 1613000    1.0486492   -2.7802615   -2.7802615   -1.2072916  0.087365692   -2.7802615    1.5729699   396900 
 1614000    1.0512758     -2.78315     -2.78315   -1.2062403  0.085787479     -2.78315    1.5769097   396900 
 1615000    1.0512931   -2.7798221   -2.7798221   -1.2028864   0.08843853   -2.7798221    1.5769356   396900 
 1616000    1.0509452   -2.7810252   -2.7810252   -1.2046114  0.085944407   -2.7810252    1.5764138   396900 
 1617000    1.0484275   -2.7803843   -2.7803843    -1.207747  0.086720002   -2.7803843    1.5726373   396900 
 1618000    1.0458093    -2.777581    -2.777581    -1.208871  0.081063294    -2.777581      1.56871   396900 
 1619000    1.0475314   -2.7783148   -2.7783148   -1.2070217  0.082007279   -2.7783148    1.5712931   396900 
 1620000    1.0476214   -2.7785249   -2.7785249   -1.2070968  0.086444693   -2.7785249    1.5714281   396900 
 1621000    1.0490462   -2.7807523   -2.7807523    -1.207187  0.088417952   -2.7807523    1.5735653   396900 
 1622000    1.0493611   -2.7804074   -2.7804074   -1.2063697  0.090856493   -2.7804074    1.5740378   396900 
 1623000    1.0491889   -2.7802134   -2.7802134    -1.206434  0.086129622   -2.7802134    1.5737794   396900 
 1624000    1.0473037   -2.7782747   -2.7782747   -1.2073231   0.08105638   -2.7782747    1.5709516   396900 
 1625000    1.0475751   -2.7783092   -2.7783092   -1.2069505   0.08551515   -2.7783092    1.5713587   396900 
 1626000    1.0496584   -2.7792332   -2.7792332   -1.2047496  0.087189274   -2.7792332    1.5744836   396900 
 1627000    1.0514892   -2.7809114   -2.7809114   -1.2036815  0.087258104   -2.7809114    1.5772299   396900 
 1628000    1.0503874   -2.7784616   -2.7784616   -1.2028844  0.090639382   -2.7784616    1.5755772   396900 
 1629000    1.0480515    -2.774962    -2.774962   -1.2028887  0.082846163    -2.774962    1.5720733   396900 
 1630000    1.0488897   -2.7764321   -2.7764321   -1.2031015  0.087862414   -2.7764321    1.5733305   396900 
 1631000    1.0474941   -2.7749743   -2.7749743   -1.2037372  0.082713785   -2.7749743    1.5712371   396900 
 1632000    1.0487378   -2.7745726   -2.7745726   -1.2014698  0.085774589   -2.7745726    1.5731028   396900 
 1633000    1.0501561   -2.7766606   -2.7766606   -1.2014304  0.079745868   -2.7766606    1.5752302   396900 
 1634000    1.0509673   -2.7751946   -2.7751946   -1.1987476  0.092429277   -2.7751946     1.576447   396900 
 1635000    1.0495488   -2.7739857   -2.7739857   -1.1996665  0.088576181   -2.7739857    1.5743193   396900 
 1636000    1.0492646   -2.7748626   -2.7748626   -1.2009697  0.086338227   -2.7748626    1.5738929   396900 
 1637000    1.0494351   -2.7738577   -2.7738577   -1.1997091  0.086881834   -2.7738577    1.5741487   396900 
 1638000    1.0511098   -2.7741853   -2.7741853   -1.1975245  0.087431763   -2.7741853    1.5766608   396900 
 1639000     1.050817   -2.7742636   -2.7742636   -1.1980421  0.086170276   -2.7742636    1.5762215   396900 
 1640000    1.0510331   -2.7774507   -2.7774507   -1.2009051  0.083446102   -2.7774507    1.5765456   396900 
 1641000    1.0485395   -2.7740832   -2.7740832   -1.2012778  0.087237964   -2.7740832    1.5728053   396900 
 1642000    1.0477452   -2.7749466   -2.7749466   -1.2033327  0.088467875   -2.7749466    1.5716139   396900 
 1643000    1.0480437   -2.7744531   -2.7744531   -1.2023915  0.081278827   -2.7744531    1.5720616   396900 
 1644000    1.0491031   -2.7745523   -2.7745523   -1.2009017  0.082601458   -2.7745523    1.5736506   396900 
 1645000    1.0496808   -2.7725655   -2.7725655   -1.1980484  0.089607909   -2.7725655    1.5745172   396900 
 1646000    1.0486497   -2.7725364   -2.7725364   -1.1995658   0.08343889   -2.7725364    1.5729706   396900 
 1647000    1.0512187   -2.7724632   -2.7724632   -1.1956391  0.087493088   -2.7724632    1.5768241   396900 
 1648000    1.0499753   -2.7691274   -2.7691274   -1.1941683  0.088053694   -2.7691274     1.574959   396900 
 1649000    1.0497331   -2.7727165   -2.7727165   -1.1981208   0.08740835   -2.7727165    1.5745957   396900 
 1650000    1.0494314   -2.7737879   -2.7737879   -1.1996448  0.083891737   -2.7737879    1.5741431   396900 
 1651000    1.0498079   -2.7722785   -2.7722785   -1.1975706  0.087909665   -2.7722785    1.5747079   396900 
 1652000    1.0507112   -2.7730231   -2.7730231   -1.1969602  0.079709755   -2.7730231    1.5760629   396900 
 1653000    1.0492194   -2.7715005   -2.7715005   -1.1976753  0.082307147   -2.7715005    1.5738252   396900 
 1654000     1.051907   -2.7723152   -2.7723152   -1.1944587  0.088435786   -2.7723152    1.5778565   396900 
 1655000    1.0515169    -2.774646    -2.774646   -1.1973746   0.08789035    -2.774646    1.5772714   396900 
 1656000    1.0514731   -2.7718105   -2.7718105   -1.1946049  0.086689489   -2.7718105    1.5772056   396900 
 1657000    1.0488457   -2.7700165   -2.7700165   -1.1967519  0.084211302   -2.7700165    1.5732647   396900 
 1658000    1.0470903   -2.7671659   -2.7671659   -1.1965344  0.084338384   -2.7671659    1.5706315   396900 
 1659000    1.0493701   -2.7704969   -2.7704969   -1.1964457  0.085068971   -2.7704969    1.5740512   396900 
 1660000    1.0512525    -2.772735    -2.772735   -1.1958602  0.089803032    -2.772735    1.5768748   396900 
 1661000     1.050808   -2.7681551   -2.7681551   -1.1919471  0.089184389   -2.7681551     1.576208   396900 
 1662000    1.0497137   -2.7684165   -2.7684165   -1.1938499  0.080470231   -2.7684165    1.5745666   396900 
 1663000     1.050638   -2.7669321   -2.7669321   -1.1909791  0.088872106   -2.7669321     1.575953   396900 
 1664000    1.0506498   -2.7668061   -2.7668061   -1.1908353  0.087746944   -2.7668061    1.5759708   396900 
 1665000    1.0509591   -2.7668431   -2.7668431   -1.1904084  0.090036639   -2.7668431    1.5764347   396900 
 1666000    1.0522212   -2.7677876   -2.7677876   -1.1894598  0.090429489   -2.7677876    1.5783278   396900 
 1667000    1.0509529   -2.7666638   -2.7666638   -1.1902384   0.08606654   -2.7666638    1.5764254   396900 
 1668000    1.0515463   -2.7676186   -2.7676186   -1.1903031  0.089022525   -2.7676186    1.5773155   396900 
 1669000    1.0493722   -2.7696878   -2.7696878   -1.1956336  0.084794311   -2.7696878    1.5740543   396900 
 1670000    1.0500802   -2.7680063   -2.7680063     -1.19289  0.088236743   -2.7680063    1.5751163   396900 
 1671000    1.0501042   -2.7666366   -2.7666366   -1.1914843  0.086687726   -2.7666366    1.5751523   396900 
 1672000    1.0515975   -2.7687986   -2.7687986   -1.1914064  0.084785239   -2.7687986    1.5773922   396900 
 1673000     1.051517     -2.76633     -2.76633   -1.1890585  0.090312946     -2.76633    1.5772715   396900 
 1674000    1.0507248   -2.7686057   -2.7686057   -1.1925225   0.08489326   -2.7686057    1.5760832   396900 
 1675000      1.05073   -2.7653017   -2.7653017   -1.1892107  0.088838586   -2.7653017     1.576091   396900 
 1676000    1.0496115   -2.7654933   -2.7654933   -1.1910801  0.084502181   -2.7654933    1.5744132   396900 
 1677000     1.049711   -2.7644962   -2.7644962   -1.1899337  0.084224387   -2.7644962    1.5745625   396900 
 1678000     1.049095   -2.7644356   -2.7644356   -1.1907971  0.089490596   -2.7644356    1.5736385   396900 
 1679000    1.0499459   -2.7650937   -2.7650937   -1.1901789   0.08940833   -2.7650937    1.5749148   396900 
 1680000    1.0516054   -2.7697531   -2.7697531   -1.1923489  0.087216658   -2.7697531    1.5774042   396900 
 1681000    1.0507964    -2.769306    -2.769306   -1.1931153  0.085584743    -2.769306    1.5761907   396900 
 1682000    1.0499313    -2.765892    -2.765892   -1.1909991  0.081295856    -2.765892    1.5748929   396900 
 1683000    1.0507729   -2.7656008   -2.7656008   -1.1894454  0.089756571   -2.7656008    1.5761554   396900 
 1684000     1.051465   -2.7642442   -2.7642442   -1.1870506  0.090150763   -2.7642442    1.5771936   396900 
 1685000    1.0526515   -2.7664835   -2.7664835   -1.1875101  0.084736578   -2.7664835    1.5789733   396900 
 1686000    1.0508553   -2.7654727   -2.7654727   -1.1891938  0.085236807   -2.7654727     1.576279   396900 
 1687000    1.0526118   -2.7648178   -2.7648178   -1.1859041   0.08835789   -2.7648178    1.5789137   396900 
 1688000    1.0509441   -2.7626059   -2.7626059   -1.1861937  0.088536116   -2.7626059    1.5764121   396900 
 1689000    1.0517679   -2.7654895   -2.7654895   -1.1878417  0.082773344   -2.7654895    1.5776479   396900 
 1690000    1.0499699   -2.7604133   -2.7604133   -1.1854624  0.086763042   -2.7604133    1.5749509   396900 
 1691000    1.0505674   -2.7606288   -2.7606288   -1.1847817  0.084418857   -2.7606288    1.5758471   396900 
 1692000    1.0503639   -2.7628092   -2.7628092   -1.1872674  0.085518384   -2.7628092    1.5755418   396900 
 1693000    1.0498746   -2.7636827   -2.7636827   -1.1888748  0.082680318   -2.7636827    1.5748079   396900 
 1694000    1.0494623   -2.7626087   -2.7626087   -1.1884192  0.084371998   -2.7626087    1.5741895   396900 
 1695000    1.0483048   -2.7619232   -2.7619232     -1.18947  0.082299918   -2.7619232    1.5724532   396900 
 1696000    1.0505018     -2.76479     -2.76479   -1.1890413  0.087425837     -2.76479    1.5757488   396900 
 1697000    1.0526292   -2.7654163   -2.7654163   -1.1864766  0.085043412   -2.7654163    1.5789397   396900 
 1698000    1.0501951   -2.7603005   -2.7603005   -1.1850117  0.089079735   -2.7603005    1.5752887   396900 
 1699000    1.0493189    -2.759954    -2.759954   -1.1859797  0.084328361    -2.759954    1.5739743   396900 
 1700000    1.0507343   -2.7625391   -2.7625391   -1.1864415  0.087467689   -2.7625391    1.5760976   396900 
 1701000    1.0528598   -2.7625808   -2.7625808   -1.1832951  0.089637344   -2.7625808    1.5792857   396900 
 1702000    1.0528643   -2.7631225   -2.7631225   -1.1838301  0.088609687   -2.7631225    1.5792924   396900 
 1703000    1.0503394   -2.7599858   -2.7599858   -1.1844807  0.081753257   -2.7599858    1.5755051   396900 
 1704000    1.0506663   -2.7603235   -2.7603235    -1.184328  0.084360771   -2.7603235    1.5759954   396900 
 1705000    1.0525202   -2.7641202   -2.7641202   -1.1853439  0.087077783   -2.7641202    1.5787763   396900 
 1706000    1.0498359   -2.7596214   -2.7596214   -1.1848716  0.083516573   -2.7596214    1.5747499   396900 
 1707000    1.0502536   -2.7605966   -2.7605966   -1.1852202  0.083643197   -2.7605966    1.5753764   396900 
 1708000    1.0495568   -2.7586645   -2.7586645   -1.1843332  0.087460554   -2.7586645    1.5743313   396900 
 1709000    1.0516328   -2.7613071   -2.7613071   -1.1838619  0.086117133   -2.7613071    1.5774452   396900 
 1710000    1.0508775   -2.7614874   -2.7614874   -1.1851751  0.087307611   -2.7614874    1.5763123   396900 
 1711000    1.0521192   -2.7621868   -2.7621868    -1.184012  0.081598087   -2.7621868    1.5781748   396900 
 1712000    1.0518756   -2.7607757   -2.7607757   -1.1829663  0.090037039   -2.7607757    1.5778094   396900 
 1713000    1.0510503   -2.7589358   -2.7589358   -1.1823642  0.088265146   -2.7589358    1.5765715   396900 
 1714000    1.0521793    -2.759788    -2.759788   -1.1815231  0.090195567    -2.759788    1.5782649   396900 
 1715000    1.0520909   -2.7616566   -2.7616566   -1.1835242  0.084065957   -2.7616566    1.5781324   396900 
 1716000    1.0515563   -2.7591415   -2.7591415   -1.1818109  0.087586319   -2.7591415    1.5773305   396900 
 1717000    1.0503557   -2.7582125   -2.7582125    -1.182683  0.080423368   -2.7582125    1.5755295   396900 
 1718000    1.0511217    -2.759278    -2.759278   -1.1825995  0.089402759    -2.759278    1.5766785   396900 
 1719000    1.0519159   -2.7617402   -2.7617402   -1.1838704  0.085169497   -2.7617402    1.5778698   396900 
 1720000     1.051518   -2.7595159   -2.7595159   -1.1822429  0.088485357   -2.7595159     1.577273   396900 
 1721000    1.0537534   -2.7602819   -2.7602819   -1.1796558  0.090670858   -2.7602819    1.5806261   396900 
 1722000    1.0532416   -2.7622788   -2.7622788   -1.1824203  0.088354033   -2.7622788    1.5798585   396900 
 1723000    1.0532602   -2.7599316   -2.7599316   -1.1800453  0.086460565   -2.7599316    1.5798863   396900 
 1724000    1.0521843   -2.7599244   -2.7599244   -1.1816519  0.084338717   -2.7599244    1.5782725   396900 
 1725000    1.0521321   -2.7603893   -2.7603893   -1.1821951  0.087244261   -2.7603893    1.5781942   396900 
 1726000    1.0525559   -2.7611902   -2.7611902   -1.1823604  0.088234657   -2.7611902    1.5788299   396900 
 1727000    1.0522027   -2.7597828   -2.7597828   -1.1814827  0.087972572   -2.7597828    1.5783001   396900 
 1728000    1.0523482   -2.7580901   -2.7580901   -1.1795718  0.084837756   -2.7580901    1.5785184   396900 
 1729000    1.0530647   -2.7582974   -2.7582974   -1.1787043  0.085230163   -2.7582974     1.579593   396900 
 1730000    1.0524361   -2.7570924   -2.7570924   -1.1784421  0.083273558   -2.7570924    1.5786502   396900 
 1731000    1.0524623   -2.7569761   -2.7569761   -1.1782867  0.086305599   -2.7569761    1.5786895   396900 
 1732000    1.0547938   -2.7598402   -2.7598402   -1.1776535  0.085941605   -2.7598402    1.5821867   396900 
 1733000    1.0540773   -2.7587789   -2.7587789    -1.177667  0.093071239   -2.7587789    1.5811119   396900 
 1734000    1.0527081   -2.7575119   -2.7575119   -1.1784538  0.088657221   -2.7575119    1.5790581   396900 
 1735000    1.0545145   -2.7587189   -2.7587189   -1.1769512  0.085351681   -2.7587189    1.5817677   396900 
 1736000    1.0519173    -2.755181    -2.755181   -1.1773091  0.086500301    -2.755181    1.5778719   396900 
 1737000     1.053082   -2.7573417   -2.7573417   -1.1777227  0.084216099   -2.7573417     1.579619   396900 
 1738000    1.0525846   -2.7576759   -2.7576759   -1.1788029    0.0870002   -2.7576759     1.578873   396900 
 1739000    1.0518702   -2.7559004   -2.7559004   -1.1780991  0.088195494   -2.7559004    1.5778013   396900 
 1740000     1.051079   -2.7536266   -2.7536266    -1.177012  0.092728961   -2.7536266    1.5766146   396900 
 1741000    1.0518523   -2.7545071   -2.7545071   -1.1767326   0.08917698   -2.7545071    1.5777745   396900 
 1742000    1.0536942   -2.7554815   -2.7554815   -1.1749442  0.085465461   -2.7554815    1.5805373   396900 
 1743000    1.0525474   -2.7562479   -2.7562479   -1.1774308  0.083524999   -2.7562479    1.5788171   396900 
 1744000    1.0529512   -2.7567346   -2.7567346   -1.1773118  0.083297898   -2.7567346    1.5794228   396900 
 1745000    1.0510397   -2.7554269   -2.7554269   -1.1788714  0.087714142   -2.7554269    1.5765555   396900 
 1746000    1.0531386   -2.7563349   -2.7563349    -1.176631  0.085753871   -2.7563349    1.5797039   396900 
 1747000    1.0517141   -2.7535008   -2.7535008   -1.1759337  0.087185017   -2.7535008    1.5775671   396900 
 1748000    1.0528327   -2.7564431   -2.7564431   -1.1771981  0.087050312   -2.7564431     1.579245   396900 
 1749000    1.0515968   -2.7538083   -2.7538083    -1.176417  0.093298522   -2.7538083    1.5773913   396900 
 1750000    1.0518736   -2.7553745   -2.7553745    -1.177568  0.081935227   -2.7553745    1.5778065   396900 
 1751000    1.0534101   -2.7544692   -2.7544692   -1.1743579  0.087835299   -2.7544692    1.5801112   396900 
 1752000    1.0528374   -2.7544905   -2.7544905   -1.1752384  0.088711285   -2.7544905    1.5792521   396900 
 1753000    1.0540664   -2.7545207   -2.7545207   -1.1734251  0.089153034   -2.7545207    1.5810956   396900 
 1754000    1.0516433   -2.7522895   -2.7522895   -1.1748286  0.080042071   -2.7522895    1.5774609   396900 
 1755000    1.0514966   -2.7512411   -2.7512411   -1.1740001  0.087757837   -2.7512411    1.5772409   396900 
 1756000    1.0498933   -2.7505699   -2.7505699   -1.1757339  0.091033472   -2.7505699     1.574836   396900 
 1757000     1.051863   -2.7505471   -2.7505471   -1.1727565   0.08844362   -2.7505471    1.5777906   396900 
 1758000    1.0533711   -2.7520163   -2.7520163   -1.1719636  0.085671183   -2.7520163    1.5800527   396900 
 1759000     1.051791   -2.7472727   -2.7472727   -1.1695902  0.087954589   -2.7472727    1.5776825   396900 
 1760000    1.0546643   -2.7494099   -2.7494099   -1.1674175  0.089833195   -2.7494099    1.5819925   396900 
 1761000    1.0555427   -2.7505862   -2.7505862   -1.1672762  0.087325851   -2.7505862      1.58331   396900 
 1762000    1.0515517   -2.7471062   -2.7471062   -1.1697826  0.082180419   -2.7471062    1.5773235   396900 
 1763000    1.0520766   -2.7476995   -2.7476995   -1.1695885  0.090733039   -2.7476995     1.578111   396900 
 1764000    1.0509611   -2.7460332   -2.7460332   -1.1695955  0.086026069   -2.7460332    1.5764377   396900 
 1765000    1.0525678   -2.7471464   -2.7471464   -1.1682986  0.085008606   -2.7471464    1.5788478   396900 
 1766000    1.0536595   -2.7477146   -2.7477146   -1.1672293  0.085504963   -2.7477146    1.5804853   396900 
 1767000      1.05351   -2.7465032   -2.7465032   -1.1662421  0.087802583   -2.7465032     1.580261   396900 
 1768000    1.0523721   -2.7460682   -2.7460682    -1.167514  0.086102154   -2.7460682    1.5785542   396900 
 1769000    1.0550458   -2.7467027   -2.7467027    -1.164138  0.091033238   -2.7467027    1.5825647   396900 
 1770000    1.0540788   -2.7456521   -2.7456521    -1.164538  0.087382611   -2.7456521    1.5811142   396900 
 1771000    1.0535256   -2.7445548   -2.7445548   -1.1642703  0.084668154   -2.7445548    1.5802845   396900 
 1772000    1.0555711   -2.7464455   -2.7464455   -1.1630928  0.085972895   -2.7464455    1.5833527   396900 
 1773000    1.0533451   -2.7433147   -2.7433147    -1.163301  0.087756185   -2.7433147    1.5800137   396900 
 1774000    1.0534832   -2.7436799   -2.7436799   -1.1634591  0.084078211   -2.7436799    1.5802208   396900 
 1775000    1.0521584   -2.7442196   -2.7442196   -1.1659859  0.086757851   -2.7442196    1.5782337   396900 
 1776000    1.0511643   -2.7425709   -2.7425709   -1.1658284  0.085046761   -2.7425709    1.5767424   396900 
 1777000    1.0556002   -2.7466758   -2.7466758   -1.1632794  0.087647545   -2.7466758    1.5833964   396900 
 1778000     1.052958     -2.74314     -2.74314    -1.163707  0.087183625     -2.74314     1.579433   396900 
 1779000    1.0531797   -2.7429957   -2.7429957   -1.1632301  0.088458513   -2.7429957    1.5797656   396900 
 1780000    1.0523536   -2.7410749   -2.7410749   -1.1625485  0.086158417   -2.7410749    1.5785264   396900 
 1781000    1.0512576   -2.7408377   -2.7408377   -1.1639552  0.085818756   -2.7408377    1.5768825   396900 
 1782000    1.0542054   -2.7427844   -2.7427844   -1.1614803  0.086476954   -2.7427844    1.5813041   396900 
 1783000    1.0556236   -2.7454082   -2.7454082   -1.1619768  0.091434683   -2.7454082    1.5834314   396900 
 1784000    1.0522192   -2.7404745   -2.7404745   -1.1621496   0.09209646   -2.7404745    1.5783248   396900 
 1785000    1.0544034   -2.7413738   -2.7413738   -1.1597728  0.086802096   -2.7413738    1.5816011   396900 
 1786000    1.0551087     -2.74293     -2.74293   -1.1602709  0.090571647     -2.74293    1.5826591   396900 
 1787000    1.0551496   -2.7406755   -2.7406755    -1.157955  0.089495937   -2.7406755    1.5827205   396900 
 1788000    1.0545137   -2.7402688   -2.7402688   -1.1585022  0.086776889   -2.7402688    1.5817666   396900 
 1789000    1.0556587   -2.7389514   -2.7389514   -1.1554674  0.090283264   -2.7389514    1.5834841   396900 
 1790000    1.0561184   -2.7413299   -2.7413299   -1.1571563  0.091254951   -2.7413299    1.5841737   396900 
 1791000    1.0543849   -2.7408069   -2.7408069   -1.1592336  0.084748427   -2.7408069    1.5815733   396900 
 1792000    1.0543395   -2.7411663   -2.7411663   -1.1596611  0.089739416   -2.7411663    1.5815053   396900 
 1793000    1.0519001   -2.7370049   -2.7370049   -1.1591587  0.087619891   -2.7370049    1.5778462   396900 
 1794000    1.0525669   -2.7372364   -2.7372364     -1.15839  0.082340554   -2.7372364    1.5788463   396900 
 1795000    1.0520568   -2.7356749   -2.7356749   -1.1575937    0.0885339   -2.7356749    1.5780812   396900 
 1796000    1.0523167   -2.7352205   -2.7352205   -1.1567493  0.085003177   -2.7352205    1.5784711   396900 
 1797000    1.0520536   -2.7361253   -2.7361253    -1.158049  0.088429504   -2.7361253    1.5780764   396900 
 1798000    1.0523755   -2.7334109   -2.7334109   -1.1548517  0.084925409   -2.7334109    1.5785592   396900 
 1799000    1.0538324   -2.7344602   -2.7344602   -1.1537155  0.092074158   -2.7344602    1.5807447   396900 
 1800000    1.0555422   -2.7408662   -2.7408662    -1.157557  0.082616901   -2.7408662    1.5833093   396900 
 1801000     1.052652    -2.735992    -2.735992    -1.157018  0.086737189    -2.735992     1.578974   396900 
 1802000     1.052752   -2.7327938   -2.7327938   -1.1536698  0.083532842   -2.7327938     1.579124   396900 
 1803000    1.0522248   -2.7321418   -2.7321418   -1.1538086  0.084296147   -2.7321418    1.5783332   396900 
 1804000    1.0536155    -2.731766    -2.731766   -1.1513468  0.086844982    -2.731766    1.5804192   396900 
 1805000    1.0548486   -2.7318399   -2.7318399    -1.149571   0.09136482   -2.7318399    1.5822689   396900 
 1806000    1.0536357   -2.7319723   -2.7319723   -1.1515227  0.090690316   -2.7319723    1.5804496   396900 
 1807000     1.052486   -2.7326247   -2.7326247   -1.1538996  0.087604722   -2.7326247    1.5787251   396900 
 1808000    1.0526341   -2.7294557   -2.7294557   -1.1505085  0.087241999   -2.7294557    1.5789472   396900 
 1809000    1.0537188   -2.7299359   -2.7299359   -1.1493617  0.085643062   -2.7299359    1.5805742   396900 
 1810000    1.0545315   -2.7305239   -2.7305239   -1.1487306  0.087369535   -2.7305239    1.5817933   396900 
 1811000    1.0570162   -2.7323754   -2.7323754   -1.1468551   0.09051871   -2.7323754    1.5855203   396900 
 1812000    1.0561064   -2.7328205   -2.7328205    -1.148665  0.089229976   -2.7328205    1.5841556   396900 
 1813000    1.0538044   -2.7297017   -2.7297017   -1.1489992  0.091082922   -2.7297017    1.5807025   396900 
 1814000     1.056692   -2.7312791   -2.7312791    -1.146245  0.089117758   -2.7312791    1.5850341   396900 
 1815000    1.0544198   -2.7293353   -2.7293353   -1.1477095  0.086322525   -2.7293353    1.5816258   396900 
 1816000    1.0544479   -2.7311581   -2.7311581   -1.1494902  0.085322353   -2.7311581    1.5816678   396900 
 1817000     1.054458    -2.733725    -2.733725    -1.152042  0.085568278    -2.733725     1.581683   396900 
 1818000    1.0521259   -2.7287147   -2.7287147   -1.1505298  0.083872107   -2.7287147    1.5781849   396900 
 1819000    1.0512582   -2.7275604   -2.7275604    -1.150677  0.086587005   -2.7275604    1.5768834   396900 
 1820000    1.0531782   -2.7290071   -2.7290071   -1.1492439  0.088811808   -2.7290071    1.5797632   396900 
 1821000    1.0538812   -2.7306138   -2.7306138    -1.149796  0.084328519   -2.7306138    1.5808178   396900 
 1822000    1.0581491    -2.732167    -2.732167   -1.1449474  0.088422271    -2.732167    1.5872196   396900 
 1823000    1.0547646   -2.7268018   -2.7268018   -1.1446589  0.089491077   -2.7268018    1.5821429   396900 
 1824000    1.0563573   -2.7276965   -2.7276965   -1.1431645  0.089445095   -2.7276965     1.584532   396900 
 1825000    1.0559417   -2.7274974   -2.7274974   -1.1435888  0.089618539   -2.7274974    1.5839086   396900 
 1826000    1.0565331    -2.726992    -2.726992   -1.1421964  0.090365996    -2.726992    1.5847957   396900 
 1827000     1.055572   -2.7236521   -2.7236521   -1.1402982  0.087421872   -2.7236521     1.583354   396900 
 1828000    1.0542804   -2.7244214   -2.7244214   -1.1430048  0.084772245   -2.7244214    1.5814166   396900 
 1829000    1.0558868   -2.7242855   -2.7242855   -1.1404593  0.084665055   -2.7242855    1.5838262   396900 
 1830000    1.0551135   -2.7238044   -2.7238044   -1.1411381  0.089234309   -2.7238044    1.5826662   396900 
 1831000    1.0553892   -2.7219083   -2.7219083   -1.1388284   0.09323477   -2.7219083    1.5830799   396900 
 1832000    1.0527576    -2.720384    -2.720384   -1.1412516  0.085890842    -2.720384    1.5791324   396900 
 1833000    1.0547833   -2.7208273   -2.7208273   -1.1386562  0.089364642   -2.7208273     1.582171   396900 
 1834000     1.054435   -2.7191788   -2.7191788   -1.1375303   0.08859767   -2.7191788    1.5816485   396900 
 1835000    1.0564859   -2.7200786   -2.7200786   -1.1353537  0.088461783   -2.7200786    1.5847249   396900 
 1836000    1.0556856   -2.7166781   -2.7166781   -1.1331536  0.088375588   -2.7166781    1.5835245   396900 
 1837000    1.0533255   -2.7141633   -2.7141633    -1.134179  0.088308043   -2.7141633    1.5799842   396900 
 1838000     1.054152   -2.7173642   -2.7173642   -1.1361402  0.084866104   -2.7173642     1.581224   396900 
 1839000    1.0533021   -2.7149011   -2.7149011    -1.134952  0.084595291   -2.7149011    1.5799492   396900 
 1840000    1.0553269   -2.7163843   -2.7163843    -1.133398  0.087633757   -2.7163843    1.5829863   396900 
 1841000    1.0528051   -2.7136303   -2.7136303   -1.1344267  0.086292201   -2.7136303    1.5792036   396900 
 1842000     1.056829   -2.7164053   -2.7164053   -1.1311658  0.087730478   -2.7164053    1.5852395   396900 
 1843000    1.0573096   -2.7166416   -2.7166416   -1.1306811  0.086731471   -2.7166416    1.5859604   396900 
 1844000    1.0559246   -2.7138196   -2.7138196   -1.1299368  0.090054706   -2.7138196    1.5838829   396900 
 1845000    1.0553383   -2.7122826   -2.7122826   -1.1292791  0.088601204   -2.7122826    1.5830034   396900 
 1846000    1.0567735   -2.7110767   -2.7110767   -1.1259204  0.084431709   -2.7110767    1.5851563   396900 
 1847000     1.056326   -2.7116182   -2.7116182   -1.1271331  0.088844697   -2.7116182    1.5844851   396900 
 1848000    1.0560494   -2.7124671   -2.7124671    -1.128397  0.088508687   -2.7124671    1.5840701   396900 
 1849000    1.0566695   -2.7110155   -2.7110155   -1.1260152  0.088104307   -2.7110155    1.5850003   396900 
 1850000    1.0569621   -2.7136151   -2.7136151   -1.1281759  0.087126373   -2.7136151    1.5854392   396900 
 1851000     1.057328   -2.7135506   -2.7135506   -1.1275625  0.084212216   -2.7135506    1.5859881   396900 
 1852000    1.0570787   -2.7118126   -2.7118126   -1.1261986  0.094409816   -2.7118126     1.585614   396900 
 1853000    1.0563953   -2.7105559   -2.7105559    -1.125967  0.090170304   -2.7105559    1.5845889   396900 
 1854000    1.0581345   -2.7100447   -2.7100447   -1.1228469  0.085596194   -2.7100447    1.5871978   396900 
 1855000    1.0592419   -2.7107647   -2.7107647   -1.1219059  0.087117167   -2.7107647    1.5888588   396900 
 1856000    1.0579863   -2.7092972   -2.7092972   -1.1223216  0.088757487   -2.7092972    1.5869755   396900 
 1857000    1.0577768   -2.7086466   -2.7086466   -1.1219854  0.086714619   -2.7086466    1.5866611   396900 
 1858000    1.0600567   -2.7103821   -2.7103821    -1.120301  0.088891258   -2.7103821    1.5900811   396900 
 1859000    1.0567202   -2.7077493   -2.7077493    -1.122673  0.083467146   -2.7077493    1.5850763   396900 
 1860000    1.0577138    -2.708378    -2.708378   -1.1218113  0.088567293    -2.708378    1.5865666   396900 
 1861000    1.0592167   -2.7093702   -2.7093702   -1.1205492    0.0885326   -2.7093702     1.588821   396900 
 1862000    1.0573564   -2.7063741   -2.7063741   -1.1203434  0.088949049   -2.7063741    1.5860306   396900 
 1863000    1.0591597   -2.7087901   -2.7087901   -1.1200546  0.088484164   -2.7087901    1.5887355   396900 
 1864000     1.056744   -2.7044845   -2.7044845   -1.1193724  0.089713862   -2.7044845    1.5851121   396900 
 1865000    1.0565312   -2.7045604   -2.7045604   -1.1197675  0.088163592   -2.7045604    1.5847929   396900 
 1866000    1.0559091   -2.7038042   -2.7038042   -1.1199446  0.085850055   -2.7038042    1.5838596   396900 
 1867000    1.0555552    -2.703924    -2.703924   -1.1205952  0.087580482    -2.703924    1.5833289   396900 
 1868000    1.0591104   -2.7061187   -2.7061187   -1.1174571  0.089352441   -2.7061187    1.5886616   396900 
 1869000    1.0583867   -2.7070044   -2.7070044   -1.1194283  0.085049487   -2.7070044    1.5875761   396900 
 1870000    1.0562554     -2.70404     -2.70404   -1.1196609  0.086514212     -2.70404    1.5843791   396900 
 1871000    1.0577044     -2.70545     -2.70545   -1.1188975  0.087836841     -2.70545    1.5865525   396900 
 1872000    1.0568019   -2.7040285   -2.7040285   -1.1188297  0.089400893   -2.7040285    1.5851988   396900 
 1873000    1.0585753   -2.7051814   -2.7051814   -1.1173224  0.088196657   -2.7051814     1.587859   396900 
 1874000    1.0597942   -2.7054164   -2.7054164   -1.1157291  0.089499969   -2.7054164    1.5896873   396900 
 1875000    1.0594063   -2.7057468   -2.7057468   -1.1166414  0.089481434   -2.7057468    1.5891054   396900 
 1876000    1.0573331   -2.7045652   -2.7045652   -1.1185695  0.092456184   -2.7045652    1.5859957   396900 
 1877000    1.0581445   -2.7059068   -2.7059068    -1.118694  0.085215034   -2.7059068    1.5872128   396900 
 1878000    1.0594002   -2.7088262   -2.7088262   -1.1197299  0.088290807   -2.7088262    1.5890963   396900 
 1879000    1.0576072   -2.7076412   -2.7076412   -1.1212344  0.085743197   -2.7076412    1.5864068   396900 
 1880000    1.0562205   -2.7072384   -2.7072384   -1.1229117  0.085918578   -2.7072384    1.5843267   396900 
 1881000     1.057483   -2.7055797   -2.7055797   -1.1193593  0.089784962   -2.7055797    1.5862204   396900 
 1882000    1.0589338   -2.7066832   -2.7066832   -1.1182865  0.088080577   -2.7066832    1.5883967   396900 
 1883000    1.0574003   -2.7071076   -2.7071076   -1.1210112  0.084290117   -2.7071076    1.5860964   396900 
 1884000     1.057922   -2.7064999   -2.7064999   -1.1196209  0.090285718   -2.7064999     1.586879   396900 
 1885000    1.0562348   -2.7040871   -2.7040871   -1.1197389  0.087822567   -2.7040871    1.5843482   396900 
 1886000    1.0568565   -2.7048736   -2.7048736   -1.1195928  0.088791614   -2.7048736    1.5852808   396900 
 1887000     1.055514   -2.7039067   -2.7039067   -1.1206397  0.090332524   -2.7039067     1.583267   396900 
 1888000    1.0579617   -2.7052376   -2.7052376    -1.118299  0.082896673   -2.7052376    1.5869386   396900 
 1889000    1.0567229   -2.7040314   -2.7040314    -1.118951    0.0900581   -2.7040314    1.5850804   396900 
 1890000    1.0551805   -2.7002443   -2.7002443   -1.1174775  0.088094943   -2.7002443    1.5827667   396900 
 1891000    1.0573016   -2.7030011   -2.7030011   -1.1170526  0.089036216   -2.7030011    1.5859485   396900 
 1892000    1.0582468   -2.7039991   -2.7039991   -1.1166329  0.089526579   -2.7039991    1.5873662   396900 
 1893000    1.0579653   -2.7012421   -2.7012421   -1.1142981  0.092595949   -2.7012421     1.586944   396900 
 1894000    1.0588803   -2.7011641   -2.7011641   -1.1128476  0.091319268   -2.7011641    1.5883165   396900 
 1895000    1.0561057   -2.7000992   -2.7000992   -1.1159447  0.087031325   -2.7000992    1.5841545   396900 
 1896000    1.0568491    -2.698978    -2.698978   -1.1137083  0.088214798    -2.698978    1.5852697   396900 
 1897000    1.0586935   -2.7006047   -2.7006047   -1.1125685  0.089262389   -2.7006047    1.5880362   396900 
 1898000    1.0587853   -2.7006355   -2.7006355   -1.1124615  0.089127707   -2.7006355     1.588174   396900 
 1899000     1.056999   -2.6979285   -2.6979285    -1.112434   0.08951327   -2.6979285    1.5854945   396900 
 1900000    1.0614261   -2.7018498   -2.7018498   -1.1097147  0.093385773   -2.7018498    1.5921351   396900 
 1901000    1.0604039   -2.7029987   -2.7029987   -1.1123969  0.088878457   -2.7029987    1.5906018   396900 
 1902000    1.0566894   -2.6983069   -2.6983069   -1.1132768  0.092300765   -2.6983069    1.5850301   396900 
 1903000    1.0588386   -2.7019935   -2.7019935   -1.1137395  0.091032209   -2.7019935    1.5882539   396900 
 1904000     1.056152   -2.7018206   -2.7018206   -1.1175965  0.090384165   -2.7018206     1.584224   396900 
 1905000    1.0596337   -2.7044774   -2.7044774   -1.1150308  0.089093028   -2.7044774    1.5894466   396900 
 1906000     1.057963    -2.704748    -2.704748   -1.1178075  0.089706386    -2.704748    1.5869405   396900 
 1907000    1.0566096    -2.700879    -2.700879   -1.1159686  0.095105915    -2.700879    1.5849104   396900 
 1908000    1.0559523   -2.7012731   -2.7012731   -1.1173487  0.086655151   -2.7012731    1.5839244   396900 
 1909000    1.0570773   -2.7027483   -2.7027483   -1.1171364  0.080685258   -2.7027483    1.5856119   396900 
 1910000    1.0574076   -2.7001735   -2.7001735   -1.1140661  0.087976894   -2.7001735    1.5861074   396900 
 1911000    1.0586137   -2.7007356   -2.7007356   -1.1128191  0.093050806   -2.7007356    1.5879165   396900 
 1912000    1.0586503   -2.7019994   -2.7019994   -1.1140279  0.087743432   -2.7019994    1.5879714   396900 
 1913000    1.0576411   -2.7028795   -2.7028795   -1.1164217   0.08984631   -2.7028795    1.5864577   396900 
 1914000     1.059076   -2.7039041   -2.7039041    -1.115294  0.088657188   -2.7039041    1.5886101   396900 
 1915000    1.0585691   -2.7024217   -2.7024217   -1.1145721  0.089448484   -2.7024217    1.5878496   396900 
 1916000    1.0585084   -2.7020304   -2.7020304   -1.1142719  0.087382129   -2.7020304    1.5877585   396900 
 1917000    1.0592434   -2.7026803   -2.7026803   -1.1138192  0.088617838   -2.7026803    1.5888611   396900 
 1918000    1.0580641   -2.7010226   -2.7010226   -1.1139304  0.089680254   -2.7010226    1.5870922   396900 
 1919000    1.0566177   -2.6984951   -2.6984951   -1.1135726  0.087056122   -2.6984951    1.5849225   396900 
 1920000    1.0569771   -2.6996737   -2.6996737   -1.1142121  0.087004219   -2.6996737    1.5854616   396900 
 1921000    1.0579933   -2.7018856   -2.7018856   -1.1148997  0.090245279   -2.7018856    1.5869859   396900 
 1922000    1.0561042   -2.6989581   -2.6989581   -1.1148058  0.088585313   -2.6989581    1.5841523   396900 
 1923000     1.058571   -2.7001666   -2.7001666   -1.1123141  0.088175905   -2.7001666    1.5878525   396900 
 1924000    1.0587898   -2.7049571   -2.7049571   -1.1167764  0.090407089   -2.7049571    1.5881807   396900 
 1925000    1.0581873   -2.7011044   -2.7011044   -1.1138275  0.087942685   -2.7011044    1.5872769   396900 
 1926000    1.0565956   -2.7000624   -2.7000624   -1.1151731  0.087285232   -2.7000624    1.5848893   396900 
 1927000    1.0581754    -2.703937    -2.703937    -1.116678   0.08924164    -2.703937    1.5872591   396900 
 1928000    1.0581613   -2.7012791   -2.7012791   -1.1140412  0.092458145   -2.7012791    1.5872379   396900 
 1929000    1.0611893   -2.7036513   -2.7036513   -1.1118713  0.090553666   -2.7036513      1.59178   396900 
 1930000    1.0616652   -2.7045337   -2.7045337   -1.1120399  0.093353297   -2.7045337    1.5924937   396900 
 1931000      1.06153   -2.7030393   -2.7030393   -1.1107483  0.090767671   -2.7030393     1.592291   396900 
 1932000    1.0588179   -2.7014239   -2.7014239    -1.113201  0.093459031   -2.7014239    1.5882229   396900 
 1933000    1.0588476   -2.7008203   -2.7008203   -1.1125529  0.090101623   -2.7008203    1.5882674   396900 
 1934000    1.0588438   -2.7028427   -2.7028427   -1.1145811  0.090366601   -2.7028427    1.5882616   396900 
 1935000    1.0591443   -2.7001311   -2.7001311   -1.1114187   0.08864842   -2.7001311    1.5887124   396900 
 1936000    1.0609249   -2.7048507   -2.7048507   -1.1134674  0.091725443   -2.7048507    1.5913833   396900 
 1937000    1.0601584   -2.7038905   -2.7038905    -1.113657  0.089639743   -2.7038905    1.5902335   396900 
 1938000     1.058251   -2.7040111   -2.7040111   -1.1166385  0.089823299   -2.7040111    1.5873726   396900 
 1939000    1.0561605   -2.7032104   -2.7032104   -1.1189736  0.085409851   -2.7032104    1.5842368   396900 
 1940000    1.0565315   -2.7043934   -2.7043934   -1.1196001  0.089496673   -2.7043934    1.5847933   396900 
 1941000     1.057935   -2.7043106   -2.7043106   -1.1174121  0.086234532   -2.7043106    1.5868985   396900 
 1942000    1.0586851   -2.7031473   -2.7031473   -1.1151237  0.089939876   -2.7031473    1.5880236   396900 
 1943000    1.0590023   -2.7026395   -2.7026395     -1.11414   0.09001055   -2.7026395    1.5884994   396900 
 1944000    1.0598616   -2.7046445   -2.7046445   -1.1148562  0.092776698   -2.7046445    1.5897883   396900 
 1945000    1.0591232   -2.7036345   -2.7036345   -1.1149537  0.090210884   -2.7036345    1.5886808   396900 
 1946000    1.0607733   -2.7062905   -2.7062905   -1.1151345  0.092127256   -2.7062905     1.591156   396900 
 1947000    1.0573894   -2.7023732   -2.7023732   -1.1162931    0.0908624   -2.7023732    1.5860801   396900 
 1948000    1.0581606   -2.7015868   -2.7015868   -1.1143499  0.085567928   -2.7015868     1.587237   396900 
 1949000    1.0584738   -2.7032543   -2.7032543   -1.1155476  0.088067519   -2.7032543    1.5877067   396900 
 1950000    1.0603119   -2.7025654   -2.7025654   -1.1121015  0.096432971   -2.7025654    1.5904639   396900 
 1951000     1.061501   -2.7016272   -2.7016272   -1.1093797  0.087903559   -2.7016272    1.5922475   396900 
 1952000    1.0587704   -2.6971889   -2.6971889   -1.1090372  0.087868588   -2.6971889    1.5881516   396900 
 1953000    1.0590494    -2.700516    -2.700516   -1.1119459  0.090137889    -2.700516    1.5885701   396900 
 1954000    1.0586119   -2.6966191   -2.6966191   -1.1087052  0.094036175   -2.6966191    1.5879139   396900 
 1955000    1.0600064   -2.6983672   -2.6983672   -1.1083616  0.092385488   -2.6983672    1.5900056   396900 
 1956000    1.0606746   -2.6994121   -2.6994121   -1.1084042  0.089652927   -2.6994121    1.5910079   396900 
 1957000    1.0618182   -2.6983191   -2.6983191   -1.1055958   0.09333652   -2.6983191    1.5927232   396900 
 1958000       1.0596   -2.6963496   -2.6963496   -1.1069537  0.090749796   -2.6963496    1.5893959   396900 
 1959000    1.0602617   -2.6992126   -2.6992126   -1.1088241  0.088856918   -2.6992126    1.5903885   396900 
 1960000     1.060456   -2.6991349   -2.6991349   -1.1084549  0.093443091   -2.6991349      1.59068   396900 
 1961000    1.0602692   -2.7006519   -2.7006519   -1.1102521  0.094310815   -2.7006519    1.5903998   396900 
 1962000    1.0597604   -2.6983107   -2.6983107   -1.1086742   0.08897027   -2.6983107    1.5896365   396900 
 1963000    1.0585504   -2.6982245   -2.6982245   -1.1104028  0.088291696   -2.6982245    1.5878217   396900 
 1964000    1.0584604   -2.6967872   -2.6967872   -1.1091006  0.091631147   -2.6967872    1.5876866   396900 
 1965000    1.0603758   -2.6992847   -2.6992847   -1.1087249  0.085917516   -2.6992847    1.5905598   396900 
 1966000    1.0602339   -2.6977306   -2.6977306   -1.1073838   0.09098641   -2.6977306    1.5903469   396900 
 1967000    1.0602202   -2.6947498   -2.6947498   -1.1044236  0.091641294   -2.6947498    1.5903262   396900 
 1968000    1.0601897   -2.6957032   -2.6957032   -1.1054227  0.091808162   -2.6957032    1.5902805   396900 
 1969000    1.0605797   -2.6962595   -2.6962595    -1.105394  0.089568064   -2.6962595    1.5908655   396900 
 1970000    1.0591109   -2.6969817   -2.6969817   -1.1083193  0.091241183   -2.6969817    1.5886624   396900 
 1971000    1.0596553   -2.6973708   -2.6973708   -1.1078919  0.090093223   -2.6973708    1.5894789   396900 
 1972000    1.0601045   -2.6960599   -2.6960599   -1.1059072   0.09041045   -2.6960599    1.5901527   396900 
 1973000    1.0609437   -2.6963445   -2.6963445   -1.1049329  0.092761687   -2.6963445    1.5914116   396900 
 1974000    1.0578589   -2.6935776   -2.6935776   -1.1067933  0.092314365   -2.6935776    1.5867843   396900 
 1975000    1.0586222   -2.6965432   -2.6965432   -1.1086138  0.090938577   -2.6965432    1.5879294   396900 
 1976000    1.0578079   -2.6959222   -2.6959222   -1.1092143  0.090111534   -2.6959222    1.5867079   396900 
 1977000    1.0583818   -2.6960561   -2.6960561   -1.1084874  0.090344884   -2.6960561    1.5875687   396900 
 1978000    1.0563315   -2.6930052   -2.6930052   -1.1085119   0.09108516   -2.6930052    1.5844933   396900 
 1979000    1.0579468   -2.6953867   -2.6953867   -1.1084705  0.085222046   -2.6953867    1.5869163   396900 
 1980000    1.0605792   -2.6962907   -2.6962907   -1.1054259  0.090646409   -2.6962907    1.5908649   396900 
 1981000    1.0607248    -2.695441    -2.695441   -1.1043578  0.093911941    -2.695441    1.5910832   396900 
 1982000     1.060217   -2.6962136   -2.6962136   -1.1058922  0.086868775   -2.6962136    1.5903215   396900 
 1983000    1.0597991   -2.6958083   -2.6958083   -1.1061136  0.092133859   -2.6958083    1.5896947   396900 
 1984000    1.0594932   -2.6967494   -2.6967494   -1.1075135  0.090633649   -2.6967494    1.5892358   396900 
 1985000    1.0602396   -2.6970214   -2.6970214    -1.106666  0.089490831   -2.6970214    1.5903554   396900 
 1986000    1.0602259   -2.6999014   -2.6999014   -1.1095666  0.090417395   -2.6999014    1.5903348   396900 
 1987000    1.0572639   -2.6968338   -2.6968338   -1.1109419  0.090589586   -2.6968338    1.5858919   396900 
 1988000    1.0586753   -2.6987917   -2.6987917   -1.1107827  0.084097459   -2.6987917     1.588009   396900 
 1989000    1.0573817   -2.6957454   -2.6957454   -1.1096768  0.092148074   -2.6957454    1.5860686   396900 
 1990000    1.0577309   -2.6954955   -2.6954955   -1.1089032  0.088085269   -2.6954955    1.5865923   396900 
 1991000    1.0585763   -2.6971405   -2.6971405     -1.10928  0.088518744   -2.6971405    1.5878604   396900 
 1992000    1.0583321   -2.6961652   -2.6961652   -1.1086711  0.091079363   -2.6961652    1.5874941   396900 
 1993000    1.0602277   -2.6965076   -2.6965076     -1.10617  0.089956624   -2.6965076    1.5903376   396900 
 1994000    1.0611467   -2.6982786   -2.6982786   -1.1065625  0.090728036   -2.6982786    1.5917161   396900 
 1995000    1.0590454   -2.6985737   -2.6985737   -1.1100096  0.083264596   -2.6985737    1.5885641   396900 
 1996000    1.0609793   -2.6975003   -2.6975003   -1.1060354   0.08816838   -2.6975003     1.591465   396900 
 1997000    1.0599556   -2.6961653   -2.6961653   -1.1062358  0.088570034   -2.6961653    1.5899294   396900 
 1998000     1.058893   -2.6933482   -2.6933482   -1.1050128  0.091438331   -2.6933482    1.5883354   396900 
 1999000    1.0588861   -2.6927065   -2.6927065   -1.1043814  0.089755074   -2.6927065    1.5883251   396900 
 2000000    1.0594314   -2.6928153   -2.6928153   -1.1036723  0.092605297   -2.6928153    1.5891431   396900 
 2001000    1.0596858   -2.6925895   -2.6925895   -1.1030648  0.087461983   -2.6925895    1.5895246   396900 
 2002000     1.059566   -2.6932827   -2.6932827   -1.1039378  0.090676207   -2.6932827    1.5893449   396900 
 2003000    1.0604506   -2.6926827   -2.6926827   -1.1020108  0.088545317   -2.6926827     1.590672   396900 
 2004000     1.057946   -2.6878765   -2.6878765   -1.1009615  0.089247211   -2.6878765     1.586915   396900 
 2005000    1.0606714   -2.6922392   -2.6922392   -1.1012361    0.0916904   -2.6922392    1.5910031   396900 
 2006000    1.0594861   -2.6909982   -2.6909982   -1.1017731  0.087121821   -2.6909982    1.5892251   396900 
 2007000    1.0608857   -2.6924109   -2.6924109   -1.1010864   0.08622411   -2.6924109    1.5913245   396900 
 2008000    1.0588101   -2.6900453   -2.6900453   -1.1018342  0.088013885   -2.6900453    1.5882111   396900 
 2009000    1.0613826   -2.6946107   -2.6946107   -1.1025408  0.090425146   -2.6946107    1.5920699   396900 
 2010000    1.0601086   -2.6911485   -2.6911485   -1.1009896  0.091896014   -2.6911485    1.5901589   396900 
 2011000     1.060616   -2.6912871   -2.6912871   -1.1003672   0.08560267   -2.6912871      1.59092   396900 
 2012000    1.0616088   -2.6939919   -2.6939919   -1.1015827   0.09003879   -2.6939919    1.5924091   396900 
 2013000     1.060181   -2.6894471   -2.6894471   -1.0991796  0.089982544   -2.6894471    1.5902675   396900 
 2014000    1.0596069   -2.6913399   -2.6913399   -1.1019336  0.089136056   -2.6913399    1.5894063   396900 
 2015000    1.0589405   -2.6931688   -2.6931688    -1.104762  0.094171884   -2.6931688    1.5884068   396900 
 2016000    1.0610508   -2.6961134   -2.6961134   -1.1045412  0.090972671   -2.6961134    1.5915722   396900 
 2017000    1.0590459   -2.6945112   -2.6945112   -1.1059464  0.090060886   -2.6945112    1.5885648   396900 
 2018000    1.0599341   -2.6921644   -2.6921644   -1.1022672  0.091323609   -2.6921644    1.5898971   396900 
 2019000    1.0606915   -2.6921059   -2.6921059   -1.1010726   0.09060775   -2.6921059    1.5910332   396900 
 2020000    1.0615207   -2.6946177   -2.6946177   -1.1023406  0.087160113   -2.6946177    1.5922771   396900 
 2021000    1.0600047   -2.6920306   -2.6920306   -1.1020276  0.089608102   -2.6920306     1.590003   396900 
 2022000    1.0604523   -2.6924454   -2.6924454   -1.1017709  0.091301025   -2.6924454    1.5906745   396900 
 2023000    1.0613255   -2.6929639   -2.6929639   -1.1009796  0.091803064   -2.6929639    1.5919842   396900 
 2024000    1.0619349   -2.6927289   -2.6927289   -1.0998306  0.095143198   -2.6927289    1.5928983   396900 
 2025000    1.0620011   -2.6929698   -2.6929698   -1.0999722  0.094851841   -2.6929698    1.5929976   396900 
 2026000    1.0605733   -2.6907571   -2.6907571   -1.0999011  0.086850732   -2.6907571     1.590856   396900 
 2027000     1.060268   -2.6898539   -2.6898539   -1.0994559  0.091063915   -2.6898539     1.590398   396900 
 2028000    1.0626015   -2.6909925   -2.6909925   -1.0970943  0.093153668   -2.6909925    1.5938982   396900 
 2029000    1.0616029   -2.6924268   -2.6924268   -1.1000265  0.089814076   -2.6924268    1.5924003   396900 
 2030000    1.0628674   -2.6910873   -2.6910873   -1.0967903  0.091962579   -2.6910873    1.5942971   396900 
 2031000     1.062639    -2.687978    -2.687978   -1.0940235  0.092027679    -2.687978    1.5939545   396900 
 2032000    1.0626684   -2.6895443   -2.6895443   -1.0955457   0.08962541   -2.6895443    1.5939986   396900 
 2033000    1.0620206   -2.6903773   -2.6903773   -1.0973504  0.092763536   -2.6903773    1.5930269   396900 
 2034000    1.0622228   -2.6904346   -2.6904346   -1.0971044  0.097004765   -2.6904346    1.5933302   396900 
 2035000    1.0637817   -2.6901613   -2.6901613   -1.0944928  0.097287927   -2.6901613    1.5956685   396900 
 2036000    1.0644858   -2.6889257   -2.6889257    -1.092201  0.092833021   -2.6889257    1.5967247   396900 
 2037000    1.0638136   -2.6899023   -2.6899023   -1.0941859  0.093202166   -2.6899023    1.5957164   396900 
 2038000    1.0622782   -2.6878635   -2.6878635   -1.0944502  0.095120167   -2.6878635    1.5934133   396900 
 2039000    1.0590277    -2.683594    -2.683594   -1.0950565  0.085606017    -2.683594    1.5885375   396900 
 2040000    1.0591348   -2.6836055   -2.6836055   -1.0949073  0.088545537   -2.6836055    1.5886982   396900 
 2041000    1.0606784   -2.6871069   -2.6871069   -1.0960933  0.092149119   -2.6871069    1.5910136   396900 
 2042000    1.0611968    -2.686207    -2.686207   -1.0944158  0.090125893    -2.686207    1.5917912   396900 
 2043000    1.0630595   -2.6872457   -2.6872457   -1.0926604  0.093275308   -2.6872457    1.5945853   396900 
 2044000    1.0630702   -2.6884456   -2.6884456   -1.0938442  0.089165181   -2.6884456    1.5946013   396900 
 2045000    1.0626673    -2.688372    -2.688372   -1.0943751  0.095872443    -2.688372    1.5939969   396900 
 2046000    1.0626152   -2.6863755   -2.6863755   -1.0924567   0.09355132   -2.6863755    1.5939188   396900 
 2047000     1.062253   -2.6839611   -2.6839611   -1.0905856  0.092636996   -2.6839611    1.5933754   396900 
 2048000    1.0634012   -2.6843717   -2.6843717    -1.089274  0.092462619   -2.6843717    1.5950978   396900 
 2049000    1.0612254   -2.6809396   -2.6809396   -1.0891056  0.095867303   -2.6809396     1.591834   396900 
 2050000    1.0643599   -2.6823167   -2.6823167   -1.0857808  0.093041861   -2.6823167    1.5965359   396900 
 2051000    1.0631372   -2.6825668   -2.6825668    -1.087865  0.094833906   -2.6825668    1.5947018   396900 
 2052000    1.0647322   -2.6841943   -2.6841943      -1.0871  0.090922007   -2.6841943    1.5970943   396900 
 2053000    1.0623455    -2.681822    -2.681822   -1.0883078  0.091902417    -2.681822    1.5935142   396900 
 2054000     1.061247   -2.6807223   -2.6807223   -1.0888558  0.093009949   -2.6807223    1.5918665   396900 
 2055000    1.0623149   -2.6815594   -2.6815594   -1.0880911  0.089776088   -2.6815594    1.5934683   396900 
 2056000    1.0633051   -2.6797044   -2.6797044   -1.0847509  0.092479151   -2.6797044    1.5949536   396900 
 2057000    1.0611107   -2.6775844   -2.6775844   -1.0859223  0.090303928   -2.6775844    1.5916621   396900 
 2058000    1.0641185   -2.6801219   -2.6801219   -1.0839481  0.090350219   -2.6801219    1.5961737   396900 
 2059000    1.0646812   -2.6793037   -2.6793037    -1.082286  0.092678008   -2.6793037    1.5970177   396900 
 2060000    1.0630962   -2.6757123   -2.6757123    -1.081072  0.094317557   -2.6757123    1.5946403   396900 
 2061000    1.0618033   -2.6743516   -2.6743516   -1.0816506  0.092716445   -2.6743516     1.592701   396900 
 2062000    1.0631769   -2.6762983   -2.6762983   -1.0815369  0.087129036   -2.6762983    1.5947614   396900 
 2063000    1.0621169   -2.6758772   -2.6758772   -1.0827059  0.093213407   -2.6758772    1.5931713   396900 
 2064000    1.0617544   -2.6755245   -2.6755245   -1.0828969   0.08701233   -2.6755245    1.5926276   396900 
 2065000    1.0621494   -2.6725002   -2.6725002   -1.0792801  0.098357568   -2.6725002    1.5932201   396900 
 2066000    1.0596451   -2.6735579   -2.6735579   -1.0840943  0.089758954   -2.6735579    1.5894636   396900 
 2067000    1.0623876     -2.67454     -2.67454   -1.0809627  0.091181972     -2.67454    1.5935773   396900 
 2068000    1.0633914   -2.6769509   -2.6769509   -1.0818678  0.093160634   -2.6769509     1.595083   396900 
 2069000    1.0613513     -2.67282     -2.67282    -1.080797  0.091618936     -2.67282    1.5920229   396900 
 2070000    1.0625644   -2.6758551   -2.6758551   -1.0820125  0.090015916   -2.6758551    1.5938426   396900 
 2071000    1.0608367    -2.670905    -2.670905    -1.079654    0.0953826    -2.670905     1.591251   396900 
 2072000    1.0640321   -2.6739224   -2.6739224   -1.0778782  0.090851761   -2.6739224    1.5960442   396900 
 2073000    1.0640722   -2.6728545   -2.6728545   -1.0767502  0.091382887   -2.6728545    1.5961043   396900 
 2074000    1.0635042   -2.6733071   -2.6733071   -1.0780549  0.094226882   -2.6733071    1.5952522   396900 
 2075000    1.0639641   -2.6750667   -2.6750667   -1.0791245  0.091940808   -2.6750667    1.5959422   396900 
 2076000    1.0612071    -2.673011    -2.673011   -1.0812043  0.094607068    -2.673011    1.5918067   396900 
 2077000    1.0647475   -2.6762245   -2.6762245   -1.0791073  0.090663214   -2.6762245    1.5971172   396900 
 2078000    1.0613081   -2.6738934   -2.6738934   -1.0819352  0.091664203   -2.6738934    1.5919582   396900 
 2079000    1.0633963   -2.6741246   -2.6741246   -1.0790342  0.098856577   -2.6741246    1.5950904   396900 
 2080000    1.0621159   -2.6739805   -2.6739805   -1.0808106  0.090728144   -2.6739805    1.5931699   396900 
 2081000    1.0624512   -2.6727063   -2.6727063   -1.0790335  0.091440328   -2.6727063    1.5936727   396900 
 2082000    1.0625441   -2.6715048   -2.6715048   -1.0776926  0.090719201   -2.6715048    1.5938122   396900 
 2083000    1.0640015   -2.6695154   -2.6695154   -1.0735172  0.095076769   -2.6695154    1.5959982   396900 
 2084000    1.0637945   -2.6707373   -2.6707373   -1.0750495  0.096397779   -2.6707373    1.5956878   396900 
 2085000    1.0634818   -2.6715584   -2.6715584   -1.0763398  0.089557059   -2.6715584    1.5952187   396900 
 2086000     1.061182   -2.6692765   -2.6692765   -1.0775075  0.092266589   -2.6692765     1.591769   396900 
 2087000    1.0631181   -2.6690342   -2.6690342    -1.074361  0.097384684   -2.6690342    1.5946732   396900 
 2088000    1.0649898   -2.6731026   -2.6731026    -1.075622  0.093948558   -2.6731026    1.5974806   396900 
 2089000    1.0645395     -2.67309     -2.67309   -1.0762848  0.090603799     -2.67309    1.5968052   396900 
 2090000    1.0659405   -2.6727262   -2.6727262   -1.0738195  0.095005416   -2.6727262    1.5989067   396900 
 2091000    1.0653034   -2.6713922   -2.6713922   -1.0734412  0.090127413   -2.6713922    1.5979511   396900 
 2092000     1.065836   -2.6735747   -2.6735747   -1.0748248  0.096509023   -2.6735747    1.5987499   396900 
 2093000    1.0642555   -2.6717991   -2.6717991   -1.0754199  0.091567499   -2.6717991    1.5963792   396900 
 2094000    1.0657714   -2.6721264   -2.6721264   -1.0734734  0.090422961   -2.6721264     1.598653   396900 
 2095000    1.0637605   -2.6686951   -2.6686951   -1.0730583  0.093761224   -2.6686951    1.5956368   396900 
 2096000    1.0642148    -2.669425    -2.669425   -1.0731068  0.093363334    -2.669425    1.5963182   396900 
 2097000    1.0646243   -2.6688091   -2.6688091   -1.0718767  0.092499616   -2.6688091    1.5969324   396900 
 2098000    1.0639118   -2.6688519   -2.6688519   -1.0729883  0.093586672   -2.6688519    1.5958636   396900 
 2099000    1.0645781   -2.6717096   -2.6717096   -1.0748464  0.095957992   -2.6717096    1.5968631   396900 
 2100000    1.0643801   -2.6703119   -2.6703119   -1.0737458  0.093785255   -2.6703119    1.5965661   396900 
 2101000    1.0636783   -2.6696927   -2.6696927   -1.0741793  0.091669217   -2.6696927    1.5955134   396900 
 2102000    1.0629834   -2.6685825   -2.6685825   -1.0741113   0.09293712   -2.6685825    1.5944711   396900 
 2103000    1.0654737   -2.6716182   -2.6716182   -1.0734117  0.091202437   -2.6716182    1.5982065   396900 
 2104000    1.0673563   -2.6701989   -2.6701989   -1.0691685  0.095782404   -2.6701989    1.6010304   396900 
 2105000    1.0651811   -2.6674383   -2.6674383   -1.0696706  0.095633665   -2.6674383    1.5977676   396900 
 2106000    1.0648524   -2.6654029   -2.6654029   -1.0681283  0.099733315   -2.6654029    1.5972746   396900 
 2107000    1.0649901    -2.669333    -2.669333   -1.0718518   0.10106344    -2.669333    1.5974812   396900 
 2108000     1.064234   -2.6688477   -2.6688477   -1.0725007  0.092296936   -2.6688477     1.596347   396900 
 2109000    1.0634513   -2.6677671   -2.6677671   -1.0725942    0.0920535   -2.6677671     1.595173   396900 
 2110000    1.0623798   -2.6683489   -2.6683489   -1.0747832  0.091137909   -2.6683489    1.5935657   396900 
 2111000    1.0648285   -2.6716508   -2.6716508   -1.0744121  0.092957328   -2.6716508    1.5972387   396900 
 2112000    1.0644845   -2.6688771   -2.6688771   -1.0721543  0.093911443   -2.6688771    1.5967228   396900 
 2113000    1.0637245    -2.666502    -2.666502   -1.0709192  0.094984358    -2.666502    1.5955827   396900 
 2114000    1.0657764   -2.6699617   -2.6699617   -1.0713011  0.091768569   -2.6699617    1.5986606   396900 
 2115000     1.064514   -2.6675181   -2.6675181   -1.0707511  0.089242091   -2.6675181     1.596767   396900 
 2116000    1.0649221   -2.6669107   -2.6669107   -1.0695316  0.095685435   -2.6669107    1.5973791   396900 
 2117000    1.0653982   -2.6680749   -2.6680749   -1.0699816   0.09561258   -2.6680749    1.5980933   396900 
 2118000    1.0636428   -2.6677751   -2.6677751   -1.0723149  0.095708831   -2.6677751    1.5954602   396900 
 2119000    1.0631061   -2.6672395   -2.6672395   -1.0725844  0.088721137   -2.6672395    1.5946551   396900 
 2120000    1.0652488    -2.668981    -2.668981   -1.0711118  0.091457006    -2.668981    1.5978692   396900 
 2121000    1.0633369   -2.6662442   -2.6662442   -1.0712428  0.093138998   -2.6662442    1.5950014   396900 
 2122000    1.0638274   -2.6681895   -2.6681895   -1.0724525  0.093016275   -2.6681895    1.5957371   396900 
 2123000    1.0647304   -2.6670622   -2.6670622   -1.0699706  0.094351966   -2.6670622    1.5970916   396900 
 2124000     1.063905   -2.6632202   -2.6632202   -1.0673667  0.094113891   -2.6632202    1.5958535   396900 
 2125000    1.0655507   -2.6651559   -2.6651559   -1.0668338  0.093835402   -2.6651559    1.5983221   396900 
 2126000    1.0635196   -2.6635982   -2.6635982   -1.0683229  0.090222489   -2.6635982    1.5952753   396900 
 2127000     1.065599   -2.6630441   -2.6630441   -1.0646497  0.095964763   -2.6630441    1.5983944   396900 
 2128000    1.0654181   -2.6635961   -2.6635961   -1.0654729  0.093228167   -2.6635961    1.5981232   396900 
 2129000    1.0653284   -2.6621075   -2.6621075    -1.064119   0.09232863   -2.6621075    1.5979885   396900 
 2130000    1.0637637   -2.6613129   -2.6613129   -1.0656714  0.090508509   -2.6613129    1.5956415   396900 
 2131000    1.0648358   -2.6606468   -2.6606468   -1.0633972  0.093062344   -2.6606468    1.5972497   396900 
 2132000    1.0649101   -2.6593064   -2.6593064   -1.0619452  0.096495231   -2.6593064    1.5973612   396900 
 2133000    1.0660915   -2.6619723   -2.6619723   -1.0628391  0.095340986   -2.6619723    1.5991332   396900 
 2134000    1.0647155   -2.6608099   -2.6608099   -1.0637406  0.092566458   -2.6608099    1.5970693   396900 
 2135000    1.0649208   -2.6587385   -2.6587385   -1.0613613  0.093938504   -2.6587385    1.5973772   396900 
 2136000    1.0657874   -2.6588086   -2.6588086   -1.0601314  0.095625807   -2.6588086    1.5986771   396900 
 2137000    1.0660643   -2.6619004   -2.6619004    -1.062808  0.095920511   -2.6619004    1.5990924   396900 
 2138000    1.0662584    -2.658897    -2.658897   -1.0595134  0.096160597    -2.658897    1.5993835   396900 
 2139000    1.0655829   -2.6596062   -2.6596062   -1.0612359  0.097523566   -2.6596062    1.5983703   396900 
 2140000    1.0663825   -2.6630556   -2.6630556   -1.0634859  0.091550437   -2.6630556    1.5995697   396900 
 2141000    1.0662412    -2.660005    -2.660005   -1.0606472  0.094856982    -2.660005    1.5993578   396900 
 2142000    1.0668805   -2.6596894   -2.6596894   -1.0593727   0.09689601   -2.6596894    1.6003167   396900 
 2143000    1.0673592   -2.6630847   -2.6630847     -1.06205  0.093579614   -2.6630847    1.6010347   396900 
 2144000    1.0660273   -2.6593181   -2.6593181   -1.0602812  0.094560815   -2.6593181    1.5990369   396900 
 2145000    1.0666231   -2.6587223   -2.6587223   -1.0587918  0.095832482   -2.6587223    1.5999306   396900 
 2146000    1.0662872   -2.6581856   -2.6581856   -1.0587589  0.096141745   -2.6581856    1.5994268   396900 
 2147000    1.0648399   -2.6571714   -2.6571714   -1.0599155  0.092461985   -2.6571714    1.5972558   396900 
 2148000    1.0656886   -2.6565738   -2.6565738   -1.0580449  0.093079064   -2.6565738    1.5985288   396900 
 2149000    1.0632714   -2.6525046   -2.6525046   -1.0576016  0.091053095   -2.6525046     1.594903   396900 
 2150000    1.0660988   -2.6590496   -2.6590496   -1.0599054  0.090364132   -2.6590496    1.5991442   396900 
 2151000     1.065004   -2.6561577   -2.6561577   -1.0586557  0.090546265   -2.6561577    1.5975019   396900 
 2152000    1.0664393   -2.6564177   -2.6564177   -1.0567628  0.087361878   -2.6564177    1.5996549   396900 
 2153000    1.0661668   -2.6547287   -2.6547287   -1.0554826  0.095109614   -2.6547287    1.5992461   396900 
 2154000    1.0661868   -2.6526983   -2.6526983   -1.0534222  0.094650904   -2.6526983    1.5992762   396900 
 2155000    1.0660168   -2.6527045   -2.6527045   -1.0536833   0.08919772   -2.6527045    1.5990212   396900 
 2156000    1.0651768   -2.6532386   -2.6532386   -1.0554775  0.093684581   -2.6532386    1.5977611   396900 
 2157000    1.0659408   -2.6539754   -2.6539754   -1.0550683  0.091781255   -2.6539754    1.5989071   396900 
 2158000    1.0644472    -2.653183    -2.653183   -1.0565162  0.088755548    -2.653183    1.5966668   396900 
 2159000    1.0648509   -2.6560629   -2.6560629   -1.0587906  0.090839907   -2.6560629    1.5972723   396900 
 2160000    1.0664272   -2.6549511   -2.6549511   -1.0553143  0.093303129   -2.6549511    1.5996368   396900 
 2161000    1.0645596   -2.6523075   -2.6523075   -1.0554721  0.093849495   -2.6523075    1.5968354   396900 
 2162000    1.0642514   -2.6523018   -2.6523018   -1.0559287  0.090780072   -2.6523018    1.5963731   396900 
 2163000    1.0663763   -2.6524436   -2.6524436   -1.0528832   0.09284554   -2.6524436    1.5995604   396900 
 2164000    1.0667732   -2.6521481   -2.6521481   -1.0519923  0.093183374   -2.6521481    1.6001558   396900 
 2165000    1.0669968    -2.653541    -2.653541   -1.0530498   0.09138218    -2.653541    1.6004912   396900 
 2166000    1.0654488   -2.6513583   -2.6513583   -1.0531891   0.09297779   -2.6513583    1.5981692   396900 
 2167000    1.0644031   -2.6493726   -2.6493726    -1.052772  0.097226504   -2.6493726    1.5966006   396900 
 2168000    1.0682816   -2.6561107   -2.6561107   -1.0536923   0.10030589   -2.6561107    1.6024184   396900 
 2169000     1.066738   -2.6544866   -2.6544866   -1.0543836  0.092882392   -2.6544866    1.6001029   396900 
 2170000    1.0677929   -2.6570658   -2.6570658   -1.0553805  0.095727542   -2.6570658    1.6016854   396900 
 2171000    1.0654626   -2.6537458   -2.6537458    -1.055556   0.09729014   -2.6537458    1.5981898   396900 
 2172000    1.0665521   -2.6543378   -2.6543378   -1.0545137  0.092340675   -2.6543378     1.599824   396900 
 2173000     1.067603   -2.6540388   -2.6540388   -1.0526382  0.094466207   -2.6540388    1.6014005   396900 
 2174000    1.0660963   -2.6530108   -2.6530108   -1.0538704  0.094503535   -2.6530108    1.5991404   396900 
 2175000    1.0658123   -2.6516478   -2.6516478   -1.0529334   0.10100565   -2.6516478    1.5987145   396900 
 2176000     1.068451   -2.6535236   -2.6535236   -1.0508512  0.094468122   -2.6535236    1.6026725   396900 
 2177000    1.0677989   -2.6538847   -2.6538847   -1.0521905   0.09795719   -2.6538847    1.6016942   396900 
 2178000    1.0676195   -2.6545914   -2.6545914   -1.0531662  0.096039851   -2.6545914    1.6014252   396900 
 2179000    1.0667392   -2.6543563   -2.6543563   -1.0542515   0.09179182   -2.6543563    1.6001048   396900 
 2180000    1.0654204   -2.6516861   -2.6516861   -1.0535596   0.08765072   -2.6516861    1.5981266   396900 
 2181000     1.064724   -2.6535117   -2.6535117   -1.0564297  0.090194151   -2.6535117     1.597082   396900 
 2182000    1.0659068   -2.6509669   -2.6509669   -1.0521107  0.092037034   -2.6509669    1.5988561   396900 
 2183000    1.0660231   -2.6529806   -2.6529806     -1.05395   0.09392371   -2.6529806    1.5990306   396900 
 2184000     1.063445    -2.649807    -2.649807   -1.0546435  0.094132722    -2.649807    1.5951635   396900 
 2185000     1.066148   -2.6548024   -2.6548024   -1.0555844  0.094829765   -2.6548024     1.599218   396900 
 2186000    1.0646937   -2.6544096   -2.6544096   -1.0573731  0.091226006   -2.6544096    1.5970365   396900 
 2187000    1.0645794   -2.6534746   -2.6534746   -1.0566096  0.096424262   -2.6534746     1.596865   396900 
 2188000    1.0660651    -2.653226    -2.653226   -1.0541323  0.093042234    -2.653226    1.5990937   396900 
 2189000    1.0673848   -2.6527255   -2.6527255   -1.0516523  0.097339383   -2.6527255    1.6010732   396900 
 2190000    1.0676133   -2.6544701   -2.6544701   -1.0530542  0.093722111   -2.6544701    1.6014159   396900 
 2191000    1.0668116   -2.6519977   -2.6519977   -1.0517844  0.092472314   -2.6519977    1.6002133   396900 
 2192000    1.0662705   -2.6521457   -2.6521457    -1.052744  0.090176747   -2.6521457    1.5994017   396900 
 2193000    1.0653694   -2.6495399   -2.6495399   -1.0514899  0.093245965   -2.6495399      1.59805   396900 
 2194000    1.0685177   -2.6527757   -2.6527757   -1.0500032  0.092713948   -2.6527757    1.6027725   396900 
 2195000    1.0667177   -2.6514667   -2.6514667   -1.0513942   0.09932895   -2.6514667    1.6000725   396900 
 2196000    1.0661342   -2.6494301   -2.6494301   -1.0502328  0.095767845   -2.6494301    1.5991973   396900 
 2197000     1.066547   -2.6492177   -2.6492177   -1.0494012  0.097021576   -2.6492177    1.5998165   396900 
 2198000    1.0664112   -2.6515805   -2.6515805   -1.0519677  0.092502808   -2.6515805    1.5996128   396900 
 2199000    1.0660786   -2.6511817   -2.6511817   -1.0520679  0.095387943   -2.6511817    1.5991138   396900 
 2200000    1.0660206   -2.6497686   -2.6497686   -1.0507417  0.092420241   -2.6497686    1.5990269   396900 
 2201000    1.0661802    -2.649648    -2.649648   -1.0503817  0.094194727    -2.649648    1.5992663   396900 
 2202000    1.0657339   -2.6504294   -2.6504294   -1.0518326  0.095189186   -2.6504294    1.5985967   396900 
 2203000    1.0648768   -2.6485713   -2.6485713   -1.0512601   0.09210483   -2.6485713    1.5973112   396900 
 2204000    1.0661564   -2.6506826   -2.6506826    -1.051452  0.091438184   -2.6506826    1.5992306   396900 
 2205000    1.0652495   -2.6480193   -2.6480193   -1.0501491  0.095789502   -2.6480193    1.5978702   396900 
 2206000    1.0652697   -2.6476533   -2.6476533   -1.0497528  0.094292025   -2.6476533    1.5979005   396900 
 2207000    1.0671691   -2.6486243   -2.6486243   -1.0478747  0.093482047   -2.6486243    1.6007497   396900 
 2208000    1.0673311   -2.6505969   -2.6505969   -1.0496043  0.094804079   -2.6505969    1.6009927   396900 
 2209000    1.0670358    -2.647673    -2.647673   -1.0471233  0.092143294    -2.647673    1.6005497   396900 
 2210000    1.0668785   -2.6473167   -2.6473167    -1.047003  0.091867667   -2.6473167    1.6003137   396900 
 2211000     1.067742   -2.6493141   -2.6493141   -1.0477052  0.098130085   -2.6493141    1.6016089   396900 
 2212000    1.0680989   -2.6485604   -2.6485604   -1.0464161  0.093442281   -2.6485604    1.6021443   396900 
 2213000    1.0678734   -2.6466348   -2.6466348   -1.0448287  0.097244598   -2.6466348    1.6018061   396900 
 2214000    1.0677349   -2.6497456   -2.6497456   -1.0481473  0.093368149   -2.6497456    1.6015983   396900 
 2215000    1.0669362   -2.6471278   -2.6471278   -1.0467276  0.096062622   -2.6471278    1.6004002   396900 
 2216000    1.0670921   -2.6488684   -2.6488684   -1.0482343  0.088360649   -2.6488684    1.6006341   396900 
 2217000    1.0696949   -2.6482304   -2.6482304   -1.0436921   0.10036986   -2.6482304    1.6045383   396900 
 2218000    1.0671664   -2.6489724   -2.6489724   -1.0482267  0.096945826   -2.6489724    1.6007456   396900 
 2219000    1.0672646   -2.6494148   -2.6494148    -1.048522  0.090933659   -2.6494148    1.6008929   396900 
 2220000    1.0651498   -2.6441128   -2.6441128   -1.0463921  0.095772307   -2.6441128    1.5977207   396900 
 2221000    1.0672549   -2.6453515   -2.6453515   -1.0444731  0.097583317   -2.6453515    1.6008784   396900 
 2222000    1.0674732   -2.6419285   -2.6419285   -1.0407228  0.093423803   -2.6419285    1.6012057   396900 
 2223000    1.0679313   -2.6388658   -2.6388658   -1.0369728  0.098368721   -2.6388658     1.601893   396900 
 2224000    1.0687375   -2.6396766   -2.6396766   -1.0365744  0.098023679   -2.6396766    1.6031022   396900 
 2225000    1.0697092   -2.6395213   -2.6395213   -1.0349615  0.089442566   -2.6395213    1.6045598   396900 
 2226000    1.0682401   -2.6366428   -2.6366428   -1.0342868  0.098143435   -2.6366428     1.602356   396900 
 2227000    1.0708734   -2.6385417   -2.6385417   -1.0322357  0.098344912   -2.6385417     1.606306   396900 
 2228000    1.0701366   -2.6386317   -2.6386317   -1.0334308  0.091223139   -2.6386317    1.6052009   396900 
 2229000     1.069105    -2.638691    -2.638691   -1.0350375  0.095147164    -2.638691    1.6036535   396900 
 2230000     1.070401   -2.6410656   -2.6410656   -1.0354681   0.09635466   -2.6410656    1.6055975   396900 
 2231000    1.0695737   -2.6393846   -2.6393846   -1.0350281  0.097398333   -2.6393846    1.6043565   396900 
 2232000     1.070031   -2.6385078   -2.6385078   -1.0334654  0.091386142   -2.6385078    1.6050424   396900 
 2233000    1.0666642    -2.634333    -2.634333   -1.0343408  0.095683797    -2.634333    1.5999922   396900 
 2234000    1.0669127   -2.6349236   -2.6349236   -1.0345586  0.091214757   -2.6349236    1.6003649   396900 
 2235000    1.0666198   -2.6356912   -2.6356912   -1.0357655  0.093308741   -2.6356912    1.5999257   396900 
 2236000    1.0683547   -2.6351727   -2.6351727   -1.0326447  0.097746183   -2.6351727     1.602528   396900 
 2237000    1.0705445   -2.6357272   -2.6357272   -1.0299145  0.095366547   -2.6357272    1.6058127   396900 
 2238000    1.0695867   -2.6347024   -2.6347024   -1.0303264  0.094322073   -2.6347024     1.604376   396900 
 2239000    1.0701786   -2.6345803   -2.6345803   -1.0293164  0.098573207   -2.6345803    1.6052639   396900 
 2240000    1.0682529   -2.6330245   -2.6330245   -1.0306492  0.098031415   -2.6330245    1.6023753   396900 
 2241000    1.0696255   -2.6346239   -2.6346239   -1.0301896  0.094651608   -2.6346239    1.6044343   396900 
 2242000    1.0696022   -2.6342478   -2.6342478   -1.0298486  0.099643829   -2.6342478    1.6043992   396900 
 2243000    1.0689364   -2.6342261   -2.6342261   -1.0308256  0.091900938   -2.6342261    1.6034005   396900 
 2244000    1.0704104   -2.6364978   -2.6364978   -1.0308862  0.094841382   -2.6364978    1.6056116   396900 
 2245000    1.0687311   -2.6364227   -2.6364227   -1.0333301   0.09324199   -2.6364227    1.6030926   396900 
 2246000    1.0679186   -2.6341068   -2.6341068   -1.0322329  0.090349309   -2.6341068    1.6018739   396900 
 2247000    1.0666068   -2.6335883   -2.6335883   -1.0336822  0.091149502   -2.6335883    1.5999061   396900 
 2248000    1.0685307   -2.6349348   -2.6349348   -1.0321427  0.096623474   -2.6349348     1.602792   396900 
 2249000     1.069022   -2.6327088   -2.6327088   -1.0291797  0.098043189   -2.6327088     1.603529   396900 
 2250000    1.0691878   -2.6362904   -2.6362904   -1.0325127  0.095969401   -2.6362904    1.6037777   396900 
 2251000    1.0685468   -2.6349092   -2.6349092    -1.032093  0.093429663   -2.6349092    1.6028162   396900 
 2252000    1.0695939   -2.6338193   -2.6338193   -1.0294325  0.094327416   -2.6338193    1.6043868   396900 
 2253000    1.0668905   -2.6325494   -2.6325494   -1.0322177  0.092310899   -2.6325494    1.6003317   396900 
 2254000    1.0684444   -2.6340219   -2.6340219   -1.0313593  0.097346407   -2.6340219    1.6026626   396900 
 2255000    1.0672703   -2.6335268   -2.6335268   -1.0326255   0.09804739   -2.6335268    1.6009013   396900 
 2256000     1.068753   -2.6353992   -2.6353992   -1.0322736  0.087897232   -2.6353992    1.6031255   396900 
 2257000    1.0680867   -2.6345529   -2.6345529   -1.0324269  0.095512379   -2.6345529     1.602126   396900 
 2258000    1.0685877   -2.6359925   -2.6359925    -1.033115  0.093603352   -2.6359925    1.6028775   396900 
 2259000    1.0680809   -2.6351145   -2.6351145   -1.0329972   0.09599931   -2.6351145    1.6021173   396900 
 2260000     1.069572   -2.6365264   -2.6365264   -1.0321724  0.090571999   -2.6365264     1.604354   396900 
 2261000    1.0675471   -2.6338933   -2.6338933   -1.0325767  0.090570573   -2.6338933    1.6013166   396900 
 2262000     1.068866    -2.632345    -2.632345   -1.0290501  0.097288918    -2.632345    1.6032949   396900 
 2263000    1.0688421   -2.6340629   -2.6340629   -1.0308038  0.097821315   -2.6340629    1.6032591   396900 
 2264000    1.0689892    -2.634644    -2.634644   -1.0311643  0.093837687    -2.634644    1.6034798   396900 
 2265000    1.0696156   -2.6369825   -2.6369825   -1.0325632  0.093952763   -2.6369825    1.6044194   396900 
 2266000    1.0695375   -2.6331702   -2.6331702    -1.028868  0.095539377   -2.6331702    1.6043023   396900 
 2267000    1.0702299   -2.6349094   -2.6349094   -1.0295686  0.093602159   -2.6349094    1.6053408   396900 
 2268000     1.070994   -2.6349696   -2.6349696   -1.0284826  0.093989703   -2.6349696     1.606487   396900 
 2269000     1.071462    -2.636243    -2.636243    -1.029054  0.094068211    -2.636243     1.607189   396900 
 2270000    1.0710738   -2.6341846   -2.6341846    -1.027578   0.09347789   -2.6341846    1.6066066   396900 
 2271000    1.0693962   -2.6336104   -2.6336104   -1.0295201  0.097684548   -2.6336104    1.6040903   396900 
 2272000     1.068873    -2.635553    -2.635553   -1.0322475  0.092505679    -2.635553    1.6033055   396900 
 2273000    1.0712035   -2.6377312   -2.6377312     -1.03093  0.094879473   -2.6377312    1.6068012   396900 
 2274000     1.069734   -2.6358817   -2.6358817   -1.0312848  0.098568484   -2.6358817    1.6045969   396900 
 2275000    1.0698759   -2.6374173   -2.6374173   -1.0326076  0.095400667   -2.6374173    1.6048098   396900 
 2276000    1.0686956   -2.6351664   -2.6351664   -1.0321269  0.096563411   -2.6351664    1.6030394   396900 
 2277000    1.0693635     -2.63371     -2.63371   -1.0296689  0.097270811     -2.63371    1.6040411   396900 
 2278000     1.069731   -2.6332709   -2.6332709   -1.0286785  0.095534496   -2.6332709    1.6045924   396900 
 2279000    1.0697358   -2.6321044   -2.6321044   -1.0275048  0.094090016   -2.6321044    1.6045996   396900 
 2280000    1.0712887   -2.6349988   -2.6349988   -1.0280699  0.096004093   -2.6349988     1.606929   396900 
 2281000    1.0698084   -2.6336624   -2.6336624   -1.0289539  0.094737682   -2.6336624    1.6047086   396900 
 2282000    1.0702726   -2.6326649   -2.6326649     -1.02726  0.098782599   -2.6326649    1.6054048   396900 
 2283000    1.0719234   -2.6342647   -2.6342647   -1.0263838  0.092650195   -2.6342647     1.607881   396900 
 2284000    1.0696132   -2.6291558   -2.6291558     -1.02474  0.092718606   -2.6291558    1.6044158   396900 
 2285000    1.0719587   -2.6301398   -2.6301398   -1.0222058  0.094452297   -2.6301398     1.607934   396900 
 2286000    1.0696484   -2.6288816   -2.6288816   -1.0244129  0.096879481   -2.6288816    1.6044686   396900 
 2287000    1.0692867   -2.6271359   -2.6271359   -1.0232099  0.095850842   -2.6271359     1.603926   396900 
 2288000    1.0709304   -2.6286974   -2.6286974   -1.0223058  0.095979081   -2.6286974    1.6063916   396900 
 2289000    1.0713336   -2.6296397   -2.6296397   -1.0226434  0.095082447   -2.6296397    1.6069964   396900 
 2290000    1.0699226   -2.6281043   -2.6281043   -1.0232245  0.094359299   -2.6281043    1.6048798   396900 
 2291000    1.0690967   -2.6277635   -2.6277635   -1.0241225   0.10027826   -2.6277635    1.6036411   396900 
 2292000    1.0716851   -2.6279905   -2.6279905   -1.0204669  0.095969895   -2.6279905    1.6075236   396900 
 2293000    1.0720572   -2.6285863   -2.6285863   -1.0205046   0.09573881   -2.6285863    1.6080817   396900 
 2294000    1.0715512   -2.6276495   -2.6276495   -1.0203267   0.10078055   -2.6276495    1.6073228   396900 
 2295000    1.0711612   -2.6265944   -2.6265944   -1.0198566  0.098383336   -2.6265944    1.6067378   396900 
 2296000    1.0708083   -2.6237695   -2.6237695   -1.0175611    0.1001824   -2.6237695    1.6062084   396900 
 2297000    1.0713065   -2.6263066   -2.6263066   -1.0193509  0.094211925   -2.6263066    1.6069557   396900 
 2298000    1.0715533   -2.6256273   -2.6256273   -1.0183014  0.098254895   -2.6256273    1.6073259   396900 
 2299000    1.0709003   -2.6257549   -2.6257549   -1.0194085  0.098247432   -2.6257549    1.6063464   396900 
 2300000    1.0720495    -2.625129    -2.625129   -1.0170588  0.097541802    -2.625129    1.6080702   396900 
 2301000     1.072333   -2.6231545   -2.6231545   -1.0146591   0.10060084   -2.6231545    1.6084954   396900 
 2302000    1.0734885   -2.6233142   -2.6233142   -1.0130855  0.096650048   -2.6233142    1.6102286   396900 
 2303000    1.0721113   -2.6209055   -2.6209055   -1.0127426   0.10438321   -2.6209055    1.6081629   396900 
 2304000    1.0729305   -2.6242769   -2.6242769   -1.0148853  0.094886202   -2.6242769    1.6093916   396900 
 2305000    1.0732857   -2.6237927   -2.6237927   -1.0138682   0.10246823   -2.6237927    1.6099245   396900 
 2306000    1.0741905   -2.6263214   -2.6263214   -1.0150398  0.096340624   -2.6263214    1.6112816   396900 
 2307000    1.0701794   -2.6212637   -2.6212637   -1.0159987  0.096584394   -2.6212637    1.6052651   396900 
 2308000     1.073418   -2.6248607   -2.6248607   -1.0147377  0.096086868   -2.6248607     1.610123   396900 
 2309000    1.0715412   -2.6237266   -2.6237266   -1.0164189  0.097035755   -2.6237266    1.6073077   396900 
 2310000    1.0727049   -2.6239896   -2.6239896   -1.0149364  0.095997682   -2.6239896    1.6090532   396900 
 2311000    1.0730457   -2.6234418   -2.6234418   -1.0138773   0.09288191   -2.6234418    1.6095645   396900 
 2312000    1.0723608   -2.6235367   -2.6235367   -1.0149995  0.098393083   -2.6235367    1.6085372   396900 
 2313000    1.0703779   -2.6214025   -2.6214025   -1.0158396  0.099323225   -2.6214025    1.6055628   396900 
 2314000    1.0730194   -2.6247816   -2.6247816   -1.0152567  0.098291319   -2.6247816     1.609525   396900 
 2315000    1.0701593   -2.6207697   -2.6207697   -1.0155349  0.099244876   -2.6207697    1.6052349   396900 
 2316000    1.0718368   -2.6216297   -2.6216297   -1.0138785  0.096143906   -2.6216297    1.6077512   396900 
 2317000    1.0735861   -2.6223985   -2.6223985   -1.0120233   0.10114424   -2.6223985    1.6103751   396900 
 2318000    1.0721815   -2.6222648   -2.6222648   -1.0139966   0.09940852   -2.6222648    1.6082682   396900 
 2319000    1.0718761   -2.6208002   -2.6208002     -1.01299   0.10175165   -2.6208002    1.6078101   396900 
 2320000    1.0713295   -2.6194596   -2.6194596   -1.0124695  0.096331761   -2.6194596    1.6069902   396900 
 2321000    1.0735471   -2.6212642   -2.6212642   -1.0109477  0.096796745   -2.6212642    1.6103166   396900 
 2322000    1.0713765   -2.6201952   -2.6201952   -1.0131345  0.095263433   -2.6201952    1.6070607   396900 
 2323000    1.0720276   -2.6207427   -2.6207427   -1.0127053   0.10342762   -2.6207427    1.6080374   396900 
 2324000    1.0731929   -2.6227751   -2.6227751   -1.0129898  0.093235096   -2.6227751    1.6097853   396900 
 2325000     1.072131   -2.6208994   -2.6208994    -1.012707  0.093036661   -2.6208994    1.6081924   396900 
 2326000    1.0719772   -2.6191718   -2.6191718     -1.01121  0.099326187   -2.6191718    1.6079618   396900 
 2327000    1.0715507   -2.6182851   -2.6182851   -1.0109631  0.096401071   -2.6182851     1.607322   396900 
 2328000    1.0697442   -2.6183471   -2.6183471   -1.0137349  0.093598484   -2.6183471    1.6046122   396900 
 2329000    1.0703253   -2.6176767   -2.6176767   -1.0121929  0.097387031   -2.6176767    1.6054839   396900 
 2330000    1.0712093   -2.6173547   -2.6173547   -1.0105449  0.098989077   -2.6173547    1.6068098   396900 
 2331000    1.0714263   -2.6174027   -2.6174027   -1.0102672  0.096080589   -2.6174027    1.6071355   396900 
 2332000    1.0735224   -2.6192079   -2.6192079   -1.0089285  0.095635162   -2.6192079    1.6102795   396900 
 2333000    1.0733075   -2.6199355   -2.6199355   -1.0099784   0.10056071   -2.6199355    1.6099571   396900 
 2334000    1.0722831   -2.6193044   -2.6193044   -1.0108838  0.095208839   -2.6193044    1.6084206   396900 
 2335000    1.0713109   -2.6174073   -2.6174073    -1.010445  0.097105866   -2.6174073    1.6069623   396900 
 2336000    1.0706553   -2.6165244   -2.6165244   -1.0105455  0.096965418   -2.6165244    1.6059789   396900 
 2337000    1.0726121    -2.619777    -2.619777   -1.0108628  0.098259049    -2.619777    1.6089141   396900 
 2338000    1.0730346   -2.6195775   -2.6195775   -1.0100297  0.095630353   -2.6195775    1.6095478   396900 
 2339000    1.0722267   -2.6201376   -2.6201376   -1.0118016  0.094827406   -2.6201376    1.6083361   396900 
 2340000    1.0720055   -2.6187317   -2.6187317   -1.0107276  0.093501175   -2.6187317    1.6080041   396900 
 2341000    1.0709089    -2.616604    -2.616604   -1.0102446  0.095551411    -2.616604    1.6063594   396900 
 2342000    1.0731454   -2.6202633   -2.6202633   -1.0105492   0.10371194   -2.6202633    1.6097141   396900 
 2343000    1.0724557   -2.6194562   -2.6194562   -1.0107768  0.098738216   -2.6194562    1.6086795   396900 
 2344000    1.0710332   -2.6179989   -2.6179989   -1.0114532  0.094110072   -2.6179989    1.6065457   396900 
 2345000    1.0713879   -2.6183249   -2.6183249   -1.0112471  0.093302403   -2.6183249    1.6070779   396900 
 2346000    1.0735249   -2.6202294   -2.6202294   -1.0099461  0.098917355   -2.6202294    1.6102833   396900 
 2347000    1.0722318   -2.6174852   -2.6174852   -1.0091416   0.10527666   -2.6174852    1.6083437   396900 
 2348000    1.0724727   -2.6173477   -2.6173477   -1.0086427  0.095178386   -2.6173477     1.608705   396900 
 2349000    1.0717444   -2.6160832   -2.6160832   -1.0084706  0.099908682   -2.6160832    1.6076126   396900 
 2350000    1.0708109    -2.615753    -2.615753   -1.0095408  0.098327948    -2.615753    1.6062122   396900 
 2351000    1.0707727   -2.6162606   -2.6162606   -1.0101056  0.094914557   -2.6162606     1.606155   396900 
 2352000    1.0729189   -2.6180615   -2.6180615   -1.0086873  0.098248527   -2.6180615    1.6093743   396900 
 2353000    1.0735673   -2.6186822   -2.6186822   -1.0083353  0.097862224   -2.6186822    1.6103469   396900 
 2354000    1.0736229   -2.6181688   -2.6181688   -1.0077386  0.095211587   -2.6181688    1.6104302   396900 
 2355000    1.0755776   -2.6197665   -2.6197665   -1.0064041  0.099926408   -2.6197665    1.6133624   396900 
 2356000    1.0732304   -2.6175911   -2.6175911   -1.0077496  0.099117982   -2.6175911    1.6098415   396900 
 2357000    1.0731573   -2.6181698   -2.6181698    -1.008438  0.098506478   -2.6181698    1.6097319   396900 
 2358000    1.0749972   -2.6199698   -2.6199698   -1.0074782   0.10500161   -2.6199698    1.6124917   396900 
 2359000    1.0744032   -2.6178352   -2.6178352   -1.0062344  0.098206439   -2.6178352    1.6116008   396900 
 2360000    1.0766048   -2.6188411   -2.6188411    -1.003938   0.10034591   -2.6188411    1.6149031   396900 
 2361000    1.0756845   -2.6184635   -2.6184635   -1.0049408   0.10235506   -2.6184635    1.6135227   396900 
 2362000    1.0756062     -2.61849     -2.61849   -1.0050848   0.10422246     -2.61849    1.6134052   396900 
 2363000    1.0731996   -2.6143983   -2.6143983   -1.0046029  0.097777801   -2.6143983    1.6097954   396900 
 2364000     1.071732   -2.6150457   -2.6150457   -1.0074518  0.097955026   -2.6150457    1.6075939   396900 
 2365000    1.0720759   -2.6159856   -2.6159856   -1.0078758   0.09220055   -2.6159856    1.6081098   396900 
 2366000    1.0717331   -2.6159982   -2.6159982   -1.0084026  0.097357853   -2.6159982    1.6075956   396900 
 2367000    1.0731888   -2.6171982   -2.6171982    -1.007419   0.10064451   -2.6171982    1.6097792   396900 
 2368000    1.0745405   -2.6177956   -2.6177956   -1.0059889  0.096466966   -2.6177956    1.6118066   396900 
 2369000    1.0724806   -2.6151051   -2.6151051   -1.0063882   0.09759315   -2.6151051    1.6087169   396900 
 2370000    1.0735721   -2.6165119   -2.6165119   -1.0061578  0.095719633   -2.6165119    1.6103541   396900 
 2371000    1.0752413   -2.6169937   -2.6169937   -1.0041358   0.09458799   -2.6169937    1.6128579   396900 
 2372000    1.0749567   -2.6159079   -2.6159079    -1.003477  0.097307935   -2.6159079     1.612431   396900 
 2373000    1.0740089   -2.6138648   -2.6138648   -1.0028554  0.099982607   -2.6138648    1.6110093   396900 
 2374000    1.0721267   -2.6121045   -2.6121045   -1.0039184  0.097470476   -2.6121045    1.6081861   396900 
 2375000    1.0741538   -2.6135183   -2.6135183   -1.0022917   0.10013884   -2.6135183    1.6112266   396900 
 2376000    1.0738966   -2.6138792   -2.6138792   -1.0030383   0.10410279   -2.6138792    1.6108409   396900 
 2377000    1.0734847   -2.6121664   -2.6121664   -1.0019434  0.099466476   -2.6121664     1.610223   396900 
 2378000    1.0746547   -2.6115375   -2.6115375  -0.99955962  0.099448994   -2.6115375    1.6119779   396900 
 2379000    1.0738212   -2.6094339   -2.6094339  -0.99870616   0.10206842   -2.6094339    1.6107277   396900 
 2380000    1.0729611   -2.6076351   -2.6076351  -0.99819753  0.094246581   -2.6076351    1.6094376   396900 
 2381000    1.0740138   -2.6111512   -2.6111512   -1.0001346  0.091110766   -2.6111512    1.6110166   396900 
 2382000    1.0741931   -2.6085598   -2.6085598  -0.99727419  0.096915769   -2.6085598    1.6112856   396900 
 2383000    1.0762269   -2.6151109   -2.6151109   -1.0007746  0.096988924   -2.6151109    1.6143363   396900 
 2384000    1.0749765   -2.6122689   -2.6122689  -0.99980821  0.099041306   -2.6122689    1.6124607   396900 
 2385000    1.0744392   -2.6121926   -2.6121926   -1.0005378   0.10069217   -2.6121926    1.6116547   396900 
 2386000    1.0746241   -2.6102396   -2.6102396  -0.99830744  0.098815071   -2.6102396    1.6119321   396900 
 2387000    1.0717731   -2.6079812   -2.6079812   -1.0003256  0.094728361   -2.6079812    1.6076556   396900 
 2388000    1.0717806   -2.6062061   -2.6062061  -0.99853927  0.096554658   -2.6062061    1.6076669   396900 
 2389000    1.0746832   -2.6125002   -2.6125002   -1.0004795   0.09867841   -2.6125002    1.6120207   396900 
 2390000    1.0737142   -2.6107706   -2.6107706   -1.0002034  0.099257713   -2.6107706    1.6105672   396900 
 2391000    1.0739891   -2.6111693   -2.6111693   -1.0001896  0.098456008   -2.6111693    1.6109796   396900 
 2392000    1.0756536   -2.6134933   -2.6134933    -1.000017  0.097466307   -2.6134933    1.6134763   396900 
 2393000    1.0753918   -2.6078334   -2.6078334  -0.99474983  0.099521039   -2.6078334    1.6130836   396900 
 2394000    1.0745439   -2.6072219   -2.6072219  -0.99541007  0.094659537   -2.6072219    1.6118118   396900 
 2395000     1.075291   -2.6070792   -2.6070792  -0.99414678  0.098439484   -2.6070792    1.6129324   396900 
 2396000     1.073018   -2.6059907   -2.6059907  -0.99646774  0.095997915   -2.6059907     1.609523   396900 
 2397000    1.0749586   -2.6072676   -2.6072676  -0.99483382  0.097289601   -2.6072676    1.6124338   396900 
 2398000    1.0744586   -2.6052093   -2.6052093  -0.99352545  0.095887566   -2.6052093    1.6116838   396900 
 2399000    1.0746042   -2.6039069   -2.6039069  -0.99200461    0.1074188   -2.6039069    1.6119023   396900 
 2400000    1.0766846   -2.6090568   -2.6090568  -0.99403395  0.099589808   -2.6090568    1.6150229   396900 
 2401000    1.0747512   -2.6044595   -2.6044595  -0.99233672  0.099051623   -2.6044595    1.6121228   396900 
 2402000    1.0738905   -2.6054705   -2.6054705  -0.99463886  0.096663314   -2.6054705    1.6108316   396900 
 2403000    1.0739066   -2.6041611   -2.6041611  -0.99330521  0.096611338   -2.6041611    1.6108559   396900 
 2404000     1.072718   -2.6029952   -2.6029952  -0.99392224   0.10336877   -2.6029952     1.609073   396900 
 2405000    1.0762969   -2.6077943   -2.6077943  -0.99335297   0.09918374   -2.6077943    1.6144413   396900 
 2406000    1.0747278   -2.6036995   -2.6036995  -0.99161182   0.10134946   -2.6036995    1.6120877   396900 
 2407000    1.0749194      -2.6026      -2.6026  -0.99022507   0.10109846      -2.6026     1.612375   396900 
 2408000    1.0753488   -2.6037081   -2.6037081  -0.99068898  0.099069127   -2.6037081    1.6130192   396900 
 2409000    1.0759205   -2.6045874   -2.6045874  -0.99071075  0.099524571   -2.6045874    1.6138766   396900 
 2410000    1.0759474   -2.6017203   -2.6017203  -0.98780323    0.1020518   -2.6017203     1.613917   396900 
 2411000      1.07517   -2.6023129   -2.6023129  -0.98956194  0.096925289   -2.6023129    1.6127509   396900 
 2412000    1.0748423   -2.6021845   -2.6021845  -0.98992512  0.099729613   -2.6021845    1.6122594   396900 
 2413000    1.0745914   -2.5995998   -2.5995998  -0.98771678  0.098191679   -2.5995998     1.611883   396900 
 2414000    1.0723066   -2.5985974   -2.5985974  -0.99014152  0.097122164   -2.5985974    1.6084558   396900 
 2415000    1.0760409   -2.6018041   -2.6018041  -0.98774682   0.10355863   -2.6018041    1.6140573   396900 
 2416000    1.0763673   -2.6005831   -2.6005831  -0.98603632   0.09982184   -2.6005831    1.6145468   396900 
 2417000    1.0742099   -2.5974755   -2.5974755  -0.98616471  0.099685824   -2.5974755    1.6113108   396900 
 2418000    1.0752188   -2.5990996   -2.5990996   -0.9862755  0.098053961   -2.5990996    1.6128241   396900 
 2419000    1.0737382   -2.5973302   -2.5973302  -0.98672702  0.098589012   -2.5973302    1.6106032   396900 
 2420000    1.0737147   -2.5976483   -2.5976483  -0.98708024   0.10182246   -2.5976483     1.610568   396900 
 2421000    1.0748207    -2.596289    -2.596289    -0.984062  0.096673468    -2.596289     1.612227   396900 
 2422000    1.0749966   -2.5960196   -2.5960196  -0.98352866  0.099650023   -2.5960196    1.6124909   396900 
 2423000    1.0759442   -2.5981158   -2.5981158  -0.98420351  0.095098346   -2.5981158    1.6139123   396900 
 2424000    1.0746027   -2.5974364   -2.5974364  -0.98553642   0.10293209   -2.5974364       1.6119   396900 
 2425000    1.0751274   -2.5971822   -2.5971822  -0.98449518   0.10240323   -2.5971822     1.612687   396900 
 2426000    1.0752976    -2.597135    -2.597135  -0.98419271  0.098441965    -2.597135    1.6129423   396900 
 2427000    1.0763737   -2.5980838   -2.5980838  -0.98352728   0.10052271   -2.5980838    1.6145565   396900 
 2428000    1.0756884    -2.596238    -2.596238  -0.98270939   0.10183338    -2.596238    1.6135286   396900 
 2429000    1.0751424   -2.5947777   -2.5947777  -0.98206825  0.099872207   -2.5947777    1.6127095   396900 
 2430000     1.075486   -2.5974581   -2.5974581   -0.9842332   0.10018977   -2.5974581    1.6132249   396900 
 2431000     1.076412   -2.5972278   -2.5972278  -0.98261384   0.10109389   -2.5972278    1.6146139   396900 
 2432000    1.0761893   -2.5969083   -2.5969083   -0.9826285   0.10044988   -2.5969083    1.6142798   396900 
 2433000    1.0751228   -2.5948362   -2.5948362  -0.98215609   0.10079381   -2.5948362    1.6126802   396900 
 2434000    1.0724612     -2.59388     -2.59388  -0.98519227  0.096884803     -2.59388    1.6086878   396900 
 2435000    1.0754398   -2.5950004   -2.5950004  -0.98184477   0.10274045   -2.5950004    1.6131556   396900 
 2436000    1.0764517   -2.5980791   -2.5980791  -0.98340559  0.095860859   -2.5980791    1.6146735   396900 
 2437000    1.0748343   -2.5964698   -2.5964698  -0.98422253   0.10097881   -2.5964698    1.6122473   396900 
 2438000    1.0730506   -2.5970176   -2.5970176  -0.98744573  0.095899255   -2.5970176    1.6095719   396900 
 2439000    1.0770429   -2.5999055   -2.5999055  -0.98434518  0.099096827   -2.5999055    1.6155603   396900 
 2440000    1.0763794   -2.5964732   -2.5964732  -0.98190827   0.10134595   -2.5964732     1.614565   396900 
 2441000    1.0775568   -2.5984197   -2.5984197   -0.9820885   0.09650556   -2.5984197    1.6163312   396900 
 2442000    1.0762723   -2.5982005   -2.5982005  -0.98379612   0.10325037   -2.5982005    1.6144044   396900 
 2443000    1.0753721   -2.5979735   -2.5979735  -0.98491939  0.098861446   -2.5979735    1.6130541   396900 
 2444000    1.0746174   -2.5968886   -2.5968886  -0.98496659  0.095985844   -2.5968886     1.611922   396900 
 2445000     1.074949   -2.5954283   -2.5954283  -0.98300893  0.099614241   -2.5954283    1.6124194   396900 
 2446000    1.0754984   -2.5986416   -2.5986416  -0.98539809  0.095509142   -2.5986416    1.6132435   396900 
 2447000    1.0767325   -2.5988283   -2.5988283  -0.98373368  0.097518709   -2.5988283    1.6150947   396900 
 2448000    1.0746698   -2.5944959   -2.5944959  -0.98249518   0.10333523   -2.5944959    1.6120007   396900 
 2449000    1.0771229   -2.5971978   -2.5971978  -0.98151752   0.10272156   -2.5971978    1.6156803   396900 
 2450000    1.0775906   -2.5961351   -2.5961351   -0.9797533   0.10342646   -2.5961351    1.6163818   396900 
 2451000    1.0767779   -2.5945717   -2.5945717  -0.97940884   0.10403754   -2.5945717    1.6151628   396900 
 2452000    1.0781615   -2.5962306   -2.5962306  -0.97899238   0.10091849   -2.5962306    1.6172382   396900 
 2453000     1.077558   -2.5939901   -2.5939901  -0.97765715   0.10260834   -2.5939901    1.6163329   396900 
 2454000    1.0771579   -2.5961218   -2.5961218  -0.98038895   0.10491077   -2.5961218    1.6157328   396900 
 2455000     1.077094   -2.5951289   -2.5951289  -0.97949198   0.10101432   -2.5951289    1.6156369   396900 
 2456000    1.0770364   -2.5940881   -2.5940881  -0.97853758  0.099378993   -2.5940881    1.6155506   396900 
 2457000    1.0780838   -2.5945336   -2.5945336  -0.97741196  0.098200183   -2.5945336    1.6171216   396900 
 2458000    1.0803993   -2.5966972   -2.5966972  -0.97610227  0.098716467   -2.5966972    1.6205949   396900 
 2459000     1.078227   -2.5964151   -2.5964151  -0.97907866   0.10145599   -2.5964151    1.6173365   396900 
 2460000    1.0787001   -2.5973289   -2.5973289   -0.9792828  0.097688747   -2.5973289    1.6180461   396900 
 2461000    1.0788907   -2.5956842   -2.5956842  -0.97735219    0.1038217   -2.5956842     1.618332   396900 
 2462000    1.0774064   -2.5963595   -2.5963595  -0.98025405   0.10744598   -2.5963595    1.6161055   396900 
 2463000    1.0751985   -2.5918024   -2.5918024  -0.97900875  0.097863698   -2.5918024    1.6127937   396900 
 2464000    1.0760384   -2.5923943   -2.5923943   -0.9783407   0.10350354   -2.5923943    1.6140536   396900 
 2465000    1.0784087   -2.5944799   -2.5944799   -0.9768709   0.10213059   -2.5944799     1.617609   396900 
 2466000     1.077242   -2.5923493   -2.5923493  -0.97649036  0.098208292   -2.5923493    1.6158589   396900 
 2467000    1.0756054   -2.5916066   -2.5916066  -0.97820256   0.10122405   -2.5916066    1.6134041   396900 
 2468000    1.0756102   -2.5938362   -2.5938362  -0.98042507  0.099652703   -2.5938362    1.6134112   396900 
 2469000    1.0750315   -2.5943504   -2.5943504  -0.98180719   0.09869749   -2.5943504    1.6125432   396900 
 2470000    1.0759767   -2.5944629   -2.5944629  -0.98050195   0.10038168   -2.5944629    1.6139609   396900 
 2471000    1.0759085   -2.5928962   -2.5928962  -0.97903756  0.095550907   -2.5928962    1.6138586   396900 
 2472000    1.0760731   -2.5937401   -2.5937401   -0.9796345   0.10102625   -2.5937401    1.6141056   396900 
 2473000    1.0753403    -2.593144    -2.593144  -0.98013759  0.098100161    -2.593144    1.6130064   396900 
 2474000    1.0772131   -2.5965777   -2.5965777  -0.98076215  0.099289429   -2.5965777    1.6158155   396900 
 2475000    1.0765522   -2.5947991   -2.5947991  -0.97997477   0.10443626   -2.5947991    1.6148243   396900 
 2476000    1.0747297   -2.5903596   -2.5903596  -0.97826914   0.10003518   -2.5903596    1.6120905   396900 
 2477000    1.0773718   -2.5905603   -2.5905603   -0.9745067   0.10072468   -2.5905603    1.6160536   396900 
 2478000    1.0788741   -2.5930168   -2.5930168  -0.97470982   0.10157135   -2.5930168     1.618307   396900 
 2479000    1.0782396   -2.5917424   -2.5917424  -0.97438702   0.10411571   -2.5917424    1.6173554   396900 
 2480000    1.0776735   -2.5917302   -2.5917302  -0.97522403   0.10484564   -2.5917302    1.6165061   396900 
 2481000    1.0788557   -2.5932501   -2.5932501  -0.97497061   0.10192012   -2.5932501    1.6182795   396900 
 2482000    1.0752227   -2.5922804   -2.5922804  -0.97945034  0.099227235   -2.5922804      1.61283   396900 
 2483000    1.0763814   -2.5903595   -2.5903595  -0.97579149  0.099680518   -2.5903595     1.614568   396900 
 2484000    1.0771131   -2.5936552   -2.5936552  -0.97798963     0.102231   -2.5936552    1.6156656   396900 
 2485000    1.0751918    -2.591079    -2.591079   -0.9782954  0.099228773    -2.591079    1.6127836   396900 
 2486000    1.0744442   -2.5894188   -2.5894188  -0.97775664  0.094730662   -2.5894188    1.6116622   396900 
 2487000     1.077525   -2.5913922   -2.5913922  -0.97510866  0.097949823   -2.5913922    1.6162835   396900 
 2488000    1.0766431   -2.5917766   -2.5917766    -0.976816  0.097978426   -2.5917766    1.6149606   396900 
 2489000    1.0772675   -2.5907472   -2.5907472  -0.97485004   0.10018918   -2.5907472    1.6158971   396900 
 2490000    1.0765124   -2.5885335   -2.5885335  -0.97376904   0.10251907   -2.5885335    1.6147645   396900 
 2491000    1.0765775   -2.5898816   -2.5898816  -0.97501953   0.10017398   -2.5898816    1.6148621   396900 
 2492000    1.0772475   -2.5908605   -2.5908605   -0.9749934  0.096749109   -2.5908605    1.6158671   396900 
 2493000    1.0775036   -2.5902888   -2.5902888  -0.97403737  0.097191928   -2.5902888    1.6162514   396900 
 2494000    1.0767839   -2.5888379   -2.5888379  -0.97366615  0.099060982   -2.5888379    1.6151717   396900 
 2495000    1.0769137   -2.5887455   -2.5887455  -0.97337897   0.10005825   -2.5887455    1.6153666   396900 
 2496000    1.0787822   -2.5908454   -2.5908454  -0.97267622   0.10100204   -2.5908454    1.6181692   396900 
 2497000    1.0755878   -2.5883984   -2.5883984  -0.97502072  0.094982561   -2.5883984    1.6133777   396900 
 2498000    1.0777603   -2.5900042   -2.5900042  -0.97336787  0.097971982   -2.5900042    1.6166364   396900 
 2499000    1.0790512   -2.5915037   -2.5915037  -0.97293101   0.10309441   -2.5915037    1.6185727   396900 
 2500000    1.0775625    -2.589738    -2.589738  -0.97339825  0.098527223    -2.589738    1.6163397   396900 
 2501000    1.0779146    -2.590099    -2.590099  -0.97323123  0.099262805    -2.590099    1.6168678   396900 
 2502000    1.0770742   -2.5867516   -2.5867516  -0.97114447   0.09935188   -2.5867516    1.6156072   396900 
 2503000    1.0791299   -2.5896472   -2.5896472  -0.97095647   0.10322874   -2.5896472    1.6186908   396900 
 2504000      1.07712   -2.5879994   -2.5879994  -0.97232347  0.098915536   -2.5879994    1.6156759   396900 
 2505000    1.0795353   -2.5899183   -2.5899183  -0.97061943   0.10146152   -2.5899183    1.6192988   396900 
 2506000    1.0777163    -2.588762    -2.588762  -0.97219162    0.0954653    -2.588762    1.6165704   396900 
 2507000    1.0744904   -2.5839408   -2.5839408  -0.97220934  0.099290722   -2.5839408    1.6117315   396900 
 2508000    1.0748622   -2.5836522   -2.5836522  -0.97136298  0.098148615   -2.5836522    1.6122892   396900 
 2509000    1.0777956   -2.5858183   -2.5858183  -0.96912896   0.10017405   -2.5858183    1.6166893   396900 
 2510000    1.0784168   -2.5861562   -2.5861562  -0.96853512  0.098662775   -2.5861562    1.6176211   396900 
 2511000    1.0796805   -2.5862722   -2.5862722  -0.96675558    0.1043374   -2.5862722    1.6195166   396900 
 2512000    1.0779383   -2.5837179   -2.5837179  -0.96681449   0.10061821   -2.5837179    1.6169034   396900 
 2513000    1.0781613   -2.5830444   -2.5830444  -0.96580647  0.096461377   -2.5830444    1.6172379   396900 
 2514000    1.0782002   -2.5815151   -2.5815151  -0.96421892   0.10371483   -2.5815151    1.6172962   396900 
 2515000    1.0795197   -2.5836142   -2.5836142  -0.96433879  0.099016771   -2.5836142    1.6192754   396900 
 2516000    1.0805786    -2.581503    -2.581503  -0.96063925   0.10231909    -2.581503    1.6208638   396900 
 2517000    1.0807526   -2.5794168   -2.5794168  -0.95829197  0.097971632   -2.5794168    1.6211248   396900 
 2518000    1.0794277   -2.5771043   -2.5771043  -0.95796681   0.10177955   -2.5771043    1.6191375   396900 
 2519000    1.0791036   -2.5765295   -2.5765295  -0.95787813   0.10194473   -2.5765295    1.6186514   396900 
 2520000    1.0772167   -2.5762439   -2.5762439  -0.96042282  0.099598398   -2.5762439     1.615821   396900 
 2521000    1.0797654   -2.5793694   -2.5793694  -0.95972538   0.10123371   -2.5793694     1.619644   396900 
 2522000    1.0788641   -2.5776729   -2.5776729  -0.95938075   0.10463473   -2.5776729    1.6182921   396900 
 2523000    1.0792533   -2.5757415   -2.5757415   -0.9568656  0.097888224   -2.5757415    1.6188759   396900 
 2524000    1.0802217   -2.5788179   -2.5788179  -0.95848934   0.10104228   -2.5788179    1.6203285   396900 
 2525000    1.0792224   -2.5784234   -2.5784234  -0.95959384   0.10551847   -2.5784234    1.6188296   396900 
 2526000     1.079633   -2.5804044   -2.5804044  -0.96095891   0.10367079   -2.5804044    1.6194455   396900 
 2527000    1.0777517   -2.5791399   -2.5791399  -0.96251653   0.10364601   -2.5791399    1.6166234   396900 
 2528000    1.0775268   -2.5789782   -2.5789782  -0.96269212   0.10273798   -2.5789782    1.6162861   396900 
 2529000    1.0779634   -2.5780181   -2.5780181    -0.961077  0.096907879   -2.5780181    1.6169411   396900 
 2530000    1.0787111   -2.5806688   -2.5806688  -0.96260618  0.096411698   -2.5806688    1.6180626   396900 
 2531000    1.0786509   -2.5777707   -2.5777707  -0.95979845   0.10191956   -2.5777707    1.6179723   396900 
 2532000    1.0771021    -2.576416    -2.576416  -0.96076689  0.099258564    -2.576416    1.6156491   396900 
 2533000     1.078942   -2.5779609   -2.5779609  -0.95955199  0.099351046   -2.5779609    1.6184089   396900 
 2534000    1.0796517   -2.5788455   -2.5788455  -0.95937208  0.099270472   -2.5788455    1.6194734   396900 
 2535000    1.0795291   -2.5805518   -2.5805518  -0.96126216    0.1035733   -2.5805518    1.6192896   396900 
 2536000    1.0809808   -2.5809569   -2.5809569  -0.95948982  0.098668956   -2.5809569    1.6214671   396900 
 2537000    1.0801064   -2.5813141   -2.5813141  -0.96115855  0.099682386   -2.5813141    1.6201555   396900 
 2538000    1.0777013   -2.5796467   -2.5796467  -0.96309882  0.099285632   -2.5796467    1.6165478   396900 
 2539000    1.0789094   -2.5820327   -2.5820327  -0.96367269  0.099911748   -2.5820327      1.61836   396900 
 2540000    1.0797501   -2.5800712   -2.5800712  -0.96045017   0.10488711   -2.5800712     1.619621   396900 
 2541000     1.078644   -2.5792726   -2.5792726  -0.96131069   0.10234305   -2.5792726    1.6179619   396900 
 2542000    1.0799015    -2.582245    -2.582245   -0.9623968   0.10267097    -2.582245    1.6198482   396900 
 2543000    1.0802402   -2.5809794   -2.5809794  -0.96062324  0.098248815   -2.5809794    1.6203561   396900 
 2544000    1.0806585   -2.5836779   -2.5836779  -0.96269424   0.10215472   -2.5836779    1.6209836   396900 
 2545000    1.0792735   -2.5819709   -2.5819709  -0.96306482   0.10192857   -2.5819709    1.6189061   396900 
 2546000    1.0791602   -2.5825686   -2.5825686  -0.96383235  0.095718378   -2.5825686    1.6187362   396900 
 2547000     1.078822   -2.5821464   -2.5821464  -0.96391743  0.099728884   -2.5821464     1.618229   396900 
 2548000    1.0810706   -2.5849272   -2.5849272  -0.96332543   0.10444285   -2.5849272    1.6216018   396900 
 2549000    1.0806034    -2.586979    -2.586979  -0.96607794   0.10192545    -2.586979    1.6209011   396900 
 2550000    1.0788044   -2.5851145   -2.5851145  -0.96691197   0.10316841   -2.5851145    1.6182025   396900 
 2551000    1.0781891   -2.5840961   -2.5840961  -0.96681649   0.10142091   -2.5840961    1.6172796   396900 
 2552000    1.0787326   -2.5836685   -2.5836685  -0.96557372   0.10277785   -2.5836685    1.6180948   396900 
 2553000    1.0787771   -2.5832689   -2.5832689  -0.96510734   0.09838795   -2.5832689    1.6181616   396900 
 2554000    1.0798277    -2.583601    -2.583601  -0.96386349   0.10177589    -2.583601    1.6197375   396900 
 2555000    1.0793395   -2.5836486   -2.5836486  -0.96464344   0.10228392   -2.5836486    1.6190052   396900 
 2556000    1.0813422   -2.5847912   -2.5847912  -0.96278203   0.10148978   -2.5847912    1.6220092   396900 
 2557000    1.0785547   -2.5832162   -2.5832162  -0.96538827   0.10153626   -2.5832162    1.6178279   396900 
 2558000    1.0787174   -2.5845539   -2.5845539  -0.96648193   0.10041285   -2.5845539     1.618072   396900 
 2559000    1.0772467   -2.5819882   -2.5819882  -0.96612222  0.099541123   -2.5819882     1.615866   396900 
 2560000    1.0780651   -2.5822562   -2.5822562   -0.9651627   0.10157626   -2.5822562    1.6170935   396900 
 2561000    1.0795133   -2.5840565   -2.5840565  -0.96479066   0.10562893   -2.5840565    1.6192658   396900 
 2562000    1.0807066   -2.5830424   -2.5830424  -0.96198654   0.09992351   -2.5830424    1.6210558   396900 
 2563000    1.0801627   -2.5799085   -2.5799085  -0.95966857   0.10149908   -2.5799085    1.6202399   396900 
 2564000    1.0793404   -2.5791852   -2.5791852  -0.96017864   0.10232366   -2.5791852    1.6190065   396900 
 2565000    1.0793397   -2.5790841   -2.5790841  -0.96007874   0.10281624   -2.5790841    1.6190054   396900 
 2566000    1.0835178   -2.5818919   -2.5818919   -0.9566192   0.10159667   -2.5818919    1.6252727   396900 
 2567000    1.0806466   -2.5780803   -2.5780803  -0.95711456   0.10384104   -2.5780803    1.6209658   396900 
 2568000    1.0815684   -2.5806142   -2.5806142  -0.95826575  0.099298078   -2.5806142    1.6223484   396900 
 2569000    1.0795827   -2.5790313   -2.5790313  -0.95966123      0.10159   -2.5790313      1.61937   396900 
 2570000    1.0796137   -2.5799222   -2.5799222  -0.96050579   0.10225766   -2.5799222    1.6194164   396900 
 2571000    1.0786908   -2.5799639   -2.5799639  -0.96193168   0.10204586   -2.5799639    1.6180322   396900 
 2572000    1.0808267   -2.5806965   -2.5806965  -0.95946056    0.1038674   -2.5806965    1.6212359   396900 
 2573000    1.0806008    -2.578449    -2.578449  -0.95755191   0.10031536    -2.578449    1.6208971   396900 
 2574000    1.0816489   -2.5801978   -2.5801978  -0.95772858   0.10532942   -2.5801978    1.6224692   396900 
 2575000    1.0798964   -2.5785425   -2.5785425  -0.95870199   0.10075397   -2.5785425    1.6198405   396900 
 2576000    1.0810635   -2.5776612   -2.5776612  -0.95607009   0.10963937   -2.5776612    1.6215911   396900 
 2577000    1.0810076   -2.5766181   -2.5766181   -0.9551108   0.10503481   -2.5766181    1.6215073   396900 
 2578000    1.0806402    -2.576986    -2.576986  -0.95602989   0.10410929    -2.576986    1.6209562   396900 
 2579000    1.0797894   -2.5771951   -2.5771951   -0.9575151   0.10102995   -2.5771951      1.61968   396900 
 2580000    1.0816365   -2.5773953   -2.5773953  -0.95494462   0.10593378   -2.5773953    1.6224507   396900 
 2581000    1.0827521    -2.578008    -2.578008  -0.95388393   0.10139443    -2.578008     1.624124   396900 
 2582000    1.0811763   -2.5748358   -2.5748358  -0.95307535   0.10000269   -2.5748358    1.6217604   396900 
 2583000    1.0829612   -2.5770245   -2.5770245  -0.95258682   0.10735424   -2.5770245    1.6244377   396900 
 2584000    1.0813686   -2.5747878   -2.5747878  -0.95273904   0.10119353   -2.5747878    1.6220488   396900 
 2585000    1.0813037   -2.5761484   -2.5761484  -0.95419692   0.10278707   -2.5761484    1.6219515   396900 
 2586000    1.0843224   -2.5785951   -2.5785951  -0.95211564   0.10669325   -2.5785951    1.6264794   396900 
 2587000    1.0803066   -2.5756116   -2.5756116  -0.95515575   0.10045287   -2.5756116    1.6204559   396900 
 2588000    1.0808391   -2.5758267   -2.5758267  -0.95457215   0.10520528   -2.5758267    1.6212546   396900 
 2589000    1.0826101   -2.5783046   -2.5783046  -0.95439356   0.10178821   -2.5783046     1.623911   396900 
 2590000    1.0831614    -2.580349    -2.580349  -0.95561095   0.10423699    -2.580349     1.624738   396900 
 2591000    1.0794859   -2.5750378   -2.5750378  -0.95581295   0.10272818   -2.5750378    1.6192248   396900 
 2592000     1.080828   -2.5764394   -2.5764394  -0.95520148   0.10627176   -2.5764394    1.6212379   396900 
 2593000    1.0802397   -2.5739954   -2.5739954  -0.95364001    0.1050688   -2.5739954    1.6203554   396900 
 2594000    1.0809721   -2.5768244   -2.5768244  -0.95537042   0.10209429   -2.5768244     1.621454   396900 
 2595000    1.0809412   -2.5741055   -2.5741055  -0.95269774    0.1023936   -2.5741055    1.6214077   396900 
 2596000    1.0808404   -2.5738883   -2.5738883  -0.95263169   0.10646318   -2.5738883    1.6212566   396900 
 2597000    1.0815035   -2.5743361   -2.5743361  -0.95208495   0.10352278   -2.5743361    1.6222512   396900 
 2598000    1.0815896   -2.5736427   -2.5736427  -0.95126248   0.09797221   -2.5736427    1.6223803   396900 
 2599000    1.0821403   -2.5771613   -2.5771613  -0.95395498   0.10429659   -2.5771613    1.6232063   396900 
 2600000    1.0794185   -2.5734276   -2.5734276   -0.9543039   0.10131601   -2.5734276    1.6191236   396900 
 2601000    1.0810661   -2.5750903   -2.5750903  -0.95349531  0.099406115   -2.5750903     1.621595   396900 
 2602000    1.0783703   -2.5727309   -2.5727309  -0.95517959   0.10257182   -2.5727309    1.6175513   396900 
 2603000    1.0811625   -2.5741963   -2.5741963  -0.95245675   0.10384765   -2.5741963    1.6217396   396900 
 2604000    1.0820648   -2.5763089   -2.5763089  -0.95321569   0.10434738   -2.5763089    1.6230932   396900 
 2605000    1.0810822   -2.5710079   -2.5710079  -0.94938867   0.10772104   -2.5710079    1.6216192   396900 
 2606000    1.0795987   -2.5709019   -2.5709019  -0.95150797   0.10604982   -2.5709019    1.6193939   396900 
 2607000    1.0804748   -2.5715539   -2.5715539  -0.95084579   0.10391372   -2.5715539    1.6207081   396900 
 2608000    1.0817828   -2.5716973   -2.5716973  -0.94902718   0.10271022   -2.5716973    1.6226701   396900 
 2609000    1.0817549   -2.5707496   -2.5707496  -0.94812138  0.099830185   -2.5707496    1.6226282   396900 
 2610000    1.0820073   -2.5717808   -2.5717808  -0.94877391   0.10211935   -2.5717808    1.6230069   396900 
 2611000    1.0827877   -2.5708136   -2.5708136  -0.94663614    0.1025469   -2.5708136    1.6241775   396900 
 2612000     1.083521    -2.574478    -2.574478  -0.94920051   0.10432846    -2.574478    1.6252775   396900 
 2613000    1.0827139   -2.5724809   -2.5724809  -0.94841411   0.10515831   -2.5724809    1.6240668   396900 
 2614000    1.0833883   -2.5717122   -2.5717122  -0.94663376   0.10587344   -2.5717122    1.6250784   396900 
 2615000    1.0835251    -2.571983    -2.571983  -0.94669938   0.10404219    -2.571983    1.6252836   396900 
 2616000     1.085592    -2.572735    -2.572735  -0.94435112   0.10509678    -2.572735    1.6283839   396900 
 2617000    1.0830052   -2.5694194   -2.5694194  -0.94491577   0.10502493   -2.5694194    1.6245037   396900 
 2618000    1.0834973    -2.568603    -2.568603  -0.94336117   0.10298658    -2.568603    1.6252418   396900 
 2619000    1.0849573   -2.5684668   -2.5684668  -0.94103495   0.10489727   -2.5684668    1.6274318   396900 
 2620000     1.084435   -2.5683111   -2.5683111  -0.94166271   0.10093831   -2.5683111    1.6266484   396900 
 2621000      1.08241   -2.5658344   -2.5658344  -0.94222352   0.10991447   -2.5658344    1.6236109   396900 
 2622000    1.0824915   -2.5658222   -2.5658222  -0.94208906   0.10463361   -2.5658222    1.6237332   396900 
 2623000     1.083182   -2.5699005   -2.5699005  -0.94513154   0.10516896   -2.5699005    1.6247689   396900 
 2624000    1.0810563   -2.5668354   -2.5668354  -0.94525508   0.10301789   -2.5668354    1.6215803   396900 
 2625000    1.0828291   -2.5687543   -2.5687543  -0.94451471   0.10247083   -2.5687543    1.6242396   396900 
 2626000    1.0814133   -2.5668519   -2.5668519  -0.94473598   0.10243453   -2.5668519    1.6221159   396900 
 2627000    1.0843063   -2.5653124   -2.5653124  -0.93885701   0.10183494   -2.5653124    1.6264554   396900 
 2628000    1.0810597    -2.560967    -2.560967  -0.93938143   0.10410793    -2.560967    1.6215855   396900 
 2629000    1.0827674   -2.5643201   -2.5643201    -0.940173   0.10771806   -2.5643201    1.6241471   396900 
 2630000    1.0821203   -2.5666925   -2.5666925   -0.9435161   0.10504739   -2.5666925    1.6231763   396900 
 2631000    1.0810542   -2.5646384   -2.5646384  -0.94306121   0.10945819   -2.5646384    1.6215772   396900 
 2632000    1.0840167    -2.566831    -2.566831  -0.94080999   0.10630706    -2.566831     1.626021   396900 
 2633000    1.0850509   -2.5695529   -2.5695529  -0.94198063  0.099842574   -2.5695529    1.6275723   396900 
 2634000      1.08165   -2.5639226   -2.5639226  -0.94145162   0.10494097   -2.5639226     1.622471   396900 
 2635000    1.0843447   -2.5682748   -2.5682748  -0.94176181   0.10162721   -2.5682748    1.6265129   396900 
 2636000     1.082507   -2.5632077   -2.5632077  -0.93945126   0.10108174   -2.5632077    1.6237564   396900 
 2637000    1.0806103   -2.5629587   -2.5629587  -0.94204726   0.10888242   -2.5629587    1.6209114   396900 
 2638000    1.0832541   -2.5655481   -2.5655481  -0.94067102    0.1034175   -2.5655481    1.6248771   396900 
 2639000    1.0852185   -2.5650225   -2.5650225  -0.93719895   0.10491744   -2.5650225    1.6278236   396900 
 2640000    1.0841889   -2.5641878   -2.5641878  -0.93790859   0.10579782   -2.5641878    1.6262793   396900 
 2641000    1.0822556   -2.5635143   -2.5635143  -0.94013498   0.10281886   -2.5635143    1.6233794   396900 
 2642000    1.0847986   -2.5642389   -2.5642389   -0.9370451   0.10005652   -2.5642389    1.6271938   396900 
 2643000    1.0839189   -2.5656372   -2.5656372  -0.93976289   0.10122865   -2.5656372    1.6258743   396900 
 2644000    1.0826701   -2.5643413   -2.5643413   -0.9403402  0.099953472   -2.5643413    1.6240011   396900 
 2645000    1.0821151   -2.5652798   -2.5652798  -0.94211123     0.100491   -2.5652798    1.6231686   396900 
 2646000    1.0827277   -2.5646087   -2.5646087   -0.9405213    0.1054292   -2.5646087    1.6240874   396900 
 2647000    1.0821483   -2.5616981   -2.5616981  -0.93847972   0.10783338   -2.5616981    1.6232184   396900 
 2648000    1.0834119   -2.5636274   -2.5636274  -0.93851371   0.10515562   -2.5636274    1.6251137   396900 
 2649000     1.083802    -2.561371    -2.561371  -0.93567201   0.10361829    -2.561371     1.625699   396900 
 2650000    1.0857285   -2.5652959   -2.5652959  -0.93670723   0.10196622   -2.5652959    1.6285887   396900 
 2651000    1.0845476    -2.563102    -2.563102  -0.93628471   0.10844435    -2.563102    1.6268173   396900 
 2652000    1.0840762   -2.5631182   -2.5631182  -0.93700797   0.10440578   -2.5631182    1.6261102   396900 
 2653000    1.0814827   -2.5611822   -2.5611822  -0.93896221   0.10891591   -2.5611822    1.6222199   396900 
 2654000    1.0842942   -2.5649298   -2.5649298   -0.9384926   0.10179317   -2.5649298    1.6264372   396900 
 2655000    1.0841735   -2.5652158   -2.5652158  -0.93895955   0.10488276   -2.5652158    1.6262562   396900 
 2656000     1.084102   -2.5648793   -2.5648793  -0.93873046   0.10495671   -2.5648793    1.6261489   396900 
 2657000    1.0837866    -2.564213    -2.564213  -0.93853725   0.10138517    -2.564213    1.6256758   396900 
 2658000    1.0832834   -2.5644065   -2.5644065  -0.93948559   0.10010145   -2.5644065    1.6249209   396900 
 2659000    1.0842283   -2.5662527   -2.5662527  -0.93991433   0.10601582   -2.5662527    1.6263384   396900 
 2660000    1.0830083   -2.5654698   -2.5654698   -0.9409615   0.10239825   -2.5654698    1.6245083   396900 
 2661000    1.0836033   -2.5637125   -2.5637125  -0.93831157    0.1053032   -2.5637125    1.6254009   396900 
 2662000    1.0834791   -2.5630229   -2.5630229   -0.9378083   0.10591983   -2.5630229    1.6252146   396900 
 2663000    1.0839082    -2.564631    -2.564631  -0.93877277   0.10642745    -2.564631    1.6258582   396900 
 2664000     1.083355   -2.5628128   -2.5628128  -0.93778443    0.1027453   -2.5628128    1.6250284   396900 
 2665000    1.0832165   -2.5630774   -2.5630774  -0.93825672   0.10357187   -2.5630774    1.6248207   396900 
 2666000    1.0846042   -2.5640836   -2.5640836  -0.93718143   0.10278658   -2.5640836    1.6269022   396900 
 2667000    1.0834461   -2.5607823   -2.5607823  -0.93561727   0.10806344   -2.5607823     1.625165   396900 
 2668000    1.0841502   -2.5628769   -2.5628769  -0.93665573   0.10359003   -2.5628769    1.6262212   396900 
 2669000    1.0823255   -2.5605435   -2.5605435  -0.93705933   0.10504005   -2.5605435    1.6234841   396900 
 2670000     1.081773   -2.5599612   -2.5599612   -0.9373057   0.10355743   -2.5599612    1.6226555   396900 
 2671000    1.0838526   -2.5601345   -2.5601345  -0.93435969    0.1069288   -2.5601345    1.6257748   396900 
 2672000    1.0832187   -2.5597281   -2.5597281   -0.9349042    0.0996108   -2.5597281    1.6248239   396900 
 2673000    1.0857659    -2.563721    -2.563721  -0.93507622   0.10767667    -2.563721    1.6286448   396900 
 2674000      1.08477   -2.5599435   -2.5599435   -0.9327926   0.10473454   -2.5599435    1.6271509   396900 
 2675000    1.0874271   -2.5623793   -2.5623793  -0.93124274    0.1062594   -2.5623793    1.6311366   396900 
 2676000    1.0872431   -2.5606065   -2.5606065  -0.92974588   0.10322696   -2.5606065    1.6308606   396900 
 2677000    1.0847109   -2.5587556   -2.5587556  -0.93169324   0.10409051   -2.5587556    1.6270623   396900 
 2678000     1.085809   -2.5611196   -2.5611196  -0.93241012   0.11097773   -2.5611196    1.6287094   396900 
 2679000    1.0844381   -2.5594555   -2.5594555   -0.9328025   0.10706161   -2.5594555     1.626653   396900 
 2680000    1.0849048   -2.5623229   -2.5623229  -0.93496973   0.10874639   -2.5623229    1.6273531   396900 
 2681000    1.0845651     -2.56169     -2.56169  -0.93484643   0.10360292     -2.56169    1.6268436   396900 
 2682000    1.0839552   -2.5614639   -2.5614639  -0.93553518   0.10459529   -2.5614639    1.6259287   396900 
 2683000    1.0835347   -2.5597839   -2.5597839  -0.93448597   0.10566794   -2.5597839     1.625298   396900 
 2684000    1.0840267   -2.5581425   -2.5581425  -0.93210664   0.10886157   -2.5581425    1.6260359   396900 
 2685000    1.0852849   -2.5582351   -2.5582351  -0.93031192   0.10548002   -2.5582351    1.6279232   396900 
 2686000    1.0855052   -2.5593129   -2.5593129  -0.93105912    0.1003756   -2.5593129    1.6282537   396900 
 2687000    1.0832381   -2.5587889   -2.5587889  -0.93393595   0.10621345   -2.5587889     1.624853   396900 
 2688000    1.0862917   -2.5617761   -2.5617761  -0.93234262   0.10841633   -2.5617761    1.6294334   396900 
 2689000    1.0847274   -2.5588749   -2.5588749  -0.93178787   0.10122109   -2.5588749     1.627087   396900 
 2690000    1.0867814   -2.5585851   -2.5585851  -0.92841704   0.10746041   -2.5585851     1.630168   396900 
 2691000     1.084819   -2.5592256   -2.5592256  -0.93200125   0.10634365   -2.5592256    1.6272244   396900 
 2692000    1.0861657   -2.5597405   -2.5597405  -0.93049602    0.1022857   -2.5597405    1.6292445   396900 
 2693000     1.085053   -2.5595891   -2.5595891  -0.93201362   0.10389373   -2.5595891    1.6275754   396900 
 2694000    1.0859645   -2.5589519   -2.5589519  -0.93000935   0.10600114   -2.5589519    1.6289426   396900 
 2695000    1.0870832   -2.5590283   -2.5590283  -0.92840761   0.11309793   -2.5590283    1.6306207   396900 
 2696000    1.0873872   -2.5607634   -2.5607634  -0.92968669    0.1045719   -2.5607634    1.6310767   396900 
 2697000    1.0861085   -2.5577146   -2.5577146  -0.92855592   0.10293773   -2.5577146    1.6291587   396900 
 2698000    1.0862013    -2.559174    -2.559174  -0.92987609   0.10489561    -2.559174    1.6292979   396900 
 2699000    1.0855037   -2.5585455   -2.5585455  -0.93029401   0.10125687   -2.5585455    1.6282515   396900 
 2700000    1.0854889   -2.5588176   -2.5588176  -0.93058839   0.10568574   -2.5588176    1.6282292   396900 
 2701000    1.0823603   -2.5545788   -2.5545788  -0.93104237   0.10439585   -2.5545788    1.6235364   396900 
 2702000    1.0849925   -2.5563604   -2.5563604  -0.92887573   0.10714492   -2.5563604    1.6274847   396900 
 2703000    1.0856793   -2.5556688   -2.5556688  -0.92715398   0.10573651   -2.5556688    1.6285149   396900 
 2704000     1.085095   -2.5558279   -2.5558279  -0.92818957   0.10731346   -2.5558279    1.6276384   396900 
 2705000    1.0867412   -2.5581332   -2.5581332  -0.92802542   0.10758711   -2.5581332    1.6301078   396900 
 2706000    1.0859091   -2.5560516   -2.5560516  -0.92719202   0.10273706   -2.5560516    1.6288596   396900 
 2707000     1.084244   -2.5575096   -2.5575096   -0.9311477   0.10105403   -2.5575096    1.6263619   396900 
 2708000    1.0840436   -2.5571852   -2.5571852  -0.93112394   0.10577883   -2.5571852    1.6260613   396900 
 2709000    1.0863751   -2.5588854   -2.5588854   -0.9293268   0.10924649   -2.5588854    1.6295586   396900 
 2710000    1.0845219   -2.5561464   -2.5561464  -0.92936765   0.11037056   -2.5561464    1.6267788   396900 
 2711000     1.085682   -2.5586279   -2.5586279  -0.93010907   0.10485737   -2.5586279    1.6285188   396900 
 2712000    1.0860832   -2.5575285   -2.5575285  -0.92840792    0.1099111   -2.5575285    1.6291206   396900 
 2713000    1.0878168    -2.559063    -2.559063  -0.92734203   0.10644299    -2.559063     1.631721   396900 
 2714000    1.0852537   -2.5568483   -2.5568483  -0.92897195   0.10478413   -2.5568483    1.6278764   396900 
 2715000    1.0827323   -2.5539967   -2.5539967  -0.92990236   0.10400425   -2.5539967    1.6240943   396900 
 2716000    1.0829063   -2.5535988   -2.5535988   -0.9292434   0.10207689   -2.5535988    1.6243554   396900 
 2717000    1.0852444   -2.5555422   -2.5555422  -0.92767964    0.1011852   -2.5555422    1.6278626   396900 
 2718000    1.0851241   -2.5543119   -2.5543119  -0.92662989   0.10561149   -2.5543119    1.6276821   396900 
 2719000    1.0854786   -2.5554384   -2.5554384  -0.92722456   0.10346108   -2.5554384    1.6282139   396900 
 2720000    1.0818174   -2.5511001   -2.5511001   -0.9283782   0.10774221   -2.5511001    1.6227219   396900 
 2721000    1.0861798   -2.5536738   -2.5536738   -0.9244082   0.10718999   -2.5536738    1.6292656   396900 
 2722000    1.0855248   -2.5535619   -2.5535619   -0.9252788    0.1063756   -2.5535619    1.6282831   396900 
 2723000    1.0861685    -2.554213    -2.554213  -0.92496438   0.10240486    -2.554213    1.6292487   396900 
 2724000    1.0871195   -2.5546259   -2.5546259  -0.92395082   0.10512685   -2.5546259    1.6306751   396900 
 2725000    1.0868561   -2.5551996   -2.5551996  -0.92491962    0.1028682   -2.5551996      1.63028   396900 
 2726000    1.0859348   -2.5544635   -2.5544635  -0.92556533   0.10609946   -2.5544635    1.6288981   396900 
 2727000    1.0871722   -2.5537698   -2.5537698  -0.92301568   0.10545803   -2.5537698    1.6307542   396900 
 2728000    1.0872755    -2.553889    -2.553889  -0.92297982   0.10628442    -2.553889    1.6309092   396900 
 2729000    1.0885832   -2.5565493   -2.5565493  -0.92367865    0.1095864   -2.5565493    1.6328706   396900 
 2730000    1.0862743    -2.553556    -2.553556   -0.9241487   0.10928006    -2.553556    1.6294073   396900 
 2731000    1.0868998   -2.5549718   -2.5549718  -0.92462612   0.10644635   -2.5549718    1.6303457   396900 
 2732000    1.0854798   -2.5519473   -2.5519473  -0.92373167   0.10948016   -2.5519473    1.6282156   396900 
 2733000    1.0864907   -2.5550642   -2.5550642  -0.92533229   0.10678056   -2.5550642    1.6297319   396900 
 2734000    1.0856811   -2.5541056   -2.5541056  -0.92558809   0.11158948   -2.5541056    1.6285175   396900 
 2735000    1.0864654   -2.5555487   -2.5555487  -0.92585463   0.10342003   -2.5555487     1.629694   396900 
 2736000    1.0838257   -2.5528915   -2.5528915  -0.92715706   0.10761996   -2.5528915    1.6257345   396900 
 2737000    1.0851925   -2.5517375   -2.5517375  -0.92395289   0.10603987   -2.5517375    1.6277846   396900 
 2738000    1.0871891   -2.5528448   -2.5528448  -0.92206526   0.10403975   -2.5528448    1.6307795   396900 
 2739000    1.0889757   -2.5545289   -2.5545289  -0.92106936   0.10899217   -2.5545289    1.6334595   396900 
 2740000    1.0862105   -2.5513618   -2.5513618  -0.92205023   0.10146972   -2.5513618    1.6293116   396900 
 2741000     1.085338   -2.5496213   -2.5496213  -0.92161831   0.10684713   -2.5496213    1.6280029   396900 
 2742000    1.0870155   -2.5515518   -2.5515518  -0.92103269   0.10897936   -2.5515518    1.6305191   396900 
 2743000    1.0859755   -2.5514172   -2.5514172  -0.92245805    0.1053003   -2.5514172    1.6289591   396900 
 2744000    1.0857445    -2.553175    -2.553175  -0.92456234   0.10645996    -2.553175    1.6286126   396900 
 2745000    1.0856727   -2.5522816   -2.5522816  -0.92377661    0.1024339   -2.5522816     1.628505   396900 
 2746000    1.0859228   -2.5511069   -2.5511069  -0.92222687   0.10853657   -2.5511069      1.62888   396900 
 2747000    1.0862573   -2.5523196   -2.5523196  -0.92293774   0.10370961   -2.5523196    1.6293818   396900 
 2748000    1.0863966   -2.5497894   -2.5497894  -0.92019865    0.1137626   -2.5497894    1.6295908   396900 
 2749000     1.086283   -2.5476113   -2.5476113  -0.91819098   0.10393863   -2.5476113    1.6294203   396900 
 2750000    1.0876557    -2.547686    -2.547686  -0.91620653   0.10916213    -2.547686    1.6314795   396900 
 2751000    1.0858789   -2.5503046   -2.5503046  -0.92149045   0.10627513   -2.5503046    1.6288142   396900 
 2752000    1.0873314   -2.5500997   -2.5500997  -0.91910672   0.10281337   -2.5500997     1.630993   396900 
 2753000    1.0876874   -2.5492221   -2.5492221   -0.9176951   0.10637508   -2.5492221     1.631527   396900 
 2754000    1.0858942   -2.5442271   -2.5442271  -0.91538992    0.1089175   -2.5442271    1.6288372   396900 
 2755000    1.0864114   -2.5471948   -2.5471948  -0.91758187   0.10874676   -2.5471948     1.629613   396900 
 2756000    1.0860877   -2.5465002   -2.5465002  -0.91737278    0.1105608   -2.5465002    1.6291274   396900 
 2757000    1.0866148   -2.5479409   -2.5479409  -0.91802283   0.10676908   -2.5479409    1.6299181   396900 
 2758000    1.0874665   -2.5484085   -2.5484085  -0.91721295   0.10691154   -2.5484085    1.6311956   396900 
 2759000    1.0859692   -2.5496598   -2.5496598  -0.92071004   0.10540476   -2.5496598    1.6289498   396900 
 2760000     1.088941   -2.5517669   -2.5517669  -0.91835961   0.10628595   -2.5517669    1.6334073   396900 
 2761000     1.086686   -2.5507081   -2.5507081  -0.92068321   0.10501431   -2.5507081    1.6300249   396900 
 2762000    1.0869964   -2.5523725   -2.5523725  -0.92188204   0.10489946   -2.5523725    1.6304904   396900 
 2763000    1.0860957   -2.5494292   -2.5494292   -0.9202898   0.10801818   -2.5494292    1.6291394   396900 
 2764000    1.0858289   -2.5475888   -2.5475888  -0.91884962   0.10517214   -2.5475888    1.6287392   396900 
 2765000    1.0898061   -2.5535481   -2.5535481  -0.91884304   0.10825701   -2.5535481    1.6347051   396900 
 2766000    1.0868805   -2.5484753   -2.5484753   -0.9181586   0.10464417   -2.5484753    1.6303167   396900 
 2767000    1.0870278   -2.5487738   -2.5487738  -0.91823622    0.1042355   -2.5487738    1.6305376   396900 
 2768000    1.0874426   -2.5471588   -2.5471588  -0.91599898   0.10549545   -2.5471588    1.6311598   396900 
 2769000    1.0883606   -2.5477883   -2.5477883  -0.91525141   0.10946801   -2.5477883    1.6325368   396900 
 2770000    1.0872934   -2.5484596   -2.5484596  -0.91752363   0.10507979   -2.5484596     1.630936   396900 
 2771000    1.0875588   -2.5509544   -2.5509544  -0.91962035   0.10872116   -2.5509544    1.6313341   396900 
 2772000    1.0854323   -2.5516819   -2.5516819  -0.92353758   0.10258928   -2.5516819    1.6281444   396900 
 2773000    1.0873837   -2.5522152   -2.5522152   -0.9211437   0.10457157   -2.5522152    1.6310715   396900 
 2774000     1.088319    -2.550942    -2.550942  -0.91846761    0.1053913    -2.550942    1.6324744   396900 
 2775000    1.0873036   -2.5513372   -2.5513372  -0.92038593   0.10837948   -2.5513372    1.6309513   396900 
 2776000    1.0868737   -2.5503347   -2.5503347  -0.92002825   0.10945039   -2.5503347    1.6303064   396900 
 2777000    1.0867419   -2.5472327   -2.5472327  -0.91712388   0.10757852   -2.5472327    1.6301088   396900 
 2778000    1.0887689   -2.5492517   -2.5492517  -0.91610245   0.11067567   -2.5492517    1.6331493   396900 
 2779000    1.0879122   -2.5507135   -2.5507135  -0.91884921   0.10586619   -2.5507135    1.6318643   396900 
 2780000     1.084905   -2.5482242   -2.5482242  -0.92087088   0.10579157   -2.5482242    1.6273533   396900 
 2781000    1.0866986    -2.548671    -2.548671  -0.91862715   0.10959237    -2.548671    1.6300438   396900 
 2782000    1.0883308   -2.5495836   -2.5495836  -0.91709154    0.1119657   -2.5495836    1.6324921   396900 
 2783000    1.0866019   -2.5492262   -2.5492262  -0.91932754   0.10576462   -2.5492262    1.6298987   396900 
 2784000    1.0858942   -2.5485516   -2.5485516   -0.9197143   0.10342358   -2.5485516    1.6288373   396900 
 2785000    1.0887979   -2.5507046   -2.5507046  -0.91751185    0.1060385   -2.5507046    1.6331928   396900 
 2786000    1.0898701    -2.551683    -2.551683  -0.91688191   0.10432214    -2.551683    1.6348011   396900 
 2787000    1.0890176   -2.5504139   -2.5504139  -0.91689159   0.10531751   -2.5504139    1.6335223   396900 
 2788000     1.087992   -2.5482329   -2.5482329  -0.91624906   0.10806625   -2.5482329    1.6319838   396900 
 2789000     1.088575   -2.5468568   -2.5468568  -0.91399848   0.11197191   -2.5468568    1.6328583   396900 
 2790000    1.0891591   -2.5484516   -2.5484516  -0.91471712   0.10479913   -2.5484516    1.6337345   396900 
 2791000    1.0884804   -2.5485474   -2.5485474  -0.91583096   0.11037254   -2.5485474    1.6327164   396900 
 2792000    1.0885487   -2.5483679   -2.5483679  -0.91554903   0.11068839   -2.5483679    1.6328189   396900 
 2793000    1.0892562   -2.5477743   -2.5477743  -0.91389409   0.10430038   -2.5477743    1.6338803   396900 
 2794000    1.0893827   -2.5478371   -2.5478371  -0.91376723   0.10346812   -2.5478371    1.6340699   396900 
 2795000    1.0884325   -2.5459779   -2.5459779   -0.9133333   0.11157358   -2.5459779    1.6326446   396900 
 2796000    1.0893354   -2.5469397   -2.5469397  -0.91294066   0.10620203   -2.5469397     1.633999   396900 
 2797000    1.0873558   -2.5428618   -2.5428618  -0.91183216    0.1073526   -2.5428618    1.6310296   396900 
 2798000    1.0877782    -2.543781    -2.543781  -0.91211786   0.10528914    -2.543781    1.6316632   396900 
 2799000    1.0865699   -2.5408647   -2.5408647  -0.91101397   0.10805325   -2.5408647    1.6298507   396900 
 2800000    1.0887567   -2.5441169   -2.5441169  -0.91098597   0.11231586   -2.5441169    1.6331309   396900 
 2801000    1.0901232   -2.5421214   -2.5421214  -0.90694073   0.10900917   -2.5421214    1.6351806   396900 
 2802000    1.0885081   -2.5413815   -2.5413815  -0.90862346    0.1054652   -2.5413815     1.632758   396900 
 2803000    1.0904757   -2.5433571   -2.5433571  -0.90764778   0.11577362   -2.5433571    1.6357094   396900 
 2804000    1.0877051   -2.5411989   -2.5411989  -0.90964538   0.11393019   -2.5411989    1.6315535   396900 
 2805000    1.0880653   -2.5424075   -2.5424075  -0.91031369    0.1045606   -2.5424075    1.6320938   396900 
 2806000    1.0874631   -2.5412784   -2.5412784  -0.91008785   0.10301536   -2.5412784    1.6311906   396900 
 2807000    1.0875342   -2.5406225   -2.5406225   -0.9093252   0.10343115   -2.5406225    1.6312973   396900 
 2808000    1.0872215   -2.5389509   -2.5389509  -0.90812269   0.10466432   -2.5389509    1.6308282   396900 
 2809000    1.0919355   -2.5444989   -2.5444989  -0.90659968   0.10611418   -2.5444989    1.6378992   396900 
 2810000    1.0890892   -2.5397012   -2.5397012  -0.90607151   0.10648938   -2.5397012    1.6336297   396900 
 2811000    1.0897439   -2.5412288   -2.5412288  -0.90661711   0.11145652   -2.5412288    1.6346117   396900 
 2812000     1.089709   -2.5426144   -2.5426144  -0.90805512   0.10632634   -2.5426144    1.6345593   396900 
 2813000    1.0875665   -2.5389351   -2.5389351   -0.9075895   0.10554785   -2.5389351    1.6313456   396900 
 2814000    1.0880192   -2.5401741   -2.5401741  -0.90814942   0.10869442   -2.5401741    1.6320247   396900 
 2815000    1.0903705   -2.5414885   -2.5414885  -0.90593694   0.10984102   -2.5414885    1.6355516   396900 
 2816000    1.0905533   -2.5396938   -2.5396938  -0.90386803   0.10504128   -2.5396938    1.6358258   396900 
 2817000    1.0911348   -2.5392114   -2.5392114   -0.9025134   0.11082092   -2.5392114     1.636698   396900 
 2818000    1.0908733   -2.5381815   -2.5381815  -0.90187566   0.10696126   -2.5381815    1.6363058   396900 
 2819000    1.0917392   -2.5403504   -2.5403504  -0.90274574   0.10397155   -2.5403504    1.6376047   396900 
 2820000    1.0891156   -2.5357865   -2.5357865  -0.90211712   0.10703161   -2.5357865    1.6336693   396900 
 2821000    1.0900705   -2.5385649   -2.5385649  -0.90346322   0.10313947   -2.5385649    1.6351016   396900 
 2822000    1.0907519   -2.5402276   -2.5402276  -0.90410393   0.10682383   -2.5402276    1.6361237   396900 
 2823000    1.0919452   -2.5397449   -2.5397449  -0.90183128   0.11340985   -2.5397449    1.6379136   396900 
 2824000    1.0907638   -2.5374393   -2.5374393  -0.90129777    0.1122361   -2.5374393    1.6361415   396900 
 2825000    1.0898205   -2.5368501   -2.5368501  -0.90212348   0.10678783   -2.5368501    1.6347266   396900 
 2826000     1.091127   -2.5380675   -2.5380675  -0.90138113    0.1092798   -2.5380675    1.6366864   396900 
 2827000    1.0894745   -2.5377636   -2.5377636  -0.90355595   0.11142357   -2.5377636    1.6342077   396900 
 2828000    1.0909542   -2.5403634   -2.5403634  -0.90393624   0.10780752   -2.5403634    1.6364272   396900 
 2829000    1.0898531   -2.5403362   -2.5403362  -0.90556057   0.10903208   -2.5403362    1.6347756   396900 
 2830000    1.0913064   -2.5407087   -2.5407087  -0.90375332   0.11255816   -2.5407087    1.6369554   396900 
 2831000    1.0896602   -2.5383651   -2.5383651  -0.90387892   0.10884061   -2.5383651    1.6344862   396900 
 2832000    1.0907142   -2.5411873   -2.5411873   -0.9051202   0.10955996   -2.5411873    1.6360671   396900 
 2833000    1.0904011   -2.5383125   -2.5383125  -0.90271502    0.1101323   -2.5383125    1.6355975   396900 
 2834000    1.0894459   -2.5392027   -2.5392027  -0.90503803   0.10673967   -2.5392027    1.6341647   396900 
 2835000    1.0910556   -2.5411997   -2.5411997  -0.90462041   0.10319901   -2.5411997    1.6365793   396900 
 2836000    1.0893737   -2.5411828   -2.5411828   -0.9071264    0.1074545   -2.5411828    1.6340564   396900 
 2837000    1.0900912   -2.5429028   -2.5429028  -0.90777022   0.10937383   -2.5429028    1.6351326   396900 
 2838000    1.0900946   -2.5419824   -2.5419824  -0.90684459   0.10961222   -2.5419824    1.6351378   396900 
 2839000    1.0899144   -2.5410412   -2.5410412  -0.90617374   0.10776899   -2.5410412    1.6348675   396900 
 2840000    1.0904623   -2.5432189   -2.5432189  -0.90752954   0.10971467   -2.5432189    1.6356894   396900 
 2841000    1.0886716   -2.5437672   -2.5437672  -0.91076388   0.10849645   -2.5437672    1.6330033   396900 
 2842000    1.0890067   -2.5424111   -2.5424111  -0.90890518   0.11124056   -2.5424111     1.633506   396900 
 2843000    1.0923872   -2.5450872   -2.5450872  -0.90651057   0.11167137   -2.5450872    1.6385766   396900 
 2844000    1.0900425   -2.5423158   -2.5423158  -0.90725621   0.11064428   -2.5423158    1.6350596   396900 
 2845000    1.0903766    -2.540788    -2.540788  -0.90522725   0.11448179    -2.540788    1.6355608   396900 
 2846000    1.0911624   -2.5425806   -2.5425806  -0.90584114   0.11093188   -2.5425806    1.6367394   396900 
 2847000    1.0904947   -2.5407882   -2.5407882   -0.9050503   0.11172542   -2.5407882    1.6357379   396900 
 2848000    1.0908411   -2.5427421   -2.5427421  -0.90648461   0.10968494   -2.5427421    1.6362575   396900 
 2849000    1.0928228   -2.5441555   -2.5441555  -0.90492549   0.10971956   -2.5441555      1.63923   396900 
 2850000    1.0899611    -2.540322    -2.540322  -0.90538451   0.11223845    -2.540322    1.6349375   396900 
 2851000    1.0900171   -2.5407472   -2.5407472  -0.90572567   0.10721889   -2.5407472    1.6350215   396900 
 2852000    1.0906456   -2.5408062   -2.5408062  -0.90484201   0.11222922   -2.5408062    1.6359642   396900 
 2853000    1.0917758   -2.5400829   -2.5400829  -0.90242334   0.11139503   -2.5400829    1.6376596   396900 
 2854000     1.090433   -2.5416872   -2.5416872   -0.9060419   0.10940435   -2.5416872    1.6356453   396900 
 2855000    1.0912448   -2.5422555   -2.5422555  -0.90539241   0.11077727   -2.5422555    1.6368631   396900 
 2856000    1.0914728   -2.5408808   -2.5408808  -0.90367572   0.10916058   -2.5408808     1.637205   396900 
 2857000     1.091206   -2.5403288   -2.5403288   -0.9035239    0.1152915   -2.5403288    1.6368049   396900 
 2858000    1.0905147   -2.5399994   -2.5399994  -0.90423151   0.10911629   -2.5399994    1.6357679   396900 
 2859000    1.0903139   -2.5387862   -2.5387862  -0.90331951   0.10703465   -2.5387862    1.6354667   396900 
 2860000    1.0894554   -2.5377722   -2.5377722  -0.90359317   0.10963279   -2.5377722     1.634179   396900 
 2861000     1.089391   -2.5378807   -2.5378807  -0.90379839   0.10795755   -2.5378807    1.6340823   396900 
 2862000    1.0914069   -2.5409971   -2.5409971  -0.90389089   0.10604849   -2.5409971    1.6371062   396900 
 2863000    1.0927067   -2.5415647   -2.5415647  -0.90250875   0.10717071   -2.5415647     1.639056   396900 
 2864000    1.0897761   -2.5379589   -2.5379589   -0.9032988   0.10509719   -2.5379589    1.6346601   396900 
 2865000    1.0916045      -2.5379      -2.5379  -0.90049741   0.11177576      -2.5379    1.6374026   396900 
 2866000    1.0908123   -2.5355933   -2.5355933  -0.89937898    0.1137042   -2.5355933    1.6362143   396900 
 2867000    1.0908959   -2.5362551   -2.5362551  -0.89991541   0.11048877   -2.5362551    1.6363397   396900 
 2868000    1.0889254    -2.533713    -2.533713  -0.90032906   0.10837403    -2.533713     1.633384   396900 
 2869000    1.0908204   -2.5380041   -2.5380041  -0.90177758   0.11133968   -2.5380041    1.6362265   396900 
 2870000    1.0890878    -2.536496    -2.536496  -0.90286839   0.10580287    -2.536496    1.6336276   396900 
 2871000    1.0916773   -2.5395256   -2.5395256  -0.90201373   0.10889474   -2.5395256    1.6375119   396900 
 2872000    1.0939174   -2.5385044   -2.5385044  -0.89763239   0.11419923   -2.5385044     1.640872   396900 
 2873000    1.0938691   -2.5405528   -2.5405528  -0.89975327    0.1094383   -2.5405528    1.6407996   396900 
 2874000    1.0913733    -2.538425    -2.538425  -0.90136926   0.11374004    -2.538425    1.6370558   396900 
 2875000    1.0927784   -2.5377442   -2.5377442  -0.89858077    0.1089483   -2.5377442    1.6391635   396900 
 2876000    1.0925093   -2.5361866   -2.5361866  -0.89742682   0.11180801   -2.5361866    1.6387598   396900 
 2877000    1.0934518   -2.5382677   -2.5382677  -0.89809421     0.107078   -2.5382677    1.6401735   396900 
 2878000     1.091528   -2.5353408   -2.5353408  -0.89805294   0.11124718   -2.5353408    1.6372878   396900 
 2879000    1.0912572   -2.5357575   -2.5357575  -0.89887582   0.11343807   -2.5357575    1.6368817   396900 
 2880000    1.0890875   -2.5320725   -2.5320725  -0.89844539   0.11142392   -2.5320725    1.6336271   396900 
 2881000    1.0902142   -2.5328784   -2.5328784  -0.89756127   0.10638976   -2.5328784    1.6353171   396900 
 2882000    1.0912641   -2.5324563   -2.5324563  -0.89556432   0.11137684   -2.5324563     1.636892   396900 
 2883000    1.0936111    -2.534291    -2.534291  -0.89387847   0.11194369    -2.534291    1.6404125   396900 
 2884000    1.0919636   -2.5317092   -2.5317092  -0.89376799   0.11123814   -2.5317092    1.6379413   396900 
 2885000    1.0931635   -2.5324479   -2.5324479  -0.89270667   0.11035286   -2.5324479    1.6397412   396900 
 2886000    1.0947092   -2.5344307   -2.5344307  -0.89237099   0.11347467   -2.5344307    1.6420597   396900 
 2887000    1.0933592   -2.5344301   -2.5344301  -0.89439546   0.11368386   -2.5344301    1.6400347   396900 
 2888000     1.093587   -2.5348352   -2.5348352  -0.89445887    0.1167649   -2.5348352    1.6403763   396900 
 2889000    1.0927107   -2.5342738   -2.5342738  -0.89521183   0.11338645   -2.5342738     1.639062   396900 
 2890000    1.0938615   -2.5329856   -2.5329856  -0.89219749   0.11131914   -2.5329856    1.6407881   396900 
 2891000    1.0943531   -2.5349879   -2.5349879  -0.89346242   0.11253262   -2.5349879    1.6415255   396900 
 2892000    1.0951369   -2.5339972   -2.5339972  -0.89129596   0.11109509   -2.5339972    1.6427013   396900 
 2893000    1.0941608   -2.5328461   -2.5328461  -0.89160903   0.11058911   -2.5328461    1.6412371   396900 
 2894000    1.0929267   -2.5307428   -2.5307428  -0.89135689   0.11336476   -2.5307428    1.6393859   396900 
 2895000    1.0941382    -2.533091    -2.533091  -0.89188781   0.11115677    -2.533091    1.6412032   396900 
 2896000    1.0922825   -2.5314298   -2.5314298  -0.89301013   0.11284693   -2.5314298    1.6384196   396900 
 2897000    1.0943613   -2.5327237   -2.5327237   -0.8911859   0.11158569   -2.5327237    1.6415378   396900 
 2898000    1.0930697    -2.532554    -2.532554  -0.89295359    0.1076851    -2.532554    1.6396004   396900 
 2899000    1.0924812   -2.5324717   -2.5324717  -0.89375402   0.10653779   -2.5324717    1.6387177   396900 
 2900000    1.0924577    -2.532626    -2.532626  -0.89394364   0.11078832    -2.532626    1.6386824   396900 
 2901000    1.0928669   -2.5317126   -2.5317126  -0.89241637   0.11123119   -2.5317126    1.6392962   396900 
 2902000    1.0915585   -2.5319824   -2.5319824  -0.89464871   0.11342351   -2.5319824    1.6373337   396900 
 2903000     1.092143     -2.53422     -2.53422  -0.89600962   0.10735063     -2.53422    1.6382103   396900 
 2904000    1.0912353   -2.5309379   -2.5309379  -0.89408911   0.11063624   -2.5309379    1.6368488   396900 
 2905000    1.0924633   -2.5325156   -2.5325156  -0.89382479   0.11265754   -2.5325156    1.6386908   396900 
 2906000    1.0937466   -2.5360022   -2.5360022  -0.89538648   0.10723426   -2.5360022    1.6406157   396900 
 2907000    1.0914595   -2.5333096   -2.5333096  -0.89612453   0.10655338   -2.5333096    1.6371851   396900 
 2908000    1.0917725   -2.5325079   -2.5325079  -0.89485328   0.10737957   -2.5325079    1.6376546   396900 
 2909000    1.0913003   -2.5322855   -2.5322855  -0.89533919   0.10995639   -2.5322855    1.6369463   396900 
 2910000    1.0909725   -2.5309193   -2.5309193  -0.89446463   0.11221549   -2.5309193    1.6364547   396900 
 2911000    1.0943507   -2.5353733   -2.5353733  -0.89385145    0.1133764   -2.5353733    1.6415219   396900 
 2912000    1.0933271   -2.5337519   -2.5337519  -0.89376543   0.11389798   -2.5337519    1.6399865   396900 
 2913000    1.0943747   -2.5329423   -2.5329423  -0.89138442   0.11135395   -2.5329423    1.6415579   396900 
 2914000    1.0948556   -2.5327065   -2.5327065  -0.89042721   0.11079377   -2.5327065    1.6422792   396900 
 2915000     1.094351   -2.5334792   -2.5334792  -0.89195683   0.11525185   -2.5334792    1.6415224   396900 
 2916000    1.0932617   -2.5319398   -2.5319398  -0.89205145   0.10892042   -2.5319398    1.6398884   396900 
 2917000    1.0933863   -2.5319451   -2.5319451  -0.89186977   0.10499082   -2.5319451    1.6400754   396900 
 2918000    1.0920615   -2.5300468   -2.5300468  -0.89195862   0.10799537   -2.5300468    1.6380882   396900 
 2919000    1.0934124   -2.5320663   -2.5320663  -0.89195188     0.111119   -2.5320663    1.6401144   396900 
 2920000    1.0957639   -2.5339009   -2.5339009  -0.89025915   0.11712332   -2.5339009    1.6436417   396900 
 2921000    1.0946649   -2.5319527   -2.5319527  -0.88995954   0.11371478   -2.5319527    1.6419932   396900 
 2922000    1.0933399   -2.5303378   -2.5303378  -0.89033208   0.11262394   -2.5303378    1.6400057   396900 
 2923000    1.0930415   -2.5298832   -2.5298832  -0.89032518   0.10859872   -2.5298832     1.639558   396900 
 2924000    1.0903303   -2.5278446   -2.5278446  -0.89235329   0.11263289   -2.5278446    1.6354913   396900 
 2925000     1.091564   -2.5315002   -2.5315002  -0.89415831   0.10883871   -2.5315002    1.6373419   396900 
 2926000    1.0935404   -2.5324643   -2.5324643  -0.89215774   0.10993575   -2.5324643    1.6403065   396900 
 2927000    1.0943748   -2.5338533   -2.5338533  -0.89229524   0.11053603   -2.5338533    1.6415581   396900 
 2928000    1.0912694   -2.5305822   -2.5305822  -0.89368214   0.11301594   -2.5305822       1.6369   396900 
 2929000    1.0960184   -2.5345846   -2.5345846  -0.89056114   0.11220943   -2.5345846    1.6440235   396900 
 2930000    1.0937095   -2.5342627   -2.5342627  -0.89370251   0.11043879   -2.5342627    1.6405602   396900 
 2931000    1.0949438   -2.5340298   -2.5340298  -0.89161823   0.11042473   -2.5340298    1.6424115   396900 
 2932000    1.0934808   -2.5334642   -2.5334642  -0.89324702   0.11609087   -2.5334642    1.6402171   396900 
 2933000    1.0926242   -2.5329399   -2.5329399  -0.89400782   0.11926321   -2.5329399    1.6389321   396900 
 2934000    1.0935748    -2.533027    -2.533027  -0.89266896    0.1101798    -2.533027     1.640358   396900 
 2935000    1.0939846   -2.5316801   -2.5316801   -0.8907073   0.11585373   -2.5316801    1.6409728   396900 
 2936000    1.0936348   -2.5323196   -2.5323196  -0.89187152   0.11047493   -2.5323196    1.6404481   396900 
 2937000    1.0916899   -2.5319612   -2.5319612  -0.89443049   0.10926864   -2.5319612    1.6375307   396900 
 2938000    1.0950777   -2.5344534   -2.5344534  -0.89184098   0.11110218   -2.5344534    1.6426125   396900 
 2939000    1.0935624   -2.5324746   -2.5324746  -0.89213521   0.11344296   -2.5324746    1.6403394   396900 
 2940000    1.0934929   -2.5326177   -2.5326177  -0.89238247   0.11153807   -2.5326177    1.6402352   396900 
 2941000    1.0952468   -2.5323931   -2.5323931  -0.88952706   0.11240295   -2.5323931     1.642866   396900 
 2942000    1.0965936   -2.5343002   -2.5343002  -0.88941396   0.11041936   -2.5343002    1.6448862   396900 
 2943000    1.0927123   -2.5302477   -2.5302477  -0.89118344   0.11412645   -2.5302477    1.6390643   396900 
 2944000    1.0960983   -2.5338855   -2.5338855  -0.88974219   0.10863195   -2.5338855    1.6441433   396900 
 2945000    1.0927874    -2.530254    -2.530254  -0.89107692   0.11277392    -2.530254     1.639177   396900 
 2946000    1.0942527    -2.531353    -2.531353  -0.88997807   0.11406411    -2.531353    1.6413749   396900 
 2947000     1.095961   -2.5322176   -2.5322176  -0.88828029   0.10943058   -2.5322176    1.6439373   396900 
 2948000     1.096849   -2.5316197   -2.5316197  -0.88635025   0.11437935   -2.5316197    1.6452694   396900 
 2949000    1.0981794   -2.5352788   -2.5352788  -0.88801383   0.11224449   -2.5352788    1.6472649   396900 
 2950000     1.096171   -2.5335683   -2.5335683  -0.88931585   0.11067278   -2.5335683    1.6442524   396900 
 2951000    1.0945547   -2.5324788   -2.5324788  -0.89065089   0.11116904   -2.5324788    1.6418279   396900 
 2952000    1.0962067   -2.5317537   -2.5317537  -0.88744781   0.11467124   -2.5317537    1.6443059   396900 
 2953000     1.095226   -2.5287515   -2.5287515  -0.88591656   0.11617232   -2.5287515    1.6428349   396900 
 2954000    1.0957751   -2.5309914   -2.5309914  -0.88733301   0.11304936   -2.5309914    1.6436584   396900 
 2955000    1.0949665   -2.5296653   -2.5296653   -0.8872196   0.11364082   -2.5296653    1.6424457   396900 
 2956000    1.0961248    -2.530848    -2.530848  -0.88666494   0.11583895    -2.530848     1.644183   396900 
 2957000    1.0947092   -2.5304022   -2.5304022   -0.8883426   0.11452237   -2.5304022    1.6420596   396900 
 2958000    1.0955135   -2.5305974   -2.5305974  -0.88733129   0.11264644   -2.5305974    1.6432661   396900 
 2959000    1.0933838   -2.5269056   -2.5269056  -0.88683397   0.11430533   -2.5269056    1.6400716   396900 
 2960000    1.0953838   -2.5305186   -2.5305186  -0.88744712   0.11222292   -2.5305186    1.6430715   396900 
 2961000    1.0940654   -2.5254821   -2.5254821  -0.88438812   0.10891086   -2.5254821     1.641094   396900 
 2962000    1.0948294   -2.5254743   -2.5254743  -0.88323434   0.11178146   -2.5254743      1.64224   396900 
 2963000     1.097099   -2.5280407   -2.5280407  -0.88239642     0.111966   -2.5280407    1.6456443   396900 
 2964000    1.0962678   -2.5271236   -2.5271236  -0.88272612   0.11377747   -2.5271236    1.6443975   396900 
 2965000    1.0965684   -2.5268145   -2.5268145  -0.88196601   0.11428873   -2.5268145    1.6448485   396900 
 2966000    1.0963264   -2.5264948   -2.5264948  -0.88200933   0.11255768   -2.5264948    1.6444855   396900 
 2967000    1.0954276   -2.5263097   -2.5263097  -0.88317243   0.11222388   -2.5263097    1.6431373   396900 
 2968000    1.0927429    -2.520987    -2.520987  -0.88187679   0.11400871    -2.520987    1.6391102   396900 
 2969000    1.0928438   -2.5235391   -2.5235391  -0.88427752   0.10957952   -2.5235391    1.6392616   396900 
 2970000    1.0955023    -2.527884    -2.527884  -0.88463472   0.10767851    -2.527884    1.6432493   396900 
 2971000    1.0955104   -2.5266317   -2.5266317  -0.88337032   0.11309273   -2.5266317    1.6432614   396900 
 2972000    1.0930342   -2.5259003   -2.5259003   -0.8863532   0.11302087   -2.5259003    1.6395471   396900 
 2973000    1.0948329   -2.5265072   -2.5265072  -0.88426201   0.11010315   -2.5265072    1.6422452   396900 
 2974000    1.0959567   -2.5262923   -2.5262923   -0.8823614   0.10866856   -2.5262923    1.6439309   396900 
 2975000    1.0956148   -2.5255906   -2.5255906  -0.88217254   0.10952261   -2.5255906    1.6434181   396900 
 2976000    1.0928405   -2.5242524   -2.5242524  -0.88499576   0.10929056   -2.5242524    1.6392567   396900 
 2977000    1.0941768     -2.52384     -2.52384  -0.88257896   0.11462508     -2.52384     1.641261   396900 
 2978000    1.0958479   -2.5259986   -2.5259986  -0.88223091   0.11325297   -2.5259986    1.6437677   396900 
 2979000    1.0943777   -2.5252931   -2.5252931  -0.88373074    0.1129835   -2.5252931    1.6415624   396900 
 2980000    1.0960726   -2.5275716   -2.5275716  -0.88346681   0.11116598   -2.5275716    1.6441048   396900 
 2981000    1.0953478   -2.5233525   -2.5233525  -0.88033498    0.1146487   -2.5233525    1.6430175   396900 
 2982000    1.0954303   -2.5246419   -2.5246419  -0.88150064   0.11215931   -2.5246419    1.6431413   396900 
 2983000    1.0942219   -2.5260657   -2.5260657  -0.88473692    0.1103593   -2.5260657    1.6413288   396900 
 2984000    1.0945823   -2.5257798   -2.5257798  -0.88391042   0.11340771   -2.5257798    1.6418694   396900 
 2985000    1.0944975     -2.52723     -2.52723   -0.8854878   0.10938818     -2.52723    1.6417422   396900 
 2986000     1.093562    -2.525364    -2.525364   -0.8850251   0.11013193    -2.525364    1.6403389   396900 
 2987000    1.0949442   -2.5267416   -2.5267416  -0.88432941    0.1100913   -2.5267416    1.6424121   396900 
 2988000    1.0936623   -2.5264001   -2.5264001  -0.88591076   0.10903444   -2.5264001    1.6404894   396900 
 2989000    1.0948288   -2.5283254   -2.5283254  -0.88608636   0.10704666   -2.5283254     1.642239   396900 
 2990000    1.0949183   -2.5261773   -2.5261773  -0.88380396   0.11282015   -2.5261773    1.6423734   396900 
 2991000    1.0974672   -2.5278924   -2.5278924  -0.88169584   0.11170311   -2.5278924    1.6461966   396900 
 2992000    1.0944989   -2.5239869   -2.5239869  -0.88224268   0.11153074   -2.5239869    1.6417442   396900 
 2993000    1.0972138    -2.525705    -2.525705  -0.87988833   0.11659042    -2.525705    1.6458166   396900 
 2994000    1.0965815   -2.5250821   -2.5250821  -0.88021405   0.11337934   -2.5250821    1.6448681   396900 
 2995000    1.0959711    -2.525394    -2.525394  -0.88144144   0.11561988    -2.525394    1.6439526   396900 
 2996000    1.0959407   -2.5262272   -2.5262272  -0.88232029   0.10890567   -2.5262272    1.6439069   396900 
 2997000    1.0961028   -2.5239574   -2.5239574  -0.87980729   0.11054834   -2.5239574    1.6441501   396900 
 2998000    1.0969436   -2.5244643   -2.5244643  -0.87905304     0.115178   -2.5244643    1.6454113   396900 
 2999000    1.0984375   -2.5255977   -2.5255977  -0.87794563   0.11179189   -2.5255977     1.647652   396900 
 3000000    1.0987958   -2.5281805   -2.5281805    -0.879991   0.11641366   -2.5281805    1.6481895   396900 
Loop time of 14502.6 on 48 procs for 3000000 steps with 396900 atoms

Performance: 89363.426 tau/day, 206.860 timesteps/s
89.9% CPU use with 48 MPI tasks x 1 OpenMP threads

MPI task timing breakdown:
Section |  min time  |  avg time  |  max time  |%varavg|  %CPU | %total
-----------------------------------------------------------------------
Pair    | 2346.1     | 6050.9     | 7468.1     |1540.4 |  97.7 | 41.72
Bond    | 2.0803     | 2.2662     | 2.39       |   4.4 | 100.0 |  0.02
Neigh   | 1582.9     | 3189.6     | 4022.5     | 822.8 |  99.5 | 21.99
Comm    | 2353.8     | 4195.1     | 10101      |3071.6 |  75.5 | 28.93
Output  | 80.438     | 80.653     | 80.662     |   0.3 |  71.1 |  0.56
Modify  | 208.78     | 783.38     | 1349       |1653.0 |  88.0 |  5.40
Other   |            | 200.7      |            |       |       |  1.38

Nlocal:        8268.75 ave        9109 max        7514 min
Histogram: 2 2 2 8 11 15 6 0 0 2
Nghost:        6325.46 ave        7233 max        4478 min
Histogram: 4 3 5 0 0 3 2 7 9 15
Neighs:        174672.0 ave      202797 max      100995 min
Histogram: 2 2 1 0 2 1 5 12 13 10

Total # of neighbors = 8384254
Ave neighs/atom = 21.124349
Ave special neighs/atom = 0.0000000
Neighbor list builds = 300000
Dangerous builds = 297000

write_data	data.lj
System init for write_data ...
WARNING: Not all mixed pair coeffs generated from mixing. Use write_data with 'pair ij' option to store all pair coeffs. (src/write_data.cpp:312)
Total wall time: 4:01:43
