LAMMPS (24 Dec 2020)
OMP_NUM_THREADS environment is not set. Defaulting to 1 thread. (src/comm.cpp:94)
  using 1 OpenMP thread(s) per MPI task
# Simple rigid body system
# needed variables:


units		lj
atom_style	full
dimension 	3
boundary	p p f
pair_style	lj/cut/opt 2.5


variable 	sigma		equal 1.0
variable 	epsilon 	equal 1.0

region		box block 0 80 0 80 0 160
create_box 	3 box
Created orthogonal box = (0.0000000 0.0000000 0.0000000) to (80.000000 80.000000 160.00000)
  2 by 3 by 8 MPI processor grid

lattice 	sc 1.0
Lattice spacing in x,y,z = 1.0000000 1.0000000 1.0000000

region		create block EDGE EDGE EDGE EDGE 2 82
create_atoms 	1 region create
Created 518400 atoms
  create_atoms CPU = 0.011 seconds

mass		1 1.0
mass		2 1.0
mass		3 1.0

group		solvent type 1
518400 atoms in group solvent

velocity 	solvent create ${startTemp} 563435 loop geom
velocity 	solvent create 1.0 563435 loop geom


neighbor 	0.4 bin

pair_coeff	1 1 1.0 1.0
pair_coeff	2 2 0.0 0.0
pair_coeff	3 3 0.0 0.0
pair_coeff	2 3 0.0 0.0
pair_coeff	1 2*3 0.0 0.0

pair_modify 	shift yes


balance 	1.05 shift z 10 1.05
Balancing ...
Neighbor list info ...
  update every 1 steps, delay 10 steps, check yes
  max neighbors/atom: 2000, page size: 100000
  master list distance cutoff = 2.9
  ghost atom cutoff = 2.9
  binsize = 1.45, bins = 56 56 111
  1 neighbor lists, perpetual/occasional/extra = 1 0 0
  (1) pair lj/cut/opt, perpetual
      attributes: half, newton on
      pair build: half/bin/newton
      stencil: half/bin/3d/newton
      bin: standard
 rebalancing time: 0.033 seconds
  iteration count = 4
  initial/final maximal load/proc = 21600.000 12960.000
  initial/final imbalance factor  = 2.0000000 1.2000000
  x cuts: 0.0000000 0.50000000 1.0000000
  y cuts: 0.0000000 0.33333333 0.66666667 1.0000000
  z cuts: 0.0000000 0.070312500 0.13281250 0.20312500 0.26562500 0.32031250 0.39843750 0.46875000 1.0000000


####################### WALLS ###########################


variable       epsilonWall equal 2*${epsilon}
variable       epsilonWall equal 2*1

variable       cutoffTop   equal   0.7147*${sigma}
variable       cutoffTop   equal   0.7147*1

variable       cutoffLow   equal   3*${sigma}
variable       cutoffLow   equal   3*1


fix            topWall all wall/lj93 zhi EDGE                ${epsilonWall} ${sigma} ${cutoffTop} units box
fix            topWall all wall/lj93 zhi EDGE                2 ${sigma} ${cutoffTop} units box
fix            topWall all wall/lj93 zhi EDGE                2 1 ${cutoffTop} units box
fix            topWall all wall/lj93 zhi EDGE                2 1 0.7147 units box

fix            lowWall all wall/lj93 zlo EDGE                ${epsilonWall} ${sigma} ${cutoffLow} units box
fix            lowWall all wall/lj93 zlo EDGE                2 ${sigma} ${cutoffLow} units box
fix            lowWall all wall/lj93 zlo EDGE                2 1 ${cutoffLow} units box
fix            lowWall all wall/lj93 zlo EDGE                2 1 3 units box


###################### COMPUTES ##########################

compute        bin1 solvent chunk/atom bin/1d z upper 1.0


######################	FIXES ############################


fix 		peclet solvent ave/chunk 1000 1 1000 bin1 density/number norm 		 none ave one file density.profile

fix 		 temp solvent ave/chunk 1000 1 1000 bin1 temp norm 		 none ave one file temp.profile

fix 		2 solvent nve


## Thermostat


region		regthermo block EDGE EDGE EDGE EDGE 0 20

group 		thermo dynamic solvent region regthermo every 1000
dynamic group thermo defined

fix 		3 thermo langevin ${startTemp} ${temp} 10 156453
fix 		3 thermo langevin 1.0 ${temp} 10 156453
fix 		3 thermo langevin 1.0 .7 10 156453



#### Load balancing


fix 		bal all balance 1000 1.05 shift z 10 1.05


############### Diagnostics and computes ###################
#compute 	com cube	  rigid/local	1 mol x y z
#compute 	quat cube	  rigid/local	1 mol quatw quati quatj quatk

thermo 		1000
thermo_style 	custom step temp epair evdwl etotal press pe ke atoms

dump		1 all custom 100000 dump.lammpstrj id mol type x y z
dump 		2 all image 10000 image.*.png type type
dump 		3 all movie 1000 movie.avi type type

#dump 		com cube local 1000 dump.*.xyz c_com[*]
#dump		quat cube      local 1000 dump.*.quat c_quat[*]


restart 	1000000 restart.dat
timestep 	0.005
timer 		full
New timer settings: style=full  mode=nosync  timeout=off

run		3000000
Per MPI rank memory allocation (min/avg/max) = 19.50 | 19.91 | 20.25 Mbytes
Step Temp E_pair E_vdwl TotEng Press PotEng KinEng Atoms 
       0            1   -3.2990042   -3.2990042   -1.7990071    9.0186765   -3.2990042    1.4999971   518400 
    1000     1.707088   -4.5603624   -4.5603624   -1.9997353    3.7074323   -4.5603624    2.5606271   518400 
    2000    1.6575441   -4.6264583   -4.6264583   -2.1401469    1.3370149   -4.6264583    2.4863114   518400 
    3000    1.5237925    -4.409903    -4.409903   -2.1242186   0.14762395    -4.409903    2.2856844   518400 
    4000    1.4277725   -4.2009885   -4.2009885   -2.0593339 0.0019877959   -4.2009885    2.1416546   518400 
    5000    1.4325708   -4.1550349   -4.1550349   -2.0061828   0.14592662   -4.1550349    2.1488521   518400 
    6000    1.4384462   -4.1295421   -4.1295421   -1.9718769   0.20540766   -4.1295421    2.1576652   518400 
    7000    1.4479891   -4.1197767   -4.1197767   -1.9477973   0.26719709   -4.1197767    2.1719794   518400 
    8000    1.4575719   -4.1174759   -4.1174759   -1.9311222   0.33506787   -4.1174759    2.1863537   518400 
    9000    1.4541488   -4.1034624   -4.1034624   -1.9222434    1.2912163   -4.1034624    2.1812191   518400 
   10000    1.4452686    -4.079726    -4.079726   -1.9118272    2.6860064    -4.079726    2.1678987   518400 
   11000    1.4562516   -4.0848893   -4.0848893   -1.9005162    1.7339843   -4.0848893    2.1843731   518400 
   12000    1.4014959    -3.995336    -3.995336   -1.8930962    1.0229406    -3.995336    2.1022398   518400 
   13000    1.3263446   -3.8779643   -3.8779643   -1.8884513    0.9448201   -3.8779643    1.9895131   518400 
   14000    1.2618486   -3.7764444   -3.7764444   -1.8836751   0.59276058   -3.7764444    1.8927693   518400 
   15000     1.191327   -3.6674755   -3.6674755   -1.8804886    0.3654944   -3.6674755     1.786987   518400 
   16000      1.11028   -3.5485059   -3.5485059   -1.8830891   0.14601491   -3.5485059    1.6654167   518400 
   17000    1.0505888   -3.4714719   -3.4714719   -1.8955917  0.015421643   -3.4714719    1.5758802   518400 
   18000     1.029769   -3.4694939   -3.4694939   -1.9248434  0.017790717   -3.4694939    1.5446505   518400 
   19000    1.0302046   -3.5175985   -3.5175985   -1.9722946  0.089221434   -3.5175985     1.545304   518400 
   20000    1.0400915   -3.5928974   -3.5928974   -2.0327632   0.18591049   -3.5928974    1.5601342   518400 
   21000     1.043655   -3.6598314   -3.6598314    -2.094352   0.24452424   -3.6598314    1.5654794   518400 
   22000    1.0320306   -3.6878483   -3.6878483   -2.1398054   0.23492732   -3.6878483    1.5480429   518400 
   23000    1.0165574   -3.6890474   -3.6890474   -2.1642142   0.18943978   -3.6890474    1.5248332   518400 
   24000   0.99935142    -3.672972    -3.672972   -2.1739478   0.15566049    -3.672972    1.4990242   518400 
   25000   0.98697085   -3.6522814   -3.6522814    -2.171828   0.12104549   -3.6522814    1.4804534   518400 
   26000   0.97351672   -3.6269595   -3.6269595   -2.1666873  0.090090288   -3.6269595    1.4602723   518400 
   27000   0.96607481   -3.6078755   -3.6078755   -2.1587661  0.074475896   -3.6078755    1.4491094   518400 
   28000   0.97011489   -3.6055521   -3.6055521   -2.1503826  0.080885659   -3.6055521    1.4551695   518400 
   29000   0.98172945   -3.6145732   -3.6145732   -2.1419818   0.12461967   -3.6145732    1.4725913   518400 
   30000   0.99305806   -3.6261006   -3.6261006   -2.1365163   0.16331543   -3.6261006    1.4895842   518400 
   31000   0.99807069   -3.6283132   -3.6283132   -2.1312101   0.16496536   -3.6283132    1.4971031   518400 
   32000   0.99571452   -3.6187681   -3.6187681   -2.1251991   0.13765229   -3.6187681    1.4935689   518400 
   33000   0.98923121   -3.6066308   -3.6066308   -2.1227868    0.1014538   -3.6066308     1.483844   518400 
   34000   0.98250714   -3.5992346   -3.5992346   -2.1254768  0.087243745   -3.5992346    1.4737579   518400 
   35000   0.97956625   -3.6009258   -3.6009258   -2.1315792   0.08246542   -3.6009258    1.4693465   518400 
   36000   0.97834775    -3.610065    -3.610065   -2.1425462  0.090381141    -3.610065    1.4675188   518400 
   37000    0.9782661   -3.6226381   -3.6226381   -2.1552417   0.10613081   -3.6226381    1.4673963   518400 
   38000   0.97820811   -3.6343602   -3.6343602   -2.1670509     0.109598   -3.6343602    1.4673093   518400 
   39000   0.97596202   -3.6365236   -3.6365236   -2.1725834   0.11114868   -3.6365236    1.4639402   518400 
   40000    0.9738248   -3.6349064   -3.6349064    -2.174172   0.10968233   -3.6349064    1.4607344   518400 
   41000   0.97484409   -3.6361345   -3.6361345   -2.1738712  0.090208135   -3.6361345    1.4622633   518400 
   42000   0.97201119   -3.6286502   -3.6286502   -2.1706363  0.090574192   -3.6286502     1.458014   518400 
   43000   0.97074676   -3.6229743   -3.6229743    -2.166857   0.09304741   -3.6229743    1.4561173   518400 
   44000   0.96829249   -3.6172037   -3.6172037   -2.1647678   0.08052176   -3.6172037    1.4524359   518400 
   45000   0.96680123   -3.6133793   -3.6133793   -2.1631803  0.075748506   -3.6133793    1.4501991   518400 
   46000   0.96239522   -3.6057897   -3.6057897   -2.1621997  0.078313424   -3.6057897      1.44359   518400 
   47000   0.95934312     -3.60061     -3.60061   -2.1615981  0.063568365     -3.60061    1.4390119   518400 
   48000   0.95421132   -3.5948414   -3.5948414   -2.1635272  0.057612976   -3.5948414    1.4313142   518400 
   49000   0.95260388    -3.593119    -3.593119   -2.1642159  0.044118586    -3.593119    1.4289031   518400 
   50000   0.94938904   -3.5894149   -3.5894149   -2.1653341  0.046322254   -3.5894149    1.4240808   518400 
   51000   0.94952376   -3.5887672   -3.5887672   -2.1644843  0.041775847   -3.5887672    1.4242829   518400 
   52000   0.94887928   -3.5867447   -3.5867447   -2.1634285  0.043526217   -3.5867447    1.4233162   518400 
   53000   0.94538462   -3.5798888   -3.5798888   -2.1618146   0.04380711   -3.5798888    1.4180742   518400 
   54000   0.94535763   -3.5770862   -3.5770862   -2.1590525  0.038373761   -3.5770862    1.4180337   518400 
   55000   0.94678451   -3.5752891   -3.5752891    -2.155115  0.040936743   -3.5752891     1.420174   518400 
   56000    0.9438172   -3.5687325   -3.5687325   -2.1530094  0.037682912   -3.5687325    1.4157231   518400 
   57000   0.94365698   -3.5656125   -3.5656125   -2.1501298  0.035056199   -3.5656125    1.4154827   518400 
   58000   0.94247601   -3.5616322   -3.5616322   -2.1479209   0.03490708   -3.5616322    1.4137113   518400 
   59000   0.93989857   -3.5568391   -3.5568391   -2.1469939  0.035673352   -3.5568391    1.4098451   518400 
   60000    0.9418195    -3.557637    -3.557637   -2.1449105  0.028745547    -3.557637    1.4127265   518400 
   61000   0.94246303   -3.5556253   -3.5556253   -2.1419335  0.033833284   -3.5556253    1.4136918   518400 
   62000   0.94295047   -3.5556567   -3.5556567   -2.1412337  0.039349152   -3.5556567     1.414423   518400 
   63000   0.94340601   -3.5557423   -3.5557423    -2.140636   0.03711195   -3.5557423    1.4151063   518400 
   64000   0.94348192    -3.554471    -3.554471   -2.1392508    0.0319653    -3.554471    1.4152201   518400 
   65000   0.94380805   -3.5547561   -3.5547561   -2.1390468   0.03161135   -3.5547561    1.4157093   518400 
   66000   0.94299404    -3.553881    -3.553881   -2.1393927  0.030765548    -3.553881    1.4144883   518400 
   67000   0.94066858   -3.5510045   -3.5510045   -2.1400043  0.036356332   -3.5510045    1.4110001   518400 
   68000   0.94308986   -3.5534664   -3.5534664   -2.1388344  0.038621118   -3.5534664    1.4146321   518400 
   69000    0.9452527   -3.5564089   -3.5564089   -2.1385326  0.033670915   -3.5564089    1.4178763   518400 
   70000   0.94520898   -3.5565688   -3.5565688   -2.1387581  0.038167875   -3.5565688    1.4178107   518400 
   71000   0.94459263   -3.5544222   -3.5544222    -2.137536  0.038545292   -3.5544222    1.4168862   518400 
   72000   0.94410962   -3.5556433   -3.5556433   -2.1394816  0.039951117   -3.5556433    1.4161617   518400 
   73000   0.94364415   -3.5551502   -3.5551502   -2.1396867  0.040849505   -3.5551502    1.4154635   518400 
   74000   0.94413747    -3.555828    -3.555828   -2.1396245  0.035043754    -3.555828    1.4162035   518400 
   75000   0.94333438   -3.5546396   -3.5546396   -2.1396408  0.037846205   -3.5546396    1.4149988   518400 
   76000   0.94229542   -3.5536536   -3.5536536   -2.1402132  0.040069477   -3.5536536    1.4134404   518400 
   77000   0.94411361   -3.5559273   -3.5559273   -2.1397596  0.040419265   -3.5559273    1.4161677   518400 
   78000   0.94443351   -3.5570608   -3.5570608   -2.1404133  0.040707928   -3.5570608    1.4166475   518400 
   79000   0.94459174   -3.5579667   -3.5579667   -2.1410818   0.04246457   -3.5579667    1.4168849   518400 
   80000   0.94419345   -3.5571573   -3.5571573   -2.1408698  0.043243722   -3.5571573    1.4162874   518400 
   81000   0.94565208   -3.5597063   -3.5597063   -2.1412309  0.050172663   -3.5597063    1.4184754   518400 
   82000   0.94545946   -3.5589794   -3.5589794   -2.1407929  0.045165822   -3.5589794    1.4181865   518400 
   83000   0.94634645   -3.5614078   -3.5614078   -2.1418909  0.046660745   -3.5614078    1.4195169   518400 
   84000   0.94630488   -3.5609021   -3.5609021   -2.1414476  0.044275793   -3.5609021    1.4194546   518400 
   85000   0.94585448   -3.5605642   -3.5605642   -2.1417852   0.04115372   -3.5605642     1.418779   518400 
   86000    0.9469942   -3.5629908   -3.5629908   -2.1425023  0.047862031   -3.5629908    1.4204886   518400 
   87000   0.94822838   -3.5663914   -3.5663914   -2.1440516  0.049455185   -3.5663914    1.4223398   518400 
   88000   0.94961714    -3.568881    -3.568881    -2.144458  0.056845884    -3.568881     1.424423   518400 
   89000   0.94991465   -3.5700015   -3.5700015   -2.1451323  0.060420702   -3.5700015    1.4248692   518400 
   90000   0.95388635   -3.5739938   -3.5739938    -2.143167  0.061757382   -3.5739938    1.4308268   518400 
   91000   0.95723124   -3.5799567   -3.5799567   -2.1441126    0.0718447   -3.5799567    1.4358441   518400 
   92000   0.95798289   -3.5809486   -3.5809486   -2.1439771  0.084324397   -3.5809486    1.4369716   518400 
   93000   0.96145029   -3.5865771   -3.5865771   -2.1444045  0.088438178   -3.5865771    1.4421726   518400 
   94000   0.96047507   -3.5856938   -3.5856938    -2.144984   0.10116098   -3.5856938    1.4407098   518400 
   95000    0.9630826    -3.590454    -3.590454   -2.1458329  0.090777778    -3.590454    1.4446211   518400 
   96000   0.96153607   -3.5872048   -3.5872048   -2.1449035  0.083700326   -3.5872048    1.4423013   518400 
   97000   0.95832608   -3.5814529   -3.5814529   -2.1439665  0.087514457   -3.5814529    1.4374863   518400 
   98000   0.95784167   -3.5811632   -3.5811632   -2.1444034  0.076769442   -3.5811632    1.4367597   518400 
   99000    0.9540853   -3.5760918   -3.5760918   -2.1449666  0.060304457   -3.5760918    1.4311252   518400 
  100000   0.95194241    -3.572386    -3.572386   -2.1444751  0.054805844    -3.572386    1.4279109   518400 
  101000   0.94920158   -3.5683956   -3.5683956    -2.144596  0.048246798   -3.5683956    1.4237996   518400 
  102000   0.94822697   -3.5684379   -3.5684379   -2.1461002  0.046775315   -3.5684379    1.4223377   518400 
  103000    0.9497792   -3.5715691   -3.5715691   -2.1469031  0.049023581   -3.5715691     1.424666   518400 
  104000   0.94936383   -3.5713113   -3.5713113   -2.1472683  0.045500673   -3.5713113     1.424043   518400 
  105000   0.94988675   -3.5729203   -3.5729203    -2.148093  0.052737668   -3.5729203    1.4248274   518400 
  106000   0.94973364   -3.5741307   -3.5741307    -2.149533  0.051959882   -3.5741307    1.4245977   518400 
  107000   0.94837849    -3.573249    -3.573249    -2.150684   0.04935469    -3.573249     1.422565   518400 
  108000   0.94883179    -3.576693    -3.576693   -2.1534481  0.048272444    -3.576693    1.4232449   518400 
  109000   0.94774293   -3.5757153   -3.5757153   -2.1541037   0.04999732   -3.5757153    1.4216116   518400 
  110000   0.94767349   -3.5763258   -3.5763258   -2.1548183  0.040153028   -3.5763258    1.4215075   518400 
  111000   0.94763725   -3.5766692   -3.5766692   -2.1552161  0.047321502   -3.5766692    1.4214531   518400 
  112000   0.94804243     -3.57813     -3.57813   -2.1560691  0.050508513     -3.57813    1.4220609   518400 
  113000   0.94882082   -3.5792887   -3.5792887   -2.1560602  0.052432075   -3.5792887    1.4232285   518400 
  114000   0.94985932   -3.5824297   -3.5824297   -2.1576434  0.051006448   -3.5824297    1.4247862   518400 
  115000   0.94783208   -3.5811078   -3.5811078   -2.1593624  0.050152613   -3.5811078    1.4217454   518400 
  116000   0.94787667   -3.5804985   -3.5804985   -2.1586862  0.055126745   -3.5804985    1.4218123   518400 
  117000   0.94880769   -3.5814354   -3.5814354   -2.1582266   0.05020159   -3.5814354    1.4232088   518400 
  118000   0.94893506   -3.5820927   -3.5820927   -2.1586929  0.045090328   -3.5820927    1.4233998   518400 
  119000   0.94710249   -3.5787124   -3.5787124   -2.1580615  0.043988801   -3.5787124     1.420651   518400 
  120000   0.94523468   -3.5768196   -3.5768196   -2.1589703  0.049851268   -3.5768196    1.4178493   518400 
  121000   0.94683218   -3.5791551   -3.5791551   -2.1589096  0.050827739   -3.5791551    1.4202455   518400 
  122000   0.94724581   -3.5802568   -3.5802568   -2.1593908  0.048346984   -3.5802568     1.420866   518400 
  123000   0.94757854    -3.582238    -3.582238   -2.1608729  0.045184621    -3.582238    1.4213651   518400 
  124000   0.94814833   -3.5840069   -3.5840069   -2.1617871  0.054291323   -3.5840069    1.4222198   518400 
  125000     0.947985   -3.5838671   -3.5838671   -2.1618923  0.050884811   -3.5838671    1.4219748   518400 
  126000   0.94768298   -3.5830984   -3.5830984   -2.1615766  0.048836303   -3.5830984    1.4215217   518400 
  127000   0.94872299   -3.5845422   -3.5845422   -2.1614604  0.050807179   -3.5845422    1.4230817   518400 
  128000   0.94950612   -3.5854409   -3.5854409   -2.1611844  0.054754405   -3.5854409    1.4242564   518400 
  129000   0.94849043   -3.5846133   -3.5846133   -2.1618804  0.046874564   -3.5846133    1.4227329   518400 
  130000    0.9485745   -3.5838782   -3.5838782   -2.1610192  0.042452841   -3.5838782     1.422859   518400 
  131000   0.94728382   -3.5817574   -3.5817574   -2.1608344  0.046039455   -3.5817574     1.420923   518400 
  132000   0.94779323   -3.5834145   -3.5834145   -2.1617274  0.045232356   -3.5834145    1.4216871   518400 
  133000   0.94641723   -3.5818566   -3.5818566   -2.1622335  0.047619122   -3.5818566    1.4196231   518400 
  134000   0.94744396   -3.5831477   -3.5831477   -2.1619845  0.048999031   -3.5831477    1.4211632   518400 
  135000   0.94895948   -3.5853161   -3.5853161   -2.1618796  0.054279604   -3.5853161    1.4234365   518400 
  136000    0.9487349   -3.5852436   -3.5852436   -2.1621439  0.053927242   -3.5852436    1.4230996   518400 
  137000   0.94817865   -3.5844262   -3.5844262   -2.1621609   0.04731964   -3.5844262    1.4222652   518400 
  138000    0.9485908   -3.5860381   -3.5860381   -2.1631547  0.048805197   -3.5860381    1.4228835   518400 
  139000   0.94885667   -3.5847421   -3.5847421   -2.1614598  0.047570648   -3.5847421    1.4232823   518400 
  140000    0.9480395   -3.5847635   -3.5847635    -2.162707  0.050021979   -3.5847635    1.4220565   518400 
  141000   0.94808203   -3.5842073   -3.5842073    -2.162087  0.050262661   -3.5842073    1.4221203   518400 
  142000   0.94713516   -3.5844897   -3.5844897   -2.1637897  0.051046096   -3.5844897       1.4207   518400 
  143000   0.94684833   -3.5837624   -3.5837624   -2.1634926  0.043022531   -3.5837624    1.4202698   518400 
  144000   0.94730231    -3.585809    -3.585809   -2.1648583  0.043214593    -3.585809    1.4209507   518400 
  145000   0.94717741   -3.5853239   -3.5853239   -2.1645605  0.048963675   -3.5853239    1.4207634   518400 
  146000   0.94680959   -3.5846269   -3.5846269   -2.1644152  0.053657058   -3.5846269    1.4202116   518400 
  147000   0.94752136   -3.5856241   -3.5856241   -2.1643448  0.047293434   -3.5856241    1.4212793   518400 
  148000    0.9473414   -3.5861836   -3.5861836   -2.1651742  0.049933681   -3.5861836    1.4210094   518400 
  149000   0.94861206   -3.5881215   -3.5881215   -2.1652062  0.050638867   -3.5881215    1.4229153   518400 
  150000   0.94776741   -3.5864816   -3.5864816   -2.1648332   0.05001796   -3.5864816    1.4216484   518400 
  151000   0.94753741   -3.5866458   -3.5866458   -2.1653424  0.052640527   -3.5866458    1.4213034   518400 
  152000   0.94849354   -3.5882785   -3.5882785   -2.1655409   0.05154327   -3.5882785    1.4227376   518400 
  153000   0.94862458   -3.5882773   -3.5882773   -2.1653432  0.048011436   -3.5882773    1.4229341   518400 
  154000   0.95086482   -3.5912764   -3.5912764   -2.1649819  0.057369719   -3.5912764    1.4262945   518400 
  155000   0.94916939   -3.5893152   -3.5893152   -2.1655639  0.054642231   -3.5893152    1.4237513   518400 
  156000   0.95100528   -3.5927956   -3.5927956   -2.1662905  0.057831499   -3.5927956    1.4265052   518400 
  157000   0.95287911   -3.5959897   -3.5959897   -2.1666738   0.06692198   -3.5959897    1.4293159   518400 
  158000   0.95292537   -3.5962448   -3.5962448   -2.1668595  0.064433431   -3.5962448    1.4293853   518400 
  159000   0.95387885   -3.5969063   -3.5969063   -2.1660908  0.062479944   -3.5969063    1.4308155   518400 
  160000   0.95343687   -3.5954187   -3.5954187   -2.1652661  0.071450068   -3.5954187    1.4301525   518400 
  161000   0.95359701   -3.5965114   -3.5965114   -2.1661186  0.075788407   -3.5965114    1.4303928   518400 
  162000   0.95566237   -3.5994729   -3.5994729   -2.1659821  0.067599373   -3.5994729    1.4334908   518400 
  163000   0.95481065   -3.5995071   -3.5995071   -2.1672938  0.068540251   -3.5995071    1.4322132   518400 
  164000   0.95538183   -3.6010849   -3.6010849   -2.1680149  0.066609641   -3.6010849      1.43307   518400 
  165000   0.95416402   -3.5987474   -3.5987474   -2.1675041  0.062709721   -3.5987474    1.4312433   518400 
  166000   0.95239175   -3.5955959   -3.5955959   -2.1670111   0.06776769   -3.5955959    1.4285849   518400 
  167000     0.953243   -3.5962596   -3.5962596   -2.1663978  0.065706393   -3.5962596    1.4298617   518400 
  168000   0.95210814   -3.5947046   -3.5947046   -2.1665452  0.059654581   -3.5947046    1.4281594   518400 
  169000   0.95058833   -3.5925637   -3.5925637    -2.166684  0.056780512   -3.5925637    1.4258797   518400 
  170000   0.95022577   -3.5909206   -3.5909206   -2.1655847  0.056772912   -3.5909206    1.4253359   518400 
  171000   0.94804158   -3.5888382   -3.5888382   -2.1667786  0.052141281   -3.5888382    1.4220596   518400 
  172000   0.94884573   -3.5898992   -3.5898992   -2.1666334  0.051294412   -3.5898992    1.4232658   518400 
  173000   0.94964974   -3.5904341   -3.5904341   -2.1659623  0.044270777   -3.5904341    1.4244719   518400 
  174000   0.95026463   -3.5911996   -3.5911996   -2.1658054  0.047581986   -3.5911996    1.4253942   518400 
  175000   0.94941697   -3.5903674   -3.5903674   -2.1662447  0.057227863   -3.5903674    1.4241227   518400 
  176000   0.94972342   -3.5906946   -3.5906946   -2.1661122  0.050114217   -3.5906946    1.4245824   518400 
  177000   0.94986437   -3.5915315   -3.5915315   -2.1667377  0.053018826   -3.5915315    1.4247938   518400 
  178000   0.95068545   -3.5936629   -3.5936629   -2.1676374   0.05308022   -3.5936629    1.4260254   518400 
  179000   0.94798586    -3.589385    -3.589385    -2.167409   0.05470189    -3.589385    1.4219761   518400 
  180000   0.94714985   -3.5872491   -3.5872491   -2.1665271  0.049347754   -3.5872491     1.420722   518400 
  181000   0.94694715   -3.5891399   -3.5891399   -2.1687219  0.044086152   -3.5891399     1.420418   518400 
  182000   0.94630422   -3.5875947   -3.5875947   -2.1681411  0.045394166   -3.5875947    1.4194536   518400 
  183000   0.94759851   -3.5904741   -3.5904741   -2.1690791  0.046970876   -3.5904741     1.421395   518400 
  184000   0.94981698   -3.5928971   -3.5928971   -2.1681744  0.048733213   -3.5928971    1.4247227   518400 
  185000   0.94888866   -3.5919491   -3.5919491   -2.1686189  0.055040692   -3.5919491    1.4233302   518400 
  186000   0.94927628    -3.593752    -3.593752   -2.1698403  0.051005893    -3.593752    1.4239117   518400 
  187000   0.94882507   -3.5937419   -3.5937419    -2.170507  0.048157953   -3.5937419    1.4232349   518400 
  188000   0.94896309   -3.5943577   -3.5943577   -2.1709159  0.052119773   -3.5943577    1.4234419   518400 
  189000   0.94932977   -3.5951308   -3.5951308   -2.1711389  0.047498534   -3.5951308    1.4239919   518400 
  190000    0.9469613   -3.5922718   -3.5922718   -2.1718326  0.054694866   -3.5922718    1.4204392   518400 
  191000   0.94755134   -3.5935419   -3.5935419   -2.1722176  0.047521045   -3.5935419    1.4213243   518400 
  192000   0.94752348   -3.5934954   -3.5934954   -2.1722129  0.046330955   -3.5934954    1.4212825   518400 
  193000   0.94786381   -3.5933946   -3.5933946   -2.1716016  0.046329044   -3.5933946     1.421793   518400 
  194000   0.94664698   -3.5907726   -3.5907726   -2.1708049  0.054247762   -3.5907726    1.4199677   518400 
  195000   0.94773473    -3.592412    -3.592412   -2.1708127  0.055919689    -3.592412    1.4215993   518400 
  196000   0.94841716   -3.5931301   -3.5931301   -2.1705071  0.041989549   -3.5931301     1.422623   518400 
  197000   0.94692407   -3.5911373   -3.5911373    -2.170754  0.045154117   -3.5911373    1.4203834   518400 
  198000   0.94835396   -3.5940353   -3.5940353   -2.1715072  0.046131719   -3.5940353    1.4225282   518400 
  199000     0.947092    -3.592225    -3.592225   -2.1715897  0.053853998    -3.592225    1.4206353   518400 
  200000   0.94737413   -3.5921933   -3.5921933   -2.1711349  0.045751615   -3.5921933    1.4210584   518400 
  201000    0.9468373   -3.5920892   -3.5920892    -2.171836  0.046686276   -3.5920892    1.4202532   518400 
  202000   0.94679471    -3.591178    -3.591178   -2.1709887  0.044460506    -3.591178    1.4201893   518400 
  203000   0.94714233   -3.5917992   -3.5917992   -2.1710884  0.044952115   -3.5917992    1.4207108   518400 
  204000    0.9479637   -3.5939253   -3.5939253   -2.1719825  0.045209134   -3.5939253    1.4219428   518400 
  205000   0.94691497   -3.5918798   -3.5918798     -2.17151  0.052619637   -3.5918798    1.4203697   518400 
  206000   0.94944105   -3.5949787   -3.5949787   -2.1708199   0.04728189   -3.5949787    1.4241588   518400 
  207000   0.94870042   -3.5939743   -3.5939743   -2.1709264  0.055131448   -3.5939743    1.4230479   518400 
  208000   0.95060352   -3.5974858   -3.5974858   -2.1715833   0.05229144   -3.5974858    1.4259025   518400 
  209000   0.94842164   -3.5931384   -3.5931384   -2.1705086  0.059576416   -3.5931384    1.4226297   518400 
  210000   0.94840167   -3.5938198   -3.5938198   -2.1712201  0.047274568   -3.5938198    1.4225998   518400 
  211000   0.94934037   -3.5961451   -3.5961451   -2.1721373  0.048238003   -3.5961451    1.4240078   518400 
  212000   0.94839994   -3.5958124   -3.5958124   -2.1732153   0.05285241   -3.5958124    1.4225972   518400 
  213000   0.94873016   -3.5970693   -3.5970693   -2.1739768  0.046177729   -3.5970693    1.4230925   518400 
  214000   0.94885172   -3.5967787   -3.5967787   -2.1735039  0.050101083   -3.5967787    1.4232748   518400 
  215000   0.95117506   -3.6001206   -3.6001206   -2.1733608  0.054658848   -3.6001206    1.4267598   518400 
  216000   0.95055762   -3.6010092   -3.6010092   -2.1751755  0.053679802   -3.6010092    1.4258337   518400 
  217000   0.94967233   -3.5980975   -3.5980975   -2.1735918    0.0548715   -3.5980975    1.4245058   518400 
  218000   0.95141682   -3.6001921   -3.6001921   -2.1730696  0.057838447   -3.6001921    1.4271225   518400 
  219000   0.95118323   -3.6005376   -3.6005376   -2.1737655  0.058475197   -3.6005376    1.4267721   518400 
  220000   0.94983689   -3.5984994   -3.5984994   -2.1737468  0.056517896   -3.5984994    1.4247526   518400 
  221000   0.95127296   -3.5996006   -3.5996006   -2.1726939  0.061686644   -3.5996006    1.4269067   518400 
  222000   0.95064559    -3.599301    -3.599301   -2.1733353  0.060130729    -3.599301    1.4259656   518400 
  223000   0.95200813   -3.6004181   -3.6004181   -2.1724087  0.062836895   -3.6004181    1.4280094   518400 
  224000   0.95215393   -3.6010826   -3.6010826   -2.1728544  0.060624002   -3.6010826    1.4282281   518400 
  225000   0.95116319   -3.6007226   -3.6007226   -2.1739805   0.05644331   -3.6007226     1.426742   518400 
  226000   0.95163249   -3.6002938   -3.6002938   -2.1728478  0.059058931   -3.6002938     1.427446   518400 
  227000    0.9518231   -3.6009374   -3.6009374   -2.1732055  0.054322934   -3.6009374    1.4277319   518400 
  228000   0.95033321   -3.5986589   -3.5986589   -2.1731618  0.054811262   -3.5986589    1.4254971   518400 
  229000   0.94830421   -3.5952274   -3.5952274   -2.1727738  0.056923079   -3.5952274    1.4224536   518400 
  230000   0.94904768   -3.5971908   -3.5971908    -2.173622  0.053051071   -3.5971908    1.4235688   518400 
  231000    0.9492191    -3.598424    -3.598424   -2.1745981  0.050959405    -3.598424    1.4238259   518400 
  232000   0.94942338   -3.5989282   -3.5989282   -2.1747959  0.046949825   -3.5989282    1.4241323   518400 
  233000   0.94809396   -3.5963689   -3.5963689   -2.1742307  0.050937292   -3.5963689    1.4221382   518400 
  234000   0.94881087   -3.5966952   -3.5966952   -2.1734816  0.056570842   -3.5966952    1.4232136   518400 
  235000   0.94985581   -3.5986524   -3.5986524   -2.1738714  0.056436507   -3.5986524     1.424781   518400 
  236000   0.94929529   -3.5986245   -3.5986245   -2.1746843  0.054378007   -3.5986245    1.4239402   518400 
  237000   0.94809063    -3.596095    -3.596095   -2.1739618  0.055322527    -3.596095    1.4221332   518400 
  238000   0.94888184    -3.597124    -3.597124    -2.173804  0.055022545    -3.597124      1.42332   518400 
  239000   0.94988451   -3.6000475   -3.6000475   -2.1752235  0.049678187   -3.6000475     1.424824   518400 
  240000   0.94728864   -3.5964181   -3.5964181   -2.1754879  0.044405211   -3.5964181    1.4209302   518400 
  241000   0.94902175   -3.5993602   -3.5993602   -2.1758303  0.046114375   -3.5993602    1.4235299   518400 
  242000   0.94871851   -3.6002343   -3.6002343   -2.1771593   0.05628596   -3.6002343     1.423075   518400 
  243000   0.94820847   -3.6012491   -3.6012491   -2.1789391  0.048806844   -3.6012491      1.42231   518400 
  244000   0.94673542   -3.5988654   -3.5988654   -2.1787651  0.049798653   -3.5988654    1.4201004   518400 
  245000   0.94804641   -3.6000251   -3.6000251   -2.1779582  0.047608218   -3.6000251    1.4220669   518400 
  246000    0.9479836    -3.600185    -3.600185   -2.1782124  0.050107827    -3.600185    1.4219727   518400 
  247000   0.94530982   -3.5984489   -3.5984489   -2.1804869  0.048547142   -3.5984489     1.417962   518400 
  248000   0.94725821   -3.6015212   -3.6015212   -2.1806366  0.045369733   -3.6015212    1.4208846   518400 
  249000   0.94857814   -3.6042602   -3.6042602   -2.1813957  0.050796992   -3.6042602    1.4228645   518400 
  250000   0.94866527   -3.6030905   -3.6030905   -2.1800953  0.057212273   -3.6030905    1.4229952   518400 
  251000   0.94884767   -3.6048224   -3.6048224   -2.1815536   0.04962973   -3.6048224    1.4232688   518400 
  252000   0.94782714   -3.6040016   -3.6040016   -2.1822636  0.055391943   -3.6040016     1.421738   518400 
  253000   0.94696882   -3.6028721   -3.6028721   -2.1824216  0.052034715   -3.6028721    1.4204505   518400 
  254000   0.94800347   -3.6040524   -3.6040524     -2.18205  0.050945259   -3.6040524    1.4220025   518400 
  255000   0.94734321   -3.6019611   -3.6019611    -2.180949  0.051451579   -3.6019611    1.4210121   518400 
  256000   0.94704693   -3.6014817   -3.6014817    -2.180914  0.046411616   -3.6014817    1.4205677   518400 
  257000   0.94707719    -3.601453    -3.601453     -2.18084  0.049553556    -3.601453     1.420613   518400 
  258000   0.94826014   -3.6019446   -3.6019446   -2.1795571  0.047947566   -3.6019446    1.4223875   518400 
  259000   0.94709834    -3.599623    -3.599623   -2.1789782  0.045936456    -3.599623    1.4206448   518400 
  260000    0.9446965   -3.5964613   -3.5964613   -2.1794193  0.053080197   -3.5964613     1.417042   518400 
  261000    0.9473693     -3.59982     -3.59982   -2.1787687  0.053215847     -3.59982    1.4210512   518400 
  262000   0.94745892   -3.5986009   -3.5986009   -2.1774152   0.05126486   -3.5986009    1.4211856   518400 
  263000   0.94821625    -3.600231    -3.600231   -2.1779093  0.052357409    -3.600231    1.4223216   518400 
  264000   0.94713165   -3.6001768   -3.6001768    -2.179482  0.050612472   -3.6001768    1.4206947   518400 
  265000   0.94606553   -3.5994655   -3.5994655     -2.18037  0.055423463   -3.5994655    1.4190956   518400 
  266000   0.94637092   -3.6004472   -3.6004472   -2.1808936  0.050304197   -3.6004472    1.4195536   518400 
  267000   0.94759899   -3.6037371   -3.6037371   -2.1823414  0.052856196   -3.6037371    1.4213957   518400 
  268000    0.9500666   -3.6058176   -3.6058176   -2.1807205  0.054491506   -3.6058176    1.4250971   518400 
  269000   0.94886008   -3.6055764   -3.6055764    -2.182289  0.053269751   -3.6055764    1.4232874   518400 
  270000   0.94773519   -3.6054791   -3.6054791   -2.1838791   0.05355758   -3.6054791       1.4216   518400 
  271000   0.94866421   -3.6071244   -3.6071244   -2.1841309  0.054256301   -3.6071244    1.4229936   518400 
  272000   0.94836759   -3.6067263   -3.6067263   -2.1841776  0.052918841   -3.6067263    1.4225486   518400 
  273000   0.94821235   -3.6054877   -3.6054877   -2.1831719   0.05244233   -3.6054877    1.4223158   518400 
  274000   0.94997947   -3.6079655   -3.6079655   -2.1829991  0.046054082   -3.6079655    1.4249665   518400 
  275000   0.94805822    -3.604932    -3.604932   -2.1828474   0.04764468    -3.604932    1.4220846   518400 
  276000   0.94784515   -3.6041944   -3.6041944   -2.1824294  0.049437096   -3.6041944     1.421765   518400 
  277000   0.94751057   -3.6037115   -3.6037115   -2.1824483  0.051081569   -3.6037115    1.4212631   518400 
  278000   0.94922378    -3.605409    -3.605409   -2.1815761  0.048192375    -3.605409    1.4238329   518400 
  279000   0.94779035   -3.6033751   -3.6033751   -2.1816923  0.054247228   -3.6033751    1.4216828   518400 
  280000   0.94868318   -3.6064515   -3.6064515   -2.1834295  0.055401765   -3.6064515     1.423022   518400 
  281000   0.94868748   -3.6067777   -3.6067777   -2.1837492  0.054880729   -3.6067777    1.4230285   518400 
  282000   0.94842907   -3.6075237   -3.6075237   -2.1848829  0.058049336   -3.6075237    1.4226409   518400 
  283000   0.94935313   -3.6065777   -3.6065777   -2.1825508  0.056449588   -3.6065777    1.4240269   518400 
  284000   0.94867677   -3.6067566   -3.6067566   -2.1837442  0.050988646   -3.6067566    1.4230124   518400 
  285000   0.94819513   -3.6062715   -3.6062715   -2.1839816  0.054019883   -3.6062715    1.4222899   518400 
  286000   0.94881166   -3.6068116   -3.6068116   -2.1835969  0.043264419   -3.6068116    1.4232147   518400 
  287000   0.94842774   -3.6052277   -3.6052277   -2.1825888  0.054258888   -3.6052277    1.4226389   518400 
  288000   0.94922599   -3.6073287   -3.6073287   -2.1834925  0.054091383   -3.6073287    1.4238362   518400 
  289000   0.94928317   -3.6075472   -3.6075472   -2.1836252  0.052763563   -3.6075472     1.423922   518400 
  290000   0.94727574   -3.6053593   -3.6053593   -2.1844485  0.055157271   -3.6053593    1.4209109   518400 
  291000   0.94815326   -3.6068899   -3.6068899   -2.1846627  0.048118278   -3.6068899    1.4222272   518400 
  292000   0.94856541   -3.6062735   -3.6062735   -2.1834281  0.046929797   -3.6062735    1.4228454   518400 
  293000   0.94893073   -3.6061255   -3.6061255   -2.1827321  0.047262821   -3.6061255    1.4233934   518400 
  294000   0.94769614   -3.6045046   -3.6045046   -2.1829631  0.051187772   -3.6045046    1.4215415   518400 
  295000    0.9481129   -3.6054128   -3.6054128   -2.1832462  0.048892282   -3.6054128    1.4221666   518400 
  296000   0.94807558   -3.6061268   -3.6061268   -2.1840161  0.052205248   -3.6061268    1.4221106   518400 
  297000   0.94744498   -3.6061479   -3.6061479   -2.1849832   0.04933768   -3.6061479    1.4211647   518400 
  298000   0.94815966   -3.6067638   -3.6067638   -2.1845271   0.05027887   -3.6067638    1.4222367   518400 
  299000   0.94839878   -3.6064146   -3.6064146   -2.1838192  0.049864855   -3.6064146    1.4225954   518400 
  300000   0.94889779   -3.6067741   -3.6067741   -2.1834301  0.048229403   -3.6067741    1.4233439   518400 
  301000   0.94696066    -3.604305    -3.604305   -2.1838667   0.05158949    -3.604305    1.4204383   518400 
  302000    0.9462259   -3.6035528   -3.6035528   -2.1842167   0.04846568   -3.6035528    1.4193361   518400 
  303000   0.94656209   -3.6043539   -3.6043539   -2.1845135  0.043906603   -3.6043539    1.4198404   518400 
  304000   0.94690834   -3.6045598   -3.6045598   -2.1842001   0.05227013   -3.6045598    1.4203598   518400 
  305000   0.94758768   -3.6062208   -3.6062208    -2.184842  0.047228256   -3.6062208    1.4213788   518400 
  306000   0.94755258   -3.6049642   -3.6049642    -2.183638   0.04752463   -3.6049642    1.4213261   518400 
  307000   0.94774515   -3.6056149   -3.6056149   -2.1839999  0.049210905   -3.6056149     1.421615   518400 
  308000   0.94721547   -3.6056385   -3.6056385    -2.184818  0.042910356   -3.6056385    1.4208205   518400 
  309000   0.94744265   -3.6053819   -3.6053819   -2.1842207  0.042529797   -3.6053819    1.4211612   518400 
  310000   0.94743283   -3.6050933   -3.6050933   -2.1839468  0.052672656   -3.6050933    1.4211465   518400 
  311000   0.94660295   -3.6054521   -3.6054521   -2.1855504  0.052089927   -3.6054521    1.4199017   518400 
  312000    0.9458253   -3.6050821   -3.6050821   -2.1863468  0.050322983   -3.6050821    1.4187352   518400 
  313000   0.94699782   -3.6063769   -3.6063769   -2.1858829  0.047391366   -3.6063769     1.420494   518400 
  314000   0.94671701   -3.6076814   -3.6076814   -2.1876086  0.050957427   -3.6076814    1.4200728   518400 
  315000   0.94800209   -3.6093641   -3.6093641   -2.1873637  0.046599608   -3.6093641    1.4220004   518400 
  316000   0.94780503   -3.6086934   -3.6086934   -2.1869885  0.050457802   -3.6086934    1.4217048   518400 
  317000   0.94843948   -3.6103015   -3.6103015    -2.187645   0.04969349   -3.6103015    1.4226565   518400 
  318000    0.9473872   -3.6088621   -3.6088621   -2.1877841  0.054862966   -3.6088621    1.4210781   518400 
  319000   0.94792275    -3.609094    -3.609094   -2.1872126  0.053127945    -3.609094    1.4218814   518400 
  320000   0.94734657   -3.6078105   -3.6078105   -2.1867934  0.048369356   -3.6078105    1.4210171   518400 
  321000   0.94624499   -3.6070853   -3.6070853   -2.1877206    0.0502238   -3.6070853    1.4193647   518400 
  322000   0.94678664   -3.6067978   -3.6067978   -2.1866206  0.054950621   -3.6067978    1.4201772   518400 
  323000   0.94764282   -3.6075595   -3.6075595    -2.186098  0.056592228   -3.6075595    1.4214615   518400 
  324000   0.94696869   -3.6067583   -3.6067583    -2.186308  0.056600303   -3.6067583    1.4204503   518400 
  325000   0.94723371    -3.607212    -3.607212   -2.1863641   0.05533226    -3.607212    1.4208478   518400 
  326000   0.94566303   -3.6072492   -3.6072492   -2.1887574  0.051602394   -3.6072492    1.4184918   518400 
  327000      0.94598   -3.6075596   -3.6075596   -2.1885923   0.04661374   -3.6075596    1.4189673   518400 
  328000   0.94695182   -3.6086725   -3.6086725   -2.1882475  0.045574266   -3.6086725     1.420425   518400 
  329000   0.94652107   -3.6070715   -3.6070715   -2.1872927  0.052478997   -3.6070715    1.4197789   518400 
  330000   0.94654761   -3.6081146   -3.6081146   -2.1882959   0.04970135   -3.6081146    1.4198187   518400 
  331000   0.94730722   -3.6081234   -3.6081234   -2.1871653  0.049259702   -3.6081234    1.4209581   518400 
  332000   0.94666069   -3.6069516   -3.6069516   -2.1869633  0.048846431   -3.6069516    1.4199883   518400 
  333000   0.94806609   -3.6077031   -3.6077031   -2.1856067  0.054025136   -3.6077031    1.4220964   518400 
  334000   0.94788226   -3.6077346   -3.6077346   -2.1859139  0.044421361   -3.6077346    1.4218207   518400 
  335000   0.94951065   -3.6099767   -3.6099767   -2.1857135  0.049208347   -3.6099767    1.4242632   518400 
  336000   0.94763058   -3.6067059   -3.6067059   -2.1852627  0.049378382   -3.6067059    1.4214431   518400 
  337000    0.9476159   -3.6079429   -3.6079429   -2.1865218  0.053765531   -3.6079429    1.4214211   518400 
  338000   0.94673395   -3.6068975   -3.6068975   -2.1867993  0.053554918   -3.6068975    1.4200982   518400 
  339000   0.94693922    -3.607426    -3.607426   -2.1870199  0.053285829    -3.607426    1.4204061   518400 
  340000   0.94745914   -3.6084015   -3.6084015   -2.1872155  0.050262381   -3.6084015     1.421186   518400 
  341000   0.94807638   -3.6093668   -3.6093668    -2.187255  0.054355042   -3.6093668    1.4221118   518400 
  342000   0.94671923   -3.6083585   -3.6083585   -2.1882823  0.049563026   -3.6083585    1.4200761   518400 
  343000   0.94727378   -3.6080154   -3.6080154   -2.1871075   0.05124812   -3.6080154    1.4209079   518400 
  344000   0.94966868   -3.6120701   -3.6120701   -2.1875698  0.049957691   -3.6120701    1.4245003   518400 
  345000   0.94928877   -3.6107174   -3.6107174    -2.186787  0.050713686   -3.6107174    1.4239304   518400 
  346000   0.94773129   -3.6085109   -3.6085109   -2.1869167  0.054001123   -3.6085109    1.4215942   518400 
  347000   0.94946306    -3.609986    -3.609986   -2.1857941  0.048742038    -3.609986    1.4241918   518400 
  348000   0.94869087   -3.6085235   -3.6085235   -2.1854899  0.052236545   -3.6085235    1.4230336   518400 
  349000   0.94716753   -3.6070273   -3.6070273   -2.1862787  0.048884188   -3.6070273    1.4207486   518400 
  350000   0.94674914    -3.606573    -3.606573    -2.186452  0.042663604    -3.606573     1.420121   518400 
  351000   0.94776979   -3.6077003   -3.6077003   -2.1860484  0.053208718   -3.6077003    1.4216519   518400 
  352000   0.94808454   -3.6078955   -3.6078955   -2.1857715  0.047587476   -3.6078955    1.4221241   518400 
  353000   0.94691038   -3.6060898   -3.6060898    -2.185727  0.056457124   -3.6060898    1.4203628   518400 
  354000   0.94846228   -3.6090639   -3.6090639   -2.1863732  0.051124596   -3.6090639    1.4226907   518400 
  355000   0.94824211   -3.6093822   -3.6093822   -2.1870218  0.056717932   -3.6093822    1.4223604   518400 
  356000   0.94782309   -3.6085962   -3.6085962   -2.1868643  0.052625383   -3.6085962    1.4217319   518400 
  357000   0.95011795   -3.6128417   -3.6128417   -2.1876676  0.053278649   -3.6128417    1.4251742   518400 
  358000   0.94832141   -3.6102874   -3.6102874    -2.187808  0.057307098   -3.6102874    1.4224794   518400 
  359000   0.94783055   -3.6097211   -3.6097211    -2.187978  0.051691778   -3.6097211    1.4217431   518400 
  360000   0.94743445   -3.6096863   -3.6096863   -2.1885374  0.049013291   -3.6096863    1.4211489   518400 
  361000   0.94524269   -3.6070909   -3.6070909   -2.1892296  0.050208613   -3.6070909    1.4178613   518400 
  362000   0.94695554   -3.6085018   -3.6085018   -2.1880712  0.053588009   -3.6085018    1.4204306   518400 
  363000   0.94806089   -3.6100859   -3.6100859   -2.1879973  0.049256695   -3.6100859    1.4220886   518400 
  364000   0.94801477   -3.6095404   -3.6095404    -2.187521  0.052509465   -3.6095404    1.4220194   518400 
  365000   0.94732542   -3.6095224   -3.6095224    -2.188537  0.052063103   -3.6095224    1.4209854   518400 
  366000   0.94975553   -3.6137034   -3.6137034   -2.1890729  0.052094729   -3.6137034    1.4246305   518400 
  367000   0.94881813   -3.6139288   -3.6139288   -2.1907043  0.058447118   -3.6139288    1.4232245   518400 
  368000   0.94880107   -3.6134033   -3.6134033   -2.1902044  0.050308821   -3.6134033    1.4231989   518400 
  369000   0.94688094   -3.6117687   -3.6117687   -2.1914501  0.052090827   -3.6117687    1.4203187   518400 
  370000   0.94843393   -3.6152138   -3.6152138   -2.1925656  0.049483423   -3.6152138    1.4226482   518400 
  371000   0.94798262   -3.6140058   -3.6140058   -2.1920346  0.051285043   -3.6140058    1.4219712   518400 
  372000   0.94682158    -3.613727    -3.613727   -2.1934974  0.041090476    -3.613727    1.4202296   518400 
  373000   0.94617493   -3.6110791   -3.6110791   -2.1918194  0.048847569   -3.6110791    1.4192597   518400 
  374000   0.94783522   -3.6135142   -3.6135142   -2.1917641   0.04823325   -3.6135142    1.4217501   518400 
  375000   0.94783772   -3.6126529   -3.6126529    -2.190899  0.054041052   -3.6126529    1.4217538   518400 
  376000   0.94844308   -3.6145063   -3.6145063   -2.1918445  0.048863674   -3.6145063    1.4226619   518400 
  377000   0.94683557   -3.6128584   -3.6128584   -2.1926078   0.05240161   -3.6128584    1.4202506   518400 
  378000    0.9463186   -3.6123809   -3.6123809   -2.1929058  0.053128904   -3.6123809    1.4194752   518400 
  379000   0.94675385   -3.6128066   -3.6128066   -2.1926785  0.051928471   -3.6128066     1.420128   518400 
  380000   0.94758311   -3.6135758   -3.6135758   -2.1922038  0.051324882   -3.6135758    1.4213719   518400 
  381000   0.94783247   -3.6144118   -3.6144118   -2.1926659  0.047256263   -3.6144118     1.421746   518400 
  382000   0.94608161   -3.6117901   -3.6117901   -2.1926704  0.052857841   -3.6117901    1.4191197   518400 
  383000   0.94585232   -3.6128583   -3.6128583   -2.1940826  0.045997782   -3.6128583    1.4187757   518400 
  384000   0.94576835   -3.6124138   -3.6124138    -2.193764  0.046916162   -3.6124138    1.4186498   518400 
  385000    0.9475858   -3.6153906   -3.6153906   -2.1940147  0.045150501   -3.6153906     1.421376   518400 
  386000   0.94486627   -3.6103718   -3.6103718   -2.1930752  0.049791368   -3.6103718    1.4172967   518400 
  387000   0.94735958   -3.6139669   -3.6139669   -2.1929303  0.048996352   -3.6139669    1.4210366   518400 
  388000   0.94691399   -3.6119974   -3.6119974   -2.1916291  0.049577373   -3.6119974    1.4203682   518400 
  389000   0.94700097    -3.614166    -3.614166   -2.1936673  0.051294367    -3.614166    1.4204987   518400 
  390000   0.94830545   -3.6167225   -3.6167225    -2.194267  0.050017866   -3.6167225    1.4224554   518400 
  391000   0.94570208   -3.6123603   -3.6123603     -2.19381  0.049448609   -3.6123603    1.4185504   518400 
  392000     0.945968   -3.6126815   -3.6126815   -2.1937322   0.04799224   -3.6126815    1.4189493   518400 
  393000   0.94655549   -3.6132223   -3.6132223   -2.1933918  0.044988414   -3.6132223    1.4198305   518400 
  394000   0.94614486   -3.6115991   -3.6115991   -2.1923845  0.044608412   -3.6115991    1.4192146   518400 
  395000   0.94394618   -3.6094177   -3.6094177   -2.1935012  0.049260129   -3.6094177    1.4159165   518400 
  396000   0.94755118   -3.6134887   -3.6134887   -2.1921647  0.039764681   -3.6134887     1.421324   518400 
  397000   0.94470342   -3.6093498   -3.6093498   -2.1922974  0.046562384   -3.6093498    1.4170524   518400 
  398000   0.94733697   -3.6136425   -3.6136425   -2.1926398   0.04323882   -3.6136425    1.4210027   518400 
  399000   0.94817317   -3.6155976   -3.6155976   -2.1933406  0.046404197   -3.6155976     1.422257   518400 
  400000   0.94716695    -3.616239    -3.616239   -2.1954914  0.047129788    -3.616239    1.4207477   518400 
  401000   0.94662982   -3.6153934   -3.6153934   -2.1954514  0.045272768   -3.6153934     1.419942   518400 
  402000    0.9466638   -3.6150003   -3.6150003   -2.1950073  0.052103122   -3.6150003     1.419993   518400 
  403000   0.94739635   -3.6166732   -3.6166732   -2.1955814  0.049711393   -3.6166732    1.4210918   518400 
  404000   0.94713332   -3.6170483   -3.6170483    -2.196351  0.049955177   -3.6170483    1.4206972   518400 
  405000   0.94586767   -3.6159326   -3.6159326   -2.1971338  0.051301001   -3.6159326    1.4187988   518400 
  406000   0.94636844   -3.6165456   -3.6165456   -2.1969957  0.050395893   -3.6165456    1.4195499   518400 
  407000   0.94588277   -3.6170532   -3.6170532   -2.1982317  0.048345036   -3.6170532    1.4188214   518400 
  408000   0.94569651   -3.6173051   -3.6173051    -2.198763  0.047312865   -3.6173051     1.418542   518400 
  409000   0.94672778   -3.6182425   -3.6182425   -2.1981536  0.045629725   -3.6182425    1.4200889   518400 
  410000   0.94578634   -3.6172042   -3.6172042   -2.1985274  0.041779744   -3.6172042    1.4186768   518400 
  411000   0.94469988   -3.6166341   -3.6166341    -2.199587  0.047904126   -3.6166341    1.4170471   518400 
  412000   0.94574143   -3.6176042   -3.6176042   -2.1989948  0.052144735   -3.6176042    1.4186094   518400 
  413000   0.94578212   -3.6188578   -3.6188578   -2.2001874  0.046773307   -3.6188578    1.4186704   518400 
  414000   0.94576403   -3.6185134   -3.6185134   -2.1998701  0.055930554   -3.6185134    1.4186433   518400 
  415000   0.94699987   -3.6206113   -3.6206113   -2.2001143  0.051953772   -3.6206113    1.4204971   518400 
  416000   0.94730469      -3.6209      -3.6209   -2.1999457  0.045943926      -3.6209    1.4209543   518400 
  417000   0.94753947   -3.6217022   -3.6217022   -2.2003958  0.049255471   -3.6217022    1.4213065   518400 
  418000   0.94569763    -3.619552    -3.619552   -2.2010083  0.050980396    -3.619552    1.4185437   518400 
  419000   0.94654846    -3.620558    -3.620558   -2.2007381  0.046975457    -3.620558    1.4198199   518400 
  420000   0.94551344   -3.6185176   -3.6185176   -2.2002501  0.053326186   -3.6185176    1.4182674   518400 
  421000   0.94496082   -3.6178593   -3.6178593   -2.2004208  0.055016373   -3.6178593    1.4174385   518400 
  422000   0.94489478    -3.618569    -3.618569   -2.2012295  0.046818525    -3.618569    1.4173394   518400 
  423000   0.94453307   -3.6175785   -3.6175785   -2.2007817  0.045525795   -3.6175785    1.4167969   518400 
  424000   0.94651391   -3.6206499   -3.6206499   -2.2008818  0.048397094   -3.6206499    1.4197681   518400 
  425000   0.94576723   -3.6204879   -3.6204879   -2.2018398  0.046510149   -3.6204879    1.4186481   518400 
  426000   0.94502816   -3.6195917   -3.6195917   -2.2020522  0.045183007   -3.6195917    1.4175395   518400 
  427000   0.94564194   -3.6204866   -3.6204866   -2.2020264  0.049819676   -3.6204866    1.4184602   518400 
  428000   0.94564317   -3.6199925   -3.6199925   -2.2015305  0.048640841   -3.6199925     1.418462   518400 
  429000   0.94611247   -3.6217521   -3.6217521   -2.2025861  0.048940181   -3.6217521     1.419166   518400 
  430000   0.94599866    -3.620374    -3.620374   -2.2013787  0.046672185    -3.620374    1.4189953   518400 
  431000   0.94275533   -3.6145138   -3.6145138   -2.2003835  0.054313871   -3.6145138    1.4141303   518400 
  432000   0.94542688   -3.6192693   -3.6192693   -2.2011317  0.044707695   -3.6192693    1.4181376   518400 
  433000   0.94475571   -3.6197146   -3.6197146   -2.2025837  0.045240439   -3.6197146    1.4171308   518400 
  434000   0.94488138   -3.6198234   -3.6198234   -2.2025041  0.043525532   -3.6198234    1.4173193   518400 
  435000   0.94519956   -3.6196539   -3.6196539   -2.2018573  0.044924183   -3.6196539    1.4177966   518400 
  436000   0.94520854   -3.6199379   -3.6199379   -2.2021278    0.0504621   -3.6199379    1.4178101   518400 
  437000   0.94534221    -3.620632    -3.620632   -2.2026214  0.051082338    -3.620632    1.4180106   518400 
  438000   0.94550211   -3.6205056   -3.6205056   -2.2022552  0.055144261   -3.6205056    1.4182504   518400 
  439000    0.9468639    -3.621362    -3.621362   -2.2010689  0.046342113    -3.621362    1.4202931   518400 
  440000   0.94608457   -3.6199651   -3.6199651    -2.200841  0.053425389   -3.6199651    1.4191241   518400 
  441000   0.94503659   -3.6191529   -3.6191529   -2.2016007  0.044717275   -3.6191529    1.4175522   518400 
  442000   0.94403236   -3.6171194   -3.6171194   -2.2010736  0.039549302   -3.6171194    1.4160458   518400 
  443000   0.94324348    -3.616198    -3.616198   -2.2013355  0.044829753    -3.616198    1.4148625   518400 
  444000   0.94323271   -3.6156816   -3.6156816   -2.2008352  0.050238109   -3.6156816    1.4148463   518400 
  445000   0.94493833   -3.6180073   -3.6180073   -2.2006025  0.052570011   -3.6180073    1.4174048   518400 
  446000   0.94502544   -3.6202347   -3.6202347   -2.2026993  0.041247357   -3.6202347    1.4175354   518400 
  447000   0.94642985   -3.6216057   -3.6216057   -2.2019636  0.048924247   -3.6216057     1.419642   518400 
  448000   0.94510562   -3.6207991   -3.6207991   -2.2031434  0.047323881   -3.6207991    1.4176557   518400 
  449000   0.94439919   -3.6205667   -3.6205667   -2.2039706  0.046976483   -3.6205667     1.416596   518400 
  450000   0.94589701   -3.6225624   -3.6225624   -2.2037196  0.046713149   -3.6225624    1.4188428   518400 
  451000   0.94536715   -3.6223825   -3.6223825   -2.2043345  0.048278382   -3.6223825     1.418048   518400 
  452000   0.94469214   -3.6220921   -3.6220921   -2.2050567  0.050550594   -3.6220921    1.4170355   518400 
  453000   0.94556605   -3.6241774   -3.6241774   -2.2058311  0.045363625   -3.6241774    1.4183463   518400 
  454000   0.94408939    -3.622926    -3.622926   -2.2067946  0.047280719    -3.622926    1.4161313   518400 
  455000     0.945564   -3.6249842   -3.6249842   -2.2066409  0.047944708   -3.6249842    1.4183433   518400 
  456000   0.94417094   -3.6235654   -3.6235654   -2.2073117  0.051996029   -3.6235654    1.4162537   518400 
  457000   0.94479796   -3.6258158   -3.6258158   -2.2086216  0.049796678   -3.6258158    1.4171942   518400 
  458000   0.94528224   -3.6262697   -3.6262697   -2.2083491  0.047723464   -3.6262697    1.4179206   518400 
  459000   0.94377946   -3.6237429   -3.6237429   -2.2080764  0.045186743   -3.6237429    1.4156665   518400 
  460000   0.94410426   -3.6246188   -3.6246188   -2.2084651  0.049784326   -3.6246188    1.4161537   518400 
  461000   0.94507261   -3.6254623   -3.6254623   -2.2078561  0.048278136   -3.6254623    1.4176062   518400 
  462000   0.94479109   -3.6253557   -3.6253557   -2.2081718  0.045543709   -3.6253557    1.4171839   518400 
  463000   0.94602081   -3.6271153   -3.6271153   -2.2080868   0.04450572   -3.6271153    1.4190285   518400 
  464000   0.94450986   -3.6247493   -3.6247493   -2.2079873  0.046664912   -3.6247493    1.4167621   518400 
  465000   0.94427466   -3.6251108   -3.6251108   -2.2087015  0.051273302   -3.6251108    1.4164093   518400 
  466000   0.94478113   -3.6258207   -3.6258207   -2.2086517  0.042347517   -3.6258207     1.417169   518400 
  467000   0.94523859   -3.6274419   -3.6274419   -2.2095868  0.043969352   -3.6274419    1.4178551   518400 
  468000   0.94474686   -3.6269349   -3.6269349   -2.2098174  0.043810381   -3.6269349    1.4171176   518400 
  469000   0.94358687   -3.6251429   -3.6251429   -2.2097653  0.043759171   -3.6251429    1.4153776   518400 
  470000   0.94553403     -3.62824     -3.62824   -2.2099417  0.050524399     -3.62824    1.4182983   518400 
  471000   0.94555145   -3.6276587   -3.6276587   -2.2093343   0.05052364   -3.6276587    1.4183244   518400 
  472000   0.94556014   -3.6286369   -3.6286369   -2.2102994  0.048124097   -3.6286369    1.4183375   518400 
  473000   0.94438592   -3.6275742   -3.6275742   -2.2109981  0.045850383   -3.6275742    1.4165761   518400 
  474000   0.94349858   -3.6270919   -3.6270919   -2.2118467  0.048880991   -3.6270919    1.4152451   518400 
  475000   0.94365946   -3.6278321   -3.6278321   -2.2123456  0.045041892   -3.6278321    1.4154865   518400 
  476000   0.94460653   -3.6285397   -3.6285397   -2.2116326   0.04335365   -3.6285397    1.4169071   518400 
  477000   0.94567319   -3.6294014   -3.6294014   -2.2108943   0.04536058   -3.6294014     1.418507   518400 
  478000   0.94328523   -3.6256124   -3.6256124   -2.2106873  0.053864477   -3.6256124    1.4149251   518400 
  479000   0.94296435   -3.6253705   -3.6253705   -2.2109267  0.045841926   -3.6253705    1.4144438   518400 
  480000   0.94426628    -3.626962    -3.626962   -2.2105653  0.045483655    -3.626962    1.4163967   518400 
  481000   0.94530717   -3.6283106   -3.6283106   -2.2103526  0.050980348   -3.6283106     1.417958   518400 
  482000   0.94334294   -3.6263365   -3.6263365   -2.2113248  0.047127111   -3.6263365    1.4150117   518400 
  483000   0.94456636   -3.6272951   -3.6272951   -2.2104483  0.051394017   -3.6272951    1.4168468   518400 
  484000   0.94612885    -3.629138    -3.629138   -2.2099475  0.050084438    -3.629138    1.4191905   518400 
  485000   0.94547206   -3.6284405   -3.6284405   -2.2102352   0.04908991   -3.6284405    1.4182053   518400 
  486000   0.94627355   -3.6290128   -3.6290128   -2.2096053  0.046895887   -3.6290128    1.4194076   518400 
  487000    0.9461428   -3.6283041   -3.6283041   -2.2090927  0.050021009   -3.6283041    1.4192115   518400 
  488000    0.9449806   -3.6266259   -3.6266259   -2.2091577  0.050615034   -3.6266259    1.4174682   518400 
  489000   0.94388089   -3.6257032   -3.6257032   -2.2098846  0.042975649   -3.6257032    1.4158186   518400 
  490000    0.9428173   -3.6240509   -3.6240509   -2.2098276  0.041943666   -3.6240509    1.4142232   518400 
  491000   0.94456117   -3.6253684   -3.6253684   -2.2085294  0.043637285   -3.6253684     1.416839   518400 
  492000   0.94388285   -3.6247054   -3.6247054   -2.2088839  0.043120242   -3.6247054    1.4158216   518400 
  493000   0.94422853   -3.6256554   -3.6256554   -2.2093153   0.04426851   -3.6256554    1.4163401   518400 
  494000   0.94431647   -3.6261323   -3.6261323   -2.2096603  0.051156106   -3.6261323     1.416472   518400 
  495000   0.94436026    -3.626421    -3.626421   -2.2098833  0.045392319    -3.626421    1.4165377   518400 
  496000   0.94544618   -3.6280475   -3.6280475    -2.209881  0.052780059   -3.6280475    1.4181665   518400 
  497000    0.9444321   -3.6273775   -3.6273775   -2.2107321  0.049762366   -3.6273775    1.4166454   518400 
  498000   0.94482475   -3.6277573   -3.6277573   -2.2105229  0.046090131   -3.6277573    1.4172344   518400 
  499000   0.94465561   -3.6275892   -3.6275892   -2.2106085  0.043903213   -3.6275892    1.4169807   518400 
  500000   0.94424402   -3.6263724   -3.6263724   -2.2100091  0.047745027   -3.6263724    1.4163633   518400 
  501000   0.94482572     -3.62811     -3.62811   -2.2108741  0.058770651     -3.62811    1.4172358   518400 
  502000   0.94434599   -3.6263926   -3.6263926   -2.2098764  0.049264856   -3.6263926    1.4165162   518400 
  503000   0.94357594   -3.6266339   -3.6266339   -2.2112727  0.047742973   -3.6266339    1.4153612   518400 
  504000   0.94241418   -3.6253593   -3.6253593   -2.2117408  0.046775027   -3.6253593    1.4136185   518400 
  505000   0.94337164   -3.6272322   -3.6272322   -2.2121775  0.040621154   -3.6272322    1.4150547   518400 
  506000   0.94396392   -3.6266262   -3.6266262   -2.2106831  0.049224397   -3.6266262    1.4159431   518400 
  507000   0.94434968   -3.6273032   -3.6273032   -2.2107814  0.050570785   -3.6273032    1.4165218   518400 
  508000   0.94211071   -3.6255896   -3.6255896   -2.2124262   0.04865268   -3.6255896    1.4131633   518400 
  509000   0.94344928   -3.6281921   -3.6281921   -2.2130209  0.043886593   -3.6281921    1.4151712   518400 
  510000   0.94211354   -3.6262569   -3.6262569   -2.2130894  0.043105502   -3.6262569    1.4131676   518400 
  511000   0.94368528   -3.6267086   -3.6267086   -2.2111834  0.046387594   -3.6267086    1.4155252   518400 
  512000   0.94478274   -3.6283993   -3.6283993    -2.211228  0.045788589   -3.6283993    1.4171714   518400 
  513000   0.94357638   -3.6263314   -3.6263314   -2.2109696  0.045646026   -3.6263314    1.4153618   518400 
  514000   0.94404627   -3.6294823   -3.6294823   -2.2134157   0.05103766   -3.6294823    1.4160667   518400 
  515000   0.94320459   -3.6278044   -3.6278044   -2.2130002   0.05191787   -3.6278044    1.4148042   518400 
  516000   0.94430162   -3.6296799   -3.6296799   -2.2132302  0.049448343   -3.6296799    1.4164497   518400 
  517000   0.94582463    -3.632952    -3.632952   -2.2142177  0.049729096    -3.632952    1.4187342   518400 
  518000   0.94491692   -3.6318755   -3.6318755   -2.2145029  0.045254879   -3.6318755    1.4173726   518400 
  519000   0.94361993   -3.6308251   -3.6308251   -2.2153979  0.051831816   -3.6308251    1.4154272   518400 
  520000   0.94539813   -3.6333745   -3.6333745   -2.2152801  0.038780998   -3.6333745    1.4180945   518400 
  521000   0.94345159   -3.6305013   -3.6305013   -2.2153267  0.046740929   -3.6305013    1.4151747   518400 
  522000   0.94285083   -3.6304995   -3.6304995   -2.2162259  0.044880773   -3.6304995    1.4142735   518400 
  523000   0.94202873   -3.6288889   -3.6288889   -2.2158485  0.049565644   -3.6288889    1.4130404   518400 
  524000   0.94187685   -3.6287248   -3.6287248   -2.2159122  0.048642345   -3.6287248    1.4128126   518400 
  525000   0.94415236   -3.6315976   -3.6315976   -2.2153718    0.0518523   -3.6315976    1.4162258   518400 
  526000     0.943104   -3.6314593   -3.6314593    -2.216806  0.045099153   -3.6314593    1.4146533   518400 
  527000   0.94255831   -3.6298595   -3.6298595   -2.2160248  0.050582821   -3.6298595    1.4138347   518400 
  528000   0.94349448   -3.6304416   -3.6304416   -2.2152026  0.050732889   -3.6304416     1.415239   518400 
  529000   0.94342887   -3.6308318   -3.6308318   -2.2156913  0.049508548   -3.6308318    1.4151406   518400 
  530000    0.9433779   -3.6309957   -3.6309957   -2.2159315  0.048758637   -3.6309957    1.4150641   518400 
  531000   0.94316377   -3.6308305   -3.6308305   -2.2160876   0.04283237   -3.6308305    1.4147429   518400 
  532000   0.94180803   -3.6298225   -3.6298225   -2.2171132   0.04297815   -3.6298225    1.4127093   518400 
  533000   0.94307654   -3.6312148   -3.6312148   -2.2166027   0.04139115   -3.6312148    1.4146121   518400 
  534000   0.94316465   -3.6309223   -3.6309223   -2.2161781   0.03975634   -3.6309223    1.4147442   518400 
  535000   0.94380785   -3.6307429   -3.6307429   -2.2150339  0.042708503   -3.6307429     1.415709   518400 
  536000    0.9432961    -3.631083    -3.631083   -2.2161416  0.046671343    -3.631083    1.4149414   518400 
  537000   0.94295167     -3.63117     -3.63117   -2.2167452  0.047219992     -3.63117    1.4144248   518400 
  538000   0.94376966    -3.631801    -3.631801   -2.2161493  0.049492931    -3.631801    1.4156518   518400 
  539000   0.94338142   -3.6325699   -3.6325699   -2.2175005  0.049929629   -3.6325699    1.4150694   518400 
  540000   0.94568214   -3.6350841   -3.6350841   -2.2165636  0.051284406   -3.6350841    1.4185205   518400 
  541000   0.94454129   -3.6337621   -3.6337621    -2.216953  0.044996859   -3.6337621    1.4168092   518400 
  542000   0.94483061   -3.6337545   -3.6337545   -2.2165113  0.052509438   -3.6337545    1.4172432   518400 
  543000   0.94206384   -3.6301546   -3.6301546   -2.2170616  0.041828774   -3.6301546     1.413093   518400 
  544000    0.9429472   -3.6309209   -3.6309209   -2.2165028  0.050716474   -3.6309209    1.4144181   518400 
  545000   0.94214849    -3.630515    -3.630515    -2.217295  0.045835768    -3.630515      1.41322   518400 
  546000   0.94241827   -3.6319707   -3.6319707    -2.218346  0.043242471   -3.6319707    1.4136247   518400 
  547000   0.94278725   -3.6330716   -3.6330716   -2.2188935  0.044318785   -3.6330716    1.4141782   518400 
  548000   0.94306668   -3.6340589   -3.6340589   -2.2194616  0.046312635   -3.6340589    1.4145973   518400 
  549000   0.94317833   -3.6356554   -3.6356554   -2.2208906   0.04476406   -3.6356554    1.4147648   518400 
  550000   0.94305002   -3.6360308   -3.6360308   -2.2214585  0.053392144   -3.6360308    1.4145723   518400 
  551000   0.94412881   -3.6382718   -3.6382718   -2.2220813  0.046181659   -3.6382718    1.4161905   518400 
  552000   0.94367323   -3.6371545   -3.6371545   -2.2216474  0.048746688   -3.6371545    1.4155071   518400 
  553000   0.94298817   -3.6358068   -3.6358068   -2.2213273  0.042586062   -3.6358068    1.4144795   518400 
  554000   0.94314603   -3.6359523   -3.6359523    -2.221236  0.050308428   -3.6359523    1.4147163   518400 
  555000   0.94280818   -3.6345772   -3.6345772   -2.2203677   0.04354783   -3.6345772    1.4142095   518400 
  556000   0.94231055   -3.6342704   -3.6342704   -2.2208073  0.049680451   -3.6342704    1.4134631   518400 
  557000   0.94147022   -3.6334227   -3.6334227   -2.2212201  0.041446711   -3.6334227    1.4122026   518400 
  558000   0.93999493   -3.6310208   -3.6310208   -2.2210311  0.044264789   -3.6310208    1.4099897   518400 
  559000   0.94115955   -3.6341656   -3.6341656   -2.2224289  0.038527664   -3.6341656    1.4117366   518400 
  560000   0.94268243   -3.6367424   -3.6367424   -2.2227215  0.044438971   -3.6367424    1.4140209   518400 
  561000   0.94257376    -3.637022    -3.637022   -2.2231641  0.047597197    -3.637022    1.4138579   518400 
  562000   0.94332547   -3.6395221   -3.6395221   -2.2245366  0.044793101   -3.6395221    1.4149855   518400 
  563000   0.94351083   -3.6397398   -3.6397398   -2.2244763  0.052417706   -3.6397398    1.4152635   518400 
  564000   0.94396245   -3.6405324   -3.6405324   -2.2245915  0.050814353   -3.6405324    1.4159409   518400 
  565000   0.94439876   -3.6427922   -3.6427922   -2.2261968  0.050830604   -3.6427922    1.4165954   518400 
  566000   0.94337436   -3.6413307   -3.6413307   -2.2262718  0.051058804   -3.6413307    1.4150588   518400 
  567000   0.94299326   -3.6408829   -3.6408829   -2.2263957  0.044686215   -3.6408829    1.4144872   518400 
  568000   0.94051488   -3.6379644   -3.6379644   -2.2271948  0.042412795   -3.6379644    1.4107696   518400 
  569000   0.94079167   -3.6384102   -3.6384102   -2.2272254   0.03843776   -3.6384102    1.4111848   518400 
  570000   0.93993607   -3.6373204   -3.6373204    -2.227419  0.042961423   -3.6373204    1.4099014   518400 
  571000   0.94032827   -3.6382073   -3.6382073   -2.2277176   0.03921618   -3.6382073    1.4104897   518400 
  572000   0.94046823   -3.6384244   -3.6384244   -2.2277247  0.043705191   -3.6384244    1.4106996   518400 
  573000   0.94179566   -3.6408741   -3.6408741   -2.2281833  0.047776632   -3.6408741    1.4126908   518400 
  574000   0.94274863    -3.642941    -3.642941   -2.2288208  0.045734094    -3.642941    1.4141202   518400 
  575000   0.94335209   -3.6427585   -3.6427585   -2.2277331  0.049663796   -3.6427585    1.4150254   518400 
  576000    0.9420637   -3.6410465   -3.6410465   -2.2279537  0.050332655   -3.6410465    1.4130928   518400 
  577000   0.94273494   -3.6419018   -3.6419018   -2.2278021  0.049424192   -3.6419018    1.4140997   518400 
  578000   0.94101726   -3.6394454   -3.6394454   -2.2279222   0.04313415   -3.6394454    1.4115232   518400 
  579000   0.94005567   -3.6373105   -3.6373105   -2.2272297  0.041444834   -3.6373105    1.4100808   518400 
  580000    0.9419737   -3.6404942   -3.6404942   -2.2275364  0.045063142   -3.6404942    1.4129578   518400 
  581000   0.94123652    -3.637786    -3.637786    -2.225934  0.043206126    -3.637786    1.4118521   518400 
  582000   0.94057548   -3.6386297   -3.6386297   -2.2277692  0.040849623   -3.6386297    1.4108605   518400 
  583000   0.94098966   -3.6385576   -3.6385576   -2.2270758  0.041205438   -3.6385576    1.4114818   518400 
  584000   0.94227267   -3.6410119   -3.6410119   -2.2276056  0.050253527   -3.6410119    1.4134063   518400 
  585000   0.94324187   -3.6428293   -3.6428293   -2.2279692  0.040183714   -3.6428293    1.4148601   518400 
  586000   0.94253338   -3.6423801   -3.6423801   -2.2285827  0.046107189   -3.6423801    1.4137973   518400 
  587000   0.94297136   -3.6445843   -3.6445843     -2.23013  0.046368276   -3.6445843    1.4144543   518400 
  588000    0.9421652   -3.6432809   -3.6432809   -2.2300358  0.042506978   -3.6432809    1.4132451   518400 
  589000   0.93996389   -3.6410456   -3.6410456   -2.2311025  0.050431736   -3.6410456    1.4099431   518400 
  590000   0.94189045   -3.6442396   -3.6442396   -2.2314067  0.039674304   -3.6442396    1.4128329   518400 
  591000   0.94043572   -3.6409972   -3.6409972   -2.2303463  0.040731693   -3.6409972    1.4106509   518400 
  592000   0.93985841    -3.640405    -3.640405   -2.2306201   0.04511328    -3.640405    1.4097849   518400 
  593000   0.94281862   -3.6435779   -3.6435779   -2.2293526  0.045357322   -3.6435779    1.4142252   518400 
  594000   0.94182462   -3.6423914   -3.6423914   -2.2296572  0.045155844   -3.6423914    1.4127342   518400 
  595000   0.94149113   -3.6422616   -3.6422616   -2.2300277  0.043680596   -3.6422616     1.412234   518400 
  596000   0.94259166   -3.6430129   -3.6430129   -2.2291282  0.046790139   -3.6430129    1.4138848   518400 
  597000   0.94173509   -3.6425555   -3.6425555   -2.2299556  0.048088207   -3.6425555    1.4125999   518400 
  598000   0.93929711   -3.6393643   -3.6393643   -2.2304213  0.044516152   -3.6393643     1.408943   518400 
  599000    0.9408195   -3.6417958   -3.6417958   -2.2305693  0.045426055   -3.6417958    1.4112265   518400 
  600000   0.94066554   -3.6416551   -3.6416551   -2.2306595  0.043419045   -3.6416551    1.4109956   518400 
  601000   0.94006053   -3.6419933   -3.6419933   -2.2319052  0.042185564   -3.6419933    1.4100881   518400 
  602000   0.94071699   -3.6424273   -3.6424273   -2.2313545  0.044638237   -3.6424273    1.4110728   518400 
  603000   0.94097792   -3.6436146   -3.6436146   -2.2321505  0.044042623   -3.6436146    1.4114642   518400 
  604000   0.94118372   -3.6443147   -3.6443147   -2.2325419  0.048301294   -3.6443147    1.4117729   518400 
  605000   0.94014296   -3.6426938   -3.6426938   -2.2324821  0.050249322   -3.6426938    1.4102117   518400 
  606000   0.94116285   -3.6444904   -3.6444904   -2.2327489  0.045078832   -3.6444904    1.4117416   518400 
  607000   0.94034528    -3.643939    -3.643939   -2.2334238  0.043969736    -3.643939    1.4105152   518400 
  608000   0.94106735   -3.6436088   -3.6436088   -2.2320105  0.043940732   -3.6436088    1.4115983   518400 
  609000   0.93984093   -3.6419557   -3.6419557    -2.232197   0.04633163   -3.6419557    1.4097587   518400 
  610000   0.94192419   -3.6442713   -3.6442713   -2.2313878  0.049556344   -3.6442713    1.4128836   518400 
  611000    0.9405416   -3.6425379   -3.6425379   -2.2317282  0.040931327   -3.6425379    1.4108097   518400 
  612000   0.94093682   -3.6433909   -3.6433909   -2.2319884  0.047438256   -3.6433909    1.4114025   518400 
  613000   0.94084713   -3.6432887   -3.6432887   -2.2320207  0.046437872   -3.6432887     1.411268   518400 
  614000    0.9396671   -3.6416874   -3.6416874   -2.2321894  0.046449953   -3.6416874    1.4094979   518400 
  615000   0.94067016    -3.641172    -3.641172   -2.2301695   0.04759859    -3.641172    1.4110025   518400 
  616000   0.94106221    -3.642182    -3.642182   -2.2305914  0.040944591    -3.642182    1.4115906   518400 
  617000   0.94086821   -3.6411979   -3.6411979   -2.2298983  0.050314525   -3.6411979    1.4112996   518400 
  618000   0.94179329   -3.6428534   -3.6428534   -2.2301662  0.041210698   -3.6428534    1.4126872   518400 
  619000   0.94054861   -3.6418927   -3.6418927   -2.2310725  0.043670582   -3.6418927    1.4108202   518400 
  620000   0.94017708   -3.6436595   -3.6436595   -2.2333966  0.038720149   -3.6436595    1.4102629   518400 
  621000   0.93950424   -3.6423105   -3.6423105   -2.2330569  0.046479016   -3.6423105    1.4092536   518400 
  622000   0.94044617   -3.6432235   -3.6432235    -2.232557  0.048486821   -3.6432235    1.4106665   518400 
  623000   0.93941459   -3.6422931   -3.6422931   -2.2331739  0.040380687   -3.6422931    1.4091192   518400 
  624000   0.94148721   -3.6454349   -3.6454349   -2.2332068  0.044091212   -3.6454349    1.4122281   518400 
  625000   0.93953976   -3.6439228   -3.6439228   -2.2346159  0.045650134   -3.6439228    1.4093069   518400 
  626000   0.94007164   -3.6458023   -3.6458023   -2.2356976  0.045441989   -3.6458023    1.4101047   518400 
  627000   0.94087133   -3.6457443   -3.6457443     -2.23444  0.046652292   -3.6457443    1.4113043   518400 
  628000   0.94131765   -3.6470694   -3.6470694   -2.2350956  0.047934523   -3.6470694    1.4119737   518400 
  629000   0.94068624   -3.6470993   -3.6470993   -2.2360727  0.046944975   -3.6470993    1.4110266   518400 
  630000    0.9402852   -3.6448202   -3.6448202   -2.2343952  0.043735325   -3.6448202    1.4104251   518400 
  631000   0.93860012   -3.6443773   -3.6443773   -2.2364799  0.042015241   -3.6443773    1.4078975   518400 
  632000   0.93868236   -3.6450426   -3.6450426   -2.2370218  0.047918571   -3.6450426    1.4080208   518400 
  633000   0.93937859    -3.646311    -3.646311   -2.2372458  0.041353415    -3.646311    1.4090652   518400 
  634000   0.93840196   -3.6449452   -3.6449452   -2.2373449  0.046033668   -3.6449452    1.4076002   518400 
  635000   0.93930221   -3.6473166   -3.6473166    -2.238366   0.04497772   -3.6473166    1.4089506   518400 
  636000   0.94010792   -3.6483928   -3.6483928   -2.2382337  0.047986684   -3.6483928    1.4101592   518400 
  637000   0.94122266   -3.6507995   -3.6507995   -2.2389682  0.049293167   -3.6507995    1.4118313   518400 
  638000   0.94209733   -3.6523655   -3.6523655   -2.2392223  0.046828578   -3.6523655    1.4131433   518400 
  639000   0.94172353   -3.6537779   -3.6537779   -2.2411954  0.040935359   -3.6537779    1.4125826   518400 
  640000   0.94027219     -3.65135     -3.65135   -2.2409445  0.049773079     -3.65135    1.4104056   518400 
  641000   0.94120303   -3.6521662   -3.6521662   -2.2403643   0.03750782   -3.6521662    1.4118018   518400 
  642000   0.93926213    -3.650013    -3.650013   -2.2411225  0.043181303    -3.650013    1.4088905   518400 
  643000   0.93957182    -3.650005    -3.650005   -2.2406499  0.043206625    -3.650005     1.409355   518400 
  644000   0.93776612    -3.648303    -3.648303   -2.2416565   0.04579472    -3.648303    1.4066465   518400 
  645000   0.93881026   -3.6492806   -3.6492806   -2.2410679   0.04376584   -3.6492806    1.4082127   518400 
  646000   0.93994257    -3.650657    -3.650657   -2.2407458  0.046373773    -3.650657    1.4099111   518400 
  647000   0.94062528   -3.6522007   -3.6522007   -2.2412655   0.04029223   -3.6522007    1.4109352   518400 
  648000   0.94055856   -3.6535129   -3.6535129   -2.2426777  0.040469933   -3.6535129    1.4108351   518400 
  649000   0.93884623    -3.650569    -3.650569   -2.2423023  0.044995457    -3.650569    1.4082666   518400 
  650000   0.94038821   -3.6526053   -3.6526053   -2.2420257  0.044537128   -3.6526053    1.4105796   518400 
  651000   0.93914698   -3.6512909   -3.6512909   -2.2425731  0.044364379   -3.6512909    1.4087178   518400 
  652000   0.93923908    -3.650862    -3.650862   -2.2420061  0.036086018    -3.650862    1.4088559   518400 
  653000   0.93919491   -3.6506798   -3.6506798   -2.2418902  0.046198189   -3.6506798    1.4087896   518400 
  654000   0.93994817   -3.6523506   -3.6523506   -2.2424311  0.045281699   -3.6523506    1.4099195   518400 
  655000   0.94056964   -3.6535468   -3.6535468   -2.2426951  0.040883079   -3.6535468    1.4108517   518400 
  656000   0.93810461   -3.6494797   -3.6494797   -2.2423255  0.043935113   -3.6494797    1.4071542   518400 
  657000   0.93989122   -3.6524379   -3.6524379   -2.2426038  0.039402577   -3.6524379    1.4098341   518400 
  658000   0.93947863   -3.6514416   -3.6514416   -2.2422263  0.049460523   -3.6514416    1.4092152   518400 
  659000   0.93793295   -3.6498927   -3.6498927    -2.242996  0.044834535   -3.6498927    1.4068967   518400 
  660000   0.93842083   -3.6507224   -3.6507224   -2.2430939  0.048107879   -3.6507224    1.4076285   518400 
  661000   0.94020154    -3.652905    -3.652905   -2.2426054  0.042792535    -3.652905    1.4102996   518400 
  662000   0.93904311   -3.6515461   -3.6515461   -2.2429842  0.044436355   -3.6515461     1.408562   518400 
  663000   0.93939335   -3.6521786   -3.6521786   -2.2430913  0.039466047   -3.6521786    1.4090873   518400 
  664000   0.93972197   -3.6532504   -3.6532504   -2.2436702  0.038516138   -3.6532504    1.4095802   518400 
  665000   0.94076492   -3.6547838   -3.6547838   -2.2436391  0.042915455   -3.6547838    1.4111447   518400 
  666000   0.94040311   -3.6538597   -3.6538597   -2.2432577   0.04858475   -3.6538597    1.4106019   518400 
  667000   0.93906266   -3.6541252   -3.6541252   -2.2455339  0.044681053   -3.6541252    1.4085913   518400 
  668000   0.93892986   -3.6543786   -3.6543786   -2.2459865  0.039710137   -3.6543786    1.4083921   518400 
  669000   0.93833901   -3.6533975   -3.6533975   -2.2458917  0.046428012   -3.6533975    1.4075058   518400 
  670000    0.9376547   -3.6524725   -3.6524725   -2.2459932  0.047394039   -3.6524725    1.4064793   518400 
  671000   0.93796835   -3.6546618   -3.6546618    -2.247712  0.042702392   -3.6546618    1.4069498   518400 
  672000   0.93778459   -3.6549058   -3.6549058   -2.2482316  0.039846799   -3.6549058    1.4066742   518400 
  673000   0.93997038   -3.6570521   -3.6570521   -2.2470992  0.043668065   -3.6570521    1.4099528   518400 
  674000   0.93910395   -3.6557168   -3.6557168   -2.2470636  0.038547072   -3.6557168    1.4086532   518400 
  675000    0.9390942   -3.6559649   -3.6559649   -2.2473263  0.041183589   -3.6559649    1.4086386   518400 
  676000   0.93908102    -3.655763    -3.655763   -2.2471442  0.043057508    -3.655763    1.4086188   518400 
  677000    0.9396341   -3.6564679   -3.6564679   -2.2470195  0.039301722   -3.6564679    1.4094484   518400 
  678000   0.93688054    -3.653769    -3.653769   -2.2484509  0.042610605    -3.653769    1.4053181   518400 
  679000   0.93784295   -3.6553616   -3.6553616   -2.2485999  0.042097755   -3.6553616    1.4067617   518400 
  680000   0.93747492   -3.6547506   -3.6547506   -2.2485409  0.043211892   -3.6547506    1.4062097   518400 
  681000   0.93809604   -3.6562625   -3.6562625   -2.2491212  0.040006384   -3.6562625    1.4071414   518400 
  682000   0.93769752   -3.6552909   -3.6552909   -2.2487474  0.041069156   -3.6552909    1.4065436   518400 
  683000   0.93804341   -3.6555224   -3.6555224     -2.24846  0.043216131   -3.6555224    1.4070624   518400 
  684000    0.9385729   -3.6563829   -3.6563829   -2.2485262   0.04775429   -3.6563829    1.4078566   518400 
  685000   0.93939511   -3.6599866   -3.6599866   -2.2508966  0.043510499   -3.6599866    1.4090899   518400 
  686000   0.93722201   -3.6560489   -3.6560489   -2.2502186  0.050611126   -3.6560489    1.4058303   518400 
  687000   0.93663146   -3.6564962   -3.6564962   -2.2515517   0.04375982   -3.6564962    1.4049445   518400 
  688000   0.93755036   -3.6571731   -3.6571731   -2.2508503  0.044252064   -3.6571731    1.4063228   518400 
  689000   0.93749771   -3.6575516   -3.6575516   -2.2513077  0.040325673   -3.6575516    1.4062439   518400 
  690000   0.93521437   -3.6547476   -3.6547476   -2.2519287  0.040914986   -3.6547476    1.4028188   518400 
  691000   0.93756048   -3.6586577   -3.6586577   -2.2523197  0.037637699   -3.6586577     1.406338   518400 
  692000   0.93819209   -3.6600716   -3.6600716   -2.2527862  0.035634747   -3.6600716    1.4072854   518400 
  693000   0.93847547   -3.6604627   -3.6604627   -2.2527522  0.042283263   -3.6604627    1.4077105   518400 
  694000   0.93778666   -3.6593593   -3.6593593    -2.252682  0.055756615   -3.6593593    1.4066773   518400 
  695000   0.93928759   -3.6605609   -3.6605609   -2.2516322  0.048700986   -3.6605609    1.4089287   518400 
  696000   0.93887493   -3.6609198   -3.6609198   -2.2526101  0.050343664   -3.6609198    1.4083097   518400 
  697000   0.93668652   -3.6581517   -3.6581517   -2.2531247  0.049778235   -3.6581517    1.4050271   518400 
  698000    0.9397712   -3.6621324   -3.6621324   -2.2524783  0.038721511   -3.6621324    1.4096541   518400 
  699000   0.93776852   -3.6585283   -3.6585283   -2.2518783  0.045165058   -3.6585283    1.4066501   518400 
  700000   0.93805133   -3.6581597   -3.6581597   -2.2510854  0.044065165   -3.6581597    1.4070743   518400 
  701000   0.93633757   -3.6566968   -3.6566968   -2.2521932  0.045234313   -3.6566968    1.4045037   518400 
  702000   0.93701846   -3.6576848   -3.6576848   -2.2521598  0.044202155   -3.6576848     1.405525   518400 
  703000   0.93724756   -3.6586696   -3.6586696    -2.252801  0.034155708   -3.6586696    1.4058686   518400 
  704000   0.93742238   -3.6594679   -3.6594679   -2.2533371  0.040466954   -3.6594679    1.4061309   518400 
  705000   0.93803273   -3.6598735   -3.6598735   -2.2528271  0.046035418   -3.6598735    1.4070464   518400 
  706000   0.93820996   -3.6612326   -3.6612326   -2.2539204  0.044773429   -3.6612326    1.4073122   518400 
  707000   0.93786716   -3.6618507   -3.6618507   -2.2550527  0.043010352   -3.6618507     1.406798   518400 
  708000   0.93799856   -3.6615229   -3.6615229   -2.2545277  0.048458789   -3.6615229    1.4069951   518400 
  709000    0.9388568   -3.6635104   -3.6635104   -2.2552279  0.043174936   -3.6635104    1.4082825   518400 
  710000   0.93552627   -3.6594599   -3.6594599   -2.2561732  0.043120202   -3.6594599    1.4032867   518400 
  711000    0.9357705   -3.6592404   -3.6592404   -2.2555874  0.043667941   -3.6592404     1.403653   518400 
  712000   0.93675815   -3.6606688   -3.6606688   -2.2555343  0.045733036   -3.6606688    1.4051345   518400 
  713000    0.9364747   -3.6609234   -3.6609234    -2.256214   0.04180958   -3.6609234    1.4047093   518400 
  714000   0.93767349   -3.6620935   -3.6620935   -2.2555859  0.036017643   -3.6620935    1.4065075   518400 
  715000   0.93721059   -3.6612837   -3.6612837   -2.2554706  0.037878033   -3.6612837    1.4058132   518400 
  716000   0.93575179   -3.6616813   -3.6616813   -2.2580563  0.041301624   -3.6616813     1.403625   518400 
  717000   0.93704939   -3.6633996   -3.6633996   -2.2578282  0.046890809   -3.6633996    1.4055714   518400 
  718000   0.93796712   -3.6671287   -3.6671287   -2.2601807  0.046109176   -3.6671287     1.406948   518400 
  719000   0.93677904   -3.6652316   -3.6652316   -2.2600657  0.052579935   -3.6652316    1.4051659   518400 
  720000   0.93687251   -3.6667384   -3.6667384   -2.2614324  0.041622485   -3.6667384     1.405306   518400 
  721000   0.93698182   -3.6662283   -3.6662283   -2.2607583  0.039849187   -3.6662283      1.40547   518400 
  722000   0.93608696   -3.6649441   -3.6649441   -2.2608164  0.038581781   -3.6649441    1.4041277   518400 
  723000   0.93577885    -3.663546    -3.663546   -2.2598804  0.045940045    -3.663546    1.4036656   518400 
  724000    0.9357586   -3.6624206   -3.6624206   -2.2587854  0.042998809   -3.6624206    1.4036352   518400 
  725000   0.93753634   -3.6648073   -3.6648073   -2.2585056  0.038160332   -3.6648073    1.4063018   518400 
  726000   0.93568516   -3.6617398   -3.6617398   -2.2582147  0.046734871   -3.6617398     1.403525   518400 
  727000    0.9378337   -3.6650194   -3.6650194   -2.2582716  0.035766803   -3.6650194    1.4067478   518400 
  728000   0.93721844   -3.6638313   -3.6638313   -2.2580064  0.039742358   -3.6638313     1.405825   518400 
  729000   0.93842551   -3.6653926   -3.6653926    -2.257757  0.043625743   -3.6653926    1.4076355   518400 
  730000   0.93794447   -3.6642039   -3.6642039   -2.2572899  0.041840618   -3.6642039     1.406914   518400 
  731000   0.93715588   -3.6639084   -3.6639084   -2.2581772  0.045489368   -3.6639084    1.4057311   518400 
  732000   0.93552576   -3.6633067   -3.6633067   -2.2600208  0.045515312   -3.6633067    1.4032859   518400 
  733000   0.93499464   -3.6622051   -3.6622051   -2.2597158  0.041931789   -3.6622051    1.4024893   518400 
  734000   0.93603666   -3.6628349   -3.6628349   -2.2587826  0.043355906   -3.6628349    1.4040523   518400 
  735000   0.93576042   -3.6629837   -3.6629837   -2.2593458  0.042810914   -3.6629837    1.4036379   518400 
  736000   0.93599749   -3.6643571   -3.6643571   -2.2603635  0.039022873   -3.6643571    1.4039935   518400 
  737000    0.9363567   -3.6656259   -3.6656259   -2.2610936  0.048628999   -3.6656259    1.4045323   518400 
  738000   0.93605479   -3.6646195   -3.6646195     -2.26054  0.046223195   -3.6646195    1.4040795   518400 
  739000   0.93701735   -3.6684177   -3.6684177   -2.2628944  0.043158602   -3.6684177    1.4055233   518400 
  740000   0.93684584   -3.6689293   -3.6689293   -2.2636633  0.044122784   -3.6689293     1.405266   518400 
  741000   0.93716091   -3.6685451   -3.6685451   -2.2628065  0.044645636   -3.6685451    1.4057387   518400 
  742000   0.93758704   -3.6684237   -3.6684237   -2.2620459  0.045420995   -3.6684237    1.4063778   518400 
  743000   0.93831216   -3.6692435   -3.6692435   -2.2617779  0.043125178   -3.6692435    1.4074655   518400 
  744000   0.93777587   -3.6677257   -3.6677257   -2.2610646  0.043970571   -3.6677257    1.4066611   518400 
  745000     0.935071   -3.6640374   -3.6640374   -2.2614336  0.053318519   -3.6640374    1.4026038   518400 
  746000   0.93534362    -3.665442    -3.665442   -2.2624292  0.041986029    -3.665442    1.4030127   518400 
  747000   0.93593297   -3.6669261   -3.6669261   -2.2630294   0.04060558   -3.6669261    1.4038968   518400 
  748000   0.93612384   -3.6676823   -3.6676823   -2.2634993  0.043784513   -3.6676823    1.4041831   518400 
  749000   0.93474524   -3.6654844   -3.6654844   -2.2633693  0.042253265   -3.6654844    1.4021152   518400 
  750000   0.93426391   -3.6652752   -3.6652752    -2.263882  0.042572135   -3.6652752    1.4013932   518400 
  751000   0.93557106   -3.6676449   -3.6676449    -2.264291  0.042276312   -3.6676449    1.4033539   518400 
  752000   0.93633362   -3.6690106   -3.6690106   -2.2645129  0.053631046   -3.6690106    1.4044977   518400 
  753000   0.93670843   -3.6703377   -3.6703377   -2.2652778  0.045688623   -3.6703377    1.4050599   518400 
  754000   0.93565581   -3.6689199   -3.6689199   -2.2654389  0.043365926   -3.6689199     1.403481   518400 
  755000   0.93563727   -3.6691903   -3.6691903   -2.2657371  0.042520864   -3.6691903    1.4034532   518400 
  756000   0.93606711    -3.669745    -3.669745   -2.2656471  0.039020339    -3.669745     1.404098   518400 
  757000   0.93595879   -3.6715496   -3.6715496   -2.2676141  0.039990264   -3.6715496    1.4039355   518400 
  758000   0.93484671   -3.6702363   -3.6702363   -2.2679689  0.037859961   -3.6702363    1.4022674   518400 
  759000   0.93629549   -3.6715675   -3.6715675    -2.267127  0.035984745   -3.6715675    1.4044405   518400 
  760000    0.9350836     -3.66938     -3.66938   -2.2667573  0.042582619     -3.66938    1.4026227   518400 
  761000   0.93558744   -3.6714633   -3.6714633   -2.2680848  0.039334865   -3.6714633    1.4033785   518400 
  762000   0.93559868   -3.6724102   -3.6724102   -2.2690148  0.041243748   -3.6724102    1.4033953   518400 
  763000   0.93577538   -3.6735102   -3.6735102   -2.2698498   0.04555007   -3.6735102    1.4036604   518400 
  764000   0.93581097   -3.6738948   -3.6738948    -2.270181    0.0470641   -3.6738948    1.4037137   518400 
  765000   0.93405361   -3.6726093   -3.6726093   -2.2715316  0.040043245   -3.6726093    1.4010777   518400 
  766000   0.93506651   -3.6743166   -3.6743166   -2.2717196  0.043077385   -3.6743166    1.4025971   518400 
  767000    0.9354192   -3.6751591   -3.6751591   -2.2720331     0.042674   -3.6751591    1.4031261   518400 
  768000   0.93395444   -3.6743048   -3.6743048   -2.2733758  0.043516436   -3.6743048     1.400929   518400 
  769000   0.93375801   -3.6726584   -3.6726584   -2.2720241  0.043297579   -3.6726584    1.4006343   518400 
  770000    0.9354103   -3.6755172   -3.6755172   -2.2724044  0.043529712   -3.6755172    1.4031127   518400 
  771000    0.9350121   -3.6759259   -3.6759259   -2.2734105  0.042435056   -3.6759259    1.4025154   518400 
  772000   0.93505013   -3.6752513   -3.6752513   -2.2726788  0.041009123   -3.6752513    1.4025725   518400 
  773000   0.93560534   -3.6752474   -3.6752474   -2.2718421   0.04454937   -3.6752474    1.4034053   518400 
  774000   0.93517002    -3.675805    -3.675805   -2.2730527  0.039303268    -3.675805    1.4027523   518400 
  775000   0.93543703   -3.6753003   -3.6753003   -2.2721474  0.038052411   -3.6753003    1.4031528   518400 
  776000   0.93642473   -3.6771489   -3.6771489   -2.2725145  0.041362569   -3.6771489    1.4046344   518400 
  777000   0.93454292   -3.6743763   -3.6743763   -2.2725646  0.040130646   -3.6743763    1.4018117   518400 
  778000   0.93509057   -3.6762254   -3.6762254   -2.2735923  0.043792303   -3.6762254    1.4026331   518400 
  779000   0.93606574   -3.6770559   -3.6770559     -2.27296  0.039397633   -3.6770559    1.4040959   518400 
  780000   0.93614876   -3.6764977   -3.6764977   -2.2722773  0.046572381   -3.6764977    1.4042204   518400 
  781000    0.9363786   -3.6768353   -3.6768353   -2.2722701  0.047340721   -3.6768353    1.4045652   518400 
  782000   0.93596449   -3.6755972   -3.6755972   -2.2716531    0.0430473   -3.6755972     1.403944   518400 
  783000   0.93558507   -3.6749013   -3.6749013   -2.2715264  0.041221719   -3.6749013    1.4033749   518400 
  784000   0.93634511   -3.6757809   -3.6757809   -2.2712659   0.04021363   -3.6757809     1.404515   518400 
  785000   0.93559623   -3.6753724   -3.6753724   -2.2719807  0.042826286   -3.6753724    1.4033916   518400 
  786000   0.93442982   -3.6730517   -3.6730517   -2.2714097    0.0435331   -3.6730517     1.401642   518400 
  787000   0.93264406   -3.6725366   -3.6725366   -2.2735733  0.038525488   -3.6725366    1.3989634   518400 
  788000   0.93344716   -3.6744424   -3.6744424   -2.2742744  0.041908697   -3.6744424     1.400168   518400 
  789000   0.93458865   -3.6758616   -3.6758616   -2.2739814  0.042253187   -3.6758616    1.4018803   518400 
  790000   0.93405007   -3.6753944   -3.6753944    -2.274322  0.041063863   -3.6753944    1.4010724   518400 
  791000   0.93499215   -3.6769712   -3.6769712   -2.2744857  0.040377943   -3.6769712    1.4024855   518400 
  792000   0.93576919   -3.6776525   -3.6776525   -2.2740014  0.043373124   -3.6776525    1.4036511   518400 
  793000   0.93700939   -3.6783414   -3.6783414     -2.27283  0.050815343   -3.6783414    1.4055114   518400 
  794000   0.93577786   -3.6776718   -3.6776718   -2.2740077  0.051465744   -3.6776718    1.4036641   518400 
  795000   0.93475353   -3.6751227   -3.6751227   -2.2729951  0.046144323   -3.6751227    1.4021276   518400 
  796000   0.93701408   -3.6789446   -3.6789446   -2.2734262  0.043840484   -3.6789446    1.4055184   518400 
  797000   0.93428805   -3.6742562   -3.6742562   -2.2728268   0.04065441   -3.6742562    1.4014294   518400 
  798000   0.93448937   -3.6756543   -3.6756543    -2.273923  0.029514194   -3.6756543    1.4017314   518400 
  799000   0.93402545   -3.6745633   -3.6745633   -2.2735278  0.038138119   -3.6745633    1.4010355   518400 
  800000   0.93314199   -3.6743062   -3.6743062   -2.2745959  0.038123738   -3.6743062    1.3997103   518400 
  801000   0.93372722   -3.6755949   -3.6755949   -2.2750068  0.042383075   -3.6755949    1.4005881   518400 
  802000   0.93269087   -3.6750166   -3.6750166    -2.275983  0.042713442   -3.6750166    1.3990336   518400 
  803000   0.93427615   -3.6775746   -3.6775746   -2.2761631  0.043314871   -3.6775746    1.4014115   518400 
  804000   0.93524108   -3.6795518   -3.6795518   -2.2766929  0.042764078   -3.6795518    1.4028589   518400 
  805000   0.93434431    -3.681396    -3.681396   -2.2798822  0.040074859    -3.681396    1.4015138   518400 
  806000   0.93568834   -3.6815907   -3.6815907   -2.2780608  0.044581861   -3.6815907    1.4035298   518400 
  807000   0.93461265   -3.6806332   -3.6806332    -2.278717  0.049371701   -3.6806332    1.4019163   518400 
  808000   0.93317315   -3.6784172   -3.6784172   -2.2786602  0.046963596   -3.6784172     1.399757   518400 
  809000   0.93302497   -3.6780823   -3.6780823   -2.2785476  0.038407872   -3.6780823    1.3995348   518400 
  810000    0.9326734   -3.6782176   -3.6782176   -2.2792102  0.038845464   -3.6782176    1.3990074   518400 
  811000   0.93158855   -3.6779133   -3.6779133   -2.2805332  0.038071535   -3.6779133    1.3973801   518400 
  812000    0.9318665   -3.6786205   -3.6786205   -2.2808235  0.036518947   -3.6786205     1.397797   518400 
  813000   0.93409928   -3.6797822   -3.6797822    -2.278636  0.049238355   -3.6797822    1.4011462   518400 
  814000     0.934546   -3.6802659   -3.6802659   -2.2784496    0.0476749   -3.6802659    1.4018163   518400 
  815000   0.93393748   -3.6805865   -3.6805865    -2.279683  0.042703674   -3.6805865    1.4009035   518400 
  816000   0.93430519   -3.6816589   -3.6816589   -2.2802038  0.043122577   -3.6816589    1.4014551   518400 
  817000   0.93450691   -3.6818219   -3.6818219   -2.2800642  0.044728194   -3.6818219    1.4017577   518400 
  818000   0.93383644   -3.6819939   -3.6819939    -2.281242  0.047538817   -3.6819939     1.400752   518400 
  819000   0.93361992   -3.6816379   -3.6816379   -2.2812107  0.045401401   -3.6816379    1.4004272   518400 
  820000   0.93193778   -3.6803226   -3.6803226   -2.2824187  0.037896701   -3.6803226     1.397904   518400 
  821000   0.93291707   -3.6816517   -3.6816517   -2.2822788  0.040035916   -3.6816517    1.3993729   518400 
  822000   0.93284648    -3.681772    -3.681772    -2.282505  0.034420044    -3.681772     1.399267   518400 
  823000   0.93277004   -3.6819247   -3.6819247   -2.2827723  0.041831729   -3.6819247    1.3991524   518400 
  824000   0.93263577   -3.6833091   -3.6833091   -2.2843581  0.045244367   -3.6833091     1.398951   518400 
  825000   0.93244073   -3.6837647   -3.6837647   -2.2851063  0.043146665   -3.6837647    1.3986584   518400 
  826000   0.93307316   -3.6855353   -3.6855353   -2.2859283  0.047869831   -3.6855353     1.399607   518400 
  827000   0.93344185   -3.6866013   -3.6866013   -2.2864412  0.038530036   -3.6866013    1.4001601   518400 
  828000   0.93311968   -3.6856122   -3.6856122   -2.2859354  0.041222777   -3.6856122    1.3996768   518400 
  829000   0.93365232   -3.6875131   -3.6875131   -2.2870373  0.037534645   -3.6875131    1.4004758   518400 
  830000   0.93230516   -3.6847136   -3.6847136   -2.2862585  0.038281133   -3.6847136     1.398455   518400 
  831000   0.93151097   -3.6848051   -3.6848051   -2.2875413   0.04137989   -3.6848051    1.3972638   518400 
  832000   0.93207728   -3.6847784   -3.6847784   -2.2866651  0.041380087   -3.6847784    1.3981132   518400 
  833000   0.93222075   -3.6846635   -3.6846635   -2.2863351   0.04406017   -3.6846635    1.3983284   518400 
  834000   0.93150249   -3.6842808   -3.6842808   -2.2870297  0.038781984   -3.6842808     1.397251   518400 
  835000   0.93348546   -3.6859147   -3.6859147   -2.2856892  0.045368261   -3.6859147    1.4002255   518400 
  836000   0.93330836   -3.6862879   -3.6862879   -2.2863281  0.042648843   -3.6862879    1.3999598   518400 
  837000   0.93224048   -3.6851633   -3.6851633   -2.2868053  0.042221504   -3.6851633     1.398358   518400 
  838000   0.93172947   -3.6846322   -3.6846322   -2.2870407  0.047227556   -3.6846322    1.3975915   518400 
  839000   0.93194525   -3.6850817   -3.6850817   -2.2871665  0.040451307   -3.6850817    1.3979152   518400 
  840000   0.93124234   -3.6848491   -3.6848491   -2.2879883   0.03952967   -3.6848491    1.3968608   518400 
  841000   0.93160962   -3.6863439   -3.6863439   -2.2889322  0.037273701   -3.6863439    1.3974117   518400 
  842000   0.93197373   -3.6883732   -3.6883732   -2.2904153  0.032352666   -3.6883732    1.3979579   518400 
  843000   0.92958959   -3.6848135   -3.6848135   -2.2904318   0.03812474   -3.6848135    1.3943817   518400 
  844000   0.93281546   -3.6890154   -3.6890154   -2.2897949  0.036757684   -3.6890154    1.3992205   518400 
  845000   0.93129455   -3.6877216   -3.6877216   -2.2907825  0.046925491   -3.6877216    1.3969391   518400 
  846000   0.93261748   -3.6897252   -3.6897252   -2.2908016  0.041642449   -3.6897252    1.3989235   518400 
  847000   0.93232424   -3.6900867   -3.6900867    -2.291603  0.040325032   -3.6900867    1.3984837   518400 
  848000   0.93197975   -3.6890549   -3.6890549    -2.291088  0.045705622   -3.6890549    1.3979669   518400 
  849000   0.93214823   -3.6892574   -3.6892574   -2.2910378  0.036232194   -3.6892574    1.3982196   518400 
  850000   0.93206223    -3.690231    -3.690231   -2.2921404  0.040588001    -3.690231    1.3980906   518400 
  851000   0.93106311   -3.6887514   -3.6887514   -2.2921594  0.043330049   -3.6887514     1.396592   518400 
  852000   0.93036902   -3.6879704   -3.6879704   -2.2924196  0.040600333   -3.6879704    1.3955508   518400 
  853000   0.93185239   -3.6901535   -3.6901535   -2.2923776  0.044927716   -3.6901535    1.3977759   518400 
  854000   0.93085416   -3.6893611   -3.6893611   -2.2930826  0.044537115   -3.6893611    1.3962785   518400 
  855000    0.9313251   -3.6900722   -3.6900722   -2.2930873  0.038678985   -3.6900722     1.396985   518400 
  856000   0.93109242    -3.690108    -3.690108   -2.2934721  0.035817339    -3.690108    1.3966359   518400 
  857000    0.9307633   -3.6901127   -3.6901127   -2.2939704  0.035473298   -3.6901127    1.3961423   518400 
  858000   0.93126496   -3.6915194   -3.6915194   -2.2946246  0.041701107   -3.6915194    1.3968947   518400 
  859000   0.93168821   -3.6921971   -3.6921971   -2.2946674  0.045698482   -3.6921971    1.3975296   518400 
  860000   0.93112519    -3.691782    -3.691782   -2.2950969  0.043045907    -3.691782    1.3966851   518400 
  861000   0.92959644   -3.6902244   -3.6902244   -2.2958325  0.042934979   -3.6902244     1.394392   518400 
  862000   0.93126028   -3.6932896   -3.6932896   -2.2964019  0.043796285   -3.6932896    1.3968877   518400 
  863000   0.93156417   -3.6938455   -3.6938455   -2.2965019  0.044214164   -3.6938455    1.3973436   518400 
  864000   0.92916016   -3.6916853   -3.6916853   -2.2979478  0.034675235   -3.6916853    1.3937375   518400 
  865000   0.93033462   -3.6941576   -3.6941576   -2.2986583  0.039683726   -3.6941576    1.3954992   518400 
  866000   0.92996147   -3.6943607   -3.6943607   -2.2994212  0.038822396   -3.6943607    1.3949395   518400 
  867000   0.92929445   -3.6934998   -3.6934998   -2.2995608  0.036647418   -3.6934998     1.393939   518400 
  868000   0.92995091   -3.6957682   -3.6957682   -2.3008445  0.040003853   -3.6957682    1.3949237   518400 
  869000   0.93113072   -3.6968854   -3.6968854    -2.300192  0.044717113   -3.6968854    1.3966934   518400 
  870000   0.93097723   -3.6967163   -3.6967163   -2.3002531  0.043876024   -3.6967163    1.3964632   518400 
  871000   0.93093631   -3.6972799   -3.6972799   -2.3008781  0.041360485   -3.6972799    1.3964018   518400 
  872000   0.93001962   -3.6953278   -3.6953278   -2.3003011  0.039102798   -3.6953278    1.3950267   518400 
  873000   0.93030721   -3.6964621   -3.6964621    -2.301004  0.042366329   -3.6964621    1.3954581   518400 
  874000    0.9311058   -3.6976266   -3.6976266   -2.3009706  0.038970587   -3.6976266     1.396656   518400 
  875000   0.92935913   -3.6946743   -3.6946743   -2.3006383  0.040554278   -3.6946743     1.394036   518400 
  876000   0.93137391   -3.6977728   -3.6977728   -2.3007146  0.034632109   -3.6977728    1.3970582   518400 
  877000   0.93089937    -3.697638    -3.697638   -2.3012916  0.040063057    -3.697638    1.3963464   518400 
  878000   0.92931953    -3.695429    -3.695429   -2.3014524  0.042645039    -3.695429    1.3939766   518400 
  879000    0.9293744   -3.6966341   -3.6966341   -2.3025752  0.042176623   -3.6966341    1.3940589   518400 
  880000   0.93025958    -3.696851    -3.696851   -2.3014643  0.040061516    -3.696851    1.3953867   518400 
  881000   0.92958719   -3.6966735   -3.6966735   -2.3022954  0.038048307   -3.6966735    1.3943781   518400 
  882000   0.93199142   -3.7000075   -3.7000075   -2.3020231  0.043193227   -3.7000075    1.3979844   518400 
  883000   0.92986252   -3.6982798   -3.6982798   -2.3034887  0.042631097   -3.6982798    1.3947911   518400 
  884000   0.93079991   -3.7000002   -3.7000002    -2.303803  0.046423787   -3.7000002    1.3961972   518400 
  885000   0.93022914   -3.6991516   -3.6991516   -2.3038106  0.046154035   -3.6991516     1.395341   518400 
  886000   0.93100745   -3.7004144   -3.7004144   -2.3039059  0.044124261   -3.7004144    1.3965085   518400 
  887000   0.92977252   -3.6995067   -3.6995067   -2.3048506  0.041134916   -3.6995067    1.3946561   518400 
  888000   0.93066711   -3.7009641   -3.7009641   -2.3049661  0.036055845   -3.7009641     1.395998   518400 
  889000   0.93068084    -3.700393    -3.700393   -2.3043744  0.043463068    -3.700393    1.3960186   518400 
  890000   0.93092289   -3.7004155   -3.7004155   -2.3040339   0.04295023   -3.7004155    1.3963816   518400 
  891000   0.92906582   -3.6986451   -3.6986451    -2.305049  0.041178907   -3.6986451     1.393596   518400 
  892000   0.92988844   -3.7003527   -3.7003527   -2.3055228  0.038370353   -3.7003527      1.39483   518400 
  893000   0.93131897   -3.7016884   -3.7016884   -2.3047127  0.032743593   -3.7016884    1.3969758   518400 
  894000   0.93037638   -3.6991815   -3.6991815   -2.3036196  0.040104383   -3.6991815    1.3955619   518400 
  895000    0.9294496   -3.6992221   -3.6992221   -2.3050504  0.036248664   -3.6992221    1.3941717   518400 
  896000   0.92933318   -3.6990084   -3.6990084   -2.3050113  0.039266377   -3.6990084    1.3939971   518400 
  897000   0.92966382   -3.6997979   -3.6997979   -2.3053049  0.038847065   -3.6997979     1.394493   518400 
  898000   0.92991656   -3.6999792   -3.6999792   -2.3051071  0.040183691   -3.6999792    1.3948722   518400 
  899000    0.9312717   -3.7012945   -3.7012945   -2.3043896  0.041042246   -3.7012945    1.3969049   518400 
  900000    0.9294345   -3.6999868   -3.6999868   -2.3058378  0.039238982   -3.6999868    1.3941491   518400 
  901000   0.92998145   -3.7013003   -3.7013003   -2.3063308  0.034819278   -3.7013003    1.3949695   518400 
  902000   0.92989389   -3.7007374   -3.7007374   -2.3058993  0.046213482   -3.7007374    1.3948381   518400 
  903000   0.92931408   -3.7017589   -3.7017589   -2.3077904  0.038932527   -3.7017589    1.3939684   518400 
  904000   0.92835476   -3.7007459   -3.7007459   -2.3082165  0.040192336   -3.7007459    1.3925295   518400 
  905000   0.92958208   -3.7025912   -3.7025912   -2.3082208  0.035631548   -3.7025912    1.3943704   518400 
  906000   0.92935255   -3.7039694   -3.7039694   -2.3099432  0.039213536   -3.7039694    1.3940261   518400 
  907000   0.93060365   -3.7066609   -3.7066609   -2.3107581   0.03823578   -3.7066609    1.3959028   518400 
  908000   0.93072262   -3.7061843   -3.7061843    -2.310103  0.038677094   -3.7061843    1.3960812   518400 
  909000   0.93031291   -3.7048514   -3.7048514   -2.3093848  0.042978552   -3.7048514    1.3954667   518400 
  910000   0.93112518   -3.7071205   -3.7071205   -2.3104354  0.038338873   -3.7071205    1.3966851   518400 
  911000   0.92905518    -3.703701    -3.703701    -2.310121   0.03698133    -3.703701    1.3935801   518400 
  912000   0.92855503   -3.7037474   -3.7037474   -2.3109175  0.038092285   -3.7037474    1.3928299   518400 
  913000   0.92852541    -3.703835    -3.703835   -2.3110496  0.037701923    -3.703835    1.3927854   518400 
  914000     0.928064    -3.703612    -3.703612   -2.3115187   0.03771327    -3.703612    1.3920933   518400 
  915000   0.92761562   -3.7028881   -3.7028881   -2.3114674   0.04440677   -3.7028881    1.3914207   518400 
  916000   0.92800857   -3.7042417   -3.7042417   -2.3122316  0.037140083   -3.7042417    1.3920102   518400 
  917000   0.92890788   -3.7051075   -3.7051075   -2.3117484  0.040172717   -3.7051075    1.3933591   518400 
  918000   0.92819981   -3.7060859   -3.7060859   -2.3137888  0.038345999   -3.7060859     1.392297   518400 
  919000    0.9277141   -3.7051822   -3.7051822   -2.3136137  0.038423898   -3.7051822    1.3915685   518400 
  920000   0.92816634   -3.7074618   -3.7074618   -2.3152149  0.040175858   -3.7074618    1.3922468   518400 
  921000   0.92920799   -3.7082506   -3.7082506   -2.3144413  0.041674994   -3.7082506    1.3938093   518400 
  922000   0.92794332   -3.7080329   -3.7080329   -2.3161206  0.043113835   -3.7080329    1.3919123   518400 
  923000   0.93059766     -3.71217     -3.71217   -2.3162762  0.041143197     -3.71217    1.3958938   518400 
  924000   0.92930373   -3.7109787   -3.7109787   -2.3170258  0.040253891   -3.7109787    1.3939529   518400 
  925000   0.92811505   -3.7093823   -3.7093823   -2.3172124  0.043947185   -3.7093823    1.3921699   518400 
  926000   0.92623182   -3.7071289   -3.7071289   -2.3177838  0.038048045   -3.7071289     1.389345   518400 
  927000   0.92696335   -3.7093831   -3.7093831   -2.3189407  0.030280737   -3.7093831    1.3904423   518400 
  928000   0.92698434      -3.7085      -3.7085   -2.3180262  0.038026828      -3.7085    1.3904738   518400 
  929000    0.9264606   -3.7086818   -3.7086818   -2.3189936  0.035735161   -3.7086818    1.3896882   518400 
  930000   0.92650813   -3.7082742   -3.7082742   -2.3185147  0.035407665   -3.7082742    1.3897595   518400 
  931000   0.92908525   -3.7119944   -3.7119944   -2.3183692   0.03646579   -3.7119944    1.3936252   518400 
  932000    0.9271443    -3.710082    -3.710082   -2.3193682  0.035413615    -3.710082    1.3907138   518400 
  933000   0.92789876   -3.7105905   -3.7105905    -2.318745  0.044001534   -3.7105905    1.3918455   518400 
  934000   0.92865138   -3.7120614   -3.7120614    -2.319087  0.043409116   -3.7120614    1.3929744   518400 
  935000   0.92728948   -3.7092688   -3.7092688   -2.3183372  0.039834307   -3.7092688    1.3909315   518400 
  936000   0.92798924   -3.7107634   -3.7107634   -2.3187822   0.04799878   -3.7107634    1.3919812   518400 
  937000   0.92704295    -3.709087    -3.709087   -2.3185253  0.035697709    -3.709087    1.3905617   518400 
  938000   0.92708269   -3.7089325   -3.7089325   -2.3183112  0.037531904   -3.7089325    1.3906214   518400 
  939000   0.92750724   -3.7106214   -3.7106214   -2.3193633  0.033489481   -3.7106214    1.3912582   518400 
  940000   0.92669175    -3.709565    -3.709565   -2.3195301  0.044336818    -3.709565    1.3900349   518400 
  941000   0.92817224   -3.7125174   -3.7125174   -2.3202617  0.033562983   -3.7125174    1.3922557   518400 
  942000   0.92778006   -3.7120893   -3.7120893   -2.3204219  0.035298888   -3.7120893    1.3916674   518400 
  943000   0.92678731   -3.7114496   -3.7114496   -2.3212713  0.038489587   -3.7114496    1.3901783   518400 
  944000   0.92851714   -3.7129175   -3.7129175   -2.3201444   0.03388948   -3.7129175     1.392773   518400 
  945000   0.92659124   -3.7116411   -3.7116411   -2.3217569  0.036846713   -3.7116411    1.3898842   518400 
  946000   0.92777257   -3.7147268   -3.7147268   -2.3230706   0.03418828   -3.7147268    1.3916562   518400 
  947000    0.9270261   -3.7143781   -3.7143781   -2.3238417  0.034993002   -3.7143781    1.3905365   518400 
  948000   0.92519866   -3.7116258   -3.7116258   -2.3238305   0.03561708   -3.7116258    1.3877953   518400 
  949000   0.92679206   -3.7135977   -3.7135977   -2.3234123   0.04044384   -3.7135977    1.3901854   518400 
  950000   0.92737472    -3.714375    -3.714375   -2.3233156  0.040801285    -3.714375    1.3910594   518400 
  951000     0.926083   -3.7126853   -3.7126853   -2.3235635  0.038215969   -3.7126853    1.3891218   518400 
  952000   0.92684516   -3.7148077   -3.7148077   -2.3245427  0.036817444   -3.7148077    1.3902651   518400 
  953000   0.92601336   -3.7142697   -3.7142697   -2.3252523  0.041002194   -3.7142697    1.3890174   518400 
  954000   0.92901808    -3.717539    -3.717539   -2.3240146  0.042060774    -3.717539    1.3935244   518400 
  955000    0.9280887   -3.7164307   -3.7164307   -2.3243003  0.040253015   -3.7164307    1.3921304   518400 
  956000   0.92684328    -3.714255    -3.714255   -2.3239928  0.043986484    -3.714255    1.3902622   518400 
  957000   0.92692993   -3.7148903   -3.7148903   -2.3244981  0.039754312   -3.7148903    1.3903922   518400 
  958000   0.92610602   -3.7144265   -3.7144265   -2.3252702  0.040185129   -3.7144265    1.3891563   518400 
  959000   0.92545514   -3.7137456   -3.7137456   -2.3255656  0.041907759   -3.7137456      1.38818   518400 
  960000   0.92693379   -3.7169184   -3.7169184   -2.3265204  0.036857398   -3.7169184     1.390398   518400 
  961000   0.92651042   -3.7159357   -3.7159357   -2.3261727  0.035037837   -3.7159357    1.3897629   518400 
  962000   0.92678751   -3.7163154   -3.7163154   -2.3261368  0.043832604   -3.7163154    1.3901786   518400 
  963000   0.92760786   -3.7183168   -3.7183168   -2.3269077  0.038500499   -3.7183168    1.3914091   518400 
  964000   0.92572287   -3.7157291   -3.7157291   -2.3271475  0.047314322   -3.7157291    1.3885816   518400 
  965000   0.92933036   -3.7205255   -3.7205255   -2.3265326  0.035708134   -3.7205255    1.3939929   518400 
  966000   0.92684168   -3.7183923   -3.7183923   -2.3281325  0.042802901   -3.7183923    1.3902598   518400 
  967000   0.92786515   -3.7192866   -3.7192866   -2.3274916  0.036639863   -3.7192866     1.391795   518400 
  968000   0.92804635    -3.720769    -3.720769   -2.3287021  0.035617958    -3.720769    1.3920668   518400 
  969000   0.92462452   -3.7164463   -3.7164463   -2.3295122  0.029896134   -3.7164463    1.3869341   518400 
  970000   0.92484533   -3.7171716   -3.7171716   -2.3299062  0.036570199   -3.7171716    1.3872653   518400 
  971000   0.92663106   -3.7207898   -3.7207898   -2.3308459  0.037905366   -3.7207898    1.3899439   518400 
  972000   0.92800386   -3.7221802   -3.7221802   -2.3301771  0.038555849   -3.7221802    1.3920031   518400 
  973000   0.92626931   -3.7208776   -3.7208776   -2.3314764  0.040631243   -3.7208776    1.3894013   518400 
  974000   0.92523275   -3.7190699   -3.7190699   -2.3312234   0.04400065   -3.7190699    1.3878464   518400 
  975000   0.92556306   -3.7199739   -3.7199739    -2.331632  0.044968205   -3.7199739    1.3883419   518400 
  976000   0.92541523   -3.7193594   -3.7193594   -2.3312392  0.040944471   -3.7193594    1.3881202   518400 
  977000   0.92311153    -3.716758    -3.716758   -2.3320934  0.042253772    -3.716758    1.3846646   518400 
  978000    0.9252467    -3.719081    -3.719081   -2.3312136  0.035410634    -3.719081    1.3878674   518400 
  979000   0.92652763   -3.7212503   -3.7212503   -2.3314616  0.037120141   -3.7212503    1.3897888   518400 
  980000   0.92521649   -3.7193465   -3.7193465   -2.3315244  0.042471961   -3.7193465    1.3878221   518400 
  981000   0.92664317   -3.7226246   -3.7226246   -2.3326625  0.038906403   -3.7226246    1.3899621   518400 
  982000    0.9261031   -3.7224916   -3.7224916   -2.3333397  0.042193163   -3.7224916     1.389152   518400 
  983000   0.92542732   -3.7221196   -3.7221196   -2.3339813   0.04139502   -3.7221196    1.3881383   518400 
  984000   0.92553698    -3.722409    -3.722409   -2.3341062  0.038044596    -3.722409    1.3883028   518400 
  985000   0.92665505   -3.7234533   -3.7234533   -2.3334734  0.040283724   -3.7234533    1.3899799   518400 
  986000   0.92427947   -3.7207206   -3.7207206    -2.334304  0.038871201   -3.7207206    1.3864165   518400 
  987000   0.92481131   -3.7215874   -3.7215874   -2.3343731  0.037089885   -3.7215874    1.3872143   518400 
  988000   0.92530137   -3.7219587   -3.7219587   -2.3340094  0.037917497   -3.7219587    1.3879494   518400 
  989000   0.92489761   -3.7221252   -3.7221252   -2.3347814  0.041316323   -3.7221252    1.3873437   518400 
  990000   0.92473076   -3.7222494   -3.7222494   -2.3351559  0.045088121   -3.7222494    1.3870935   518400 
  991000   0.92557981   -3.7245495   -3.7245495   -2.3361825   0.03748489   -3.7245495     1.388367   518400 
  992000   0.92595844   -3.7260468   -3.7260468   -2.3371118  0.034682527   -3.7260468     1.388935   518400 
  993000   0.92532196   -3.7254724   -3.7254724   -2.3374922  0.044325301   -3.7254724    1.3879803   518400 
  994000   0.92647537   -3.7265484   -3.7265484    -2.336838  0.037213262   -3.7265484    1.3897104   518400 
  995000    0.9240035   -3.7238888   -3.7238888   -2.3378862  0.040857322   -3.7238888    1.3860026   518400 
  996000   0.92394758   -3.7250491   -3.7250491   -2.3391304  0.038737204   -3.7250491    1.3859187   518400 
  997000   0.92352287   -3.7245562   -3.7245562   -2.3392746  0.040194275   -3.7245562    1.3852816   518400 
  998000     0.924048    -3.724734    -3.724734   -2.3386646  0.036226915    -3.724734    1.3860693   518400 
  999000   0.92605828   -3.7274272   -3.7274272   -2.3383425  0.036379332   -3.7274272    1.3890847   518400 
 1000000    0.9244638   -3.7262925   -3.7262925   -2.3395995  0.041938572   -3.7262925     1.386693   518400 
 1001000   0.92486324   -3.7275677   -3.7275677   -2.3402755  0.032531705   -3.7275677    1.3872922   518400 
 1002000   0.92533352   -3.7290845   -3.7290845   -2.3410868  0.039174413   -3.7290845    1.3879976   518400 
 1003000    0.9250994   -3.7284816   -3.7284816   -2.3408352  0.035222144   -3.7284816    1.3876464   518400 
 1004000   0.92459019   -3.7272409   -3.7272409   -2.3403583  0.040761776   -3.7272409    1.3868826   518400 
 1005000   0.92575722   -3.7285304   -3.7285304   -2.3398972  0.035851826   -3.7285304    1.3886332   518400 
 1006000   0.92401928   -3.7279956   -3.7279956   -2.3419693  0.038054955   -3.7279956    1.3860262   518400 
 1007000   0.92560577   -3.7289891   -3.7289891   -2.3405831   0.03412474   -3.7289891     1.388406   518400 
 1008000   0.92318311   -3.7258437   -3.7258437   -2.3410717  0.040530206   -3.7258437     1.384772   518400 
 1009000   0.92562531   -3.7302116   -3.7302116   -2.3417763  0.035480402   -3.7302116    1.3884353   518400 
 1010000   0.92253143   -3.7268561   -3.7268561   -2.3430616  0.035452917   -3.7268561    1.3837945   518400 
 1011000    0.9247552   -3.7300838   -3.7300838   -2.3429537  0.036482495   -3.7300838    1.3871301   518400 
 1012000   0.92431658   -3.7308312   -3.7308312    -2.344359  0.039047358   -3.7308312    1.3864722   518400 
 1013000   0.92556707   -3.7328244   -3.7328244   -2.3444765  0.039996516   -3.7328244    1.3883479   518400 
 1014000   0.92477038   -3.7315955   -3.7315955   -2.3444427  0.040140362   -3.7315955    1.3871529   518400 
 1015000   0.92363141   -3.7302489   -3.7302489   -2.3448045  0.041965182   -3.7302489    1.3854444   518400 
 1016000   0.92471622   -3.7324633   -3.7324633   -2.3453916  0.036201301   -3.7324633    1.3870717   518400 
 1017000    0.9228928   -3.7304456   -3.7304456   -2.3461091    0.0356942   -3.7304456    1.3843365   518400 
 1018000   0.92258578   -3.7299407   -3.7299407   -2.3460647  0.035979184   -3.7299407     1.383876   518400 
 1019000   0.92318916   -3.7302136   -3.7302136   -2.3454325  0.037184552   -3.7302136    1.3847811   518400 
 1020000    0.9235564   -3.7322244   -3.7322244   -2.3468925  0.031830309   -3.7322244    1.3853319   518400 
 1021000   0.92353209   -3.7333344   -3.7333344   -2.3480389  0.037983546   -3.7333344    1.3852955   518400 
 1022000   0.92243548   -3.7325473   -3.7325473   -2.3488968  0.031578001   -3.7325473    1.3836506   518400 
 1023000    0.9244311   -3.7357497   -3.7357497   -2.3491057  0.034263405   -3.7357497     1.386644   518400 
 1024000   0.92426302   -3.7350261   -3.7350261   -2.3486342  0.035905436   -3.7350261    1.3863919   518400 
 1025000   0.92451731   -3.7360676   -3.7360676   -2.3492943  0.037666383   -3.7360676    1.3867733   518400 
 1026000   0.92279907   -3.7350767   -3.7350767   -2.3508808  0.042062075   -3.7350767    1.3841959   518400 
 1027000   0.92269713   -3.7347614   -3.7347614   -2.3507183  0.043592132   -3.7347614     1.384043   518400 
 1028000   0.92322359    -3.736072    -3.736072   -2.3512393  0.039211126    -3.736072    1.3848327   518400 
 1029000   0.92139293   -3.7352589   -3.7352589   -2.3531722  0.033614748   -3.7352589    1.3820867   518400 
 1030000   0.92235731   -3.7378062   -3.7378062    -2.354273  0.037293412   -3.7378062    1.3835333   518400 
 1031000   0.92171388   -3.7372618   -3.7372618   -2.3546937  0.041493598   -3.7372618    1.3825682   518400 
 1032000   0.92361207   -3.7388754   -3.7388754   -2.3534599  0.032582926   -3.7388754    1.3854154   518400 
 1033000   0.92228368   -3.7380031   -3.7380031   -2.3545802   0.04161928   -3.7380031    1.3834229   518400 
 1034000   0.92289926   -3.7383224   -3.7383224   -2.3539762  0.037063556   -3.7383224    1.3843462   518400 
 1035000   0.92103553   -3.7358724   -3.7358724   -2.3543218     0.039074   -3.7358724    1.3815506   518400 
 1036000   0.92286014   -3.7381093   -3.7381093   -2.3538217  0.037621742   -3.7381093    1.3842875   518400 
 1037000   0.92414402   -3.7402538   -3.7402538   -2.3540404  0.037642356   -3.7402538    1.3862133   518400 
 1038000   0.92352449   -3.7394843   -3.7394843   -2.3542003  0.039578675   -3.7394843    1.3852841   518400 
 1039000   0.92256218   -3.7390704   -3.7390704   -2.3552298  0.032417607   -3.7390704    1.3838406   518400 
 1040000   0.92200149   -3.7388632   -3.7388632   -2.3558636   0.04162462   -3.7388632    1.3829996   518400 
 1041000   0.92154255   -3.7389763   -3.7389763   -2.3566651  0.038374669   -3.7389763    1.3823112   518400 
 1042000    0.9218961   -3.7394143   -3.7394143   -2.3565728  0.039545704   -3.7394143    1.3828415   518400 
 1043000   0.92200674   -3.7406046   -3.7406046   -2.3575972  0.033539252   -3.7406046    1.3830074   518400 
 1044000   0.92168192   -3.7402873   -3.7402873   -2.3577671  0.040596026   -3.7402873    1.3825202   518400 
 1045000   0.92171277   -3.7409816   -3.7409816   -2.3584151  0.032047729   -3.7409816    1.3825665   518400 
 1046000    0.9197474   -3.7399275   -3.7399275   -2.3603091  0.038170816   -3.7399275    1.3796184   518400 
 1047000   0.92180586   -3.7421333   -3.7421333   -2.3594272  0.035402114   -3.7421333    1.3827061   518400 
 1048000   0.92209412   -3.7443657   -3.7443657   -2.3612272  0.035534866   -3.7443657    1.3831385   518400 
 1049000   0.92360163   -3.7467795   -3.7467795   -2.3613797  0.037365694   -3.7467795    1.3853998   518400 
 1050000   0.92146422   -3.7440906   -3.7440906   -2.3618969   0.04406849   -3.7440906    1.3821937   518400 
 1051000   0.92054157   -3.7426302   -3.7426302   -2.3618205   0.04381233   -3.7426302    1.3808097   518400 
 1052000   0.92251946   -3.7452933   -3.7452933   -2.3615168  0.043111563   -3.7452933    1.3837765   518400 
 1053000   0.92062015   -3.7438872   -3.7438872   -2.3629596  0.038136663   -3.7438872    1.3809276   518400 
 1054000    0.9208647   -3.7440452   -3.7440452   -2.3627508  0.036635929   -3.7440452    1.3812944   518400 
 1055000   0.92114205   -3.7446532   -3.7446532   -2.3629428  0.041175705   -3.7446532    1.3817104   518400 
 1056000   0.92218184   -3.7457864   -3.7457864   -2.3625163  0.031572706   -3.7457864    1.3832701   518400 
 1057000   0.92033204   -3.7435286   -3.7435286   -2.3630332  0.036785626   -3.7435286    1.3804954   518400 
 1058000   0.92142865    -3.745225    -3.745225   -2.3630847  0.034935851    -3.745225    1.3821403   518400 
 1059000   0.92070708   -3.7447643   -3.7447643   -2.3637063  0.039959609   -3.7447643     1.381058   518400 
 1060000   0.92107697    -3.746279    -3.746279   -2.3646662  0.039787155    -3.746279    1.3816128   518400 
 1061000   0.92118885   -3.7471572   -3.7471572   -2.3653766  0.042291988   -3.7471572    1.3817806   518400 
 1062000   0.92312105   -3.7498727   -3.7498727   -2.3651938  0.043124634   -3.7498727    1.3846789   518400 
 1063000   0.92132913   -3.7477563   -3.7477563   -2.3657653  0.040224724   -3.7477563     1.381991   518400 
 1064000    0.9207926   -3.7475227   -3.7475227   -2.3663365  0.043736845   -3.7475227    1.3811862   518400 
 1065000   0.92150291   -3.7490898   -3.7490898   -2.3668381  0.037052921   -3.7490898    1.3822517   518400 
 1066000    0.9217534   -3.7487244   -3.7487244   -2.3660969  0.033217743   -3.7487244    1.3826274   518400 
 1067000    0.9187273   -3.7450809   -3.7450809   -2.3669927  0.038533362   -3.7450809    1.3780883   518400 
 1068000   0.92057211   -3.7474218   -3.7474218   -2.3665663  0.036546977   -3.7474218    1.3808555   518400 
 1069000   0.91929815   -3.7460848   -3.7460848   -2.3671402  0.036555772   -3.7460848    1.3789446   518400 
 1070000   0.92064256   -3.7478352   -3.7478352    -2.366874  0.034740718   -3.7478352    1.3809612   518400 
 1071000   0.92063725   -3.7485704   -3.7485704   -2.3676172   0.03587122   -3.7485704    1.3809532   518400 
 1072000   0.92024481   -3.7494508   -3.7494508   -2.3690863  0.038707378   -3.7494508    1.3803646   518400 
 1073000   0.92127122   -3.7517085   -3.7517085   -2.3698044  0.037668433   -3.7517085    1.3819042   518400 
 1074000   0.92036461   -3.7500709   -3.7500709   -2.3695267  0.039647052   -3.7500709    1.3805443   518400 
 1075000    0.9197584   -3.7500971   -3.7500971   -2.3704622  0.039324521   -3.7500971    1.3796349   518400 
 1076000    0.9201941   -3.7496891   -3.7496891   -2.3694006  0.047164488   -3.7496891    1.3802885   518400 
 1077000   0.92020003   -3.7506833   -3.7506833   -2.3703859   0.03931296   -3.7506833    1.3802974   518400 
 1078000   0.92070745    -3.751642    -3.751642   -2.3705835  0.032066181    -3.751642    1.3810585   518400 
 1079000   0.91960773   -3.7501015   -3.7501015   -2.3706926  0.037603391   -3.7501015    1.3794089   518400 
 1080000   0.91924555   -3.7502814   -3.7502814   -2.3714157  0.033695131   -3.7502814    1.3788657   518400 
 1081000   0.91865711   -3.7502166   -3.7502166   -2.3722336  0.029859226   -3.7502166     1.377983   518400 
 1082000   0.91762768   -3.7475604   -3.7475604   -2.3711216  0.036785516   -3.7475604    1.3764389   518400 
 1083000   0.91901598    -3.750462    -3.750462   -2.3719407  0.032423164    -3.750462    1.3785213   518400 
 1084000   0.92081993   -3.7527477   -3.7527477   -2.3715205  0.033960389   -3.7527477    1.3812272   518400 
 1085000   0.92008221    -3.753653    -3.753653   -2.3735323  0.042545558    -3.753653    1.3801207   518400 
 1086000   0.91959645   -3.7532595   -3.7532595   -2.3738675  0.039678018   -3.7532595     1.379392   518400 
 1087000   0.92012276   -3.7539688   -3.7539688   -2.3737873  0.042885643   -3.7539688    1.3801815   518400 
 1088000    0.9199054   -3.7527713   -3.7527713   -2.3729158  0.033560137   -3.7527713    1.3798554   518400 
 1089000   0.91896635   -3.7529668   -3.7529668   -2.3745199    0.0375638   -3.7529668    1.3784469   518400 
 1090000   0.91853444   -3.7530487   -3.7530487   -2.3752497  0.035225394   -3.7530487     1.377799   518400 
 1091000   0.91854001   -3.7524002   -3.7524002   -2.3745929  0.035569566   -3.7524002    1.3778074   518400 
 1092000   0.91964497   -3.7528635   -3.7528635   -2.3733987  0.037365914   -3.7528635    1.3794648   518400 
 1093000   0.92029095   -3.7537044   -3.7537044   -2.3732706  0.035087265   -3.7537044    1.3804338   518400 
 1094000   0.91950901   -3.7531252   -3.7531252   -2.3738644  0.040933772   -3.7531252    1.3792608   518400 
 1095000   0.91929656   -3.7526846   -3.7526846   -2.3737424   0.03965829   -3.7526846    1.3789422   518400 
 1096000   0.92072968    -3.755582    -3.755582   -2.3744902  0.037731382    -3.755582    1.3810919   518400 
 1097000   0.91928748   -3.7541011   -3.7541011   -2.3751726  0.040413912   -3.7541011    1.3789286   518400 
 1098000   0.92012683   -3.7569367   -3.7569367   -2.3767491  0.040293336   -3.7569367    1.3801876   518400 
 1099000   0.91742885   -3.7528478   -3.7528478   -2.3767072  0.043308001   -3.7528478    1.3761406   518400 
 1100000   0.91925611   -3.7554761   -3.7554761   -2.3765946  0.035598032   -3.7554761    1.3788815   518400 
 1101000    0.9181673   -3.7547549   -3.7547549   -2.3775066   0.03660571   -3.7547549    1.3772483   518400 
 1102000   0.91703017   -3.7532548   -3.7532548   -2.3777122  0.035849149   -3.7532548    1.3755426   518400 
 1103000   0.91737609   -3.7548641   -3.7548641   -2.3788026  0.037581736   -3.7548641    1.3760615   518400 
 1104000   0.91736762   -3.7556333   -3.7556333   -2.3795845  0.034126796   -3.7556333    1.3760488   518400 
 1105000   0.91731357   -3.7558912   -3.7558912   -2.3799235  0.038970215   -3.7558912    1.3759677   518400 
 1106000   0.91849135   -3.7570108   -3.7570108   -2.3792764  0.042285326   -3.7570108    1.3777344   518400 
 1107000   0.91931721   -3.7584832   -3.7584832     -2.37951  0.037916023   -3.7584832    1.3789732   518400 
 1108000   0.91942054   -3.7606844   -3.7606844   -2.3815562  0.039764246   -3.7606844    1.3791282   518400 
 1109000   0.91898514   -3.7606302   -3.7606302   -2.3821551  0.040381802   -3.7606302     1.378475   518400 
 1110000   0.91836313   -3.7596086   -3.7596086   -2.3820666  0.036693639   -3.7596086     1.377542   518400 
 1111000   0.91713193   -3.7585733   -3.7585733    -2.382878  0.036639534   -3.7585733    1.3756952   518400 
 1112000   0.91753953   -3.7585742   -3.7585742   -2.3822675  0.033782048   -3.7585742    1.3763066   518400 
 1113000    0.9183892   -3.7593964   -3.7593964   -2.3818152  0.031900588   -3.7593964    1.3775811   518400 
 1114000   0.91807278   -3.7587544   -3.7587544   -2.3816479  0.034742632   -3.7587544    1.3771065   518400 
 1115000   0.91829591   -3.7602076   -3.7602076   -2.3827664  0.032386643   -3.7602076    1.3774412   518400 
 1116000   0.91718599   -3.7586749   -3.7586749   -2.3828985   0.03706133   -3.7586749    1.3757763   518400 
 1117000    0.9170702   -3.7591197   -3.7591197   -2.3835171  0.036166321   -3.7591197    1.3756026   518400 
 1118000   0.91817592   -3.7607834   -3.7607834   -2.3835222  0.035354901   -3.7607834    1.3772612   518400 
 1119000   0.91908493   -3.7622302   -3.7622302   -2.3836054  0.039348433   -3.7622302    1.3786247   518400 
 1120000   0.91834764   -3.7626812   -3.7626812   -2.3851624  0.035698546   -3.7626812    1.3775188   518400 
 1121000   0.91719983   -3.7617478   -3.7617478   -2.3859507  0.037202559   -3.7617478    1.3757971   518400 
 1122000   0.91750435   -3.7624282   -3.7624282   -2.3861743  0.033777484   -3.7624282    1.3762539   518400 
 1123000   0.91614737   -3.7618392   -3.7618392   -2.3876208  0.035725159   -3.7618392    1.3742184   518400 
 1124000   0.91742277   -3.7641243   -3.7641243   -2.3879928  0.032033863   -3.7641243    1.3761315   518400 
 1125000   0.91702396    -3.764413    -3.764413   -2.3888798  0.036503202    -3.764413    1.3755333   518400 
 1126000   0.91669991   -3.7642319   -3.7642319   -2.3891847  0.032081526   -3.7642319    1.3750472   518400 
 1127000    0.9173983   -3.7666259   -3.7666259   -2.3905311  0.035184119   -3.7666259    1.3760948   518400 
 1128000   0.91831823   -3.7673525   -3.7673525   -2.3898779  0.033019136   -3.7673525    1.3774747   518400 
 1129000   0.91793635   -3.7669745   -3.7669745   -2.3900726   0.03978239   -3.7669745    1.3769019   518400 
 1130000   0.91658557   -3.7674873   -3.7674873   -2.3926116  0.034887935   -3.7674873    1.3748757   518400 
 1131000   0.91743873   -3.7681739   -3.7681739   -2.3920185  0.043349728   -3.7681739    1.3761554   518400 
 1132000   0.91840019   -3.7693903   -3.7693903   -2.3917927  0.034224092   -3.7693903    1.3775976   518400 
 1133000   0.91583867   -3.7664678   -3.7664678   -2.3927124  0.039450823   -3.7664678    1.3737554   518400 
 1134000   0.91608084   -3.7688944   -3.7688944   -2.3947758  0.032891542   -3.7688944    1.3741186   518400 
 1135000   0.91729435   -3.7705869   -3.7705869   -2.3946481  0.036548748   -3.7705869    1.3759389   518400 
 1136000   0.91637963    -3.767758    -3.767758   -2.3931912  0.033719983    -3.767758    1.3745668   518400 
 1137000   0.91589076   -3.7680439   -3.7680439   -2.3942104  0.030695794   -3.7680439    1.3738335   518400 
 1138000   0.91468244   -3.7672552   -3.7672552   -2.3952342  0.036699634   -3.7672552     1.372021   518400 
 1139000   0.91491615   -3.7682769   -3.7682769   -2.3959053  0.035181327   -3.7682769    1.3723716   518400 
 1140000   0.91676797   -3.7708002   -3.7708002   -2.3956509  0.037124155   -3.7708002    1.3751493   518400 
 1141000   0.91752749   -3.7728921   -3.7728921   -2.3966035  0.040338108   -3.7728921    1.3762886   518400 
 1142000   0.91692821     -3.77275     -3.77275   -2.3973603  0.035642876     -3.77275    1.3753897   518400 
 1143000   0.91714299   -3.7733235   -3.7733235   -2.3976117  0.037396482   -3.7733235    1.3757118   518400 
 1144000   0.91760431   -3.7742251   -3.7742251   -2.3978213  0.034658888   -3.7742251    1.3764038   518400 
 1145000   0.91594512   -3.7724389   -3.7724389   -2.3985239  0.035884134   -3.7724389     1.373915   518400 
 1146000   0.91509087   -3.7711626   -3.7711626   -2.3985289   0.04147696   -3.7711626    1.3726337   518400 
 1147000   0.91548172   -3.7719854   -3.7719854   -2.3987654  0.030873392   -3.7719854    1.3732199   518400 
 1148000   0.91466734   -3.7710341   -3.7710341   -2.3990357  0.031946032   -3.7710341    1.3719984   518400 
 1149000   0.91393915   -3.7702224   -3.7702224   -2.3993164   0.03493731   -3.7702224    1.3709061   518400 
 1150000   0.91637869   -3.7745272   -3.7745272   -2.3999618  0.030357681   -3.7745272    1.3745654   518400 
 1151000    0.9153011   -3.7737011   -3.7737011   -2.4007521  0.036086715   -3.7737011     1.372949   518400 
 1152000   0.91563237   -3.7755716   -3.7755716   -2.4021257  0.032138057   -3.7755716    1.3734459   518400 
 1153000     0.916264   -3.7757072   -3.7757072   -2.4013138  0.041317219   -3.7757072    1.3743933   518400 
 1154000   0.91549728   -3.7755648   -3.7755648   -2.4023215  0.043508652   -3.7755648    1.3732433   518400 
 1155000   0.91525646    -3.775499    -3.775499    -2.402617  0.036213171    -3.775499     1.372882   518400 
 1156000   0.91512766   -3.7759884   -3.7759884   -2.4032996   0.03508771   -3.7759884    1.3726888   518400 
 1157000   0.91424286    -3.775338    -3.775338   -2.4039763  0.033915282    -3.775338    1.3713616   518400 
 1158000   0.91408423   -3.7756453   -3.7756453   -2.4045216  0.037386175   -3.7756453    1.3711237   518400 
 1159000   0.91358727   -3.7752247   -3.7752247   -2.4048464  0.033512009   -3.7752247    1.3703783   518400 
 1160000   0.91445169   -3.7765908   -3.7765908   -2.4049159  0.039736094   -3.7765908    1.3716749   518400 
 1161000   0.91515611   -3.7779005   -3.7779005    -2.405169  0.036431127   -3.7779005    1.3727315   518400 
 1162000   0.91359576   -3.7769251   -3.7769251   -2.4065341  0.041767308   -3.7769251     1.370391   518400 
 1163000   0.91549583   -3.7799591   -3.7799591    -2.406718  0.036889792   -3.7799591    1.3732411   518400 
 1164000   0.91551256   -3.7814604   -3.7814604   -2.4081942   0.04350081   -3.7814604    1.3732662   518400 
 1165000   0.91558005   -3.7821025   -3.7821025    -2.408735  0.039343843   -3.7821025    1.3733674   518400 
 1166000   0.91553125   -3.7831663   -3.7831663   -2.4098721  0.034769937   -3.7831663    1.3732942   518400 
 1167000   0.91438335   -3.7806185   -3.7806185   -2.4090461  0.038805713   -3.7806185    1.3715724   518400 
 1168000   0.91346207   -3.7802402   -3.7802402   -2.4100498   0.03937696   -3.7802402    1.3701905   518400 
 1169000   0.91464916   -3.7822486   -3.7822486   -2.4102775  0.032158803   -3.7822486    1.3719711   518400 
 1170000   0.91236782   -3.7800273   -3.7800273   -2.4114782  0.027051847   -3.7800273    1.3685491   518400 
 1171000   0.91325107   -3.7818792   -3.7818792   -2.4120052  0.034592361   -3.7818792     1.369874   518400 
 1172000   0.91426586   -3.7842707   -3.7842707   -2.4128745  0.033880271   -3.7842707    1.3713961   518400 
 1173000   0.91393217   -3.7842276   -3.7842276   -2.4133319  0.038194861   -3.7842276    1.3708956   518400 
 1174000   0.91433666   -3.7844042   -3.7844042   -2.4129018   0.03760116   -3.7844042    1.3715023   518400 
 1175000   0.91552102   -3.7852996   -3.7852996   -2.4120208  0.037755243   -3.7852996    1.3732789   518400 
 1176000   0.91525711   -3.7853282   -3.7853282   -2.4124452  0.035952151   -3.7853282     1.372883   518400 
 1177000     0.914488   -3.7841422   -3.7841422   -2.4124128  0.034893374   -3.7841422    1.3717294   518400 
 1178000   0.91316939   -3.7822746   -3.7822746   -2.4125232    0.0385349   -3.7822746    1.3697514   518400 
 1179000   0.91344908   -3.7824344   -3.7824344   -2.4122634  0.032752041   -3.7824344     1.370171   518400 
 1180000   0.91137837   -3.7802802   -3.7802802   -2.4132153  0.029772406   -3.7802802    1.3670649   518400 
 1181000   0.91126811   -3.7804714   -3.7804714   -2.4135718  0.033577539   -3.7804714    1.3668995   518400 
 1182000   0.91325759   -3.7842049   -3.7842049   -2.4143211  0.030588905   -3.7842049    1.3698837   518400 
 1183000   0.91185776   -3.7828973   -3.7828973   -2.4151133  0.037703117   -3.7828973     1.367784   518400 
 1184000   0.91291949   -3.7845613   -3.7845613   -2.4151847  0.038689022   -3.7845613    1.3693766   518400 
 1185000   0.91383958   -3.7868914   -3.7868914   -2.4161347  0.033311775   -3.7868914    1.3707567   518400 
 1186000   0.91379751   -3.7865587   -3.7865587   -2.4158651  0.038081093   -3.7865587    1.3706936   518400 
 1187000   0.91275226   -3.7852286   -3.7852286   -2.4161028  0.040814022   -3.7852286    1.3691257   518400 
 1188000   0.91368585   -3.7863411   -3.7863411   -2.4158149  0.034245049   -3.7863411    1.3705261   518400 
 1189000   0.91274628   -3.7855062   -3.7855062   -2.4163895  0.031686759   -3.7855062    1.3691168   518400 
 1190000   0.91235641   -3.7861778   -3.7861778   -2.4176459  0.026522457   -3.7861778     1.368532   518400 
 1191000   0.91143256   -3.7855163   -3.7855163   -2.4183701  0.027044744   -3.7855163    1.3671462   518400 
 1192000   0.91201178   -3.7868731   -3.7868731   -2.4188581  0.030167265   -3.7868731     1.368015   518400 
 1193000   0.91242546   -3.7879316   -3.7879316   -2.4192961  0.027303908   -3.7879316    1.3686356   518400 
 1194000   0.91198395   -3.7871431   -3.7871431   -2.4191698  0.042254815   -3.7871431    1.3679733   518400 
 1195000   0.91402872   -3.7910199   -3.7910199   -2.4199795  0.038089524   -3.7910199    1.3710404   518400 
 1196000   0.91288598   -3.7899102   -3.7899102   -2.4205838  0.038956209   -3.7899102    1.3693263   518400 
 1197000   0.91297107   -3.7902027   -3.7902027   -2.4207488   0.03697016   -3.7902027     1.369454   518400 
 1198000   0.91146435   -3.7884486   -3.7884486   -2.4212547  0.033520653   -3.7884486    1.3671939   518400 
 1199000   0.91202863   -3.7893496   -3.7893496   -2.4213093  0.034957612   -3.7893496    1.3680403   518400 
 1200000   0.91236139   -3.7905725   -3.7905725   -2.4220331  0.035029933   -3.7905725    1.3685394   518400 
 1201000   0.91156054   -3.7907837   -3.7907837   -2.4234456  0.029699393   -3.7907837    1.3673382   518400 
 1202000   0.91188827   -3.7910209   -3.7910209   -2.4231911  0.033590103   -3.7910209    1.3678298   518400 
 1203000   0.91233031   -3.7926457   -3.7926457   -2.4241529  0.034851596   -3.7926457    1.3684928   518400 
 1204000   0.91068969   -3.7911343   -3.7911343   -2.4251024   0.03957471   -3.7911343    1.3660319   518400 
 1205000   0.91007114   -3.7922632   -3.7922632   -2.4271591   0.03235036   -3.7922632    1.3651041   518400 
 1206000   0.91156777   -3.7960818   -3.7960818   -2.4287328  0.028486214   -3.7960818     1.367349   518400 
 1207000   0.91312579   -3.7972388   -3.7972388   -2.4275528  0.035836302   -3.7972388     1.369686   518400 
 1208000   0.91322896   -3.7977896   -3.7977896   -2.4279488  0.041460094   -3.7977896    1.3698408   518400 
 1209000   0.91074437   -3.7938846   -3.7938846   -2.4277707  0.037291141   -3.7938846    1.3661139   518400 
 1210000   0.91015141   -3.7934497   -3.7934497   -2.4282252  0.035713578   -3.7934497    1.3652245   518400 
 1211000   0.91007342   -3.7938042   -3.7938042   -2.4286967  0.034872666   -3.7938042    1.3651075   518400 
 1212000   0.90967743   -3.7939299   -3.7939299   -2.4294164  0.032565051   -3.7939299    1.3645135   518400 
 1213000    0.9090754    -3.792604    -3.792604   -2.4289936  0.037024363    -3.792604    1.3636105   518400 
 1214000   0.91013495   -3.7951993   -3.7951993   -2.4299995  0.031520262   -3.7951993    1.3651998   518400 
 1215000   0.91085194   -3.7961166   -3.7961166   -2.4298413  0.034989942   -3.7961166    1.3662753   518400 
 1216000    0.9110115   -3.7977255   -3.7977255   -2.4312109  0.037410607   -3.7977255    1.3665146   518400 
 1217000   0.91144984   -3.7994403   -3.7994403   -2.4322682  0.030641109   -3.7994403    1.3671721   518400 
 1218000   0.91116963   -3.7993957   -3.7993957   -2.4326439  0.035061027   -3.7993957    1.3667518   518400 
 1219000   0.91119932   -3.7994422   -3.7994422   -2.4326458  0.037393655   -3.7994422    1.3667963   518400 
 1220000   0.91276206   -3.8006056   -3.8006056   -2.4314651  0.035140962   -3.8006056    1.3691404   518400 
 1221000   0.91203344   -3.8015283   -3.8015283   -2.4334807   0.03433921   -3.8015283    1.3680475   518400 
 1222000   0.90913112   -3.7976113   -3.7976113   -2.4339172  0.035947903   -3.7976113    1.3636941   518400 
 1223000    0.9089355   -3.7979395   -3.7979395   -2.4345389   0.03500922   -3.7979395    1.3634006   518400 
 1224000    0.9101045   -3.8006749   -3.8006749   -2.4355208  0.030498096   -3.8006749    1.3651541   518400 
 1225000   0.90970463   -3.8019438   -3.8019438   -2.4373895  0.033310229   -3.8019438    1.3645543   518400 
 1226000   0.90912891   -3.8016196   -3.8016196   -2.4379288  0.035101468   -3.8016196    1.3636907   518400 
 1227000   0.91012052   -3.8044226   -3.8044226   -2.4392445  0.034103811   -3.8044226    1.3651781   518400 
 1228000   0.91140959   -3.8077926   -3.8077926   -2.4406809  0.029683354   -3.8077926    1.3671118   518400 
 1229000   0.91036343   -3.8073189   -3.8073189   -2.4417764  0.036339351   -3.8073189    1.3655425   518400 
 1230000   0.90949077   -3.8066158   -3.8066158   -2.4423823  0.036638111   -3.8066158    1.3642335   518400 
 1231000   0.90932339   -3.8071076   -3.8071076   -2.4431251   0.03698224   -3.8071076    1.3639825   518400 
 1232000   0.90822992   -3.8050191   -3.8050191   -2.4426768    0.0352974   -3.8050191    1.3623422   518400 
 1233000   0.90909615    -3.806003    -3.806003   -2.4423614  0.029738282    -3.806003    1.3636416   518400 
 1234000   0.90838877   -3.8055415   -3.8055415    -2.442961  0.035535568   -3.8055415    1.3625805   518400 
 1235000   0.90864654   -3.8059145   -3.8059145   -2.4429473  0.030287909   -3.8059145    1.3629672   518400 
 1236000   0.90860664   -3.8064307   -3.8064307   -2.4435233  0.035105043   -3.8064307    1.3629073   518400 
 1237000   0.90950194   -3.8077853   -3.8077853    -2.443535  0.038598085   -3.8077853    1.3642503   518400 
 1238000   0.91013523   -3.8088121   -3.8088121   -2.4436119  0.035418728   -3.8088121    1.3652002   518400 
 1239000    0.9090047   -3.8067068   -3.8067068   -2.4432024  0.040005184   -3.8067068    1.3635044   518400 
 1240000   0.91016741   -3.8088143   -3.8088143   -2.4435658  0.030943529   -3.8088143    1.3652485   518400 
 1241000   0.90667934   -3.8044197   -3.8044197   -2.4444033   0.03265892   -3.8044197    1.3600164   518400 
 1242000   0.90893676   -3.8075543   -3.8075543   -2.4441518  0.032209311   -3.8075543    1.3634025   518400 
 1243000   0.90871525   -3.8079023   -3.8079023    -2.444832  0.029216955   -3.8079023    1.3630702   518400 
 1244000   0.90748158   -3.8064834   -3.8064834   -2.4452636  0.034219413   -3.8064834    1.3612197   518400 
 1245000   0.90909012   -3.8086707   -3.8086707   -2.4450382  0.034896664   -3.8086707    1.3636325   518400 
 1246000   0.90917119   -3.8094238   -3.8094238   -2.4456696  0.033529546   -3.8094238    1.3637541   518400 
 1247000   0.90798872   -3.8088177   -3.8088177   -2.4468373  0.038043964   -3.8088177    1.3619805   518400 
 1248000   0.90837737   -3.8105405   -3.8105405   -2.4479771  0.033945175   -3.8105405    1.3625634   518400 
 1249000   0.90886997   -3.8109139   -3.8109139   -2.4476116  0.036521838   -3.8109139    1.3633023   518400 
 1250000   0.90618134   -3.8094091   -3.8094091   -2.4501397  0.031583617   -3.8094091    1.3592694   518400 
 1251000   0.90619178   -3.8094431   -3.8094431    -2.450158  0.032528025   -3.8094431     1.359285   518400 
 1252000   0.90620359   -3.8108248   -3.8108248    -2.451522  0.036304321   -3.8108248    1.3593028   518400 
 1253000   0.90654333   -3.8110315   -3.8110315   -2.4512191  0.029999453   -3.8110315    1.3598124   518400 
 1254000   0.90722977    -3.813103    -3.813103   -2.4522609  0.033481001    -3.813103     1.360842   518400 
 1255000   0.90740844   -3.8139782   -3.8139782   -2.4528682  0.035545095   -3.8139782      1.36111   518400 
 1256000   0.90798962   -3.8155663   -3.8155663   -2.4535845  0.043080273   -3.8155663    1.3619818   518400 
 1257000    0.9089476   -3.8165341   -3.8165341   -2.4531154  0.033320217   -3.8165341    1.3634188   518400 
 1258000   0.90814658   -3.8149322   -3.8149322   -2.4527149  0.036660159   -3.8149322    1.3622172   518400 
 1259000   0.90891619   -3.8168846   -3.8168846    -2.453513  0.034744567   -3.8168846    1.3633717   518400 
 1260000   0.90693918   -3.8143202   -3.8143202   -2.4539141  0.036788414   -3.8143202    1.3604061   518400 
 1261000   0.90615714   -3.8138685   -3.8138685   -2.4546354  0.033758153   -3.8138685    1.3592331   518400 
 1262000   0.90711098   -3.8151457   -3.8151457   -2.4544819  0.036219606   -3.8151457    1.3606639   518400 
 1263000   0.90670524   -3.8157047   -3.8157047   -2.4556495  0.028953807   -3.8157047    1.3600552   518400 
 1264000   0.90676174   -3.8153424   -3.8153424   -2.4552024  0.032626269   -3.8153424      1.36014   518400 
 1265000   0.90716187   -3.8163415   -3.8163415   -2.4556014  0.029318036   -3.8163415    1.3607402   518400 
 1266000    0.9073831   -3.8169581   -3.8169581    -2.455886  0.032738223   -3.8169581     1.361072   518400 
 1267000   0.90730331   -3.8174928   -3.8174928   -2.4565404  0.034927496   -3.8174928    1.3609523   518400 
 1268000   0.90750061   -3.8183563   -3.8183563    -2.457108  0.037804746   -3.8183563    1.3612483   518400 
 1269000   0.90748635   -3.8182937   -3.8182937   -2.4570668  0.034032198   -3.8182937    1.3612269   518400 
 1270000   0.90579455   -3.8162095   -3.8162095   -2.4575203  0.029880216   -3.8162095    1.3586892   518400 
 1271000   0.90562214   -3.8155508   -3.8155508   -2.4571202  0.036150131   -3.8155508    1.3584306   518400 
 1272000   0.90534787   -3.8152668   -3.8152668   -2.4572476  0.031016987   -3.8152668    1.3580192   518400 
 1273000   0.90535461   -3.8156187   -3.8156187   -2.4575895  0.031068745   -3.8156187    1.3580293   518400 
 1274000   0.90616186   -3.8165413   -3.8165413   -2.4573011  0.039042974   -3.8165413    1.3592402   518400 
 1275000   0.90637954   -3.8185792   -3.8185792   -2.4590125   0.03485304   -3.8185792    1.3595667   518400 
 1276000   0.90462144   -3.8166889   -3.8166889   -2.4597593  0.034486415   -3.8166889    1.3569295   518400 
 1277000   0.90488542    -3.817214    -3.817214   -2.4598885  0.037723511    -3.817214    1.3573255   518400 
 1278000   0.90612683   -3.8189181   -3.8189181   -2.4597305  0.037531197   -3.8189181    1.3591876   518400 
 1279000    0.9076894   -3.8208769   -3.8208769   -2.4593454  0.036336641   -3.8208769    1.3615315   518400 
 1280000    0.9064676    -3.819642    -3.819642   -2.4599432  0.039292709    -3.819642    1.3596988   518400 
 1281000   0.90432905   -3.8168138   -3.8168138   -2.4603228  0.035708558   -3.8168138     1.356491   518400 
 1282000   0.90566707    -3.819046    -3.819046    -2.460548  0.030641792    -3.819046     1.358498   518400 
 1283000    0.9061191   -3.8210378   -3.8210378   -2.4618618  0.035398123   -3.8210378     1.359176   518400 
 1284000   0.90647613    -3.821665    -3.821665   -2.4619534  0.037074599    -3.821665    1.3597116   518400 
 1285000   0.90482798   -3.8200509   -3.8200509   -2.4628116  0.036479031   -3.8200509    1.3572394   518400 
 1286000   0.90643064   -3.8233214   -3.8233214   -2.4636781  0.029046353   -3.8233214    1.3596433   518400 
 1287000   0.90629242   -3.8225269   -3.8225269   -2.4630909  0.040176559   -3.8225269     1.359436   518400 
 1288000   0.90787237   -3.8260625   -3.8260625   -2.4642565  0.039183849   -3.8260625    1.3618059   518400 
 1289000   0.90576536    -3.823912    -3.823912   -2.4652666  0.036754934    -3.823912    1.3586454   518400 
 1290000   0.90532419   -3.8236447   -3.8236447   -2.4656611  0.032135338   -3.8236447    1.3579837   518400 
 1291000   0.90467728    -3.822839    -3.822839   -2.4658257  0.040002527    -3.822839    1.3570133   518400 
 1292000   0.90490044    -3.823414    -3.823414   -2.4660659  0.036852537    -3.823414     1.357348   518400 
 1293000   0.90557301    -3.824043    -3.824043   -2.4656861  0.024993454    -3.824043    1.3583569   518400 
 1294000   0.90553369   -3.8246196   -3.8246196   -2.4663217  0.029042101   -3.8246196    1.3582979   518400 
 1295000   0.90643796   -3.8264244   -3.8264244   -2.4667701  0.033225705   -3.8264244    1.3596543   518400 
 1296000   0.90528845   -3.8250507   -3.8250507   -2.4671207  0.032085234   -3.8250507    1.3579301   518400 
 1297000   0.90458222   -3.8259382   -3.8259382   -2.4690675   0.03975902   -3.8259382    1.3568707   518400 
 1298000   0.90407861   -3.8254201   -3.8254201   -2.4693048  0.032866179   -3.8254201    1.3561153   518400 
 1299000   0.90508696   -3.8285939   -3.8285939    -2.470966  0.037662621   -3.8285939    1.3576278   518400 
 1300000    0.9051842   -3.8285165   -3.8285165   -2.4707428  0.042541293   -3.8285165    1.3577737   518400 
 1301000   0.90444485   -3.8276082   -3.8276082   -2.4709435  0.040941364   -3.8276082    1.3566647   518400 
 1302000   0.90439312   -3.8291192   -3.8291192   -2.4725322  0.029771664   -3.8291192    1.3565871   518400 
 1303000   0.90517901   -3.8298862   -3.8298862   -2.4721203   0.02646687   -3.8298862    1.3577659   518400 
 1304000   0.90411633   -3.8287862   -3.8287862   -2.4726143  0.036456411   -3.8287862    1.3561719   518400 
 1305000    0.9041893   -3.8299672   -3.8299672   -2.4736859  0.030044463   -3.8299672    1.3562813   518400 
 1306000   0.90381772   -3.8300875   -3.8300875   -2.4743635  0.036686033   -3.8300875     1.355724   518400 
 1307000   0.90397541   -3.8314386   -3.8314386   -2.4754781  0.038547522   -3.8314386    1.3559605   518400 
 1308000   0.90564729    -3.832658    -3.832658   -2.4741896  0.023002162    -3.832658    1.3584683   518400 
 1309000    0.9037567   -3.8313349   -3.8313349   -2.4757025  0.034605495   -3.8313349    1.3556324   518400 
 1310000   0.90463088   -3.8324849   -3.8324849   -2.4755412  0.031550216   -3.8324849    1.3569437   518400 
 1311000   0.90379165   -3.8312627   -3.8312627   -2.4755779  0.031851304   -3.8312627    1.3556849   518400 
 1312000   0.90501322   -3.8340327   -3.8340327   -2.4765155  0.032214775   -3.8340327    1.3575172   518400 
 1313000   0.90503997   -3.8351003   -3.8351003    -2.477543  0.039337202   -3.8351003    1.3575573   518400 
 1314000   0.90428583   -3.8344871   -3.8344871    -2.478061  0.028352203   -3.8344871    1.3564261   518400 
 1315000   0.90369292   -3.8348566   -3.8348566   -2.4793198  0.031015927   -3.8348566    1.3555368   518400 
 1316000   0.90464518   -3.8358979   -3.8358979   -2.4789327  0.034285969   -3.8358979    1.3569652   518400 
 1317000   0.90536767   -3.8369847   -3.8369847   -2.4789358   0.03153119   -3.8369847    1.3580489   518400 
 1318000   0.90253675   -3.8328452   -3.8328452   -2.4790427  0.031900877   -3.8328452    1.3538025   518400 
 1319000   0.90342812   -3.8356028   -3.8356028   -2.4804633  0.031532448   -3.8356028    1.3551396   518400 
 1320000    0.9033379   -3.8355413   -3.8355413    -2.480537  0.037607529   -3.8355413    1.3550042   518400 
 1321000   0.90262556    -3.834697    -3.834697   -2.4807613  0.034821824    -3.834697    1.3539357   518400 
 1322000    0.9033649   -3.8365896   -3.8365896   -2.4815448  0.034589526   -3.8365896    1.3550447   518400 
 1323000   0.90375365   -3.8369893   -3.8369893   -2.4813615  0.033428507   -3.8369893    1.3556279   518400 
 1324000   0.90367936   -3.8375014   -3.8375014    -2.481985  0.029595854   -3.8375014    1.3555164   518400 
 1325000   0.90337203   -3.8378642   -3.8378642   -2.4828088  0.034924888   -3.8378642    1.3550554   518400 
 1326000   0.90236982   -3.8380929   -3.8380929   -2.4845408  0.030302177   -3.8380929    1.3535521   518400 
 1327000   0.90176581   -3.8383546   -3.8383546   -2.4857085  0.032836431   -3.8383546    1.3526461   518400 
 1328000    0.9024477   -3.8388945   -3.8388945   -2.4852255  0.027726539   -3.8388945    1.3536689   518400 
 1329000   0.90078433   -3.8373273   -3.8373273   -2.4861534  0.031153561   -3.8373273    1.3511739   518400 
 1330000   0.90244459   -3.8401256   -3.8401256   -2.4864614   0.03490233   -3.8401256    1.3536643   518400 
 1331000   0.90347588   -3.8414949   -3.8414949   -2.4862837  0.038849012   -3.8414949    1.3552112   518400 
 1332000   0.90249916     -3.84202     -3.84202   -2.4882739  0.030364866     -3.84202    1.3537461   518400 
 1333000   0.90226929   -3.8420847   -3.8420847   -2.4886834  0.030161007   -3.8420847    1.3534013   518400 
 1334000   0.90172617   -3.8404322   -3.8404322   -2.4878456  0.035880743   -3.8404322    1.3525866   518400 
 1335000   0.90170041   -3.8399716   -3.8399716   -2.4874236  0.032709504   -3.8399716     1.352548   518400 
 1336000   0.90254251   -3.8416651   -3.8416651    -2.487854  0.037165798   -3.8416651    1.3538112   518400 
 1337000   0.90368249    -3.843926    -3.843926   -2.4884049  0.035332461    -3.843926    1.3555211   518400 
 1338000   0.90368047   -3.8451478   -3.8451478   -2.4896297  0.030666262   -3.8451478    1.3555181   518400 
 1339000   0.90135608   -3.8423303   -3.8423303   -2.4902988  0.031085666   -3.8423303    1.3520315   518400 
 1340000   0.90230178    -3.845197    -3.845197    -2.491747  0.033053952    -3.845197    1.3534501   518400 
 1341000   0.90105574   -3.8428515   -3.8428515   -2.4912705  0.029106889   -3.8428515     1.351581   518400 
 1342000   0.90112784   -3.8435779   -3.8435779   -2.4918887  0.028154726   -3.8435779    1.3516891   518400 
 1343000   0.90173883   -3.8440425   -3.8440425   -2.4914368  0.030734846   -3.8440425    1.3526056   518400 
 1344000   0.90077706   -3.8438815   -3.8438815   -2.4927186   0.03424364   -3.8438815     1.351163   518400 
 1345000   0.90084758   -3.8455408   -3.8455408   -2.4942721  0.025195707   -3.8455408    1.3512688   518400 
 1346000   0.90065039   -3.8449841   -3.8449841   -2.4940111  0.037209528   -3.8449841     1.350973   518400 
 1347000   0.90141093    -3.846341    -3.846341   -2.4942273  0.032473563    -3.846341    1.3521138   518400 
 1348000   0.90310715   -3.8500013   -3.8500013   -2.4953432  0.028857872   -3.8500013    1.3546581   518400 
 1349000   0.90288519   -3.8500343   -3.8500343   -2.4957091  0.030353984   -3.8500343    1.3543252   518400 
 1350000   0.90182624   -3.8493766   -3.8493766   -2.4966399  0.031969354   -3.8493766    1.3527368   518400 
 1351000   0.89982775   -3.8463725   -3.8463725   -2.4966335  0.036534739   -3.8463725     1.349739   518400 
 1352000   0.90136366   -3.8484893   -3.8484893   -2.4964464  0.031297059   -3.8484893    1.3520429   518400 
 1353000   0.89876496   -3.8456477   -3.8456477   -2.4975028  0.028682451   -3.8456477    1.3481448   518400 
 1354000   0.89920523   -3.8472924   -3.8472924   -2.4984872  0.025555342   -3.8472924    1.3488052   518400 
 1355000   0.89973034   -3.8484427   -3.8484427   -2.4988498  0.030184626   -3.8484427    1.3495929   518400 
 1356000   0.89991327   -3.8498155   -3.8498155   -2.4999482   0.03258598   -3.8498155    1.3498673   518400 
 1357000   0.89996337   -3.8506547   -3.8506547   -2.5007123  0.033107384   -3.8506547    1.3499425   518400 
 1358000   0.89932352    -3.851183    -3.851183   -2.5022004  0.038960304    -3.851183    1.3489827   518400 
 1359000   0.89953761   -3.8512505   -3.8512505   -2.5019467  0.037673412   -3.8512505    1.3493038   518400 
 1360000   0.89994536   -3.8521935   -3.8521935   -2.5022781  0.030087334   -3.8521935    1.3499154   518400 
 1361000   0.90034483   -3.8532522   -3.8532522   -2.5027376  0.031110932   -3.8532522    1.3505146   518400 
 1362000   0.89958946   -3.8523641   -3.8523641   -2.5029825  0.031589806   -3.8523641    1.3493816   518400 
 1363000   0.89890468   -3.8527543   -3.8527543   -2.5043999  0.031114913   -3.8527543    1.3483544   518400 
 1364000   0.89958851   -3.8532554   -3.8532554   -2.5038752  0.031309283   -3.8532554    1.3493802   518400 
 1365000    0.8994801   -3.8532815   -3.8532815   -2.5040639  0.031318698   -3.8532815    1.3492175   518400 
 1366000   0.89996372    -3.854688    -3.854688    -2.504745  0.027258281    -3.854688     1.349943   518400 
 1367000   0.89946536   -3.8532373   -3.8532373   -2.5040419  0.031218094   -3.8532373    1.3491954   518400 
 1368000   0.90009301   -3.8544899   -3.8544899    -2.504353   0.03218591   -3.8544899    1.3501369   518400 
 1369000   0.89927843   -3.8536959   -3.8536959   -2.5047809  0.035576601   -3.8536959     1.348915   518400 
 1370000   0.90087703   -3.8574612   -3.8574612   -2.5061483  0.031739776   -3.8574612    1.3513129   518400 
 1371000   0.89863981   -3.8546813   -3.8546813   -2.5067242  0.028977912   -3.8546813    1.3479571   518400 
 1372000    0.8987971   -3.8548936   -3.8548936   -2.5067005   0.03051618   -3.8548936     1.348193   518400 
 1373000   0.89819231   -3.8565391   -3.8565391   -2.5092533  0.032344454   -3.8565391    1.3472859   518400 
 1374000      0.89844   -3.8582438   -3.8582438   -2.5105864  0.028970979   -3.8582438    1.3476574   518400 
 1375000   0.89681424   -3.8565783   -3.8565783   -2.5113595  0.032609794   -3.8565783    1.3452188   518400 
 1376000   0.89837946   -3.8579347   -3.8579347   -2.5103681  0.030545361   -3.8579347    1.3475666   518400 
 1377000   0.89893088   -3.8602863   -3.8602863   -2.5118926  0.031175174   -3.8602863    1.3483937   518400 
 1378000   0.89797135   -3.8595026   -3.8595026   -2.5125482  0.032794019   -3.8595026    1.3469544   518400 
 1379000   0.89825958   -3.8599125   -3.8599125   -2.5125257  0.033974201   -3.8599125    1.3473868   518400 
 1380000   0.89844928   -3.8602217   -3.8602217   -2.5125504    0.0310667   -3.8602217    1.3476713   518400 
 1381000   0.89792814   -3.8593211   -3.8593211   -2.5124314  0.035503008   -3.8593211    1.3468896   518400 
 1382000   0.89731127   -3.8581997   -3.8581997   -2.5122353  0.032486951   -3.8581997    1.3459643   518400 
 1383000    0.8979951   -3.8593336   -3.8593336   -2.5123436  0.024028997   -3.8593336    1.3469901   518400 
 1384000   0.89733478   -3.8584648   -3.8584648   -2.5124652  0.024805744   -3.8584648    1.3459996   518400 
 1385000   0.89717512   -3.8575172   -3.8575172   -2.5117571  0.032311285   -3.8575172    1.3457601   518400 
 1386000   0.89814892   -3.8587061   -3.8587061   -2.5114853  0.028740902   -3.8587061    1.3472208   518400 
 1387000   0.89703912   -3.8576019   -3.8576019   -2.5120459  0.029530085   -3.8576019    1.3455561   518400 
 1388000   0.89895821     -3.85903     -3.85903   -2.5105953  0.032435048     -3.85903    1.3484347   518400 
 1389000   0.89818892   -3.8583317   -3.8583317    -2.511051  0.032979192   -3.8583317    1.3472808   518400 
 1390000   0.89949904   -3.8601569   -3.8601569    -2.510911  0.033341056   -3.8601569     1.349246   518400 
 1391000   0.89919555   -3.8621949   -3.8621949   -2.5134042  0.029552642   -3.8621949    1.3487907   518400 
 1392000   0.89980089   -3.8636477   -3.8636477    -2.513949  0.031974346   -3.8636477    1.3496987   518400 
 1393000   0.89902677   -3.8631619   -3.8631619   -2.5146243  0.030737853   -3.8631619    1.3485376   518400 
 1394000   0.89828908   -3.8634465   -3.8634465   -2.5160155  0.027822294   -3.8634465     1.347431   518400 
 1395000   0.89662149   -3.8625142   -3.8625142   -2.5175845  0.033428759   -3.8625142    1.3449296   518400 
 1396000     0.896652   -3.8633673   -3.8633673   -2.5183919  0.028078166   -3.8633673    1.3449754   518400 
 1397000   0.89633807   -3.8645282   -3.8645282   -2.5200236   0.02644178   -3.8645282    1.3445045   518400 
 1398000   0.89857566   -3.8673829   -3.8673829    -2.519522  0.023303456   -3.8673829    1.3478609   518400 
 1399000   0.89735356   -3.8658101   -3.8658101   -2.5197824  0.029225332   -3.8658101    1.3460278   518400 
 1400000   0.89953113   -3.8686161   -3.8686161    -2.519322  0.027913312   -3.8686161    1.3492941   518400 
 1401000   0.89878553   -3.8678486   -3.8678486   -2.5196729  0.024063953   -3.8678486    1.3481757   518400 
 1402000    0.8981774    -3.867065    -3.867065   -2.5198015  0.024174525    -3.867065    1.3472635   518400 
 1403000   0.89846361   -3.8681513   -3.8681513   -2.5204585  0.025727026   -3.8681513    1.3476928   518400 
 1404000   0.89816603   -3.8682908   -3.8682908   -2.5210444  0.024488196   -3.8682908    1.3472464   518400 
 1405000    0.8975963   -3.8664622   -3.8664622   -2.5200703  0.025803943   -3.8664622    1.3463919   518400 
 1406000   0.89804584   -3.8691158   -3.8691158   -2.5220497  0.028060136   -3.8691158    1.3470662   518400 
 1407000   0.89702557   -3.8692945   -3.8692945   -2.5237588  0.023835213   -3.8692945    1.3455358   518400 
 1408000   0.89743091   -3.8706029   -3.8706029   -2.5244592  0.029821307   -3.8706029    1.3461438   518400 
 1409000   0.89932949   -3.8746187   -3.8746187   -2.5256271  0.026213806   -3.8746187    1.3489916   518400 
 1410000   0.89942332    -3.874859    -3.874859   -2.5257266  0.027674947    -3.874859    1.3491324   518400 
 1411000    0.8991203   -3.8745651   -3.8745651   -2.5258873  0.030042452   -3.8745651    1.3486779   518400 
 1412000   0.90013839   -3.8773076   -3.8773076   -2.5271027  0.024056203   -3.8773076     1.350205   518400 
 1413000   0.89947288   -3.8777039   -3.8777039   -2.5284972   0.03216848   -3.8777039    1.3492067   518400 
 1414000    0.8989117   -3.8775992   -3.8775992   -2.5292342  0.036615519   -3.8775992     1.348365   518400 
 1415000   0.89933055    -3.880086    -3.880086   -2.5310928  0.027456291    -3.880086    1.3489932   518400 
 1416000   0.89962104   -3.8794674   -3.8794674   -2.5300384  0.033827725   -3.8794674     1.349429   518400 
 1417000   0.90036722   -3.8813866   -3.8813866   -2.5308384   0.03438084   -3.8813866    1.3505482   518400 
 1418000   0.89994545   -3.8819013   -3.8819013   -2.5319857  0.033489769   -3.8819013    1.3499156   518400 
 1419000   0.90001281   -3.8835817   -3.8835817   -2.5335651  0.037593976   -3.8835817    1.3500166   518400 
 1420000   0.90165371   -3.8852689   -3.8852689   -2.5327909  0.040306704   -3.8852689     1.352478   518400 
 1421000   0.90147148   -3.8856866   -3.8856866    -2.533482   0.03678129   -3.8856866    1.3522046   518400 
 1422000   0.90218447   -3.8885049   -3.8885049   -2.5352308  0.037863126   -3.8885049    1.3532741   518400 
 1423000   0.90197589    -3.889863    -3.889863   -2.5369018  0.037258643    -3.889863    1.3529612   518400 
 1424000   0.90271715   -3.8919469   -3.8919469   -2.5378738  0.039634881   -3.8919469    1.3540731   518400 
 1425000   0.90278091   -3.8927184   -3.8927184   -2.5385496  0.045990698   -3.8927184    1.3541688   518400 
 1426000   0.90272401     -3.89453     -3.89453   -2.5404466  0.040684851     -3.89453    1.3540834   518400 
 1427000   0.90322093   -3.8963493   -3.8963493   -2.5415205  0.040051813   -3.8963493    1.3548288   518400 
 1428000   0.90334802   -3.8981901   -3.8981901   -2.5431707  0.044750915   -3.8981901    1.3550194   518400 
 1429000   0.90205149   -3.8976101   -3.8976101   -2.5445355   0.04679488   -3.8976101    1.3530746   518400 
 1430000    0.9030232   -3.9012512   -3.9012512   -2.5467191  0.045971984   -3.9012512    1.3545322   518400 
 1431000    0.9051181    -3.905327    -3.905327   -2.5476525  0.049680595    -3.905327    1.3576745   518400 
 1432000   0.90375268   -3.9045747   -3.9045747   -2.5489483  0.050735989   -3.9045747    1.3556264   518400 
 1433000   0.90482014   -3.9060399   -3.9060399   -2.5488124  0.051209539   -3.9060399    1.3572276   518400 
 1434000   0.90420679   -3.9073403   -3.9073403   -2.5510328  0.046672634   -3.9073403    1.3563076   518400 
 1435000   0.90283074    -3.906358    -3.906358   -2.5521145  0.049908111    -3.906358    1.3542435   518400 
 1436000   0.90235882    -3.905346    -3.905346   -2.5518104  0.047399237    -3.905346    1.3535356   518400 
 1437000    0.9021722   -3.9065614   -3.9065614   -2.5533057  0.047249106   -3.9065614    1.3532557   518400 
 1438000   0.90074062    -3.905459    -3.905459   -2.5543507  0.043001757    -3.905459    1.3511083   518400 
 1439000   0.90032633    -3.905514    -3.905514   -2.5550271  0.037232579    -3.905514    1.3504869   518400 
 1440000   0.89831824   -3.9034338   -3.9034338    -2.555959  0.036327855   -3.9034338    1.3474748   518400 
 1441000   0.89799897   -3.9024221   -3.9024221   -2.5554262  0.034620943   -3.9024221    1.3469959   518400 
 1442000   0.89669745   -3.9004414   -3.9004414   -2.5553978  0.031355312   -3.9004414    1.3450436   518400 
 1443000    0.8955781   -3.9005935   -3.9005935    -2.557229  0.025047271   -3.9005935    1.3433646   518400 
 1444000    0.8956368   -3.8980575   -3.8980575   -2.5546049  0.031336489   -3.8980575    1.3434526   518400 
 1445000   0.89467276   -3.8974557   -3.8974557   -2.5554491  0.028109152   -3.8974557    1.3420066   518400 
 1446000   0.89587961   -3.8980395   -3.8980395   -2.5542227  0.025019352   -3.8980395    1.3438168   518400 
 1447000   0.89584227   -3.8982468   -3.8982468    -2.554486  0.020134876   -3.8982468    1.3437608   518400 
 1448000   0.89479302    -3.896842    -3.896842    -2.554655  0.018780491    -3.896842    1.3421869   518400 
 1449000   0.89394542   -3.8957546   -3.8957546   -2.5548391  0.025201609   -3.8957546    1.3409155   518400 
 1450000   0.89518828   -3.8979095   -3.8979095   -2.5551296  0.018233422   -3.8979095    1.3427798   518400 
 1451000     0.894742   -3.8972307   -3.8972307   -2.5551203  0.023315218   -3.8972307    1.3421104   518400 
 1452000   0.89539045     -3.89906     -3.89906   -2.5559769  0.017226046     -3.89906    1.3430831   518400 
 1453000   0.89577765    -3.900053    -3.900053   -2.5563892  0.024592176    -3.900053    1.3436639   518400 
 1454000   0.89590705   -3.9011807   -3.9011807   -2.5573227  0.027192995   -3.9011807     1.343858   518400 
 1455000   0.89664821   -3.9050586   -3.9050586   -2.5600889   0.02861317   -3.9050586    1.3449697   518400 
 1456000   0.89649492   -3.9058735   -3.9058735   -2.5611337  0.028470392   -3.9058735    1.3447398   518400 
 1457000   0.89627374   -3.9058085   -3.9058085   -2.5614005  0.033641473   -3.9058085     1.344408   518400 
 1458000   0.89697242   -3.9079099   -3.9079099   -2.5624538  0.036302238   -3.9079099     1.345456   518400 
 1459000   0.89794555   -3.9105516   -3.9105516   -2.5636359  0.033079694   -3.9105516    1.3469157   518400 
 1460000   0.89876313   -3.9118002   -3.9118002   -2.5636581  0.038984291   -3.9118002    1.3481421   518400 
 1461000   0.89816356   -3.9129777   -3.9129777    -2.565735  0.036592902   -3.9129777    1.3472427   518400 
 1462000   0.89860178   -3.9150597   -3.9150597   -2.5671596  0.039954993   -3.9150597    1.3479001   518400 
 1463000   0.89926527   -3.9165348   -3.9165348   -2.5676395  0.035773829   -3.9165348    1.3488953   518400 
 1464000   0.89811515    -3.917855    -3.917855   -2.5706849  0.040195521    -3.917855    1.3471701   518400 
 1465000   0.89827611    -3.918357    -3.918357   -2.5709455  0.044856495    -3.918357    1.3474116   518400 
 1466000   0.89761658   -3.9184927   -3.9184927   -2.5720704  0.039172185   -3.9184927    1.3464223   518400 
 1467000   0.89592074   -3.9167998   -3.9167998   -2.5729212  0.044890097   -3.9167998    1.3438785   518400 
 1468000   0.89691448   -3.9188835   -3.9188835   -2.5735143  0.037245952   -3.9188835    1.3453691   518400 
 1469000   0.89591603   -3.9178871   -3.9178871   -2.5740157  0.041573592   -3.9178871    1.3438715   518400 
 1470000    0.8960743   -3.9192461   -3.9192461   -2.5751372  0.036810374   -3.9192461    1.3441089   518400 
 1471000   0.89551258   -3.9187035   -3.9187035   -2.5754372  0.035410332   -3.9187035    1.3432663   518400 
 1472000   0.89523051   -3.9200339   -3.9200339   -2.5771907   0.03568839   -3.9200339    1.3428432   518400 
 1473000   0.89526481   -3.9203367   -3.9203367    -2.577442  0.033656106   -3.9203367    1.3428946   518400 
 1474000   0.89375296   -3.9183913   -3.9183913   -2.5777644  0.034958064   -3.9183913    1.3406268   518400 
 1475000   0.89353602   -3.9182925   -3.9182925   -2.5779911  0.035295265   -3.9182925    1.3403014   518400 
 1476000   0.89370082   -3.9186029   -3.9186029   -2.5780542  0.029113142   -3.9186029    1.3405486   518400 
 1477000   0.89278233    -3.917924    -3.917924   -2.5787531  0.026991196    -3.917924    1.3391709   518400 
 1478000   0.89362723   -3.9199764   -3.9199764   -2.5795381  0.025307925   -3.9199764    1.3404383   518400 
 1479000   0.89371941   -3.9200018   -3.9200018   -2.5794253  0.027518425   -3.9200018    1.3405765   518400 
 1480000   0.89362272   -3.9203509   -3.9203509   -2.5799194  0.026704393   -3.9203509    1.3404315   518400 
 1481000   0.89297685   -3.9201579   -3.9201579   -2.5806952  0.024621046   -3.9201579    1.3394627   518400 
 1482000   0.89278929   -3.9188941   -3.9188941   -2.5797128  0.031761142   -3.9188941    1.3391813   518400 
 1483000   0.89378372   -3.9215073   -3.9215073   -2.5808343  0.029014376   -3.9215073     1.340673   518400 
 1484000   0.89331103   -3.9213807   -3.9213807   -2.5814167  0.029677815   -3.9213807     1.339964   518400 
 1485000   0.89279447   -3.9219516   -3.9219516   -2.5827625  0.028721161   -3.9219516    1.3391891   518400 
 1486000   0.89296096   -3.9232447   -3.9232447   -2.5838058   0.03161101   -3.9232447    1.3394389   518400 
 1487000   0.89244262   -3.9231295   -3.9231295   -2.5844681  0.028412241   -3.9231295    1.3386614   518400 
 1488000   0.89324629   -3.9244729   -3.9244729   -2.5846061  0.029326595   -3.9244729    1.3398669   518400 
 1489000   0.89298096   -3.9253205   -3.9253205   -2.5858516   0.03270276   -3.9253205    1.3394689   518400 
 1490000   0.89417795   -3.9286738   -3.9286738   -2.5874095  0.027326868   -3.9286738    1.3412643   518400 
 1491000   0.89367163   -3.9273072   -3.9273072   -2.5868023  0.037413401   -3.9273072    1.3405049   518400 
 1492000   0.89479822    -3.929803    -3.929803   -2.5876083  0.036154238    -3.929803    1.3421947   518400 
 1493000     0.894194   -3.9277096   -3.9277096   -2.5864212  0.044605493   -3.9277096    1.3412884   518400 
 1494000   0.89393919   -3.9290585   -3.9290585   -2.5881523  0.038927424   -3.9290585    1.3409062   518400 
 1495000    0.8945833   -3.9313424   -3.9313424     -2.58947  0.034038224   -3.9313424    1.3418724   518400 
 1496000   0.89372546   -3.9314395   -3.9314395   -2.5908539  0.039519634   -3.9314395    1.3405856   518400 
 1497000   0.89259483   -3.9309459   -3.9309459   -2.5920563  0.036441033   -3.9309459    1.3388897   518400 
 1498000   0.89337364   -3.9331109   -3.9331109    -2.593053  0.031935593   -3.9331109    1.3400579   518400 
 1499000   0.89328394   -3.9349118   -3.9349118   -2.5949885  0.029863838   -3.9349118    1.3399233   518400 
 1500000   0.89144666   -3.9316391   -3.9316391   -2.5944717  0.040744998   -3.9316391    1.3371674   518400 
 1501000    0.8919101   -3.9332474   -3.9332474   -2.5953849  0.032325997   -3.9332474    1.3378626   518400 
 1502000   0.89195682   -3.9349747   -3.9349747   -2.5970421  0.027657771   -3.9349747    1.3379326   518400 
 1503000   0.89173204   -3.9353776   -3.9353776   -2.5977821  0.030010942   -3.9353776    1.3375955   518400 
 1504000   0.89110022   -3.9351829   -3.9351829   -2.5985352  0.031007722   -3.9351829    1.3366478   518400 
 1505000   0.89095171   -3.9360085   -3.9360085   -2.5995835  0.034067426   -3.9360085     1.336425   518400 
 1506000   0.89081051   -3.9367516   -3.9367516   -2.6005384  0.030513311   -3.9367516    1.3362132   518400 
 1507000   0.89033562   -3.9365816   -3.9365816   -2.6010808  0.029616351   -3.9365816    1.3355008   518400 
 1508000   0.89151213   -3.9380512   -3.9380512   -2.6007855   0.03155178   -3.9380512    1.3372656   518400 
 1509000   0.89164546   -3.9383447   -3.9383447    -2.600879  0.034356947   -3.9383447    1.3374656   518400 
 1510000   0.89226433   -3.9394021   -3.9394021   -2.6010081  0.042682827   -3.9394021    1.3383939   518400 
 1511000   0.89160305   -3.9380164   -3.9380164   -2.6006144  0.043488007   -3.9380164     1.337402   518400 
 1512000   0.89193555   -3.9391031   -3.9391031   -2.6012023  0.038891339   -3.9391031    1.3379008   518400 
 1513000   0.89153619    -3.939384    -3.939384   -2.6020823  0.032051541    -3.939384    1.3373017   518400 
 1514000   0.89241076   -3.9398703   -3.9398703   -2.6012567  0.035738263   -3.9398703    1.3386136   518400 
 1515000   0.89130083   -3.9387957   -3.9387957   -2.6018471  0.040857522   -3.9387957    1.3369487   518400 
 1516000    0.8911786   -3.9403496   -3.9403496   -2.6035843  0.034453013   -3.9403496    1.3367653   518400 
 1517000   0.89065556   -3.9408007   -3.9408007   -2.6048199  0.034519876   -3.9408007    1.3359808   518400 
 1518000   0.88987272   -3.9408997   -3.9408997   -2.6060932  0.030678661   -3.9408997    1.3348065   518400 
 1519000   0.89014444   -3.9425937   -3.9425937   -2.6073796  0.030989695   -3.9425937    1.3352141   518400 
 1520000   0.88940415   -3.9407834   -3.9407834   -2.6066798  0.026718409   -3.9407834    1.3341036   518400 
 1521000   0.88938461   -3.9415476   -3.9415476   -2.6074733  0.028213434   -3.9415476    1.3340743   518400 
 1522000   0.88941768   -3.9414158   -3.9414158   -2.6072918  0.027380286   -3.9414158    1.3341239   518400 
 1523000   0.88968551   -3.9419621   -3.9419621   -2.6074364  0.028591465   -3.9419621    1.3345257   518400 
 1524000   0.89067604   -3.9432634   -3.9432634   -2.6072519   0.03085296   -3.9432634    1.3360115   518400 
 1525000   0.89071019   -3.9445452   -3.9445452   -2.6084825  0.033173062   -3.9445452    1.3360627   518400 
 1526000   0.89027545   -3.9435326   -3.9435326    -2.608122   0.03650554   -3.9435326    1.3354106   518400 
 1527000   0.89157369   -3.9444009   -3.9444009   -2.6070429  0.045747964   -3.9444009     1.337358   518400 
 1528000   0.89085741   -3.9441702   -3.9441702   -2.6078866   0.03774387   -3.9441702    1.3362835   518400 
 1529000   0.88998877   -3.9438396   -3.9438396    -2.608859  0.037569269   -3.9438396    1.3349806   518400 
 1530000   0.88979968   -3.9441535   -3.9441535   -2.6094565  0.037938254   -3.9441535    1.3346969   518400 
 1531000   0.88905796   -3.9439621   -3.9439621   -2.6103777  0.038438363   -3.9439621    1.3335844   518400 
 1532000   0.88973708   -3.9460525   -3.9460525   -2.6114495  0.030791249   -3.9460525     1.334603   518400 
 1533000   0.88885017   -3.9459266   -3.9459266   -2.6126539  0.032951328   -3.9459266    1.3332727   518400 
 1534000   0.88825144   -3.9470218   -3.9470218   -2.6146472  0.028453633   -3.9470218    1.3323746   518400 
 1535000   0.88841433   -3.9470447   -3.9470447   -2.6144257  0.034055101   -3.9470447    1.3326189   518400 
 1536000   0.88883358    -3.947382    -3.947382   -2.6141342  0.031018795    -3.947382    1.3332478   518400 
 1537000   0.88894113   -3.9477555   -3.9477555   -2.6143464  0.030488779   -3.9477555    1.3334091   518400 
 1538000   0.88913845     -3.94945     -3.94945   -2.6157449  0.026626187     -3.94945    1.3337051   518400 
 1539000   0.88758422   -3.9471975   -3.9471975   -2.6158238  0.033472926   -3.9471975    1.3313738   518400 
 1540000   0.88835962   -3.9501143   -3.9501143   -2.6175775  0.029749223   -3.9501143    1.3325369   518400 
 1541000   0.88716698   -3.9481367   -3.9481367   -2.6173888  0.039668325   -3.9481367    1.3307479   518400 
 1542000   0.88871266   -3.9513331   -3.9513331   -2.6182667  0.031706977   -3.9513331    1.3330664   518400 
 1543000   0.88710012   -3.9499921   -3.9499921   -2.6193445  0.031629514   -3.9499921    1.3306476   518400 
 1544000   0.88845143    -3.951307    -3.951307   -2.6186324  0.035449553    -3.951307    1.3326746   518400 
 1545000   0.88930246   -3.9521523   -3.9521523   -2.6182012  0.037561594   -3.9521523    1.3339511   518400 
 1546000   0.88829695    -3.952733    -3.952733   -2.6202901  0.034192352    -3.952733    1.3324429   518400 
 1547000   0.88817467   -3.9525015   -3.9525015    -2.620242  0.034200844   -3.9525015    1.3322594   518400 
 1548000   0.88922867   -3.9541731   -3.9541731   -2.6203327  0.031475804   -3.9541731    1.3338404   518400 
 1549000   0.88892539   -3.9538257   -3.9538257   -2.6204401  0.033516848   -3.9538257    1.3333855   518400 
 1550000   0.88867474   -3.9541996   -3.9541996     -2.62119  0.039585969   -3.9541996    1.3330095   518400 
 1551000   0.88745822   -3.9538249   -3.9538249   -2.6226401  0.039848788   -3.9538249    1.3311848   518400 
 1552000   0.88841194   -3.9567995   -3.9567995   -2.6241842  0.029693034   -3.9567995    1.3326153   518400 
 1553000   0.88785976    -3.956171    -3.956171   -2.6243839  0.035065741    -3.956171    1.3317871   518400 
 1554000   0.88785412   -3.9563149   -3.9563149   -2.6245363  0.035833974   -3.9563149    1.3317786   518400 
 1555000   0.88672032    -3.956461    -3.956461   -2.6263831  0.035833957    -3.956461    1.3300779   518400 
 1556000   0.88693198   -3.9563133   -3.9563133   -2.6259179  0.036164818   -3.9563133    1.3303954   518400 
 1557000    0.8868271   -3.9572704   -3.9572704   -2.6270323  0.034144667   -3.9572704    1.3302381   518400 
 1558000   0.88554724   -3.9553618   -3.9553618   -2.6270435   0.03672139   -3.9553618    1.3283183   518400 
 1559000    0.8863427   -3.9568619   -3.9568619   -2.6273504  0.035681312   -3.9568619    1.3295115   518400 
 1560000   0.88671481   -3.9582185   -3.9582185   -2.6281488  0.033535551   -3.9582185    1.3300696   518400 
 1561000   0.88737158   -3.9585868   -3.9585868    -2.627532   0.03626675   -3.9585868    1.3310548   518400 
 1562000   0.88728996   -3.9589089   -3.9589089   -2.6279765  0.036166268   -3.9589089    1.3309324   518400 
 1563000   0.88722738    -3.959781    -3.959781   -2.6289425   0.03576615    -3.959781    1.3308385   518400 
 1564000   0.88845073   -3.9609981   -3.9609981   -2.6283246  0.034568177   -3.9609981    1.3326735   518400 
 1565000   0.88749843   -3.9609319   -3.9609319   -2.6296868  0.037112193   -3.9609319    1.3312451   518400 
 1566000   0.88598749   -3.9598007   -3.9598007    -2.630822  0.033552573   -3.9598007    1.3289787   518400 
 1567000   0.88561008   -3.9599195   -3.9599195   -2.6315069  0.033469128   -3.9599195    1.3284126   518400 
 1568000   0.88576869   -3.9610386   -3.9610386   -2.6323881  0.031750245   -3.9610386    1.3286505   518400 
 1569000   0.88499162   -3.9604913   -3.9604913   -2.6330065  0.036587945   -3.9604913    1.3274849   518400 
 1570000   0.88482788   -3.9613034   -3.9613034   -2.6340641  0.033144422   -3.9613034    1.3272393   518400 
 1571000   0.88456573   -3.9614132   -3.9614132   -2.6345672  0.026912751   -3.9614132     1.326846   518400 
 1572000   0.88470683    -3.961232    -3.961232   -2.6341743  0.032027681    -3.961232    1.3270577   518400 
 1573000   0.88456912   -3.9610582   -3.9610582   -2.6342071  0.035447747   -3.9610582    1.3268511   518400 
 1574000   0.88545439   -3.9636567   -3.9636567   -2.6354777  0.032905681   -3.9636567     1.328179   518400 
 1575000   0.88490423   -3.9651141   -3.9651141   -2.6377603  0.029963059   -3.9651141    1.3273538   518400 
 1576000   0.88467732   -3.9649841   -3.9649841   -2.6379707  0.031501579   -3.9649841    1.3270134   518400 
 1577000   0.88356115   -3.9641775   -3.9641775   -2.6388383  0.034263617   -3.9641775    1.3253392   518400 
 1578000   0.88499289   -3.9664546   -3.9664546   -2.6389679  0.035332306   -3.9664546    1.3274868   518400 
 1579000   0.88451481   -3.9661576   -3.9661576    -2.639388  0.032540818   -3.9661576    1.3267697   518400 
 1580000    0.8844794   -3.9664711   -3.9664711   -2.6397546  0.036733662   -3.9664711    1.3267165   518400 
 1581000   0.88488034   -3.9685907   -3.9685907   -2.6412728  0.035888924   -3.9685907     1.327318   518400 
 1582000   0.88514825   -3.9690063   -3.9690063   -2.6412865  0.040515648   -3.9690063    1.3277198   518400 
 1583000   0.88540708   -3.9712291   -3.9712291    -2.643121  0.037181638   -3.9712291    1.3281081   518400 
 1584000   0.88557013   -3.9720294   -3.9720294   -2.6436768  0.036840068   -3.9720294    1.3283526   518400 
 1585000   0.88509788   -3.9716453   -3.9716453    -2.644001  0.035890502   -3.9716453    1.3276443   518400 
 1586000   0.88546655   -3.9718635   -3.9718635   -2.6436663  0.035107537   -3.9718635    1.3281973   518400 
 1587000   0.88423859   -3.9695204   -3.9695204   -2.6431651  0.038182352   -3.9695204    1.3263553   518400 
 1588000    0.8844085    -3.972036    -3.972036   -2.6454259  0.035822257    -3.972036    1.3266102   518400 
 1589000   0.88479324   -3.9729037   -3.9729037   -2.6457164  0.030876096   -3.9729037    1.3271873   518400 
 1590000    0.8846775   -3.9738724   -3.9738724   -2.6468587  0.034131371   -3.9738724    1.3270137   518400 
 1591000   0.88396721   -3.9733672   -3.9733672    -2.647419  0.035432444   -3.9733672    1.3259483   518400 
 1592000   0.88218291   -3.9715353   -3.9715353   -2.6482635  0.039769566   -3.9715353    1.3232718   518400 
 1593000   0.88217991   -3.9720316   -3.9720316   -2.6487643  0.030723567   -3.9720316    1.3232673   518400 
 1594000   0.88322455   -3.9748274   -3.9748274   -2.6499931  0.024912805   -3.9748274    1.3248343   518400 
 1595000    0.8830179   -3.9748656   -3.9748656   -2.6503413  0.029367606   -3.9748656    1.3245243   518400 
 1596000   0.88308985   -3.9748382   -3.9748382    -2.650206  0.027642331   -3.9748382    1.3246322   518400 
 1597000   0.88356644   -3.9764267   -3.9764267   -2.6510796  0.031491404   -3.9764267    1.3253471   518400 
 1598000   0.88268537   -3.9756861   -3.9756861   -2.6516606  0.037144446   -3.9756861    1.3240255   518400 
 1599000   0.88373125   -3.9781494   -3.9781494   -2.6525551  0.030963613   -3.9781494    1.3255943   518400 
 1600000    0.8830366   -3.9761509   -3.9761509   -2.6515985  0.031108821   -3.9761509    1.3245523   518400 
 1601000   0.88372125   -3.9771718   -3.9771718   -2.6515925  0.035950635   -3.9771718    1.3255793   518400 
 1602000   0.88467459   -3.9787011   -3.9787011   -2.6516918  0.041439959   -3.9787011    1.3270093   518400 
 1603000    0.8841923   -3.9783286   -3.9783286   -2.6520427  0.040047167   -3.9783286    1.3262859   518400 
 1604000   0.88428396   -3.9794972   -3.9794972   -2.6530738  0.037578973   -3.9794972    1.3264234   518400 
 1605000   0.88309279   -3.9788119   -3.9788119   -2.6541753  0.035762461   -3.9788119    1.3246366   518400 
 1606000   0.88326604   -3.9795497   -3.9795497   -2.6546532  0.030942902   -3.9795497    1.3248965   518400 
 1607000   0.88238239   -3.9799943   -3.9799943   -2.6564233  0.033337295   -3.9799943     1.323571   518400 
 1608000   0.88176975   -3.9789192   -3.9789192   -2.6562671   0.03448839   -3.9789192    1.3226521   518400 
 1609000   0.88179692   -3.9796012   -3.9796012   -2.6569083  0.031822075   -3.9796012    1.3226928   518400 
 1610000   0.88054723    -3.978033    -3.978033   -2.6572147  0.033132341    -3.978033    1.3208183   518400 
 1611000   0.88046974   -3.9793139   -3.9793139   -2.6586118  0.028427879   -3.9793139    1.3207021   518400 
 1612000   0.88141861   -3.9807002   -3.9807002   -2.6585749  0.030968972   -3.9807002    1.3221254   518400 
 1613000   0.88059237   -3.9795537   -3.9795537   -2.6586677  0.034357827   -3.9795537     1.320886   518400 
 1614000   0.87953653   -3.9794779   -3.9794779   -2.6601757  0.028336261   -3.9794779    1.3193023   518400 
 1615000   0.88076736   -3.9819313   -3.9819313   -2.6607828  0.029590691   -3.9819313    1.3211485   518400 
 1616000   0.88160025   -3.9826534   -3.9826534   -2.6602555  0.032203164   -3.9826534    1.3223978   518400 
 1617000   0.88075868   -3.9822203   -3.9822203   -2.6610849  0.029085415   -3.9822203    1.3211355   518400 
 1618000   0.87980574   -3.9814386   -3.9814386   -2.6617326  0.030843577   -3.9814386    1.3197061   518400 
 1619000   0.88054942   -3.9843094   -3.9843094   -2.6634878  0.030249777   -3.9843094    1.3208216   518400 
 1620000   0.88144813   -3.9857163   -3.9857163   -2.6635467  0.032071359   -3.9857163    1.3221696   518400 
 1621000   0.88048311   -3.9857731   -3.9857731    -2.665051  0.036968549   -3.9857731    1.3207221   518400 
 1622000   0.87951715   -3.9834608   -3.9834608   -2.6641876    0.0408062   -3.9834608    1.3192732   518400 
 1623000   0.88090814   -3.9876988   -3.9876988   -2.6663392  0.032565896   -3.9876988    1.3213597   518400 
 1624000   0.87990456   -3.9868505   -3.9868505   -2.6669962  0.035169046   -3.9868505    1.3198543   518400 
 1625000   0.88023754   -3.9898482   -3.9898482   -2.6694945  0.032984844   -3.9898482    1.3203538   518400 
 1626000   0.88103595   -3.9920327   -3.9920327   -2.6704813  0.030384511   -3.9920327    1.3215514   518400 
 1627000   0.87976745   -3.9905134   -3.9905134   -2.6708647  0.037517048   -3.9905134    1.3196486   518400 
 1628000   0.88040151   -3.9916393   -3.9916393   -2.6710396  0.034613173   -3.9916393    1.3205997   518400 
 1629000   0.88169992   -3.9928156   -3.9928156   -2.6702682  0.036523001   -3.9928156    1.3225473   518400 
 1630000   0.88113016   -3.9924995   -3.9924995   -2.6708068  0.039226667   -3.9924995    1.3216927   518400 
 1631000   0.88232295   -3.9951413   -3.9951413   -2.6716594  0.040494867   -3.9951413    1.3234819   518400 
 1632000   0.88128964   -3.9939053   -3.9939053   -2.6719734  0.042308099   -3.9939053    1.3219319   518400 
 1633000   0.87998137   -3.9930384   -3.9930384   -2.6730689  0.035683063   -3.9930384    1.3199695   518400 
 1634000   0.87988548   -3.9929987   -3.9929987    -2.673173  0.040696827   -3.9929987    1.3198257   518400 
 1635000   0.87925354   -3.9937595   -3.9937595   -2.6748818  0.032688033   -3.9937595    1.3188778   518400 
 1636000   0.87834698   -3.9941836   -3.9941836   -2.6766657  0.030320953   -3.9941836    1.3175179   518400 
 1637000   0.87858951    -3.993889    -3.993889   -2.6760072  0.031104793    -3.993889    1.3178817   518400 
 1638000   0.87735673   -3.9929728   -3.9929728   -2.6769402  0.032992285   -3.9929728    1.3160326   518400 
 1639000   0.87907769   -3.9962403   -3.9962403   -2.6776263  0.028505595   -3.9962403     1.318614   518400 
 1640000   0.87849875   -3.9952223   -3.9952223   -2.6774768  0.033448113   -3.9952223    1.3177456   518400 
 1641000   0.87813953   -3.9951019   -3.9951019   -2.6778951   0.03026456   -3.9951019    1.3172068   518400 
 1642000   0.87875695   -3.9959222   -3.9959222   -2.6777893  0.032664652   -3.9959222    1.3181329   518400 
 1643000   0.87715637   -3.9944043   -3.9944043   -2.6786723  0.038011831   -3.9944043     1.315732   518400 
 1644000   0.87857768   -3.9963181   -3.9963181   -2.6784541  0.027447082   -3.9963181     1.317864   518400 
 1645000   0.87888103   -3.9969971   -3.9969971   -2.6786781  0.031545438   -3.9969971     1.318319   518400 
 1646000   0.87744948   -3.9964897   -3.9964897    -2.680318  0.033332002   -3.9964897    1.3161717   518400 
 1647000   0.87871626    -3.999425    -3.999425   -2.6813531  0.026330075    -3.999425    1.3180718   518400 
 1648000   0.87674727    -3.997635    -3.997635   -2.6825166  0.037060128    -3.997635    1.3151184   518400 
 1649000   0.87714108   -3.9999724   -3.9999724   -2.6842633  0.032319045   -3.9999724    1.3157091   518400 
 1650000    0.8772453   -3.9996405   -3.9996405   -2.6837751  0.037447301   -3.9996405    1.3158654   518400 
 1651000   0.87841071   -4.0019146   -4.0019146    -2.684301  0.032161584   -4.0019146    1.3176135   518400 
 1652000    0.8775171   -4.0004446   -4.0004446   -2.6841715  0.038719911   -4.0004446    1.3162731   518400 
 1653000   0.87921034   -4.0031876   -4.0031876   -2.6843747   0.03716318   -4.0031876     1.318813   518400 
 1654000   0.87920098   -4.0035536   -4.0035536   -2.6847547  0.036086163   -4.0035536    1.3187989   518400 
 1655000   0.87948137   -4.0064887   -4.0064887   -2.6872692  0.035970307   -4.0064887    1.3192195   518400 
 1656000   0.87960612   -4.0074196   -4.0074196   -2.6880129  0.032238025   -4.0074196    1.3194066   518400 
 1657000   0.87978404   -4.0079951   -4.0079951   -2.6883216  0.034461782   -4.0079951    1.3196735   518400 
 1658000   0.87819489   -4.0060408   -4.0060408    -2.688751   0.03639877   -4.0060408    1.3172898   518400 
 1659000   0.87702534   -4.0055135   -4.0055135    -2.689978  0.039244288   -4.0055135    1.3155355   518400 
 1660000   0.87749633   -4.0057769   -4.0057769    -2.689535  0.040318506   -4.0057769     1.316242   518400 
 1661000   0.87717809   -4.0060276   -4.0060276    -2.690263   0.04013678   -4.0060276    1.3157646   518400 
 1662000    0.8777166   -4.0067107   -4.0067107   -2.6901383   0.03655247   -4.0067107    1.3165724   518400 
 1663000   0.87743441   -4.0049021   -4.0049021    -2.688753  0.041478479   -4.0049021    1.3161491   518400 
 1664000   0.87688912   -4.0060257   -4.0060257   -2.6906945  0.034111497   -4.0060257    1.3153311   518400 
 1665000    0.8763224   -4.0055909   -4.0055909   -2.6911098  0.030464224   -4.0055909    1.3144811   518400 
 1666000   0.87796898   -4.0080512   -4.0080512   -2.6911002  0.025096632   -4.0080512    1.3169509   518400 
 1667000   0.87618395   -4.0058632   -4.0058632   -2.6915898  0.030181224   -4.0058632    1.3142734   518400 
 1668000   0.87686323   -4.0069938   -4.0069938   -2.6917015  0.024935846   -4.0069938    1.3152923   518400 
 1669000   0.87583717   -4.0068884   -4.0068884   -2.6931352  0.033433734   -4.0068884    1.3137532   518400 
 1670000   0.87537833   -4.0061876   -4.0061876   -2.6931226  0.026813569   -4.0061876     1.313065   518400 
 1671000   0.87519966   -4.0060901   -4.0060901   -2.6932932  0.031945556   -4.0060901     1.312797   518400 
 1672000   0.87487374   -4.0068501   -4.0068501   -2.6945421  0.027473127   -4.0068501    1.3123081   518400 
 1673000   0.87475008   -4.0077557   -4.0077557   -2.6956331  0.029727773   -4.0077557    1.3121226   518400 
 1674000   0.87535224   -4.0083932   -4.0083932   -2.6953674  0.023923763   -4.0083932    1.3130258   518400 
 1675000   0.87427309   -4.0082165   -4.0082165   -2.6968094  0.031183189   -4.0082165    1.3114071   518400 
 1676000   0.87647867   -4.0106453   -4.0106453   -2.6959299  0.033442213   -4.0106453    1.3147155   518400 
 1677000   0.87615291   -4.0113206   -4.0113206   -2.6970938  0.038437048   -4.0113206    1.3142268   518400 
 1678000   0.87567978   -4.0111465   -4.0111465   -2.6976293  0.037751163   -4.0111465    1.3135171   518400 
 1679000   0.87617959   -4.0119747   -4.0119747   -2.6977078  0.039690926   -4.0119747    1.3142669   518400 
 1680000   0.87553789   -4.0121344   -4.0121344   -2.6988301  0.046897197   -4.0121344    1.3133043   518400 
 1681000   0.87562771   -4.0125089   -4.0125089   -2.6990698  0.041089202   -4.0125089     1.313439   518400 
 1682000   0.87532564   -4.0125626   -4.0125626   -2.6995766  0.037432237   -4.0125626    1.3129859   518400 
 1683000   0.87632589   -4.0140799   -4.0140799   -2.6995936  0.039762776   -4.0140799    1.3144863   518400 
 1684000   0.87673713   -4.0152154   -4.0152154   -2.7001123  0.036440129   -4.0152154    1.3151032   518400 
 1685000   0.87514742   -4.0126011   -4.0126011   -2.6998825  0.045528975   -4.0126011    1.3127186   518400 
 1686000   0.87712811   -4.0170186   -4.0170186   -2.7013289  0.032232294   -4.0170186    1.3156896   518400 
 1687000   0.87628998   -4.0171587   -4.0171587   -2.7027263  0.033865053   -4.0171587    1.3144324   518400 
 1688000   0.87593376   -4.0163689   -4.0163689   -2.7024708  0.033886439   -4.0163689    1.3138981   518400 
 1689000   0.87560579   -4.0150424   -4.0150424   -2.7016362    0.0318955   -4.0150424    1.3134062   518400 
 1690000   0.87481073   -4.0159029   -4.0159029   -2.7036893  0.033325807   -4.0159029    1.3122136   518400 
 1691000   0.87404427   -4.0147993   -4.0147993   -2.7037354  0.033153062   -4.0147993    1.3110639   518400 
 1692000   0.87398648   -4.0158003   -4.0158003   -2.7048231   0.02568287   -4.0158003    1.3109772   518400 
 1693000   0.87374407   -4.0148143   -4.0148143   -2.7042008  0.031486883   -4.0148143    1.3106136   518400 
 1694000   0.87383862   -4.0145694   -4.0145694    -2.703814  0.032745635   -4.0145694    1.3107554   518400 
 1695000   0.87494056   -4.0168717   -4.0168717   -2.7044634  0.027440075   -4.0168717    1.3124083   518400 
 1696000   0.87345903   -4.0148654   -4.0148654   -2.7046794  0.033013701   -4.0148654     1.310186   518400 
 1697000   0.87350858   -4.0148342   -4.0148342   -2.7045739  0.033946521   -4.0148342    1.3102603   518400 
 1698000   0.87489424   -4.0177658   -4.0177658    -2.705427  0.030428737   -4.0177658    1.3123388   518400 
 1699000   0.87357361   -4.0154508   -4.0154508   -2.7050929  0.035175804   -4.0154508    1.3103579   518400 
 1700000   0.87380602   -4.0181603   -4.0181603   -2.7074538  0.027922498   -4.0181603    1.3107065   518400 
 1701000    0.8744706   -4.0186762   -4.0186762   -2.7069728  0.033009828   -4.0186762    1.3117034   518400 
 1702000   0.87417558   -4.0183375   -4.0183375   -2.7070767  0.034332748   -4.0183375    1.3112608   518400 
 1703000   0.87451306   -4.0191995   -4.0191995   -2.7074324  0.029696952   -4.0191995    1.3117671   518400 
 1704000   0.87445091   -4.0204341   -4.0204341   -2.7087603  0.033090106   -4.0204341    1.3116738   518400 
 1705000   0.87409247   -4.0214729   -4.0214729   -2.7103367  0.035979346   -4.0214729    1.3111362   518400 
 1706000   0.87335224    -4.021384    -4.021384   -2.7113582  0.039784822    -4.021384    1.3100258   518400 
 1707000   0.87488756   -4.0232892   -4.0232892   -2.7109604  0.035533161   -4.0232892    1.3123288   518400 
 1708000   0.87438183   -4.0236787   -4.0236787   -2.7121085  0.038103728   -4.0236787    1.3115702   518400 
 1709000   0.87456787   -4.0239997   -4.0239997   -2.7121505  0.037135025   -4.0239997    1.3118493   518400 
 1710000   0.87439891   -4.0246512   -4.0246512   -2.7130554  0.038000989   -4.0246512    1.3115958   518400 
 1711000   0.87248043   -4.0239457   -4.0239457   -2.7152275  0.041813384   -4.0239457    1.3087181   518400 
 1712000   0.87397488   -4.0262591   -4.0262591   -2.7152993  0.034222926   -4.0262591    1.3109598   518400 
 1713000   0.87248206   -4.0248865   -4.0248865    -2.716166  0.037076458   -4.0248865    1.3087206   518400 
 1714000   0.87331094   -4.0256885   -4.0256885   -2.7157246  0.036303027   -4.0256885    1.3099639   518400 
 1715000    0.8722581   -4.0250208   -4.0250208   -2.7166362   0.03797675   -4.0250208    1.3083846   518400 
 1716000    0.8726188   -4.0266702   -4.0266702   -2.7177445  0.031877991   -4.0266702    1.3089257   518400 
 1717000   0.87223968   -4.0258846   -4.0258846   -2.7175276  0.033285644   -4.0258846     1.308357   518400 
 1718000    0.8711195   -4.0258952   -4.0258952   -2.7192184  0.032560565   -4.0258952    1.3066767   518400 
 1719000   0.87253559    -4.028434    -4.028434   -2.7196331   0.02763344    -4.028434    1.3088009   518400 
 1720000   0.87013853   -4.0249697   -4.0249697   -2.7197645  0.032480762   -4.0249697    1.3052053   518400 
 1721000   0.87224255   -4.0280759   -4.0280759   -2.7197146  0.026554514   -4.0280759    1.3083613   518400 
 1722000   0.87104662   -4.0271293   -4.0271293   -2.7205619  0.025626289   -4.0271293    1.3065674   518400 
 1723000    0.8714542   -4.0273569   -4.0273569   -2.7201782   0.03093319   -4.0273569    1.3071788   518400 
 1724000   0.87050976   -4.0268184   -4.0268184   -2.7210563   0.03157241   -4.0268184    1.3057621   518400 
 1725000   0.87052967   -4.0275484   -4.0275484   -2.7217564  0.029794301   -4.0275484     1.305792   518400 
 1726000   0.87162545   -4.0290677   -4.0290677   -2.7216321  0.030354329   -4.0290677    1.3074357   518400 
 1727000   0.87074173   -4.0293563   -4.0293563   -2.7232462  0.037593876   -4.0293563    1.3061101   518400 
 1728000    0.8707263   -4.0304893   -4.0304893   -2.7244024   0.03084837   -4.0304893    1.3060869   518400 
 1729000   0.86938717   -4.0284637   -4.0284637   -2.7243854  0.031959884   -4.0284637    1.3040782   518400 
 1730000   0.87058797   -4.0315585   -4.0315585   -2.7256791   0.02854857   -4.0315585    1.3058794   518400 
 1731000   0.86885756   -4.0307325   -4.0307325   -2.7274487  0.033373346   -4.0307325    1.3032838   518400 
 1732000   0.87131148   -4.0342262   -4.0342262   -2.7272615  0.032028402   -4.0342262    1.3069647   518400 
 1733000   0.87148899   -4.0356256   -4.0356256   -2.7283947  0.034553881   -4.0356256     1.307231   518400 
 1734000   0.87192745   -4.0366263   -4.0366263   -2.7287377   0.03797259   -4.0366263    1.3078887   518400 
 1735000   0.87204794   -4.0369551   -4.0369551   -2.7288858  0.036281564   -4.0369551    1.3080694   518400 
 1736000   0.87197919   -4.0361252   -4.0361252   -2.7281589  0.040193644   -4.0361252    1.3079663   518400 
 1737000   0.87312644   -4.0382169   -4.0382169   -2.7285298  0.033758447   -4.0382169    1.3096871   518400 
 1738000   0.87148548   -4.0370089   -4.0370089   -2.7297832  0.038406894   -4.0370089    1.3072257   518400 
 1739000     0.871683   -4.0382634   -4.0382634   -2.7307414  0.036463387   -4.0382634     1.307522   518400 
 1740000   0.86997985    -4.036867    -4.036867   -2.7318997  0.038555845    -4.036867    1.3049673   518400 
 1741000    0.8709364   -4.0398029   -4.0398029   -2.7334008  0.034244875   -4.0398029    1.3064021   518400 
 1742000   0.87079823   -4.0384461   -4.0384461   -2.7322512  0.031593878   -4.0384461    1.3061948   518400 
 1743000   0.86995763   -4.0380376   -4.0380376   -2.7331036   0.03381566   -4.0380376    1.3049339   518400 
 1744000   0.87028721   -4.0381077   -4.0381077   -2.7326794  0.032132364   -4.0381077    1.3054283   518400 
 1745000   0.86930189   -4.0370777   -4.0370777   -2.7331274  0.037245963   -4.0370777    1.3039503   518400 
 1746000   0.86989823    -4.038037    -4.038037   -2.7331922  0.031726437    -4.038037    1.3048448   518400 
 1747000   0.87027452   -4.0387521   -4.0387521   -2.7333428  0.034677021   -4.0387521    1.3054093   518400 
 1748000   0.86983343   -4.0390212   -4.0390212   -2.7342735  0.036053755   -4.0390212    1.3047476   518400 
 1749000   0.87011918   -4.0397194   -4.0397194   -2.7345432  0.030058447   -4.0397194    1.3051763   518400 
 1750000   0.86914678   -4.0380053   -4.0380053   -2.7342877  0.035851904   -4.0380053    1.3037176   518400 
 1751000   0.86978909   -4.0387102   -4.0387102   -2.7340291  0.032321618   -4.0387102    1.3046811   518400 
 1752000   0.86873563   -4.0382144   -4.0382144   -2.7351135  0.033388815   -4.0382144    1.3031009   518400 
 1753000   0.86827723    -4.038188    -4.038188   -2.7357747  0.032690275    -4.038188    1.3024133   518400 
 1754000   0.86862684    -4.041197    -4.041197   -2.7382593  0.030841782    -4.041197    1.3029378   518400 
 1755000   0.86883499   -4.0422011   -4.0422011   -2.7389511   0.02551716   -4.0422011      1.30325   518400 
 1756000   0.86850775   -4.0414932   -4.0414932   -2.7387341  0.032831427   -4.0414932    1.3027591   518400 
 1757000   0.86916217   -4.0434319   -4.0434319   -2.7396912  0.029561792   -4.0434319    1.3037407   518400 
 1758000   0.86992091   -4.0435356   -4.0435356   -2.7386568  0.033640289   -4.0435356    1.3048788   518400 
 1759000   0.86951232   -4.0424431   -4.0424431   -2.7381771  0.034641674   -4.0424431     1.304266   518400 
 1760000   0.86948413   -4.0446896   -4.0446896   -2.7404659  0.033975055   -4.0446896    1.3042237   518400 
 1761000   0.86842971   -4.0437454   -4.0437454   -2.7411033  0.035221391   -4.0437454    1.3026421   518400 
 1762000   0.86908018   -4.0449671   -4.0449671   -2.7413494  0.036022522   -4.0449671    1.3036178   518400 
 1763000    0.8685834   -4.0457985   -4.0457985    -2.742926  0.035122531   -4.0457985    1.3028726   518400 
 1764000   0.86865417   -4.0461197   -4.0461197    -2.743141  0.032301956   -4.0461197    1.3029787   518400 
 1765000   0.86761582   -4.0462454   -4.0462454   -2.7448242  0.031252629   -4.0462454    1.3014212   518400 
 1766000   0.86945072   -4.0503594   -4.0503594   -2.7461859  0.028931638   -4.0503594    1.3041736   518400 
 1767000    0.8686558     -4.04898     -4.04898   -2.7459988  0.031403968     -4.04898    1.3029812   518400 
 1768000   0.86854222   -4.0488867   -4.0488867   -2.7460759  0.032143702   -4.0488867    1.3028108   518400 
 1769000   0.86844216   -4.0480824   -4.0480824   -2.7454217  0.036587855   -4.0480824    1.3026607   518400 
 1770000   0.86729687   -4.0476816   -4.0476816   -2.7467389  0.033678064   -4.0476816    1.3009428   518400 
 1771000    0.8680933   -4.0492788   -4.0492788   -2.7471414  0.034761267   -4.0492788    1.3021374   518400 
 1772000   0.86793144   -4.0500661   -4.0500661   -2.7481714  0.035497756   -4.0500661    1.3018947   518400 
 1773000   0.86723421   -4.0496673   -4.0496673   -2.7488185  0.036823465   -4.0496673    1.3008488   518400 
 1774000   0.86692933   -4.0492787   -4.0492787   -2.7488872  0.033129407   -4.0492787    1.3003915   518400 
 1775000   0.86646277   -4.0495001   -4.0495001   -2.7498085  0.033142234   -4.0495001    1.2996917   518400 
 1776000   0.86589324   -4.0493824   -4.0493824    -2.750545   0.03086112   -4.0493824    1.2988374   518400 
 1777000   0.86631252    -4.050238    -4.050238   -2.7507717   0.03495332    -4.050238    1.2994663   518400 
 1778000   0.86557473   -4.0492133   -4.0492133   -2.7508537    0.0359206   -4.0492133    1.2983596   518400 
 1779000   0.86714272    -4.051583    -4.051583   -2.7508715  0.031124676    -4.051583    1.3007116   518400 
 1780000   0.86651232   -4.0525093   -4.0525093   -2.7527433  0.030501395   -4.0525093     1.299766   518400 
 1781000   0.86697738   -4.0525364   -4.0525364   -2.7520729  0.030275521   -4.0525364    1.3004636   518400 
 1782000   0.86656773   -4.0524655   -4.0524655   -2.7526164  0.032695848   -4.0524655    1.2998491   518400 
 1783000   0.86706455   -4.0546082   -4.0546082   -2.7540139  0.028545794   -4.0546082    1.3005943   518400 
 1784000   0.86635731   -4.0538337   -4.0538337   -2.7543003    0.0322911   -4.0538337    1.2995335   518400 
 1785000   0.86714026   -4.0559174   -4.0559174   -2.7552096  0.030136281   -4.0559174    1.3007079   518400 
 1786000   0.86726774   -4.0556405   -4.0556405   -2.7547414  0.031431221   -4.0556405    1.3008991   518400 
 1787000   0.86548539   -4.0541659   -4.0541659   -2.7559403  0.035342358   -4.0541659    1.2982256   518400 
 1788000   0.86791447   -4.0587491   -4.0587491   -2.7568799  0.026450603   -4.0587491    1.3018692   518400 
 1789000   0.86574005   -4.0569247   -4.0569247   -2.7583171  0.036064356   -4.0569247    1.2986076   518400 
 1790000   0.86687685    -4.057281    -4.057281   -2.7569682  0.038214514    -4.057281    1.3003128   518400 
 1791000    0.8665063   -4.0572478   -4.0572478   -2.7574908  0.036929312   -4.0572478    1.2997569   518400 
 1792000   0.86554721   -4.0574433   -4.0574433    -2.759125  0.035566815   -4.0574433    1.2983183   518400 
 1793000   0.86720997   -4.0587253   -4.0587253   -2.7579129  0.037592096   -4.0587253    1.3008124   518400 
 1794000   0.86774702   -4.0595473   -4.0595473   -2.7579293  0.036867447   -4.0595473     1.301618   518400 
 1795000    0.8666087   -4.0588964   -4.0588964   -2.7589858   0.03427361   -4.0588964    1.2999105   518400 
 1796000   0.86527184   -4.0583648   -4.0583648   -2.7604595   0.03805644   -4.0583648    1.2979053   518400 
 1797000   0.86595778   -4.0600517   -4.0600517   -2.7611176  0.031126352   -4.0600517    1.2989342   518400 
 1798000   0.86439763    -4.057636    -4.057636   -2.7610421  0.032740263    -4.057636    1.2965939   518400 
 1799000   0.86404507    -4.059457    -4.059457   -2.7633919  0.030855566    -4.059457    1.2960651   518400 
 1800000   0.86409856   -4.0588431   -4.0588431   -2.7626977  0.029495083   -4.0588431    1.2961453   518400 
 1801000     0.864303   -4.0592963   -4.0592963   -2.7628443  0.027518625   -4.0592963     1.296452   518400 
 1802000   0.86381941   -4.0598754   -4.0598754   -2.7641488  0.028167281   -4.0598754    1.2957266   518400 
 1803000    0.8630272   -4.0598034   -4.0598034   -2.7652651  0.034124611   -4.0598034    1.2945383   518400 
 1804000   0.86405464   -4.0608858   -4.0608858   -2.7648063  0.034098225   -4.0608858    1.2960795   518400 
 1805000   0.86548147   -4.0624867   -4.0624867    -2.764267  0.027088252   -4.0624867    1.2982197   518400 
 1806000   0.86350816   -4.0609934   -4.0609934   -2.7657336  0.027195642   -4.0609934    1.2952597   518400 
 1807000   0.86373594    -4.061561    -4.061561   -2.7659596  0.036093283    -4.061561    1.2956014   518400 
 1808000   0.86412223   -4.0625269   -4.0625269   -2.7663461  0.034426266   -4.0625269    1.2961808   518400 
 1809000   0.86512321   -4.0663928   -4.0663928   -2.7687105  0.025122824   -4.0663928    1.2976823   518400 
 1810000   0.86276873    -4.064662    -4.064662   -2.7705114  0.033161244    -4.064662    1.2941506   518400 
 1811000   0.86397259   -4.0653576   -4.0653576   -2.7694013  0.032541256   -4.0653576    1.2959564   518400 
 1812000   0.86454714   -4.0666498   -4.0666498   -2.7698316  0.031318782   -4.0666498    1.2968182   518400 
 1813000   0.86434869    -4.067026    -4.067026   -2.7705054  0.036532892    -4.067026    1.2965205   518400 
 1814000   0.86491411   -4.0683267   -4.0683267    -2.770958  0.031703464   -4.0683267    1.2973687   518400 
 1815000    0.8652131   -4.0686855   -4.0686855   -2.7708684  0.035529544   -4.0686855    1.2978172   518400 
 1816000   0.86436838   -4.0679636   -4.0679636   -2.7714136   0.04260727   -4.0679636    1.2965501   518400 
 1817000   0.86481712   -4.0695855   -4.0695855   -2.7723623  0.035994308   -4.0695855    1.2972232   518400 
 1818000   0.86382155   -4.0695973   -4.0695973   -2.7738675  0.039563939   -4.0695973    1.2957298   518400 
 1819000   0.86336093   -4.0680257   -4.0680257   -2.7729868  0.037440194   -4.0680257    1.2950389   518400 
 1820000   0.86326765   -4.0686257   -4.0686257   -2.7737268  0.033939664   -4.0686257     1.294899   518400 
 1821000   0.86324051   -4.0692475   -4.0692475   -2.7743893  0.032353293   -4.0692475    1.2948583   518400 
 1822000   0.86224397     -4.06811     -4.06811   -2.7747465  0.033472972     -4.06811    1.2933635   518400 
 1823000    0.8632737   -4.0704398   -4.0704398   -2.7755317  0.029401181   -4.0704398     1.294908   518400 
 1824000   0.86183988   -4.0697689   -4.0697689   -2.7770116  0.028246505   -4.0697689    1.2927573   518400 
 1825000    0.8626232     -4.07038     -4.07038   -2.7764477  0.026997988     -4.07038    1.2939323   518400 
 1826000   0.86186656   -4.0693604   -4.0693604    -2.776563  0.028114827   -4.0693604    1.2927973   518400 
 1827000   0.86140461   -4.0698612   -4.0698612   -2.7777568  0.027693158   -4.0698612    1.2921044   518400 
 1828000   0.86059005   -4.0683596   -4.0683596    -2.777477  0.031994499   -4.0683596    1.2908826   518400 
 1829000   0.86239596   -4.0707969   -4.0707969   -2.7772054  0.029255876   -4.0707969    1.2935915   518400 
 1830000   0.86221142   -4.0708517   -4.0708517   -2.7775371  0.027625926   -4.0708517    1.2933146   518400 
 1831000   0.86231638   -4.0719936   -4.0719936   -2.7785215  0.028417942   -4.0719936    1.2934721   518400 
 1832000   0.86240731   -4.0731232   -4.0731232   -2.7795147  0.027466981   -4.0731232    1.2936085   518400 
 1833000   0.86340666   -4.0741569   -4.0741569   -2.7790495  0.033674635   -4.0741569    1.2951075   518400 
 1834000   0.86458884   -4.0764024   -4.0764024   -2.7795216  0.025973439   -4.0764024    1.2968808   518400 
 1835000   0.86180067   -4.0728496   -4.0728496    -2.780151  0.034491324   -4.0728496    1.2926985   518400 
 1836000   0.86244103   -4.0744345   -4.0744345   -2.7807754  0.033434395   -4.0744345    1.2936591   518400 
 1837000   0.86206729   -4.0745257   -4.0745257   -2.7814273  0.032432314   -4.0745257    1.2930984   518400 
 1838000   0.86086198   -4.0749736   -4.0749736   -2.7836831  0.037460737   -4.0749736    1.2912905   518400 
 1839000   0.86215716   -4.0762341   -4.0762341   -2.7830008  0.034308043   -4.0762341    1.2932332   518400 
 1840000   0.86005686   -4.0750003   -4.0750003   -2.7849175  0.037332851   -4.0750003    1.2900828   518400 
 1841000   0.86261921   -4.0785277   -4.0785277   -2.7846014  0.030140745   -4.0785277    1.2939263   518400 
 1842000   0.86191006   -4.0793062   -4.0793062   -2.7864436   0.03075599   -4.0793062    1.2928626   518400 
 1843000   0.86018443   -4.0760252   -4.0760252   -2.7857511  0.036033873   -4.0760252    1.2902741   518400 
 1844000    0.8630793   -4.0796218   -4.0796218   -2.7850053  0.029590582   -4.0796218    1.2946165   518400 
 1845000   0.86160894   -4.0788725   -4.0788725   -2.7864616  0.035986485   -4.0788725    1.2924109   518400 
 1846000   0.86018646   -4.0776079   -4.0776079   -2.7873307  0.031312431   -4.0776079    1.2902772   518400 
 1847000   0.86127666   -4.0783405   -4.0783405    -2.786428  0.034775337   -4.0783405    1.2919125   518400 
 1848000   0.86177774   -4.0799904   -4.0799904   -2.7873263  0.036334843   -4.0799904    1.2926641   518400 
 1849000   0.86107657   -4.0802937   -4.0802937   -2.7886813  0.032933941   -4.0802937    1.2916124   518400 
 1850000   0.86116651   -4.0797916   -4.0797916   -2.7880444  0.032341819   -4.0797916    1.2917473   518400 
 1851000   0.86030544   -4.0791561   -4.0791561   -2.7887004  0.032944947   -4.0791561    1.2904557   518400 
 1852000   0.86016595   -4.0794103   -4.0794103   -2.7891638  0.032546886   -4.0794103    1.2902464   518400 
 1853000   0.86109559   -4.0811162   -4.0811162   -2.7894754   0.03353603   -4.0811162    1.2916409   518400 
 1854000   0.85963713   -4.0798641   -4.0798641   -2.7904108  0.034556133   -4.0798641    1.2894532   518400 
 1855000   0.86048803   -4.0824337   -4.0824337   -2.7917042  0.033081243   -4.0824337    1.2907296   518400 
 1856000   0.85944399   -4.0807204   -4.0807204   -2.7915569  0.029986991   -4.0807204    1.2891635   518400 
 1857000   0.85799811   -4.0796931   -4.0796931   -2.7926985  0.031496319   -4.0796931    1.2869947   518400 
 1858000   0.85960435    -4.082478    -4.082478    -2.793074  0.028132592    -4.082478     1.289404   518400 
 1859000   0.85976818   -4.0823448   -4.0823448    -2.792695  0.031292177   -4.0823448    1.2896498   518400 
 1860000   0.85973762   -4.0830464   -4.0830464   -2.7934425  0.030293861   -4.0830464    1.2896039   518400 
 1861000   0.85937008   -4.0842882   -4.0842882   -2.7952356  0.027947913   -4.0842882    1.2890526   518400 
 1862000   0.85991782   -4.0859654   -4.0859654   -2.7960911  0.022490956   -4.0859654    1.2898742   518400 
 1863000   0.85926292   -4.0849472   -4.0849472   -2.7960553  0.033803121   -4.0849472    1.2888919   518400 
 1864000   0.85896309   -4.0846476   -4.0846476   -2.7962054  0.028320029   -4.0846476    1.2884422   518400 
 1865000   0.85856993   -4.0848599   -4.0848599   -2.7970075  0.025608387   -4.0848599    1.2878524   518400 
 1866000   0.85854724   -4.0866599   -4.0866599   -2.7988415  0.025815545   -4.0866599    1.2878184   518400 
 1867000   0.85806418    -4.086483    -4.086483   -2.7993892  0.031128605    -4.086483    1.2870938   518400 
 1868000   0.85821075   -4.0884257   -4.0884257   -2.8011121  0.027114195   -4.0884257    1.2873136   518400 
 1869000   0.85815321   -4.0875365   -4.0875365   -2.8003092   0.03501372   -4.0875365    1.2872273   518400 
 1870000   0.85868691    -4.090282    -4.090282   -2.8022541  0.028741539    -4.090282    1.2880279   518400 
 1871000   0.85928011   -4.0909779   -4.0909779   -2.8020602  0.033332396   -4.0909779    1.2889177   518400 
 1872000   0.85873763   -4.0911131   -4.0911131   -2.8030092   0.03602931   -4.0911131     1.288104   518400 
 1873000   0.86050927   -4.0931975   -4.0931975   -2.8024361  0.032587003   -4.0931975    1.2907614   518400 
 1874000    0.8594896   -4.0930492   -4.0930492   -2.8038173  0.036325979   -4.0930492    1.2892319   518400 
 1875000   0.85830485   -4.0915754   -4.0915754   -2.8041206  0.036506892   -4.0915754    1.2874548   518400 
 1876000   0.85838579   -4.0932429   -4.0932429   -2.8056667  0.038154777   -4.0932429    1.2875762   518400 
 1877000   0.85887791   -4.0951793   -4.0951793   -2.8068649  0.035135596   -4.0951793    1.2883144   518400 
 1878000   0.85763512   -4.0943425   -4.0943425   -2.8078923  0.032476952   -4.0943425    1.2864502   518400 
 1879000   0.85728358   -4.0950167   -4.0950167   -2.8090938  0.032084072   -4.0950167    1.2859229   518400 
 1880000   0.85681509   -4.0948718   -4.0948718   -2.8096516  0.029604965   -4.0948718    1.2852202   518400 
 1881000   0.85665985   -4.0936526   -4.0936526   -2.8086654  0.033276691   -4.0936526    1.2849873   518400 
 1882000   0.85634009   -4.0946292   -4.0946292   -2.8101215  0.029273645   -4.0946292    1.2845077   518400 
 1883000   0.85617956    -4.094541    -4.094541   -2.8102742  0.041865155    -4.094541    1.2842669   518400 
 1884000   0.85693489   -4.0969327   -4.0969327   -2.8115328  0.031789807   -4.0969327    1.2853999   518400 
 1885000   0.85733884   -4.0971098   -4.0971098   -2.8111041  0.030469573   -4.0971098    1.2860058   518400 
 1886000   0.85753328   -4.0983542   -4.0983542   -2.8120568  0.033231043   -4.0983542    1.2862974   518400 
 1887000   0.85609159   -4.0961579   -4.0961579    -2.812023   0.03760305   -4.0961579    1.2841349   518400 
 1888000   0.85757079   -4.0991635   -4.0991635   -2.8128098  0.034420237   -4.0991635    1.2863537   518400 
 1889000   0.85655632   -4.0977601   -4.0977601   -2.8129281  0.032384412   -4.0977601     1.284832   518400 
 1890000   0.85669932   -4.0976851   -4.0976851   -2.8126385  0.031997388   -4.0976851    1.2850465   518400 
 1891000   0.85702675   -4.0979101   -4.0979101   -2.8123724  0.035801497   -4.0979101    1.2855376   518400 
 1892000   0.85756839   -4.0997538   -4.0997538   -2.8134037  0.033320218   -4.0997538    1.2863501   518400 
 1893000   0.85528288   -4.0970066   -4.0970066   -2.8140848  0.032445092   -4.0970066    1.2829218   518400 
 1894000   0.85733311   -4.1005502   -4.1005502    -2.814553  0.029524222   -4.1005502    1.2859972   518400 
 1895000   0.85694512   -4.1006471   -4.1006471   -2.8152319  0.032909832   -4.1006471    1.2854152   518400 
 1896000   0.85680126   -4.1014961   -4.1014961   -2.8162967  0.028369573   -4.1014961    1.2851994   518400 
 1897000    0.8559259   -4.1010759   -4.1010759   -2.8171895  0.029040564   -4.1010759    1.2838864   518400 
 1898000   0.85519126   -4.1004992   -4.1004992   -2.8177148  0.028577812   -4.1004992    1.2827844   518400 
 1899000   0.85526703   -4.1016036   -4.1016036   -2.8187055  0.027452481   -4.1016036    1.2828981   518400 
 1900000   0.85509998    -4.101717    -4.101717   -2.8190695  0.026170589    -4.101717    1.2826475   518400 
 1901000   0.85436009   -4.1009422   -4.1009422   -2.8194046  0.029429309   -4.1009422    1.2815377   518400 
 1902000   0.85555549   -4.1029693   -4.1029693   -2.8196385  0.023617887   -4.1029693    1.2833308   518400 
 1903000   0.85583467    -4.103495    -4.103495   -2.8197454  0.026737662    -4.103495    1.2837495   518400 
 1904000    0.8566804   -4.1042715   -4.1042715   -2.8192534  0.033889884   -4.1042715    1.2850181   518400 
 1905000   0.85670759   -4.1048796   -4.1048796   -2.8198207  0.037878074   -4.1048796    1.2850589   518400 
 1906000   0.85617197   -4.1057911   -4.1057911   -2.8215356  0.036508602   -4.1057911    1.2842555   518400 
 1907000   0.85722326    -4.107056    -4.107056   -2.8212236  0.033702834    -4.107056    1.2858324   518400 
 1908000   0.85567569   -4.1057569   -4.1057569   -2.8222459   0.03599626   -4.1057569    1.2835111   518400 
 1909000   0.85575992   -4.1064736   -4.1064736   -2.8228362  0.031709973   -4.1064736    1.2836374   518400 
 1910000   0.85553685   -4.1073138   -4.1073138    -2.824011  0.031976338   -4.1073138    1.2833028   518400 
 1911000   0.85554461   -4.1073746   -4.1073746   -2.8240602   0.03565018   -4.1073746    1.2833144   518400 
 1912000   0.85599719   -4.1083956   -4.1083956   -2.8244023  0.036694387   -4.1083956    1.2839933   518400 
 1913000    0.8562052   -4.1090134   -4.1090134    -2.824708  0.036787862   -4.1090134    1.2843053   518400 
 1914000   0.85675077   -4.1106682   -4.1106682   -2.8255446  0.029090205   -4.1106682    1.2851237   518400 
 1915000   0.85596088   -4.1096141   -4.1096141   -2.8256752  0.031485156   -4.1096141    1.2839388   518400 
 1916000   0.85595915   -4.1099199   -4.1099199   -2.8259837  0.025679307   -4.1099199    1.2839362   518400 
 1917000   0.85432198   -4.1075386   -4.1075386   -2.8260581  0.027359889   -4.1075386    1.2814805   518400 
 1918000   0.85396856   -4.1081764   -4.1081764    -2.827226  0.026130592   -4.1081764    1.2809504   518400 
 1919000   0.85312836   -4.1067891   -4.1067891    -2.827099  0.027451585   -4.1067891    1.2796901   518400 
 1920000   0.85287544   -4.1081031   -4.1081031   -2.8287924  0.025351611   -4.1081031    1.2793107   518400 
 1921000    0.8542036    -4.110463    -4.110463   -2.8291601  0.022759938    -4.110463    1.2813029   518400 
 1922000    0.8554113   -4.1105654   -4.1105654   -2.8274509  0.030671386   -4.1105654    1.2831145   518400 
 1923000   0.85467828   -4.1098443   -4.1098443   -2.8278293   0.02927361   -4.1098443    1.2820149   518400 
 1924000   0.85513394   -4.1102071   -4.1102071   -2.8275087  0.031669176   -4.1102071    1.2826984   518400 
 1925000   0.85444415   -4.1100559   -4.1100559   -2.8283921   0.03016005   -4.1100559    1.2816637   518400 
 1926000   0.85362505    -4.110024    -4.110024   -2.8295889  0.036334356    -4.110024    1.2804351   518400 
 1927000   0.85467203   -4.1108657   -4.1108657   -2.8288601   0.03498173   -4.1108657    1.2820056   518400 
 1928000   0.85456906   -4.1130085   -4.1130085   -2.8311574  0.024815747   -4.1130085    1.2818511   518400 
 1929000   0.85384312   -4.1114106   -4.1114106   -2.8306483  0.036394898   -4.1114106    1.2807622   518400 
 1930000   0.85346979   -4.1126289   -4.1126289   -2.8324267    0.0293809   -4.1126289    1.2802022   518400 
 1931000   0.85257357    -4.111261    -4.111261   -2.8324031    0.0327114    -4.111261    1.2788579   518400 
 1932000   0.85329636    -4.113251    -4.113251   -2.8333089  0.030429961    -4.113251    1.2799421   518400 
 1933000   0.85412896   -4.1148751   -4.1148751   -2.8336842   0.03147511   -4.1148751     1.281191   518400 
 1934000   0.85414698   -4.1146051   -4.1146051   -2.8333872  0.031621561   -4.1146051     1.281218   518400 
 1935000   0.85290646    -4.113786    -4.113786   -2.8344288  0.032712068    -4.113786    1.2793572   518400 
 1936000   0.85343192   -4.1143704   -4.1143704    -2.834225  0.027469974   -4.1143704    1.2801454   518400 
 1937000    0.8528893   -4.1154818   -4.1154818   -2.8361503  0.032103331   -4.1154818    1.2793315   518400 
 1938000   0.85281716   -4.1159229   -4.1159229   -2.8366996  0.030763873   -4.1159229    1.2792233   518400 
 1939000   0.85243085   -4.1167566   -4.1167566   -2.8381128  0.033622662   -4.1167566    1.2786438   518400 
 1940000   0.85251275   -4.1170993   -4.1170993   -2.8383326  0.028952708   -4.1170993    1.2787667   518400 
 1941000   0.85278804   -4.1169198   -4.1169198   -2.8377402  0.031736467   -4.1169198    1.2791796   518400 
 1942000   0.85232526   -4.1172634   -4.1172634    -2.838778  0.032470473   -4.1172634    1.2784854   518400 
 1943000   0.85408224   -4.1195905   -4.1195905   -2.8384696  0.031386042   -4.1195905    1.2811209   518400 
 1944000   0.85425073   -4.1204908   -4.1204908   -2.8391171  0.035893499   -4.1204908    1.2813736   518400 
 1945000    0.8546798   -4.1213518   -4.1213518   -2.8393345  0.035772511   -4.1213518    1.2820172   518400 
 1946000   0.85329718   -4.1195408   -4.1195408   -2.8395975  0.036071394   -4.1195408    1.2799433   518400 
 1947000   0.85410496   -4.1210703   -4.1210703   -2.8399153  0.034443346   -4.1210703     1.281155   518400 
 1948000   0.85352024   -4.1211676   -4.1211676   -2.8408897  0.034394659   -4.1211676    1.2802779   518400 
 1949000    0.8525134   -4.1210325   -4.1210325   -2.8422649  0.033032428   -4.1210325    1.2787676   518400 
 1950000   0.85200097   -4.1211135   -4.1211135   -2.8431145  0.030468533   -4.1211135     1.277999   518400 
 1951000    0.8524783   -4.1210978   -4.1210978   -2.8423828   0.03036828   -4.1210978     1.278715   518400 
 1952000   0.85146383   -4.1193449   -4.1193449   -2.8421516  0.034694122   -4.1193449    1.2771933   518400 
 1953000    0.8525749   -4.1221063   -4.1221063   -2.8432464  0.030038057   -4.1221063    1.2788599   518400 
 1954000   0.85216815   -4.1219124   -4.1219124   -2.8436627  0.032265111   -4.1219124    1.2782498   518400 
 1955000     0.851784   -4.1202312   -4.1202312   -2.8425577  0.030070727   -4.1202312    1.2776735   518400 
 1956000   0.85147117   -4.1209544   -4.1209544   -2.8437501  0.028247928   -4.1209544    1.2772043   518400 
 1957000   0.85266557   -4.1222452   -4.1222452   -2.8432493  0.025709629   -4.1222452    1.2789959   518400 
 1958000   0.85229021   -4.1219424   -4.1219424   -2.8435096  0.030390228   -4.1219424    1.2784329   518400 
 1959000    0.8503385   -4.1209047   -4.1209047   -2.8453994   0.02893915   -4.1209047    1.2755053   518400 
 1960000   0.85165838   -4.1224413   -4.1224413   -2.8449562  0.028975813   -4.1224413    1.2774851   518400 
 1961000   0.85071068   -4.1225628   -4.1225628   -2.8464992  0.033205297   -4.1225628    1.2760636   518400 
 1962000   0.85055554    -4.122964    -4.122964   -2.8471331  0.027200433    -4.122964    1.2758309   518400 
 1963000   0.85070801   -4.1246114   -4.1246114   -2.8485518  0.028241863   -4.1246114    1.2760596   518400 
 1964000   0.85150318   -4.1249404   -4.1249404   -2.8476881   0.02928993   -4.1249404    1.2772523   518400 
 1965000   0.85113417    -4.124815    -4.124815   -2.8481162  0.031549671    -4.124815    1.2766988   518400 
 1966000   0.85099929   -4.1257264   -4.1257264   -2.8492299   0.03283323   -4.1257264    1.2764965   518400 
 1967000    0.8505553   -4.1262587   -4.1262587   -2.8504282  0.031227337   -4.1262587    1.2758305   518400 
 1968000   0.85102515   -4.1275554   -4.1275554   -2.8510201  0.033570545   -4.1275554    1.2765353   518400 
 1969000   0.85007808   -4.1266756   -4.1266756   -2.8515609  0.036743637   -4.1266756    1.2751147   518400 
 1970000   0.85068205   -4.1279517   -4.1279517    -2.851931  0.036128418   -4.1279517    1.2760206   518400 
 1971000   0.85157805   -4.1294741   -4.1294741   -2.8521095  0.032929978   -4.1294741    1.2773646   518400 
 1972000   0.85054714   -4.1280934   -4.1280934   -2.8522751  0.039228977   -4.1280934    1.2758183   518400 
 1973000   0.85099324   -4.1295266   -4.1295266   -2.8530392  0.031013281   -4.1295266    1.2764874   518400 
 1974000   0.84984485   -4.1283582   -4.1283582   -2.8535934  0.037064652   -4.1283582    1.2747648   518400 
 1975000   0.85032929   -4.1306118   -4.1306118   -2.8551203  0.031013171   -4.1306118    1.2754915   518400 
 1976000   0.85076417   -4.1315231   -4.1315231   -2.8553793  0.030048743   -4.1315231    1.2761438   518400 
 1977000   0.84971427   -4.1314542   -4.1314542   -2.8568852  0.028615361   -4.1314542    1.2745689   518400 
 1978000   0.84897958    -4.131247    -4.131247   -2.8577801  0.025499194    -4.131247    1.2734669   518400 
 1979000   0.85002942   -4.1319978   -4.1319978   -2.8569562  0.022416139   -4.1319978    1.2750417   518400 
 1980000   0.84925556   -4.1318043   -4.1318043   -2.8579234  0.026450395   -4.1318043    1.2738809   518400 
 1981000   0.84780239   -4.1308498   -4.1308498   -2.8591486  0.028974152   -4.1308498    1.2717011   518400 
 1982000   0.84987182    -4.133558    -4.133558   -2.8587528   0.02344254    -4.133558    1.2748053   518400 
 1983000   0.84975608   -4.1349782   -4.1349782   -2.8603466  0.025803616   -4.1349782    1.2746317   518400 
 1984000   0.84927655   -4.1332764   -4.1332764   -2.8593641   0.02983217   -4.1332764    1.2739124   518400 
 1985000   0.84907595   -4.1331106   -4.1331106   -2.8594991  0.024617049   -4.1331106    1.2736115   518400 
 1986000   0.84839356   -4.1331088   -4.1331088   -2.8605209  0.035172382   -4.1331088    1.2725879   518400 
 1987000   0.85023262   -4.1360645   -4.1360645    -2.860718  0.029214453   -4.1360645    1.2753465   518400 
 1988000   0.84956582   -4.1345252   -4.1345252    -2.860179  0.033813258   -4.1345252    1.2743463   518400 
 1989000   0.85046141   -4.1358897   -4.1358897   -2.8602001  0.036193107   -4.1358897    1.2756896   518400 
 1990000   0.84950215   -4.1362039   -4.1362039   -2.8619532   0.03544269   -4.1362039    1.2742508   518400 
 1991000   0.84975991   -4.1357782   -4.1357782   -2.8611408  0.030438371   -4.1357782    1.2746374   518400 
 1992000   0.84912878    -4.136558    -4.136558   -2.8628673  0.026336985    -4.136558    1.2736907   518400 
 1993000    0.8496617   -4.1376363   -4.1376363   -2.8631462  0.034256532   -4.1376363    1.2744901   518400 
 1994000   0.84968578   -4.1384562   -4.1384562     -2.86393  0.025024749   -4.1384562    1.2745262   518400 
 1995000   0.84847419   -4.1371649   -4.1371649    -2.864456  0.025668073   -4.1371649    1.2727088   518400 
 1996000   0.84873687   -4.1372795   -4.1372795   -2.8641766  0.031271624   -4.1372795    1.2731028   518400 
 1997000   0.84878198   -4.1375524   -4.1375524   -2.8643819  0.031135288   -4.1375524    1.2731705   518400 
 1998000   0.84821126   -4.1374437   -4.1374437   -2.8651293  0.030737123   -4.1374437    1.2723144   518400 
 1999000   0.84790768   -4.1369409   -4.1369409   -2.8650819  0.031629251   -4.1369409    1.2718591   518400 
 2000000   0.84723579   -4.1379429   -4.1379429   -2.8670916  0.028974552   -4.1379429    1.2708512   518400 
 2001000   0.84727434    -4.137715    -4.137715   -2.8668059  0.027362371    -4.137715    1.2709091   518400 
 2002000   0.84806556    -4.139907    -4.139907   -2.8678111  0.026468757    -4.139907    1.2720959   518400 
 2003000   0.84723624   -4.1390354   -4.1390354   -2.8681835  0.026077578   -4.1390354    1.2708519   518400 
 2004000    0.8470916   -4.1403415   -4.1403415   -2.8697066  0.024075565   -4.1403415     1.270635   518400 
 2005000   0.84717024   -4.1399536   -4.1399536   -2.8692007  0.029145566   -4.1399536    1.2707529   518400 
 2006000   0.84695072   -4.1400798   -4.1400798   -2.8696562  0.034067387   -4.1400798    1.2704236   518400 
 2007000   0.84917619   -4.1438044   -4.1438044   -2.8700425  0.027119454   -4.1438044    1.2737618   518400 
 2008000     0.848071   -4.1428719   -4.1428719   -2.8707679  0.034178835   -4.1428719     1.272104   518400 
 2009000   0.84819599    -4.143385    -4.143385   -2.8710935  0.030939975    -4.143385    1.2722915   518400 
 2010000   0.84867866   -4.1446369   -4.1446369   -2.8716214  0.034205489   -4.1446369    1.2730155   518400 
 2011000   0.84856239   -4.1459724   -4.1459724   -2.8731313  0.031234583   -4.1459724    1.2728411   518400 
 2012000   0.84774641   -4.1457006   -4.1457006   -2.8740835  0.032348529   -4.1457006    1.2716172   518400 
 2013000   0.84626105   -4.1449441   -4.1449441    -2.875555  0.032535872   -4.1449441    1.2693891   518400 
 2014000   0.84630605   -4.1455258   -4.1455258   -2.8760691  0.030741272   -4.1455258    1.2694566   518400 
 2015000   0.84435496   -4.1444245   -4.1444245   -2.8778945   0.03319153   -4.1444245      1.26653   518400 
 2016000   0.84656455   -4.1488622   -4.1488622   -2.8790178  0.028579331   -4.1488622    1.2698444   518400 
 2017000   0.84618449   -4.1486594   -4.1486594   -2.8793851  0.027345501   -4.1486594    1.2692743   518400 
 2018000   0.84644312   -4.1496328   -4.1496328   -2.8799706  0.024122412   -4.1496328    1.2696622   518400 
 2019000   0.84543196   -4.1487211   -4.1487211   -2.8805756  0.027857671   -4.1487211    1.2681455   518400 
 2020000   0.84641678   -4.1503252   -4.1503252   -2.8807025  0.025398196   -4.1503252    1.2696227   518400 
 2021000   0.84547644   -4.1496163   -4.1496163   -2.8814041  0.031677926   -4.1496163    1.2682122   518400 
 2022000   0.84639874   -4.1503349   -4.1503349   -2.8807392  0.034364787   -4.1503349    1.2695957   518400 
 2023000   0.84613143   -4.1504321   -4.1504321   -2.8812374  0.032074385   -4.1504321    1.2691947   518400 
 2024000   0.84735387   -4.1520919   -4.1520919   -2.8810635  0.032593072   -4.1520919    1.2710284   518400 
 2025000   0.84725803   -4.1522089   -4.1522089   -2.8813243  0.030889862   -4.1522089    1.2708846   518400 
 2026000   0.84690775   -4.1530492   -4.1530492   -2.8826901  0.036061526   -4.1530492    1.2703592   518400 
 2027000   0.84652811   -4.1528126   -4.1528126   -2.8830229  0.031885295   -4.1528126    1.2697897   518400 
 2028000   0.84597408   -4.1534394   -4.1534394   -2.8844807  0.033039091   -4.1534394    1.2689587   518400 
 2029000    0.8462054   -4.1534959   -4.1534959   -2.8841902   0.02788184   -4.1534959    1.2693057   518400 
 2030000   0.84571768   -4.1544025   -4.1544025   -2.8858284  0.036323585   -4.1544025    1.2685741   518400 
 2031000   0.84579611   -4.1541036   -4.1541036   -2.8854119  0.032073347   -4.1541036    1.2686917   518400 
 2032000    0.8445124   -4.1531935   -4.1531935   -2.8864273  0.029056022   -4.1531935    1.2667662   518400 
 2033000    0.8446439   -4.1535568   -4.1535568   -2.8865934  0.027762817   -4.1535568    1.2669634   518400 
 2034000   0.84477036   -4.1541324   -4.1541324   -2.8869793  0.019991213   -4.1541324    1.2671531   518400 
 2035000   0.84346231   -4.1525818   -4.1525818   -2.8873908  0.026457876   -4.1525818     1.265191   518400 
 2036000   0.84530595    -4.154481    -4.154481   -2.8865245  0.025748608    -4.154481    1.2679565   518400 
 2037000   0.84463655   -4.1546183   -4.1546183   -2.8876659  0.023185169   -4.1546183    1.2669524   518400 
 2038000   0.84515968   -4.1556981   -4.1556981    -2.887961  0.028907985   -4.1556981    1.2677371   518400 
 2039000   0.84468395   -4.1547584   -4.1547584   -2.8877349  0.030553683   -4.1547584    1.2670235   518400 
 2040000   0.84517699   -4.1571322   -4.1571322   -2.8893691  0.030565135   -4.1571322     1.267763   518400 
 2041000   0.84500088    -4.157415    -4.157415   -2.8899161  0.031790566    -4.157415    1.2674989   518400 
 2042000   0.84543402   -4.1595006   -4.1595006    -2.891352  0.028728604   -4.1595006    1.2681486   518400 
 2043000   0.84504472   -4.1594171   -4.1594171   -2.8918524  0.030553876   -4.1594171    1.2675646   518400 
 2044000   0.84483907    -4.159823    -4.159823   -2.8925668  0.028013055    -4.159823    1.2672562   518400 
 2045000   0.84436093   -4.1597226   -4.1597226   -2.8931837  0.028703416   -4.1597226     1.266539   518400 
 2046000   0.84390154   -4.1587574   -4.1587574   -2.8929075  0.030943339   -4.1587574    1.2658499   518400 
 2047000   0.84555692    -4.161772    -4.161772   -2.8934391  0.029170684    -4.161772    1.2683329   518400 
 2048000   0.84477359   -4.1612826   -4.1612826   -2.8941247  0.030137522   -4.1612826    1.2671579   518400 
 2049000    0.8455259   -4.1621315   -4.1621315   -2.8938451  0.035344486   -4.1621315    1.2682864   518400 
 2050000   0.84422118   -4.1611374   -4.1611374   -2.8948081  0.037741194   -4.1611374    1.2663293   518400 
 2051000   0.84454253   -4.1622356   -4.1622356   -2.8954242  0.029328901   -4.1622356    1.2668114   518400 
 2052000   0.84305142   -4.1612156   -4.1612156   -2.8966409  0.027568338   -4.1612156    1.2645747   518400 
 2053000   0.84420224   -4.1626151   -4.1626151   -2.8963141  0.025714377   -4.1626151    1.2663009   518400 
 2054000   0.84269885   -4.1614327   -4.1614327   -2.8973868  0.025037202   -4.1614327    1.2640458   518400 
 2055000   0.84115998   -4.1601494   -4.1601494   -2.8984119  0.033277293   -4.1601494    1.2617375   518400 
 2056000   0.84265808   -4.1619742   -4.1619742   -2.8979895   0.02827423   -4.1619742    1.2639847   518400 
 2057000   0.84321598   -4.1632918   -4.1632918   -2.8984703  0.028829716   -4.1632918    1.2648215   518400 
 2058000   0.84326193   -4.1623618   -4.1623618   -2.8974713  0.033338675   -4.1623618    1.2648905   518400 
 2059000   0.84443756   -4.1643477   -4.1643477   -2.8976938  0.025709704   -4.1643477    1.2666539   518400 
 2060000    0.8447864   -4.1649903   -4.1649903   -2.8978132  0.028263779   -4.1649903    1.2671772   518400 
 2061000   0.84410897   -4.1641111   -4.1641111     -2.89795  0.030984576   -4.1641111     1.266161   518400 
 2062000   0.84260059   -4.1638094   -4.1638094   -2.8999109  0.023756283   -4.1638094    1.2638984   518400 
 2063000   0.84189664   -4.1649778   -4.1649778   -2.9021353  0.028046451   -4.1649778    1.2628425   518400 
 2064000   0.84201822   -4.1652555   -4.1652555   -2.9022306  0.026201647   -4.1652555    1.2630249   518400 
 2065000   0.84270532   -4.1663067   -4.1663067   -2.9022512  0.028419684   -4.1663067    1.2640555   518400 
 2066000   0.84119472   -4.1653403   -4.1653403   -2.9035507  0.032809703   -4.1653403    1.2617897   518400 
 2067000   0.84252723   -4.1672778   -4.1672778   -2.9034894  0.026848639   -4.1672778    1.2637884   518400 
 2068000   0.84208666   -4.1678906   -4.1678906    -2.904763  0.032363514   -4.1678906    1.2631276   518400 
 2069000   0.84346149   -4.1694817   -4.1694817   -2.9042919  0.025434227   -4.1694817    1.2651898   518400 
 2070000   0.84176979   -4.1690885   -4.1690885   -2.9064362  0.030801769   -4.1690885    1.2626522   518400 
 2071000   0.84233912   -4.1701339   -4.1701339   -2.9066277  0.025715029   -4.1701339    1.2635062   518400 
 2072000   0.84407944   -4.1722718   -4.1722718   -2.9061551  0.030282307   -4.1722718    1.2661167   518400 
 2073000   0.84251709   -4.1715873   -4.1715873   -2.9078142  0.030858436   -4.1715873    1.2637732   518400 
 2074000    0.8407171   -4.1695374   -4.1695374   -2.9084642  0.036320559   -4.1695374    1.2610732   518400 
 2075000     0.841484   -4.1724502   -4.1724502   -2.9102267  0.029987234   -4.1724502    1.2622236   518400 
 2076000   0.84188376   -4.1733011   -4.1733011   -2.9104779  0.031775284   -4.1733011    1.2628232   518400 
 2077000   0.84147995   -4.1722483   -4.1722483   -2.9100309  0.031634146   -4.1722483    1.2622175   518400 
 2078000   0.84096646   -4.1729224   -4.1729224   -2.9114751  0.029864667   -4.1729224    1.2614473   518400 
 2079000   0.84089045   -4.1731326   -4.1731326   -2.9117994  0.030052983   -4.1731326    1.2613332   518400 
 2080000   0.84253905   -4.1749995   -4.1749995   -2.9111934  0.026630925   -4.1749995    1.2638061   518400 
 2081000   0.84288924   -4.1747575   -4.1747575   -2.9104261  0.028741692   -4.1747575    1.2643314   518400 
 2082000   0.84214861   -4.1756123   -4.1756123   -2.9123918   0.02661779   -4.1756123    1.2632205   518400 
 2083000   0.84159288   -4.1755187   -4.1755187   -2.9131319  0.029098796   -4.1755187    1.2623869   518400 
 2084000   0.84070293   -4.1747072   -4.1747072   -2.9136552  0.027198085   -4.1747072     1.261052   518400 
 2085000   0.84048854   -4.1747115   -4.1747115   -2.9139811  0.030019911   -4.1747115    1.2607304   518400 
 2086000    0.8405526   -4.1757644   -4.1757644   -2.9149379   0.03126342   -4.1757644    1.2608265   518400 
 2087000   0.83949037   -4.1759619   -4.1759619   -2.9167288  0.026199739   -4.1759619    1.2592331   518400 
 2088000   0.83995306   -4.1771919   -4.1771919   -2.9172647  0.024837405   -4.1771919    1.2599272   518400 
 2089000   0.84008328   -4.1773133   -4.1773133   -2.9171908  0.026701025   -4.1773133    1.2601225   518400 
 2090000   0.84074496   -4.1778238   -4.1778238   -2.9167088  0.028234883   -4.1778238     1.261115   518400 
 2091000   0.84007009   -4.1775575   -4.1775575   -2.9174548  0.031066187   -4.1775575    1.2601027   518400 
 2092000   0.83945649   -4.1773883   -4.1773883    -2.918206   0.02947329   -4.1773883    1.2591823   518400 
 2093000   0.84069768   -4.1794141   -4.1794141     -2.91837   0.03198104   -4.1794141    1.2610441   518400 
 2094000   0.84093567   -4.1798982   -4.1798982   -2.9184971  0.033041344   -4.1798982    1.2614011   518400 
 2095000    0.8406146     -4.18082     -4.18082   -2.9199005  0.028916134     -4.18082    1.2609195   518400 
 2096000   0.83998445   -4.1800065   -4.1800065   -2.9200323   0.03025702   -4.1800065    1.2599743   518400 
 2097000   0.84031998   -4.1813275   -4.1813275     -2.92085  0.029911915   -4.1813275    1.2604775   518400 
 2098000   0.84088404   -4.1818574   -4.1818574   -2.9205338  0.033285516   -4.1818574    1.2613236   518400 
 2099000   0.84003995   -4.1814682   -4.1814682   -2.9214107  0.033471108   -4.1814682    1.2600575   518400 
 2100000   0.84053898   -4.1817851   -4.1817851   -2.9209791  0.030699583   -4.1817851     1.260806   518400 
 2101000     0.838969   -4.1799598   -4.1799598   -2.9215087  0.033675707   -4.1799598    1.2584511   518400 
 2102000   0.83982142   -4.1818616   -4.1818616   -2.9221319  0.029413736   -4.1818616    1.2597297   518400 
 2103000   0.83852967   -4.1822572   -4.1822572   -2.9244651  0.032141706   -4.1822572    1.2577921   518400 
 2104000   0.83977168   -4.1846589   -4.1846589   -2.9250038  0.021572959   -4.1846589    1.2596551   518400 
 2105000   0.83906105   -4.1830684   -4.1830684   -2.9244792  0.026149513   -4.1830684    1.2585891   518400 
 2106000   0.83888081   -4.1828351   -4.1828351   -2.9245163  0.024057156   -4.1828351    1.2583188   518400 
 2107000   0.83790032   -4.1812617   -4.1812617   -2.9244136  0.028244048   -4.1812617    1.2568481   518400 
 2108000   0.83901119   -4.1836516   -4.1836516   -2.9251372  0.024931075   -4.1836516    1.2585144   518400 
 2109000   0.83926081   -4.1842372   -4.1842372   -2.9253484  0.029795406   -4.1842372    1.2588888   518400 
 2110000   0.83975097   -4.1852353   -4.1852353   -2.9256113  0.026478255   -4.1852353     1.259624   518400 
 2111000    0.8394525    -4.185386    -4.185386   -2.9262097  0.029840798    -4.185386    1.2591763   518400 
 2112000   0.83800131   -4.1846833   -4.1846833   -2.9276838  0.031764015   -4.1846833    1.2569995   518400 
 2113000   0.83787853   -4.1844567   -4.1844567   -2.9276414   0.02774649   -4.1844567    1.2568154   518400 
 2114000   0.83907185   -4.1863183   -4.1863183    -2.927713  0.031442857   -4.1863183    1.2586053   518400 
 2115000   0.83920322   -4.1873831   -4.1873831   -2.9285807  0.029885163   -4.1873831    1.2588024   518400 
 2116000   0.83813183   -4.1863054   -4.1863054   -2.9291101  0.030952418   -4.1863054    1.2571953   518400 
 2117000   0.83759799   -4.1874672   -4.1874672   -2.9310727  0.028163877   -4.1874672    1.2563946   518400 
 2118000   0.83852008   -4.1895003   -4.1895003   -2.9317226  0.030820208   -4.1895003    1.2577777   518400 
 2119000   0.83803429   -4.1896451   -4.1896451   -2.9325961  0.029724891   -4.1896451     1.257049   518400 
 2120000   0.83758401   -4.1889661   -4.1889661   -2.9325925  0.030031808   -4.1889661    1.2563736   518400 
 2121000   0.83681348   -4.1892162   -4.1892162   -2.9339984  0.029626619   -4.1892162    1.2552178   518400 
 2122000   0.83795328   -4.1904758   -4.1904758   -2.9335483  0.027418401   -4.1904758    1.2569275   518400 
 2123000   0.83682257   -4.1891321   -4.1891321   -2.9339006  0.030023014   -4.1891321    1.2552314   518400 
 2124000   0.83704084   -4.1911431   -4.1911431   -2.9355842  0.031643667   -4.1911431    1.2555588   518400 
 2125000   0.83765432   -4.1929859   -4.1929859   -2.9365068  0.029563307   -4.1929859    1.2564791   518400 
 2126000   0.83761537   -4.1936591   -4.1936591   -2.9372384  0.031986377   -4.1936591    1.2564206   518400 
 2127000    0.8379364   -4.1939984   -4.1939984   -2.9370963  0.029939035   -4.1939984    1.2569022   518400 
 2128000   0.83722863    -4.193317    -4.193317   -2.9374765   0.03361734    -4.193317    1.2558405   518400 
 2129000   0.83698789   -4.1932103   -4.1932103   -2.9377309  0.033690213   -4.1932103    1.2554794   518400 
 2130000   0.83615549   -4.1925482   -4.1925482   -2.9383174  0.029951818   -4.1925482    1.2542308   518400 
 2131000   0.83617661   -4.1926451   -4.1926451   -2.9383826  0.031359895   -4.1926451    1.2542625   518400 
 2132000    0.8366988   -4.1942278   -4.1942278   -2.9391821  0.028685679   -4.1942278    1.2550458   518400 
 2133000   0.83771755   -4.1964888   -4.1964888   -2.9399149  0.027268695   -4.1964888    1.2565739   518400 
 2134000   0.83634012    -4.195202    -4.195202   -2.9406942  0.029133677    -4.195202    1.2545078   518400 
 2135000   0.83624063   -4.1950391   -4.1950391   -2.9406806  0.028069408   -4.1950391    1.2543585   518400 
 2136000   0.83603036   -4.1963808   -4.1963808   -2.9423377  0.020037094   -4.1963808    1.2540431   518400 
 2137000   0.83419974   -4.1944496   -4.1944496   -2.9431524  0.024586886   -4.1944496    1.2512972   518400 
 2138000   0.83559467    -4.196961    -4.196961   -2.9435714  0.015408514    -4.196961    1.2533896   518400 
 2139000   0.83475957   -4.1957705   -4.1957705   -2.9436336  0.027650386   -4.1957705    1.2521369   518400 
 2140000   0.83539627   -4.1972494   -4.1972494   -2.9441575  0.029396778   -4.1972494     1.253092   518400 
 2141000   0.83657079   -4.1993512   -4.1993512   -2.9444974  0.030721575   -4.1993512    1.2548538   518400 
 2142000   0.83706167   -4.2004261   -4.2004261    -2.944836  0.026992163   -4.2004261    1.2555901   518400 
 2143000   0.83690559   -4.1998091   -4.1998091   -2.9444531  0.026718044   -4.1998091     1.255356   518400 
 2144000   0.83554202   -4.1989258   -4.1989258   -2.9456152  0.028849601   -4.1989258    1.2533106   518400 
 2145000   0.83531489   -4.1997949   -4.1997949   -2.9468249  0.028499656   -4.1997949    1.2529699   518400 
 2146000   0.83464493   -4.1995781   -4.1995781   -2.9476131  0.026624784   -4.1995781     1.251965   518400 
 2147000   0.83428514   -4.2006246   -4.2006246   -2.9491993   0.03666319   -4.2006246    1.2514253   518400 
 2148000   0.83344337   -4.2010325   -4.2010325   -2.9508698  0.027927428   -4.2010325    1.2501626   518400 
 2149000   0.83541037   -4.2038702   -4.2038702   -2.9507571  0.026248531   -4.2038702    1.2531131   518400 
 2150000   0.83537183   -4.2042698   -4.2042698   -2.9512144  0.031138495   -4.2042698    1.2530553   518400 
 2151000   0.83382172   -4.2032795   -4.2032795   -2.9525494  0.028424911   -4.2032795    1.2507302   518400 
 2152000   0.83441241   -4.2048526   -4.2048526   -2.9532364  0.025597963   -4.2048526    1.2516162   518400 
 2153000   0.83546651   -4.2069843   -4.2069843    -2.953787  0.023777754   -4.2069843    1.2531973   518400 
 2154000   0.83422584   -4.2059445   -4.2059445   -2.9546081  0.026817198   -4.2059445    1.2513364   518400 
 2155000   0.83399132   -4.2066075   -4.2066075   -2.9556229   0.02570387   -4.2066075    1.2509846   518400 
 2156000   0.83498178   -4.2076424   -4.2076424   -2.9551722  0.031431716   -4.2076424    1.2524703   518400 
 2157000   0.83577449   -4.2087751   -4.2087751   -2.9551158  0.028078278   -4.2087751    1.2536593   518400 
 2158000    0.8344679   -4.2082522   -4.2082522   -2.9565528  0.033973307   -4.2082522    1.2516994   518400 
 2159000   0.83559293   -4.2102761   -4.2102761   -2.9568891   0.02773631   -4.2102761     1.253387   518400 
 2160000   0.83436434   -4.2091788   -4.2091788   -2.9576348  0.033531363   -4.2091788    1.2515441   518400 
 2161000   0.83510783   -4.2112408   -4.2112408   -2.9585814  0.022544419   -4.2112408    1.2526593   518400 
 2162000   0.83460663   -4.2109751   -4.2109751   -2.9590676   0.02490734   -4.2109751    1.2519075   518400 
 2163000   0.83300543   -4.2094858   -4.2094858   -2.9599801  0.026562637   -4.2094858    1.2495057   518400 
 2164000   0.83145208   -4.2071058   -4.2071058   -2.9599301  0.030508275   -4.2071058    1.2471757   518400 
 2165000   0.83390456   -4.2108472   -4.2108472   -2.9599928  0.029615709   -4.2108472    1.2508544   518400 
 2166000   0.83317533   -4.2115263   -4.2115263   -2.9617657  0.028373818   -4.2115263    1.2497606   518400 
 2167000   0.83283458   -4.2115988   -4.2115988   -2.9623493  0.026019341   -4.2115988    1.2492495   518400 
 2168000    0.8331502    -4.211767    -4.211767   -2.9620441  0.019760654    -4.211767    1.2497229   518400 
 2169000   0.83202393   -4.2101147   -4.2101147   -2.9620812  0.026840799   -4.2101147    1.2480335   518400 
 2170000   0.83267017   -4.2115919   -4.2115919   -2.9625891  0.030531479   -4.2115919    1.2490029   518400 
 2171000   0.83239342   -4.2116441   -4.2116441   -2.9630564  0.026257047   -4.2116441    1.2485877   518400 
 2172000   0.83266801    -4.213094    -4.213094   -2.9640944  0.025952082    -4.213094    1.2489996   518400 
 2173000   0.83190125   -4.2122233   -4.2122233   -2.9643738  0.024554555   -4.2122233    1.2478495   518400 
 2174000   0.83292173   -4.2134944   -4.2134944   -2.9641143  0.025447104   -4.2134944    1.2493802   518400 
 2175000   0.83259481   -4.2145675   -4.2145675   -2.9656777  0.025025602   -4.2145675    1.2488898   518400 
 2176000   0.83273028   -4.2151031   -4.2151031   -2.9660101  0.030148706   -4.2151031     1.249093   518400 
 2177000   0.83139109   -4.2138945   -4.2138945   -2.9668102  0.026414351   -4.2138945    1.2470842   518400 
 2178000   0.83089384   -4.2140137   -4.2140137   -2.9676753  0.030216973   -4.2140137    1.2463384   518400 
 2179000   0.83139805   -4.2152973   -4.2152973   -2.9682026   0.02516761   -4.2152973    1.2470947   518400 
 2180000   0.83176386   -4.2158359   -4.2158359   -2.9681925  0.025826582   -4.2158359    1.2476434   518400 
 2181000    0.8316246   -4.2164145   -4.2164145     -2.96898  0.032263886   -4.2164145    1.2474345   518400 
 2182000    0.8329374   -4.2175734   -4.2175734   -2.9681697  0.029053044   -4.2175734    1.2494037   518400 
 2183000   0.83309814   -4.2185365   -4.2185365   -2.9688917  0.031060958   -4.2185365    1.2496448   518400 
 2184000   0.83337961   -4.2186272   -4.2186272   -2.9685602  0.035283262   -4.2186272     1.250067   518400 
 2185000    0.8319622   -4.2182488   -4.2182488   -2.9703079  0.036065346   -4.2182488    1.2479409   518400 
 2186000   0.83256348   -4.2200512   -4.2200512   -2.9712084  0.027647654   -4.2200512    1.2488428   518400 
 2187000   0.83153617   -4.2198037   -4.2198037   -2.9725018  0.027155375   -4.2198037    1.2473018   518400 
 2188000   0.83149597    -4.220769    -4.220769   -2.9735274  0.031002442    -4.220769    1.2472416   518400 
 2189000   0.83152042   -4.2211888   -4.2211888   -2.9739106   0.02604689   -4.2211888    1.2472782   518400 
 2190000   0.83010393    -4.220812    -4.220812   -2.9756585  0.025574045    -4.220812    1.2451535   518400 
 2191000   0.83094906   -4.2223212   -4.2223212      -2.9759  0.028659216   -4.2223212    1.2464212   518400 
 2192000   0.83139538   -4.2237452   -4.2237452   -2.9766545  0.018684755   -4.2237452    1.2470907   518400 
 2193000   0.83055926   -4.2231312   -4.2231312   -2.9772947  0.023403245   -4.2231312    1.2458365   518400 
 2194000   0.83057391   -4.2229605   -4.2229605    -2.977102  0.022348303   -4.2229605    1.2458585   518400 
 2195000   0.83043337   -4.2234134   -4.2234134   -2.9777658  0.023831287   -4.2234134    1.2456477   518400 
 2196000   0.83065337   -4.2246459   -4.2246459   -2.9786682   0.03099988   -4.2246459    1.2459777   518400 
 2197000   0.83216777   -4.2262109   -4.2262109   -2.9779617  0.026064343   -4.2262109    1.2482493   518400 
 2198000   0.82955535   -4.2226939   -4.2226939   -2.9783632  0.030692978   -4.2226939    1.2443306   518400 
 2199000   0.83150483   -4.2262198   -4.2262198   -2.9789649  0.027343728   -4.2262198    1.2472548   518400 
 2200000    0.8303777   -4.2258205   -4.2258205   -2.9802564  0.027825822   -4.2258205    1.2455641   518400 
 2201000   0.83052328   -4.2277387   -4.2277387   -2.9819562  0.022647535   -4.2277387    1.2457825   518400 
 2202000   0.83015478   -4.2284176   -4.2284176   -2.9831879  0.022741619   -4.2284176    1.2452298   518400 
 2203000   0.82966451   -4.2278625   -4.2278625   -2.9833682  0.026609367   -4.2278625    1.2444944   518400 
 2204000   0.82994327   -4.2275315   -4.2275315    -2.982619  0.028461205   -4.2275315    1.2449125   518400 
 2205000   0.82961778   -4.2285635   -4.2285635   -2.9841392  0.020601625   -4.2285635    1.2444243   518400 
 2206000   0.82924448   -4.2294071   -4.2294071   -2.9855428  0.023866165   -4.2294071    1.2438643   518400 
 2207000   0.82855234   -4.2288208   -4.2288208   -2.9859947  0.031056405   -4.2288208    1.2428261   518400 
 2208000     0.829122    -4.230615    -4.230615   -2.9869344  0.025479794    -4.230615    1.2436806   518400 
 2209000   0.82954166   -4.2314822   -4.2314822   -2.9871721  0.026778856   -4.2314822    1.2443101   518400 
 2210000   0.82901476    -4.231482    -4.231482   -2.9879623  0.028389115    -4.231482    1.2435197   518400 
 2211000   0.82908754   -4.2315123   -4.2315123   -2.9878834  0.025472479   -4.2315123    1.2436289   518400 
 2212000   0.82984962    -4.233957    -4.233957    -2.989185  0.029781931    -4.233957     1.244772   518400 
 2213000   0.82940691   -4.2335407   -4.2335407   -2.9894327  0.027063362   -4.2335407     1.244108   518400 
 2214000   0.82908319   -4.2331935   -4.2331935   -2.9895711  0.028833192   -4.2331935    1.2436224   518400 
 2215000    0.8304586    -4.235608    -4.235608   -2.9899225  0.028034842    -4.235608    1.2456855   518400 
 2216000   0.82914908   -4.2332761   -4.2332761   -2.9895549  0.036389495   -4.2332761    1.2437212   518400 
 2217000   0.82923584   -4.2340646   -4.2340646   -2.9902133  0.028214717   -4.2340646    1.2438514   518400 
 2218000   0.82883254   -4.2344105   -4.2344105   -2.9911641   0.03224438   -4.2344105    1.2432464   518400 
 2219000   0.82937794   -4.2360684   -4.2360684   -2.9920039  0.023079192   -4.2360684    1.2440645   518400 
 2220000   0.82822826   -4.2343454   -4.2343454   -2.9920054  0.030100345   -4.2343454      1.24234   518400 
 2221000   0.82604768   -4.2338438   -4.2338438   -2.9947746  0.026617778   -4.2338438    1.2390691   518400 
 2222000   0.82685852   -4.2350328   -4.2350328   -2.9947474  0.023168342   -4.2350328    1.2402854   518400 
 2223000   0.82637736   -4.2348639   -4.2348639   -2.9953003   0.01900303   -4.2348639    1.2395636   518400 
 2224000   0.82728129   -4.2365486   -4.2365486   -2.9956291  0.020579047   -4.2365486    1.2409195   518400 
 2225000   0.82722079   -4.2360032   -4.2360032   -2.9951744  0.025405756   -4.2360032    1.2408288   518400 
 2226000   0.82621634   -4.2347942   -4.2347942   -2.9954721  0.028594526   -4.2347942    1.2393221   518400 
 2227000   0.82629317   -4.2360777   -4.2360777   -2.9966404  0.026122214   -4.2360777    1.2394374   518400 
 2228000   0.82768418    -4.238137    -4.238137   -2.9966131  0.026252607    -4.238137    1.2415239   518400 
 2229000   0.82741113   -4.2382821   -4.2382821   -2.9971678  0.026598887   -4.2382821    1.2411143   518400 
 2230000   0.82677966   -4.2382795   -4.2382795   -2.9981124   0.03133196   -4.2382795    1.2401671   518400 
 2231000   0.82699404   -4.2396829   -4.2396829   -2.9991942  0.024792559   -4.2396829    1.2404887   518400 
 2232000   0.82729222   -4.2405621   -4.2405621   -2.9996262  0.032843181   -4.2405621    1.2409359   518400 
 2233000   0.82899299   -4.2429589   -4.2429589   -2.9994718  0.027724607   -4.2429589    1.2434871   518400 
 2234000   0.82955449   -4.2441671   -4.2441671   -2.9998377  0.023871638   -4.2441671    1.2443293   518400 
 2235000   0.82824376    -4.244487    -4.244487   -3.0021237  0.023890945    -4.244487    1.2423632   518400 
 2236000   0.82645372   -4.2437426   -4.2437426   -3.0040644  0.026855629   -4.2437426    1.2396782   518400 
 2237000   0.82544899   -4.2423845   -4.2423845   -3.0042134  0.027151345   -4.2423845    1.2381711   518400 
 2238000    0.8269642   -4.2446842   -4.2446842   -3.0042403  0.024482905   -4.2446842    1.2404439   518400 
 2239000   0.82688204   -4.2456263   -4.2456263   -3.0053056  0.025317966   -4.2456263    1.2403207   518400 
 2240000   0.82634597   -4.2451567   -4.2451567   -3.0056401  0.023779667   -4.2451567    1.2395166   518400 
 2241000   0.82684543   -4.2466904   -4.2466904   -3.0064247  0.026184361   -4.2466904    1.2402657   518400 
 2242000   0.82629166   -4.2471639   -4.2471639   -3.0077288  0.035635203   -4.2471639    1.2394351   518400 
 2243000   0.82699665   -4.2480772   -4.2480772   -3.0075846  0.024820179   -4.2480772    1.2404926   518400 
 2244000   0.82512345   -4.2461115   -4.2461115   -3.0084287  0.028310685   -4.2461115    1.2376828   518400 
 2245000    0.8259969   -4.2469251   -4.2469251   -3.0079322  0.027871203   -4.2469251     1.238993   518400 
 2246000   0.82620264   -4.2482952   -4.2482952   -3.0089936  0.032248764   -4.2482952    1.2393016   518400 
 2247000   0.82502535   -4.2470934   -4.2470934   -3.0095578  0.029752885   -4.2470934    1.2375356   518400 
 2248000   0.82633528   -4.2498368   -4.2498368   -3.0103363  0.027245562   -4.2498368    1.2395005   518400 
 2249000    0.8271719   -4.2518856   -4.2518856   -3.0111301  0.020243555   -4.2518856    1.2407555   518400 
 2250000   0.82543875   -4.2501284   -4.2501284   -3.0119726  0.029516032   -4.2501284    1.2381557   518400 
 2251000   0.82445449   -4.2483593   -4.2483593   -3.0116799  0.030765353   -4.2483593    1.2366794   518400 
 2252000   0.82518674   -4.2500749   -4.2500749   -3.0122971   0.02389343   -4.2500749    1.2377777   518400 
 2253000   0.82487923   -4.2504942   -4.2504942   -3.0131778  0.023261249   -4.2504942    1.2373165   518400 
 2254000   0.82356038   -4.2487319   -4.2487319   -3.0133938  0.027980773   -4.2487319    1.2353382   518400 
 2255000   0.82432502   -4.2509064   -4.2509064   -3.0144213  0.027427852   -4.2509064    1.2364851   518400 
 2256000   0.82417236   -4.2519732   -4.2519732   -3.0157171  0.021608549   -4.2519732    1.2362562   518400 
 2257000    0.8229776   -4.2497899   -4.2497899   -3.0153259  0.027171923   -4.2497899     1.234464   518400 
 2258000   0.82428792   -4.2521311   -4.2521311   -3.0157016  0.022560817   -4.2521311    1.2364295   518400 
 2259000   0.82392956   -4.2528589   -4.2528589   -3.0169669  0.024265446   -4.2528589     1.235892   518400 
 2260000   0.82509867   -4.2547097   -4.2547097   -3.0170641  0.024032876   -4.2547097    1.2376456   518400 
 2261000   0.82377097   -4.2533009   -4.2533009   -3.0176468  0.029920073   -4.2533009    1.2356541   518400 
 2262000   0.82555707   -4.2560744   -4.2560744   -3.0177412  0.023660973   -4.2560744    1.2383332   518400 
 2263000   0.82575539   -4.2575494   -4.2575494   -3.0189187  0.027485295   -4.2575494    1.2386307   518400 
 2264000   0.82487839   -4.2566909   -4.2566909   -3.0193757    0.0247158   -4.2566909    1.2373152   518400 
 2265000   0.82565644   -4.2596069   -4.2596069   -3.0211246  0.029358071   -4.2596069    1.2384823   518400 
 2266000   0.82485565    -4.258494    -4.258494   -3.0212129  0.032361632    -4.258494    1.2372811   518400 
 2267000   0.82407171    -4.257631    -4.257631   -3.0215258  0.034112232    -4.257631    1.2361052   518400 
 2268000   0.82497513   -4.2602493   -4.2602493    -3.022789   0.02504183   -4.2602493    1.2374603   518400 
 2269000   0.82485762   -4.2612194   -4.2612194   -3.0239354   0.02538149   -4.2612194     1.237284   518400 
 2270000   0.82327124   -4.2606127   -4.2606127   -3.0257082  0.026457224   -4.2606127    1.2349045   518400 
 2271000   0.82323716    -4.259715    -4.259715   -3.0248617  0.031009248    -4.259715    1.2348534   518400 
 2272000   0.82283578   -4.2593262   -4.2593262   -3.0250749  0.030374188   -4.2593262    1.2342513   518400 
 2273000   0.82424321   -4.2624997   -4.2624997   -3.0261373  0.020417591   -4.2624997    1.2363624   518400 
 2274000   0.82346598    -4.260889    -4.260889   -3.0256924  0.030286294    -4.260889    1.2351966   518400 
 2275000   0.82203237   -4.2600789   -4.2600789   -3.0270327  0.026833172   -4.2600789    1.2330462   518400 
 2276000   0.82363298   -4.2625224   -4.2625224   -3.0270753  0.023145468   -4.2625224    1.2354471   518400 
 2277000   0.82336918   -4.2622758   -4.2622758   -3.0272244  0.020812672   -4.2622758    1.2350514   518400 
 2278000   0.82124592   -4.2610729   -4.2610729   -3.0292064  0.022697022   -4.2610729    1.2318665   518400 
 2279000   0.82171082      -4.2619      -4.2619   -3.0293361  0.021772601      -4.2619    1.2325639   518400 
 2280000   0.82063601   -4.2615165   -4.2615165   -3.0305649  0.023152321   -4.2615165    1.2309516   518400 
 2281000   0.82271474   -4.2662128   -4.2662128   -3.0321431  0.013478378   -4.2662128    1.2340697   518400 
 2282000   0.82237085   -4.2651757   -4.2651757   -3.0316218  0.018396191   -4.2651757    1.2335539   518400 
 2283000   0.82133982   -4.2639392   -4.2639392   -3.0319319  0.024352916   -4.2639392    1.2320074   518400 
 2284000   0.82128997   -4.2644646   -4.2644646    -3.032532  0.024201617   -4.2644646    1.2319326   518400 
 2285000   0.82234626   -4.2668382   -4.2668382   -3.0333212  0.025368339   -4.2668382     1.233517   518400 
 2286000   0.82124964    -4.266874    -4.266874   -3.0350019  0.025496421    -4.266874    1.2318721   518400 
 2287000   0.82238126   -4.2684567   -4.2684567   -3.0348872  0.025401139   -4.2684567    1.2335695   518400 
 2288000   0.82198024   -4.2687824   -4.2687824   -3.0358144  0.028912156   -4.2687824     1.232968   518400 
 2289000   0.82273633   -4.2692688   -4.2692688   -3.0351667    0.0285706   -4.2692688    1.2341021   518400 
 2290000    0.8227063   -4.2709029   -4.2709029   -3.0368458  0.030074059   -4.2709029    1.2340571   518400 
 2291000   0.82273868   -4.2715096   -4.2715096    -3.037404  0.029270875   -4.2715096    1.2341056   518400 
 2292000   0.82202696   -4.2714894   -4.2714894   -3.0384513  0.028601617   -4.2714894    1.2330381   518400 
 2293000   0.82056085   -4.2705193   -4.2705193   -3.0396804  0.026897244   -4.2705193    1.2308389   518400 
 2294000   0.82116295   -4.2717654   -4.2717654   -3.0400233  0.026844931   -4.2717654     1.231742   518400 
 2295000   0.82114416   -4.2716194   -4.2716194   -3.0399055  0.030489008   -4.2716194    1.2317139   518400 
 2296000   0.82114988   -4.2722492   -4.2722492   -3.0405267  0.027876282   -4.2722492    1.2317224   518400 
 2297000   0.82059444   -4.2711101   -4.2711101   -3.0402208  0.029453999   -4.2711101    1.2308893   518400 
 2298000   0.82080522   -4.2724941   -4.2724941   -3.0412887  0.024458024   -4.2724941    1.2312055   518400 
 2299000   0.82115131   -4.2735934   -4.2735934   -3.0418688  0.025963724   -4.2735934    1.2317246   518400 
 2300000   0.82007617   -4.2719611   -4.2719611   -3.0418492  0.026430464   -4.2719611    1.2301119   518400 
 2301000   0.82039199    -4.272386    -4.272386   -3.0418004  0.021290932    -4.272386    1.2305856   518400 
 2302000   0.81881537   -4.2711812   -4.2711812   -3.0429605  0.022869826   -4.2711812    1.2282207   518400 
 2303000   0.81886462   -4.2722939   -4.2722939   -3.0439994  0.020904379   -4.2722939    1.2282946   518400 
 2304000   0.81973745   -4.2743825   -4.2743825   -3.0447787  0.015056445   -4.2743825    1.2296038   518400 
 2305000   0.81996882    -4.274897    -4.274897   -3.0449461  0.021792182    -4.274897    1.2299509   518400 
 2306000   0.81952645   -4.2760556   -4.2760556   -3.0467683  0.019266405   -4.2760556    1.2292873   518400 
 2307000   0.81995585    -4.276925    -4.276925   -3.0469936  0.017338711    -4.276925    1.2299314   518400 
 2308000   0.82031049   -4.2768558   -4.2768558   -3.0463924  0.023078885   -4.2768558    1.2304634   518400 
 2309000   0.81955529   -4.2775554   -4.2775554   -3.0482248  0.021481384   -4.2775554    1.2293306   518400 
 2310000   0.81896993   -4.2783046   -4.2783046    -3.049852   0.02793057   -4.2783046    1.2284525   518400 
 2311000   0.82025964   -4.2794244   -4.2794244   -3.0490373   0.02497485   -4.2794244    1.2303871   518400 
 2312000   0.81961298   -4.2793572   -4.2793572   -3.0499401   0.03166461   -4.2793572    1.2294171   518400 
 2313000   0.82082008   -4.2809363   -4.2809363   -3.0497085  0.028458122   -4.2809363    1.2312277   518400 
 2314000   0.82059378   -4.2809096   -4.2809096   -3.0500213   0.03179887   -4.2809096    1.2308883   518400 
 2315000   0.82045578   -4.2815949   -4.2815949   -3.0509136  0.027620028   -4.2815949    1.2306813   518400 
 2316000   0.81931648   -4.2809325   -4.2809325   -3.0519601  0.027796097   -4.2809325    1.2289723   518400 
 2317000   0.81964498   -4.2821904   -4.2821904   -3.0527253  0.026433571   -4.2821904    1.2294651   518400 
 2318000   0.81821256    -4.280552    -4.280552   -3.0532355   0.03204749    -4.280552    1.2273165   518400 
 2319000   0.81711145   -4.2792768   -4.2792768    -3.053612  0.029402744   -4.2792768    1.2256648   518400 
 2320000   0.81814691   -4.2811645   -4.2811645   -3.0539465  0.024891169   -4.2811645     1.227218   518400 
 2321000   0.81886285   -4.2833667   -4.2833667   -3.0550748  0.022654064   -4.2833667    1.2282919   518400 
 2322000   0.81795482   -4.2832808   -4.2832808   -3.0563509  0.023651831   -4.2832808    1.2269299   518400 
 2323000   0.81704239    -4.282043    -4.282043   -3.0564818   0.02233332    -4.282043    1.2255612   518400 
 2324000   0.81758633   -4.2819836   -4.2819836   -3.0556065  0.025061198   -4.2819836    1.2263771   518400 
 2325000   0.81735747   -4.2821944   -4.2821944   -3.0561606  0.020382369   -4.2821944    1.2260338   518400 
 2326000   0.81787036   -4.2831323   -4.2831323   -3.0563291   0.02361046   -4.2831323    1.2268032   518400 
 2327000    0.8182663   -4.2845259   -4.2845259   -3.0571288   0.02389072   -4.2845259    1.2273971   518400 
 2328000   0.81743748   -4.2841319   -4.2841319    -3.057978  0.022910569   -4.2841319    1.2261538   518400 
 2329000   0.81741913   -4.2850943   -4.2850943    -3.058968  0.026130985   -4.2850943    1.2261263   518400 
 2330000   0.81773303   -4.2874295   -4.2874295   -3.0608323   0.02009081   -4.2874295    1.2265972   518400 
 2331000   0.81699842    -4.287339    -4.287339   -3.0618438  0.025986735    -4.287339    1.2254953   518400 
 2332000   0.81685059   -4.2878047   -4.2878047   -3.0625312  0.025266071   -4.2878047    1.2252735   518400 
 2333000   0.81721859   -4.2886578   -4.2886578   -3.0628322  0.026080941   -4.2886578    1.2258255   518400 
 2334000   0.81786373   -4.2907225   -4.2907225   -3.0639293   0.02450817   -4.2907225    1.2267932   518400 
 2335000   0.81737914   -4.2904133   -4.2904133   -3.0643469  0.030251212   -4.2904133    1.2260663   518400 
 2336000   0.81802452   -4.2910102   -4.2910102   -3.0639758   0.03362168   -4.2910102    1.2270344   518400 
 2337000   0.81847898   -4.2923003   -4.2923003   -3.0645842  0.029466475   -4.2923003    1.2277161   518400 
 2338000   0.81652226   -4.2907034   -4.2907034   -3.0659224  0.031035117   -4.2907034     1.224781   518400 
 2339000   0.81717169   -4.2927066   -4.2927066   -3.0669515  0.029526124   -4.2927066    1.2257552   518400 
 2340000   0.81619925   -4.2923891   -4.2923891   -3.0680926  0.027351043   -4.2923891    1.2242965   518400 
 2341000   0.81728899   -4.2935018   -4.2935018   -3.0675707  0.026427819   -4.2935018    1.2259311   518400 
 2342000   0.81711211    -4.293936    -4.293936   -3.0682702   0.02406654    -4.293936    1.2256658   518400 
 2343000   0.81606786   -4.2923275   -4.2923275    -3.068228  0.020812634   -4.2923275    1.2240994   518400 
 2344000   0.81691237   -4.2942372   -4.2942372    -3.068871  0.021515639   -4.2942372    1.2253662   518400 
 2345000   0.81617487    -4.293222    -4.293222   -3.0689621  0.022855845    -4.293222    1.2242599   518400 
 2346000   0.81501334   -4.2930195   -4.2930195   -3.0705018  0.020244712   -4.2930195    1.2225177   518400 
 2347000   0.81425542   -4.2930335   -4.2930335   -3.0716527  0.016953342   -4.2930335    1.2213808   518400 
 2348000   0.81415249   -4.2921895   -4.2921895   -3.0709631  0.025536539   -4.2921895    1.2212264   518400 
 2349000   0.81549544   -4.2934303   -4.2934303   -3.0701895   0.02565176   -4.2934303    1.2232408   518400 
 2350000   0.81668655   -4.2952579   -4.2952579   -3.0702304  0.020314951   -4.2952579    1.2250275   518400 
 2351000     0.815974   -4.2950476   -4.2950476    -3.071089  0.021369949   -4.2950476    1.2239586   518400 
 2352000   0.81569564   -4.2950367   -4.2950367   -3.0714956  0.029316458   -4.2950367    1.2235411   518400 
 2353000   0.81603965   -4.2963198   -4.2963198   -3.0722627  0.030708416   -4.2963198    1.2240571   518400 
 2354000   0.81644039   -4.2972703   -4.2972703    -3.072612  0.029358529   -4.2972703    1.2246582   518400 
 2355000    0.8169591   -4.2984744   -4.2984744   -3.0730381  0.027970948   -4.2984744    1.2254363   518400 
 2356000    0.8165143   -4.2976491   -4.2976491     -3.07288  0.030042304   -4.2976491    1.2247691   518400 
 2357000   0.81481352   -4.2956954   -4.2956954   -3.0734774  0.032830557   -4.2956954    1.2222179   518400 
 2358000   0.81471607   -4.2970561   -4.2970561   -3.0749844  0.025192033   -4.2970561    1.2220717   518400 
 2359000   0.81499668    -4.298178    -4.298178   -3.0756853  0.021606538    -4.298178    1.2224927   518400 
 2360000   0.81504788   -4.2989755   -4.2989755    -3.076406  0.026971583   -4.2989755    1.2225695   518400 
 2361000   0.81458511   -4.2983223   -4.2983223    -3.076447  0.026016149   -4.2983223    1.2218753   518400 
 2362000   0.81443188   -4.2990953   -4.2990953   -3.0774498  0.020016485   -4.2990953    1.2216455   518400 
 2363000   0.81468511    -4.300716    -4.300716   -3.0786907  0.023174743    -4.300716    1.2220253   518400 
 2364000   0.81448977   -4.3006712   -4.3006712    -3.078939  0.020954504   -4.3006712    1.2217323   518400 
 2365000    0.8135148   -4.3002073   -4.3002073   -3.0799375    0.0213368   -4.3002073    1.2202698   518400 
 2366000   0.81414947   -4.3018276   -4.3018276   -3.0806058  0.020364933   -4.3018276    1.2212219   518400 
 2367000   0.81484422   -4.3035832   -4.3035832   -3.0813192  0.020042756   -4.3035832     1.222264   518400 
 2368000   0.81438706   -4.3019795   -4.3019795   -3.0804012  0.027003343   -4.3019795    1.2215782   518400 
 2369000   0.81430169   -4.3031919   -4.3031919   -3.0817418  0.029332589   -4.3031919    1.2214502   518400 
 2370000   0.81480104    -4.304153    -4.304153   -3.0819538  0.029685696    -4.304153    1.2221992   518400 
 2371000   0.81417525   -4.3048767   -4.3048767   -3.0836162  0.023509783   -4.3048767    1.2212605   518400 
 2372000   0.81344417   -4.3039775   -4.3039775   -3.0838136  0.029777262   -4.3039775    1.2201639   518400 
 2373000   0.81396688   -4.3064996   -4.3064996   -3.0855517  0.020453713   -4.3064996     1.220948   518400 
 2374000   0.81205085    -4.305551    -4.305551   -3.0874771  0.020275329    -4.305551    1.2180739   518400 
 2375000   0.81348857   -4.3078208   -4.3078208   -3.0875903  0.021764009   -4.3078208    1.2202305   518400 
 2376000   0.81286434   -4.3084958   -4.3084958   -3.0892017  0.023579125   -4.3084958    1.2192942   518400 
 2377000   0.81316871    -4.309214    -4.309214   -3.0894632  0.022931345    -4.309214    1.2197507   518400 
 2378000   0.81360585   -4.3105671   -4.3105671   -3.0901607  0.030315856   -4.3105671    1.2204064   518400 
 2379000   0.81386846   -4.3113792   -4.3113792   -3.0905788  0.031388162   -4.3113792    1.2208003   518400 
 2380000   0.81357638   -4.3111681   -4.3111681   -3.0908059  0.027252575   -4.3111681    1.2203622   518400 
 2381000   0.81223422   -4.3105396   -4.3105396   -3.0921906  0.024614784   -4.3105396     1.218349   518400 
 2382000   0.81261851   -4.3113488   -4.3113488   -3.0924234  0.022289118   -4.3113488    1.2189254   518400 
 2383000   0.81287665   -4.3118336   -4.3118336    -3.092521  0.019806294   -4.3118336    1.2193126   518400 
 2384000   0.81236374    -4.311402    -4.311402   -3.0928587  0.025075902    -4.311402    1.2185433   518400 
 2385000    0.8130623   -4.3128235   -4.3128235   -3.0932324  0.025371268   -4.3128235    1.2195911   518400 
 2386000   0.81263657   -4.3127896   -4.3127896   -3.0938371  0.025708125   -4.3127896    1.2189525   518400 
 2387000   0.81292642    -4.314061    -4.314061   -3.0946737  0.018194427    -4.314061    1.2193873   518400 
 2388000   0.81114809   -4.3138441   -4.3138441   -3.0971243  0.020024981   -4.3138441    1.2167198   518400 
 2389000   0.81058203   -4.3139174   -4.3139174   -3.0980467  0.015539868   -4.3139174    1.2158707   518400 
 2390000   0.81131102   -4.3147638   -4.3147638   -3.0977996  0.018853357   -4.3147638    1.2169642   518400 
 2391000   0.81066861   -4.3146012   -4.3146012   -3.0986006   0.02137595   -4.3146012    1.2160006   518400 
 2392000   0.81079326   -4.3147464   -4.3147464   -3.0985589  0.019553706   -4.3147464    1.2161875   518400 
 2393000   0.81078665   -4.3155724   -4.3155724   -3.0993948  0.024745103   -4.3155724    1.2161776   518400 
 2394000   0.81202311   -4.3173019   -4.3173019   -3.0992696  0.026284438   -4.3173019    1.2180323   518400 
 2395000   0.81202676   -4.3181411   -4.3181411   -3.1001033  0.027387043   -4.3181411    1.2180378   518400 
 2396000   0.81153659   -4.3175829   -4.3175829   -3.1002803  0.028588892   -4.3175829    1.2173025   518400 
 2397000   0.81096558   -4.3182099   -4.3182099   -3.1017639  0.030081706   -4.3182099     1.216446   518400 
 2398000    0.8107988   -4.3196552   -4.3196552   -3.1034593  0.027289873   -4.3196552    1.2161958   518400 
 2399000   0.81028987   -4.3195048   -4.3195048   -3.1040724  0.027828086   -4.3195048    1.2154325   518400 
 2400000   0.81088589   -4.3211531   -4.3211531   -3.1048266  0.025767881   -4.3211531    1.2163265   518400 
 2401000   0.81194383   -4.3216835   -4.3216835   -3.1037701  0.022614144   -4.3216835    1.2179134   518400 
 2402000   0.81125252   -4.3221767   -4.3221767   -3.1053003  0.020021871   -4.3221767    1.2168764   518400 
 2403000   0.81029373   -4.3211735   -4.3211735   -3.1057353  0.027332878   -4.3211735    1.2154382   518400 
 2404000   0.81121185   -4.3230323   -4.3230323   -3.1062169   0.01794439   -4.3230323    1.2168154   518400 
 2405000   0.81184712   -4.3234902   -4.3234902   -3.1057218  0.015827483   -4.3234902    1.2177683   518400 
 2406000   0.81084734   -4.3224472   -4.3224472   -3.1061785  0.016771057   -4.3224472    1.2162687   518400 
 2407000    0.8107167   -4.3228169   -4.3228169   -3.1067442  0.020655605   -4.3228169    1.2160727   518400 
 2408000   0.81020649   -4.3229299   -4.3229299   -3.1076225  0.018825883   -4.3229299    1.2153074   518400 
 2409000   0.80975486   -4.3230096   -4.3230096   -3.1083796  0.017401695   -4.3230096    1.2146299   518400 
 2410000   0.80984844   -4.3227765   -4.3227765   -3.1080062  0.022087239   -4.3227765    1.2147703   518400 
 2411000   0.81085437   -4.3248804   -4.3248804   -3.1086012  0.020335271   -4.3248804    1.2162792   518400 
 2412000   0.81060291   -4.3248798   -4.3248798   -3.1089778  0.019190587   -4.3248798     1.215902   518400 
 2413000   0.80981219   -4.3240237   -4.3240237   -3.1093077  0.023119508   -4.3240237    1.2147159   518400 
 2414000   0.80956167   -4.3252034   -4.3252034   -3.1108632  0.024791678   -4.3252034    1.2143402   518400 
 2415000   0.80885827   -4.3253245   -4.3253245   -3.1120394  0.023595533   -4.3253245    1.2132851   518400 
 2416000   0.80932221   -4.3261287   -4.3261287   -3.1121478    0.0241261   -4.3261287     1.213981   518400 
 2417000   0.81080946   -4.3278704   -4.3278704   -3.1116586  0.019867893   -4.3278704    1.2162118   518400 
 2418000   0.80939975   -4.3266475   -4.3266475   -3.1125502  0.024837265   -4.3266475    1.2140973   518400 
 2419000   0.80954802   -4.3278412   -4.3278412   -3.1135215  0.020436604   -4.3278412    1.2143197   518400 
 2420000   0.80903916   -4.3277136   -4.3277136   -3.1141572  0.027322678   -4.3277136    1.2135564   518400 
 2421000   0.80849676    -4.328267    -4.328267   -3.1155242  0.024344076    -4.328267    1.2127428   518400 
 2422000   0.80980329     -4.33097     -4.33097   -3.1162674  0.018715286     -4.33097    1.2147026   518400 
 2423000   0.80864042   -4.3293772   -4.3293772   -3.1164189  0.027287464   -4.3293772    1.2129583   518400 
 2424000   0.80858215   -4.3300939   -4.3300939    -3.117223  0.021515087   -4.3300939    1.2128709   518400 
 2425000    0.8081139   -4.3297405   -4.3297405   -3.1175719  0.021082851   -4.3297405    1.2121685   518400 
 2426000   0.80897908   -4.3309919   -4.3309919   -3.1175256  0.018881002   -4.3309919    1.2134663   518400 
 2427000   0.80854755   -4.3298196   -4.3298196   -3.1170006  0.023135708   -4.3298196     1.212819   518400 
 2428000    0.8083793   -4.3301074   -4.3301074   -3.1175408  0.022670247   -4.3301074    1.2125666   518400 
 2429000     0.809342   -4.3320134   -4.3320134   -3.1180028  0.018987993   -4.3320134    1.2140107   518400 
 2430000   0.80816155   -4.3303966   -4.3303966   -3.1181566   0.02436838   -4.3303966      1.21224   518400 
 2431000   0.80909986   -4.3319228   -4.3319228   -3.1182754  0.020135503   -4.3319228    1.2136474   518400 
 2432000   0.80624786   -4.3285237   -4.3285237   -3.1191542  0.027700198   -4.3285237    1.2093695   518400 
 2433000   0.80740506   -4.3306527   -4.3306527   -3.1195474  0.022783585   -4.3306527    1.2111053   518400 
 2434000   0.80835742   -4.3328507   -4.3328507    -3.120317   0.01524588   -4.3328507    1.2125338   518400 
 2435000   0.80562146   -4.3302801   -4.3302801   -3.1218503  0.024444584   -4.3302801    1.2084299   518400 
 2436000   0.80627112   -4.3306372   -4.3306372   -3.1212328  0.024347731   -4.3306372    1.2094043   518400 
 2437000   0.80741646   -4.3322535   -4.3322535   -3.1211312  0.020609982   -4.3322535    1.2111224   518400 
 2438000   0.80887651   -4.3347133   -4.3347133   -3.1214008  0.017805886   -4.3347133    1.2133124   518400 
 2439000   0.80816399    -4.334378    -4.334378   -3.1221343  0.024402057    -4.334378    1.2122436   518400 
 2440000    0.8075048    -4.334246    -4.334246   -3.1229911  0.023043155    -4.334246    1.2112549   518400 
 2441000   0.80668202   -4.3340817   -4.3340817    -3.124061  0.028891648   -4.3340817    1.2100207   518400 
 2442000   0.80704003   -4.3347823   -4.3347823   -3.1242246  0.027734691   -4.3347823    1.2105577   518400 
 2443000   0.80569265   -4.3346076   -4.3346076    -3.126071  0.023698615   -4.3346076    1.2085366   518400 
 2444000   0.80659245   -4.3370066   -4.3370066   -3.1271203   0.02431624   -4.3370066    1.2098863   518400 
 2445000   0.80689583   -4.3384932   -4.3384932   -3.1281518  0.018625641   -4.3384932    1.2103414   518400 
 2446000   0.80576833   -4.3370749   -4.3370749   -3.1284247  0.024543605   -4.3370749    1.2086502   518400 
 2447000   0.80620352   -4.3389024   -4.3389024   -3.1295994  0.021272821   -4.3389024     1.209303   518400 
 2448000   0.80719186   -4.3410998   -4.3410998   -3.1303143  0.016353557   -4.3410998    1.2107855   518400 
 2449000   0.80631563   -4.3403155   -4.3403155   -3.1308444  0.025522187   -4.3403155    1.2094711   518400 
 2450000   0.80552169   -4.3393703   -4.3393703   -3.1310901  0.027004845   -4.3393703    1.2082802   518400 
 2451000   0.80606163   -4.3403348   -4.3403348   -3.1312447  0.021804842   -4.3403348    1.2090901   518400 
 2452000   0.80676626   -4.3417888   -4.3417888   -3.1316417  0.022193222   -4.3417888    1.2101471   518400 
 2453000   0.80830024   -4.3438056   -4.3438056   -3.1313575  0.018312759   -4.3438056     1.212448   518400 
 2454000   0.80625972   -4.3425513   -4.3425513   -3.1331641  0.026227159   -4.3425513    1.2093872   518400 
 2455000   0.80621996   -4.3424459   -4.3424459   -3.1331183  0.024688153   -4.3424459    1.2093276   518400 
 2456000   0.80635353   -4.3438539   -4.3438539   -3.1343259  0.020534767   -4.3438539     1.209528   518400 
 2457000    0.8066119   -4.3445386   -4.3445386   -3.1346231  0.020705269   -4.3445386    1.2099155   518400 
 2458000   0.80565005   -4.3439483   -4.3439483   -3.1354755   0.01913769   -4.3439483    1.2084727   518400 
 2459000   0.80581399   -4.3443542   -4.3443542   -3.1356355  0.018908045   -4.3443542    1.2087187   518400 
 2460000   0.80498598   -4.3436023   -4.3436023   -3.1361256  0.019514344   -4.3436023    1.2074766   518400 
 2461000   0.80455911   -4.3447958   -4.3447958   -3.1379595  0.018375955   -4.3447958    1.2068363   518400 
 2462000   0.80442817     -4.34573     -4.34573   -3.1390901  0.017590475     -4.34573    1.2066399   518400 
 2463000   0.80530095   -4.3481697   -4.3481697   -3.1402206  0.015662493   -4.3481697    1.2079491   518400 
 2464000   0.80469673   -4.3469702   -4.3469702   -3.1399275  0.020794034   -4.3469702    1.2070428   518400 
 2465000   0.80489961   -4.3478408   -4.3478408   -3.1404938  0.019206347   -4.3478408    1.2073471   518400 
 2466000   0.80342524   -4.3449081   -4.3449081   -3.1397726  0.024097717   -4.3449081    1.2051355   518400 
 2467000   0.80479915    -4.348264    -4.348264   -3.1410676   0.02384513    -4.348264    1.2071964   518400 
 2468000    0.8055584   -4.3509065   -4.3509065   -3.1425713  0.018921216   -4.3509065    1.2083353   518400 
 2469000   0.80595464   -4.3525003   -4.3525003   -3.1435707  0.022666526   -4.3525003    1.2089296   518400 
 2470000   0.80611271   -4.3519681   -4.3519681   -3.1428014   0.02301474   -4.3519681    1.2091667   518400 
 2471000   0.80400308   -4.3495228   -4.3495228   -3.1435205  0.027316625   -4.3495228    1.2060023   518400 
 2472000   0.80457358   -4.3520937   -4.3520937   -3.1452357  0.020256069   -4.3520937     1.206858   518400 
 2473000   0.80413768   -4.3532035   -4.3532035   -3.1469993  0.025493925   -4.3532035    1.2062042   518400 
 2474000   0.80366782   -4.3520044   -4.3520044    -3.146505  0.022112712   -4.3520044    1.2054994   518400 
 2475000   0.80340323   -4.3518172   -4.3518172   -3.1467147  0.025611573   -4.3518172    1.2051025   518400 
 2476000   0.80355445   -4.3529171   -4.3529171   -3.1475878   0.02248839   -4.3529171    1.2053294   518400 
 2477000   0.80264486   -4.3540404   -4.3540404   -3.1500754  0.020651654   -4.3540404     1.203965   518400 
 2478000   0.80264019   -4.3532779   -4.3532779     -3.14932  0.020525604   -4.3532779     1.203958   518400 
 2479000   0.80372946   -4.3550011   -4.3550011   -3.1494092  0.019407604   -4.3550011    1.2055919   518400 
 2480000   0.80300862   -4.3544375   -4.3544375   -3.1499269  0.021956345   -4.3544375    1.2045106   518400 
 2481000   0.80173636   -4.3541063   -4.3541063   -3.1515041  0.024069894   -4.3541063    1.2026022   518400 
 2482000   0.80289713   -4.3564816   -4.3564816   -3.1521382  0.014316406   -4.3564816    1.2043434   518400 
 2483000   0.80168913   -4.3554525   -4.3554525   -3.1529211  0.020439087   -4.3554525    1.2025314   518400 
 2484000   0.80087609   -4.3547422   -4.3547422   -3.1534304  0.025988602   -4.3547422    1.2013118   518400 
 2485000   0.80185057   -4.3564793   -4.3564793   -3.1537057  0.025142164   -4.3564793    1.2027735   518400 
 2486000   0.80216563   -4.3581156   -4.3581156   -3.1548695  0.021350536   -4.3581156    1.2032461   518400 
 2487000   0.80292654   -4.3594812   -4.3594812   -3.1550937  0.022356413   -4.3594812    1.2043875   518400 
 2488000   0.80350044   -4.3611371   -4.3611371   -3.1558888  0.025112834   -4.3611371    1.2052483   518400 
 2489000   0.80399965    -4.361906    -4.361906   -3.1559088  0.022042677    -4.361906    1.2059972   518400 
 2490000   0.80207477   -4.3603889   -4.3603889    -3.157279  0.018809521   -4.3603889    1.2031098   518400 
 2491000   0.80369034   -4.3614141   -4.3614141   -3.1558809  0.025778232   -4.3614141    1.2055332   518400 
 2492000   0.80311323   -4.3613728   -4.3613728   -3.1567053  0.021798393   -4.3613728    1.2046675   518400 
 2493000   0.80180684   -4.3603437   -4.3603437   -3.1576358  0.026069725   -4.3603437    1.2027079   518400 
 2494000   0.80101341   -4.3601972   -4.3601972   -3.1586794  0.027248048   -4.3601972    1.2015178   518400 
 2495000   0.80109673   -4.3622303   -4.3622303   -3.1605875  0.025317551   -4.3622303    1.2016428   518400 
 2496000   0.80074554   -4.3616861   -4.3616861   -3.1605701  0.021152639   -4.3616861     1.201116   518400 
 2497000   0.80195214   -4.3634082   -4.3634082   -3.1604823  0.016782172   -4.3634082    1.2029259   518400 
 2498000   0.79983523    -4.361709    -4.361709   -3.1619585  0.022378465    -4.361709    1.1997505   518400 
 2499000   0.79978635   -4.3626776   -4.3626776   -3.1630004  0.019588461   -4.3626776    1.1996772   518400 
 2500000   0.79986541   -4.3626603   -4.3626603   -3.1628645  0.021038055   -4.3626603    1.1997958   518400 
 2501000   0.80080549   -4.3643616   -4.3643616   -3.1631557  0.015950352   -4.3643616    1.2012059   518400 
 2502000   0.80004504   -4.3631518   -4.3631518   -3.1630866  0.016750424   -4.3631518    1.2000653   518400 
 2503000   0.79936013   -4.3630741   -4.3630741   -3.1640362  0.021690801   -4.3630741    1.1990379   518400 
 2504000   0.80053149    -4.365606    -4.365606   -3.1648111  0.019173136    -4.365606    1.2007949   518400 
 2505000   0.80053763   -4.3657111   -4.3657111   -3.1649069  0.018726253   -4.3657111    1.2008041   518400 
 2506000   0.80068295   -4.3677299   -4.3677299   -3.1667078   0.02121003   -4.3677299    1.2010221   518400 
 2507000   0.80012197   -4.3667312   -4.3667312   -3.1665506    0.0254596   -4.3667312    1.2001806   518400 
 2508000   0.80092725    -4.368666    -4.368666   -3.1672775  0.023672504    -4.368666    1.2013886   518400 
 2509000   0.80017406   -4.3671162   -4.3671162   -3.1668574  0.029940368   -4.3671162    1.2002588   518400 
 2510000   0.80193181   -4.3693009   -4.3693009   -3.1664055  0.024682519   -4.3693009    1.2028954   518400 
 2511000   0.80070922   -4.3695167   -4.3695167   -3.1684552  0.026788143   -4.3695167    1.2010615   518400 
 2512000   0.79944729   -4.3682852   -4.3682852   -3.1691166  0.028900636   -4.3682852    1.1991686   518400 
 2513000   0.80019952   -4.3696478   -4.3696478   -3.1693509  0.029056511   -4.3696478     1.200297   518400 
 2514000   0.79971255    -4.369474    -4.369474   -3.1699075   0.02627548    -4.369474    1.1995665   518400 
 2515000   0.80019677   -4.3701602   -4.3701602   -3.1698674  0.021418496   -4.3701602    1.2002928   518400 
 2516000    0.7984332   -4.3692662   -4.3692662   -3.1716187  0.027636856   -4.3692662    1.1976475   518400 
 2517000   0.79980073   -4.3709224   -4.3709224   -3.1712236  0.020608947   -4.3709224    1.1996988   518400 
 2518000   0.79841961   -4.3699173   -4.3699173   -3.1722902  0.019479433   -4.3699173    1.1976271   518400 
 2519000   0.79975827   -4.3722869   -4.3722869   -3.1726518  0.013505118   -4.3722869    1.1996351   518400 
 2520000   0.79869647   -4.3707353   -4.3707353    -3.172693  0.015154205   -4.3707353    1.1980424   518400 
 2521000    0.7978115   -4.3710015   -4.3710015   -3.1742866  0.016015587   -4.3710015    1.1967149   518400 
 2522000   0.79813142   -4.3721796   -4.3721796   -3.1749848  0.019889416   -4.3721796    1.1971948   518400 
 2523000   0.79811484   -4.3717179   -4.3717179    -3.174548  0.017320034   -4.3717179      1.19717   518400 
 2524000   0.79824928   -4.3741706   -4.3741706    -3.176799  0.014556615   -4.3741706    1.1973716   518400 
 2525000   0.79804598   -4.3753321   -4.3753321   -3.1782655  0.016673027   -4.3753321    1.1970667   518400 
 2526000   0.79735849    -4.373725    -4.373725   -3.1776896  0.017510246    -4.373725    1.1960354   518400 
 2527000   0.79787792   -4.3760135   -4.3760135   -3.1791989  0.019501781   -4.3760135    1.1968146   518400 
 2528000   0.79870013   -4.3776211   -4.3776211   -3.1795732  0.026319707   -4.3776211    1.1980479   518400 
 2529000   0.79961888   -4.3804623   -4.3804623   -3.1810363  0.021712498   -4.3804623     1.199426   518400 
 2530000   0.80067783   -4.3823972   -4.3823972   -3.1813828  0.022149654   -4.3823972    1.2010144   518400 
 2531000    0.7989435   -4.3807482   -4.3807482   -3.1823352  0.025541195   -4.3807482    1.1984129   518400 
 2532000   0.79799357   -4.3791794   -4.3791794   -3.1821914  0.031138385   -4.3791794     1.196988   518400 
 2533000   0.79916552   -4.3824574   -4.3824574   -3.1837114  0.026645372   -4.3824574     1.198746   518400 
 2534000   0.79876325    -4.381253    -4.381253   -3.1831105   0.02486908    -4.381253    1.1981426   518400 
 2535000   0.79859081   -4.3819481   -4.3819481   -3.1840641  0.024772987   -4.3819481    1.1978839   518400 
 2536000   0.79757867   -4.3807345   -4.3807345   -3.1843688  0.026493145   -4.3807345    1.1963657   518400 
 2537000   0.79833144   -4.3824655   -4.3824655   -3.1849707  0.020706943   -4.3824655    1.1974949   518400 
 2538000   0.79768199   -4.3821366   -4.3821366    -3.185616  0.019424889   -4.3821366    1.1965207   518400 
 2539000   0.79595774   -4.3807709   -4.3807709   -3.1868366  0.019191962   -4.3807709    1.1939343   518400 
 2540000   0.79648354   -4.3814753   -4.3814753   -3.1867523  0.015813038   -4.3814753     1.194723   518400 
 2541000   0.79646029   -4.3817475   -4.3817475   -3.1870594  0.014663275   -4.3817475    1.1946881   518400 
 2542000   0.79539142   -4.3814227   -4.3814227   -3.1883379  0.016038522   -4.3814227    1.1930848   518400 
 2543000   0.79616992   -4.3829679   -4.3829679   -3.1887153  0.012929006   -4.3829679    1.1942526   518400 
 2544000   0.79588298   -4.3831959   -4.3831959   -3.1893737  0.016626279   -4.3831959    1.1938222   518400 
 2545000   0.79556786   -4.3830046   -4.3830046   -3.1896551  0.019747642   -4.3830046    1.1933495   518400 
 2546000   0.79491412   -4.3830199   -4.3830199    -3.190651  0.020396805   -4.3830199    1.1923689   518400 
 2547000    0.7943389   -4.3834587   -4.3834587   -3.1919527  0.021375482   -4.3834587    1.1915061   518400 
 2548000   0.79665814   -4.3862466   -4.3862466   -3.1912617  0.020409078   -4.3862466    1.1949849   518400 
 2549000   0.79704384   -4.3879786   -4.3879786   -3.1924152  0.020486843   -4.3879786    1.1955635   518400 
 2550000   0.79691196   -4.3884737   -4.3884737   -3.1931081  0.022115265   -4.3884737    1.1953656   518400 
 2551000   0.79622848   -4.3895149   -4.3895149   -3.1951745  0.019559388   -4.3895149    1.1943404   518400 
 2552000   0.79644783   -4.3896631   -4.3896631   -3.1949937  0.020988672   -4.3896631    1.1946694   518400 
 2553000   0.79535883   -4.3890549   -4.3890549   -3.1960189  0.021948446   -4.3890549    1.1930359   518400 
 2554000   0.79577904   -4.3902595   -4.3902595   -3.1965932  0.022186659   -4.3902595    1.1936663   518400 
 2555000   0.79544668   -4.3923088   -4.3923088   -3.1991411  0.025305838   -4.3923088    1.1931677   518400 
 2556000   0.79610117   -4.3928806   -4.3928806   -3.1987311  0.021728239   -4.3928806    1.1941495   518400 
 2557000   0.79644372   -4.3936784   -4.3936784   -3.1990151  0.019972683   -4.3936784    1.1946633   518400 
 2558000   0.79539287   -4.3923353   -4.3923353   -3.1992483  0.027963282   -4.3923353     1.193087   518400 
 2559000   0.79536181   -4.3924637   -4.3924637   -3.1994233  0.023571115   -4.3924637    1.1930404   518400 
 2560000   0.79501984   -4.3926213   -4.3926213   -3.2000938  0.019221751   -4.3926213    1.1925275   518400 
 2561000   0.79427968   -4.3927423   -4.3927423   -3.2013251   0.02127838   -4.3927423    1.1914172   518400 
 2562000   0.79400352   -4.3937401   -4.3937401   -3.2027371  0.014990135   -4.3937401     1.191003   518400 
 2563000   0.79325942   -4.3934762   -4.3934762   -3.2035894  0.015341015   -4.3934762    1.1898868   518400 
 2564000     0.793379   -4.3936505   -4.3936505   -3.2035843  0.016832702   -4.3936505    1.1900662   518400 
 2565000   0.79485976   -4.3945478   -4.3945478   -3.2022605  0.016320391   -4.3945478    1.1922873   518400 
 2566000   0.79357222   -4.3936816   -4.3936816   -3.2033256  0.019591478   -4.3936816     1.190356   518400 
 2567000   0.79440924   -4.3954403   -4.3954403   -3.2038287  0.020948682   -4.3954403    1.1916116   518400 
 2568000   0.79413775   -4.3957478   -4.3957478   -3.2045434  0.021901096   -4.3957478    1.1912043   518400 
 2569000   0.79412766   -4.3960319   -4.3960319   -3.2048427  0.023069547   -4.3960319    1.1911892   518400 
 2570000   0.79410359    -4.397162    -4.397162   -3.2060089  0.015134161    -4.397162    1.1911531   518400 
 2571000   0.79373489   -4.3967731   -4.3967731   -3.2061731  0.017919451   -4.3967731       1.1906   518400 
 2572000   0.79402242   -4.3973593   -4.3973593   -3.2063279  0.018893785   -4.3973593    1.1910313   518400 
 2573000   0.79279067   -4.3961899   -4.3961899   -3.2070062   0.02382245   -4.3961899    1.1891837   518400 
 2574000   0.79303539   -4.3980612   -4.3980612   -3.2085104  0.021443283   -4.3980612    1.1895508   518400 
 2575000   0.79351482   -4.3988518   -4.3988518   -3.2085819  0.013486426   -4.3988518    1.1902699   518400 
 2576000    0.7935624   -4.4001917   -4.4001917   -3.2098504  0.016299185   -4.4001917    1.1903413   518400 
 2577000   0.79254986   -4.3980833   -4.3980833   -3.2092608  0.023863035   -4.3980833    1.1888225   518400 
 2578000   0.79241876   -4.3993407   -4.3993407   -3.2107149  0.018240872   -4.3993407    1.1886258   518400 
 2579000   0.79180726   -4.4000183   -4.4000183   -3.2123097  0.014230775   -4.4000183    1.1877086   518400 
 2580000   0.79204937   -4.4014767   -4.4014767    -3.213405  0.016451504   -4.4014767    1.1880718   518400 
 2581000   0.79243545    -4.402871    -4.402871   -3.2142201  0.017632898    -4.402871    1.1886509   518400 
 2582000   0.79249045   -4.4036756   -4.4036756   -3.2149422  0.017452085   -4.4036756    1.1887334   518400 
 2583000   0.79221135   -4.4030572   -4.4030572   -3.2147425  0.022364532   -4.4030572    1.1883147   518400 
 2584000   0.79245896   -4.4045256   -4.4045256   -3.2158395  0.023687929   -4.4045256    1.1886862   518400 
 2585000   0.79260967   -4.4061163   -4.4061163   -3.2172041  0.020504577   -4.4061163    1.1889122   518400 
 2586000   0.79288702   -4.4070545   -4.4070545   -3.2177263  0.023012208   -4.4070545    1.1893282   518400 
 2587000     0.792353    -4.406164    -4.406164   -3.2176368  0.025705448    -4.406164    1.1885272   518400 
 2588000   0.79222763   -4.4068575   -4.4068575   -3.2185184   0.01987956   -4.4068575    1.1883391   518400 
 2589000    0.7920764   -4.4075986   -4.4075986   -3.2194863  0.024473136   -4.4075986    1.1881123   518400 
 2590000     0.791817   -4.4072628   -4.4072628   -3.2195396   0.02559429   -4.4072628    1.1877232   518400 
 2591000   0.79143484   -4.4078439   -4.4078439   -3.2206939  0.026082458   -4.4078439      1.18715   518400 
 2592000   0.79174431   -4.4083812   -4.4083812   -3.2207671  0.016439692   -4.4083812    1.1876142   518400 
 2593000   0.79102208   -4.4077121   -4.4077121   -3.2211813    0.0207268   -4.4077121    1.1865308   518400 
 2594000   0.79063505    -4.407347    -4.407347   -3.2213967  0.023131077    -4.407347    1.1859503   518400 
 2595000   0.79032094   -4.4070693   -4.4070693   -3.2215902  0.018686726   -4.4070693    1.1854791   518400 
 2596000   0.79127542   -4.4093562   -4.4093562   -3.2224454  0.012713613   -4.4093562    1.1869108   518400 
 2597000   0.78951529   -4.4069679   -4.4069679   -3.2226973  0.017603918   -4.4069679    1.1842707   518400 
 2598000   0.79196857   -4.4099567   -4.4099567   -3.2220062  0.014578363   -4.4099567    1.1879506   518400 
 2599000   0.78944264    -4.407578    -4.407578   -3.2234164  0.022726718    -4.407578    1.1841617   518400 
 2600000   0.79161956   -4.4090816   -4.4090816   -3.2216545  0.013978065   -4.4090816     1.187427   518400 
 2601000   0.79062009   -4.4100253   -4.4100253   -3.2240974  0.016506718   -4.4100253    1.1859279   518400 
 2602000   0.79025475   -4.4110083   -4.4110083   -3.2256285  0.016159296   -4.4110083    1.1853798   518400 
 2603000   0.78891956   -4.4104337   -4.4104337   -3.2270566  0.014433702   -4.4104337    1.1833771   518400 
 2604000   0.78870289   -4.4107851   -4.4107851   -3.2277331  0.017690022   -4.4107851    1.1830521   518400 
 2605000   0.78942484    -4.412768    -4.412768    -3.228633  0.018225974    -4.412768     1.184135   518400 
 2606000   0.78972299   -4.4137231   -4.4137231   -3.2291409  0.011791697   -4.4137231    1.1845822   518400 
 2607000   0.78956086   -4.4142996   -4.4142996   -3.2299606  0.022571303   -4.4142996     1.184339   518400 
 2608000   0.79020963   -4.4150419   -4.4150419   -3.2297297  0.027131434   -4.4150419    1.1853122   518400 
 2609000   0.79036615   -4.4162637   -4.4162637   -3.2307167   0.02852019   -4.4162637    1.1855469   518400 
 2610000   0.79121664   -4.4185116   -4.4185116    -3.231689  0.023007857   -4.4185116    1.1868227   518400 
 2611000   0.79109658   -4.4185696   -4.4185696   -3.2319271  0.028698368   -4.4185696    1.1866426   518400 
 2612000   0.79019553     -4.41869     -4.41869    -3.233399  0.025584486     -4.41869     1.185291   518400 
 2613000      0.79016   -4.4187312   -4.4187312   -3.2334935  0.027128061   -4.4187312    1.1852377   518400 
 2614000   0.78933058   -4.4188663   -4.4188663   -3.2348727  0.024270912   -4.4188663    1.1839936   518400 
 2615000   0.79032632    -4.419906    -4.419906   -3.2344188  0.019080636    -4.419906    1.1854872   518400 
 2616000    0.7880624   -4.4173436   -4.4173436   -3.2352523  0.018774808   -4.4173436    1.1820913   518400 
 2617000   0.78863381   -4.4199306   -4.4199306   -3.2369821  0.008599309   -4.4199306    1.1829484   518400 
 2618000   0.78839647   -4.4186244   -4.4186244    -3.236032  0.020039901   -4.4186244    1.1825924   518400 
 2619000   0.78831055   -4.4183526   -4.4183526    -3.235889  0.016357884   -4.4183526    1.1824636   518400 
 2620000   0.78685545   -4.4173166   -4.4173166   -3.2370357  0.015041454   -4.4173166    1.1802809   518400 
 2621000   0.78756917   -4.4190267   -4.4190267   -3.2376752  0.015796814   -4.4190267    1.1813515   518400 
 2622000   0.78764633   -4.4186759   -4.4186759   -3.2372087  0.016503702   -4.4186759    1.1814672   518400 
 2623000   0.78766222   -4.4198096   -4.4198096   -3.2383186  0.015942557   -4.4198096    1.1814911   518400 
 2624000   0.78828613   -4.4214609   -4.4214609    -3.239034  0.016952486   -4.4214609    1.1824269   518400 
 2625000   0.78713682   -4.4202858   -4.4202858   -3.2395828  0.022921391   -4.4202858     1.180703   518400 
 2626000   0.78810701   -4.4229567   -4.4229567   -3.2407984  0.013357233   -4.4229567    1.1821582   518400 
 2627000   0.78856205   -4.4239363   -4.4239363   -3.2410955   0.01997734   -4.4239363    1.1828408   518400 
 2628000    0.7883865   -4.4250865   -4.4250865    -3.242509  0.015710089   -4.4250865    1.1825775   518400 
 2629000   0.78783018   -4.4249394   -4.4249394   -3.2431964  0.021638656   -4.4249394     1.181743   518400 
 2630000   0.78720922   -4.4252827   -4.4252827   -3.2444712  0.028453597   -4.4252827    1.1808115   518400 
 2631000   0.78723657   -4.4263018   -4.4263018   -3.2454492  0.025807853   -4.4263018    1.1808526   518400 
 2632000   0.78733709    -4.427451    -4.427451   -3.2464476  0.024446495    -4.427451    1.1810034   518400 
 2633000   0.78860184    -4.430092    -4.430092   -3.2471915  0.024532818    -4.430092    1.1829005   518400 
 2634000   0.78719163   -4.4286042   -4.4286042   -3.2478191  0.027937331   -4.4286042    1.1807852   518400 
 2635000   0.78826628   -4.4312132   -4.4312132    -3.248816  0.020173761   -4.4312132    1.1823971   518400 
 2636000   0.78748965   -4.4310312   -4.4310312   -3.2497989  0.021393193   -4.4310312    1.1812322   518400 
 2637000   0.78757807   -4.4306817   -4.4306817   -3.2493169  0.025353893   -4.4306817    1.1813648   518400 
 2638000   0.78667901   -4.4302895   -4.4302895   -3.2502733  0.025332561   -4.4302895    1.1800162   518400 
 2639000   0.78682855   -4.4311997   -4.4311997   -3.2509592  0.022351768   -4.4311997    1.1802405   518400 
 2640000   0.78715383   -4.4328412   -4.4328412   -3.2521127  0.016126669   -4.4328412    1.1807285   518400 
 2641000    0.7863177   -4.4299928   -4.4299928   -3.2505185  0.023609434   -4.4299928    1.1794743   518400 
 2642000    0.7860867   -4.4305698   -4.4305698    -3.251442  0.014745561   -4.4305698    1.1791278   518400 
 2643000   0.78649826   -4.4325566   -4.4325566   -3.2528115  0.015247062   -4.4325566    1.1797451   518400 
 2644000   0.78614271   -4.4318702   -4.4318702   -3.2526585  0.015818999   -4.4318702    1.1792118   518400 
 2645000   0.78498179   -4.4308121   -4.4308121   -3.2533417  0.017249055   -4.4308121    1.1774704   518400 
 2646000   0.78573796    -4.432314    -4.432314   -3.2537093   0.01642333    -4.432314    1.1786047   518400 
 2647000    0.7848222   -4.4308445   -4.4308445   -3.2536134  0.019875973   -4.4308445     1.177231   518400 
 2648000   0.78617798    -4.433587    -4.433587   -3.2543223  0.017858252    -4.433587    1.1792647   518400 
 2649000   0.78611063   -4.4335778   -4.4335778   -3.2544142  0.014366472   -4.4335778    1.1791637   518400 
 2650000   0.78506659    -4.432825    -4.432825   -3.2552274  0.018400253    -4.432825    1.1775976   518400 
 2651000   0.78554369   -4.4346071   -4.4346071   -3.2562939  0.018191586   -4.4346071    1.1783133   518400 
 2652000    0.7863766   -4.4369201   -4.4369201   -3.2573575  0.017016605   -4.4369201    1.1795626   518400 
 2653000   0.78618214   -4.4367542   -4.4367542   -3.2574833  0.018780436   -4.4367542    1.1792709   518400 
 2654000   0.78528728   -4.4364792   -4.4364792   -3.2585505  0.018403356   -4.4364792    1.1779287   518400 
 2655000    0.7860743   -4.4382806   -4.4382806   -3.2591714  0.018523962   -4.4382806    1.1791092   518400 
 2656000   0.78490657   -4.4377348   -4.4377348   -3.2603772  0.021207848   -4.4377348    1.1773576   518400 
 2657000   0.78445379   -4.4386213   -4.4386213   -3.2619429  0.017865067   -4.4386213    1.1766784   518400 
 2658000   0.78443764   -4.4382244   -4.4382244   -3.2615702  0.021656459   -4.4382244    1.1766542   518400 
 2659000    0.7848386    -4.439419    -4.439419   -3.2621634  0.018077686    -4.439419    1.1772556   518400 
 2660000   0.78533661   -4.4406899   -4.4406899   -3.2626873  0.021327223   -4.4406899    1.1780026   518400 
 2661000   0.78556049   -4.4416745   -4.4416745    -3.263336  0.019121789   -4.4416745    1.1783385   518400 
 2662000    0.7854797   -4.4413009   -4.4413009   -3.2630837    0.0201518   -4.4413009    1.1782173   518400 
 2663000   0.78512775    -4.441928    -4.441928   -3.2642387  0.022325381    -4.441928    1.1776893   518400 
 2664000   0.78381574   -4.4411056   -4.4411056   -3.2653842  0.022464635   -4.4411056    1.1757213   518400 
 2665000   0.78440555    -4.442567    -4.442567   -3.2659609  0.016233642    -4.442567    1.1766061   518400 
 2666000   0.78479295   -4.4433028   -4.4433028   -3.2661156   0.01530519   -4.4433028    1.1771871   518400 
 2667000   0.78380175   -4.4408681   -4.4408681   -3.2651677  0.021128292   -4.4408681    1.1757004   518400 
 2668000   0.78319448   -4.4415121   -4.4415121   -3.2667227  0.015490025   -4.4415121    1.1747895   518400 
 2669000   0.78361574   -4.4427692   -4.4427692   -3.2673478   0.01646409   -4.4427692    1.1754213   518400 
 2670000   0.78304818   -4.4426231   -4.4426231    -3.268053  0.022978942   -4.4426231      1.17457   518400 
 2671000   0.78353934   -4.4431677   -4.4431677    -3.267861  0.018823574   -4.4431677    1.1753067   518400 
 2672000   0.78334322   -4.4436777   -4.4436777   -3.2686651  0.015363342   -4.4436777    1.1750126   518400 
 2673000   0.78261542   -4.4441654   -4.4441654   -3.2702445  0.011046674   -4.4441654    1.1739209   518400 
 2674000   0.78321497    -4.446581    -4.446581   -3.2717608  0.017885488    -4.446581    1.1748202   518400 
 2675000    0.7829097   -4.4454728   -4.4454728   -3.2711105  0.018937589   -4.4454728    1.1743623   518400 
 2676000   0.78183205   -4.4452515   -4.4452515   -3.2725057   0.02141941   -4.4452515    1.1727458   518400 
 2677000   0.78298297   -4.4467605   -4.4467605   -3.2722883  0.022339676   -4.4467605    1.1744722   518400 
 2678000   0.78249014   -4.4475932   -4.4475932   -3.2738603  0.026095984   -4.4475932    1.1737329   518400 
 2679000   0.78386042   -4.4497042   -4.4497042   -3.2739159  0.020689022   -4.4497042    1.1757884   518400 
 2680000   0.78295309   -4.4489773   -4.4489773   -3.2745499  0.025510093   -4.4489773    1.1744274   518400 
 2681000   0.78227077   -4.4486189   -4.4486189    -3.275215  0.020275227   -4.4486189    1.1734039   518400 
 2682000   0.78165236   -4.4484696   -4.4484696   -3.2759933  0.025699764   -4.4484696    1.1724763   518400 
 2683000   0.78307887   -4.4506178   -4.4506178   -3.2760017  0.023752229   -4.4506178     1.174616   518400 
 2684000   0.78262729   -4.4508285   -4.4508285   -3.2768898  0.018915172   -4.4508285    1.1739387   518400 
 2685000   0.78379739    -4.453086    -4.453086   -3.2773922  0.021335354    -4.453086    1.1756938   518400 
 2686000   0.78244082    -4.451775    -4.451775   -3.2781161  0.020055688    -4.451775     1.173659   518400 
 2687000   0.78280331   -4.4519238   -4.4519238   -3.2777211  0.019412795   -4.4519238    1.1742027   518400 
 2688000   0.78293211   -4.4524919   -4.4524919    -3.278096  0.013533296   -4.4524919    1.1743959   518400 
 2689000   0.78278149   -4.4522389   -4.4522389    -3.278069  0.018612659   -4.4522389      1.17417   518400 
 2690000   0.78194208   -4.4524241   -4.4524241   -3.2795132  0.018629938   -4.4524241    1.1729109   518400 
 2691000   0.78167405   -4.4519008   -4.4519008    -3.279392  0.017289187   -4.4519008    1.1725088   518400 
 2692000   0.78150897   -4.4525243   -4.4525243   -3.2802631   0.01401342   -4.4525243    1.1722612   518400 
 2693000   0.78173964   -4.4537311   -4.4537311   -3.2811238  0.015059273   -4.4537311    1.1726072   518400 
 2694000    0.7810853   -4.4534252   -4.4534252   -3.2817995  0.015615582   -4.4534252    1.1716257   518400 
 2695000   0.78064621    -4.454265    -4.454265   -3.2832979  0.015160202    -4.454265    1.1709671   518400 
 2696000   0.78097352   -4.4551363   -4.4551363   -3.2836783  0.015719602   -4.4551363     1.171458   518400 
 2697000   0.78090338   -4.4560382   -4.4560382   -3.2846854  0.017443697   -4.4560382    1.1713528   518400 
 2698000   0.78062208   -4.4563885   -4.4563885   -3.2854576  0.023684945   -4.4563885    1.1709309   518400 
 2699000   0.78047439   -4.4561379   -4.4561379   -3.2854286  0.023680471   -4.4561379    1.1707093   518400 
 2700000   0.78147621   -4.4578594   -4.4578594   -3.2856474  0.019260985   -4.4578594    1.1722121   518400 
 2701000   0.78111076   -4.4589317   -4.4589317   -3.2872678  0.023091899   -4.4589317    1.1716639   518400 
 2702000   0.78064501    -4.458498    -4.458498   -3.2875328  0.023382752    -4.458498    1.1709653   518400 
 2703000   0.78039692   -4.4602946   -4.4602946   -3.2897015   0.01846157   -4.4602946    1.1705931   518400 
 2704000     0.781083   -4.4612291   -4.4612291   -3.2896069  0.015004026   -4.4612291    1.1716222   518400 
 2705000   0.78166852   -4.4619217   -4.4619217   -3.2894212  0.018261689   -4.4619217    1.1725005   518400 
 2706000   0.78125994   -4.4616564   -4.4616564   -3.2897687  0.016641742   -4.4616564    1.1718877   518400 
 2707000   0.78093563   -4.4611937   -4.4611937   -3.2897925  0.022862301   -4.4611937    1.1714012   518400 
 2708000   0.78090319   -4.4622947   -4.4622947   -3.2909422  0.020486756   -4.4622947    1.1713525   518400 
 2709000   0.78070773   -4.4630824   -4.4630824    -3.292023   0.01525487   -4.4630824    1.1710593   518400 
 2710000   0.77830611   -4.4603588   -4.4603588   -3.2929018  0.019178228   -4.4603588    1.1674569   518400 
 2711000   0.77798196   -4.4600292   -4.4600292   -3.2930586  0.021540009   -4.4600292    1.1669707   518400 
 2712000   0.77844828   -4.4619056   -4.4619056   -3.2942354  0.019367165   -4.4619056    1.1676702   518400 
 2713000   0.77922615   -4.4631775   -4.4631775   -3.2943405  0.015048343   -4.4631775     1.168837   518400 
 2714000   0.77791052   -4.4613846   -4.4613846   -3.2945211  0.019620281   -4.4613846    1.1668635   518400 
 2715000    0.7779159   -4.4628321   -4.4628321   -3.2959605  0.018945171   -4.4628321    1.1668716   518400 
 2716000   0.77800308   -4.4643022   -4.4643022   -3.2972998  0.015438372   -4.4643022    1.1670024   518400 
 2717000   0.77729029   -4.4638804   -4.4638804   -3.2979472  0.016159394   -4.4638804    1.1659332   518400 
 2718000   0.77785405   -4.4654997   -4.4654997   -3.2987209  0.014799957   -4.4654997    1.1667788   518400 
 2719000   0.77785717   -4.4660343   -4.4660343   -3.2992508  0.018690196   -4.4660343    1.1667835   518400 
 2720000   0.77811543   -4.4675232   -4.4675232   -3.3003523  0.018513149   -4.4675232    1.1671709   518400 
 2721000   0.77822854    -4.468224    -4.468224   -3.3008834  0.019278444    -4.468224    1.1673406   518400 
 2722000    0.7795482   -4.4706047   -4.4706047   -3.3012847  0.015323445   -4.4706047    1.1693201   518400 
 2723000   0.77862006   -4.4696097   -4.4696097   -3.3016819  0.021194633   -4.4696097    1.1679278   518400 
 2724000    0.7786892   -4.4710914   -4.4710914   -3.3030599  0.020850042   -4.4710914    1.1680315   518400 
 2725000   0.77892025   -4.4721013   -4.4721013   -3.3037232  0.021890535   -4.4721013    1.1683781   518400 
 2726000   0.77854385   -4.4724229   -4.4724229   -3.3046094  0.023713771   -4.4724229    1.1678135   518400 
 2727000   0.77870063   -4.4733635   -4.4733635   -3.3053148  0.022594944   -4.4733635    1.1680487   518400 
 2728000   0.77849914   -4.4733051   -4.4733051   -3.3055587   0.01722602   -4.4733051    1.1677465   518400 
 2729000   0.77702621   -4.4726836   -4.4726836   -3.3071465  0.024523259   -4.4726836    1.1655371   518400 
 2730000   0.77663044   -4.4724245   -4.4724245   -3.3074811  0.018611449   -4.4724245    1.1649434   518400 
 2731000   0.77525008   -4.4728569   -4.4728569    -3.309984  0.015710326   -4.4728569    1.1628729   518400 
 2732000   0.77683827   -4.4738675   -4.4738675   -3.3086123  0.013132831   -4.4738675    1.1652552   518400 
 2733000   0.77820295    -4.475437    -4.475437   -3.3081348 0.0096967068    -4.475437    1.1673022   518400 
 2734000   0.77638951   -4.4733672   -4.4733672   -3.3087852  0.019528453   -4.4733672     1.164582   518400 
 2735000    0.7771324   -4.4743954   -4.4743954   -3.3086991  0.013988354   -4.4743954    1.1656964   518400 
 2736000   0.77606064   -4.4738389   -4.4738389   -3.3097502  0.014977026   -4.4738389    1.1640887   518400 
 2737000   0.77567729    -4.474121    -4.474121   -3.3106073  0.019306644    -4.474121    1.1635137   518400 
 2738000   0.77560541   -4.4758359   -4.4758359     -3.31243  0.015931637   -4.4758359    1.1634059   518400 
 2739000   0.77524215   -4.4760328   -4.4760328   -3.3131718  0.017447141   -4.4760328     1.162861   518400 
 2740000    0.7754189   -4.4770778   -4.4770778   -3.3139517  0.013362475   -4.4770778    1.1631261   518400 
 2741000   0.77653873   -4.4792405   -4.4792405   -3.3144347  0.011975588   -4.4792405    1.1648059   518400 
 2742000   0.77585225   -4.4781975   -4.4781975   -3.3144214  0.019050593   -4.4781975    1.1637761   518400 
 2743000   0.77512899   -4.4780437   -4.4780437   -3.3153525  0.020791024   -4.4780437    1.1626912   518400 
 2744000   0.77532672   -4.4785905   -4.4785905   -3.3156027  0.021637726   -4.4785905    1.1629878   518400 
 2745000   0.77705089   -4.4815058   -4.4815058   -3.3159317  0.019968329   -4.4815058    1.1655741   518400 
 2746000   0.77732737   -4.4827822   -4.4827822   -3.3167933  0.021290557   -4.4827822    1.1659888   518400 
 2747000   0.77630825   -4.4820195   -4.4820195   -3.3175593  0.024970979   -4.4820195    1.1644601   518400 
 2748000   0.77506637   -4.4807258   -4.4807258   -3.3181284  0.024730923   -4.4807258    1.1625973   518400 
 2749000   0.77624968   -4.4836617   -4.4836617   -3.3192894  0.019884273   -4.4836617    1.1643723   518400 
 2750000   0.77517275   -4.4837407   -4.4837407   -3.3209838  0.022426221   -4.4837407    1.1627569   518400 
 2751000   0.77448403   -4.4820563   -4.4820563   -3.3203325  0.016130342   -4.4820563    1.1617238   518400 
 2752000   0.77397362   -4.4820376   -4.4820376   -3.3210794  0.013228668   -4.4820376    1.1609582   518400 
 2753000   0.77386914    -4.482355    -4.482355   -3.3215536  0.011690882    -4.482355    1.1608015   518400 
 2754000   0.77445518    -4.483806    -4.483806   -3.3221255  0.010625331    -4.483806    1.1616805   518400 
 2755000   0.77524081   -4.4842617   -4.4842617   -3.3214027  0.014048012   -4.4842617     1.162859   518400 
 2756000    0.7756101   -4.4844501   -4.4844501   -3.3210372   0.01475038   -4.4844501    1.1634129   518400 
 2757000   0.77421349   -4.4836742   -4.4836742   -3.3223562  0.013029172   -4.4836742     1.161318   518400 
 2758000    0.7740755   -4.4838079   -4.4838079   -3.3226969  0.013454295   -4.4838079     1.161111   518400 
 2759000    0.7740687   -4.4844917   -4.4844917   -3.3233909   0.01284138   -4.4844917    1.1611008   518400 
 2760000   0.77390946    -4.485051    -4.485051    -3.324189  0.013531599    -4.485051     1.160862   518400 
 2761000   0.77351376   -4.4845464   -4.4845464    -3.324278    0.0180845   -4.4845464    1.1602684   518400 
 2762000   0.77340744   -4.4851347   -4.4851347   -3.3250258  0.019675592   -4.4851347    1.1601089   518400 
 2763000    0.7734245   -4.4859897   -4.4859897   -3.3258552  0.015884843   -4.4859897    1.1601345   518400 
 2764000   0.77409341   -4.4874584   -4.4874584   -3.3263205  0.016865505   -4.4874584    1.1611379   518400 
 2765000   0.77422915   -4.4897789   -4.4897789   -3.3284374  0.015380653   -4.4897789    1.1613415   518400 
 2766000     0.773026   -4.4895309   -4.4895309   -3.3299941  0.018171038   -4.4895309    1.1595368   518400 
 2767000   0.77342233    -4.490052    -4.490052   -3.3299207   0.01938916    -4.490052    1.1601313   518400 
 2768000   0.77357058   -4.4913501   -4.4913501   -3.3309964  0.014401687   -4.4913501    1.1603536   518400 
 2769000   0.77324845   -4.4912884   -4.4912884   -3.3314179  0.017852489   -4.4912884    1.1598704   518400 
 2770000   0.77355268   -4.4930523   -4.4930523   -3.3327255  0.014761643   -4.4930523    1.1603268   518400 
 2771000   0.77295841   -4.4915372   -4.4915372   -3.3321018  0.020915103   -4.4915372    1.1594354   518400 
 2772000   0.77381918   -4.4928418   -4.4928418   -3.3321153  0.021836368   -4.4928418    1.1607265   518400 
 2773000   0.77375111   -4.4941877   -4.4941877   -3.3335632  0.017536237   -4.4941877    1.1606244   518400 
 2774000   0.77241301   -4.4931094   -4.4931094   -3.3344921  0.017704096   -4.4931094    1.1586173   518400 
 2775000   0.77169004   -4.4938934   -4.4938934   -3.3363606  0.019647649   -4.4938934    1.1575328   518400 
 2776000   0.77204079   -4.4943616   -4.4943616   -3.3363027  0.016534388   -4.4943616     1.158059   518400 
 2777000   0.77256918   -4.4959826   -4.4959826   -3.3371311  0.012564367   -4.4959826    1.1588515   518400 
 2778000   0.77194692   -4.4948568   -4.4948568   -3.3369386  0.016978238   -4.4948568    1.1579182   518400 
 2779000   0.77179461   -4.4960937   -4.4960937    -3.338404  0.016835292   -4.4960937    1.1576897   518400 
 2780000   0.77178913   -4.4972054   -4.4972054    -3.339524  0.018815829   -4.4972054    1.1576815   518400 
 2781000   0.77047832   -4.4955448   -4.4955448   -3.3398296  0.025938654   -4.4955448    1.1557152   518400 
 2782000   0.77141625   -4.4970665   -4.4970665   -3.3399443  0.018981416   -4.4970665    1.1571221   518400 
 2783000   0.77148205   -4.4979948   -4.4979948    -3.340774   0.01281264   -4.4979948    1.1572208   518400 
 2784000    0.7716663   -4.4993445   -4.4993445   -3.3418473  0.012779095   -4.4993445    1.1574972   518400 
 2785000   0.77178664   -4.4996188   -4.4996188   -3.3419411   0.01644605   -4.4996188    1.1576777   518400 
 2786000   0.77212219   -4.5012539   -4.5012539   -3.3430728   0.01718786   -4.5012539     1.158181   518400 
 2787000   0.77102759   -4.5001744   -4.5001744   -3.3436352  0.016673009   -4.5001744    1.1565392   518400 
 2788000   0.77149127   -4.5016506   -4.5016506    -3.344416  0.015817094   -4.5016506    1.1572347   518400 
 2789000   0.77007066   -4.5005943   -4.5005943   -3.3454905  0.015694431   -4.5005943    1.1551038   518400 
 2790000   0.77043822    -4.502414    -4.502414   -3.3467589  0.011375638    -4.502414    1.1556551   518400 
 2791000   0.77078288    -4.503185    -4.503185   -3.3470129  0.015359366    -4.503185    1.1561721   518400 
 2792000   0.76986612    -4.502394    -4.502394   -3.3475971  0.018180333    -4.502394     1.154797   518400 
 2793000   0.76942025   -4.5013748   -4.5013748   -3.3472466  0.020156144   -4.5013748    1.1541281   518400 
 2794000   0.76993081   -4.5024947   -4.5024947   -3.3476007  0.023562626   -4.5024947     1.154894   518400 
 2795000   0.76985328   -4.5042003   -4.5042003   -3.3494226  0.016162583   -4.5042003    1.1547777   518400 
 2796000   0.76869451   -4.5034146   -4.5034146   -3.3503751  0.021652697   -4.5034146    1.1530395   518400 
 2797000   0.76949796   -4.5051547   -4.5051547     -3.35091  0.013004903   -4.5051547    1.1542447   518400 
 2798000   0.77013265   -4.5079038   -4.5079038    -3.352707  0.018243276   -4.5079038    1.1551967   518400 
 2799000   0.76969851   -4.5075525   -4.5075525    -3.353007  0.022208966   -4.5075525    1.1545455   518400 
 2800000   0.76906025   -4.5094195   -4.5094195   -3.3558314  0.017852468   -4.5094195    1.1535881   518400 
 2801000   0.76961173   -4.5101986   -4.5101986   -3.3557832  0.016191752   -4.5101986    1.1544154   518400 
 2802000   0.76891015   -4.5090876   -4.5090876   -3.3557246  0.020848561   -4.5090876     1.153363   518400 
 2803000   0.76923356   -4.5114734   -4.5114734   -3.3576253   0.01809909   -4.5114734    1.1538481   518400 
 2804000   0.76915404   -4.5113062   -4.5113062   -3.3575773  0.019039603   -4.5113062    1.1537288   518400 
 2805000   0.76935644   -4.5123492   -4.5123492   -3.3583167  0.020616466   -4.5123492    1.1540324   518400 
 2806000   0.77000827   -4.5136513   -4.5136513   -3.3586412   0.02218129   -4.5136513    1.1550102   518400 
 2807000   0.76883806   -4.5126809   -4.5126809   -3.3594261   0.02127551   -4.5126809    1.1532549   518400 
 2808000   0.76802317   -4.5130324   -4.5130324   -3.3609999  0.019592613   -4.5130324    1.1520325   518400 
 2809000   0.76903378   -4.5152042   -4.5152042   -3.3616558  0.018519973   -4.5152042    1.1535484   518400 
 2810000   0.76833487   -4.5137835   -4.5137835   -3.3612835  0.017852655   -4.5137835    1.1525001   518400 
 2811000   0.76801055   -4.5125677   -4.5125677   -3.3605541  0.017977072   -4.5125677    1.1520136   518400 
 2812000   0.76939607   -4.5160493   -4.5160493   -3.3619574  0.015294536   -4.5160493    1.1540919   518400 
 2813000   0.76841255   -4.5145493   -4.5145493   -3.3619327   0.00943179   -4.5145493    1.1526166   518400 
 2814000   0.76808686   -4.5136274   -4.5136274   -3.3614993   0.01564467   -4.5136274    1.1521281   518400 
 2815000   0.76845301   -4.5154339   -4.5154339   -3.3627566  0.013426145   -4.5154339    1.1526773   518400 
 2816000   0.76769802   -4.5148912   -4.5148912   -3.3633464  0.013368844   -4.5148912    1.1515448   518400 
 2817000   0.76744287   -4.5140735   -4.5140735   -3.3629114  0.014467672   -4.5140735    1.1511621   518400 
 2818000    0.7675437   -4.5154834   -4.5154834   -3.3641701 0.0090744612   -4.5154834    1.1513133   518400 
 2819000   0.76717588   -4.5148854   -4.5148854   -3.3641238  0.021052323   -4.5148854    1.1507616   518400 
 2820000   0.76808094   -4.5168772   -4.5168772    -3.364758  0.015511126   -4.5168772    1.1521192   518400 
 2821000   0.76852664   -4.5178658   -4.5178658   -3.3650781  0.015575413   -4.5178658    1.1527877   518400 
 2822000   0.76849466   -4.5181016   -4.5181016   -3.3653618  0.013258194   -4.5181016    1.1527398   518400 
 2823000   0.76767176   -4.5176407   -4.5176407   -3.3661353  0.017954484   -4.5176407    1.1515054   518400 
 2824000   0.76740131   -4.5170662   -4.5170662   -3.3659664  0.020233915   -4.5170662    1.1510997   518400 
 2825000   0.76801747   -4.5188235   -4.5188235   -3.3667995  0.018197258   -4.5188235     1.152024   518400 
 2826000    0.7679665   -4.5192882   -4.5192882   -3.3673407  0.021324374   -4.5192882    1.1519475   518400 
 2827000   0.76852006   -4.5203943   -4.5203943   -3.3676165  0.019760645   -4.5203943    1.1527779   518400 
 2828000    0.7678851   -4.5194312   -4.5194312   -3.3676058  0.017838181   -4.5194312    1.1518254   518400 
 2829000   0.76680371   -4.5199022   -4.5199022   -3.3696988  0.012994074   -4.5199022    1.1502033   518400 
 2830000   0.76634469   -4.5200859   -4.5200859    -3.370571  0.015317301   -4.5200859    1.1495148   518400 
 2831000   0.76612147   -4.5196184   -4.5196184   -3.3704384  0.014506524   -4.5196184      1.14918   518400 
 2832000   0.76545546   -4.5186524   -4.5186524   -3.3704714  0.014218518   -4.5186524     1.148181   518400 
 2833000    0.7670711   -4.5216775   -4.5216775   -3.3710731  0.010429518   -4.5216775    1.1506044   518400 
 2834000   0.76593915   -4.5220158   -4.5220158   -3.3731093  0.012245553   -4.5220158    1.1489065   518400 
 2835000   0.76593311   -4.5236006   -4.5236006   -3.3747032  0.012110797   -4.5236006    1.1488974   518400 
 2836000   0.76605553   -4.5242029   -4.5242029   -3.3751218 0.0098951428   -4.5242029    1.1490811   518400 
 2837000   0.76507806    -4.524464    -4.524464   -3.3768492  0.014532614    -4.524464    1.1476149   518400 
 2838000   0.76464845   -4.5245589   -4.5245589   -3.3775884  0.015661639   -4.5245589    1.1469705   518400 
 2839000   0.76599606    -4.526662    -4.526662   -3.3776701  0.017229413    -4.526662    1.1489919   518400 
 2840000   0.76601591   -4.5265603   -4.5265603   -3.3775387   0.02302733   -4.5265603    1.1490216   518400 
 2841000    0.7669784    -4.528453    -4.528453   -3.3779877  0.022714189    -4.528453    1.1504654   518400 
 2842000   0.76734845   -4.5294309   -4.5294309   -3.3784104  0.022953759   -4.5294309    1.1510205   518400 
 2843000   0.76901427   -4.5324973   -4.5324973   -3.3789782  0.015128536   -4.5324973    1.1535192   518400 
 2844000   0.76647491   -4.5304762   -4.5304762    -3.380766  0.016712583   -4.5304762    1.1497101   518400 
 2845000   0.76488883   -4.5293515   -4.5293515   -3.3820205  0.016198224   -4.5293515     1.147331   518400 
 2846000   0.76370262   -4.5283388   -4.5283388   -3.3827871  0.016914263   -4.5283388    1.1455517   518400 
 2847000   0.76456217   -4.5300399   -4.5300399   -3.3831988  0.012369722   -4.5300399     1.146841   518400 
 2848000   0.76372143   -4.5301813   -4.5301813   -3.3846014  0.013377772   -4.5301813    1.1455799   518400 
 2849000   0.76369807   -4.5302212   -4.5302212   -3.3846763  0.013271793   -4.5302212    1.1455449   518400 
 2850000   0.76339196   -4.5300391   -4.5300391   -3.3849534  0.011209634   -4.5300391    1.1450857   518400 
 2851000   0.76292472   -4.5296458   -4.5296458   -3.3852609  0.012198002   -4.5296458    1.1443849   518400 
 2852000   0.76342995   -4.5312647   -4.5312647    -3.386122  0.011891841   -4.5312647    1.1451427   518400 
 2853000   0.76333705   -4.5316478   -4.5316478   -3.3866445  0.013771169   -4.5316478    1.1450034   518400 
 2854000   0.76486104   -4.5330947   -4.5330947   -3.3858053  0.017806052   -4.5330947    1.1472893   518400 
 2855000   0.76451525    -4.533593    -4.533593   -3.3868224  0.016084972    -4.533593    1.1467707   518400 
 2856000   0.76412975   -4.5333612   -4.5333612   -3.3871688  0.021673653   -4.5333612    1.1461924   518400 
 2857000   0.76496729    -4.535396    -4.535396   -3.3879473  0.023308125    -4.535396    1.1474487   518400 
 2858000   0.76268698   -4.5346262   -4.5346262    -3.390598  0.019077049   -4.5346262    1.1440283   518400 
 2859000   0.76270839   -4.5348414   -4.5348414    -3.390781   0.01894035   -4.5348414    1.1440604   518400 
 2860000   0.76393748   -4.5374454   -4.5374454   -3.3915414  0.016176564   -4.5374454     1.145904   518400 
 2861000   0.76515227   -4.5401814   -4.5401814   -3.3924552  0.011990865   -4.5401814    1.1477262   518400 
 2862000   0.76344855   -4.5376634   -4.5376634   -3.3924928  0.017166858   -4.5376634    1.1451706   518400 
 2863000   0.76333415   -4.5378794   -4.5378794   -3.3928804  0.018189239   -4.5378794     1.144999   518400 
 2864000     0.762268   -4.5372587   -4.5372587   -3.3938589  0.016746386   -4.5372587    1.1433998   518400 
 2865000   0.76359043   -4.5406784   -4.5406784    -3.395295  0.013334787   -4.5406784    1.1453834   518400 
 2866000    0.7633273   -4.5408068   -4.5408068    -3.395818  0.012032059   -4.5408068    1.1449887   518400 
 2867000    0.7618595   -4.5388279   -4.5388279   -3.3960409  0.013876688   -4.5388279    1.1427871   518400 
 2868000   0.76112249   -4.5377641   -4.5377641   -3.3960826  0.016079926   -4.5377641    1.1416815   518400 
 2869000   0.75989432   -4.5369482   -4.5369482   -3.3971089  0.024306654   -4.5369482    1.1398393   518400 
 2870000   0.76229627   -4.5410749   -4.5410749   -3.3976327  0.015846586   -4.5410749    1.1434422   518400 
 2871000   0.76147899    -4.540845    -4.540845   -3.3986287  0.016427592    -4.540845    1.1422163   518400 
 2872000   0.76238435   -4.5422873   -4.5422873   -3.3987129  0.012013151   -4.5422873    1.1435743   518400 
 2873000     0.761645   -4.5414669   -4.5414669   -3.3990016  0.015058118   -4.5414669    1.1424653   518400 
 2874000   0.76023858   -4.5407621   -4.5407621   -3.4004064  0.020456914   -4.5407621    1.1403557   518400 
 2875000   0.76033264    -4.541799    -4.541799   -3.4013022  0.017690949    -4.541799    1.1404968   518400 
 2876000    0.7615886   -4.5435353   -4.5435353   -3.4011546  0.014290362   -4.5435353    1.1423807   518400 
 2877000   0.76107792   -4.5433205   -4.5433205   -3.4017058  0.022222971   -4.5433205    1.1416147   518400 
 2878000    0.7619378   -4.5457425   -4.5457425    -3.402838  0.015278699   -4.5457425    1.1429045   518400 
 2879000   0.76179541   -4.5459704   -4.5459704   -3.4032795  0.015893634   -4.5459704    1.1426909   518400 
 2880000    0.7615919   -4.5467736   -4.5467736    -3.404388   0.01498289   -4.5467736    1.1423856   518400 
 2881000   0.76206271   -4.5476339   -4.5476339   -3.4045421  0.014427087   -4.5476339    1.1430919   518400 
 2882000   0.76141946   -4.5479161   -4.5479161   -3.4057891  0.015240994   -4.5479161     1.142127   518400 
 2883000   0.76108953   -4.5476529   -4.5476529   -3.4060208  0.013037742   -4.5476529    1.1416321   518400 
 2884000   0.75994984   -4.5478452   -4.5478452   -3.4079227    0.0118612   -4.5478452    1.1399226   518400 
 2885000   0.76085636   -4.5496184   -4.5496184   -3.4083361  0.014158215   -4.5496184    1.1412823   518400 
 2886000   0.76110219   -4.5502197   -4.5502197   -3.4085687  0.011736725   -4.5502197    1.1416511   518400 
 2887000   0.76131183   -4.5507652   -4.5507652   -3.4087997  0.017986486   -4.5507652    1.1419655   518400 
 2888000   0.76105215   -4.5513269   -4.5513269   -3.4097509  0.018717392   -4.5513269     1.141576   518400 
 2889000   0.76059669   -4.5522844   -4.5522844   -3.4113915  0.018204617   -4.5522844    1.1408928   518400 
 2890000   0.75917668   -4.5507814   -4.5507814   -3.4120186  0.017335157   -4.5507814    1.1387628   518400 
 2891000   0.75963876   -4.5521047   -4.5521047   -3.4126487  0.016208707   -4.5521047    1.1394559   518400 
 2892000   0.75963354   -4.5524175   -4.5524175   -3.4129694  0.015425381   -4.5524175    1.1394481   518400 
 2893000   0.76061974   -4.5545757   -4.5545757   -3.4136483 0.0094472076   -4.5545757    1.1409274   518400 
 2894000   0.76018175   -4.5546412   -4.5546412   -3.4143708  0.015436596   -4.5546412    1.1402704   518400 
 2895000   0.76071905   -4.5546742   -4.5546742   -3.4135979   0.01513861   -4.5546742    1.1410764   518400 
 2896000   0.75975476   -4.5540842   -4.5540842   -3.4144542  0.017270921   -4.5540842    1.1396299   518400 
 2897000   0.75983569   -4.5549297   -4.5549297   -3.4151783  0.016602633   -4.5549297    1.1397513   518400 
 2898000   0.75932366   -4.5546697   -4.5546697   -3.4156864   0.01229498   -4.5546697    1.1389833   518400 
 2899000   0.75983621   -4.5564097   -4.5564097   -3.4166576 0.0085427614   -4.5564097    1.1397521   518400 
 2900000   0.75863136   -4.5563771   -4.5563771   -3.4184323  0.011177756   -4.5563771    1.1379449   518400 
 2901000   0.75726439   -4.5553622   -4.5553622   -3.4194678  0.013575005   -4.5553622    1.1358944   518400 
 2902000   0.75761858   -4.5553423   -4.5553423   -3.4189166  0.013648356   -4.5553423    1.1364257   518400 
 2903000   0.75784471   -4.5568378   -4.5568378   -3.4200729  0.011941713   -4.5568378    1.1367649   518400 
 2904000   0.75820976   -4.5571482   -4.5571482   -3.4198357  0.017716541   -4.5571482    1.1373125   518400 
 2905000   0.75724998   -4.5567884   -4.5567884   -3.4209156  0.018226553   -4.5567884    1.1358728   518400 
 2906000   0.75819783   -4.5590835   -4.5590835    -3.421789  0.018970956   -4.5590835    1.1372946   518400 
 2907000   0.75850087   -4.5593527   -4.5593527   -3.4216036  0.019605284   -4.5593527    1.1377491   518400 
 2908000   0.75768377   -4.5595021   -4.5595021   -3.4229787  0.020606509   -4.5595021    1.1365235   518400 
 2909000   0.75857431   -4.5618852   -4.5618852   -3.4240259  0.015754631   -4.5618852    1.1378593   518400 
 2910000   0.75752416   -4.5599054   -4.5599054   -3.4236213  0.023276673   -4.5599054    1.1362841   518400 
 2911000   0.75847471   -4.5625195   -4.5625195   -3.4248096  0.015783547   -4.5625195    1.1377099   518400 
 2912000     0.758172   -4.5624381   -4.5624381   -3.4251823  0.022461279   -4.5624381    1.1372558   518400 
 2913000   0.75771196    -4.561173    -4.561173   -3.4246072   0.01495565    -4.561173    1.1365657   518400 
 2914000   0.75784867   -4.5618031   -4.5618031   -3.4250323  0.015466734   -4.5618031    1.1367708   518400 
 2915000   0.75800292   -4.5638309   -4.5638309   -3.4268288  0.015032333   -4.5638309    1.1370022   518400 
 2916000    0.7567383   -4.5624224   -4.5624224   -3.4273171 0.0090605046   -4.5624224    1.1351053   518400 
 2917000   0.75739009   -4.5629381   -4.5629381   -3.4268551  0.010348182   -4.5629381    1.1360829   518400 
 2918000   0.75802418   -4.5646138   -4.5646138   -3.4275797  0.011744455   -4.5646138    1.1370341   518400 
 2919000   0.75549612   -4.5622492   -4.5622492   -3.4290072  0.012252466   -4.5622492     1.133242   518400 
 2920000   0.75619703    -4.563652    -4.563652   -3.4293587  0.011449207    -4.563652    1.1342934   518400 
 2921000   0.75644439   -4.5639369   -4.5639369   -3.4292725  0.018460364   -4.5639369    1.1346644   518400 
 2922000    0.7572407   -4.5659005   -4.5659005   -3.4300416  0.010290262   -4.5659005    1.1358589   518400 
 2923000   0.75668853   -4.5668425   -4.5668425   -3.4318119  0.010682863   -4.5668425    1.1350306   518400 
 2924000   0.75665761   -4.5664343   -4.5664343   -3.4314501  0.011782482   -4.5664343    1.1349842   518400 
 2925000   0.75662147   -4.5677029   -4.5677029   -3.4327728   0.01226906   -4.5677029      1.13493   518400 
 2926000   0.75622336    -4.567252    -4.567252   -3.4329192  0.019740991    -4.567252    1.1343329   518400 
 2927000    0.7559342   -4.5687969   -4.5687969   -3.4348978  0.018134169   -4.5687969    1.1338991   518400 
 2928000   0.75617638   -4.5701588   -4.5701588   -3.4358965  0.013706594   -4.5701588    1.1342624   518400 
 2929000   0.75445852   -4.5679144   -4.5679144   -3.4362288  0.019704533   -4.5679144    1.1316856   518400 
 2930000   0.75548112   -4.5704115   -4.5704115    -3.437192  0.017485346   -4.5704115    1.1332195   518400 
 2931000   0.75596265   -4.5723258   -4.5723258    -3.438384   0.01506034   -4.5723258    1.1339418   518400 
 2932000   0.75535107   -4.5715422   -4.5715422   -3.4385178  0.017746007   -4.5715422    1.1330244   518400 
 2933000   0.75557084   -4.5729016   -4.5729016   -3.4395475  0.015445416   -4.5729016    1.1333541   518400 
 2934000   0.75421835   -4.5724327   -4.5724327   -3.4411073  0.011768875   -4.5724327    1.1313253   518400 
 2935000   0.75478905   -4.5731106   -4.5731106   -3.4409292  0.015619451   -4.5731106    1.1321814   518400 
 2936000   0.75422938   -4.5730467   -4.5730467   -3.4417048  0.015578242   -4.5730467    1.1313419   518400 
 2937000   0.75453108   -4.5745233   -4.5745233   -3.4427288  0.013401421   -4.5745233    1.1317944   518400 
 2938000   0.75469199   -4.5746987   -4.5746987   -3.4426629  0.015514278   -4.5746987    1.1320358   518400 
 2939000   0.75446461   -4.5748488   -4.5748488   -3.4431541  0.010774206   -4.5748488    1.1316947   518400 
 2940000   0.75557778   -4.5763134   -4.5763134    -3.442949  0.013486487   -4.5763134    1.1333645   518400 
 2941000   0.75491151   -4.5758848   -4.5758848   -3.4435197  0.017247263   -4.5758848    1.1323651   518400 
 2942000   0.75282964   -4.5740174   -4.5740174   -3.4447751   0.01738317   -4.5740174    1.1292423   518400 
 2943000   0.75481489   -4.5780101   -4.5780101     -3.44579  0.015992415   -4.5780101    1.1322202   518400 
 2944000   0.75306229   -4.5761029   -4.5761029   -3.4465116  0.017089607   -4.5761029    1.1295913   518400 
 2945000    0.7536306    -4.577459    -4.577459   -3.4470153  0.015102062    -4.577459    1.1304437   518400 
 2946000   0.75414201   -4.5784647   -4.5784647   -3.4472539  0.016597994   -4.5784647    1.1312108   518400 
 2947000   0.75395493   -4.5782136   -4.5782136   -3.4472834  0.014480936   -4.5782136    1.1309302   518400 
 2948000   0.75467914   -4.5795906   -4.5795906    -3.447574  0.015159062   -4.5795906    1.1320165   518400 
 2949000   0.75411511   -4.5810352   -4.5810352   -3.4498647  0.013609661   -4.5810352    1.1311705   518400 
 2950000   0.75367206   -4.5808052   -4.5808052   -3.4502993   0.01290309   -4.5808052    1.1305059   518400 
 2951000   0.75435332   -4.5815132   -4.5815132   -3.4499854  0.018967878   -4.5815132    1.1315278   518400 
 2952000   0.75291222   -4.5802868   -4.5802868   -3.4509206  0.018190096   -4.5802868    1.1293661   518400 
 2953000   0.75291916   -4.5812343   -4.5812343   -3.4518577  0.015224617   -4.5812343    1.1293766   518400 
 2954000   0.75312256   -4.5828168   -4.5828168   -3.4531352  0.012652242   -4.5828168    1.1296817   518400 
 2955000   0.75212403   -4.5819116   -4.5819116   -3.4537277  0.011393685   -4.5819116    1.1281839   518400 
 2956000   0.75320834   -4.5837017   -4.5837017   -3.4538914  0.011538677   -4.5837017    1.1298103   518400 
 2957000   0.75152516   -4.5824454   -4.5824454   -3.4551598  0.014708547   -4.5824454    1.1272856   518400 
 2958000   0.75229476   -4.5843834   -4.5843834   -3.4559434  0.015105281   -4.5843834      1.12844   518400 
 2959000   0.75246283   -4.5853738   -4.5853738   -3.4566817  0.011958442   -4.5853738    1.1286921   518400 
 2960000   0.75248489   -4.5860803   -4.5860803   -3.4573551  0.010679213   -4.5860803    1.1287252   518400 
 2961000   0.75157393   -4.5850684   -4.5850684   -3.4577097  0.016282089   -4.5850684    1.1273587   518400 
 2962000   0.75209703   -4.5873483   -4.5873483   -3.4592049  0.012227293   -4.5873483    1.1281434   518400 
 2963000   0.75264507   -4.5884437   -4.5884437   -3.4594783  0.015350282   -4.5884437    1.1289654   518400 
 2964000   0.75254006   -4.5874027   -4.5874027   -3.4585948   0.01830948   -4.5874027    1.1288079   518400 
 2965000    0.7525537    -4.588708    -4.588708   -3.4598797  0.020256234    -4.588708    1.1288284   518400 
 2966000   0.75116265   -4.5869412   -4.5869412   -3.4601994  0.019162541   -4.5869412    1.1267418   518400 
 2967000   0.75197248   -4.5888113   -4.5888113   -3.4608548  0.017377309   -4.5888113    1.1279565   518400 
 2968000   0.75398704   -4.5921586   -4.5921586   -3.4611802  0.015255504   -4.5921586    1.1309784   518400 
 2969000   0.75277922   -4.5912434   -4.5912434   -3.4620767  0.011400656   -4.5912434    1.1291666   518400 
 2970000   0.75282173   -4.5912641   -4.5912641   -3.4620337  0.014511332   -4.5912641    1.1292304   518400 
 2971000   0.75106275   -4.5893927   -4.5893927   -3.4628008  0.013373161   -4.5893927     1.126592   518400 
 2972000   0.74994266   -4.5889144   -4.5889144   -3.4640026   0.01245355   -4.5889144    1.1249118   518400 
 2973000   0.75020864   -4.5893311   -4.5893311   -3.4640203  0.011361457   -4.5893311    1.1253108   518400 
 2974000   0.75043272   -4.5891111   -4.5891111   -3.4634642  0.012433317   -4.5891111    1.1256469   518400 
 2975000   0.75169682   -4.5919891   -4.5919891   -3.4644461  0.010517684   -4.5919891    1.1275431   518400 
 2976000   0.75194851   -4.5919994   -4.5919994   -3.4640788  0.010278524   -4.5919994    1.1279206   518400 
 2977000   0.74967857   -4.5903923   -4.5903923   -3.4658766 0.0092578578   -4.5903923    1.1245157   518400 
 2978000   0.74921944   -4.5912031   -4.5912031   -3.4673761  0.013518061   -4.5912031     1.123827   518400 
 2979000    0.7493755    -4.591962    -4.591962   -3.4679009  0.012505037    -4.591962    1.1240611   518400 
 2980000   0.74960502   -4.5939521   -4.5939521   -3.4695467 0.0056119251   -4.5939521    1.1244054   518400 
 2981000   0.75076731   -4.5960049   -4.5960049   -3.4698561  0.010943532   -4.5960049    1.1261488   518400 
 2982000   0.75079925    -4.595726    -4.595726   -3.4695293  0.013100296    -4.595726    1.1261967   518400 
 2983000   0.75063519   -4.5970181   -4.5970181   -3.4710675  0.015517942   -4.5970181    1.1259506   518400 
 2984000   0.74999634   -4.5970769   -4.5970769   -3.4720846  0.015919089   -4.5970769    1.1249923   518400 
 2985000   0.75082855   -4.5983352   -4.5983352   -3.4720946  0.015910131   -4.5983352    1.1262406   518400 
 2986000   0.75114678   -4.5992075   -4.5992075   -3.4724896  0.017020507   -4.5992075     1.126718   518400 
 2987000   0.74964006   -4.5990204   -4.5990204   -3.4745625   0.01545607   -4.5990204    1.1244579   518400 
 2988000   0.74961195   -4.5991124   -4.5991124   -3.4746967  0.016426261   -4.5991124    1.1244158   518400 
 2989000   0.74982929   -4.5993115   -4.5993115   -3.4745697  0.018244912   -4.5993115    1.1247418   518400 
 2990000   0.74896439   -4.5989888   -4.5989888   -3.4755443  0.020627344   -4.5989888    1.1234444   518400 
 2991000     0.748962   -4.6003573   -4.6003573   -3.4769165   0.01344124   -4.6003573    1.1234408   518400 
 2992000   0.74836689   -4.5994046   -4.5994046   -3.4768564  0.017804837   -4.5994046    1.1225482   518400 
 2993000   0.74882085   -4.6014082   -4.6014082   -3.4781791 0.0081891574   -4.6014082    1.1232291   518400 
 2994000   0.74874503    -4.600676    -4.600676   -3.4775607  0.016643397    -4.600676    1.1231154   518400 
 2995000   0.74826418   -4.6002378   -4.6002378   -3.4778437  0.013572917   -4.6002378    1.1223941   518400 
 2996000   0.74816681   -4.6008875   -4.6008875   -3.4786394  0.013222633   -4.6008875    1.1222481   518400 
 2997000   0.74811053   -4.6012699   -4.6012699   -3.4791063  0.018282068   -4.6012699    1.1221636   518400 
 2998000   0.74808954   -4.6024019   -4.6024019   -3.4802697   0.01534711   -4.6024019    1.1221322   518400 
 2999000   0.74841375   -4.6039503   -4.6039503   -3.4813318  0.010368447   -4.6039503    1.1226185   518400 
 3000000   0.74786104   -4.6046915   -4.6046915   -3.4829021 0.0084365418   -4.6046915    1.1217894   518400 
Loop time of 20382.5 on 48 procs for 3000000 steps with 518400 atoms

Performance: 63583.825 tau/day, 147.185 timesteps/s
94.4% CPU use with 48 MPI tasks x 1 OpenMP threads

MPI task timing breakdown:
Section |  min time  |  avg time  |  max time  |%varavg|  %CPU | %total
-----------------------------------------------------------------------
Pair    | 8524.6     | 10732      | 11522      | 891.4 |  98.3 | 52.65
Bond    | 2.2204     | 2.346      | 2.5722     |   4.1 | 100.0 |  0.01
Neigh   | 3926.5     | 4771       | 5075.1     | 495.1 |  99.6 | 23.41
Comm    | 2354.3     | 3832.2     | 7015.6     |2247.0 |  82.6 | 18.80
Output  | 79.899     | 80.434     | 80.451     |   0.9 |  71.8 |  0.39
Modify  | 419.88     | 672.58     | 1723.5     |1631.0 |  88.3 |  3.30
Other   |            | 291.9      |            |       |       |  1.43

Nlocal:        10800.0 ave       11074 max        9121 min
Histogram: 2 2 2 0 0 0 0 0 0 42
Nghost:        9988.00 ave       11112 max        6840 min
Histogram: 6 0 6 0 0 0 0 0 0 36
Neighs:        400039.0 ave      432828 max      265629 min
Histogram: 5 1 0 0 0 0 0 0 19 23

Total # of neighbors = 19201883
Ave neighs/atom = 37.040669
Ave special neighs/atom = 0.0000000
Neighbor list builds = 300000
Dangerous builds = 296999

write_data	data.lj
System init for write_data ...
WARNING: Not all mixed pair coeffs generated from mixing. Use write_data with 'pair ij' option to store all pair coeffs. (src/write_data.cpp:312)
Total wall time: 5:39:43
