LAMMPS (24 Dec 2020)
OMP_NUM_THREADS environment is not set. Defaulting to 1 thread. (src/comm.cpp:94)
  using 1 OpenMP thread(s) per MPI task
# Simple rigid body system
# needed variables: startTemp, temp

units		lj
atom_style	full
dimension 	3
boundary	p p f
pair_style	lj/cut/opt 2.5

variable 	gcmcdisplace	equal 0
variable 	sigma		equal 1.0
variable 	epsilon 	equal 1.0


read_restart	restart.dat.3000000
Reading restart file ...
  restart file = 24 Dec 2020, LAMMPS = 24 Dec 2020
WARNING: Restart file used different # of processors: 48 vs. 192 (src/read_restart.cpp:697)
  restoring atom style full from restart
  orthogonal box = (0.0000000 0.0000000 0.0000000) to (80.000000 80.000000 160.00000)
  6 by 4 by 8 MPI processor grid
  restoring pair style lj/cut/opt from restart
  439061 atoms
Finding 1-2 1-3 1-4 neighbors ...
  special bond factors lj:    0        0        0       
  special bond factors coul:  0        0        0       
     0 = max # of 1-2 neighbors
     0 = max # of 1-3 neighbors
     0 = max # of 1-4 neighbors
     1 = max # of special neighbors
  special bonds CPU = 1.549 seconds
  read_restart CPU = 1.856 seconds

mass		1 1.0
mass		2 1.0
mass		3 1.0


group		solvent type 1
439061 atoms in group solvent


neighbor 	0.4 bin

pair_coeff	1 1 1.0 1.0
pair_coeff	2 2 0.0 0.0
pair_coeff	3 3 0.0 0.0
pair_coeff	2 3 0.0 0.0
pair_coeff	1 2*3 0.0 0.0

pair_modify 	shift yes


balance 	1.05 shift z 10 1.05
Balancing ...
Neighbor list info ...
  update every 1 steps, delay 10 steps, check yes
  max neighbors/atom: 2000, page size: 100000
  master list distance cutoff = 2.9
  ghost atom cutoff = 2.9
  binsize = 1.45, bins = 56 56 111
  1 neighbor lists, perpetual/occasional/extra = 1 0 0
  (1) pair lj/cut/opt, perpetual
      attributes: half, newton on
      pair build: half/bin/newton
      stencil: half/bin/3d/newton
      bin: standard
 rebalancing time: 0.029 seconds
  iteration count = 5
  initial/final maximal load/proc = 3162.0000 2575.0000
  initial/final imbalance factor  = 1.3827327 1.1260394
  x cuts: 0.0000000 0.16666667 0.33333333 0.50000000 0.66666667 0.83333333 1.0000000
  y cuts: 0.0000000 0.25000000 0.50000000 0.75000000 1.0000000
  z cuts: 0.0000000 0.097656250 0.18359375 0.27734375 0.37890625 0.47656250 0.57031250 0.67968750 1.0000000


####################### WALLS ###########################


variable       epsilonWall equal 2*${epsilon}
variable       epsilonWall equal 2*1

variable       cutoffTop   equal   0.7147*${sigma}
variable       cutoffTop   equal   0.7147*1

variable       cutoffLow   equal   3*${sigma}
variable       cutoffLow   equal   3*1


fix            topWall all wall/lj93 zhi EDGE                ${epsilonWall} ${sigma} ${cutoffTop} units box
fix            topWall all wall/lj93 zhi EDGE                2 ${sigma} ${cutoffTop} units box
fix            topWall all wall/lj93 zhi EDGE                2 1 ${cutoffTop} units box
fix            topWall all wall/lj93 zhi EDGE                2 1 0.7147 units box

fix            lowWall all wall/lj93 zlo EDGE                ${epsilonWall} ${sigma} ${cutoffLow} units box
fix            lowWall all wall/lj93 zlo EDGE                2 ${sigma} ${cutoffLow} units box
fix            lowWall all wall/lj93 zlo EDGE                2 1 ${cutoffLow} units box
fix            lowWall all wall/lj93 zlo EDGE                2 1 3 units box


###################### COMPUTES ##########################

compute        bin1 solvent chunk/atom bin/1d z upper 1.0



######################	FIXES ############################


fix 		peclet solvent ave/chunk 1000 1 1000 bin1 density/number norm 		 none ave one file density.profile

fix 		 temp solvent ave/chunk 1000 1 1000 bin1 temp norm none ave one file temp.profile

fix 		2 solvent nve

## Thermostat


region		regthermo block EDGE EDGE EDGE EDGE 0 20

group 		thermo dynamic solvent region regthermo every 1000
dynamic group thermo defined

fix 		3 thermo langevin ${startTemp} ${temp} 10 156453
fix 		3 thermo langevin 1.0 ${temp} 10 156453
fix 		3 thermo langevin 1.0 1.0 10 156453


## Evaporation

region		regevap block EDGE EDGE EDGE EDGE 140 158
fix 		gcmc solvent gcmc 100 100 0 1 780493 ${temp} ${mu} ${gcmcdisplace} region regevap
fix 		gcmc solvent gcmc 100 100 0 1 780493 1.0 ${mu} ${gcmcdisplace} region regevap
fix 		gcmc solvent gcmc 100 100 0 1 780493 1.0 -3.1 ${gcmcdisplace} region regevap
fix 		gcmc solvent gcmc 100 100 0 1 780493 1.0 -3.1 0 region regevap


#### Load balancing

fix 		bal all balance 1000 1.05 shift z 10 1.05

############### Diagnostics and computes ###################
#compute 	com cube	  rigid/local	1 mol x y z
#compute 	quat cube	  rigid/local	1 mol quatw quati quatj quatk

thermo 		1000
thermo_style 	custom step temp epair etotal press pe ke atoms

dump		1 all custom 100000 dump.lammpstrj id mol type x y z
dump 		2 all image 10000 image.*.png type type
dump 		3 all movie 1000 movie.avi type type
#dump 		com cube local 1000 dump.*.xyz c_com[*]
#dump		quat cube      local 1000 dump.*.quat c_quat[*]


restart 	1000000 restart.dat
timestep 	0.005
timer 		full
New timer settings: style=full  mode=nosync  timeout=off


run		5000000
Per MPI rank memory allocation (min/avg/max) = 9.923 | 9.986 | 10.01 Mbytes
Step Temp E_pair TotEng Press PotEng KinEng Atoms 
 3000000     1.016004   -3.1352716   -1.6112691  0.079025997   -3.1352716    1.5240025   439061 
 3001000     1.015246   -3.1349231   -1.6120575  0.073930467   -3.1349231    1.5228656   439061 
 3002000    1.0159274   -3.1373036   -1.6134368  0.072846657   -3.1373036    1.5238668   439067 
 3003000    1.0143619   -3.1350083   -1.6134099  0.075580989   -3.1350083    1.5215984   439044 
 3004000    1.0136201   -3.1347345   -1.6142109  0.076194489   -3.1347345    1.5205236   439033 
 3005000    1.0142553   -3.1355303   -1.6140329  0.075778968   -3.1355303    1.5214974   439027 
 3006000    1.0145064   -3.1350389   -1.6130852  0.077197924   -3.1350389    1.5219537   439004 
 3007000    1.0143298   -3.1349842   -1.6131222  0.076828346   -3.1349842    1.5218621   438954 
 3008000    1.0133877   -3.1357631   -1.6151204  0.074931516   -3.1357631    1.5206426   438898 
 3009000    1.0149491   -3.1374435   -1.6144162  0.073848446   -3.1374435    1.5230273   438886 
 3010000    1.0144828   -3.1374077   -1.6150073  0.074570457   -3.1374077    1.5224003   438865 
 3011000    1.0157697   -3.1389049   -1.6145872  0.078579629   -3.1389049    1.5243177   438869 
 3012000    1.0148008   -3.1391543   -1.6160859  0.074421532   -3.1391543    1.5230684   438810 
 3013000    1.0150578   -3.1395615   -1.6160622  0.074027202   -3.1395615    1.5234993   438797 
 3014000    1.0142118   -3.1367191   -1.6144584  0.081415546   -3.1367191    1.5222607   438788 
 3015000    1.0140152   -3.1375364   -1.6155915  0.078099455   -3.1375364    1.5219448   438794 
 3016000    1.0149711   -3.1391977   -1.6157278  0.074414023   -3.1391977    1.5234699   438768 
 3017000    1.0143393   -3.1381125   -1.6155667  0.076671053   -3.1381125    1.5225457   438761 
 3018000    1.0147338   -3.1381886     -1.61495  0.073970454   -3.1381886    1.5232386   438732 
 3019000    1.0150109   -3.1387303   -1.6151659  0.074433935   -3.1387303    1.5235644   438758 
 3020000    1.0140245   -3.1388419   -1.6165986   0.07322062   -3.1388419    1.5222433   438712 
 3021000    1.0137034   -3.1372458   -1.6153527  0.077086466   -3.1372458    1.5218931   438674 
 3022000    1.0132303   -3.1356138   -1.6144622  0.076953151   -3.1356138    1.5211516   438683 
 3023000    1.0120541   -3.1351311   -1.6155618  0.072490184   -3.1351311    1.5195693   438630 
 3024000    1.0134301   -3.1370278   -1.6153301  0.076163717   -3.1370278    1.5216978   438612 
 3025000    1.0134735   -3.1375723   -1.6157989  0.075041094   -3.1375723    1.5217734   438609 
 3026000    1.0155986   -3.1400591   -1.6149174  0.075727801   -3.1400591    1.5251417   438558 
 3027000    1.0128525   -3.1380129   -1.6168944  0.074953764   -3.1380129    1.5211184   438529 
 3028000    1.0122422   -3.1373305   -1.6170905  0.075760154   -3.1373305      1.52024   438518 
 3029000    1.0128544   -3.1381291   -1.6168379  0.074884147   -3.1381291    1.5212912   438480 
 3030000    1.0129261   -3.1384598   -1.6169603  0.071344539   -3.1384598    1.5214995   438451 
 3031000    1.0111222   -3.1369408   -1.6180054  0.075220129   -3.1369408    1.5189354   438409 
 3032000    1.0107526   -3.1366867    -1.618206  0.074917501   -3.1366867    1.5184806   438380 
 3033000    1.0108003   -3.1363709   -1.6177979  0.074445878   -3.1363709    1.5185731   438374 
 3034000    1.0104842   -3.1372278   -1.6191157  0.069487355   -3.1372278    1.5181121   438370 
 3035000    1.0107127   -3.1368389   -1.6182935  0.072958638   -3.1368389    1.5185454   438344 
 3036000    1.0107913   -3.1370329   -1.6184145  0.072548902   -3.1370329    1.5186185   438357 
 3037000    1.0100973   -3.1377591   -1.6199374  0.069967319   -3.1377591    1.5178217   438286 
 3038000    1.0104856   -3.1383237   -1.6198424  0.071554648   -3.1383237    1.5184813   438264 
 3039000    1.0112206   -3.1381319   -1.6184662  0.075381249   -3.1381319    1.5196656   438241 
 3040000    1.0126161   -3.1397444   -1.6179781  0.072062376   -3.1397444    1.5217663   438240 
 3041000    1.0127112   -3.1390416    -1.617063  0.070612967   -3.1390416    1.5219786   438220 
 3042000    1.0138646    -3.139315   -1.6156065   0.07529892    -3.139315    1.5237085   438221 
 3043000    1.0120979   -3.1377542   -1.6167355  0.075094528   -3.1377542    1.5210187   438231 
 3044000    1.0137368   -3.1399538   -1.6163643  0.078597735   -3.1399538    1.5235895   438200 
 3045000    1.0129434   -3.1408151   -1.6183902    0.0733371   -3.1408151    1.5224249   438192 
 3046000     1.013079    -3.140446   -1.6177409   0.08185268    -3.140446    1.5227051   438170 
 3047000    1.0128934   -3.1414796   -1.6190466  0.074778552   -3.1414796     1.522433   438168 
 3048000    1.0136926   -3.1411251   -1.6174176  0.075549252   -3.1411251    1.5237074   438147 
 3049000    1.0119499   -3.1400182   -1.6188505  0.077241608   -3.1400182    1.5211677   438124 
 3050000    1.0120128   -3.1409662   -1.6196172  0.075024728   -3.1409662     1.521349   438099 
 3051000    1.0130638   -3.1430754   -1.6200837  0.071659403   -3.1430754    1.5229916   438081 
 3052000    1.0123577   -3.1422713   -1.6202022  0.073144563   -3.1422713     1.522069   438041 
 3053000    1.0113502   -3.1431956   -1.6224885  0.069844519   -3.1431956    1.5207071   437997 
 3054000    1.0117333   -3.1428449   -1.6214263  0.071715005   -3.1428449    1.5214186   437958 
 3055000    1.0109956   -3.1415228   -1.6210851  0.069863709   -3.1415228    1.5204377   437921 
 3056000    1.0098802   -3.1384792   -1.6196218  0.081839564   -3.1384792    1.5188574   437893 
 3057000     1.012234   -3.1424612   -1.6200984  0.073926634   -3.1424612    1.5223627   437903 
 3058000     1.010908   -3.1395451   -1.6191384  0.070069784   -3.1395451    1.5204067   437892 
 3059000    1.0109581   -3.1413625   -1.6208459  0.071622373   -3.1413625    1.5205166   437882 
 3060000    1.0103477   -3.1400354    -1.620482  0.072682405   -3.1400354    1.5195535   437895 
 3061000    1.0100091   -3.1404351   -1.6214012  0.078435124   -3.1404351    1.5190338   437898 
 3062000    1.0075094   -3.1379738   -1.6226787   0.07658927   -3.1379738    1.5152951   437892 
 3063000    1.0100085   -3.1411454   -1.6220117  0.073890141   -3.1411454    1.5191336   437869 
 3064000    1.0090473   -3.1402571   -1.6225103  0.073613654   -3.1402571    1.5177468   437852 
 3065000    1.0102676   -3.1419975   -1.6222971  0.074050425   -3.1419975    1.5197003   437818 
 3066000    1.0094766   -3.1392756    -1.620786  0.076046011   -3.1392756    1.5184896   437824 
 3067000    1.0103346    -3.141363   -1.6215653  0.070332376    -3.141363    1.5197977   437819 
 3068000    1.0106713   -3.1425564   -1.6222003  0.071832378   -3.1425564    1.5203562   437804 
 3069000    1.0103288   -3.1420699   -1.6221282  0.074752288   -3.1420699    1.5199417   437775 
 3070000    1.0090434   -3.1415385   -1.6233745  0.072829005   -3.1415385    1.5181639   437730 
 3071000    1.0093905   -3.1420681   -1.6232916  0.069863314   -3.1420681    1.5187764   437704 
 3072000    1.0112205   -3.1434583   -1.6218694  0.079062078   -3.1434583    1.5215889   437687 
 3073000    1.0115557   -3.1451248   -1.6229062  0.075257152   -3.1451248    1.5222186   437651 
 3074000    1.0114626   -3.1447036    -1.622646  0.072721629   -3.1447036    1.5220576   437657 
 3075000    1.0108624   -3.1445632   -1.6234678  0.072832684   -3.1445632    1.5210953   437674 
 3076000    1.0102155    -3.143899   -1.6237354  0.068448655    -3.143899    1.5201636   437662 
 3077000    1.0100142   -3.1446533   -1.6247405  0.075492847   -3.1446533    1.5199128   437647 
 3078000    1.0096695   -3.1457685   -1.6262459  0.071525205   -3.1457685    1.5195225   437610 
 3079000    1.0100827   -3.1467663   -1.6265109  0.073867046   -3.1467663    1.5202554   437578 
 3080000    1.0075953   -3.1430612   -1.6266534  0.076647658   -3.1430612    1.5164078   437608 
 3081000    1.0056499   -3.1412884   -1.6277012  0.079550066   -3.1412884    1.5135872   437577 
 3082000      1.00756   -3.1448862    -1.628341  0.066236894   -3.1448862    1.5165453   437553 
 3083000    1.0083688    -3.145778   -1.6278418  0.068963721    -3.145778    1.5179362   437503 
 3084000    1.0078617   -3.1453678   -1.6281118  0.073007325   -3.1453678     1.517256   437479 
 3085000    1.0080571   -3.1445944    -1.627072  0.073674088   -3.1445944    1.5175224   437487 
 3086000    1.0088326   -3.1453297   -1.6267162  0.080884386   -3.1453297    1.5186135   437509 
 3087000    1.0111643   -3.1483963   -1.6260677  0.073828227   -3.1483963    1.5223286   437450 
 3088000     1.010095   -3.1461987   -1.6254347  0.076755457   -3.1461987     1.520764   437437 
 3089000    1.0096268   -3.1466046    -1.626455  0.075196673   -3.1466046    1.5201496   437411 
 3090000     1.008329   -3.1444933   -1.6262735  0.079334787   -3.1444933    1.5182197   437404 
 3091000    1.0109396   -3.1466904   -1.6245503  0.078876202   -3.1466904    1.5221401   437407 
 3092000    1.0100499   -3.1458738   -1.6251289  0.075762436   -3.1458738    1.5207449   437423 
 3093000    1.0094471   -3.1455511   -1.6256096  0.073230758   -3.1455511    1.5199415   437393 
 3094000    1.0098345   -3.1445288   -1.6239727   0.07495756   -3.1445288    1.5205561   437384 
 3095000    1.0082738   -3.1451735   -1.6268182  0.071371603   -3.1451735    1.5183553   437341 
 3096000      1.00917   -3.1455561   -1.6256844  0.071172363   -3.1455561    1.5198717   437293 
 3097000    1.0092277   -3.1471777   -1.6271078  0.067896078   -3.1471777    1.5200699   437261 
 3098000    1.0072493   -3.1434599   -1.6264114  0.071275979   -3.1434599    1.5170485   437273 
 3099000    1.0087062    -3.146673   -1.6274443  0.061991719    -3.146673    1.5192287   437277 
 3100000     1.008246    -3.147595   -1.6290941  0.067379255    -3.147595     1.518501   437287 
 3101000    1.0066495   -3.1466075   -1.6302926  0.069190707   -3.1466075     1.516315   437224 
 3102000    1.0070682   -3.1459988   -1.6288589  0.069063691   -3.1459988    1.5171399   437168 
 3103000    1.0065716   -3.1454083    -1.628902  0.067259243   -3.1454083    1.5165063   437135 
 3104000    1.0080953   -3.1471178    -1.628149  0.072141776   -3.1471178    1.5189688   437087 
 3105000     1.007239   -3.1455821   -1.6278064  0.066615138   -3.1455821    1.5177756   437059 
 3106000    1.0073323   -3.1449617   -1.6269238  0.070652859   -3.1449617    1.5180379   437024 
 3107000    1.0072185   -3.1455422   -1.6275265  0.071186505   -3.1455422    1.5180157   436981 
 3108000     1.006612   -3.1448254   -1.6275329  0.071350329   -3.1448254    1.5172926   436926 
 3109000    1.0078576    -3.147105    -1.627973  0.073767616    -3.147105     1.519132   436937 
 3110000    1.0083383   -3.1483786   -1.6284212  0.071792669   -3.1483786    1.5199574   436908 
 3111000    1.0064252   -3.1467784   -1.6296112  0.070913038   -3.1467784    1.5171673   436881 
 3112000    1.0074206   -3.1466858   -1.6280318   0.07657586   -3.1466858     1.518654   436885 
 3113000    1.0078657   -3.1459557   -1.6266377  0.073503418   -3.1459557     1.519318   436887 
 3114000    1.0071416   -3.1463577   -1.6279541  0.073152339   -3.1463577    1.5184037   436836 
 3115000    1.0077444   -3.1469426    -1.627498  0.069366799   -3.1469426    1.5194446   436798 
 3116000    1.0069832   -3.1469394   -1.6283852  0.074661212   -3.1469394    1.5185542   436724 
 3117000    1.0069369   -3.1475799   -1.6288973  0.071028351   -3.1475799    1.5186826   436667 
 3118000    1.0068612   -3.1465615   -1.6279026  0.070610577   -3.1465615    1.5186589   436641 
 3119000      1.00602   -3.1462735   -1.6287757    0.0719879   -3.1462735    1.5174978   436610 
 3120000    1.0060047    -3.144226   -1.6268348  0.071509171    -3.144226    1.5173913   436634 
 3121000    1.0051194   -3.1436976   -1.6277145  0.073166531   -3.1436976    1.5159831   436655 
 3122000    1.0072374    -3.146169   -1.6268418  0.072299338    -3.146169    1.5193272   436612 
 3123000    1.0069183   -3.1461585   -1.6272187  0.069791839   -3.1461585    1.5189398   436585 
 3124000     1.005952   -3.1456953   -1.6279838  0.065911516   -3.1456953    1.5177115   436519 
 3125000    1.0054746    -3.145177   -1.6279599  0.073153701    -3.145177    1.5172172   436454 
 3126000    1.0033537   -3.1451753   -1.6311654  0.070874019   -3.1451753    1.5140099   436456 
 3127000    1.0044675   -3.1454729   -1.6296087  0.067770084   -3.1454729    1.5158642   436406 
 3128000     1.005786   -3.1475124   -1.6295784   0.06791008   -3.1475124     1.517934   436383 
 3129000    1.0041083   -3.1458389   -1.6303501  0.061610657   -3.1458389    1.5154888   436358 
 3130000    1.0047651   -3.1456721   -1.6291885  0.065041629   -3.1456721    1.5164836   436357 
 3131000    1.0047532   -3.1456984   -1.6292188  0.071317355   -3.1456984    1.5164796   436353 
 3132000     1.003923   -3.1440657   -1.6286377  0.070723394   -3.1440657     1.515428   436295 
 3133000    1.0047548    -3.146015   -1.6293037  0.070865236    -3.146015    1.5167113   436287 
 3134000    1.0050762   -3.1477316   -1.6305315  0.069732282   -3.1477316       1.5172   436286 
 3135000    1.0052158   -3.1482902   -1.6307959  0.068322759   -3.1482902    1.5174943   436262 
 3136000    1.0056314   -3.1468406   -1.6287989  0.070839105   -3.1468406    1.5180417   436285 
 3137000    1.0066296   -3.1487659   -1.6292628  0.075575349   -3.1487659    1.5195031   436298 
 3138000    1.0063115   -3.1483487   -1.6293954  0.069638073   -3.1483487    1.5189533   436318 
 3139000    1.0068026   -3.1495795   -1.6298465  0.072406624   -3.1495795     1.519733   436307 
 3140000    1.0060995   -3.1478392   -1.6289727  0.074546841   -3.1478392    1.5188666   436251 
 3141000     1.005939   -3.1488451   -1.6300712  0.078824312   -3.1488451    1.5187739   436208 
 3142000      1.00495   -3.1488846   -1.6314821  0.071288809   -3.1488846    1.5174025   436173 
 3143000    1.0049099   -3.1502586   -1.6328402   0.07131473   -3.1502586    1.5174185   436151 
 3144000    1.0074031   -3.1521622   -1.6309963  0.070879045   -3.1521622    1.5211659   436156 
 3145000    1.0048623   -3.1493728   -1.6319705  0.070040969   -3.1493728    1.5174023   436135 
 3146000    1.0051709   -3.1502922   -1.6323368  0.064399647   -3.1502922    1.5179554   436110 
 3147000     1.005926   -3.1516913   -1.6326862  0.068294524   -3.1516913     1.519005   436136 
 3148000    1.0058427   -3.1503377   -1.6314445   0.06992634   -3.1503377    1.5188933   436132 
 3149000    1.0037841   -3.1484417   -1.6326433  0.076736557   -3.1484417    1.5157985   436128 
 3150000    1.0053506   -3.1511609   -1.6329794  0.070012226   -3.1511609    1.5181815   436123 
 3151000    1.0044419    -3.151732   -1.6348811  0.070157684    -3.151732     1.516851   436111 
 3152000     1.005868   -3.1539123   -1.6349043  0.065265344   -3.1539123     1.519008   436110 
 3153000    1.0037053   -3.1516852    -1.635752  0.072145274   -3.1516852    1.5159332   436055 
 3154000    1.0055397   -3.1537555   -1.6349159  0.068909645   -3.1537555    1.5188396   436016 
 3155000    1.0034481   -3.1498494   -1.6341203  0.069526646   -3.1498494     1.515729   436002 
 3156000    1.0026224   -3.1485442   -1.6340138  0.068809454   -3.1485442    1.5145305   435988 
 3157000    1.0034213   -3.1497332   -1.6340689  0.066043543   -3.1497332    1.5156642   436009 
 3158000    1.0034548   -3.1495831   -1.6337743  0.068450953   -3.1495831    1.5158087   435982 
 3159000     1.004229   -3.1499598   -1.6328737  0.069243389   -3.1499598    1.5170861   435951 
 3160000      1.00344   -3.1499582   -1.6340188   0.07575723   -3.1499582    1.5159393   435938 
 3161000    1.0040417   -3.1511843   -1.6343394  0.064028983   -3.1511843    1.5168448   435939 
 3162000    1.0041857   -3.1512457   -1.6341972  0.072335938   -3.1512457    1.5170484   435943 
 3163000    1.0048826   -3.1530596   -1.6348051  0.065923026   -3.1530596    1.5182545   435899 
 3164000    1.0039363   -3.1514632   -1.6345654  0.071959106   -3.1514632    1.5168978   435878 
 3165000    1.0048785   -3.1518814   -1.6333613  0.074473332   -3.1518814    1.5185201   435821 
 3166000    1.0035965    -3.149999   -1.6332875  0.074847052    -3.149999    1.5167115   435784 
 3167000    1.0041961   -3.1506741   -1.6330251  0.075699184   -3.1506741     1.517649   435775 
 3168000    1.0055927   -3.1534627   -1.6336751  0.070923595   -3.1534627    1.5197876   435767 
 3169000    1.0048545   -3.1528823   -1.6340954  0.072122478   -3.1528823    1.5187869   435734 
 3170000    1.0036798   -3.1506974   -1.6335641  0.070935626   -3.1506974    1.5171333   435699 
 3171000    1.0037343   -3.1519844   -1.6346851  0.071493937   -3.1519844    1.5172994   435675 
 3172000    1.0022532     -3.15157   -1.6364818   0.07266687     -3.15157    1.5150882   435667 
 3173000    1.0030192    -3.152527   -1.6363713  0.069928177    -3.152527    1.5161557   435693 
 3174000    1.0021493   -3.1510752   -1.6362413  0.069705624   -3.1510752    1.5148339   435695 
 3175000    1.0030751   -3.1504903   -1.6342848  0.069634796   -3.1504903    1.5162054   435703 
 3176000    1.0030086   -3.1517977   -1.6355641  0.071339999   -3.1517977    1.5162336   435666 
 3177000    1.0024441   -3.1499088   -1.6346224  0.072901864   -3.1499088    1.5152864   435693 
 3178000    1.0008813   -3.1493073   -1.6362756  0.067476248   -3.1493073    1.5130316   435662 
 3179000     1.002735   -3.1518803    -1.636022  0.065048429   -3.1518803    1.5158583   435655 
 3180000    1.0008119   -3.1492252   -1.6361213  0.068022534   -3.1492252    1.5131039   435611 
 3181000    1.0014365   -3.1516381   -1.6373744  0.065542862   -3.1516381    1.5142638   435549 
 3182000    1.0008762   -3.1509875   -1.6374597  0.068526598   -3.1509875    1.5135277   435517 
 3183000    1.0005902   -3.1501455   -1.6370294  0.073163235   -3.1501455    1.5131161   435511 
 3184000    1.0009409   -3.1505482   -1.6368393  0.068590902   -3.1505482    1.5137089   435493 
 3185000    1.0028654   -3.1544139   -1.6377075  0.065879207   -3.1544139    1.5167064   435468 
 3186000    1.0018018   -3.1516664   -1.6365511   0.07139342   -3.1516664    1.5151153   435463 
 3187000    1.0028077   -3.1528795   -1.6363543  0.071768719   -3.1528795    1.5165252   435495 
 3188000    1.0028731   -3.1531852   -1.6364393  0.064672133   -3.1531852    1.5167459   435460 
 3189000     1.001765   -3.1532997   -1.6380243  0.070376008   -3.1532997    1.5152754   435401 
 3190000    1.0013815   -3.1520747    -1.637463  0.064921681   -3.1520747    1.5146117   435425 
 3191000      1.00169   -3.1530467   -1.6379961  0.066585398   -3.1530467    1.5150506   435433 
 3192000    1.0028897   -3.1543161   -1.6374057  0.070441809   -3.1543161    1.5169105   435420 
 3193000    1.0020248   -3.1532779   -1.6375017  0.062138069   -3.1532779    1.5157762   435370 
 3194000    1.0006892   -3.1514046   -1.6375826  0.070504036   -3.1514046    1.5138219   435351 
 3195000    1.0010362   -3.1524339   -1.6381114  0.066283052   -3.1524339    1.5143226   435358 
 3196000    1.0017923    -3.153152   -1.6377657  0.070212425    -3.153152    1.5153863   435381 
 3197000    1.0017435   -3.1540966   -1.6387215  0.068961308   -3.1540966    1.5153751   435363 
 3198000   0.99950013   -3.1518647    -1.639786  0.072765498   -3.1518647    1.5120787   435335 
 3199000    1.0020521   -3.1545602   -1.6385372   0.06971777   -3.1545602     1.516023   435311 
 3200000    1.0033169   -3.1573196   -1.6393063  0.071607041   -3.1573196    1.5180133   435289 
 3201000    1.0015287   -3.1559874   -1.6405336  0.070251504   -3.1559874    1.5154539   435247 
 3202000      1.00338   -3.1579116   -1.6396075  0.071447947   -3.1579116    1.5183041   435233 
 3203000    1.0028345   -3.1554752   -1.6379896  0.070514804   -3.1554752    1.5174856   435231 
 3204000     1.001919   -3.1557149   -1.6395763  0.069900884   -3.1557149    1.5161386   435220 
 3205000    1.0029076   -3.1573906   -1.6396235  0.073533238   -3.1573906    1.5177671   435182 
 3206000    1.0018635   -3.1557906    -1.639541  0.065732418   -3.1557906    1.5162497   435164 
 3207000    1.0010906   -3.1549436    -1.639881   0.07554547   -3.1549436    1.5150626   435169 
 3208000     1.001678   -3.1554135   -1.6394898  0.069400726   -3.1554135    1.5159237   435177 
 3209000    1.0025557   -3.1577911   -1.6403509  0.067192649   -3.1577911    1.5174402   435123 
 3210000    1.0021277    -3.157479   -1.6405889  0.066853621    -3.157479    1.5168901   435095 
 3211000    1.0024736   -3.1571832   -1.6398951  0.071837861   -3.1571832    1.5172881   435131 
 3212000    1.0007711     -3.15417   -1.6393891  0.071702142     -3.15417    1.5147809   435111 
 3213000   0.99928793   -3.1538479   -1.6412354  0.065656605   -3.1538479    1.5126124   435089 
 3214000     1.001121   -3.1572057   -1.6417489  0.067949287   -3.1572057    1.5154568   435069 
 3215000   0.99882909   -3.1551917   -1.6431035  0.069245356   -3.1551917    1.5120882   435040 
 3216000    1.0015825   -3.1575632   -1.6412859  0.073432804   -3.1575632    1.5162774   435034 
 3217000    1.0000724   -3.1551508   -1.6410725  0.069876137   -3.1551508    1.5140783   435009 
 3218000   0.99942791   -3.1547907   -1.6416255  0.073782845   -3.1547907    1.5131652   434991 
 3219000   0.99922109   -3.1550541    -1.642063  0.071834706   -3.1550541    1.5129912   434951 
 3220000    1.0001883   -3.1571833   -1.6426128  0.065971553   -3.1571833    1.5145705   434918 
 3221000    1.0003263   -3.1575997   -1.6428132  0.069214187   -3.1575997    1.5147866   434916 
 3222000   0.99911321   -3.1560807   -1.6430825  0.071592076   -3.1560807    1.5129983   434902 
 3223000   0.99793508   -3.1542714   -1.6431545  0.066784708   -3.1542714    1.5111169   434930 
 3224000   0.99800375   -3.1553542   -1.6439248   0.06643863   -3.1553542    1.5114294   434870 
 3225000    1.0002832    -3.158179   -1.6432138  0.070910349    -3.158179    1.5149652   434846 
 3226000   0.99974159   -3.1573906   -1.6432772  0.070386375   -3.1573906    1.5141135   434855 
 3227000    1.0009889   -3.1596022    -1.643659   0.06644663   -3.1596022    1.5159432   434872 
 3228000    1.0004555   -3.1587956   -1.6436602   0.07040024   -3.1587956    1.5151354   434872 
 3229000    1.0004494   -3.1598585   -1.6446416   0.07102883   -3.1598585    1.5152168   434846 
 3230000    1.0003043   -3.1601608    -1.645115  0.069109534   -3.1601608    1.5150458   434832 
 3231000    1.0005504   -3.1596014   -1.6442594  0.074141005   -3.1596014     1.515342   434854 
 3232000    1.0013344   -3.1616665   -1.6450466  0.072920441   -3.1616665    1.5166199   434828 
 3233000    1.0011306   -3.1629398   -1.6465936  0.067918336   -3.1629398    1.5163462   434818 
 3234000     0.999024   -3.1599555   -1.6467478  0.069249721   -3.1599555    1.5132076   434803 
 3235000   0.99878447   -3.1599309   -1.6468912  0.070011871   -3.1599309    1.5130397   434747 
 3236000     1.000156    -3.162026   -1.6469017  0.068017634    -3.162026    1.5151243   434745 
 3237000    1.0012503   -3.1628648   -1.6460791  0.073063679   -3.1628648    1.5167856   434744 
 3238000    1.0007768   -3.1623371   -1.6462548  0.078161374   -3.1623371    1.5160823   434740 
 3239000    1.0000212   -3.1622006   -1.6473048  0.074936505   -3.1622006    1.5148958   434752 
 3240000    1.0006225   -3.1634882   -1.6476084   0.07231754   -3.1634882    1.5158799   434731 
 3241000   0.99990764   -3.1651502   -1.6503498   0.06861432   -3.1651502    1.5148004   434730 
 3242000   0.99961078   -3.1644431   -1.6500611  0.077000914   -3.1644431     1.514382   434721 
 3243000    1.0020584   -3.1671168   -1.6489639  0.070581756   -3.1671168     1.518153   434703 
 3244000    1.0004714   -3.1652521    -1.649535  0.069266424   -3.1652521    1.5157171   434712 
 3245000   0.99998766   -3.1652558   -1.6504387  0.070084571   -3.1652558    1.5148171   434760 
 3246000   0.99936547   -3.1644665   -1.6504666  0.072045418   -3.1644665    1.5139999   434724 
 3247000   0.99880365   -3.1615221   -1.6483002  0.070813289   -3.1615221    1.5132219   434703 
 3248000   0.99976788   -3.1642329   -1.6493969  0.069906088   -3.1642329    1.5148361   434659 
 3249000    0.9987541   -3.1628739   -1.6494556  0.070213159   -3.1628739    1.5134184   434625 
 3250000   0.99834076   -3.1650793   -1.6523012  0.071821596   -3.1650793    1.5127781   434629 
 3251000   0.99754541   -3.1643269   -1.6526948  0.070570326   -3.1643269    1.5116321   434612 
 3252000   0.99836631   -3.1648447   -1.6518503  0.070306234   -3.1648447    1.5129944   434578 
 3253000   0.99759992   -3.1645832   -1.6528094  0.071620085   -3.1645832    1.5117738   434595 
 3254000   0.99734949   -3.1647253    -1.653258  0.069192483   -3.1647253    1.5114673   434574 
 3255000   0.99871673   -3.1657863   -1.6522016  0.065803468   -3.1657863    1.5135846   434561 
 3256000   0.99848917   -3.1647392   -1.6514751  0.067527972   -3.1647392    1.5132641   434554 
 3257000   0.99904639   -3.1658874   -1.6517056  0.063576997   -3.1658874    1.5141818   434533 
 3258000   0.99719765   -3.1640562   -1.6525581  0.069141584   -3.1640562    1.5114981   434499 
 3259000   0.99901205   -3.1678772   -1.6534059  0.068710644   -3.1678772    1.5144713   434435 
 3260000   0.99688359   -3.1654638   -1.6542366  0.068875809   -3.1654638    1.5112272   434440 
 3261000   0.99670005   -3.1652987   -1.6542419  0.060996309   -3.1652987    1.5110568   434409 
 3262000   0.99571793   -3.1623305   -1.6526757  0.065905961   -3.1623305    1.5096548   434384 
 3263000   0.99675339   -3.1632168    -1.651933  0.071143597   -3.1632168    1.5112838   434367 
 3264000   0.99748302   -3.1647761   -1.6522851  0.066618625   -3.1647761    1.5124911   434338 
 3265000   0.99886316   -3.1673698   -1.6526465   0.06847052   -3.1673698    1.5147233   434298 
 3266000   0.99815653   -3.1665665   -1.6529043   0.06394307   -3.1665665    1.5136622   434295 
 3267000    0.9979866   -3.1649332   -1.6515705  0.067774782   -3.1649332    1.5133626   434307 
 3268000   0.99831646   -3.1664242   -1.6524393  0.070287884   -3.1664242    1.5139849   434272 
 3269000   0.99756063   -3.1653929   -1.6524672  0.068157556   -3.1653929    1.5129257   434247 
 3270000   0.99814571   -3.1665132   -1.6527942   0.06787397   -3.1665132     1.513719   434274 
 3271000   0.99838174    -3.166083   -1.6520619  0.073323634    -3.166083    1.5140211   434290 
 3272000   0.99723371   -3.1641149   -1.6517303  0.066392164   -3.1641149    1.5123846   434260 
 3273000   0.99656898   -3.1666284   -1.6552171  0.068236683   -3.1666284    1.5114113   434250 
 3274000   0.99623885   -3.1652616   -1.6542431  0.067806311   -3.1652616    1.5110185   434219 
 3275000    0.9965779   -3.1651015   -1.6535792  0.064482018   -3.1651015    1.5115223   434222 
 3276000   0.99716779   -3.1661487   -1.6538083  0.067224184   -3.1661487    1.5123404   434244 
 3277000   0.99784361   -3.1657056   -1.6523124   0.06930843   -3.1657056    1.5133932   434236 
 3278000   0.99633043   -3.1638673   -1.6528316  0.069106935   -3.1638673    1.5110356   434254 
 3279000   0.99630063   -3.1643555   -1.6533616  0.070534563   -3.1643555    1.5109939   434253 
 3280000   0.99655549   -3.1650428   -1.6536241  0.068146543   -3.1650428    1.5114187   434242 
 3281000   0.99724938   -3.1652921   -1.6528176   0.06457854   -3.1652921    1.5124746   434241 
 3282000   0.99671234   -3.1638764   -1.6521676  0.073171351   -3.1638764    1.5117088   434227 
 3283000   0.99606435   -3.1614573   -1.6507347  0.067432921   -3.1614573    1.5107225   434228 
 3284000   0.99752103   -3.1644981   -1.6514269  0.071255985   -3.1644981    1.5130712   434188 
 3285000   0.99686784   -3.1645103   -1.6523776  0.068059951   -3.1645103    1.5121327   434173 
 3286000   0.99742621     -3.16509   -1.6520337  0.064389669     -3.16509    1.5130563   434151 
 3287000   0.99818878   -3.1655817   -1.6512464  0.066764159   -3.1655817    1.5143352   434116 
 3288000    0.9963072   -3.1634848   -1.6519518  0.070331435   -3.1634848    1.5115329   434101 
 3289000   0.99727823   -3.1657033   -1.6526101  0.067210631   -3.1657033    1.5130933   434076 
 3290000   0.99853997   -3.1658925    -1.651035  0.067577369   -3.1658925    1.5148575   434119 
 3291000   0.99605542   -3.1627322   -1.6515952  0.069347556   -3.1627322     1.511137   434105 
 3292000   0.99755571   -3.1647592   -1.6511857  0.068331079   -3.1647592    1.5135735   434059 
 3293000   0.99567729   -3.1621389   -1.6514433  0.076246392   -3.1621389    1.5106956   434067 
 3294000   0.99613683   -3.1634832   -1.6518606  0.065855316   -3.1634832    1.5116227   434001 
 3295000   0.99450885   -3.1619482   -1.6526603  0.064907157   -3.1619482    1.5092879   433962 
 3296000   0.99681309   -3.1645722   -1.6516305  0.066684387   -3.1645722    1.5129417   433917 
 3297000   0.99517227   -3.1632947   -1.6527807  0.067476842   -3.1632947     1.510514   433899 
 3298000   0.99467497   -3.1621591   -1.6523443  0.067821517   -3.1621591    1.5098148   433883 
 3299000   0.99513817   -3.1635123    -1.652984  0.064903491   -3.1635123    1.5105284   433880 
 3300000   0.99623004   -3.1656111   -1.6533173  0.063876583   -3.1656111    1.5122938   433849 
 3301000   0.99555666   -3.1640342   -1.6528915   0.06339631   -3.1640342    1.5111427   433886 
 3302000   0.99608977   -3.1622209   -1.6502272  0.071701449   -3.1622209    1.5119937   433874 
 3303000   0.99610985   -3.1624747   -1.6502344  0.064766924   -3.1624747    1.5122403   433812 
 3304000   0.99800028   -3.1643192   -1.6493067  0.064689084   -3.1643192    1.5150124   433840 
 3305000   0.99696465   -3.1621463   -1.6487478  0.070517505   -3.1621463    1.5133985   433852 
 3306000   0.99657728   -3.1628127   -1.6499744  0.072237891   -3.1628127    1.5128383   433844 
 3307000   0.99614403   -3.1638991   -1.6515756  0.069217459   -3.1638991    1.5123236   433803 
 3308000    0.9957754    -3.163117   -1.6513182  0.067109909    -3.163117    1.5117988   433793 
 3309000   0.99699286   -3.1651043   -1.6514607  0.068036645   -3.1651043    1.5136436   433794 
 3310000   0.99396459   -3.1620226   -1.6528026  0.072587809   -3.1620226      1.50922   433744 
 3311000   0.99561723   -3.1646076   -1.6528259  0.068735789   -3.1646076    1.5117817   433729 
 3312000   0.99528362   -3.1651123   -1.6536769  0.063776224   -3.1651123    1.5114354   433683 
 3313000    0.9958931    -3.165454   -1.6530442  0.066704015    -3.165454    1.5124098   433669 
 3314000   0.99432617   -3.1640402   -1.6541946  0.069016258   -3.1640402    1.5098456   433722 
 3315000   0.99494886    -3.163035   -1.6521184  0.067247033    -3.163035    1.5109166   433686 
 3316000   0.99504244   -3.1634093   -1.6522844  0.066717968   -3.1634093    1.5111249   433667 
 3317000   0.99473355   -3.1640784    -1.653332  0.071874545   -3.1640784    1.5107464   433641 
 3318000    0.9959699   -3.1661391   -1.6534313  0.069735784   -3.1661391    1.5127078   433617 
 3319000   0.99554149   -3.1668181    -1.654461  0.067497471   -3.1668181    1.5123571   433531 
 3320000   0.99693136   -3.1692747   -1.6547399  0.068680187   -3.1692747    1.5145348   433512 
 3321000   0.99556276   -3.1670824   -1.6545395  0.071036318   -3.1670824    1.5125429   433487 
 3322000   0.99559389   -3.1674713   -1.6547416  0.063723268   -3.1674713    1.5127298   433447 
 3323000   0.99516586   -3.1676299    -1.655383  0.072310315   -3.1676299    1.5122469   433399 
 3324000   0.99509748   -3.1685514   -1.6564468  0.071911676   -3.1685514    1.5121046   433410 
 3325000   0.99559636   -3.1685212   -1.6557493  0.068733001   -3.1685212    1.5127719   433436 
 3326000   0.99605726   -3.1679747   -1.6545583  0.065847515   -3.1679747    1.5134164   433452 
 3327000   0.99526974   -3.1680083   -1.6557606  0.065118158   -3.1680083    1.5122477   433444 
 3328000    0.9938074   -3.1677553   -1.6577295  0.066349476   -3.1677553    1.5100258   433444 
 3329000   0.99353819   -3.1675589     -1.65789  0.067545661   -3.1675589     1.509669   433429 
 3330000   0.99317419   -3.1668796   -1.6576732  0.067030243   -3.1668796    1.5092064   433403 
 3331000    0.9936048   -3.1683912   -1.6584119   0.06047721   -3.1683912    1.5099792   433369 
 3332000   0.99457566   -3.1695894   -1.6581417  0.065179414   -3.1695894    1.5114477   433371 
 3333000   0.99423673   -3.1683331   -1.6574563  0.072480687   -3.1683331    1.5108768   433387 
 3334000   0.99355317   -3.1659033   -1.6560827  0.074295185   -3.1659033    1.5098206   433392 
 3335000   0.99616056   -3.1685968    -1.654765   0.07100426   -3.1685968    1.5138318   433378 
 3336000   0.99622388   -3.1697903   -1.6559531  0.070624412   -3.1697903    1.5138372   433404 
 3337000   0.99555492   -3.1696197   -1.6567188  0.065987626   -3.1696197    1.5129009   433381 
 3338000   0.99555808   -3.1687515   -1.6557969  0.066636719   -3.1687515    1.5129546   433367 
 3339000   0.99396342   -3.1659682   -1.6554161  0.070988498   -3.1659682    1.5105521   433361 
 3340000    0.9941994   -3.1680555   -1.6571064   0.06773998   -3.1680555    1.5109491   433350 
 3341000   0.99542889   -3.1680599   -1.6552039  0.065003495   -3.1680599     1.512856   433339 
 3342000   0.99618805   -3.1696224    -1.655637   0.06509333   -3.1696224    1.5139853   433346 
 3343000   0.99331252    -3.168269   -1.6584935  0.065599009    -3.168269    1.5097754   433300 
 3344000   0.99424729    -3.169436   -1.6581735  0.066223126    -3.169436    1.5112625   433281 
 3345000   0.99448697    -3.169874   -1.6582402  0.068062525    -3.169874    1.5116338   433279 
 3346000   0.99341865    -3.165789   -1.6556048  0.065759291    -3.165789    1.5101842   433229 
 3347000   0.99423857   -3.1684764   -1.6570283  0.066949327   -3.1684764    1.5114481   433224 
 3348000   0.99556061   -3.1710058   -1.6576283  0.066288977   -3.1710058    1.5133775   433247 
 3349000   0.99530024    -3.170767   -1.6577643  0.067579105    -3.170767    1.5130027   433241 
 3350000   0.99493036   -3.1689799   -1.6565081  0.067028853   -3.1689799    1.5124718   433232 
 3351000   0.99494907   -3.1690078   -1.6565181  0.069777372   -3.1690078    1.5124898   433235 
 3352000   0.99489504   -3.1694059   -1.6567678  0.072243094   -3.1694059    1.5126381   433169 
 3353000   0.99564797     -3.17002   -1.6561638  0.068057787     -3.17002    1.5138562   433148 
 3354000   0.99412311   -3.1693784   -1.6575125  0.072460414   -3.1693784    1.5118658   433054 
 3355000   0.99451448   -3.1685507   -1.6560617   0.06687842   -3.1685507    1.5124889   433046 
 3356000    0.9941089   -3.1687322    -1.656895  0.068650615   -3.1687322    1.5118372   433056 
 3357000    0.9931715    -3.167857   -1.6573372  0.068833063    -3.167857    1.5105198   433025 
 3358000   0.99437337    -3.169206   -1.6568688  0.068200487    -3.169206    1.5123372   433028 
 3359000   0.99320121   -3.1694764   -1.6588242  0.072856154   -3.1694764    1.5106522   433000 
 3360000   0.99329092   -3.1685451   -1.6576728  0.069192561   -3.1685451    1.5108724   432976 
 3361000   0.99431586   -3.1710085   -1.6585806  0.069426525   -3.1710085    1.5124279   432977 
 3362000   0.99340703   -3.1691764   -1.6581833  0.065609527   -3.1691764    1.5109931   432992 
 3363000   0.99276392   -3.1686879   -1.6585474  0.069477179   -3.1686879    1.5101405   432956 
 3364000   0.99453825   -3.1708402   -1.6580426  0.066952731   -3.1708402    1.5127976   432968 
 3365000   0.99383147    -3.169963   -1.6580903  0.065493423    -3.169963    1.5118726   432925 
 3366000   0.99311414   -3.1677119   -1.6569933  0.067301254   -3.1677119    1.5107186   432943 
 3367000   0.99366754   -3.1704339   -1.6588455  0.065395852   -3.1704339    1.5115884   432935 
 3368000   0.99340727     -3.16981   -1.6586071  0.069323032     -3.16981    1.5112029   432932 
 3369000   0.99359566   -3.1701139   -1.6586663  0.065438044   -3.1701139    1.5114476   432944 
 3370000    0.9950129   -3.1742763   -1.6606029  0.062117773   -3.1742763    1.5136734   432924 
 3371000   0.99189659   -3.1697843   -1.6608516  0.063551589   -3.1697843    1.5089327   432924 
 3372000   0.99318311   -3.1713988   -1.6604322  0.066225378   -3.1713988    1.5109666   432902 
 3373000   0.99288338   -3.1700397   -1.6596896  0.066309141   -3.1700397    1.5103501   432948 
 3374000   0.99119305   -3.1688709   -1.6612139  0.065149855   -3.1688709     1.507657   432983 
 3375000   0.99161666   -3.1691693   -1.6609342  0.066582506   -3.1691693    1.5082351   433002 
 3376000   0.99204006   -3.1704833   -1.6615032  0.065262245   -3.1704833    1.5089802   432973 
 3377000   0.99249046   -3.1713029    -1.661662  0.062976867   -3.1713029    1.5096408   432980 
 3378000     0.992657   -3.1704505   -1.6605529   0.07060688   -3.1704505    1.5098977   432979 
 3379000   0.99469319   -3.1717928   -1.6587805   0.06634592   -3.1717928    1.5130123   432974 
 3380000   0.99373851   -3.1719158   -1.6605198  0.061938799   -3.1719158    1.5113961   433021 
 3381000   0.99384781   -3.1721335    -1.660428  0.063121708   -3.1721335    1.5117055   432980 
 3382000    0.9932051   -3.1718427   -1.6610066  0.066964543   -3.1718427     1.510836   432949 
 3383000   0.99283997     -3.17169   -1.6613536  0.068483472     -3.17169    1.5103364   432933 
 3384000   0.99310122   -3.1716961   -1.6610355  0.070024336   -3.1716961    1.5106606   432954 
 3385000   0.99385995   -3.1724769   -1.6606098  0.070963872   -3.1724769    1.5118671   432939 
 3386000   0.99399125   -3.1744687   -1.6622832  0.069951592   -3.1744687    1.5121856   432905 
 3387000   0.99443009   -3.1760558   -1.6632096  0.069512186   -3.1760558    1.5128462   432907 
 3388000   0.99355967   -3.1748584   -1.6631897  0.071004345   -3.1748584    1.5116687   432865 
 3389000   0.99412674   -3.1753937   -1.6627888   0.06812852   -3.1753937    1.5126048   432844 
 3390000   0.99298241   -3.1747789    -1.663992  0.068668674   -3.1747789    1.5107869   432866 
 3391000   0.99184498   -3.1740814   -1.6650146  0.068606282   -3.1740814    1.5090668   432863 
 3392000   0.99263974   -3.1743562    -1.663986  0.069338565   -3.1743562    1.5103702   432836 
 3393000   0.99184131   -3.1733462   -1.6642152   0.06484244   -3.1733462    1.5091309   432843 
 3394000   0.99272681   -3.1754419   -1.6650682  0.077383819   -3.1754419    1.5103736   432873 
 3395000   0.99421038   -3.1776855   -1.6650897  0.061320669   -3.1776855    1.5125958   432883 
 3396000   0.99302959   -3.1759422   -1.6650626  0.064945779   -3.1759422    1.5108796   432860 
 3397000   0.99416308    -3.176306   -1.6637996  0.070617895    -3.176306    1.5125064   432888 
 3398000   0.99452394   -3.1764679    -1.663416  0.067110765   -3.1764679    1.5130519   432889 
 3399000   0.99368893   -3.1754976   -1.6636533  0.072035263   -3.1754976    1.5118444   432871 
 3400000   0.99278161   -3.1747824   -1.6643708    0.0674746   -3.1747824    1.5104116   432886 
 3401000   0.99350272   -3.1758593   -1.6643611   0.06548366   -3.1758593    1.5114982   432889 
 3402000   0.99227691    -3.174315   -1.6645213  0.064389171    -3.174315    1.5097937   432843 
 3403000   0.99218191   -3.1761515   -1.6664813  0.071935794   -3.1761515    1.5096701   432837 
 3404000   0.99248109   -3.1761362   -1.6660178   0.06979481   -3.1761362    1.5101184   432839 
 3405000   0.99239481   -3.1760561   -1.6660272    0.0642347   -3.1760561    1.5100289   432827 
 3406000   0.99117828    -3.175544   -1.6672512  0.066539311    -3.175544    1.5082929   432794 
 3407000   0.99140609   -3.1762032   -1.6674695  0.066639547   -3.1762032    1.5087337   432767 
 3408000    0.9905957   -3.1747563   -1.6672071  0.072651768   -3.1747563    1.5075492   432753 
 3409000   0.99247603   -3.1770024   -1.6666231  0.065966519   -3.1770024    1.5103794   432762 
 3410000   0.99224919   -3.1782096   -1.6679556  0.071056245   -3.1782096     1.510254   432699 
 3411000   0.99061533   -3.1751814   -1.6674943  0.066220415   -3.1751814     1.507687   432722 
 3412000   0.99261242   -3.1777765   -1.6669348  0.068874615   -3.1777765    1.5108418   432689 
 3413000   0.99362749   -3.1791543   -1.6667605  0.069717163   -3.1791543    1.5123938   432687 
 3414000   0.99371158   -3.1793793   -1.6669274  0.068905418   -3.1793793    1.5124519   432707 
 3415000   0.99214557   -3.1784986   -1.6683256  0.067655274   -3.1784986    1.5101731   432677 
 3416000   0.99240141   -3.1793699   -1.6687899  0.066475599   -3.1793699    1.5105799   432672 
 3417000   0.99141775   -3.1767077   -1.6676669  0.071029092   -3.1767077    1.5090408   432684 
 3418000   0.99151787    -3.177807   -1.6685999   0.06588796    -3.177807    1.5092072   432680 
 3419000   0.99014507   -3.1779368   -1.6707808  0.071052634   -3.1779368    1.5071559   432669 
 3420000    0.9899158   -3.1767035   -1.6697015  0.069715686   -3.1767035     1.507002   432613 
 3421000   0.99132506   -3.1796098   -1.6703717   0.06363867   -3.1796098    1.5092381   432587 
 3422000   0.99102599   -3.1796728   -1.6709598  0.061082042   -3.1796728     1.508713   432607 
 3423000   0.98944705   -3.1780258   -1.6716782  0.067060387   -3.1780258    1.5063476   432596 
 3424000   0.98894077   -3.1778716   -1.6723957   0.06327344   -3.1778716    1.5054759   432625 
 3425000   0.99076557   -3.1794226   -1.6710956  0.067131115   -3.1794226     1.508327   432604 
 3426000   0.99147222   -3.1793475   -1.6700145  0.069650093   -3.1793475     1.509333   432624 
 3427000   0.99083651   -3.1800872   -1.6716452  0.066740202   -3.1800872     1.508442   432602 
 3428000   0.98952041   -3.1765322   -1.6700903  0.062823999   -3.1765322    1.5064418   432601 
 3429000   0.98921122    -3.176451   -1.6705042  0.074068688    -3.176451    1.5059468   432608 
 3430000   0.99135161     -3.17968   -1.6704539  0.063141251     -3.17968    1.5092262   432602 
 3431000   0.99091598   -3.1781321   -1.6695448  0.063673893   -3.1781321    1.5085874   432595 
 3432000   0.98988815   -3.1763452   -1.6692947  0.066730875   -3.1763452    1.5070505   432587 
 3433000   0.99075018   -3.1783798   -1.6699472  0.066808223   -3.1783798    1.5084326   432567 
 3434000   0.99096479   -3.1787563   -1.6699307  0.064030977   -3.1787563    1.5088256   432548 
 3435000   0.99082379   -3.1791757    -1.670488  0.064557403   -3.1791757    1.5086877   432526 
 3436000   0.98995276   -3.1783262   -1.6709265  0.066555205   -3.1783262    1.5073997   432515 
 3437000   0.99090527   -3.1791945   -1.6703933  0.065229921   -3.1791945    1.5088013   432529 
 3438000   0.99182601   -3.1805742   -1.6703885  0.069159145   -3.1805742    1.5101858   432534 
 3439000   0.99152353   -3.1805858   -1.6707175  0.064327676   -3.1805858    1.5098683   432493 
 3440000   0.99058005   -3.1786271   -1.6701432  0.062052348   -3.1786271    1.5084839   432478 
 3441000    0.9893149   -3.1771946   -1.6706059  0.067268088   -3.1771946    1.5065887   432469 
 3442000   0.99031405   -3.1782063   -1.6701239  0.070789667   -3.1782063    1.5080824   432477 
 3443000   0.99036012   -3.1791388   -1.6710595  0.066512834   -3.1791388    1.5080793   432498 
 3444000   0.99000245   -3.1785084   -1.6707646  0.070789618   -3.1785084    1.5077438   432438 
 3445000   0.99015003   -3.1778151   -1.6697349  0.068306109   -3.1778151    1.5080802   432406 
 3446000   0.99085275   -3.1778811   -1.6686434  0.068204411   -3.1778811    1.5092377   432381 
 3447000   0.99077694   -3.1795917   -1.6703891  0.064192817   -3.1795917    1.5092025   432358 
 3448000   0.99096339   -3.1813264   -1.6717665  0.061181406   -3.1813264    1.5095599   432337 
 3449000   0.98965111   -3.1782001   -1.6705905  0.069624075   -3.1782001    1.5076096   432323 
 3450000   0.99112546   -3.1795496   -1.6698058  0.068597129   -3.1795496    1.5097439   432355 
 3451000   0.99148719   -3.1798256   -1.6694818  0.065540223   -3.1798256    1.5103438   432341 
 3452000   0.98948153    -3.177696   -1.6704702  0.068374323    -3.177696    1.5072258   432359 
 3453000   0.99057981   -3.1798153   -1.6707909  0.063329417   -3.1798153    1.5090244   432323 
 3454000   0.98914004   -3.1771585   -1.6702751  0.069767809   -3.1771585    1.5068834   432308 
 3455000   0.98890421   -3.1775009   -1.6708931  0.064888598   -3.1775009    1.5066077   432284 
 3456000   0.98956563   -3.1791443   -1.6715846   0.06403121   -3.1791443    1.5075596   432300 
 3457000   0.98830691   -3.1781506   -1.6724563  0.060756784   -3.1781506    1.5056943   432285 
 3458000   0.98933814   -3.1796047    -1.672308  0.057468142   -3.1796047    1.5072967   432276 
 3459000   0.98921426   -3.1783738   -1.6713355  0.065864504   -3.1783738    1.5070383   432296 
 3460000   0.98871741   -3.1781269    -1.671849  0.066884482   -3.1781269    1.5062779   432297 
 3461000   0.98919571    -3.177742   -1.6706518  0.072361091    -3.177742    1.5070902   432273 
 3462000   0.98943072   -3.1781904   -1.6707247  0.068624841   -3.1781904    1.5074657   432268 
 3463000   0.99098038   -3.1812934   -1.6715679  0.066291862   -3.1812934    1.5097254   432297 
 3464000   0.98863951   -3.1792391   -1.6730869  0.071926806   -3.1792391    1.5061522   432299 
 3465000   0.99034221   -3.1817597   -1.6729786  0.064740852   -3.1817597    1.5087811   432289 
 3466000   0.99004078   -3.1804002   -1.6719666  0.067451079   -3.1804002    1.5084335   432257 
 3467000   0.99072411   -3.1804535   -1.6709544  0.068052264   -3.1804535    1.5094991   432250 
 3468000   0.99006895   -3.1805174   -1.6719746  0.066942788   -3.1805174    1.5085428   432238 
 3469000   0.98997177   -3.1813073    -1.672766   0.06571714   -3.1813073    1.5085413   432196 
 3470000   0.98929238   -3.1804148    -1.672839  0.068248803   -3.1804148    1.5075758   432176 
 3471000   0.98883345   -3.1803587   -1.6736566   0.06866266   -3.1803587    1.5067021   432226 
 3472000   0.99003236   -3.1811936   -1.6725809  0.069974166   -3.1811936    1.5086127   432202 
 3473000    0.9902181   -3.1832369   -1.6742365  0.064490705   -3.1832369    1.5090004   432172 
 3474000   0.99046207   -3.1849225   -1.6754805  0.059703535   -3.1849225    1.5094421   432152 
 3475000   0.98910087   -3.1837832   -1.6764818  0.061772277   -3.1837832    1.5073014   432171 
 3476000   0.98921683   -3.1828951   -1.6753926  0.067945663   -3.1828951    1.5075025   432164 
 3477000   0.98844681   -3.1820861   -1.6757013  0.067739823   -3.1820861    1.5063848   432148 
 3478000    0.9900361   -3.1837784   -1.6749157  0.069442983   -3.1837784    1.5088627   432132 
 3479000   0.99061777   -3.1858554   -1.6761097  0.070228659   -3.1858554    1.5097457   432133 
 3480000   0.98826396   -3.1836435   -1.6774433  0.069460101   -3.1836435    1.5062003   432121 
 3481000   0.98872028   -3.1852135    -1.678384  0.066143327   -3.1852135    1.5068295   432140 
 3482000   0.98852134   -3.1836211   -1.6771332  0.070648187   -3.1836211    1.5064879   432151 
 3483000   0.98880193   -3.1831554   -1.6762712  0.066367814   -3.1831554    1.5068842   432160 
 3484000   0.99026128   -3.1862128   -1.6771151  0.065271415   -3.1862128    1.5090977   432163 
 3485000   0.98926684   -3.1843692   -1.6768114  0.069336273   -3.1843692    1.5075578   432170 
 3486000   0.98906532    -3.183787   -1.6763584  0.068588551    -3.183787    1.5074286   432119 
 3487000   0.98821645   -3.1837369   -1.6775498  0.063241225   -3.1837369    1.5061871   432104 
 3488000   0.98787911   -3.1824509   -1.6767361  0.069337636   -3.1824509    1.5057148   432092 
 3489000   0.98839827   -3.1844977   -1.6780335  0.063299953   -3.1844977    1.5064642   432104 
 3490000   0.98835895   -3.1836165    -1.677146  0.067251527   -3.1836165    1.5064705   432085 
 3491000   0.98834123   -3.1841203   -1.6777221  0.068432859   -3.1841203    1.5063982   432098 
 3492000   0.98901123   -3.1847867   -1.6775138  0.063894869   -3.1847867    1.5072729   432140 
 3493000   0.98696346   -3.1829371   -1.6786075  0.062236192   -3.1829371    1.5043296   432089 
 3494000   0.98818189   -3.1830338   -1.6766832  0.066738756   -3.1830338    1.5063506   432042 
 3495000   0.98798122   -3.1835846   -1.6775818   0.06290721   -3.1835846    1.5060028   432054 
 3496000   0.98802676   -3.1836435   -1.6774597  0.065492283   -3.1836435    1.5061838   432022 
 3497000   0.98840153   -3.1852788   -1.6784713  0.062061438   -3.1852788    1.5068074   432007 
 3498000   0.98737333   -3.1851742   -1.6799342   0.06467848   -3.1851742      1.50524   432007 
 3499000   0.98618819   -3.1827847   -1.6792366  0.067748824   -3.1827847    1.5035481   431974 
 3500000   0.98887283   -3.1856479   -1.6779475   0.06518169   -3.1856479    1.5077004   431957 
 3501000   0.98700393   -3.1830071   -1.6781736  0.068920042   -3.1830071    1.5048336   431962 
 3502000   0.98804506   -3.1841839   -1.6777386  0.072452202   -3.1841839    1.5064453   431955 
 3503000   0.98785512   -3.1847943   -1.6784991  0.063812352   -3.1847943    1.5062952   431915 
 3504000   0.98852534   -3.1841762   -1.6769183  0.063620892   -3.1841762    1.5072579   431932 
 3505000    0.9903925   -3.1856387   -1.6754709  0.065362601   -3.1856387    1.5101678   431914 
 3506000   0.98896014   -3.1842666   -1.6762934  0.063471755   -3.1842666    1.5079732   431917 
 3507000   0.98908919    -3.184995   -1.6767831  0.062556846    -3.184995    1.5082119   431905 
 3508000   0.98805073   -3.1834337   -1.6767739  0.069805034   -3.1834337    1.5066598   431896 
 3509000   0.98740601   -3.1831953   -1.6775186  0.065931346   -3.1831953    1.5056766   431896 
 3510000   0.98858823   -3.1859762   -1.6785072  0.061274969   -3.1859762    1.5074689   431899 
 3511000   0.98798809   -3.1844051   -1.6778304  0.070513566   -3.1844051    1.5065747   431893 
 3512000   0.98845907   -3.1856775   -1.6784369  0.066234582   -3.1856775    1.5072406   431908 
 3513000   0.98847342   -3.1867268   -1.6793422  0.062910944   -3.1867268    1.5073846   431873 
 3514000   0.98724135   -3.1832809   -1.6777403  0.066047015   -3.1832809    1.5055406   431863 
 3515000   0.98615831   -3.1808281    -1.676765  0.061508129   -3.1808281    1.5040631   431813 
 3516000   0.98699996    -3.182424    -1.677018  0.061293198    -3.182424     1.505406   431796 
 3517000    0.9852794   -3.1808603   -1.6780123  0.067415241   -3.1808603    1.5028479   431777 
 3518000   0.98614482    -3.183728   -1.6794485  0.064872968    -3.183728    1.5042794   431745 
 3519000   0.98515569   -3.1827336   -1.6799491  0.064142236   -3.1827336    1.5027845   431741 
 3520000   0.98538375   -3.1837267   -1.6805734  0.059206688   -3.1837267    1.5031533   431735 
 3521000   0.98745724    -3.185624   -1.6794473  0.063557938    -3.185624    1.5061767   431775 
 3522000   0.98600588   -3.1824112   -1.6784447  0.062464959   -3.1824112    1.5039665   431774 
 3523000   0.98679711   -3.1835876   -1.6784735  0.060906648   -3.1835876    1.5051141   431791 
 3524000   0.98593628   -3.1828784   -1.6789867  0.065728131   -3.1828784    1.5038916   431765 
 3525000   0.98641297    -3.183782   -1.6790343  0.070010079    -3.183782    1.5047477   431728 
 3526000   0.98647423   -3.1843165   -1.6794858  0.066896174   -3.1843165    1.5048307   431731 
 3527000   0.98580329   -3.1839819   -1.6800423  0.060494582   -3.1839819    1.5039396   431693 
 3528000   0.98798661   -3.1863719   -1.6791817  0.060784903   -3.1863719    1.5071901   431716 
 3529000   0.98705569   -3.1840036   -1.6782371      0.06987   -3.1840036    1.5057665   431717 
 3530000   0.98671306   -3.1823562   -1.6771542  0.067367278   -3.1823562     1.505202   431729 
 3531000   0.98786353   -3.1854204    -1.678404   0.06279993   -3.1854204    1.5070164   431712 
 3532000   0.98671149   -3.1849943   -1.6795855  0.063578006   -3.1849943    1.5054088   431669 
 3533000   0.98756746    -3.185454   -1.6787881  0.072367946    -3.185454    1.5066659   431683 
 3534000   0.98608328   -3.1844207   -1.6798692  0.064357957   -3.1844207    1.5045514   431640 
 3535000   0.98822454   -3.1870294    -1.679141  0.065243186   -3.1870294    1.5078884   431620 
 3536000   0.98676398    -3.186192   -1.6803717  0.068569763    -3.186192    1.5058203   431574 
 3537000   0.98587158   -3.1852004   -1.6806897   0.06847398   -3.1852004    1.5045108   431559 
 3538000    0.9882611   -3.1868143   -1.6787268  0.065067219   -3.1868143    1.5080875   431579 
 3539000   0.98664989   -3.1857707   -1.6801454  0.063751037   -3.1857707    1.5056253   431580 
 3540000   0.98819707   -3.1875689   -1.6795302  0.071123525   -3.1875689    1.5080387   431565 
 3541000    0.9892232   -3.1894241   -1.6798614   0.06799128   -3.1894241    1.5095626   431577 
 3542000   0.98916468   -3.1887628    -1.679223  0.068003123   -3.1887628    1.5095398   431558 
 3543000   0.98784437   -3.1882907   -1.6806995  0.070958213   -3.1882907    1.5075913   431539 
 3544000   0.98742262   -3.1889333   -1.6819578  0.066196562   -3.1889333    1.5069755   431531 
 3545000   0.98762962   -3.1907136   -1.6833418  0.064319835   -3.1907136    1.5073718   431508 
 3546000   0.98700919   -3.1895176   -1.6830089  0.066578746   -3.1895176    1.5065087   431484 
 3547000   0.98462379   -3.1847029   -1.6818317  0.069954332   -3.1847029    1.5028712   431483 
 3548000   0.98662031   -3.1873205   -1.6812867  0.062810219   -3.1873205    1.5060338   431450 
 3549000   0.98520048   -3.1877673   -1.6838521  0.061488921   -3.1877673    1.5039153   431436 
 3550000   0.98702797   -3.1895433   -1.6828453  0.065102141   -3.1895433    1.5066979   431438 
 3551000   0.98477284   -3.1868189   -1.6835216  0.063887463   -3.1868189    1.5032973   431426 
 3552000   0.98615422   -3.1882262   -1.6828097  0.065214493   -3.1882262    1.5054165   431423 
 3553000   0.98521415   -3.1875134   -1.6835215  0.060963878   -3.1875134    1.5039919   431420 
 3554000   0.98615687   -3.1883423   -1.6830892  0.065325548   -3.1883423    1.5052531   431471 
 3555000   0.98598569   -3.1881732   -1.6830628  0.068775325   -3.1881732    1.5051104   431437 
 3556000   0.98489536   -3.1862992   -1.6828497  0.066572211   -3.1862992    1.5034495   431436 
 3557000   0.98613387   -3.1868993   -1.6813533  0.068641488   -3.1868993     1.505546   431377 
 3558000   0.98754986   -3.1881762   -1.6805593  0.071608179   -3.1881762    1.5076169   431403 
 3559000   0.98661214   -3.1879671   -1.6817713  0.065407987   -3.1879671    1.5061959   431400 
 3560000    0.9885883   -3.1897304   -1.6804337  0.065065757   -3.1897304    1.5092967   431376 
 3561000   0.98569484   -3.1855255   -1.6805696  0.065364262   -3.1855255    1.5049559   431354 
 3562000   0.98723148    -3.187443   -1.6799941  0.069469723    -3.187443    1.5074489   431312 
 3563000   0.98605118   -3.1851366   -1.6794761  0.067665331   -3.1851366    1.5056606   431308 
 3564000   0.98604786   -3.1866665    -1.681004  0.065073127   -3.1866665    1.5056625   431306 
 3565000   0.98699723   -3.1863152   -1.6792904  0.063038033   -3.1863152    1.5070248   431331 
 3566000   0.98687639   -3.1862582   -1.6794424  0.063936823   -3.1862582    1.5068158   431338 
 3567000   0.98648216   -3.1855776    -1.679458  0.065726467   -3.1855776    1.5061196   431365 
 3568000   0.98588051   -3.1852332   -1.6800252  0.068898549   -3.1852332     1.505208   431363 
 3569000   0.98612864   -3.1854812   -1.6797722  0.063087292   -3.1854812     1.505709   431328 
 3570000   0.98639417   -3.1851844   -1.6789931  0.070867438   -3.1851844    1.5061913   431306 
 3571000   0.98635471   -3.1861042   -1.6799627  0.063604986   -3.1861042    1.5061415   431303 
 3572000   0.98605397   -3.1842641   -1.6785958  0.068157829   -3.1842641    1.5056683   431307 
 3573000   0.98510997   -3.1833005   -1.6790353  0.066359981   -3.1833005    1.5042652   431296 
 3574000   0.98498886   -3.1829388   -1.6789108  0.072097825   -3.1829388     1.504028   431311 
 3575000   0.98535451     -3.18415   -1.6795254   0.06175714     -3.18415    1.5046247   431300 
 3576000   0.98513593   -3.1830158   -1.6787005  0.067267961   -3.1830158    1.5043153   431293 
 3577000   0.98756074   -3.1870324   -1.6790424  0.065124738   -3.1870324    1.5079901   431301 
 3578000   0.98734155   -3.1861148   -1.6782951  0.071155593   -3.1861148    1.5078197   431254 
 3579000   0.98733699   -3.1866095    -1.678615  0.070361731   -3.1866095    1.5079946   431202 
 3580000   0.98716981   -3.1867978   -1.6789642  0.065488489   -3.1867978    1.5078336   431175 
 3581000   0.98766851   -3.1861996   -1.6775098  0.066023871   -3.1861996    1.5086898   431148 
 3582000   0.98778479   -3.1881932   -1.6792662  0.070218084   -3.1881932     1.508927   431131 
 3583000   0.98787095   -3.1863507   -1.6771451  0.067086862   -3.1863507    1.5092056   431089 
 3584000   0.98530345   -3.1841635   -1.6787372  0.072861612   -3.1841635    1.5054263   431048 
 3585000   0.98693994   -3.1881133   -1.6801551  0.066318555   -3.1881133    1.5079581   431039 
 3586000   0.98756397   -3.1871708   -1.6781331  0.067672921   -3.1871708    1.5090377   431003 
 3587000   0.98706665   -3.1861824   -1.6778662  0.068641618   -3.1861824    1.5083162   430992 
 3588000   0.98584673   -3.1848264   -1.6783358  0.065935369   -3.1848264    1.5064905   430981 
 3589000   0.98761494   -3.1877921   -1.6785225   0.06507578   -3.1877921    1.5092696   430959 
 3590000   0.98673444   -3.1864198   -1.6784748  0.063070579   -3.1864198     1.507945   430953 
 3591000    0.9867078   -3.1859647   -1.6780114  0.070960368   -3.1859647    1.5079533   430939 
 3592000   0.98771726     -3.18655   -1.6771731  0.068611889     -3.18655    1.5093769   430973 
 3593000   0.98775365   -3.1882106    -1.678659  0.065508566   -3.1882106    1.5095516   430939 
 3594000   0.98747836   -3.1879227   -1.6785956  0.067635015   -3.1879227    1.5093271   430883 
 3595000   0.98603672   -3.1877389   -1.6806538  0.067117349   -3.1877389    1.5070851   430894 
 3596000   0.98668258   -3.1866056   -1.6786104   0.06449836   -3.1866056    1.5079952   430916 
 3597000   0.98576559   -3.1855326   -1.6789529  0.066703398   -3.1855326    1.5065798   430920 
 3598000   0.98447198   -3.1849949   -1.6805423  0.061828856   -3.1849949    1.5044526   430963 
 3599000   0.98526246    -3.186345   -1.6807124  0.063514304    -3.186345    1.5056326   430971 
 3600000   0.98500867   -3.1874082   -1.6820831  0.062733085   -3.1874082    1.5053251   430948 
 3601000   0.98425149   -3.1862144   -1.6821546  0.064089622   -3.1862144    1.5040598   430979 
 3602000   0.98507924   -3.1874741   -1.6822262  0.064742855   -3.1874741    1.5052479   431001 
 3603000   0.98363122   -3.1853671   -1.6823737  0.060967701   -3.1853671    1.5029934   431013 
 3604000   0.98418081   -3.1867772   -1.6829336  0.064257173   -3.1867772    1.5038436   431010 
 3605000   0.98571838   -3.1886878   -1.6824284  0.059714249   -3.1886878    1.5062594   430991 
 3606000   0.98518092   -3.1890317   -1.6837298  0.062854042   -3.1890317     1.505302   431030 
 3607000   0.98380279   -3.1870022   -1.6837118   0.07017287   -3.1870022    1.5032904   431003 
 3608000   0.98546059   -3.1883515   -1.6825663  0.065914535   -3.1883515    1.5057852   431014 
 3609000   0.98371494   -3.1877318   -1.6845443  0.067415971   -3.1877318    1.5031876   430994 
 3610000   0.98343244   -3.1879131   -1.6852478  0.063342421   -3.1879131    1.5026652   431020 
 3611000    0.9847541   -3.1879559    -1.683526  0.065668952   -3.1879559    1.5044299   431093 
 3612000   0.98571517   -3.1894708   -1.6836216  0.066807986   -3.1894708    1.5058493   431107 
 3613000   0.98626205    -3.190989   -1.6842449  0.066512494    -3.190989    1.5067441   431090 
 3614000   0.98503368   -3.1893176   -1.6844571  0.069815718   -3.1893176    1.5048605   431092 
 3615000   0.98526582   -3.1894746   -1.6843921  0.067499101   -3.1894746    1.5050825   431130 
 3616000   0.98677886   -3.1928334   -1.6854466  0.067202742   -3.1928334    1.5073868   431132 
 3617000   0.98697588    -3.192535   -1.6848123  0.068447451    -3.192535    1.5077227   431122 
 3618000   0.98561166   -3.1923447   -1.6865942  0.067639178   -3.1923447    1.5057505   431090 
 3619000   0.98667071   -3.1936591   -1.6861368  0.067048046   -3.1936591    1.5075223   431046 
 3620000    0.9854844   -3.1925043   -1.6867002  0.065175831   -3.1925043    1.5058041   431019 
 3621000   0.98490492   -3.1923018   -1.6872923   0.06756813   -3.1923018    1.5050094   430993 
 3622000   0.98391505   -3.1912904   -1.6879191  0.066761524   -3.1912904    1.5033713   431029 
 3623000   0.98540055   -3.1935827   -1.6879661   0.06431036   -3.1935827    1.5056166   431036 
 3624000   0.98674904   -3.1954839   -1.6878769  0.066097456   -3.1954839     1.507607   431056 
 3625000   0.98616255   -3.1961608   -1.6896002  0.063213261   -3.1961608    1.5065607   431099 
 3626000   0.98486278   -3.1954521   -1.6908701  0.068785706   -3.1954521     1.504582   431097 
 3627000   0.98713158   -3.1993138   -1.6911573  0.062978503   -3.1993138    1.5081565   431066 
 3628000   0.98647992   -3.1986163   -1.6913995  0.067053234   -3.1986163    1.5072168   431050 
 3629000   0.98400065   -3.1948876   -1.6916192  0.070915749   -3.1948876    1.5032684   431096 
 3630000   0.98701652   -3.1984242   -1.6906743  0.070061744   -3.1984242    1.5077499   431132 
 3631000   0.98701009   -3.1982072   -1.6905721  0.064501707   -3.1982072    1.5076351   431162 
 3632000   0.98361885   -3.1935165   -1.6911416  0.066113821   -3.1935165    1.5023749   431185 
 3633000   0.98615076   -3.1965978   -1.6903766  0.065133543   -3.1965978    1.5062212   431191 
 3634000    0.9845874   -3.1947504   -1.6908752  0.070395278   -3.1947504    1.5038752   431179 
 3635000   0.98695354   -3.1964354    -1.688995  0.061560616   -3.1964354    1.5074404   431193 
 3636000   0.98724734   -3.1961656   -1.6882171  0.064544381   -3.1961656    1.5079485   431176 
 3637000   0.98624044   -3.1960817   -1.6895069  0.070567697   -3.1960817    1.5065748   431129 
 3638000   0.98496851   -3.1942205     -1.68947  0.068553973   -3.1942205    1.5047505   431095 
 3639000   0.98627357   -3.1950485   -1.6883777  0.066347468   -3.1950485    1.5066709   431116 
 3640000   0.98669579   -3.1959189   -1.6885926  0.063269581   -3.1959189    1.5073263   431113 
 3641000   0.98577561    -3.194649   -1.6887074  0.070147802    -3.194649    1.5059416   431107 
 3642000   0.98391586   -3.1925219   -1.6894528  0.066421891   -3.1925219    1.5030691   431116 
 3643000   0.98441078   -3.1928456   -1.6889367  0.067845773   -3.1928456    1.5039089   431092 
 3644000   0.98522998   -3.1942477   -1.6891012  0.063221056   -3.1942477    1.5051464   431096 
 3645000   0.98672056   -3.1958945   -1.6884499   0.06029269   -3.1958945    1.5074446   431090 
 3646000   0.98497182   -3.1927585   -1.6879959   0.06702054   -3.1927585    1.5047625   431093 
 3647000   0.98399622   -3.1907617   -1.6874827  0.064939637   -3.1907617    1.5032791   431091 
 3648000   0.98553039   -3.1931603   -1.6874885  0.063054585   -3.1931603    1.5056718   431077 
 3649000   0.98431101   -3.1899683   -1.6862083  0.068881656   -3.1899683      1.50376   431091 
 3650000   0.98451215   -3.1914182   -1.6873335  0.065833204   -3.1914182    1.5040847   431086 
 3651000   0.98378467   -3.1890663   -1.6860826  0.067252974   -3.1890663    1.5029838   431083 
 3652000   0.98265247   -3.1895319    -1.688149  0.062445297   -3.1895319    1.5013829   431046 
 3653000   0.98354508   -3.1905562   -1.6878444   0.06475548   -3.1905562    1.5027118   431056 
 3654000    0.9858573   -3.1927068   -1.6865216  0.060740911   -3.1927068    1.5061852   431073 
 3655000   0.98405233   -3.1898774   -1.6865754  0.065556194   -3.1898774     1.503302   431109 
 3656000   0.98446789   -3.1908005   -1.6867276  0.062373912   -3.1908005    1.5040729   431070 
 3657000   0.98605793   -3.1921461   -1.6856334  0.065102463   -3.1921461    1.5065127   431067 
 3658000   0.98626622   -3.1914075   -1.6845312  0.070057566   -3.1914075    1.5068763   431054 
 3659000   0.98583322    -3.192751   -1.6864908  0.065948286    -3.192751    1.5062602   431041 
 3660000    0.9873598     -3.19489   -1.6862273  0.064557302     -3.19489    1.5086627   431021 
 3661000   0.98563952   -3.1909696   -1.6849145  0.066876734   -3.1909696    1.5060551   431015 
 3662000    0.9863094   -3.1908441    -1.683706   0.06837255   -3.1908441    1.5071381   430998 
 3663000    0.9868147   -3.1924827   -1.6846529  0.069788128   -3.1924827    1.5078298   431021 
 3664000   0.98627987   -3.1923467   -1.6852817  0.063395836   -3.1923467     1.507065   431006 
 3665000   0.98786907   -3.1937901   -1.6843213  0.064157625   -3.1937901    1.5094688   431013 
 3666000   0.98709583   -3.1930736   -1.6848317  0.063175163   -3.1930736    1.5082418   431026 
 3667000   0.98590859   -3.1925612    -1.686109  0.065568608   -3.1925612    1.5064522   431019 
 3668000   0.98579363   -3.1922244   -1.6858429  0.067409556   -3.1922244    1.5063814   430989 
 3669000   0.98499655    -3.192128   -1.6869925  0.064484069    -3.192128    1.5051355   430997 
 3670000   0.98459635   -3.1915295   -1.6869148  0.065032023   -3.1915295    1.5046147   430971 
 3671000   0.98551427   -3.1931036   -1.6871665  0.069560965   -3.1931036    1.5059371   430994 
 3672000   0.98494471   -3.1914153   -1.6864812  0.064072415   -3.1914153    1.5049341   431032 
 3673000   0.98575744   -3.1922583   -1.6861454  0.067235459   -3.1922583     1.506113   431050 
 3674000   0.98340791   -3.1923549   -1.6897271  0.065411894   -3.1923549    1.5026278   431020 
 3675000   0.98404851   -3.1936485   -1.6899547  0.065918358   -3.1936485    1.5036938   430995 
 3676000   0.98486348   -3.1938584   -1.6888494  0.067184601   -3.1938584     1.505009   430975 
 3677000   0.98320714   -3.1928951   -1.6904138  0.067218096   -3.1928951    1.5024813   430974 
 3678000   0.98258335   -3.1921434   -1.6905561  0.067185785   -3.1921434    1.5015873   430957 
 3679000   0.98410383   -3.1936181   -1.6898956  0.060872537   -3.1936181    1.5037225   431011 
 3680000   0.98310051   -3.1930114   -1.6908394  0.067313652   -3.1930114     1.502172   431016 
 3681000   0.98495252   -3.1957433   -1.6906786  0.065804767   -3.1957433    1.5050647   430998 
 3682000   0.98500545   -3.1942101   -1.6892042  0.064918192   -3.1942101    1.5050059   431038 
 3683000     0.985616   -3.1940521   -1.6880923  0.070741732   -3.1940521    1.5059598   431032 
 3684000   0.98535099   -3.1947306   -1.6891163   0.06690063   -3.1947306    1.5056142   431015 
 3685000   0.98602803   -3.1957003    -1.689062   0.06849528   -3.1957003    1.5066382   431018 
 3686000   0.98511205   -3.1948113   -1.6895866  0.067814661   -3.1948113    1.5052247   431022 
 3687000    0.9861042   -3.1953513   -1.6885757  0.073087952   -3.1953513    1.5067756   431012 
 3688000   0.98532963    -3.194709   -1.6891624  0.066403381    -3.194709    1.5055466   431025 
 3689000   0.98530134   -3.1957557   -1.6902453  0.066456838   -3.1957557    1.5055104   431023 
 3690000   0.98417243   -3.1961317   -1.6923357  0.064713795   -3.1961317    1.5037959   431020 
 3691000   0.98575408   -3.1983704   -1.6921368   0.06254876   -3.1983704    1.5062336   431014 
 3692000   0.98375307   -3.1954179   -1.6922104  0.069041666   -3.1954179    1.5032075   431005 
 3693000   0.98425932   -3.1965864   -1.6925251  0.069616591   -3.1965864    1.5040613   430982 
 3694000   0.98597233   -3.1995154   -1.6928679  0.065864794   -3.1995154    1.5066475   430991 
 3695000   0.98453187   -3.1961718   -1.6918441  0.070955818   -3.1961718    1.5043277   431025 
 3696000   0.98480376    -3.197067    -1.692268  0.071915553    -3.197067     1.504799   431009 
 3697000   0.98656994    -3.199742   -1.6922303  0.062805792    -3.199742    1.5075117   431005 
 3698000   0.98718116   -3.1999804   -1.6914157  0.067504277   -3.1999804    1.5085647   430971 
 3699000   0.98618905   -3.1986377   -1.6915961   0.06671691   -3.1986377    1.5070416   430973 
 3700000   0.98623725    -3.198628   -1.6915931  0.059908398    -3.198628    1.5070348   430996 
 3701000   0.98501951   -3.1967389   -1.6914322  0.068386268   -3.1967389    1.5053068   430958 
 3702000   0.98551037   -3.1969389   -1.6908611  0.068348976   -3.1969389    1.5060779   430952 
 3703000    0.9860275    -3.197155   -1.6902588  0.068150428    -3.197155    1.5068961   430944 
 3704000   0.98496731   -3.1957924    -1.690499  0.066359173   -3.1957924    1.5052934   430939 
 3705000   0.98301881   -3.1935021   -1.6910262  0.063038722   -3.1935021    1.5024759   430893 
 3706000   0.98239043   -3.1933349   -1.6917845  0.062282398   -3.1933349    1.5015503   430883 
 3707000   0.98312417   -3.1950982   -1.6924368  0.063146278   -3.1950982    1.5026614   430886 
 3708000   0.98328656   -3.1944619   -1.6914931  0.062005491   -3.1944619    1.5029689   430869 
 3709000   0.98266146   -3.1936272    -1.691558  0.063161518   -3.1936272    1.5020692   430853 
 3710000   0.98326346   -3.1936194   -1.6905009  0.067568999   -3.1936194    1.5031185   430816 
 3711000   0.98402559   -3.1953333   -1.6910498  0.062938055   -3.1953333    1.5042835   430816 
 3712000   0.98253055   -3.1932269   -1.6911173  0.064378746   -3.1932269    1.5021096   430784 
 3713000   0.98345878   -3.1944572   -1.6909249   0.07013466   -3.1944572    1.5035322   430783 
 3714000   0.98353552   -3.1932803   -1.6895749  0.062989265   -3.1932803    1.5037054   430767 
 3715000    0.9833074   -3.1929974   -1.6896234  0.062513402   -3.1929974    1.5033741   430762 
 3716000   0.98346546   -3.1931998   -1.6895631   0.06591757   -3.1931998    1.5036367   430756 
 3717000   0.98220719   -3.1922847   -1.6906067  0.065990077   -3.1922847     1.501678   430766 
 3718000   0.98175462   -3.1937994   -1.6927784  0.060581116   -3.1937994    1.5010209   430756 
 3719000     0.981767   -3.1921951   -1.6911552  0.062632073   -3.1921951    1.5010399   430756 
 3720000   0.98315647   -3.1927752   -1.6896109  0.064482453   -3.1927752    1.5031642   430756 
 3721000   0.98484569   -3.1952743   -1.6894365  0.064341655   -3.1952743    1.5058378   430730 
 3722000   0.98318947   -3.1925811   -1.6891431  0.063782962   -3.1925811    1.5034381   430692 
 3723000   0.98244246   -3.1934798   -1.6910201   0.06555156   -3.1934798    1.5024598   430645 
 3724000   0.98489097   -3.1956191   -1.6894183  0.067834777   -3.1956191    1.5062008   430646 
 3725000   0.98292231   -3.1930074   -1.6897649   0.06616984   -3.1930074    1.5032425   430631 
 3726000   0.98571432   -3.1971265   -1.6894495  0.065467438   -3.1971265     1.507677   430584 
 3727000     0.982749    -3.194128   -1.6909272  0.068506755    -3.194128    1.5032008   430567 
 3728000   0.98330196   -3.1947862   -1.6907605  0.067224172   -3.1947862    1.5040257   430573 
 3729000   0.98366877   -3.1961577   -1.6914557  0.066377847   -3.1961577     1.504702   430540 
 3730000   0.98687947   -3.1992562   -1.6896322  0.067373231   -3.1992562    1.5096239   430537 
 3731000   0.98283075   -3.1954484   -1.6920911  0.065370244   -3.1954484    1.5033573   430558 
 3732000   0.98427567   -3.1973328   -1.6918038  0.065317775   -3.1973328     1.505529   430569 
 3733000   0.98405359   -3.1972253   -1.6919801  0.066610612   -3.1972253    1.5052452   430553 
 3734000   0.98408063   -3.1963058   -1.6908549  0.070156252   -3.1963058    1.5054509   430506 
 3735000   0.98275429   -3.1962966   -1.6929341   0.06794211   -3.1962966    1.5033625   430523 
 3736000   0.98294919   -3.1953497   -1.6917064  0.067329943   -3.1953497    1.5036432   430528 
 3737000   0.98366758   -3.1964106   -1.6915846   0.06510833   -3.1964106     1.504826   430504 
 3738000    0.9840082   -3.1957859   -1.6902639  0.062340043   -3.1957859     1.505522   430454 
 3739000   0.98319955     -3.19598    -1.691545  0.068669831     -3.19598     1.504435   430411 
 3740000   0.98265644   -3.1950554   -1.6914863  0.062261524   -3.1950554    1.5035691   430421 
 3741000    0.9822718   -3.1945716   -1.6914514  0.070908418   -3.1945716    1.5031202   430381 
 3742000   0.98319508   -3.1954336   -1.6909425  0.065613317   -3.1954336    1.5044911   430393 
 3743000   0.98293974   -3.1951996   -1.6912495  0.064347097   -3.1951996    1.5039501   430436 
 3744000   0.98272012   -3.1956731    -1.692272  0.066752019   -3.1956731    1.5034011   430497 
 3745000   0.98276203   -3.1969999   -1.6934649   0.06896762   -3.1969999     1.503535   430477 
 3746000   0.98267031    -3.195638   -1.6922853  0.062309671    -3.195638    1.5033528   430489 
 3747000   0.98217066   -3.1951892   -1.6925729  0.060824135   -3.1951892    1.5026163   430481 
 3748000   0.98139983   -3.1939106   -1.6923863  0.066818614   -3.1939106    1.5015242   430456 
 3749000   0.98127927   -3.1926572   -1.6912755  0.061628995   -3.1926572    1.5013816   430444 
 3750000   0.98144849   -3.1938596   -1.6921911  0.062978085   -3.1938596    1.5016685   430436 
 3751000   0.98036115   -3.1928189   -1.6927793  0.059644881   -3.1928189    1.5000396   430426 
 3752000    0.9810303   -3.1932952   -1.6922736  0.058938801   -3.1932952    1.5010216   430438 
 3753000   0.98244113    -3.195761   -1.6924829  0.059842304    -3.195761     1.503278   430410 
 3754000   0.98048964   -3.1931949   -1.6928053  0.063129759   -3.1931949    1.5003896   430382 
 3755000   0.98194416   -3.1938419   -1.6911882  0.060126257   -3.1938419    1.5026538   430371 
 3756000   0.98134596   -3.1908482   -1.6891238  0.069709021   -3.1908482    1.5017244   430375 
 3757000    0.9835097   -3.1954983   -1.6904244  0.059774405   -3.1954983     1.505074   430364 
 3758000   0.98395883   -3.1961787   -1.6903895  0.064793404   -3.1961787    1.5057893   430356 
 3759000   0.98309256   -3.1958094   -1.6913983  0.068988279   -3.1958094    1.5044112   430371 
 3760000   0.98348001   -3.1955241   -1.6905061  0.065608849   -3.1955241     1.505018   430367 
 3761000   0.98404812   -3.1973706   -1.6915356  0.069545988   -3.1973706    1.5058349   430382 
 3762000   0.98316406   -3.1956828   -1.6911168  0.067913598   -3.1956828     1.504566   430358 
 3763000   0.98413237   -3.1982998    -1.692196  0.068076127   -3.1982998    1.5061038   430342 
 3764000   0.98322374   -3.1972664   -1.6925321  0.066478725   -3.1972664    1.5047343   430336 
 3765000   0.98321193   -3.1981192   -1.6933435  0.067403211   -3.1981192    1.5047756   430319 
 3766000    0.9834008    -3.198869   -1.6938568  0.062679883    -3.198869    1.5050122   430334 
 3767000   0.98354413   -3.1975735   -1.6923664  0.062214972   -3.1975735    1.5052071   430341 
 3768000   0.98258862   -3.1954617    -1.691703  0.068661266   -3.1954617    1.5037588   430337 
 3769000   0.98281959   -3.1974244   -1.6933191  0.068354529   -3.1974244    1.5041053   430339 
 3770000   0.98368393   -3.1980877   -1.6925547   0.06299667   -3.1980877     1.505533   430309 
 3771000   0.98456941   -3.1990775   -1.6922488  0.066943775   -3.1990775    1.5068287   430326 
 3772000   0.98371626   -3.1988573   -1.6933098  0.070446893   -3.1988573    1.5055475   430319 
 3773000   0.98214468   -3.1970142   -1.6938545  0.068933141   -3.1970142    1.5031597   430314 
 3774000   0.98239339   -3.2000134   -1.6963193  0.067892196   -3.2000134    1.5036941   430270 
 3775000   0.98271206    -3.199405   -1.6952196  0.063321637    -3.199405    1.5041854   430269 
 3776000   0.98099771   -3.1972958   -1.6958322  0.062875136   -3.1972958    1.5014636   430297 
 3777000   0.98294681   -3.1996735   -1.6952197  0.058361307   -3.1996735    1.5044538   430295 
 3778000   0.97973632   -3.1957493    -1.696192  0.068841578   -3.1957493    1.4995574   430290 
 3779000   0.98264611   -3.2011429   -1.6971214   0.05724825   -3.2011429    1.5040215   430287 
 3780000   0.98069262   -3.1996033   -1.6985125  0.062598729   -3.1996033    1.5010908   430270 
 3781000   0.98094747   -3.1999189   -1.6983333  0.061536056   -3.1999189    1.5015856   430240 
 3782000   0.98014873   -3.1971606    -1.696836  0.063904375   -3.1971606    1.5003246   430251 
 3783000   0.98043969   -3.1987063   -1.6978386  0.061544853   -3.1987063    1.5008676   430223 
 3784000   0.98086461   -3.1982545   -1.6967398  0.059244034   -3.1982545    1.5015146   430224 
 3785000   0.98031362   -3.1963296   -1.6958015  0.062856844   -3.1963296    1.5005282   430265 
 3786000   0.97993765   -3.1961324   -1.6961275  0.059532851   -3.1961324     1.500005   430250 
 3787000   0.98148595   -3.1990966   -1.6966134  0.060136702   -3.1990966    1.5024832   430219 
 3788000   0.98261773   -3.1988843   -1.6947419  0.064199142   -3.1988843    1.5041424   430240 
 3789000   0.98276592   -3.1997658   -1.6953057  0.061927254   -3.1997658    1.5044601   430214 
 3790000   0.98182207   -3.1978337   -1.6947416  0.065542041   -3.1978337    1.5030921   430192 
 3791000   0.98314713   -3.2001023   -1.6949011  0.060815858   -3.2001023    1.5052011   430169 
 3792000   0.98200294   -3.1983171   -1.6948118  0.063384041   -3.1983171    1.5035053   430153 
 3793000   0.98326114   -3.1990599   -1.6938242  0.066731053   -3.1990599    1.5052357   430209 
 3794000   0.98336077   -3.2002752    -1.694894  0.062082728   -3.2002752    1.5053812   430211 
 3795000   0.98181393   -3.1964776   -1.6935132  0.066738779   -3.1964776    1.5029644   430225 
 3796000   0.98291726    -3.197379   -1.6927572  0.070044444    -3.197379    1.5046219   430234 
 3797000   0.98339951   -3.1985679   -1.6930959  0.061425868   -3.1985679     1.505472   430202 
 3798000   0.98240619   -3.1970875   -1.6931396  0.074310432   -3.1970875    1.5039479   430203 
 3799000   0.98251261   -3.1991369   -1.6949772  0.066323402   -3.1991369    1.5041597   430189 
 3800000   0.98170148   -3.1969788   -1.6941796  0.064155771   -3.1969788    1.5027992   430223 
 3801000   0.98211638   -3.1979211   -1.6944413  0.064446531   -3.1979211    1.5034798   430210 
 3802000    0.9842018   -3.2005619   -1.6939597  0.063223558   -3.2005619    1.5066022   430230 
 3803000   0.98226432   -3.1971089   -1.6934725  0.064487015   -3.1971089    1.5036363   430230 
 3804000   0.98187094   -3.1955858   -1.6926041  0.061217552   -3.1955858    1.5029818   430245 
 3805000   0.98325647   -3.1984869   -1.6933983  0.064681825   -3.1984869    1.5050886   430249 
 3806000    0.9823642   -3.1967017   -1.6929545  0.060143978   -3.1967017    1.5037473   430242 
 3807000   0.98265305   -3.1969504   -1.6927295  0.063929733   -3.1969504    1.5042209   430233 
 3808000   0.98237749   -3.1967881   -1.6930414  0.063566604   -3.1967881    1.5037467   430248 
 3809000   0.98276882   -3.1972991    -1.692936  0.064722471   -3.1972991    1.5043632   430243 
 3810000   0.98451326   -3.1979893   -1.6909874  0.066821152   -3.1979893    1.5070019   430252 
 3811000   0.98182625   -3.1945347   -1.6915829  0.064507159   -3.1945347    1.5029518   430234 
 3812000   0.98330137   -3.1970731   -1.6917828  0.065732987   -3.1970731    1.5052903   430211 
 3813000   0.98282799   -3.1959239   -1.6913792   0.06968872   -3.1959239    1.5045446   430217 
 3814000    0.9838946   -3.1974223   -1.6912308  0.066494472   -3.1974223    1.5061915   430213 
 3815000   0.98353263   -3.1973429   -1.6917826  0.065533481   -3.1973429    1.5055603   430235 
 3816000   0.98183805   -3.1971325   -1.6941208  0.066424608   -3.1971325    1.5030117   430222 
 3817000   0.98113225   -3.1962895   -1.6943302  0.066088326   -3.1962895    1.5019592   430214 
 3818000   0.98036412   -3.1954494   -1.6946451  0.063757724   -3.1954494    1.5008043   430208 
 3819000   0.98163432   -3.1977273   -1.6948283  0.064191869   -3.1977273     1.502899   430165 
 3820000   0.98201863   -3.1980648    -1.694455  0.069380786   -3.1980648    1.5036097   430130 
 3821000   0.98193512    -3.199937   -1.6963258  0.062327315    -3.199937    1.5036112   430093 
 3822000   0.98109423   -3.1997486   -1.6973936   0.06122175   -3.1997486     1.502355   430084 
 3823000   0.98056855   -3.1990615   -1.6973788  0.063248623   -3.1990615    1.5016827   430046 
 3824000   0.98024993   -3.1971176   -1.6959577  0.064131077   -3.1971176    1.5011598   430056 
 3825000   0.98183867   -3.2009287   -1.6973708  0.066756894   -3.2009287    1.5035579   430066 
 3826000   0.98191561   -3.1998524   -1.6962536  0.066300638   -3.1998524    1.5035988   430088 
 3827000   0.98207326   -3.2005455   -1.6966494  0.066094744   -3.2005455    1.5038962   430072 
 3828000   0.98237057   -3.2030885   -1.6986181  0.066759656   -3.2030885    1.5044704   430038 
 3829000   0.98327445    -3.203397   -1.6974968  0.068668827    -3.203397    1.5059002   430025 
 3830000   0.98265637   -3.2029576   -1.6978885  0.073394948   -3.2029576    1.5050691   429992 
 3831000   0.98253507   -3.2025803   -1.6977426  0.067433777   -3.2025803    1.5048378   430005 
 3832000   0.98465912   -3.2051326   -1.6970627  0.066682682   -3.2051326    1.5080699   430011 
 3833000   0.98187534   -3.2004124   -1.6965536  0.067845899   -3.2004124    1.5038588   429996 
 3834000   0.98394988     -3.20397   -1.6970704  0.065723479     -3.20397    1.5068996   430035 
 3835000   0.98219467   -3.2007135   -1.6964601  0.066453733   -3.2007135    1.5042535   430023 
 3836000   0.98540197   -3.2050297   -1.6958291   0.06453257   -3.2050297    1.5092006   430013 
 3837000   0.98337081   -3.2034413   -1.6974426  0.066530868   -3.2034413    1.5059987   430039 
 3838000   0.98286166   -3.2029534   -1.6975489  0.068645647   -3.2029534    1.5054045   429986 
 3839000   0.98207539   -3.2028705   -1.6985198  0.070569634   -3.2028705    1.5043507   429943 
 3840000   0.98261332   -3.2029358   -1.6977926   0.06608818   -3.2029358    1.5051431   429952 
 3841000   0.98252845   -3.2041372   -1.6989981  0.068971008   -3.2041372    1.5051392   429916 
 3842000   0.98331244   -3.2052415   -1.6988383  0.067753937   -3.2052415    1.5064032   429898 
 3843000   0.98242693   -3.2047175   -1.6994783  0.062050769   -3.2047175    1.5052392   429843 
 3844000   0.98233507   -3.2041647   -1.6990802  0.063634431   -3.2041647    1.5050845   429847 
 3845000   0.98087515   -3.2022834   -1.6993833  0.071158285   -3.2022834    1.5029001   429832 
 3846000   0.98086418   -3.2017696   -1.6990786  0.063735511   -3.2017696     1.502691   429887 
 3847000   0.98229162    -3.204239   -1.6995396  0.066266642    -3.204239    1.5046994   429938 
 3848000   0.98173359   -3.2019184   -1.6980493    0.0669356   -3.2019184    1.5038691   429931 
 3849000   0.98221131   -3.2035978   -1.6990075  0.064627121   -3.2035978    1.5045904   429934 
 3850000   0.98216938   -3.2022971    -1.697876  0.064928007   -3.2022971    1.5044211   429964 
 3851000   0.98337352   -3.2034851   -1.6972335  0.065738462   -3.2034851    1.5062515   429968 
 3852000   0.98218382   -3.2027606   -1.6984013  0.064392307   -3.2027606    1.5043593   429988 
 3853000   0.98294859   -3.2030701   -1.6975709  0.064871276   -3.2030701    1.5054991   429997 
 3854000   0.98054988   -3.1987324   -1.6967395  0.068267487   -3.1987324    1.5019929   429949 
 3855000   0.98371852   -3.2015713   -1.6948789  0.064383992   -3.2015713    1.5066924   429993 
 3856000   0.98300508   -3.2005715   -1.6950208  0.063568923   -3.2005715    1.5055506   430007 
 3857000   0.98206936   -3.1991053   -1.6950052  0.064812126   -3.1991053       1.5041   430012 
 3858000   0.98241384   -3.2004165   -1.6959253  0.063518656   -3.2004165    1.5044912   430051 
 3859000   0.98126134   -3.1993876   -1.6966753  0.062621413   -3.1993876    1.5027122   430055 
 3860000    0.9808935   -3.1989476    -1.696645  0.064591333   -3.1989476    1.5023026   430011 
 3861000   0.98092231   -3.1978586   -1.6956027  0.067490653   -3.1978586    1.5022559   430037 
 3862000   0.98100491   -3.1989895   -1.6966979  0.065223728   -3.1989895    1.5022916   430063 
 3863000   0.98259179   -3.2007548   -1.6959841  0.062348616   -3.2007548    1.5047707   430049 
 3864000   0.98365517    -3.201479   -1.6950623  0.066197951    -3.201479    1.5064167   430044 
 3865000   0.98313889    -3.200894    -1.695247  0.061308724    -3.200894     1.505647   430038 
 3866000   0.98381722   -3.2023183   -1.6955973  0.061056529   -3.2023183    1.5067209   430028 
 3867000   0.98192766   -3.2006978   -1.6968917  0.067391959   -3.2006978    1.5038061   430034 
 3868000   0.98324089   -3.2020203   -1.6961576  0.068014813   -3.2020203    1.5058628   430021 
 3869000   0.98210856   -3.2010316   -1.6968085  0.071520399   -3.2010316     1.504223   429994 
 3870000     0.982825   -3.2028789   -1.6975341  0.069950074   -3.2028789    1.5053448   429987 
 3871000    0.9833856   -3.2048369   -1.6985844   0.06016785   -3.2048369    1.5062525   429973 
 3872000   0.98301664    -3.204306   -1.6984926  0.063118953    -3.204306    1.5058135   429937 
 3873000   0.98183467   -3.2020483   -1.6980384  0.064896666   -3.2020483    1.5040099   429935 
 3874000    0.9837091   -3.2045847    -1.697742  0.067477046   -3.2045847    1.5068427   429946 
 3875000   0.98430616   -3.2051487   -1.6974546   0.06609513   -3.2051487    1.5076941   429964 
 3876000   0.98242362   -3.2026964   -1.6978158  0.066405631   -3.2026964    1.5048806   429944 
 3877000   0.98234191    -3.203403   -1.6987106  0.067066851    -3.203403    1.5046924   429962 
 3878000   0.98167678   -3.2017519   -1.6980958  0.071120312   -3.2017519    1.5036561   429967 
 3879000   0.98216537   -3.2025108   -1.6981133   0.06106682   -3.2025108    1.5043975   429969 
 3880000   0.98262021    -3.203638   -1.6985788  0.071011767    -3.203638    1.5050592   429979 
 3881000   0.98331546   -3.2045424   -1.6983693  0.067640489   -3.2045424    1.5061731   429965 
 3882000   0.98190974    -3.203541   -1.6994371   0.06221028    -3.203541    1.5041039   429941 
 3883000   0.98146348   -3.2017667   -1.6984304  0.066527496   -3.2017667    1.5033364   429965 
 3884000   0.98114484    -3.202926   -1.7000987  0.064299783    -3.202926    1.5028274   429971 
 3885000    0.9820598   -3.2038123   -1.6995205  0.067188439   -3.2038123    1.5042918   429953 
 3886000   0.98258265   -3.2056914   -1.7006407  0.066501433   -3.2056914    1.5050507   429965 
 3887000   0.98283023   -3.2042909   -1.6989066  0.066795054   -3.2042909    1.5053844   429978 
 3888000   0.98178693   -3.2035796   -1.6998282  0.069999571   -3.2035796    1.5037514   429988 
 3889000   0.98256561   -3.2053743   -1.7002413  0.068496538   -3.2053743    1.5051331   429934 
 3890000   0.98052598    -3.204021   -1.7019494  0.064355187    -3.204021    1.5020716   429916 
 3891000   0.98207672   -3.2057621   -1.7012694  0.069962117   -3.2057621    1.5044927   429903 
 3892000   0.98113147   -3.2061652   -1.7030088  0.058615204   -3.2061652    1.5031565   429871 
 3893000   0.98114716   -3.2055567   -1.7024112  0.065890147   -3.2055567    1.5031455   429881 
 3894000   0.98178052   -3.2061412   -1.7019554  0.067451638   -3.2061412    1.5041858   429861 
 3895000   0.97986288   -3.2040824   -1.7028031  0.065139906   -3.2040824    1.5012793   429852 
 3896000   0.98016894   -3.2055908   -1.7038391  0.064096788   -3.2055908    1.5017517   429851 
 3897000    0.9821843   -3.2078303   -1.7029593  0.069506381   -3.2078303     1.504871   429842 
 3898000   0.98168525   -3.2061799    -1.702021  0.067430752   -3.2061799    1.5041589   429827 
 3899000   0.98220422   -3.2068412   -1.7017891  0.067204225   -3.2068412    1.5050521   429799 
 3900000   0.98200428   -3.2077318   -1.7028985  0.066494076   -3.2077318    1.5048332   429774 
 3901000   0.98039302   -3.2059668   -1.7036446  0.065279886   -3.2059668    1.5023222   429786 
 3902000   0.98221218   -3.2077888   -1.7027175  0.066012281   -3.2077888    1.5050713   429797 
 3903000   0.97925244   -3.2030273   -1.7024948  0.069861233   -3.2030273    1.5005325   429798 
 3904000   0.98012633   -3.2039658   -1.7020139  0.068300188   -3.2039658     1.501952   429775 
 3905000   0.98146105    -3.205704   -1.7016332  0.061527228    -3.205704    1.5040708   429754 
 3906000   0.98100581    -3.205721   -1.7023828  0.068286679    -3.205721    1.5033381   429764 
 3907000   0.98051458   -3.2048094   -1.7022136  0.067446809   -3.2048094    1.5025959   429761 
 3908000   0.97884299   -3.2032336   -1.7032029  0.066934671   -3.2032336    1.5000307   429762 
 3909000   0.97933327   -3.2041092   -1.7032923  0.066190494   -3.2041092     1.500817   429752 
 3910000   0.97937499   -3.2038913   -1.7030662  0.067585782   -3.2038913     1.500825   429768 
 3911000   0.98011819   -3.2063706   -1.7043193  0.070133002   -3.2063706    1.5020513   429743 
 3912000   0.98069912   -3.2053579   -1.7023743  0.065719483   -3.2053579    1.5029836   429731 
 3913000   0.98120404   -3.2059744   -1.7022765  0.066230557   -3.2059744    1.5036979   429748 
 3914000   0.98211755   -3.2063763   -1.7011943  0.063200296   -3.2063763    1.5051819   429724 
 3915000   0.97974426    -3.203051   -1.7014679  0.063344415    -3.203051    1.5015831   429713 
 3916000   0.98016571   -3.2047451   -1.7024217  0.062847585   -3.2047451    1.5023234   429686 
 3917000   0.98015587   -3.2056442    -1.703196  0.065738005   -3.2056442    1.5024482   429646 
 3918000    0.9802036   -3.2050614    -1.702561  0.068039524   -3.2050614    1.5025004   429652 
 3919000    0.9799364   -3.2051434   -1.7030212  0.068838561   -3.2051434    1.5021223   429643 
 3920000   0.97961908   -3.2048716   -1.7032637  0.060896567   -3.2048716    1.5016079   429651 
 3921000    0.9787668   -3.2037552   -1.7034607  0.064076386   -3.2037552    1.5002945   429653 
 3922000   0.97932507   -3.2051827   -1.7040115  0.064627114   -3.2051827    1.5011712   429647 
 3923000   0.98016775   -3.2070941   -1.7044738  0.063069664   -3.2070941    1.5026203   429602 
 3924000   0.97960538   -3.2059997   -1.7042031  0.064752034   -3.2059997    1.5017966   429591 
 3925000   0.98087981   -3.2077549   -1.7041025  0.061542581   -3.2077549    1.5036524   429619 
 3926000   0.97977898    -3.205739   -1.7037532  0.066727678    -3.205739    1.5019858   429613 
 3927000   0.97982548   -3.2061082   -1.7039882   0.06671951   -3.2061082      1.50212   429595 
 3928000   0.97930597   -3.2055235   -1.7042243  0.065578136   -3.2055235    1.5012992   429602 
 3929000   0.98028972   -3.2056104   -1.7026981  0.064256494   -3.2056104    1.5029122   429572 
 3930000   0.97978815   -3.2049147    -1.702782  0.069704488   -3.2049147    1.5021327   429575 
 3931000    0.9808951     -3.20661   -1.7027136  0.071540983     -3.20661    1.5038964   429556 
 3932000   0.98110958   -3.2062281   -1.7019819   0.06454634   -3.2062281    1.5042462   429550 
 3933000   0.97963165     -3.20754   -1.7054478  0.058473089     -3.20754    1.5020921   429518 
 3934000   0.97980024   -3.2080773   -1.7056741  0.068886973   -3.2080773    1.5024031   429503 
 3935000   0.97855239   -3.2062296   -1.7057609  0.062689519   -3.2062296    1.5004687   429509 
 3936000    0.9792916   -3.2072444   -1.7056073   0.06294702   -3.2072444    1.5016371   429499 
 3937000   0.97963584   -3.2080256   -1.7057556  0.063571848   -3.2080256    1.5022699   429469 
 3938000    0.9792516   -3.2072313   -1.7055017  0.064152575   -3.2072313    1.5017297   429455 
 3939000   0.97831426    -3.204237   -1.7040287  0.063253556    -3.204237    1.5002084   429479 
 3940000   0.97970448   -3.2060366   -1.7035915  0.068379456   -3.2060366    1.5024452   429449 
 3941000   0.97902458   -3.2065325   -1.7050776  0.063686619   -3.2065325    1.5014549   429434 
 3942000   0.98031398   -3.2080403   -1.7045939  0.066409279   -3.2080403    1.5034464   429430 
 3943000   0.97818289   -3.2059046   -1.7056112  0.064938714   -3.2059046    1.5002934   429397 
 3944000   0.97709859   -3.2048667   -1.7061352  0.067328792   -3.2048667    1.4987315   429368 
 3945000   0.97962858   -3.2082959   -1.7055963  0.062597035   -3.2082959    1.5026997   429343 
 3946000   0.97826999   -3.2050986   -1.7045353  0.065524848   -3.2050986    1.5005632   429358 
 3947000   0.97927758   -3.2061774   -1.7041141  0.068621411   -3.2061774    1.5020633   429371 
 3948000   0.97874316   -3.2058544   -1.7046458  0.061928392   -3.2058544    1.5012086   429381 
 3949000    0.9797869   -3.2066169   -1.7038003   0.06360076   -3.2066169    1.5028165   429379 
 3950000    0.9802611   -3.2067321   -1.7030762  0.068874295   -3.2067321    1.5036559   429347 
 3951000   0.98131368   -3.2090813   -1.7036986  0.063390476   -3.2090813    1.5053827   429315 
 3952000   0.97788698   -3.2045574   -1.7045257  0.065213714   -3.2045574    1.5000316   429342 
 3953000   0.97742062   -3.2051135   -1.7057692  0.065461105   -3.2051135    1.4993442   429334 
 3954000   0.97805834   -3.2067499   -1.7065113  0.062963246   -3.2067499    1.5002386   429358 
 3955000   0.97821291   -3.2060117   -1.7055605  0.061529856   -3.2060117    1.5004512   429365 
 3956000   0.97659679   -3.2056945   -1.7076663  0.061862405   -3.2056945    1.4980281   429349 
 3957000   0.97783732   -3.2079862   -1.7079888  0.064360142   -3.2079862    1.4999974   429330 
 3958000   0.97874607   -3.2078953   -1.7065703   0.05667944   -3.2078953     1.501325   429349 
 3959000   0.97767632   -3.2063221   -1.7066591  0.060571095   -3.2063221    1.4996631   429355 
 3960000   0.97718272   -3.2061618   -1.7071895  0.061976288   -3.2061618    1.4989723   429336 
 3961000    0.9789298    -3.209032   -1.7073168  0.058968801    -3.209032    1.5017152   429318 
 3962000   0.97967995   -3.2100529   -1.7071764  0.063379307   -3.2100529    1.5028765   429315 
 3963000   0.97861748   -3.2073257   -1.7061141  0.068854053   -3.2073257    1.5012116   429325 
 3964000   0.98037681   -3.2103311   -1.7064417  0.066744736   -3.2103311    1.5038895   429331 
 3965000   0.97905029   -3.2088356    -1.707044  0.062513094   -3.2088356    1.5017916   429349 
 3966000   0.97976548   -3.2080928   -1.7053231  0.068000585   -3.2080928    1.5027697   429383 
 3967000   0.98149353   -3.2088619   -1.7034522   0.06385223   -3.2088619    1.5054096   429386 
 3968000   0.98108571   -3.2094413   -1.7047833  0.071508599   -3.2094413     1.504658   429422 
 3969000   0.98100963   -3.2109144   -1.7062294   0.06643203   -3.2109144     1.504685   429381 
 3970000   0.98069223   -3.2109818   -1.7067066  0.065138879   -3.2109818    1.5042752   429359 
 3971000   0.97771964   -3.2089095   -1.7091136  0.066770056   -3.2089095    1.4997959   429336 
 3972000    0.9790625   -3.2101636   -1.7083357  0.060895584   -3.2101636    1.5018278   429344 
 3973000   0.97850279   -3.2084838    -1.707518  0.064999008   -3.2084838    1.5009658   429345 
 3974000   0.97919017   -3.2079966   -1.7060289  0.062102366   -3.2079966    1.5019677   429360 
 3975000   0.98013392   -3.2096187   -1.7059898  0.063131451   -3.2096187    1.5036289   429299 
 3976000   0.97976048   -3.2098392   -1.7067656  0.066815081   -3.2098392    1.5030735   429294 
 3977000   0.98040793   -3.2102188   -1.7061449  0.063054939   -3.2102188    1.5040738   429292 
 3978000   0.97996878   -3.2088567   -1.7054811  0.064025835   -3.2088567    1.5033756   429299 
 3979000   0.97849228    -3.208628   -1.7074406  0.066204425    -3.208628    1.5011874   429277 
 3980000   0.97841592   -3.2096049   -1.7085241  0.061792702   -3.2096049    1.5010807   429274 
 3981000   0.97955009   -3.2092066   -1.7063648  0.062264953   -3.2092066    1.5028418   429268 
 3982000   0.97840116    -3.207313     -1.70615  0.066777643    -3.207313     1.501163   429244 
 3983000   0.97829937   -3.2075737   -1.7065074  0.063380543   -3.2075737    1.5010663   429227 
 3984000   0.97722843   -3.2056496   -1.7061706  0.065762234   -3.2056496     1.499479   429211 
 3985000    0.9782097   -3.2060891   -1.7051604  0.064532851   -3.2060891    1.5009287   429227 
 3986000   0.97812742   -3.2058612   -1.7051392  0.062633014   -3.2058612     1.500722   429250 
 3987000   0.97723107    -3.203968   -1.7045897  0.066299949    -3.203968    1.4993782   429241 
 3988000   0.97716069   -3.2050507   -1.7058224  0.058173024   -3.2050507    1.4992283   429253 
 3989000   0.97689256   -3.2052336   -1.7062491  0.064066929   -3.2052336    1.4989846   429205 
 3990000   0.97788469   -3.2068767   -1.7063977  0.061335945   -3.2068767     1.500479   429213 
 3991000   0.97836151   -3.2047119   -1.7036517  0.062178016   -3.2047119    1.5010602   429256 
 3992000   0.97795273    -3.204636   -1.7042553  0.061647308    -3.204636    1.5003806   429271 
 3993000   0.97856689   -3.2054326   -1.7040642  0.062354371   -3.2054326    1.5013683   429258 
 3994000   0.97784903   -3.2045682   -1.7042418  0.066886585   -3.2045682    1.5003264   429241 
 3995000   0.97893744   -3.2056825   -1.7036092  0.061789529   -3.2056825    1.5020733   429219 
 3996000   0.97785081   -3.2041062   -1.7037981  0.056720901   -3.2041062    1.5003081   429247 
 3997000   0.97748988   -3.2046681   -1.7048054  0.063306087   -3.2046681    1.4998627   429216 
 3998000   0.97803524    -3.204944   -1.7044263   0.05738081    -3.204944    1.5005177   429268 
 3999000   0.97717804   -3.2030354   -1.7038503  0.064195619   -3.2030354    1.4991851   429273 
 4000000   0.97617281   -3.2028307   -1.7050832   0.06543589   -3.2028307    1.4977475   429243 
 4001000   0.97550258   -3.2020707   -1.7052888  0.061604634   -3.2020707     1.496782   429225 
 4002000    0.9776881   -3.2057369   -1.7055736  0.062220142   -3.2057369    1.5001633   429217 
 4003000   0.97836228   -3.2055357    -1.704191   0.05739941   -3.2055357    1.5013447   429175 
 4004000   0.97730689   -3.2026502   -1.7030334  0.059041438   -3.2026502    1.4996168   429206 
 4005000   0.97919004   -3.2045664    -1.702088   0.06429231   -3.2045664    1.5024784   429214 
 4006000   0.98007605   -3.2064567   -1.7026223  0.063939571   -3.2064567    1.5038344   429215 
 4007000   0.97836049   -3.2048446   -1.7034852  0.063916768   -3.2048446    1.5013595   429170 
 4008000   0.97853124    -3.205654   -1.7040256  0.064832931    -3.205654    1.5016285   429168 
 4009000   0.97831504   -3.2049311   -1.7037183   0.06407055   -3.2049311    1.5012128   429192 
 4010000   0.97696837   -3.2041824   -1.7049907  0.067194672   -3.2041824    1.4991917   429179 
 4011000   0.97800452   -3.2059992    -1.705228  0.059877699   -3.2059992    1.5007712   429182 
 4012000   0.97583596   -3.2049409    -1.707459  0.062644668   -3.2049409    1.4974819   429171 
 4013000   0.97752555   -3.2052763   -1.7051667   0.06036789   -3.2052763    1.5001096   429161 
 4014000   0.97642486   -3.2048897   -1.7063819  0.063990157   -3.2048897    1.4985078   429136 
 4015000   0.97914133   -3.2080142   -1.7053725  0.057354584   -3.2080142    1.5026417   429146 
 4016000   0.97760701    -3.206418   -1.7060994  0.060561161    -3.206418    1.5003186   429137 
 4017000    0.9772504   -3.2059183   -1.7062449  0.065062557   -3.2059183    1.4996734   429165 
 4018000   0.97945599   -3.2089333   -1.7059347  0.067162846   -3.2089333    1.5029985   429182 
 4019000   0.97608434    -3.205382   -1.7075818  0.064656146    -3.205382    1.4978002   429189 
 4020000   0.97874665   -3.2099454   -1.7080949   0.06712451   -3.2099454    1.5018505   429199 
 4021000   0.97975662   -3.2097529    -1.706335  0.062789547   -3.2097529    1.5034178   429194 
 4022000   0.97943136   -3.2084308   -1.7054455  0.066017412   -3.2084308    1.5029853   429175 
 4023000   0.98003281   -3.2092927   -1.7053986  0.071541374   -3.2092927    1.5038942   429179 
 4024000   0.98028163    -3.211968   -1.7076604  0.066886824    -3.211968    1.5043076   429170 
 4025000   0.97972638   -3.2110591   -1.7077157  0.064720709   -3.2110591    1.5033434   429202 
 4026000   0.98097444   -3.2120188   -1.7068023  0.067724819   -3.2120188    1.5052164   429214 
 4027000   0.98009096   -3.2096462   -1.7058099  0.068863195   -3.2096462    1.5038363   429221 
 4028000   0.98021079   -3.2104785   -1.7064303  0.065636737   -3.2104785    1.5040482   429213 
 4029000   0.97948252   -3.2092681   -1.7062218  0.063844856   -3.2092681    1.5030463   429180 
 4030000   0.97835176   -3.2078613   -1.7065327  0.065046547   -3.2078613    1.5013286   429175 
 4031000   0.97772875   -3.2073141    -1.707029  0.067358804   -3.2073141    1.5002851   429200 
 4032000   0.97713169   -3.2066881   -1.7073646   0.06568578   -3.2066881    1.4993236   429213 
 4033000   0.97801752   -3.2090406   -1.7083823  0.065638981   -3.2090406    1.5006583   429220 
 4034000   0.97721565   -3.2078976    -1.708302  0.063426114   -3.2078976    1.4995956   429172 
 4035000   0.97553187      -3.2047   -1.7076254  0.066677935      -3.2047    1.4970746   429154 
 4036000   0.97730104   -3.2069222   -1.7071641  0.064458586   -3.2069222    1.4997581   429163 
 4037000   0.97629396   -3.2048255   -1.7065674  0.062653552   -3.2048255     1.498258   429150 
 4038000   0.97686699   -3.2057404   -1.7067671  0.061231701   -3.2057404    1.4989733   429197 
 4039000   0.97674098   -3.2052655   -1.7064122  0.064735036   -3.2052655    1.4988533   429176 
 4040000   0.97655585   -3.2055763   -1.7069338  0.065478289   -3.2055763    1.4986425   429155 
 4041000   0.97654899   -3.2056296   -1.7070745  0.063435844   -3.2056296    1.4985551   429177 
 4042000    0.9769796   -3.2047569   -1.7054536  0.063486651   -3.2047569    1.4993033   429152 
 4043000   0.97701722   -3.2045857   -1.7051583   0.06520826   -3.2045857    1.4994274   429133 
 4044000   0.97792599   -3.2054834   -1.7045878  0.060946024   -3.2054834    1.5008955   429112 
 4045000   0.97779548   -3.2049818   -1.7043985  0.061059528   -3.2049818    1.5005833   429144 
 4046000    0.9771274   -3.2044698    -1.704765  0.065762454   -3.2044698    1.4997048   429102 
 4047000   0.97727116   -3.2047371   -1.7047522  0.061925633   -3.2047371    1.4999849   429085 
 4048000   0.97613943   -3.2036999   -1.7054486  0.062229468   -3.2036999    1.4982513   429084 
 4049000   0.97797254    -3.205926   -1.7046862  0.058848981    -3.205926    1.5012398   429034 
 4050000   0.97780039   -3.2048933   -1.7037987   0.06182558   -3.2048933    1.5010945   429000 
 4051000   0.97738982   -3.2030188   -1.7024671  0.067055776   -3.2030188    1.5005517   428975 
 4052000   0.97789048   -3.2041951   -1.7028573  0.069935887   -3.2041951    1.5013378   428970 
 4053000    0.9773826   -3.2037856   -1.7032065  0.057723643   -3.2037856    1.5005791   428964 
 4054000   0.97706383   -3.2055779   -1.7056036  0.059309718   -3.2055779    1.4999743   428997 
 4055000   0.97769213   -3.2048413   -1.7040354  0.064798561   -3.2048413    1.5008059   429035 
 4056000   0.97673689   -3.2023494   -1.7030029   0.06870694   -3.2023494    1.4993465   429033 
 4057000   0.97807404   -3.2057289   -1.7041233  0.061250667   -3.2057289    1.5016056   428974 
 4058000   0.97800729   -3.2047454   -1.7033928  0.063117042   -3.2047454    1.5013527   429017 
 4059000   0.97778622   -3.2050689   -1.7039857  0.059769742   -3.2050689    1.5010833   428997 
 4060000   0.97772962   -3.2038175    -1.702947  0.063179694   -3.2038175    1.5008705   429033 
 4061000   0.97720739   -3.2017337   -1.7016125  0.063256461   -3.2017337    1.5001212   429018 
 4062000   0.97823833   -3.2044019   -1.7026595  0.061735671   -3.2044019    1.5017424   429007 
 4063000   0.97834714   -3.2052374     -1.70344  0.067476553   -3.2052374    1.5017974   429039 
 4064000   0.97856375   -3.2059964   -1.7037545  0.063218424   -3.2059964    1.5022419   429007 
 4065000   0.97684093   -3.2042586   -1.7046475  0.067904905   -3.2042586    1.4996111   429003 
 4066000   0.97878868   -3.2069472   -1.7043635  0.066512528   -3.2069472    1.5025837   429008 
 4067000   0.98014537   -3.2086964   -1.7039563  0.058267208   -3.2086964    1.5047401   428987 
 4068000   0.97947546    -3.206504   -1.7029186  0.067262793    -3.206504    1.5035855   429023 
 4069000   0.97917455   -3.2051199   -1.7019823  0.066804829   -3.2051199    1.5031376   429019 
 4070000   0.97931754   -3.2046656   -1.7012595  0.066475035   -3.2046656    1.5034061   429005 
 4071000   0.97998538   -3.2065607   -1.7020943  0.069144358   -3.2065607    1.5044664   428995 
 4072000   0.98109691   -3.2090047   -1.7028248  0.067174186   -3.2090047    1.5061799   428993 
 4073000    0.9788175   -3.2084857   -1.7057562   0.06414958   -3.2084857    1.5027295   428979 
 4074000   0.97985818   -3.2087399   -1.7043706  0.059950128   -3.2087399    1.5043693   428967 
 4075000   0.97867224   -3.2087337   -1.7061431   0.06442747   -3.2087337    1.5025906   428955 
 4076000   0.97613894     -3.20518   -1.7065103  0.065263558     -3.20518    1.4986697   428964 
 4077000   0.97663563   -3.2062334   -1.7067592  0.060023888   -3.2062334    1.4994742   428952 
 4078000   0.97778126   -3.2089693   -1.7078552  0.067007617   -3.2089693    1.5011142   428986 
 4079000   0.97894794    -3.209533   -1.7065786  0.066961292    -3.209533    1.5029543   428972 
 4080000   0.97802349   -3.2079507   -1.7063632  0.066287374   -3.2079507    1.5015875   428957 
 4081000   0.97795317   -3.2091034   -1.7075363  0.066076418   -3.2091034    1.5015671   428932 
 4082000   0.97865242   -3.2098983   -1.7071804  0.066899036   -3.2098983    1.5027178   428910 
 4083000   0.97944455   -3.2101674   -1.7061316  0.063683004   -3.2101674    1.5040358   428881 
 4084000   0.97888024   -3.2086461   -1.7054313  0.064344425   -3.2086461    1.5032148   428868 
 4085000   0.98010284   -3.2109016   -1.7057111  0.061808327   -3.2109016    1.5051906   428840 
 4086000   0.97882486   -3.2092946   -1.7059055  0.067688118   -3.2092946    1.5033892   428794 
 4087000   0.98034187   -3.2104612   -1.7046261  0.067815085   -3.2104612    1.5058351   428761 
 4088000   0.97988393   -3.2098083   -1.7047504  0.070403739   -3.2098083     1.505058   428782 
 4089000   0.97922923    -3.209034   -1.7049712  0.065221576    -3.209034    1.5040629   428779 
 4090000   0.98002326   -3.2098459   -1.7045388  0.065160729   -3.2098459    1.5053071   428772 
 4091000   0.97924434   -3.2095928    -1.705405  0.066780628   -3.2095928    1.5041878   428750 
 4092000   0.98021968   -3.2119823   -1.7063279  0.062447295   -3.2119823    1.5056544   428759 
 4093000   0.97674329   -3.2079458   -1.7077503  0.064482725   -3.2079458    1.5001956   428793 
 4094000     0.978532   -3.2102152   -1.7073494  0.061396691   -3.2102152    1.5028658   428815 
 4095000    0.9771428   -3.2088697    -1.708281  0.064439784   -3.2088697    1.5005887   428856 
 4096000   0.97807428   -3.2103025   -1.7082203  0.063923878   -3.2103025    1.5020822   428838 
 4097000   0.97766166   -3.2094453   -1.7080422  0.066935736   -3.2094453     1.501403   428851 
 4098000   0.97903876   -3.2112791   -1.7077788  0.062319236   -3.2112791    1.5035003   428856 
 4099000   0.97619323   -3.2080866   -1.7089945  0.063319987   -3.2080866     1.499092   428867 
 4100000   0.97640932   -3.2098265   -1.7103886  0.062563951   -3.2098265    1.4994378   428863 
 4101000   0.97724158   -3.2096034    -1.708996  0.069317131   -3.2096034    1.5006075   428894 
 4102000   0.97905328   -3.2110906   -1.7077783  0.060931083   -3.2110906    1.5033123   428916 
 4103000   0.97760194    -3.209349   -1.7083142  0.063695907    -3.209349    1.5010348   428930 
 4104000   0.97907295   -3.2103312   -1.7071674  0.063035199   -3.2103312    1.5031638   428967 
 4105000   0.97824163   -3.2086395   -1.7067345  0.067036618   -3.2086395     1.501905   428962 
 4106000   0.98014775   -3.2126123   -1.7077458  0.066067882   -3.2126123    1.5048665   428952 
 4107000   0.97932256   -3.2097665   -1.7061178  0.070802066   -3.2097665    1.5036487   428938 
 4108000   0.97959777   -3.2115926   -1.7074899  0.067032133   -3.2115926    1.5041028   428929 
 4109000   0.97750983   -3.2084484   -1.7075691  0.065283861   -3.2084484    1.5008794   428934 
 4110000   0.97768406   -3.2089298   -1.7077339  0.064901954   -3.2089298    1.5011959   428920 
 4111000   0.97751376   -3.2089278   -1.7079234  0.065441418   -3.2089278    1.5010044   428900 
 4112000   0.97841422   -3.2106325   -1.7082664  0.062046328   -3.2106325    1.5023661   428906 
 4113000      0.97529   -3.2052264   -1.7076332  0.065516957   -3.2052264    1.4975932   428899 
 4114000   0.97672562   -3.2078779   -1.7080207  0.064253529   -3.2078779    1.4998571   428882 
 4115000   0.97652747   -3.2093632   -1.7098593  0.060123518   -3.2093632    1.4995039   428896 
 4116000   0.97566666   -3.2077601   -1.7095675  0.061885166   -3.2077601    1.4981926   428893 
 4117000   0.97585411   -3.2081429   -1.7096415  0.063810949   -3.2081429    1.4985014   428887 
 4118000   0.97694996    -3.209341   -1.7091744  0.063582895    -3.209341    1.5001667   428892 
 4119000   0.97641613   -3.2077523   -1.7085277  0.062286829   -3.2077523    1.4992246   428927 
 4120000    0.9761095   -3.2073941   -1.7086718  0.064150986   -3.2073941    1.4987223   428936 
 4121000   0.97432718   -3.2051068   -1.7089606  0.067708939   -3.2051068    1.4961462   428890 
 4122000   0.97751339   -3.2087593   -1.7078149  0.065069754   -3.2087593    1.5009443   428917 
 4123000   0.97762003   -3.2077297   -1.7065831  0.070989245   -3.2077297    1.5011466   428906 
 4124000    0.9775416     -3.20729   -1.7063584  0.059553905     -3.20729    1.5009317   428933 
 4125000   0.97940795   -3.2093697   -1.7056005   0.06603646   -3.2093697    1.5037692   428941 
 4126000   0.97680244   -3.2049084   -1.7051466  0.067035234   -3.2049084    1.4997618   428943 
 4127000   0.97729641   -3.2047947   -1.7043129  0.066740095   -3.2047947    1.5004817   428954 
 4128000   0.97935495   -3.2082879   -1.7046736  0.065204836   -3.2082879    1.5036143   428962 
 4129000   0.97875069   -3.2072647   -1.7047533   0.06339552   -3.2072647    1.5025114   429012 
 4130000   0.97894757   -3.2081454   -1.7053142  0.064020195   -3.2081454    1.5028311   429007 
 4131000   0.97595116   -3.2049915   -1.7067953  0.064168983   -3.2049915    1.4981963   429017 
 4132000   0.97643896   -3.2084024   -1.7094748  0.061727415   -3.2084024    1.4989276   429022 
 4133000   0.97622736   -3.2056744   -1.7070925  0.065081822   -3.2056744    1.4985819   429028 
 4134000   0.97581947    -3.205236   -1.7072384  0.064797184    -3.205236    1.4979976   429016 
 4135000    0.9761799   -3.2061264   -1.7074916  0.061964351   -3.2061264    1.4986347   428992 
 4136000   0.97838387   -3.2093653   -1.7073294  0.060595571   -3.2093653    1.5020358   428987 
 4137000   0.97887282   -3.2095899    -1.706863  0.063140299   -3.2095899    1.5027269   429004 
 4138000   0.97698505   -3.2070119   -1.7070502  0.067765109   -3.2070119    1.4999617   428966 
 4139000   0.97912101   -3.2119561   -1.7086204  0.060274053   -3.2119561    1.5033357   428939 
 4140000   0.97674657   -3.2083767   -1.7086133  0.062143087   -3.2083767    1.4997634   428918 
 4141000   0.97672933   -3.2073403   -1.7075369  0.064997883   -3.2073403    1.4998034   428899 
 4142000    0.9791779    -3.209689   -1.7062519  0.061727905    -3.209689    1.5034371   428935 
 4143000   0.97812657   -3.2082015   -1.7062806  0.067835318   -3.2082015    1.5019209   428907 
 4144000   0.97777768   -3.2084031    -1.707144  0.062890935   -3.2084031    1.5012591   428943 
 4145000   0.97916768   -3.2101018   -1.7067996  0.063230263   -3.2101018    1.5033022   428969 
 4146000   0.97856192   -3.2099021   -1.7074809  0.062002988   -3.2099021    1.5024212   428955 
 4147000    0.9784652   -3.2092653   -1.7071082  0.059931801   -3.2092653    1.5021572   428988 
 4148000   0.97934585   -3.2110981   -1.7076486  0.062129614   -3.2110981    1.5034496   429005 
 4149000   0.97942664   -3.2109145   -1.7074671  0.064012498   -3.2109145    1.5034474   429041 
 4150000   0.98028454   -3.2108851   -1.7061173  0.063072468   -3.2108851    1.5047678   429040 
 4151000   0.97941385   -3.2105409   -1.7069869  0.057904297   -3.2105409     1.503554   429005 
 4152000   0.97751229   -3.2086881   -1.7078714  0.062945802   -3.2086881    1.5008167   428953 
 4153000    0.9779206   -3.2090374   -1.7076148  0.063415874   -3.2090374    1.5014226   428959 
 4154000   0.97840192    -3.209267   -1.7070914  0.063309728    -3.209267    1.5021756   428955 
 4155000   0.97649476   -3.2079542   -1.7087906  0.070263142   -3.2079542    1.4991636   428979 
 4156000    0.9776839   -3.2111378   -1.7100787  0.062984828   -3.2111378    1.5010592   428959 
 4157000   0.97778093   -3.2094191   -1.7081935  0.062897116   -3.2094191    1.5012256   428954 
 4158000   0.97783154   -3.2089124      -1.7077  0.064980391   -3.2089124    1.5012124   428980 
 4159000   0.97657463   -3.2076137   -1.7081003  0.065256314   -3.2076137    1.4995134   428914 
 4160000   0.97878248   -3.2097902   -1.7068411  0.066093957   -3.2097902    1.5029491   428901 
 4161000   0.97766648   -3.2091874    -1.708022  0.064911377   -3.2091874    1.5011654   428921 
 4162000   0.97736554   -3.2093447   -1.7086413  0.068313919   -3.2093447    1.5007033   428921 
 4163000     0.976685    -3.208471   -1.7088756  0.063559798    -3.208471    1.4995954   428939 
 4164000   0.97791337   -3.2082669   -1.7067329  0.064454095   -3.2082669     1.501534   428924 
 4165000   0.97697507   -3.2081462   -1.7079794  0.066610782   -3.2081462    1.5001667   428903 
 4166000   0.97837937   -3.2081782   -1.7057956  0.066113278   -3.2081782    1.5023826   428886 
 4167000   0.97832152   -3.2107013   -1.7082954  0.060605615   -3.2107013    1.5024059   428854 
 4168000   0.97782436   -3.2097614   -1.7079754   0.05932277   -3.2097614     1.501786   428813 
 4169000   0.97663666   -3.2083724   -1.7084595  0.064933469   -3.2083724    1.4999129   428827 
 4170000   0.97889969   -3.2120674   -1.7086369  0.060809337   -3.2120674    1.5034305   428815 
 4171000   0.97753534   -3.2091566    -1.707811  0.066743163   -3.2091566    1.5013456   428812 
 4172000   0.97867889     -3.21125    -1.708092  0.066807561     -3.21125     1.503158   428796 
 4173000   0.97908981     -3.21289   -1.7089816   0.06365623     -3.21289    1.5039084   428762 
 4174000   0.97757766   -3.2119079   -1.7103923  0.062215242   -3.2119079    1.5015156   428782 
 4175000   0.97649443   -3.2100875   -1.7102531  0.065152808   -3.2100875    1.4998343   428787 
 4176000    0.9760221   -3.2098069   -1.7105407  0.062726975   -3.2098069    1.4992662   428742 
 4177000   0.97735018   -3.2109254   -1.7096156   0.06780834   -3.2109254    1.5013098   428741 
 4178000   0.97613258   -3.2098775   -1.7103541  0.061635453   -3.2098775    1.4995234   428717 
 4179000   0.97545224    -3.209298   -1.7109142  0.066455938    -3.209298    1.4983839   428744 
 4180000   0.97662757   -3.2113293   -1.7111051  0.066052144   -3.2113293    1.5002243   428734 
 4181000   0.97667427   -3.2116564   -1.7114094  0.065192071   -3.2116564     1.500247   428748 
 4182000   0.97590303   -3.2087353   -1.7095681  0.066178837   -3.2087353    1.4991672   428718 
 4183000   0.97777094   -3.2117291   -1.7098046  0.062006625   -3.2117291    1.5019246   428750 
 4184000   0.97539049   -3.2089011   -1.7106296   0.06574684   -3.2089011    1.4982715   428749 
 4185000   0.97660674   -3.2101228    -1.709997  0.063383251   -3.2101228    1.5001258   428753 
 4186000   0.97487951    -3.208328    -1.710789  0.065643894    -3.208328     1.497539   428734 
 4187000   0.97639917   -3.2098352   -1.7100318  0.062857566   -3.2098352    1.4998034   428754 
 4188000   0.97668538   -3.2113055   -1.7111569  0.067164217   -3.2113055    1.5001486   428781 
 4189000   0.97827413   -3.2139516   -1.7113067  0.060453002   -3.2139516    1.5026449   428765 
 4190000   0.97747778   -3.2130093   -1.7115981  0.068565652   -3.2130093    1.5014112   428768 
 4191000   0.97680765   -3.2118769    -1.711537  0.066456315   -3.2118769    1.5003399   428780 
 4192000   0.97654706   -3.2110987   -1.7112081   0.06321461   -3.2110987    1.4998907   428794 
 4193000   0.97585388   -3.2117196   -1.7128027   0.06367165   -3.2117196    1.4989169   428768 
 4194000    0.9771283   -3.2140294    -1.713232  0.063542741   -3.2140294    1.5007974   428790 
 4195000   0.97635237   -3.2140842   -1.7143457  0.063400941   -3.2140842    1.4997386   428752 
 4196000   0.97703972   -3.2150898   -1.7143095  0.060754968   -3.2150898    1.5007804   428756 
 4197000   0.97712235   -3.2160916   -1.7150793  0.059840034   -3.2160916    1.5010123   428726 
 4198000    0.9759198   -3.2140353   -1.7148598  0.062924446   -3.2140353    1.4991755   428723 
 4199000   0.97641995    -3.212486   -1.7125211  0.065086355    -3.212486    1.4999648   428717 
 4200000   0.97711826    -3.212566   -1.7115529  0.068842073    -3.212566     1.501013   428724 
 4201000   0.97905947    -3.215281   -1.7112719  0.066316834    -3.215281    1.5040091   428720 
 4202000   0.97761143    -3.213145   -1.7114864  0.069552841    -3.213145    1.5016585   428756 
 4203000   0.97860924    -3.213513   -1.7102727  0.070933791    -3.213513    1.5032403   428742 
 4204000   0.97769052   -3.2119101    -1.710053   0.06577685   -3.2119101    1.5018571   428734 
 4205000   0.97808007   -3.2136945   -1.7112145  0.064907183   -3.2136945      1.50248   428727 
 4206000    0.9769376   -3.2133363   -1.7125833  0.067073524   -3.2133363     1.500753   428719 
 4207000   0.97818914   -3.2132707   -1.7106757  0.062104858   -3.2132707     1.502595   428742 
 4208000   0.97790731   -3.2137773   -1.7117448  0.063574755   -3.2137773    1.5020325   428779 
 4209000   0.97757484   -3.2123452   -1.7109075   0.06645961   -3.2123452    1.5014377   428803 
 4210000   0.97787236   -3.2131924   -1.7114938  0.062818343   -3.2131924    1.5016986   428859 
 4211000   0.97791409   -3.2140527     -1.71215  0.058208589   -3.2140527    1.5019028   428819 
 4212000   0.97477406   -3.2101033   -1.7128241  0.058232517   -3.2101033    1.4972793   428762 
 4213000   0.97595405   -3.2123962    -1.713224  0.060291881   -3.2123962    1.4991722   428739 
 4214000    0.9750017   -3.2105498    -1.712858   0.06035841   -3.2105498    1.4976918   428744 
 4215000   0.97408049   -3.2086986   -1.7122753   0.06752937   -3.2086986    1.4964233   428702 
 4216000   0.97627903   -3.2102128    -1.710433  0.066162088   -3.2102128    1.4997798   428708 
 4217000    0.9754118   -3.2099152   -1.7113662  0.065368246   -3.2099152    1.4985489   428679 
 4218000   0.97686534   -3.2119746   -1.7112556  0.064404542   -3.2119746     1.500719   428697 
 4219000   0.97649817   -3.2111828   -1.7109894  0.063839464   -3.2111828    1.5001935   428686 
 4220000    0.9760459   -3.2104842   -1.7109296  0.068058092   -3.2104842    1.4995546   428670 
 4221000    0.9779896   -3.2118813   -1.7093965  0.065361254   -3.2118813    1.5024847   428686 
 4222000   0.97870339   -3.2121005   -1.7084314  0.062817881   -3.2121005     1.503669   428661 
 4223000   0.97862453    -3.213298   -1.7097852  0.066156411    -3.213298    1.5035128   428671 
 4224000   0.97697887   -3.2109274   -1.7098624  0.066652524   -3.2109274     1.501065   428648 
 4225000   0.97714518   -3.2123947   -1.7109586  0.065283549   -3.2123947    1.5014361   428615 
 4226000    0.9767105   -3.2122637   -1.7114499  0.061777912   -3.2122637    1.5008137   428602 
 4227000   0.97718748   -3.2115276   -1.7099985  0.060324237   -3.2115276    1.5015291   428607 
 4228000   0.97705356    -3.211782   -1.7103885  0.067930972    -3.211782    1.5013934   428587 
 4229000   0.97611567   -3.2126476   -1.7126604  0.065575048   -3.2126476    1.4999872   428577 
 4230000   0.97617284   -3.2113906    -1.711298  0.062984313   -3.2113906    1.5000926   428572 
 4231000   0.97466856   -3.2099464   -1.7121025  0.063161459   -3.2099464    1.4978438   428554 
 4232000   0.97579073   -3.2117381   -1.7121383  0.066700563   -3.2117381    1.4995999   428545 
 4233000   0.97747338   -3.2127167    -1.710545   0.06676273   -3.2127167    1.5021717   428549 
 4234000   0.97599532    -3.211534   -1.7115743  0.065876531    -3.211534    1.4999598   428532 
 4235000   0.97604637   -3.2106452   -1.7105964  0.070767763   -3.2106452    1.5000487   428529 
 4236000   0.97645125   -3.2108419   -1.7100589  0.067097805   -3.2108419     1.500783   428497 
 4237000   0.97822905   -3.2132735   -1.7097475  0.065092354   -3.2132735     1.503526   428494 
 4238000   0.97781489   -3.2134378   -1.7104747  0.063403851   -3.2134378    1.5029631   428473 
 4239000   0.97784388    -3.213326   -1.7103744  0.064175931    -3.213326    1.5029515   428489 
 4240000   0.97809337   -3.2129285   -1.7095584   0.06710773   -3.2129285    1.5033701   428479 
 4241000   0.97680447   -3.2117915   -1.7102623  0.066632667   -3.2117915    1.5015292   428439 
 4242000   0.97629835   -3.2101906   -1.7094114  0.059104295   -3.2101906    1.5007792   428431 
 4243000   0.97731469   -3.2127121   -1.7104022  0.064016523   -3.2127121      1.50231   428440 
 4244000   0.97587144   -3.2110285   -1.7109861  0.058889822   -3.2110285    1.5000424   428454 
 4245000   0.97544416   -3.2096799   -1.7104448  0.062170914   -3.2096799    1.4992352   428497 
 4246000   0.97482753   -3.2088662   -1.7104914  0.061341318   -3.2088662    1.4983748   428472 
 4247000   0.97584668   -3.2098095   -1.7098961  0.065726551   -3.2098095    1.4999133   428480 
 4248000   0.97764229   -3.2104882   -1.7077623  0.066290301   -3.2104882    1.5027259   428465 
 4249000   0.97672218   -3.2096886   -1.7084576  0.065281455   -3.2096886     1.501231   428488 
 4250000   0.97588706   -3.2080964     -1.70817   0.06255003   -3.2080964    1.4999264   428494 
 4251000   0.97669713   -3.2105063   -1.7093174  0.064004653   -3.2105063     1.501189   428489 
 4252000   0.97575595   -3.2087969   -1.7089705  0.064353059   -3.2087969    1.4998264   428465 
 4253000   0.97629395   -3.2093232   -1.7085752  0.058598208   -3.2093232    1.5007479   428438 
 4254000   0.97589361   -3.2086896   -1.7084801  0.065760165   -3.2086896    1.5002096   428416 
 4255000   0.97603738   -3.2085268   -1.7080017  0.063363504   -3.2085268    1.5005251   428389 
 4256000   0.97512151   -3.2081989   -1.7091168  0.064279292   -3.2081989    1.4990821   428399 
 4257000   0.97697697   -3.2105884   -1.7087099  0.060590134   -3.2105884    1.5018785   428415 
 4258000   0.97657742   -3.2089924   -1.7077002  0.067045032   -3.2089924    1.5012923   428407 
 4259000   0.97821794   -3.2104896   -1.7067456  0.065084532   -3.2104896     1.503744   428427 
 4260000   0.97657789   -3.2068975   -1.7057131  0.066648394   -3.2068975    1.5011844   428438 
 4261000   0.97533183   -3.2062905   -1.7069236  0.065261853   -3.2062905    1.4993669   428410 
 4262000   0.97718149   -3.2087743   -1.7064797  0.062380655   -3.2087743    1.5022946   428386 
 4263000   0.97726253   -3.2094939   -1.7070432   0.06835314   -3.2094939    1.5024507   428377 
 4264000   0.97580049   -3.2075257   -1.7073998  0.069877073   -3.2075257    1.5001259   428399 
 4265000   0.97798548   -3.2110957   -1.7076423  0.061687717   -3.2110957    1.5034534   428408 
 4266000   0.97691659   -3.2094586   -1.7077571   0.06359579   -3.2094586    1.5017015   428439 
 4267000   0.97703568   -3.2094116   -1.7075691  0.065855194   -3.2094116    1.5018425   428451 
 4268000   0.97725473   -3.2102819   -1.7079975  0.060484061   -3.2102819    1.5022844   428421 
 4269000   0.97739767   -3.2120736   -1.7095484  0.059675601   -3.2120736    1.5025252   428415 
 4270000   0.97590399   -3.2093552   -1.7090246  0.066537706   -3.2093552    1.5003306   428386 
 4271000   0.97665274   -3.2084905   -1.7070789  0.064610374   -3.2084905    1.5014116   428406 
 4272000   0.97800594    -3.210802   -1.7073839  0.067951199    -3.210802    1.5034182   428427 
 4273000   0.97819992   -3.2117978   -1.7081025  0.063224837   -3.2117978    1.5036953   428433 
 4274000   0.97860119   -3.2132076   -1.7089095  0.065257272   -3.2132076    1.5042981   428437 
 4275000   0.97908719   -3.2130164   -1.7078939  0.066792254   -3.2130164    1.5051224   428415 
 4276000   0.97929748   -3.2132179   -1.7078741  0.066564704   -3.2132179    1.5053438   428444 
 4277000   0.97859211   -3.2111129   -1.7068674  0.067752921   -3.2111129    1.5042455   428448 
 4278000     0.979419   -3.2131081   -1.7074369  0.067463569   -3.2131081    1.5056712   428404 
 4279000   0.97826723    -3.211751   -1.7078364   0.06616911    -3.211751    1.5039146   428400 
 4280000   0.97775922    -3.212169   -1.7091021  0.063996549    -3.212169     1.503067   428419 
 4281000   0.97635667   -3.2096856   -1.7089219  0.065604122   -3.2096856    1.5007638   428461 
 4282000   0.97791464     -3.21125   -1.7079827  0.061701441     -3.21125    1.5032673   428430 
 4283000   0.97708948   -3.2100401   -1.7079957  0.064434149   -3.2100401    1.5020444   428417 
 4284000   0.97654163   -3.2102328    -1.708978   0.06658079   -3.2102328    1.5012548   428402 
 4285000    0.9761074   -3.2103186   -1.7096719  0.062770799   -3.2103186    1.5006468   428385 
 4286000   0.97693011   -3.2106158   -1.7086691  0.068451705   -3.2106158    1.5019467   428375 
 4287000     0.976451   -3.2116383   -1.7104317  0.064540241   -3.2116383    1.5012066   428376 
 4288000   0.97649665   -3.2115811   -1.7103254  0.059224835   -3.2115811    1.5012557   428382 
 4289000   0.97601167    -3.210081   -1.7094063  0.063205802    -3.210081    1.5006748   428335 
 4290000   0.97637354   -3.2102619   -1.7089571  0.060494846   -3.2102619    1.5013048   428314 
 4291000   0.97748159   -3.2101112   -1.7071132  0.063462949   -3.2101112     1.502998   428317 
 4292000   0.97610039   -3.2092668   -1.7084977  0.066267588   -3.2092668    1.5007691   428347 
 4293000   0.97422089   -3.2049431   -1.7070707  0.065308795   -3.2049431    1.4978724   428349 
 4294000    0.9758309   -3.2092532   -1.7088214  0.061871994   -3.2092532    1.5004318   428325 
 4295000   0.97676041   -3.2093009   -1.7075941  0.059312157   -3.2093009    1.5017068   428369 
 4296000   0.97626693   -3.2084117   -1.7074215  0.069855054   -3.2084117    1.5009902   428357 
 4297000   0.97785496   -3.2095726   -1.7061901  0.061775661   -3.2095726    1.5033826   428371 
 4298000   0.97649121   -3.2078642   -1.7066309  0.062834839   -3.2078642    1.5012333   428386 
 4299000   0.97733298   -3.2086136   -1.7060897  0.059123642   -3.2086136    1.5025239   428387 
 4300000   0.97667514   -3.2091577   -1.7076206  0.064666255   -3.2091577    1.5015371   428380 
 4301000   0.97708494   -3.2088681   -1.7066063  0.058261607   -3.2088681    1.5022619   428353 
 4302000   0.97694529   -3.2077897   -1.7058548  0.066694616   -3.2077897    1.5019349   428385 
 4303000   0.97803457   -3.2089837   -1.7054057  0.064526185   -3.2089837     1.503578   428394 
 4304000    0.9764026   -3.2071781   -1.7061861   0.05957687   -3.2071781     1.500992   428416 
 4305000   0.97655211   -3.2087069   -1.7076217  0.058173854   -3.2087069    1.5010852   428455 
 4306000    0.9761437   -3.2080335   -1.7074991  0.060931245   -3.2080335    1.5005345   428433 
 4307000    0.9759567   -3.2080084   -1.7077369  0.066559468   -3.2080084    1.5002715   428426 
 4308000   0.97714497   -3.2103504   -1.7082101  0.065122685   -3.2103504    1.5021402   428414 
 4309000   0.97689801   -3.2100264   -1.7083009   0.06807435   -3.2100264    1.5017255   428424 
 4310000   0.97658169   -3.2097022   -1.7084243  0.060993121   -3.2097022    1.5012778   428413 
 4311000   0.97572938   -3.2084905   -1.7084493  0.065679267   -3.2084905    1.5000411   428392 
 4312000   0.97704254   -3.2110066   -1.7089888  0.067918845   -3.2110066    1.5020178   428404 
 4313000   0.97850235   -3.2122416   -1.7080463  0.070479212   -3.2122416    1.5041953   428423 
 4314000   0.97936647   -3.2122235   -1.7066261  0.073487085   -3.2122235    1.5055975   428402 
 4315000   0.97876775   -3.2131816   -1.7085537  0.071037949   -3.2131816    1.5046279   428416 
 4316000   0.97798565   -3.2132829   -1.7097555  0.066077193   -3.2132829    1.5035273   428387 
 4317000   0.97823421   -3.2133487    -1.709341  0.064673401   -3.2133487    1.5040078   428359 
 4318000   0.97739397   -3.2129593    -1.710289  0.067711824   -3.2129593    1.5026703   428372 
 4319000   0.97788009   -3.2138381   -1.7103467  0.068572597   -3.2138381    1.5034914   428351 
 4320000   0.97812413   -3.2145152   -1.7105432  0.067933103   -3.2145152     1.503972   428321 
 4321000   0.97849161   -3.2152012   -1.7108258  0.066521143   -3.2152012    1.5043754   428367 
 4322000   0.97588004   -3.2128132   -1.7123934  0.063347756   -3.2128132    1.5004198   428350 
 4323000   0.97689202   -3.2152006   -1.7131792  0.068681831   -3.2152006    1.5020213   428337 
 4324000   0.97787804   -3.2169026   -1.7133933    0.0656547   -3.2169026    1.5035093   428345 
 4325000   0.97874819   -3.2176998   -1.7127613  0.068466186   -3.2176998    1.5049385   428319 
 4326000   0.97665223   -3.2142563   -1.7124984  0.065300079   -3.2142563    1.5017578   428307 
 4327000   0.97676718   -3.2136458   -1.7117217  0.073135637   -3.2136458    1.5019241   428310 
 4328000   0.97571612   -3.2135739    -1.713245  0.066347288   -3.2135739    1.5003289   428304 
 4329000   0.97716894   -3.2145594   -1.7120141  0.063947727   -3.2145594    1.5025453   428309 
 4330000   0.97821401   -3.2146635   -1.7104937  0.067461392   -3.2146635    1.5041698   428304 
 4331000   0.97874351   -3.2158247    -1.710939  0.068109642   -3.2158247    1.5048857   428332 
 4332000   0.97684665   -3.2136022   -1.7116365  0.069174234   -3.2136022    1.5019656   428333 
 4333000   0.97518359   -3.2140762   -1.7146011  0.062391419   -3.2140762    1.4994751   428314 
 4334000   0.97763793   -3.2165605   -1.7132624  0.064698015   -3.2165605    1.5032981   428300 
 4335000   0.97513594    -3.211118   -1.7118002  0.065472234    -3.211118    1.4993178   428338 
 4336000   0.97628857   -3.2130146   -1.7120683  0.065041484   -3.2130146    1.5009463   428379 
 4337000   0.97596821   -3.2125067    -1.712144  0.064978019   -3.2125067    1.5003627   428405 
 4338000   0.97658559   -3.2131382   -1.7118543  0.066611902   -3.2131382    1.5012838   428413 
 4339000   0.97539218    -3.212509   -1.7130073  0.063421417    -3.212509    1.4995017   428398 
 4340000   0.97689046   -3.2145447   -1.7126169  0.064966594   -3.2145447    1.5019278   428363 
 4341000   0.97651362   -3.2149851   -1.7135561  0.061959539   -3.2149851     1.501429   428340 
 4342000     0.976934    -3.215538   -1.7133609  0.066612164    -3.215538    1.5021771   428311 
 4343000   0.97827731   -3.2170389   -1.7126383  0.064595471   -3.2170389    1.5044007   428266 
 4344000    0.9778378   -3.2132529   -1.7097282  0.069131563   -3.2132529    1.5035247   428323 
 4345000   0.97633605   -3.2123547   -1.7112442  0.066303944   -3.2123547    1.5011104   428353 
 4346000   0.97852823   -3.2164949   -1.7120842  0.061431743   -3.2164949    1.5044107   428373 
 4347000   0.97783547   -3.2150803   -1.7116119  0.064253834   -3.2150803    1.5034684   428338 
 4348000   0.97800849   -3.2143745    -1.710605  0.066081963   -3.2143745    1.5037696   428328 
 4349000   0.97759327   -3.2140344   -1.7109033  0.070158695   -3.2140344    1.5031311   428328 
 4350000   0.97901546    -3.214726   -1.7095276  0.065569399    -3.214726    1.5051984   428362 
 4351000   0.97848786   -3.2157784   -1.7112963  0.063248461   -3.2157784     1.504482   428335 
 4352000   0.97750409   -3.2131711   -1.7102332  0.066323875   -3.2131711    1.5029379   428344 
 4353000   0.97778033    -3.212199   -1.7088961  0.062358711    -3.212199    1.5033029   428361 
 4354000   0.97636907   -3.2115326   -1.7105991  0.066823019   -3.2115326    1.5009335   428418 
 4355000   0.97688812   -3.2116186   -1.7099118  0.067408939   -3.2116186    1.5017068   428425 
 4356000   0.97736487   -3.2122203   -1.7097526  0.066261465   -3.2122203    1.5024678   428417 
 4357000   0.97895807   -3.2154713   -1.7104314   0.06522603   -3.2154713    1.5050399   428382 
 4358000   0.97698857   -3.2105436   -1.7084369  0.066775758   -3.2105436    1.5021067   428355 
 4359000    0.9770688   -3.2105813   -1.7084039  0.070015685   -3.2105813    1.5021774   428370 
 4360000   0.97776708   -3.2119754    -1.708577  0.062465023   -3.2119754    1.5033984   428328 
 4361000   0.97782116   -3.2115791   -1.7081467  0.057394169   -3.2115791    1.5034324   428342 
 4362000   0.97804898   -3.2118988   -1.7079581  0.066976144   -3.2118988    1.5039407   428297 
 4363000   0.97760063   -3.2115354   -1.7081859  0.066989083   -3.2115354    1.5033495   428269 
 4364000   0.97665705    -3.210848   -1.7088337  0.070109626    -3.210848    1.5020142   428236 
 4365000   0.97626034   -3.2128469   -1.7113306  0.061309241   -3.2128469    1.5015163   428204 
 4366000   0.97510369   -3.2100524   -1.7102905   0.06185171   -3.2100524    1.4997619   428197 
 4367000   0.97615715   -3.2126264    -1.711097  0.061017662   -3.2126264    1.5015294   428155 
 4368000   0.97491258   -3.2105914   -1.7109729    0.0588542   -3.2105914    1.4996185   428154 
 4369000   0.97325862   -3.2091876   -1.7121691  0.063818503   -3.2091876    1.4970185   428170 
 4370000   0.97422659   -3.2102943   -1.7117065  0.065043973   -3.2102943    1.4985879   428147 
 4371000   0.97386163   -3.2099663   -1.7120238  0.064276428   -3.2099663    1.4979425   428171 
 4372000   0.97475916   -3.2101364   -1.7108834  0.061734604   -3.2101364     1.499253   428191 
 4373000   0.97511288   -3.2101987   -1.7104752   0.06079645   -3.2101987    1.4997235   428212 
 4374000   0.97654456   -3.2115644   -1.7096109   0.06482708   -3.2115644    1.5019535   428204 
 4375000     0.975331   -3.2092315   -1.7093337  0.064695563   -3.2092315    1.4998978   428258 
 4376000   0.97536575   -3.2108628    -1.710831  0.063828879   -3.2108628    1.5000318   428235 
 4377000    0.9768394   -3.2123727   -1.7100219  0.059677832   -3.2123727    1.5023508   428220 
 4378000    0.9773742   -3.2130066   -1.7098368  0.065663207   -3.2130066    1.5031698   428221 
 4379000   0.97561466   -3.2083971   -1.7079895  0.069591894   -3.2083971    1.5004076   428237 
 4380000   0.97735923   -3.2113197   -1.7081378  0.060931984   -3.2113197    1.5031819   428211 
 4381000   0.97876695   -3.2144635   -1.7091447  0.065112129   -3.2144635    1.5053188   428219 
 4382000   0.97791732   -3.2132955    -1.709178  0.066248593   -3.2132955    1.5041175   428189 
 4383000   0.97674362    -3.211182   -1.7088662  0.071031293    -3.211182    1.5023158   428188 
 4384000   0.97792012   -3.2125441   -1.7085593  0.061449467   -3.2125441    1.5039848   428228 
 4385000   0.97744037   -3.2138183   -1.7104555  0.068154953   -3.2138183    1.5033628   428195 
 4386000    0.9772737   -3.2126277   -1.7095037  0.069622672   -3.2126277    1.5031241   428190 
 4387000   0.97822008   -3.2138069     -1.70915   0.06773173   -3.2138069     1.504657   428168 
 4388000   0.97732911   -3.2128182   -1.7095562  0.071864207   -3.2128182    1.5032619   428175 
 4389000    0.9780625   -3.2138688    -1.709398   0.06359912   -3.2138688    1.5044708   428152 
 4390000   0.97721991   -3.2115099   -1.7084441  0.070197022   -3.2115099    1.5030659   428183 
 4391000   0.97625378   -3.2101524   -1.7086426  0.070097143   -3.2101524    1.5015097   428203 
 4392000   0.97637153   -3.2107154   -1.7089509  0.064653541   -3.2107154    1.5017645   428182 
 4393000   0.97688312   -3.2111218    -1.708574  0.064160045   -3.2111218    1.5025479   428183 
 4394000   0.97692768   -3.2116566   -1.7090542  0.063702847   -3.2116566    1.5026024   428187 
 4395000   0.97525211   -3.2090267   -1.7090785  0.067267458   -3.2090267    1.4999481   428209 
 4396000   0.97438187   -3.2105214   -1.7117788  0.063547082   -3.2105214    1.4987427   428171 
 4397000   0.97524022   -3.2113367   -1.7112107  0.058256259   -3.2113367     1.500126   428153 
 4398000   0.97430876   -3.2081933   -1.7094266   0.06683208   -3.2081933    1.4987667   428132 
 4399000   0.97500689   -3.2088786    -1.709129  0.064096022   -3.2088786    1.4997496   428158 
 4400000   0.97529933   -3.2085783    -1.708498  0.063136387   -3.2085783    1.5000803   428192 
 4401000   0.97635921   -3.2100734   -1.7083208  0.062141369   -3.2100734    1.5017526   428180 
 4402000   0.97580287   -3.2089304   -1.7080931    0.0610853   -3.2089304    1.5008373   428197 
 4403000    0.9750941   -3.2075399   -1.7078943  0.062696825   -3.2075399    1.4996456   428226 
 4404000   0.97629055   -3.2086021   -1.7073022  0.070694667   -3.2086021    1.5012998   428279 
 4405000   0.97745008   -3.2116109   -1.7084332  0.061842377   -3.2116109    1.5031777   428252 
 4406000   0.97686842   -3.2090347   -1.7068427  0.063317748   -3.2090347     1.502192   428278 
 4407000   0.97720522   -3.2108375    -1.708068  0.062392384   -3.2108375    1.5027695   428261 
 4408000   0.97705649   -3.2102876   -1.7077292  0.062845562   -3.2102876    1.5025584   428256 
 4409000   0.97640928   -3.2103275   -1.7088241   0.06368183   -3.2103275    1.5015034   428273 
 4410000   0.97484989    -3.209343   -1.7103881  0.064403637    -3.209343     1.498955   428316 
 4411000     0.973168   -3.2074275   -1.7110307  0.059511852   -3.2074275    1.4963968   428308 
 4412000   0.97347763   -3.2086173   -1.7118667  0.059473119   -3.2086173    1.4967506   428343 
 4413000   0.97324209   -3.2078453   -1.7114324  0.064179477   -3.2078453    1.4964129   428336 
 4414000   0.97476062   -3.2092708    -1.710537  0.061599653   -3.2092708    1.4987337   428340 
 4415000   0.97441357   -3.2087711   -1.7105396  0.067459553   -3.2087711    1.4982316   428331 
 4416000    0.9757678   -3.2118725   -1.7115026  0.061585307   -3.2118725    1.5003699   428315 
 4417000   0.97436816   -3.2106866   -1.7122835  0.062631405   -3.2106866    1.4984031   428262 
 4418000   0.97742092   -3.2155918   -1.7125292  0.060680958   -3.2155918    1.5030626   428272 
 4419000   0.97604059   -3.2123586   -1.7114607  0.060492308   -3.2123586    1.5008979   428284 
 4420000   0.97772002    -3.213591   -1.7099981  0.063964066    -3.213591    1.5035928   428252 
 4421000   0.97574044   -3.2127879   -1.7121342  0.067427603   -3.2127879    1.5006536   428222 
 4422000   0.97723227   -3.2143389   -1.7114927   0.06271546   -3.2143389    1.5028462   428251 
 4423000   0.97702248   -3.2133735   -1.7109306  0.065640276   -3.2133735    1.5024429   428274 
 4424000   0.97793366   -3.2156736   -1.7117733  0.066509524   -3.2156736    1.5039003   428258 
 4425000   0.97746615   -3.2155378   -1.7124056  0.063125755   -3.2155378    1.5031322   428272 
 4426000   0.97610939   -3.2133544   -1.7123086  0.067039016   -3.2133544    1.5010458   428272 
 4427000   0.97659882   -3.2148002   -1.7130088  0.062951693   -3.2148002    1.5017914   428274 
 4428000   0.97699296   -3.2147716   -1.7124513  0.066527318   -3.2147716    1.5023203   428296 
 4429000   0.97819013    -3.216101   -1.7120837  0.059714436    -3.216101    1.5040173   428337 
 4430000   0.97676996   -3.2143902   -1.7126126  0.065164249   -3.2143902    1.5017776   428353 
 4431000   0.97640624     -3.21383    -1.712531  0.064824489     -3.21383     1.501299   428330 
 4432000   0.97668493   -3.2140521   -1.7123702  0.067391065   -3.2140521    1.5016819   428343 
 4433000   0.97737786   -3.2162411   -1.7134342  0.066834671   -3.2162411    1.5028069   428326 
 4434000   0.97592691   -3.2133528   -1.7128153  0.068241562   -3.2133528    1.5005374   428337 
 4435000   0.97476318   -3.2120053   -1.7130927   0.06699096   -3.2120053    1.4989126   428290 
 4436000   0.97606589   -3.2141183   -1.7132515   0.05950454   -3.2141183    1.5008668   428304 
 4437000   0.97487196   -3.2131406   -1.7141062  0.064195419   -3.2131406    1.4990344   428303 
 4438000   0.97421164    -3.211069   -1.7129696  0.062777755    -3.211069    1.4980995   428280 
 4439000    0.9743033   -3.2113464    -1.713155  0.065412118   -3.2113464    1.4981915   428294 
 4440000   0.97464379   -3.2123696    -1.713679    0.0616165   -3.2123696    1.4986905   428301 
 4441000   0.97222836   -3.2093545   -1.7143292  0.066547029   -3.2093545    1.4950252   428287 
 4442000   0.97481008   -3.2121275   -1.7131077  0.056535764   -3.2121275    1.4990197   428280 
 4443000    0.9723397   -3.2088573   -1.7136329  0.060885586   -3.2088573    1.4952244   428279 
 4444000   0.97473354   -3.2122929   -1.7134014  0.061776582   -3.2122929    1.4988915   428283 
 4445000   0.97372929   -3.2112571   -1.7138783  0.059713406   -3.2112571    1.4973787   428274 
 4446000   0.97296653   -3.2086314   -1.7124292  0.060039079   -3.2086314    1.4962023   428275 
 4447000   0.97364417   -3.2096863   -1.7124175  0.062480757   -3.2096863    1.4972688   428268 
 4448000   0.97572047   -3.2104432    -1.710006  0.062663192   -3.2104432    1.5004372   428275 
 4449000   0.97556306   -3.2099108    -1.709523  0.064737628   -3.2099108    1.5003878   428220 
 4450000   0.97501285   -3.2102569   -1.7107363  0.066178112   -3.2102569    1.4995206   428226 
 4451000   0.97622939   -3.2127113   -1.7113688  0.062738426   -3.2127113    1.5013425   428240 
 4452000   0.97516539   -3.2110861   -1.7113659  0.063096444   -3.2110861    1.4997202   428236 
 4453000   0.97629719   -3.2122454   -1.7108407  0.061501874   -3.2122454    1.5014047   428252 
 4454000   0.97533551    -3.211716   -1.7118848   0.06822593    -3.211716    1.4998312   428279 
 4455000   0.97570071   -3.2103499   -1.7099991  0.067378571   -3.2103499    1.5003508   428291 
 4456000   0.97414404   -3.2091844   -1.7112973  0.064504431   -3.2091844    1.4978871   428311 
 4457000   0.97408873   -3.2089225    -1.711138  0.062005818   -3.2089225    1.4977846   428316 
 4458000   0.97505149   -3.2089942   -1.7096103  0.065032382   -3.2089942     1.499384   428282 
 4459000    0.9742106   -3.2094238   -1.7112035  0.058695238   -3.2094238    1.4982203   428245 
 4460000   0.97486675   -3.2090302   -1.7097203  0.065046204   -3.2090302    1.4993099   428222 
 4461000    0.9754177   -3.2094524   -1.7092706   0.06423903   -3.2094524    1.5001818   428215 
 4462000   0.97598544   -3.2105953   -1.7094842  0.068979035   -3.2105953     1.501111   428199 
 4463000   0.97506695   -3.2092516   -1.7094132  0.068555613   -3.2092516    1.4998385   428159 
 4464000   0.97567716   -3.2101871   -1.7094381  0.062066463   -3.2101871    1.5007491   428167 
 4465000   0.97603388    -3.209955   -1.7086748  0.066589217    -3.209955    1.5012802   428172 
 4466000   0.97574433   -3.2102797   -1.7094063  0.063484065   -3.2102797    1.5008734   428161 
 4467000   0.97510683   -3.2085133    -1.708638  0.065374742   -3.2085133    1.4998753   428166 
 4468000   0.97545605   -3.2090798   -1.7086323  0.065255909   -3.2090798    1.5004475   428156 
 4469000   0.97581026   -3.2093859   -1.7083234   0.05931536   -3.2093859    1.5010625   428136 
 4470000    0.9741048    -3.206031   -1.7075185  0.061502852    -3.206031    1.4985125   428115 
 4471000   0.97341112   -3.2067134    -1.709275  0.057468254   -3.2067134    1.4974384   428117 
 4472000   0.97477765   -3.2085711   -1.7089149  0.060571321   -3.2085711    1.4996562   428084 
 4473000   0.97472368   -3.2076175   -1.7079813    0.0590522   -3.2076175    1.4996362   428066 
 4474000   0.97435283    -3.208813   -1.7097579  0.062282418    -3.208813    1.4990551   428069 
 4475000   0.97462632    -3.207409   -1.7080452   0.06740514    -3.207409    1.4993638   428101 
 4476000   0.97528672   -3.2079385   -1.7075061  0.060620156   -3.2079385    1.5004323   428086 
 4477000    0.9746722   -3.2052293   -1.7057984  0.068231607   -3.2052293    1.4994309   428102 
 4478000   0.97567822   -3.2073923    -1.706533  0.059123251   -3.2073923    1.5008594   428136 
 4479000   0.97415034    -3.205728   -1.7073064  0.061634099    -3.205728    1.4984216   428161 
 4480000   0.97478634   -3.2067266   -1.7071411  0.060536886   -3.2067266    1.4995855   428108 
 4481000   0.97597338   -3.2085806   -1.7070919  0.064320752   -3.2085806    1.5014887   428086 
 4482000   0.97486412   -3.2067144   -1.7069182  0.063950588   -3.2067144    1.4997962   428082 
 4483000    0.9754961   -3.2088758   -1.7081073  0.063247544   -3.2088758    1.5007685   428082 
 4484000   0.97495317   -3.2081695   -1.7082538  0.063070004   -3.2081695    1.4999157   428087 
 4485000   0.97455605      -3.2095   -1.7100587  0.060211502      -3.2095    1.4994413   428048 
 4486000   0.97531949   -3.2099644    -1.709331  0.058412475   -3.2099644    1.5006335   428043 
 4487000   0.97253489    -3.207198   -1.7109363  0.059430625    -3.207198    1.4962617   428068 
 4488000   0.97221095   -3.2070479   -1.7112776    0.0578452   -3.2070479    1.4957703   428066 
 4489000   0.97378871   -3.2089288   -1.7108046  0.061855369   -3.2089288    1.4981242   428087 
 4490000   0.97300673   -3.2084364   -1.7114138   0.06351218   -3.2084364    1.4970226   428058 
 4491000   0.97344736    -3.209863   -1.7122289  0.060490299    -3.209863    1.4976341   428077 
 4492000   0.97593176   -3.2121043   -1.7105147  0.065478506   -3.2121043    1.5015896   428039 
 4493000   0.97463304   -3.2116751   -1.7118911  0.061206802   -3.2116751     1.499784   427984 
 4494000   0.97450811   -3.2104555   -1.7109058  0.066882375   -3.2104555    1.4995497   427996 
 4495000    0.9757254   -3.2111836   -1.7097748  0.067832825   -3.2111836    1.5014089   428000 
 4496000   0.97639339    -3.213391   -1.7110279  0.065343687    -3.213391     1.502363   428021 
 4497000   0.97635768   -3.2124219   -1.7102191  0.065045023   -3.2124219    1.5022028   428051 
 4498000   0.97538969   -3.2116283   -1.7108483  0.065960481   -3.2116283    1.5007801   428032 
 4499000   0.97648775   -3.2147646   -1.7121967  0.065269015   -3.2147646    1.5025679   428004 
 4500000   0.97498138   -3.2121579   -1.7118413  0.065417532   -3.2121579    1.5003166   427985 
 4501000   0.97688906   -3.2133956   -1.7101821  0.069169959   -3.2133956    1.5032135   427996 
 4502000   0.97720298   -3.2145569   -1.7107866  0.068546819   -3.2145569    1.5037703   427975 
 4503000   0.97637051   -3.2134742   -1.7110551  0.066195496   -3.2134742    1.5024191   427995 
 4504000   0.97574941    -3.212432   -1.7110107  0.065255414    -3.212432    1.5014212   428007 
 4505000    0.9761027   -3.2128031   -1.7106768  0.065214789   -3.2128031    1.5021263   427961 
 4506000   0.97620571   -3.2123435   -1.7100517  0.064886867   -3.2123435    1.5022919   427959 
 4507000   0.97520954   -3.2116526   -1.7108692  0.067250674   -3.2116526    1.5007834   427952 
 4508000   0.97391506    -3.211408   -1.7127183   0.06361887    -3.211408    1.4986897   427981 
 4509000   0.97456722   -3.2119368   -1.7120963  0.065238014   -3.2119368    1.4998405   427939 
 4510000   0.97484486   -3.2140947    -1.713855  0.065210958   -3.2140947    1.5002397   427947 
 4511000   0.97403909   -3.2129466   -1.7140065  0.067011858   -3.2129466    1.4989401   427964 
 4512000   0.97406968   -3.2116469   -1.7127158  0.057869013   -3.2116469    1.4989311   427980 
 4513000   0.97340963   -3.2112241   -1.7132562  0.062837635   -3.2112241    1.4979679   427965 
 4514000   0.97287259   -3.2104657   -1.7133242  0.056621285   -3.2104657    1.4971415   427965 
 4515000    0.9738671   -3.2107721   -1.7119917  0.062800321   -3.2107721    1.4987805   427934 
 4516000   0.97405935   -3.2112983    -1.712376  0.059512713   -3.2112983    1.4989222   427978 
 4517000   0.97411164    -3.211994   -1.7129248  0.058809386    -3.211994    1.4990693   427959 
 4518000    0.9737248   -3.2109865   -1.7126106  0.059071307   -3.2109865    1.4983759   427987 
 4519000   0.97363514   -3.2108852   -1.7126858  0.063358801   -3.2108852    1.4981995   427998 
 4520000   0.97421115   -3.2110738   -1.7120265  0.053782974   -3.2110738    1.4990473   428009 
 4521000   0.97328757   -3.2098118   -1.7121472  0.062145042   -3.2098118    1.4976646   427998 
 4522000    0.9734621   -3.2118994   -1.7138262   0.06174253   -3.2118994    1.4980732   427958 
 4523000    0.9746376   -3.2136407    -1.713811  0.060728993   -3.2136407    1.4998296   427973 
 4524000   0.97531007   -3.2118486   -1.7110683  0.064903577   -3.2118486    1.5007803   427997 
 4525000   0.97645709   -3.2135769   -1.7109053  0.065642053   -3.2135769    1.5026717   427961 
 4526000   0.97570278   -3.2113068   -1.7097643  0.068550853   -3.2113068    1.5015424   427952 
 4527000   0.97621225   -3.2123926   -1.7101995  0.067870579   -3.2123926    1.5021931   427990 
 4528000   0.97608056   -3.2135806   -1.7116673   0.06160024   -3.2135806    1.5019133   428012 
 4529000   0.97663147   -3.2148221   -1.7121033   0.06167848   -3.2148221    1.5027188   428024 
 4530000   0.97624225   -3.2142737   -1.7121888  0.063107278   -3.2142737    1.5020848   428034 
 4531000   0.97600673   -3.2140495   -1.7124463  0.064045754   -3.2140495    1.5016032   428068 
 4532000   0.97514728   -3.2137228   -1.7133297  0.062848637   -3.2137228    1.5003931   428036 
 4533000   0.97476431   -3.2129845   -1.7131807  0.063110323   -3.2129845    1.4998038   428036 
 4534000   0.97538307   -3.2125235   -1.7117396  0.063755817   -3.2125235    1.5007839   428028 
 4535000   0.97419838    -3.211298   -1.7123264  0.062018524    -3.211298    1.4989716   428025 
 4536000    0.9739061   -3.2112933    -1.712859    0.0651972   -3.2112933    1.4984343   428050 
 4537000   0.97525014   -3.2121087    -1.711617  0.064282863   -3.2121087    1.5004917   428053 
 4538000   0.97625821   -3.2138943   -1.7118762  0.066193822   -3.2138943    1.5020182   428060 
 4539000   0.97436546   -3.2124508   -1.7132747  0.067633357   -3.2124508    1.4991761   428040 
 4540000   0.97536433   -3.2134227   -1.7127132  0.062682682   -3.2134227    1.5007095   428041 
 4541000   0.97601407    -3.214549   -1.7127416  0.064058386    -3.214549    1.5018074   428013 
 4542000    0.9754983   -3.2127137   -1.7117665  0.064967732   -3.2127137    1.5009472   428032 
 4543000   0.97636386   -3.2136404   -1.7113193  0.066344063   -3.2136404    1.5023211   428020 
 4544000   0.97646197   -3.2140723   -1.7116424  0.069258341   -3.2140723    1.5024299   428032 
 4545000   0.97414798   -3.2110686   -1.7121396  0.063728608   -3.2110686    1.4989291   428015 
 4546000   0.97457394   -3.2111017   -1.7114716  0.063676153   -3.2111017      1.49963   428002 
 4547000    0.9756635   -3.2130067   -1.7115527  0.068084303   -3.2130067    1.5014539   427960 
 4548000   0.97581488   -3.2144698   -1.7127549  0.060290472   -3.2144698     1.501715   427952 
 4549000   0.97444998   -3.2117208    -1.712222  0.063163564   -3.2117208    1.4994988   427985 
 4550000   0.97440195   -3.2125924   -1.7129503  0.063535191   -3.2125924    1.4996422   427923 
 4551000    0.9728428   -3.2105305   -1.7133614  0.065182465   -3.2105305    1.4971691   427944 
 4552000   0.97451855   -3.2112084   -1.7115059  0.070175947   -3.2112084    1.4997025   427957 
 4553000    0.9749013   -3.2126074   -1.7122598  0.064930375   -3.2126074    1.5003476   427941 
 4554000   0.97552037   -3.2126726   -1.7115126  0.066269419   -3.2126726      1.50116   427981 
 4555000   0.97424114   -3.2118588   -1.7125763  0.060588131   -3.2118588    1.4992826   427955 
 4556000   0.97539366    -3.213519   -1.7124101  0.057789831    -3.213519    1.5011088   427940 
 4557000   0.97372119   -3.2093506   -1.7109102  0.063057802   -3.2093506    1.4984404   427967 
 4558000   0.97606288   -3.2134581    -1.711379  0.057875403   -3.2134581    1.5020791   427957 
 4559000   0.97417428   -3.2099812   -1.7108085  0.059580879   -3.2099812    1.4991727   427957 
 4560000   0.97369453   -3.2092608   -1.7107599  0.062508128   -3.2092608    1.4985009   427938 
 4561000   0.97628005   -3.2136308   -1.7112176  0.059942329   -3.2136308    1.5024133   427957 
 4562000   0.97619382   -3.2124014   -1.7101419  0.065333982   -3.2124014    1.5022595   427963 
 4563000   0.97621878   -3.2107105    -1.708416  0.065259686   -3.2107105    1.5022944   427964 
 4564000   0.97553637   -3.2102131   -1.7091126  0.063389588   -3.2102131    1.5011004   428005 
 4565000   0.97447196   -3.2085374   -1.7091694  0.066958594   -3.2085374     1.499368   428032 
 4566000   0.97581724   -3.2113105   -1.7097112  0.065863895   -3.2113105    1.5015993   427986 
 4567000   0.97375739   -3.2092517   -1.7108957  0.066428096   -3.2092517    1.4983561   428007 
 4568000   0.97508262   -3.2109498   -1.7104178  0.056707418   -3.2109498     1.500532   427968 
 4569000     0.973973   -3.2099354   -1.7110235  0.066117554   -3.2099354     1.498912   427943 
 4570000    0.9736965   -3.2108366   -1.7124377  0.060994434   -3.2108366    1.4983989   427968 
 4571000   0.97245148   -3.2084577   -1.7119677  0.062767181   -3.2084577      1.49649   427966 
 4572000   0.97333635   -3.2094678   -1.7116652  0.061662253   -3.2094678    1.4978027   427980 
 4573000    0.9748558   -3.2122787   -1.7122956  0.059172709   -3.2122787    1.4999831   428025 
 4574000   0.97508068   -3.2131076   -1.7126698  0.062086488   -3.2131076    1.5004378   427994 
 4575000   0.97284009   -3.2096961   -1.7127585  0.065281176   -3.2096961    1.4969376   428009 
 4576000   0.97479887   -3.2116571   -1.7117019  0.058737239   -3.2116571    1.4999551   428008 
 4577000   0.97421761   -3.2107667   -1.7117796  0.066705124   -3.2107667    1.4989872   428029 
 4578000   0.97412111   -3.2109805   -1.7120367  0.063690152   -3.2109805    1.4989437   427999 
 4579000   0.97546675   -3.2133053   -1.7121471  0.061522092   -3.2133053    1.5011582   427958 
 4580000   0.97538776   -3.2124503   -1.7114663  0.060727771   -3.2124503     1.500984   427973 
 4581000    0.9769003   -3.2154504   -1.7120615  0.059962727   -3.2154504    1.5033889   427951 
 4582000   0.97516913   -3.2122252    -1.711553  0.063671882   -3.2122252    1.5006721   427966 
 4583000   0.97547106   -3.2136042   -1.7126077  0.066029465   -3.2136042    1.5009964   428006 
 4584000   0.97553586   -3.2128995   -1.7117332  0.064371627   -3.2128995    1.5011663   427986 
 4585000   0.97672367   -3.2154599   -1.7123604  0.063356824   -3.2154599    1.5030995   427956 
 4586000   0.97495417   -3.2130068   -1.7125989  0.061109641   -3.2130068    1.5004079   427947 
 4587000   0.97633584   -3.2146516   -1.7121033  0.062027863   -3.2146516    1.5025483   427943 
 4588000   0.97581394   -3.2156416   -1.7138544  0.057777291   -3.2156416    1.5017872   427931 
 4589000   0.97377502   -3.2135549   -1.7148986  0.068519322   -3.2135549    1.4986563   427929 
 4590000   0.97372996   -3.2129284    -1.714394  0.064516343   -3.2129284    1.4985344   427944 
 4591000   0.97412763   -3.2145675   -1.7152879  0.059306303   -3.2145675    1.4992796   427906 
 4592000   0.97435808   -3.2136777   -1.7139734  0.064908462   -3.2136777    1.4997043   427886 
 4593000   0.97648729   -3.2179477   -1.7149907  0.065750367   -3.2179477     1.502957   427893 
 4594000   0.97579617    -3.215287   -1.7135096  0.060804861    -3.215287    1.5017774   427926 
 4595000   0.97493553   -3.2141487   -1.7137098  0.061469098   -3.2141487    1.5004388   427930 
 4596000   0.97582284   -3.2149268   -1.7131048  0.058315881   -3.2149268     1.501822   427925 
 4597000   0.97444751   -3.2125476   -1.7128528   0.06352734   -3.2125476    1.4996948   427928 
 4598000   0.97591165   -3.2144333   -1.7125133  0.064424405   -3.2144333      1.50192   427936 
 4599000   0.97509525   -3.2128971   -1.7123142  0.066519189   -3.2128971    1.5005829   427959 
 4600000   0.97470841   -3.2127073   -1.7126636  0.061330378   -3.2127073    1.5000437   427943 
 4601000   0.97606761   -3.2154088   -1.7133224  0.061251803   -3.2154088    1.5020864   427957 
 4602000   0.97542709   -3.2136472   -1.7126237  0.063997306   -3.2136472    1.5010235   427979 
 4603000   0.97493661   -3.2136625   -1.7133552  0.060677717   -3.2136625    1.5003073   427968 
 4604000   0.97505896    -3.213218   -1.7126629  0.064066455    -3.213218    1.5005552   427951 
 4605000   0.97586428   -3.2141442   -1.7124128  0.062401311   -3.2141442    1.5017313   427969 
 4606000   0.97593428   -3.2153288   -1.7134967  0.068627953   -3.2153288     1.501832   427971 
 4607000   0.97721993   -3.2158841   -1.7118979   0.06189232   -3.2158841    1.5039862   427921 
 4608000    0.9770072   -3.2163387   -1.7125148  0.067894241   -3.2163387     1.503824   427874 
 4609000    0.9754396   -3.2138613   -1.7125625  0.064999639   -3.2138613    1.5012988   427906 
 4610000   0.97594944   -3.2151247   -1.7130763  0.061662594   -3.2151247    1.5020484   427916 
 4611000   0.97477663   -3.2128166   -1.7126363   0.06560357   -3.2128166    1.5001803   427934 
 4612000   0.97627571    -3.215047   -1.7125912    0.0636181    -3.215047    1.5024557   427943 
 4613000   0.97523929   -3.2140553   -1.7130437  0.065235111   -3.2140553    1.5010116   427900 
 4614000   0.97484088   -3.2131892   -1.7128119  0.063542502   -3.2131892    1.5003773   427906 
 4615000   0.97367718   -3.2117299   -1.7131647   0.06313219   -3.2117299    1.4985652   427912 
 4616000   0.97400653   -3.2114999   -1.7124032  0.065678245   -3.2114999    1.4990967   427905 
 4617000   0.97417561   -3.2119177   -1.7125223  0.064138313   -3.2119177    1.4993955   427894 
 4618000   0.97610401   -3.2135446   -1.7112162  0.061628778   -3.2135446    1.5023284   427904 
 4619000   0.97437196   -3.2106955   -1.7108436  0.061651088   -3.2106955    1.4998519   427850 
 4620000   0.97560024   -3.2113193   -1.7095065  0.063937437   -3.2113193    1.5018128   427830 
 4621000   0.97458734   -3.2101716   -1.7098339  0.070850105   -3.2101716    1.5003377   427806 
 4622000   0.97431146   -3.2112728   -1.7113037  0.068457986   -3.2112728    1.4999691   427790 
 4623000    0.9755435   -3.2115975   -1.7096824  0.062231093   -3.2115975     1.501915   427776 
 4624000   0.97455892   -3.2118396    -1.711479  0.066936426   -3.2118396    1.5003606   427787 
 4625000   0.97523037   -3.2124266   -1.7111481  0.067957171   -3.2124266    1.5012785   427820 
 4626000   0.97559805   -3.2120213   -1.7103067  0.064307944   -3.2120213    1.5017146   427857 
 4627000   0.97612287   -3.2127532   -1.7103607  0.063629895   -3.2127532    1.5023926   427894 
 4628000   0.97517705   -3.2108695   -1.7099923  0.063039879   -3.2108695    1.5008772   427911 
 4629000   0.97494942   -3.2098274   -1.7092305  0.061097128   -3.2098274     1.500597   427891 
 4630000    0.9749758   -3.2106945   -1.7100183  0.060691836   -3.2106945    1.5006762   427880 
 4631000   0.97470347    -3.210157   -1.7098334  0.066036808    -3.210157    1.5003236   427861 
 4632000    0.9751406   -3.2113899   -1.7103794  0.068605198   -3.2113899    1.5010105   427857 
 4633000   0.97590588   -3.2107016   -1.7084991  0.058601053   -3.2107016    1.5022025   427853 
 4634000    0.9757569   -3.2108203     -1.70884  0.061014474   -3.2108203    1.5019802   427851 
 4635000   0.97425176   -3.2089041   -1.7093214  0.064035484   -3.2089041    1.4995827   427874 
 4636000   0.97338893   -3.2084997   -1.7102276  0.062362229   -3.2084997    1.4982722   427869 
 4637000   0.97414417   -3.2110222    -1.711528  0.057421321   -3.2110222    1.4994942   427852 
 4638000     0.973344   -3.2100792   -1.7117396  0.063101497   -3.2100792    1.4983396   427830 
 4639000   0.97310842   -3.2084187   -1.7105818  0.065933138   -3.2084187    1.4978369   427870 
 4640000   0.97311919   -3.2090211   -1.7111676  0.058439476   -3.2090211    1.4978535   427870 
 4641000   0.97183694   -3.2095314   -1.7136761  0.058062005   -3.2095314    1.4958553   427877 
 4642000    0.9744159   -3.2120955   -1.7123161   0.06123275   -3.2120955    1.4997793   427890 
 4643000   0.97372311   -3.2108633   -1.7121608  0.059305815   -3.2108633    1.4987025   427893 
 4644000   0.97335983   -3.2100321   -1.7120148  0.062147164   -3.2100321    1.4980173   427929 
 4645000    0.9732101   -3.2103695   -1.7125336  0.058279496   -3.2103695    1.4978359   427915 
 4646000   0.97445668    -3.211235   -1.7114946  0.063019638    -3.211235    1.4997404   427919 
 4647000   0.97372463   -3.2115738   -1.7129355  0.061304475   -3.2115738    1.4986383   427912 
 4648000   0.97437379   -3.2133677   -1.7136217  0.064415654   -3.2133677     1.499746   427881 
 4649000   0.97354871   -3.2118594   -1.7133553  0.065994256   -3.2118594    1.4985041   427873 
 4650000   0.97236285   -3.2109901   -1.7144338  0.065298225   -3.2109901    1.4965564   427908 
 4651000   0.97554898   -3.2156593   -1.7141395   0.06124397   -3.2156593    1.5015198   427891 
 4652000   0.97409505   -3.2139191   -1.7146862  0.069720558   -3.2139191    1.4992329   427905 
 4653000   0.97504797   -3.2155262   -1.7148126  0.066434089   -3.2155262    1.5007136   427901 
 4654000   0.97660768   -3.2177234   -1.7145881  0.065286603   -3.2177234    1.5031352   427895 
 4655000   0.97633973   -3.2176158   -1.7147771   0.06038709   -3.2176158    1.5028387   427862 
 4656000   0.97547373   -3.2183176   -1.7168259  0.068260298   -3.2183176    1.5014917   427866 
 4657000   0.97485084    -3.217431   -1.7168315  0.066570821    -3.217431    1.5005996   427847 
 4658000   0.97398003   -3.2177063   -1.7184087  0.068507963   -3.2177063    1.4992976   427836 
 4659000    0.9740001   -3.2180482   -1.7186495  0.061828825   -3.2180482    1.4993986   427816 
 4660000   0.97209867   -3.2158993   -1.7194487  0.062772818   -3.2158993    1.4964505   427822 
 4661000   0.97418837   -3.2187925   -1.7192337  0.061969563   -3.2187925    1.4995588   427853 
 4662000   0.97494283   -3.2190664   -1.7185918  0.065816811   -3.2190664    1.5004746   427923 
 4663000   0.97376328    -3.215097   -1.7164728  0.065501949    -3.215097    1.4986242   427933 
 4664000   0.97418814   -3.2154589   -1.7161388  0.065603649   -3.2154589    1.4993201   427921 
 4665000   0.97508616   -3.2180771   -1.7173679   0.06327668   -3.2180771    1.5007092   427919 
 4666000   0.97468902   -3.2197949   -1.7195952  0.062316782   -3.2197949    1.5001997   427890 
 4667000   0.97542685   -3.2203736    -1.719161  0.063520873   -3.2203736    1.5012125   427925 
 4668000   0.97233757   -3.2147081   -1.7182675  0.064671499   -3.2147081    1.4964405   427930 
 4669000   0.97333693   -3.2150329   -1.7170124  0.064587119   -3.2150329    1.4980206   427918 
 4670000   0.97420378   -3.2160126   -1.7167034  0.062843392   -3.2160126    1.4993092   427931 
 4671000   0.97402653   -3.2165117   -1.7175314  0.062472301   -3.2165117    1.4989803   427947 
 4672000   0.97450596   -3.2166858   -1.7170447  0.062954295   -3.2166858    1.4996411   427969 
 4673000   0.97128223   -3.2118813   -1.7171767  0.060630458   -3.2118813    1.4947046   427962 
 4674000   0.97262019   -3.2139472   -1.7173445   0.06445159   -3.2139472    1.4966027   428008 
 4675000   0.97333188   -3.2134964   -1.7156726  0.058805386   -3.2134964    1.4978238   427972 
 4676000    0.9752635    -3.216193   -1.7152038   0.06598515    -3.216193    1.5009892   427917 
 4677000   0.97479007   -3.2149623   -1.7147439  0.064495181   -3.2149623    1.5002185   427929 
 4678000   0.97428428    -3.213893    -1.714467  0.061865872    -3.213893     1.499426   427933 
 4679000   0.97330071   -3.2131018   -1.7151965  0.063732741   -3.2131018    1.4979053   427935 
 4680000   0.97401487   -3.2132505   -1.7144247  0.061563383   -3.2132505    1.4988258   427986 
 4681000   0.97469534   -3.2128625   -1.7129405   0.06532157   -3.2128625     1.499922   427972 
 4682000   0.97539761   -3.2140284   -1.7129837  0.060847783   -3.2140284    1.5010447   427960 
 4683000   0.97314651   -3.2113009   -1.7138043  0.066029079   -3.2113009    1.4974965   427984 
 4684000   0.97296328   -3.2106012   -1.7134426  0.062143826   -3.2106012    1.4971586   428000 
 4685000   0.97343005   -3.2112371   -1.7133707  0.063793475   -3.2112371    1.4978664   428003 
 4686000   0.97433079   -3.2125529   -1.7133531  0.061881367   -3.2125529    1.4991998   428018 
 4687000   0.97512118   -3.2137012   -1.7132782  0.069574166   -3.2137012     1.500423   428016 
 4688000   0.97318798   -3.2122492   -1.7148498  0.062127332   -3.2122492    1.4973994   428030 
 4689000   0.97399607   -3.2114274   -1.7129281  0.062723906   -3.2114274    1.4984993   428071 
 4690000   0.97410098   -3.2125246   -1.7138499  0.064802174   -3.2125246    1.4986747   428067 
 4691000   0.97425174   -3.2136093   -1.7147937  0.061692304   -3.2136093    1.4988156   428093 
 4692000   0.97385325   -3.2128129   -1.7145159    0.0647693   -3.2128129     1.498297   428066 
 4693000   0.97410692   -3.2123435   -1.7136142  0.061991195   -3.2123435    1.4987293   428054 
 4694000   0.97473842   -3.2131034   -1.7134796  0.065595444   -3.2131034    1.4996238   428076 
 4695000   0.97501895   -3.2129523   -1.7128969   0.06899764   -3.2129523    1.5000554   428076 
 4696000   0.97501962   -3.2128309   -1.7128971  0.062382572   -3.2128309    1.4999338   428111 
 4697000   0.97565334   -3.2154373   -1.7144549  0.064089427   -3.2154373    1.5009823   428090 
 4698000   0.97542365   -3.2148544   -1.7143621  0.063059073   -3.2148544    1.5004923   428129 
 4699000   0.97728362      -3.2169   -1.7135817  0.062542057      -3.2169    1.5033184   428139 
 4700000     0.975981   -3.2142939   -1.7128881   0.06292477   -3.2142939    1.5014058   428113 
 4701000   0.97765615   -3.2164073   -1.7124597  0.067619684   -3.2164073    1.5039476   428123 
 4702000   0.97648915   -3.2150263   -1.7129651  0.067365274   -3.2150263    1.5020612   428149 
 4703000    0.9760102   -3.2140867   -1.7128814  0.060423752   -3.2140867    1.5012052   428183 
 4704000    0.9765819   -3.2163346   -1.7143166  0.069080337   -3.2163346    1.5020179   428202 
 4705000   0.97725388   -3.2170275   -1.7139585  0.063997857   -3.2170275     1.503069   428197 
 4706000   0.97677921   -3.2157748   -1.7133271  0.071910359   -3.2157748    1.5024477   428166 
 4707000   0.97765731   -3.2171268   -1.7132442  0.069627146   -3.2171268    1.5038826   428142 
 4708000   0.97797289   -3.2179553   -1.7135872  0.072629978   -3.2179553    1.5043681   428142 
 4709000   0.97758628    -3.216309   -1.7125883  0.070626079    -3.216309    1.5037207   428157 
 4710000   0.97724729   -3.2153879   -1.7121079  0.068243154   -3.2153879      1.50328   428134 
 4711000   0.97418879   -3.2110907   -1.7125295  0.067459365   -3.2110907    1.4985612   428138 
 4712000   0.97666102   -3.2164336   -1.7140063  0.060471453   -3.2164336    1.5024273   428120 
 4713000   0.97648582   -3.2153336   -1.7131863  0.062902351   -3.2153336    1.5021473   428123 
 4714000   0.97548808   -3.2147629   -1.7142206  0.062971649   -3.2147629    1.5005423   428143 
 4715000   0.97478653   -3.2143889   -1.7147821  0.064782363   -3.2143889    1.4996068   428102 
 4716000   0.97518183   -3.2157835   -1.7157298   0.05829287   -3.2157835    1.5000537   428148 
 4717000   0.97563848    -3.213814   -1.7129983  0.062554605    -3.213814    1.5008157   428131 
 4718000   0.97554117   -3.2126429   -1.7120189  0.063922643   -3.2126429     1.500624   428143 
 4719000   0.97640538   -3.2128153   -1.7107251  0.062390565   -3.2128153    1.5020902   428104 
 4720000   0.97455489   -3.2105684    -1.711304  0.066860567   -3.2105684    1.4992644   428098 
 4721000   0.97378757   -3.2088014   -1.7108714  0.060743732   -3.2088014      1.49793   428142 
 4722000   0.97695129   -3.2117676   -1.7091009   0.06537861   -3.2117676    1.5026668   428179 
 4723000   0.97587956   -3.2103186   -1.7093354  0.064332375   -3.2103186    1.5009833   428189 
 4724000   0.97613664   -3.2112026    -1.709859  0.059575983   -3.2112026    1.5013436   428199 
 4725000    0.9770696   -3.2125964   -1.7096845  0.064819552   -3.2125964    1.5029119   428161 
 4726000   0.97683658   -3.2113928   -1.7089621   0.06276801   -3.2113928    1.5024307   428196 
 4727000   0.97668063   -3.2115671   -1.7091939  0.064865968   -3.2115671    1.5023733   428144 
 4728000   0.97621743   -3.2089016   -1.7072303   0.06994162   -3.2089016    1.5016713   428141 
 4729000   0.97714499   -3.2094762   -1.7063114  0.066334336   -3.2094762    1.5031648   428122 
 4730000   0.97774755   -3.2100769   -1.7059114  0.068408677   -3.2100769    1.5041655   428101 
 4731000   0.97689869   -3.2087378   -1.7058326  0.062832465   -3.2087378    1.5029053   428088 
 4732000   0.97642927   -3.2072758   -1.7051594  0.065801582   -3.2072758    1.5021164   428107 
 4733000   0.97657981   -3.2081649   -1.7057502  0.059623895   -3.2081649    1.5024147   428088 
 4734000   0.97538565   -3.2067175   -1.7061014  0.062271183   -3.2067175    1.5006161   428077 
 4735000   0.97570249    -3.208108   -1.7069799  0.065126855    -3.208108    1.5011281   428070 
 4736000   0.97537689    -3.206935   -1.7063183   0.06818069    -3.206935    1.5006166   428073 
 4737000   0.97524975   -3.2085043   -1.7079887  0.061955984   -3.2085043    1.5005157   428046 
 4738000    0.9744586   -3.2063854   -1.7071431  0.063111408   -3.2063854    1.4992424   428062 
 4739000   0.97513875   -3.2077346   -1.7074317  0.063087665   -3.2077346    1.5003028   428058 
 4740000   0.97456573   -3.2053881   -1.7058898  0.067331141   -3.2053881    1.4994983   428036 
 4741000   0.97473223   -3.2053716   -1.7056277  0.062221086   -3.2053716    1.4997439   428039 
 4742000   0.97264482   -3.2031895   -1.7065943  0.064618967   -3.2031895    1.4965952   428021 
 4743000   0.97545878   -3.2074208   -1.7063485  0.062938398   -3.2074208    1.5010723   427979 
 4744000   0.97363436   -3.2046323   -1.7064655    0.0649556   -3.2046323    1.4981667   428007 
 4745000   0.97378786   -3.2053398   -1.7068703  0.065345227   -3.2053398    1.4984695   427988 
 4746000   0.97447139   -3.2057592   -1.7063185  0.062128101   -3.2057592    1.4994407   428011 
 4747000   0.97463939   -3.2064842    -1.706834   0.06833954   -3.2064842    1.4996501   428025 
 4748000   0.97531572    -3.207876   -1.7071011  0.061548896    -3.207876    1.5007749   428001 
 4749000   0.97528386   -3.2078979   -1.7070247  0.056850933   -3.2078979    1.5008732   427959 
 4750000   0.97414476    -3.208029   -1.7088667   0.06146784    -3.208029    1.4991623   427947 
 4751000   0.97592726   -3.2098286   -1.7079126  0.060083451   -3.2098286     1.501916   427944 
 4752000   0.97569013    -3.209121   -1.7075419   0.06044191    -3.209121    1.5015791   427936 
 4753000   0.97411459   -3.2066464    -1.707478  0.063025543   -3.2066464    1.4991684   427932 
 4754000   0.97491487   -3.2082505   -1.7077032  0.062668179   -3.2082505    1.5005473   427890 
 4755000   0.97355244   -3.2067549    -1.708217  0.068587641   -3.2067549    1.4985379   427865 
 4756000   0.97517943   -3.2090228   -1.7079911  0.066496934   -3.2090228    1.5010317   427868 
 4757000   0.97441558    -3.208768     -1.70887  0.060501336    -3.208768     1.499898   427856 
 4758000   0.97603793   -3.2111424   -1.7087296  0.063596171   -3.2111424    1.5024128   427851 
 4759000   0.97418688   -3.2097965   -1.7101559  0.062479178   -3.2097965    1.4996406   427829 
 4760000   0.97512662   -3.2113323   -1.7101925  0.066636835   -3.2113323    1.5011398   427814 
 4761000   0.97410316   -3.2104668    -1.710892  0.064875588   -3.2104668    1.4995748   427811 
 4762000   0.97672356   -3.2135925   -1.7100787  0.059628093   -3.2135925    1.5035139   427838 
 4763000   0.97622888    -3.212456   -1.7097352  0.066587006    -3.212456    1.5027208   427847 
 4764000   0.97666307   -3.2125758   -1.7091409  0.070072197   -3.2125758    1.5034348   427834 
 4765000   0.97615636   -3.2124205   -1.7097481   0.06812158   -3.2124205    1.5026724   427829 
 4766000   0.97466404   -3.2107562   -1.7102057  0.063282158   -3.2107562    1.5005505   427779 
 4767000    0.9747912   -3.2110254   -1.7103213  0.068199687   -3.2110254    1.5007042   427791 
 4768000   0.97427179   -3.2105876   -1.7107883  0.061811111   -3.2105876    1.4997993   427821 
 4769000    0.9729061       -3.208    -1.710359  0.068140127       -3.208     1.497641   427837 
 4770000   0.97481457    -3.210934   -1.7105095  0.064782078    -3.210934    1.5004245   427881 
 4771000   0.97446011   -3.2101407   -1.7102898  0.061806774   -3.2101407    1.4998509   427889 
 4772000   0.97599159   -3.2124738   -1.7102658  0.062252958   -3.2124738     1.502208   427889 
 4773000   0.97383998   -3.2103061   -1.7113537  0.063398839   -3.2103061    1.4989524   427873 
 4774000   0.97248765   -3.2104254   -1.7134845  0.063254587   -3.2104254    1.4969409   427853 
 4775000   0.97387542   -3.2115003   -1.7124127  0.060016139   -3.2115003    1.4990876   427850 
 4776000   0.97348278   -3.2111568   -1.7125616  0.059918341   -3.2111568    1.4985953   427818 
 4777000   0.97278631     -3.20943   -1.7120364  0.063889558     -3.20943    1.4973936   427855 
 4778000   0.97341769   -3.2120994   -1.7138425  0.060787185   -3.2120994    1.4982569   427886 
 4779000   0.97296294   -3.2111521   -1.7136267  0.056369909   -3.2111521    1.4975255   427895 
 4780000   0.97187694    -3.210378   -1.7146079  0.061257646    -3.210378    1.4957701   427919 
 4781000   0.97334824   -3.2118239   -1.7138384  0.058443337   -3.2118239    1.4979855   427933 
 4782000   0.97387199   -3.2112258   -1.7124028   0.06044474   -3.2112258    1.4988231   427924 
 4783000   0.97431754   -3.2125455   -1.7129527   0.06231385   -3.2125455    1.4995929   427900 
 4784000   0.97599099   -3.2152413   -1.7131816  0.062566837   -3.2152413    1.5020597   427931 
 4785000   0.97523504   -3.2151532   -1.7141833  0.066583509   -3.2151532    1.5009699   427910 
 4786000    0.9754462   -3.2144202   -1.7131007  0.066017856   -3.2144202    1.5013195   427903 
 4787000   0.97499633   -3.2127718   -1.7122394   0.06298439   -3.2127718    1.5005324   427930 
 4788000   0.97605401   -3.2147672   -1.7126491  0.065050784   -3.2147672    1.5021181   427942 
 4789000   0.97724328   -3.2172994   -1.7132421  0.064347292   -3.2172994    1.5040573   427911 
 4790000   0.97670356   -3.2160861   -1.7129543  0.066279046   -3.2160861    1.5031318   427938 
 4791000   0.97655904   -3.2164863   -1.7136577  0.063186966   -3.2164863    1.5028286   427961 
 4792000   0.97673143   -3.2161379   -1.7129457  0.067137268   -3.2161379    1.5031922   427933 
 4793000   0.97576882   -3.2153926   -1.7135941  0.063935563   -3.2153926    1.5017985   427908 
 4794000   0.97582668   -3.2170866   -1.7152622  0.064190396   -3.2170866    1.5018244   427926 
 4795000   0.97574391   -3.2160256   -1.7142479  0.066156796   -3.2160256    1.5017777   427903 
 4796000   0.97606741   -3.2167653   -1.7144932  0.066367108   -3.2167653    1.5022721   427904 
 4797000   0.97609902   -3.2176465   -1.7152906  0.067292601   -3.2176465    1.5023559   427894 
 4798000   0.97531384   -3.2181231   -1.7170108  0.065043077   -3.2181231    1.5011123   427904 
 4799000   0.97403871   -3.2153668   -1.7161575  0.068889559   -3.2153668    1.4992093   427887 
 4800000   0.97398932   -3.2151655   -1.7159902  0.065474262   -3.2151655    1.4991753   427875 
 4801000   0.97404465    -3.215284   -1.7160411  0.057911541    -3.215284    1.4992429   427880 
 4802000   0.97555074   -3.2173852   -1.7158381  0.062148621   -3.2173852    1.5015471   427884 
 4803000   0.97460697   -3.2146596   -1.7146143  0.064469381   -3.2146596    1.5000453   427898 
 4804000   0.97541664   -3.2164451   -1.7151535  0.060059235   -3.2164451    1.5012915   427898 
 4805000   0.97423041   -3.2157825   -1.7162256  0.063829056   -3.2157825    1.4995569   427872 
 4806000    0.9751906   -3.2165706   -1.7156025  0.061488257   -3.2165706    1.5009682   427891 
 4807000   0.97455356   -3.2136645   -1.7136979  0.065997378   -3.2136645    1.4999666   427897 
 4808000   0.97312443   -3.2125889   -1.7147588  0.067419328   -3.2125889      1.49783   427879 
 4809000   0.97502736   -3.2149584   -1.7140661     0.062752   -3.2149584    1.5008923   427841 
 4810000   0.97468309   -3.2149679   -1.7147072  0.067780704   -3.2149679    1.5002607   427870 
 4811000   0.97489645   -3.2141927   -1.7135264  0.061477297   -3.2141927    1.5006662   427848 
 4812000   0.97493966   -3.2135731      -1.7127  0.066448236   -3.2135731    1.5008731   427808 
 4813000   0.97454906   -3.2129638   -1.7126465  0.065484933   -3.2129638    1.5003174   427795 
 4814000   0.97358064   -3.2115705   -1.7126319  0.062954953   -3.2115705    1.4989386   427763 
 4815000   0.97438328   -3.2132448   -1.7129582  0.063144655   -3.2132448    1.5002866   427731 
 4816000    0.9740168   -3.2123179   -1.7126201  0.066095008   -3.2123179    1.4996978   427738 
 4817000   0.97512803   -3.2146577   -1.7131788  0.066353569   -3.2146577    1.5014789   427718 
 4818000   0.97365066   -3.2109614   -1.7116837  0.068541561   -3.2109614    1.4992777   427697 
 4819000   0.97602013   -3.2151824   -1.7122139   0.06530695   -3.2151824    1.5029685   427685 
 4820000   0.97557084   -3.2152805   -1.7129863  0.064627523   -3.2152805    1.5022942   427680 
 4821000   0.97555197    -3.212462   -1.7101617  0.066137086    -3.212462    1.5023003   427670 
 4822000   0.97534539   -3.2136513   -1.7117253  0.067739551   -3.2136513     1.501926   427686 
 4823000   0.97480242   -3.2123522   -1.7112799  0.064754519   -3.2123522    1.5010723   427691 
 4824000   0.97537762   -3.2144006   -1.7123758  0.060241139   -3.2144006    1.5020248   427672 
 4825000   0.97283085   -3.2113901    -1.713077  0.060307687   -3.2113901    1.4983131   427612 
 4826000   0.97398849   -3.2128987   -1.7128482  0.060245021   -3.2128987    1.5000505   427625 
 4827000   0.97468902   -3.2145103   -1.7133248  0.061273375   -3.2145103    1.5011855   427609 
 4828000   0.97415617   -3.2152992   -1.7149484  0.058637488   -3.2152992    1.5003508   427613 
 4829000   0.97297264   -3.2137843   -1.7152283  0.061242762   -3.2137843     1.498556   427605 
 4830000   0.97633775   -3.2171891    -1.713517  0.060711784   -3.2171891    1.5036721   427624 
 4831000   0.97372507    -3.212921   -1.7132868  0.067455986    -3.212921    1.4996342   427628 
 4832000   0.97546038   -3.2150816   -1.7126694  0.061013394   -3.2150816    1.5024122   427598 
 4833000    0.9755956   -3.2157902   -1.7129659   0.06740197   -3.2157902    1.5028243   427540 
 4834000   0.97468117   -3.2151083   -1.7137418  0.066825995   -3.2151083    1.5013665   427554 
 4835000   0.97506013   -3.2149736   -1.7131709  0.063583792   -3.2149736    1.5018027   427596 
 4836000   0.97495649   -3.2134668   -1.7118131  0.063313255   -3.2134668    1.5016537   427593 
 4837000   0.97500003   -3.2158241   -1.7141034  0.060978802   -3.2158241    1.5017207   427593 
 4838000   0.97469224   -3.2148233    -1.713517   0.06479123   -3.2148233    1.5013063   427576 
 4839000   0.97455398   -3.2154332   -1.7143714  0.070116834   -3.2154332    1.5010618   427585 
 4840000   0.97417039   -3.2144352   -1.7139888  0.064013017   -3.2144352    1.5004464   427592 
 4841000   0.97516103   -3.2145338   -1.7126319  0.068957193   -3.2145338     1.501902   427612 
 4842000   0.97563881    -3.215379   -1.7127764   0.06724872    -3.215379    1.5026027   427622 
 4843000   0.97660353   -3.2159025   -1.7116416  0.066161131   -3.2159025    1.5042608   427573 
 4844000    0.9750635   -3.2146269   -1.7127873  0.067139609   -3.2146269    1.5018395   427587 
 4845000   0.97562721    -3.216864   -1.7140788  0.066268255    -3.216864    1.5027851   427565 
 4846000    0.9745426   -3.2147257   -1.7136182  0.070958342   -3.2147257    1.5011075   427567 
 4847000   0.97559536   -3.2163134   -1.7136195  0.061905569   -3.2163134    1.5026939   427577 
 4848000   0.97551827   -3.2160681   -1.7134719  0.064142835   -3.2160681    1.5025962   427571 
 4849000    0.9756447   -3.2164196   -1.7135689  0.065830097   -3.2164196    1.5028507   427554 
 4850000   0.97442533   -3.2150568   -1.7141195  0.068803626   -3.2150568    1.5009374   427564 
 4851000   0.97569071   -3.2165718   -1.7135939  0.060777605   -3.2165718    1.5029778   427538 
 4852000   0.97561245   -3.2165178   -1.7135832   0.06844164   -3.2165178    1.5029346   427516 
 4853000   0.97481251   -3.2154568   -1.7137896  0.066724053   -3.2154568    1.5016672   427526 
 4854000   0.97410598    -3.214102   -1.7135653  0.064999579    -3.214102    1.5005367   427538 
 4855000   0.97355529   -3.2150762   -1.7153562  0.065461585   -3.2150762      1.49972   427529 
 4856000   0.97416744   -3.2157431   -1.7151047  0.061680973   -3.2157431    1.5006384   427536 
 4857000   0.97393891   -3.2150949   -1.7147278  0.062882646   -3.2150949    1.5003671   427513 
 4858000   0.97350771   -3.2166241   -1.7168721  0.063006849   -3.2166241    1.4997519   427499 
 4859000   0.97402988    -3.217313   -1.7166409  0.062466604    -3.217313    1.5006722   427466 
 4860000   0.97301095    -3.216069   -1.7169772  0.062957959    -3.216069    1.4990918   427469 
 4861000   0.97235293   -3.2136143   -1.7154207  0.064986731   -3.2136143    1.4981937   427436 
 4862000   0.97548354   -3.2185145   -1.7153741  0.062593378   -3.2185145    1.5031404   427401 
 4863000   0.97324349   -3.2147762    -1.715084  0.068377974   -3.2147762    1.4996922   427400 
 4864000   0.97368496   -3.2150473   -1.7146082  0.063885254   -3.2150473    1.5004391   427381 
 4865000   0.97573103   -3.2167493   -1.7131642  0.066559245   -3.2167493    1.5035851   427383 
 4866000   0.97453096   -3.2165865   -1.7147769  0.064769876   -3.2165865    1.5018096   427362 
 4867000   0.97456516   -3.2164925   -1.7147321  0.060683015   -3.2164925    1.5017604   427391 
 4868000    0.9737333   -3.2158996   -1.7153193  0.065779473   -3.2158996    1.5005803   427362 
 4869000   0.97400394   -3.2164099   -1.7153071  0.065261195   -3.2164099    1.5011028   427332 
 4870000   0.97336154   -3.2152514   -1.7151492  0.065290806   -3.2152514    1.5001022   427335 
 4871000   0.97495421   -3.2170346   -1.7144497  0.070534634   -3.2170346    1.5025849   427327 
 4872000   0.97494522   -3.2168059   -1.7143087  0.064851596   -3.2168059    1.5024972   427348 
 4873000   0.97370917   -3.2138785   -1.7134126  0.067102503   -3.2138785    1.5004659   427384 
 4874000   0.97421262   -3.2138331   -1.7126124  0.066312451   -3.2138331    1.5012206   427390 
 4875000   0.97488723   -3.2148999   -1.7126327  0.059053877   -3.2148999    1.5022672   427388 
 4876000   0.97565672   -3.2152146   -1.7118355   0.06415151   -3.2152146    1.5033791   427409 
 4877000    0.9756078   -3.2160284   -1.7128548  0.062563065   -3.2160284    1.5031736   427446 
 4878000    0.9743413   -3.2135115   -1.7123876  0.063686451   -3.2135115    1.5011239   427474 
 4879000   0.97423893   -3.2150327   -1.7141543  0.062406063   -3.2150327    1.5008784   427499 
 4880000   0.97488355    -3.213853   -1.7119709  0.061820972    -3.213853     1.501882   427496 
 4881000   0.97467531   -3.2135552   -1.7120572  0.064570595   -3.2135552     1.501498   427514 
 4882000   0.97517535   -3.2140227   -1.7117895  0.062866078   -3.2140227    1.5022332   427524 
 4883000   0.97325024   -3.2128906    -1.713595  0.060630469   -3.2128906    1.4992956   427516 
 4884000   0.97343657   -3.2126495   -1.7130633  0.065700691   -3.2126495    1.4995862   427515 
 4885000   0.97413122   -3.2124253   -1.7116005  0.066027469   -3.2124253    1.5008248   427467 
 4886000   0.97334183   -3.2108865   -1.7114077  0.062295086   -3.2108865    1.4994788   427504 
 4887000   0.97420249   -3.2114626      -1.7107  0.063286376   -3.2114626    1.5007626   427516 
 4888000   0.97394171   -3.2114515   -1.7111924  0.063479645   -3.2114515    1.5002591   427545 
 4889000   0.97478005   -3.2117193    -1.710053  0.068256164   -3.2117193    1.5016664   427512 
 4890000   0.97554731   -3.2119837   -1.7092022   0.06529563   -3.2119837    1.5027816   427531 
 4891000   0.97481668   -3.2108452   -1.7091751  0.063625687   -3.2108452    1.5016701   427527 
 4892000   0.97389408   -3.2106708   -1.7104465  0.059703759   -3.2106708    1.5002243   427534 
 4893000   0.97446072   -3.2108316   -1.7097344  0.067404283   -3.2108316    1.5010972   427534 
 4894000   0.97447145   -3.2122064   -1.7110857  0.061468611   -3.2122064    1.5011207   427532 
 4895000   0.97374176   -3.2112388   -1.7112386  0.061889624   -3.2112388    1.5000002   427531 
 4896000   0.97474501   -3.2128829    -1.711404  0.057320057   -3.2128829    1.5014789   427550 
 4897000   0.97458407   -3.2113769   -1.7100089  0.067198913   -3.2113769     1.501368   427511 
 4898000   0.97453876   -3.2108824   -1.7096825  0.065196179   -3.2108824    1.5011999   427539 
 4899000   0.97379641   -3.2103838   -1.7103977  0.062097409   -3.2103838    1.4999862   427559 
 4900000   0.97462154   -3.2118868   -1.7106999  0.061925829   -3.2118868    1.5011869   427579 
 4901000   0.97425605   -3.2108401   -1.7101178  0.069023958   -3.2108401    1.5007222   427551 
 4902000   0.97566027   -3.2130195    -1.710187  0.066053443   -3.2130195    1.5028325   427566 
 4903000   0.97722107   -3.2139285    -1.708639  0.066085799   -3.2139285    1.5052895   427551 
 4904000   0.97732159   -3.2156808   -1.7103104   0.07133559   -3.2156808    1.5053704   427572 
 4905000   0.97658336   -3.2130237   -1.7088291  0.065073006   -3.2130237    1.5041946   427583 
 4906000   0.97650538   -3.2131853   -1.7092972  0.064412337   -3.2131853    1.5038881   427636 
 4907000   0.97636238   -3.2122825   -1.7088045  0.065470615   -3.2122825     1.503478   427690 
 4908000   0.97621697   -3.2111908   -1.7078981  0.066077723   -3.2111908    1.5032927   427679 
 4909000   0.97681189   -3.2131633   -1.7088173   0.06515837   -3.2131633    1.5043461   427640 
 4910000    0.9766953   -3.2137248   -1.7094774  0.063114456   -3.2137248    1.5042474   427617 
 4911000   0.97718103   -3.2133657   -1.7083421  0.065293945   -3.2133657    1.5050236   427609 
 4912000   0.97640864   -3.2133911   -1.7093636  0.064443701   -3.2133911    1.5040275   427554 
 4913000    0.9745834   -3.2121464   -1.7108181  0.064884291   -3.2121464    1.5013283   427522 
 4914000   0.97577974   -3.2133285   -1.7100623  0.064052581   -3.2133285    1.5032662   427495 
 4915000    0.9762096   -3.2141856   -1.7103592   0.06658754   -3.2141856    1.5038264   427524 
 4916000   0.97472144   -3.2125364    -1.710883  0.065402905   -3.2125364    1.5016534   427490 
 4917000   0.97547664   -3.2121861   -1.7094747  0.068036502   -3.2121861    1.5027114   427520 
 4918000   0.97528885    -3.212554    -1.710146  0.065372847    -3.212554     1.502408   427524 
 4919000   0.97386129   -3.2109664     -1.71074  0.066348569   -3.2109664    1.5002264   427519 
 4920000    0.9739882   -3.2110102   -1.7105391  0.061687733   -3.2110102    1.5004711   427505 
 4921000   0.97432779   -3.2113633   -1.7103059  0.066440397   -3.2113633    1.5010574   427487 
 4922000   0.97466217   -3.2127489   -1.7112641    0.0572084   -3.2127489    1.5014848   427512 
 4923000   0.97327865   -3.2107503    -1.711453  0.060172698   -3.2107503    1.4992973   427528 
 4924000   0.97254495   -3.2106618   -1.7126034  0.068008181   -3.2106618    1.4980585   427559 
 4925000   0.97315544   -3.2108651   -1.7118417  0.064154768   -3.2108651    1.4990234   427552 
 4926000   0.97346187   -3.2124519   -1.7129039   0.05579492   -3.2124519     1.499548   427537 
 4927000   0.97277725   -3.2107996   -1.7122817  0.060007999   -3.2107996    1.4985179   427530 
 4928000    0.9739259   -3.2119655   -1.7116676  0.063925426   -3.2119655    1.5002979   427527 
 4929000    0.9739935    -3.212817   -1.7123904  0.059331502    -3.212817    1.5004266   427520 
 4930000   0.97374762   -3.2117377   -1.7115916  0.070023739   -3.2117377    1.5001461   427492 
 4931000    0.9742967    -3.214502   -1.7135522  0.067259046    -3.214502    1.5009499   427504 
 4932000   0.97371713   -3.2142805   -1.7141639  0.070446483   -3.2142805    1.5001166   427487 
 4933000   0.97421447   -3.2150644   -1.7140165  0.065122492   -3.2150644    1.5010479   427440 
 4934000   0.97589575   -3.2176649   -1.7140969  0.061235144   -3.2176649     1.503568   427460 
 4935000   0.97485855   -3.2179687   -1.7159073  0.067452258   -3.2179687    1.5020614   427434 
 4936000    0.9739219     -3.21541   -1.7148655  0.062604373     -3.21541    1.5005444   427455 
 4937000   0.97493288   -3.2158717   -1.7136852  0.065730897   -3.2158717    1.5021864   427431 
 4938000    0.9740338   -3.2156719   -1.7148146  0.063762317   -3.2156719    1.5008573   427415 
 4939000   0.97485014   -3.2158383   -1.7136951  0.068327844   -3.2158383    1.5021433   427407 
 4940000   0.97489979   -3.2179472    -1.715745  0.070238452   -3.2179472    1.5022022   427412 
 4941000   0.97490806   -3.2186264   -1.7163025  0.070029603   -3.2186264    1.5023239   427381 
 4942000   0.97501056   -3.2194758    -1.717015  0.064016199   -3.2194758    1.5024608   427387 
 4943000   0.97561888   -3.2198442   -1.7164847   0.06906053   -3.2198442    1.5033595   427398 
 4944000   0.97495259   -3.2179146   -1.7157294  0.061800235   -3.2179146    1.5021852   427440 
 4945000   0.97422723   -3.2178471   -1.7167866  0.065468139   -3.2178471    1.5010605   427442 
 4946000    0.9737289   -3.2169502   -1.7167066  0.066732894   -3.2169502    1.5002436   427456 
 4947000   0.97262263   -3.2151739   -1.7166067   0.06989513   -3.2151739    1.4985672   427448 
 4948000    0.9744177    -3.217885   -1.7166048  0.063448747    -3.217885    1.5012802   427463 
 4949000   0.97437479   -3.2178761   -1.7166936  0.067796399   -3.2178761    1.5011825   427472 
 4950000   0.97408268   -3.2192154    -1.718504  0.059078095   -3.2192154    1.5007114   427478 
 4951000   0.97439593   -3.2185648   -1.7172935  0.063800175   -3.2185648    1.5012713   427456 
 4952000   0.97451382    -3.219104   -1.7176476  0.067039388    -3.219104    1.5014564   427455 
 4953000   0.97381166   -3.2179841   -1.7174164  0.066471852   -3.2179841    1.5005677   427400 
 4954000   0.97295626    -3.216099   -1.7168775  0.068933339    -3.216099    1.4992215   427408 
 4955000   0.97486637   -3.2157264    -1.713646  0.065152725   -3.2157264    1.5020804   427432 
 4956000   0.97449516   -3.2150757   -1.7136761  0.066741924   -3.2150757    1.5013996   427463 
 4957000   0.97525258   -3.2156494   -1.7129317  0.063843207   -3.2156494    1.5027177   427420 
 4958000   0.97435319   -3.2151963   -1.7139065  0.060370846   -3.2151963    1.5012897   427432 
 4959000    0.9732572    -3.213533   -1.7139636   0.06942032    -3.213533    1.4995694   427441 
 4960000   0.97438343   -3.2149903   -1.7135381  0.068722636   -3.2149903    1.5014522   427399 
 4961000   0.97544198   -3.2163688   -1.7133769  0.065382974   -3.2163688    1.5029919   427425 
 4962000   0.97457884   -3.2161692   -1.7145002  0.063107308   -3.2161692     1.501669   427423 
 4963000   0.97346044    -3.213765   -1.7137702  0.069150186    -3.213765    1.4999949   427409 
 4964000   0.97489872   -3.2157637   -1.7135947  0.057580503   -3.2157637    1.5021689   427421 
 4965000   0.97137923   -3.2112106   -1.7145242  0.065545525   -3.2112106    1.4966864   427438 
 4966000   0.97206389   -3.2129053   -1.7151745  0.066005526   -3.2129053    1.4977308   427441 
 4967000   0.97271283   -3.2137957    -1.715044  0.069919789   -3.2137957    1.4987517   427435 
 4968000   0.97364219   -3.2152953   -1.7150519  0.064309025   -3.2152953    1.5002433   427418 
 4969000   0.97405898     -3.21622   -1.7153379  0.066820569     -3.21622     1.500882   427419 
 4970000   0.97463096   -3.2164682   -1.7146345  0.062780784   -3.2164682    1.5018337   427399 
 4971000   0.97333761   -3.2129126   -1.7131807  0.068733951   -3.2129126    1.4997319   427430 
 4972000   0.97436755   -3.2151427   -1.7138449  0.066603931   -3.2151427    1.5012978   427436 
 4973000   0.97466988   -3.2170417   -1.7151972  0.061172575   -3.2170417    1.5018444   427413 
 4974000   0.97444374   -3.2165893   -1.7150441  0.063481625   -3.2165893    1.5015452   427399 
 4975000   0.97317532   -3.2144741   -1.7150203  0.062392525   -3.2144741    1.4994538   427438 
 4976000   0.97371988   -3.2154856   -1.7150944   0.06726506   -3.2154856    1.5003911   427410 
 4977000   0.97346479   -3.2169525   -1.7170211  0.065567746   -3.2169525    1.4999314   427429 
 4978000   0.97195166   -3.2136729   -1.7160344  0.059974345   -3.2136729    1.4976385   427418 
 4979000   0.97284668   -3.2152412   -1.7160693  0.065346442   -3.2152412    1.4991719   427374 
 4980000   0.97413341   -3.2167611   -1.7155958  0.060420504   -3.2167611    1.5011653   427371 
 4981000   0.97380032   -3.2161114   -1.7155647   0.06525468   -3.2161114    1.5005467   427401 
 4982000   0.97377909   -3.2160122   -1.7154877  0.062896598   -3.2160122    1.5005245   427398 
 4983000   0.97586737   -3.2176108   -1.7138895  0.065061623   -3.2176108    1.5037213   427404 
 4984000   0.97584677    -3.218918   -1.7152601  0.069590648    -3.218918    1.5036579   427413 
 4985000   0.97437253   -3.2172594    -1.715845  0.064175426   -3.2172594    1.5014144   427405 
 4986000   0.97407816   -3.2164684   -1.7154198  0.069036492   -3.2164684    1.5010486   427380 
 4987000   0.97530235   -3.2181264   -1.7151808  0.063986574   -3.2181264    1.5029456   427377 
 4988000   0.97463695   -3.2160458   -1.7140975  0.073208041   -3.2160458    1.5019483   427369 
 4989000   0.97397663   -3.2158319   -1.7150065  0.067076528   -3.2158319    1.5008254   427399 
 4990000   0.97388026   -3.2155623   -1.7148854  0.065211413   -3.2155623    1.5006769   427399 
 4991000   0.97462058   -3.2174226   -1.7156646  0.061652064   -3.2174226    1.5017579   427416 
 4992000   0.97436901   -3.2175631   -1.7163825  0.065677315   -3.2175631    1.5011806   427470 
 4993000   0.97449953   -3.2152695   -1.7140177  0.065986824   -3.2152695    1.5012518   427507 
 4994000   0.97373833   -3.2132035   -1.7131805  0.067607456   -3.2132035     1.500023   427523 
 4995000   0.97419125   -3.2142122   -1.7135091  0.061747121   -3.2142122    1.5007032   427528 
 4996000    0.9726715   -3.2121443   -1.7137752  0.063231201   -3.2121443     1.498369   427526 
 4997000   0.97463791   -3.2152688   -1.7138565  0.061867078   -3.2152688    1.5014123   427522 
 4998000   0.97479665   -3.2148468   -1.7130776  0.061471025   -3.2148468    1.5017692   427490 
 4999000   0.97413368   -3.2151772   -1.7143556  0.065997312   -3.2151772    1.5008216   427469 
 5000000   0.97256563   -3.2137048   -1.7151378  0.061740363   -3.2137048     1.498567   427423 
 5001000   0.97101397   -3.2124271    -1.716167  0.059866815   -3.2124271    1.4962601   427399 
 5002000   0.96968033   -3.2112201   -1.7169066  0.058068237   -3.2112201    1.4943135   427368 
 5003000   0.97192164   -3.2138525   -1.7160115  0.063115035   -3.2138525     1.497841   427347 
 5004000    0.9703074   -3.2127654   -1.7173911  0.058157935   -3.2127654    1.4953743   427341 
 5005000   0.97197957   -3.2131277   -1.7151273  0.063790863   -3.2131277    1.4980004   427327 
 5006000   0.97137675   -3.2123044   -1.7152856  0.065473139   -3.2123044    1.4970188   427342 
 5007000   0.97186871   -3.2131001    -1.715253  0.063491956   -3.2131001    1.4978471   427322 
 5008000   0.97160999   -3.2125799    -1.715065   0.06415846   -3.2125799    1.4975149   427303 
 5009000   0.97276211   -3.2150474   -1.7156374  0.061251197   -3.2150474      1.49941   427269 
 5010000   0.97197807   -3.2134572   -1.7153049  0.061412162   -3.2134572    1.4981524   427283 
 5011000   0.97161153   -3.2138178    -1.716276  0.063680698   -3.2138178    1.4975418   427296 
 5012000   0.97192633   -3.2157233   -1.7175945  0.058892346   -3.2157233    1.4981287   427267 
 5013000   0.97137447   -3.2138321    -1.716554  0.063914555   -3.2138321    1.4972781   427267 
 5014000    0.9721743    -3.214364   -1.7160109  0.059502275    -3.214364    1.4983531   427312 
 5015000   0.97207505   -3.2145509   -1.7164208  0.061480413   -3.2145509      1.49813   427332 
 5016000   0.97123574   -3.2151256   -1.7182225  0.054803902   -3.2151256    1.4969031   427313 
 5017000   0.97083196   -3.2153824   -1.7191331   0.06124902   -3.2153824    1.4962492   427322 
 5018000   0.97207759   -3.2177462   -1.7195982  0.061366913   -3.2177462     1.498148   427328 
 5019000   0.97080131   -3.2159964   -1.7197804  0.063528896   -3.2159964     1.496216   427318 
 5020000   0.97078869   -3.2153353   -1.7192472  0.065222604   -3.2153353     1.496088   427349 
 5021000   0.97332111    -3.218762    -1.718666  0.067736115    -3.218762    1.5000961   427319 
 5022000   0.97313266   -3.2202759   -1.7204702  0.062095843   -3.2202759    1.4998056   427319 
 5023000   0.97331017   -3.2201159   -1.7201385  0.059005584   -3.2201159    1.4999774   427348 
 5024000   0.97262997   -3.2189732   -1.7198687  0.066608956   -3.2189732    1.4991045   427298 
 5025000   0.97152667   -3.2183413   -1.7209198  0.066498371   -3.2183413    1.4974216   427293 
 5026000   0.97387255   -3.2213745   -1.7204531  0.060347573   -3.2213745    1.5009214   427326 
 5027000   0.97148334   -3.2201006   -1.7228965  0.063504916   -3.2201006    1.4972041   427336 
 5028000   0.97404191   -3.2218141   -1.7207125   0.06797454   -3.2218141    1.5011016   427349 
 5029000   0.97388626   -3.2213237   -1.7205744  0.069190185   -3.2213237    1.5007493   427381 
 5030000    0.9716134   -3.2201618   -1.7228273  0.062867055   -3.2201618    1.4973345   427356 
 5031000   0.97285626   -3.2219158   -1.7226415   0.06073565   -3.2219158    1.4992744   427349 
 5032000   0.97146904   -3.2197687   -1.7225411  0.065551924   -3.2197687    1.4972276   427323 
 5033000   0.97215495   -3.2221747   -1.7237707  0.069295651   -3.2221747     1.498404   427289 
 5034000   0.97401687   -3.2242212   -1.7230072  0.064591702   -3.2242212    1.5012141   427306 
 5035000   0.97224427   -3.2218175    -1.723374  0.061480299   -3.2218175    1.4984434   427317 
 5036000   0.97213834   -3.2198356    -1.721587  0.065146506   -3.2198356    1.4982486   427326 
 5037000   0.97346929   -3.2226115   -1.7223994  0.062924959   -3.2226115    1.5002121   427351 
 5038000   0.97227052   -3.2216113   -1.7233869  0.061980162   -3.2216113    1.4982244   427391 
 5039000   0.97192287   -3.2209943   -1.7232495  0.064015903   -3.2209943    1.4977448   427375 
 5040000   0.97197899   -3.2208003   -1.7229971  0.061558764   -3.2208003    1.4978032   427383 
 5041000   0.97305963   -3.2205599   -1.7212283  0.062839408   -3.2205599    1.4993317   427422 
 5042000   0.97252933   -3.2200535   -1.7215355  0.064985133   -3.2200535    1.4985181   427421 
 5043000   0.97256652   -3.2211502   -1.7225714  0.066637939   -3.2211502    1.4985789   427420 
 5044000   0.97243207   -3.2195137   -1.7211665  0.062766671   -3.2195137    1.4983472   427427 
 5045000   0.97291287   -3.2198634   -1.7207544  0.063731975   -3.2198634     1.499109   427421 
 5046000   0.97196498   -3.2176063   -1.7201295  0.059008198   -3.2176063    1.4974768   427470 
 5047000   0.97102601   -3.2161232   -1.7200335   0.06464417   -3.2161232    1.4960897   427453 
 5048000   0.97205512   -3.2178628   -1.7201735  0.063652568   -3.2178628    1.4976893   427449 
 5049000   0.97119596   -3.2175332   -1.7210907  0.063476738   -3.2175332    1.4964425   427427 
 5050000   0.97167159   -3.2188703   -1.7216599  0.060629621   -3.2188703    1.4972104   427417 
 5051000   0.97197361   -3.2184384   -1.7207346  0.061242657   -3.2184384    1.4977038   427409 
 5052000   0.97063793   -3.2165225   -1.7209958  0.062398891   -3.2165225    1.4955267   427443 
 5053000   0.97119297   -3.2169794   -1.7205204  0.061882146   -3.2169794    1.4964589   427421 
 5054000   0.97313593   -3.2190598    -1.719586  0.063407893   -3.2190598    1.4994738   427415 
 5055000   0.97215027   -3.2186736   -1.7206274  0.060257174   -3.2186736    1.4980462   427389 
 5056000   0.97172534   -3.2176558     -1.72024  0.064927397   -3.2176558    1.4974159   427382 
 5057000   0.97216963   -3.2178002   -1.7197768  0.064986475   -3.2178002    1.4980234   427404 
 5058000    0.9718322   -3.2154267   -1.7179478  0.060402273   -3.2154267    1.4974789   427411 
 5059000   0.97240119   -3.2167907   -1.7183789  0.063877816   -3.2167907    1.4984118   427395 
 5060000   0.97156092   -3.2157134   -1.7186209  0.062666964   -3.2157134    1.4970925   427402 
 5061000   0.97198673   -3.2158198   -1.7179941  0.059222808   -3.2158198    1.4978257   427380 
 5062000   0.97235568   -3.2164201   -1.7181205  0.059378453   -3.2164201    1.4982996   427407 
 5063000   0.97227093   -3.2170734   -1.7189499  0.060215614   -3.2170734    1.4981234   427420 
 5064000   0.97280197   -3.2182396   -1.7192208   0.06111928   -3.2182396    1.4990188   427398 
 5065000   0.96981132   -3.2146237   -1.7200734  0.063715064   -3.2146237    1.4945503   427358 
 5066000   0.97157476   -3.2174004   -1.7202446  0.063802184   -3.2174004    1.4971558   427390 
 5067000   0.97235331   -3.2182661   -1.7199211   0.05973877   -3.2182661     1.498345   427393 
 5068000   0.97420786   -3.2206408    -1.719431  0.066309458   -3.2206408    1.5012098   427391 
 5069000   0.97316532    -3.219916   -1.7202355  0.061891054    -3.219916    1.4996805   427369 
 5070000    0.9716806   -3.2161577   -1.7186846  0.071335727   -3.2161577    1.4974731   427346 
 5071000   0.97328438   -3.2200888   -1.7202389  0.059702139   -3.2200888    1.4998499   427373 
 5072000   0.97263089   -3.2181445   -1.7193156  0.064557635   -3.2181445    1.4988289   427377 
 5073000   0.97322456   -3.2194046   -1.7196504   0.06256171   -3.2194046    1.4997542   427374 
 5074000   0.97322777   -3.2201618     -1.72035    0.0610252   -3.2201618    1.4998118   427359 
 5075000   0.97180486   -3.2180072   -1.7203531  0.065254207   -3.2180072     1.497654   427349 
 5076000   0.97287781   -3.2203008   -1.7208739  0.060654639   -3.2203008    1.4994269   427315 
 5077000   0.97249924   -3.2182025   -1.7194433  0.062763571   -3.2182025    1.4987592   427339 
 5078000   0.97192948   -3.2189504   -1.7209921  0.064118205   -3.2189504    1.4979583   427317 
 5079000   0.97243674   -3.2197057   -1.7209796  0.065629775   -3.2197057    1.4987261   427321 
 5080000   0.97338436    -3.219916    -1.719568  0.068593661    -3.219916     1.500348   427275 
 5081000   0.97222477   -3.2197491   -1.7213147  0.064995653   -3.2197491    1.4984344   427311 
 5082000   0.97335496   -3.2210323   -1.7207928  0.064086749   -3.2210323    1.5002395   427293 
 5083000   0.97439761   -3.2238554   -1.7218929   0.06541952   -3.2238554    1.5019626   427260 
 5084000   0.97143501   -3.2206631   -1.7230253  0.064985656   -3.2206631    1.4976378   427191 
 5085000   0.97160289   -3.2205522   -1.7226942  0.065878722   -3.2205522     1.497858   427202 
 5086000   0.97324107    -3.221677   -1.7213216   0.06670654    -3.221677    1.5003554   427210 
 5087000   0.97219131   -3.2224153   -1.7236045  0.065352055   -3.2224153    1.4988108   427189 
 5088000   0.97336655    -3.223947   -1.7232295  0.067119821    -3.223947    1.5007175   427162 
 5089000   0.97243327   -3.2226206   -1.7234087  0.063781296   -3.2226206    1.4992119   427181 
 5090000   0.97361589   -3.2234876   -1.7224876  0.070869882   -3.2234876        1.501   427191 
 5091000   0.97266215   -3.2223485   -1.7227943  0.067026823   -3.2223485    1.4995542   427184 
 5092000   0.97358167   -3.2241064   -1.7230678  0.062808989   -3.2241064    1.5010386   427165 
 5093000   0.97441008   -3.2251387   -1.7229143  0.067277647   -3.2251387    1.5022244   427191 
 5094000   0.97252904   -3.2234422   -1.7241108  0.070341766   -3.2234422    1.4993314   427189 
 5095000   0.97366928   -3.2244608   -1.7234312  0.066726019   -3.2244608    1.5010296   427206 
 5096000   0.97347233   -3.2236992   -1.7230856  0.063586884   -3.2236992    1.5006136   427238 
 5097000   0.97220199   -3.2245718   -1.7259234  0.060060594   -3.2245718    1.4986483   427240 
 5098000   0.97258505   -3.2231653    -1.724116  0.058071158   -3.2231653    1.4990493   427294 
 5099000   0.97251621   -3.2234194   -1.7244411  0.060648899   -3.2234194    1.4989783   427284 
 5100000   0.97244818   -3.2231394   -1.7242203  0.063151513   -3.2231394    1.4989191   427271 
 5101000   0.97229175   -3.2225778   -1.7238754  0.064536344   -3.2225778    1.4987025   427264 
 5102000   0.97217292   -3.2222671   -1.7240178  0.063733994   -3.2222671    1.4982493   427341 
 5103000   0.97185096   -3.2208099   -1.7231443  0.065920775   -3.2208099    1.4976655   427366 
 5104000   0.97198087   -3.2207364   -1.7228672  0.067547571   -3.2207364    1.4978692   427365 
 5105000   0.97310733   -3.2225923   -1.7231029  0.059212392   -3.2225923    1.4994894   427398 
 5106000   0.97161227   -3.2204132   -1.7230279  0.060999632   -3.2204132    1.4973853   427341 
 5107000   0.97396589    -3.223092   -1.7219846   0.06370693    -3.223092    1.5011074   427314 
 5108000   0.97257162   -3.2216652   -1.7227629  0.060094278   -3.2216652    1.4989024   427330 
 5109000   0.97267545   -3.2206463   -1.7214717  0.063680923   -3.2206463    1.4991746   427298 
 5110000   0.97202291   -3.2195483   -1.7214671  0.067175958   -3.2195483    1.4980812   427323 
 5111000    0.9726104   -3.2204159   -1.7214187  0.067076488   -3.2204159    1.4989972   427320 
 5112000   0.97151783   -3.2190228    -1.721762  0.063560163   -3.2190228    1.4972608   427335 
 5113000    0.9715066   -3.2193483   -1.7219647  0.057457858   -3.2193483    1.4973836   427295 
 5114000   0.97104987   -3.2190906   -1.7223619    0.0596373   -3.2190906    1.4967287   427281 
 5115000   0.97055508   -3.2178462   -1.7217926  0.061803017   -3.2178462    1.4960536   427256 
 5116000   0.97138686   -3.2192907   -1.7219549  0.063541647   -3.2192907    1.4973357   427256 
 5117000    0.9721406   -3.2186281   -1.7201551  0.061696578   -3.2186281     1.498473   427263 
 5118000   0.97175366   -3.2196112   -1.7216049  0.065027935   -3.2196112    1.4980063   427226 
 5119000    0.9724795   -3.2193661   -1.7204304  0.063704301   -3.2193661    1.4989358   427280 
 5120000    0.9718913   -3.2189766   -1.7210701  0.066497437   -3.2189766    1.4979064   427315 
 5121000   0.97094799   -3.2182994   -1.7217768  0.063666701   -3.2182994    1.4965226   427295 
 5122000   0.97251516   -3.2208436   -1.7219791  0.064369191   -3.2208436    1.4988644   427316 
 5123000   0.97149901   -3.2181381   -1.7209554  0.057202334   -3.2181381    1.4971827   427349 
 5124000   0.97306287   -3.2201022   -1.7204638  0.060254722   -3.2201022    1.4996384   427336 
 5125000   0.97194548   -3.2183278   -1.7204185  0.062951002   -3.2183278    1.4979093   427338 
 5126000   0.97271695    -3.220215   -1.7210817  0.062591581    -3.220215    1.4991334   427328 
 5127000   0.97184569   -3.2184338   -1.7206782  0.063711804   -3.2184338    1.4977555   427338 
 5128000   0.97360905   -3.2193206   -1.7187913  0.062380644   -3.2193206    1.5005293   427322 
 5129000   0.97489414   -3.2197187   -1.7172826  0.061085546   -3.2197187    1.5024361   427343 
 5130000   0.97351259    -3.219317   -1.7189749   0.06589044    -3.219317     1.500342   427333 
 5131000   0.97093324   -3.2163226   -1.7199347  0.067896965   -3.2163226    1.4963878   427327 
 5132000   0.97235066   -3.2175783   -1.7190375  0.064917842   -3.2175783    1.4985408   427336 
 5133000    0.9739893   -3.2186252   -1.7175871  0.067754707   -3.2186252    1.5010381   427344 
 5134000   0.97440128   -3.2199832   -1.7181521  0.061896366   -3.2199832    1.5018311   427299 
 5135000   0.97346902   -3.2192518   -1.7188541  0.061531342   -3.2192518    1.5003978   427298 
 5136000   0.97383926   -3.2203841    -1.719356  0.065304994   -3.2203841    1.5010281   427281 
 5137000   0.97382445   -3.2214709    -1.720434  0.065439651   -3.2214709    1.5010369   427272 
 5138000   0.97120842   -3.2176436   -1.7205093  0.065231013   -3.2176436    1.4971342   427235 
 5139000   0.97075498   -3.2174647     -1.72111  0.057486243   -3.2174647    1.4963547   427258 
 5140000   0.97200571   -3.2202233   -1.7219792  0.058720518   -3.2202233    1.4982441   427269 
 5141000   0.97265649    -3.221002   -1.7216812  0.062217216    -3.221002    1.4993209   427248 
 5142000   0.97227727   -3.2203103   -1.7215775  0.057203245   -3.2203103    1.4987328   427249 
 5143000   0.97034544    -3.218109   -1.7223996  0.065004162    -3.218109    1.4957094   427262 
 5144000   0.97149304   -3.2189635   -1.7216463  0.065061201   -3.2189635    1.4973172   427308 
 5145000   0.97023616   -3.2174981   -1.7220656  0.063549035   -3.2174981    1.4954325   427293 
 5146000   0.97150561   -3.2206189   -1.7231422  0.065745589   -3.2206189    1.4974767   427268 
 5147000   0.97168732   -3.2208796   -1.7231123  0.057141087   -3.2208796    1.4977673   427265 
 5148000   0.97179626   -3.2203026   -1.7224305   0.06215204   -3.2203026    1.4978721   427283 
 5149000   0.97186129   -3.2206638   -1.7227054  0.059381262   -3.2206638    1.4979584   427287 
 5150000   0.97056279    -3.218444    -1.722515  0.066513762    -3.218444    1.4959289   427295 
 5151000   0.97094286   -3.2197341   -1.7232894  0.060457197   -3.2197341    1.4964447   427315 
 5152000   0.97121864   -3.2200873   -1.7232351  0.064062654   -3.2200873    1.4968522   427320 
 5153000   0.97299029   -3.2225191   -1.7228206  0.061718336   -3.2225191    1.4996985   427287 
 5154000   0.97271843   -3.2222179   -1.7229209  0.060758557   -3.2222179     1.499297   427282 
 5155000   0.97168883      -3.2187   -1.7210285  0.059962483      -3.2187    1.4976715   427293 
 5156000   0.97365162    -3.222088    -1.721328  0.062512589    -3.222088      1.50076   427275 
 5157000    0.9725504   -3.2198782   -1.7208507  0.068079505   -3.2198782    1.4990275   427285 
 5158000   0.97452625   -3.2211815    -1.719214  0.065801009   -3.2211815    1.5019675   427315 
 5159000   0.97377216   -3.2194362   -1.7186625  0.066399053   -3.2194362    1.5007737   427324 
 5160000   0.97212088   -3.2175082   -1.7194267  0.062983727   -3.2175082    1.4980815   427366 
 5161000   0.97341051   -3.2198832   -1.7198073  0.065860738   -3.2198832    1.5000759   427364 
 5162000   0.97330181   -3.2200014   -1.7201562  0.065877111   -3.2200014    1.4998452   427382 
 5163000   0.97418928   -3.2211532    -1.720095  0.059550185   -3.2211532    1.5010582   427426 
 5164000   0.97321344   -3.2187638   -1.7192232  0.066105065   -3.2187638    1.4995406   427430 
 5165000   0.97352392   -3.2190462   -1.7190237  0.064821423   -3.2190462    1.5000225   427429 
 5166000   0.97231401   -3.2170909   -1.7190132  0.062495207   -3.2170909    1.4980776   427452 
 5167000   0.97271567   -3.2167492   -1.7180106  0.065134324   -3.2167492    1.4987386   427440 
 5168000   0.97175383   -3.2157371    -1.718519  0.059847368   -3.2157371    1.4972181   427451 
 5169000   0.97220404   -3.2171477   -1.7192535  0.063515799   -3.2171477    1.4978942   427456 
 5170000   0.97201237   -3.2169312   -1.7192062  0.068005183   -3.2169312     1.497725   427420 
 5171000   0.97342655   -3.2186892   -1.7187851  0.063468593   -3.2186892    1.4999041   427420 
 5172000   0.97097042    -3.217834   -1.7215324  0.061438647    -3.217834    1.4963016   427368 
 5173000   0.97212803   -3.2193975   -1.7212559    0.0581807   -3.2193975    1.4981416   427352 
 5174000   0.97164713   -3.2179061   -1.7204917  0.061771622   -3.2179061    1.4974145   427348 
 5175000   0.97216916   -3.2181647   -1.7198686  0.061407655   -3.2181647    1.4982961   427326 
 5176000   0.97188403   -3.2183984   -1.7206258  0.060300118   -3.2183984    1.4977726   427350 
 5177000   0.97270414   -3.2189501   -1.7198681  0.059238214   -3.2189501     1.499082   427337 
 5178000   0.97124894   -3.2181787   -1.7213814  0.057935813   -3.2181787    1.4967973   427349 
 5179000   0.97198938   -3.2178092   -1.7198637  0.062858833   -3.2178092    1.4979454   427347 
 5180000   0.97379373   -3.2187546   -1.7180706  0.059588436   -3.2187546     1.500684   427359 
 5181000    0.9727539   -3.2189931    -1.719887  0.066132884   -3.2189931    1.4991061   427352 
 5182000   0.97336912   -3.2189213   -1.7188671  0.069475584   -3.2189213    1.5000542   427352 
 5183000   0.97408944   -3.2202995   -1.7189876  0.063164855   -3.2202995    1.5013118   427310 
 5184000   0.97370591   -3.2186607   -1.7179575  0.063530436   -3.2186607    1.5007032   427315 
 5185000   0.97500978   -3.2176052   -1.7149452  0.069967766   -3.2176052      1.50266   427330 
 5186000   0.97380783   -3.2165218   -1.7158722  0.072350707   -3.2165218    1.5006495   427375 
 5187000   0.97512607   -3.2183156   -1.7156452  0.066129029   -3.2183156    1.5026704   427378 
 5188000   0.97461298   -3.2188641   -1.7168648  0.064271659   -3.2188641    1.5019992   427344 
 5189000   0.97348932   -3.2187539   -1.7183951  0.064966702   -3.2187539    1.5003588   427318 
 5190000   0.97212268   -3.2154845   -1.7172495  0.062034234   -3.2154845     1.498235   427323 
 5191000    0.9720261   -3.2172831   -1.7192531  0.063415606   -3.2172831    1.4980301   427339 
 5192000   0.97111992   -3.2155628   -1.7190168  0.063235095   -3.2155628     1.496546   427364 
 5193000   0.97235341   -3.2166452   -1.7182335  0.066492217   -3.2166452    1.4984118   427374 
 5194000    0.9730024   -3.2161205   -1.7167717  0.067918183   -3.2161205    1.4993487   427392 
 5195000   0.97290003   -3.2152525    -1.716051  0.063827936   -3.2152525    1.4992015   427389 
 5196000   0.97226985   -3.2150901   -1.7168492  0.060846196   -3.2150901    1.4982409   427386 
 5197000   0.97175629   -3.2139014    -1.716627   0.06496777   -3.2139014    1.4972744   427436 
 5198000   0.97364271   -3.2153577    -1.715296  0.061651802   -3.2153577    1.5000617   427470 
 5199000   0.97310159   -3.2149877    -1.715665  0.065596556   -3.2149877    1.4993227   427443 
 5200000   0.97106693   -3.2126501   -1.7164694  0.071066629   -3.2126501    1.4961807   427445 
 5201000   0.97220885   -3.2140326   -1.7160364  0.068337977   -3.2140326    1.4979962   427429 
 5202000   0.97374367   -3.2164261   -1.7161282  0.060606401   -3.2164261    1.5002979   427447 
 5203000   0.97188031   -3.2134953   -1.7160299  0.062319537   -3.2134953    1.4974655   427436 
 5204000   0.97207775   -3.2149987   -1.7172536  0.064786671   -3.2149987    1.4977452   427443 
 5205000   0.97123451   -3.2133142   -1.7168893  0.067511798   -3.2133142    1.4964249   427449 
 5206000   0.97146579   -3.2153857   -1.7184503  0.062376152   -3.2153857    1.4969354   427405 
 5207000   0.97139535   -3.2149471   -1.7181237  0.060303233   -3.2149471    1.4968233   427406 
 5208000   0.97146729   -3.2150388    -1.717989   0.06184343   -3.2150388    1.4970498   427373 
 5209000   0.97258154   -3.2170233   -1.7181618  0.063108448   -3.2170233    1.4988615   427346 
 5210000   0.97327262   -3.2187077   -1.7186443  0.060976643   -3.2187077    1.5000635   427307 
 5211000   0.97454952   -3.2203608   -1.7182872  0.064765447   -3.2203608    1.5020737   427295 
 5212000   0.97221009   -3.2174393    -1.719031  0.064756259   -3.2174393    1.4984083   427312 
 5213000   0.97258112    -3.217248   -1.7183275  0.061420182    -3.217248    1.4989205   427329 
 5214000   0.97231504   -3.2161111   -1.7175901  0.066664656   -3.2161111    1.4985209   427326 
 5215000   0.97416599   -3.2196694   -1.7183344  0.066297251   -3.2196694     1.501335   427337 
 5216000   0.97378125   -3.2184651   -1.7176318  0.065578197   -3.2184651    1.5008333   427311 
 5217000   0.97278654   -3.2190472   -1.7196873  0.068002303   -3.2190472    1.4993599   427294 
 5218000   0.97262447   -3.2195028   -1.7203261  0.067297774   -3.2195028    1.4991768   427275 
 5219000   0.97291527   -3.2196009   -1.7201514  0.065503969   -3.2196009    1.4994495   427325 
 5220000   0.97403445   -3.2216754   -1.7203675  0.061651516   -3.2216754    1.5013079   427287 
 5221000   0.97347985    -3.221241   -1.7207809  0.066777357    -3.221241    1.5004601   427285 
 5222000   0.97237922   -3.2203468   -1.7214498  0.065275517   -3.2203468     1.498897   427247 
 5223000   0.97255407   -3.2201295   -1.7210121   0.06448433   -3.2201295    1.4991174   427261 
 5224000   0.97392235   -3.2206389   -1.7195705  0.061327378   -3.2206389    1.5010684   427306 
 5225000   0.97161741   -3.2187732    -1.721352  0.064856516   -3.2187732    1.4974212   427333 
 5226000   0.97196646    -3.219786   -1.7218829  0.061881854    -3.219786    1.4979031   427349 
 5227000   0.97334024   -3.2208764    -1.720814  0.065551471   -3.2208764    1.5000624   427337 
 5228000   0.97202633   -3.2194653   -1.7214139  0.067861899   -3.2194653    1.4980515   427333 
 5229000   0.97283604   -3.2216922   -1.7223683  0.064479316   -3.2216922    1.4993239   427326 
 5230000   0.97239217   -3.2186488   -1.7199669  0.063511907   -3.2186488    1.4986819   427314 
 5231000   0.97300018   -3.2197806   -1.7201827  0.057607202   -3.2197806    1.4995979   427320 
 5232000   0.97369613   -3.2208394   -1.7201197  0.062857362   -3.2208394    1.5007197   427306 
 5233000   0.97196992   -3.2172818   -1.7193032  0.062961696   -3.2172818    1.4979785   427329 
 5234000    0.9727957   -3.2193969   -1.7201773  0.063248017   -3.2193969    1.4992196   427338 
 5235000   0.97210109   -3.2189022   -1.7207425  0.065064928   -3.2189022    1.4981597   427335 
 5236000   0.97270125   -3.2194265   -1.7203279  0.061170465   -3.2194265    1.4990986   427331 
 5237000   0.97323658   -3.2191102   -1.7192251  0.062355407   -3.2191102    1.4998851   427342 
 5238000   0.97133004   -3.2159262   -1.7189934  0.066169099   -3.2159262    1.4969328   427346 
 5239000   0.97275534   -3.2177982   -1.7186723  0.063703864   -3.2177982    1.4991259   427347 
 5240000   0.97253346   -3.2182577   -1.7194247  0.064282999   -3.2182577     1.498833   427333 
 5241000   0.97163633   -3.2178236   -1.7203837  0.061409805   -3.2178236    1.4974399   427336 
 5242000   0.97201991   -3.2188763   -1.7208418  0.059254971   -3.2188763    1.4980345   427335 
 5243000   0.96964469   -3.2157733   -1.7213189  0.058722201   -3.2157733    1.4944544   427312 
 5244000   0.97149068   -3.2178417   -1.7206753  0.063414358   -3.2178417    1.4971664   427350 
 5245000   0.97199441   -3.2186133   -1.7206111  0.060468617   -3.2186133    1.4980023   427333 
 5246000   0.97131029   -3.2181875   -1.7211135  0.066564074   -3.2181875     1.497074   427297 
 5247000   0.97090228   -3.2175654   -1.7211657  0.066323708   -3.2175654    1.4963997   427310 
 5248000   0.97009324   -3.2166089   -1.7214667  0.066147514   -3.2166089    1.4951422   427313 
 5249000   0.97270763   -3.2205425   -1.7213394  0.057962557   -3.2205425    1.4992032   427304 
 5250000   0.97218782   -3.2184054   -1.7198736  0.065211033   -3.2184054    1.4985318   427267 
 5251000   0.97258873   -3.2182475   -1.7191223  0.062256918   -3.2182475    1.4991252   427274 
 5252000   0.97276561   -3.2181483   -1.7188102  0.066224326   -3.2181483    1.4993382   427291 
 5253000   0.97143897   -3.2167415   -1.7195042  0.064142698   -3.2167415    1.4972373   427307 
 5254000   0.97243195   -3.2166293   -1.7177879  0.063581362   -3.2166293    1.4988414   427286 
 5255000   0.97163317   -3.2180177   -1.7204845   0.06273216   -3.2180177    1.4975331   427308 
 5256000   0.97132109   -3.2177067    -1.720595  0.067132617   -3.2177067    1.4971117   427291 
 5257000   0.97139645   -3.2177254   -1.7203714  0.063314213   -3.2177254     1.497354   427255 
 5258000   0.97163444   -3.2162749   -1.7185225  0.066483704   -3.2162749    1.4977524   427246 
 5259000   0.97238761   -3.2194143   -1.7205956  0.066402646   -3.2194143    1.4988187   427273 
 5260000   0.97362708   -3.2212742   -1.7206995  0.066601585   -3.2212742    1.5005746   427317 
 5261000   0.97260153   -3.2196342   -1.7206787  0.068471717   -3.2196342    1.4989555   427328 
 5262000   0.97257268   -3.2200562   -1.7211802   0.06679122   -3.2200562    1.4988759   427338 
 5263000    0.9721858   -3.2190281   -1.7207835  0.063979064   -3.2190281    1.4982446   427348 
 5264000   0.97240705   -3.2182007   -1.7197308  0.059461201   -3.2182007    1.4984699   427381 
 5265000   0.97124633   -3.2160927    -1.719499  0.069430224   -3.2160927    1.4965937   427406 
 5266000   0.97081987   -3.2153663   -1.7193772  0.061296045   -3.2153663    1.4959891   427391 
 5267000   0.97161313   -3.2174824   -1.7200958  0.068420213   -3.2174824    1.4973866   427341 
 5268000   0.97047018    -3.217309   -1.7218028  0.055349788    -3.217309    1.4955062   427375 
 5269000   0.97246266   -3.2200534   -1.7215083  0.063016908   -3.2200534    1.4985451   427384 
 5270000   0.97283471   -3.2189275   -1.7196828  0.066314168   -3.2189275    1.4992447   427348 
 5271000   0.97257352   -3.2184013   -1.7197626   0.06669469   -3.2184013    1.4986388   427406 
 5272000   0.97302805    -3.219454   -1.7202307  0.057170557    -3.219454    1.4992234   427439 
 5273000   0.97361106   -3.2187267   -1.7186612  0.062942878   -3.2187267    1.5000655   427455 
 5274000   0.97344692   -3.2174318   -1.7177525  0.064454163   -3.2174318    1.4996793   427493 
 5275000   0.97333894    -3.216372    -1.716866  0.065436417    -3.216372    1.4995059   427495 
 5276000   0.97288528   -3.2172904   -1.7183922  0.061334469   -3.2172904    1.4988982   427469 
 5277000   0.97301691   -3.2178151   -1.7187281  0.063363091   -3.2178151     1.499087   427473 
 5278000   0.97113555   -3.2143742   -1.7183013  0.065593282   -3.2143742    1.4960729   427506 
 5279000   0.97207863   -3.2163814   -1.7189327  0.064955743   -3.2163814    1.4974487   427528 
 5280000   0.97317987   -3.2173473   -1.7181145  0.064937128   -3.2173473    1.4992328   427503 
 5281000   0.97086163   -3.2147242   -1.7190207  0.068296327   -3.2147242    1.4957034   427491 
 5282000   0.97151681   -3.2151541   -1.7184588  0.061218373   -3.2151541    1.4966953   427496 
 5283000   0.97207086   -3.2164997   -1.7189753  0.061061108   -3.2164997    1.4975243   427503 
 5284000   0.97149538    -3.216331   -1.7198542  0.060526292    -3.216331    1.4964768   427549 
 5285000   0.97350198   -3.2196073   -1.7199203  0.062321866   -3.2196073     1.499687   427515 
 5286000   0.97158851   -3.2178112   -1.7211104   0.06340043   -3.2178112    1.4967007   427526 
 5287000   0.97188022   -3.2177638   -1.7206663  0.061677864   -3.2177638    1.4970976   427541 
 5288000   0.97261006   -3.2195849    -1.721279  0.060796014   -3.2195849    1.4983059   427517 
 5289000   0.97133728   -3.2178997   -1.7215195  0.063623074   -3.2178997    1.4963802   427507 
 5290000   0.97174864   -3.2185264   -1.7214599  0.061998061   -3.2185264    1.4970665   427492 
 5291000   0.97158604   -3.2180279   -1.7212084  0.064355013   -3.2180279    1.4968195   427491 
 5292000   0.97230894   -3.2203776   -1.7223288  0.065031978   -3.2203776    1.4980488   427458 
 5293000   0.97199697   -3.2197555   -1.7221874  0.062538507   -3.2197555    1.4975681   427458 
 5294000   0.97336584   -3.2222434   -1.7224891   0.06579818   -3.2222434    1.4997544   427436 
 5295000   0.97236265   -3.2209624   -1.7228098  0.066888632   -3.2209624    1.4981526   427452 
 5296000   0.97247368   -3.2223394   -1.7239561   0.06274902   -3.2223394    1.4983832   427435 
 5297000   0.97302775   -3.2230009   -1.7236867  0.062941343   -3.2230009    1.4993141   427413 
 5298000   0.97137104   -3.2211901   -1.7244218   0.06282759   -3.2211901    1.4967683   427411 
 5299000   0.97215119   -3.2223695   -1.7244622  0.061219953   -3.2223695    1.4979074   427429 
 5300000   0.97102364   -3.2201613   -1.7238792  0.059816615   -3.2201613    1.4962821   427397 
 5301000    0.9714096   -3.2211967   -1.7242499   0.06723687   -3.2211967    1.4969468   427377 
 5302000   0.97157795   -3.2228439   -1.7256516  0.058886369   -3.2228439    1.4971923   427381 
 5303000    0.9711561   -3.2234815   -1.7269288  0.060709303   -3.2234815    1.4965527   427378 
 5304000   0.96983247   -3.2215972   -1.7270143  0.062129014   -3.2215972    1.4945829   427358 
 5305000   0.97038529   -3.2216854   -1.7262645  0.060204943   -3.2216854    1.4954209   427362 
 5306000   0.97274813    -3.223595   -1.7246557  0.065365184    -3.223595    1.4989394   427397 
 5307000   0.97209888   -3.2231775      -1.7252  0.057345424   -3.2231775    1.4979775   427386 
 5308000   0.97269027   -3.2235249   -1.7245625  0.063906042   -3.2235249    1.4989624   427365 
 5309000   0.97168639   -3.2224326   -1.7250032  0.063891322   -3.2224326    1.4974294   427361 
 5310000   0.97249625   -3.2237983   -1.7251559  0.059069195   -3.2237983    1.4986424   427371 
 5311000   0.97281803   -3.2221815   -1.7231485  0.065135064   -3.2221815    1.4990331   427401 
 5312000   0.97220341   -3.2215062   -1.7235464  0.066659024   -3.2215062    1.4979598   427437 
 5313000   0.97270994   -3.2213583   -1.7224778  0.061011309   -3.2213583    1.4988805   427397 
 5314000   0.97300651   -3.2218617   -1.7225803  0.070285005   -3.2218617    1.4992814   427413 
 5315000   0.97262185   -3.2223655   -1.7236768  0.063648101   -3.2223655    1.4986887   427413 
 5316000    0.9717582   -3.2196177   -1.7222598   0.06224766   -3.2196177    1.4973579   427413 
 5317000   0.97197127   -3.2215355   -1.7236565  0.065645088   -3.2215355     1.497879   427358 
 5318000   0.97255592   -3.2229179   -1.7243027  0.058278873   -3.2229179    1.4986151   427405 
 5319000   0.97204427   -3.2216662   -1.7238885  0.061820209   -3.2216662    1.4977777   427419 
 5320000   0.97205264   -3.2216587    -1.723798   0.06545602   -3.2216587    1.4978607   427399 
 5321000   0.97331754   -3.2225412   -1.7226963  0.063476362   -3.2225412    1.4998449   427389 
 5322000   0.97193244   -3.2211619   -1.7234794   0.06479792   -3.2211619    1.4976825   427397 
 5323000   0.97205656   -3.2208346   -1.7228592   0.05968399   -3.2208346    1.4979754   427368 
 5324000   0.97071225   -3.2201043   -1.7241796  0.060142113   -3.2201043    1.4959247   427362 
 5325000   0.97143817     -3.22007   -1.7230406  0.062826292     -3.22007    1.4970294   427366 
 5326000   0.97175319   -3.2194752   -1.7219778   0.06733739   -3.2194752    1.4974973   427371 
 5327000   0.97255543   -3.2211119   -1.7222555  0.065243317   -3.2211119    1.4988564   427336 
 5328000   0.97284327   -3.2212274   -1.7219135  0.060611527   -3.2212274     1.499314   427332 
 5329000   0.97157839   -3.2184447   -1.7211047  0.065529676   -3.2184447    1.4973401   427339 
 5330000   0.97079415   -3.2188242   -1.7228293  0.060521492   -3.2188242    1.4959949   427378 
 5331000   0.97004197   -3.2189609   -1.7240866  0.062213063   -3.2189609    1.4948743   427367 
 5332000   0.97046263    -3.219028   -1.7234494   0.06031145    -3.219028    1.4955785   427351 
 5333000   0.97136182    -3.219721   -1.7227076   0.06297496    -3.219721    1.4970133   427337 
 5334000   0.97093057   -3.2196554   -1.7232892  0.056839218   -3.2196554    1.4963662   427332 
 5335000   0.97103641   -3.2199521   -1.7233807  0.064669477   -3.2199521    1.4965713   427320 
 5336000   0.97176408   -3.2220414   -1.7243065  0.062592311   -3.2220414    1.4977349   427308 
 5337000   0.97240356   -3.2212348   -1.7226371  0.058775481   -3.2212348    1.4985978   427343 
 5338000   0.97075477   -3.2186294   -1.7226532  0.064830374   -3.2186294    1.4959763   427366 
 5339000   0.97165607   -3.2201933   -1.7227825  0.063066467   -3.2201933    1.4974107   427353 
 5340000   0.97201342   -3.2190287   -1.7211584  0.068338741   -3.2190287    1.4978703   427379 
 5341000    0.9733746   -3.2226017   -1.7226303  0.061124899   -3.2226017    1.4999714   427378 
 5342000   0.97328335   -3.2227586   -1.7228752  0.065984935   -3.2227586    1.4998834   427363 
 5343000    0.9716361   -3.2181733   -1.7208354  0.070695006   -3.2181733    1.4973379   427365 
 5344000   0.97218298   -3.2190538    -1.720817  0.065863407   -3.2190538    1.4982368   427349 
 5345000   0.97182973   -3.2203503   -1.7226614  0.058431305   -3.2203503    1.4976889   427350 
 5346000   0.97332921   -3.2225101   -1.7224753  0.062611245   -3.2225101    1.5000348   427340 
 5347000   0.97114824   -3.2206901   -1.7238379  0.064101722   -3.2206901    1.4968523   427289 
 5348000   0.97172848   -3.2217581   -1.7240465  0.055080138   -3.2217581    1.4977116   427299 
 5349000   0.97326967   -3.2226207   -1.7225197  0.061666849   -3.2226207     1.500101   427295 
 5350000   0.97232652   -3.2203252   -1.7216182   0.06511998   -3.2203252     1.498707   427278 
 5351000    0.9731726   -3.2229538   -1.7228725    0.0601366   -3.2229538    1.5000813   427258 
 5352000   0.97266117   -3.2208357   -1.7215077  0.068513524   -3.2208357    1.4993281   427248 
 5353000   0.97245756   -3.2210909   -1.7221785  0.063136405   -3.2210909    1.4989125   427277 
 5354000   0.97316375   -3.2219496   -1.7219732  0.065330477   -3.2219496    1.4999764   427284 
 5355000   0.97241782   -3.2197876   -1.7208277  0.065632561   -3.2197876      1.49896   427246 
 5356000   0.97357745    -3.221542   -1.7207804  0.062801272    -3.221542    1.5007616   427242 
 5357000   0.97251087   -3.2214454   -1.7223876  0.062049246   -3.2214454    1.4990578   427259 
 5358000    0.9726883    -3.221541   -1.7220869   0.06253531    -3.221541    1.4994541   427224 
 5359000   0.97388145   -3.2239201   -1.7227672   0.05995967   -3.2239201    1.5011529   427264 
 5360000   0.97098291   -3.2208307   -1.7241771  0.059329774   -3.2208307    1.4966535   427273 
 5361000   0.97136322   -3.2216746   -1.7243298   0.06254722   -3.2216746    1.4973448   427243 
 5362000   0.96957092   -3.2185624   -1.7238089  0.061849369   -3.2185624    1.4947535   427194 
 5363000   0.97080413   -3.2198874   -1.7233273  0.061924777   -3.2198874    1.4965601   427221 
 5364000    0.9711835   -3.2200826   -1.7229727  0.061967485   -3.2200826    1.4971099   427231 
 5365000   0.97157085   -3.2198487   -1.7221768  0.068203061   -3.2198487    1.4976719   427241 
 5366000   0.97146378    -3.218057   -1.7206308  0.064655179    -3.218057    1.4974263   427264 
 5367000   0.97179814   -3.2185074   -1.7204851  0.063628375   -3.2185074    1.4980223   427241 
 5368000   0.97321562   -3.2188715   -1.7186888  0.062933144   -3.2188715    1.5001827   427248 
 5369000   0.97305844   -3.2184109   -1.7183616  0.070079583   -3.2184109    1.5000493   427217 
 5370000   0.97307562   -3.2189944   -1.7190766  0.061297069   -3.2189944    1.4999178   427262 
 5371000   0.97289936   -3.2166018   -1.7171101   0.06273303   -3.2166018    1.4994917   427306 
 5372000   0.97459707   -3.2207326   -1.7186384  0.068100479   -3.2207326    1.5020942   427310 
 5373000   0.97119625   -3.2174452   -1.7205784  0.057932133   -3.2174452    1.4968667   427306 
 5374000   0.97115728   -3.2169181   -1.7202445  0.062144592   -3.2169181    1.4966736   427344 
 5375000   0.97042436   -3.2162221   -1.7205905  0.060329875   -3.2162221    1.4956315   427319 
 5376000   0.97148351   -3.2171145   -1.7197525  0.063333068   -3.2171145     1.497362   427291 
 5377000   0.97130502   -3.2170462   -1.7200153  0.063819248   -3.2170462    1.4970309   427307 
 5378000   0.97290561   -3.2191302   -1.7197412  0.065498669   -3.2191302     1.499389   427338 
 5379000   0.97204626   -3.2178703   -1.7199179  0.065205668   -3.2178703    1.4979525   427370 
 5380000   0.97195472   -3.2166818   -1.7186952  0.067452983   -3.2166818    1.4979867   427320 
 5381000   0.97303013   -3.2192098   -1.7195411  0.060587438   -3.2192098    1.4996687   427313 
 5382000   0.97306236   -3.2191866   -1.7194367  0.062336482   -3.2191866    1.4997499   427304 
 5383000   0.97184688   -3.2171904   -1.7193629  0.066331193   -3.2171904    1.4978275   427318 
 5384000   0.97338794   -3.2179964   -1.7178394  0.064437485   -3.2179964    1.5001569   427331 
 5385000   0.97305828   -3.2193399   -1.7197016  0.064777507   -3.2193399    1.4996383   427334 
 5386000   0.97306874   -3.2193874    -1.719754  0.064000747   -3.2193874    1.4996334   427340 
 5387000   0.97276166   -3.2184094   -1.7192176  0.066417018   -3.2184094    1.4991917   427331 
 5388000   0.97454423   -3.2208713   -1.7188479  0.066328323   -3.2208713    1.5020233   427307 
 5389000   0.97400983   -3.2210282   -1.7198426  0.065804137   -3.2210282    1.5011856   427311 
 5390000   0.97516579   -3.2222572   -1.7191422   0.06755468   -3.2222572     1.503115   427269 
 5391000   0.97318384   -3.2184721   -1.7184718  0.067781259   -3.2184721    1.5000003   427286 
 5392000   0.97455698   -3.2198499   -1.7177999   0.06687659   -3.2198499      1.50205   427305 
 5393000   0.97506629   -3.2199778   -1.7172166  0.069044628   -3.2199778    1.5027611   427326 
 5394000   0.97401385    -3.219218   -1.7181105  0.062788649    -3.219218    1.5011075   427335 
 5395000   0.97252695   -3.2185665    -1.719726  0.065821446   -3.2185665    1.4988405   427328 
 5396000   0.97246634   -3.2183817   -1.7195855  0.071610444   -3.2183817    1.4987962   427314 
 5397000    0.9733158   -3.2197189   -1.7195573  0.064647404   -3.2197189    1.5001616   427298 
 5398000   0.97050664   -3.2162861   -1.7203807  0.064533808   -3.2162861    1.4959054   427277 
 5399000   0.97124788   -3.2173152   -1.7202708  0.060039373   -3.2173152    1.4970444   427278 
 5400000   0.97110493   -3.2174366   -1.7204934  0.063184587   -3.2174366    1.4969432   427244 
 5401000   0.97150493   -3.2166445   -1.7191443  0.061569481   -3.2166445    1.4975002   427261 
 5402000   0.97257138   -3.2188879   -1.7197859  0.063365747   -3.2188879    1.4991019   427273 
 5403000   0.97302499   -3.2185678   -1.7188264  0.062395273   -3.2185678    1.4997415   427290 
 5404000   0.97329909   -3.2190489   -1.7188604  0.064890474   -3.2190489    1.5001885   427283 
 5405000   0.97218245   -3.2176292   -1.7191934  0.065787356   -3.2176292    1.4984358   427292 
 5406000   0.97348471   -3.2185298    -1.717978  0.060602613   -3.2185298    1.5005519   427261 
 5407000   0.97248933   -3.2168972   -1.7178832  0.068925671   -3.2168972    1.4990141   427262 
 5408000   0.97092251   -3.2147977   -1.7183809  0.059084462   -3.2147977    1.4964168   427314 
 5409000   0.97219284   -3.2166896   -1.7184025  0.059046554   -3.2166896     1.498287   427339 
 5410000   0.97334877   -3.2180845   -1.7179809  0.059773176   -3.2180845    1.5001036   427329 
 5411000   0.97322578   -3.2182063   -1.7182852  0.066425634   -3.2182063    1.4999211   427327 
 5412000   0.97280506   -3.2166061   -1.7173685  0.067669137   -3.2166061    1.4992376   427337 
 5413000   0.97290179   -3.2188181    -1.719235  0.061708981   -3.2188181    1.4995832   427281 
 5414000    0.9722464   -3.2170932   -1.7185693  0.062153412   -3.2170932    1.4985239   427295 
 5415000   0.97396372   -3.2198196   -1.7187086  0.067125676   -3.2198196     1.501111   427312 
 5416000   0.97421834   -3.2212585   -1.7196777  0.061662881   -3.2212585    1.5015808   427290 
 5417000   0.97366835   -3.2189392   -1.7183361  0.059720446   -3.2189392    1.5006031   427327 
 5418000   0.97327803   -3.2192515   -1.7192113  0.064601127   -3.2192515    1.5000402   427316 
 5419000   0.97285227   -3.2182584   -1.7189235  0.068713378   -3.2182584    1.4993349   427330 
 5420000   0.97212932   -3.2179997   -1.7196633    0.0614593   -3.2179997    1.4983364   427297 
 5421000   0.97305444   -3.2200328   -1.7202038  0.060954743   -3.2200328     1.499829   427278 
 5422000   0.97275698   -3.2183424   -1.7189719  0.066144071   -3.2183424    1.4993705   427278 
 5423000   0.97218256   -3.2189035   -1.7204851  0.067941806   -3.2189035    1.4984185   427297 
 5424000   0.97178692   -3.2185472   -1.7207561  0.062491346   -3.2185472    1.4977911   427302 
 5425000     0.973784   -3.2215308   -1.7207635  0.064061038   -3.2215308    1.5007673   427331 
 5426000   0.97365139   -3.2199924   -1.7193979  0.074408582   -3.2199924    1.5005946   427322 
 5427000   0.97386426   -3.2220471    -1.720998  0.061439381   -3.2220471    1.5010491   427286 
 5428000    0.9728509   -3.2209009   -1.7214137  0.066930987   -3.2209009    1.4994872   427286 
 5429000   0.97221369   -3.2198979   -1.7214349  0.062927442   -3.2198979    1.4984629   427298 
 5430000   0.97170204   -3.2196161   -1.7219347  0.063499258   -3.2196161    1.4976813   427296 
 5431000   0.97219074    -3.220117   -1.7215773  0.062641719    -3.220117    1.4985398   427266 
 5432000   0.97183523   -3.2185528   -1.7206591  0.064282944   -3.2185528    1.4978936   427294 
 5433000   0.97566432   -3.2227946   -1.7190801  0.063467778   -3.2227946    1.5037145   427317 
 5434000    0.9748985   -3.2217753   -1.7191285  0.065892916   -3.2217753    1.5026467   427285 
 5435000   0.97449183   -3.2209518   -1.7188862  0.064651737   -3.2209518    1.5020656   427272 
 5436000   0.97519691   -3.2215997   -1.7186232  0.065071429   -3.2215997    1.5029765   427322 
 5437000   0.97488765   -3.2212389   -1.7185878  0.069223165   -3.2212389    1.5026511   427279 
 5438000   0.97439316   -3.2208875   -1.7189318     0.064989   -3.2208875    1.5019557   427260 
 5439000   0.97336092   -3.2187546   -1.7183655  0.073429388   -3.2187546    1.5003892   427253 
 5440000   0.97424286   -3.2199297   -1.7182373  0.061122646   -3.2199297    1.5016924   427269 
 5441000   0.97272624   -3.2181621   -1.7188706  0.065137507   -3.2181621    1.4992915   427287 
 5442000   0.97216944   -3.2191064   -1.7205749  0.058469508   -3.2191064    1.4985315   427259 
 5443000   0.97285952   -3.2201429   -1.7206319  0.062845608   -3.2201429     1.499511   427283 
 5444000   0.97091683   -3.2172211   -1.7207185  0.060429416   -3.2172211    1.4965026   427287 
 5445000   0.97112693   -3.2165567   -1.7196531  0.066526352   -3.2165567    1.4969035   427265 
 5446000   0.97240444   -3.2180209   -1.7191622  0.060752758   -3.2180209    1.4988587   427269 
 5447000   0.97072938   -3.2164701   -1.7201829   0.05920189   -3.2164701    1.4962872   427266 
 5448000   0.97246507   -3.2190168   -1.7200367  0.059615461   -3.2190168    1.4989802   427261 
 5449000   0.97047091   -3.2141918   -1.7183345  0.059246609   -3.2141918    1.4958573   427275 
 5450000   0.97145596   -3.2157423   -1.7183807  0.063391648   -3.2157423    1.4973616   427279 
 5451000   0.97277621   -3.2182703   -1.7188597   0.06345489   -3.2182703    1.4994106   427275 
 5452000   0.97101633   -3.2171568   -1.7202485  0.068567483   -3.2171568    1.4969082   427215 
 5453000    0.9715529   -3.2175119   -1.7197169  0.062904137   -3.2175119     1.497795   427198 
 5454000   0.97295354   -3.2181397   -1.7181608    0.0705501   -3.2181397    1.4999789   427191 
 5455000   0.97204769   -3.2178496    -1.719376  0.063069402   -3.2178496    1.4984736   427222 
 5456000   0.97258501   -3.2183579   -1.7190314   0.05894763   -3.2183579    1.4993265   427215 
 5457000   0.97128349   -3.2166637   -1.7193086  0.062982595   -3.2166637    1.4973551   427205 
 5458000   0.97316264   -3.2191153   -1.7187965   0.06224685   -3.2191153    1.5003188   427186 
 5459000   0.97300126   -3.2203895   -1.7202212   0.06204796   -3.2203895    1.5001683   427158 
 5460000     0.971659   -3.2202603   -1.7221685  0.060920144   -3.2202603    1.4980918   427160 
 5461000   0.97166254   -3.2192523   -1.7212217  0.063490984   -3.2192523    1.4980306   427179 
 5462000   0.97143138   -3.2193057   -1.7217051  0.065615308   -3.2193057    1.4976006   427200 
 5463000   0.97369551   -3.2204484   -1.7194943  0.063346913   -3.2204484    1.5009541   427239 
 5464000   0.97340655   -3.2212277   -1.7207788  0.063946837   -3.2212277     1.500449   427256 
 5465000   0.97361077   -3.2206826   -1.7198661  0.067394608   -3.2206826    1.5008164   427241 
 5466000   0.97248868   -3.2187376   -1.7196052   0.06828405   -3.2187376    1.4991324   427228 
 5467000    0.9720031   -3.2198985    -1.721434  0.067102547   -3.2198985    1.4984645   427205 
 5468000   0.97327612   -3.2217618   -1.7212997  0.067225154   -3.2217618    1.5004621   427195 
 5469000   0.97265857   -3.2228833   -1.7233311  0.062275542   -3.2228833    1.4995522   427183 
 5470000   0.97247325    -3.222383   -1.7229234  0.066971594    -3.222383    1.4994596   427128 
 5471000   0.97355349   -3.2233458   -1.7223085  0.069646399   -3.2233458    1.5010373   427153 
 5472000   0.97366351   -3.2206424   -1.7195443  0.070034291   -3.2206424     1.501098   427184 
 5473000   0.97327159   -3.2216536   -1.7211914  0.067486474   -3.2216536    1.5004622   427193 
 5474000   0.97346962   -3.2221964   -1.7213692  0.065800942   -3.2221964    1.5008272   427176 
 5475000   0.97463979   -3.2228465   -1.7201589  0.070030194   -3.2228465    1.5026876   427160 
 5476000   0.97469417   -3.2240885   -1.7211588  0.064049372   -3.2240885    1.5029297   427115 
 5477000   0.97239959   -3.2216697   -1.7223097  0.066676105   -3.2216697      1.49936   427124 
 5478000   0.97312634   -3.2215787   -1.7210138  0.068706263   -3.2215787    1.5005649   427100 
 5479000   0.97340896   -3.2221992   -1.7212231  0.064815726   -3.2221992    1.5009761   427107 
 5480000   0.97337517   -3.2222994   -1.7215405  0.063026825   -3.2222994    1.5007589   427154 
 5481000   0.97230427    -3.221287   -1.7221582  0.063339007    -3.221287    1.4991288   427148 
 5482000   0.97183405   -3.2217155   -1.7232906  0.059831032   -3.2217155    1.4984248   427142 
 5483000   0.97184378   -3.2200823   -1.7215864   0.06337713   -3.2200823     1.498496   427126 
 5484000   0.97107099   -3.2188065   -1.7215722    0.0592606   -3.2188065    1.4972343   427146 
 5485000   0.97071668   -3.2194898   -1.7227317  0.062012824   -3.2194898    1.4967581   427126 
 5486000   0.97138861   -3.2201982   -1.7223409  0.060439828   -3.2201982    1.4978573   427108 
 5487000   0.97162687   -3.2192594   -1.7209224  0.056240176   -3.2192594    1.4983369   427076 
 5488000   0.97177192   -3.2179893   -1.7194988  0.067267759   -3.2179893    1.4984904   427096 
 5489000   0.97246408    -3.218323   -1.7188424  0.068608497    -3.218323    1.4994805   427118 
 5490000   0.97268109   -3.2195046   -1.7197456  0.063562524   -3.2195046    1.4997589   427134 
 5491000   0.97306857   -3.2197692   -1.7194549  0.061037931   -3.2197692    1.5003142   427146 
 5492000   0.97215216   -3.2177867   -1.7188854  0.060564478   -3.2177867    1.4989013   427146 
 5493000   0.97251346   -3.2190274   -1.7196288  0.062450781   -3.2190274    1.4993987   427163 
 5494000    0.9717574   -3.2182286   -1.7199219  0.064012278   -3.2182286    1.4983067   427142 
 5495000   0.97426474   -3.2216072   -1.7195225  0.061688414   -3.2216072    1.5020847   427167 
 5496000   0.97255231   -3.2188952   -1.7193804  0.064304939   -3.2188952    1.4995147   427147 
 5497000   0.97297297    -3.220859   -1.7204743  0.065848932    -3.220859    1.5003846   427084 
 5498000   0.97173081   -3.2198568   -1.7213456  0.066870475   -3.2198568    1.4985112   427072 
 5499000   0.97244611   -3.2194055   -1.7198649  0.064356775   -3.2194055    1.4995406   427093 
 5500000   0.97130844    -3.217805    -1.720145  0.063747164    -3.217805      1.49766   427129 
 5501000   0.97004907   -3.2165677   -1.7209161  0.067512132   -3.2165677    1.4956517   427148 
 5502000   0.97247343   -3.2195652   -1.7202458   0.06229728   -3.2195652    1.4993194   427168 
 5503000   0.97331047   -3.2206413   -1.7199892  0.063952334   -3.2206413    1.5006521   427156 
 5504000   0.97324297   -3.2204301   -1.7198786  0.065295814   -3.2204301    1.5005515   427155 
 5505000   0.97348944   -3.2205484   -1.7197012  0.065816395   -3.2205484    1.5008472   427179 
 5506000   0.97375243   -3.2197472   -1.7188108  0.066662513   -3.2197472    1.5009364   427269 
 5507000   0.97503144   -3.2211388   -1.7182168  0.068668201   -3.2211388     1.502922   427265 
 5508000   0.97529609   -3.2207598   -1.7174158  0.071008934   -3.2207598     1.503344   427261 
 5509000   0.97624137   -3.2217337   -1.7168868  0.068678503   -3.2217337    1.5048468   427248 
 5510000   0.97458189   -3.2204536    -1.718112  0.068724647   -3.2204536    1.5023415   427233 
 5511000   0.97304362   -3.2194467   -1.7194342  0.061929655   -3.2194467    1.5000124   427221 
 5512000   0.97280755   -3.2189247    -1.719378  0.066455707   -3.2189247    1.4995467   427250 
 5513000   0.97293136   -3.2190503   -1.7193689  0.066193849   -3.2190503    1.4996814   427266 
 5514000    0.9728306   -3.2206304   -1.7212201  0.062334123   -3.2206304    1.4994103   427299 
 5515000   0.97213158   -3.2198553   -1.7215014  0.063938387   -3.2198553    1.4983539   427293 
 5516000   0.97379652   -3.2210624   -1.7202371   0.06521809   -3.2210624    1.5008253   427320 
 5517000   0.97310666   -3.2196695   -1.7199074  0.066129599   -3.2196695     1.499762   427320 
 5518000   0.97225458   -3.2178561   -1.7194915  0.066717291   -3.2178561    1.4983647   427344 
 5519000     0.973054   -3.2177777   -1.7181635  0.067684159   -3.2177777    1.4996142   427339 
 5520000   0.97464196   -3.2190586   -1.7169093  0.067867661   -3.2190586    1.5021494   427314 
 5521000   0.97453373   -3.2187012   -1.7167327  0.069636092   -3.2187012    1.5019685   427318 
 5522000   0.97514792   -3.2198392   -1.7168644  0.068700929   -3.2198392    1.5029749   427301 
 5523000   0.97447443    -3.219621   -1.7177474  0.063727672    -3.219621    1.5018736   427319 
 5524000   0.97465165   -3.2184448   -1.7163368  0.069961323   -3.2184448     1.502108   427330 
 5525000   0.97633077   -3.2204912   -1.7157461  0.064563702   -3.2204912    1.5047452   427316 
 5526000   0.97582695   -3.2199995    -1.716045  0.069599854   -3.2199995    1.5039546   427320 
 5527000   0.97471748   -3.2178828   -1.7154589  0.071714122   -3.2178828     1.502424   427269 
 5528000    0.9756257   -3.2188863   -1.7149568   0.06893832   -3.2188863    1.5039295   427239 
 5529000   0.97529216    -3.218194   -1.7147857  0.063535883    -3.218194    1.5034083   427241 
 5530000   0.97484033   -3.2178684   -1.7151882  0.067540423   -3.2178684    1.5026801   427250 
 5531000   0.97364258   -3.2152477   -1.7144208  0.064976251   -3.2152477    1.5008268   427252 
 5532000   0.97397115   -3.2172485   -1.7158203  0.063318699   -3.2172485    1.5014282   427225 
 5533000   0.97452498   -3.2171755    -1.714992  0.062177491   -3.2171755    1.5021835   427253 
 5534000   0.97238359   -3.2140348   -1.7151977  0.069460765   -3.2140348    1.4988371   427266 
 5535000   0.97441185   -3.2167299   -1.7146786  0.065776831   -3.2167299    1.5020513   427241 
 5536000   0.97218447   -3.2144223   -1.7157624  0.070237096   -3.2144223    1.4986599   427229 
 5537000   0.97407543    -3.218007   -1.7163794  0.063005028    -3.218007    1.5016276   427214 
 5538000   0.97295653   -3.2169881   -1.7169941  0.062099841   -3.2169881     1.499994   427188 
 5539000   0.97314706    -3.216243     -1.71605  0.057620165    -3.216243    1.5001929   427215 
 5540000   0.97372709   -3.2165461   -1.7154555  0.063686405   -3.2165461    1.5010906   427214 
 5541000    0.9738153   -3.2163644   -1.7150183   0.05712204   -3.2163644    1.5013461   427180 
 5542000    0.9722446   -3.2142952   -1.7153216  0.060290433   -3.2142952    1.4989736   427166 
 5543000   0.97480812   -3.2155297   -1.7125791  0.064830948   -3.2155297    1.5029506   427159 
 5544000   0.97397135   -3.2145659   -1.7129652  0.065744018   -3.2145659    1.5016007   427176 
 5545000   0.97451408   -3.2156034   -1.7131518  0.062302131   -3.2156034    1.5024515   427172 
 5546000   0.97404411   -3.2147928   -1.7129639  0.064486723   -3.2147928    1.5018289   427143 
 5547000   0.97407228    -3.214772   -1.7129348  0.070279915    -3.214772    1.5018372   427153 
 5548000   0.97533397   -3.2173542   -1.7134203  0.070920561   -3.2173542    1.5039339   427110 
 5549000   0.97412476   -3.2165741   -1.7144415  0.071707259   -3.2165741    1.5021326   427092 
 5550000   0.97493008   -3.2164593   -1.7129898  0.063797058   -3.2164593    1.5034695   427065 
 5551000   0.97451493   -3.2180688   -1.7153732  0.067427379   -3.2180688    1.5026956   427103 
 5552000   0.97422442   -3.2168006   -1.7145952  0.068940911   -3.2168006    1.5022054   427115 
 5553000   0.97458863    -3.218121    -1.715347  0.063145143    -3.218121     1.502774   427113 
 5554000    0.9724571   -3.2154168   -1.7158979  0.063396884   -3.2154168    1.4995189   427104 
 5555000   0.97332077    -3.216461   -1.7157017  0.062469643    -3.216461    1.5007593   427130 
 5556000    0.9716735   -3.2146631   -1.7163665  0.062517426   -3.2146631    1.4982966   427108 
 5557000   0.97212635   -3.2149093   -1.7160232   0.06225643   -3.2149093    1.4988861   427139 
 5558000    0.9719917   -3.2147433   -1.7160543  0.062233959   -3.2147433     1.498689   427136 
 5559000   0.97224005     -3.21624    -1.717147   0.06679324     -3.21624     1.499093   427130 
 5560000   0.97359027   -3.2171522   -1.7160722  0.061926497   -3.2171522      1.50108   427157 
 5561000   0.97288545   -3.2149654   -1.7150775  0.068570781   -3.2149654    1.4998879   427187 
 5562000   0.97318805   -3.2165877   -1.7161559  0.067471803   -3.2165877    1.5004317   427165 
 5563000   0.97401479   -3.2202168   -1.7183909  0.067086451   -3.2202168    1.5018259   427131 
 5564000   0.97340746   -3.2179003   -1.7171162  0.063476707   -3.2179003    1.5007841   427161 
 5565000   0.97268411   -3.2154703   -1.7160086  0.066527882   -3.2154703    1.4994617   427220 
 5566000   0.97358293   -3.2170912   -1.7162439  0.065071912   -3.2170912    1.5008473   427220 
 5567000   0.97331821   -3.2157982   -1.7152887  0.067900652   -3.2157982    1.5005095   427200 
 5568000   0.97384708   -3.2170545   -1.7158211  0.065419671   -3.2170545    1.5012334   427226 
 5569000   0.97409932    -3.218315   -1.7165873  0.065430201    -3.218315    1.5017277   427196 
 5570000   0.97580049   -3.2214525    -1.717155   0.06330149   -3.2214525    1.5042975   427211 
 5571000    0.9760044   -3.2201048   -1.7156338  0.067018224   -3.2201048     1.504471   427251 
 5572000   0.97691604   -3.2205047   -1.7145826  0.067571103   -3.2205047    1.5059221   427238 
 5573000   0.97733428   -3.2197319   -1.7130981  0.070461713   -3.2197319    1.5066338   427219 
 5574000   0.97623782   -3.2199026   -1.7149308  0.063652947   -3.2199026    1.5049717   427211 
 5575000   0.97559123   -3.2195568   -1.7155713  0.065123187   -3.2195568    1.5039855   427208 
 5576000   0.97419416   -3.2166221    -1.714829  0.067204731   -3.2166221    1.5017931   427219 
 5577000   0.97525932   -3.2188084   -1.7154014  0.064043307   -3.2188084    1.5034069   427227 
 5578000   0.97258481   -3.2156392   -1.7162428  0.066709897   -3.2156392    1.4993964   427195 
 5579000     0.973301   -3.2167578   -1.7162187  0.060473463   -3.2167578    1.5005391   427184 
 5580000   0.97307411   -3.2166896   -1.7164617  0.061578908   -3.2166896     1.500228   427173 
 5581000   0.97267147   -3.2157494   -1.7162195  0.066709176   -3.2157494      1.49953   427195 
 5582000   0.97140001   -3.2144889   -1.7169121  0.062463991   -3.2144889    1.4975768   427193 
 5583000   0.97222044   -3.2155532   -1.7168273  0.061816763   -3.2155532    1.4987259   427226 
 5584000   0.97300567   -3.2156454   -1.7156143  0.062993635   -3.2156454    1.5000311   427199 
 5585000    0.9727628   -3.2141085   -1.7144869  0.063501676   -3.2141085    1.4996216   427209 
 5586000   0.97360163   -3.2153292   -1.7144039  0.062524049   -3.2153292    1.5009253   427206 
 5587000   0.97241115   -3.2129445   -1.7138509  0.065709336   -3.2129445    1.4990935   427205 
 5588000   0.97309247   -3.2141957    -1.713964  0.064761072   -3.2141957    1.5002317   427180 
 5589000   0.97173927    -3.210902    -1.712739  0.063365508    -3.210902     1.498163   427175 
 5590000   0.97348377   -3.2141625   -1.7132327  0.064771338   -3.2141625    1.5009298   427153 
 5591000   0.97416646   -3.2150187   -1.7130293  0.062495131   -3.2150187    1.5019894   427151 
 5592000   0.97240909    -3.213216   -1.7139817  0.063448077    -3.213216    1.4992343   427164 
 5593000    0.9737068   -3.2147331   -1.7136175  0.064360411   -3.2147331    1.5011155   427198 
 5594000   0.97313755   -3.2147732   -1.7145071  0.063049277   -3.2147732    1.5002661   427190 
 5595000   0.97282477   -3.2145134   -1.7147751   0.06339888   -3.2145134    1.4997382   427203 
 5596000   0.97282122   -3.2148472   -1.7150723  0.066987496   -3.2148472    1.4997749   427191 
 5597000   0.97273789     -3.21412   -1.7145859  0.062613127     -3.21412    1.4995341   427223 
 5598000   0.97217167    -3.213312   -1.7145807  0.065919641    -3.213312    1.4987314   427203 
 5599000    0.9727867   -3.2140767   -1.7142287  0.061282385   -3.2140767     1.499848   427155 
 5600000    0.9731388   -3.2146459   -1.7142444  0.062414995   -3.2146459    1.5004015   427152 
 5601000   0.97229312   -3.2147684   -1.7155831  0.065804389   -3.2147684    1.4991853   427127 
 5602000   0.97363068   -3.2169093   -1.7157143  0.059787427   -3.2169093     1.501195   427142 
 5603000    0.9726824   -3.2145622   -1.7148609  0.064846064   -3.2145622    1.4997013   427151 
 5604000   0.97426977   -3.2174207   -1.7154127   0.06514308   -3.2174207    1.5020081   427191 
 5605000   0.97304237   -3.2159972   -1.7158814  0.064292687   -3.2159972    1.5001158   427191 
 5606000      0.97164   -3.2157024   -1.7176855  0.066134715   -3.2157024    1.4980169   427173 
 5607000   0.97148859   -3.2147752   -1.7170268  0.063276063   -3.2147752    1.4977484   427183 
 5608000   0.97261034   -3.2170862   -1.7174574  0.061029066   -3.2170862    1.4996288   427140 
 5609000   0.97419375   -3.2189879   -1.7169001  0.064520069   -3.2189879    1.5020878   427135 
 5610000   0.97306302   -3.2167565   -1.7163735  0.064572722   -3.2167565     1.500383   427124 
 5611000   0.97365957    -3.218198    -1.716853  0.061864069    -3.218198     1.501345   427112 
 5612000   0.97395645   -3.2174689   -1.7157927  0.065837777   -3.2174689    1.5016762   427148 
 5613000   0.97394772   -3.2183194   -1.7166883  0.066327334   -3.2183194    1.5016311   427157 
 5614000   0.97496467   -3.2192857   -1.7162451  0.067281423   -3.2192857    1.5030407   427202 
 5615000   0.97529804   -3.2208743   -1.7174112  0.065923502   -3.2208743    1.5034631   427228 
 5616000   0.97206349   -3.2170872   -1.7185051  0.069307447   -3.2170872    1.4985821   427198 
 5617000   0.97429894   -3.2190938    -1.716981  0.065897564   -3.2190938    1.5021128   427174 
 5618000   0.97455835   -3.2191866   -1.7167266  0.069144858   -3.2191866      1.50246   427189 
 5619000   0.97410907   -3.2194678    -1.717711   0.06794329   -3.2194678    1.5017568   427192 
 5620000   0.97397734   -3.2198906    -1.718256  0.066484147   -3.2198906    1.5016346   427169 
 5621000   0.97130651   -3.2167155   -1.7191532  0.066111095   -3.2167155    1.4975624   427156 
 5622000   0.97224824    -3.218527   -1.7195267  0.064112164    -3.218527    1.4990003   427160 
 5623000   0.97203789   -3.2165436   -1.7180115  0.069111283   -3.2165436    1.4985322   427201 
 5624000   0.97307283   -3.2171546   -1.7171498  0.064081826   -3.2171546    1.5000048   427236 
 5625000   0.97250454   -3.2168837    -1.717804   0.06455181   -3.2168837    1.4990796   427250 
 5626000   0.97373148   -3.2174445    -1.716326  0.064955795   -3.2174445    1.5011185   427208 
 5627000   0.97339747   -3.2166984   -1.7162248  0.066049238   -3.2166984    1.5004736   427245 
 5628000   0.97369501    -3.217386   -1.7165311  0.065367076    -3.217386     1.500855   427267 
 5629000   0.97369338   -3.2173108   -1.7164689  0.062659634   -3.2173108    1.5008419   427270 
 5630000   0.97376984   -3.2162403    -1.715277  0.069263288   -3.2162403    1.5009633   427269 
 5631000   0.97338008   -3.2159243   -1.7156847  0.063241902   -3.2159243    1.5002396   427304 
 5632000   0.97340723    -3.215327    -1.715042  0.067510175    -3.215327     1.500285   427303 
 5633000   0.97318419   -3.2153647   -1.7153989  0.064828672   -3.2153647    1.4999658   427296 
 5634000   0.97103623   -3.2131855   -1.7166004  0.059933986   -3.2131855    1.4965851   427316 
 5635000   0.97153213   -3.2144955     -1.71709  0.062861549   -3.2144955    1.4974054   427300 
 5636000   0.97180573   -3.2147807   -1.7169221  0.061561558   -3.2147807    1.4978587   427291 
 5637000   0.97293691   -3.2143168   -1.7145602   0.05843909   -3.2143168    1.4997566   427247 
 5638000   0.97319636   -3.2125355   -1.7124141  0.066440401   -3.2125355    1.5001215   427257 
 5639000   0.97414886   -3.2141545   -1.7125929  0.069556597   -3.2141545    1.5015616   427265 
 5640000   0.97519581   -3.2159606   -1.7127149  0.067466388   -3.2159606    1.5032457   427245 
 5641000   0.97358636   -3.2136444   -1.7127988  0.066464779   -3.2136444    1.5008456   427222 
 5642000   0.97369269   -3.2147077   -1.7136244  0.070501165   -3.2147077    1.5010833   427201 
 5643000   0.97429683   -3.2159417   -1.7139271   0.06636473   -3.2159417    1.5020146   427201 
 5644000   0.97251513   -3.2138613   -1.7145829  0.069633689   -3.2138613    1.4992784   427198 
 5645000   0.97463836   -3.2153046    -1.712788  0.069666307   -3.2153046    1.5025165   427208 
 5646000    0.9730965   -3.2150873    -1.715018  0.063462544   -3.2150873    1.5000693   427228 
 5647000   0.97310536   -3.2136325   -1.7133985  0.060935204   -3.2136325     1.500234   427185 
 5648000   0.97306805   -3.2158885   -1.7157085  0.062640791   -3.2158885      1.50018   427184 
 5649000   0.97397761   -3.2160899   -1.7146272  0.061557236   -3.2160899    1.5014628   427218 
 5650000   0.97243961   -3.2153553   -1.7162564  0.064560949   -3.2153553    1.4990988   427216 
 5651000   0.97238734   -3.2153746   -1.7163107  0.057630279   -3.2153746    1.4990639   427203 
 5652000   0.97429752   -3.2165317   -1.7145829  0.062955864   -3.2165317    1.5019489   427220 
 5653000   0.97296633   -3.2144656   -1.7145232  0.066174028   -3.2144656    1.4999424   427207 
 5654000    0.9740769   -3.2160286    -1.714251  0.065267389   -3.2160286    1.5017775   427172 
 5655000   0.97460212    -3.218051   -1.7156044  0.061939497    -3.218051    1.5024466   427212 
 5656000   0.97354216   -3.2165052   -1.7157945  0.063837324   -3.2165052    1.5007107   427241 
 5657000   0.97406866    -3.216791   -1.7153531  0.063955053    -3.216791    1.5014379   427265 
 5658000   0.97444452   -3.2161374   -1.7141659  0.061363527   -3.2161374    1.5019716   427278 
 5659000   0.97471028    -3.216258   -1.7139823  0.069941451    -3.216258    1.5022757   427308 
 5660000    0.9745862   -3.2164684   -1.7144331  0.063166038   -3.2164684    1.5020353   427322 
 5661000   0.97494396   -3.2165136   -1.7139234  0.066467696   -3.2165136    1.5025902   427321 
 5662000   0.97575462   -3.2184621   -1.7146507  0.065395557   -3.2184621    1.5038114   427329 
 5663000   0.97454325    -3.217586   -1.7155326   0.06992473    -3.217586    1.5020535   427298 
 5664000   0.97591787   -3.2199359   -1.7158166  0.066222954   -3.2199359    1.5041193   427313 
 5665000   0.97514277   -3.2189703   -1.7160244   0.06356245   -3.2189703    1.5029458   427307 
 5666000   0.97488589   -3.2185002   -1.7159995  0.064662503   -3.2185002    1.5025007   427321 
 5667000   0.97370739   -3.2182549   -1.7176232  0.069037828   -3.2182549    1.5006317   427336 
 5668000    0.9727652   -3.2172016   -1.7180676  0.062141536   -3.2172016     1.499134   427349 
 5669000   0.97157065   -3.2162125   -1.7188002  0.065808232   -3.2162125    1.4974123   427315 
 5670000    0.9727027   -3.2196999   -1.7204727   0.06139296   -3.2196999    1.4992272   427295 
 5671000   0.97179023   -3.2172971   -1.7195044  0.060482608   -3.2172971    1.4977927   427303 
 5672000   0.97433475   -3.2185617   -1.7169667  0.063954252   -3.2185617    1.5015951   427337 
 5673000   0.97363037   -3.2188617   -1.7183241  0.063309045   -3.2188617    1.5005376   427329 
 5674000   0.97441715   -3.2202988    -1.718503  0.063420698   -3.2202988    1.5017958   427316 
 5675000   0.97401471   -3.2193126   -1.7180843  0.073057616   -3.2193126    1.5012283   427301 
 5676000   0.97423868   -3.2195392   -1.7180254  0.062640992   -3.2195392    1.5015138   427318 
 5677000   0.97333644   -3.2178135   -1.7177254  0.065453596   -3.2178135    1.5000881   427328 
 5678000   0.97370366   -3.2180434   -1.7174525  0.066005607   -3.2180434    1.5005908   427346 
 5679000    0.9718599   -3.2159324   -1.7182181  0.066004593   -3.2159324    1.4977143   427356 
 5680000   0.97489341   -3.2200051   -1.7176124  0.063532127   -3.2200051    1.5023927   427355 
 5681000   0.97469252   -3.2195912   -1.7175256  0.066443575   -3.2195912    1.5020656   427360 
 5682000   0.97460923   -3.2203953   -1.7183175  0.070389299   -3.2203953    1.5020778   427320 
 5683000   0.97416188    -3.220521   -1.7192486  0.068057154    -3.220521    1.5012724   427353 
 5684000   0.97422474   -3.2197624   -1.7183299  0.061715591   -3.2197624    1.5014325   427335 
 5685000    0.9740453    -3.219875   -1.7186277  0.069038439    -3.219875    1.5012473   427309 
 5686000   0.97513188   -3.2215007   -1.7186139  0.067503886   -3.2215007    1.5028869   427319 
 5687000   0.97339311   -3.2200172   -1.7196978  0.068022331   -3.2200172    1.5003194   427287 
 5688000   0.97481269   -3.2198749   -1.7174308  0.069347771   -3.2198749    1.5024441   427305 
 5689000   0.97386711   -3.2186371   -1.7177943  0.065297354   -3.2186371    1.5008427   427346 
 5690000   0.97390773   -3.2195883   -1.7187743  0.069606631   -3.2195883     1.500814   427372 
 5691000    0.9729689   -3.2181601   -1.7187823  0.066294587   -3.2181601    1.4993778   427369 
 5692000   0.97493679   -3.2213371   -1.7188072  0.064566068   -3.2213371    1.5025299   427335 
 5693000   0.97293585   -3.2187398   -1.7192691  0.068032751   -3.2187398    1.4994707   427328 
 5694000   0.97344891   -3.2190002   -1.7187844  0.065784712   -3.2190002    1.5002158   427341 
 5695000    0.9744979   -3.2188537   -1.7169966  0.069611668   -3.2188537     1.501857   427334 
 5696000   0.97336026   -3.2173353   -1.7173474  0.062492007   -3.2173353    1.4999879   427367 
 5697000   0.97377021   -3.2176613    -1.716852   0.06543472   -3.2176613    1.5008093   427313 
 5698000   0.97448961   -3.2192964   -1.7173608  0.060307515   -3.2192964    1.5019356   427308 
 5699000   0.97399813   -3.2179539   -1.7168179  0.072264332   -3.2179539     1.501136   427320 
 5700000   0.97497757   -3.2180667   -1.7154071  0.066334187   -3.2180667    1.5026596   427316 
 5701000   0.97429012   -3.2155241    -1.713903  0.066288619   -3.2155241    1.5016211   427310 
 5702000   0.97549021    -3.217877   -1.7143956   0.06435543    -3.217877    1.5034813   427307 
 5703000   0.97516234   -3.2168845   -1.7140457  0.062515487   -3.2168845    1.5028388   427346 
 5704000    0.9733629   -3.2139955   -1.7140106  0.057759835   -3.2139955     1.499985   427369 
 5705000   0.97390492    -3.214447   -1.7137181  0.060317626    -3.214447    1.5007289   427395 
 5706000   0.97292174   -3.2142688   -1.7149566  0.063456339   -3.2142688    1.4993121   427367 
 5707000   0.97382998   -3.2142333   -1.7135671  0.066102744   -3.2142333    1.5006661   427380 
 5708000   0.97212264   -3.2132704    -1.715358  0.065509098   -3.2132704    1.4979125   427415 
 5709000   0.97246822    -3.212719   -1.7143267  0.064008902    -3.212719    1.4983923   427430 
 5710000   0.97361101   -3.2129445   -1.7126896  0.066586968   -3.2129445     1.500255   427401 
 5711000   0.97339795   -3.2130265   -1.7130823   0.06101274   -3.2130265    1.4999442   427396 
 5712000   0.97325122   -3.2135538   -1.7137655  0.065085153   -3.2135538    1.4997883   427376 
 5713000   0.97341184   -3.2145168   -1.7144354  0.061666591   -3.2145168    1.5000814   427363 
 5714000   0.97361769   -3.2140552   -1.7137022  0.069599875   -3.2140552     1.500353   427376 
 5715000   0.97273102   -3.2133003   -1.7143136  0.063848269   -3.2133003    1.4989867   427376 
 5716000   0.97282862   -3.2135324   -1.7145356  0.060499077   -3.2135324    1.4989968   427416 
 5717000   0.97186149   -3.2134749   -1.7159193   0.06132195   -3.2134749    1.4975556   427402 
 5718000   0.97204989   -3.2131344   -1.7151764  0.062582419   -3.2131344    1.4979581   427370 
 5719000   0.97368764   -3.2152068   -1.7147424  0.066442071   -3.2152068    1.5004643   427375 
 5720000   0.97333325   -3.2146457   -1.7146081  0.062316539   -3.2146457    1.5000376   427341 
 5721000   0.97379255   -3.2157334   -1.7149985  0.063710702   -3.2157334    1.5007349   427344 
 5722000   0.97283405   -3.2144984    -1.715367  0.070830956   -3.2144984    1.4991314   427380 
 5723000   0.97380209   -3.2178245   -1.7171452  0.066918258   -3.2178245    1.5006793   427364 
 5724000   0.97257876   -3.2158402   -1.7170636  0.067919807   -3.2158402    1.4987766   427369 
 5725000   0.97279523   -3.2162756   -1.7172812  0.063594136   -3.2162756    1.4989944   427402 
 5726000   0.97289005    -3.214765   -1.7155438  0.063123263    -3.214765    1.4992212   427379 
 5727000   0.97404458   -3.2171538   -1.7161394  0.063204949   -3.2171538    1.5010144   427375 
 5728000   0.97281409   -3.2149682   -1.7157974  0.065887215   -3.2149682    1.4991708   427360 
 5729000   0.97439524   -3.2180425   -1.7165299  0.066092024   -3.2180425    1.5015126   427387 
 5730000   0.97375867   -3.2168872   -1.7162712   0.06545426   -3.2168872    1.5006159   427363 
 5731000   0.97531885   -3.2180213    -1.715089  0.065506879   -3.2180213    1.5029323   427388 
 5732000   0.97420927    -3.216844   -1.7155723  0.063952893    -3.216844    1.5012717   427374 
 5733000   0.97507869   -3.2176286   -1.7151401  0.064000226   -3.2176286    1.5024884   427409 
 5734000   0.97547609   -3.2176198   -1.7146702   0.07187832   -3.2176198    1.5029496   427452 
 5735000   0.97564811   -3.2185619   -1.7154247  0.068812592   -3.2185619    1.5031372   427474 
 5736000   0.97582822   -3.2179545   -1.7145679  0.067225768   -3.2179545    1.5033866   427482 
 5737000   0.97579864   -3.2180658   -1.7146826  0.069649079   -3.2180658    1.5033832   427470 
 5738000   0.97498123   -3.2179692   -1.7157083  0.064859796   -3.2179692    1.5022609   427431 
 5739000   0.97462766    -3.218674   -1.7168981  0.062950684    -3.218674    1.5017759   427414 
 5740000   0.97212003   -3.2156402   -1.7177072  0.066166075   -3.2156402     1.497933   427408 
 5741000   0.97117802   -3.2152654   -1.7187069  0.067384722   -3.2152654    1.4965585   427386 
 5742000   0.97253771     -3.21796   -1.7193624  0.061945042     -3.21796    1.4985976   427402 
 5743000   0.97206875   -3.2167516   -1.7188522  0.061675392   -3.2167516    1.4978995   427395 
 5744000   0.97243049   -3.2160492   -1.7176028  0.063186083   -3.2160492    1.4984464   427398 
 5745000   0.97165338   -3.2150203   -1.7177924  0.064341909   -3.2150203    1.4972279   427404 
 5746000   0.97318431    -3.216674   -1.7171853  0.064831015    -3.216674    1.4994887   427432 
 5747000   0.97441542   -3.2186208   -1.7172176  0.061962877   -3.2186208    1.5014032   427427 
 5748000   0.97369894   -3.2181688   -1.7177783  0.063026611   -3.2181688    1.5003905   427401 
 5749000     0.973966   -3.2172202   -1.7164954  0.062496935   -3.2172202    1.5007247   427423 
 5750000   0.97442754    -3.217437   -1.7159379  0.062001841    -3.217437    1.5014991   427405 
 5751000   0.97377648   -3.2159479   -1.7155502  0.061744515   -3.2159479    1.5003976   427433 
 5752000   0.97434937   -3.2177211   -1.7164267  0.062058579   -3.2177211    1.5012944   427429 
 5753000   0.97370285   -3.2170112   -1.7166603  0.062624461   -3.2170112    1.5003509   427414 
 5754000   0.97356959   -3.2157007   -1.7155376  0.063596563   -3.2157007    1.5001631   427409 
 5755000   0.97217012   -3.2137913   -1.7159248  0.065731531   -3.2137913    1.4978665   427449 
 5756000   0.97156408   -3.2154249   -1.7185237  0.061818799   -3.2154249    1.4969012   427458 
 5757000   0.97316227   -3.2169461   -1.7176247  0.061997258   -3.2169461    1.4993214   427470 
 5758000   0.97278588   -3.2169501   -1.7181139  0.060301573   -3.2169501    1.4988362   427443 
 5759000   0.97328092   -3.2162747   -1.7166757  0.065762767   -3.2162747     1.499599   427443 
 5760000   0.97433685   -3.2191966   -1.7179637  0.065020764   -3.2191966    1.5012329   427441 
 5761000   0.97318321   -3.2159628   -1.7164653  0.065777082   -3.2159628    1.4994975   427429 
 5762000   0.97377823   -3.2169639    -1.716504  0.064356481   -3.2169639      1.50046   427416 
 5763000   0.97442267    -3.218104   -1.7166791  0.063334967    -3.218104    1.5014249   427424 
 5764000   0.97435986    -3.217868   -1.7164099  0.060603066    -3.217868    1.5014581   427387 
 5765000   0.97454038   -3.2188548   -1.7171958  0.063610872   -3.2188548    1.5016589   427409 
 5766000   0.97434395   -3.2184879   -1.7172019  0.066596474   -3.2184879     1.501286   427429 
 5767000   0.97436704   -3.2196436   -1.7183185  0.070513857   -3.2196436    1.5013251   427428 
 5768000   0.97348864   -3.2185576   -1.7184245  0.062392365   -3.2185576    1.5001331   427382 
 5769000   0.97380384   -3.2188648   -1.7180528  0.068205696   -3.2188648     1.500812   427327 
 5770000   0.97436261   -3.2207467   -1.7190666  0.069120559   -3.2207467    1.5016802   427325 
 5771000   0.97396802   -3.2210935   -1.7199688  0.063931481   -3.2210935    1.5011247   427310 
 5772000   0.97312525   -3.2191583   -1.7192764  0.062779018   -3.2191583    1.4998819   427294 
 5773000   0.97392357    -3.219647   -1.7184186  0.067204175    -3.219647    1.5012283   427261 
 5774000   0.97366373   -3.2185755   -1.7177442  0.065555376   -3.2185755    1.5008313   427260 
 5775000   0.97258037   -3.2197718   -1.7204665  0.064156175   -3.2197718    1.4993053   427219 
 5776000   0.97138971   -3.2185325   -1.7210452  0.066287105   -3.2185325    1.4974873   427214 
 5777000   0.97341253   -3.2200647    -1.719459  0.062641118   -3.2200647    1.5006057   427214 
 5778000   0.97360248   -3.2196811   -1.7186632   0.06618443   -3.2196811     1.501018   427180 
 5779000   0.97416349   -3.2208066   -1.7189624  0.068188852   -3.2208066    1.5018442   427191 
 5780000   0.97272117   -3.2193803   -1.7197596  0.064772355   -3.2193803    1.4996206   427191 
 5781000   0.97228751   -3.2179664   -1.7189758  0.065931445   -3.2179664    1.4989907   427180 
 5782000   0.97092952   -3.2160423   -1.7190296  0.066064414   -3.2160423    1.4970127   427147 
 5783000    0.9721294   -3.2171321   -1.7181922  0.064681524   -3.2171321    1.4989399   427125 
 5784000   0.97238892   -3.2194654    -1.720178  0.067998878   -3.2194654    1.4992874   427140 
 5785000   0.97312288   -3.2187746   -1.7182678  0.063026241   -3.2187746    1.5005069   427115 
 5786000   0.97274266   -3.2193647   -1.7193669  0.064246547   -3.2193647    1.4999979   427093 
 5787000   0.97258705   -3.2207557    -1.720924  0.067728271   -3.2207557    1.4998317   427072 
 5788000   0.97368895   -3.2217214   -1.7202151  0.057562517   -3.2217214    1.5015063   427079 
 5789000   0.97202568   -3.2192076   -1.7203399   0.06711726   -3.2192076    1.4988677   427100 
 5790000   0.97184043   -3.2176739   -1.7191024  0.063693813   -3.2176739    1.4985715   427103 
 5791000   0.97231428   -3.2177556   -1.7184077  0.069266093   -3.2177556    1.4993478   427090 
 5792000    0.9713753   -3.2170328     -1.71914   0.06255189   -3.2170328    1.4978929   427092 
 5793000   0.97418722   -3.2197997   -1.7176271  0.064044781   -3.2197997    1.5021727   427108 
 5794000   0.97346594   -3.2175376    -1.716456  0.065004613   -3.2175376    1.5010816   427102 
 5795000   0.97277864   -3.2194719   -1.7195591  0.063778371   -3.2194719    1.4999129   427133 
 5796000   0.97198212   -3.2170944   -1.7184273  0.064520189   -3.2170944    1.4986672   427138 
 5797000   0.97269061   -3.2190867   -1.7193728  0.060822773   -3.2190867    1.4997139   427151 
 5798000   0.97313783   -3.2188834   -1.7184518   0.06506144   -3.2188834    1.5004316   427143 
 5799000   0.97150054   -3.2152898   -1.7174914  0.064742512   -3.2152898    1.4977984   427174 
 5800000   0.97434588   -3.2182381   -1.7161549  0.069054759   -3.2182381    1.5020832   427203 
 5801000   0.97324907   -3.2156818   -1.7152263  0.064319211   -3.2156818    1.5004555   427185 
 5802000   0.97298182   -3.2156774   -1.7156128  0.065705907   -3.2156774    1.5000646   427179 
 5803000   0.97332463   -3.2168583    -1.716223  0.061067134   -3.2168583    1.5006353   427167 
 5804000   0.97357898    -3.217834   -1.7166625  0.063827597    -3.217834    1.5011715   427126 
 5805000   0.97132008   -3.2146383   -1.7169498  0.063707305   -3.2146383    1.4976885   427126 
 5806000   0.97214036   -3.2167371   -1.7177066  0.060897094   -3.2167371    1.4990305   427104 
 5807000   0.97136286    -3.214957   -1.7171465  0.067800395    -3.214957    1.4978105   427110 
 5808000   0.97085449   -3.2143569   -1.7173057  0.064899725   -3.2143569    1.4970512   427103 
 5809000   0.97232719   -3.2175906   -1.7182615  0.057904954   -3.2175906    1.4993291   427101 
 5810000   0.97160221   -3.2148793   -1.7166225   0.06629341   -3.2148793    1.4982568   427088 
 5811000   0.97137373   -3.2147276   -1.7167425  0.058705918   -3.2147276    1.4979851   427065 
 5812000   0.97222437   -3.2158681   -1.7165536  0.059906873   -3.2158681    1.4993145   427060 
 5813000   0.97092606   -3.2142368   -1.7168719  0.065936746   -3.2142368    1.4973649   427045 
 5814000   0.97202465   -3.2155899    -1.716457  0.062893085   -3.2155899    1.4991329   427024 
 5815000   0.97125293   -3.2144601   -1.7163981  0.066168261   -3.2144601    1.4980619   426990 
 5816000   0.97126909   -3.2151305   -1.7169103  0.064805526   -3.2151305    1.4982202   426952 
 5817000   0.97385145   -3.2175693   -1.7154396  0.066327482   -3.2175693    1.5021297   426973 
 5818000    0.9730306   -3.2180295   -1.7171941  0.061695983   -3.2180295    1.5008355   426981 
 5819000   0.97327478   -3.2176907   -1.7165665  0.060771392   -3.2176907    1.5011242   427006 
 5820000   0.97162334   -3.2160849   -1.7175078   0.06229234   -3.2160849    1.4985771   427006 
 5821000   0.97112089   -3.2155349   -1.7176696   0.06657284   -3.2155349    1.4978653   426988 
 5822000   0.97028766   -3.2152757    -1.718692  0.067730149   -3.2152757    1.4965836   426987 
 5823000   0.97138711   -3.2165278   -1.7181817  0.062990393   -3.2165278    1.4983461   426968 
 5824000   0.97165265   -3.2171377   -1.7183398   0.06781248   -3.2171377    1.4987978   426956 
 5825000   0.97145786   -3.2165525    -1.718178  0.066310989   -3.2165525    1.4983745   426991 
 5826000    0.9711355   -3.2170627   -1.7191959   0.06238382   -3.2170627    1.4978668   426994 
 5827000    0.9706789   -3.2164052   -1.7192006  0.063611545   -3.2164052    1.4972046   426982 
 5828000   0.97101568   -3.2177697   -1.7201018  0.063801849   -3.2177697    1.4976679   426998 
 5829000   0.97128582   -3.2178828   -1.7197456  0.062226471   -3.2178828    1.4981372   426983 
 5830000   0.97023824   -3.2156171   -1.7191168  0.065486911   -3.2156171    1.4965004   426989 
 5831000     0.971352   -3.2175535   -1.7193352  0.066435681   -3.2175535    1.4982183   426989 
 5832000   0.97228128   -3.2183806   -1.7187817  0.066073436   -3.2183806    1.4995989   427004 
 5833000   0.97104143   -3.2168965   -1.7192344  0.068003721   -3.2168965    1.4976621   427011 
 5834000   0.97088913   -3.2169648   -1.7194815  0.065012812   -3.2169648    1.4974833   426995 
 5835000   0.97188156   -3.2207976   -1.7218643  0.058746755   -3.2207976    1.4989332   427018 
 5836000   0.97064101   -3.2196032   -1.7225517  0.067350023   -3.2196032    1.4970515   427009 
 5837000   0.97014189   -3.2191101   -1.7228599  0.060136654   -3.2191101    1.4962502   427018 
 5838000   0.96961701   -3.2173423   -1.7218176  0.062440344   -3.2173423    1.4955247   426994 
 5839000   0.97290453   -3.2216038   -1.7210191  0.063271681   -3.2216038    1.5005848   426997 
 5840000   0.97111569    -3.218243   -1.7204313  0.064458229    -3.218243    1.4978117   427001 
 5841000   0.97258153   -3.2200059    -1.719965  0.073124504   -3.2200059    1.5000409   427010 
 5842000   0.97321316   -3.2198195   -1.7186778  0.069918577   -3.2198195    1.5011417   426974 
 5843000   0.97255918   -3.2203682   -1.7203056  0.066742187   -3.2203682    1.5000626   426994 
 5844000   0.97366293   -3.2210024   -1.7192056  0.064028008   -3.2210024    1.5017967   426985 
 5845000   0.97265148   -3.2203161    -1.720097  0.067311927   -3.2203161    1.5002191   426990 
 5846000   0.97501667   -3.2231178   -1.7193282  0.060563637   -3.2231178    1.5037897   427012 
 5847000   0.97238024   -3.2192473   -1.7195555  0.067831512   -3.2192473    1.4996918   427021 
 5848000   0.97095769    -3.218119   -1.7206107  0.063627145    -3.218119    1.4975084   427018 
 5849000   0.97009758   -3.2164488   -1.7202705  0.068660278   -3.2164488    1.4961783   427019 
 5850000   0.97136353   -3.2171781   -1.7190228  0.063981536   -3.2171781    1.4981553   427012 
 5851000   0.97365361   -3.2186671   -1.7170043  0.065274714   -3.2186671    1.5016628   427019 
 5852000   0.97210676   -3.2167053   -1.7175722  0.064445256   -3.2167053    1.4991331   427060 
 5853000    0.9719915   -3.2174667   -1.7185148  0.066664677   -3.2174667    1.4989519   427061 
 5854000   0.97251737   -3.2166101   -1.7168964  0.068276089   -3.2166101    1.4997137   427075 
 5855000   0.97127286   -3.2134694   -1.7158047  0.070888201   -3.2134694    1.4976648   427112 
 5856000   0.97228206   -3.2143805   -1.7151069  0.062657479   -3.2143805    1.4992736   427097 
 5857000   0.97057593   -3.2131818   -1.7163464  0.066331601   -3.2131818    1.4968354   427042 
 5858000   0.97207187   -3.2151754   -1.7159872  0.062731788   -3.2151754    1.4991881   427029 
 5859000    0.9721718   -3.2148422   -1.7154437  0.063870936   -3.2148422    1.4993984   427013 
 5860000   0.97111497   -3.2138861   -1.7161492  0.059860925   -3.2138861    1.4977369   427022 
 5861000    0.9706036   -3.2131457    -1.716222  0.057828582   -3.2131457    1.4969237   427029 
 5862000   0.97073631   -3.2131062   -1.7159673  0.057634626   -3.2131062    1.4971389   427026 
 5863000   0.97007328    -3.211167   -1.7152014  0.057466551    -3.211167    1.4959657   427069 
 5864000   0.97062618   -3.2111441   -1.7143468  0.062247487   -3.2111441    1.4967973   427075 
 5865000   0.97130109   -3.2125453   -1.7147038  0.060858349   -3.2125453    1.4978416   427074 
 5866000   0.97029753   -3.2112425   -1.7150606  0.064455248   -3.2112425    1.4961819   427106 
 5867000   0.97145926   -3.2137795   -1.7155748  0.063631198   -3.2137795    1.4982047   427040 
 5868000   0.97065227   -3.2126505   -1.7155886  0.061255794   -3.2126505    1.4970619   427011 
 5869000   0.97040537   -3.2112539   -1.7145308  0.060256637   -3.2112539    1.4967231   426999 
 5870000   0.97142359   -3.2124647   -1.7142062  0.064200239   -3.2124647    1.4982585   427009 
 5871000   0.97267547   -3.2125428   -1.7122902  0.063359889   -3.2125428    1.5002526   426991 
 5872000   0.97131907   -3.2116227   -1.7134657  0.066462031   -3.2116227    1.4981569   426992 
 5873000   0.97301707   -3.2123774    -1.711605  0.066653813   -3.2123774    1.5007724   426993 
 5874000   0.97176522   -3.2114635   -1.7125798  0.067678887   -3.2114635    1.4988837   426981 
 5875000    0.9738859   -3.2148904   -1.7127287  0.072001702   -3.2148904    1.5021617   426979 
 5876000   0.97377816   -3.2154251    -1.713521  0.067456614   -3.2154251    1.5019041   427005 
 5877000   0.97337225   -3.2139237   -1.7126808  0.064798674   -3.2139237    1.5012429   427015 
 5878000   0.97353287   -3.2150273   -1.7134664  0.057769696   -3.2150273    1.5015609   426995 
 5879000   0.97281564   -3.2138388   -1.7132611  0.069539832   -3.2138388    1.5005777   426960 
 5880000   0.97295827     -3.21433   -1.7135182  0.068124222     -3.21433    1.5008118   426956 
 5881000   0.97289642   -3.2147838   -1.7140745   0.06691946   -3.2147838    1.5007093   426958 
 5882000   0.97121096   -3.2119866   -1.7139368  0.063843143   -3.2119866    1.4980498   426975 
 5883000   0.97325321   -3.2144978   -1.7132135  0.068828728   -3.2144978    1.5012843   426951 
 5884000   0.97371784   -3.2160141   -1.7138934  0.060860084   -3.2160141    1.5021206   426917 
 5885000   0.97245188   -3.2141962   -1.7140145  0.068812046   -3.2141962    1.5001817   426913 
 5886000   0.97169721    -3.211676   -1.7126269  0.065623463    -3.211676    1.4990491   426904 
 5887000   0.97376578   -3.2144028   -1.7120182  0.063885832   -3.2144028    1.5023846   426863 
 5888000   0.97216257   -3.2107871   -1.7109569  0.067593616   -3.2107871    1.4998303   426886 
 5889000    0.9726072   -3.2127122   -1.7122065  0.062429089   -3.2127122    1.5005057   426889 
 5890000   0.97393276   -3.2146323   -1.7121379  0.061893158   -3.2146323    1.5024944   426905 
 5891000   0.97340843   -3.2135751   -1.7118649  0.063613597   -3.2135751    1.5017101   426898 
 5892000   0.97197586   -3.2123502   -1.7126886  0.064221165   -3.2123502    1.4996617   426852 
 5893000   0.97271776   -3.2127267   -1.7120047  0.063309122   -3.2127267     1.500722   426876 
 5894000   0.97212791   -3.2125707   -1.7125936  0.063187982   -3.2125707    1.4999771   426829 
 5895000   0.96990947    -3.209775   -1.7131508  0.068001404    -3.209775    1.4966242   426809 
 5896000   0.97110971   -3.2116798    -1.713193  0.063545157   -3.2116798    1.4984868   426806 
 5897000   0.97124546   -3.2095116   -1.7108399  0.059105137   -3.2095116    1.4986717   426813 
 5898000   0.97071097   -3.2095603   -1.7117064  0.059236106   -3.2095603    1.4978539   426811 
 5899000   0.97027128   -3.2084856   -1.7112715  0.062858493   -3.2084856    1.4972141   426800 
 5900000   0.97113663   -3.2091996   -1.7106573  0.061287476   -3.2091996    1.4985423   426802 
 5901000   0.97242966   -3.2124522    -1.711788  0.067884518   -3.2124522    1.5006642   426766 
 5902000   0.97153456   -3.2108776   -1.7115209   0.06354249   -3.2108776    1.4993566   426745 
 5903000   0.97158799   -3.2108561   -1.7112624  0.058848009   -3.2108561    1.4995937   426701 
 5904000   0.97260179   -3.2120012    -1.710797  0.062685967   -3.2120012    1.5012042   426688 
 5905000   0.97229952   -3.2092237   -1.7084439  0.065408425   -3.2092237    1.5007798   426676 
 5906000   0.97110304   -3.2091308   -1.7102364  0.062371373   -3.2091308    1.4988944   426687 
 5907000   0.97238956   -3.2095966   -1.7086356  0.063907312   -3.2095966     1.500961   426664 
 5908000   0.97241359   -3.2099579   -1.7087381  0.063853975   -3.2099579    1.5012198   426601 
 5909000   0.97370014   -3.2115661   -1.7083601  0.064106757   -3.2115661     1.503206   426601 
 5910000   0.97431594   -3.2110564   -1.7071783  0.069407772   -3.2110564    1.5038782   426680 
 5911000    0.9717494   -3.2082265   -1.7084962  0.062901529   -3.2082265    1.4997304   426733 
 5912000   0.97339089   -3.2109312    -1.708576  0.062886209   -3.2109312    1.5023553   426707 
 5913000   0.97246757   -3.2102884   -1.7093195  0.064919346   -3.2102884    1.5009689   426696 
 5914000   0.97185588   -3.2112377   -1.7111919  0.063619178   -3.2112377    1.5000458   426690 
 5915000   0.97141564   -3.2123521   -1.7129014  0.061159389   -3.2123521    1.4994507   426666 
 5916000   0.97131606   -3.2120138   -1.7126922  0.065397726   -3.2120138    1.4993216   426659 
 5917000   0.97104036   -3.2119488   -1.7132566  0.062330533   -3.2119488    1.4986923   426717 
 5918000   0.97064941   -3.2120085   -1.7138249  0.056381293   -3.2120085    1.4981837   426690 
 5919000   0.96983511   -3.2100828   -1.7132647  0.063230726   -3.2100828    1.4968181   426721 
 5920000   0.97065209   -3.2118487   -1.7137837  0.060801457   -3.2118487    1.4980649   426725 
 5921000   0.96906498   -3.2079147   -1.7123798  0.060612891   -3.2079147    1.4955349   426748 
 5922000   0.97143032   -3.2113753   -1.7121127   0.05940228   -3.2113753    1.4992625   426726 
 5923000   0.97171928   -3.2112218   -1.7115695  0.063014501   -3.2112218    1.4996522   426742 
 5924000   0.97191115   -3.2118259   -1.7118846  0.062643333   -3.2118259    1.4999413   426744 
 5925000   0.97171062   -3.2120037   -1.7125334  0.057846102   -3.2120037    1.4994702   426790 
 5926000   0.97136486   -3.2109656   -1.7120008  0.065291248   -3.2109656    1.4989648   426782 
 5927000   0.97394531   -3.2133339   -1.7105385  0.069261239   -3.2133339    1.5027954   426825 
 5928000    0.9740478   -3.2135945   -1.7106374  0.062271454   -3.2135945     1.502957   426824 
 5929000   0.97287111   -3.2126397    -1.711544  0.059410428   -3.2126397    1.5010957   426837 
 5930000    0.9723684   -3.2143331   -1.7140799  0.062798466   -3.2143331    1.5002533   426856 
 5931000   0.97261352   -3.2148837   -1.7141081  0.061338041   -3.2148837    1.5007756   426815 
 5932000   0.97258057   -3.2141057   -1.7134232  0.062407262   -3.2141057    1.5006826   426827 
 5933000    0.9727896   -3.2141206   -1.7132175  0.065900228   -3.2141206    1.5009031   426856 
 5934000   0.97293947   -3.2139406   -1.7128239  0.065395418   -3.2139406    1.5011168   426861 
 5935000   0.97268608   -3.2143234   -1.7136152  0.067317919   -3.2143234    1.5007082   426866 
 5936000   0.97360289   -3.2153426   -1.7132727  0.067605551   -3.2153426      1.50207   426881 
 5937000   0.97283674   -3.2138383   -1.7128976  0.068525647   -3.2138383    1.5009407   426866 
 5938000   0.97490614    -3.216524   -1.7124786  0.068461895    -3.216524    1.5040454   426891 
 5939000   0.97468984   -3.2160525    -1.712302  0.063918264   -3.2160525    1.5037504   426880 
 5940000   0.97441451   -3.2152188   -1.7119424  0.067197191   -3.2152188    1.5032763   426894 
 5941000   0.97268003   -3.2145219    -1.713953  0.065323145   -3.2145219    1.5005689   426903 
 5942000   0.97333669   -3.2150822   -1.7136657   0.06199317   -3.2150822    1.5014166   426950 
 5943000   0.97292565   -3.2161428   -1.7153286  0.060877081   -3.2161428    1.5008142   426941 
 5944000   0.97189501   -3.2146291   -1.7152818  0.064635837   -3.2146291    1.4993472   426906 
 5945000   0.97180562   -3.2150149   -1.7157247  0.063885128   -3.2150149    1.4992901   426883 
 5946000   0.97124741   -3.2151455   -1.7167973  0.064759122   -3.2151455    1.4983482   426906 
 5947000   0.97095319    -3.214728   -1.7168583  0.062353621    -3.214728    1.4978697   426913 
 5948000   0.97025896   -3.2124441   -1.7156594  0.066677021   -3.2124441    1.4967847   426917 
 5949000   0.97303918   -3.2160101    -1.714961  0.064333799   -3.2160101    1.5010491   426924 
 5950000   0.97272786   -3.2151211   -1.7145664  0.063646755   -3.2151211    1.5005548   426928 
 5951000   0.97192474   -3.2147675   -1.7155008  0.063942472   -3.2147675    1.4992667   426942 
 5952000   0.97123561   -3.2160554   -1.7178623  0.066034472   -3.2160554    1.4981931   426945 
 5953000   0.97209909   -3.2174044   -1.7178337  0.060713062   -3.2174044    1.4995707   426932 
 5954000    0.9730477   -3.2184757   -1.7172904  0.058926706   -3.2184757    1.5011853   426889 
 5955000   0.97080299   -3.2139591   -1.7163036  0.066834086   -3.2139591    1.4976556   426908 
 5956000   0.97256171   -3.2168828   -1.7164754  0.062033668   -3.2168828    1.5004074   426897 
 5957000   0.97240856   -3.2165202   -1.7164334  0.060931429   -3.2165202    1.5000868   426921 
 5958000   0.97076701   -3.2144812   -1.7169022  0.065030966   -3.2144812     1.497579   426914 
 5959000   0.97084498   -3.2148758   -1.7170712  0.065162862   -3.2148758    1.4978046   426884 
 5960000   0.97166529   -3.2158446   -1.7168763  0.062015106   -3.2158446    1.4989683   426913 
 5961000   0.97148967   -3.2161922    -1.717544  0.070763843   -3.2161922    1.4986482   426927 
 5962000   0.97222563   -3.2179839   -1.7181723  0.060796515   -3.2179839    1.4998116   426919 
 5963000   0.97368086   -3.2187545   -1.7168211  0.061197122   -3.2187545    1.5019334   426954 
 5964000   0.97256763   -3.2169397   -1.7167376  0.066250057   -3.2169397    1.5002022   426958 
 5965000   0.97300319   -3.2169798   -1.7161093  0.064450933   -3.2169798    1.5008705   426959 
 5966000   0.97228514   -3.2157526   -1.7160423   0.06379326   -3.2157526    1.4997102   426974 
 5967000   0.97388686   -3.2183308   -1.7160901  0.062965173   -3.2183308    1.5022406   426957 
 5968000   0.97285233   -3.2172679   -1.7166758  0.065506139   -3.2172679    1.5005921   426972 
 5969000   0.97394102    -3.217771   -1.7154151  0.066768119    -3.217771    1.5023558   426948 
 5970000   0.97396858   -3.2179026   -1.7153353  0.069457154   -3.2179026    1.5025673   426900 
 5971000   0.97378354   -3.2182346    -1.716083  0.061817389   -3.2182346    1.5021516   426937 
 5972000   0.97272725   -3.2169609   -1.7164423  0.061917372   -3.2169609    1.5005187   426938 
 5973000   0.97254953   -3.2174068   -1.7171166  0.063848479   -3.2174068    1.5002902   426925 
 5974000   0.97241793    -3.217536   -1.7172977  0.066289898    -3.217536    1.5002383   426882 
 5975000   0.97257207   -3.2165675   -1.7162812  0.068494408   -3.2165675    1.5002863   426936 
 5976000   0.97028807    -3.213428   -1.7166965  0.068028065    -3.213428    1.4967315   426945 
 5977000   0.97124415   -3.2135145   -1.7153679  0.062082016   -3.2135145    1.4981466   426962 
 5978000   0.97179736   -3.2159177   -1.7168229  0.065907041   -3.2159177    1.4990948   426935 
 5979000    0.9709656   -3.2152256   -1.7173613  0.062459007   -3.2152256    1.4978643   426920 
 5980000   0.97083116     -3.21411   -1.7163759  0.060776333     -3.21411    1.4977341   426898 
 5981000   0.97093305   -3.2144038   -1.7164283  0.061939413   -3.2144038    1.4979755   426874 
 5982000   0.96907459   -3.2124838   -1.7174281  0.059214794   -3.2124838    1.4950557   426889 
 5983000   0.97079057   -3.2142631   -1.7165285  0.059976833   -3.2142631    1.4977346   426880 
 5984000   0.96947853   -3.2133075   -1.7175936  0.056970046   -3.2133075    1.4957139   426879 
 5985000   0.96947831   -3.2126501   -1.7167823   0.06334152   -3.2126501    1.4958678   426835 
 5986000   0.97029546   -3.2133064    -1.716297  0.064261914   -3.2133064    1.4970094   426869 
 5987000   0.97022024   -3.2123042   -1.7153758  0.063164461   -3.2123042    1.4969284   426859 
 5988000    0.9700823    -3.212015   -1.7153065  0.062568456    -3.212015    1.4967085   426861 
 5989000   0.97118754   -3.2144993   -1.7160539   0.06452207   -3.2144993    1.4984454   426852 
 5990000   0.97118199   -3.2130919   -1.7145147  0.060342067   -3.2130919    1.4985772   426812 
 5991000   0.97220793   -3.2143357   -1.7142175  0.067216927   -3.2143357    1.5001181   426824 
 5992000   0.97107191   -3.2130243   -1.7147327  0.069548535   -3.2130243    1.4982915   426845 
 5993000   0.97159825   -3.2131571    -1.714071  0.065270494   -3.2131571    1.4990861   426850 
 5994000   0.97234921    -3.214575   -1.7144497  0.069556626    -3.214575    1.5001252   426884 
 5995000   0.97258773   -3.2153738   -1.7148735    0.0662389   -3.2153738    1.5005003   426882 
 5996000   0.97237189   -3.2157999   -1.7156994  0.061361742   -3.2157999    1.5001005   426901 
 5997000    0.9707061   -3.2135974   -1.7160913  0.064513089   -3.2135974    1.4975061   426908 
 5998000   0.97233835   -3.2161026   -1.7159554  0.062453064   -3.2161026    1.5001472   426873 
 5999000   0.97085971   -3.2135756   -1.7157062  0.064749979   -3.2135756    1.4978694   426872 
 6000000   0.97105547   -3.2145119   -1.7163826  0.063940044   -3.2145119    1.4981293   426884 
 6001000   0.97280058   -3.2172293   -1.7165343  0.056414148   -3.2172293    1.5006951   426920 
 6002000   0.97260316   -3.2164024     -1.71604  0.063711838   -3.2164024    1.5003624   426928 
 6003000   0.97132183   -3.2140357   -1.7156534  0.064748108   -3.2140357    1.4983823   426929 
 6004000   0.97316404   -3.2150604   -1.7136745  0.063398185   -3.2150604    1.5013859   426883 
 6005000   0.97263171    -3.215075   -1.7145315  0.063756763    -3.215075    1.5005435   426889 
 6006000   0.97343352   -3.2166586   -1.7148183  0.061096882   -3.2166586    1.5018403   426872 
 6007000   0.97158227   -3.2136447     -1.71452  0.061438173   -3.2136447    1.4991246   426832 
 6008000   0.97176454   -3.2156099   -1.7161373  0.067402075   -3.2156099    1.4994726   426813 
 6009000   0.97068543   -3.2139549   -1.7161052   0.06199954   -3.2139549    1.4978496   426801 
 6010000   0.97078141   -3.2149368   -1.7166864  0.061525065   -3.2149368    1.4982505   426729 
 6011000   0.97107882   -3.2148839   -1.7159988  0.065842952   -3.2148839    1.4988851   426679 
 6012000   0.97215787   -3.2151739   -1.7146936  0.064951349   -3.2151739    1.5004803   426699 
 6013000   0.97325149   -3.2151467   -1.7130102  0.066807291   -3.2151467    1.5021366   426708 
 6014000   0.97156108   -3.2134373   -1.7138359  0.062363184   -3.2134373    1.4996014   426687 
 6015000   0.97137909   -3.2138312   -1.7146372  0.062232793   -3.2138312     1.499194   426723 
 6016000   0.97085007   -3.2128616   -1.7144911  0.061028601   -3.2128616    1.4983705   426725 
 6017000   0.97026529   -3.2124148    -1.714824  0.062332096   -3.2124148    1.4975908   426690 
 6018000   0.97177198   -3.2145065    -1.714555  0.062412667   -3.2145065    1.4999515   426680 
 6019000   0.97134859   -3.2120264   -1.7125808  0.066515081   -3.2120264    1.4994456   426638 
 6020000   0.97077535   -3.2124547   -1.7138905  0.066852153   -3.2124547    1.4985642   426637 
 6021000   0.97150254   -3.2120819   -1.7123319  0.063787143   -3.2120819      1.49975   426619 
 6022000   0.97033716   -3.2113092   -1.7131721  0.058368158   -3.2113092    1.4981371   426566 
 6023000   0.96945962   -3.2109138   -1.7141456  0.064840899   -3.2109138    1.4967682   426570 
 6024000   0.96919869    -3.210338   -1.7140113  0.066169016    -3.210338    1.4963268   426581 
 6025000   0.97005433   -3.2110231   -1.7133472  0.067739078   -3.2110231    1.4976759   426573 
 6026000   0.97093716   -3.2114366   -1.7124189  0.061003424   -3.2114366    1.4990178   426579 
 6027000   0.96982002   -3.2106665   -1.7134472  0.060049048   -3.2106665    1.4972193   426600 
 6028000   0.97006478   -3.2105516   -1.7129158  0.060018019   -3.2105516    1.4976358   426589 
 6029000   0.97075279   -3.2104423   -1.7117829  0.065471648   -3.2104423    1.4986594   426600 
 6030000    0.9702515   -3.2107546   -1.7128376  0.060202266   -3.2107546    1.4979171   426591 
 6031000   0.96887884   -3.2092315   -1.7134968  0.063008937   -3.2092315    1.4957348   426609 
 6032000   0.97096008   -3.2121492   -1.7131066  0.055923955   -3.2121492    1.4990426   426582 
 6033000   0.96962077   -3.2110388   -1.7141552  0.062783785   -3.2110388    1.4968837   426608 
 6034000   0.97027853   -3.2125944   -1.7145864  0.061278473   -3.2125944     1.498008   426577 
 6035000   0.97054591   -3.2129375   -1.7144852  0.063875817   -3.2129375    1.4984524   426568 
 6036000   0.97062299   -3.2147835   -1.7161383  0.065169376   -3.2147835    1.4986452   426547 
 6037000   0.97017854   -3.2149642   -1.7169632  0.064156147   -3.2149642    1.4980011   426535 
 6038000   0.97117525    -3.215556    -1.716009  0.059932281    -3.215556    1.4995471   426533 
 6039000   0.97032993   -3.2137125   -1.7156006  0.063536742   -3.2137125    1.4981119   426570 
 6040000   0.97117723   -3.2160326   -1.7167637  0.060215109   -3.2160326    1.4992689   426613 
 6041000   0.97007746   -3.2144025     -1.71687  0.064424597   -3.2144025    1.4975325   426624 
 6042000   0.97127741   -3.2153021   -1.7159629  0.065968912   -3.2153021    1.4993392   426637 
 6043000   0.97057869   -3.2155266   -1.7173643  0.064699489   -3.2155266    1.4981623   426665 
 6044000   0.97215991   -3.2163068   -1.7157916  0.058935364   -3.2163068    1.5005151   426690 
 6045000   0.97173715   -3.2147375   -1.7148397  0.065323558   -3.2147375    1.4998977   426680 
 6046000   0.97297727   -3.2166087   -1.7146736  0.064215503   -3.2166087    1.5019351   426645 
 6047000   0.97380159   -3.2174299   -1.7142012  0.065565317   -3.2174299    1.5032287   426639 
 6048000   0.97259487    -3.217215   -1.7157928  0.067621878    -3.217215    1.5014222   426623 
 6049000   0.97138039   -3.2140253     -1.71452  0.065087528   -3.2140253    1.4995052   426635 
 6050000   0.97234375    -3.218281   -1.7171268  0.062615466    -3.218281    1.5011542   426589 
 6051000   0.97136774   -3.2163419   -1.7167683   0.06802773   -3.2163419    1.4995736   426610 
 6052000   0.97053122   -3.2158373   -1.7176184   0.06648541   -3.2158373     1.498219   426628 
 6053000   0.97206024   -3.2174777    -1.717039  0.063875123   -3.2174777    1.5004386   426668 
 6054000    0.9712577     -3.21606   -1.7168285   0.06292311     -3.21606    1.4992315   426659 
 6055000   0.96925064   -3.2121701   -1.7160753  0.064746329   -3.2121701    1.4960948   426670 
 6056000   0.96998005   -3.2142565   -1.7169305  0.061729276   -3.2142565     1.497326   426640 
 6057000   0.96904471    -3.213195   -1.7172602  0.066802691    -3.213195    1.4959347   426625 
 6058000   0.97044527   -3.2142492   -1.7162578   0.06322931   -3.2142492    1.4979915   426655 
 6059000   0.97059639   -3.2140256   -1.7158184   0.06950976   -3.2140256    1.4982072   426660 
 6060000   0.97287122    -3.216111   -1.7143748  0.066447276    -3.216111    1.5017362   426655 
 6061000   0.97131597   -3.2146071   -1.7153102  0.064926254   -3.2146071    1.4992968   426666 
 6062000   0.97181055   -3.2153624    -1.715492  0.066240676   -3.2153624    1.4998704   426720 
 6063000   0.97190501   -3.2153096   -1.7152653  0.062018912   -3.2153096    1.5000443   426712 
 6064000   0.97163142   -3.2143306    -1.714814  0.055574273   -3.2143306    1.4995167   426742 
 6065000   0.97064018   -3.2134149   -1.7153473   0.05997653   -3.2134149    1.4980676   426719 
 6066000   0.97074804    -3.213875   -1.7157111    0.0636479    -3.213875    1.4981639   426739 
 6067000   0.97041688   -3.2124249   -1.7147721  0.063754109   -3.2124249    1.4976528   426739 
 6068000   0.97067697   -3.2134796   -1.7154711  0.062086932   -3.2134796    1.4980086   426752 
 6069000   0.96914325   -3.2099718   -1.7142636  0.059532237   -3.2099718    1.4957082   426733 
 6070000   0.96830722   -3.2081103   -1.7137589  0.065595167   -3.2081103    1.4943514   426752 
 6071000   0.97101556   -3.2131267   -1.7146763  0.064795487   -3.2131267    1.4984503   426775 
 6072000    0.9717255   -3.2140003   -1.7143947  0.063474235   -3.2140003    1.4996056   426758 
 6073000   0.97137037   -3.2138934   -1.7148042  0.063096623   -3.2138934    1.4990892   426749 
 6074000   0.97019615   -3.2125538   -1.7152803  0.061506315   -3.2125538    1.4972735   426750 
 6075000   0.97179477    -3.213189   -1.7134097  0.063404751    -3.213189    1.4997793   426739 
 6076000   0.97131801   -3.2135069   -1.7143931  0.059622572   -3.2135069    1.4991138   426719 
 6077000   0.97173665   -3.2136027    -1.713892  0.060923797   -3.2136027    1.4997107   426733 
 6078000   0.97074584   -3.2118786   -1.7135707  0.062424101   -3.2118786    1.4983079   426697 
 6079000   0.97110826   -3.2128004   -1.7139366  0.063281194   -3.2128004    1.4988638   426698 
 6080000   0.97080638   -3.2127692   -1.7143959  0.060015472   -3.2127692    1.4983733   426705 
 6081000   0.97006389   -3.2132376   -1.7159226   0.06355983   -3.2132376     1.497315   426680 
 6082000   0.97090233    -3.215273   -1.7166498  0.060872633    -3.215273    1.4986232   426676 
 6083000    0.9712981   -3.2138838   -1.7146391   0.06516119   -3.2138838    1.4992447   426673 
 6084000   0.97055505   -3.2141902   -1.7161276    0.0617308   -3.2141902    1.4980626   426683 
 6085000   0.97095343   -3.2142247   -1.7155472  0.060399892   -3.2142247    1.4986775   426683 
 6086000    0.9727294   -3.2161748   -1.7146611  0.061299571   -3.2161748    1.5015138   426656 
 6087000   0.96991512   -3.2099352   -1.7128498  0.070595795   -3.2099352    1.4970854   426680 
 6088000   0.97348258   -3.2154937    -1.712923  0.061947983   -3.2154937    1.5025707   426686 
 6089000    0.9713538    -3.212896   -1.7136286  0.070109878    -3.212896    1.4992674   426691 
 6090000   0.97264836   -3.2148987   -1.7135417  0.067972206   -3.2148987     1.501357   426665 
 6091000   0.97212896   -3.2147603   -1.7142015  0.068888368   -3.2147603    1.5005588   426664 
 6092000   0.97279934   -3.2152891    -1.713787  0.059349058   -3.2152891    1.5015021   426690 
 6093000   0.97245618   -3.2143486   -1.7133445  0.061592424   -3.2143486    1.5010041   426681 
 6094000   0.97123496   -3.2135673   -1.7144939  0.063267482   -3.2135673    1.4990734   426694 
 6095000   0.96924732   -3.2111945   -1.7151854  0.059347891   -3.2111945    1.4960091   426693 
 6096000   0.97086834   -3.2145039   -1.7160596  0.058512935   -3.2145039    1.4984443   426712 
 6097000   0.96981412   -3.2110131   -1.7140801  0.062678873   -3.2110131     1.496933   426679 
 6098000   0.97084538   -3.2142167   -1.7157165  0.059579008   -3.2142167    1.4985002   426686 
 6099000   0.97180188   -3.2148163   -1.7147764  0.064466386   -3.2148163    1.5000399   426668 
 6100000   0.97045311   -3.2128157   -1.7148332  0.061018176   -3.2128157    1.4979825   426661 
 6101000   0.97119303    -3.212958   -1.7138474  0.065875641    -3.212958    1.4991106   426665 
 6102000    0.9726129   -3.2141998   -1.7130207  0.062977392   -3.2141998    1.5011791   426700 
 6103000   0.97134956   -3.2133416   -1.7140351  0.058997573   -3.2133416    1.4993065   426678 
 6104000   0.97174927   -3.2133205   -1.7133759  0.063847317   -3.2133205    1.4999446   426672 
 6105000   0.97142188   -3.2128081   -1.7131931  0.061821225   -3.2128081     1.499615   426622 
 6106000   0.97183568   -3.2121626   -1.7119264  0.065472778   -3.2121626    1.5002362   426627 
 6107000   0.97056607   -3.2120157   -1.7135989  0.068395406   -3.2120157    1.4984168   426587 
 6108000    0.9735115   -3.2163544    -1.713415  0.059318526   -3.2163544    1.5029394   426594 
 6109000    0.9718081   -3.2139889   -1.7137109  0.059180863   -3.2139889     1.500278   426603 
 6110000   0.97166568   -3.2150605   -1.7149532  0.064098185   -3.2150605    1.5001074   426589 
 6111000   0.97092933   -3.2146713   -1.7156481  0.060734365   -3.2146713    1.4990233   426574 
 6112000   0.96932057   -3.2137888   -1.7173721  0.063928901   -3.2137888    1.4964167   426609 
 6113000   0.96875298   -3.2131727   -1.7176498  0.058621506   -3.2131727    1.4955229   426614 
 6114000    0.9701654   -3.2147411   -1.7169394  0.064264177   -3.2147411    1.4978017   426586 
 6115000   0.97085103   -3.2162047   -1.7172812  0.061509181   -3.2162047    1.4989235   426568 
 6116000    0.9718331    -3.216727   -1.7163612  0.059842207    -3.216727    1.5003658   426589 
 6117000   0.97057144   -3.2142682    -1.715952  0.065985386   -3.2142682    1.4983162   426618 
 6118000   0.97225959   -3.2178597   -1.7168777  0.064052244   -3.2178597    1.5009821   426601 
 6119000   0.96937287   -3.2145029   -1.7179669  0.065305557   -3.2145029     1.496536   426598 
 6120000   0.97040956   -3.2160097   -1.7178661  0.062442215   -3.2160097    1.4981435   426596 
 6121000    0.9729678   -3.2187198   -1.7164718  0.064130961   -3.2187198    1.5022479   426552 
 6122000   0.97317972   -3.2194447   -1.7168555  0.061701737   -3.2194447    1.5025892   426548 
 6123000    0.9719472   -3.2171926   -1.7164888   0.06221215   -3.2171926    1.5007038   426543 
 6124000   0.97350747   -3.2211576   -1.7179248  0.065049717   -3.2211576    1.5032327   426509 
 6125000   0.97324692   -3.2181604   -1.7154744  0.064204782   -3.2181604    1.5026859   426550 
 6126000   0.97230929   -3.2171462   -1.7158728   0.06759409   -3.2171462    1.5012734   426540 
 6127000   0.97266377   -3.2184012   -1.7165346  0.064233844   -3.2184012    1.5018665   426527 
 6128000   0.97131856   -3.2174807   -1.7178037  0.062226967   -3.2174807    1.4996769   426559 
 6129000   0.97132183   -3.2180505   -1.7180697  0.064130314   -3.2180505    1.4999809   426474 
 6130000   0.97218588    -3.219253   -1.7179766  0.059772571    -3.219253    1.5012765   426485 
 6131000   0.97126019    -3.220107   -1.7203936  0.060893758    -3.220107    1.4997134   426523 
 6132000   0.97143001   -3.2195241   -1.7196259  0.066584201   -3.2195241    1.4998982   426545 
 6133000   0.97151479   -3.2193817   -1.7194053  0.061294402   -3.2193817    1.4999764   426560 
 6134000   0.97082323    -3.219122   -1.7201607  0.063496772    -3.219122    1.4989613   426545 
 6135000     0.971505   -3.2197289   -1.7196551  0.060670529   -3.2197289    1.5000738   426528 
 6136000    0.9695221   -3.2176419    -1.720679  0.064970876   -3.2176419    1.4969629   426542 
 6137000   0.97054501   -3.2197561   -1.7211295  0.064734624   -3.2197561    1.4986266   426518 
 6138000   0.96979183   -3.2187111   -1.7212159  0.066672603   -3.2187111    1.4974952   426509 
 6139000   0.97025477   -3.2189908   -1.7206472  0.065391205   -3.2189908    1.4983436   426471 
 6140000   0.96808182   -3.2165478   -1.7216544  0.067730344   -3.2165478    1.4948933   426498 
 6141000   0.96982852   -3.2195178   -1.7219905  0.059957614   -3.2195178    1.4975273   426516 
 6142000   0.97034579   -3.2195271   -1.7212257  0.058343161   -3.2195271    1.4983015   426523 
 6143000   0.96906526   -3.2184786   -1.7220316  0.070476602   -3.2184786     1.496447   426488 
 6144000   0.96991759   -3.2207421   -1.7229614  0.063478724   -3.2207421    1.4977807   426483 
 6145000   0.96988001   -3.2193771   -1.7215665   0.06365988   -3.2193771    1.4978105   426458 
 6146000   0.96968625   -3.2178046   -1.7203705  0.065346589   -3.2178046     1.497434   426480 
 6147000   0.96890464    -3.217531   -1.7214513  0.067761603    -3.217531    1.4960797   426522 
 6148000   0.97003052   -3.2193314   -1.7215062  0.063880426   -3.2193314    1.4978252   426520 
 6149000   0.97053973   -3.2197738   -1.7211834  0.065695591   -3.2197738    1.4985904   426526 
 6150000   0.97237766   -3.2222026   -1.7207285  0.070096383   -3.2222026    1.5014741   426513 
 6151000   0.97086966   -3.2212139   -1.7220192  0.067790178   -3.2212139    1.4991947   426499 
 6152000   0.97069809   -3.2193327   -1.7205013    0.0650155   -3.2193327    1.4988314   426527 
 6153000   0.97163842   -3.2214016   -1.7211464  0.060435481   -3.2214016    1.5002552   426535 
 6154000   0.97228766   -3.2207644   -1.7195877  0.063938251   -3.2207644    1.5011767   426558 
 6155000   0.97106463   -3.2200787   -1.7206814  0.068404687   -3.2200787    1.4993974   426527 
 6156000   0.96902741   -3.2179772   -1.7216764  0.067704108   -3.2179772    1.4963009   426513 
 6157000    0.9701337   -3.2190424   -1.7210298  0.063315548   -3.2190424    1.4980126   426512 
 6158000   0.97068796   -3.2200096   -1.7211446  0.062256545   -3.2200096    1.4988649   426513 
 6159000   0.96982048   -3.2185163   -1.7210259  0.064477147   -3.2185163    1.4974903   426523 
 6160000   0.97058654   -3.2197634   -1.7210796   0.06661959   -3.2197634    1.4986837   426520 
 6161000   0.97172962   -3.2217744   -1.7213784   0.06541073   -3.2217744     1.500396   426535 
 6162000   0.97007292   -3.2202575   -1.7224616  0.061558864   -3.2202575    1.4977959   426547 
 6163000   0.96994911   -3.2210473   -1.7233478  0.058113813   -3.2210473    1.4976995   426520 
 6164000   0.96941464   -3.2198427   -1.7229439  0.062282849   -3.2198427    1.4968988   426513 
 6165000   0.97024499   -3.2219024   -1.7236793  0.057617687   -3.2219024    1.4982231   426501 
 6166000   0.97069379   -3.2190864   -1.7202863  0.065837644   -3.2190864    1.4988002   426534 
 6167000   0.97139373   -3.2212951    -1.721365  0.064991795   -3.2212951    1.4999301   426520 
 6168000   0.97079473   -3.2196512   -1.7206179  0.061370369   -3.2196512    1.4990333   426512 
 6169000   0.97081699   -3.2184142   -1.7194871  0.066357003   -3.2184142    1.4989271   426552 
 6170000   0.97077353   -3.2182566   -1.7193439  0.066056795   -3.2182566    1.4989127   426537 
 6171000    0.9716119   -3.2198379   -1.7196201  0.068424374   -3.2198379    1.5002178   426534 
 6172000   0.97126555   -3.2200913   -1.7202958  0.061804487   -3.2200913    1.4997955   426502 
 6173000   0.97151107   -3.2195585   -1.7194613  0.063003745   -3.2195585    1.5000972   426524 
 6174000   0.97036146   -3.2174221   -1.7189911  0.068556002   -3.2174221    1.4984311   426493 
 6175000    0.9723993   -3.2204537   -1.7189005  0.061233933   -3.2204537    1.5015532   426500 
 6176000   0.96949563   -3.2185856   -1.7216074  0.060676237   -3.2185856    1.4969782   426526 
 6177000   0.96857425   -3.2169927   -1.7214127  0.061251385   -3.2169927    1.4955801   426519 
 6178000   0.96897249   -3.2167517   -1.7205111  0.056049801   -3.2167517    1.4962406   426506 
 6179000   0.96891986   -3.2172511    -1.721169  0.057680271   -3.2172511    1.4960822   426528 
 6180000   0.96771738   -3.2146931   -1.7204571  0.060166704   -3.2146931     1.494236   426525 
 6181000   0.96981042   -3.2179008   -1.7203207  0.061788425   -3.2179008    1.4975801   426493 
 6182000   0.96861125    -3.215563   -1.7198627  0.060972562    -3.215563    1.4957003   426501 
 6183000   0.96916085   -3.2151215   -1.7185725  0.059619409   -3.2151215     1.496549   426501 
 6184000   0.97084303   -3.2162834   -1.7170877  0.061323481   -3.2162834    1.4991958   426487 
 6185000   0.97073023    -3.215268   -1.7162921  0.065012351    -3.215268    1.4989759   426500 
 6186000   0.97163358   -3.2167713   -1.7164251  0.065178773   -3.2167713    1.5003462   426507 
 6187000   0.97327729   -3.2179255   -1.7151222  0.065170938   -3.2179255    1.5028033   426530 
 6188000   0.97156272   -3.2164627   -1.7162822  0.069690845   -3.2164627    1.5001805   426523 
 6189000   0.97058452   -3.2165528   -1.7178652  0.065942089   -3.2165528    1.4986876   426518 
 6190000   0.97199709   -3.2180616   -1.7171119  0.057368548   -3.2180616    1.5009498   426495 
 6191000   0.97218179   -3.2191302   -1.7179093  0.062388452   -3.2191302    1.5012209   426499 
 6192000   0.97047851   -3.2167225   -1.7182021   0.06351244   -3.2167225    1.4985204   426519 
 6193000   0.97135031    -3.217892   -1.7180044  0.062172051    -3.217892    1.4998877   426513 
 6194000   0.97086622   -3.2159781   -1.7168203  0.065998165   -3.2159781    1.4991578   426508 
 6195000   0.97115759     -3.21699   -1.7173437  0.064829659     -3.21699    1.4996464   426497 
 6196000   0.97181332   -3.2187444   -1.7182508  0.062200675   -3.2187444    1.5004936   426544 
 6197000    0.9703137   -3.2150382   -1.7168671  0.067402502   -3.2150382    1.4981711   426546 
 6198000   0.97099202     -3.21581   -1.7166091   0.06418549     -3.21581    1.4992009   426551 
 6199000   0.97260522   -3.2181724   -1.7165089  0.067665427   -3.2181724    1.5016635   426559 
 6200000   0.97179743   -3.2167353   -1.7162803  0.064980602   -3.2167353     1.500455   426548 
 6201000   0.97131344   -3.2165492   -1.7167923  0.063108074   -3.2165492    1.4997569   426534 
 6202000   0.97018961   -3.2151412   -1.7171511  0.067425378   -3.2151412    1.4979901   426543 
 6203000    0.9718518   -3.2176192   -1.7170557  0.063613645   -3.2176192    1.5005635   426541 
 6204000   0.97079856    -3.216247   -1.7174678  0.066346621    -3.216247    1.4987792   426586 
 6205000    0.9715682   -3.2169481   -1.7170194  0.059293377   -3.2169481    1.4999287   426597 
 6206000   0.96966508   -3.2149303   -1.7179571  0.060368129   -3.2149303    1.4969731   426602 
 6207000   0.96967683   -3.2167776   -1.7197933  0.059519588   -3.2167776    1.4969842   426604 
 6208000   0.97004274   -3.2171123   -1.7194473  0.057709455   -3.2171123     1.497665   426571 
 6209000   0.96952489   -3.2156807   -1.7186012  0.061044974   -3.2156807    1.4970795   426510 
 6210000   0.97077354   -3.2166661   -1.7175846  0.062625587   -3.2166661    1.4990814   426489 
 6211000   0.97094145   -3.2151492   -1.7158893  0.065354261   -3.2151492    1.4992599   426512 
 6212000   0.97145924    -3.215772   -1.7157301  0.063849252    -3.215772    1.5000418   426517 
 6213000   0.97162553   -3.2176357   -1.7172632  0.065776548   -3.2176357    1.5003725   426496 
 6214000   0.97209742   -3.2169393   -1.7158487  0.060855078   -3.2169393    1.5010906   426499 
 6215000    0.9725176   -3.2189603   -1.7173089  0.061094302   -3.2189603    1.5016514   426524 
 6216000   0.97093182   -3.2169425   -1.7177502  0.061951188   -3.2169425    1.4991923   426527 
 6217000   0.97245422   -3.2181674   -1.7166561  0.063109081   -3.2181674    1.5015113   426536 
 6218000   0.97268305   -3.2196863   -1.7178886  0.060441249   -3.2196863    1.5017977   426555 
 6219000   0.96913262   -3.2116104   -1.7154733  0.066579062   -3.2116104    1.4961371   426606 
 6220000   0.97133782   -3.2152197   -1.7156361  0.062790271   -3.2152197    1.4995836   426594 
 6221000   0.97045419   -3.2149742   -1.7168004  0.061768711   -3.2149742    1.4981738   426607 
 6222000   0.97134176   -3.2158443   -1.7162441  0.069066022   -3.2158443    1.4996003   426591 
 6223000    0.9717095   -3.2183185    -1.718031  0.063921707   -3.2183185    1.5002876   426557 
 6224000   0.97153117   -3.2191588    -1.718925  0.062161301   -3.2191588    1.5002338   426494 
 6225000   0.97173637   -3.2191484   -1.7187208  0.061898437   -3.2191484    1.5004275   426529 
 6226000   0.97179687   -3.2188069   -1.7181839  0.065166753   -3.2188069     1.500623   426500 
 6227000   0.96997899   -3.2164999   -1.7186946  0.061420602   -3.2164999    1.4978053   426503 
 6228000    0.9686044   -3.2143341   -1.7187636  0.062348453   -3.2143341    1.4955705   426535 
 6229000    0.9687904   -3.2147914   -1.7187899  0.063181918   -3.2147914    1.4960015   426494 
 6230000    0.9695057   -3.2163952   -1.7192681  0.063539003   -3.2163952    1.4971271   426488 
 6231000   0.96884585   -3.2165414   -1.7203105  0.063296737   -3.2165414     1.496231   426453 
 6232000   0.97111254    -3.220762   -1.7210656  0.065228041    -3.220762    1.4996964   426463 
 6233000   0.96982978   -3.2188449   -1.7210136  0.066637132   -3.2188449    1.4978313   426430 
 6234000   0.97070886   -3.2204391   -1.7212044  0.061355369   -3.2204391    1.4992347   426417 
 6235000   0.97127329     -3.22055   -1.7203134  0.062711425     -3.22055    1.5002366   426380 
 6236000   0.97162647   -3.2187173   -1.7179387  0.063182729   -3.2187173    1.5007786   426381 
 6237000   0.97218887   -3.2181457   -1.7166252  0.069322299   -3.2181457    1.5015205   426417 
 6238000   0.97251777   -3.2188495   -1.7167471  0.065129751   -3.2188495    1.5021025   426396 
 6239000   0.97143756   -3.2185032     -1.71802  0.067137709   -3.2185032    1.5004833   426382 
 6240000   0.97415933   -3.2222651   -1.7173942  0.065823578   -3.2222651    1.5048709   426330 
 6241000   0.97342232   -3.2205839   -1.7169045  0.064017781   -3.2205839    1.5036794   426345 
 6242000   0.97284083   -3.2214645   -1.7186305  0.064173052   -3.2214645    1.5028341   426330 
 6243000   0.97101216   -3.2189757   -1.7189173  0.065922052   -3.2189757    1.5000584   426316 
 6244000   0.97019915   -3.2185768     -1.71969  0.064460139   -3.2185768    1.4988868   426292 
 6245000   0.97013714   -3.2188246   -1.7200898  0.063262293   -3.2188246    1.4987348   426308 
 6246000    0.9694996   -3.2178965   -1.7200377  0.068556229   -3.2178965    1.4978588   426277 
 6247000   0.96941492   -3.2182161   -1.7205233  0.058925063   -3.2182161    1.4976928   426287 
 6248000   0.96802231   -3.2179321   -1.7224539  0.059575393   -3.2179321    1.4954782   426305 
 6249000   0.96805328   -3.2176438   -1.7220511    0.0598092   -3.2176438    1.4955926   426286 
 6250000   0.96984121   -3.2188157   -1.7205346  0.053795182   -3.2188157    1.4982811   426307 
 6251000   0.96912487   -3.2183172   -1.7211708  0.064166724   -3.2183172    1.4971464   426315 
 6252000   0.96874708   -3.2163034   -1.7196564  0.058251909   -3.2163034     1.496647   426291 
 6253000   0.96847602   -3.2158478   -1.7195739  0.063878791   -3.2158478    1.4962738   426278 
 6254000    0.9681632   -3.2146987   -1.7189467  0.063313393   -3.2146987     1.495752   426289 
 6255000   0.96875925   -3.2161353   -1.7194134  0.056542649   -3.2161353     1.496722   426275 
 6256000   0.96974096   -3.2175508   -1.7193191  0.058713902   -3.2175508    1.4982317   426277 
 6257000   0.96985726   -3.2169644   -1.7185742  0.060355488   -3.2169644    1.4983902   426283 
 6258000   0.96968077   -3.2177302   -1.7193279  0.068624909   -3.2177302    1.4984023   426202 
 6259000    0.9710197   -3.2201876   -1.7196459  0.061377019   -3.2201876    1.5005417   426182 
 6260000   0.97048677   -3.2195624   -1.7197668  0.062046605   -3.2195624    1.4997956   426160 
 6261000   0.96874565   -3.2186511   -1.7215462  0.064315484   -3.2186511    1.4971048   426160 
 6262000   0.96999292   -3.2201591   -1.7212111  0.062927813   -3.2201591     1.498948   426184 
 6263000   0.97128784   -3.2220968   -1.7211548  0.059848142   -3.2220968     1.500942   426186 
 6264000   0.97100934    -3.220583     -1.72017  0.063253966    -3.220583     1.500413   426214 
 6265000   0.96903825   -3.2186386   -1.7213275  0.067372858   -3.2186386    1.4973111   426230 
 6266000   0.96985994   -3.2191556   -1.7205151  0.059981945   -3.2191556    1.4986405   426213 
 6267000   0.97064985   -3.2207957   -1.7208642  0.067198486   -3.2207957    1.4999315   426193 
 6268000   0.96934913   -3.2212476   -1.7232067  0.060606783   -3.2212476     1.498041   426159 
 6269000    0.9697321   -3.2230402    -1.724323  0.068422235   -3.2230402    1.4987172   426135 
 6270000   0.96956289   -3.2217664    -1.723381  0.064427849   -3.2217664    1.4983854   426155 
 6271000   0.97081039   -3.2234685   -1.7231024  0.064996824   -3.2234685    1.5003661   426140 
 6272000   0.97166316   -3.2233908   -1.7215693  0.067812478   -3.2233908    1.5018215   426101 
 6273000   0.97035769   -3.2208193      -1.7211  0.067937176   -3.2208193    1.4997193   426125 
 6274000   0.97126513   -3.2227275   -1.7217115  0.061576913   -3.2227275    1.5010161   426155 
 6275000   0.96974001   -3.2205309    -1.721819  0.064948739   -3.2205309    1.4987119   426140 
 6276000    0.9712378   -3.2226774   -1.7217846  0.062152908   -3.2226774    1.5008928   426178 
 6277000   0.96981117   -3.2204111   -1.7216948  0.065181201   -3.2204111    1.4987163   426170 
 6278000   0.97133096   -3.2224182   -1.7213779  0.063130592   -3.2224182    1.5010403   426177 
 6279000   0.97128987   -3.2218573   -1.7208946  0.063714644   -3.2218573    1.5009627   426181 
 6280000   0.97109367    -3.220854   -1.7202614  0.066440238    -3.220854    1.5005926   426200 
 6281000   0.97111781   -3.2217878   -1.7212459  0.063303296   -3.2217878    1.5005419   426225 
 6282000   0.96906422   -3.2196143   -1.7221823  0.060062397   -3.2196143     1.497432   426207 
 6283000   0.96886687   -3.2185322   -1.7213665  0.064047349   -3.2185322    1.4971657   426196 
 6284000   0.96954768    -3.219531   -1.7212289  0.066066484    -3.219531    1.4983021   426172 
 6285000   0.96826575   -3.2173879   -1.7212283  0.060659121   -3.2173879    1.4961596   426218 
 6286000   0.96845126    -3.217079   -1.7206187  0.063666711    -3.217079    1.4964603   426214 
 6287000   0.96935465   -3.2179942   -1.7202118  0.059167671   -3.2179942    1.4977824   426235 
 6288000   0.97106961   -3.2184235   -1.7181426  0.066068501   -3.2184235    1.5002809   426278 
 6289000   0.96998619   -3.2175676   -1.7189712  0.064525756   -3.2175676    1.4985965   426281 
 6290000   0.97023269   -3.2183998   -1.7194225  0.058335384   -3.2183998    1.4989773   426281 
 6291000   0.97021892   -3.2180667   -1.7192056  0.062351575   -3.2180667    1.4988611   426308 
 6292000   0.97080805   -3.2185752   -1.7187371  0.064174313   -3.2185752    1.4998381   426289 
 6293000    0.9707143   -3.2181934   -1.7185318  0.065039108   -3.2181934    1.4996616   426298 
 6294000   0.96855843   -3.2173875   -1.7211057  0.063886231   -3.2173875    1.4962818   426312 
 6295000   0.96914217   -3.2172073   -1.7200553  0.063159917   -3.2172073     1.497152   426321 
 6296000   0.97097837   -3.2193258   -1.7193653  0.067392645   -3.2193258    1.4999605   426329 
 6297000   0.97108466   -3.2192172   -1.7192051  0.058471132   -3.2192172    1.5000121   426361 
 6298000   0.96852378   -3.2157669   -1.7198509  0.061734101   -3.2157669     1.495916   426401 
 6299000    0.9699661   -3.2166472   -1.7184297  0.064271698   -3.2166472    1.4982175   426380 
 6300000   0.96933114   -3.2152522   -1.7181664  0.061923149   -3.2152522    1.4970858   426423 
 6301000   0.97123083   -3.2170409   -1.7172252  0.060012845   -3.2170409    1.4998157   426481 
 6302000   0.97151623   -3.2176949   -1.7173329  0.061990429   -3.2176949     1.500362   426451 
 6303000   0.96961443   -3.2153414   -1.7177724  0.067460496   -3.2153414    1.4975689   426410 
 6304000   0.96916235   -3.2159962    -1.719122  0.062223799   -3.2159962    1.4968742   426409 
 6305000   0.96861288   -3.2157481   -1.7197646  0.067376985   -3.2157481    1.4959834   426421 
 6306000   0.97043963   -3.2180348    -1.719107  0.062658616   -3.2180348    1.4989278   426386 
 6307000   0.97013421   -3.2183535   -1.7199537  0.062566206   -3.2183535    1.4983998   426402 
 6308000   0.97054726   -3.2181239    -1.718963  0.063259891   -3.2181239    1.4991609   426367 
 6309000    0.9682801    -3.215637   -1.7199535  0.064008444    -3.215637    1.4956834   426360 
 6310000   0.96998545   -3.2167816   -1.7184182  0.066093291   -3.2167816    1.4983633   426347 
 6311000   0.97087371   -3.2176991   -1.7179566  0.060760811   -3.2176991    1.4997425   426345 
 6312000   0.96977548    -3.217026   -1.7189835  0.061791761    -3.217026    1.4980425   426346 
 6313000   0.97014373   -3.2190705   -1.7204662  0.062864123   -3.2190705    1.4986043   426348 
 6314000   0.96842083   -3.2170851   -1.7211457  0.064211666   -3.2170851    1.4959394   426349 
 6315000    0.9691269   -3.2184175   -1.7212715  0.064906774   -3.2184175     1.497146   426316 
 6316000   0.97044534   -3.2191954   -1.7199282  0.063847674   -3.2191954    1.4992672   426292 
 6317000   0.96883031    -3.217422   -1.7206289  0.061435293    -3.217422    1.4967931   426286 
 6318000   0.97050522   -3.2196329   -1.7203541   0.06711704   -3.2196329    1.4992788   426315 
 6319000   0.97024603   -3.2196879   -1.7206899  0.063236385   -3.2196879    1.4989979   426281 
 6320000   0.97110713    -3.222135   -1.7215884  0.054612074    -3.222135    1.5005465   426219 
 6321000   0.97013068   -3.2217405   -1.7226324   0.06366911   -3.2217405    1.4991081   426199 
 6322000   0.97024969   -3.2202244   -1.7208832  0.063072815   -3.2202244    1.4993412   426185 
 6323000   0.96931205   -3.2201048   -1.7221563  0.067207902   -3.2201048    1.4979485   426169 
 6324000   0.96950994   -3.2207543   -1.7224121  0.062799271   -3.2207543    1.4983422   426144 
 6325000   0.97168859   -3.2218317   -1.7202211  0.065050653   -3.2218317    1.5016106   426172 
 6326000   0.96884826   -3.2192578   -1.7220155  0.064892906   -3.2192578    1.4972423   426166 
 6327000     0.968387    -3.219452   -1.7229014  0.060486243    -3.219452    1.4965506   426160 
 6328000   0.96933731    -3.219625   -1.7216023  0.065149705    -3.219625    1.4980227   426159 
 6329000   0.96868332   -3.2174433   -1.7203259  0.065719671   -3.2174433    1.4971174   426129 
 6330000    0.9699015   -3.2199561   -1.7208399  0.061669975   -3.2199561    1.4991162   426096 
 6331000    0.9690898   -3.2185004   -1.7206072  0.064698969   -3.2185004    1.4978933   426087 
 6332000   0.96817128   -3.2168384   -1.7203895  0.063890134   -3.2168384     1.496449   426094 
 6333000    0.9687051   -3.2171406   -1.7200633  0.063870614   -3.2171406    1.4970773   426150 
 6334000   0.96819198   -3.2161044   -1.7198868  0.062052688   -3.2161044    1.4962176   426169 
 6335000    0.9688279   -3.2172141   -1.7199189  0.059816312   -3.2172141    1.4972952   426142 
 6336000   0.96924659   -3.2168503   -1.7190381  0.064414671   -3.2168503    1.4978122   426179 
 6337000   0.96910148   -3.2170773   -1.7193945  0.058210777   -3.2170773    1.4976829   426152 
 6338000   0.96879612   -3.2169126   -1.7197122  0.061443519   -3.2169126    1.4972004   426155 
 6339000   0.96842271    -3.216629   -1.7200162  0.061340529    -3.216629    1.4966128   426158 
 6340000   0.96850196   -3.2170945   -1.7202152  0.056649789   -3.2170945    1.4968793   426117 
 6341000   0.96639127    -3.214321   -1.7206338  0.060217027    -3.214321    1.4936872   426097 
 6342000   0.96771355   -3.2161277   -1.7204073   0.05885789   -3.2161277    1.4957204   426100 
 6343000   0.96855859   -3.2157994   -1.7187166  0.061036253   -3.2157994    1.4970827   426084 
 6344000   0.96794822   -3.2153185   -1.7191089  0.064603503   -3.2153185    1.4962095   426064 
 6345000   0.96863758   -3.2167348   -1.7194386  0.059347647   -3.2167348    1.4972962   426058 
 6346000   0.96929741   -3.2178291   -1.7194672  0.062918245   -3.2178291    1.4983619   426045 
 6347000   0.96984902   -3.2174122   -1.7182223  0.066541029   -3.2174122    1.4991899   426052 
 6348000   0.96971299   -3.2176937   -1.7187352  0.062101692   -3.2176937    1.4989585   426058 
 6349000   0.96780893   -3.2141458   -1.7182078  0.062478798   -3.2141458     1.495938   426080 
 6350000   0.96772022   -3.2148879    -1.719108  0.068778274   -3.2148879    1.4957799   426086 
 6351000   0.96913006   -3.2168386   -1.7189113  0.057499802   -3.2168386    1.4979274   426095 
 6352000   0.96957536    -3.215212   -1.7165506  0.057693114    -3.215212    1.4986614   426082 
 6353000   0.96886883   -3.2156839    -1.718104  0.063309723   -3.2156839    1.4975798   426079 
 6354000   0.96849039   -3.2155925    -1.718573  0.062875775   -3.2155925    1.4970195   426072 
 6355000   0.96893777   -3.2152905   -1.7174951  0.060438186   -3.2152905    1.4977954   426048 
 6356000   0.96928379   -3.2163101   -1.7180044  0.063163411   -3.2163101    1.4983056   426055 
 6357000   0.97042341   -3.2170822   -1.7169833  0.060832755   -3.2170822    1.5000989   426046 
 6358000   0.97019408   -3.2167051   -1.7170029  0.065415707   -3.2167051    1.4997022   426058 
 6359000   0.97060399   -3.2178253    -1.717574  0.059413704   -3.2178253    1.5002513   426082 
 6360000   0.97101163   -3.2183046   -1.7174373  0.061429129   -3.2183046    1.5008673   426086 
 6361000   0.96983351   -3.2167195   -1.7176274  0.061394419   -3.2167195    1.4990921   426073 
 6362000    0.9712876   -3.2182673   -1.7169664  0.062685612   -3.2182673    1.5013009   426084 
 6363000   0.97364801   -3.2219861    -1.717065  0.063257007   -3.2219861    1.5049211   426092 
 6364000   0.97072188    -3.218043   -1.7176552  0.063270039    -3.218043    1.5003878   426095 
 6365000   0.97060009   -3.2182717   -1.7181602  0.065267568   -3.2182717    1.5001115   426120 
 6366000   0.97041579   -3.2186422   -1.7187311  0.059513793   -3.2186422    1.4999111   426096 
 6367000   0.96915559   -3.2173286   -1.7194497   0.06124709   -3.2173286     1.497879   426120 
 6368000   0.96915138   -3.2179662   -1.7201007   0.05988199   -3.2179662    1.4978654   426122 
 6369000   0.96959284   -3.2193702   -1.7209315  0.061532145   -3.2193702    1.4984387   426153 
 6370000   0.96902904   -3.2192497   -1.7217772  0.058894343   -3.2192497    1.4974725   426180 
 6371000   0.96961184   -3.2191227    -1.720841  0.065825628   -3.2191227    1.4982817   426206 
 6372000   0.96756774   -3.2165367   -1.7213855  0.065532247   -3.2165367    1.4951512   426198 
 6373000   0.96684148   -3.2161198   -1.7220698  0.060282265   -3.2161198    1.4940499   426192 
 6374000   0.96943451   -3.2206853   -1.7225898  0.061983054   -3.2206853    1.4980956   426181 
 6375000   0.97037337   -3.2215536   -1.7221584  0.063608396   -3.2215536    1.4993952   426224 
 6376000   0.97017517   -3.2212864    -1.722187  0.063970151   -3.2212864    1.4990994   426221 
 6377000   0.97131434   -3.2218457   -1.7211128  0.062166833   -3.2218457    1.5007329   426257 
 6378000    0.9709764   -3.2225096   -1.7222073  0.072818209   -3.2225096    1.5003023   426231 
 6379000   0.97177569   -3.2225016   -1.7209572  0.065903364   -3.2225016    1.5015444   426229 
 6380000   0.97056722   -3.2219683   -1.7222877  0.067068286   -3.2219683    1.4996806   426228 
 6381000   0.97093839   -3.2234998   -1.7231964  0.062670701   -3.2234998    1.5003034   426214 
 6382000   0.97232068   -3.2243544   -1.7219961  0.064441653   -3.2243544    1.5023583   426237 
 6383000   0.97275775   -3.2260227   -1.7230173  0.059914031   -3.2260227    1.5030054   426245 
 6384000   0.97164946   -3.2250939   -1.7238186  0.068013782   -3.2250939    1.5012754   426250 
 6385000   0.97256097   -3.2264345   -1.7238671  0.068511661   -3.2264345    1.5025674   426283 
 6386000   0.96987098   -3.2236815   -1.7252032  0.063881809   -3.2236815    1.4984782   426264 
 6387000   0.96912067    -3.221958   -1.7246355  0.064092832    -3.221958    1.4973225   426263 
 6388000   0.96875706   -3.2210227   -1.7243603  0.063468843   -3.2210227    1.4966624   426291 
 6389000   0.96944451    -3.222555   -1.7248059  0.067931075    -3.222555    1.4977491   426284 
 6390000   0.97059409   -3.2242628   -1.7247553  0.063962308   -3.2242628    1.4995075   426289 
 6391000   0.97182471   -3.2244169   -1.7231807  0.064878179   -3.2244169    1.5012362   426338 
 6392000   0.97158612   -3.2228773    -1.721985   0.07103587   -3.2228773    1.5008923   426331 
 6393000   0.97254098   -3.2236842   -1.7212922   0.06352602   -3.2236842     1.502392   426324 
 6394000   0.97104133    -3.221991   -1.7218699  0.061836039    -3.221991    1.5001211   426311 
 6395000   0.97056055   -3.2204153   -1.7211284  0.065970333   -3.2204153    1.4992869   426337 
 6396000   0.97102274   -3.2197835   -1.7198952  0.064414408   -3.2197835    1.4998883   426369 
 6397000   0.97097779   -3.2189421    -1.719088   0.06717702   -3.2189421     1.499854   426359 
 6398000   0.96894121   -3.2157179   -1.7191081   0.06895133   -3.2157179    1.4966099   426387 
 6399000   0.97065932   -3.2180783   -1.7188358  0.057922167   -3.2180783    1.4992425   426393 
 6400000   0.96922778   -3.2151774   -1.7181811  0.062542872   -3.2151774    1.4969963   426403 
 6401000   0.96993641   -3.2160101    -1.717842  0.059085425   -3.2160101    1.4981681   426381 
 6402000   0.96973914   -3.2140647   -1.7161731   0.06295626   -3.2140647    1.4978915   426373 
 6403000   0.97121009   -3.2149302   -1.7146646   0.06316557   -3.2149302    1.5002656   426344 
 6404000   0.97059882   -3.2139141   -1.7147299  0.065103307   -3.2139141    1.4991842   426383 
 6405000   0.97123065   -3.2143126   -1.7143037  0.057745281   -3.2143126    1.5000089   426426 
 6406000   0.97113068   -3.2134622   -1.7136569  0.061869319   -3.2134622    1.4998053   426440 
 6407000   0.97156841   -3.2135348    -1.712948  0.062905571   -3.2135348    1.5005869   426410 
 6408000    0.9710458   -3.2129929   -1.7133046  0.060719575   -3.2129929    1.4996882   426436 
 6409000   0.97097634   -3.2127233   -1.7131212  0.060066539   -3.2127233    1.4996021   426430 
 6410000   0.96847506   -3.2092776    -1.713521  0.062694694   -3.2092776    1.4957566   426425 
 6411000   0.96928372   -3.2106427    -1.713581  0.057764095   -3.2106427    1.4970617   426409 
 6412000   0.96971772   -3.2120497   -1.7141878  0.053873519   -3.2120497    1.4978619   426372 
 6413000   0.96847017   -3.2105766   -1.7144943  0.060087315   -3.2105766    1.4960823   426330 
 6414000   0.96966092   -3.2112465   -1.7133915  0.064278192   -3.2112465     1.497855   426349 
 6415000   0.96992729   -3.2127807   -1.7144193  0.060969063   -3.2127807    1.4983614   426322 
 6416000   0.97019206   -3.2139691   -1.7152022  0.064832912   -3.2139691    1.4987669   426323 
 6417000   0.96902348   -3.2110082   -1.7141028  0.063042884   -3.2110082    1.4969054   426339 
 6418000   0.97074756   -3.2143435   -1.7148803  0.064708413   -3.2143435    1.4994632   426369 
 6419000    0.9704913   -3.2137461   -1.7146577  0.064678718   -3.2137461    1.4990885   426363 
 6420000   0.97054828   -3.2132093   -1.7140187  0.061489809   -3.2132093    1.4991906   426359 
 6421000   0.96967549   -3.2114209   -1.7135223  0.062419996   -3.2114209    1.4978986   426343 
 6422000   0.97230511   -3.2147189   -1.7128251  0.069219376   -3.2147189    1.5018937   426362 
 6423000   0.97221815   -3.2147586   -1.7130379  0.062544362   -3.2147586    1.5017207   426373 
 6424000    0.9718433   -3.2156686   -1.7144917  0.064175569   -3.2156686    1.5011769   426363 
 6425000   0.97139432   -3.2157972   -1.7154616  0.061846402   -3.2157972    1.5003356   426405 
 6426000   0.97168229    -3.216394    -1.715589  0.063941809    -3.216394     1.500805   426398 
 6427000   0.97131461    -3.217075   -1.7169962  0.065586399    -3.217075    1.5000788   426443 
 6428000   0.97150717   -3.2165471   -1.7161287  0.067713228   -3.2165471    1.5004184   426431 
 6429000   0.97147109   -3.2183847   -1.7180432  0.066693568   -3.2183847    1.5003415   426437 
 6430000   0.97180613   -3.2183879   -1.7176134  0.059370408   -3.2183879    1.5007745   426461 
 6431000   0.97131609   -3.2176456   -1.7175434  0.068050617   -3.2176456    1.5001022   426437 
 6432000   0.97336399   -3.2202254   -1.7169323  0.063151071   -3.2202254    1.5032931   426429 
 6433000   0.96976498   -3.2159659   -1.7181223  0.070449483   -3.2159659    1.4978436   426398 
 6434000   0.97169507    -3.219497    -1.718711  0.066941486    -3.219497     1.500786   426409 
 6435000   0.97209511   -3.2194901   -1.7180897  0.067245515   -3.2194901    1.5014003   426410 
 6436000   0.97056909   -3.2176164   -1.7185801  0.066312864   -3.2176164    1.4990364   426412 
 6437000   0.97236304   -3.2187733   -1.7171141  0.070211816   -3.2187733    1.5016592   426454 
 6438000   0.97228256   -3.2191524   -1.7174836  0.062786528   -3.2191524    1.5016687   426416 
 6439000   0.97249837   -3.2196683   -1.7177015  0.063487989   -3.2196683    1.5019668   426426 
 6440000   0.97252793   -3.2193525   -1.7173365  0.068249773   -3.2193525     1.502016   426425 
 6441000   0.97071166   -3.2172006   -1.7180566  0.074860651   -3.2172006    1.4991441   426444 
 6442000   0.97277104     -3.21917   -1.7169265  0.061781791     -3.21917    1.5022435   426467 
 6443000   0.97102835   -3.2170922    -1.717343  0.064926086   -3.2170922    1.4997492   426411 
 6444000    0.9718315   -3.2174734   -1.7164591  0.065976263   -3.2174734    1.5010143   426404 
 6445000   0.97139581   -3.2163331   -1.7159812  0.066018057   -3.2163331    1.5003519   426401 
 6446000   0.96900079   -3.2146469   -1.7179485  0.067541343   -3.2146469    1.4966984   426388 
 6447000    0.9685434   -3.2134448   -1.7173196  0.066033118   -3.2134448    1.4961252   426350 
 6448000   0.96823552   -3.2120405     -1.71644  0.063188739   -3.2120405    1.4956005   426364 
 6449000   0.96903689   -3.2122359   -1.7154817  0.062200405   -3.2122359    1.4967541   426388 
 6450000   0.97061424   -3.2161974   -1.7169401  0.060297518   -3.2161974    1.4992573   426369 
 6451000   0.97052317   -3.2146267   -1.7154503  0.063685857   -3.2146267    1.4991764   426352 
 6452000   0.96896965   -3.2137288   -1.7169241  0.067351772   -3.2137288    1.4968047   426344 
 6453000   0.97064928   -3.2162521   -1.7168563  0.062012774   -3.2162521    1.4993958   426345 
 6454000   0.96875729   -3.2141287   -1.7175888  0.064570946   -3.2141287    1.4965399   426326 
 6455000   0.96855808   -3.2133348   -1.7171798  0.059624885   -3.2133348    1.4961549   426348 
 6456000    0.9677843   -3.2122038   -1.7171179  0.057683744   -3.2122038    1.4950859   426312 
 6457000     0.970481   -3.2160609   -1.7168055  0.060862702   -3.2160609    1.4992554   426311 
 6458000    0.9694504   -3.2132634   -1.7155615  0.063116143   -3.2132634     1.497702   426300 
 6459000   0.96889743   -3.2127272   -1.7160024  0.056302937   -3.2127272    1.4967248   426335 
 6460000   0.96892361   -3.2140084   -1.7171132  0.059724924   -3.2140084    1.4968951   426298 
 6461000   0.96943599    -3.213158   -1.7155697  0.065546056    -3.213158    1.4975883   426326 
 6462000    0.9693526   -3.2124444   -1.7151254  0.062571483   -3.2124444     1.497319   426366 
 6463000   0.97029824   -3.2133132   -1.7145721  0.064053043   -3.2133132    1.4987411   426377 
 6464000   0.97179625    -3.215102   -1.7140612  0.061487897    -3.215102    1.5010408   426381 
 6465000   0.97231393   -3.2164982      -1.7147   0.06440136   -3.2164982    1.5017982   426393 
 6466000   0.97157824   -3.2160641   -1.7154163  0.061546979   -3.2160641    1.5006478   426397 
 6467000   0.97183883   -3.2158553   -1.7147768  0.062991371   -3.2158553    1.5010784   426389 
 6468000   0.97150083   -3.2140586    -1.713629    0.0622298   -3.2140586    1.5004297   426425 
 6469000   0.97004062    -3.212848   -1.7145681    0.0693053    -3.212848    1.4982799   426395 
 6470000    0.9720401   -3.2167251   -1.7153146   0.06060304   -3.2167251    1.5014104   426383 
 6471000   0.97130262   -3.2163149   -1.7161351  0.065756987   -3.2163149    1.5001799   426409 
 6472000   0.97136023   -3.2163278    -1.716059  0.065617597   -3.2163278    1.5002688   426409 
 6473000   0.97060519   -3.2156035   -1.7164903  0.067150095   -3.2156035    1.4991132   426406 
 6474000   0.96998851   -3.2151806   -1.7170128  0.064852673   -3.2151806    1.4981678   426404 
 6475000   0.96907612   -3.2151189   -1.7183919  0.065166438   -3.2151189     1.496727   426413 
 6476000   0.97014923   -3.2172815   -1.7186933  0.066041968   -3.2172815    1.4985882   426355 
 6477000   0.96964145   -3.2174715   -1.7196326  0.064403306   -3.2174715     1.497839   426345 
 6478000    0.9690898   -3.2169834   -1.7198948  0.061812315   -3.2169834    1.4970887   426316 
 6479000    0.9672028   -3.2158258   -1.7216382  0.066949396   -3.2158258    1.4941876   426312 
 6480000    0.9683036   -3.2175409   -1.7216528  0.064008311   -3.2175409    1.4958882   426312 
 6481000   0.96929979   -3.2178751   -1.7206692  0.063984897   -3.2178751    1.4972059   426375 
 6482000    0.9706873   -3.2207145   -1.7212459  0.056268757   -3.2207145    1.4994686   426341 
 6483000   0.96939082   -3.2189551   -1.7215454    0.0651119   -3.2189551    1.4974097   426357 
 6484000   0.96961622    -3.219155   -1.7213796   0.06480514    -3.219155    1.4977754   426352 
 6485000   0.97076545   -3.2196588   -1.7201609  0.062733226   -3.2196588    1.4994979   426367 
 6486000   0.96939178   -3.2180476    -1.720654  0.067908441   -3.2180476    1.4973936   426362 
 6487000   0.97156974   -3.2208476   -1.7200158  0.064610878   -3.2208476    1.5008318   426341 
 6488000   0.97008784   -3.2190521   -1.7205657  0.065479762   -3.2190521    1.4984864   426357 
 6489000   0.97103364   -3.2202367   -1.7202823  0.061621574   -3.2202367    1.4999544   426355 
 6490000   0.97020872   -3.2187948   -1.7201393  0.072321437   -3.2187948    1.4986555   426362 
 6491000   0.97098916   -3.2194606   -1.7196699  0.069201861   -3.2194606    1.4997907   426382 
 6492000   0.97200215   -3.2210701   -1.7196478   0.06437651   -3.2210701    1.5014223   426363 
 6493000   0.97061771   -3.2201368   -1.7207651  0.063756753   -3.2201368    1.4993717   426338 
 6494000   0.97155324   -3.2210111   -1.7201943  0.064047008   -3.2210111    1.5008168   426338 
 6495000   0.97127983   -3.2202943   -1.7198365  0.067995983   -3.2202943    1.5004578   426320 
 6496000   0.97241869    -3.223251   -1.7210515  0.067145612    -3.223251    1.5021996   426325 
 6497000   0.96973333    -3.218347   -1.7203767  0.066884552    -3.218347    1.4979704   426348 
 6498000   0.96960966   -3.2176997   -1.7199134  0.065639725   -3.2176997    1.4977864   426346 
 6499000   0.97130308   -3.2216462   -1.7210926  0.058414817   -3.2216462    1.5005536   426303 
 6500000   0.96981761   -3.2197928   -1.7214428   0.06141613   -3.2197928    1.4983501   426277 
 6501000   0.97026419   -3.2199536   -1.7210331  0.063915593   -3.2199536    1.4989205   426311 
 6502000   0.97033186   -3.2198617   -1.7209034  0.060389994   -3.2198617    1.4989582   426330 
 6503000   0.96923568   -3.2191125   -1.7218406  0.063729135   -3.2191125    1.4972719   426328 
 6504000   0.96883605   -3.2198631   -1.7231243  0.058830457   -3.2198631    1.4967388   426304 
 6505000   0.96734123    -3.217425   -1.7230376  0.061661989    -3.217425    1.4943874   426316 
 6506000   0.96934273    -3.219491   -1.7219554  0.059261405    -3.219491    1.4975356   426300 
 6507000   0.96898876   -3.2193598   -1.7223816  0.065298057   -3.2193598    1.4969782   426303 
 6508000   0.96843891   -3.2165573    -1.720404  0.066435759   -3.2165573    1.4961533   426296 
 6509000   0.96908996    -3.218537   -1.7214341  0.064743206    -3.218537     1.497103   426312 
 6510000   0.97089635   -3.2188906   -1.7190076  0.061140214   -3.2188906     1.499883   426315 
 6511000   0.96908018   -3.2165049   -1.7194382  0.066089854   -3.2165049    1.4970668   426318 
 6512000   0.97112656   -3.2206131   -1.7203357  0.060769376   -3.2206131    1.5002774   426304 
 6513000   0.96981563   -3.2188193   -1.7206444  0.064731467   -3.2188193    1.4981748   426326 
 6514000    0.9690772   -3.2172483   -1.7202107  0.063706148   -3.2172483    1.4970376   426325 
 6515000   0.96979127   -3.2190068   -1.7208274  0.059977682   -3.2190068    1.4981794   426314 
 6516000   0.97020135   -3.2176176   -1.7186219  0.065998579   -3.2176176    1.4989957   426262 
 6517000   0.96989569    -3.218283    -1.719742  0.061489735    -3.218283     1.498541   426257 
 6518000   0.97023865   -3.2182022     -1.71917  0.069398699   -3.2182022    1.4990322   426268 
 6519000    0.9713911     -3.21955   -1.7187126  0.062565126     -3.21955    1.5008374   426261 
 6520000   0.96982485   -3.2180304   -1.7195742  0.063071444   -3.2180304    1.4984562   426250 
 6521000   0.97001976   -3.2190138   -1.7201334  0.068523009   -3.2190138    1.4988804   426215 
 6522000   0.96931517   -3.2191196   -1.7213033  0.062988125   -3.2191196    1.4978163   426208 
 6523000   0.96976523    -3.220851   -1.7223604   0.06518568    -3.220851    1.4984906   426214 
 6524000   0.96831494   -3.2191265   -1.7227681  0.063653115   -3.2191265    1.4963585   426183 
 6525000   0.96990526   -3.2189495   -1.7202355  0.059807473   -3.2189495     1.498714   426212 
 6526000   0.96964279   -3.2195957   -1.7212767  0.061625376   -3.2195957     1.498319   426209 
 6527000   0.96912631   -3.2184624   -1.7208291  0.063700797   -3.2184624    1.4976334   426177 
 6528000   0.96996691   -3.2191823   -1.7201866  0.066220389   -3.2191823    1.4989957   426159 
 6529000   0.97037242   -3.2188684   -1.7192073  0.063217749   -3.2188684    1.4996611   426148 
 6530000   0.97129614   -3.2195785   -1.7186765  0.059917987   -3.2195785     1.500902   426201 
 6531000   0.97111238   -3.2192271   -1.7187218  0.064285732   -3.2192271    1.5005054   426233 
 6532000   0.96994418   -3.2181961     -1.71945  0.059821851   -3.2181961     1.498746   426220 
 6533000   0.96909376   -3.2179259   -1.7203709  0.063417545   -3.2179259     1.497555   426185 
 6534000   0.96983441   -3.2188593   -1.7202196  0.062686241   -3.2188593    1.4986397   426202 
 6535000   0.96862657    -3.215699   -1.7189644  0.060561505    -3.215699    1.4967347   426213 
 6536000   0.96893479   -3.2154234   -1.7183178  0.061479021   -3.2154234    1.4971055   426243 
 6537000    0.9685555   -3.2170408   -1.7206091  0.060032058   -3.2170408    1.4964318   426268 
 6538000    0.9691643   -3.2164075   -1.7192037  0.056666434   -3.2164075    1.4972038   426316 
 6539000   0.96566652   -3.2111353   -1.7192686  0.062563228   -3.2111353    1.4918667   426297 
 6540000   0.96858724   -3.2151452   -1.7186995  0.059426994   -3.2151452    1.4964457   426278 
 6541000   0.96837359   -3.2154756   -1.7193424  0.061455631   -3.2154756    1.4961331   426273 
 6542000   0.96995446   -3.2170822   -1.7185347  0.062203924   -3.2170822    1.4985475   426281 
 6543000   0.96958266   -3.2151896   -1.7172376  0.068038806   -3.2151896    1.4979519   426287 
 6544000   0.97057777   -3.2173483   -1.7176373  0.064199073   -3.2173483     1.499711   426224 
 6545000   0.97005292   -3.2162437   -1.7173226  0.063018115   -3.2162437    1.4989211   426218 
 6546000   0.96944286   -3.2160501   -1.7179803  0.060017111   -3.2160501    1.4980698   426192 
 6547000   0.97041348   -3.2161682   -1.7166336    0.0589802   -3.2161682    1.4995345   426202 
 6548000   0.96786416   -3.2127261   -1.7171309  0.062152879   -3.2127261    1.4955952   426202 
 6549000    0.9692139   -3.2142833    -1.716627   0.05748524   -3.2142833    1.4976563   426209 
 6550000   0.96835933   -3.2145832   -1.7183667  0.063640579   -3.2145832    1.4962164   426243 
 6551000   0.96819199   -3.2133288   -1.7173183  0.059168784   -3.2133288    1.4960105   426228 
 6552000   0.96965559   -3.2157841    -1.717491  0.062400857   -3.2157841    1.4982931   426222 
 6553000   0.96958648     -3.21507   -1.7169399  0.055764056     -3.21507    1.4981301   426238 
 6554000   0.96837102   -3.2150912   -1.7187971  0.058166076   -3.2150912    1.4962941   426226 
 6555000   0.96948768    -3.216196   -1.7181272  0.063548687    -3.216196    1.4980688   426212 
 6556000   0.96957244   -3.2158824   -1.7178127  0.063000985   -3.2158824    1.4980697   426249 
 6557000    0.9680397   -3.2142246   -1.7185828   0.06354726   -3.2142246    1.4956418   426266 
 6558000   0.96888638   -3.2151156   -1.7180673  0.063622784   -3.2151156    1.4970483   426238 
 6559000   0.96959346   -3.2168088   -1.7185308   0.06304293   -3.2168088    1.4982779   426199 
 6560000    0.9699411   -3.2156864   -1.7170823  0.064657372   -3.2156864    1.4986042   426259 
 6561000   0.96943976   -3.2154748   -1.7176769  0.065739127   -3.2154748    1.4977979   426268 
 6562000   0.97059075   -3.2176243   -1.7179952  0.065312869   -3.2176243     1.499629   426253 
 6563000   0.96930392   -3.2165345   -1.7187637  0.059184851   -3.2165345    1.4977708   426216 
 6564000   0.97048397     -3.21886   -1.7192905  0.060276861     -3.21886    1.4995696   426223 
 6565000   0.97021515   -3.2191122   -1.7198806  0.063536915   -3.2191122    1.4992316   426201 
 6566000   0.97091146   -3.2191794   -1.7188577  0.064100998   -3.2191794    1.5003216   426197 
 6567000    0.9694639   -3.2163949    -1.718261  0.061384998   -3.2163949     1.498134   426183 
 6568000   0.97059044   -3.2181572   -1.7182472  0.060094998   -3.2181572      1.49991   426173 
 6569000   0.96962061   -3.2172825   -1.7189802  0.059908229   -3.2172825    1.4983023   426204 
 6570000   0.96935292   -3.2159088    -1.718108  0.065205053   -3.2159088    1.4978008   426229 
 6571000   0.96888476   -3.2166013   -1.7196609  0.065024435   -3.2166013    1.4969405   426268 
 6572000   0.96882022   -3.2154171   -1.7185166  0.065731662   -3.2154171    1.4969004   426251 
 6573000    0.9685655   -3.2158288   -1.7192377  0.063448629   -3.2158288    1.4965911   426227 
 6574000   0.96897806   -3.2158209   -1.7186203  0.068382494   -3.2158209    1.4972005   426235 
 6575000   0.96829852   -3.2163805   -1.7202441  0.060887013   -3.2163805    1.4961365   426239 
 6576000   0.96919501   -3.2178023   -1.7202876  0.061296256   -3.2178023    1.4975146   426241 
 6577000   0.96882676   -3.2174684   -1.7204876   0.06354926   -3.2174684    1.4969808   426231 
 6578000   0.96898012   -3.2180477   -1.7208019  0.062831077   -3.2180477    1.4972459   426223 
 6579000   0.96899085   -3.2199745   -1.7226418  0.061017834   -3.2199745    1.4973327   426203 
 6580000   0.96734195   -3.2166074   -1.7218156  0.057394689   -3.2166074    1.4947917   426201 
 6581000   0.96845123   -3.2172917   -1.7206699  0.064379062   -3.2172917    1.4966217   426168 
 6582000   0.96944179   -3.2175609   -1.7194505  0.059277121   -3.2175609    1.4981104   426180 
 6583000    0.9700278   -3.2189604   -1.7198354  0.059297878   -3.2189604     1.499125   426149 
 6584000   0.96870122   -3.2180162   -1.7207622  0.065986672   -3.2180162     1.497254   426098 
 6585000    0.9702392    -3.218841   -1.7193718  0.061626975    -3.218841    1.4994693   426144 
 6586000   0.97005214   -3.2178379   -1.7186612  0.069590161   -3.2178379    1.4991767   426145 
 6587000   0.96978127   -3.2184256   -1.7195832  0.064544865   -3.2184256    1.4988425   426121 
 6588000   0.96975453   -3.2190213   -1.7201885  0.064654891   -3.2190213    1.4988328   426112 
 6589000   0.96981048   -3.2194879   -1.7206179  0.065767534   -3.2194879      1.49887   426126 
 6590000   0.96929987   -3.2175342   -1.7195412  0.063264515   -3.2175342     1.497993   426151 
 6591000   0.97068111   -3.2203858   -1.7202265  0.068149332   -3.2203858    1.5001593   426142 
 6592000   0.96994933   -3.2184455   -1.7194735  0.064856086   -3.2184455    1.4989721   426158 
 6593000   0.96948949   -3.2183015   -1.7202123  0.062780908   -3.2183015    1.4980892   426207 
 6594000   0.97064866   -3.2213087   -1.7214882  0.061352373   -3.2213087    1.4998205   426224 
 6595000   0.96914096   -3.2181591   -1.7206893  0.066471609   -3.2181591    1.4974698   426230 
 6596000   0.96918376    -3.218032   -1.7203872   0.06745694    -3.218032    1.4976448   426199 
 6597000   0.96865449   -3.2162984   -1.7193836  0.065908593   -3.2162984    1.4969148   426174 
 6598000   0.96822486   -3.2171314   -1.7209086   0.06438973   -3.2171314    1.4962228   426182 
 6599000   0.96893384   -3.2169853   -1.7196459  0.066366654   -3.2169853    1.4973394   426176 
 6600000   0.96838082   -3.2173531   -1.7207665  0.061034603   -3.2173531    1.4965867   426147 
 6601000   0.96928421   -3.2188595   -1.7208099  0.060453396   -3.2188595    1.4980496   426128 
 6602000   0.96789971   -3.2167571   -1.7207981  0.058810393   -3.2167571     1.495959   426114 
 6603000    0.9690669   -3.2166331   -1.7187858  0.063984292   -3.2166331    1.4978473   426090 
 6604000   0.96965338   -3.2162323   -1.7174538  0.070380983   -3.2162323    1.4987785   426083 
 6605000   0.97129935    -3.218014   -1.7167337  0.065674182    -3.218014    1.5012803   426095 
 6606000   0.96849724   -3.2145748    -1.717629  0.063965903   -3.2145748    1.4969458   426096 
 6607000   0.96970981    -3.217279   -1.7183078  0.062044402    -3.217279    1.4989712   426053 
 6608000   0.96857581   -3.2147647   -1.7175534  0.060786384   -3.2147647    1.4972113   426055 
 6609000   0.96822264   -3.2161878   -1.7195786  0.061925947   -3.2161878    1.4966091   426071 
 6610000   0.96848695   -3.2154137   -1.7185155  0.060029042   -3.2154137    1.4968982   426105 
 6611000   0.96820497   -3.2167667   -1.7202938  0.060786469   -3.2167667    1.4964729   426102 
 6612000   0.96817456    -3.215869   -1.7196572   0.06116486    -3.215869    1.4962117   426163 
 6613000    0.9684984   -3.2155163   -1.7187725  0.060313767   -3.2155163    1.4967438   426154 
 6614000    0.9682341   -3.2126388   -1.7163174  0.064127412   -3.2126388    1.4963213   426158 
 6615000   0.96831308    -3.213029   -1.7165997  0.061156176    -3.213029    1.4964293   426162 
 6616000   0.96748732   -3.2137923    -1.718569   0.06024543   -3.2137923    1.4952234   426142 
 6617000    0.9670716   -3.2127669   -1.7181334  0.059150201   -3.2127669    1.4946335   426127 
 6618000   0.97095031   -3.2177348   -1.7171419  0.062907317   -3.2177348    1.5005929   426137 
 6619000   0.96886433   -3.2152461   -1.7178138  0.066193142   -3.2152461    1.4974323   426119 
 6620000   0.96845701   -3.2146379   -1.7178211  0.063941646   -3.2146379    1.4968168   426115 
 6621000   0.96842406   -3.2154774   -1.7186342  0.058592364   -3.2154774    1.4968432   426093 
 6622000   0.96910256   -3.2152352   -1.7173151  0.061739795   -3.2152352      1.49792   426085 
 6623000    0.9700646   -3.2154909   -1.7159888  0.058136932   -3.2154909    1.4995021   426058 
 6624000   0.96925772   -3.2160047   -1.7177885  0.054734892   -3.2160047    1.4982161   426069 
 6625000     0.969308   -3.2152425   -1.7169171  0.064852854   -3.2152425    1.4983255   426060 
 6626000   0.96958896   -3.2155578   -1.7167698  0.064608816   -3.2155578    1.4987879   426052 
 6627000   0.96932932   -3.2157022   -1.7172101  0.064100511   -3.2157022    1.4984921   426022 
 6628000   0.97129732   -3.2176439   -1.7161059  0.063643378   -3.2176439     1.501538   426021 
 6629000   0.96878773   -3.2145491   -1.7168591  0.065773602   -3.2145491      1.49769   426012 
 6630000   0.96838982   -3.2158319   -1.7187359  0.059897395   -3.2158319    1.4970959   426006 
 6631000   0.96821002   -3.2150012   -1.7183098  0.063351361   -3.2150012    1.4966915   426042 
 6632000    0.9686499   -3.2156524   -1.7183442  0.061338202   -3.2156524    1.4973082   426060 
 6633000   0.96996565   -3.2174166   -1.7180217  0.057243891   -3.2174166    1.4993948   426045 
 6634000   0.96746964   -3.2151054   -1.7195163  0.057599805   -3.2151054    1.4955891   426030 
 6635000   0.96778796    -3.215492   -1.7193792  0.060898946    -3.215492    1.4961128   426021 
 6636000   0.96756583   -3.2148143   -1.7191327  0.060934932   -3.2148143    1.4956816   426046 
 6637000   0.96834209    -3.215848   -1.7191315  0.061925166    -3.215848    1.4967165   426093 
 6638000   0.96818642    -3.216466   -1.7202113  0.062927483    -3.216466    1.4962547   426156 
 6639000   0.96890599   -3.2177432   -1.7204117  0.063190491   -3.2177432    1.4973315   426166 
 6640000   0.96802297   -3.2159825   -1.7199665  0.060895873   -3.2159825    1.4960161   426152 
 6641000   0.96803063   -3.2157302   -1.7198041  0.063226081   -3.2157302    1.4959261   426181 
 6642000   0.96734954   -3.2161187   -1.7212521  0.060753894   -3.2161187    1.4948666   426183 
 6643000   0.96702172   -3.2153731   -1.7210516  0.062856182   -3.2153731    1.4943214   426194 
 6644000   0.96828128   -3.2173425   -1.7210922  0.061034625   -3.2173425    1.4962503   426199 
 6645000   0.96903578   -3.2170994   -1.7197008  0.064076178   -3.2170994    1.4973986   426204 
 6646000   0.96891502   -3.2156514   -1.7184324  0.066063517   -3.2156514     1.497219   426202 
 6647000   0.96991656   -3.2176792   -1.7188422  0.061121055   -3.2176792     1.498837   426182 
 6648000    0.9691583   -3.2180585     -1.72033  0.065902355   -3.2180585    1.4977285   426164 
 6649000   0.96873146   -3.2182836   -1.7212674  0.064207016   -3.2182836    1.4970162   426179 
 6650000   0.97064219   -3.2198862   -1.7198399  0.060674124   -3.2198862    1.5000463   426157 
 6651000   0.96949963   -3.2182791   -1.7199739  0.065228226   -3.2182791    1.4983052   426150 
 6652000   0.97038208   -3.2194468   -1.7197954  0.064268028   -3.2194468    1.4996514   426155 
 6653000   0.96864625   -3.2174174   -1.7205223    0.0686812   -3.2174174     1.496895   426176 
 6654000   0.96778416   -3.2179742   -1.7224816  0.061367569   -3.2179742    1.4954926   426196 
 6655000   0.96901366   -3.2191856   -1.7218212  0.062578103   -3.2191856    1.4973644   426204 
 6656000   0.96828332   -3.2171905    -1.720916  0.072278146   -3.2171905    1.4962745   426193 
 6657000   0.96891819   -3.2193847   -1.7221853  0.066031906   -3.2193847    1.4971993   426209 
 6658000   0.96836642   -3.2191187   -1.7227509  0.064024994   -3.2191187    1.4963678   426203 
 6659000   0.96902977   -3.2191613   -1.7216701  0.065018118   -3.2191613    1.4974912   426175 
 6660000   0.97024903   -3.2208999   -1.7215773  0.062064895   -3.2208999    1.4993226   426190 
 6661000    0.9679623   -3.2183083   -1.7225123  0.064793765   -3.2183083     1.495796   426188 
 6662000   0.96979208   -3.2212053   -1.7226134  0.063242627   -3.2212053    1.4985919   426197 
 6663000   0.97203441   -3.2235077   -1.7215882  0.058965058   -3.2235077    1.5019195   426236 
 6664000   0.97106804   -3.2207808   -1.7204003  0.063208119   -3.2207808    1.5003805   426249 
 6665000   0.96816866   -3.2189015    -1.722913  0.065607398   -3.2189015    1.4959885   426224 
 6666000   0.96933733   -3.2207347   -1.7229123    0.0655361   -3.2207347    1.4978224   426216 
 6667000   0.96952303   -3.2196268   -1.7216018  0.061894533   -3.2196268     1.498025   426240 
 6668000   0.96914822   -3.2185257   -1.7209288  0.063500447   -3.2185257     1.497597   426197 
 6669000   0.96878898   -3.2187154   -1.7218316  0.066450968   -3.2187154    1.4968838   426242 
 6670000   0.96924704   -3.2191961   -1.7216678  0.065297441   -3.2191961    1.4975283   426260 
 6671000   0.96915726   -3.2182332   -1.7209138  0.061483496   -3.2182332    1.4973193   426280 
 6672000   0.96902498   -3.2185475   -1.7212745  0.067727901   -3.2185475     1.497273   426235 
 6673000   0.97126962   -3.2216385   -1.7209078   0.06447295   -3.2216385    1.5007307   426238 
 6674000   0.97134615   -3.2209834   -1.7200077  0.064360415   -3.2209834    1.5009757   426202 
 6675000   0.96980317   -3.2213457     -1.72261  0.063875422   -3.2213457    1.4987356   426161 
 6676000   0.96937176   -3.2213179   -1.7231962  0.062500169   -3.2213179    1.4981216   426146 
 6677000   0.96798578   -3.2190785   -1.7231198  0.065653378   -3.2190785    1.4959586   426152 
 6678000   0.96882616   -3.2197658   -1.7225119  0.063016933   -3.2197658    1.4972538   426153 
 6679000   0.96968687   -3.2195519   -1.7208799  0.065899883   -3.2195519    1.4986719   426128 
 6680000   0.96952079   -3.2197488   -1.7213828  0.066348085   -3.2197488     1.498366   426142 
 6681000   0.97078627   -3.2225695   -1.7221491  0.059416597   -3.2225695    1.5004204   426114 
 6682000   0.96925966   -3.2201063   -1.7220208  0.063270705   -3.2201063    1.4980855   426107 
 6683000   0.96985522   -3.2208551   -1.7218842  0.059362426   -3.2208551    1.4989708   426117 
 6684000   0.97022152    -3.221331   -1.7217659  0.063336941    -3.221331    1.4995651   426109 
 6685000    0.9697315   -3.2200297   -1.7212747  0.064999765   -3.2200297     1.498755   426124 
 6686000   0.96908341   -3.2196288   -1.7218016   0.06703556   -3.2196288    1.4978272   426103 
 6687000   0.96846364   -3.2201946   -1.7233078  0.061507144   -3.2201946    1.4968868   426098 
 6688000   0.96846883   -3.2185576   -1.7217471  0.066648674   -3.2185576    1.4968105   426122 
 6689000   0.96854164   -3.2197877   -1.7227311  0.062360176   -3.2197877    1.4970565   426084 
 6690000   0.96892887   -3.2206886    -1.723023  0.059578786   -3.2206886    1.4976656   426081 
 6691000   0.96848215   -3.2199021   -1.7229164  0.061290113   -3.2199021    1.4969857   426078 
 6692000   0.96917584   -3.2206884    -1.722648  0.060657912   -3.2206884    1.4980403   426083 
 6693000   0.96781591   -3.2183339   -1.7224342  0.061952995   -3.2183339    1.4958997   426094 
 6694000   0.96823239   -3.2180548   -1.7214763  0.061517242   -3.2180548    1.4965785   426084 
 6695000   0.96660009   -3.2162812   -1.7221275  0.065130262   -3.2162812    1.4941537   426056 
 6696000    0.9668178   -3.2163903    -1.721872  0.062513248   -3.2163903    1.4945183   426048 
 6697000   0.96891783   -3.2179311   -1.7201701   0.06110529   -3.2179311     1.497761   426049 
 6698000   0.96944328   -3.2196431   -1.7209573  0.062387107   -3.2196431    1.4986859   426017 
 6699000   0.96691221   -3.2176024   -1.7227838  0.062617283   -3.2176024    1.4948186   426004 
 6700000   0.96884621   -3.2180912   -1.7202229   0.06524263   -3.2180912    1.4978683   425987 
 6701000    0.9697373   -3.2205499   -1.7213391  0.060781767   -3.2205499    1.4992108   425997 
 6702000   0.97018112   -3.2203411   -1.7203879  0.065975528   -3.2203411    1.4999532   425981 
 6703000   0.96840689   -3.2181372   -1.7207689  0.064024308   -3.2181372    1.4973684   425936 
 6704000   0.96907792   -3.2178558   -1.7193865  0.066571339   -3.2178558    1.4984692   425918 
 6705000   0.96864676   -3.2179624   -1.7201739  0.066863212   -3.2179624    1.4977885   425922 
 6706000   0.96754604   -3.2158591   -1.7197726  0.065562584   -3.2158591    1.4960865   425922 
 6707000   0.96915093   -3.2178934   -1.7194274  0.065082477   -3.2178934     1.498466   425951 
 6708000   0.96784145    -3.216661   -1.7201248  0.063645209    -3.216661    1.4965362   425924 
 6709000   0.96870106   -3.2187293    -1.720892  0.064013636   -3.2187293    1.4978373   425932 
 6710000   0.96742906   -3.2172167   -1.7213252  0.066907704   -3.2172167    1.4958916   425926 
 6711000   0.96821332   -3.2175926   -1.7204883   0.06960973   -3.2175926    1.4971042   425926 
 6712000   0.96962269   -3.2192331   -1.7198792  0.058397685   -3.2192331    1.4993539   425906 
 6713000   0.97022039   -3.2188843   -1.7187153  0.059168653   -3.2188843    1.5001689   425937 
 6714000   0.96887265   -3.2163241     -1.71832  0.062578526   -3.2163241    1.4980041   425960 
 6715000   0.96875362   -3.2170314   -1.7191832  0.058608967   -3.2170314    1.4978482   425952 
 6716000   0.96922246   -3.2173074   -1.7187131  0.065011839   -3.2173074    1.4985942   425946 
 6717000   0.96871292   -3.2154652   -1.7176518  0.062318047   -3.2154652    1.4978134   425944 
 6718000   0.97055637   -3.2180781   -1.7174672  0.062694755   -3.2180781    1.5006109   425959 
 6719000   0.96806675   -3.2135004   -1.7168512  0.065913824   -3.2135004    1.4966492   425991 
 6720000   0.97013159   -3.2161488   -1.7163284  0.062570896   -3.2161488    1.4998203   425997 
 6721000   0.96916682    -3.214131   -1.7157635  0.060721075    -3.214131    1.4983675   425986 
 6722000   0.96973806   -3.2163533    -1.716902  0.064520133   -3.2163533    1.4994513   425929 
 6723000   0.96892238    -3.216169    -1.717993  0.064707752    -3.216169     1.498176   425933 
 6724000   0.96874039   -3.2172717   -1.7193033  0.058681161   -3.2172717    1.4979684   425912 
 6725000   0.96871114   -3.2158455   -1.7179469  0.063532983   -3.2158455    1.4978986   425919 
 6726000   0.97082503      -3.2187   -1.7175927  0.056909332      -3.2187    1.5011073   425936 
 6727000   0.97034734   -3.2180923   -1.7177271  0.062522027   -3.2180923    1.5003652   425937 
 6728000   0.96919482    -3.214478   -1.7159933  0.060679801    -3.214478    1.4984847   425965 
 6729000   0.96830513   -3.2150008   -1.7178671  0.062944432   -3.2150008    1.4971337   425958 
 6730000   0.96854803   -3.2152865   -1.7177351  0.060910651   -3.2152865    1.4975514   425946 
 6731000   0.96951395   -3.2159055   -1.7168641   0.06304165   -3.2159055    1.4990414   425947 
 6732000   0.96916491   -3.2158471   -1.7172152  0.058588668   -3.2158471    1.4986319   425910 
 6733000   0.96892451   -3.2161079   -1.7180411  0.064595817   -3.2161079    1.4980667   425965 
 6734000   0.96780682   -3.2150658   -1.7186428  0.057127449   -3.2150658     1.496423   425941 
 6735000   0.96884508   -3.2172225   -1.7191625   0.06508548   -3.2172225      1.49806   425932 
 6736000   0.96932175   -3.2178631    -1.719059  0.058652085   -3.2178631     1.498804   425930 
 6737000   0.96868663   -3.2170249   -1.7192275  0.060908915   -3.2170249    1.4977974   425937 
 6738000   0.96852461   -3.2159449    -1.718296  0.061456351   -3.2159449    1.4976488   425908 
 6739000   0.96790283   -3.2149125   -1.7181654  0.061462582   -3.2149125    1.4967471   425891 
 6740000   0.96801218   -3.2148561   -1.7179434  0.064253755   -3.2148561    1.4969127   425892 
 6741000   0.97069226   -3.2190039   -1.7178728  0.061945776   -3.2190039    1.5011311   425871 
 6742000   0.96853243   -3.2154733   -1.7176506  0.064925194   -3.2154733    1.4978227   425862 
 6743000   0.96795699   -3.2169582   -1.7200676  0.057402406   -3.2169582    1.4968906   425874 
 6744000   0.96748202   -3.2160304   -1.7200148  0.062655422   -3.2160304    1.4960156   425914 
 6745000   0.96854929    -3.216891   -1.7192251  0.067733146    -3.216891    1.4976659   425914 
 6746000   0.96932005   -3.2171407   -1.7182232  0.062898571   -3.2171407    1.4989176   425897 
 6747000   0.96899096   -3.2182423   -1.7198302  0.056969394   -3.2182423    1.4984122   425896 
 6748000   0.96789679   -3.2156664   -1.7189005  0.064234192   -3.2156664    1.4967659   425883 
 6749000   0.96862194   -3.2179282   -1.7199495  0.062690314   -3.2179282    1.4979787   425857 
 6750000    0.9687583   -3.2178391   -1.7195932  0.066117902   -3.2178391    1.4982459   425841 
 6751000   0.96943166   -3.2188748   -1.7196896  0.064241544   -3.2188748    1.4991852   425870 
 6752000   0.96900804    -3.216919   -1.7182164  0.070334355    -3.216919    1.4987025   425821 
 6753000   0.96870523   -3.2170634   -1.7187624  0.061374074   -3.2170634     1.498301   425802 
 6754000    0.9687545   -3.2167999    -1.718384  0.062076286   -3.2167999     1.498416   425791 
 6755000   0.97072871   -3.2186379   -1.7173059  0.064398146   -3.2186379     1.501332   425830 
 6756000   0.96839799   -3.2166522   -1.7188721  0.066046771   -3.2166522    1.4977801   425815 
 6757000   0.96904216   -3.2179847   -1.7192681  0.063520563   -3.2179847    1.4987166   425832 
 6758000   0.97117752     -3.21925    -1.717305  0.065882192     -3.21925    1.5019451   425853 
 6759000   0.97024042   -3.2184662   -1.7178083   0.06551217   -3.2184662    1.5006579   425807 
 6760000   0.96991364   -3.2169595      -1.7168  0.063181739   -3.2169595    1.5001595   425805 
 6761000    0.9714004   -3.2194333   -1.7169319  0.066590537   -3.2194333    1.5025014   425793 
 6762000   0.97068818   -3.2192099   -1.7179476  0.065877051   -3.2192099    1.5012623   425832 
 6763000   0.96916641   -3.2170416   -1.7180519  0.060471992   -3.2170416    1.4989897   425809 
 6764000   0.96940926   -3.2177877    -1.718433  0.058598291   -3.2177877    1.4993548   425812 
 6765000   0.96899446   -3.2160793   -1.7173591  0.062257141   -3.2160793    1.4987202   425810 
 6766000   0.96898361   -3.2167266   -1.7180795  0.063686337   -3.2167266    1.4986471   425826 
 6767000    0.9687827   -3.2147599   -1.7165678  0.066120068   -3.2147599    1.4981922   425867 
 6768000   0.96943033    -3.216392   -1.7172969  0.063303234    -3.216392    1.4990951   425895 
 6769000    0.9680401   -3.2144067   -1.7173243  0.063120186   -3.2144067    1.4970824   425856 
 6770000   0.96747459   -3.2130663   -1.7168866  0.062438707   -3.2130663    1.4961797   425864 
 6771000   0.96918182   -3.2148186   -1.7160269  0.064369921   -3.2148186    1.4987918   425872 
 6772000   0.96775247   -3.2128505   -1.7163008  0.065071886   -3.2128505    1.4965497   425881 
 6773000   0.96789864   -3.2127418   -1.7158746   0.06238274   -3.2127418    1.4968672   425855 
 6774000   0.96918871   -3.2162223   -1.7173424  0.063425777   -3.2162223    1.4988799   425850 
 6775000   0.96777382   -3.2133017   -1.7165432  0.064266547   -3.2133017    1.4967585   425831 
 6776000   0.96917988   -3.2149035   -1.7159423  0.065412657   -3.2149035    1.4989613   425823 
 6777000   0.97126767   -3.2157734   -1.7136642  0.062068133   -3.2157734    1.5021092   425846 
 6778000   0.97054213   -3.2143018   -1.7134521  0.065683454   -3.2143018    1.5008496   425885 
 6779000   0.96811634    -3.212681    -1.715558  0.065310148    -3.212681     1.497123   425878 
 6780000   0.97029745   -3.2161439   -1.7155951  0.062715237   -3.2161439    1.5005488   425863 
 6781000   0.96995177    -3.215325   -1.7154024  0.061931446    -3.215325    1.4999226   425889 
 6782000   0.97113457   -3.2176907   -1.7160448  0.061654383   -3.2176907    1.5016459   425919 
 6783000   0.96904737   -3.2161487   -1.7177478  0.064939007   -3.2161487    1.4984009   425924 
 6784000   0.97042664   -3.2181279   -1.7176436  0.061493568   -3.2181279    1.5004843   425938 
 6785000   0.96840345   -3.2150562   -1.7176017  0.063864743   -3.2150562    1.4974545   425910 
 6786000   0.96860621   -3.2155154   -1.7177228  0.067632923   -3.2155154    1.4977926   425903 
 6787000   0.96901388   -3.2152522   -1.7167061  0.063779987   -3.2152522    1.4985462   425868 
 6788000   0.96899086   -3.2162696   -1.7176323  0.063432302   -3.2162696    1.4986372   425832 
 6789000   0.96877283   -3.2148702    -1.716623  0.068627125   -3.2148702    1.4982473   425847 
 6790000   0.97039295   -3.2161246   -1.7152695  0.065818053   -3.2161246     1.500855   425818 
 6791000    0.9715241   -3.2175957   -1.7150193  0.071842645   -3.2175957    1.5025763   425826 
 6792000   0.97164001   -3.2184042   -1.7155922   0.06239302   -3.2184042     1.502812   425810 
 6793000    0.9700543   -3.2165556   -1.7161433  0.073470646   -3.2165556    1.5004123   425795 
 6794000   0.96968968   -3.2179489   -1.7181428  0.064795018   -3.2179489    1.4998061   425807 
 6795000   0.97011893   -3.2177068   -1.7173003  0.068401565   -3.2177068    1.5004066   425825 
 6796000   0.96936465   -3.2158998   -1.7166599  0.062193589   -3.2158998      1.49924   425825 
 6797000   0.96946255    -3.217226   -1.7179367  0.063597991    -3.217226    1.4992893   425854 
 6798000   0.96815552   -3.2140635   -1.7167463  0.066969521   -3.2140635    1.4973172   425840 
 6799000   0.96883878   -3.2162783   -1.7179079  0.065577641   -3.2162783    1.4983704   425841 
 6800000   0.96888234   -3.2157085    -1.717306  0.064006956   -3.2157085    1.4984025   425851 
 6801000   0.96813136   -3.2168745   -1.7196263  0.062873798   -3.2168745    1.4972482   425849 
 6802000   0.96768387   -3.2169038    -1.720316  0.066520276   -3.2169038    1.4965877   425840 
 6803000   0.96967846   -3.2182611   -1.7186379  0.063753822   -3.2182611    1.4996232   425854 
 6804000   0.96918318    -3.216959   -1.7180842   0.05741021    -3.216959    1.4988748   425849 
 6805000   0.96990288   -3.2164494   -1.7162819    0.0653989   -3.2164494    1.5001675   425798 
 6806000   0.97036175   -3.2157795   -1.7149128  0.063451174   -3.2157795    1.5008667   425801 
 6807000   0.97190806   -3.2174041   -1.7142304  0.069668647   -3.2174041    1.5031737   425825 
 6808000   0.97161608   -3.2188426   -1.7160182  0.061004432   -3.2188426    1.5028244   425796 
 6809000   0.97096645   -3.2177977   -1.7160168  0.062607867   -3.2177977    1.5017808   425807 
 6810000   0.96979925   -3.2156346    -1.715652  0.064393339   -3.2156346    1.4999826   425805 
 6811000   0.96961181    -3.215089   -1.7152695  0.071319681    -3.215089    1.4998195   425769 
 6812000   0.96836068   -3.2143399   -1.7164909  0.061983204   -3.2143399     1.497849   425779 
 6813000   0.96844245   -3.2158577   -1.7178576  0.062764028   -3.2158577    1.4980001   425772 
 6814000   0.97051148   -3.2170977    -1.715816  0.061170576   -3.2170977    1.5012816   425749 
 6815000    0.9696906   -3.2166896   -1.7166672  0.061963011   -3.2166896    1.5000224   425746 
 6816000   0.96797045   -3.2131828   -1.7159092  0.063057437   -3.2131828    1.4972736   425771 
 6817000   0.97027386   -3.2159005   -1.7151345  0.061474193   -3.2159005     1.500766   425791 
 6818000   0.96858217    -3.213862   -1.7157162  0.063412562    -3.213862    1.4981459   425792 
 6819000   0.97016558   -3.2160296   -1.7153606  0.062028405   -3.2160296     1.500669   425771 
 6820000   0.96984852   -3.2157718   -1.7157059  0.060857912   -3.2157718    1.5000658   425803 
 6821000   0.96863031   -3.2150156   -1.7168058  0.065222925   -3.2150156    1.4982098   425795 
 6822000   0.96788425   -3.2140035   -1.7168562  0.062161177   -3.2140035    1.4971473   425769 
 6823000   0.96946897   -3.2156898   -1.7163272  0.056988559   -3.2156898    1.4993626   425836 
 6824000   0.96745432   -3.2134779    -1.717203   0.05773779   -3.2134779    1.4962749   425828 
 6825000   0.97005457   -3.2168666   -1.7166406  0.062003823   -3.2168666     1.500226   425848 
 6826000   0.96897236   -3.2144649   -1.7158739  0.058363483   -3.2144649     1.498591   425837 
 6827000    0.9687633   -3.2144539    -1.716232  0.064571617   -3.2144539     1.498222   425850 
 6828000   0.96815503    -3.214032   -1.7168211  0.061279862    -3.214032    1.4972109   425870 
 6829000   0.97029795   -3.2159429   -1.7153828  0.062537307   -3.2159429    1.5005601   425860 
 6830000   0.96984033   -3.2161807   -1.7161909  0.060530211   -3.2161807    1.4999898   425821 
 6831000   0.97093744    -3.217154   -1.7154427  0.068459799    -3.217154    1.5017113   425814 
 6832000    0.9688656   -3.2139605    -1.715415  0.064355338   -3.2139605    1.4985456   425803 
 6833000   0.96930745   -3.2151749   -1.7157875  0.069705252   -3.2151749    1.4993874   425758 
 6834000   0.96996533   -3.2163558   -1.7159965  0.063138098   -3.2163558    1.5003593   425771 
 6835000   0.97170105   -3.2185543   -1.7156478  0.064592761   -3.2185543    1.5029064   425810 
 6836000   0.97114085   -3.2186334   -1.7165088  0.066922861   -3.2186334    1.5021247   425786 
 6837000   0.97096972   -3.2178146   -1.7159969   0.06664617   -3.2178146    1.5018176   425798 
 6838000   0.97102433   -3.2179366   -1.7161226  0.068170961   -3.2179366    1.5018139   425823 
 6839000   0.97082767   -3.2165862     -1.71502  0.070738108   -3.2165862    1.5015662   425807 
 6840000    0.9711537   -3.2169939   -1.7149588  0.068347994   -3.2169939    1.5020352   425817 
 6841000   0.97100541   -3.2175393   -1.7158463  0.062580976   -3.2175393     1.501693   425849 
 6842000   0.97048411   -3.2165058   -1.7156296  0.066257416   -3.2165058    1.5008762   425852 
 6843000   0.97085335   -3.2163629   -1.7147993  0.064742958   -3.2163629    1.5015636   425819 
 6844000   0.97199708    -3.215717    -1.712575  0.067087988    -3.215717    1.5031419   425873 
 6845000   0.97087172    -3.215786   -1.7143492  0.059358538    -3.215786    1.5014369   425863 
 6846000   0.97046382   -3.2151061   -1.7142824  0.065016303   -3.2151061    1.5008237   425858 
 6847000   0.97202947   -3.2181607   -1.7149828  0.060398656   -3.2181607    1.5031779   425877 
 6848000   0.97158761   -3.2143454   -1.7117732  0.066586464   -3.2143454    1.5025722   425855 
 6849000   0.97197358   -3.2159759   -1.7127185  0.067843653   -3.2159759    1.5032574   425830 
 6850000     0.971788   -3.2164714   -1.7133739   0.06412705   -3.2164714    1.5030974   425794 
 6851000   0.97055506   -3.2152003   -1.7140382  0.061162039   -3.2152003    1.5011622   425802 
 6852000   0.96857037   -3.2122241   -1.7140683  0.061894178   -3.2122241    1.4981558   425784 
 6853000   0.97023369   -3.2145134   -1.7138624  0.064034562   -3.2145134     1.500651   425806 
 6854000   0.96945024   -3.2123741   -1.7129207  0.062932206   -3.2123741    1.4994533   425802 
 6855000   0.96977885   -3.2135126   -1.7135087  0.060496827   -3.2135126    1.5000039   425790 
 6856000   0.96840838   -3.2111734   -1.7132295  0.062138466   -3.2111734    1.4979439   425773 
 6857000   0.96957939   -3.2124894   -1.7128046  0.061627192   -3.2124894    1.4996848   425793 
 6858000   0.97039021   -3.2140894   -1.7129671  0.059867178   -3.2140894    1.5011222   425741 
 6859000   0.96923411   -3.2114591   -1.7120407  0.065355409   -3.2114591    1.4994184   425717 
 6860000   0.96987158   -3.2123927   -1.7120692  0.059794626   -3.2123927    1.5003235   425740 
 6861000   0.96915303   -3.2105983   -1.7115624  0.058635357   -3.2105983    1.4990359   425790 
 6862000   0.96997324   -3.2123042   -1.7120701  0.062251808   -3.2123042    1.5002341   425810 
 6863000   0.96834664   -3.2098213   -1.7121347  0.065560063   -3.2098213    1.4976866   425819 
 6864000   0.96931195   -3.2111785   -1.7119743  0.064338605   -3.2111785    1.4992042   425812 
 6865000   0.96931171   -3.2113255    -1.712097  0.063558004   -3.2113255    1.4992285   425805 
 6866000   0.96828317   -3.2122289   -1.7145279  0.060268897   -3.2122289     1.497701   425787 
 6867000   0.96667305   -3.2096987   -1.7144812  0.063184725   -3.2096987    1.4952175   425785 
 6868000   0.96846143   -3.2132319   -1.7152516  0.058012514   -3.2132319    1.4979802   425786 
 6869000   0.96795279   -3.2115067   -1.7143097  0.065550028   -3.2115067     1.497197   425785 
 6870000    0.9683496   -3.2112031   -1.7134134  0.062429699   -3.2112031    1.4977897   425791 
 6871000   0.96994439   -3.2140427   -1.7137159  0.063092163   -3.2140427    1.5003269   425771 
 6872000   0.96990033    -3.214038    -1.713737  0.066798578    -3.214038     1.500301   425759 
 6873000   0.96960979   -3.2142346   -1.7143161  0.062109636   -3.2142346    1.4999185   425740 
 6874000   0.96985954   -3.2141273   -1.7137132  0.065169207   -3.2141273    1.5004141   425709 
 6875000   0.97055413   -3.2155989   -1.7142549  0.062848283   -3.2155989    1.5013441   425750 
 6876000   0.96998338   -3.2148788   -1.7144458   0.06657826   -3.2148788     1.500433   425758 
 6877000   0.97061435   -3.2172331   -1.7158875  0.066424553   -3.2172331    1.5013456   425776 
 6878000   0.97050839    -3.217865    -1.716634  0.065237592    -3.217865     1.501231   425762 
 6879000   0.96990811    -3.216514   -1.7161763  0.063822979    -3.216514    1.5003377   425752 
 6880000   0.96925298   -3.2151322   -1.7158853  0.063144344   -3.2151322    1.4992468   425774 
 6881000   0.97004065   -3.2168695   -1.7163268  0.063356664   -3.2168695    1.5005427   425752 
 6882000   0.97006364   -3.2171638   -1.7165679  0.065336854   -3.2171638    1.5005959   425747 
 6883000    0.9708097   -3.2179545   -1.7163244  0.067913981   -3.2179545    1.5016301   425781 
 6884000   0.97031745   -3.2170889   -1.7162343  0.060991167   -3.2170889    1.5008546   425785 
 6885000   0.96930701   -3.2151378   -1.7156489  0.062982517   -3.2151378    1.4994889   425729 
 6886000   0.96964725   -3.2163279   -1.7162457   0.06442547   -3.2163279    1.5000822   425710 
 6887000   0.97216732   -3.2202134   -1.7161973  0.069934043   -3.2202134    1.5040162   425700 
 6888000    0.9705122   -3.2162498   -1.7148648  0.070002427   -3.2162498     1.501385   425720 
 6889000   0.97306242    -3.219292   -1.7140254  0.070942924    -3.219292    1.5052666   425738 
 6890000   0.97128547   -3.2170278   -1.7145277   0.06656729   -3.2170278    1.5025001   425743 
 6891000   0.97277698   -3.2194191   -1.7146223  0.068132318   -3.2194191    1.5047967   425746 
 6892000   0.97237023   -3.2198026   -1.7155573  0.066544961   -3.2198026    1.5042453   425724 
 6893000   0.97022089   -3.2156472   -1.7148504  0.068145908   -3.2156472    1.5007969   425759 
 6894000   0.97052317   -3.2159938   -1.7146623  0.069970053   -3.2159938    1.5013315   425740 
 6895000   0.96924313   -3.2146149   -1.7152108  0.069522877   -3.2146149    1.4994041   425725 
 6896000   0.96948158   -3.2152313   -1.7153913  0.060251094   -3.2152313      1.49984   425706 
 6897000   0.96992437   -3.2148252   -1.7143214  0.065917905   -3.2148252    1.5005038   425712 
 6898000   0.96783393   -3.2131141   -1.7157492  0.067691205   -3.2131141    1.4973648   425685 
 6899000   0.96979585   -3.2172119   -1.7167448  0.062202716   -3.2172119    1.5004671   425666 
 6900000   0.96521847   -3.2110125   -1.7177117  0.061366007   -3.2110125    1.4933008   425690 
 6901000   0.96645062    -3.214822     -1.71965  0.056051352    -3.214822     1.495172   425700 
 6902000   0.96694613   -3.2151472   -1.7192403   0.05562987   -3.2151472    1.4959069   425709 
 6903000    0.9678033   -3.2149477   -1.7177322  0.061749996   -3.2149477    1.4972154   425714 
 6904000   0.96728325   -3.2126478   -1.7163107  0.059704204   -3.2126478    1.4963371   425735 
 6905000   0.96903973   -3.2138572   -1.7147747  0.056302267   -3.2138572    1.4990825   425727 
 6906000   0.96918364   -3.2146242   -1.7152065  0.061864452   -3.2146242    1.4994178   425695 
 6907000   0.96914639   -3.2140772   -1.7147699  0.059328904   -3.2140772    1.4993073   425710 
 6908000   0.96949596   -3.2151557   -1.7153499  0.062593754   -3.2151557    1.4998058   425722 
 6909000   0.96846601   -3.2136037   -1.7152644  0.064746197   -3.2136037    1.4983392   425686 
 6910000   0.97002136   -3.2169518   -1.7160194  0.064875921   -3.2169518    1.5009324   425633 
 6911000   0.96988453   -3.2177397   -1.7170155     0.064978   -3.2177397    1.5007242   425632 
 6912000   0.97031473   -3.2169821   -1.7156874  0.062645266   -3.2169821    1.5012946   425659 
 6913000   0.96930223   -3.2163036   -1.7165051  0.062969895   -3.2163036    1.4997986   425639 
 6914000   0.96828206   -3.2151964   -1.7169834  0.066584453   -3.2151964     1.498213   425641 
 6915000   0.96934586   -3.2160671   -1.7163526  0.064238704   -3.2160671    1.4997146   425682 
 6916000    0.9718909   -3.2177222   -1.7141301  0.063172237   -3.2177222     1.503592   425699 
 6917000    0.9719562   -3.2180919   -1.7144024  0.065894634   -3.2180919    1.5036895   425700 
 6918000   0.97129702   -3.2171984   -1.7145534  0.064965986   -3.2171984     1.502645   425707 
 6919000   0.97115427   -3.2175793   -1.7151799  0.067546996   -3.2175793    1.5023995   425714 
 6920000   0.97130629   -3.2182552   -1.7155817  0.067880761   -3.2182552    1.5026735   425703 
 6921000    0.9715438   -3.2198659   -1.7168461  0.064716125   -3.2198659    1.5030197   425709 
 6922000   0.97001106   -3.2177404   -1.7172364  0.059209821   -3.2177404     1.500504   425750 
 6923000   0.96875525    -3.216172   -1.7175507   0.06080682    -3.216172    1.4986212   425733 
 6924000   0.96970445   -3.2166753    -1.716487  0.063394741   -3.2166753    1.5001883   425705 
 6925000   0.96797828    -3.214891   -1.7173204  0.062060514    -3.214891    1.4975706   425690 
 6926000   0.96907171   -3.2167131   -1.7174403  0.064949073   -3.2167131    1.4992728   425687 
 6927000   0.96749934    -3.214737    -1.717925  0.070589631    -3.214737     1.496812   425695 
 6928000   0.96821537   -3.2166921   -1.7186667  0.063324409   -3.2166921    1.4980254   425665 
 6929000   0.96735248   -3.2160768   -1.7194568   0.05847403   -3.2160768      1.49662   425685 
 6930000    0.9686539   -3.2161948   -1.7176529  0.064225582   -3.2161948    1.4985419   425711 
 6931000   0.96838473   -3.2146986   -1.7166294  0.063066742   -3.2146986    1.4980692   425727 
 6932000   0.96890389   -3.2155767   -1.7166938  0.062868281   -3.2155767    1.4988829   425724 
 6933000   0.96990514   -3.2166359   -1.7161196  0.065387187   -3.2166359    1.5005164   425700 
 6934000   0.96794816   -3.2158573   -1.7183579  0.058046227   -3.2158573    1.4974993   425697 
 6935000   0.96772266   -3.2158064   -1.7186805  0.063900991   -3.2158064    1.4971259   425704 
 6936000   0.96923956   -3.2172398   -1.7176439  0.064753823   -3.2172398    1.4995959   425669 
 6937000   0.96744955   -3.2153083   -1.7184925  0.060622842   -3.2153083    1.4968159   425672 
 6938000   0.96839746   -3.2169986   -1.7186211  0.059952741   -3.2169986    1.4983775   425645 
 6939000   0.96785977   -3.2153336   -1.7179006  0.058583965   -3.2153336     1.497433   425677 
 6940000   0.96774465     -3.21653   -1.7193174  0.062133771     -3.21653    1.4972126   425689 
 6941000   0.96892984   -3.2201331   -1.7209987  0.060778297   -3.2201331    1.4991343   425664 
 6942000   0.97003769   -3.2182328   -1.7174831  0.065502702   -3.2182328    1.5007497   425692 
 6943000   0.97040552   -3.2191011   -1.7178317  0.065381838   -3.2191011    1.5012693   425706 
 6944000   0.97030264   -3.2186293   -1.7175332  0.062387277   -3.2186293    1.5010961   425710 
 6945000   0.96813177   -3.2154423   -1.7177433  0.066333743   -3.2154423     1.497699   425721 
 6946000   0.97130375   -3.2210979   -1.7185166  0.065246187   -3.2210979    1.5025813   425728 
 6947000   0.96947939   -3.2186875   -1.7187311  0.065022122   -3.2186875    1.4999564   425672 
 6948000   0.96890359    -3.217403   -1.7183692  0.065717107    -3.217403    1.4990338   425681 
 6949000   0.96836281   -3.2179874   -1.7197727  0.062296412   -3.2179874    1.4982148   425676 
 6950000   0.96795519   -3.2155734   -1.7179682  0.065174159   -3.2155734    1.4976052   425670 
 6951000    0.9684736   -3.2159932   -1.7176422  0.065499769   -3.2159932     1.498351   425686 
 6952000   0.96830822   -3.2175849    -1.719356  0.072525337   -3.2175849    1.4982288   425648 
 6953000   0.96885278   -3.2178955   -1.7188311  0.069452216   -3.2178955    1.4990644   425650 
 6954000   0.96957106   -3.2178793   -1.7176225  0.070132607   -3.2178793    1.5002568   425627 
 6955000   0.96909252   -3.2169031   -1.7174079  0.068060205   -3.2169031    1.4994952   425633 
 6956000   0.97086797   -3.2196987   -1.7173434   0.06336747   -3.2196987    1.5023553   425601 
 6957000   0.96899706   -3.2170545   -1.7175203  0.066930563   -3.2170545    1.4995342   425580 
 6958000   0.96783074   -3.2164841   -1.7188216  0.066211085   -3.2164841    1.4976625   425599 
 6959000    0.9676687   -3.2166062   -1.7190537  0.066360846   -3.2166062    1.4975525   425559 
 6960000   0.96852127   -3.2172678   -1.7183923  0.066194146   -3.2172678    1.4988754   425558 
 6961000   0.96803489   -3.2181652    -1.719951  0.062088696   -3.2181652    1.4982142   425532 
 6962000   0.96624081   -3.2175569   -1.7221334  0.062753113   -3.2175569    1.4954235   425536 
 6963000   0.96497122   -3.2174594   -1.7236989  0.065272406   -3.2174594    1.4937605   425450 
 6964000    0.9658377   -3.2179221   -1.7226235  0.059193498   -3.2179221    1.4952986   425394 
 6965000   0.96735462    -3.219494   -1.7218082  0.062712473    -3.219494    1.4976858   425383 
 6966000   0.96791494   -3.2203082   -1.7218747  0.058508386   -3.2203082    1.4984335   425417 
 6967000   0.96980811   -3.2229535   -1.7215715  0.060041427   -3.2229535     1.501382   425412 
 6968000   0.96878873   -3.2213023    -1.721449  0.061452111   -3.2213023    1.4998532   425398 
 6969000   0.96531494   -3.2171133   -1.7227715  0.062251833   -3.2171133    1.4943417   425436 
 6970000   0.96687022   -3.2176702   -1.7210052  0.063458521   -3.2176702    1.4966649   425460 
 6971000   0.96634983   -3.2162048   -1.7204649  0.061909122   -3.2162048    1.4957399   425494 
 6972000   0.96843398   -3.2194623   -1.7205106  0.063982588   -3.2194623    1.4989517   425498 
 6973000   0.96872261   -3.2198126   -1.7205446  0.057663578   -3.2198126     1.499268   425535 
 6974000   0.96909733   -3.2212824   -1.7215613  0.060249373   -3.2212824    1.4997211   425571 
 6975000   0.96914116   -3.2208132   -1.7210242  0.062229866   -3.2208132    1.4997889   425571 
 6976000   0.96932377   -3.2205654   -1.7205679  0.065552227   -3.2205654    1.4999975   425592 
 6977000   0.96854483   -3.2192317   -1.7204325  0.065707161   -3.2192317    1.4987992   425590 
 6978000   0.96998221   -3.2219116   -1.7209234  0.064859198   -3.2219116    1.5009882   425600 
 6979000   0.96784659   -3.2188626   -1.7212178  0.066616983   -3.2188626    1.4976448   425611 
 6980000   0.96976954   -3.2216186   -1.7211674  0.059393259   -3.2216186    1.5004511   425659 
 6981000   0.96827685   -3.2188935     -1.72078  0.065988322   -3.2188935    1.4981134   425667 
 6982000   0.96856619   -3.2200742   -1.7214462  0.060889897   -3.2200742     1.498628   425648 
 6983000   0.96790703   -3.2204779   -1.7227572  0.063528196   -3.2204779    1.4977207   425616 
 6984000   0.96803885   -3.2204786     -1.72248  0.065306146   -3.2204786    1.4979986   425595 
 6985000   0.96919459   -3.2216669   -1.7216966  0.065219796   -3.2216669    1.4999703   425543 
 6986000   0.96820983   -3.2210771   -1.7226062  0.067474133   -3.2210771    1.4984709   425536 
 6987000   0.96841379    -3.220956   -1.7222012  0.068174333    -3.220956    1.4987549   425545 
 6988000   0.96769221   -3.2209157   -1.7233093  0.066445216   -3.2209157    1.4976064   425554 
 6989000    0.9666502   -3.2202884   -1.7242384  0.057351423   -3.2202884    1.4960501   425538 
 6990000   0.96793986    -3.221838   -1.7239469  0.060366448    -3.221838    1.4978912   425582 
 6991000   0.96744807   -3.2210752   -1.7239521  0.067254156   -3.2210752    1.4971231   425584 
 6992000   0.96809029   -3.2218178   -1.7235389  0.062324088   -3.2218178    1.4982788   425538 
 6993000   0.96896652   -3.2215287   -1.7220558   0.05550205   -3.2215287    1.4994729   425584 
 6994000   0.96741502   -3.2196595   -1.7225348  0.063717162   -3.2196595    1.4971247   425569 
 6995000   0.96798717   -3.2199718   -1.7220145  0.067406931   -3.2199718    1.4979573   425584 
 6996000   0.96816907    -3.221052   -1.7229012  0.060476328    -3.221052    1.4981508   425609 
 6997000   0.96717919   -3.2202061   -1.7236293   0.06595337   -3.2202061    1.4965769   425621 
 6998000   0.96682313   -3.2194698   -1.7235352  0.062077536   -3.2194698    1.4959345   425647 
 6999000   0.96814149   -3.2200686   -1.7221118  0.060916116   -3.2200686    1.4979568   425652 
 7000000   0.96772323    -3.221135   -1.7236917  0.058527157    -3.221135    1.4974433   425614 
 7001000   0.96610937   -3.2187469   -1.7237341  0.061481651   -3.2187469    1.4950128   425595 
 7002000    0.9677061   -3.2212934    -1.723845  0.058890515   -3.2212934    1.4974485   425605 
 7003000   0.96740525   -3.2181135   -1.7211552  0.064208535   -3.2181135    1.4969583   425612 
 7004000   0.96814355   -3.2184777   -1.7203418  0.065988254   -3.2184777     1.498136   425602 
 7005000   0.96784534    -3.220745   -1.7231338  0.064393711    -3.220745    1.4976112   425620 
 7006000    0.9678758   -3.2198043   -1.7221461  0.060832762   -3.2198043    1.4976583   425620 
 7007000   0.96768582   -3.2198924   -1.7224964  0.062872872   -3.2198924     1.497396   425611 
 7008000   0.96890366   -3.2212603   -1.7219058  0.061116845   -3.2212603    1.4993545   425590 
 7009000    0.9681956   -3.2196543   -1.7214167  0.062201996   -3.2196543    1.4982376   425596 
 7010000    0.9677372   -3.2191259   -1.7214674  0.065397881   -3.2191259    1.4976585   425559 
 7011000   0.96819992   -3.2209304     -1.72251  0.061826062   -3.2209304    1.4984203   425546 
 7012000   0.96730137   -3.2205839   -1.7234874  0.066015583   -3.2205839    1.4970966   425527 
 7013000   0.96595587    -3.219269   -1.7243322   0.06719509    -3.219269    1.4949368   425549 
 7014000   0.96647197    -3.220222   -1.7245392  0.063842606    -3.220222    1.4956828   425564 
 7015000   0.96756602   -3.2215269   -1.7241686   0.06671816   -3.2215269    1.4973584   425569 
 7016000   0.96894496   -3.2207941   -1.7213934  0.065055234   -3.2207941    1.4994007   425595 
 7017000   0.96833298   -3.2215996   -1.7232022  0.063949834   -3.2215996    1.4983974   425611 
 7018000   0.96881292   -3.2225268   -1.7233339  0.062356131   -3.2225268    1.4991929   425596 
 7019000   0.96944373   -3.2232126    -1.723107  0.062877646   -3.2232126    1.5001056   425614 
 7020000    0.9675818   -3.2198463   -1.7226183  0.067386486   -3.2198463     1.497228   425613 
 7021000   0.96761185   -3.2205045    -1.723135  0.064401112   -3.2205045    1.4973695   425586 
 7022000    0.9676893   -3.2196433   -1.7221997  0.066699726   -3.2196433    1.4974436   425599 
 7023000   0.96850695   -3.2198658   -1.7211287  0.066354904   -3.2198658     1.498737   425591 
 7024000   0.96744788   -3.2199898   -1.7229057  0.066822997   -3.2199898    1.4970841   425595 
 7025000   0.96842145   -3.2206128   -1.7221102  0.067002906   -3.2206128    1.4985026   425620 
 7026000   0.96793858   -3.2198306   -1.7221912  0.066852262   -3.2198306    1.4976393   425653 
 7027000   0.96773033   -3.2192688   -1.7218672   0.05764281   -3.2192688    1.4974015   425629 
 7028000   0.96562204   -3.2183205   -1.7240654  0.063405738   -3.2183205    1.4942552   425596 
 7029000   0.96686996   -3.2193313   -1.7232083  0.061133857   -3.2193313     1.496123   425614 
 7030000   0.96717403   -3.2203661   -1.7237867  0.062788691   -3.2203661    1.4965794   425618 
 7031000   0.96719298    -3.219685   -1.7230587  0.063925043    -3.219685    1.4966263   425613 
 7032000   0.96730994   -3.2190701   -1.7223718   0.05913117   -3.2190701    1.4966983   425644 
 7033000   0.96730059   -3.2187133   -1.7220892  0.061099373   -3.2187133    1.4966241   425661 
 7034000   0.96685276   -3.2193557   -1.7233472  0.064438931   -3.2193557    1.4960085   425639 
 7035000   0.96768616   -3.2217179   -1.7244164  0.061490381   -3.2217179    1.4973015   425638 
 7036000   0.96898807   -3.2228474   -1.7235032  0.057483976   -3.2228474    1.4993442   425630 
 7037000   0.96954634   -3.2240315   -1.7237108  0.066285777   -3.2240315    1.5003208   425598 
 7038000   0.96889286   -3.2232686   -1.7240541  0.064861321   -3.2232686    1.4992145   425625 
 7039000   0.96634791    -3.220294   -1.7251685  0.059239247    -3.220294    1.4951255   425668 
 7040000   0.96820989   -3.2217786   -1.7239377  0.061663395   -3.2217786    1.4978409   425715 
 7041000   0.96915896   -3.2231389   -1.7238508  0.062504554   -3.2231389     1.499288   425721 
 7042000   0.96950684   -3.2224199   -1.7225338  0.062562561   -3.2224199    1.4998861   425704 
 7043000   0.96825144    -3.222082   -1.7241381  0.058916429    -3.222082    1.4979439   425704 
 7044000   0.96724386   -3.2218224   -1.7255427  0.062441146   -3.2218224    1.4962797   425734 
 7045000   0.96752561   -3.2211371   -1.7243442  0.061581692   -3.2211371    1.4967929   425712 
 7046000   0.96889203   -3.2223764   -1.7236069  0.065562069   -3.2223764    1.4987695   425751 
 7047000   0.96869365   -3.2217752   -1.7233724  0.060625837   -3.2217752    1.4984028   425768 
 7048000   0.96779757   -3.2199884   -1.7229752   0.06241397   -3.2199884    1.4970132   425769 
 7049000   0.96852058   -3.2200139   -1.7218859  0.065884751   -3.2200139     1.498128   425770 
 7050000   0.96974791   -3.2228998   -1.7229755  0.069738029   -3.2228998    1.4999243   425799 
 7051000   0.96881476   -3.2200594   -1.7215784  0.063280955   -3.2200594     1.498481   425799 
 7052000   0.96954394   -3.2195172   -1.7200105  0.068220602   -3.2195172    1.4995067   425828 
 7053000   0.97052625   -3.2213721   -1.7202192  0.066006758   -3.2213721    1.5011529   425792 
 7054000   0.96987125   -3.2196841   -1.7194774  0.068192147   -3.2196841    1.5002067   425773 
 7055000   0.97059912   -3.2211034   -1.7197355  0.062652471   -3.2211034    1.5013678   425763 
 7056000   0.96952607    -3.220892   -1.7211453  0.064576744    -3.220892    1.4997467   425752 
 7057000   0.97003933   -3.2202104   -1.7196133  0.069529296   -3.2202104    1.5005971   425736 
 7058000   0.97038855   -3.2216392   -1.7204984  0.067621826   -3.2216392    1.5011408   425735 
 7059000   0.97014726   -3.2191531   -1.7183608  0.063506422   -3.2191531    1.5007922   425728 
 7060000   0.97000509   -3.2205374   -1.7199897  0.065001814   -3.2205374    1.5005476   425735 
 7061000   0.96938329   -3.2195092   -1.7198882   0.05778373   -3.2195092     1.499621   425725 
 7062000   0.96932654   -3.2186853   -1.7191592  0.066242183   -3.2186853    1.4995261   425727 
 7063000   0.96792504    -3.217511   -1.7201529  0.063249033    -3.217511    1.4973581   425727 
 7064000    0.9674731   -3.2184836   -1.7218669  0.056738669   -3.2184836    1.4966167   425739 
 7065000   0.96647548   -3.2176992    -1.722566  0.061779061   -3.2176992    1.4951332   425722 
 7066000   0.96703643    -3.216353   -1.7203555  0.061746871    -3.216353    1.4959974   425723 
 7067000   0.96606104   -3.2131533   -1.7187034   0.05891621   -3.2131533    1.4944499   425734 
 7068000   0.96755593   -3.2155674   -1.7187839  0.057531988   -3.2155674    1.4967835   425728 
 7069000   0.96845081   -3.2168829   -1.7186059  0.063510021   -3.2168829     1.498277   425697 
 7070000   0.96859443   -3.2182742   -1.7197644  0.058842624   -3.2182742    1.4985097   425694 
 7071000   0.96632005   -3.2150375   -1.7200289  0.067566485   -3.2150375    1.4950086   425689 
 7072000   0.96864847    -3.218705   -1.7201644  0.064015069    -3.218705    1.4985405   425709 
 7073000   0.96765255   -3.2175216   -1.7205183  0.059246286   -3.2175216    1.4970033   425708 
 7074000   0.96911053   -3.2188108    -1.719559  0.058308489   -3.2188108    1.4992518   425710 
 7075000   0.96926687   -3.2197427   -1.7203547  0.060192671   -3.2197427    1.4993881   425740 
 7076000   0.96862842   -3.2171508   -1.7188419   0.06359949   -3.2171508    1.4983089   425766 
 7077000   0.96923416   -3.2174318   -1.7182282  0.065033034   -3.2174318    1.4992036   425778 
 7078000   0.96983441   -3.2171993   -1.7170707  0.068866867   -3.2171993    1.5001286   425779 
 7079000   0.97035214   -3.2177665    -1.716883  0.061635347   -3.2177665    1.5008836   425792 
 7080000   0.96993766   -3.2179226   -1.7175921  0.065129447   -3.2179226    1.5003306   425767 
 7081000   0.97073505   -3.2189579   -1.7173868  0.063813966   -3.2189579    1.5015711   425765 
 7082000   0.97019095   -3.2176091   -1.7169749  0.069364426   -3.2176091    1.5006342   425792 
 7083000   0.97162541   -3.2198954   -1.7170354  0.062461539   -3.2198954    1.5028601   425790 
 7084000   0.97066109   -3.2195189   -1.7182279  0.069066543   -3.2195189    1.5012909   425812 
 7085000   0.97165832    -3.219662   -1.7167687  0.068641733    -3.219662    1.5028933   425795 
 7086000   0.97122701   -3.2194642   -1.7173333  0.069210242   -3.2194642    1.5021309   425822 
 7087000   0.97085874   -3.2202378   -1.7185495  0.064754815   -3.2202378    1.5016883   425786 
 7088000   0.96844506   -3.2171928   -1.7191992  0.062709217   -3.2171928    1.4979936   425775 
 7089000   0.96714924   -3.2166987   -1.7207516  0.062167805   -3.2166987    1.4959471   425787 
 7090000    0.9684241   -3.2177191   -1.7198106  0.065431929   -3.2177191    1.4979084   425790 
 7091000   0.96935375     -3.21911   -1.7198974   0.06050906     -3.21911    1.4992126   425828 
 7092000   0.96922798   -3.2175355   -1.7185492  0.058490409   -3.2175355    1.4989864   425837 
 7093000   0.96909956   -3.2166354   -1.7178195  0.060990091   -3.2166354    1.4988159   425829 
 7094000    0.9688303   -3.2168249   -1.7183128  0.063941635   -3.2168249    1.4985121   425797 
 7095000   0.96842921   -3.2139642   -1.7161041  0.065848665   -3.2139642      1.49786   425806 
 7096000   0.96940861   -3.2159256   -1.7166176  0.065616233   -3.2159256     1.499308   425825 
 7097000   0.96727616   -3.2137022    -1.717601  0.063215335   -3.2137022    1.4961012   425799 
 7098000   0.97004315   -3.2160822   -1.7157823  0.063512155   -3.2160822    1.5002999   425822 
 7099000   0.97043206   -3.2161503   -1.7153017  0.065127323   -3.2161503    1.5008486   425837 
 7100000   0.97044321   -3.2159471   -1.7151906  0.062629194   -3.2159471    1.5007566   425868 
 7101000   0.97179952   -3.2170325   -1.7141996  0.059959973   -3.2170325    1.5028329   425874 
 7102000   0.96836505   -3.2135564   -1.7159328   0.06983876   -3.2135564    1.4976236   425845 
 7103000    0.9687726   -3.2138728   -1.7156012   0.06433683   -3.2138728    1.4982715   425840 
 7104000   0.96890994   -3.2153528   -1.7167704  0.062340376   -3.2153528    1.4985825   425812 
 7105000    0.9682948   -3.2148445   -1.7171994  0.062202017   -3.2148445    1.4976451   425808 
 7106000   0.96923428   -3.2141303   -1.7150567  0.061675032   -3.2141303    1.4990736   425815 
 7107000   0.96928744   -3.2147847   -1.7156078  0.057866471   -3.2147847    1.4991769   425809 
 7108000   0.96878957   -3.2143638   -1.7160309  0.063504672   -3.2143638     1.498333   425830 
 7109000   0.96789473   -3.2124974   -1.7155343  0.064230298   -3.2124974    1.4969631   425826 
 7110000   0.97037854   -3.2155787   -1.7147248  0.062725137   -3.2155787    1.5008539   425812 
 7111000   0.96932529   -3.2139262   -1.7149407   0.06471135   -3.2139262    1.4989855   425880 
 7112000   0.97206773   -3.2173229   -1.7140576   0.06715098   -3.2173229    1.5032653   425869 
 7113000   0.97068262   -3.2148121   -1.7136043  0.067185898   -3.2148121    1.5012079   425845 
 7114000   0.97051378   -3.2148285    -1.713991  0.068173355   -3.2148285    1.5008375   425876 
 7115000   0.97174356   -3.2167176   -1.7139819   0.06424011   -3.2167176    1.5027357   425877 
 7116000   0.96944429   -3.2148736   -1.7156161  0.065675637   -3.2148736    1.4992575   425855 
 7117000   0.97102041   -3.2174615   -1.7159181  0.067036204   -3.2174615    1.5015434   425898 
 7118000   0.97149034   -3.2172824   -1.7149947  0.064088284   -3.2172824    1.5022877   425893 
 7119000   0.97146187   -3.2183404   -1.7159979    0.0650322   -3.2183404    1.5023425   425865 
 7120000   0.96971809   -3.2175009   -1.7178129  0.072339917   -3.2175009     1.499688   425853 
 7121000   0.96938552   -3.2165471   -1.7173382  0.066975982   -3.2165471    1.4992089   425843 
 7122000   0.96912741   -3.2161375   -1.7173032  0.063215509   -3.2161375    1.4988343   425836 
 7123000   0.97011413   -3.2173421   -1.7169218  0.064019705   -3.2173421    1.5004203   425819 
 7124000    0.9703613   -3.2171775   -1.7164314   0.06715228   -3.2171775    1.5007462   425835 
 7125000   0.97105817   -3.2170935   -1.7153331   0.06416954   -3.2170935    1.5017605   425853 
 7126000   0.97228968   -3.2175747   -1.7139662   0.06523933   -3.2175747    1.5036085   425869 
 7127000   0.97116559   -3.2178196   -1.7159389  0.060102287   -3.2178196    1.5018808   425866 
 7128000   0.97094917   -3.2172411   -1.7156774  0.065443843   -3.2172411    1.5015637   425861 
 7129000    0.9719973   -3.2182289   -1.7150196  0.067447794   -3.2182289    1.5032093   425854 
 7130000   0.97086354   -3.2171431   -1.7156131  0.063332946   -3.2171431      1.50153   425833 
 7131000   0.97016843   -3.2161318   -1.7156592  0.068335455   -3.2161318    1.5004726   425828 
 7132000   0.97128835   -3.2183363    -1.715987  0.062076774   -3.2183363    1.5023493   425787 
 7133000   0.96959895   -3.2155737   -1.7157213  0.067579693   -3.2155737    1.4998524   425754 
 7134000   0.96954682   -3.2166462    -1.716885  0.058948845   -3.2166462    1.4997612   425757 
 7135000   0.96951047   -3.2163467   -1.7165712  0.059458852   -3.2163467    1.4997755   425737 
 7136000   0.96870601   -3.2132342    -1.714756  0.065666721   -3.2132342    1.4984782   425752 
 7137000   0.97016202   -3.2139309   -1.7133379  0.064403727   -3.2139309     1.500593   425791 
 7138000   0.97161439   -3.2164039   -1.7135292  0.063278311   -3.2164039    1.5028748   425781 
 7139000   0.97204879   -3.2164886   -1.7128749   0.05827458   -3.2164886    1.5036138   425762 
 7140000    0.9705519   -3.2135308    -1.712236  0.067980916   -3.2135308    1.5012948   425763 
 7141000   0.97041051   -3.2147133   -1.7136619  0.064386338   -3.2147133    1.5010514   425770 
 7142000   0.97020063   -3.2128969   -1.7120855  0.065199725   -3.2128969    1.5008114   425746 
 7143000   0.96991612   -3.2131137   -1.7127002  0.061974565   -3.2131137    1.5004135   425734 
 7144000   0.97046967   -3.2128645   -1.7116017  0.062832929   -3.2128645    1.5012628   425736 
 7145000   0.97010481   -3.2136101   -1.7129999  0.068744182   -3.2136101    1.5006103   425761 
 7146000   0.96879098    -3.211955   -1.7133981  0.062588631    -3.211955    1.4985568   425767 
 7147000   0.96827089   -3.2132931    -1.715481  0.062992749   -3.2132931    1.4978121   425750 
 7148000   0.96886006    -3.214534   -1.7158914   0.06138249    -3.214534    1.4986426   425773 
 7149000   0.96890131   -3.2135751   -1.7149356  0.062871794   -3.2135751    1.4986395   425792 
 7150000   0.96791344   -3.2120959   -1.7149703  0.064594653   -3.2120959    1.4971256   425788 
 7151000   0.96874349   -3.2133087   -1.7149133  0.062339363   -3.2133087    1.4983954   425792 
 7152000   0.96742985   -3.2121796   -1.7157738  0.066593776   -3.2121796    1.4964057   425780 
 7153000   0.96851649   -3.2140605   -1.7159177  0.064122008   -3.2140605    1.4981428   425764 
 7154000    0.9693776   -3.2151801   -1.7156173  0.061778951   -3.2151801    1.4995629   425739 
 7155000   0.96880512   -3.2158934   -1.7172126  0.057676208   -3.2158934    1.4986808   425738 
 7156000   0.96879348    -3.213228   -1.7146673  0.066591386    -3.213228    1.4985607   425767 
 7157000   0.96980576   -3.2152188   -1.7151768  0.067659927   -3.2152188     1.500042   425791 
 7158000   0.97023444   -3.2142217    -1.713566  0.062579976   -3.2142217    1.5006557   425805 
 7159000   0.97150831   -3.2155934   -1.7128933  0.065661024   -3.2155934    1.5027001   425784 
 7160000   0.97199071   -3.2160223    -1.712569  0.065069042   -3.2160223    1.5034533   425782 
 7161000   0.97182193   -3.2157745   -1.7126176  0.069656274   -3.2157745    1.5031569   425792 
 7162000   0.97137419   -3.2153285   -1.7129947  0.070985754   -3.2153285    1.5023339   425829 
 7163000   0.97119142   -3.2166489   -1.7145836  0.065837115   -3.2166489    1.5020653   425825 
 7164000   0.97152566   -3.2177105   -1.7150682  0.062075394   -3.2177105    1.5026422   425808 
 7165000   0.97024772    -3.217056   -1.7164432  0.066113595    -3.217056    1.5006128   425823 
 7166000   0.96862817   -3.2150974   -1.7170387  0.065574097   -3.2150974    1.4980587   425837 
 7167000   0.96897774   -3.2157374   -1.7171028  0.063375537   -3.2157374    1.4986345   425827 
 7168000   0.97054873   -3.2180549   -1.7170471  0.060086446   -3.2180549    1.5010079   425843 
 7169000   0.96951793   -3.2171842   -1.7178409  0.065847097   -3.2171842    1.4993433   425863 
 7170000   0.96841432   -3.2126059   -1.7149975  0.059818264   -3.2126059    1.4976084   425871 
 7171000   0.96892606   -3.2144313   -1.7160632  0.060872232   -3.2144313    1.4983681   425880 
 7172000   0.96978902   -3.2141143   -1.7144891  0.058401126   -3.2141143    1.4996252   425902 
 7173000   0.96960066   -3.2124152    -1.713039  0.062401565   -3.2124152    1.4993761   425890 
 7174000   0.96869198   -3.2114852   -1.7135248  0.064889074   -3.2114852    1.4979604   425893 
 7175000    0.9691653   -3.2119171   -1.7132459  0.063997551   -3.2119171    1.4986712   425899 
 7176000   0.97194163   -3.2146683    -1.711725  0.066774411   -3.2146683    1.5029432   425905 
 7177000   0.97089434   -3.2123895   -1.7110269  0.061384295   -3.2123895    1.5013625   425894 
 7178000   0.96994923   -3.2127321   -1.7127852  0.066000137   -3.2127321    1.4999468   425881 
 7179000   0.97072212   -3.2152391   -1.7141006  0.065134879   -3.2152391    1.5011385   425882 
 7180000   0.97078694   -3.2144285   -1.7132108   0.06343842   -3.2144285    1.5012176   425888 
 7181000   0.97052871   -3.2146445    -1.713791  0.061565339   -3.2146445    1.5008535   425878 
 7182000   0.97103214    -3.214297   -1.7126896  0.069230949    -3.214297    1.5016074   425885 
 7183000   0.97022458   -3.2138649   -1.7134324  0.064629351   -3.2138649    1.5004326   425864 
 7184000   0.97085061   -3.2144705   -1.7131262  0.062543947   -3.2144705    1.5013443   425880 
 7185000   0.96939857   -3.2135848   -1.7141938  0.063171887   -3.2135848     1.499391   425797 
 7186000   0.96986606   -3.2137799   -1.7136059  0.063524864   -3.2137799     1.500174   425780 
 7187000   0.96834556   -3.2120479   -1.7142188  0.064417243   -3.2120479    1.4978292   425778 
 7188000   0.97059894   -3.2165897   -1.7153244  0.057565777   -3.2165897    1.5012653   425792 
 7189000   0.96931509   -3.2133495   -1.7142073  0.059594705   -3.2133495    1.4991422   425831 
 7190000   0.96767655   -3.2125839   -1.7158317  0.067166008   -3.2125839    1.4967522   425790 
 7191000   0.96838922   -3.2140612   -1.7162455  0.061390373   -3.2140612    1.4978158   425801 
 7192000   0.96792677   -3.2126473   -1.7155785  0.067138175   -3.2126473    1.4970689   425810 
 7193000   0.96698939    -3.210155   -1.7145254  0.067810993    -3.210155    1.4956296   425807 
 7194000    0.9704853   -3.2164011   -1.7152868  0.063833085   -3.2164011    1.5011142   425785 
 7195000   0.96904394   -3.2119886   -1.7130651   0.06977815   -3.2119886    1.4989235   425774 
 7196000   0.96954189   -3.2136612   -1.7140555  0.066146637   -3.2136612    1.4996057   425799 
 7197000   0.97100805   -3.2169153    -1.714929  0.065359193   -3.2169153    1.5019863   425767 
 7198000   0.96950753   -3.2156034   -1.7161213  0.057307256   -3.2156034    1.4994821   425819 
 7199000   0.97063525   -3.2172737   -1.7161814  0.066002061   -3.2172737    1.5010923   425857 
 7200000   0.97195064   -3.2176803   -1.7146949  0.055844713   -3.2176803    1.5029854   425897 
 7201000   0.96961244   -3.2138301   -1.7145695  0.071049587   -3.2138301    1.4992606   425928 
 7202000   0.96896546   -3.2136003   -1.7153717  0.062988442   -3.2136003    1.4982285   425937 
 7203000   0.97055658   -3.2143666   -1.7135792  0.059770999   -3.2143666    1.5007874   425909 
 7204000   0.97022436   -3.2137623   -1.7135555  0.064976893   -3.2137623    1.5002068   425928 
 7205000    0.9693446   -3.2132015   -1.7144501    0.0619024   -3.2132015    1.4987514   425955 
 7206000   0.97028548   -3.2135723   -1.7134331  0.068303366   -3.2135723    1.5001392   425974 
 7207000   0.97033213   -3.2150412   -1.7148264  0.060245785   -3.2150412    1.5002149   425973 
 7208000   0.97173528   -3.2159186    -1.713559  0.061046905   -3.2159186    1.5023596   425980 
 7209000   0.97009858   -3.2142948   -1.7144093   0.06768614   -3.2142948    1.4998855   425964 
 7210000   0.97036045   -3.2156667   -1.7154221  0.065893208   -3.2156667    1.5002446   425977 
 7211000   0.96978424   -3.2142702   -1.7147546  0.066570504   -3.2142702    1.4995157   425931 
 7212000   0.96945056   -3.2148029   -1.7157574  0.068914883   -3.2148029    1.4990455   425918 
 7213000   0.96993487   -3.2171052   -1.7173778  0.064115638   -3.2171052    1.4997274   425937 
 7214000   0.96880793   -3.2149633   -1.7170382  0.071649266   -3.2149633    1.4979252   425954 
 7215000   0.97040127   -3.2172074   -1.7168574  0.062585907   -3.2172074      1.50035   425965 
 7216000   0.96967288   -3.2167108   -1.7175433  0.064163749   -3.2167108    1.4991675   425981 
 7217000   0.96748451   -3.2135735   -1.7177016  0.062167944   -3.2135735    1.4958719   425956 
 7218000   0.96901578    -3.216152   -1.7180321  0.062510613    -3.216152    1.4981199   425990 
 7219000   0.97006812    -3.216804   -1.7170888  0.062447209    -3.216804    1.4997152   425999 
 7220000   0.96800471   -3.2146769   -1.7181728  0.063234552   -3.2146769    1.4965041   426005 
 7221000   0.97049241   -3.2192767   -1.7188351  0.061226639   -3.2192767    1.5004416   425979 
 7222000   0.97035046   -3.2187882   -1.7185801   0.06182333   -3.2187882     1.500208   425983 
 7223000   0.96897032   -3.2165986   -1.7183942  0.064899444   -3.2165986    1.4982044   425946 
 7224000   0.97046558   -3.2183589   -1.7178707  0.062053588   -3.2183589    1.5004881   425954 
 7225000   0.97044622   -3.2167933   -1.7163703  0.062790053   -3.2167933     1.500423   425964 
 7226000   0.96900134   -3.2146773    -1.716439  0.067426522   -3.2146773    1.4982383   425950 
 7227000   0.97145948   -3.2182251   -1.7160098  0.066696838   -3.2182251    1.5022153   425900 
 7228000   0.96858939   -3.2138786   -1.7161612  0.071393586   -3.2138786    1.4977174   425917 
 7229000    0.9701811   -3.2181454   -1.7178365  0.062038627   -3.2181454    1.5003089   425880 
 7230000   0.96972924   -3.2191625   -1.7195417  0.065666056   -3.2191625    1.4996207   425877 
 7231000   0.97067481   -3.2176805   -1.7166786  0.062681454   -3.2176805    1.5010019   425900 
 7232000   0.97012333    -3.218258   -1.7181335  0.069262847    -3.218258    1.5001245   425907 
 7233000   0.96850803   -3.2178237   -1.7201653  0.063651617   -3.2178237    1.4976584   425898 
 7234000   0.96835887   -3.2161439   -1.7187373  0.063511532   -3.2161439    1.4974066   425904 
 7235000   0.96853849   -3.2156204   -1.7178306  0.062804072   -3.2156204    1.4977899   425874 
 7236000   0.96853965   -3.2160513   -1.7184777  0.064620717   -3.2160513    1.4975736   425936 
 7237000   0.96940637   -3.2173949   -1.7184002  0.059668646   -3.2173949    1.4989947   425913 
 7238000   0.96898423   -3.2169767   -1.7186312  0.062160449   -3.2169767    1.4983455   425912 
 7239000   0.96994943   -3.2164385   -1.7166639  0.066656714   -3.2164385    1.4997746   425930 
 7240000   0.97155689   -3.2177186    -1.715335  0.066206155   -3.2177186    1.5023836   425895 
 7241000   0.96932302   -3.2154688   -1.7165994  0.062693769   -3.2154688    1.4988694   425912 
 7242000     0.969783   -3.2155242   -1.7160281  0.064515057   -3.2155242    1.4994961   425936 
 7243000   0.96961988   -3.2155384   -1.7162452  0.066532101   -3.2155384    1.4992932   425922 
 7244000   0.96937335   -3.2142815    -1.715271  0.071557967   -3.2142815    1.4990105   425894 
 7245000   0.97210333   -3.2158605   -1.7125296  0.067028673   -3.2158605    1.5033309   425866 
 7246000   0.97117548   -3.2148847   -1.7130803  0.061024706   -3.2148847    1.5018044   425892 
 7247000   0.96947857   -3.2136654   -1.7144428  0.062774745   -3.2136654    1.4992225   425880 
 7248000   0.96828361   -3.2137191   -1.7163902  0.064549844   -3.2137191    1.4973289   425893 
 7249000   0.96887914   -3.2155808   -1.7173873  0.060341042   -3.2155808    1.4981935   425909 
 7250000   0.96867244   -3.2155816    -1.717662  0.059350699   -3.2155816    1.4979196   425896 
 7251000   0.96764157   -3.2134749   -1.7172232  0.060553321   -3.2134749    1.4962518   425917 
 7252000   0.96975031   -3.2146829   -1.7150824  0.063690749   -3.2146829    1.4996005   425892 
 7253000   0.96877609   -3.2120806   -1.7138283  0.063097683   -3.2120806    1.4982523   425847 
 7254000   0.96989806   -3.2138302    -1.713885  0.056879381   -3.2138302    1.4999452   425859 
 7255000   0.96921951   -3.2131763   -1.7142453  0.062097568   -3.2131763     1.498931   425849 
 7256000   0.96945161   -3.2136714   -1.7142864  0.066054847   -3.2136714     1.499385   425822 
 7257000    0.9703166   -3.2140486   -1.7132799  0.066199142   -3.2140486    1.5007687   425809 
 7258000     0.971363   -3.2146466   -1.7123865  0.068067987   -3.2146466    1.5022601   425845 
 7259000   0.96873035    -3.210592   -1.7124667  0.065504322    -3.210592    1.4981253   425863 
 7260000   0.97122287    -3.215034   -1.7131811  0.060680763    -3.215034    1.5018529   425899 
 7261000   0.97114714   -3.2139139   -1.7122133  0.068410305   -3.2139139    1.5017006   425909 
 7262000   0.96934916   -3.2121224   -1.7131281   0.06222392   -3.2121224    1.4989942   425888 
 7263000   0.97048275    -3.212043   -1.7114367  0.062903205    -3.212043    1.5006063   425928 
 7264000   0.96970855   -3.2116701   -1.7122574  0.064950615   -3.2116701    1.4994127   425927 
 7265000   0.96962431    -3.213637   -1.7142067  0.065545563    -3.213637    1.4994303   425885 
 7266000   0.96869189   -3.2116977   -1.7136389  0.063719553   -3.2116977    1.4980588   425865 
 7267000   0.97046908   -3.2134929   -1.7126012  0.061994074   -3.2134929    1.5008917   425841 
 7268000   0.97217361   -3.2169452   -1.7135621  0.061327176   -3.2169452    1.5033831   425882 
 7269000    0.9689959   -3.2127369   -1.7142995  0.066932374   -3.2127369    1.4984374   425891 
 7270000   0.97037946   -3.2136033   -1.7130757  0.067173351   -3.2136033    1.5005276   425905 
 7271000   0.97089802   -3.2129984   -1.7118064  0.060256912   -3.2129984     1.501192   425944 
 7272000   0.97119681   -3.2136178   -1.7119956  0.062993867   -3.2136178    1.5016223   425953 
 7273000   0.97144105   -3.2140816   -1.7121029  0.062365956   -3.2140816    1.5019787   425959 
 7274000   0.97174354   -3.2160149   -1.7134661  0.068823163   -3.2160149    1.5025487   425930 
 7275000   0.96982312   -3.2137684   -1.7142278  0.062287055   -3.2137684    1.4995406   425941 
 7276000   0.96959725   -3.2119728   -1.7127745  0.067977012   -3.2119728    1.4991984   425939 
 7277000   0.96992024    -3.213538   -1.7139635  0.063953254    -3.213538    1.4995746   425974 
 7278000   0.96960292   -3.2128846   -1.7137162  0.065037822   -3.2128846    1.4991684   425950 
 7279000    0.9700207   -3.2139227   -1.7141329   0.06296088   -3.2139227    1.4997897   425957 
 7280000   0.96934625   -3.2120339    -1.713477  0.066086173   -3.2120339     1.498557   426011 
 7281000    0.9699285   -3.2144051   -1.7149515   0.06695427   -3.2144051    1.4994536   426012 
 7282000   0.97125737   -3.2161837   -1.7145982  0.065160019   -3.2161837    1.5015855   425990 
 7283000   0.97018797   -3.2141323   -1.7140312  0.064592702   -3.2141323    1.5001012   425942 
 7284000    0.9712545   -3.2158163   -1.7141894  0.060796018   -3.2158163    1.5016269   425977 
 7285000   0.97119856   -3.2155014    -1.713894  0.065481185   -3.2155014    1.5016073   425958 
 7286000   0.97050287   -3.2155928   -1.7150188  0.063277019   -3.2155928     1.500574   425946 
 7287000   0.97079716   -3.2148739   -1.7139189  0.062062119   -3.2148739     1.500955   425967 
 7288000    0.9692535   -3.2137246   -1.7151914  0.058839324   -3.2137246    1.4985332   425977 
 7289000    0.9699026   -3.2141854   -1.7144938  0.066220074   -3.2141854    1.4996916   425933 
 7290000   0.96817724   -3.2124349   -1.7152951  0.066401545   -3.2124349    1.4971398   425900 
 7291000    0.9692198   -3.2135793   -1.7149469  0.065692965   -3.2135793    1.4986323   425934 
 7292000   0.96927727    -3.213122   -1.7143973  0.065725663    -3.213122    1.4987247   425933 
 7293000    0.9685645   -3.2116398   -1.7141226  0.067904081   -3.2116398    1.4975171   425963 
 7294000   0.97121315   -3.2159134   -1.7141213  0.068452733   -3.2159134    1.5017921   425912 
 7295000   0.96931881   -3.2146893   -1.7156575  0.066729558   -3.2146893    1.4990318   425864 
 7296000   0.96956113   -3.2153025   -1.7159347  0.063592825   -3.2153025    1.4993678   425875 
 7297000   0.96970311   -3.2147712   -1.7151662  0.063724211   -3.2147712     1.499605   425870 
 7298000     0.969343   -3.2138518   -1.7147122  0.056752993   -3.2138518    1.4991396   425844 
 7299000   0.96891616   -3.2135516   -1.7150967  0.065946537   -3.2135516    1.4984548   425851 
 7300000   0.96741355   -3.2103527   -1.7144394  0.064068325   -3.2103527    1.4959132   425913 
 7301000   0.96844409   -3.2132486   -1.7158086  0.061177524   -3.2132486      1.49744   425932 
 7302000   0.96906558   -3.2137091   -1.7153504  0.063512917   -3.2137091    1.4983587   425944 
 7303000   0.96966413   -3.2156499   -1.7164079  0.064550845   -3.2156499    1.4992419   425956 
 7304000   0.96977684   -3.2151781   -1.7158323  0.056433113   -3.2151781    1.4993458   425976 
 7305000   0.97152912    -3.216924   -1.7149466   0.06297648    -3.216924    1.5019774   425998 
 7306000   0.96882777   -3.2128825   -1.7150638  0.065012042   -3.2128825    1.4978187   425993 
 7307000   0.97036707      -3.2168    -1.716362  0.064080411      -3.2168     1.500438   425925 
 7308000   0.96928093   -3.2153464   -1.7164506  0.060806522   -3.2153464    1.4988958   425886 
 7309000   0.96840873    -3.213632   -1.7160463  0.062360109    -3.213632    1.4975857   425875 
 7310000   0.96931908   -3.2152902   -1.7162017  0.059487981   -3.2152902    1.4990885   425848 
 7311000   0.97009382   -3.2151825   -1.7149345  0.062052225   -3.2151825    1.5002479   425859 
 7312000    0.9706918    -3.216578   -1.7154582   0.06240285    -3.216578    1.5011198   425874 
 7313000   0.97093607   -3.2171789    -1.715572  0.063921361   -3.2171789    1.5016069   425843 
 7314000   0.96995503   -3.2143662   -1.7142659  0.067242758   -3.2143662    1.5001002   425840 
 7315000   0.97103648   -3.2168302   -1.7150116  0.059710505   -3.2168302    1.5018186   425827 
 7316000   0.96931574   -3.2155894   -1.7163969  0.064510735   -3.2155894    1.4991925   425817 
 7317000   0.96916685   -3.2142581    -1.715412  0.060992209   -3.2142581    1.4988461   425850 
 7318000   0.97060654   -3.2177271   -1.7165135  0.061891531   -3.2177271    1.5012136   425810 
 7319000   0.96944028   -3.2141682    -1.714688  0.065783688   -3.2141682    1.4994802   425790 
 7320000   0.96958621   -3.2147164   -1.7150598  0.065907679   -3.2147164    1.4996566   425804 
 7321000   0.96856756   -3.2147124   -1.7164765  0.068008178   -3.2147124    1.4982359   425760 
 7322000   0.96850664   -3.2141853   -1.7162231  0.065649761   -3.2141853    1.4979622   425811 
 7323000   0.96869189   -3.2169598   -1.7187463  0.058792415   -3.2169598    1.4982136   425821 
 7324000   0.96711222   -3.2141537    -1.718306  0.063270469   -3.2141537    1.4958477   425799 
 7325000   0.96661779    -3.213454   -1.7185045  0.064597737    -3.213454    1.4949495   425837 
 7326000   0.96802474   -3.2164652   -1.7194065  0.062506246   -3.2164652    1.4970587   425856 
 7327000    0.9680849   -3.2143907   -1.7172601  0.067442412   -3.2143907    1.4971306   425862 
 7328000   0.96885798   -3.2146302   -1.7164342  0.064690502   -3.2146302     1.498196   425899 
 7329000   0.96928199   -3.2152154   -1.7164341  0.063414972   -3.2152154    1.4987813   425919 
 7330000   0.96892752   -3.2150431   -1.7167009  0.062715056   -3.2150431    1.4983422   425888 
 7331000     0.969122    -3.215708    -1.717065  0.062435218    -3.215708     1.498643   425888 
 7332000   0.96670698   -3.2132168   -1.7183541  0.066277783   -3.2132168    1.4948628   425901 
 7333000   0.96921188   -3.2158983   -1.7170952  0.061846632   -3.2158983    1.4988031   425882 
 7334000   0.97156076    -3.217411   -1.7149756  0.061978571    -3.217411    1.5024354   425882 
 7335000   0.97145665    -3.216046   -1.7138527  0.063376066    -3.216046    1.5021933   425905 
 7336000   0.96990043   -3.2148354   -1.7150803  0.063591902   -3.2148354    1.4997552   425914 
 7337000   0.96943849   -3.2138661   -1.7148675  0.066827038   -3.2138661    1.4989986   425926 
 7338000   0.96980059   -3.2145926   -1.7150447  0.060847928   -3.2145926     1.499548   425929 
 7339000   0.97135907   -3.2158644   -1.7138714   0.06620887   -3.2158644     1.501993   425919 
 7340000   0.97041215   -3.2127204   -1.7121634  0.067206957   -3.2127204     1.500557   425911 
 7341000   0.97131343   -3.2148556   -1.7129084  0.068752747   -3.2148556    1.5019471   425912 
 7342000    0.9725933   -3.2176957   -1.7137907  0.059588134   -3.2176957     1.503905   425918 
 7343000   0.97103452   -3.2154463     -1.71386  0.066514789   -3.2154463    1.5015864   425892 
 7344000   0.97074971   -3.2149977   -1.7138834  0.067645331   -3.2149977    1.5011142   425901 
 7345000   0.96998544   -3.2134746   -1.7136373  0.062536435   -3.2134746    1.4998373   425928 
 7346000   0.96974297   -3.2129638   -1.7136492   0.06723922   -3.2129638    1.4993146   425970 
 7347000   0.96868562   -3.2123683   -1.7147096  0.063148813   -3.2123683    1.4976587   425976 
 7348000   0.96727977   -3.2110211   -1.7154271  0.066198213   -3.2110211     1.495594   425945 
 7349000   0.96768082   -3.2113717   -1.7151014  0.060792227   -3.2113717    1.4962703   425929 
 7350000   0.96819527   -3.2128784   -1.7157353  0.062758076   -3.2128784    1.4971431   425907 
 7351000   0.96829464   -3.2127998   -1.7155768  0.061584351   -3.2127998    1.4972229   425928 
 7352000   0.96614539   -3.2102295   -1.7161896  0.060520788   -3.2102295      1.49404   425888 
 7353000   0.96612011   -3.2111733   -1.7171935  0.058444638   -3.2111733    1.4939798   425894 
 7354000   0.96826695   -3.2134037   -1.7161393  0.062101193   -3.2134037    1.4972645   425904 
 7355000   0.96756707   -3.2124112   -1.7161201  0.062587832   -3.2124112    1.4962911   425873 
 7356000   0.96836383   -3.2122526    -1.714884  0.059454608   -3.2122526    1.4973686   425917 
 7357000   0.96621574   -3.2100937   -1.7160221  0.060355643   -3.2100937    1.4940716   425910 
 7358000   0.96931151   -3.2153672   -1.7164312  0.058080296   -3.2153672     1.498936   425888 
 7359000   0.96808956   -3.2140751   -1.7170111  0.061905893   -3.2140751     1.497064   425883 
 7360000   0.96971728   -3.2167497   -1.7171721  0.060751334   -3.2167497    1.4995776   425884 
 7361000   0.96924303   -3.2150155   -1.7160693  0.059075529   -3.2150155    1.4989463   425855 
 7362000   0.96871097   -3.2146822   -1.7165553  0.061719351   -3.2146822     1.498127   425854 
 7363000   0.96802133   -3.2137417   -1.7166602  0.061170527   -3.2137417    1.4970815   425848 
 7364000   0.96837645   -3.2140767   -1.7164952  0.061402201   -3.2140767    1.4975815   425862 
 7365000   0.96815637   -3.2146116   -1.7174267  0.064281277   -3.2146116    1.4971849   425878 
 7366000   0.96824567    -3.214426   -1.7170608  0.064361612    -3.214426    1.4973652   425866 
 7367000    0.9700008   -3.2171007   -1.7169579  0.065456353   -3.2171007    1.5001428   425848 
 7368000   0.96851585   -3.2162924   -1.7183757  0.067286018   -3.2162924    1.4979167   425828 
 7369000   0.97000201   -3.2175962   -1.7173775  0.064886971   -3.2175962    1.5002187   425827 
 7370000   0.96977005   -3.2192016   -1.7191691  0.066412203   -3.2192016    1.5000325   425778 
 7371000   0.96749461   -3.2175377   -1.7211267  0.063170726   -3.2175377     1.496411   425807 
 7372000   0.96808571   -3.2181823   -1.7207938  0.062290029   -3.2181823    1.4973885   425789 
 7373000   0.96782153   -3.2177131   -1.7207191  0.063144811   -3.2177131     1.496994   425785 
 7374000   0.96948652   -3.2178148     -1.71833  0.066968848   -3.2178148    1.4994848   425809 
 7375000   0.97144482   -3.2218832   -1.7193696  0.062802138   -3.2218832    1.5025137   425809 
 7376000    0.9700082   -3.2190279   -1.7187292  0.065271533   -3.2190279    1.5002987   425807 
 7377000   0.97074046   -3.2206081   -1.7191415  0.061444333   -3.2206081    1.5014666   425797 
 7378000   0.96903082   -3.2190626   -1.7202791  0.065111092   -3.2190626    1.4987835   425808 
 7379000   0.97013255   -3.2195604   -1.7192068  0.066260338   -3.2195604    1.5003536   425846 
 7380000   0.97120289   -3.2196767   -1.7177982  0.066606557   -3.2196767    1.5018785   425883 
 7381000   0.96935321   -3.2182185   -1.7191405   0.06309389   -3.2182185     1.499078   425866 
 7382000    0.9690764   -3.2163904   -1.7177089  0.065593676   -3.2163904    1.4986815   425857 
 7383000   0.96969925   -3.2187468   -1.7188661  0.060734962   -3.2187468    1.4998808   425790 
 7384000   0.96959439   -3.2179412   -1.7181839   0.06524786   -3.2179412    1.4997573   425779 
 7385000   0.96812172   -3.2163044   -1.7187019  0.066687151   -3.2163044    1.4976025   425744 
 7386000   0.96908038   -3.2185865   -1.7195221  0.067435062   -3.2185865    1.4990644   425750 
 7387000   0.96729622   -3.2153058   -1.7189733  0.069566248   -3.2153058    1.4963326   425742 
 7388000   0.96789976   -3.2155672   -1.7181533  0.065097572   -3.2155672    1.4974139   425700 
 7389000   0.96885075   -3.2172946   -1.7184199  0.063954639   -3.2172946    1.4988746   425703 
 7390000   0.96809561   -3.2148037   -1.7171396  0.060722955   -3.2148037    1.4976641   425715 
 7391000    0.9689865   -3.2157325   -1.7166761  0.059171863   -3.2157325    1.4990564   425711 
 7392000   0.96866545   -3.2141941   -1.7157259  0.063795283   -3.2141941    1.4984682   425737 
 7393000   0.96932075   -3.2156763   -1.7161204  0.061429466   -3.2156763    1.4995559   425716 
 7394000   0.97034737   -3.2157614   -1.7145467  0.065801324   -3.2157614    1.5012147   425696 
 7395000   0.96769739   -3.2137668   -1.7165956  0.062525499   -3.2137668    1.4971712   425680 
 7396000   0.96988003   -3.2170672   -1.7165755  0.066150405   -3.2170672    1.5004916   425696 
 7397000   0.97022059   -3.2168121   -1.7157019  0.064943809   -3.2168121    1.5011102   425670 
 7398000   0.96938827   -3.2147679   -1.7149631  0.069271004   -3.2147679    1.4998048   425675 
 7399000   0.96943593   -3.2160867   -1.7162081  0.063549857   -3.2160867    1.4998786   425675 
 7400000   0.96847512   -3.2150899   -1.7165078  0.063088325   -3.2150899    1.4985821   425621 
 7401000   0.96923716   -3.2144212   -1.7146176  0.063901363   -3.2144212    1.4998036   425609 
 7402000    0.9689211   -3.2133228   -1.7139802  0.062716932   -3.2133228    1.4993427   425601 
 7403000   0.96853471   -3.2126423   -1.7140348  0.067196621   -3.2126423    1.4986075   425640 
 7404000   0.96953975   -3.2143062   -1.7141331  0.063948181   -3.2143062    1.5001731   425637 
 7405000   0.96959444   -3.2135425   -1.7132354  0.065686093   -3.2135425    1.5003071   425623 
 7406000    0.9709941    -3.213736   -1.7111996  0.066504976    -3.213736    1.5025364   425605 
 7407000   0.96949075   -3.2130358   -1.7129597  0.065028895   -3.2130358    1.5000762   425643 
 7408000   0.96917173   -3.2134794   -1.7138687  0.067706987   -3.2134794    1.4996107   425635 
 7409000   0.96942095   -3.2133422   -1.7132049  0.061483394   -3.2133422    1.5001373   425595 
 7410000   0.96745088   -3.2121573   -1.7151812    0.0633958   -3.2121573    1.4969762   425627 
 7411000   0.96711017   -3.2123277   -1.7157873  0.063263919   -3.2123277    1.4965404   425601 
 7412000   0.96804425   -3.2127616     -1.71492  0.065263498   -3.2127616    1.4978415   425642 
 7413000   0.97015863   -3.2154034   -1.7142515  0.058756277   -3.2154034    1.5011519   425631 
 7414000   0.96813374    -3.212751   -1.7146126  0.064921546    -3.212751    1.4981384   425597 
 7415000   0.96842348   -3.2126574   -1.7139474  0.062976056   -3.2126574      1.49871   425562 
 7416000   0.96885801   -3.2143535   -1.7150204  0.060180849   -3.2143535    1.4993331   425576 
 7417000    0.9665183   -3.2121591   -1.7162956  0.063890303   -3.2121591    1.4958635   425533 
 7418000   0.96795083   -3.2122933   -1.7143007  0.066026499   -3.2122933    1.4979926   425558 
 7419000   0.96866182   -3.2128191   -1.7137755  0.063272041   -3.2128191    1.4990436   425572 
 7420000   0.97194286   -3.2170575   -1.7128268  0.065208559   -3.2170575    1.5042307   425541 
 7421000   0.97003051    -3.214897   -1.7135201  0.060691498    -3.214897    1.5013769   425511 
 7422000   0.96937276   -3.2138155   -1.7134743  0.062608872   -3.2138155    1.5003412   425516 
 7423000   0.97166087   -3.2169663   -1.7130554  0.064285453   -3.2169663    1.5039109   425508 
 7424000   0.96966602   -3.2134075    -1.712436  0.064125683   -3.2134075    1.5009715   425466 
 7425000   0.96914648    -3.211844   -1.7118283  0.069197179    -3.211844    1.5000157   425509 
 7426000   0.97117759   -3.2152018   -1.7120671  0.063197309   -3.2152018    1.5031347   425516 
 7427000   0.97149035   -3.2145385   -1.7109622  0.065400638   -3.2145385    1.5035763   425528 
 7428000   0.97029256   -3.2150435   -1.7133668  0.064301899   -3.2150435    1.5016766   425541 
 7429000   0.96993922   -3.2128921   -1.7119175  0.069985552   -3.2128921    1.5009746   425585 
 7430000   0.96935306   -3.2125113   -1.7124578  0.064994128   -3.2125113    1.5000534   425589 
 7431000   0.97023336   -3.2139589   -1.7125855  0.062491256   -3.2139589    1.5013733   425601 
 7432000   0.96929957   -3.2118289   -1.7119041  0.064093014   -3.2118289    1.4999248   425602 
 7433000   0.96951643   -3.2112448   -1.7111183  0.065308411   -3.2112448    1.5001265   425640 
 7434000   0.96933686   -3.2116808    -1.711952  0.058364579   -3.2116808    1.4997288   425674 
 7435000   0.96866746   -3.2104685    -1.711712  0.065343477   -3.2104685    1.4987565   425656 
 7436000   0.96857203   -3.2094028   -1.7106813  0.064583633   -3.2094028    1.4987215   425624 
 7437000   0.96990563   -3.2112414   -1.7105092  0.062060324   -3.2112414    1.5007322   425639 
 7438000   0.97026274   -3.2120602   -1.7107508  0.056772491   -3.2120602    1.5013094   425632 
 7439000   0.96967389    -3.209155   -1.7087285  0.064255803    -3.209155    1.5004265   425624 
 7440000   0.97017458   -3.2101675   -1.7089557  0.062791639   -3.2101675    1.5012118   425621 
 7441000    0.9703623   -3.2116314   -1.7101256  0.064755321   -3.2116314    1.5015058   425620 
 7442000   0.96886015   -3.2098907   -1.7107339  0.063008896   -3.2098907    1.4991568   425627 
 7443000   0.96952183   -3.2115553   -1.7113253  0.065193001   -3.2115553      1.50023   425613 
 7444000   0.96915442   -3.2106678   -1.7109781  0.059208062   -3.2106678    1.4996896   425605 
 7445000   0.96992265   -3.2114606   -1.7105328  0.064786091   -3.2114606    1.5009278   425591 
 7446000   0.96949373    -3.210648   -1.7105073  0.063628693    -3.210648    1.5001407   425626 
 7447000   0.96971022   -3.2125047   -1.7120325  0.064661567   -3.2125047    1.5004721   425627 
 7448000   0.96949707   -3.2115215   -1.7114038  0.062491472   -3.2115215    1.5001176   425634 
 7449000   0.96744005    -3.209423    -1.712446  0.060589714    -3.209423     1.496977   425622 
 7450000   0.96896488   -3.2107448   -1.7114119  0.060889088   -3.2107448    1.4993329   425623 
 7451000   0.96751352   -3.2097176   -1.7124299  0.056944287   -3.2097176    1.4972877   425566 
 7452000   0.96877925   -3.2107986   -1.7115204  0.065945009   -3.2107986    1.4992782   425557 
 7453000   0.96833553    -3.209891   -1.7113312  0.063826638    -3.209891    1.4985598   425566 
 7454000   0.96918073   -3.2110476    -1.711208  0.060164333   -3.2110476    1.4998396   425574 
 7455000   0.96971596   -3.2117526   -1.7110953  0.064555758   -3.2117526    1.5006573   425577 
 7456000   0.96968132   -3.2129419   -1.7122676  0.067393478   -3.2129419    1.5006742   425557 
 7457000   0.97005303   -3.2145344   -1.7130697  0.062755081   -3.2145344    1.5014647   425496 
 7458000   0.97051517   -3.2155647   -1.7132788  0.064913812   -3.2155647    1.5022859   425466 
 7459000   0.97019192   -3.2168338   -1.7149882  0.066435288   -3.2168338    1.5018456   425449 
 7460000   0.97006375   -3.2169722   -1.7152933   0.06486285   -3.2169722    1.5016789   425440 
 7461000   0.96928993   -3.2147535   -1.7143747  0.062491186   -3.2147535    1.5003788   425469 
 7462000   0.97058382   -3.2162013   -1.7136679  0.068722734   -3.2162013    1.5025335   425426 
 7463000   0.96968877   -3.2148395   -1.7138045  0.065933715   -3.2148395     1.501035   425458 
 7464000   0.97075909    -3.214921   -1.7123034  0.060759371    -3.214921    1.5026176   425479 
 7465000   0.96988171   -3.2156656   -1.7143037  0.065745229   -3.2156656    1.5013618   425450 
 7466000   0.96956313   -3.2160777   -1.7152443  0.061587166   -3.2160777    1.5008334   425460 
 7467000   0.97096164   -3.2169897   -1.7139879  0.070847324   -3.2169897    1.5030018   425459 
 7468000   0.97140058   -3.2169728   -1.7133728  0.059956407   -3.2169728    1.5035999   425482 
 7469000   0.96933836   -3.2152075   -1.7148736  0.063938073   -3.2152075    1.5003338   425503 
 7470000    0.9688517   -3.2155089   -1.7159565  0.066600998   -3.2155089    1.4995524   425511 
 7471000   0.96821388   -3.2137228   -1.7151928  0.064562249   -3.2137228      1.49853   425521 
 7472000   0.96991161   -3.2153242   -1.7141031  0.062060422   -3.2153242    1.5012211   425503 
 7473000   0.97140831   -3.2186711   -1.7150698  0.059638466   -3.2186711    1.5036013   425485 
 7474000   0.96973555   -3.2164371   -1.7154426  0.066831546   -3.2164371    1.5009945   425490 
 7475000   0.96950408   -3.2165858   -1.7158226  0.064134835   -3.2165858    1.5007632   425454 
 7476000    0.9685305   -3.2141368   -1.7149477  0.062534294   -3.2141368    1.4991891   425473 
 7477000   0.96815647   -3.2127956   -1.7142629  0.063029831   -3.2127956    1.4985327   425495 
 7478000    0.9669642   -3.2120405   -1.7153919  0.060705442   -3.2120405    1.4966486   425506 
 7479000   0.96939856   -3.2153464   -1.7147854  0.060274992   -3.2153464     1.500561   425465 
 7480000   0.96833173   -3.2141573   -1.7153533  0.061801337   -3.2141573     1.498804   425495 
 7481000    0.9676001   -3.2147094   -1.7169921  0.061314063   -3.2147094    1.4977173   425482 
 7482000   0.96766864   -3.2145366   -1.7166216  0.062691201   -3.2145366    1.4979149   425456 
 7483000     0.967692   -3.2156897   -1.7179146  0.063942949   -3.2156897    1.4977751   425506 
 7484000   0.96875739   -3.2173834   -1.7178537  0.065949548   -3.2173834    1.4995298   425476 
 7485000   0.96857876   -3.2173854   -1.7178748  0.065174597   -3.2173854    1.4995106   425403 
 7486000   0.96577314    -3.214349   -1.7192136    0.0581117    -3.214349    1.4951354   425412 
 7487000   0.96738506   -3.2162166   -1.7186879  0.054438238   -3.2162166    1.4975287   425441 
 7488000    0.9668127   -3.2166184   -1.7198419  0.061278832   -3.2166184    1.4967764   425403 
 7489000   0.96927303    -3.219514    -1.718971    0.0650335    -3.219514    1.5005431   425415 
 7490000   0.96736316   -3.2164602   -1.7190287   0.06581493   -3.2164602    1.4974315   425459 
 7491000   0.96761446   -3.2163781   -1.7184942  0.066362807   -3.2163781    1.4978839   425441 
 7492000   0.96853823   -3.2166408   -1.7171789  0.066842084   -3.2166408    1.4994619   425399 
 7493000   0.96713989   -3.2161784   -1.7188638  0.070590506   -3.2161784    1.4973146   425394 
 7494000   0.96981919   -3.2193994   -1.7178732   0.06208252   -3.2193994    1.5015262   425376 
 7495000   0.97015518   -3.2190102   -1.7169849  0.068752135   -3.2190102    1.5020252   425382 
 7496000   0.96969466   -3.2183021   -1.7170816  0.064669061   -3.2183021    1.5012205   425408 
 7497000   0.96888967   -3.2166794   -1.7167334  0.066437439   -3.2166794     1.499946   425416 
 7498000     0.970343   -3.2194798    -1.717132  0.069528505   -3.2194798    1.5023478   425373 
 7499000   0.96851849   -3.2190925   -1.7195096  0.065611818   -3.2190925    1.4995829   425356 
 7500000   0.96839986    -3.217203   -1.7178355   0.06696761    -3.217203    1.4993675   425365 
 7501000   0.96772765   -3.2157334   -1.7174137  0.063710949   -3.2157334    1.4983197   425367 
 7502000   0.96816201   -3.2157797   -1.7169038   0.06730248   -3.2157797    1.4988759   425400 
 7503000   0.96864545   -3.2163427   -1.7166725  0.063538754   -3.2163427    1.4996702   425387 
 7504000   0.97017698   -3.2193327   -1.7172667  0.059820315   -3.2193327    1.5020661   425380 
 7505000   0.96915516   -3.2161939   -1.7156393  0.068181837   -3.2161939    1.5005546   425360 
 7506000   0.97024621   -3.2179088   -1.7156543  0.065072241   -3.2179088    1.5022545   425357 
 7507000   0.96954228   -3.2168108   -1.7155227  0.069806742   -3.2168108    1.5012881   425322 
 7508000   0.97091583   -3.2196774   -1.7162554  0.063584939   -3.2196774     1.503422   425320 
 7509000   0.96931358   -3.2164743    -1.715438  0.067824242   -3.2164743    1.5010363   425293 
 7510000   0.96938399   -3.2168616   -1.7157833  0.062559108   -3.2168616    1.5010783   425312 
 7511000   0.96913151   -3.2138789   -1.7133398  0.064468963   -3.2138789    1.5005391   425354 
 7512000    0.9687252   -3.2136635   -1.7137958  0.064278541   -3.2136635    1.4998677   425366 
 7513000   0.96765485   -3.2123839   -1.7140818  0.064520556   -3.2123839    1.4983021   425340 
 7514000   0.96819477   -3.2135296   -1.7144408  0.061351425   -3.2135296    1.4990887   425354 
 7515000   0.96802549   -3.2128754   -1.7139677  0.062822892   -3.2128754    1.4989077   425331 
 7516000   0.96851734   -3.2145272    -1.714865  0.061149929   -3.2145272    1.4996622   425333 
 7517000   0.96781673   -3.2143439   -1.7156819  0.066382035   -3.2143439     1.498662   425309 
 7518000    0.9693646   -3.2156744   -1.7145732  0.060967996   -3.2156744    1.5011012   425297 
 7519000    0.9683711   -3.2145404   -1.7150517  0.058357324   -3.2145404    1.4994887   425318 
 7520000   0.96892607   -3.2143849   -1.7140546  0.061187121   -3.2143849    1.5003304   425323 
 7521000   0.96678258   -3.2116459   -1.7145817  0.061458212   -3.2116459    1.4970641   425308 
 7522000   0.96838161   -3.2142863   -1.7147002  0.062656306   -3.2142863     1.499586   425295 
 7523000   0.96833349   -3.2156952   -1.7161626  0.065867087   -3.2156952    1.4995327   425289 
 7524000   0.96665135   -3.2132603   -1.7163571  0.061222941   -3.2132603    1.4969031   425296 
 7525000   0.96725376    -3.213507   -1.7156957  0.058935484    -3.213507    1.4978113   425303 
 7526000   0.96743732   -3.2149531   -1.7168364   0.05683838   -3.2149531    1.4981167   425297 
 7527000   0.96723019   -3.2148305   -1.7171156  0.065043369   -3.2148305     1.497715   425320 
 7528000   0.96668835   -3.2138237   -1.7170428  0.063811751   -3.2138237    1.4967809   425347 
 7529000   0.96607479   -3.2118397   -1.7160053  0.066832789   -3.2118397    1.4958344   425346 
 7530000   0.96796722   -3.2153335   -1.7164808  0.064031461   -3.2153335    1.4988527   425321 
 7531000   0.96687817   -3.2141433   -1.7169206  0.067066206   -3.2141433    1.4972227   425305 
 7532000   0.96776683   -3.2155603   -1.7170003  0.058347955   -3.2155603      1.49856   425316 
 7533000   0.96624894   -3.2138285   -1.7176259  0.065144429   -3.2138285    1.4962026   425318 
 7534000    0.9676306   -3.2154569   -1.7169563  0.062412679   -3.2154569    1.4985006   425273 
 7535000   0.96830447   -3.2164416   -1.7168657  0.066823283   -3.2164416    1.4995759   425264 
 7536000   0.96920454   -3.2194273    -1.718334  0.060612698   -3.2194273    1.5010933   425229 
 7537000   0.96973506   -3.2180409    -1.716186    0.0641196   -3.2180409     1.501855   425246 
 7538000   0.96996301   -3.2193331   -1.7170721  0.062279267   -3.2193331     1.502261   425231 
 7539000   0.97012291   -3.2185778   -1.7161434  0.062707703   -3.2185778    1.5024344   425252 
 7540000   0.97022982   -3.2179396   -1.7152795  0.066866988   -3.2179396    1.5026601   425235 
 7541000   0.97007333   -3.2176156   -1.7151696  0.064627768   -3.2176156     1.502446   425227 
 7542000   0.96950226   -3.2167422   -1.7151878  0.072220894   -3.2167422    1.5015544   425229 
 7543000   0.97134821    -3.221234   -1.7168241  0.066420898    -3.221234    1.5044099   425230 
 7544000    0.9682179   -3.2179427   -1.7184374  0.064232616   -3.2179427    1.4995053   425246 
 7545000   0.96849146   -3.2189476   -1.7190786  0.063141051   -3.2189476     1.499869   425263 
 7546000   0.96747239   -3.2171755   -1.7188213  0.064176913   -3.2171755    1.4983542   425245 
 7547000     0.967986   -3.2178996   -1.7186935  0.057846801   -3.2178996    1.4992061   425229 
 7548000   0.96744943    -3.217039   -1.7186499  0.062248439    -3.217039    1.4983891   425225 
 7549000   0.96735601   -3.2166738   -1.7183659  0.060700363   -3.2166738    1.4983079   425207 
 7550000   0.96782745   -3.2177555   -1.7186187  0.063809093   -3.2177555    1.4991368   425179 
 7551000   0.96655128   -3.2146708   -1.7175073  0.063193083   -3.2146708    1.4971636   425178 
 7552000   0.96638704   -3.2148934   -1.7179385  0.060370771   -3.2148934    1.4969549   425165 
 7553000   0.96554924   -3.2139024   -1.7181573  0.068862441   -3.2139024    1.4957451   425140 
 7554000    0.9669183   -3.2162344   -1.7184671  0.064499913   -3.2162344    1.4977673   425168 
 7555000   0.96752085   -3.2150127   -1.7163226   0.06608251   -3.2150127    1.4986901   425171 
 7556000   0.96592933   -3.2135846   -1.7174302  0.060303771   -3.2135846    1.4961544   425191 
 7557000   0.96640294    -3.214861   -1.7178638  0.057788541    -3.214861    1.4969972   425160 
 7558000   0.96690857    -3.215008   -1.7171572  0.060007682    -3.215008    1.4978509   425140 
 7559000   0.96542279   -3.2121712   -1.7166818  0.064543238   -3.2121712    1.4954894   425157 
 7560000    0.9671776    -3.213568   -1.7153321  0.064274577    -3.213568    1.4982359   425149 
 7561000   0.96655947   -3.2128627   -1.7155562  0.061851238   -3.2128627    1.4973065   425141 
 7562000    0.9657971   -3.2130323    -1.716678  0.060764571   -3.2130323    1.4963543   425076 
 7563000   0.96551764   -3.2139806   -1.7180944  0.061098915   -3.2139806    1.4958862   425086 
 7564000   0.96592747   -3.2132995   -1.7168277  0.058358569   -3.2132995    1.4964718   425100 
 7565000   0.96517744   -3.2121814   -1.7169208  0.061365333   -3.2121814    1.4952606   425114 
 7566000   0.96553302    -3.211851   -1.7160536  0.066111167    -3.211851    1.4957974   425118 
 7567000   0.96507015   -3.2122351   -1.7170493  0.055548135   -3.2122351    1.4951858   425088 
 7568000   0.96599285   -3.2123363   -1.7157561  0.059770892   -3.2123363    1.4965802   425098 
 7569000   0.96561979   -3.2122455    -1.716187  0.057776781   -3.2122455    1.4960585   425082 
 7570000   0.96429399   -3.2101688   -1.7161362  0.057635082   -3.2101688    1.4940325   425074 
 7571000   0.96559291   -3.2134887     -1.71731  0.059613223   -3.2134887    1.4961788   425036 
 7572000    0.9669788   -3.2122037   -1.7138634  0.063313092   -3.2122037    1.4983403   425032 
 7573000   0.96698863   -3.2116208    -1.713304  0.062666738   -3.2116208    1.4983167   425043 
 7574000   0.96802576   -3.2129779   -1.7130471  0.064543724   -3.2129779    1.4999308   425041 
 7575000   0.96734245   -3.2132528   -1.7144266  0.064070376   -3.2132528    1.4988262   425054 
 7576000   0.96779202   -3.2147423   -1.7151878  0.061274096   -3.2147423    1.4995545   425045 
 7577000   0.96689811   -3.2131235   -1.7148271  0.062773384   -3.2131235    1.4982963   425009 
 7578000   0.96795771   -3.2134899   -1.7135939  0.073836224   -3.2134899    1.4998959   425021 
 7579000   0.96933543   -3.2155228   -1.7136652  0.061908471   -3.2155228    1.5018576   425070 
 7580000   0.96777615   -3.2141758   -1.7147905  0.064138646   -3.2141758    1.4993853   425086 
 7581000   0.96647839   -3.2133766   -1.7158857  0.067693422   -3.2133766    1.4974909   425053 
 7582000   0.96783199   -3.2156411     -1.71612  0.066255946   -3.2156411    1.4995212   425072 
 7583000   0.96875925    -3.217138    -1.716106  0.063260865    -3.217138     1.501032   425051 
 7584000   0.96747974   -3.2150222   -1.7160644  0.062238629   -3.2150222    1.4989578   425077 
 7585000   0.96666961   -3.2148473   -1.7170284  0.061209888   -3.2148473    1.4978189   425044 
 7586000   0.96672515    -3.215159   -1.7172787  0.061207313    -3.215159    1.4978803   425051 
 7587000   0.96612706   -3.2135129   -1.7167741  0.068454726   -3.2135129    1.4967388   425112 
 7588000   0.96653547   -3.2151637   -1.7177147  0.066696254   -3.2151637     1.497449   425090 
 7589000    0.9675536   -3.2146491   -1.7157391  0.062451634   -3.2146491      1.49891   425123 
 7590000   0.96889948   -3.2154798   -1.7144212  0.066221114   -3.2154798    1.5010586   425105 
 7591000   0.96638252   -3.2144009   -1.7171713  0.066789272   -3.2144009    1.4972296   425085 
 7592000   0.96674277   -3.2150823   -1.7173191  0.063672216   -3.2150823    1.4977631   425092 
 7593000    0.9681257   -3.2156182   -1.7156842  0.066522877   -3.2156182    1.4999339   425084 
 7594000   0.96839127   -3.2172635   -1.7169676  0.063625114   -3.2172635     1.500296   425098 
 7595000   0.96687009   -3.2137106   -1.7156903  0.064511526   -3.2137106    1.4980203   425075 
 7596000   0.96848127   -3.2165233   -1.7160526  0.062111563   -3.2165233    1.5004707   425088 
 7597000    0.9673443    -3.214711   -1.7158608   0.06284444    -3.214711    1.4988502   425048 
 7598000   0.96671976   -3.2141921   -1.7163307  0.061387751   -3.2141921    1.4978614   425054 
 7599000   0.96897737   -3.2182653   -1.7167646  0.059998983   -3.2182653    1.5015007   425014 
 7600000   0.96789032   -3.2151918   -1.7153721  0.064602305   -3.2151918    1.4998197   425013 
 7601000   0.96648523   -3.2144858   -1.7167482  0.065852496   -3.2144858    1.4977376   424986 
 7602000   0.96658877   -3.2150998   -1.7172757  0.062161159   -3.2150998     1.497824   425007 
 7603000   0.96563095    -3.214841   -1.7183886  0.062853277    -3.214841    1.4964525   424975 
 7604000   0.96608958   -3.2143659   -1.7172697  0.063966411   -3.2143659    1.4970963   424994 
 7605000    0.9669954    -3.217189   -1.7186079  0.059907786    -3.217189    1.4985811   424971 
 7606000   0.96578843   -3.2143048   -1.7173829  0.067435625   -3.2143048    1.4969219   424911 
 7607000   0.96481977   -3.2142405   -1.7186791  0.063064953   -3.2142405    1.4955614   424871 
 7608000   0.96521152   -3.2154404   -1.7192788  0.060650207   -3.2154404    1.4961616   424873 
 7609000   0.96525791   -3.2148643   -1.7185568  0.064663055   -3.2148643    1.4963074   424852 
 7610000   0.96354853   -3.2128132   -1.7193067  0.065798933   -3.2128132    1.4935065   424895 
 7611000   0.96516847   -3.2144547   -1.7182965  0.059112374   -3.2144547    1.4961582   424855 
 7612000   0.96699955   -3.2169711   -1.7179673  0.060554431   -3.2169711    1.4990037   424853 
 7613000   0.96558116   -3.2145226   -1.7177599  0.061573378   -3.2145226    1.4967627   424865 
 7614000   0.96732337   -3.2168294   -1.7173378  0.061620285   -3.2168294    1.4994916   424857 
 7615000    0.9675532   -3.2183851   -1.7185866  0.063442941   -3.2183851    1.4997984   424871 
 7616000   0.96557265   -3.2150967   -1.7184458  0.065684648   -3.2150967    1.4966509   424893 
 7617000   0.96602827     -3.21566   -1.7184896   0.06356454     -3.21566    1.4971704   424946 
 7618000   0.96830256   -3.2180388   -1.7172801  0.061992462   -3.2180388    1.5007587   424928 
 7619000   0.96723028   -3.2170437   -1.7180669  0.065796325   -3.2170437    1.4989768   424962 
 7620000   0.96754804   -3.2192661   -1.7196416  0.068149722   -3.2192661    1.4996245   424918 
 7621000   0.96566909   -3.2171279   -1.7204156  0.059766273   -3.2171279    1.4967123   424918 
 7622000   0.96673122   -3.2171718   -1.7188485  0.059297737   -3.2171718    1.4983233   424928 
 7623000   0.96762323   -3.2192309   -1.7196098  0.063640915   -3.2192309    1.4996211   424952 
 7624000   0.96687083   -3.2198441   -1.7213538  0.063044163   -3.2198441    1.4984903   424942 
 7625000   0.96654989   -3.2199337   -1.7219338   0.05897236   -3.2199337    1.4979999   424940 
 7626000   0.96693801   -3.2200926   -1.7216956  0.060208736   -3.2200926    1.4983969   424998 
 7627000   0.96649444   -3.2197309   -1.7221024  0.061314764   -3.2197309    1.4976285   425021 
 7628000   0.96680348   -3.2181815   -1.7200424  0.067872142   -3.2181815    1.4981391   425012 
 7629000   0.96872956   -3.2204057   -1.7192678  0.064772643   -3.2204057    1.5011379   425008 
 7630000   0.96848421   -3.2213221   -1.7205857  0.065982673   -3.2213221    1.5007365   425014 
 7631000   0.96791948   -3.2203432   -1.7205171  0.057452677   -3.2203432    1.4998261   425024 
 7632000   0.96735519   -3.2198012   -1.7208213  0.063042032   -3.2198012    1.4989799   425016 
 7633000   0.96666739   -3.2212548   -1.7232067  0.061985108   -3.2212548    1.4980481   424978 
 7634000   0.96634677   -3.2204991   -1.7229937  0.063865762   -3.2204991    1.4975054   424991 
 7635000   0.96585458   -3.2204678   -1.7237568  0.065346392   -3.2204678     1.496711   425000 
 7636000   0.96564186   -3.2201565   -1.7238103   0.06344477   -3.2201565    1.4963461   425010 
 7637000   0.96657219   -3.2221046   -1.7241793  0.061708169   -3.2221046    1.4979252   424971 
 7638000   0.96557592   -3.2196728   -1.7232704  0.059995721   -3.2196728    1.4964024   424965 
 7639000   0.96733954     -3.22253   -1.7234332  0.055455378     -3.22253    1.4990968   424976 
 7640000   0.96784372   -3.2232524   -1.7233143  0.061102935   -3.2232524    1.4999381   424959 
 7641000   0.96673843   -3.2208473   -1.7226504  0.062068974   -3.2208473     1.498197   424967 
 7642000   0.96639822   -3.2211066   -1.7231408  0.059341009   -3.2211066    1.4979658   424883 
 7643000   0.96592203   -3.2204013   -1.7231701  0.064696213   -3.2204013    1.4972312   424882 
 7644000    0.9651961   -3.2204883   -1.7242731  0.063986744   -3.2204883    1.4962151   424851 
 7645000   0.96555293   -3.2203512   -1.7237238  0.060358524   -3.2203512    1.4966274   424891 
 7646000   0.96528264    -3.218904   -1.7225371  0.061762603    -3.218904    1.4963669   424846 
 7647000   0.96693469   -3.2203475   -1.7214584    0.0694484   -3.2203475    1.4988891   424857 
 7648000   0.96749154   -3.2216235   -1.7217865   0.06720209   -3.2216235     1.499837   424833 
 7649000   0.96827109   -3.2226666   -1.7215434  0.059930122   -3.2226666    1.5011232   424811 
 7650000   0.96579022   -3.2206927   -1.7234367  0.059287867   -3.2206927    1.4972559   424817 
 7651000   0.96491517    -3.219081   -1.7231816  0.058920326    -3.219081    1.4958994   424817 
 7652000   0.96475799    -3.216738   -1.7210964  0.062816865    -3.216738    1.4956416   424821 
 7653000   0.96522364   -3.2186961   -1.7223538  0.058975545   -3.2186961    1.4963424   424827 
 7654000   0.96644168   -3.2204949   -1.7222255  0.066726295   -3.2204949    1.4982694   424816 
 7655000   0.96747222   -3.2217979   -1.7219556  0.059323982   -3.2217979    1.4998424   424823 
 7656000    0.9676653   -3.2203789   -1.7202937  0.061633265   -3.2203789    1.5000852   424839 
 7657000   0.96657153   -3.2203812   -1.7218787  0.064026365   -3.2203812    1.4985025   424807 
 7658000    0.9675653   -3.2225809   -1.7225342  0.061547984   -3.2225809    1.5000467   424806 
 7659000   0.96702839   -3.2211977   -1.7219446  0.068832534   -3.2211977    1.4992531   424795 
 7660000    0.9659611   -3.2207534   -1.7232184  0.065690577   -3.2207534     1.497535   424813 
 7661000   0.96614553   -3.2207267   -1.7228846  0.065725338   -3.2207267     1.497842   424807 
 7662000   0.96606257   -3.2202133   -1.7223095  0.059155082   -3.2202133    1.4979038   424753 
 7663000   0.96451508   -3.2183936   -1.7227694   0.06469073   -3.2183936    1.4956241   424719 
 7664000   0.96658241   -3.2205531   -1.7218221  0.059056255   -3.2205531     1.498731   424747 
 7665000   0.96631668   -3.2196988   -1.7214715  0.060073975   -3.2196988    1.4982273   424773 
 7666000   0.96702065   -3.2205108   -1.7212344  0.060434045   -3.2205108    1.4992764   424785 
 7667000   0.96698034   -3.2203602   -1.7210722   0.06043986   -3.2203602     1.499288   424764 
 7668000   0.96635608    -3.219501   -1.7212021  0.061397794    -3.219501     1.498299   424770 
 7669000   0.96603979   -3.2197234   -1.7218337  0.063409857   -3.2197234    1.4978897   424747 
 7670000   0.96573103   -3.2190112   -1.7215544  0.062407897   -3.2190112    1.4974568   424734 
 7671000   0.96782858   -3.2219693   -1.7212565  0.063054137   -3.2219693    1.5007127   424733 
 7672000   0.96603569    -3.217971   -1.7200136  0.070134982    -3.217971    1.4979574   424726 
 7673000   0.96640167   -3.2192462   -1.7207214  0.063556796   -3.2192462    1.4985249   424726 
 7674000   0.96643276   -3.2206986   -1.7221925  0.062232288   -3.2206986    1.4985061   424745 
 7675000   0.96592081   -3.2192588   -1.7215289  0.062392805   -3.2192588    1.4977299   424740 
 7676000   0.96615816   -3.2193522   -1.7211908  0.057747042   -3.2193522    1.4981614   424722 
 7677000   0.96480424   -3.2161362   -1.7200425  0.063684792   -3.2161362    1.4960937   424713 
 7678000   0.96578302   -3.2171391   -1.7196229   0.06377761   -3.2171391    1.4975162   424740 
 7679000   0.96664691   -3.2183639   -1.7195611  0.067092302   -3.2183639    1.4988028   424755 
 7680000   0.96677637   -3.2175162   -1.7185797  0.062384411   -3.2175162    1.4989365   424774 
 7681000   0.96656238   -3.2174438   -1.7187015  0.063218678   -3.2174438    1.4987423   424735 
 7682000   0.96760923   -3.2184214   -1.7179287  0.062832362   -3.2184214    1.5004927   424699 
 7683000   0.96758543   -3.2186792    -1.718287  0.061842186   -3.2186792    1.5003922   424717 
 7684000   0.96715616   -3.2199181   -1.7200821  0.065136119   -3.2199181    1.4998361   424686 
 7685000   0.96598783   -3.2175025   -1.7194254  0.059341965   -3.2175025    1.4980772   424671 
 7686000   0.96710108   -3.2182192   -1.7183484  0.059383998   -3.2182192    1.4998707   424652 
 7687000    0.9656835   -3.2170379    -1.719274  0.062869964   -3.2170379    1.4977639   424626 
 7688000   0.96479404   -3.2156764   -1.7193026  0.066969465   -3.2156764    1.4963738   424629 
 7689000    0.9667486   -3.2182196   -1.7187649  0.060116756   -3.2182196    1.4994547   424615 
 7690000   0.96516375   -3.2160587   -1.7189987  0.063687075   -3.2160587      1.49706   424597 
 7691000   0.96637479   -3.2174751   -1.7187449  0.067415921   -3.2174751    1.4987302   424656 
 7692000   0.96701645   -3.2183492   -1.7186591  0.064173336   -3.2183492      1.49969   424666 
 7693000   0.96755721   -3.2179322   -1.7174035  0.062245637   -3.2179322    1.5005287   424666 
 7694000   0.96643589   -3.2165703   -1.7176571  0.063460094   -3.2165703    1.4989132   424631 
 7695000   0.96629655   -3.2176161   -1.7188449  0.061064527   -3.2176161    1.4987712   424610 
 7696000    0.9669326   -3.2195206   -1.7197734  0.057714054   -3.2195206    1.4997472   424613 
 7697000   0.96445765   -3.2140959   -1.7183248  0.065674234   -3.2140959     1.495771   424652 
 7698000   0.96545966   -3.2167439   -1.7193237  0.064818424   -3.2167439    1.4974203   424625 
 7699000   0.96501598   -3.2148176   -1.7181806   0.06017275   -3.2148176     1.496637   424652 
 7700000   0.96614409   -3.2172885   -1.7189408  0.058318084   -3.2172885    1.4983477   424663 
 7701000   0.96518456   -3.2154879   -1.7186247  0.064156399   -3.2154879    1.4968632   424662 
 7702000   0.96728874   -3.2185251   -1.7184622  0.066287461   -3.2185251    1.5000629   424680 
 7703000   0.96516924   -3.2151512   -1.7185374  0.059779702   -3.2151512    1.4966138   424726 
 7704000    0.9661195    -3.215596    -1.717685  0.065049098    -3.215596     1.497911   424776 
 7705000   0.96561668   -3.2157685   -1.7187216   0.06352336   -3.2157685    1.4970468   424800 
 7706000   0.96749969   -3.2174826   -1.7175835  0.060752826   -3.2174826    1.4998991   424819 
 7707000   0.96517923   -3.2132028   -1.7168236  0.066039623   -3.2132028    1.4963792   424797 
 7708000   0.96641793   -3.2164846   -1.7180439  0.062040267   -3.2164846    1.4984407   424757 
 7709000   0.96740511   -3.2172806   -1.7172916  0.059340426   -3.2172806     1.499989   424752 
 7710000   0.96818857   -3.2181431   -1.7170877  0.066448221   -3.2181431    1.5010554   424794 
 7711000   0.96777516   -3.2177879   -1.7173241  0.062156122   -3.2177879    1.5004639   424780 
 7712000   0.96734718   -3.2165557   -1.7167306  0.061834582   -3.2165557     1.499825   424773 
 7713000   0.96760768   -3.2165136   -1.7163235  0.064004821   -3.2165136    1.5001901   424784 
 7714000   0.96772679   -3.2172573    -1.716872  0.067376442   -3.2172573    1.5003853   424781 
 7715000   0.96858185   -3.2186459   -1.7168465  0.065421542   -3.2186459    1.5017994   424756 
 7716000   0.96777912   -3.2185519   -1.7178735  0.063648214   -3.2185519    1.5006784   424721 
 7717000    0.9674638   -3.2175583   -1.7172663  0.066510123   -3.2175583    1.5002919   424692 
 7718000   0.96722061   -3.2170118   -1.7171711  0.065408756   -3.2170118    1.4998406   424713 
 7719000   0.96686113   -3.2180429   -1.7187138  0.059010771   -3.2180429    1.4993291   424700 
 7720000   0.96603744   -3.2163348   -1.7182231  0.057590285   -3.2163348    1.4981118   424683 
 7721000   0.96731041   -3.2178963   -1.7178352  0.062298845   -3.2178963    1.5000611   424690 
 7722000   0.96654961   -3.2173956    -1.718366  0.062152769   -3.2173956    1.4990296   424648 
 7723000   0.96521612   -3.2149353   -1.7178998  0.067899819   -3.2149353    1.4970355   424627 
 7724000   0.96598488    -3.216721   -1.7184191  0.058860863    -3.216721    1.4983019   424606 
 7725000   0.96544355   -3.2150503    -1.717655  0.058666984   -3.2150503    1.4973953   424625 
 7726000   0.96640643   -3.2167203   -1.7179163  0.062044106   -3.2167203     1.498804   424649 
 7727000   0.96678792   -3.2175532   -1.7180304  0.055734555   -3.2175532    1.4995228   424613 
 7728000   0.96639062   -3.2167438    -1.717862  0.057907126   -3.2167438    1.4988818   424620 
 7729000   0.96565038   -3.2154018   -1.7176787  0.062337388   -3.2154018    1.4977231   424623 
 7730000   0.96658527   -3.2169632   -1.7177018  0.058637196   -3.2169632    1.4992614   424598 
 7731000   0.96446096   -3.2143478   -1.7184131  0.061448132   -3.2143478    1.4959347   424607 
 7732000   0.96456193   -3.2148882   -1.7187581  0.061596739   -3.2148882    1.4961301   424596 
 7733000   0.96338295    -3.214185   -1.7199259  0.056689605    -3.214185    1.4942591   424608 
 7734000   0.96299616   -3.2134422   -1.7197056  0.059986356   -3.2134422    1.4937366   424586 
 7735000   0.96407049   -3.2158171   -1.7202309  0.060903344   -3.2158171    1.4955862   424534 
 7736000   0.96228837   -3.2130511   -1.7202542  0.062278762   -3.2130511    1.4927969   424541 
 7737000   0.96415508   -3.2151658    -1.719318  0.060951035   -3.2151658    1.4958478   424497 
 7738000   0.96710436    -3.217192   -1.7168216  0.065988109    -3.217192    1.5003704   424512 
 7739000   0.96532955   -3.2151888   -1.7176847  0.062718692   -3.2151888    1.4975041   424544 
 7740000   0.96578502   -3.2154058   -1.7172834  0.065670939   -3.2154058    1.4981225   424569 
 7741000    0.9657381   -3.2156967   -1.7176682  0.064849942   -3.2156967    1.4980285   424575 
 7742000     0.965579    -3.215566   -1.7177878  0.066768049    -3.215566    1.4977782   424576 
 7743000   0.96781888   -3.2174821   -1.7163072  0.060458032   -3.2174821    1.5011748   424598 
 7744000   0.96748274   -3.2184399   -1.7176698  0.061621667   -3.2184399    1.5007701   424565 
 7745000   0.96724083   -3.2190904   -1.7186037   0.06037548   -3.2190904    1.5004867   424539 
 7746000   0.96820796   -3.2204963   -1.7184916  0.065225913   -3.2204963    1.5020047   424534 
 7747000   0.96799347   -3.2194556    -1.717826  0.065889377   -3.2194556    1.5016295   424546 
 7748000   0.96839973   -3.2191793   -1.7168912  0.063363591   -3.2191793    1.5022881   424538 
 7749000    0.9670445     -3.21983   -1.7195913  0.063186417     -3.21983    1.5002387   424523 
 7750000   0.96615327   -3.2176618   -1.7187846  0.066061619   -3.2176618    1.4988773   424517 
 7751000   0.96802149   -3.2203086   -1.7185684  0.062508537   -3.2203086    1.5017402   424527 
 7752000   0.96539524   -3.2174368   -1.7197425  0.065034833   -3.2174368    1.4976942   424519 
 7753000   0.96473957   -3.2164008   -1.7196674  0.061456672   -3.2164008    1.4967334   424503 
 7754000   0.96543612   -3.2165163   -1.7189773  0.058584546   -3.2165163    1.4975389   424581 
 7755000   0.96586491   -3.2166333   -1.7184081  0.066974048   -3.2166333    1.4982252   424575 
 7756000   0.96655688   -3.2173431   -1.7180799  0.063722443   -3.2173431    1.4992633   424585 
 7757000   0.96626666   -3.2177942   -1.7189599   0.06745611   -3.2177942    1.4988343   424579 
 7758000    0.9673537    -3.218872   -1.7182526  0.063677464    -3.218872    1.5006194   424551 
 7759000   0.96665902   -3.2173373   -1.7178061  0.065089121   -3.2173373    1.4995312   424554 
 7760000   0.96644987   -3.2178201   -1.7185463  0.064947879   -3.2178201    1.4992738   424535 
 7761000   0.96633078   -3.2185379   -1.7194347  0.063870646   -3.2185379    1.4991032   424531 
 7762000   0.96620146   -3.2172955   -1.7183505  0.060237469   -3.2172955     1.498945   424519 
 7763000   0.96609487   -3.2180278   -1.7192588  0.064501093   -3.2180278     1.498769   424522 
 7764000   0.96641118   -3.2179208   -1.7186575  0.060567503   -3.2179208    1.4992633   424521 
 7765000   0.96666402    -3.218658    -1.718999  0.062161548    -3.218658     1.499659   424520 
 7766000   0.96603225   -3.2171492   -1.7186573   0.05950742   -3.2171492    1.4984918   424573 
 7767000   0.96610787   -3.2165173   -1.7179117   0.06132301   -3.2165173    1.4986056   424574 
 7768000   0.96588051   -3.2165438   -1.7181956  0.058863698   -3.2165438    1.4983482   424547 
 7769000   0.96676347   -3.2161837   -1.7164905  0.066580212   -3.2161837    1.4996932   424554 
 7770000   0.96793301   -3.2158764   -1.7143725  0.061832617   -3.2158764    1.5015039   424555 
 7771000   0.96890379   -3.2175545   -1.7145836  0.066617882   -3.2175545    1.5029709   424566 
 7772000   0.96722782   -3.2148612   -1.7145749  0.067023481   -3.2148612    1.5002863   424590 
 7773000   0.96686466   -3.2150106   -1.7151957  0.065609274   -3.2150106    1.4998149   424564 
 7774000   0.96751235   -3.2162174   -1.7152918  0.067022383   -3.2162174    1.5009256   424534 
 7775000   0.96573533   -3.2140821   -1.7158568   0.06860838   -3.2140821    1.4982254   424518 
 7776000   0.96614266   -3.2143208   -1.7155659  0.067594785   -3.2143208    1.4987549   424547 
 7777000   0.96608105   -3.2160955   -1.7175279  0.060389514   -3.2160955    1.4985675   424573 
 7778000   0.96534648   -3.2138468   -1.7163376  0.066501548   -3.2138468    1.4975092   424550 
 7779000   0.96515727   -3.2146285   -1.7173599  0.060442058   -3.2146285    1.4972686   424535 
 7780000   0.96633098   -3.2139702    -1.715135  0.065362503   -3.2139702    1.4988352   424607 
 7781000   0.96578118   -3.2144057   -1.7163104  0.068020027   -3.2144057    1.4980953   424575 
 7782000   0.96581032   -3.2154802   -1.7172867  0.059870498   -3.2154802    1.4981935   424560 
 7783000   0.96490733   -3.2135768   -1.7167559  0.058399976   -3.2135768    1.4968209   424552 
 7784000   0.96657935   -3.2161118   -1.7168455  0.060901346   -3.2161118    1.4992664   424594 
 7785000   0.96575639   -3.2146796   -1.7167639  0.067222639   -3.2146796    1.4979158   424615 
 7786000   0.96575913   -3.2144172   -1.7165077  0.065337791   -3.2144172    1.4979094   424618 
 7787000   0.96605976   -3.2155787   -1.7172983   0.06156033   -3.2155787    1.4982804   424645 
 7788000   0.96631659   -3.2145518   -1.7159295   0.05775576   -3.2145518    1.4986223   424661 
 7789000    0.9649379   -3.2136218   -1.7171095  0.058968841   -3.2136218    1.4965123   424653 
 7790000   0.96713536    -3.217017   -1.7170684  0.063945817    -3.217017    1.4999486   424645 
 7791000   0.96737892   -3.2155342   -1.7152008   0.06327928   -3.2155342    1.5003334   424643 
 7792000   0.96667258   -3.2152259    -1.716101  0.064449408   -3.2152259     1.499125   424675 
 7793000   0.96648176   -3.2166892   -1.7179766  0.059581882   -3.2166892    1.4987126   424708 
 7794000   0.96751004   -3.2169107   -1.7166424  0.063218391   -3.2169107    1.5002683   424719 
 7795000   0.96880344   -3.2182041   -1.7159373     0.065006   -3.2182041    1.5022668   424721 
 7796000   0.96851393    -3.217791   -1.7158812  0.072063188    -3.217791    1.5019098   424695 
 7797000    0.9681881      -3.2177    -1.716246  0.063035935      -3.2177     1.501454   424681 
 7798000   0.96733028    -3.216276   -1.7162582  0.061243671    -3.216276    1.5000178   424711 
 7799000   0.96827683   -3.2159841   -1.7145268  0.064356117   -3.2159841    1.5014573   424719 
 7800000   0.96795103    -3.216135    -1.715144  0.060759062    -3.216135     1.500991   424708 
 7801000   0.96696375   -3.2159718   -1.7164023  0.064895533   -3.2159718    1.4995695   424677 
 7802000   0.96883657   -3.2182566   -1.7159596  0.059677323   -3.2182566    1.5022969   424727 
 7803000    0.9674888   -3.2146813   -1.7143859  0.070696606   -3.2146813    1.5002954   424702 
 7804000   0.96818932    -3.215747   -1.7144537  0.066492137    -3.215747    1.5012933   424727 
 7805000   0.96933032   -3.2180658   -1.7150138  0.063092585   -3.2180658     1.503052   424730 
 7806000   0.96727028   -3.2154718   -1.7156071  0.066129642   -3.2154718    1.4998647   424728 
 7807000   0.96720594   -3.2166147   -1.7167509  0.058814231   -3.2166147    1.4998638   424700 
 7808000   0.96714461   -3.2166821   -1.7168463  0.055728734   -3.2166821    1.4998358   424681 
 7809000   0.96686087     -3.21596   -1.7165925  0.057667556     -3.21596    1.4993675   424689 
 7810000   0.96627354   -3.2154013   -1.7169904  0.058107632   -3.2154013    1.4984109   424702 
 7811000   0.96657248   -3.2144185   -1.7156817  0.067350758   -3.2144185    1.4987368   424741 
 7812000   0.96591243   -3.2133297   -1.7156692    0.0618489   -3.2133297    1.4976605   424756 
 7813000   0.96598262   -3.2122642   -1.7146042  0.061121511   -3.2122642      1.49766   424787 
 7814000   0.96521639   -3.2119492   -1.7153045  0.058468728   -3.2119492    1.4966447   424738 
 7815000   0.96581143   -3.2121928   -1.7147453  0.059867656   -3.2121928    1.4974474   424772 
 7816000   0.96501894   -3.2110732    -1.714953  0.061688413   -3.2110732    1.4961201   424800 
 7817000   0.96524467   -3.2113404   -1.7147717  0.058343676   -3.2113404    1.4965687   424772 
 7818000   0.96617824   -3.2132337   -1.7151717  0.058173195   -3.2132337     1.498062   424759 
 7819000   0.96578882   -3.2134553   -1.7161381  0.056957599   -3.2134553    1.4973172   424799 
 7820000   0.96598247   -3.2126869   -1.7151223  0.060350657   -3.2126869    1.4975646   424814 
 7821000   0.96802035   -3.2144101   -1.7136191  0.065717126   -3.2144101     1.500791   424795 
 7822000   0.96831588    -3.213678   -1.7123157  0.065401767    -3.213678    1.5013623   424763 
 7823000   0.96689665   -3.2125032   -1.7133414  0.064888561   -3.2125032    1.4991618   424763 
 7824000    0.9679601   -3.2146294   -1.7136703  0.062880564   -3.2146294    1.5009591   424721 
 7825000   0.96835839   -3.2151897   -1.7136695  0.065881345   -3.2151897    1.5015201   424737 
 7826000     0.967673   -3.2136781   -1.7132207  0.067095854   -3.2136781    1.5004574   424737 
 7827000   0.96580766   -3.2120103   -1.7144524  0.072767103   -3.2120103     1.497558   424739 
 7828000   0.96749167   -3.2143784   -1.7141598   0.06910023   -3.2143784    1.5002186   424725 
 7829000   0.96739105   -3.2133921   -1.7133225  0.070198223   -3.2133921    1.5000696   424723 
 7830000   0.96810688   -3.2149827   -1.7138985  0.060504056   -3.2149827    1.5010842   424750 
 7831000   0.96850812   -3.2158248   -1.7141114  0.063773116   -3.2158248    1.5017134   424748 
 7832000   0.96836521   -3.2146664    -1.713164  0.066556499   -3.2146664    1.5015024   424745 
 7833000   0.96659244   -3.2131899   -1.7144468  0.061640202   -3.2131899    1.4987431   424748 
 7834000   0.96860652   -3.2179628   -1.7158316  0.064244284   -3.2179628    1.5021312   424673 
 7835000   0.96679054   -3.2157085   -1.7164254   0.06274408   -3.2157085    1.4992832   424682 
 7836000   0.96541294   -3.2133477    -1.716222  0.058904218   -3.2133477    1.4971257   424688 
 7837000    0.9667506   -3.2151925   -1.7160454  0.064073833   -3.2151925    1.4991471   424703 
 7838000   0.96625239   -3.2144277   -1.7159473  0.061886649   -3.2144277    1.4984804   424673 
 7839000    0.9677522    -3.214988   -1.7142241  0.061684046    -3.214988    1.5007639   424685 
 7840000   0.96513379   -3.2118575   -1.7152105  0.068405149   -3.2118575     1.496647   424701 
 7841000   0.96651657   -3.2134652   -1.7146599  0.060720817   -3.2134652    1.4988054   424697 
 7842000   0.96542842   -3.2120745   -1.7149142  0.059154395   -3.2120745    1.4971603   424685 
 7843000   0.96578282   -3.2132141   -1.7154725  0.059834334   -3.2132141    1.4977416   424676 
 7844000   0.96538623   -3.2122446    -1.715252  0.058394264   -3.2122446    1.4969926   424714 
 7845000   0.96409766    -3.210813   -1.7158396  0.063607313    -3.210813    1.4949733   424720 
 7846000   0.96598738   -3.2124548   -1.7145406  0.057474988   -3.2124548    1.4979142   424717 
 7847000   0.96691007   -3.2144977   -1.7151492  0.062763094   -3.2144977    1.4993485   424716 
 7848000   0.96523202   -3.2124634   -1.7156852  0.058525067   -3.2124634    1.4967781   424707 
 7849000   0.96559465   -3.2136631   -1.7162944  0.062521566   -3.2136631    1.4973687   424699 
 7850000   0.96588823   -3.2136123   -1.7157919  0.063480362   -3.2136123    1.4978204   424700 
 7851000   0.96576761   -3.2142353   -1.7166971  0.064886374   -3.2142353    1.4975382   424727 
 7852000   0.96567086   -3.2138192   -1.7164487   0.06363899   -3.2138192    1.4973705   424732 
 7853000   0.96632853   -3.2151668    -1.717034  0.061919635   -3.2151668    1.4981328   424805 
 7854000   0.96724581   -3.2163071   -1.7167416  0.061153719   -3.2163071    1.4995655   424802 
 7855000   0.96683514    -3.215587   -1.7165982  0.061395738    -3.215587    1.4989888   424785 
 7856000   0.96556225   -3.2153928   -1.7183845  0.063837983   -3.2153928    1.4970082   424787 
 7857000   0.96555576   -3.2153529   -1.7182172  0.066127853   -3.2153529    1.4971356   424748 
 7858000   0.96707229   -3.2164679   -1.7169279  0.066950256   -3.2164679      1.49954   424733 
 7859000   0.96668013   -3.2174944   -1.7186013  0.063711203   -3.2174944    1.4988931   424744 
 7860000   0.96781725   -3.2192479   -1.7186163  0.059699022   -3.2192479    1.5006316   424751 
 7861000   0.96556771   -3.2167224   -1.7196035  0.060445295   -3.2167224    1.4971189   424758 
 7862000   0.96714668   -3.2192252   -1.7196863  0.071371641   -3.2192252    1.4995389   424766 
 7863000   0.96811872   -3.2203557   -1.7193627  0.061573999   -3.2203557     1.500993   424781 
 7864000   0.96662005   -3.2186459   -1.7199765  0.063199863   -3.2186459    1.4986694   424781 
 7865000   0.96709468   -3.2184767   -1.7191138  0.065838525   -3.2184767     1.499363   424793 
 7866000    0.9691871    -3.222601   -1.7198561  0.066500667    -3.222601     1.502745   424754 
 7867000   0.96769268   -3.2188059   -1.7183816  0.071712188   -3.2188059    1.5004243   424755 
 7868000   0.96891423   -3.2199674   -1.7176774  0.060813389   -3.2199674      1.50229   424763 
 7869000   0.96803547    -3.218013   -1.7170219  0.065811315    -3.218013    1.5009911   424745 
 7870000   0.96825995   -3.2184907   -1.7171904  0.062370295   -3.2184907    1.5013003   424756 
 7871000   0.96937258   -3.2198823   -1.7168356  0.069627157   -3.2198823    1.5030467   424750 
 7872000   0.96824022   -3.2177481   -1.7165808  0.067094843   -3.2177481    1.5011672   424785 
 7873000   0.96729109   -3.2181261   -1.7185363  0.065900708   -3.2181261    1.4995898   424815 
 7874000   0.96828813   -3.2177145   -1.7166355  0.068033138   -3.2177145     1.501079   424831 
 7875000   0.96797713    -3.216623    -1.716005  0.061693681    -3.216623     1.500618   424825 
 7876000   0.96669241   -3.2147453   -1.7162247  0.057221204   -3.2147453    1.4985206   424855 
 7877000   0.96769548   -3.2149617   -1.7148191  0.060891277   -3.2149617    1.5001426   424836 
 7878000   0.96794579   -3.2138244   -1.7133185   0.06537392   -3.2138244    1.5005059   424843 
 7879000   0.96770089   -3.2136576   -1.7135031  0.060419269   -3.2136576    1.5001545   424835 
 7880000   0.96547053     -3.21013   -1.7135141  0.065023856     -3.21013    1.4966159   424858 
 7881000   0.96634936   -3.2104956   -1.7123763  0.064660144   -3.2104956    1.4981193   424818 
 7882000    0.9662581   -3.2116021   -1.7136525  0.063018074   -3.2116021    1.4979496   424826 
 7883000   0.96710351   -3.2119346    -1.712745  0.063324134   -3.2119346    1.4991896   424846 
 7884000   0.96670565   -3.2123296   -1.7137144  0.062153322   -3.2123296    1.4986152   424834 
 7885000   0.96505886    -3.209865   -1.7137252  0.061873129    -3.209865    1.4961397   424812 
 7886000    0.9657823   -3.2117731   -1.7144484  0.059012013   -3.2117731    1.4973247   424794 
 7887000   0.96528951   -3.2117681   -1.7151792  0.057334479   -3.2117681    1.4965889   424786 
 7888000   0.96421204    -3.209957   -1.7150491  0.056553141    -3.209957    1.4949078   424789 
 7889000   0.96605752   -3.2097733   -1.7119408  0.061139467   -3.2097733    1.4978325   424771 
 7890000   0.96610927   -3.2091521   -1.7112005  0.066277837   -3.2091521    1.4979516   424760 
 7891000   0.96663232     -3.21006   -1.7113045  0.060912189     -3.21006    1.4987555   424762 
 7892000   0.96657709   -3.2104836   -1.7118914  0.065260498   -3.2104836    1.4985922   424784 
 7893000    0.9680732   -3.2135437   -1.7125153  0.060461244   -3.2135437    1.5010284   424751 
 7894000   0.96816724   -3.2127761   -1.7114676  0.067618799   -3.2127761    1.5013086   424713 
 7895000   0.96651226   -3.2096866   -1.7109479  0.069300575   -3.2096866    1.4987387   424714 
 7896000   0.96826645   -3.2134695   -1.7119788  0.066262393   -3.2134695    1.5014907   424705 
 7897000   0.96947238   -3.2142597    -1.710952  0.063967033   -3.2142597    1.5033076   424720 
 7898000   0.96864355   -3.2125956   -1.7106086  0.066735174   -3.2125956     1.501987   424730 
 7899000   0.96885334   -3.2137249    -1.711211  0.064727008   -3.2137249     1.502514   424673 
 7900000   0.96986734   -3.2143741   -1.7104328  0.063559182   -3.2143741    1.5039413   424714 
 7901000   0.96917052   -3.2150314   -1.7120539  0.063733228   -3.2150314    1.5029776   424681 
 7902000   0.96795224   -3.2136488   -1.7126136  0.068451546   -3.2136488    1.5010352   424696 
 7903000   0.96635344     -3.21109   -1.7125412  0.072832248     -3.21109    1.4985489   424698 
 7904000   0.96570808   -3.2119966   -1.7143639  0.069622738   -3.2119966    1.4976327   424674 
 7905000   0.96861838   -3.2160347   -1.7138816  0.064093432   -3.2160347    1.5021531   424672 
 7906000   0.96698834   -3.2152862   -1.7156927  0.065817938   -3.2152862    1.4995935   424681 
 7907000   0.96677541   -3.2138476   -1.7146126  0.066904023   -3.2138476     1.499235   424689 
 7908000   0.96757305   -3.2151666   -1.7146064  0.067981927   -3.2151666    1.5005603   424664 
 7909000   0.96563834   -3.2128527   -1.7151694  0.065615196   -3.2128527    1.4976833   424629 
 7910000   0.96654875    -3.212974   -1.7137904  0.066431783    -3.212974    1.4991836   424604 
 7911000   0.96622202   -3.2133408   -1.7146393  0.066252877   -3.2133408    1.4987015   424597 
 7912000   0.96796277   -3.2155272   -1.7140513  0.063295172   -3.2155272    1.5014758   424576 
 7913000   0.96684948   -3.2151768   -1.7153537   0.06017139   -3.2151768    1.4998231   424555 
 7914000   0.96718917    -3.215933   -1.7156006  0.060251224    -3.215933    1.5003324   424560 
 7915000   0.96689634   -3.2142472   -1.7144115  0.061000496   -3.2142472    1.4998357   424572 
 7916000   0.96711246   -3.2133705   -1.7131536  0.065613565   -3.2133705    1.5002169   424559 
 7917000   0.96555917   -3.2131687   -1.7153895  0.062850728   -3.2131687    1.4977792   424567 
 7918000   0.96623631    -3.212099   -1.7133012  0.064888285    -3.212099    1.4987978   424576 
 7919000   0.96617857   -3.2135544   -1.7149944  0.060043332   -3.2135544      1.49856   424618 
 7920000   0.96639474   -3.2150454   -1.7161113  0.061556692   -3.2150454    1.4989341   424607 
 7921000   0.96614271   -3.2136185   -1.7152871  0.060827125   -3.2136185    1.4983315   424667 
 7922000    0.9657562   -3.2114092   -1.7138147  0.065362161   -3.2114092    1.4975945   424706 
 7923000   0.96664023   -3.2125156   -1.7134655  0.063006206   -3.2125156    1.4990501   424682 
 7924000   0.96686619   -3.2127583   -1.7132554  0.059855675   -3.2127583    1.4995029   424653 
 7925000   0.96733072   -3.2120487    -1.711836  0.065316638   -3.2120487    1.5002127   424656 
 7926000    0.9688112   -3.2155175    -1.712938  0.062021117   -3.2155175    1.5025795   424636 
 7927000   0.96675928   -3.2134676   -1.7140775  0.063275336   -3.2134676    1.4993901   424638 
 7928000   0.96698508   -3.2137536   -1.7140557  0.066177256   -3.2137536    1.4996979   424650 
 7929000   0.96569411   -3.2131312   -1.7154355  0.065444091   -3.2131312    1.4976957   424650 
 7930000   0.96674835   -3.2126785   -1.7134679  0.064064858   -3.2126785    1.4992107   424684 
 7931000    0.9650547   -3.2110412   -1.7142279  0.065443673   -3.2110412    1.4968133   424619 
 7932000   0.96663392   -3.2128745   -1.7136259   0.06050069   -3.2128745    1.4992486   424623 
 7933000   0.96620245   -3.2120529   -1.7135759  0.062109125   -3.2120529     1.498477   424652 
 7934000   0.96659398   -3.2124686   -1.7134514  0.062998553   -3.2124686    1.4990172   424671 
 7935000   0.96731762   -3.2149431   -1.7148531  0.062484668   -3.2149431      1.50009   424685 
 7936000   0.96750134   -3.2156691   -1.7153154  0.061195482   -3.2156691    1.5003537   424691 
 7937000   0.96661945   -3.2147895   -1.7157611  0.062010391   -3.2147895    1.4990285   424679 
 7938000   0.96611706   -3.2140441   -1.7158054  0.063215846   -3.2140441    1.4982388   424682 
 7939000   0.96722715   -3.2158501   -1.7159075  0.061244738   -3.2158501    1.4999426   424687 
 7940000   0.96681211   -3.2162743   -1.7169718  0.064360926   -3.2162743    1.4993025   424686 
 7941000   0.96682746   -3.2163336   -1.7169049  0.060186144   -3.2163336    1.4994287   424657 
 7942000   0.96608105    -3.215557   -1.7172647  0.063854122    -3.215557    1.4982923   424651 
 7943000   0.96619779   -3.2164209   -1.7179511  0.068115544   -3.2164209    1.4984698   424652 
 7944000   0.96694212   -3.2162442    -1.716673  0.062450672   -3.2162442    1.4995712   424667 
 7945000   0.96631375   -3.2148781   -1.7163414  0.066864944   -3.2148781    1.4985367   424684 
 7946000   0.96754044   -3.2166811   -1.7162421  0.070802761   -3.2166811    1.5004391   424684 
 7947000   0.96743956    -3.218316   -1.7179768  0.064648601    -3.218316    1.5003391   424668 
 7948000   0.96673077   -3.2158381    -1.716697  0.064671801   -3.2158381    1.4991411   424696 
 7949000   0.96698331   -3.2149896    -1.715411  0.065905061   -3.2149896    1.4995786   424683 
 7950000   0.96801856    -3.216692   -1.7155115  0.067325335    -3.216692    1.5011805   424684 
 7951000   0.96852952   -3.2168812   -1.7149012  0.067216859   -3.2168812      1.50198   424682 
 7952000   0.96668841   -3.2143943   -1.7153578  0.061035405   -3.2143943    1.4990366   424707 
 7953000   0.96617254   -3.2149254   -1.7166888  0.063647653   -3.2149254    1.4982366   424707 
 7954000   0.96733619   -3.2170778   -1.7171073   0.06531097   -3.2170778    1.4999704   424727 
 7955000   0.96829079   -3.2188606   -1.7174771  0.063000969   -3.2188606    1.5013835   424746 
 7956000   0.96632756   -3.2158395   -1.7175883   0.06282862   -3.2158395    1.4982512   424771 
 7957000   0.96625245   -3.2156112   -1.7172507  0.065132275   -3.2156112    1.4983605   424707 
 7958000   0.96489461   -3.2147862   -1.7184855  0.061669376   -3.2147862    1.4963007   424694 
 7959000   0.96526775   -3.2139596   -1.7170732  0.060699872   -3.2139596    1.4968864   424692 
 7960000   0.96408494   -3.2132862   -1.7182129  0.058002656   -3.2132862    1.4950733   424686 
 7961000   0.96517225   -3.2129149   -1.7160567  0.059588537   -3.2129149    1.4968582   424658 
 7962000   0.96763122   -3.2150872   -1.7145604   0.06436347   -3.2150872    1.5005268   424699 
 7963000   0.96606707     -3.21611     -1.71785  0.062806402     -3.21611      1.49826   424654 
 7964000   0.96780527   -3.2178622   -1.7168958   0.06104487   -3.2178622    1.5009664   424651 
 7965000   0.96767722   -3.2167511   -1.7159233  0.067547516   -3.2167511    1.5008279   424634 
 7966000   0.96643669   -3.2139046   -1.7150714  0.062516892   -3.2139046    1.4988333   424654 
 7967000   0.96840953   -3.2165174   -1.7146387  0.067099938   -3.2165174    1.5018788   424658 
 7968000   0.96622515   -3.2138141   -1.7153089  0.066689478   -3.2138141    1.4985052   424654 
 7969000   0.96619628   -3.2132013    -1.714688  0.060457369   -3.2132013    1.4985133   424639 
 7970000   0.96703815   -3.2149565   -1.7150668  0.057588402   -3.2149565    1.4998897   424619 
 7971000   0.96586508   -3.2133998   -1.7152343   0.06517972   -3.2133998    1.4981655   424592 
 7972000   0.96658927   -3.2142858   -1.7150959  0.059382183   -3.2142858    1.4991899   424620 
 7973000    0.9649784   -3.2118985   -1.7150378  0.066638839   -3.2118985    1.4968607   424572 
 7974000   0.96654996   -3.2142686   -1.7149455  0.062184761   -3.2142686    1.4993232   424565 
 7975000   0.96628776   -3.2147555   -1.7156907  0.061228998   -3.2147555    1.4990647   424523 
 7976000   0.96641682   -3.2151592   -1.7158625  0.061000443   -3.2151592    1.4992967   424514 
 7977000   0.96615894   -3.2134098   -1.7145308  0.065339522   -3.2134098     1.498879   424519 
 7978000   0.96569857   -3.2132318   -1.7149681  0.066099792   -3.2132318    1.4982636   424491 
 7979000   0.96508152   -3.2120047   -1.7148254  0.067451763   -3.2120047    1.4971793   424527 
 7980000   0.96550987   -3.2123002   -1.7144775  0.060432846   -3.2123002    1.4978227   424533 
 7981000   0.96729195   -3.2136573   -1.7131478  0.058571236   -3.2136573    1.5005095   424555 
 7982000   0.96609158   -3.2125331   -1.7139527  0.062681603   -3.2125331    1.4985804   424574 
 7983000   0.96630951   -3.2120109   -1.7132902  0.058722467   -3.2120109    1.4987207   424630 
 7984000   0.96551513   -3.2116411   -1.7139972  0.063223319   -3.2116411    1.4976439   424586 
 7985000   0.96545051   -3.2109623    -1.713528  0.057669401   -3.2109623    1.4974343   424617 
 7986000   0.96572538   -3.2113872   -1.7134631  0.063428445   -3.2113872    1.4979241   424599 
 7987000   0.96637179    -3.213774   -1.7149567  0.059497267    -3.213774    1.4988173   424630 
 7988000   0.96547493   -3.2106037   -1.7131421  0.059105928   -3.2106037    1.4974616   424620 
 7989000   0.96494565   -3.2109832    -1.714265  0.064946865   -3.2109832    1.4967182   424598 
 7990000   0.96605748   -3.2118054   -1.7133803  0.062141531   -3.2118054    1.4984251   424603 
 7991000   0.96729093   -3.2137522   -1.7134245  0.063479601   -3.2137522    1.5003277   424606 
 7992000   0.96549005    -3.210542   -1.7129688  0.065449356    -3.210542    1.4975732   424595 
 7993000   0.96583092    -3.211425   -1.7132666  0.064651014    -3.211425    1.4981584   424579 
 7994000   0.96664302   -3.2132733   -1.7138164  0.058809582   -3.2132733    1.4994569   424568 
 7995000   0.96526619   -3.2125987   -1.7151505  0.067445457   -3.2125987    1.4974481   424532 
 7996000   0.96680678   -3.2149399    -1.715183  0.063262937   -3.2149399    1.4997569   424555 
 7997000    0.9676638    -3.214832   -1.7135476  0.062212669    -3.214832    1.5012843   424499 
 7998000   0.96747374   -3.2150651   -1.7141216  0.072655611   -3.2150651    1.5009435   424512 
 7999000   0.96640245   -3.2131563   -1.7137971  0.065690636   -3.2131563    1.4993592   424490 
 8000000    0.9667959   -3.2142593   -1.7142437  0.066780429   -3.2142593    1.5000156   424477 
Loop time of 10042.8 on 192 procs for 5000000 steps with 424477 atoms

Performance: 215078.908 tau/day, 497.868 timesteps/s
99.1% CPU use with 192 MPI tasks x 1 OpenMP threads

MPI task timing breakdown:
Section |  min time  |  avg time  |  max time  |%varavg|  %CPU | %total
-----------------------------------------------------------------------
Pair    | 1389.5     | 3058.6     | 3343.1     |1066.4 |  99.0 | 30.46
Bond    | 3.2644     | 3.4117     | 3.5721     |   3.2 | 100.0 |  0.03
Neigh   | 909.09     | 1505.9     | 1634.3     | 528.2 |  99.5 | 14.99
Comm    | 1248       | 1940.8     | 4239.6     |1848.1 |  98.9 | 19.33
Output  | 282.52     | 287.44     | 287.48     |   2.1 |  98.7 |  2.86
Modify  | 3036.1     | 3122.3     | 3513.8     | 274.9 |  99.2 | 31.09
Other   |            | 124.4      |            |       |       |  1.24

Nlocal:        2210.82 ave        2611 max        1835 min
Histogram: 1 2 4 15 90 72 2 2 3 1
Nghost:        3321.46 ave        3657 max        2441 min
Histogram: 4 10 26 5 3 0 1 4 80 59
Neighs:        59494.9 ave       68563 max       17142 min
Histogram: 6 8 3 7 0 0 0 3 59 106

Total # of neighbors = 11423028
Ave neighs/atom = 26.910829
Ave special neighs/atom = 0.0000000
Neighbor list builds = 505000
Dangerous builds = 450000

write_restart   restart_write.dat
System init for write_restart ...
write_data	data.write
System init for write_data ...
WARNING: Not all mixed pair coeffs generated from mixing. Use write_data with 'pair ij' option to store all pair coeffs. (src/write_data.cpp:312)

Total wall time: 2:47:26
