LAMMPS (24 Dec 2020)
OMP_NUM_THREADS environment is not set. Defaulting to 1 thread. (src/comm.cpp:94)
  using 1 OpenMP thread(s) per MPI task
# Simple rigid body system
# needed variables:

units		lj
atom_style	full
dimension 	3
boundary	p p f
pair_style	lj/cut/opt 2.5


variable 	sigma		equal 1.0
variable 	epsilon 	equal 1.0


region		box block 0 80 0 80 0 80
create_box 	3 box
Created orthogonal box = (0.0000000 0.0000000 0.0000000) to (80.000000 80.000000 80.000000)
  2 by 4 by 4 MPI processor grid
lattice 	sc 1.0
Lattice spacing in x,y,z = 1.0000000 1.0000000 1.0000000

create_atoms 	1 region box
Created 512000 atoms
  create_atoms CPU = 0.023 seconds

mass		1 1.0
mass		2 1.0
mass		3 1.0


group		solvent type 1
512000 atoms in group solvent


velocity 	solvent create ${startTemp} 563435 loop geom
velocity 	solvent create 0.5 563435 loop geom

read_data	data.vac add append
Reading data file ...
  orthogonal box = (0.0000000 0.0000000 0.0000000) to (80.000000 80.000000 160.00000)
  2 by 2 by 8 MPI processor grid
Finding 1-2 1-3 1-4 neighbors ...
  special bond factors lj:    0        0        0       
  special bond factors coul:  0        0        0       
     0 = max # of 1-2 neighbors
     0 = max # of 1-3 neighbors
     0 = max # of 1-4 neighbors
     1 = max # of special neighbors
  special bonds CPU = 0.088 seconds
  read_data CPU = 0.097 seconds

neighbor 	0.4 bin

pair_coeff	1 1 1.0 1.0
pair_coeff	2 2 0.0 0.0
pair_coeff	3 3 0.0 0.0
pair_coeff	2 3 0.0 0.0
pair_coeff	1 2*3 0.0 0.0

pair_modify 	shift yes


balance 	1.05 shift z 10 1.05
Balancing ...
Neighbor list info ...
  update every 1 steps, delay 10 steps, check yes
  max neighbors/atom: 2000, page size: 100000
  master list distance cutoff = 2.9
  ghost atom cutoff = 2.9
  binsize = 1.45, bins = 56 56 111
  1 neighbor lists, perpetual/occasional/extra = 1 0 0
  (1) pair lj/cut/opt, perpetual
      attributes: half, newton on
      pair build: half/bin/newton
      stencil: half/bin/3d/newton
      bin: standard
 rebalancing time: 0.016 seconds
  iteration count = 5
  initial/final maximal load/proc = 32000.000 19200.000
  initial/final imbalance factor  = 2.0000000 1.2000000
  x cuts: 0.0000000 0.50000000 1.0000000
  y cuts: 0.0000000 0.50000000 1.0000000
  z cuts: 0.0000000 0.062500000 0.12890625 0.18750000 0.25781250 0.30859375 0.38671875 0.43750000 1.0000000


####################### WALLS ###########################


region	       low block  EDGE EDGE EDGE EDGE 0 2

region 	       top block  EDGE EDGE EDGE EDGE 159 160


delete_atoms   region low
WARNING: Ignoring 'compress yes' for molecular system (src/delete_atoms.cpp:125)
Deleted 19200 atoms, new total = 492800

delete_atoms   region top
WARNING: Ignoring 'compress yes' for molecular system (src/delete_atoms.cpp:125)
Deleted 0 atoms, new total = 492800


variable       epsilonWall equal 2*${epsilon}
variable       epsilonWall equal 2*1

variable       cutoffTop   equal   0.7147*${sigma}
variable       cutoffTop   equal   0.7147*1

variable       cutoffLow   equal   3*${sigma}
variable       cutoffLow   equal   3*1


fix            topWall all wall/lj93 zhi EDGE                ${epsilonWall} ${sigma} ${cutoffTop} units box
fix            topWall all wall/lj93 zhi EDGE                2 ${sigma} ${cutoffTop} units box
fix            topWall all wall/lj93 zhi EDGE                2 1 ${cutoffTop} units box
fix            topWall all wall/lj93 zhi EDGE                2 1 0.7147 units box

fix            lowWall all wall/lj93 zlo EDGE                ${epsilonWall} ${sigma} ${cutoffLow} units box
fix            lowWall all wall/lj93 zlo EDGE                2 ${sigma} ${cutoffLow} units box
fix            lowWall all wall/lj93 zlo EDGE                2 1 ${cutoffLow} units box
fix            lowWall all wall/lj93 zlo EDGE                2 1 3 units box


###################### COMPUTES ##########################

compute        bin1 solvent chunk/atom bin/1d z upper 1.0



######################	FIXES ############################


fix 		peclet solvent ave/chunk 1000 1 1000 bin1 density/number norm 		 none ave one file density.profile

fix 		2 solvent nve

## Thermostat


region		regthermo block EDGE EDGE EDGE EDGE 0 20

group 		thermo dynamic solvent region regthermo every 1000
dynamic group thermo defined

fix 		3 thermo langevin ${startTemp} ${temp} 10 156453
fix 		3 thermo langevin 0.5 ${temp} 10 156453
fix 		3 thermo langevin 0.5 .5 10 156453



#### Load balancing


fix 		bal all balance 1000 1.05 shift z 10 1.05


############### Diagnostics and computes ###################
#compute 	com cube	  rigid/local	1 mol x y z
#compute 	quat cube	  rigid/local	1 mol quatw quati quatj quatk

thermo 		1000
thermo_style 	custom step temp epair evdwl etotal press pe ke vol

dump		1 all custom 100000 dump.lammpstrj id mol type x y z
dump 		2 all image 10000 image.*.png type type
dump 		3 all movie 1000 movie.avi type type
#dump 		com cube local 1000 dump.*.xyz c_com[*]
#dump		quat cube      local 1000 dump.*.quat c_quat[*]


restart 	500000 restart.dat
timestep 	0.0025
timer 		full
New timer settings: style=full  mode=nosync  timeout=off


run		1000000
Per MPI rank memory allocation (min/avg/max) = 21.45 | 22.19 | 22.73 Mbytes
Step Temp E_pair E_vdwl TotEng Press PotEng KinEng Volume 
       0   0.49998514   -3.2974116   -3.2974116   -2.5474355    8.3319627   -3.2974116   0.74997619      1024000 
    1000    1.4269887   -4.8140267   -4.8140267    -2.673548    3.6855684   -4.8140267    2.1404787      1024000 
    2000    1.3667382   -4.8643458   -4.8643458   -2.8142427    2.4648555   -4.8643458    2.0501031      1024000 
    3000    1.2625074   -4.8371162   -4.8371162   -2.9433589    1.6309216   -4.8371162    1.8937573      1024000 
    4000    1.2120353   -4.8498783   -4.8498783   -3.0318291   0.72164538   -4.8498783    1.8180492      1024000 
    5000    1.1404915   -4.7870443   -4.7870443   -3.0763105  0.084376389   -4.7870443    1.7107337      1024000 
    6000    1.0624523    -4.684909    -4.684909   -3.0912339  -0.25941644    -4.684909    1.5936751      1024000 
    7000    1.0027667   -4.5980277   -4.5980277   -3.0938807  -0.35731851   -4.5980277     1.504147      1024000 
    8000   0.98917167   -4.5783716   -4.5783716   -3.0946171  -0.23657513   -4.5783716    1.4837545      1024000 
    9000    1.0016114   -4.6029153   -4.6029153   -3.1005012 -0.093978078   -4.6029153    1.5024141      1024000 
   10000    1.0093841   -4.6263341   -4.6263341    -3.112261 -0.0086079956   -4.6263341    1.5140731      1024000 
   11000    1.0078956       -4.636       -4.636   -3.1241596  0.016820872       -4.636    1.5118404      1024000 
   12000    1.0069239    -4.645152    -4.645152   -3.1347693  0.028926484    -4.645152    1.5103827      1024000 
   13000    1.0093878   -4.6586529   -4.6586529   -3.1445742  0.066510941   -4.6586529    1.5140787      1024000 
   14000    1.0137492   -4.6734036   -4.6734036    -3.152783  0.093153582   -4.6734036    1.5206207      1024000 
   15000    1.0097026    -4.674322    -4.674322   -3.1597711  0.095660677    -4.674322    1.5145508      1024000 
   16000    1.0060472   -4.6746067   -4.6746067   -3.1655389  0.085346563   -4.6746067    1.5090678      1024000 
   17000    1.0031548   -4.6762213   -4.6762213   -3.1714921  0.088410365   -4.6762213    1.5047292      1024000 
   18000    1.0028314   -4.6812419   -4.6812419   -3.1769979  0.095834997   -4.6812419     1.504244      1024000 
   19000    1.0041797   -4.6879837   -4.6879837   -3.1817173   0.11126011   -4.6879837    1.5062665      1024000 
   20000    1.0057839   -4.6943344   -4.6943344   -3.1856616   0.11697588   -4.6943344    1.5086728      1024000 
   21000    1.0048769   -4.6962402   -4.6962402   -3.1889279   0.11876944   -4.6962402    1.5073123      1024000 
   22000    1.0045509   -4.6989791   -4.6989791   -3.1921559   0.12041179   -4.6989791    1.5068232      1024000 
   23000    1.0025795   -4.6989439   -4.6989439   -3.1950778   0.12565168   -4.6989439    1.5038661      1024000 
   24000    1.0099633   -4.7137198   -4.7137198    -3.198778   0.26459656   -4.7137198    1.5149418      1024000 
   25000     1.021656   -4.7344192   -4.7344192   -3.2019383   0.74936456   -4.7344192    1.5324809      1024000 
   26000    1.0361353   -4.7584717   -4.7584717    -3.204272    1.0046376   -4.7584717    1.5541997      1024000 
   27000     1.046056   -4.7749642   -4.7749642   -3.2058834    1.3557275   -4.7749642    1.5690808      1024000 
   28000    1.0474431   -4.7793936   -4.7793936   -3.2082321    1.7085458   -4.7793936    1.5711615      1024000 
   29000    1.0305906   -4.7570255   -4.7570255   -3.2111427    1.3454352   -4.7570255    1.5458828      1024000 
   30000    1.0019986   -4.7157455   -4.7157455   -3.2127506    1.0239809   -4.7157455    1.5029949      1024000 
   31000   0.98584484   -4.6927782   -4.6927782   -3.2140139   0.65815104   -4.6927782    1.4787643      1024000 
   32000   0.96411345   -4.6619663   -4.6619663    -3.215799   0.39703906   -4.6619663    1.4461672      1024000 
   33000    0.9290425   -4.6109077   -4.6109077   -3.2173468   0.21944756   -4.6109077    1.3935609      1024000 
   34000   0.89266881   -4.5580865   -4.5580865    -3.219086  0.063234778   -4.5580865    1.3390005      1024000 
   35000   0.85976884   -4.5109694   -4.5109694   -3.2213187 -0.050659062   -4.5109694    1.2896506      1024000 
   36000   0.83732114   -4.4789662   -4.4789662    -3.222987  -0.10278466   -4.4789662    1.2559792      1024000 
   37000    0.8259733   -4.4634754   -4.4634754    -3.224518  -0.11063149   -4.4634754    1.2389574      1024000 
   38000   0.82659886   -4.4659029   -4.4659029   -3.2260071 -0.090435858   -4.4659029    1.2398958      1024000 
   39000   0.83402835   -4.4793127   -4.4793127   -3.2282727 -0.057594403   -4.4793127      1.25104      1024000 
   40000   0.84513119   -4.4975688   -4.4975688   -3.2298746 -0.012047549   -4.4975688    1.2676942      1024000 
   41000   0.85572342   -4.5156122   -4.5156122   -3.2320297   0.02822667   -4.5156122    1.2835825      1024000 
   42000   0.86440372   -4.5300325   -4.5300325   -3.2334296  0.069311059   -4.5300325     1.296603      1024000 
   43000   0.87473371   -4.5474291   -4.5474291   -3.2353311  0.090528297   -4.5474291    1.3120979      1024000 
   44000   0.87911706   -4.5554941   -4.5554941   -3.2368212   0.12285016   -4.5554941    1.3186729      1024000 
   45000   0.88046406   -4.5591149   -4.5591149   -3.2384215   0.13385409   -4.5591149    1.3206934      1024000 
   46000   0.87897709    -4.558745    -4.558745    -3.240282   0.12414093    -4.558745     1.318463      1024000 
   47000   0.87202684   -4.5502978   -4.5502978   -3.2422602  0.098952362   -4.5502978    1.3080376      1024000 
   48000   0.86592015   -4.5428257   -4.5428257   -3.2439481  0.071058007   -4.5428257    1.2988776      1024000 
   49000   0.85983929   -4.5357174   -4.5357174    -3.245961  0.053630473   -4.5357174    1.2897563      1024000 
   50000    0.8547998   -4.5303316   -4.5303316   -3.2481345   0.02977463   -4.5303316    1.2821971      1024000 
   51000   0.85259976   -4.5292135   -4.5292135   -3.2503165  0.028457183   -4.5292135     1.278897      1024000 
   52000    0.8554462   -4.5350485   -4.5350485   -3.2518818  0.041139033   -4.5350485    1.2831667      1024000 
   53000   0.85731049   -4.5397674   -4.5397674   -3.2538043  0.055420496   -4.5397674    1.2859631      1024000 
   54000   0.86242274   -4.5500252   -4.5500252   -3.2563937   0.07016312   -4.5500252    1.2936315      1024000 
   55000   0.86676098   -4.5590474   -4.5590474   -3.2589085   0.09847159   -4.5590474    1.3001388      1024000 
   56000   0.86930054   -4.5661789   -4.5661789   -3.2622307    0.1178357   -4.5661789    1.3039482      1024000 
   57000   0.87356158   -4.5761471   -4.5761471   -3.2658074   0.13044482   -4.5761471    1.3103397      1024000 
   58000   0.87411817   -4.5809237   -4.5809237   -3.2697491   0.15024769   -4.5809237    1.3111746      1024000 
   59000   0.87458607   -4.5857008   -4.5857008   -3.2738244   0.16291112   -4.5857008    1.3118764      1024000 
   60000   0.87235202   -4.5871597   -4.5871597   -3.2786343   0.16482744   -4.5871597    1.3085254      1024000 
   61000   0.87007401   -4.5889667   -4.5889667   -3.2838584   0.15940559   -4.5889667    1.3051084      1024000 
   62000   0.86883505   -4.5933139   -4.5933139    -3.290064   0.16265951   -4.5933139    1.3032499      1024000 
   63000   0.86959087   -4.6005758   -4.6005758   -3.2961921   0.17693574   -4.6005758    1.3043837      1024000 
   64000   0.87080284   -4.6100662   -4.6100662   -3.3038646   0.20450889   -4.6100662    1.3062016      1024000 
   65000   0.87617813   -4.6268394   -4.6268394   -3.3125749   0.25692002   -4.6268394    1.3142645      1024000 
   66000    0.8822005   -4.6457199   -4.6457199   -3.3224218   0.31812155   -4.6457199    1.3232981      1024000 
   67000   0.88349769   -4.6611213   -4.6611213   -3.3358774   0.37049643   -4.6611213    1.3252438      1024000 
   68000   0.88277887   -4.6730606   -4.6730606    -3.348895   0.38019913   -4.6730606    1.3241656      1024000 
   69000   0.87427558   -4.6702116   -4.6702116   -3.3588009   0.35974183   -4.6702116    1.3114107      1024000 
   70000   0.86270262   -4.6676326   -4.6676326   -3.3735813   0.41498019   -4.6676326    1.2940513      1024000 
   71000   0.85268591   -4.6802449   -4.6802449   -3.4012186   0.49715635   -4.6802449    1.2790263      1024000 
   72000   0.84267618   -4.6944454   -4.6944454   -3.4304337   0.53493815   -4.6944454    1.2640117      1024000 
   73000   0.83515299   -4.7077015   -4.7077015   -3.4549746   0.54717714   -4.7077015    1.2527269      1024000 
   74000    0.8352391    -4.728604    -4.728604   -3.4757479   0.53531063    -4.728604    1.2528561      1024000 
   75000   0.83802265     -4.74947     -4.74947   -3.4924386   0.53055496     -4.74947    1.2570314      1024000 
   76000   0.84133146   -4.7686514   -4.7686514   -3.5066568   0.53427678   -4.7686514    1.2619946      1024000 
   77000   0.84278846   -4.7820583   -4.7820583   -3.5178782   0.53035065   -4.7820583    1.2641801      1024000 
   78000   0.82871101    -4.768407    -4.768407    -3.525343   0.42082408    -4.768407     1.243064      1024000 
   79000   0.80697718   -4.7421614   -4.7421614   -3.5316981   0.29714728   -4.7421614    1.2104633      1024000 
   80000   0.78584513   -4.7158512   -4.7158512   -3.5370859    0.1936481   -4.7158512    1.1787653      1024000 
   81000   0.76729537   -4.6932768   -4.6932768    -3.542336    0.1208541   -4.6932768    1.1509407      1024000 
   82000   0.74990844   -4.6730999   -4.6730999   -3.5482395   0.06439496   -4.6730999    1.1248604      1024000 
   83000   0.73298295   -4.6537629   -4.6537629   -3.5542907 0.0046938983   -4.6537629    1.0994722      1024000 
   84000   0.71810458   -4.6369384   -4.6369384   -3.5597837 -0.060007735   -4.6369384    1.0771547      1024000 
   85000   0.70599902   -4.6215951   -4.6215951   -3.5625988  -0.13303681   -4.6215951    1.0589964      1024000 
   86000   0.69737728   -4.6082175   -4.6082175   -3.5621537  -0.19204904   -4.6082175    1.0460638      1024000 
   87000   0.69092512   -4.5973612   -4.5973612   -3.5609756  -0.23703947   -4.5973612    1.0363856      1024000 
   88000   0.68437095   -4.5849147   -4.5849147   -3.5583604   -0.2528859   -4.5849147    1.0265543      1024000 
   89000   0.68192116   -4.5784568   -4.5784568   -3.5555772  -0.25677602   -4.5784568    1.0228797      1024000 
   90000   0.68411595   -4.5780939   -4.5780939    -3.551922  -0.25343558   -4.5780939    1.0261718      1024000 
   91000   0.68779609   -4.5809734   -4.5809734   -3.5492813  -0.22964468   -4.5809734     1.031692      1024000 
   92000   0.69442501   -4.5899529   -4.5899529   -3.5483175    -0.186001   -4.5899529    1.0416354      1024000 
   93000   0.70169773    -4.602667    -4.602667   -3.5501226  -0.14193649    -4.602667    1.0525445      1024000 
   94000   0.70956454   -4.6176509   -4.6176509   -3.5533063  -0.09598177   -4.6176509    1.0643446      1024000 
   95000   0.71781259   -4.6348531   -4.6348531   -3.5581364 -0.049025206   -4.6348531    1.0767167      1024000 
   96000   0.72252945   -4.6489808   -4.6489808   -3.5651889 -0.0031254814   -4.6489808     1.083792      1024000 
   97000   0.72843032   -4.6647887   -4.6647887   -3.5721455  0.020218677   -4.6647887    1.0926433      1024000 
   98000   0.73116372    -4.675874    -4.675874   -3.5791306  0.030365935    -4.675874    1.0967434      1024000 
   99000   0.73124486   -4.6824783   -4.6824783   -3.5856133  0.032712454   -4.6824783    1.0968651      1024000 
  100000   0.73048008   -4.6866645   -4.6866645   -3.5909466  0.020230873   -4.6866645    1.0957179      1024000 
  101000    0.7266803   -4.6860094   -4.6860094   -3.5959911 0.0070661683   -4.6860094    1.0900182      1024000 
  102000   0.72310399   -4.6846749   -4.6846749   -3.6000211  0.001957246   -4.6846749    1.0846538      1024000 
  103000   0.72048365   -4.6852003   -4.6852003    -3.604477 -0.0063994401   -4.6852003    1.0807233      1024000 
  104000   0.71827029   -4.6867449   -4.6867449   -3.6093417 -0.0076560847   -4.6867449    1.0774033      1024000 
  105000   0.71716834   -4.6901457   -4.6901457   -3.6143954 -0.014001076   -4.6901457    1.0757503      1024000 
  106000   0.71684808   -4.6942083   -4.6942083   -3.6189384 -0.014203454   -4.6942083    1.0752699      1024000 
  107000   0.71770997   -4.6995201   -4.6995201   -3.6229573 -0.015562537   -4.6995201    1.0765628      1024000 
  108000   0.71629161   -4.7016263   -4.7016263   -3.6271911 -0.010353995   -4.7016263    1.0744352      1024000 
  109000   0.71847336   -4.7086904   -4.7086904   -3.6309825 -0.017080516   -4.7086904    1.0777079      1024000 
  110000   0.71734524   -4.7117533   -4.7117533   -3.6357376 -0.010897797   -4.7117533    1.0760157      1024000 
  111000   0.71729278   -4.7154724   -4.7154724   -3.6395354 -0.008290618   -4.7154724     1.075937      1024000 
  112000   0.71706176   -4.7193046   -4.7193046   -3.6437142 -0.0056367444   -4.7193046    1.0755905      1024000 
  113000    0.7171988   -4.7231684   -4.7231684   -3.6473724 -0.012728844   -4.7231684     1.075796      1024000 
  114000   0.71436972   -4.7238002   -4.7238002   -3.6522478 -0.0074492153   -4.7238002    1.0715524      1024000 
  115000   0.71329293   -4.7270441   -4.7270441   -3.6571069 -0.010042731   -4.7270441    1.0699372      1024000 
  116000   0.71175988   -4.7298034   -4.7298034   -3.6621658 -0.010362858   -4.7298034    1.0676377      1024000 
  117000    0.7138009   -4.7367989   -4.7367989   -3.6660998 -0.010444976   -4.7367989    1.0706992      1024000 
  118000   0.71371687   -4.7415558   -4.7415558   -3.6709827 -0.016965098   -4.7415558    1.0705731      1024000 
  119000   0.71318956    -4.745559    -4.745559   -3.6757769 -0.010218321    -4.745559    1.0697822      1024000 
  120000   0.71391563   -4.7500449   -4.7500449   -3.6791736  -0.01511319   -4.7500449    1.0708713      1024000 
  121000   0.71256402   -4.7526025   -4.7526025   -3.6837586 -0.013282081   -4.7526025    1.0688439      1024000 
  122000   0.71241969   -4.7568322   -4.7568322   -3.6882048 -0.006703171   -4.7568322    1.0686274      1024000 
  123000   0.71173075    -4.760709    -4.760709    -3.693115 -0.014033694    -4.760709     1.067594      1024000 
  124000   0.71031505    -4.763351    -4.763351   -3.6978806 -0.0075367671    -4.763351    1.0654704      1024000 
  125000   0.71067457   -4.7685783   -4.7685783   -3.7025686 -0.015534446   -4.7685783    1.0660097      1024000 
  126000   0.70926861   -4.7717939   -4.7717939   -3.7078931 -0.013319128   -4.7717939    1.0639008      1024000 
  127000   0.70964844   -4.7762812   -4.7762812   -3.7118107 -0.012672747   -4.7762812    1.0644705      1024000 
  128000   0.70855505   -4.7790262   -4.7790262   -3.7161958 -0.0096055921   -4.7790262    1.0628304      1024000 
  129000   0.70730323   -4.7819589   -4.7819589   -3.7210063 -0.010715327   -4.7819589    1.0609527      1024000 
  130000   0.70855811   -4.7883682   -4.7883682   -3.7255332 -0.012101011   -4.7883682     1.062835      1024000 
  131000   0.70792544   -4.7924195   -4.7924195   -3.7305335 -0.016284526   -4.7924195     1.061886      1024000 
  132000    0.7067519   -4.7942839   -4.7942839   -3.7341581 -0.012889457   -4.7942839    1.0601257      1024000 
  133000   0.70718434   -4.7995645   -4.7995645   -3.7387902 -0.015296279   -4.7995645    1.0607744      1024000 
  134000   0.70586759   -4.8027186   -4.8027186   -3.7439193 -0.014363015   -4.8027186    1.0587992      1024000 
  135000    0.7064789   -4.8082033   -4.8082033   -3.7484872 -0.015628645   -4.8082033    1.0597162      1024000 
  136000   0.70631402   -4.8121889   -4.8121889     -3.75272 -0.014037599   -4.8121889    1.0594689      1024000 
  137000   0.70535989   -4.8158726   -4.8158726   -3.7578349 -0.015690613   -4.8158726    1.0580377      1024000 
  138000   0.70613317   -4.8211503   -4.8211503   -3.7619527 -0.018543357   -4.8211503    1.0591976      1024000 
  139000     0.704327   -4.8232921   -4.8232921   -3.7668038 -0.010573829   -4.8232921    1.0564884      1024000 
  140000    0.7048862   -4.8288791   -4.8288791    -3.771552 -0.013593779   -4.8288791    1.0573271      1024000 
  141000   0.70413042   -4.8319836   -4.8319836   -3.7757901 -0.0079505021   -4.8319836    1.0561935      1024000 
  142000   0.70340601   -4.8355714   -4.8355714   -3.7804645 -0.010508219   -4.8355714    1.0551069      1024000 
  143000   0.70271825   -4.8395331   -4.8395331   -3.7854578 -0.015756403   -4.8395331    1.0540752      1024000 
  144000   0.70226393   -4.8435559   -4.8435559   -3.7901621 -0.014133605   -4.8435559    1.0533938      1024000 
  145000   0.70268752   -4.8483756   -4.8483756   -3.7943464 -0.016332345   -4.8483756    1.0540291      1024000 
  146000   0.70186555   -4.8513415   -4.8513415   -3.7985453 -0.017940803   -4.8513415    1.0527962      1024000 
  147000   0.70243902   -4.8564919   -4.8564919   -3.8028355 -0.019068433   -4.8564919    1.0536564      1024000 
  148000   0.70197142   -4.8597153   -4.8597153   -3.8067603  -0.01937594   -4.8597153     1.052955      1024000 
  149000   0.70156459   -4.8634754   -4.8634754   -3.8111306 -0.017392384   -4.8634754    1.0523447      1024000 
  150000   0.70129233   -4.8677298   -4.8677298   -3.8157934 -0.016371051   -4.8677298    1.0519364      1024000 
  151000   0.70146345   -4.8719275   -4.8719275   -3.8197344 -0.023619629   -4.8719275     1.052193      1024000 
  152000   0.70019016   -4.8737653   -4.8737653   -3.8234822 -0.016607656   -4.8737653    1.0502831      1024000 
  153000   0.70081843   -4.8790378   -4.8790378   -3.8278123 -0.018147329   -4.8790378    1.0512255      1024000 
  154000   0.69961036    -4.882186    -4.882186   -3.8327726 -0.016898972    -4.882186    1.0494134      1024000 
  155000   0.70023969    -4.887591    -4.887591   -3.8372336 -0.018871779    -4.887591    1.0503574      1024000 
  156000   0.69861563   -4.8894249   -4.8894249   -3.8415035  -0.01622115   -4.8894249    1.0479213      1024000 
  157000   0.69858051   -4.8938971   -4.8938971   -3.8460285 -0.016659896   -4.8938971    1.0478686      1024000 
  158000    0.6989008   -4.8981562   -4.8981562   -3.8498071 -0.016027372   -4.8981562    1.0483491      1024000 
  159000   0.69897486   -4.9019051   -4.9019051   -3.8534449 -0.011859569   -4.9019051    1.0484602      1024000 
  160000   0.69805159   -4.9045965   -4.9045965   -3.8575212 -0.011720525   -4.9045965    1.0470753      1024000 
  161000   0.69893645   -4.9098111   -4.9098111   -3.8614085 -0.014587581   -4.9098111    1.0484025      1024000 
  162000   0.69909889   -4.9139806   -4.9139806   -3.8653344 -0.010952426   -4.9139806    1.0486462      1024000 
  163000   0.69782871   -4.9154336   -4.9154336   -3.8686927 -0.012386289   -4.9154336    1.0467409      1024000 
  164000    0.6979359   -4.9196273   -4.9196273   -3.8727256 -0.019785849   -4.9196273    1.0469017      1024000 
  165000   0.69653414   -4.9214039   -4.9214039   -3.8766048 -0.018479979   -4.9214039    1.0447991      1024000 
  166000   0.69513676   -4.9232747   -4.9232747   -3.8805717 -0.016568237   -4.9232747     1.042703      1024000 
  167000   0.69644044   -4.9287602   -4.9287602   -3.8841017 -0.019888183   -4.9287602    1.0446585      1024000 
  168000   0.69523508   -4.9300964   -4.9300964   -3.8872459 -0.010671794   -4.9300964    1.0428505      1024000 
  169000   0.69660027   -4.9354877   -4.9354877   -3.8905894 -0.017745173   -4.9354877    1.0448983      1024000 
  170000   0.69503379   -4.9367144   -4.9367144   -3.8941658 -0.009346989   -4.9367144    1.0425486      1024000 
  171000   0.69519868   -4.9405592   -4.9405592   -3.8977633 -0.0096723552   -4.9405592    1.0427959      1024000 
  172000   0.69610631   -4.9452025   -4.9452025   -3.9010452 -0.012422089   -4.9452025    1.0441573      1024000 
  173000   0.69612119   -4.9485424   -4.9485424   -3.9043627 -0.0082146571   -4.9485424    1.0441797      1024000 
  174000   0.69504459   -4.9506356   -4.9506356   -3.9080709  -0.01280769   -4.9506356    1.0425648      1024000 
  175000    0.6944093   -4.9531966   -4.9531966   -3.9115848 -0.012519736   -4.9531966    1.0416118      1024000 
  176000   0.69439748   -4.9567122   -4.9567122   -3.9151181 -0.018842951   -4.9567122    1.0415941      1024000 
  177000   0.69439988   -4.9594856   -4.9594856   -3.9178879 -0.013734306   -4.9594856    1.0415977      1024000 
  178000   0.69415756    -4.963109    -4.963109   -3.9218748 -0.0097204088    -4.963109    1.0412342      1024000 
  179000    0.6955385   -4.9685263   -4.9685263   -3.9252206 -0.0053336031   -4.9685263    1.0433056      1024000 
  180000    0.6950078   -4.9708829   -4.9708829   -3.9283733 -0.0041253071   -4.9708829    1.0425096      1024000 
  181000   0.69350405   -4.9725567   -4.9725567   -3.9323027 -0.002739541   -4.9725567     1.040254      1024000 
  182000   0.69449769   -4.9769345   -4.9769345   -3.9351901 0.0020284762   -4.9769345    1.0417444      1024000 
  183000   0.69471028   -4.9798872   -4.9798872   -3.9378239  0.001030199   -4.9798872    1.0420633      1024000 
  184000   0.69537484   -4.9842036   -4.9842036   -3.9411435  0.001456431   -4.9842036    1.0430601      1024000 
  185000    0.6954154   -4.9881923   -4.9881923   -3.9450713 0.0047139209   -4.9881923     1.043121      1024000 
  186000   0.69473129   -4.9909563   -4.9909563   -3.9488615 0.0058740213   -4.9909563    1.0420948      1024000 
  187000   0.69524791    -4.994821    -4.994821   -3.9519513 0.0047728126    -4.994821    1.0428697      1024000 
  188000   0.69436852   -4.9970938   -4.9970938   -3.9555432 0.0055594928   -4.9970938    1.0415507      1024000 
  189000   0.69525277   -5.0016568   -5.0016568   -3.9587798 0.0023505259   -5.0016568     1.042877      1024000 
  190000   0.69495492   -5.0034994   -5.0034994   -3.9610691 0.0096226599   -5.0034994    1.0424303      1024000 
  191000   0.69479826   -5.0071408   -5.0071408   -3.9649455 0.0096194763   -5.0071408    1.0421953      1024000 
  192000   0.69487076    -5.010521    -5.010521    -3.968217  0.010413269    -5.010521     1.042304      1024000 
  193000   0.69427577   -5.0124623   -5.0124623   -3.9710507  0.021298657   -5.0124623    1.0414115      1024000 
  194000   0.69356188   -5.0147875   -5.0147875   -3.9744468  0.024452649   -5.0147875    1.0403407      1024000 
  195000   0.69412701   -5.0184624   -5.0184624    -3.977274  0.024200131   -5.0184624    1.0411884      1024000 
  196000   0.69509081   -5.0225056   -5.0225056   -3.9798715  0.021099456   -5.0225056    1.0426341      1024000 
  197000   0.69405341   -5.0239155   -5.0239155   -3.9828375  0.024284286   -5.0239155     1.041078      1024000 
  198000   0.69407215   -5.0269813   -5.0269813   -3.9858752  0.028492091   -5.0269813    1.0411061      1024000 
  199000   0.69302691    -5.028785    -5.028785   -3.9892468  0.027473569    -5.028785    1.0395382      1024000 
  200000   0.69241436   -5.0306071   -5.0306071   -3.9919877  0.022936833   -5.0306071    1.0386194      1024000 
  201000   0.69080943   -5.0315232   -5.0315232   -3.9953112  0.018478898   -5.0315232     1.036212      1024000 
  202000   0.68976192   -5.0331362   -5.0331362   -3.9984954 0.0078675259   -5.0331362    1.0346408      1024000 
  203000    0.6868179   -5.0313364   -5.0313364   -4.0011117 0.0036916174   -5.0313364    1.0302248      1024000 
  204000   0.68721399    -5.033947    -5.033947   -4.0031281 -0.0087640612    -5.033947    1.0308189      1024000 
  205000   0.68489749   -5.0337161   -5.0337161   -4.0063719 -0.017767584   -5.0337161    1.0273442      1024000 
  206000   0.68238517   -5.0327161   -5.0327161   -4.0091404 -0.025062735   -5.0327161    1.0235757      1024000 
  207000   0.68058929   -5.0324541   -5.0324541   -4.0115722  -0.03456299   -5.0324541    1.0208819      1024000 
  208000      0.67927   -5.0329031   -5.0329031   -4.0140002 -0.033109771   -5.0329031    1.0189029      1024000 
  209000    0.6789973    -5.034618    -5.034618   -4.0161241 -0.042173358    -5.034618    1.0184939      1024000 
  210000   0.67821449   -5.0363206   -5.0363206   -4.0190009 -0.049801241   -5.0363206    1.0173197      1024000 
  211000   0.67647628   -5.0359951   -5.0359951   -4.0212827 -0.049187387   -5.0359951    1.0147124      1024000 
  212000   0.67630848   -5.0381823   -5.0381823   -4.0237216  -0.05234563   -5.0381823    1.0144607      1024000 
  213000   0.67672712   -5.0405311   -5.0405311   -4.0254425 -0.045771097   -5.0405311    1.0150886      1024000 
  214000   0.67657025   -5.0424563   -5.0424563    -4.027603 -0.041493151   -5.0424563    1.0148533      1024000 
  215000   0.67757745   -5.0461077   -5.0461077   -4.0297436 -0.034591413   -5.0461077    1.0163641      1024000 
  216000   0.67865811   -5.0499114   -5.0499114   -4.0319263 -0.030005924   -5.0499114    1.0179851      1024000 
  217000   0.67917569   -5.0531759   -5.0531759   -4.0344144 -0.023381475   -5.0531759    1.0187615      1024000 
  218000    0.6797616   -5.0568355   -5.0568355   -4.0371952 -0.015761161   -5.0568355    1.0196403      1024000 
  219000   0.68117815   -5.0618935   -5.0618935   -4.0401284 -0.0069955165   -5.0618935    1.0217652      1024000 
  220000   0.68237268   -5.0663499   -5.0663499   -4.0427929 -0.004064901   -5.0663499    1.0235569      1024000 
  221000   0.68199722   -5.0684639   -5.0684639   -4.0454701 0.0054370735   -5.0684639    1.0229938      1024000 
  222000   0.68217413   -5.0717356   -5.0717356   -4.0484765 0.0083660936   -5.0717356    1.0232591      1024000 
  223000   0.68350066   -5.0765758   -5.0765758   -4.0513269 0.0075147471   -5.0765758    1.0252489      1024000 
  224000   0.68263747   -5.0776061   -5.0776061    -4.053652  0.018080608   -5.0776061    1.0239541      1024000 
  225000   0.68265525   -5.0797073   -5.0797073   -4.0557265  0.015296853   -5.0797073    1.0239808      1024000 
  226000   0.68237513   -5.0819449   -5.0819449   -4.0583842  0.015500753   -5.0819449    1.0235606      1024000 
  227000    0.6810746   -5.0828642   -5.0828642   -4.0612544   0.01125675   -5.0828642    1.0216098      1024000 
  228000   0.68016529   -5.0842783   -5.0842783   -4.0640324 0.0066119582   -5.0842783    1.0202459      1024000 
  229000   0.67932593   -5.0851187   -5.0851187   -4.0661319 0.0012831028   -5.0851187    1.0189868      1024000 
  230000   0.67758909   -5.0859792   -5.0859792   -4.0695976 -0.0068953998   -5.0859792    1.0163816      1024000 
  231000   0.67707545   -5.0876176   -5.0876176   -4.0720065 -0.011775991   -5.0876176    1.0156111      1024000 
  232000   0.67494083   -5.0872124   -5.0872124   -4.0748032 -0.017529617   -5.0872124    1.0124092      1024000 
  233000   0.67230722   -5.0861032   -5.0861032   -4.0776444 -0.021414536   -5.0861032    1.0084588      1024000 
  234000   0.67147397    -5.087229    -5.087229   -4.0800201 -0.034398072    -5.087229    1.0072089      1024000 
  235000   0.67204024   -5.0895527   -5.0895527   -4.0814944 -0.040468862   -5.0895527    1.0080583      1024000 
  236000    0.6707651   -5.0899128   -5.0899128   -4.0837672 -0.041720828   -5.0899128    1.0061456      1024000 
  237000   0.66991468   -5.0907946   -5.0907946   -4.0859246 -0.038680687   -5.0907946      1.00487      1024000 
  238000   0.66937481   -5.0922203   -5.0922203   -4.0881601 -0.036050386   -5.0922203    1.0040602      1024000 
  239000   0.66902912   -5.0941401   -5.0941401   -4.0905985 -0.040808658   -5.0941401    1.0035416      1024000 
  240000   0.66879628   -5.0958135   -5.0958135   -4.0926211 -0.034274324   -5.0958135    1.0031924      1024000 
  241000   0.66865981   -5.0982106   -5.0982106   -4.0952229 -0.033228664   -5.0982106    1.0029877      1024000 
  242000   0.67068058   -5.1034005   -5.1034005   -4.0973817 -0.032084829   -5.1034005    1.0060188      1024000 
  243000   0.67025344   -5.1053208   -5.1053208   -4.0999427 -0.024304845   -5.1053208    1.0053781      1024000 
  244000   0.67134189    -5.108995    -5.108995   -4.1019842 -0.018237596    -5.108995    1.0070108      1024000 
  245000   0.67218548   -5.1128617   -5.1128617   -4.1045855 -0.013925486   -5.1128617    1.0082762      1024000 
  246000   0.67193732   -5.1143792   -5.1143792   -4.1064752 -0.0027390033   -5.1143792    1.0079039      1024000 
  247000   0.67317036   -5.1183276   -5.1183276   -4.1085741 -0.0018183898   -5.1183276    1.0097535      1024000 
  248000   0.67348208   -5.1213652   -5.1213652   -4.1111441  0.002394277   -5.1213652    1.0102211      1024000 
  249000    0.6731536   -5.1235134   -5.1235134   -4.1137851 0.0078426444   -5.1235134    1.0097284      1024000 
  250000   0.67342363   -5.1261773   -5.1261773   -4.1160439  0.011829578   -5.1261773    1.0101334      1024000 
  251000   0.67330408   -5.1278171   -5.1278171    -4.117863  0.010877897   -5.1278171    1.0099541      1024000 
  252000   0.67192881    -5.128015    -5.128015   -4.1201239  0.012535165    -5.128015    1.0078912      1024000 
  253000   0.67159445   -5.1300032   -5.1300032   -4.1226135  0.006161997   -5.1300032    1.0073896      1024000 
  254000   0.67083128   -5.1305604   -5.1305604   -4.1243156 0.0050801993   -5.1305604    1.0062449      1024000 
  255000     0.670594   -5.1330956   -5.1330956   -4.1272066 -0.0048671774   -5.1330956     1.005889      1024000 
  256000   0.66868733   -5.1325524   -5.1325524   -4.1295235 -0.0061623861   -5.1325524     1.003029      1024000 
  257000   0.66731995   -5.1325384   -5.1325384   -4.1315605  -0.01322714   -5.1325384    1.0009779      1024000 
  258000   0.66665329    -5.133888    -5.133888   -4.1339101 -0.019599434    -5.133888   0.99997791      1024000 
  259000   0.66472752   -5.1331821   -5.1331821   -4.1360929 -0.023312509   -5.1331821   0.99708925      1024000 
  260000   0.66328284   -5.1331318   -5.1331318   -4.1382096 -0.029087998   -5.1331318   0.99492225      1024000 
  261000   0.66298912   -5.1341345   -5.1341345   -4.1396528 -0.030913077   -5.1341345   0.99448167      1024000 
  262000   0.66222894   -5.1352378   -5.1352378   -4.1418964 -0.035743368   -5.1352378    0.9933414      1024000 
  263000   0.66151466   -5.1361217   -5.1361217   -4.1438517   -0.0349499   -5.1361217   0.99226998      1024000 
  264000   0.66182472   -5.1387619   -5.1387619   -4.1460268 -0.035207616   -5.1387619   0.99273507      1024000 
  265000   0.66172989   -5.1406009   -5.1406009   -4.1480081 -0.032988918   -5.1406009   0.99259283      1024000 
  266000   0.66106408   -5.1414501   -5.1414501    -4.149856 -0.029690896   -5.1414501   0.99159411      1024000 
  267000   0.66241287   -5.1458247   -5.1458247   -4.1522074 -0.030691205   -5.1458247   0.99361729      1024000 
  268000   0.66290034   -5.1482237   -5.1482237   -4.1538752 -0.021243444   -5.1482237    0.9943485      1024000 
  269000   0.66352498   -5.1514884   -5.1514884   -4.1562029 -0.018960874   -5.1514884   0.99528545      1024000 
  270000   0.66403867   -5.1543285   -5.1543285   -4.1582725 -0.011797701   -5.1543285   0.99605599      1024000 
  271000   0.66426686   -5.1564911   -5.1564911   -4.1600929 -0.0034801373   -5.1564911   0.99639827      1024000 
  272000   0.66538895   -5.1598359   -5.1598359   -4.1617545 -0.0045433498   -5.1598359   0.99808139      1024000 
  273000   0.66512369   -5.1614104   -5.1614104   -4.1637268 0.0048848728   -5.1614104   0.99768351      1024000 
  274000   0.66484534   -5.1628829   -5.1628829   -4.1656169 0.0085834685   -5.1628829   0.99726598      1024000 
  275000   0.66533645   -5.1649961   -5.1649961   -4.1669934  0.011717752   -5.1649961   0.99800265      1024000 
  276000   0.66421129   -5.1663475   -5.1663475   -4.1700326  0.012791942   -5.1663475   0.99631492      1024000 
  277000   0.66499104   -5.1690645   -5.1690645     -4.17158 0.0037989145   -5.1690645   0.99748453      1024000 
  278000   0.66398171   -5.1700086   -5.1700086    -4.174038 0.0011107198   -5.1700086   0.99597054      1024000 
  279000   0.66275435   -5.1704828   -5.1704828   -4.1763533 -0.0016040967   -5.1704828   0.99412951      1024000 
  280000   0.66220291   -5.1714181   -5.1714181   -4.1781158 -0.0051632656   -5.1714181   0.99330235      1024000 
  281000   0.66127348   -5.1724328   -5.1724328   -4.1805246 -0.016413344   -5.1724328    0.9919082      1024000 
  282000    0.6595422   -5.1717157   -5.1717157   -4.1824044 -0.018729002   -5.1717157   0.98931129      1024000 
  283000    0.6587914   -5.1726378   -5.1726378   -4.1844527 -0.025201759   -5.1726378   0.98818509      1024000 
  284000   0.65733212   -5.1718827   -5.1718827   -4.1858865 -0.028295821   -5.1718827   0.98599618      1024000 
  285000    0.6576634   -5.1736726   -5.1736726   -4.1871795 -0.032009193   -5.1736726    0.9864931      1024000 
  286000   0.65687194   -5.1742072   -5.1742072   -4.1889013  -0.03357825   -5.1742072   0.98530591      1024000 
  287000   0.65577558   -5.1739449   -5.1739449   -4.1902836 -0.029359469   -5.1739449   0.98366137      1024000 
  288000    0.6562813   -5.1765228   -5.1765228   -4.1921029 -0.030491608   -5.1765228   0.98441995      1024000 
  289000   0.65706746   -5.1792724   -5.1792724   -4.1936732 -0.033379285   -5.1792724    0.9855992      1024000 
  290000   0.65671287   -5.1804438   -5.1804438   -4.1953765 -0.024181526   -5.1804438    0.9850673      1024000 
  291000   0.65662135   -5.1826417   -5.1826417   -4.1977117  -0.02312122   -5.1826417   0.98493003      1024000 
  292000   0.65728565   -5.1857338   -5.1857338   -4.1998074 -0.021269211   -5.1857338   0.98592648      1024000 
  293000   0.65752682   -5.1886983   -5.1886983   -4.2024101 -0.016966779   -5.1886983   0.98628824      1024000 
  294000    0.6578899   -5.1915952   -5.1915952   -4.2047623 -0.013547801   -5.1915952   0.98683285      1024000 
  295000   0.65774431   -5.1942586   -5.1942586   -4.2076441 -0.013778868   -5.1942586   0.98661446      1024000 
  296000   0.65817903    -5.197238    -5.197238   -4.2099715 -0.0086111068    -5.197238   0.98726654      1024000 
  297000   0.65903878   -5.1998831   -5.1998831    -4.211327 -0.0035935694   -5.1998831   0.98855617      1024000 
  298000    0.6590229   -5.2021795   -5.2021795   -4.2136471 0.0021730062   -5.2021795   0.98853235      1024000 
  299000   0.65782086   -5.2028942   -5.2028942   -4.2161649 0.0021540939   -5.2028942   0.98672929      1024000 
  300000   0.65836341   -5.2053201   -5.2053201    -4.217777 0.0026269297   -5.2053201   0.98754311      1024000 
  301000   0.65805257   -5.2071102   -5.2071102   -4.2200333 8.4478782e-05   -5.2071102   0.98707685      1024000 
  302000   0.65729789   -5.2077326   -5.2077326   -4.2217878 -0.001517977   -5.2077326   0.98594484      1024000 
  303000   0.65626392   -5.2077597   -5.2077597   -4.2233658 7.9256018e-05   -5.2077597   0.98439388      1024000 
  304000   0.65577041   -5.2090643   -5.2090643   -4.2254107 -0.0058530461   -5.2090643   0.98365362      1024000 
  305000   0.65478088   -5.2091733   -5.2091733    -4.227004 -0.0091015581   -5.2091733   0.98216933      1024000 
  306000   0.65425786   -5.2100734   -5.2100734   -4.2286886 -0.015975624   -5.2100734    0.9813848      1024000 
  307000   0.65328141   -5.2110845   -5.2110845   -4.2311643 -0.019243721   -5.2110845   0.97992013      1024000 
  308000   0.65330032   -5.2133551   -5.2133551   -4.2334066 -0.023687901   -5.2133551   0.97994849      1024000 
  309000   0.65138659   -5.2122392   -5.2122392   -4.2351613 -0.024244463   -5.2122392   0.97707791      1024000 
  310000   0.65027763   -5.2121306   -5.2121306   -4.2367161 -0.024462125   -5.2121306   0.97541447      1024000 
  311000   0.65008578   -5.2138238   -5.2138238   -4.2386971 -0.033511173   -5.2138238   0.97512669      1024000 
  312000    0.6506442   -5.2160252   -5.2160252   -4.2400609 -0.031613482   -5.2160252   0.97596432      1024000 
  313000   0.65076014    -5.218085    -5.218085   -4.2419467 -0.029139743    -5.218085   0.97613822      1024000 
  314000   0.65028874   -5.2197383   -5.2197383   -4.2443071 -0.027350168   -5.2197383   0.97543112      1024000 
  315000   0.65033125   -5.2213064   -5.2213064   -4.2458115 -0.030024054   -5.2213064   0.97549489      1024000 
  316000   0.65029816   -5.2233687   -5.2233687   -4.2479234 -0.021388056   -5.2233687   0.97544526      1024000 
  317000   0.65180078   -5.2267851   -5.2267851   -4.2490859 -0.025387938   -5.2267851   0.97769919      1024000 
  318000   0.65106761   -5.2276961   -5.2276961   -4.2510967 -0.016077118   -5.2276961   0.97659944      1024000 
  319000   0.65163955   -5.2306559   -5.2306559   -4.2531985 -0.013017992   -5.2306559   0.97745734      1024000 
  320000   0.65141531    -5.232002    -5.232002   -4.2548811 -0.0098961323    -5.232002   0.97712099      1024000 
  321000   0.65108653   -5.2334473   -5.2334473   -4.2568195 -0.0068111744   -5.2334473   0.97662782      1024000 
  322000   0.65146027   -5.2349848   -5.2349848   -4.2577964 -0.005557277   -5.2349848   0.97718842      1024000 
  323000   0.65184852   -5.2376255   -5.2376255   -4.2598547 -0.0036678044   -5.2376255    0.9777708      1024000 
  324000   0.65033941    -5.237117    -5.237117   -4.2616098 -0.00089078672    -5.237117   0.97550714      1024000 
  325000   0.65010855   -5.2391703   -5.2391703   -4.2640095 -0.0013831656   -5.2391703   0.97516084      1024000 
  326000   0.64980694   -5.2403555   -5.2403555   -4.2656471 -0.0047409377   -5.2403555   0.97470843      1024000 
  327000    0.6492968   -5.2414128   -5.2414128   -4.2674696 -0.007724671   -5.2414128   0.97394323      1024000 
  328000   0.64838044   -5.2425017   -5.2425017    -4.269933 -0.015167077   -5.2425017   0.97256869      1024000 
  329000   0.64850768   -5.2443079   -5.2443079   -4.2715484 -0.019130239   -5.2443079   0.97275954      1024000 
  330000   0.64672753   -5.2439273   -5.2439273    -4.273838 -0.016785757   -5.2439273   0.97008933      1024000 
  331000   0.64737568   -5.2468567   -5.2468567   -4.2757951 -0.026381032   -5.2468567   0.97106155      1024000 
  332000   0.64557446     -5.24592     -5.24592   -4.2775603 -0.026217896     -5.24592   0.96835973      1024000 
  333000   0.64550813   -5.2478554   -5.2478554   -4.2795952 -0.030688732   -5.2478554   0.96826023      1024000 
  334000   0.64612102   -5.2507458   -5.2507458   -4.2815662 -0.034393374   -5.2507458   0.96917957      1024000 
  335000   0.64441052   -5.2498743   -5.2498743   -4.2832605 -0.027757668   -5.2498743   0.96661381      1024000 
  336000    0.6457662   -5.2529335   -5.2529335   -4.2842862 -0.031314598   -5.2529335   0.96864733      1024000 
  337000   0.64462896   -5.2531336   -5.2531336   -4.2861921 -0.025949248   -5.2531336   0.96694148      1024000 
  338000   0.64522314   -5.2552778   -5.2552778   -4.2874451 -0.026286866   -5.2552778   0.96783274      1024000 
  339000   0.64440689   -5.2559855   -5.2559855   -4.2893771 -0.018339102   -5.2559855   0.96660837      1024000 
  340000   0.64548877   -5.2591766   -5.2591766   -4.2909454 -0.018818738   -5.2591766   0.96823119      1024000 
  341000   0.64533543   -5.2609684   -5.2609684   -4.2929672 -0.016378531   -5.2609684   0.96800118      1024000 
  342000   0.64585803   -5.2633265   -5.2633265   -4.2945414  -0.01164402   -5.2633265   0.96878508      1024000 
  343000   0.64501224   -5.2642308   -5.2642308   -4.2967144 -0.0079768317   -5.2642308   0.96751639      1024000 
  344000   0.64541174   -5.2674419   -5.2674419   -4.2993263 -0.0090698421   -5.2674419   0.96811564      1024000 
  345000   0.64498196   -5.2688956   -5.2688956   -4.3014247 -0.0086176148   -5.2688956   0.96747098      1024000 
  346000   0.64538722   -5.2713246   -5.2713246   -4.3032457 -0.013847907   -5.2713246   0.96807886      1024000 
  347000   0.64469246   -5.2720491   -5.2720491   -4.3050124 -0.0094405249   -5.2720491   0.96703672      1024000 
  348000   0.64383637   -5.2731941   -5.2731941   -4.3074415 -0.011227289   -5.2731941   0.96575259      1024000 
  349000   0.64361325   -5.2750408   -5.2750408   -4.3096229 -0.015073134   -5.2750408   0.96541792      1024000 
  350000   0.64249338   -5.2761318   -5.2761318   -4.3123936 -0.014141639   -5.2761318   0.96373812      1024000 
  351000   0.64200119   -5.2767539   -5.2767539   -4.3137541 -0.018000329   -5.2767539   0.96299982      1024000 
  352000   0.64270649   -5.2785629   -5.2785629   -4.3145052 -0.022195699   -5.2785629   0.96405777      1024000 
  353000   0.64197043   -5.2787683   -5.2787683   -4.3158146 -0.022486546   -5.2787683   0.96295369      1024000 
  354000    0.6412384   -5.2794796   -5.2794796   -4.3176239 -0.024908782   -5.2794796   0.96185565      1024000 
  355000   0.64097169   -5.2814922   -5.2814922   -4.3200366 -0.027215464   -5.2814922   0.96145559      1024000 
  356000   0.64137964   -5.2834068   -5.2834068   -4.3213393 -0.030541768   -5.2834068   0.96206751      1024000 
  357000   0.64062276   -5.2842891   -5.2842891   -4.3233569 -0.031116102   -5.2842891    0.9609322      1024000 
  358000   0.64039645   -5.2854115   -5.2854115   -4.3248187 -0.026236587   -5.2854115   0.96059272      1024000 
  359000   0.63973856   -5.2861379   -5.2861379    -4.326532  -0.03131725   -5.2861379   0.95960589      1024000 
  360000   0.64003344   -5.2881331   -5.2881331   -4.3280849 -0.026849442   -5.2881331   0.96004821      1024000 
  361000   0.64152378   -5.2927372   -5.2927372   -4.3304535 -0.034070673   -5.2927372   0.96228371      1024000 
  362000   0.63963782   -5.2909462   -5.2909462   -4.3314914 -0.021008716   -5.2909462   0.95945479      1024000 
  363000   0.64019026   -5.2934234   -5.2934234   -4.3331399 -0.023711705   -5.2934234   0.96028344      1024000 
  364000   0.64046442   -5.2953958   -5.2953958   -4.3347011 -0.020201972   -5.2953958   0.96069468      1024000 
  365000   0.64003346   -5.2971665   -5.2971665   -4.3371183 -0.015882922   -5.2971665   0.96004825      1024000 
  366000   0.64029545   -5.2990917   -5.2990917   -4.3386505 -0.016990769   -5.2990917   0.96044123      1024000 
  367000   0.63933399   -5.2991338   -5.2991338   -4.3401347 -0.013219756   -5.2991338   0.95899904      1024000 
  368000   0.64037497   -5.3030294   -5.3030294   -4.3424689 -0.018046871   -5.3030294   0.96056051      1024000 
  369000   0.64016064   -5.3039665   -5.3039665   -4.3437275 -0.015314037   -5.3039665   0.96023901      1024000 
  370000   0.63922302   -5.3041753   -5.3041753   -4.3453427 -0.013005832   -5.3041753   0.95883259      1024000 
  371000   0.63966033   -5.3063511   -5.3063511   -4.3468625 -0.019388619   -5.3063511   0.95948855      1024000 
  372000      0.63831   -5.3063477   -5.3063477   -4.3488846 -0.017649966   -5.3063477   0.95746306      1024000 
  373000   0.63766233   -5.3071973   -5.3071973   -4.3507058 -0.016789082   -5.3071973   0.95649155      1024000 
  374000   0.63685063   -5.3076047   -5.3076047   -4.3523307 -0.022748276   -5.3076047     0.955274      1024000 
  375000   0.63802977   -5.3108701   -5.3108701   -4.3538273 -0.027553585   -5.3108701   0.95704271      1024000 
  376000   0.63735857   -5.3106754   -5.3106754   -4.3546395 -0.028649909   -5.3106754   0.95603591      1024000 
  377000   0.63781289     -5.31248     -5.31248   -4.3557626 -0.029573264     -5.31248   0.95671739      1024000 
  378000    0.6359762   -5.3114197   -5.3114197   -4.3574573 -0.027213402   -5.3114197   0.95396237      1024000 
  379000   0.63584118   -5.3124776   -5.3124776   -4.3587178  -0.03046121   -5.3124776   0.95375984      1024000 
  380000    0.6351708   -5.3128811   -5.3128811   -4.3601268 -0.029380791   -5.3128811   0.95275426      1024000 
  381000    0.6359491   -5.3152566   -5.3152566   -4.3613349 -0.028047628   -5.3152566   0.95392172      1024000 
  382000   0.63544871   -5.3165361   -5.3165361   -4.3633649 -0.029356956   -5.3165361   0.95317113      1024000 
  383000   0.63539701   -5.3186182   -5.3186182   -4.3655246 -0.027389217   -5.3186182   0.95309358      1024000 
  384000   0.63639069   -5.3222976   -5.3222976   -4.3677135 -0.026970978   -5.3222976    0.9545841      1024000 
  385000   0.63563042   -5.3235689   -5.3235689   -4.3701252 -0.025113816   -5.3235689    0.9534437      1024000 
  386000    0.6348901   -5.3239706   -5.3239706   -4.3716373 -0.022335623   -5.3239706   0.95233322      1024000 
  387000   0.63611899   -5.3273025   -5.3273025    -4.373126 -0.019027878   -5.3273025   0.95417654      1024000 
  388000   0.63643913    -5.329727    -5.329727   -4.3750703 -0.020978156    -5.329727   0.95465677      1024000 
  389000   0.63585643   -5.3308106   -5.3308106   -4.3770279 -0.017465201   -5.3308106   0.95378272      1024000 
  390000    0.6355691   -5.3320304   -5.3320304   -4.3786787 -0.016469636   -5.3320304   0.95335171      1024000 
  391000   0.63686346   -5.3350369   -5.3350369   -4.3797437 -0.016981358   -5.3350369   0.95529325      1024000 
  392000   0.63545733   -5.3340909   -5.3340909   -4.3809068 -0.012867122   -5.3340909   0.95318405      1024000 
  393000   0.63546943   -5.3355633   -5.3355633   -4.3823611 -0.010794471   -5.3355633    0.9532022      1024000 
  394000   0.63673584   -5.3386244   -5.3386244   -4.3835226 -0.017133275   -5.3386244   0.95510182      1024000 
  395000   0.63516785   -5.3379885   -5.3379885   -4.3852386  -0.01776665   -5.3379885   0.95274984      1024000 
  396000   0.63418405   -5.3385302   -5.3385302    -4.387256 -0.020914524   -5.3385302   0.95127414      1024000 
  397000   0.63398638   -5.3399527   -5.3399527   -4.3889751 -0.025861644   -5.3399527   0.95097764      1024000 
  398000   0.63355984   -5.3410535   -5.3410535   -4.3907156 -0.028417387   -5.3410535   0.95033783      1024000 
  399000    0.6336113   -5.3427954   -5.3427954   -4.3923804 -0.028559369   -5.3427954   0.95041502      1024000 
  400000   0.63211468   -5.3422162   -5.3422162   -4.3940461 -0.030858229   -5.3422162    0.9481701      1024000 
  401000   0.63095414   -5.3426701   -5.3426701   -4.3962408 -0.031550536   -5.3426701   0.94642929      1024000 
  402000   0.63147096   -5.3443871   -5.3443871   -4.3971825 -0.034262758   -5.3443871   0.94720452      1024000 
  403000   0.63069116   -5.3447564   -5.3447564   -4.3987216 -0.031520783   -5.3447564   0.94603482      1024000 
  404000   0.63072952   -5.3459185   -5.3459185   -4.3998261 -0.034817527   -5.3459185   0.94609237      1024000 
  405000   0.63143202   -5.3485773   -5.3485773   -4.4014312 -0.031641646   -5.3485773   0.94714611      1024000 
  406000   0.63142526   -5.3495883   -5.3495883   -4.4024524 -0.027303821   -5.3495883   0.94713596      1024000 
  407000     0.631883   -5.3516839   -5.3516839   -4.4038614 -0.026091241   -5.3516839   0.94782258      1024000 
  408000   0.63205861   -5.3541879   -5.3541879   -4.4061019 -0.029262747   -5.3541879   0.94808599      1024000 
  409000   0.63157306   -5.3552059   -5.3552059   -4.4078482 -0.024148665   -5.3552059   0.94735767      1024000 
  410000   0.63194077   -5.3570017   -5.3570017   -4.4090924 -0.020705035   -5.3570017   0.94790923      1024000 
  411000   0.63129145   -5.3577135   -5.3577135   -4.4107783 -0.017832774   -5.3577135   0.94693525      1024000 
  412000   0.63094272   -5.3588451   -5.3588451   -4.4124329  -0.01769895   -5.3588451   0.94641215      1024000 
  413000   0.63116326    -5.360897    -5.360897    -4.414154 -0.021357821    -5.360897   0.94674296      1024000 
  414000   0.63143591   -5.3628919   -5.3628919   -4.4157399  -0.02112353   -5.3628919   0.94715194      1024000 
  415000   0.63148499   -5.3642654   -5.3642654   -4.4170398 -0.019468426   -5.3642654   0.94722557      1024000 
  416000   0.62989427   -5.3630783   -5.3630783   -4.4182388 -0.016614031   -5.3630783   0.94483949      1024000 
  417000   0.62956241   -5.3641649   -5.3641649   -4.4198232 -0.018450775   -5.3641649    0.9443417      1024000 
  418000   0.62945677   -5.3659594   -5.3659594   -4.4217762 -0.025255858   -5.3659594   0.94418325      1024000 
  419000   0.62906464   -5.3668755   -5.3668755   -4.4232804 -0.031019645   -5.3668755   0.94359504      1024000 
  420000    0.6282656   -5.3671666   -5.3671666   -4.4247701 -0.029163301   -5.3671666   0.94239649      1024000 
  421000   0.62783125   -5.3681554   -5.3681554   -4.4264104 -0.033870931   -5.3681554   0.94174497      1024000 
  422000   0.62802378   -5.3695053   -5.3695053   -4.4274716 -0.034608699   -5.3695053   0.94203376      1024000 
  423000   0.62715655   -5.3692054   -5.3692054   -4.4284725 -0.031779865   -5.3692054   0.94073291      1024000 
  424000   0.62786965   -5.3719579   -5.3719579   -4.4301553 -0.035038712   -5.3719579   0.94180257      1024000 
  425000   0.62822676   -5.3738132   -5.3738132    -4.431475 -0.037840209   -5.3738132   0.94233822      1024000 
  426000   0.62656053   -5.3727412   -5.3727412   -4.4329023 -0.031253561   -5.3727412   0.93983889      1024000 
  427000   0.62748859   -5.3755148   -5.3755148   -4.4342838 -0.034686487   -5.3755148   0.94123098      1024000 
  428000    0.6273639   -5.3772483   -5.3772483   -4.4362044  -0.03293955   -5.3772483   0.94104393      1024000 
  429000   0.62728126   -5.3786806   -5.3786806   -4.4377606 -0.030819605   -5.3786806   0.94091998      1024000 
  430000   0.62767264   -5.3807144   -5.3807144   -4.4392074 -0.029039177   -5.3807144   0.94150705      1024000 
  431000   0.62711222   -5.3816858   -5.3816858   -4.4410193 -0.019364105   -5.3816858   0.94066642      1024000 
  432000   0.62761798   -5.3840617   -5.3840617   -4.4426366 -0.024438303   -5.3840617   0.94142506      1024000 
  433000   0.62671911   -5.3842265   -5.3842265   -4.4441498 -0.020360296   -5.3842265   0.94007676      1024000 
  434000   0.62776459   -5.3867814   -5.3867814   -4.4451365 -0.020599211   -5.3867814   0.94164497      1024000 
  435000   0.62725903    -5.387828    -5.387828   -4.4469414 -0.017091352    -5.387828   0.94088663      1024000 
  436000   0.62807366   -5.3901356   -5.3901356    -4.448027  -0.02280531   -5.3901356   0.94210857      1024000 
  437000   0.62692338   -5.3898669   -5.3898669   -4.4494837 -0.022928989   -5.3898669   0.94038316      1024000 
  438000   0.62656827   -5.3910934   -5.3910934   -4.4512429 -0.025902089   -5.3910934    0.9398505      1024000 
  439000   0.62646551   -5.3925424   -5.3925424    -4.452846 -0.025298358   -5.3925424   0.93969636      1024000 
  440000   0.62588848   -5.3930364   -5.3930364   -4.4542056 -0.026831435   -5.3930364   0.93883082      1024000 
  441000   0.62524546   -5.3933548   -5.3933548   -4.4554885 -0.026869793   -5.3933548   0.93786629      1024000 
  442000   0.62518065   -5.3947166   -5.3947166   -4.4569476 -0.032599431   -5.3947166   0.93776907      1024000 
  443000   0.62515843   -5.3966669   -5.3966669   -4.4589312 -0.036332715   -5.3966669   0.93773574      1024000 
  444000   0.62410793   -5.3972636   -5.3972636   -4.4611036 -0.034539287   -5.3972636      0.93616      1024000 
  445000   0.62362174   -5.3982859   -5.3982859   -4.4628552 -0.033564241   -5.3982859   0.93543071      1024000 
  446000   0.62354981    -5.399192    -5.399192   -4.4638692 -0.033769925    -5.399192   0.93532282      1024000 
  447000   0.62334578   -5.4000203   -5.4000203   -4.4650035 -0.035848884   -5.4000203   0.93501678      1024000 
  448000   0.62359065   -5.4017827   -5.4017827   -4.4663986 -0.035743543   -5.4017827   0.93538408      1024000 
  449000   0.62341998   -5.4028889   -5.4028889   -4.4677608 -0.031687828   -5.4028889   0.93512808      1024000 
  450000   0.62379489   -5.4048446   -5.4048446   -4.4691542 -0.034315029   -5.4048446   0.93569043      1024000 
  451000   0.62357049   -5.4056595   -5.4056595   -4.4703057 -0.030278214   -5.4056595   0.93535384      1024000 
  452000   0.62454422   -5.4083526   -5.4083526   -4.4715382 -0.030423716   -5.4083526   0.93681442      1024000 
  453000   0.62391635   -5.4093565   -5.4093565   -4.4734838 -0.028476043   -5.4093565   0.93587263      1024000 
  454000   0.62371357   -5.4108309   -5.4108309   -4.4752625 -0.028042581   -5.4108309   0.93556846      1024000 
  455000   0.62304994   -5.4111443   -5.4111443   -4.4765713 -0.024695083   -5.4111443   0.93457301      1024000 
  456000   0.62402484   -5.4135469   -5.4135469   -4.4775116 -0.022447086   -5.4135469   0.93603536      1024000 
  457000   0.62261753   -5.4134679   -5.4134679   -4.4795435 -0.023566844   -5.4134679   0.93392439      1024000 
  458000   0.62280467   -5.4157449   -5.4157449   -4.4815398 -0.026361175   -5.4157449   0.93420511      1024000 
  459000   0.62272258   -5.4173844   -5.4173844   -4.4833025 -0.029493999   -5.4173844   0.93408197      1024000 
  460000    0.6227947    -5.418539    -5.418539   -4.4843488 -0.032972501    -5.418539   0.93419016      1024000 
  461000   0.62153144   -5.4180436   -5.4180436   -4.4857484 -0.029606312   -5.4180436   0.93229527      1024000 
  462000   0.62200377   -5.4191652   -5.4191652   -4.4861614 -0.030498627   -5.4191652   0.93300377      1024000 
  463000   0.62110002   -5.4195639   -5.4195639   -4.4879157  -0.03491883   -5.4195639   0.93164815      1024000 
  464000   0.62127296   -5.4212229   -5.4212229   -4.4893154  -0.03679021   -5.4212229   0.93190755      1024000 
  465000   0.62196022   -5.4236799   -5.4236799   -4.4907414 -0.039301942   -5.4236799   0.93293843      1024000 
  466000   0.62039093   -5.4233361   -5.4233361   -4.4927516 -0.039361249   -5.4233361   0.93058451      1024000 
  467000   0.61991412   -5.4242647   -5.4242647   -4.4943954 -0.038351692   -5.4242647   0.92986929      1024000 
  468000   0.61994724   -5.4258584   -5.4258584   -4.4959394  -0.03975227   -5.4258584   0.92991898      1024000 
  469000   0.62047457   -5.4290261   -5.4290261   -4.4983161 -0.039421337   -5.4290261   0.93070996      1024000 
  470000   0.61947964    -5.429402    -5.429402   -4.5001844 -0.036802321    -5.429402   0.92921758      1024000 
  471000   0.61877867   -5.4296647   -5.4296647   -4.5014986 -0.038101691   -5.4296647   0.92816612      1024000 
  472000   0.61892919   -5.4324629   -5.4324629    -4.504071 -0.036560809   -5.4324629   0.92839189      1024000 
  473000   0.61946935   -5.4343556   -5.4343556   -4.5051535 -0.034618281   -5.4343556   0.92920214      1024000 
  474000   0.61925753    -5.435465    -5.435465   -4.5065806 -0.034270116    -5.435465   0.92888441      1024000 
  475000   0.61912078   -5.4366716   -5.4366716   -4.5079923 -0.034034111   -5.4366716   0.92867929      1024000 
  476000   0.61962862   -5.4390238   -5.4390238   -4.5095828 -0.033118156   -5.4390238   0.92944105      1024000 
  477000   0.61857071   -5.4385891   -5.4385891    -4.510735 -0.029865466   -5.4385891   0.92785418      1024000 
  478000   0.61928348   -5.4405493   -5.4405493   -4.5116259 -0.031975589   -5.4405493   0.92892333      1024000 
  479000   0.61884776    -5.441516    -5.441516   -4.5132462  -0.02644105    -5.441516   0.92826976      1024000 
  480000   0.61847811   -5.4424832   -5.4424832    -4.514768 -0.032295754   -5.4424832   0.92771529      1024000 
  481000   0.61845031   -5.4437566   -5.4437566    -4.516083 -0.029469288   -5.4437566   0.92767359      1024000 
  482000   0.61842415   -5.4449234   -5.4449234   -4.5172891 -0.035797513   -5.4449234   0.92763435      1024000 
  483000   0.61709971    -5.444274    -5.444274   -4.5186263 -0.034427188    -5.444274   0.92564768      1024000 
  484000   0.61642383     -5.44462     -5.44462   -4.5199861 -0.033581147     -5.44462   0.92463387      1024000 
  485000   0.61728807   -5.4472123   -5.4472123   -4.5212821 -0.035148353   -5.4472123   0.92593023      1024000 
  486000   0.61687202   -5.4479855   -5.4479855   -4.5226794 -0.040175127   -5.4479855   0.92530615      1024000 
  487000   0.61641276   -5.4490216   -5.4490216   -4.5244044 -0.037356555   -5.4490216   0.92461726      1024000 
  488000   0.61613382   -5.4499204   -5.4499204   -4.5257215 -0.039657097   -5.4499204   0.92419885      1024000 
  489000   0.61566519   -5.4503882   -5.4503882   -4.5268923 -0.039013346   -5.4503882   0.92349591      1024000 
  490000   0.61560665   -5.4520012   -5.4520012   -4.5285931 -0.040322599   -5.4520012   0.92340809      1024000 
  491000   0.61474434    -5.452292    -5.452292   -4.5301774 -0.038856463    -5.452292   0.92211464      1024000 
  492000   0.61588107   -5.4551252   -5.4551252   -4.5313054 -0.037721992   -5.4551252   0.92381973      1024000 
  493000   0.61619614   -5.4565989   -5.4565989   -4.5323065 -0.039573406   -5.4565989   0.92429233      1024000 
  494000   0.61557013   -5.4571829   -5.4571829   -4.5338296 -0.037485675   -5.4571829   0.92335332      1024000 
  495000   0.61574007   -5.4591783   -5.4591783   -4.5355701 -0.034596939   -5.4591783   0.92360823      1024000 
  496000   0.61650554    -5.461814    -5.461814   -4.5370576 -0.033948076    -5.461814   0.92475643      1024000 
  497000   0.61686762   -5.4632073   -5.4632073   -4.5379077 -0.031965128   -5.4632073   0.92529955      1024000 
  498000   0.61734629   -5.4655854   -5.4655854   -4.5395678 -0.032663851   -5.4655854   0.92601755      1024000 
  499000   0.61655489   -5.4664409   -5.4664409   -4.5416105 -0.033866341   -5.4664409   0.92483046      1024000 
  500000   0.61569088   -5.4661421   -5.4661421   -4.5426077 -0.028066297   -5.4661421   0.92353445      1024000 
  501000   0.61514649   -5.4672066   -5.4672066   -4.5444888  -0.03155191   -5.4672066   0.92271786      1024000 
  502000   0.61540476   -5.4686458   -5.4686458   -4.5455405 -0.028468003   -5.4686458   0.92310526      1024000 
  503000   0.61521396   -5.4695987   -5.4695987   -4.5467796 -0.030358013   -5.4695987   0.92281907      1024000 
  504000   0.61465592   -5.4710135   -5.4710135   -4.5490315 -0.035778001   -5.4710135   0.92198201      1024000 
  505000   0.61420465    -5.471738    -5.471738   -4.5504328  -0.03575281    -5.471738   0.92130511      1024000 
  506000   0.61442771   -5.4735612   -5.4735612   -4.5519215 -0.041957772   -5.4735612    0.9216397      1024000 
  507000   0.61231835    -5.472301    -5.472301   -4.5538253 -0.034833249    -5.472301   0.91847566      1024000 
  508000   0.61314661   -5.4742713   -5.4742713   -4.5545532  -0.04352537   -5.4742713   0.91971805      1024000 
  509000   0.61210376   -5.4744849   -5.4744849   -4.5563311 -0.042319479   -5.4744849   0.91815378      1024000 
  510000   0.61231055   -5.4756099   -5.4756099    -4.557146 -0.040851534   -5.4756099   0.91846397      1024000 
  511000   0.61433005    -5.479573    -5.479573   -4.5580798 -0.045041612    -5.479573    0.9214932      1024000 
  512000   0.61281419   -5.4783344   -5.4783344   -4.5591149 -0.039363432   -5.4783344   0.91921943      1024000 
  513000   0.61329352   -5.4804191   -5.4804191   -4.5604807 -0.042184997   -5.4804191   0.91993841      1024000 
  514000   0.61233917   -5.4798502   -5.4798502   -4.5613434 -0.033084139   -5.4798502   0.91850689      1024000 
  515000    0.6135833   -5.4829191   -5.4829191    -4.562546 -0.038873348   -5.4829191   0.92037309      1024000 
  516000   0.61284852   -5.4837377   -5.4837377   -4.5644668 -0.035416654   -5.4837377   0.91927092      1024000 
  517000   0.61297405   -5.4853282   -5.4853282    -4.565869  -0.03526072   -5.4853282   0.91945921      1024000 
  518000   0.61284393   -5.4860987   -5.4860987   -4.5668347 -0.033495373   -5.4860987   0.91926403      1024000 
  519000   0.61298583   -5.4882061   -5.4882061   -4.5687292 -0.035914942   -5.4882061   0.91947689      1024000 
  520000   0.61232761   -5.4883562   -5.4883562   -4.5698667 -0.034172845   -5.4883562   0.91848955      1024000 
  521000    0.6126741   -5.4902028   -5.4902028   -4.5711935 -0.031155821   -5.4902028   0.91900929      1024000 
  522000   0.61196364   -5.4902215   -5.4902215   -4.5722779 -0.033711914   -5.4902215   0.91794359      1024000 
  523000    0.6119136   -5.4913803   -5.4913803   -4.5735118  -0.03200041   -5.4913803   0.91786854      1024000 
  524000   0.61169112    -5.492062    -5.492062   -4.5745272 -0.032560716    -5.492062   0.91753482      1024000 
  525000   0.61210762   -5.4932855   -5.4932855   -4.5751259 -0.034262951   -5.4932855   0.91815956      1024000 
  526000   0.61012546   -5.4922194   -5.4922194   -4.5770331 -0.034868085   -5.4922194   0.91518633      1024000 
  527000   0.61053585   -5.4942192   -5.4942192   -4.5784173 -0.040969738   -5.4942192   0.91580192      1024000 
  528000   0.61033566   -5.4948644   -5.4948644   -4.5793628 -0.042557616   -5.4948644   0.91550163      1024000 
  529000    0.6103361   -5.4965197   -5.4965197   -4.5810174 -0.043380518   -5.4965197   0.91550228      1024000 
  530000   0.60970969   -5.4960709   -5.4960709   -4.5815082 -0.041758358   -5.4960709   0.91456268      1024000 
  531000   0.60949116   -5.4977914   -5.4977914   -4.5835566 -0.047756754   -5.4977914   0.91423488      1024000 
  532000   0.60990514   -5.4994829   -5.4994829   -4.5846271 -0.045003337   -5.4994829   0.91485585      1024000 
  533000   0.60998168    -5.500812    -5.500812   -4.5858413 -0.042638542    -5.500812   0.91497066      1024000 
  534000   0.60948199   -5.5015984   -5.5015984   -4.5873773 -0.041877231   -5.5015984   0.91422112      1024000 
  535000   0.60946147   -5.5036422   -5.5036422   -4.5894518 -0.040994351   -5.5036422   0.91419035      1024000 
  536000   0.60959893   -5.5049118   -5.5049118   -4.5905152 -0.040367606   -5.5049118   0.91439654      1024000 
  537000   0.61014994   -5.5066918   -5.5066918   -4.5914687  -0.03767337   -5.5066918   0.91522305      1024000 
  538000   0.60998499   -5.5074811   -5.5074811   -4.5925055 -0.034494709   -5.5074811   0.91497563      1024000 
  539000    0.6098037   -5.5086768   -5.5086768   -4.5939731 -0.029138477   -5.5086768    0.9147037      1024000 
  540000   0.60934942   -5.5091909   -5.5091909   -4.5951686 -0.029564804   -5.5091909   0.91402227      1024000 
  541000   0.60947665   -5.5111827   -5.5111827   -4.5969695 -0.029745248   -5.5111827   0.91421312      1024000 
  542000   0.60998662   -5.5129224   -5.5129224   -4.5979444 -0.029982553   -5.5129224   0.91497807      1024000 
  543000   0.60905629   -5.5129194   -5.5129194   -4.5993368 -0.029589552   -5.5129194   0.91358258      1024000 
  544000    0.6088668   -5.5139477   -5.5139477   -4.6006494 -0.035530141   -5.5139477   0.91329834      1024000 
  545000   0.60897752   -5.5157074   -5.5157074   -4.6022429 -0.035566879   -5.5157074   0.91346443      1024000 
  546000   0.60825741   -5.5162369   -5.5162369   -4.6038526 -0.039797238   -5.5162369   0.91238426      1024000 
  547000   0.60804676   -5.5166249   -5.5166249   -4.6045566   -0.0387006   -5.5166249   0.91206829      1024000 
  548000   0.60638226   -5.5158927   -5.5158927   -4.6063211 -0.040845932   -5.5158927   0.90957155      1024000 
  549000   0.60696062   -5.5179194   -5.5179194   -4.6074803 -0.042199821   -5.5179194   0.91043908      1024000 
  550000   0.60642579   -5.5186362   -5.5186362   -4.6089993 -0.044267164   -5.5186362   0.90963684      1024000 
  551000   0.60624753   -5.5190953   -5.5190953   -4.6097259 -0.041666023   -5.5190953   0.90936945      1024000 
  552000   0.60608122   -5.5203059   -5.5203059   -4.6111859 -0.048773415   -5.5203059   0.90911999      1024000 
  553000   0.60716384   -5.5227603   -5.5227603   -4.6120164 -0.047956895   -5.5227603   0.91074391      1024000 
  554000   0.60671891   -5.5233854   -5.5233854   -4.6133089 -0.045045812   -5.5233854   0.91007651      1024000 
  555000    0.6072067   -5.5255194   -5.5255194   -4.6147112 -0.047936021   -5.5255194    0.9108082      1024000 
  556000   0.60584189    -5.524962    -5.524962    -4.616201 -0.040459227    -5.524962     0.908761      1024000 
  557000   0.60662943    -5.527266    -5.527266   -4.6173237 -0.039149802    -5.527266   0.90994231      1024000 
  558000   0.60637245   -5.5285709   -5.5285709    -4.619014 -0.036653171   -5.5285709   0.90955683      1024000 
  559000   0.60664129   -5.5299734   -5.5299734   -4.6200133 -0.035968782   -5.5299734   0.90996009      1024000 
  560000    0.6062702   -5.5318821   -5.5318821   -4.6224787 -0.034629019   -5.5318821   0.90940346      1024000 
  561000    0.6066209   -5.5338885   -5.5338885    -4.623959  -0.03746732   -5.5338885   0.90992951      1024000 
  562000   0.60531748   -5.5338981   -5.5338981   -4.6259237 -0.035763803   -5.5338981   0.90797437      1024000 
  563000   0.60548555   -5.5348353   -5.5348353   -4.6266088 -0.034923831   -5.5348353   0.90822648      1024000 
  564000   0.60577719   -5.5364201   -5.5364201   -4.6277562 -0.036014427   -5.5364201   0.90866394      1024000 
  565000   0.60491005   -5.5357693   -5.5357693   -4.6284061  -0.03208992   -5.5357693   0.90736324      1024000 
  566000   0.60438559    -5.535878    -5.535878   -4.6293014 -0.034982393    -5.535878   0.90657655      1024000 
  567000   0.60483455   -5.5375897   -5.5375897   -4.6303397 -0.040577281   -5.5375897   0.90724999      1024000 
  568000   0.60391237   -5.5378916   -5.5378916   -4.6320249 -0.042343993   -5.5378916   0.90586672      1024000 
  569000   0.60430285   -5.5390078   -5.5390078   -4.6325554   -0.0425224   -5.5390078   0.90645243      1024000 
  570000    0.6038702   -5.5405308   -5.5405308   -4.6347273 -0.048033934   -5.5405308   0.90580346      1024000 
  571000    0.6034031   -5.5405509   -5.5405509   -4.6354481 -0.047267004   -5.5405509   0.90510282      1024000 
  572000   0.60376824    -5.542565    -5.542565   -4.6369145 -0.051659515    -5.542565   0.90565053      1024000 
  573000   0.60308809   -5.5427947   -5.5427947   -4.6381644 -0.051657794   -5.5427947    0.9046303      1024000 
  574000   0.60276666   -5.5434169   -5.5434169   -4.6392687 -0.048540975   -5.5434169   0.90414815      1024000 
  575000   0.60244585   -5.5439233   -5.5439233   -4.6402564 -0.044584839   -5.5439233   0.90366694      1024000 
  576000   0.60343931   -5.5468775   -5.5468775   -4.6417204 -0.045250178   -5.5468775   0.90515713      1024000 
  577000   0.60356005   -5.5483918   -5.5483918   -4.6430536 -0.045450177   -5.5483918   0.90533824      1024000 
  578000   0.60282341   -5.5486609   -5.5486609   -4.6444276  -0.03881246   -5.5486609   0.90423327      1024000 
  579000   0.60356748    -5.550856    -5.550856   -4.6455067 -0.041207623    -5.550856   0.90534938      1024000 
  580000   0.60344397   -5.5520035   -5.5520035   -4.6468394 -0.042310954   -5.5520035   0.90516412      1024000 
  581000   0.60410513   -5.5539041   -5.5539041   -4.6477482 -0.040511956   -5.5539041   0.90615586      1024000 
  582000   0.60303287   -5.5526908   -5.5526908   -4.6481433 -0.033364561   -5.5526908   0.90454746      1024000 
  583000   0.60263312   -5.5544039   -5.5544039    -4.650456 -0.035506085   -5.5544039   0.90394785      1024000 
  584000   0.60225817   -5.5557456   -5.5557456   -4.6523601 -0.042059499   -5.5557456   0.90338542      1024000 
  585000    0.6023647   -5.5568031   -5.5568031   -4.6532579 -0.040680497   -5.5568031   0.90354522      1024000 
  586000   0.60156324   -5.5568565   -5.5568565   -4.6545135 -0.040977216   -5.5568565   0.90234303      1024000 
  587000    0.6011271   -5.5572413   -5.5572413   -4.6555525 -0.043737765   -5.5572413   0.90168882      1024000 
  588000   0.60097648   -5.5585136   -5.5585136   -4.6570507 -0.045820243   -5.5585136    0.9014629      1024000 
  589000   0.60145527   -5.5607695   -5.5607695   -4.6585884 -0.053380183   -5.5607695   0.90218107      1024000 
  590000   0.60084723   -5.5606452   -5.5606452   -4.6593762 -0.048712085   -5.5606452   0.90126901      1024000 
  591000   0.60099053   -5.5623236   -5.5623236   -4.6608396 -0.048149061   -5.5623236   0.90148396      1024000 
  592000   0.60007852   -5.5620713   -5.5620713   -4.6619553 -0.045605634   -5.5620713   0.90011596      1024000 
  593000   0.60067728   -5.5639667   -5.5639667   -4.6629526 -0.050214325   -5.5639667   0.90101409      1024000 
  594000   0.59932479   -5.5633409   -5.5633409   -4.6643556 -0.044990734   -5.5633409   0.89898536      1024000 
  595000   0.60057323   -5.5667553   -5.5667553   -4.6658973   -0.0494457   -5.5667553   0.90085802      1024000 
  596000   0.59985565   -5.5665102   -5.5665102   -4.6667286 -0.039710806   -5.5665102   0.89978165      1024000 
  597000   0.60038425   -5.5686407   -5.5686407   -4.6680661 -0.041844397   -5.5686407   0.90057455      1024000 
  598000   0.60153181   -5.5710593   -5.5710593   -4.6687635 -0.043696875   -5.5710593   0.90229588      1024000 
  599000   0.60058119   -5.5716809   -5.5716809    -4.670811 -0.043369184   -5.5716809   0.90086995      1024000 
  600000   0.60016717   -5.5721406   -5.5721406   -4.6718917   -0.0415711   -5.5721406   0.90024892      1024000 
  601000   0.60110401   -5.5739758   -5.5739758   -4.6723216  -0.04433503   -5.5739758   0.90165418      1024000 
  602000   0.60026112   -5.5741766   -5.5741766   -4.6737868 -0.040779184   -5.5741766   0.90038985      1024000 
  603000   0.59935867   -5.5742004   -5.5742004   -4.6751642 -0.040770253   -5.5742004   0.89903618      1024000 
  604000   0.59924869   -5.5746662   -5.5746662    -4.675795 -0.041285542   -5.5746662   0.89887121      1024000 
  605000   0.59871911   -5.5754575   -5.5754575   -4.6773806 -0.046392732   -5.5754575   0.89807685      1024000 
  606000   0.59848146   -5.5763259   -5.5763259   -4.6786055 -0.049600329   -5.5763259   0.89772036      1024000 
  607000   0.59843774   -5.5777425   -5.5777425   -4.6800877 -0.050174612   -5.5777425    0.8976548      1024000 
  608000   0.59927373   -5.5796292   -5.5796292   -4.6807205 -0.047386527   -5.5796292   0.89890877      1024000 
  609000   0.59843259   -5.5791783   -5.5791783   -4.6815313 -0.048571721   -5.5791783   0.89764706      1024000 
  610000   0.59895963   -5.5808282   -5.5808282   -4.6823905 -0.048659469   -5.5808282   0.89843763      1024000 
  611000   0.59826076    -5.581044    -5.581044   -4.6836547 -0.048149172    -5.581044   0.89738932      1024000 
  612000   0.59890243   -5.5825393   -5.5825393   -4.6841875 -0.042377487   -5.5825393   0.89835183      1024000 
  613000   0.59863362    -5.583388    -5.583388   -4.6854394 -0.043155909    -5.583388   0.89794861      1024000 
  614000   0.59923589   -5.5856428   -5.5856428   -4.6867908  -0.04398835   -5.5856428   0.89885201      1024000 
  615000   0.59855849   -5.5854939   -5.5854939    -4.687658 -0.044299155   -5.5854939   0.89783591      1024000 
  616000   0.59729714   -5.5856437   -5.5856437   -4.6896998 -0.041925854   -5.5856437   0.89594389      1024000 
  617000   0.59770606   -5.5876912   -5.5876912   -4.6911339 -0.041231059   -5.5876912   0.89655727      1024000 
  618000   0.59759179   -5.5889313   -5.5889313   -4.6925454 -0.041789692   -5.5889313   0.89638587      1024000 
  619000   0.59749243    -5.590396    -5.590396   -4.6941591 -0.048062955    -5.590396   0.89623683      1024000 
  620000   0.59757627   -5.5925751   -5.5925751   -4.6962125  -0.04638384   -5.5925751   0.89636258      1024000 
  621000   0.59773361   -5.5939707   -5.5939707   -4.6973721 -0.050306352   -5.5939707    0.8965986      1024000 
  622000   0.59637243   -5.5930064   -5.5930064   -4.6984495 -0.047092754   -5.5930064   0.89455683      1024000 
  623000   0.59721875   -5.5947423   -5.5947423    -4.698916 -0.044771446   -5.5947423   0.89582631      1024000 
  624000    0.5969173   -5.5959525   -5.5959525   -4.7005784 -0.048104633   -5.5959525   0.89537414      1024000 
  625000   0.59626497   -5.5959898   -5.5959898   -4.7015942 -0.043973806   -5.5959898   0.89439564      1024000 
  626000   0.59641866   -5.5965533   -5.5965533   -4.7019271 -0.041409583   -5.5965533   0.89462617      1024000 
  627000   0.59718346   -5.5991666   -5.5991666   -4.7033933 -0.043044161   -5.5991666   0.89577337      1024000 
  628000   0.59621203   -5.5990025   -5.5990025   -4.7046863 -0.046275602   -5.5990025   0.89431622      1024000 
  629000   0.59588217   -5.5996877   -5.5996877   -4.7058663 -0.046169568   -5.5996877   0.89382143      1024000 
  630000   0.59579249   -5.6004829   -5.6004829    -4.706796 -0.046696815   -5.6004829   0.89368692      1024000 
  631000   0.59630792   -5.6019142   -5.6019142   -4.7074542 -0.046523267   -5.6019142   0.89446006      1024000 
  632000   0.59603877   -5.6031149   -5.6031149   -4.7090586 -0.046286087   -5.6031149   0.89405633      1024000 
  633000   0.59502652   -5.6026197   -5.6026197   -4.7100817 -0.047474576   -5.6026197   0.89253796      1024000 
  634000    0.5946876   -5.6035438   -5.6035438   -4.7115142 -0.044983039   -5.6035438   0.89202959      1024000 
  635000   0.59495018    -5.605087    -5.605087   -4.7126635 -0.046865692    -5.605087   0.89242346      1024000 
  636000   0.59528434   -5.6058659   -5.6058659   -4.7129412 -0.047150695   -5.6058659   0.89292469      1024000 
  637000   0.59495446   -5.6070867   -5.6070867   -4.7146569 -0.048140679   -5.6070867   0.89242988      1024000 
  638000   0.59539831   -5.6087004   -5.6087004   -4.7156047 -0.047474459   -5.6087004   0.89309566      1024000 
  639000   0.59454842   -5.6091486   -5.6091486   -4.7173278 -0.045816955   -5.6091486   0.89182083      1024000 
  640000   0.59458929   -5.6102851   -5.6102851    -4.718403 -0.044543211   -5.6102851   0.89188213      1024000 
  641000   0.59456337   -5.6115936   -5.6115936   -4.7197504 -0.044299847   -5.6115936   0.89184324      1024000 
  642000   0.59366267   -5.6111194   -5.6111194   -4.7206273  -0.04536417   -5.6111194   0.89049219      1024000 
  643000   0.59471944   -5.6138424   -5.6138424    -4.721765 -0.045397978   -5.6138424   0.89207735      1024000 
  644000   0.59348592   -5.6130821   -5.6130821    -4.722855 -0.040716426   -5.6130821   0.89022707      1024000 
  645000   0.59424089    -5.615285    -5.615285   -4.7239254 -0.047682874    -5.615285   0.89135953      1024000 
  646000   0.59401892    -5.616751    -5.616751   -4.7257244  -0.04852254    -5.616751   0.89102657      1024000 
  647000   0.59338027   -5.6167696   -5.6167696    -4.726701 -0.045807301   -5.6167696    0.8900686      1024000 
  648000   0.59382452   -5.6181419   -5.6181419   -4.7274069 -0.049914458   -5.6181419   0.89073498      1024000 
  649000   0.59245761   -5.6169126   -5.6169126    -4.728228 -0.046834217   -5.6169126   0.88868461      1024000 
  650000   0.59305822   -5.6189497   -5.6189497   -4.7293642 -0.047672246   -5.6189497   0.88958552      1024000 
  651000   0.59349411   -5.6202975   -5.6202975   -4.7300581 -0.042773493   -5.6202975   0.89023936      1024000 
  652000   0.59330898   -5.6211934   -5.6211934   -4.7312318 -0.043442101   -5.6211934   0.88996166      1024000 
  653000   0.59313399   -5.6227653   -5.6227653   -4.7330661 -0.047512517   -5.6227653   0.88969918      1024000 
  654000   0.59324267   -5.6240369   -5.6240369   -4.7341747 -0.048850667   -5.6240369    0.8898622      1024000 
  655000   0.59274997   -5.6236148   -5.6236148   -4.7344917 -0.044103584   -5.6236148   0.88912315      1024000 
  656000   0.59302475   -5.6255349   -5.6255349   -4.7359996 -0.046890072   -5.6255349   0.88953532      1024000 
  657000   0.59259027   -5.6251134   -5.6251134   -4.7362298 -0.043463496   -5.6251134    0.8888836      1024000 
  658000   0.59166741   -5.6252009   -5.6252009   -4.7377016  -0.04629678   -5.6252009   0.88749931      1024000 
  659000   0.59202908   -5.6273193   -5.6273193   -4.7392775  -0.05146597   -5.6273193   0.88804182      1024000 
  660000   0.59145174   -5.6277637   -5.6277637   -4.7405879 -0.046597942   -5.6277637    0.8871758      1024000 
  661000   0.59166103    -5.629214    -5.629214   -4.7417243 -0.049662502    -5.629214   0.88748975      1024000 
  662000   0.59099029   -5.6288671   -5.6288671   -4.7423834 -0.046033454   -5.6288671   0.88648363      1024000 
  663000   0.59157476   -5.6310707   -5.6310707   -4.7437104 -0.048225636   -5.6310707   0.88736034      1024000 
  664000   0.59274877   -5.6336876   -5.6336876   -4.7445663 -0.049789161   -5.6336876   0.88912136      1024000 
  665000   0.59142886   -5.6334361   -5.6334361   -4.7462946 -0.049235946   -5.6334361   0.88714148      1024000 
  666000   0.59077019   -5.6339841   -5.6339841   -4.7478306 -0.047803766   -5.6339841   0.88615349      1024000 
  667000   0.59026969   -5.6344863   -5.6344863   -4.7490836 -0.048564165   -5.6344863   0.88540274      1024000 
  668000   0.58977072   -5.6343901   -5.6343901   -4.7497358 -0.048061562   -5.6343901   0.88465428      1024000 
  669000   0.59171917   -5.6382465   -5.6382465   -4.7506695  -0.04740524   -5.6382465   0.88757696      1024000 
  670000   0.59083715   -5.6380139   -5.6380139     -4.75176  -0.04809887   -5.6380139   0.88625392      1024000 
  671000   0.59069864   -5.6385243   -5.6385243   -4.7524781 -0.048511307   -5.6385243   0.88604617      1024000 
  672000     0.590669   -5.6392551   -5.6392551   -4.7532534 -0.045698768   -5.6392551   0.88600171      1024000 
  673000   0.59019867   -5.6399608   -5.6399608   -4.7546646 -0.048010156   -5.6399608   0.88529621      1024000 
  674000   0.58978694   -5.6410956   -5.6410956    -4.756417 -0.049278715   -5.6410956   0.88467862      1024000 
  675000   0.58962915   -5.6421063   -5.6421063   -4.7576644 -0.050841861   -5.6421063   0.88444193      1024000 
  676000   0.59044407   -5.6441991   -5.6441991   -4.7585348 -0.051897156   -5.6441991   0.88566431      1024000 
  677000   0.58905971   -5.6432587   -5.6432587   -4.7596709 -0.049883101   -5.6432587   0.88358778      1024000 
  678000   0.58901882   -5.6438572   -5.6438572   -4.7603308 -0.047813823   -5.6438572   0.88352644      1024000 
  679000     0.589243   -5.6455568   -5.6455568   -4.7616941 -0.052265384   -5.6455568   0.88386271      1024000 
  680000   0.58919413   -5.6467292   -5.6467292   -4.7629398 -0.054290964   -5.6467292   0.88378941      1024000 
  681000   0.58956799   -5.6485516   -5.6485516   -4.7642014 -0.053289049   -5.6485516   0.88435019      1024000 
  682000   0.58962911   -5.6496795   -5.6496795   -4.7652377 -0.050951567   -5.6496795   0.88444187      1024000 
  683000   0.58817933   -5.6482841   -5.6482841   -4.7660169 -0.048357093   -5.6482841    0.8822672      1024000 
  684000   0.58860139   -5.6500205   -5.6500205   -4.7671202 -0.049265145   -5.6500205    0.8829003      1024000 
  685000    0.5885838   -5.6505548   -5.6505548   -4.7676809 -0.045729636   -5.6505548   0.88287391      1024000 
  686000   0.59010023   -5.6532413   -5.6532413   -4.7680928 -0.046687331   -5.6532413   0.88514854      1024000 
  687000   0.58996414   -5.6538479   -5.6538479   -4.7689035 -0.047848216   -5.6538479   0.88494442      1024000 
  688000   0.58967545   -5.6538663   -5.6538663   -4.7693549 -0.042181905   -5.6538663   0.88451138      1024000 
  689000   0.58968986   -5.6549202   -5.6549202   -4.7703872 -0.042911932   -5.6549202     0.884533      1024000 
  690000   0.58885879   -5.6554339   -5.6554339   -4.7721475 -0.044302338   -5.6554339    0.8832864      1024000 
  691000   0.58863543   -5.6561959   -5.6561959   -4.7732446 -0.044937163   -5.6561959   0.88295135      1024000 
  692000   0.58849811   -5.6569915   -5.6569915   -4.7742461 -0.043153486   -5.6569915   0.88274537      1024000 
  693000   0.58878415   -5.6581383   -5.6581383   -4.7749638 -0.046456946   -5.6581383   0.88317444      1024000 
  694000    0.5892228   -5.6598004   -5.6598004    -4.775968 -0.049052739   -5.6598004   0.88383241      1024000 
  695000   0.58737346   -5.6582061   -5.6582061   -4.7771477 -0.050334441   -5.6582061    0.8810584      1024000 
  696000   0.58726586   -5.6594089   -5.6594089   -4.7785119 -0.051334045   -5.6594089     0.880897      1024000 
  697000   0.58704626   -5.6601618   -5.6601618   -4.7795942 -0.056475973   -5.6601618    0.8805676      1024000 
  698000   0.58693357   -5.6607983   -5.6607983   -4.7803998 -0.053856848   -5.6607983   0.88039856      1024000 
  699000   0.58711421   -5.6621282   -5.6621282   -4.7814587 -0.053321836   -5.6621282   0.88066953      1024000 
  700000   0.58725483   -5.6628322   -5.6628322   -4.7819518 -0.054633094   -5.6628322   0.88088046      1024000 
  701000   0.58774022   -5.6648299   -5.6648299   -4.7832213 -0.053784996   -5.6648299   0.88160854      1024000 
  702000   0.58682564   -5.6643129   -5.6643129   -4.7840762 -0.049699491   -5.6643129   0.88023668      1024000 
  703000   0.58749702   -5.6667397   -5.6667397    -4.785496 -0.049662825   -5.6667397   0.88124374      1024000 
  704000   0.58744821   -5.6684908   -5.6684908   -4.7873203  -0.04941046   -5.6684908   0.88117052      1024000 
  705000    0.5872749   -5.6688957   -5.6688957   -4.7879851 -0.044760571   -5.6688957   0.88091056      1024000 
  706000   0.58781746    -5.671026    -5.671026   -4.7893016 -0.047998414    -5.671026    0.8817244      1024000 
  707000   0.58769255   -5.6725011   -5.6725011   -4.7909641  -0.04661914   -5.6725011   0.88153704      1024000 
  708000   0.58679868   -5.6722411   -5.6722411   -4.7920449 -0.044691842   -5.6722411   0.88019624      1024000 
  709000   0.58680129   -5.6724779   -5.6724779   -4.7922778 -0.042307909   -5.6724779   0.88020015      1024000 
  710000   0.58659898   -5.6739768   -5.6739768   -4.7940802 -0.044324032   -5.6739768   0.87989668      1024000 
  711000   0.58656855   -5.6740498   -5.6740498   -4.7941988 -0.047931464   -5.6740498   0.87985104      1024000 
  712000   0.58632968   -5.6746371   -5.6746371   -4.7951444 -0.048773597   -5.6746371   0.87949274      1024000 
  713000   0.58582209   -5.6751538   -5.6751538   -4.7964225 -0.049498753   -5.6751538   0.87873134      1024000 
  714000   0.58504635    -5.675913    -5.675913   -4.7983452  -0.05472349    -5.675913   0.87756775      1024000 
  715000   0.58544929   -5.6773162   -5.6773162   -4.7991441 -0.055061209   -5.6773162   0.87817215      1024000 
  716000   0.58525518   -5.6780061   -5.6780061   -4.8001251 -0.053980448   -5.6780061   0.87788099      1024000 
  717000   0.58544633   -5.6789921   -5.6789921   -4.8008244 -0.057247316   -5.6789921   0.87816771      1024000 
  718000    0.5851006   -5.6792819   -5.6792819   -4.8016328 -0.053626822   -5.6792819   0.87764912      1024000 
  719000   0.58491356    -5.679929    -5.679929   -4.8025604 -0.050804072    -5.679929   0.87736856      1024000 
  720000   0.58607582   -5.6829851   -5.6829851   -4.8038732 -0.052845545   -5.6829851   0.87911195      1024000 
  721000   0.58510073   -5.6825258   -5.6825258   -4.8048765 -0.046884974   -5.6825258   0.87764931      1024000 
  722000   0.58506731   -5.6833089   -5.6833089   -4.8057097 -0.043759621   -5.6833089   0.87759919      1024000 
  723000   0.58545635   -5.6850243   -5.6850243   -4.8068416 -0.048246329   -5.6850243   0.87818275      1024000 
  724000   0.58513014   -5.6859951   -5.6859951   -4.8083017 -0.043700231   -5.6859951   0.87769343      1024000 
  725000    0.5855312   -5.6877006   -5.6877006   -4.8094056 -0.046344077   -5.6877006   0.87829502      1024000 
  726000   0.58422685   -5.6866101   -5.6866101   -4.8102716 -0.045518264   -5.6866101   0.87633849      1024000 
  727000   0.58431416   -5.6879687   -5.6879687   -4.8114992 -0.047160406   -5.6879687   0.87646946      1024000 
  728000   0.58479992   -5.6898918   -5.6898918   -4.8126937  -0.05153832   -5.6898918    0.8771981      1024000 
  729000    0.5844837   -5.6898387   -5.6898387   -4.8131149 -0.048600805   -5.6898387   0.87672377      1024000 
  730000   0.58380847   -5.6905625   -5.6905625   -4.8148515 -0.051921728   -5.6905625   0.87571092      1024000 
  731000   0.58466691   -5.6924773   -5.6924773   -4.8154788 -0.055525523   -5.6924773   0.87699859      1024000 
  732000   0.58412645   -5.6930765   -5.6930765   -4.8168886 -0.057481263   -5.6930765    0.8761879      1024000 
  733000   0.58344787   -5.6925749   -5.6925749   -4.8174049 -0.052091049   -5.6925749   0.87517003      1024000 
  734000    0.5840298   -5.6944497   -5.6944497   -4.8184067 -0.054753095   -5.6944497   0.87604292      1024000 
  735000   0.58388821   -5.6952586   -5.6952586   -4.8194281 -0.053965431   -5.6952586   0.87583054      1024000 
  736000   0.58276915   -5.6943132   -5.6943132   -4.8201613 -0.047867406   -5.6943132   0.87415196      1024000 
  737000   0.58393933   -5.6972047   -5.6972047   -4.8212975 -0.049673768   -5.6972047   0.87590722      1024000 
  738000   0.58403179   -5.6983348   -5.6983348   -4.8222889 -0.051260608   -5.6983348   0.87604591      1024000 
  739000   0.58388776   -5.6994723   -5.6994723   -4.8236424 -0.049796232   -5.6994723   0.87582986      1024000 
  740000   0.58408345   -5.7008181   -5.7008181   -4.8246947 -0.048969829   -5.7008181   0.87612339      1024000 
  741000   0.58389153   -5.7012284   -5.7012284   -4.8253929 -0.047231014   -5.7012284   0.87583551      1024000 
  742000   0.58397472   -5.7021612   -5.7021612   -4.8262009 -0.048853629   -5.7021612   0.87596031      1024000 
  743000   0.58301033   -5.7018117   -5.7018117    -4.827298 -0.046658427   -5.7018117   0.87451372      1024000 
  744000   0.58329742   -5.7046491   -5.7046491   -4.8297047 -0.054358173   -5.7046491   0.87494435      1024000 
  745000   0.58341664   -5.7050494   -5.7050494   -4.8299263 -0.050402838   -5.7050494   0.87512318      1024000 
  746000   0.58283532   -5.7052021   -5.7052021   -4.8309509 -0.050424089   -5.7052021    0.8742512      1024000 
  747000   0.58289613   -5.7060365   -5.7060365   -4.8316941 -0.054133553   -5.7060365   0.87434242      1024000 
  748000   0.58183622   -5.7053152   -5.7053152   -4.8325627 -0.051362779   -5.7053152   0.87275256      1024000 
  749000   0.58243539    -5.706949    -5.706949   -4.8332977 -0.055099832    -5.706949    0.8736513      1024000 
  750000   0.58127216   -5.7060712   -5.7060712   -4.8341647 -0.051832902   -5.7060712   0.87190648      1024000 
  751000   0.58170159   -5.7080017   -5.7080017   -4.8354511 -0.055353907   -5.7080017   0.87255061      1024000 
  752000   0.58145103   -5.7084893   -5.7084893   -4.8363145 -0.053578047   -5.7084893   0.87217477      1024000 
  753000    0.5814082   -5.7094235   -5.7094235    -4.837313 -0.054223556   -5.7094235   0.87211053      1024000 
  754000   0.58161924   -5.7103669   -5.7103669   -4.8379399 -0.052479739   -5.7103669   0.87242709      1024000 
  755000   0.58109279   -5.7107114   -5.7107114    -4.839074 -0.050284931   -5.7107114   0.87163741      1024000 
  756000   0.58010834   -5.7103445   -5.7103445   -4.8401838 -0.050253689   -5.7103445   0.87016075      1024000 
  757000   0.58135683   -5.7126565   -5.7126565    -4.840623 -0.048406069   -5.7126565   0.87203348      1024000 
  758000   0.58249429   -5.7157376   -5.7157376   -4.8419979 -0.053120945   -5.7157376   0.87373966      1024000 
  759000   0.58106041   -5.7152588   -5.7152588   -4.8436699 -0.046701243   -5.7152588   0.87158884      1024000 
  760000   0.58076287   -5.7153019   -5.7153019   -4.8441594  -0.04695207   -5.7153019   0.87114253      1024000 
  761000   0.58130279   -5.7175184   -5.7175184    -4.845566 -0.054834406   -5.7175184   0.87195241      1024000 
  762000   0.58026698   -5.7165372   -5.7165372   -4.8461385 -0.053287854   -5.7165372    0.8703987      1024000 
  763000    0.5801046   -5.7174778   -5.7174778   -4.8473227 -0.054572571   -5.7174778   0.87015513      1024000 
  764000   0.58003798     -5.71822     -5.71822   -4.8481648 -0.056139624     -5.71822    0.8700552      1024000 
  765000   0.57969072   -5.7183833   -5.7183833    -4.848849 -0.052983621   -5.7183833   0.86953431      1024000 
  766000   0.58058823   -5.7208493   -5.7208493   -4.8499687  -0.05877544   -5.7208493   0.87088058      1024000 
  767000   0.57982523   -5.7206451   -5.7206451    -4.850909 -0.056188651   -5.7206451   0.86973608      1024000 
  768000   0.57930545   -5.7202572   -5.7202572   -4.8513008 -0.050944363   -5.7202572   0.86895642      1024000 
  769000   0.57980684   -5.7229623   -5.7229623   -4.8532538 -0.057403375   -5.7229623   0.86970849      1024000 
  770000   0.57931852   -5.7230265   -5.7230265   -4.8540505 -0.054884488   -5.7230265   0.86897601      1024000 
  771000   0.57891328   -5.7231757   -5.7231757   -4.8548075 -0.053551912   -5.7231757   0.86836815      1024000 
  772000   0.57961789   -5.7251135   -5.7251135   -4.8556884 -0.053779159   -5.7251135   0.86942506      1024000 
  773000    0.5804408   -5.7273236   -5.7273236   -4.8566641 -0.054824179   -5.7273236   0.87065943      1024000 
  774000   0.58075288   -5.7287463   -5.7287463   -4.8576187 -0.053788858   -5.7287463   0.87112756      1024000 
  775000   0.58079575   -5.7292245   -5.7292245   -4.8580327 -0.050675695   -5.7292245   0.87119185      1024000 
  776000   0.58117562   -5.7307012   -5.7307012   -4.8589395 -0.052117433   -5.7307012   0.87176165      1024000 
  777000   0.57981046   -5.7295866   -5.7295866   -4.8598726 -0.045977408   -5.7295866   0.86971393      1024000 
  778000   0.57889776    -5.729416    -5.729416   -4.8610711 -0.048691073    -5.729416   0.86834487      1024000 
  779000   0.57917562    -5.730665    -5.730665   -4.8619033 -0.049814423    -5.730665   0.86876167      1024000 
  780000   0.57916529   -5.7317129   -5.7317129   -4.8629667 -0.048356588   -5.7317129   0.86874617      1024000 
  781000   0.57927077   -5.7327699   -5.7327699   -4.8638655 -0.053071421   -5.7327699   0.86890439      1024000 
  782000   0.57809858   -5.7323408   -5.7323408   -4.8651947 -0.053661933   -5.7323408   0.86714611      1024000 
  783000    0.5790436   -5.7343131   -5.7343131   -4.8657494 -0.054669372   -5.7343131   0.86856363      1024000 
  784000   0.57879507   -5.7344133   -5.7344133   -4.8662224 -0.055864158   -5.7344133   0.86819085      1024000 
  785000    0.5777487   -5.7339075   -5.7339075   -4.8672862 -0.056333377   -5.7339075   0.86662129      1024000 
  786000    0.5780501   -5.7362477   -5.7362477   -4.8691743  -0.06262485   -5.7362477   0.86707338      1024000 
  787000   0.57768986   -5.7370094   -5.7370094   -4.8704764 -0.061299561   -5.7370094   0.86653303      1024000 
  788000   0.57804248   -5.7387674   -5.7387674   -4.8717054 -0.059599764   -5.7387674   0.86706196      1024000 
  789000   0.57808557   -5.7400226   -5.7400226    -4.872896 -0.055338665   -5.7400226    0.8671266      1024000 
  790000   0.57864926   -5.7412025   -5.7412025   -4.8732304 -0.051892772   -5.7412025   0.86797212      1024000 
  791000    0.5781298   -5.7413705   -5.7413705   -4.8741776 -0.050723761   -5.7413705   0.86719294      1024000 
  792000   0.57783558   -5.7428482   -5.7428482   -4.8760965  -0.05100426   -5.7428482   0.86675162      1024000 
  793000   0.57816277    -5.744685    -5.744685   -4.8774426 -0.049503034    -5.744685    0.8672424      1024000 
  794000   0.57847074   -5.7463019   -5.7463019   -4.8785976 -0.051269704   -5.7463019   0.86770435      1024000 
  795000   0.57756328   -5.7462803   -5.7462803   -4.8799372 -0.050508432   -5.7462803   0.86634317      1024000 
  796000   0.57770155   -5.7472514   -5.7472514   -4.8807008 -0.047556088   -5.7472514   0.86655057      1024000 
  797000   0.57709108   -5.7471195   -5.7471195   -4.8814846 -0.047108761   -5.7471195   0.86563487      1024000 
  798000    0.5768859   -5.7476548   -5.7476548   -4.8823277 -0.051842928   -5.7476548    0.8653271      1024000 
  799000   0.57633039     -5.74823     -5.74823   -4.8837361 -0.054467388     -5.74823   0.86449383      1024000 
  800000   0.57595278   -5.7479337   -5.7479337   -4.8840062 -0.053052112   -5.7479337   0.86392742      1024000 
  801000   0.57679098   -5.7494523   -5.7494523   -4.8842676 -0.057426098   -5.7494523   0.86518472      1024000 
  802000   0.57675032   -5.7507127   -5.7507127    -4.885589 -0.059849092   -5.7507127   0.86512372      1024000 
  803000   0.57625514   -5.7509983   -5.7509983   -4.8866174 -0.061998982   -5.7509983   0.86438096      1024000 
  804000   0.57472273   -5.7499256   -5.7499256   -4.8878433 -0.056761884   -5.7499256   0.86208235      1024000 
  805000    0.5752962   -5.7517363   -5.7517363   -4.8887938 -0.056226194   -5.7517363   0.86294255      1024000 
  806000   0.57528608   -5.7525261   -5.7525261   -4.8895987 -0.058705875   -5.7525261   0.86292736      1024000 
  807000   0.57611451    -5.754415    -5.754415    -4.890245 -0.059564435    -5.754415   0.86417001      1024000 
  808000   0.57579731   -5.7549621   -5.7549621   -4.8912679 -0.056753078   -5.7549621   0.86369422      1024000 
  809000   0.57624869   -5.7563974   -5.7563974   -4.8920261 -0.056584844   -5.7563974   0.86437128      1024000 
  810000   0.57598892   -5.7575667   -5.7575667    -4.893585 -0.057026576   -5.7575667   0.86398162      1024000 
  811000   0.57566611   -5.7583393   -5.7583393   -4.8948419 -0.050564292   -5.7583393   0.86349741      1024000 
  812000   0.57586033   -5.7591443   -5.7591443   -4.8953556 -0.051199853   -5.7591443   0.86378874      1024000 
  813000   0.57571049     -5.75916     -5.75916    -4.895596 -0.050432761     -5.75916   0.86356398      1024000 
  814000   0.57505984   -5.7600986   -5.7600986   -4.8975106 -0.051556165   -5.7600986   0.86258801      1024000 
  815000   0.57548116   -5.7612851   -5.7612851   -4.8980651 -0.053973237   -5.7612851   0.86321998      1024000 
  816000   0.57559495   -5.7624848   -5.7624848   -4.8990942 -0.050959277   -5.7624848   0.86339067      1024000 
  817000    0.5759153   -5.7644193   -5.7644193   -4.9005481 -0.056505615   -5.7644193    0.8638712      1024000 
  818000   0.57430931   -5.7632468   -5.7632468   -4.9017846 -0.056157824   -5.7632468   0.86146221      1024000 
  819000    0.5747507   -5.7646214   -5.7646214   -4.9024971 -0.057849014   -5.7646214   0.86212431      1024000 
  820000   0.57548891   -5.7663461   -5.7663461   -4.9031145 -0.062070531   -5.7663461   0.86323161      1024000 
  821000   0.57426428   -5.7653635   -5.7653635   -4.9039689 -0.059684821   -5.7653635   0.86139467      1024000 
  822000   0.57389101   -5.7653649   -5.7653649   -4.9045302 -0.058886225   -5.7653649   0.86083477      1024000 
  823000   0.57492095   -5.7683303   -5.7683303   -4.9059506 -0.057394244   -5.7683303   0.86237968      1024000 
  824000   0.57529537   -5.7696019   -5.7696019   -4.9066606 -0.058513705   -5.7696019    0.8629413      1024000 
  825000   0.57444019   -5.7694416   -5.7694416   -4.9077831 -0.054040326   -5.7694416   0.86165854      1024000 
  826000   0.57410274   -5.7699856   -5.7699856   -4.9088332 -0.054660711   -5.7699856   0.86115237      1024000 
  827000    0.5748436   -5.7719582   -5.7719582   -4.9096945 -0.054991329   -5.7719582   0.86226365      1024000 
  828000   0.57406765   -5.7725444   -5.7725444   -4.9114447 -0.054892409   -5.7725444   0.86109973      1024000 
  829000   0.57376593   -5.7725214   -5.7725214   -4.9118742 -0.053811862   -5.7725214   0.86064715      1024000 
  830000   0.57509556   -5.7760195   -5.7760195    -4.913378 -0.055722639   -5.7760195   0.86264159      1024000 
  831000   0.57361328    -5.774296    -5.774296   -4.9138779 -0.051581654    -5.774296   0.86041818      1024000 
  832000   0.57427923   -5.7751429   -5.7751429   -4.9137258 -0.047633659   -5.7751429    0.8614171      1024000 
  833000   0.57425467   -5.7763498   -5.7763498   -4.9149696 -0.051473017   -5.7763498   0.86138026      1024000 
  834000   0.57390201   -5.7765428   -5.7765428   -4.9156915 -0.052818768   -5.7765428   0.86085127      1024000 
  835000   0.57348752    -5.777305    -5.777305   -4.9170755 -0.053514069    -5.777305   0.86022954      1024000 
  836000   0.57402509   -5.7780761   -5.7780761   -4.9170402 -0.054457912   -5.7780761   0.86103589      1024000 
  837000    0.5739871   -5.7793583   -5.7793583   -4.9183794 -0.057320246   -5.7793583    0.8609789      1024000 
  838000   0.57269474   -5.7783212   -5.7783212   -4.9192809 -0.055891854   -5.7783212   0.85904037      1024000 
  839000   0.57314192   -5.7793262   -5.7793262   -4.9196151 -0.057120886   -5.7793262   0.85971113      1024000 
  840000   0.57305772    -5.779992    -5.779992   -4.9204071 -0.056642133    -5.779992   0.85958484      1024000 
  841000   0.57347556   -5.7808693   -5.7808693   -4.9206577 -0.055478635   -5.7808693    0.8602116      1024000 
  842000   0.57343322   -5.7817782   -5.7817782   -4.9216301 -0.059877323   -5.7817782   0.86014809      1024000 
  843000   0.57310365   -5.7815132   -5.7815132   -4.9218595 -0.055847503   -5.7815132   0.85965373      1024000 
  844000   0.57353138   -5.7832557   -5.7832557   -4.9229603  -0.05432964   -5.7832557   0.86029532      1024000 
  845000   0.57324145   -5.7844621   -5.7844621   -4.9246017 -0.057149451   -5.7844621   0.85986042      1024000 
  846000   0.57296597     -5.78451     -5.78451   -4.9250628 -0.051548052     -5.78451   0.85944721      1024000 
  847000   0.57281586   -5.7855863   -5.7855863   -4.9263642 -0.050293628   -5.7855863   0.85922204      1024000 
  848000   0.57297781    -5.786974    -5.786974    -4.927509 -0.052629324    -5.786974   0.85946497      1024000 
  849000   0.57254829   -5.7877613   -5.7877613   -4.9289406 -0.055325029   -5.7877613   0.85882069      1024000 
  850000   0.57191534   -5.7877843   -5.7877843    -4.929913 -0.056511541   -5.7877843   0.85787127      1024000 
  851000   0.57336818   -5.7906595   -5.7906595   -4.9306089 -0.057393075   -5.7906595   0.86005053      1024000 
  852000   0.57286681   -5.7906852   -5.7906852   -4.9313868 -0.058203309   -5.7906852   0.85929846      1024000 
  853000   0.57243187   -5.7907275   -5.7907275   -4.9320814 -0.056340804   -5.7907275   0.85864606      1024000 
  854000   0.57253406   -5.7919505   -5.7919505   -4.9331512 -0.057595222   -5.7919505   0.85879935      1024000 
  855000   0.57234282    -5.791735    -5.791735   -4.9332225 -0.059788818    -5.791735   0.85851249      1024000 
  856000   0.57228912   -5.7925449   -5.7925449   -4.9341129 -0.057254986   -5.7925449   0.85843194      1024000 
  857000   0.57238686   -5.7935516   -5.7935516    -4.934973 -0.057014544   -5.7935516   0.85857855      1024000 
  858000   0.57184989   -5.7940905   -5.7940905   -4.9363175 -0.057982619   -5.7940905   0.85777309      1024000 
  859000   0.57165652   -5.7951059   -5.7951059   -4.9376229 -0.059816469   -5.7951059   0.85748304      1024000 
  860000   0.57214148   -5.7968048   -5.7968048   -4.9385944 -0.059852591   -5.7968048   0.85821048      1024000 
  861000   0.57119074   -5.7960446   -5.7960446   -4.9392602  -0.05770776   -5.7960446   0.85678437      1024000 
  862000   0.57071081   -5.7966865   -5.7966865    -4.940622 -0.056815542   -5.7966865   0.85606448      1024000 
  863000   0.57099902   -5.7977063   -5.7977063   -4.9412095 -0.056874055   -5.7977063   0.85649679      1024000 
  864000   0.57141586   -5.7993266   -5.7993266   -4.9422045 -0.054487983   -5.7993266   0.85712205      1024000 
  865000   0.57074613   -5.7989236   -5.7989236   -4.9428061 -0.051927214   -5.7989236   0.85611745      1024000 
  866000   0.57074787    -5.799775    -5.799775   -4.9436549 -0.052806146    -5.799775   0.85612007      1024000 
  867000   0.57203486   -5.8032082   -5.8032082   -4.9451576 -0.055000023   -5.8032082   0.85805056      1024000 
  868000   0.57088749   -5.8028725   -5.8028725    -4.946543 -0.050661359   -5.8028725   0.85632949      1024000 
  869000   0.57134484   -5.8045788   -5.8045788   -4.9475633 -0.054420974   -5.8045788   0.85701552      1024000 
  870000   0.56949542   -5.8030749   -5.8030749   -4.9488335 -0.052036362   -5.8030749   0.85424139      1024000 
  871000   0.57130923   -5.8062239   -5.8062239   -4.9492618  -0.05884658   -5.8062239    0.8569621      1024000 
  872000   0.57079868   -5.8066492   -5.8066492   -4.9504529 -0.057070833   -5.8066492   0.85619628      1024000 
  873000   0.57099121   -5.8070284   -5.8070284   -4.9505433 -0.058251903   -5.8070284   0.85648507      1024000 
  874000   0.57083415   -5.8072313   -5.8072313   -4.9509818 -0.058757147   -5.8072313   0.85624949      1024000 
  875000   0.57050658   -5.8072578   -5.8072578   -4.9514997 -0.057699675   -5.8072578   0.85575813      1024000 
  876000   0.57032425   -5.8083202   -5.8083202   -4.9528356 -0.055875361   -5.8083202   0.85548463      1024000 
  877000   0.57045092   -5.8089359   -5.8089359   -4.9532613 -0.055856347   -5.8089359   0.85567464      1024000 
  878000   0.57048625   -5.8094131   -5.8094131   -4.9536855 -0.062121883   -5.8094131   0.85572765      1024000 
  879000   0.56901562   -5.8079418   -5.8079418   -4.9544201 -0.053832355   -5.8079418   0.85352171      1024000 
  880000   0.57054146   -5.8109397   -5.8109397   -4.9551293 -0.059498853   -5.8109397   0.85581045      1024000 
  881000   0.56980116   -5.8110518   -5.8110518   -4.9563518 -0.059670656   -5.8110518   0.85470001      1024000 
  882000   0.56999433   -5.8118231   -5.8118231   -4.9568333 -0.057741704   -5.8118231   0.85498976      1024000 
  883000   0.56944929   -5.8127188   -5.8127188   -4.9585466 -0.057622996   -5.8127188    0.8541722      1024000 
  884000   0.56990599    -5.814276    -5.814276   -4.9594188 -0.061006288    -5.814276   0.85485725      1024000 
  885000   0.56992287   -5.8146099   -5.8146099   -4.9597273 -0.056827308   -5.8146099   0.85488257      1024000 
  886000   0.56916354   -5.8146674   -5.8146674   -4.9609238 -0.055023507   -5.8146674   0.85374357      1024000 
  887000   0.57006895   -5.8174848   -5.8174848   -4.9623831 -0.059326588   -5.8174848   0.85510169      1024000 
  888000   0.56934065   -5.8170165   -5.8170165   -4.9630072 -0.056455303   -5.8170165   0.85400925      1024000 
  889000    0.5695478   -5.8180712   -5.8180712   -4.9637512  -0.05839498   -5.8180712   0.85431996      1024000 
  890000   0.56970051   -5.8189283   -5.8189283   -4.9643793 -0.059886016   -5.8189283   0.85454903      1024000 
  891000   0.56899052   -5.8187469   -5.8187469   -4.9652628 -0.056054236   -5.8187469   0.85348405      1024000 
  892000   0.56926639   -5.8205835   -5.8205835   -4.9666857  -0.05987616   -5.8205835   0.85389786      1024000 
  893000   0.56764964   -5.8187629   -5.8187629   -4.9672901 -0.055029071   -5.8187629   0.85147273      1024000 
  894000   0.56889489   -5.8221184   -5.8221184   -4.9687778 -0.062220191   -5.8221184    0.8533406      1024000 
  895000    0.5682076   -5.8216224   -5.8216224   -4.9693128 -0.057937459   -5.8216224   0.85230967      1024000 
  896000   0.56896902   -5.8239123   -5.8239123   -4.9704605 -0.063173873   -5.8239123    0.8534518      1024000 
  897000      0.56787   -5.8236969   -5.8236969   -4.9718936 -0.058850794   -5.8236969   0.85180327      1024000 
  898000   0.56751158   -5.8243935   -5.8243935   -4.9731278 -0.060555936   -5.8243935   0.85126564      1024000 
  899000   0.56798978   -5.8254887   -5.8254887   -4.9735058 -0.059158587   -5.8254887   0.85198295      1024000 
  900000   0.56847563   -5.8264137   -5.8264137    -4.973702 -0.057662762   -5.8264137   0.85271171      1024000 
  901000   0.56837116   -5.8272349   -5.8272349   -4.9746799  -0.05826862   -5.8272349   0.85255501      1024000 
  902000   0.56821817   -5.8283694   -5.8283694   -4.9760439 -0.056476667   -5.8283694   0.85232552      1024000 
  903000    0.5685426   -5.8290609   -5.8290609   -4.9762487 -0.055280572   -5.8290609   0.85281217      1024000 
  904000   0.56792135   -5.8289962   -5.8289962   -4.9771159 -0.053018241   -5.8289962    0.8518803      1024000 
  905000   0.56857876    -5.831231    -5.831231   -4.9783646  -0.05718901    -5.831231    0.8528664      1024000 
  906000   0.56726299   -5.8304733   -5.8304733   -4.9795805 -0.057360626   -5.8304733   0.85089276      1024000 
  907000   0.56745739   -5.8316806   -5.8316806   -4.9804962 -0.057853138   -5.8316806   0.85118436      1024000 
  908000   0.56771554    -5.832832    -5.832832   -4.9812604 -0.057354889    -5.832832   0.85157159      1024000 
  909000   0.56772317   -5.8333312   -5.8333312   -4.9817481 -0.059062026   -5.8333312   0.85158303      1024000 
  910000   0.56743803    -5.833247    -5.833247   -4.9820917 -0.056929518    -5.833247   0.85115532      1024000 
  911000   0.56766633   -5.8348328   -5.8348328    -4.983335 -0.056903561   -5.8348328   0.85149777      1024000 
  912000   0.56730681   -5.8352039   -5.8352039   -4.9842454 -0.058574497   -5.8352039   0.85095849      1024000 
  913000   0.56630044   -5.8350622   -5.8350622   -4.9856133 -0.058631555   -5.8350622   0.84944894      1024000 
  914000   0.56707082   -5.8368212   -5.8368212   -4.9862167 -0.061019717   -5.8368212    0.8506045      1024000 
  915000   0.56663972   -5.8372613   -5.8372613   -4.9873035  -0.06044127   -5.8372613   0.84995786      1024000 
  916000   0.56621361   -5.8371638   -5.8371638   -4.9878451 -0.058724422   -5.8371638    0.8493187      1024000 
  917000   0.56682306   -5.8385058   -5.8385058   -4.9882729 -0.058680997   -5.8385058   0.85023286      1024000 
  918000   0.56679207   -5.8393077   -5.8393077   -4.9891213 -0.058476562   -5.8393077   0.85018638      1024000 
  919000   0.56597888   -5.8392513   -5.8392513   -4.9902847 -0.057365291   -5.8392513    0.8489666      1024000 
  920000   0.56680522   -5.8414344   -5.8414344   -4.9912283 -0.059618975   -5.8414344    0.8502061      1024000 
  921000   0.56719226   -5.8434525   -5.8434525   -4.9926658 -0.064678295   -5.8434525   0.85078667      1024000 
  922000   0.56639191    -5.843275    -5.843275   -4.9936888 -0.059107634    -5.843275   0.84958614      1024000 
  923000    0.5664264   -5.8439085   -5.8439085   -4.9942706 -0.061856888   -5.8439085   0.84963787      1024000 
  924000   0.56561045   -5.8434325   -5.8434325   -4.9950185 -0.056989374   -5.8434325   0.84841396      1024000 
  925000   0.56659546   -5.8454198   -5.8454198   -4.9955283 -0.059815011   -5.8454198   0.84989147      1024000 
  926000   0.56640675   -5.8463013   -5.8463013   -4.9966929 -0.062848854   -5.8463013    0.8496084      1024000 
  927000   0.56637885   -5.8469372   -5.8469372   -4.9973706 -0.062659334   -5.8469372   0.84956656      1024000 
  928000   0.56541609   -5.8467902   -5.8467902   -4.9986678 -0.059724545   -5.8467902   0.84812241      1024000 
  929000    0.5645188   -5.8463695   -5.8463695   -4.9995931 -0.059504813   -5.8463695   0.84677648      1024000 
  930000   0.56605721   -5.8496127   -5.8496127   -5.0005286 -0.062371919   -5.8496127   0.84908409      1024000 
  931000   0.56472441   -5.8483534   -5.8483534   -5.0012685  -0.05676642   -5.8483534    0.8470849      1024000 
  932000   0.56477081   -5.8500442   -5.8500442   -5.0028897 -0.061959491   -5.8500442    0.8471545      1024000 
  933000   0.56510473   -5.8511973   -5.8511973    -5.003542 -0.058956275   -5.8511973   0.84765537      1024000 
  934000   0.56560003   -5.8525759   -5.8525759   -5.0041775 -0.060976382   -5.8525759   0.84839832      1024000 
  935000    0.5641356   -5.8517299   -5.8517299   -5.0055282 -0.064714427   -5.8517299   0.84620168      1024000 
  936000   0.56483531   -5.8524399   -5.8524399   -5.0051887  -0.06205942   -5.8524399   0.84725124      1024000 
  937000   0.56440171   -5.8522861   -5.8522861   -5.0056852 -0.057730926   -5.8522861   0.84660085      1024000 
  938000    0.5640771   -5.8533025   -5.8533025   -5.0071885 -0.062550133   -5.8533025   0.84611393      1024000 
  939000   0.56450878    -5.854333    -5.854333   -5.0075715 -0.062824064    -5.854333   0.84676145      1024000 
  940000   0.56417662   -5.8548344   -5.8548344   -5.0085712 -0.063782191   -5.8548344   0.84626321      1024000 
  941000   0.56392595   -5.8551232   -5.8551232    -5.009236 -0.062339254   -5.8551232   0.84588721      1024000 
  942000   0.56429963   -5.8566373   -5.8566373   -5.0101895 -0.062831248   -5.8566373   0.84644772      1024000 
  943000   0.56374296   -5.8574299   -5.8574299   -5.0118172 -0.063770712   -5.8574299   0.84561273      1024000 
  944000   0.56320811   -5.8575103   -5.8575103   -5.0126999 -0.061981672   -5.8575103   0.84481044      1024000 
  945000   0.56398717   -5.8587589   -5.8587589   -5.0127799 -0.061283747   -5.8587589   0.84597903      1024000 
  946000   0.56444696   -5.8599313   -5.8599313   -5.0132626 -0.060694004   -5.8599313   0.84666872      1024000 
  947000   0.56418424   -5.8610245   -5.8610245   -5.0147498 -0.060480152   -5.8610245   0.84627465      1024000 
  948000   0.56367143   -5.8612774   -5.8612774    -5.015772 -0.060252953   -5.8612774   0.84550543      1024000 
  949000   0.56306913   -5.8608467   -5.8608467   -5.0162447 -0.056951317   -5.8608467   0.84460198      1024000 
  950000   0.56460311   -5.8645335   -5.8645335   -5.0176305 -0.063538731   -5.8645335   0.84690294      1024000 
  951000   0.56354688   -5.8641257   -5.8641257   -5.0188071 -0.063220701   -5.8641257    0.8453186      1024000 
  952000   0.56323136   -5.8647687   -5.8647687   -5.0199234 -0.063296369   -5.8647687   0.84484533      1024000 
  953000   0.56246551   -5.8649438   -5.8649438   -5.0212473 -0.060717706   -5.8649438   0.84369655      1024000 
  954000   0.56262498   -5.8661896   -5.8661896   -5.0222539 -0.063500079   -5.8661896   0.84393576      1024000 
  955000   0.56260565   -5.8669759   -5.8669759   -5.0230691 -0.064740473   -5.8669759   0.84390677      1024000 
  956000   0.56246297       -5.867       -5.867   -5.0233073 -0.060260584       -5.867   0.84369274      1024000 
  957000   0.56307785   -5.8684833   -5.8684833   -5.0238683 -0.065896007   -5.8684833   0.84461506      1024000 
  958000   0.56210243   -5.8680369   -5.8680369    -5.024885 -0.062197982   -5.8680369   0.84315194      1024000 
  959000   0.56251316   -5.8692651   -5.8692651   -5.0254971 -0.067728043   -5.8692651   0.84376803      1024000 
  960000   0.56208533   -5.8695494   -5.8695494   -5.0264231 -0.066483431   -5.8695494   0.84312628      1024000 
  961000   0.56219757   -5.8702981   -5.8702981   -5.0270035 -0.064443269   -5.8702981   0.84329464      1024000 
  962000   0.56234647   -5.8706624   -5.8706624   -5.0271444 -0.062151984   -5.8706624     0.843518      1024000 
  963000   0.56264571   -5.8720926   -5.8720926   -5.0281258 -0.065797014   -5.8720926   0.84396686      1024000 
  964000   0.56223078   -5.8726159   -5.8726159   -5.0292714 -0.061890173   -5.8726159   0.84334446      1024000 
  965000   0.56175892   -5.8722147   -5.8722147   -5.0295781 -0.060768485   -5.8722147   0.84263667      1024000 
  966000   0.56194314   -5.8732347   -5.8732347   -5.0303217 -0.061518573   -5.8732347     0.842913      1024000 
  967000   0.56206182   -5.8741187   -5.8741187   -5.0310277 -0.060817896   -5.8741187   0.84309101      1024000 
  968000    0.5618132   -5.8748148   -5.8748148   -5.0320967 -0.062898124   -5.8748148   0.84271809      1024000 
  969000    0.5615511   -5.8751169   -5.8751169    -5.032792 -0.062815529   -5.8751169   0.84232494      1024000 
  970000   0.56165293   -5.8763391   -5.8763391   -5.0338614  -0.06572664   -5.8763391   0.84247768      1024000 
  971000   0.56152949   -5.8773571   -5.8773571   -5.0350646 -0.068487342   -5.8773571   0.84229252      1024000 
  972000   0.56206211   -5.8788943   -5.8788943   -5.0358028   -0.0687622   -5.8788943   0.84309146      1024000 
  973000   0.56111536   -5.8781107   -5.8781107   -5.0364394 -0.067374635   -5.8781107   0.84167134      1024000 
  974000   0.56184381   -5.8788907   -5.8788907   -5.0361267 -0.070601552   -5.8788907     0.842764      1024000 
  975000   0.56262913   -5.8801505   -5.8801505   -5.0362085 -0.068913276   -5.8801505   0.84394198      1024000 
  976000   0.56228768   -5.8795916   -5.8795916   -5.0361618 -0.061005125   -5.8795916   0.84342981      1024000 
  977000   0.56193323   -5.8807112   -5.8807112   -5.0378131 -0.061202436   -5.8807112   0.84289813      1024000 
  978000   0.56227897   -5.8816163   -5.8816163   -5.0381995 -0.061145528   -5.8816163   0.84341675      1024000 
  979000   0.56232634   -5.8827477   -5.8827477   -5.0392599  -0.06393297   -5.8827477    0.8434878      1024000 
  980000   0.56140158   -5.8824513   -5.8824513   -5.0403507 -0.059536644   -5.8824513   0.84210066      1024000 
  981000   0.56138343   -5.8828376   -5.8828376   -5.0407642 -0.059883184   -5.8828376   0.84207343      1024000 
  982000   0.56061687   -5.8831246   -5.8831246    -5.042201 -0.062590771   -5.8831246    0.8409236      1024000 
  983000   0.56131465   -5.8849715   -5.8849715   -5.0430012  -0.06288705   -5.8849715   0.84197026      1024000 
  984000   0.56075119   -5.8850127   -5.8850127   -5.0438876 -0.062654419   -5.8850127   0.84112508      1024000 
  985000   0.56175338   -5.8873525   -5.8873525   -5.0447241 -0.065801933   -5.8873525   0.84262836      1024000 
  986000   0.56077936   -5.8867256   -5.8867256   -5.0455583 -0.062459039   -5.8867256   0.84116734      1024000 
  987000   0.56052705   -5.8865527   -5.8865527   -5.0457638 -0.062165823   -5.8865527   0.84078887      1024000 
  988000   0.56045243   -5.8876523   -5.8876523   -5.0469754 -0.065570265   -5.8876523   0.84067694      1024000 
  989000   0.56038543   -5.8884657   -5.8884657   -5.0478893 -0.063905167   -5.8884657   0.84057644      1024000 
  990000   0.56075283   -5.8894626   -5.8894626   -5.0483351 -0.064280672   -5.8894626   0.84112753      1024000 
  991000    0.5600711   -5.8898342   -5.8898342   -5.0497292 -0.066709787   -5.8898342   0.84010495      1024000 
  992000   0.56099077   -5.8925676   -5.8925676   -5.0510832  -0.06769615   -5.8925676   0.84148444      1024000 
  993000    0.5608745   -5.8926403   -5.8926403   -5.0513303 -0.065378836   -5.8926403   0.84131004      1024000 
  994000   0.56090247   -5.8933744   -5.8933744   -5.0520224 -0.065526912   -5.8933744     0.841352      1024000 
  995000    0.5603629   -5.8935803   -5.8935803   -5.0530376 -0.059260983   -5.8935803   0.84054265      1024000 
  996000   0.56099151   -5.8955564   -5.8955564   -5.0540708 -0.060558907   -5.8955564   0.84148556      1024000 
  997000   0.56088019   -5.8958412   -5.8958412   -5.0545226  -0.06185362   -5.8958412   0.84131858      1024000 
  998000   0.56085553   -5.8960309   -5.8960309   -5.0547493 -0.057767756   -5.8960309   0.84128159      1024000 
  999000   0.56085048   -5.8967582   -5.8967582   -5.0554842 -0.060975682   -5.8967582   0.84127401      1024000 
 1000000   0.56113715   -5.8977522   -5.8977522   -5.0560482 -0.062732626   -5.8977522   0.84170401      1024000 
Loop time of 8597.52 on 32 procs for 1000000 steps with 492800 atoms

Performance: 25123.522 tau/day, 116.313 timesteps/s
99.7% CPU use with 32 MPI tasks x 1 OpenMP threads

MPI task timing breakdown:
Section |  min time  |  avg time  |  max time  |%varavg|  %CPU | %total
-----------------------------------------------------------------------
Pair    | 4084.5     | 5461.1     | 6095       | 784.3 |  99.7 | 63.52
Bond    | 0.63521    | 0.64985    | 0.67859    |   1.2 | 100.0 |  0.01
Neigh   | 936.85     | 1196.6     | 1292.4     | 298.5 |  99.8 | 13.92
Comm    | 480.02     | 1236.3     | 2648.2     |1754.1 |  99.5 | 14.38
Output  | 22.614     | 22.792     | 22.801     |   0.7 |  98.2 |  0.27
Modify  | 153.48     | 287.48     | 723.22     |1298.7 |  99.3 |  3.34
Other   |            | 392.6      |            |       |       |  4.57

Nlocal:        15400.0 ave       16116 max       13941 min
Histogram: 2 0 1 1 0 0 12 11 1 4
Nghost:        14477.3 ave       17074 max        9435 min
Histogram: 4 4 0 0 0 0 0 4 16 4
Neighs:        681056.0 ave      736976 max      501973 min
Histogram: 3 1 0 0 0 0 5 3 4 16

Total # of neighbors = 21793788
Ave neighs/atom = 44.224407
Ave special neighs/atom = 0.0000000
Neighbor list builds = 55291
Dangerous builds = 220
Total wall time: 2:23:18
