LAMMPS (24 Dec 2020)
OMP_NUM_THREADS environment is not set. Defaulting to 1 thread. (src/comm.cpp:94)
  using 1 OpenMP thread(s) per MPI task
#Read the equilibrated lj fluid and add nanocubes

units           lj
atom_style      full
atom_modify     map array first cubes
dimension       3
boundary        p p f
pair_style      lj/cut/opt 2.5

variable        sigma           equal 1.0
variable        epsilon         equal 1.0
read_restart	restart.dat.3000000
Reading restart file ...
  restart file = 24 Dec 2020, LAMMPS = 24 Dec 2020
  restoring atom style full from restart
  orthogonal box = (0.0000000 0.0000000 0.0000000) to (60.000000 60.000000 180.00000)
  3 by 4 by 8 MPI processor grid
  restoring pair style lj/cut/opt from restart
  293600 atoms
Finding 1-2 1-3 1-4 neighbors ...
  special bond factors lj:    0        0        0       
  special bond factors coul:  0        0        0       
     0 = max # of 1-2 neighbors
     0 = max # of 1-3 neighbors
     0 = max # of 1-4 neighbors
     1 = max # of special neighbors
  special bonds CPU = 0.462 seconds
  read_restart CPU = 0.695 seconds

group		solvent type 1
293600 atoms in group solvent

read_data	data_63.cubes group cubes add append
Reading data file ...
  orthogonal box = (0.0000000 0.0000000 0.0000000) to (60.000000 60.000000 180.00000)
  3 by 4 by 8 MPI processor grid
  reading atoms ...
  72009 atoms
  reading velocities ...
  72009 velocities
Finding 1-2 1-3 1-4 neighbors ...
  special bond factors lj:    0        0        0       
  special bond factors coul:  0        0        0       
     0 = max # of 1-2 neighbors
     0 = max # of 1-3 neighbors
     0 = max # of 1-4 neighbors
     1 = max # of special neighbors
  special bonds CPU = 0.003 seconds
  read_data CPU = 0.144 seconds

group 		hull  type 2
28098 atoms in group hull
group 		dummy type 3
43911 atoms in group dummy

neighbor      0.4 bin
neigh_modify  exclude molecule/intra cubes


pair_modify   shift yes

pair_coeff    1 1 1.0 1.0 #solvent
pair_coeff    2 2 1.0 1.0 1.12 #np
pair_coeff    3 3 0.0 0.0 0.0 #dummy
pair_coeff    2 3 0.0 0.0 0.0 #np dummy
pair_coeff    1 2 ${sol} 1.0 #np solvent
pair_coeff    1 2 1.0 1.0 
pair_coeff    1 3 0.0 0.0 2.5 #dummy solvent

# delete solvent where the cubes are
delete_atoms  overlap 1.0 solvent cubes
System init for delete_atoms ...
Neighbor list info ...
  update every 1 steps, delay 10 steps, check yes
  max neighbors/atom: 2000, page size: 100000
  master list distance cutoff = 2.9
  ghost atom cutoff = 2.9
  binsize = 1.45, bins = 42 42 125
  2 neighbor lists, perpetual/occasional/extra = 1 1 0
  (1) command delete_atoms, occasional
      attributes: full, newton on
      pair build: full/bin
      stencil: full/bin/3d
      bin: standard
  (2) pair lj/cut/opt, perpetual
      attributes: half, newton on
      pair build: half/bin/newton
      stencil: half/bin/3d/newton
      bin: standard
WARNING: Delete_atoms cutoff > minimum neighbor cutoff (src/delete_atoms.cpp:307)
WARNING: Ignoring 'compress yes' for molecular system (src/delete_atoms.cpp:125)
Deleted 52208 atoms, new total = 313401



pair_coeff    1 1 1.0 1.0 #solvent
pair_coeff    2 2 1.0 1.0 1.12 #np
pair_coeff    3 3 0.0 0.0 0.0 #dummy
pair_coeff    2 3 0.0 0.0 0.0 #np dummy
pair_coeff    1 2 ${sol} 1.0 #np solvent
pair_coeff    1 2 1.0 1.0 
pair_coeff    1 3 0.0 0.0 0.0 #dummy solvent


comm_modify   mode multi cutoff/multi 1 2.5 cutoff/multi 2 2.5 cutoff/multi 3 6.95

reset_timestep 	0

balance 	1.05 shift z 10 1.05
Balancing ...
Neighbor list info ...
  update every 1 steps, delay 10 steps, check yes
  max neighbors/atom: 2000, page size: 100000
  master list distance cutoff = 2.9
  ghost atom cutoff = 6.95
  binsize = 1.45, bins = 42 42 125
  1 neighbor lists, perpetual/occasional/extra = 1 0 0
  (1) pair lj/cut/opt, perpetual
      attributes: half, newton on
      pair build: half/bin/newton
      stencil: half/bin/3d/newton
      bin: standard
 rebalancing time: 0.006 seconds
  iteration count = 4
  initial/final maximal load/proc = 4743.0000 3900.0000
  initial/final imbalance factor  = 1.4528607 1.1946356
  x cuts: 0.0000000 0.33333333 0.66666667 1.0000000
  y cuts: 0.0000000 0.25000000 0.50000000 0.75000000 1.0000000
  z cuts: 0.0000000 0.10156250 0.19531250 0.28906250 0.38281250 0.48437500 0.57812500 0.67187500 1.0000000

####################### WALLS ###########################

variable       epsilonWall equal 2*${epsilon}
variable       epsilonWall equal 2*1
variable       repulsive   equal   0.7147*${sigma}
variable       repulsive   equal   0.7147*1
variable       full	   equal   3*${sigma}
variable       full	   equal   3*1
region         lowWall block EDGE EDGE EDGE EDGE EDGE 2

fix            topWall all wall/lj93 zhi EDGE 	       ${epsilonWall} ${sigma} ${repulsive} units box
fix            topWall all wall/lj93 zhi EDGE 	       2 ${sigma} ${repulsive} units box
fix            topWall all wall/lj93 zhi EDGE 	       2 1 ${repulsive} units box
fix            topWall all wall/lj93 zhi EDGE 	       2 1 0.7147 units box
fix            lowSol solvent wall/lj93 zlo EDGE                ${epsilonWall} ${sigma} ${full} units box
fix            lowSol solvent wall/lj93 zlo EDGE                2 ${sigma} ${full} units box
fix            lowSol solvent wall/lj93 zlo EDGE                2 1 ${full} units box
fix            lowSol solvent wall/lj93 zlo EDGE                2 1 3 units box
fix 	       lowCub cubes wall/lj93 zlo EDGE                ${epsilonWall} ${sigma} ${repulsive} units box
fix 	       lowCub cubes wall/lj93 zlo EDGE                2 ${sigma} ${repulsive} units box
fix 	       lowCub cubes wall/lj93 zlo EDGE                2 1 ${repulsive} units box
fix 	       lowCub cubes wall/lj93 zlo EDGE                2 1 0.7147 units box


###################### COMPUTES ##########################

compute        bin1 solvent chunk/atom bin/1d z lower 1.0 units box


######################  FIXES ############################


fix             peclet solvent ave/chunk 10 10 10000 bin1 density/number norm                  none ave one file density.profile

fix              temp solvent ave/chunk 10 10 10000 bin1 temp norm                  none ave one file temp.profile

fix             1 cubes rigid/nve/small molecule
  create bodies CPU = 0.002 seconds
  63 rigid bodies with 72009 atoms
  6.9282032 = max distance from body owner to body atom

fix             2 solvent nve# temp ${temp} ${temp} 10


## Thermostat
region          regthermo block EDGE EDGE EDGE EDGE 0 15
group           thermo dynamic solvent region regthermo every 1000
dynamic group thermo defined
fix             3 thermo langevin ${temp} ${temp} 10 156453
fix             3 thermo langevin 1.0 ${temp} 10 156453
fix             3 thermo langevin 1.0 1.0 10 156453


#### Load balancing

fix             bal all balance 1000 1.05 shift z 10 1.05

############### Diagnostics and computes ###################

compute        	com cubes          rigid/local   1 mol x y z
compute        	quat cubes         rigid/local   1 mol quatw quati quatj quatk

compute 	cc2 cubes 	   chunk/atom 	 molecule
compute 	msd cubes 	   msd/chunk 	 cc2

fix 		msd all ave/time  1 1 10000 c_msd[*] file dump.msd ave one mode vector

dump            1 all custom 500000 dump.lammpstrj id mol type x y z
dump		cubetrj hull custom 500000 cubes.lammpstrj id mol type x y z
dump            com cubes local 10000 dump.*.xyz c_com[*]
dump	        xyz hull xyz 100000 cubes.xyz
dump            quat cubes      local 10000 dump.*.quat c_quat[*]
#dump		mol cubes molfile 10000 mol.xyz xyz


dump            2 all image 10000 image.*.png type type
dump_modify     2 pad 8
dump		image cubes image 10000 image_cubes.*.png type type
dump_modify	image pad 8
dump            3 all movie 5000 movie.avi type type
dump		4 cubes movie 5000 movie_cubes.avi type type


thermo          1000
thermo_style    custom step temp epair evdwl etotal press pe ke atoms

restart         1000000 restart.dat
timestep        0.005
timer           full
New timer settings: style=full  mode=nosync  timeout=off

run 		4000000
Per MPI rank memory allocation (min/avg/max) = 14.12 | 20.05 | 22.51 Mbytes
Step Temp E_pair E_vdwl TotEng Press PotEng KinEng Atoms 
       0    0.9943165   -2.5729197   -2.5729197   -1.4235408   -0.1073338   -2.5729197    1.1493789   313401 
    1000    1.0140384   -2.5966433   -2.5966433   -1.4244668  0.059127983   -2.5966433    1.1721765   313401 
    2000    1.0159382   -2.5994247   -2.5994247   -1.4250521  0.064500576   -2.5994247    1.1743725   313401 
    3000    1.0197575   -2.6043595   -2.6043595   -1.4255721  0.054554003   -2.6043595    1.1787874   313401 
    4000    1.0178995   -2.6028984   -2.6028984   -1.4262587  0.063927227   -2.6028984    1.1766396   313401 
    5000     1.018203   -2.6039917   -2.6039917   -1.4270012  0.063863938   -2.6039917    1.1769905   313401 
    6000    1.0161573   -2.6029692   -2.6029692   -1.4283434  0.067188444   -2.6029692    1.1746258   313401 
    7000    1.0174247   -2.6041783   -2.6041783   -1.4280875  0.052277145   -2.6041783    1.1760908   313401 
    8000    1.0140145   -2.6019395   -2.6019395   -1.4297907  0.055387996   -2.6019395    1.1721488   313401 
    9000    1.0141757   -2.6022159   -2.6022159   -1.4298807  0.055481483   -2.6022159    1.1723351   313401 
   10000    1.0133626   -2.6011652   -2.6011652   -1.4297699  0.064941376   -2.6011652    1.1713953   313401 
   11000      1.01224   -2.6015597   -2.6015597    -1.431462  0.048331529   -2.6015597    1.1700976   313401 
   12000    1.0109199   -2.6018223   -2.6018223   -1.4332507  0.050935105   -2.6018223    1.1685716   313401 
   13000    1.0082894   -2.5999832   -2.5999832   -1.4344523  0.057312104   -2.5999832    1.1655309   313401 
   14000    1.0112467   -2.6020778   -2.6020778   -1.4331284  0.055099321   -2.6020778    1.1689493   313401 
   15000    1.0108544   -2.6033754   -2.6033754   -1.4348795   0.04325091   -2.6033754    1.1684959   313401 
   16000    1.0103188   -2.6029879   -2.6029879   -1.4351111  0.060024855   -2.6029879    1.1678768   313401 
   17000    1.0129464   -2.6062157   -2.6062157   -1.4353016  0.068085564   -2.6062157    1.1709141   313401 
   18000    1.0107081   -2.6037705   -2.6037705   -1.4354437  0.046821415   -2.6037705    1.1683268   313401 
   19000    1.0096976   -2.6028727   -2.6028727   -1.4357141  0.050459695   -2.6028727    1.1671587   313401 
   20000     1.008492   -2.6013978   -2.6013978   -1.4356327  0.050709951   -2.6013978    1.1657651   313401 
   21000    1.0090339   -2.6031376   -2.6031376    -1.436746  0.057001185   -2.6031376    1.1663915   313401 
   22000     1.009304   -2.6024571   -2.6024571   -1.4357534   0.04613533   -2.6024571    1.1667037   313401 
   23000    1.0103647   -2.6051179   -2.6051179   -1.4371881  0.055525552   -2.6051179    1.1679299   313401 
   24000    1.0081306   -2.6022089   -2.6022089   -1.4368616  0.059152028   -2.6022089    1.1653473   313401 
   25000    1.0085311   -2.6038209   -2.6038209   -1.4380107  0.049399037   -2.6038209    1.1658103   313401 
   26000    1.0075522   -2.6029274   -2.6029274   -1.4382487  0.050429554   -2.6029274    1.1646788   313401 
   27000    1.0094901   -2.6050408   -2.6050408   -1.4381219  0.059565394   -2.6050408    1.1669189   313401 
   28000    1.0111309   -2.6077164   -2.6077164   -1.4389009  0.043257761   -2.6077164    1.1688156   313401 
   29000    1.0097285   -2.6048656   -2.6048656   -1.4376712   0.05513495   -2.6048656    1.1671944   313401 
   30000    1.0088481   -2.6046674   -2.6046674   -1.4384907  0.058046856   -2.6046674    1.1661767   313401 
   31000    1.0092746   -2.6062317   -2.6062317    -1.439562  0.065314119   -2.6062317    1.1666697   313401 
   32000    1.0110222   -2.6074926   -2.6074926   -1.4388027  0.063355216   -2.6074926    1.1686899   313401 
   33000    1.0110793   -2.6076804   -2.6076804   -1.4389246  0.047392442   -2.6076804    1.1687558   313401 
   34000    1.0103306   -2.6070704   -2.6070704     -1.43918  0.052312814   -2.6070704    1.1678904   313401 
   35000     1.008467   -2.6066502   -2.6066502   -1.4409139  0.056098664   -2.6066502    1.1657362   313401 
   36000    1.0086118   -2.6072602   -2.6072602   -1.4413566  0.057402344   -2.6072602    1.1659036   313401 
   37000    1.0080444   -2.6084723   -2.6084723   -1.4432246  0.059685111   -2.6084723    1.1652477   313401 
   38000    1.0084727   -2.6090115   -2.6090115   -1.4432687   0.04922192   -2.6090115    1.1657428   313401 
   39000    1.0095945    -2.609881    -2.609881   -1.4428415  0.057270633    -2.609881    1.1670395   313401 
   40000    1.0078908   -2.6094185   -2.6094185   -1.4443484   0.05241129   -2.6094185    1.1650701   313401 
   41000    1.0074793   -2.6089056   -2.6089056   -1.4443112  0.054384129   -2.6089056    1.1645944   313401 
   42000    1.0078118    -2.610314    -2.610314   -1.4453351  0.056357474    -2.610314    1.1649789   313401 
   43000    1.0069599   -2.6090069   -2.6090069   -1.4450128  0.054766565   -2.6090069    1.1639941   313401 
   44000    1.0098424   -2.6125777   -2.6125777   -1.4452516  0.056556023   -2.6125777    1.1673261   313401 
   45000    1.0077561   -2.6112795   -2.6112795   -1.4463651  0.059077605   -2.6112795    1.1649144   313401 
   46000    1.0088653     -2.61341     -2.61341   -1.4472135  0.059659185     -2.61341    1.1661966   313401 
   47000    1.0094432   -2.6147237   -2.6147237    -1.447859   0.06467164   -2.6147237    1.1668646   313401 
   48000    1.0109907   -2.6164201   -2.6164201   -1.4477666  0.062181278   -2.6164201    1.1686534   313401 
   49000    1.0113156   -2.6170965   -2.6170965   -1.4480675  0.061488773   -2.6170965     1.169029   313401 
   50000    1.0125566   -2.6174427   -2.6174427   -1.4469792  0.053024214   -2.6174427    1.1704636   313401 
   51000    1.0086673   -2.6147952   -2.6147952   -1.4488275  0.067206719   -2.6147952    1.1659678   313401 
   52000    1.0109908   -2.6167284   -2.6167284   -1.4480748  0.049044365   -2.6167284    1.1686536   313401 
   53000     1.010037   -2.6163968   -2.6163968   -1.4488457   0.06785556   -2.6163968    1.1675511   313401 
   54000    1.0106042   -2.6175018   -2.6175018   -1.4492951  0.053327557   -2.6175018    1.1682066   313401 
   55000    1.0100459   -2.6167351   -2.6167351   -1.4491738  0.061527748   -2.6167351    1.1675613   313401 
   56000    1.0085574   -2.6163688   -2.6163688   -1.4505281  0.055097125   -2.6163688    1.1658407   313401 
   57000    1.0088673   -2.6165614   -2.6165614   -1.4503625  0.068722019   -2.6165614    1.1661989   313401 
   58000    1.0119584   -2.6208306   -2.6208306   -1.4510585   0.06787578   -2.6208306    1.1697721   313401 
   59000    1.0116689   -2.6213018   -2.6213018   -1.4518643  0.047899221   -2.6213018    1.1694375   313401 
   60000    1.0096249   -2.6199399   -2.6199399   -1.4528653  0.050888793   -2.6199399    1.1670746   313401 
   61000     1.009805   -2.6196435   -2.6196435   -1.4523606   0.05601109   -2.6196435    1.1672829   313401 
   62000    1.0124031   -2.6216836   -2.6216836   -1.4513975  0.063030441   -2.6216836    1.1702861   313401 
   63000    1.0098929    -2.619758    -2.619758   -1.4523736  0.059013966    -2.619758    1.1673844   313401 
   64000    1.0102761   -2.6200053   -2.6200053   -1.4521779  0.052861741   -2.6200053    1.1678275   313401 
   65000    1.0101069   -2.6204348   -2.6204348    -1.452803   0.06117694   -2.6204348    1.1676318   313401 
   66000    1.0099667   -2.6198394   -2.6198394   -1.4523697  0.065254548   -2.6198394    1.1674697   313401 
   67000    1.0100032    -2.619907    -2.619907    -1.452395  0.058513321    -2.619907     1.167512   313401 
   68000    1.0097096   -2.6202551   -2.6202551   -1.4530825  0.048231836   -2.6202551    1.1671726   313401 
   69000    1.0093112   -2.6185779   -2.6185779   -1.4518659  0.056815756   -2.6185779     1.166712   313401 
   70000    1.0094479   -2.6181968   -2.6181968   -1.4513267  0.065980133   -2.6181968    1.1668701   313401 
   71000    1.0081884    -2.618356    -2.618356   -1.4529419  0.062317974    -2.618356    1.1654141   313401 
   72000    1.0089231   -2.6190582   -2.6190582   -1.4527948  0.066041933   -2.6190582    1.1662634   313401 
   73000    1.0100984    -2.620901    -2.620901    -1.453279  0.052597275    -2.620901    1.1676219   313401 
   74000    1.0095196    -2.620662    -2.620662    -1.453709  0.063109797    -2.620662     1.166953   313401 
   75000    1.0107287   -2.6214228   -2.6214228   -1.4530722  0.061137051   -2.6214228    1.1683506   313401 
   76000    1.0096236   -2.6201453   -2.6201453   -1.4530722  0.062666218   -2.6201453    1.1670731   313401 
   77000    1.0084239    -2.620124    -2.620124   -1.4544377  0.059350391    -2.620124    1.1656863   313401 
   78000    1.0089193   -2.6208977   -2.6208977   -1.4546387  0.058510166   -2.6208977     1.166259   313401 
   79000    1.0056901   -2.6178441   -2.6178441   -1.4553178  0.054401773   -2.6178441    1.1625262   313401 
   80000    1.0079063   -2.6198806   -2.6198806   -1.4547925   0.05623174   -2.6198806    1.1650881   313401 
   81000    1.0092809   -2.6224137   -2.6224137   -1.4557366  0.060906999   -2.6224137     1.166677   313401 
   82000    1.0056415   -2.6194034   -2.6194034   -1.4569334  0.061557383   -2.6194034      1.16247   313401 
   83000    1.0075345   -2.6207673   -2.6207673    -1.456109  0.067768568   -2.6207673    1.1646583   313401 
   84000    1.0076118   -2.6218199   -2.6218199   -1.4570723   0.05917095   -2.6218199    1.1647476   313401 
   85000    1.0058601   -2.6204428   -2.6204428     -1.45772  0.050157558   -2.6204428    1.1627228   313401 
   86000    1.0059619   -2.6203736   -2.6203736   -1.4575331  0.057850045   -2.6203736    1.1628404   313401 
   87000    1.0070632   -2.6218903   -2.6218903   -1.4577769  0.047572302   -2.6218903    1.1641134   313401 
   88000    1.0075867   -2.6213386   -2.6213386     -1.45662  0.060888608   -2.6213386    1.1647186   313401 
   89000      1.00941   -2.6230817   -2.6230817   -1.4562555  0.065147468   -2.6230817    1.1668262   313401 
   90000    1.0106491   -2.6243809   -2.6243809   -1.4561223   0.06047965   -2.6243809    1.1682586   313401 
   91000    1.0108198   -2.6231091   -2.6231091   -1.4546532   0.06306269   -2.6231091    1.1684559   313401 
   92000     1.010924   -2.6245034   -2.6245034    -1.455927  0.061231931   -2.6245034    1.1685764   313401 
   93000    1.0093481   -2.6228447   -2.6228447     -1.45609  0.047533777   -2.6228447    1.1667547   313401 
   94000     1.009273   -2.6224424   -2.6224424   -1.4557744  0.065163713   -2.6224424    1.1666679   313401 
   95000    1.0111984   -2.6255241   -2.6255241   -1.4566306  0.060449542   -2.6255241    1.1688936   313401 
   96000    1.0091483    -2.623123    -2.623123   -1.4565993  0.069907071    -2.623123    1.1665238   313401 
   97000    1.0092471   -2.6237825   -2.6237825   -1.4571446  0.059916839   -2.6237825    1.1666379   313401 
   98000    1.0124323    -2.625596    -2.625596   -1.4552762   0.06788577    -2.625596    1.1703198   313401 
   99000    1.0100325   -2.6251054   -2.6251054   -1.4575596  0.073386625   -2.6251054    1.1675458   313401 
  100000    1.0096626   -2.6245031   -2.6245031   -1.4573849   0.06055305   -2.6245031    1.1671182   313401 
  101000    1.0108736   -2.6263957   -2.6263957   -1.4578777   0.07586696   -2.6263957     1.168518   313401 
  102000    1.0098191   -2.6257297   -2.6257297   -1.4584305  0.064438475   -2.6257297    1.1672992   313401 
  103000    1.0101697   -2.6263824   -2.6263824   -1.4586779  0.060258769   -2.6263824    1.1677045   313401 
  104000    1.0089535   -2.6255675   -2.6255675   -1.4592689  0.057537998   -2.6255675    1.1662986   313401 
  105000    1.0092828   -2.6275571   -2.6275571   -1.4608779  0.068582352   -2.6275571    1.1666792   313401 
  106000    1.0093028   -2.6277336   -2.6277336   -1.4610313   0.05572578   -2.6277336    1.1667023   313401 
  107000     1.009226   -2.6287031   -2.6287031   -1.4620896   0.05591088   -2.6287031    1.1666136   313401 
  108000    1.0076154   -2.6259749   -2.6259749   -1.4612231  0.066656718   -2.6259749    1.1647518   313401 
  109000     1.008694    -2.626423    -2.626423   -1.4604245  0.064174194    -2.626423    1.1659986   313401 
  110000    1.0108746   -2.6278237   -2.6278237   -1.4593045  0.071934527   -2.6278237    1.1685192   313401 
  111000    1.0109808   -2.6276504   -2.6276504   -1.4590083  0.054962029   -2.6276504     1.168642   313401 
  112000    1.0112785   -2.6293416   -2.6293416   -1.4603555   0.06133254   -2.6293416    1.1689861   313401 
  113000    1.0098359   -2.6282781   -2.6282781   -1.4609595  0.055051667   -2.6282781    1.1673185   313401 
  114000    1.0077346   -2.6249196   -2.6249196   -1.4600301  0.066382418   -2.6249196    1.1648895   313401 
  115000    1.0088594   -2.6261824   -2.6261824   -1.4599927  0.056868066   -2.6261824    1.1661897   313401 
  116000    1.0095159   -2.6260147   -2.6260147    -1.459066  0.056720988   -2.6260147    1.1669487   313401 
  117000    1.0099103   -2.6266713   -2.6266713   -1.4592668  0.068571251   -2.6266713    1.1674045   313401 
  118000    1.0098889   -2.6273291   -2.6273291   -1.4599493  0.072672079   -2.6273291    1.1673799   313401 
  119000    1.0091176    -2.625663    -2.625663   -1.4591748  0.060406036    -2.625663    1.1664882   313401 
  120000    1.0072547   -2.6239974   -2.6239974   -1.4596626  0.056503854   -2.6239974    1.1643348   313401 
  121000    1.0095898    -2.626629    -2.626629   -1.4595949  0.048858668    -2.626629     1.167034   313401 
  122000    1.0079007    -2.625721    -2.625721   -1.4606394  0.060178671    -2.625721    1.1650816   313401 
  123000    1.0090618   -2.6269976   -2.6269976   -1.4605738  0.053448252   -2.6269976    1.1664238   313401 
  124000    1.0093765   -2.6277526   -2.6277526   -1.4609651  0.047176469   -2.6277526    1.1667875   313401 
  125000    1.0103482   -2.6284839   -2.6284839   -1.4605731  0.061092991   -2.6284839    1.1679108   313401 
  126000    1.0089947   -2.6275217   -2.6275217   -1.4611755  0.049523556   -2.6275217    1.1663462   313401 
  127000    1.0093015   -2.6276075   -2.6276075   -1.4609066  0.052955488   -2.6276075    1.1667009   313401 
  128000    1.0073923   -2.6262101   -2.6262101   -1.4617163  0.064206995   -2.6262101    1.1644939   313401 
  129000    1.0044764   -2.6225318   -2.6225318   -1.4614085  0.053394179   -2.6225318    1.1611233   313401 
  130000    1.0058281   -2.6235333   -2.6235333   -1.4608476  0.056301722   -2.6235333    1.1626857   313401 
  131000    1.0096027   -2.6277796   -2.6277796   -1.4607305  0.053880502   -2.6277796     1.167049   313401 
  132000    1.0070415   -2.6264836   -2.6264836   -1.4623952  0.051345077   -2.6264836    1.1640884   313401 
  133000      1.00734   -2.6265659   -2.6265659   -1.4621325  0.045685781   -2.6265659    1.1644334   313401 
  134000     1.005419   -2.6258153   -2.6258153   -1.4636025  0.063812128   -2.6258153    1.1622128   313401 
  135000     1.007212   -2.6273473   -2.6273473   -1.4630619  0.055334055   -2.6273473    1.1642855   313401 
  136000    1.0061657   -2.6265076   -2.6265076   -1.4634317  0.047967335   -2.6265076     1.163076   313401 
  137000    1.0068845   -2.6267521   -2.6267521   -1.4628451  0.065032877   -2.6267521    1.1639069   313401 
  138000    1.0070315   -2.6279867   -2.6279867   -1.4639099  0.058212926   -2.6279867    1.1640768   313401 
  139000    1.0065126   -2.6265129   -2.6265129    -1.463036  0.060504976   -2.6265129    1.1634769   313401 
  140000    1.0064996   -2.6262289   -2.6262289    -1.462767  0.047552415   -2.6262289    1.1634619   313401 
  141000    1.0062688   -2.6254818   -2.6254818   -1.4622866  0.049862505   -2.6254818    1.1631952   313401 
  142000    1.0055478   -2.6239123   -2.6239123   -1.4615505  0.045704019   -2.6239123    1.1623618   313401 
  143000    1.0069435   -2.6254643   -2.6254643   -1.4614892  0.064165274   -2.6254643     1.163975   313401 
  144000    1.0080099   -2.6267095   -2.6267095   -1.4615017  0.052351482   -2.6267095    1.1652078   313401 
  145000     1.008787   -2.6276956   -2.6276956   -1.4615895    0.0605711   -2.6276956    1.1661061   313401 
  146000    1.0084243    -2.626516    -2.626516   -1.4608291  0.066835516    -2.626516    1.1656869   313401 
  147000    1.0097888   -2.6275197   -2.6275197   -1.4602556  0.053671047   -2.6275197    1.1672641   313401 
  148000    1.0097291   -2.6293179   -2.6293179   -1.4621228  0.061676641   -2.6293179    1.1671951   313401 
  149000    1.0093459   -2.6282044   -2.6282044   -1.4614523  0.055807716   -2.6282044    1.1667521   313401 
  150000    1.0089612   -2.6287304   -2.6287304    -1.462423  0.073086339   -2.6287304    1.1663074   313401 
  151000     1.010732   -2.6301091   -2.6301091   -1.4617547  0.051474344   -2.6301091    1.1683544   313401 
  152000     1.008662   -2.6290077   -2.6290077   -1.4630461  0.057174516   -2.6290077    1.1659616   313401 
  153000    1.0074216   -2.6283227   -2.6283227   -1.4637949  0.053647396   -2.6283227    1.1645277   313401 
  154000     1.008922   -2.6294216   -2.6294216   -1.4631595  0.057647161   -2.6294216    1.1662621   313401 
  155000     1.010532   -2.6307394   -2.6307394   -1.4626161  0.060476628   -2.6307394    1.1681233   313401 
  156000    1.0100488   -2.6308846   -2.6308846     -1.46332  0.061276584   -2.6308846    1.1675647   313401 
  157000    1.0090311   -2.6296702   -2.6296702    -1.463282  0.061367854   -2.6296702    1.1663882   313401 
  158000    1.0103514   -2.6306195   -2.6306195    -1.462705  0.070126852   -2.6306195    1.1679145   313401 
  159000    1.0102144   -2.6308149   -2.6308149   -1.4630588   0.06108506   -2.6308149    1.1677561   313401 
  160000    1.0097816   -2.6304174   -2.6304174   -1.4631616  0.059795187   -2.6304174    1.1672558   313401 
  161000    1.0096261    -2.629186    -2.629186     -1.46211  0.054466819    -2.629186     1.167076   313401 
  162000    1.0082509   -2.6283585   -2.6283585   -1.4628721  0.053792681   -2.6283585    1.1654864   313401 
  163000    1.0080166   -2.6270534   -2.6270534   -1.4618379  0.069244513   -2.6270534    1.1652155   313401 
  164000    1.0116541   -2.6311157   -2.6311157   -1.4616953  0.057750566   -2.6311157    1.1694203   313401 
  165000    1.0090456   -2.6292144   -2.6292144   -1.4628094  0.051801632   -2.6292144    1.1664051   313401 
  166000    1.0087787   -2.6288083   -2.6288083   -1.4627119  0.065184254   -2.6288083    1.1660964   313401 
  167000    1.0098451   -2.6303011   -2.6303011   -1.4629719  0.058152838   -2.6303011    1.1673292   313401 
  168000    1.0104184    -2.631172    -2.631172     -1.46318  0.048247503    -2.631172    1.1679919   313401 
  169000    1.0078388   -2.6280372   -2.6280372   -1.4630271  0.059354323   -2.6280372    1.1650101   313401 
  170000    1.0092109   -2.6282902   -2.6282902   -1.4616941  0.062429775   -2.6282902     1.166596   313401 
  171000    1.0088886   -2.6289298   -2.6289298   -1.4627063  0.049691687   -2.6289298    1.1662235   313401 
  172000    1.0085063   -2.6305153   -2.6305153   -1.4647337   0.05368411   -2.6305153    1.1657816   313401 
  173000    1.0077376   -2.6300881   -2.6300881    -1.465195   0.06553073   -2.6300881     1.164893   313401 
  174000    1.0047237   -2.6264126   -2.6264126   -1.4650035  0.068716305   -2.6264126    1.1614091   313401 
  175000    1.0070431   -2.6286358   -2.6286358   -1.4645455  0.050897761   -2.6286358    1.1640903   313401 
  176000    1.0071055   -2.6293184   -2.6293184   -1.4651561  0.056402215   -2.6293184    1.1641623   313401 
  177000    1.0063429    -2.628347    -2.628347   -1.4650662  0.054604052    -2.628347    1.1632808   313401 
  178000    1.0049534     -2.62781     -2.62781   -1.4661354   0.05170378     -2.62781    1.1616747   313401 
  179000    1.0067917    -2.629369    -2.629369   -1.4655694  0.059380966    -2.629369    1.1637996   313401 
  180000    1.0067497   -2.6285665   -2.6285665   -1.4648154  0.074500438   -2.6285665    1.1637511   313401 
  181000    1.0063403   -2.6285418   -2.6285418    -1.465264  0.065675867   -2.6285418    1.1632778   313401 
  182000    1.0077528    -2.630876    -2.630876   -1.4659653  0.058388645    -2.630876    1.1649107   313401 
  183000    1.0064689   -2.6290315   -2.6290315    -1.465605  0.068587019   -2.6290315    1.1634264   313401 
  184000    1.0068413   -2.6289773   -2.6289773   -1.4651204  0.066114145   -2.6289773    1.1638569   313401 
  185000    1.0070908   -2.6308024   -2.6308024    -1.466657  0.055748483   -2.6308024    1.1641454   313401 
  186000     1.007287   -2.6308769   -2.6308769   -1.4665047  0.063633531   -2.6308769    1.1643722   313401 
  187000    1.0087102   -2.6334081   -2.6334081   -1.4673908  0.069772283   -2.6334081    1.1660173   313401 
  188000    1.0053117   -2.6306555   -2.6306555   -1.4685666  0.051468948   -2.6306555    1.1620888   313401 
  189000    1.0071898   -2.6326687   -2.6326687   -1.4684089  0.050306816   -2.6326687    1.1642598   313401 
  190000    1.0069702   -2.6312448   -2.6312448   -1.4672388  0.064940229   -2.6312448     1.164006   313401 
  191000    1.0069702   -2.6324527   -2.6324527   -1.4684467  0.058341322   -2.6324527     1.164006   313401 
  192000    1.0088711   -2.6344101   -2.6344101   -1.4682069  0.067393233   -2.6344101    1.1662033   313401 
  193000    1.0069533   -2.6335071   -2.6335071   -1.4695207  0.052170406   -2.6335071    1.1639864   313401 
  194000    1.0091599   -2.6341418   -2.6341418   -1.4676047  0.059557037   -2.6341418    1.1665371   313401 
  195000    1.0063298   -2.6316714   -2.6316714   -1.4684057  0.051561579   -2.6316714    1.1632657   313401 
  196000    1.0074093   -2.6329457   -2.6329457   -1.4684321  0.058647405   -2.6329457    1.1645136   313401 
  197000    1.0068004   -2.6332661   -2.6332661   -1.4694564  0.072439002   -2.6332661    1.1638097   313401 
  198000    1.0069296    -2.633414    -2.633414    -1.469455  0.047962807    -2.633414    1.1639591   313401 
  199000    1.0077211   -2.6338823   -2.6338823   -1.4690084  0.062522059   -2.6338823     1.164874   313401 
  200000    1.0096515   -2.6361367   -2.6361367   -1.4690313  0.058969259   -2.6361367    1.1671055   313401 
  201000     1.009278   -2.6350203   -2.6350203   -1.4683467  0.066144094   -2.6350203    1.1666736   313401 
  202000    1.0118868   -2.6374688   -2.6374688   -1.4677795  0.069429971   -2.6374688    1.1696893   313401 
  203000    1.0100115   -2.6350042   -2.6350042   -1.4674826  0.063232343   -2.6350042    1.1675216   313401 
  204000    1.0096563   -2.6347631   -2.6347631   -1.4676521  0.059533386   -2.6347631    1.1671109   313401 
  205000    1.0113181   -2.6381538   -2.6381538   -1.4691219  0.067211957   -2.6381538    1.1690319   313401 
  206000    1.0072494   -2.6329576   -2.6329576   -1.4686289  0.061187361   -2.6329576    1.1643286   313401 
  207000    1.0078508   -2.6342037   -2.6342037   -1.4691798  0.061713662   -2.6342037    1.1650239   313401 
  208000    1.0087952   -2.6350985   -2.6350985   -1.4689829  0.058070691   -2.6350985    1.1661156   313401 
  209000    1.0084961   -2.6349467   -2.6349467   -1.4691769   0.06206743   -2.6349467    1.1657698   313401 
  210000     1.008186   -2.6352382   -2.6352382   -1.4698268  0.068739089   -2.6352382    1.1654114   313401 
  211000    1.0087782   -2.6356143   -2.6356143   -1.4695183   0.05666739   -2.6356143     1.166096   313401 
  212000    1.0106558   -2.6359977   -2.6359977   -1.4677314  0.052125206   -2.6359977    1.1682663   313401 
  213000    1.0088712   -2.6338661   -2.6338661   -1.4676627  0.078085802   -2.6338661    1.1662034   313401 
  214000    1.0093657   -2.6341875   -2.6341875   -1.4674125  0.061726433   -2.6341875     1.166775   313401 
  215000     1.006637   -2.6322665   -2.6322665   -1.4686457  0.061190246   -2.6322665    1.1636208   313401 
  216000    1.0060751   -2.6312708   -2.6312708   -1.4682995  0.071837132   -2.6312708    1.1629713   313401 
  217000    1.0074914   -2.6321858   -2.6321858   -1.4675774  0.062131328   -2.6321858    1.1646085   313401 
  218000    1.0075065   -2.6311671   -2.6311671   -1.4665413  0.054996082   -2.6311671    1.1646259   313401 
  219000    1.0079037   -2.6332244   -2.6332244   -1.4681394  0.059579069   -2.6332244     1.165085   313401 
  220000    1.0077635   -2.6329175   -2.6329175   -1.4679946  0.076282689   -2.6329175     1.164923   313401 
  221000    1.0082328    -2.634009    -2.634009   -1.4685435  0.056874956    -2.634009    1.1654655   313401 
  222000    1.0053276   -2.6311714   -2.6311714   -1.4690643  0.073688631   -2.6311714    1.1621072   313401 
  223000    1.0063658   -2.6323325   -2.6323325   -1.4690252  0.055740513   -2.6323325    1.1633073   313401 
  224000    1.0060426   -2.6322044   -2.6322044   -1.4692706  0.060777053   -2.6322044    1.1629337   313401 
  225000    1.0061947    -2.630768    -2.630768   -1.4676585  0.062092687    -2.630768    1.1631095   313401 
  226000    1.0062161   -2.6312106   -2.6312106   -1.4680764  0.053073321   -2.6312106    1.1631342   313401 
  227000    1.0069984   -2.6323344   -2.6323344   -1.4682958  0.057863325   -2.6323344    1.1640386   313401 
  228000    1.0057613   -2.6310265   -2.6310265   -1.4684179  0.054077341   -2.6310265    1.1626085   313401 
  229000    1.0053689   -2.6308035   -2.6308035   -1.4686486   0.05947794   -2.6308035    1.1621549   313401 
  230000    1.0071376   -2.6327251   -2.6327251   -1.4685257  0.042527953   -2.6327251    1.1641995   313401 
  231000    1.0074656    -2.632523    -2.632523   -1.4679443  0.057106835    -2.632523    1.1645787   313401 
  232000     1.006571   -2.6319698   -2.6319698   -1.4684252  0.058529777   -2.6319698    1.1635445   313401 
  233000    1.0085268   -2.6326547   -2.6326547   -1.4668493  0.060549327   -2.6326547    1.1658054   313401 
  234000    1.0073726   -2.6318218   -2.6318218   -1.4673506  0.056398036   -2.6318218    1.1644712   313401 
  235000    1.0096801   -2.6344615   -2.6344615   -1.4673231   0.06102711   -2.6344615    1.1671384   313401 
  236000    1.0068996   -2.6320966   -2.6320966   -1.4681722  0.054231565   -2.6320966    1.1639244   313401 
  237000    1.0067762   -2.6323928   -2.6323928   -1.4686112  0.067508448   -2.6323928    1.1637817   313401 
  238000    1.0092077   -2.6347375   -2.6347375   -1.4681451  0.056586994   -2.6347375    1.1665924   313401 
  239000    1.0087827    -2.633289    -2.633289   -1.4671879  0.063524264    -2.633289    1.1661012   313401 
  240000    1.0105515   -2.6362765   -2.6362765   -1.4681307  0.067817271   -2.6362765    1.1681458   313401 
  241000    1.0093404   -2.6346948   -2.6346948    -1.467949  0.055992124   -2.6346948    1.1667458   313401 
  242000    1.0082069   -2.6336511   -2.6336511   -1.4682155  0.073040356   -2.6336511    1.1654356   313401 
  243000    1.0087901   -2.6351787   -2.6351787    -1.469069   0.06276668   -2.6351787    1.1661097   313401 
  244000    1.0086885   -2.6352161   -2.6352161   -1.4692238  0.069272383   -2.6352161    1.1659923   313401 
  245000    1.0090512   -2.6354609   -2.6354609   -1.4690495  0.071780047   -2.6354609    1.1664114   313401 
  246000    1.0095166   -2.6376522   -2.6376522   -1.4707027  0.067807091   -2.6376522    1.1669495   313401 
  247000    1.0091563   -2.6371026   -2.6371026   -1.4705696  0.059328835   -2.6371026     1.166533   313401 
  248000    1.0081632   -2.6361536   -2.6361536   -1.4707686  0.076932541   -2.6361536     1.165385   313401 
  249000    1.0099988   -2.6384349   -2.6384349   -1.4709281  0.059275352   -2.6384349    1.1675069   313401 
  250000    1.0093148    -2.637702    -2.637702   -1.4709858   0.06299502    -2.637702    1.1667163   313401 
  251000    1.0087249   -2.6371476   -2.6371476   -1.4711133  0.053325904   -2.6371476    1.1660344   313401 
  252000    1.0086998   -2.6384259   -2.6384259   -1.4724205  0.069731033   -2.6384259    1.1660053   313401 
  253000    1.0089823   -2.6387291   -2.6387291   -1.4723973   0.06619586   -2.6387291    1.1663318   313401 
  254000    1.0064166   -2.6343975   -2.6343975   -1.4710314  0.053701899   -2.6343975     1.163366   313401 
  255000    1.0061506   -2.6355844   -2.6355844   -1.4725258  0.061055596   -2.6355844    1.1630586   313401 
  256000    1.0062576   -2.6355054   -2.6355054   -1.4723232  0.065814643   -2.6355054    1.1631822   313401 
  257000    1.0079208   -2.6381208   -2.6381208    -1.473016  0.070078541   -2.6381208    1.1651048   313401 
  258000    1.0085414   -2.6383629   -2.6383629   -1.4725406  0.056749976   -2.6383629    1.1658222   313401 
  259000    1.0088077    -2.637247    -2.637247    -1.471117  0.055942717    -2.637247    1.1661301   313401 
  260000     1.008833   -2.6375842   -2.6375842    -1.471425   0.05663238   -2.6375842    1.1661593   313401 
  261000    1.0077559   -2.6353589   -2.6353589   -1.4704447  0.069253715   -2.6353589    1.1649142   313401 
  262000    1.0090126    -2.636876    -2.636876   -1.4705092  0.069171086    -2.636876    1.1663669   313401 
  263000    1.0100253   -2.6374561   -2.6374561   -1.4699186  0.062994733   -2.6374561    1.1675375   313401 
  264000    1.0103636   -2.6378175   -2.6378175   -1.4698889  0.060804143   -2.6378175    1.1679286   313401 
  265000    1.0082328   -2.6370137   -2.6370137   -1.4715482  0.056523675   -2.6370137    1.1654655   313401 
  266000    1.0103642   -2.6386183   -2.6386183   -1.4706891  0.056952041   -2.6386183    1.1679292   313401 
  267000    1.0076631   -2.6357033   -2.6357033   -1.4708964  0.064400057   -2.6357033    1.1648069   313401 
  268000    1.0092108   -2.6371403   -2.6371403   -1.4705444  0.058455673   -2.6371403    1.1665959   313401 
  269000    1.0095824    -2.638693    -2.638693   -1.4716675  0.061999595    -2.638693    1.1670255   313401 
  270000    1.0088814   -2.6397419   -2.6397419   -1.4735266  0.049459674   -2.6397419    1.1662153   313401 
  271000    1.0071399   -2.6367843   -2.6367843   -1.4725821  0.051347751   -2.6367843    1.1642021   313401 
  272000     1.006506   -2.6345438   -2.6345438   -1.4710744  0.051034374   -2.6345438    1.1634694   313401 
  273000     1.007455   -2.6353829   -2.6353829   -1.4708166  0.054454898   -2.6353829    1.1645663   313401 
  274000    1.0071701   -2.6351357   -2.6351357   -1.4708986  0.066039036   -2.6351357    1.1642371   313401 
  275000    1.0073002   -2.6365626   -2.6365626   -1.4721752  0.066652705   -2.6365626    1.1643874   313401 
  276000    1.0053984   -2.6354874   -2.6354874   -1.4732984  0.061865442   -2.6354874     1.162189   313401 
  277000    1.0071683   -2.6373814   -2.6373814   -1.4731465  0.056004795   -2.6373814    1.1642349   313401 
  278000    1.0052173   -2.6351196   -2.6351196   -1.4731399  0.058056346   -2.6351196    1.1619797   313401 
  279000    1.0054979   -2.6367381   -2.6367381    -1.474434  0.061122335   -2.6367381    1.1623041   313401 
  280000    1.0036583   -2.6342662   -2.6342662   -1.4740887  0.060539695   -2.6342662    1.1601775   313401 
  281000       1.0054   -2.6352614   -2.6352614   -1.4730705  0.060563563   -2.6352614    1.1621909   313401 
  282000    1.0081074   -2.6386365   -2.6386365    -1.473316  0.049305901   -2.6386365    1.1653205   313401 
  283000    1.0076361   -2.6394666   -2.6394666   -1.4746909  0.052936339   -2.6394666    1.1647757   313401 
  284000    1.0044222   -2.6356965   -2.6356965   -1.4746359  0.057632377   -2.6356965    1.1610606   313401 
  285000     1.005579   -2.6365549   -2.6365549   -1.4741571  0.062405558   -2.6365549    1.1623978   313401 
  286000    1.0054655    -2.636977    -2.636977   -1.4747104  0.062743245    -2.636977    1.1622666   313401 
  287000     1.004391   -2.6353822   -2.6353822   -1.4743576  0.062025571   -2.6353822    1.1610246   313401 
  288000    1.0051715   -2.6361462   -2.6361462   -1.4742195  0.064623461   -2.6361462    1.1619267   313401 
  289000     1.006717   -2.6381627   -2.6381627   -1.4744494  0.063681478   -2.6381627    1.1637133   313401 
  290000     1.009804   -2.6413453   -2.6413453   -1.4740635  0.061980968   -2.6413453    1.1672817   313401 
  291000    1.0068183   -2.6371941   -2.6371941   -1.4733638  0.072881766   -2.6371941    1.1638303   313401 
  292000    1.0094242   -2.6398547   -2.6398547   -1.4730121  0.070437887   -2.6398547    1.1668426   313401 
  293000    1.0071659   -2.6374516   -2.6374516   -1.4732195  0.061206915   -2.6374516    1.1642321   313401 
  294000    1.0081747   -2.6394594   -2.6394594   -1.4740612  0.068488982   -2.6394594    1.1653983   313401 
  295000    1.0089535   -2.6404916   -2.6404916   -1.4741931  0.066486697   -2.6404916    1.1662985   313401 
  296000    1.0095023   -2.6405792   -2.6405792   -1.4736462  0.056054557   -2.6405792     1.166933   313401 
  297000      1.00833   -2.6401664   -2.6401664   -1.4745886  0.064118491   -2.6401664    1.1655778   313401 
  298000    1.0088164   -2.6409913   -2.6409913   -1.4748511  0.056932121   -2.6409913    1.1661401   313401 
  299000    1.0073369    -2.639437    -2.639437   -1.4750072  0.067722805    -2.639437    1.1644299   313401 
  300000    1.0085313   -2.6418843   -2.6418843   -1.4760738  0.066544492   -2.6418843    1.1658105   313401 
  301000    1.0076689   -2.6406591   -2.6406591   -1.4758455  0.051692022   -2.6406591    1.1648136   313401 
  302000    1.0070873   -2.6405186   -2.6405186   -1.4763773  0.065102023   -2.6405186    1.1641414   313401 
  303000    1.0057921   -2.6396934   -2.6396934   -1.4770492  0.054716829   -2.6396934    1.1626442   313401 
  304000    1.0034062   -2.6362636   -2.6362636   -1.4763775  0.064270796   -2.6362636    1.1598861   313401 
  305000    1.0066787   -2.6401445   -2.6401445   -1.4764754  0.059133779   -2.6401445    1.1636691   313401 
  306000    1.0049832   -2.6371434   -2.6371434   -1.4754343  0.061484324   -2.6371434    1.1617091   313401 
  307000    1.0040161   -2.6358434   -2.6358434   -1.4752522  0.070339201   -2.6358434    1.1605912   313401 
  308000      1.00814   -2.6411605   -2.6411605   -1.4758023  0.052797561   -2.6411605    1.1653582   313401 
  309000    1.0076275   -2.6404913   -2.6404913   -1.4757256  0.062330748   -2.6404913    1.1647657   313401 
  310000    1.0076306   -2.6395202   -2.6395202   -1.4747508  0.057724896   -2.6395202    1.1647694   313401 
  311000    1.0056409    -2.637545    -2.637545   -1.4750757  0.059569757    -2.637545    1.1624693   313401 
  312000    1.0025846     -2.63499     -2.63499   -1.4760535  0.052916777     -2.63499    1.1589365   313401 
  313000     1.005206   -2.6377984   -2.6377984   -1.4758318   0.06310206   -2.6377984    1.1619666   313401 
  314000    1.0056472   -2.6385082   -2.6385082   -1.4760316  0.058987327   -2.6385082    1.1624766   313401 
  315000    1.0062449   -2.6386894   -2.6386894   -1.4755219  0.066009443   -2.6386894    1.1631675   313401 
  316000    1.0058495   -2.6389035   -2.6389035    -1.476193  0.055556703   -2.6389035    1.1627105   313401 
  317000    1.0042626   -2.6364756   -2.6364756   -1.4755996  0.061024138   -2.6364756    1.1608761   313401 
  318000    1.0026797   -2.6355951   -2.6355951   -1.4765487  0.048916978   -2.6355951    1.1590463   313401 
  319000    1.0040774   -2.6378268   -2.6378268   -1.4771647  0.057976518   -2.6378268    1.1606621   313401 
  320000    1.0025469   -2.6357154   -2.6357154   -1.4768225  0.058211202   -2.6357154    1.1588929   313401 
  321000    1.0043953   -2.6378943   -2.6378943   -1.4768648   0.06519248   -2.6378943    1.1610295   313401 
  322000    1.0048497   -2.6384117   -2.6384117    -1.476857  0.056532265   -2.6384117    1.1615548   313401 
  323000    1.0049281   -2.6389615   -2.6389615   -1.4773161  0.059527979   -2.6389615    1.1616454   313401 
  324000    1.0069233   -2.6415693   -2.6415693   -1.4776176  0.062498959   -2.6415693    1.1639517   313401 
  325000    1.0063384   -2.6427026   -2.6427026   -1.4794269   0.06260791   -2.6427026    1.1632756   313401 
  326000     1.005335   -2.6400879   -2.6400879   -1.4779721  0.063690802   -2.6400879    1.1621158   313401 
  327000    1.0054139   -2.6399883   -2.6399883   -1.4777813  0.059631005   -2.6399883     1.162207   313401 
  328000    1.0054887   -2.6403416   -2.6403416   -1.4780481  0.065123505   -2.6403416    1.1622934   313401 
  329000    1.0083933   -2.6423886   -2.6423886   -1.4767376  0.071961751   -2.6423886    1.1656509   313401 
  330000    1.0071693   -2.6423158   -2.6423158   -1.4780797  0.068228993   -2.6423158    1.1642361   313401 
  331000    1.0078766   -2.6415102   -2.6415102   -1.4764565   0.05910388   -2.6415102    1.1650537   313401 
  332000    1.0085807   -2.6427048   -2.6427048   -1.4768372  0.066476682   -2.6427048    1.1658676   313401 
  333000    1.0087215   -2.6440004   -2.6440004     -1.47797  0.067721132   -2.6440004    1.1660304   313401 
  334000    1.0098941    -2.644168    -2.644168   -1.4767821  0.057020205    -2.644168    1.1673859   313401 
  335000    1.0083114   -2.6433417   -2.6433417   -1.4777854  0.069491741   -2.6433417    1.1655563   313401 
  336000     1.005787   -2.6412867   -2.6412867   -1.4786484  0.065076179   -2.6412867    1.1626383   313401 
  337000      1.00662   -2.6425679   -2.6425679   -1.4789668  0.066103756   -2.6425679    1.1636012   313401 
  338000    1.0051498   -2.6422147   -2.6422147    -1.480313  0.060818956   -2.6422147    1.1619017   313401 
  339000    1.0047305   -2.6422764   -2.6422764   -1.4808594  0.064931655   -2.6422764     1.161417   313401 
  340000    1.0042023   -2.6418712   -2.6418712   -1.4810648  0.057632082   -2.6418712    1.1608064   313401 
  341000    1.0072226   -2.6449779   -2.6449779   -1.4806803  0.064871438   -2.6449779    1.1642977   313401 
  342000    1.0055289   -2.6436169   -2.6436169    -1.481277   0.05759919   -2.6436169    1.1623399   313401 
  343000    1.0044992   -2.6411722   -2.6411722   -1.4800226  0.066030832   -2.6411722    1.1611496   313401 
  344000    1.0044342   -2.6418463   -2.6418463   -1.4807718  0.066338393   -2.6418463    1.1610745   313401 
  345000    1.0076735   -2.6452576   -2.6452576   -1.4804386  0.056173814   -2.6452576     1.164819   313401 
  346000    1.0073113   -2.6455648   -2.6455648   -1.4811645  0.060179835   -2.6455648    1.1644003   313401 
  347000    1.0068852   -2.6456727   -2.6456727   -1.4817649  0.070621107   -2.6456727    1.1639077   313401 
  348000     1.005453   -2.6441976   -2.6441976   -1.4819454  0.061748808   -2.6441976    1.1622522   313401 
  349000     1.007078   -2.6463195   -2.6463195   -1.4821888  0.054661577   -2.6463195    1.1641306   313401 
  350000    1.0072941   -2.6454259   -2.6454259   -1.4810455  0.072475493   -2.6454259    1.1643803   313401 
  351000     1.005894   -2.6436852   -2.6436852   -1.4809232  0.067890771   -2.6436852     1.162762   313401 
  352000    1.0053135   -2.6424271   -2.6424271   -1.4803362  0.059234294   -2.6424271    1.1620909   313401 
  353000    1.0054393    -2.642357    -2.642357   -1.4801206  0.057264443    -2.642357    1.1622364   313401 
  354000    1.0077878   -2.6446122   -2.6446122   -1.4796611  0.065926768   -2.6446122     1.164951   313401 
  355000    1.0066224   -2.6434477   -2.6434477   -1.4798437  0.062271537   -2.6434477    1.1636039   313401 
  356000    1.0074578   -2.6456796   -2.6456796   -1.4811101   0.05402418   -2.6456796    1.1645696   313401 
  357000    1.0083861    -2.646918    -2.646918   -1.4812753  0.064842569    -2.646918    1.1656427   313401 
  358000     1.006482    -2.644901    -2.644901   -1.4814594  0.062008981    -2.644901    1.1634417   313401 
  359000    1.0074299   -2.6459336   -2.6459336   -1.4813962  0.063363967   -2.6459336    1.1645374   313401 
  360000    1.0042105   -2.6422497   -2.6422497   -1.4814338  0.064495263   -2.6422497    1.1608159   313401 
  361000    1.0045451   -2.6427867   -2.6427867   -1.4815841  0.066866582   -2.6427867    1.1612027   313401 
  362000    1.0009972   -2.6382917   -2.6382917   -1.4811902  0.066250391   -2.6382917    1.1571015   313401 
  363000    1.0060469   -2.6436289   -2.6436289   -1.4806902  0.067054938   -2.6436289    1.1629387   313401 
  364000      1.00709   -2.6449597   -2.6449597   -1.4808154  0.049044433   -2.6449597    1.1641444   313401 
  365000    1.0059334   -2.6439603   -2.6439603   -1.4811528  0.064389157   -2.6439603    1.1628075   313401 
  366000    1.0055401   -2.6445353   -2.6445353   -1.4821825  0.057777263   -2.6445353    1.1623528   313401 
  367000    1.0060251   -2.6443559   -2.6443559   -1.4814425  0.049242337   -2.6443559    1.1629134   313401 
  368000     1.006347   -2.6436501   -2.6436501   -1.4803645  0.069228602   -2.6436501    1.1632856   313401 
  369000    1.0055483   -2.6421808   -2.6421808   -1.4798184  0.067792028   -2.6421808    1.1623624   313401 
  370000    1.0054937   -2.6428118   -2.6428118   -1.4805126  0.056889925   -2.6428118    1.1622992   313401 
  371000    1.0049385   -2.6418925   -2.6418925   -1.4802351   0.06123737   -2.6418925    1.1616574   313401 
  372000    1.0049892   -2.6431569   -2.6431569   -1.4814409  0.063245972   -2.6431569     1.161716   313401 
  373000    1.0063374   -2.6436691   -2.6436691   -1.4803946  0.064308949   -2.6436691    1.1632745   313401 
  374000    1.0055662   -2.6415675   -2.6415675   -1.4791845  0.057104207   -2.6415675     1.162383   313401 
  375000    1.0035056   -2.6405633   -2.6405633   -1.4805623  0.055991193   -2.6405633    1.1600011   313401 
  376000    1.0074436   -2.6437249   -2.6437249   -1.4791717  0.055106295   -2.6437249    1.1645532   313401 
  377000    1.0068317   -2.6427308   -2.6427308    -1.478885  0.064051824   -2.6427308    1.1638458   313401 
  378000    1.0062809    -2.642771    -2.642771   -1.4795618  0.063496234    -2.642771    1.1632092   313401 
  379000    1.0081395   -2.6448939   -2.6448939   -1.4795363  0.053304187   -2.6448939    1.1653576   313401 
  380000    1.0070438   -2.6444235   -2.6444235   -1.4803325  0.060760389   -2.6444235     1.164091   313401 
  381000    1.0093067   -2.6468125   -2.6468125   -1.4801057  0.065555824   -2.6468125    1.1667068   313401 
  382000    1.0066703   -2.6435258   -2.6435258   -1.4798665  0.063849739   -2.6435258    1.1636593   313401 
  383000    1.0080018   -2.6442732   -2.6442732   -1.4790748  0.071206364   -2.6442732    1.1651984   313401 
  384000    1.0065406   -2.6442722   -2.6442722   -1.4807628  0.064445128   -2.6442722    1.1635094   313401 
  385000    1.0074354   -2.6447544   -2.6447544   -1.4802108  0.068129535   -2.6447544    1.1645437   313401 
  386000    1.0095146   -2.6478591   -2.6478591   -1.4809119  0.057099742   -2.6478591    1.1669472   313401 
  387000     1.007133   -2.6467351   -2.6467351   -1.4825409  0.059280213   -2.6467351    1.1641942   313401 
  388000    1.0062162   -2.6449058   -2.6449058   -1.4817715  0.061459545   -2.6449058    1.1631343   313401 
  389000    1.0064364   -2.6445846   -2.6445846   -1.4811956  0.050876909   -2.6445846    1.1633889   313401 
  390000     1.007609    -2.645588    -2.645588   -1.4808436  0.062249399    -2.645588    1.1647444   313401 
  391000    1.0082218   -2.6460858   -2.6460858   -1.4806331  0.065589338   -2.6460858    1.1654527   313401 
  392000    1.0084212   -2.6465157   -2.6465157   -1.4808324  0.061616805   -2.6465157    1.1656833   313401 
  393000    1.0059938   -2.6443315   -2.6443315   -1.4814542  0.059579765   -2.6443315    1.1628773   313401 
  394000    1.0063499    -2.645082    -2.645082   -1.4817932  0.063597359    -2.645082    1.1632889   313401 
  395000    1.0058942   -2.6433259   -2.6433259   -1.4805637  0.078070869   -2.6433259    1.1627622   313401 
  396000    1.0078794   -2.6442818   -2.6442818   -1.4792249  0.071951947   -2.6442818     1.165057   313401 
  397000     1.007558   -2.6452556   -2.6452556   -1.4805702  0.064718552   -2.6452556    1.1646854   313401 
  398000    1.0063706   -2.6435513   -2.6435513   -1.4802384  0.060565432   -2.6435513    1.1633129   313401 
  399000    1.0065125   -2.6437672   -2.6437672   -1.4802903  0.067434877   -2.6437672    1.1634768   313401 
  400000    1.0066885   -2.6426252   -2.6426252   -1.4789449  0.061477414   -2.6426252    1.1636803   313401 
  401000    1.0074683   -2.6456429   -2.6456429   -1.4810612  0.068073487   -2.6456429    1.1645817   313401 
  402000    1.0087261   -2.6463866   -2.6463866   -1.4803509  0.063455843   -2.6463866    1.1660357   313401 
  403000    1.0082846   -2.6470785   -2.6470785   -1.4815532  0.066491136   -2.6470785    1.1655253   313401 
  404000    1.0070859   -2.6455266   -2.6455266   -1.4813868  0.062914711   -2.6455266    1.1641397   313401 
  405000    1.0080143   -2.6460403   -2.6460403   -1.4808273  0.069862134   -2.6460403    1.1652129   313401 
  406000     1.007598   -2.6455622   -2.6455622   -1.4808305  0.066678472   -2.6455622    1.1647316   313401 
  407000    1.0085842   -2.6445519   -2.6445519   -1.4786802  0.058601301   -2.6445519    1.1658716   313401 
  408000    1.0067845   -2.6431512   -2.6431512     -1.47936  0.064043138   -2.6431512    1.1637913   313401 
  409000    1.0062652    -2.643225    -2.643225    -1.480034  0.064210442    -2.643225     1.163191   313401 
  410000     1.007476   -2.6446454   -2.6446454   -1.4800548  0.062055089   -2.6446454    1.1645907   313401 
  411000    1.0071691   -2.6439659   -2.6439659     -1.47973  0.048583232   -2.6439659    1.1642359   313401 
  412000    1.0072773   -2.6449448   -2.6449448   -1.4805838  0.066113214   -2.6449448     1.164361   313401 
  413000    1.0086216   -2.6439376   -2.6439376   -1.4780227  0.070118479   -2.6439376    1.1659149   313401 
  414000    1.0083191   -2.6457362   -2.6457362   -1.4801709  0.071351829   -2.6457362    1.1655653   313401 
  415000    1.0065328   -2.6430576   -2.6430576   -1.4795572  0.078449045   -2.6430576    1.1635003   313401 
  416000    1.0098212   -2.6463488   -2.6463488   -1.4790472  0.064784389   -2.6463488    1.1673015   313401 
  417000    1.0087007   -2.6446033   -2.6446033    -1.478597   0.05475742   -2.6446033    1.1660063   313401 
  418000    1.0075012   -2.6440706   -2.6440706   -1.4794509  0.063297305   -2.6440706    1.1646197   313401 
  419000    1.0059781   -2.6439979   -2.6439979   -1.4811387  0.071442368   -2.6439979    1.1628592   313401 
  420000    1.0043708   -2.6418985   -2.6418985   -1.4808973  0.067765463   -2.6418985    1.1610012   313401 
  421000    1.0042827   -2.6406497   -2.6406497   -1.4797504  0.071016068   -2.6406497    1.1608993   313401 
  422000    1.0053661    -2.641683    -2.641683   -1.4795313  0.058292382    -2.641683    1.1621517   313401 
  423000    1.0061375   -2.6429359   -2.6429359   -1.4798925  0.066318884   -2.6429359    1.1630434   313401 
  424000    1.0069364    -2.643457    -2.643457   -1.4794901  0.066272824    -2.643457    1.1639669   313401 
  425000    1.0061273   -2.6436305   -2.6436305   -1.4805988  0.056250721   -2.6436305    1.1630316   313401 
  426000    1.0040506   -2.6417306   -2.6417306   -1.4810996  0.066360413   -2.6417306     1.160631   313401 
  427000    1.0049226   -2.6433032   -2.6433032   -1.4816642  0.066126547   -2.6433032    1.1616391   313401 
  428000    1.0058291    -2.644962    -2.644962   -1.4822751  0.067291622    -2.644962     1.162687   313401 
  429000    1.0069718   -2.6460047   -2.6460047   -1.4819968  0.067926681   -2.6460047    1.1640078   313401 
  430000    1.0088253   -2.6471771   -2.6471771   -1.4810267  0.056447665   -2.6471771    1.1661504   313401 
  431000    1.0087084   -2.6460229   -2.6460229   -1.4800076  0.066878234   -2.6460229    1.1660153   313401 
  432000    1.0071112   -2.6451208   -2.6451208   -1.4809518  0.057852788   -2.6451208     1.164169   313401 
  433000    1.0080912   -2.6470542   -2.6470542   -1.4817524  0.065327637   -2.6470542    1.1653018   313401 
  434000    1.0053532   -2.6434929   -2.6434929   -1.4813561  0.064236031   -2.6434929    1.1621368   313401 
  435000    1.0079271   -2.6458371   -2.6458371    -1.480725  0.066893103   -2.6458371     1.165112   313401 
  436000    1.0080039     -2.64667     -2.64667   -1.4814691  0.068843127     -2.64667    1.1652009   313401 
  437000    1.0072284   -2.6454672   -2.6454672   -1.4811628  0.055892108   -2.6454672    1.1643045   313401 
  438000    1.0082902   -2.6460193   -2.6460193   -1.4804875  0.063892118   -2.6460193    1.1655318   313401 
  439000     1.008025   -2.6452377   -2.6452377   -1.4800125   0.07791931   -2.6452377    1.1652252   313401 
  440000    1.0085482   -2.6451597   -2.6451597   -1.4793297  0.074253343   -2.6451597      1.16583   313401 
  441000    1.0102725    -2.647409    -2.647409   -1.4795857  0.066984031    -2.647409    1.1678233   313401 
  442000    1.0082528   -2.6458171   -2.6458171   -1.4803285  0.079508974   -2.6458171    1.1654886   313401 
  443000     1.007557   -2.6457498   -2.6457498   -1.4810655  0.071720109   -2.6457498    1.1646843   313401 
  444000    1.0093473   -2.6486541   -2.6486541   -1.4819003  0.060122986   -2.6486541    1.1667538   313401 
  445000    1.0065893   -2.6462113   -2.6462113   -1.4826456  0.057725946   -2.6462113    1.1635657   313401 
  446000    1.0083127    -2.646997    -2.646997   -1.4814392  0.071910613    -2.646997    1.1655578   313401 
  447000    1.0082842   -2.6475496   -2.6475496   -1.4820247  0.062690191   -2.6475496    1.1655248   313401 
  448000    1.0068718   -2.6455479   -2.6455479   -1.4816557   0.07176307   -2.6455479    1.1638922   313401 
  449000    1.0058739   -2.6451576   -2.6451576    -1.482419  0.054367591   -2.6451576    1.1627386   313401 
  450000    1.0050386   -2.6438073   -2.6438073   -1.4820343  0.060023449   -2.6438073    1.1617731   313401 
  451000    1.0056641   -2.6449982   -2.6449982    -1.482502  0.060369393   -2.6449982    1.1624962   313401 
  452000    1.0061862   -2.6455608   -2.6455608   -1.4824611  0.077498168   -2.6455608    1.1630997   313401 
  453000    1.0048815   -2.6447045   -2.6447045   -1.4831129  0.066554293   -2.6447045    1.1615916   313401 
  454000    1.0059784   -2.6466891   -2.6466891   -1.4838296  0.057714667   -2.6466891    1.1628595   313401 
  455000    1.0075709   -2.6466906   -2.6466906   -1.4819903  0.072707537   -2.6466906    1.1647004   313401 
  456000    1.0075463   -2.6465106   -2.6465106   -1.4818386  0.068570215   -2.6465106    1.1646719   313401 
  457000    1.0067722   -2.6455404   -2.6455404   -1.4817633  0.062468289   -2.6455404     1.163777   313401 
  458000    1.0062215   -2.6448486   -2.6448486   -1.4817081  0.065154773   -2.6448486    1.1631405   313401 
  459000    1.0046572   -2.6437514   -2.6437514   -1.4824192  0.056574463   -2.6437514    1.1613322   313401 
  460000     1.005754    -2.645729    -2.645729    -1.483129  0.068411274    -2.645729       1.1626   313401 
  461000    1.0047339   -2.6443095   -2.6443095   -1.4828887   0.06478009   -2.6443095    1.1614209   313401 
  462000    1.0063632   -2.6466615   -2.6466615   -1.4833572  0.064017838   -2.6466615    1.1633043   313401 
  463000    1.0059938   -2.6464094   -2.6464094    -1.483532  0.060726874   -2.6464094    1.1628773   313401 
  464000    1.0049844   -2.6447596   -2.6447596   -1.4830491  0.057399481   -2.6447596    1.1617105   313401 
  465000    1.0062219   -2.6458805   -2.6458805   -1.4827395  0.058619476   -2.6458805     1.163141   313401 
  466000    1.0059301   -2.6467027   -2.6467027    -1.483899   0.06118725   -2.6467027    1.1628036   313401 
  467000     1.004253   -2.6449322   -2.6449322   -1.4840672  0.060540272   -2.6449322     1.160865   313401 
  468000      1.00426   -2.6448181   -2.6448181    -1.483945  0.068081726   -2.6448181    1.1608731   313401 
  469000    1.0065166   -2.6480841   -2.6480841   -1.4846024  0.064596846   -2.6480841    1.1634817   313401 
  470000    1.0058145   -2.6469873   -2.6469873   -1.4843173  0.052688652   -2.6469873      1.16267   313401 
  471000    1.0072657   -2.6483294   -2.6483294   -1.4839819  0.068864398   -2.6483294    1.1643475   313401 
  472000      1.00673   -2.6482678   -2.6482678   -1.4845395  0.062539593   -2.6482678    1.1637283   313401 
  473000    1.0069496   -2.6479118   -2.6479118   -1.4839297  0.067515081   -2.6479118    1.1639821   313401 
  474000    1.0075656   -2.6474642   -2.6474642   -1.4827701  0.059746787   -2.6474642    1.1646942   313401 
  475000    1.0091713   -2.6485811   -2.6485811   -1.4820307   0.05992372   -2.6485811    1.1665504   313401 
  476000    1.0069629   -2.6456718   -2.6456718   -1.4816743  0.067753186   -2.6456718    1.1639975   313401 
  477000    1.0082926   -2.6469883   -2.6469883   -1.4814537  0.080107008   -2.6469883    1.1655346   313401 
  478000     1.007386   -2.6471836   -2.6471836    -1.482697  0.064660685   -2.6471836    1.1644866   313401 
  479000    1.0095058   -2.6499004   -2.6499004   -1.4829634  0.062309477   -2.6499004     1.166937   313401 
  480000    1.0087714   -2.6487513   -2.6487513   -1.4826632  0.065368612   -2.6487513    1.1660881   313401 
  481000    1.0089709   -2.6486082   -2.6486082   -1.4822896  0.065612569   -2.6486082    1.1663186   313401 
  482000    1.0073189   -2.6476186   -2.6476186   -1.4832096    0.0622773   -2.6476186     1.164409   313401 
  483000    1.0094049   -2.6501685   -2.6501685   -1.4833481  0.047581786   -2.6501685    1.1668203   313401 
  484000    1.0063621    -2.645965    -2.645965    -1.482662  0.064340721    -2.645965     1.163303   313401 
  485000     1.007548   -2.6473101   -2.6473101   -1.4826363  0.071323046   -2.6473101    1.1646739   313401 
  486000    1.0082551   -2.6486039   -2.6486039   -1.4831127  0.061367721   -2.6486039    1.1654912   313401 
  487000    1.0075397    -2.648385    -2.648385   -1.4837207  0.066975621    -2.648385    1.1646642   313401 
  488000    1.0079106   -2.6486352   -2.6486352   -1.4835422  0.065642741   -2.6486352     1.165093   313401 
  489000    1.0077988   -2.6479566   -2.6479566   -1.4829929  0.065682654   -2.6479566    1.1649638   313401 
  490000    1.0088913   -2.6491807   -2.6491807   -1.4829541  0.068183285   -2.6491807    1.1662266   313401 
  491000    1.0072376   -2.6476039   -2.6476039   -1.4832888  0.062955452   -2.6476039    1.1643151   313401 
  492000    1.0078584   -2.6464231   -2.6464231   -1.4813904   0.07431659   -2.6464231    1.1650327   313401 
  493000    1.0055691   -2.6448826   -2.6448826   -1.4824963   0.05691207   -2.6448826    1.1623863   313401 
  494000    1.0060062   -2.6457873   -2.6457873   -1.4828957  0.069671058   -2.6457873    1.1628916   313401 
  495000    1.0056916   -2.6445319   -2.6445319    -1.482004   0.05944685   -2.6445319    1.1625279   313401 
  496000     1.006486   -2.6464611   -2.6464611   -1.4830149  0.059518018   -2.6464611    1.1634462   313401 
  497000    1.0055377   -2.6446247   -2.6446247   -1.4822746  0.071649153   -2.6446247    1.1623501   313401 
  498000    1.0053018   -2.6457525   -2.6457525   -1.4836751   0.05634489   -2.6457525    1.1620773   313401 
  499000    1.0050358   -2.6458728   -2.6458728   -1.4841029  0.052081766   -2.6458728    1.1617699   313401 
  500000    1.0040672   -2.6461819   -2.6461819   -1.4855316  0.070163934   -2.6461819    1.1606502   313401 
  501000    1.0035275   -2.6456356   -2.6456356   -1.4856092  0.058355873   -2.6456356    1.1600264   313401 
  502000    1.0047228   -2.6456698   -2.6456698   -1.4842617  0.059568234   -2.6456698    1.1614081   313401 
  503000    1.0036024   -2.6442676   -2.6442676   -1.4841546  0.067883336   -2.6442676     1.160113   313401 
  504000    1.0045687   -2.6452934   -2.6452934   -1.4840634  0.054290855   -2.6452934      1.16123   313401 
  505000     1.005095   -2.6441055   -2.6441055   -1.4822672  0.067307935   -2.6441055    1.1618383   313401 
  506000    1.0074148   -2.6483809   -2.6483809   -1.4838609  0.067600859   -2.6483809    1.1645199   313401 
  507000    1.0067482   -2.6475972   -2.6475972   -1.4838479  0.064008957   -2.6475972    1.1637493   313401 
  508000    1.0074482   -2.6479789   -2.6479789   -1.4834204  0.063211852   -2.6479789    1.1645585   313401 
  509000    1.0061244   -2.6469439   -2.6469439   -1.4839156  0.069276625   -2.6469439    1.1630282   313401 
  510000    1.0076651   -2.6478553   -2.6478553    -1.483046  0.076528912   -2.6478553    1.1648093   313401 
  511000    1.0081726   -2.6487741   -2.6487741   -1.4833782  0.067035862   -2.6487741    1.1653959   313401 
  512000     1.006441   -2.6479593   -2.6479593    -1.484565  0.073550547   -2.6479593    1.1633943   313401 
  513000    1.0066164   -2.6499253   -2.6499253   -1.4863283  0.060135571   -2.6499253     1.163597   313401 
  514000    1.0078917   -2.6516821   -2.6516821   -1.4866109  0.066924587   -2.6516821    1.1650712   313401 
  515000    1.0068846   -2.6500303   -2.6500303   -1.4861233  0.066607625   -2.6500303     1.163907   313401 
  516000    1.0070318   -2.6498755   -2.6498755   -1.4857983  0.057906436   -2.6498755    1.1640772   313401 
  517000    1.0062583   -2.6478739   -2.6478739   -1.4846909  0.067626361   -2.6478739     1.163183   313401 
  518000    1.0062991    -2.648598    -2.648598   -1.4853678  0.074538089    -2.648598    1.1632302   313401 
  519000    1.0071134   -2.6493004   -2.6493004    -1.485129  0.071755756   -2.6493004    1.1641714   313401 
  520000     1.008727   -2.6510173   -2.6510173   -1.4849805   0.06548274   -2.6510173    1.1660367   313401 
  521000    1.0062937   -2.6489224   -2.6489224   -1.4856984  0.077123305   -2.6489224    1.1632239   313401 
  522000    1.0100345   -2.6525509   -2.6525509   -1.4850027  0.047016245   -2.6525509    1.1675482   313401 
  523000    1.0067841   -2.6495527   -2.6495527   -1.4857619   0.07289513   -2.6495527    1.1637908   313401 
  524000    1.0068275   -2.6497819   -2.6497819   -1.4859409  0.071777883   -2.6497819     1.163841   313401 
  525000    1.0081652   -2.6513952   -2.6513952   -1.4860078  0.062126995   -2.6513952    1.1653874   313401 
  526000    1.0069923   -2.6488591   -2.6488591   -1.4848277  0.059993304   -2.6488591    1.1640315   313401 
  527000    1.0064773   -2.6489498   -2.6489498   -1.4855137  0.054097176   -2.6489498    1.1634361   313401 
  528000    1.0055532   -2.6487776   -2.6487776   -1.4864096  0.059504586   -2.6487776     1.162368   313401 
  529000    1.0039802   -2.6468949   -2.6468949   -1.4863451  0.053460312   -2.6468949    1.1605497   313401 
  530000    1.0044199   -2.6477403   -2.6477403   -1.4866824  0.061928378   -2.6477403    1.1610579   313401 
  531000    1.0042857    -2.648153    -2.648153   -1.4872502  0.058082034    -2.648153    1.1609028   313401 
  532000    1.0041791   -2.6485947   -2.6485947   -1.4878151  0.055407724   -2.6485947    1.1607796   313401 
  533000    1.0029897   -2.6473812   -2.6473812   -1.4879765  0.056320051   -2.6473812    1.1594047   313401 
  534000     1.003227   -2.6475928   -2.6475928   -1.4879138  0.057855762   -2.6475928     1.159679   313401 
  535000    1.0025323   -2.6466915   -2.6466915   -1.4878155    0.0660341   -2.6466915     1.158876   313401 
  536000    1.0058877   -2.6500353   -2.6500353   -1.4872807   0.06731398   -2.6500353    1.1627546   313401 
  537000    1.0044082   -2.6491838   -2.6491838   -1.4881394  0.063561934   -2.6491838    1.1610444   313401 
  538000    1.0079467   -2.6520148   -2.6520148   -1.4868801  0.055916734   -2.6520148    1.1651347   313401 
  539000    1.0052093   -2.6494707   -2.6494707   -1.4875002  0.065200924   -2.6494707    1.1619705   313401 
  540000    1.0031797    -2.647936    -2.647936   -1.4883116  0.073500048    -2.647936    1.1596243   313401 
  541000    1.0052988   -2.6496086   -2.6496086   -1.4875347  0.066108442   -2.6496086    1.1620739   313401 
  542000     1.005195   -2.6495221   -2.6495221   -1.4875682  0.055454906   -2.6495221    1.1619539   313401 
  543000    1.0085345   -2.6540338   -2.6540338   -1.4882197  0.056766949   -2.6540338    1.1658142   313401 
  544000    1.0076966   -2.6521593   -2.6521593   -1.4873137  0.057345283   -2.6521593    1.1648456   313401 
  545000     1.006222   -2.6510768   -2.6510768   -1.4879357  0.070648354   -2.6510768    1.1631411   313401 
  546000    1.0069628   -2.6521864   -2.6521864    -1.488189  0.074426343   -2.6521864    1.1639974   313401 
  547000    1.0084204   -2.6523657   -2.6523657   -1.4866834  0.066585424   -2.6523657    1.1656823   313401 
  548000    1.0081992   -2.6524032   -2.6524032   -1.4869765  0.065176928   -2.6524032    1.1654267   313401 
  549000    1.0054929   -2.6493786   -2.6493786   -1.4870803  0.064360127   -2.6493786    1.1622983   313401 
  550000    1.0061538   -2.6517548   -2.6517548   -1.4886926  0.077525667   -2.6517548    1.1630622   313401 
  551000    1.0059842   -2.6519705   -2.6519705   -1.4891044  0.057060286   -2.6519705    1.1628662   313401 
  552000    1.0052682   -2.6511369   -2.6511369   -1.4890984  0.060079284   -2.6511369    1.1620385   313401 
  553000    1.0060005   -2.6521854   -2.6521854   -1.4893003  0.067545816   -2.6521854    1.1628851   313401 
  554000    1.0065583   -2.6518913   -2.6518913   -1.4883615  0.056722076   -2.6518913    1.1635298   313401 
  555000    1.0074345   -2.6520897   -2.6520897   -1.4875471  0.075095255   -2.6520897    1.1645426   313401 
  556000    1.0088846   -2.6532021   -2.6532021   -1.4869832  0.060513897   -2.6532021    1.1662189   313401 
  557000    1.0071688   -2.6526283   -2.6526283   -1.4883928  0.063487367   -2.6526283    1.1642355   313401 
  558000    1.0039429   -2.6494725   -2.6494725    -1.488966  0.062541688   -2.6494725    1.1605065   313401 
  559000    1.0066737   -2.6508467   -2.6508467   -1.4871834  0.067417706   -2.6508467    1.1636633   313401 
  560000    1.0065559   -2.6511681   -2.6511681   -1.4876411  0.060390494   -2.6511681     1.163527   313401 
  561000    1.0072153   -2.6529715   -2.6529715   -1.4886823  0.071052912   -2.6529715    1.1642892   313401 
  562000    1.0057592   -2.6510677   -2.6510677   -1.4884616  0.066148234   -2.6510677    1.1626061   313401 
  563000    1.0065064   -2.6529898   -2.6529898     -1.48952  0.069615204   -2.6529898    1.1634698   313401 
  564000    1.0058645   -2.6517326   -2.6517326   -1.4890048  0.072419016   -2.6517326    1.1627278   313401 
  565000    1.0070552   -2.6527103   -2.6527103   -1.4886061  0.067633516   -2.6527103    1.1641042   313401 
  566000    1.0060601   -2.6520117   -2.6520117   -1.4890578  0.059596246   -2.6520117    1.1629539   313401 
  567000    1.0063086   -2.6504028   -2.6504028   -1.4871616  0.065032797   -2.6504028    1.1632412   313401 
  568000    1.0054577   -2.6499871   -2.6499871   -1.4877295  0.069246429   -2.6499871    1.1622576   313401 
  569000    1.0060177   -2.6503392   -2.6503392   -1.4874342  0.070303527   -2.6503392     1.162905   313401 
  570000    1.0070139    -2.652209    -2.652209   -1.4881526  0.066121001    -2.652209    1.1640564   313401 
  571000    1.0043396   -2.6493019   -2.6493019   -1.4883367  0.069331617   -2.6493019    1.1609652   313401 
  572000    1.0056174   -2.6497863   -2.6497863   -1.4873442     0.067796   -2.6497863    1.1624422   313401 
  573000    1.0063511   -2.6501618   -2.6501618   -1.4868715  0.077651157   -2.6501618    1.1632903   313401 
  574000    1.0078109   -2.6514561   -2.6514561   -1.4864783  0.071850024   -2.6514561    1.1649778   313401 
  575000    1.0078602   -2.6517694   -2.6517694   -1.4867346  0.080166777   -2.6517694    1.1650348   313401 
  576000    1.0077227   -2.6517965   -2.6517965   -1.4869206  0.066603376   -2.6517965    1.1648759   313401 
  577000    1.0054382   -2.6501439   -2.6501439   -1.4879089  0.071251542   -2.6501439     1.162235   313401 
  578000    1.0041286   -2.6480426   -2.6480426   -1.4873214  0.074894963   -2.6480426    1.1607213   313401 
  579000    1.0053168   -2.6494208   -2.6494208    -1.487326  0.068347115   -2.6494208    1.1620948   313401 
  580000    1.0061661    -2.651269    -2.651269   -1.4881926  0.058334801    -2.651269    1.1630765   313401 
  581000    1.0059362   -2.6517994   -2.6517994   -1.4889887  0.069292464   -2.6517994    1.1628108   313401 
  582000    1.0052019   -2.6514152   -2.6514152   -1.4894533  0.060053116   -2.6514152    1.1619619   313401 
  583000     1.005399   -2.6511158   -2.6511158   -1.4889261  0.069603381   -2.6511158    1.1621898   313401 
  584000     1.005976   -2.6514184   -2.6514184   -1.4885617  0.063724774   -2.6514184    1.1628568   313401 
  585000    1.0068792   -2.6517292   -2.6517292   -1.4878285  0.060398244   -2.6517292    1.1639007   313401 
  586000    1.0070395   -2.6519298   -2.6519298   -1.4878437  0.063112082   -2.6519298    1.1640861   313401 
  587000    1.0060578    -2.651833    -2.651833   -1.4888818  0.060031077    -2.651833    1.1629512   313401 
  588000    1.0065532   -2.6505426   -2.6505426   -1.4870187  0.066338661   -2.6505426    1.1635239   313401 
  589000    1.0058545   -2.6498679   -2.6498679   -1.4871517  0.059342925   -2.6498679    1.1627162   313401 
  590000    1.0056501   -2.6488817   -2.6488817   -1.4864017  0.062140908   -2.6488817      1.16248   313401 
  591000    1.0070856   -2.6514707   -2.6514707   -1.4873314  0.052145319   -2.6514707    1.1641393   313401 
  592000    1.0070921   -2.6508577   -2.6508577   -1.4867108  0.061548048   -2.6508577    1.1641469   313401 
  593000    1.0042438    -2.648382    -2.648382   -1.4875276  0.080121344    -2.648382    1.1608544   313401 
  594000    1.0053284    -2.649834    -2.649834   -1.4877259  0.068491128    -2.649834    1.1621081   313401 
  595000    1.0058159   -2.6501555   -2.6501555   -1.4874839  0.063911371   -2.6501555    1.1626716   313401 
  596000    1.0067474   -2.6503966   -2.6503966   -1.4866481   0.06418237   -2.6503966    1.1637485   313401 
  597000    1.0067031   -2.6497925   -2.6497925   -1.4860953  0.071201043   -2.6497925    1.1636972   313401 
  598000    1.0054747   -2.6497538   -2.6497538   -1.4874766  0.069854527   -2.6497538    1.1622773   313401 
  599000    1.0061047   -2.6508774   -2.6508774   -1.4878719  0.065414994   -2.6508774    1.1630054   313401 
  600000    1.0074065   -2.6518645   -2.6518645   -1.4873542  0.067544445   -2.6518645    1.1645104   313401 
  601000    1.0055639   -2.6498924   -2.6498924    -1.487512  0.064908859   -2.6498924    1.1623804   313401 
  602000    1.0075958   -2.6521152   -2.6521152   -1.4873861  0.066513006   -2.6521152    1.1647291   313401 
  603000    1.0087417   -2.6529615   -2.6529615   -1.4869078  0.068644137   -2.6529615    1.1660537   313401 
  604000    1.0075351   -2.6517497   -2.6517497   -1.4870908  0.058944273   -2.6517497    1.1646589   313401 
  605000    1.0074093   -2.6518125   -2.6518125    -1.487299  0.056164395   -2.6518125    1.1645135   313401 
  606000     1.006374   -2.6521073   -2.6521073   -1.4887905  0.058201653   -2.6521073    1.1633168   313401 
  607000    1.0077651   -2.6541298   -2.6541298    -1.489205  0.070520856   -2.6541298    1.1649249   313401 
  608000    1.0059297   -2.6517443   -2.6517443   -1.4889411  0.065823088   -2.6517443    1.1628032   313401 
  609000    1.0033874   -2.6496385   -2.6496385    -1.489774  0.066317901   -2.6496385    1.1598644   313401 
  610000    1.0054729   -2.6523915   -2.6523915   -1.4901163  0.066887496   -2.6523915    1.1622752   313401 
  611000    1.0049874   -2.6505592   -2.6505592   -1.4888453  0.063430302   -2.6505592    1.1617139   313401 
  612000    1.0044586   -2.6507209   -2.6507209   -1.4896183  0.066982243   -2.6507209    1.1611027   313401 
  613000     1.004814    -2.650557    -2.650557   -1.4890435  0.066304369    -2.650557    1.1615135   313401 
  614000    1.0054051   -2.6500356   -2.6500356   -1.4878388  0.060387104   -2.6500356    1.1621968   313401 
  615000    1.0062751   -2.6503194   -2.6503194    -1.487117  0.062984179   -2.6503194    1.1632024   313401 
  616000    1.0053564   -2.6494058   -2.6494058   -1.4872653  0.075010864   -2.6494058    1.1621405   313401 
  617000    1.0068946   -2.6531893   -2.6531893   -1.4892708  0.075792143   -2.6531893    1.1639186   313401 
  618000    1.0074461    -2.653826    -2.653826   -1.4892699  0.065758996    -2.653826     1.164556   313401 
  619000    1.0045355   -2.6500301   -2.6500301   -1.4888386  0.064399273   -2.6500301    1.1611915   313401 
  620000    1.0072813   -2.6523548   -2.6523548   -1.4879892  0.065159002   -2.6523548    1.1643656   313401 
  621000    1.0058375   -2.6519586   -2.6519586    -1.489262  0.058933635   -2.6519586    1.1626966   313401 
  622000    1.0055937    -2.651792    -2.651792   -1.4893772  0.063358453    -2.651792    1.1624148   313401 
  623000     1.003695   -2.6492106   -2.6492106   -1.4889906  0.073825456   -2.6492106    1.1602199   313401 
  624000    1.0038785   -2.6508651   -2.6508651   -1.4904329  0.071501424   -2.6508651    1.1604322   313401 
  625000     1.003914   -2.6502013   -2.6502013   -1.4897281  0.074996866   -2.6502013    1.1604732   313401 
  626000    1.0034844   -2.6500908   -2.6500908   -1.4901143  0.053693922   -2.6500908    1.1599765   313401 
  627000    1.0062299   -2.6533289   -2.6533289   -1.4901787  0.051720656   -2.6533289    1.1631502   313401 
  628000    1.0051555   -2.6532581   -2.6532581   -1.4913498  0.063649037   -2.6532581    1.1619083   313401 
  629000    1.0044242   -2.6509428   -2.6509428   -1.4898798  0.057048982   -2.6509428    1.1610629   313401 
  630000    1.0058891   -2.6517619   -2.6517619   -1.4890056  0.066109109   -2.6517619    1.1627563   313401 
  631000    1.0057823   -2.6503588   -2.6503588   -1.4877261  0.073078092   -2.6503588    1.1626328   313401 
  632000     1.006994   -2.6529355   -2.6529355   -1.4889021   0.05958416   -2.6529355    1.1640335   313401 
  633000     1.005895   -2.6510557   -2.6510557   -1.4882926  0.060629393   -2.6510557     1.162763   313401 
  634000    1.0072638   -2.6511549   -2.6511549   -1.4868095  0.064586424   -2.6511549    1.1643453   313401 
  635000    1.0056324   -2.6512069   -2.6512069   -1.4887473  0.061220274   -2.6512069    1.1624596   313401 
  636000    1.0057057   -2.6524285   -2.6524285   -1.4898843  0.073272748   -2.6524285    1.1625443   313401 
  637000    1.0078778   -2.6554075   -2.6554075   -1.4903524  0.060366723   -2.6554075    1.1650551   313401 
  638000    1.0058788   -2.6520185   -2.6520185   -1.4892741  0.066174633   -2.6520185    1.1627444   313401 
  639000    1.0063194   -2.6528587   -2.6528587   -1.4896051  0.061237036   -2.6528587    1.1632536   313401 
  640000    1.0027068   -2.6487018   -2.6487018   -1.4896242  0.063950869   -2.6487018    1.1590776   313401 
  641000    1.0025391   -2.6484842   -2.6484842   -1.4896004  0.068001197   -2.6484842    1.1588838   313401 
  642000    1.0028347   -2.6484538   -2.6484538   -1.4892283  0.055830509   -2.6484538    1.1592255   313401 
  643000    1.0030552   -2.6491851   -2.6491851   -1.4897047  0.063933505   -2.6491851    1.1594805   313401 
  644000    1.0057007   -2.6528258   -2.6528258   -1.4902873   0.06062378   -2.6528258    1.1625384   313401 
  645000    1.0024616   -2.6488128   -2.6488128   -1.4900185  0.067436968   -2.6488128    1.1587943   313401 
  646000    1.0035962   -2.6506955   -2.6506955   -1.4905897  0.053871379   -2.6506955    1.1601058   313401 
  647000    1.0055684   -2.6529384   -2.6529384   -1.4905529  0.053954139   -2.6529384    1.1623855   313401 
  648000     1.004199   -2.6521748   -2.6521748   -1.4913722  0.065781237   -2.6521748    1.1608026   313401 
  649000    1.0058502   -2.6521574   -2.6521574   -1.4894461  0.075672135   -2.6521574    1.1627113   313401 
  650000    1.0037545   -2.6502611   -2.6502611   -1.4899723  0.065514587   -2.6502611    1.1602888   313401 
  651000    1.0059459   -2.6515105   -2.6515105   -1.4886886  0.063856396   -2.6515105    1.1628219   313401 
  652000     1.006127   -2.6510384   -2.6510384   -1.4880072  0.057030901   -2.6510384    1.1630312   313401 
  653000    1.0053417   -2.6502211   -2.6502211   -1.4880975  0.055638418   -2.6502211    1.1621235   313401 
  654000    1.0059538   -2.6508443   -2.6508443   -1.4880133  0.060629407   -2.6508443     1.162831   313401 
  655000    1.0073216   -2.6520534   -2.6520534   -1.4876413  0.063682722   -2.6520534    1.1644121   313401 
  656000    1.0081328    -2.654562    -2.654562   -1.4892122  0.051319305    -2.654562    1.1653498   313401 
  657000    1.0038367   -2.6502163   -2.6502163   -1.4898324  0.076683905   -2.6502163    1.1603838   313401 
  658000    1.0044225    -2.650442    -2.650442   -1.4893811  0.063117295    -2.650442    1.1610609   313401 
  659000    1.0071842   -2.6534498   -2.6534498   -1.4891965  0.068373725   -2.6534498    1.1642533   313401 
  660000     1.007347   -2.6542559   -2.6542559   -1.4898144  0.063366749   -2.6542559    1.1644415   313401 
  661000    1.0068352   -2.6536947   -2.6536947   -1.4898448  0.063054731   -2.6536947      1.16385   313401 
  662000     1.005359   -2.6526192   -2.6526192   -1.4904756  0.068106635   -2.6526192    1.1621435   313401 
  663000    1.0044138   -2.6519283   -2.6519283   -1.4908773  0.059490362   -2.6519283    1.1610509   313401 
  664000    1.0052691   -2.6525701   -2.6525701   -1.4905305  0.057562881   -2.6525701    1.1620396   313401 
  665000    1.0055121   -2.6536478   -2.6536478   -1.4913274  0.063179752   -2.6536478    1.1623204   313401 
  666000     1.004261   -2.6517887   -2.6517887   -1.4909145   0.05071847   -2.6517887    1.1608742   313401 
  667000    1.0055615   -2.6533779   -2.6533779   -1.4910003  0.063144024   -2.6533779    1.1623776   313401 
  668000    1.0058311   -2.6525305   -2.6525305   -1.4898413  0.071622005   -2.6525305    1.1626892   313401 
  669000    1.0048714    -2.651054    -2.651054   -1.4894742  0.072176387    -2.651054    1.1615798   313401 
  670000    1.0045711   -2.6499576   -2.6499576   -1.4887249  0.065912628   -2.6499576    1.1612327   313401 
  671000    1.0047249   -2.6506166   -2.6506166   -1.4892061  0.070381732   -2.6506166    1.1614106   313401 
  672000    1.0068598   -2.6530583   -2.6530583     -1.48918  0.066857358   -2.6530583    1.1638783   313401 
  673000    1.0063763   -2.6515864   -2.6515864    -1.488267  0.067757199   -2.6515864    1.1633194   313401 
  674000    1.0081924   -2.6526336   -2.6526336   -1.4872148  0.056638349   -2.6526336    1.1654188   313401 
  675000    1.0063163   -2.6506135   -2.6506135   -1.4873634   0.07334007   -2.6506135    1.1632501   313401 
  676000    1.0053503   -2.6501122   -2.6501122   -1.4879788  0.069177991   -2.6501122    1.1621334   313401 
  677000    1.0080754   -2.6532476   -2.6532476   -1.4879641  0.064265877   -2.6532476    1.1652835   313401 
  678000    1.0057886   -2.6527606   -2.6527606   -1.4901205   0.06443473   -2.6527606    1.1626401   313401 
  679000    1.0059641   -2.6520919   -2.6520919    -1.489249  0.057071432   -2.6520919    1.1628429   313401 
  680000    1.0055998   -2.6511346   -2.6511346   -1.4887127  0.054724101   -2.6511346    1.1624218   313401 
  681000    1.0039697   -2.6499607   -2.6499607   -1.4894232  0.074656748   -2.6499607    1.1605375   313401 
  682000    1.0053899   -2.6508469   -2.6508469   -1.4886677  0.061606146   -2.6508469    1.1621792   313401 
  683000    1.0050521   -2.6509018   -2.6509018   -1.4891131    0.0723415   -2.6509018    1.1617887   313401 
  684000    1.0043846   -2.6505128   -2.6505128   -1.4894956  0.061608049   -2.6505128    1.1610172   313401 
  685000    1.0041833    -2.650021    -2.650021   -1.4892365  0.051193805    -2.650021    1.1607844   313401 
  686000    1.0015112   -2.6481767   -2.6481767    -1.490481  0.061927689   -2.6481767    1.1576956   313401 
  687000    1.0028013   -2.6493377   -2.6493377   -1.4901508  0.063858601   -2.6493377    1.1591869   313401 
  688000     1.003932   -2.6506058   -2.6506058   -1.4901119  0.050850978   -2.6506058     1.160494   313401 
  689000    1.0051415   -2.6525357   -2.6525357   -1.4906436  0.068562175   -2.6525357    1.1618921   313401 
  690000    1.0034086   -2.6508753   -2.6508753   -1.4909863  0.058854645   -2.6508753    1.1598889   313401 
  691000    1.0032972   -2.6500507   -2.6500507   -1.4902905  0.059317434   -2.6500507    1.1597601   313401 
  692000     1.002222    -2.649064    -2.649064   -1.4905467  0.053673409    -2.649064    1.1585173   313401 
  693000    1.0031565   -2.6502573   -2.6502573   -1.4906598   0.07370294   -2.6502573    1.1595975   313401 
  694000    1.0035029   -2.6517941   -2.6517941   -1.4917962  0.061935886   -2.6517941    1.1599979   313401 
  695000    1.0046427   -2.6542358   -2.6542358   -1.4929202  0.056808997   -2.6542358    1.1613155   313401 
  696000    1.0030551   -2.6527015   -2.6527015   -1.4932213  0.071925799   -2.6527015    1.1594803   313401 
  697000    1.0060344   -2.6563444   -2.6563444   -1.4934202  0.062352862   -2.6563444    1.1629242   313401 
  698000    1.0067268   -2.6568833   -2.6568833   -1.4931587  0.066368293   -2.6568833    1.1637246   313401 
  699000     1.006459   -2.6566537   -2.6566537   -1.4932386  0.052676603   -2.6566537     1.163415   313401 
  700000    1.0074718   -2.6549956   -2.6549956   -1.4904098   0.06868636   -2.6549956    1.1645858   313401 
  701000    1.0073459   -2.6550636   -2.6550636   -1.4906234  0.063937386   -2.6550636    1.1644403   313401 
  702000      1.00793   -2.6558409   -2.6558409   -1.4907254  0.070497642   -2.6558409    1.1651155   313401 
  703000    1.0075932    -2.655385    -2.655385   -1.4906589  0.063587605    -2.655385    1.1647261   313401 
  704000    1.0076773   -2.6558362   -2.6558362   -1.4910128   0.06092484   -2.6558362    1.1648234   313401 
  705000    1.0080588   -2.6553226   -2.6553226   -1.4900583  0.075105558   -2.6553226    1.1652643   313401 
  706000    1.0069139   -2.6555807   -2.6555807   -1.4916398  0.065692235   -2.6555807    1.1639409   313401 
  707000    1.0066504   -2.6557025   -2.6557025   -1.4920661  0.070751214   -2.6557025    1.1636363   313401 
  708000    1.0082546   -2.6566234   -2.6566234   -1.4911328  0.057115914   -2.6566234    1.1654906   313401 
  709000    1.0077695   -2.6557929   -2.6557929    -1.490863   0.06655861   -2.6557929    1.1649299   313401 
  710000    1.0053124   -2.6537746   -2.6537746   -1.4916849  0.062902318   -2.6537746    1.1620897   313401 
  711000    1.0035785    -2.651393    -2.651393   -1.4913078  0.073287757    -2.651393    1.1600853   313401 
  712000    1.0042029   -2.6530169   -2.6530169   -1.4922098  0.054931732   -2.6530169    1.1608071   313401 
  713000    1.0051127   -2.6546649   -2.6546649   -1.4928061  0.060575556   -2.6546649    1.1618588   313401 
  714000    1.0057311   -2.6545985   -2.6545985   -1.4920248  0.073765557   -2.6545985    1.1625737   313401 
  715000    1.0041001   -2.6540139   -2.6540139   -1.4933257  0.061493982   -2.6540139    1.1606882   313401 
  716000    1.0043817   -2.6543471   -2.6543471   -1.4933334  0.067026286   -2.6543471    1.1610137   313401 
  717000    1.0026807   -2.6519967   -2.6519967   -1.4929492   0.05848354   -2.6519967    1.1590475   313401 
  718000    1.0030309   -2.6517846   -2.6517846   -1.4923323  0.052288663   -2.6517846    1.1594523   313401 
  719000    1.0029964   -2.6511927   -2.6511927   -1.4917802  0.061444445   -2.6511927    1.1594125   313401 
  720000    1.0037971   -2.6502708   -2.6502708   -1.4899328  0.061529538   -2.6502708     1.160338   313401 
  721000    1.0041134   -2.6507256   -2.6507256    -1.490022  0.071744758   -2.6507256    1.1607036   313401 
  722000    1.0040927   -2.6487242   -2.6487242   -1.4880445   0.07732123   -2.6487242    1.1606797   313401 
  723000    1.0047558   -2.6509313   -2.6509313   -1.4894851  0.062134422   -2.6509313    1.1614462   313401 
  724000    1.0065014   -2.6515302   -2.6515302   -1.4880662  0.067484888   -2.6515302     1.163464   313401 
  725000     1.005634   -2.6515268   -2.6515268   -1.4890655   0.06479984   -2.6515268    1.1624613   313401 
  726000    1.0052033   -2.6510515   -2.6510515   -1.4890879  0.060736442   -2.6510515    1.1619635   313401 
  727000    1.0032768   -2.6500845   -2.6500845   -1.4903479  0.068162676   -2.6500845    1.1597366   313401 
  728000    1.0019183    -2.648055    -2.648055   -1.4898889  0.064298774    -2.648055    1.1581662   313401 
  729000     1.003432    -2.649506    -2.649506   -1.4895901   0.05862435    -2.649506     1.159916   313401 
  730000    1.0024509   -2.6476579   -2.6476579    -1.488876  0.062203022   -2.6476579    1.1587819   313401 
  731000    1.0032973   -2.6483945   -2.6483945   -1.4886342  0.058481995   -2.6483945    1.1597603   313401 
  732000    1.0030349   -2.6488007   -2.6488007   -1.4893438  0.055880307   -2.6488007     1.159457   313401 
  733000    1.0043511   -2.6490196   -2.6490196   -1.4880412  0.060284679   -2.6490196    1.1609785   313401 
  734000    1.0053855   -2.6504043   -2.6504043   -1.4882302  0.050631966   -2.6504043    1.1621741   313401 
  735000    1.0050233   -2.6500173   -2.6500173   -1.4882619  0.063224162   -2.6500173    1.1617554   313401 
  736000    1.0048725   -2.6498016   -2.6498016   -1.4882204  0.059167395   -2.6498016    1.1615812   313401 
  737000    1.0058253   -2.6512013   -2.6512013   -1.4885189  0.062160742   -2.6512013    1.1626825   313401 
  738000    1.0071789   -2.6524183   -2.6524183    -1.488171  0.061073628   -2.6524183    1.1642473   313401 
  739000    1.0070696   -2.6513105   -2.6513105   -1.4871897  0.053533064   -2.6513105    1.1641209   313401 
  740000    1.0067182   -2.6522373   -2.6522373   -1.4885227  0.071355585   -2.6522373    1.1637146   313401 
  741000    1.0064395   -2.6519827   -2.6519827   -1.4885902  0.062632442   -2.6519827    1.1633925   313401 
  742000    1.0065443   -2.6527127   -2.6527127   -1.4891991   0.06543098   -2.6527127    1.1635137   313401 
  743000    1.0045713   -2.6511946   -2.6511946   -1.4899617  0.063739622   -2.6511946     1.161233   313401 
  744000    1.0058716   -2.6507324   -2.6507324   -1.4879963  0.075542746   -2.6507324    1.1627361   313401 
  745000    1.0061037   -2.6528154   -2.6528154   -1.4898111  0.058008353   -2.6528154    1.1630043   313401 
  746000    1.0051139    -2.650938    -2.650938   -1.4890778  0.058405472    -2.650938    1.1618602   313401 
  747000    1.0037275   -2.6507522   -2.6507522   -1.4904947  0.063291965   -2.6507522    1.1602576   313401 
  748000    1.0041071   -2.6519979   -2.6519979   -1.4913016  0.063670158   -2.6519979    1.1606964   313401 
  749000    1.0034073   -2.6514852   -2.6514852   -1.4915977  0.064510782   -2.6514852    1.1598875   313401 
  750000    1.0062975    -2.653474    -2.653474   -1.4902456  0.064538302    -2.653474    1.1632284   313401 
  751000        1.004   -2.6507596   -2.6507596    -1.490187  0.080407022   -2.6507596    1.1605726   313401 
  752000    1.0048869    -2.651357    -2.651357   -1.4897593  0.053672422    -2.651357    1.1615977   313401 
  753000    1.0053755   -2.6529072   -2.6529072   -1.4907446  0.068631384   -2.6529072    1.1621626   313401 
  754000    1.0050387   -2.6528966   -2.6528966   -1.4911234  0.062992219   -2.6528966    1.1617732   313401 
  755000    1.0048822   -2.6524012   -2.6524012   -1.4908088  0.056393927   -2.6524012    1.1615924   313401 
  756000    1.0037601   -2.6519121   -2.6519121   -1.4916169   0.04728859   -2.6519121    1.1602952   313401 
  757000    1.0042805   -2.6519403   -2.6519403   -1.4910435  0.053115186   -2.6519403    1.1608969   313401 
  758000    1.0027257   -2.6502604   -2.6502604   -1.4911608  0.079309865   -2.6502604    1.1590996   313401 
  759000     1.004811   -2.6530736   -2.6530736   -1.4915636  0.069216887   -2.6530736      1.16151   313401 
  760000    1.0040893   -2.6525633   -2.6525633   -1.4918875  0.058163875   -2.6525633    1.1606758   313401 
  761000    1.0031224   -2.6518456   -2.6518456   -1.4922875  0.069866288   -2.6518456    1.1595581   313401 
  762000     1.003921   -2.6516474   -2.6516474   -1.4911662  0.072559945   -2.6516474    1.1604813   313401 
  763000    1.0037492   -2.6527759   -2.6527759   -1.4924933   0.06644984   -2.6527759    1.1602826   313401 
  764000    1.0027754   -2.6528338   -2.6528338   -1.4936768  0.059690623   -2.6528338     1.159157   313401 
  765000    1.0027395   -2.6523684   -2.6523684   -1.4932529  0.069213504   -2.6523684    1.1591155   313401 
  766000    1.0040247   -2.6536907   -2.6536907   -1.4930896  0.061807731   -2.6536907    1.1606011   313401 
  767000    1.0030742   -2.6544472   -2.6544472   -1.4949449  0.055988645   -2.6544472    1.1595023   313401 
  768000    1.0052715    -2.656601    -2.656601   -1.4945587  0.045783105    -2.656601    1.1620423   313401 
  769000    1.0045489    -2.655726    -2.655726   -1.4945189  0.060121114    -2.655726    1.1612071   313401 
  770000    1.0033486   -2.6547905   -2.6547905   -1.4949709  0.054678892   -2.6547905    1.1598196   313401 
  771000    1.0033934   -2.6541139   -2.6541139   -1.4942425  0.070453598   -2.6541139    1.1598714   313401 
  772000    1.0052386   -2.6562336   -2.6562336   -1.4942292  0.067725965   -2.6562336    1.1620043   313401 
  773000    1.0049478   -2.6556825   -2.6556825   -1.4940143  0.068198599   -2.6556825    1.1616682   313401 
  774000    1.0031577   -2.6538501   -2.6538501   -1.4942512  0.066639838   -2.6538501    1.1595989   313401 
  775000    1.0039745   -2.6551259   -2.6551259   -1.4945829  0.078394835   -2.6551259    1.1605431   313401 
  776000    1.0068478   -2.6581417   -2.6581417   -1.4942772  0.067180781   -2.6581417    1.1638645   313401 
  777000    1.0063851   -2.6574885   -2.6574885   -1.4941589  0.075298649   -2.6574885    1.1633296   313401 
  778000    1.0051146    -2.656851    -2.656851     -1.49499  0.063971634    -2.656851     1.161861   313401 
  779000    1.0038619   -2.6541114   -2.6541114   -1.4936984  0.071059937   -2.6541114    1.1604129   313401 
  780000    1.0050857   -2.6553987   -2.6553987   -1.4935712  0.070901576   -2.6553987    1.1618276   313401 
  781000    1.0064667   -2.6558187   -2.6558187   -1.4923947  0.062700175   -2.6558187     1.163424   313401 
  782000     1.006488   -2.6567065   -2.6567065   -1.4932579  0.061737426   -2.6567065    1.1634486   313401 
  783000    1.0059206   -2.6564855   -2.6564855   -1.4936928  0.064447535   -2.6564855    1.1627927   313401 
  784000    1.0061396    -2.656615    -2.656615   -1.4935692  0.067589421    -2.656615    1.1630458   313401 
  785000    1.0050474   -2.6553106   -2.6553106   -1.4935273  0.053300539   -2.6553106    1.1617833   313401 
  786000    1.0061017   -2.6566732   -2.6566732   -1.4936712  0.067317705   -2.6566732     1.163002   313401 
  787000    1.0038126   -2.6531903   -2.6531903   -1.4928343  0.063364836   -2.6531903     1.160356   313401 
  788000     1.006854   -2.6552621   -2.6552621   -1.4913905  0.053827011   -2.6552621    1.1638716   313401 
  789000    1.0061435   -2.6530083   -2.6530083   -1.4899579  0.072664104   -2.6530083    1.1630504   313401 
  790000    1.0056571   -2.6522844   -2.6522844   -1.4897964   0.07846373   -2.6522844     1.162488   313401 
  791000    1.0055138   -2.6517054   -2.6517054    -1.489383  0.068721965   -2.6517054    1.1623225   313401 
  792000    1.0043985   -2.6513575   -2.6513575   -1.4903243  0.061253488   -2.6513575    1.1610332   313401 
  793000    1.0054115   -2.6529915   -2.6529915   -1.4907873  0.071031999   -2.6529915    1.1622042   313401 
  794000    1.0040751   -2.6513675   -2.6513675   -1.4907082  0.064848202   -2.6513675    1.1606594   313401 
  795000    1.0042701   -2.6515177   -2.6515177    -1.490633  0.064142263   -2.6515177    1.1608848   313401 
  796000    1.0063707    -2.652352    -2.652352    -1.489039  0.054106199    -2.652352     1.163313   313401 
  797000    1.0045715   -2.6508231   -2.6508231   -1.4895899  0.066804861   -2.6508231    1.1612332   313401 
  798000    1.0021158    -2.648991    -2.648991   -1.4905964  0.065301811    -2.648991    1.1583946   313401 
  799000    1.0029209   -2.6494157   -2.6494157   -1.4900905  0.053945773   -2.6494157    1.1593252   313401 
  800000    1.0024599   -2.6496604   -2.6496604   -1.4908681  0.050167459   -2.6496604    1.1587923   313401 
  801000    1.0024894   -2.6498154   -2.6498154    -1.490989  0.058879624   -2.6498154    1.1588264   313401 
  802000    1.0032878   -2.6498296   -2.6498296   -1.4900803  0.056804673   -2.6498296    1.1597493   313401 
  803000    1.0026708   -2.6482321   -2.6482321    -1.489196  0.071647141   -2.6482321    1.1590361   313401 
  804000    1.0018712   -2.6490493   -2.6490493   -1.4909375  0.054634584   -2.6490493    1.1581118   313401 
  805000    1.0010531   -2.6477307   -2.6477307   -1.4905647  0.059458182   -2.6477307    1.1571661   313401 
  806000    1.0021395   -2.6495044   -2.6495044   -1.4910824  0.054646235   -2.6495044     1.158422   313401 
  807000    1.0020566   -2.6500943   -2.6500943   -1.4917682  0.060445303   -2.6500943    1.1583261   313401 
  808000    1.0034449   -2.6514704   -2.6514704   -1.4915395  0.054412306   -2.6514704    1.1599309   313401 
  809000    1.0036684   -2.6503247   -2.6503247   -1.4901355  0.061319384   -2.6503247    1.1601892   313401 
  810000    1.0035786   -2.6499046   -2.6499046   -1.4898191  0.064920722   -2.6499046    1.1600855   313401 
  811000    1.0050433     -2.65103     -2.65103   -1.4892515  0.069080892     -2.65103    1.1617785   313401 
  812000    1.0056897   -2.6520136   -2.6520136   -1.4894878  0.059061799   -2.6520136    1.1625258   313401 
  813000     1.004197   -2.6500044   -2.6500044   -1.4892041  0.069895254   -2.6500044    1.1608003   313401 
  814000    1.0030111   -2.6492354   -2.6492354   -1.4898059  0.061249443   -2.6492354    1.1594294   313401 
  815000    1.0026801   -2.6493308   -2.6493308   -1.4902839  0.061838796   -2.6493308    1.1590469   313401 
  816000    1.0040004    -2.650184    -2.650184    -1.489611  0.054715239    -2.650184     1.160573   313401 
  817000    1.0042252   -2.6512639   -2.6512639   -1.4904311  0.055282263   -2.6512639    1.1608328   313401 
  818000    1.0061666   -2.6540663   -2.6540663   -1.4909893     0.071974   -2.6540663     1.163077   313401 
  819000    1.0037845    -2.650831    -2.650831   -1.4905076  0.075741336    -2.650831    1.1603234   313401 
  820000    1.0036129   -2.6520074   -2.6520074   -1.4918822  0.066510973   -2.6520074    1.1601251   313401 
  821000    1.0037485   -2.6522031   -2.6522031   -1.4919212  0.059344762   -2.6522031    1.1602818   313401 
  822000     1.007486   -2.6567207   -2.6567207   -1.4921185  0.058826378   -2.6567207    1.1646023   313401 
  823000    1.0060568   -2.6543386   -2.6543386   -1.4913884  0.074196219   -2.6543386    1.1629501   313401 
  824000    1.0071329   -2.6567607   -2.6567607   -1.4925667  0.066719013   -2.6567607     1.164194   313401 
  825000    1.0049079   -2.6540001   -2.6540001    -1.492378  0.060422294   -2.6540001    1.1616221   313401 
  826000    1.0065676   -2.6558025   -2.6558025   -1.4922619  0.064783748   -2.6558025    1.1635406   313401 
  827000    1.0050875    -2.654278    -2.654278   -1.4924483  0.077071034    -2.654278    1.1618296   313401 
  828000     1.005192   -2.6540196   -2.6540196   -1.4920692  0.051333569   -2.6540196    1.1619504   313401 
  829000    1.0038249   -2.6525892   -2.6525892    -1.492219  0.059834013   -2.6525892    1.1603702   313401 
  830000    1.0046743   -2.6532306   -2.6532306   -1.4918785   0.07423233   -2.6532306     1.161352   313401 
  831000    1.0055325   -2.6550877   -2.6550877   -1.4927436  0.083234403   -2.6550877    1.1623441   313401 
  832000    1.0073758   -2.6565855   -2.6565855   -1.4921107   0.07181028   -2.6565855    1.1644748   313401 
  833000    1.0046781   -2.6532166   -2.6532166   -1.4918603  0.063134602   -2.6532166    1.1613564   313401 
  834000    1.0061662   -2.6555388   -2.6555388   -1.4924623  0.065897429   -2.6555388    1.1630765   313401 
  835000    1.0047057   -2.6529934   -2.6529934   -1.4916051  0.067194514   -2.6529934    1.1613883   313401 
  836000     1.005667   -2.6553575   -2.6553575    -1.492858  0.058369199   -2.6553575    1.1624996   313401 
  837000    1.0055781   -2.6531075   -2.6531075   -1.4907107  0.076959057   -2.6531075    1.1623968   313401 
  838000    1.0065425   -2.6534675   -2.6534675   -1.4899559  0.066607166   -2.6534675    1.1635116   313401 
  839000    1.0066121   -2.6534609   -2.6534609   -1.4898689  0.070418768   -2.6534609     1.163592   313401 
  840000    1.0045006   -2.6528086   -2.6528086   -1.4916574  0.059654173   -2.6528086    1.1611512   313401 
  841000    1.0039329   -2.6519443   -2.6519443   -1.4914493  0.073926984   -2.6519443     1.160495   313401 
  842000    1.0056014   -2.6553498   -2.6553498   -1.4929261   0.06333996   -2.6553498    1.1624237   313401 
  843000    1.0056066    -2.653379    -2.653379   -1.4909492  0.056729412    -2.653379    1.1624297   313401 
  844000    1.0048769   -2.6523996   -2.6523996   -1.4908134  0.062473135   -2.6523996    1.1615862   313401 
  845000     1.003994    -2.651755    -2.651755   -1.4911894  0.070613531    -2.651755    1.1605656   313401 
  846000    1.0039409   -2.6526159   -2.6526159   -1.4921116  0.059828147   -2.6526159    1.1605043   313401 
  847000     1.001598   -2.6488075   -2.6488075   -1.4910116   0.05704314   -2.6488075     1.157796   313401 
  848000    1.0039544    -2.650694    -2.650694   -1.4901741  0.069762875    -2.650694    1.1605199   313401 
  849000    1.0057166   -2.6533303   -2.6533303   -1.4907734  0.064801817   -2.6533303    1.1625568   313401 
  850000     1.002369   -2.6500413   -2.6500413    -1.491354  0.055999068   -2.6500413    1.1586873   313401 
  851000    1.0017631   -2.6491752   -2.6491752   -1.4911883  0.079051871   -2.6491752    1.1579869   313401 
  852000    1.0022164   -2.6498718   -2.6498718    -1.491361   0.05688432   -2.6498718    1.1585109   313401 
  853000    1.0019928   -2.6481009   -2.6481009   -1.4898486  0.070842347   -2.6481009    1.1582523   313401 
  854000    1.0040793   -2.6516532   -2.6516532   -1.4909889  0.056979964   -2.6516532    1.1606643   313401 
  855000    1.0034899   -2.6499868   -2.6499868   -1.4900039  0.066134311   -2.6499868    1.1599829   313401 
  856000    1.0041637    -2.650282    -2.650282   -1.4895202  0.063768945    -2.650282    1.1607618   313401 
  857000    1.0056515   -2.6503534   -2.6503534   -1.4878718  0.071404566   -2.6503534    1.1624816   313401 
  858000    1.0069463   -2.6522041   -2.6522041   -1.4882257  0.067095905   -2.6522041    1.1639784   313401 
  859000    1.0054186   -2.6506195   -2.6506195    -1.488407  0.065706703   -2.6506195    1.1622124   313401 
  860000    1.0065174   -2.6533212   -2.6533212   -1.4898386  0.059207796   -2.6533212    1.1634826   313401 
  861000    1.0046784   -2.6511338   -2.6511338   -1.4897771   0.06405338   -2.6511338    1.1613568   313401 
  862000    1.0057504    -2.652156    -2.652156   -1.4895601  0.074124645    -2.652156     1.162596   313401 
  863000    1.0054351   -2.6529377   -2.6529377   -1.4907062  0.062155759   -2.6529377    1.1622315   313401 
  864000    1.0049285   -2.6517193   -2.6517193   -1.4900734  0.060527671   -2.6517193    1.1616459   313401 
  865000    1.0048679   -2.6510459   -2.6510459   -1.4894702  0.064332258   -2.6510459    1.1615758   313401 
  866000    1.0035434   -2.6505378   -2.6505378   -1.4904931  0.065122456   -2.6505378    1.1600447   313401 
  867000    1.0049218   -2.6526962   -2.6526962   -1.4910581  0.071449916   -2.6526962    1.1616381   313401 
  868000    1.0049968    -2.652557    -2.652557   -1.4908321  0.067537542    -2.652557    1.1617249   313401 
  869000    1.0047444   -2.6532056   -2.6532056   -1.4917725  0.067822341   -2.6532056    1.1614331   313401 
  870000    1.0056849   -2.6545466   -2.6545466   -1.4920264  0.056062319   -2.6545466    1.1625203   313401 
  871000    1.0057172   -2.6541885   -2.6541885   -1.4916309  0.063613902   -2.6541885    1.1625576   313401 
  872000    1.0051232   -2.6534647   -2.6534647   -1.4915937  0.067496048   -2.6534647     1.161871   313401 
  873000    1.0032797   -2.6528485   -2.6528485   -1.4931087  0.058255265   -2.6528485    1.1597399   313401 
  874000    1.0061219   -2.6561624   -2.6561624    -1.493137  0.060109961   -2.6561624    1.1630254   313401 
  875000    1.0051828   -2.6551315   -2.6551315   -1.4931916  0.054721907   -2.6551315    1.1619398   313401 
  876000     1.004911   -2.6540354   -2.6540354   -1.4924097  0.071266937   -2.6540354    1.1616256   313401 
  877000    1.0044169   -2.6540775   -2.6540775   -1.4930231  0.064931621   -2.6540775    1.1610544   313401 
  878000    1.0032149   -2.6525807   -2.6525807   -1.4929157  0.063568684   -2.6525807     1.159665   313401 
  879000    1.0054491   -2.6548488   -2.6548488   -1.4926012  0.067667729   -2.6548488    1.1622476   313401 
  880000    1.0058873    -2.655247    -2.655247   -1.4924928  0.065465105    -2.655247    1.1627542   313401 
  881000    1.0047238   -2.6542089   -2.6542089   -1.4927997  0.066354189   -2.6542089    1.1614092   313401 
  882000    1.0059127   -2.6555561   -2.6555561   -1.4927726  0.068624088   -2.6555561    1.1627835   313401 
  883000    1.0050848   -2.6545386   -2.6545386    -1.492712  0.065426774   -2.6545386    1.1618266   313401 
  884000    1.0055709    -2.653929    -2.653929   -1.4915406  0.061881769    -2.653929    1.1623884   313401 
  885000    1.0054185   -2.6562059   -2.6562059   -1.4939937    0.0636302   -2.6562059    1.1622122   313401 
  886000    1.0067945   -2.6559456   -2.6559456   -1.4921428  0.058357176   -2.6559456    1.1638028   313401 
  887000    1.0050719   -2.6540641   -2.6540641   -1.4922525  0.062746038   -2.6540641    1.1618117   313401 
  888000    1.0044565   -2.6539756   -2.6539756   -1.4928753  0.059460758   -2.6539756    1.1611003   313401 
  889000    1.0065056    -2.655174    -2.655174    -1.491705   0.05433666    -2.655174     1.163469   313401 
  890000    1.0079192    -2.656063    -2.656063     -1.49096   0.06613836    -2.656063    1.1651029   313401 
  891000    1.0070014   -2.6556043   -2.6556043   -1.4915622  0.054688968   -2.6556043    1.1640421   313401 
  892000    1.0056008    -2.653089    -2.653089   -1.4906659  0.071444547    -2.653089     1.162423   313401 
  893000    1.0035703   -2.6516024   -2.6516024   -1.4915265  0.074203183   -2.6516024    1.1600759   313401 
  894000    1.0045544   -2.6519681   -2.6519681   -1.4907547  0.082429015   -2.6519681    1.1612134   313401 
  895000    1.0055727   -2.6532312   -2.6532312   -1.4908407  0.076706552   -2.6532312    1.1623905   313401 
  896000    1.0056987   -2.6534927   -2.6534927   -1.4909565  0.057978697   -2.6534927    1.1625362   313401 
  897000    1.0050802   -2.6532898   -2.6532898   -1.4914686  0.062907659   -2.6532898    1.1618213   313401 
  898000    1.0032972   -2.6521281   -2.6521281    -1.492368  0.058352906   -2.6521281    1.1597601   313401 
  899000    1.0027729   -2.6496915   -2.6496915   -1.4905374   0.07346923   -2.6496915    1.1591541   313401 
  900000    1.0050607   -2.6523419   -2.6523419   -1.4905432  0.055984732   -2.6523419    1.1617987   313401 
  901000    1.0039607   -2.6504389   -2.6504389   -1.4899118  0.062266729   -2.6504389    1.1605271   313401 
  902000    1.0040522   -2.6502191   -2.6502191   -1.4895862   0.06688532   -2.6502191    1.1606329   313401 
  903000    1.0044448   -2.6505646   -2.6505646   -1.4894779  0.064755644   -2.6505646    1.1610868   313401 
  904000     1.003337   -2.6493044   -2.6493044   -1.4894982  0.063945539   -2.6493044    1.1598061   313401 
  905000    1.0051381   -2.6508611   -2.6508611    -1.488973  0.061614385   -2.6508611    1.1618881   313401 
  906000    1.0038814    -2.649314    -2.649314   -1.4888786  0.070039075    -2.649314    1.1604354   313401 
  907000    1.0040605   -2.6509343   -2.6509343   -1.4902918   0.05855997   -2.6509343    1.1606425   313401 
  908000    1.0049012    -2.651386    -2.651386   -1.4897717  0.063541567    -2.651386    1.1616143   313401 
  909000    1.0061561   -2.6527808   -2.6527808   -1.4897159  0.060953037   -2.6527808    1.1630649   313401 
  910000    1.0024368    -2.648688    -2.648688   -1.4899224  0.059224632    -2.648688    1.1587656   313401 
  911000    1.0029731   -2.6503755   -2.6503755     -1.49099   0.06727393   -2.6503755    1.1593855   313401 
  912000     1.006593   -2.6540618   -2.6540618   -1.4904919  0.066861497   -2.6540618    1.1635699   313401 
  913000    1.0048131   -2.6523862   -2.6523862   -1.4908737  0.067294925   -2.6523862    1.1615124   313401 
  914000     1.004607   -2.6518432   -2.6518432    -1.490569  0.074978426   -2.6518432    1.1612743   313401 
  915000    1.0050937   -2.6511541   -2.6511541   -1.4893173  0.075044085   -2.6511541    1.1618368   313401 
  916000     1.007021   -2.6541983   -2.6541983   -1.4901337  0.057868104   -2.6541983    1.1640647   313401 
  917000    1.0052543   -2.6520318   -2.6520318   -1.4900094  0.073042364   -2.6520318    1.1620224   313401 
  918000    1.0063538   -2.6528736   -2.6528736   -1.4895801  0.062803622   -2.6528736    1.1632934   313401 
  919000    1.0081055   -2.6546193   -2.6546193    -1.489301  0.074590809   -2.6546193    1.1653183   313401 
  920000    1.0081859   -2.6545736   -2.6545736   -1.4891623  0.061911482   -2.6545736    1.1654113   313401 
  921000    1.0060835   -2.6529536   -2.6529536   -1.4899726   0.07135972   -2.6529536     1.162981   313401 
  922000    1.0066999   -2.6538133   -2.6538133   -1.4901198  0.079014228   -2.6538133    1.1636935   313401 
  923000    1.0077709   -2.6549226   -2.6549226    -1.489991  0.068417418   -2.6549226    1.1649316   313401 
  924000    1.0047604   -2.6520142   -2.6520142   -1.4905627  0.067516107   -2.6520142    1.1614516   313401 
  925000     1.007668   -2.6541075   -2.6541075   -1.4892949  0.072515008   -2.6541075    1.1648126   313401 
  926000    1.0049611   -2.6540335   -2.6540335     -1.49235   0.06902638   -2.6540335    1.1616835   313401 
  927000    1.0033088   -2.6515943   -2.6515943   -1.4918207  0.067951108   -2.6515943    1.1597736   313401 
  928000    1.0043909   -2.6529943   -2.6529943   -1.4919699   0.07059554   -2.6529943    1.1610245   313401 
  929000    1.0038458   -2.6520845   -2.6520845   -1.4916902   0.05371901   -2.6520845    1.1603943   313401 
  930000    1.0021453   -2.6513171   -2.6513171   -1.4928885  0.060037157   -2.6513171    1.1584286   313401 
  931000    1.0021808   -2.6512143   -2.6512143   -1.4927445  0.073235443   -2.6512143    1.1584697   313401 
  932000    1.0038401   -2.6538338   -2.6538338   -1.4934461  0.059468536   -2.6538338    1.1603877   313401 
  933000    1.0020289   -2.6526795   -2.6526795   -1.4943855  0.076874799   -2.6526795    1.1582941   313401 
  934000    1.0024121   -2.6528705   -2.6528705   -1.4941335  0.076568482   -2.6528705     1.158737   313401 
  935000    1.0037317   -2.6527324   -2.6527324     -1.49247  0.058404828   -2.6527324    1.1602625   313401 
  936000    1.0036171   -2.6522827   -2.6522827   -1.4921527  0.063000665   -2.6522827    1.1601299   313401 
  937000     1.004113    -2.653811    -2.653811   -1.4931078  0.053416075    -2.653811    1.1607031   313401 
  938000    1.0047643   -2.6545695   -2.6545695   -1.4931134  0.066028018   -2.6545695    1.1614561   313401 
  939000    1.0040006   -2.6531508   -2.6531508   -1.4925776  0.071558543   -2.6531508    1.1605733   313401 
  940000    1.0047996   -2.6550152   -2.6550152   -1.4935182  0.055829712   -2.6550152    1.1614969   313401 
  941000    1.0069573   -2.6569656   -2.6569656   -1.4929746  0.068901372   -2.6569656     1.163991   313401 
  942000    1.0054863    -2.654464    -2.654464   -1.4921734  0.062693563    -2.654464    1.1622906   313401 
  943000    1.0047254   -2.6551096   -2.6551096   -1.4936985  0.050809491   -2.6551096    1.1614111   313401 
  944000    1.0076461   -2.6567006   -2.6567006   -1.4919133  0.063944214   -2.6567006    1.1647873   313401 
  945000    1.0043057    -2.654229    -2.654229   -1.4933031  0.074216966    -2.654229     1.160926   313401 
  946000     1.004646   -2.6545687   -2.6545687   -1.4932494  0.066728374   -2.6545687    1.1613193   313401 
  947000    1.0055399   -2.6558969   -2.6558969   -1.4935444  0.068046547   -2.6558969    1.1623526   313401 
  948000    1.0068327   -2.6570374   -2.6570374   -1.4931904  0.053864062   -2.6570374    1.1638471   313401 
  949000     1.006143   -2.6568404   -2.6568404   -1.4937906  0.070861957   -2.6568404    1.1630498   313401 
  950000    1.0051768   -2.6553765   -2.6553765   -1.4934437  0.069234944   -2.6553765    1.1619329   313401 
  951000    1.0059532     -2.65492     -2.65492   -1.4920897  0.062636526     -2.65492    1.1628303   313401 
  952000    1.0060003   -2.6563825   -2.6563825   -1.4934976  0.066832758   -2.6563825    1.1628849   313401 
  953000    1.0055287   -2.6548151   -2.6548151   -1.4924754  0.069973093   -2.6548151    1.1623396   313401 
  954000    1.0066737   -2.6572166   -2.6572166   -1.4935533  0.064442598   -2.6572166    1.1636632   313401 
  955000    1.0076931   -2.6578416   -2.6578416   -1.4929999  0.072771085   -2.6578416    1.1648416   313401 
  956000    1.0049885   -2.6546089   -2.6546089   -1.4928937  0.066920684   -2.6546089    1.1617152   313401 
  957000    1.0055334    -2.655355    -2.655355   -1.4930099  0.069410764    -2.655355    1.1623451   313401 
  958000     1.006483   -2.6561389   -2.6561389   -1.4926962  0.058095615   -2.6561389    1.1634428   313401 
  959000    1.0056918   -2.6543342   -2.6543342   -1.4918059  0.070776626   -2.6543342    1.1625282   313401 
  960000    1.0061003   -2.6566195   -2.6566195   -1.4936191  0.053121264   -2.6566195    1.1630004   313401 
  961000    1.0032866     -2.65404     -2.65404   -1.4942921   0.06332315     -2.65404    1.1597479   313401 
  962000    1.0028254   -2.6528172   -2.6528172   -1.4936025  0.078186292   -2.6528172    1.1592147   313401 
  963000    1.0020214   -2.6533434   -2.6533434   -1.4950579  0.046528448   -2.6533434    1.1582855   313401 
  964000    1.0013741   -2.6533037   -2.6533037   -1.4957666  0.054034812   -2.6533037    1.1575371   313401 
  965000    1.0037589   -2.6543156   -2.6543156   -1.4940217  0.063936431   -2.6543156    1.1602939   313401 
  966000    1.0028037   -2.6524219   -2.6524219   -1.4932322  0.066251812   -2.6524219    1.1591897   313401 
  967000    1.0042364   -2.6540325   -2.6540325   -1.4931867  0.049007405   -2.6540325    1.1608458   313401 
  968000    1.0044963   -2.6536849   -2.6536849   -1.4925387  0.070682098   -2.6536849    1.1611462   313401 
  969000    1.0047791   -2.6542914   -2.6542914   -1.4928182  0.070923208   -2.6542914    1.1614732   313401 
  970000    1.0053282   -2.6530315   -2.6530315   -1.4909236  0.070158563   -2.6530315    1.1621079   313401 
  971000    1.0057348   -2.6536373   -2.6536373   -1.4910593  0.057957387   -2.6536373    1.1625779   313401 
  972000    1.0045054   -2.6519712   -2.6519712   -1.4908144  0.066699168   -2.6519712    1.1611568   313401 
  973000    1.0064887   -2.6535572   -2.6535572   -1.4901079  0.071751571   -2.6535572    1.1634493   313401 
  974000    1.0046637   -2.6514075   -2.6514075   -1.4900678  0.068982855   -2.6514075    1.1613397   313401 
  975000    1.0059724   -2.6527336   -2.6527336    -1.489881  0.064407733   -2.6527336    1.1628526   313401 
  976000    1.0046235   -2.6519611   -2.6519611   -1.4906677  0.073410587   -2.6519611    1.1612933   313401 
  977000    1.0058403   -2.6519054   -2.6519054   -1.4892056  0.063441993   -2.6519054    1.1626999   313401 
  978000    1.0042488   -2.6518921   -2.6518921   -1.4910319  0.059464137   -2.6518921    1.1608602   313401 
  979000    1.0039193   -2.6524375   -2.6524375   -1.4919582  0.066812828   -2.6524375    1.1604793   313401 
  980000    1.0069458   -2.6550946   -2.6550946   -1.4911168  0.065718393   -2.6550946    1.1639778   313401 
  981000    1.0061209   -2.6545811   -2.6545811   -1.4915569  0.062519932   -2.6545811    1.1630242   313401 
  982000    1.0031711   -2.6509679   -2.6509679   -1.4913535  0.063980007   -2.6509679    1.1596144   313401 
  983000    1.0046417   -2.6513866   -2.6513866   -1.4900723   0.06434851   -2.6513866    1.1613143   313401 
  984000    1.0060344   -2.6539263   -2.6539263    -1.491002  0.068524021   -2.6539263    1.1629243   313401 
  985000    1.0060118   -2.6538815   -2.6538815   -1.4909834  0.058903507   -2.6538815    1.1628981   313401 
  986000    1.0048399    -2.654859    -2.654859   -1.4933155  0.059424951    -2.654859    1.1615434   313401 
  987000      1.00319   -2.6527793   -2.6527793    -1.493143  0.072071208   -2.6527793    1.1596363   313401 
  988000    1.0029757    -2.652693    -2.652693   -1.4933045  0.060462739    -2.652693    1.1593885   313401 
  989000     1.001302   -2.6509435   -2.6509435   -1.4934896   0.05827483   -2.6509435    1.1574539   313401 
  990000    1.0037694   -2.6522377   -2.6522377   -1.4919318  0.062172082   -2.6522377     1.160306   313401 
  991000    1.0058268   -2.6547805   -2.6547805   -1.4920963  0.065285838   -2.6547805    1.1626842   313401 
  992000    1.0046557   -2.6539655   -2.6539655    -1.492635  0.073863226   -2.6539655    1.1613305   313401 
  993000    1.0050854   -2.6543499   -2.6543499   -1.4925228  0.067677281   -2.6543499    1.1618272   313401 
  994000    1.0062937   -2.6551119   -2.6551119    -1.491888   0.06864575   -2.6551119    1.1632239   313401 
  995000    1.0069302   -2.6558593   -2.6558593   -1.4918996  0.080608257   -2.6558593    1.1639597   313401 
  996000    1.0061942   -2.6543326   -2.6543326   -1.4912236  0.074375262   -2.6543326     1.163109   313401 
  997000    1.0070748   -2.6549584   -2.6549584   -1.4908315  0.072475613   -2.6549584    1.1641269   313401 
  998000    1.0080939   -2.6566646   -2.6566646   -1.4913597  0.069173033   -2.6566646    1.1653049   313401 
  999000    1.0058176   -2.6564451   -2.6564451   -1.4937715  0.063396287   -2.6564451    1.1626737   313401 
 1000000    1.0051008   -2.6563587   -2.6563587   -1.4945137  0.073083007   -2.6563587     1.161845   313401 
 1001000    1.0053654   -2.6571237   -2.6571237   -1.4949729   0.07090354   -2.6571237    1.1621509   313401 
 1002000    1.0053688   -2.6573613   -2.6573613   -1.4952064  0.059462071   -2.6573613    1.1621548   313401 
 1003000    1.0051046   -2.6575059   -2.6575059   -1.4956566  0.070196979   -2.6575059    1.1618494   313401 
 1004000    1.0048509   -2.6571617   -2.6571617   -1.4956056  0.064223415   -2.6571617    1.1615562   313401 
 1005000    1.0035586   -2.6550417   -2.6550417   -1.4949793  0.063497145   -2.6550417    1.1600623   313401 
 1006000    1.0044902   -2.6568996   -2.6568996   -1.4957604  0.061134757   -2.6568996    1.1611392   313401 
 1007000    1.0030262   -2.6563991   -2.6563991   -1.4969521  0.065594087   -2.6563991     1.159447   313401 
 1008000    1.0037524   -2.6577229   -2.6577229   -1.4974366  0.075350255   -2.6577229    1.1602863   313401 
 1009000    1.0041674   -2.6575389   -2.6575389   -1.4967728  0.064643227   -2.6575389     1.160766   313401 
 1010000    1.0038316    -2.658278    -2.658278   -1.4979001  0.062088542    -2.658278    1.1603779   313401 
 1011000    1.0036805   -2.6568361   -2.6568361   -1.4966328  0.074870558   -2.6568361    1.1602032   313401 
 1012000    1.0047565   -2.6577962   -2.6577962   -1.4963491  0.077756128   -2.6577962     1.161447   313401 
 1013000    1.0051194   -2.6578119   -2.6578119   -1.4959454  0.072771555   -2.6578119    1.1618665   313401 
 1014000    1.0044208   -2.6576245   -2.6576245   -1.4965655  0.059773389   -2.6576245     1.161059   313401 
 1015000    1.0041468   -2.6575879   -2.6575879   -1.4968457  0.066525793   -2.6575879    1.1607422   313401 
 1016000    1.0070314   -2.6600436   -2.6600436   -1.4959669  0.066629068   -2.6600436    1.1640767   313401 
 1017000    1.0043832   -2.6577534   -2.6577534   -1.4967379  0.071623315   -2.6577534    1.1610155   313401 
 1018000    1.0039874   -2.6581779   -2.6581779   -1.4976199  0.068885458   -2.6581779    1.1605579   313401 
 1019000    1.0041914   -2.6570257   -2.6570257   -1.4962318   0.06357813   -2.6570257    1.1607939   313401 
 1020000    1.0041971   -2.6566694   -2.6566694   -1.4958689  0.077646012   -2.6566694    1.1608004   313401 
 1021000    1.0056114    -2.657843    -2.657843   -1.4954077  0.060354097    -2.657843    1.1624353   313401 
 1022000     1.006761   -2.6593398   -2.6593398   -1.4955757  0.082438626   -2.6593398    1.1637641   313401 
 1023000    1.0015984   -2.6532713   -2.6532713   -1.4954749  0.065162149   -2.6532713    1.1577964   313401 
 1024000    1.0055091   -2.6568566   -2.6568566   -1.4945396  0.059655584   -2.6568566     1.162317   313401 
 1025000    1.0074455   -2.6586565   -2.6586565   -1.4941011  0.063618677   -2.6586565    1.1645554   313401 
 1026000    1.0056427   -2.6565175   -2.6565175   -1.4940461  0.062087615   -2.6565175    1.1624715   313401 
 1027000    1.0062987    -2.658499    -2.658499   -1.4952692  0.063068204    -2.658499    1.1632297   313401 
 1028000    1.0069806   -2.6587729   -2.6587729   -1.4947549  0.070601714   -2.6587729     1.164018   313401 
 1029000    1.0056279   -2.6586114   -2.6586114    -1.496157  0.057278709   -2.6586114    1.1624544   313401 
 1030000    1.0046054   -2.6563865   -2.6563865   -1.4951142  0.082202487   -2.6563865    1.1612723   313401 
 1031000    1.0072499   -2.6584697   -2.6584697   -1.4941404  0.061212901   -2.6584697    1.1643293   313401 
 1032000    1.0042959   -2.6561044   -2.6561044   -1.4951898  0.056452608   -2.6561044    1.1609146   313401 
 1033000    1.0019216   -2.6550994   -2.6550994   -1.4969294  0.062320913   -2.6550994      1.15817   313401 
 1034000    1.0031051    -2.656111    -2.656111   -1.4965729  0.062217715    -2.656111    1.1595381   313401 
 1035000    1.0036836   -2.6566873   -2.6566873   -1.4964805  0.055482225   -2.6566873    1.1602068   313401 
 1036000    1.0023197   -2.6562149   -2.6562149   -1.4975847  0.052643221   -2.6562149    1.1586302   313401 
 1037000    1.0029998   -2.6561756   -2.6561756   -1.4967592  0.062052101   -2.6561756    1.1594164   313401 
 1038000    1.0035406    -2.657012    -2.657012   -1.4969705  0.058791048    -2.657012    1.1600415   313401 
 1039000    1.0024224   -2.6556952   -2.6556952   -1.4969463  0.070870897   -2.6556952    1.1587489   313401 
 1040000    1.0015114    -2.654446    -2.654446   -1.4967502  0.075889272    -2.654446    1.1576958   313401 
 1041000    1.0043561   -2.6577141   -2.6577141   -1.4967299   0.07753201   -2.6577141    1.1609842   313401 
 1042000    1.0047006    -2.657857    -2.657857   -1.4964746  0.072716568    -2.657857    1.1613825   313401 
 1043000    1.0065503   -2.6583212   -2.6583212   -1.4948007  0.066917599   -2.6583212    1.1635205   313401 
 1044000    1.0064399   -2.6583437   -2.6583437   -1.4949507  0.069124805   -2.6583437     1.163393   313401 
 1045000    1.0058868   -2.6571319   -2.6571319   -1.4943783  0.067944909   -2.6571319    1.1627536   313401 
 1046000    1.0074176   -2.6588656   -2.6588656   -1.4943425  0.061707528   -2.6588656    1.1645232   313401 
 1047000    1.0063322   -2.6584211   -2.6584211   -1.4951526  0.071617854   -2.6584211    1.1632684   313401 
 1048000    1.0040225   -2.6555866   -2.6555866    -1.494988  0.075523421   -2.6555866    1.1605986   313401 
 1049000    1.0051814   -2.6577454   -2.6577454   -1.4958073   0.06674475   -2.6577454    1.1619382   313401 
 1050000    1.0046665   -2.6573255   -2.6573255   -1.4959825  0.071926288   -2.6573255     1.161343   313401 
 1051000    1.0037349   -2.6567359   -2.6567359   -1.4964698   0.07068673   -2.6567359    1.1602661   313401 
 1052000    1.0043092   -2.6564133   -2.6564133   -1.4954833  0.071624285   -2.6564133      1.16093   313401 
 1053000    1.0033718   -2.6554968   -2.6554968   -1.4956504  0.071626329   -2.6554968    1.1598464   313401 
 1054000     1.003119   -2.6552676   -2.6552676   -1.4957134  0.058952999   -2.6552676    1.1595542   313401 
 1055000    1.0052382   -2.6581022   -2.6581022   -1.4960983   0.06451146   -2.6581022    1.1620039   313401 
 1056000    1.0057094    -2.658385    -2.658385   -1.4958364  0.062216919    -2.658385    1.1625486   313401 
 1057000    1.0047693   -2.6565711   -2.6565711   -1.4951092   0.06268701   -2.6565711    1.1614619   313401 
 1058000     1.006732   -2.6583037   -2.6583037   -1.4945731  0.071865092   -2.6583037    1.1637306   313401 
 1059000    1.0068523   -2.6586159   -2.6586159   -1.4947462  0.069236254   -2.6586159    1.1638697   313401 
 1060000    1.0057818   -2.6565219   -2.6565219   -1.4938897  0.057943164   -2.6565219    1.1626322   313401 
 1061000    1.0052906   -2.6569872   -2.6569872   -1.4949227  0.070219661   -2.6569872    1.1620645   313401 
 1062000     1.005609    -2.656822    -2.656822   -1.4943896  0.059301244    -2.656822    1.1624325   313401 
 1063000    1.0066404   -2.6578216   -2.6578216   -1.4941969  0.062897183   -2.6578216    1.1636247   313401 
 1064000    1.0066242   -2.6582437   -2.6582437   -1.4946377  0.070047781   -2.6582437     1.163606   313401 
 1065000    1.0079738   -2.6588911   -2.6588911    -1.493725  0.072154751   -2.6588911    1.1651661   313401 
 1066000    1.0066775    -2.658788    -2.658788   -1.4951204  0.073260096    -2.658788    1.1636676   313401 
 1067000    1.0024516   -2.6536228   -2.6536228   -1.4948401  0.078977702   -2.6536228    1.1587826   313401 
 1068000    1.0021574   -2.6546807   -2.6546807   -1.4962381  0.054212296   -2.6546807    1.1584426   313401 
 1069000    1.0042023    -2.656673    -2.656673   -1.4958667  0.068789219    -2.656673    1.1608064   313401 
 1070000    1.0051387   -2.6574211   -2.6574211   -1.4955323  0.053908373   -2.6574211    1.1618888   313401 
 1071000    1.0024413   -2.6544517   -2.6544517   -1.4956809  0.073203026   -2.6544517    1.1587708   313401 
 1072000     1.003982   -2.6573254   -2.6573254   -1.4967737  0.077042868   -2.6573254    1.1605517   313401 
 1073000    1.0052994   -2.6582777   -2.6582777   -1.4962032   0.06680064   -2.6582777    1.1620746   313401 
 1074000    1.0033846   -2.6561713   -2.6561713   -1.4963101  0.063872223   -2.6561713    1.1598612   313401 
 1075000    1.0007874   -2.6535223   -2.6535223   -1.4966633  0.066439822   -2.6535223     1.156859   313401 
 1076000    1.0036096   -2.6563891   -2.6563891   -1.4962679  0.070394427   -2.6563891    1.1601212   313401 
 1077000    1.0024483   -2.6559441   -2.6559441   -1.4971652  0.077783758   -2.6559441    1.1587789   313401 
 1078000    1.0037173   -2.6570236   -2.6570236   -1.4967779  0.063794997   -2.6570236    1.1602457   313401 
 1079000    1.0042408   -2.6569186   -2.6569186   -1.4960677  0.064088149   -2.6569186    1.1608509   313401 
 1080000    1.0054934   -2.6583598   -2.6583598    -1.496061  0.061812188   -2.6583598    1.1622988   313401 
 1081000    1.0055909   -2.6581758   -2.6581758   -1.4957642  0.043941799   -2.6581758    1.1624116   313401 
 1082000    1.0046803   -2.6571088   -2.6571088   -1.4957499  0.055507908   -2.6571088     1.161359   313401 
 1083000    1.0039462    -2.657375    -2.657375   -1.4968646  0.061560386    -2.657375    1.1605103   313401 
 1084000    1.0025694   -2.6553036   -2.6553036   -1.4963848  0.069409572   -2.6553036    1.1589188   313401 
 1085000    1.0059378   -2.6598143   -2.6598143   -1.4970018  0.074463925   -2.6598143    1.1628126   313401 
 1086000    1.0044374   -2.6587364   -2.6587364   -1.4976582  0.060288962   -2.6587364    1.1610782   313401 
 1087000    1.0034535   -2.6572222   -2.6572222   -1.4972814  0.069674136   -2.6572222    1.1599409   313401 
 1088000    1.0039091   -2.6570589   -2.6570589   -1.4965915  0.058777233   -2.6570589    1.1604674   313401 
 1089000    1.0057178   -2.6599689   -2.6599689   -1.4974106  0.061748091   -2.6599689    1.1625582   313401 
 1090000    1.0038386   -2.6578081   -2.6578081   -1.4974222  0.080768203   -2.6578081     1.160386   313401 
 1091000    1.0043106   -2.6575094   -2.6575094   -1.4965779  0.061086975   -2.6575094    1.1609316   313401 
 1092000    1.0057185   -2.6603556   -2.6603556   -1.4977966  0.068987878   -2.6603556     1.162559   313401 
 1093000    1.0035498    -2.657486    -2.657486   -1.4974339  0.081759902    -2.657486    1.1600521   313401 
 1094000     1.006329   -2.6602157   -2.6602157   -1.4969509  0.071404327   -2.6602157    1.1632648   313401 
 1095000    1.0048657   -2.6587801   -2.6587801   -1.4972068  0.074785578   -2.6587801    1.1615733   313401 
 1096000    1.0039589   -2.6579961   -2.6579961    -1.497471  0.062846239   -2.6579961    1.1605251   313401 
 1097000    1.0034324   -2.6564518   -2.6564518   -1.4965354  0.070111925   -2.6564518    1.1599164   313401 
 1098000    1.0037775    -2.658066    -2.658066   -1.4977506  0.058690002    -2.658066    1.1603154   313401 
 1099000    1.0033249   -2.6574096   -2.6574096   -1.4976174  0.076453059   -2.6574096    1.1597922   313401 
 1100000    1.0041738   -2.6587169   -2.6587169   -1.4979434  0.067475454   -2.6587169    1.1607735   313401 
 1101000    1.0019052    -2.656408    -2.656408   -1.4982569   0.06564965    -2.656408    1.1581511   313401 
 1102000    1.0034077   -2.6580178   -2.6580178   -1.4981298  0.064552077   -2.6580178    1.1598879   313401 
 1103000    1.0036977    -2.657893    -2.657893   -1.4976699  0.067047689    -2.657893    1.1602231   313401 
 1104000     1.004115    -2.658387    -2.658387   -1.4976816  0.058091036    -2.658387    1.1607055   313401 
 1105000    1.0061325   -2.6610327   -2.6610327   -1.4979951  0.072090199   -2.6610327    1.1630377   313401 
 1106000    1.0049984   -2.6589944   -2.6589944   -1.4972678  0.078448024   -2.6589944    1.1617266   313401 
 1107000    1.0060216   -2.6603713   -2.6603713   -1.4974618  0.070903163   -2.6603713    1.1629094   313401 
 1108000    1.0050289   -2.6576907   -2.6576907   -1.4959287  0.070249073   -2.6576907    1.1617619   313401 
 1109000    1.0049823   -2.6577685   -2.6577685   -1.4960605  0.065194232   -2.6577685     1.161708   313401 
 1110000    1.0049071   -2.6585299   -2.6585299   -1.4969088  0.067566597   -2.6585299    1.1616212   313401 
 1111000    1.0047201   -2.6590297   -2.6590297   -1.4976247  0.064370518   -2.6590297    1.1614049   313401 
 1112000    1.0058756   -2.6598804   -2.6598804   -1.4971397  0.063498244   -2.6598804    1.1627407   313401 
 1113000     1.002803   -2.6570816   -2.6570816   -1.4978926  0.060772876   -2.6570816    1.1591889   313401 
 1114000    1.0032642   -2.6574555   -2.6574555   -1.4977334  0.062924717   -2.6574555    1.1597221   313401 
 1115000    1.0025177   -2.6562654   -2.6562654   -1.4974062  0.070605886   -2.6562654    1.1588591   313401 
 1116000    1.0055538   -2.6599463   -2.6599463   -1.4975775  0.063464269   -2.6599463    1.1623687   313401 
 1117000    1.0042632    -2.657755    -2.657755   -1.4968782   0.05636327    -2.657755    1.1608768   313401 
 1118000    1.0042301   -2.6576667   -2.6576667   -1.4968281  0.069992966   -2.6576667    1.1608386   313401 
 1119000    1.0051422   -2.6590072   -2.6590072   -1.4971143  0.069576741   -2.6590072    1.1618929   313401 
 1120000    1.0049112   -2.6581614   -2.6581614   -1.4965355  0.070395104   -2.6581614    1.1616259   313401 
 1121000    1.0045212   -2.6581687   -2.6581687   -1.4969937   0.07432908   -2.6581687    1.1611751   313401 
 1122000    1.0030605   -2.6552241   -2.6552241   -1.4957376  0.071540642   -2.6552241    1.1594865   313401 
 1123000    1.0043393    -2.657869    -2.657869   -1.4969043   0.06341397    -2.657869    1.1609647   313401 
 1124000    1.0058382   -2.6584901   -2.6584901   -1.4957927   0.05381408   -2.6584901    1.1626974   313401 
 1125000    1.0040267   -2.6564965   -2.6564965   -1.4958931  0.059854634   -2.6564965    1.1606035   313401 
 1126000    1.0023194    -2.655771    -2.655771   -1.4971411  0.065091307    -2.655771    1.1586299   313401 
 1127000    1.0058135     -2.65974     -2.65974   -1.4970711   0.06053996     -2.65974    1.1626689   313401 
 1128000    1.0039551    -2.657465    -2.657465   -1.4969444  0.063128728    -2.657465    1.1605206   313401 
 1129000    1.0037019   -2.6561583   -2.6561583   -1.4959304   0.07206481   -2.6561583    1.1602279   313401 
 1130000    1.0050204   -2.6565495   -2.6565495   -1.4947974   0.07941501   -2.6565495     1.161752   313401 
 1131000     1.005678   -2.6572484   -2.6572484   -1.4947362    0.0719721   -2.6572484    1.1625122   313401 
 1132000    1.0037965    -2.655747    -2.655747   -1.4954097    0.0562761    -2.655747    1.1603373   313401 
 1133000     1.005019   -2.6567288   -2.6567288   -1.4949783  0.052846313   -2.6567288    1.1617504   313401 
 1134000    1.0047066   -2.6553933   -2.6553933   -1.4940039  0.053233076   -2.6553933    1.1613894   313401 
 1135000    1.0055366   -2.6563044   -2.6563044   -1.4939557  0.071330469   -2.6563044    1.1623488   313401 
 1136000    1.0037286   -2.6562874   -2.6562874   -1.4960286  0.055993462   -2.6562874    1.1602588   313401 
 1137000    1.0028223   -2.6559281   -2.6559281   -1.4967168   0.05785964   -2.6559281    1.1592112   313401 
 1138000    1.0019337   -2.6553001   -2.6553001   -1.4971161  0.061408664   -2.6553001     1.158184   313401 
 1139000    1.0027361   -2.6554215   -2.6554215     -1.49631  0.073087985   -2.6554215    1.1591115   313401 
 1140000    1.0032203   -2.6560357   -2.6560357   -1.4963643  0.058851826   -2.6560357    1.1596713   313401 
 1141000    1.0036794   -2.6571652   -2.6571652   -1.4969632  0.066490819   -2.6571652     1.160202   313401 
 1142000     1.003289   -2.6550265   -2.6550265   -1.4952758  0.058489869   -2.6550265    1.1597506   313401 
 1143000    1.0019173   -2.6542705   -2.6542705   -1.4961055  0.052367073   -2.6542705     1.158165   313401 
 1144000    1.0050137   -2.6582983   -2.6582983    -1.496554  0.064708466   -2.6582983    1.1617443   313401 
 1145000    1.0040889   -2.6572854   -2.6572854     -1.49661  0.057849423   -2.6572854    1.1606754   313401 
 1146000    1.0050512   -2.6574934   -2.6574934   -1.4957057  0.065338444   -2.6574934    1.1617877   313401 
 1147000    1.0041435   -2.6565076   -2.6565076   -1.4957692  0.056922508   -2.6565076    1.1607384   313401 
 1148000    1.0054148   -2.6582461   -2.6582461   -1.4960382  0.051554028   -2.6582461     1.162208   313401 
 1149000    1.0039399   -2.6552758   -2.6552758   -1.4947727  0.068759569   -2.6552758    1.1605031   313401 
 1150000    1.0070039   -2.6578271   -2.6578271   -1.4937823  0.077647224   -2.6578271    1.1640449   313401 
 1151000    1.0053658   -2.6563079   -2.6563079   -1.4941566  0.066481869   -2.6563079    1.1621514   313401 
 1152000     1.005463   -2.6574118   -2.6574118    -1.495148  0.072877545   -2.6574118    1.1622637   313401 
 1153000    1.0044779   -2.6561488   -2.6561488   -1.4950238  0.068236536   -2.6561488     1.161125   313401 
 1154000     1.004885    -2.656401    -2.656401   -1.4948055  0.076236949    -2.656401    1.1615955   313401 
 1155000    1.0059945    -2.657784    -2.657784   -1.4949059  0.067281046    -2.657784    1.1628781   313401 
 1156000    1.0065633   -2.6578734   -2.6578734   -1.4943378  0.076942956   -2.6578734    1.1635356   313401 
 1157000    1.0036321   -2.6558821   -2.6558821   -1.4957348  0.071359039   -2.6558821    1.1601473   313401 
 1158000    1.0062812     -2.65847     -2.65847   -1.4952605  0.072776348     -2.65847    1.1632095   313401 
 1159000    1.0048044   -2.6572669   -2.6572669   -1.4957645  0.067983651   -2.6572669    1.1615024   313401 
 1160000      1.00369   -2.6562279   -2.6562279   -1.4960137  0.062382566   -2.6562279    1.1602142   313401 
 1161000    1.0038698   -2.6560535   -2.6560535   -1.4956315  0.070404741   -2.6560535     1.160422   313401 
 1162000    1.0043268    -2.656343    -2.656343   -1.4953926  0.064118326    -2.656343    1.1609503   313401 
 1163000    1.0023211   -2.6548603   -2.6548603   -1.4962285  0.062425649   -2.6548603    1.1586318   313401 
 1164000    1.0055948   -2.6578391   -2.6578391    -1.495423  0.066028015   -2.6578391    1.1624161   313401 
 1165000    1.0042177   -2.6571076   -2.6571076   -1.4962834  0.059691731   -2.6571076    1.1608242   313401 
 1166000    1.0062525   -2.6574821   -2.6574821   -1.4943058  0.055117139   -2.6574821    1.1631763   313401 
 1167000    1.0056371   -2.6574685   -2.6574685   -1.4950035  0.056008021   -2.6574685     1.162465   313401 
 1168000    1.0036569   -2.6549679   -2.6549679    -1.494792  0.069340113   -2.6549679    1.1601759   313401 
 1169000    1.0059126   -2.6571336   -2.6571336   -1.4943502  0.067486587   -2.6571336    1.1627834   313401 
 1170000    1.0032548   -2.6544862   -2.6544862    -1.494775  0.069550487   -2.6544862    1.1597112   313401 
 1171000    1.0063438   -2.6577873   -2.6577873   -1.4945054  0.058626895   -2.6577873    1.1632819   313401 
 1172000    1.0054431    -2.657363    -2.657363   -1.4951222  0.062519782    -2.657363    1.1622408   313401 
 1173000    1.0054177   -2.6566446   -2.6566446   -1.4944332  0.067507827   -2.6566446    1.1622114   313401 
 1174000    1.0036084   -2.6542456   -2.6542456   -1.4941257  0.070325981   -2.6542456    1.1601199   313401 
 1175000    1.0065584   -2.6578498   -2.6578498   -1.4943199  0.059434737   -2.6578498    1.1635299   313401 
 1176000    1.0043066   -2.6560446   -2.6560446   -1.4951176  0.067818211   -2.6560446     1.160927   313401 
 1177000    1.0021851   -2.6539456   -2.6539456    -1.495471  0.077715167   -2.6539456    1.1584746   313401 
 1178000     1.005756   -2.6571106   -2.6571106   -1.4945082  0.065299311   -2.6571106    1.1626024   313401 
 1179000    1.0033081   -2.6553945   -2.6553945   -1.4956217  0.073064624   -2.6553945    1.1597727   313401 
 1180000    1.0029782   -2.6555943   -2.6555943    -1.496203  0.061701061   -2.6555943    1.1593914   313401 
 1181000    1.0038535   -2.6567277   -2.6567277   -1.4963245  0.069688005   -2.6567277    1.1604032   313401 
 1182000    1.0054115   -2.6583442   -2.6583442     -1.49614  0.053620468   -2.6583442    1.1622042   313401 
 1183000     1.004654   -2.6567802   -2.6567802   -1.4954516  0.066622207   -2.6567802    1.1613286   313401 
 1184000    1.0038635    -2.655804    -2.655804   -1.4953892  0.062262555    -2.655804    1.1604148   313401 
 1185000    1.0016919   -2.6533596   -2.6533596   -1.4954552  0.060111343   -2.6533596    1.1579045   313401 
 1186000     1.002849   -2.6560746   -2.6560746   -1.4968325  0.065876678   -2.6560746    1.1592421   313401 
 1187000     1.001642   -2.6540984   -2.6540984   -1.4962516  0.062536818   -2.6540984    1.1578468   313401 
 1188000    1.0044284   -2.6576749   -2.6576749   -1.4966071  0.061107536   -2.6576749    1.1610678   313401 
 1189000    1.0043129   -2.6577037   -2.6577037   -1.4967695  0.062544809   -2.6577037    1.1609342   313401 
 1190000    1.0027095   -2.6562694   -2.6562694   -1.4971886  0.062624278   -2.6562694    1.1590809   313401 
 1191000    1.0051871   -2.6583797   -2.6583797   -1.4964349  0.054309342   -2.6583797    1.1619448   313401 
 1192000    1.0040173   -2.6574335   -2.6574335    -1.496841  0.062959547   -2.6574335    1.1605925   313401 
 1193000    1.0035984    -2.656589    -2.656589   -1.4964806  0.066305385    -2.656589    1.1601084   313401 
 1194000    1.0034539    -2.656346    -2.656346   -1.4964047  0.058849783    -2.656346    1.1599413   313401 
 1195000    1.0038428   -2.6575015   -2.6575015   -1.4971106   0.08796022   -2.6575015    1.1603909   313401 
 1196000    1.0053443    -2.658275    -2.658275   -1.4961485  0.050129274    -2.658275    1.1621265   313401 
 1197000     1.005724    -2.659282    -2.659282   -1.4967166  0.071854436    -2.659282    1.1625654   313401 
 1198000    1.0046108   -2.6579937   -2.6579937   -1.4967151  0.065682852   -2.6579937    1.1612786   313401 
 1199000    1.0029375   -2.6562856   -2.6562856   -1.4969412   0.06853273   -2.6562856    1.1593443   313401 
 1200000    1.0021578   -2.6569043   -2.6569043   -1.4984613  0.055781773   -2.6569043     1.158443   313401 
 1201000    1.0034041   -2.6587147   -2.6587147    -1.498831  0.055340506   -2.6587147    1.1598837   313401 
 1202000    1.0038803   -2.6594376   -2.6594376   -1.4990033  0.071279319   -2.6594376    1.1604342   313401 
 1203000    1.0037133   -2.6594041   -2.6594041   -1.4991629  0.061780975   -2.6594041    1.1602412   313401 
 1204000    1.0021916   -2.6572024   -2.6572024   -1.4987203    0.0677998   -2.6572024    1.1584821   313401 
 1205000    1.0025117   -2.6584528   -2.6584528   -1.4996006  0.068634775   -2.6584528    1.1588522   313401 
 1206000    1.0026539   -2.6576994   -2.6576994   -1.4986829  0.068027616   -2.6576994    1.1590165   313401 
 1207000    1.0045184   -2.6602255   -2.6602255   -1.4990538   0.06115139   -2.6602255    1.1611718   313401 
 1208000    1.0010917   -2.6568046   -2.6568046   -1.4995938  0.069243467   -2.6568046    1.1572108   313401 
 1209000    1.0059064   -2.6625083   -2.6625083    -1.499732  0.065385566   -2.6625083    1.1627763   313401 
 1210000    1.0048566   -2.6608553   -2.6608553   -1.4992925  0.063221376   -2.6608553    1.1615628   313401 
 1211000    1.0044632   -2.6597711   -2.6597711   -1.4986631  0.081221773   -2.6597711     1.161108   313401 
 1212000    1.0057971   -2.6598582   -2.6598582   -1.4972082  0.065171623   -2.6598582    1.1626499   313401 
 1213000    1.0075506   -2.6626034   -2.6626034   -1.4979265  0.068100265   -2.6626034    1.1646769   313401 
 1214000    1.0050939   -2.6611937   -2.6611937   -1.4993567  0.075102152   -2.6611937     1.161837   313401 
 1215000    1.0050972    -2.660197    -2.660197   -1.4983562  0.075895269    -2.660197    1.1618408   313401 
 1216000    1.0041982   -2.6599375   -2.6599375   -1.4991358  0.066401489   -2.6599375    1.1608017   313401 
 1217000    1.0031847   -2.6587834   -2.6587834   -1.4991533  0.060836959   -2.6587834    1.1596301   313401 
 1218000    1.0042962    -2.660145    -2.660145   -1.4992301  0.065480915    -2.660145    1.1609149   313401 
 1219000    1.0022002   -2.6589047   -2.6589047   -1.5004126  0.062292528   -2.6589047    1.1584921   313401 
 1220000    1.0015024   -2.6576314   -2.6576314    -1.499946  0.059316528   -2.6576314    1.1576854   313401 
 1221000    1.0030997   -2.6577005   -2.6577005   -1.4981687  0.077922303   -2.6577005    1.1595318   313401 
 1222000    1.0028867   -2.6578562   -2.6578562   -1.4985706  0.063562226   -2.6578562    1.1592856   313401 
 1223000    1.0025632   -2.6563452   -2.6563452   -1.4974335  0.051378306   -2.6563452    1.1589116   313401 
 1224000    1.0026134   -2.6562147   -2.6562147   -1.4972449  0.063090687   -2.6562147    1.1589697   313401 
 1225000    1.0016447   -2.6557181   -2.6557181   -1.4978681   0.07282385   -2.6557181    1.1578499   313401 
 1226000    1.0023763   -2.6570332   -2.6570332   -1.4983376  0.054955177   -2.6570332    1.1586957   313401 
 1227000    1.0039115   -2.6577296   -2.6577296   -1.4972593  0.064683438   -2.6577296    1.1604703   313401 
 1228000    1.0026333   -2.6574342   -2.6574342   -1.4984415  0.062913923   -2.6574342    1.1589927   313401 
 1229000    1.0025567   -2.6565178   -2.6565178   -1.4976136  0.072000781   -2.6565178    1.1589042   313401 
 1230000    1.0035892   -2.6580514   -2.6580514   -1.4979537  0.063735388   -2.6580514    1.1600977   313401 
 1231000    1.0045876   -2.6578238   -2.6578238    -1.496572  0.063047903   -2.6578238    1.1612518   313401 
 1232000    1.0022979   -2.6562834   -2.6562834   -1.4976784  0.060523789   -2.6562834     1.158605   313401 
 1233000    1.0024587   -2.6575464   -2.6575464   -1.4987554  0.078492731   -2.6575464    1.1587909   313401 
 1234000    1.0018607   -2.6556059   -2.6556059   -1.4975063  0.055098131   -2.6556059    1.1580996   313401 
 1235000    1.0021121   -2.6572868   -2.6572868   -1.4988966  0.062848125   -2.6572868    1.1583902   313401 
 1236000   0.99892626   -2.6532944   -2.6532944   -1.4985869  0.066514947   -2.6532944    1.1547076   313401 
 1237000    1.0020801    -2.655558    -2.655558   -1.4972048  0.065450805    -2.655558    1.1583532   313401 
 1238000    1.0046283   -2.6590588   -2.6590588   -1.4977599  0.065800083   -2.6590588    1.1612988   313401 
 1239000     1.002539   -2.6566086   -2.6566086   -1.4977249  0.063563445   -2.6566086    1.1588837   313401 
 1240000    1.0043562   -2.6588401   -2.6588401   -1.4978558   0.06406494   -2.6588401    1.1609843   313401 
 1241000    1.0026822   -2.6562259   -2.6562259   -1.4971766  0.072767855   -2.6562259    1.1590493   313401 
 1242000    1.0044573   -2.6587779   -2.6587779   -1.4976767  0.064169578   -2.6587779    1.1611011   313401 
 1243000    1.0057149   -2.6601932   -2.6601932   -1.4976383  0.057622287   -2.6601932    1.1625549   313401 
 1244000    1.0039375   -2.6578623   -2.6578623    -1.497362  0.070626816   -2.6578623    1.1605003   313401 
 1245000    1.0033333    -2.656578    -2.656578    -1.496776  0.058071452    -2.656578    1.1598019   313401 
 1246000    1.0050966   -2.6587512   -2.6587512   -1.4969109  0.060274366   -2.6587512    1.1618402   313401 
 1247000    1.0052742   -2.6583861   -2.6583861   -1.4963406  0.060436242   -2.6583861    1.1620455   313401 
 1248000    1.0062159   -2.6600909   -2.6600909   -1.4969569  0.059915538   -2.6600909     1.163134   313401 
 1249000    1.0055444   -2.6590036   -2.6590036   -1.4966458  0.067594674   -2.6590036    1.1623578   313401 
 1250000     1.005499   -2.6592335   -2.6592335   -1.4969282  0.079940005   -2.6592335    1.1623053   313401 
 1251000     1.006071   -2.6600786   -2.6600786   -1.4971121  0.066314787   -2.6600786    1.1629665   313401 
 1252000    1.0058603   -2.6602977   -2.6602977   -1.4975747  0.066861955   -2.6602977    1.1627229   313401 
 1253000    1.0050871   -2.6594285   -2.6594285   -1.4975993  0.067458283   -2.6594285    1.1618292   313401 
 1254000    1.0044568   -2.6600561   -2.6600561   -1.4989556  0.077613753   -2.6600561    1.1611006   313401 
 1255000    1.0052809   -2.6608481   -2.6608481   -1.4987949  0.061141915   -2.6608481    1.1620532   313401 
 1256000    1.0063933   -2.6605844   -2.6605844   -1.4972453   0.07468071   -2.6605844    1.1633391   313401 
 1257000    1.0024523   -2.6570842   -2.6570842   -1.4983006  0.069724992   -2.6570842    1.1587835   313401 
 1258000    1.0059856   -2.6607457   -2.6607457   -1.4978779  0.054405118   -2.6607457    1.1628678   313401 
 1259000     1.002922   -2.6570148   -2.6570148   -1.4976883  0.062645422   -2.6570148    1.1593265   313401 
 1260000    1.0045523   -2.6585277   -2.6585277   -1.4973167  0.063506154   -2.6585277     1.161211   313401 
 1261000    1.0050611   -2.6589665   -2.6589665   -1.4971673     0.075487   -2.6589665    1.1617991   313401 
 1262000    1.0043096   -2.6597514   -2.6597514    -1.498821  0.062355887   -2.6597514    1.1609305   313401 
 1263000    1.0021413    -2.656949    -2.656949    -1.498525  0.064769864    -2.656949     1.158424   313401 
 1264000    1.0055062   -2.6600867   -2.6600867    -1.497773  0.068580431   -2.6600867    1.1623136   313401 
 1265000    1.0038238   -2.6577362   -2.6577362   -1.4973673   0.05881574   -2.6577362    1.1603689   313401 
 1266000     1.004087   -2.6568246   -2.6568246   -1.4961514  0.071954018   -2.6568246    1.1606732   313401 
 1267000     1.003895   -2.6571046   -2.6571046   -1.4966534  0.065298962   -2.6571046    1.1604512   313401 
 1268000    1.0050674   -2.6576858   -2.6576858   -1.4958793  0.066926288   -2.6576858    1.1618064   313401 
 1269000    1.0056036   -2.6588393   -2.6588393    -1.496413  0.064310808   -2.6588393    1.1624263   313401 
 1270000    1.0048313   -2.6589959   -2.6589959   -1.4974623  0.069701397   -2.6589959    1.1615335   313401 
 1271000    1.0033719   -2.6569796   -2.6569796   -1.4971331  0.068414657   -2.6569796    1.1598465   313401 
 1272000    1.0043409   -2.6568471   -2.6568471   -1.4958804  0.055097548   -2.6568471    1.1609667   313401 
 1273000    1.0042195   -2.6566684   -2.6566684   -1.4958421  0.060091574   -2.6566684    1.1608263   313401 
 1274000     1.004696   -2.6573465   -2.6573465   -1.4959693  0.065099626   -2.6573465    1.1613771   313401 
 1275000    1.0036238   -2.6567305   -2.6567305   -1.4965928  0.053094276   -2.6567305    1.1601377   313401 
 1276000    1.0023049   -2.6543137   -2.6543137   -1.4957006  0.063996499   -2.6543137    1.1586131   313401 
 1277000    1.0050267   -2.6562998   -2.6562998   -1.4945404  0.063458437   -2.6562998    1.1617594   313401 
 1278000    1.0032875   -2.6563622   -2.6563622   -1.4966132  0.067803698   -2.6563622    1.1597489   313401 
 1279000    1.0041904   -2.6572121   -2.6572121   -1.4964195     0.060319   -2.6572121    1.1607926   313401 
 1280000    1.0051082    -2.658267    -2.658267   -1.4964134  0.072892941    -2.658267    1.1618536   313401 
 1281000    1.0016944   -2.6548664   -2.6548664    -1.496959  0.066152292   -2.6548664    1.1579074   313401 
 1282000     1.006033   -2.6589538   -2.6589538   -1.4960313  0.056577981   -2.6589538    1.1629226   313401 
 1283000    1.0061723   -2.6584018   -2.6584018   -1.4953181  0.061738462   -2.6584018    1.1630837   313401 
 1284000    1.0049101   -2.6579751   -2.6579751   -1.4963506  0.061946098   -2.6579751    1.1616246   313401 
 1285000    1.0062509   -2.6603698   -2.6603698   -1.4971953  0.069777356   -2.6603698    1.1631745   313401 
 1286000    1.0054167   -2.6593515   -2.6593515   -1.4971413  0.054593392   -2.6593515    1.1622102   313401 
 1287000    1.0052838   -2.6584841   -2.6584841   -1.4964275  0.068120634   -2.6584841    1.1620566   313401 
 1288000    1.0041792   -2.6564298   -2.6564298     -1.49565  0.066453423   -2.6564298    1.1607798   313401 
 1289000    1.0036288   -2.6565865   -2.6565865    -1.496443  0.066952743   -2.6565865    1.1601435   313401 
 1290000    1.0036228   -2.6578511   -2.6578511   -1.4977146  0.058083838   -2.6578511    1.1601365   313401 
 1291000    1.0054727    -2.660047    -2.660047   -1.4977721  0.063257335    -2.660047    1.1622749   313401 
 1292000     1.004128   -2.6588006   -2.6588006   -1.4980801  0.049879237   -2.6588006    1.1607205   313401 
 1293000    1.0046515   -2.6582579   -2.6582579   -1.4969322  0.063582699   -2.6582579    1.1613256   313401 
 1294000     1.003523   -2.6569202   -2.6569202   -1.4968991  0.075558459   -2.6569202    1.1600211   313401 
 1295000    1.0035735   -2.6567996   -2.6567996   -1.4967201   0.07637305   -2.6567996    1.1600796   313401 
 1296000    1.0073812   -2.6611717   -2.6611717   -1.4966907  0.051661576   -2.6611717    1.1644811   313401 
 1297000    1.0041144   -2.6579223   -2.6579223   -1.4972175  0.069905654   -2.6579223    1.1607048   313401 
 1298000    1.0028506   -2.6565835   -2.6565835   -1.4973395  0.063065857   -2.6565835    1.1592439   313401 
 1299000    1.0039416   -2.6566892   -2.6566892   -1.4961841  0.073251066   -2.6566892    1.1605051   313401 
 1300000    1.0067079   -2.6604954   -2.6604954   -1.4967926  0.064507272   -2.6604954    1.1637028   313401 
 1301000    1.0040933   -2.6579458   -2.6579458   -1.4972654  0.050929919   -2.6579458    1.1606804   313401 
 1302000    1.0056692   -2.6600509   -2.6600509   -1.4975487  0.060837376   -2.6600509    1.1625021   313401 
 1303000    1.0028245   -2.6574792   -2.6574792   -1.4982654  0.064255406   -2.6574792    1.1592138   313401 
 1304000    1.0028839   -2.6582788   -2.6582788   -1.4989964  0.054542949   -2.6582788    1.1592825   313401 
 1305000    1.0032677    -2.657664    -2.657664   -1.4979379  0.064201226    -2.657664    1.1597261   313401 
 1306000    1.0034617   -2.6576961   -2.6576961   -1.4977458  0.066306199   -2.6576961    1.1599504   313401 
 1307000    1.0051795   -2.6589794   -2.6589794   -1.4970434  0.064834873   -2.6589794     1.161936   313401 
 1308000    1.0028846   -2.6567498   -2.6567498   -1.4974666  0.059426548   -2.6567498    1.1592832   313401 
 1309000    1.0055414   -2.6590072   -2.6590072   -1.4966529  0.050065159   -2.6590072    1.1623543   313401 
 1310000    1.0046286   -2.6574355   -2.6574355   -1.4961363  0.072176544   -2.6574355    1.1612992   313401 
 1311000    1.0052538   -2.6581172   -2.6581172   -1.4960954  0.065860397   -2.6581172    1.1620218   313401 
 1312000    1.0037171   -2.6575094   -2.6575094   -1.4972639  0.064542559   -2.6575094    1.1602455   313401 
 1313000    1.0047506   -2.6583722   -2.6583722    -1.496932  0.065955949   -2.6583722    1.1614402   313401 
 1314000    1.0038664   -2.6561843   -2.6561843   -1.4957663  0.078497654   -2.6561843    1.1604181   313401 
 1315000    1.0045798   -2.6581982   -2.6581982   -1.4969554  0.066636267   -2.6581982    1.1612428   313401 
 1316000    1.0045095   -2.6590277   -2.6590277   -1.4978661  0.066025096   -2.6590277    1.1611616   313401 
 1317000     1.006269   -2.6597172   -2.6597172   -1.4965217  0.056168487   -2.6597172    1.1631954   313401 
 1318000    1.0042218   -2.6584874   -2.6584874   -1.4976584  0.059880897   -2.6584874    1.1608289   313401 
 1319000    1.0024339   -2.6558202   -2.6558202   -1.4970579   0.06098197   -2.6558202    1.1587623   313401 
 1320000    1.0023708   -2.6555948   -2.6555948   -1.4969055  0.054836902   -2.6555948    1.1586893   313401 
 1321000    1.0047335   -2.6577626   -2.6577626   -1.4963421  0.057535751   -2.6577626    1.1614204   313401 
 1322000    1.0048434   -2.6577029   -2.6577029   -1.4961554  0.050163523   -2.6577029    1.1615475   313401 
 1323000    1.0042494   -2.6574553   -2.6574553   -1.4965944  0.072288368   -2.6574553    1.1608608   313401 
 1324000    1.0029258   -2.6554551   -2.6554551   -1.4961242  0.073445894   -2.6554551    1.1593308   313401 
 1325000    1.0029975    -2.654872    -2.654872   -1.4954582  0.059685108    -2.654872    1.1594138   313401 
 1326000    1.0056914   -2.6581132   -2.6581132   -1.4955855  0.064312377   -2.6581132    1.1625277   313401 
 1327000    1.0055675   -2.6585961   -2.6585961   -1.4962116   0.06605017   -2.6585961    1.1623845   313401 
 1328000    1.0059772   -2.6588717   -2.6588717   -1.4960137   0.07006051   -2.6588717    1.1628581   313401 
 1329000    1.0042323   -2.6559595   -2.6559595   -1.4951184  0.062907593   -2.6559595    1.1608411   313401 
 1330000    1.0039418   -2.6562859   -2.6562859   -1.4957807  0.062079827   -2.6562859    1.1605052   313401 
 1331000    1.0039318    -2.655167    -2.655167   -1.4946733   0.05291825    -2.655167    1.1604937   313401 
 1332000    1.0038454   -2.6547062   -2.6547062   -1.4943124  0.067599026   -2.6547062    1.1603939   313401 
 1333000      1.00328    -2.655335    -2.655335   -1.4955947   0.06732806    -2.655335    1.1597402   313401 
 1334000    1.0045239    -2.655176    -2.655176   -1.4939979  0.063651506    -2.655176    1.1611781   313401 
 1335000    1.0045296   -2.6547399   -2.6547399   -1.4935552  0.075023708   -2.6547399    1.1611847   313401 
 1336000    1.0011642   -2.6512484   -2.6512484   -1.4939539  0.070402312   -2.6512484    1.1572945   313401 
 1337000    1.0021661   -2.6528196   -2.6528196   -1.4943669   0.06336242   -2.6528196    1.1584526   313401 
 1338000    1.0022677   -2.6529694   -2.6529694   -1.4943993  0.064965012   -2.6529694    1.1585701   313401 
 1339000    1.0022934    -2.653857    -2.653857   -1.4952571  0.071839497    -2.653857    1.1585999   313401 
 1340000    1.0034606   -2.6547803   -2.6547803   -1.4948313  0.045627439   -2.6547803     1.159949   313401 
 1341000     1.002269   -2.6526722   -2.6526722   -1.4941006  0.053881903   -2.6526722    1.1585716   313401 
 1342000    1.0039153   -2.6550743   -2.6550743   -1.4945996   0.06075194   -2.6550743    1.1604747   313401 
 1343000    1.0011706   -2.6521367   -2.6521367   -1.4948349  0.059225376   -2.6521367    1.1573019   313401 
 1344000    1.0027782    -2.654241    -2.654241   -1.4950808  0.056516867    -2.654241    1.1591602   313401 
 1345000    1.0028304   -2.6533675   -2.6533675   -1.4941469  0.058731652   -2.6533675    1.1592206   313401 
 1346000    1.0041027   -2.6544679   -2.6544679   -1.4937766  0.068028353   -2.6544679    1.1606913   313401 
 1347000    1.0042276   -2.6554227   -2.6554227    -1.494587  0.073776848   -2.6554227    1.1608357   313401 
 1348000    1.0036605   -2.6541006   -2.6541006   -1.4939205  0.065808151   -2.6541006    1.1601801   313401 
 1349000    1.0044907   -2.6546004   -2.6546004   -1.4934607  0.062968745   -2.6546004    1.1611397   313401 
 1350000    1.0046572   -2.6542985   -2.6542985   -1.4929662  0.070808914   -2.6542985    1.1613323   313401 
 1351000    1.0061149   -2.6554237   -2.6554237   -1.4924063  0.065753622   -2.6554237    1.1630173   313401 
 1352000    1.0058858   -2.6561374   -2.6561374   -1.4933849  0.058698974   -2.6561374    1.1627525   313401 
 1353000    1.0060389   -2.6552684   -2.6552684   -1.4923389  0.058923877   -2.6552684    1.1629295   313401 
 1354000    1.0049355   -2.6548266   -2.6548266   -1.4931726  0.064616958   -2.6548266    1.1616539   313401 
 1355000    1.0071947   -2.6573485   -2.6573485    -1.493083  0.050981503   -2.6573485    1.1642655   313401 
 1356000    1.0056349   -2.6559395   -2.6559395   -1.4934771  0.063221043   -2.6559395    1.1624624   313401 
 1357000     1.005523   -2.6571209   -2.6571209   -1.4947878   0.05389287   -2.6571209    1.1623331   313401 
 1358000    1.0027147   -2.6549019   -2.6549019    -1.495815  0.058950953   -2.6549019    1.1590868   313401 
 1359000    1.0054094   -2.6573724   -2.6573724   -1.4951707  0.063565306   -2.6573724    1.1622017   313401 
 1360000    1.0050852   -2.6567093   -2.6567093   -1.4948822  0.065184605   -2.6567093    1.1618271   313401 
 1361000    1.0052054   -2.6575353   -2.6575353   -1.4955694  0.064290123   -2.6575353     1.161966   313401 
 1362000    1.0036074   -2.6551778   -2.6551778   -1.4950591  0.065018518   -2.6551778    1.1601187   313401 
 1363000    1.0054474   -2.6574226   -2.6574226    -1.495177  0.062995307   -2.6574226    1.1622457   313401 
 1364000    1.0053214   -2.6566052   -2.6566052   -1.4945051  0.073421132   -2.6566052       1.1621   313401 
 1365000     1.006624   -2.6579437   -2.6579437   -1.4943379  0.066184369   -2.6579437    1.1636057   313401 
 1366000    1.0081779   -2.6604038   -2.6604038   -1.4950018  0.050574019   -2.6604038    1.1654021   313401 
 1367000    1.0074299    -2.658518    -2.658518   -1.4939807  0.075456643    -2.658518    1.1645373   313401 
 1368000    1.0073072   -2.6586864   -2.6586864   -1.4942909  0.075997737   -2.6586864    1.1643955   313401 
 1369000    1.0074165   -2.6593028   -2.6593028    -1.494781  0.081108771   -2.6593028    1.1645218   313401 
 1370000    1.0045053    -2.655955    -2.655955   -1.4947984   0.05935703    -2.655955    1.1611566   313401 
 1371000    1.0060875   -2.6583244   -2.6583244   -1.4953388  0.067709719   -2.6583244    1.1629856   313401 
 1372000    1.0037572   -2.6564629   -2.6564629    -1.496171  0.079476127   -2.6564629    1.1602919   313401 
 1373000    1.0035416   -2.6572242   -2.6572242   -1.4971815  0.062153324   -2.6572242    1.1600427   313401 
 1374000    1.0036378   -2.6576116   -2.6576116   -1.4974577  0.063703568   -2.6576116    1.1601539   313401 
 1375000     1.004848   -2.6589727   -2.6589727     -1.49742  0.061533294   -2.6589727    1.1615528   313401 
 1376000    1.0032758   -2.6582509   -2.6582509   -1.4985155   0.05932162   -2.6582509    1.1597354   313401 
 1377000    1.0041938   -2.6580961   -2.6580961   -1.4972995  0.070335964   -2.6580961    1.1607966   313401 
 1378000    1.0054566   -2.6578745   -2.6578745   -1.4956182  0.060561121   -2.6578745    1.1622563   313401 
 1379000    1.0052334   -2.6583048   -2.6583048   -1.4963065   0.06255877   -2.6583048    1.1619984   313401 
 1380000    1.0040049   -2.6575557   -2.6575557   -1.4969775  0.072372662   -2.6575557    1.1605782   313401 
 1381000    1.0044133   -2.6594773   -2.6594773    -1.498427  0.065604424   -2.6594773    1.1610503   313401 
 1382000    1.0057123   -2.6600013   -2.6600013   -1.4974493  0.055124976   -2.6600013     1.162552   313401 
 1383000    1.0057022   -2.6598632   -2.6598632    -1.497323  0.062004487   -2.6598632    1.1625402   313401 
 1384000    1.0043055   -2.6569544   -2.6569544   -1.4960287  0.073748868   -2.6569544    1.1609257   313401 
 1385000    1.0052949    -2.657836    -2.657836   -1.4957666  0.069019427    -2.657836    1.1620694   313401 
 1386000    1.0068018   -2.6600535   -2.6600535   -1.4962423  0.062132578   -2.6600535    1.1638112   313401 
 1387000    1.0041757   -2.6560251   -2.6560251   -1.4952494  0.061050278   -2.6560251    1.1607757   313401 
 1388000    1.0069616   -2.6591529   -2.6591529   -1.4951569  0.069495281   -2.6591529     1.163996   313401 
 1389000    1.0054939   -2.6575677   -2.6575677   -1.4952683  0.066058397   -2.6575677    1.1622994   313401 
 1390000    1.0037816   -2.6560457   -2.6560457   -1.4957255  0.058045451   -2.6560457    1.1603201   313401 
 1391000    1.0067812   -2.6586725   -2.6586725   -1.4948851  0.072974219   -2.6586725    1.1637875   313401 
 1392000    1.0050899   -2.6566785   -2.6566785   -1.4948461  0.062289232   -2.6566785    1.1618324   313401 
 1393000    1.0042617   -2.6554465   -2.6554465   -1.4945714  0.057910991   -2.6554465    1.1608751   313401 
 1394000    1.0064364    -2.657595    -2.657595   -1.4942061  0.066594179    -2.657595    1.1633889   313401 
 1395000    1.0049407   -2.6541596   -2.6541596   -1.4924997   0.07960552   -2.6541596      1.16166   313401 
 1396000    1.0053516   -2.6562976   -2.6562976   -1.4941626  0.073724351   -2.6562976     1.162135   313401 
 1397000    1.0058833   -2.6559565   -2.6559565    -1.493207  0.060919301   -2.6559565    1.1627495   313401 
 1398000    1.0063048   -2.6572122   -2.6572122   -1.4939754  0.070609723   -2.6572122    1.1632368   313401 
 1399000    1.0033674   -2.6552873   -2.6552873   -1.4954459  0.056251391   -2.6552873    1.1598413   313401 
 1400000    1.0037868   -2.6553827   -2.6553827   -1.4950566  0.058744247   -2.6553827    1.1603261   313401 
 1401000    1.0047395   -2.6545042   -2.6545042   -1.4930768  0.058096854   -2.6545042    1.1614274   313401 
 1402000    1.0047801   -2.6550256   -2.6550256   -1.4935512  0.059512354   -2.6550256    1.1614744   313401 
 1403000    1.0050793   -2.6537682   -2.6537682   -1.4919481  0.061549808   -2.6537682    1.1618201   313401 
 1404000    1.0034112   -2.6514235   -2.6514235   -1.4915316  0.072316602   -2.6514235    1.1598919   313401 
 1405000    1.0055843   -2.6539486   -2.6539486   -1.4915446  0.060365744   -2.6539486     1.162404   313401 
 1406000    1.0060921   -2.6553907   -2.6553907   -1.4923998  0.054560461   -2.6553907    1.1629909   313401 
 1407000    1.0027259   -2.6511518   -2.6511518    -1.492052  0.059820775   -2.6511518    1.1590998   313401 
 1408000    1.0039171   -2.6527948   -2.6527948    -1.492318  0.061395948   -2.6527948    1.1604768   313401 
 1409000    1.0031201   -2.6509704   -2.6509704   -1.4914149  0.058023314   -2.6509704    1.1595554   313401 
 1410000    1.0022135   -2.6511904   -2.6511904   -1.4926829  0.076600828   -2.6511904    1.1585075   313401 
 1411000    1.0052867   -2.6547144   -2.6547144   -1.4926544  0.056965255   -2.6547144      1.16206   313401 
 1412000    1.0014464   -2.6506593   -2.6506593   -1.4930386  0.073053867   -2.6506593    1.1576207   313401 
 1413000    1.0028836   -2.6524363   -2.6524363   -1.4931542  0.071889583   -2.6524363    1.1592821   313401 
 1414000    1.0025036   -2.6526134   -2.6526134   -1.4937706  0.072196091   -2.6526134    1.1588428   313401 
 1415000    1.0036961   -2.6551038   -2.6551038   -1.4948825  0.059310768   -2.6551038    1.1602213   313401 
 1416000    1.0031919   -2.6526425   -2.6526425   -1.4930041  0.071440417   -2.6526425    1.1596385   313401 
 1417000    1.0059774   -2.6553548   -2.6553548   -1.4924964  0.067858495   -2.6553548    1.1628584   313401 
 1418000    1.0078601   -2.6568486   -2.6568486    -1.491814  0.064636703   -2.6568486    1.1650346   313401 
 1419000    1.0062399   -2.6560284   -2.6560284   -1.4928666  0.066240829   -2.6560284    1.1631618   313401 
 1420000    1.0053264   -2.6544489   -2.6544489   -1.4923431   0.06941969   -2.6544489    1.1621058   313401 
 1421000    1.0058496   -2.6554787   -2.6554787   -1.4927681  0.072486654   -2.6554787    1.1627106   313401 
 1422000    1.0068255   -2.6564301   -2.6564301   -1.4925914  0.076044281   -2.6564301    1.1638387   313401 
 1423000    1.0075411   -2.6569474   -2.6569474   -1.4922815  0.055595041   -2.6569474    1.1646659   313401 
 1424000    1.0063864   -2.6553562   -2.6553562   -1.4920251  0.063985353   -2.6553562    1.1633311   313401 
 1425000    1.0075173   -2.6552585   -2.6552585   -1.4906201  0.072327963   -2.6552585    1.1646384   313401 
 1426000    1.0075512   -2.6572292   -2.6572292   -1.4925516  0.059819771   -2.6572292    1.1646776   313401 
 1427000     1.005418   -2.6565333   -2.6565333   -1.4943215  0.065148568   -2.6565333    1.1622118   313401 
 1428000    1.0076166   -2.6586927   -2.6586927   -1.4939394  0.062905727   -2.6586927    1.1647532   313401 
 1429000    1.0056584   -2.6570279   -2.6570279   -1.4945383  0.069980835   -2.6570279    1.1624895   313401 
 1430000    1.0036311   -2.6557322   -2.6557322   -1.4955861  0.059097797   -2.6557322    1.1601461   313401 
 1431000    1.0046934   -2.6572495   -2.6572495   -1.4958754  0.069101194   -2.6572495    1.1613741   313401 
 1432000    1.0047117   -2.6573978   -2.6573978   -1.4960026  0.069168578   -2.6573978    1.1613953   313401 
 1433000    1.0068488   -2.6584309   -2.6584309   -1.4945652  0.060600303   -2.6584309    1.1638657   313401 
 1434000    1.0032939   -2.6543595   -2.6543595   -1.4946032  0.071787314   -2.6543595    1.1597563   313401 
 1435000    1.0074543   -2.6588457   -2.6588457   -1.4942802  0.056419231   -2.6588457    1.1645655   313401 
 1436000    1.0049596   -2.6563203   -2.6563203   -1.4946385  0.064776061   -2.6563203    1.1616818   313401 
 1437000    1.0062831   -2.6580542   -2.6580542   -1.4948425  0.067295216   -2.6580542    1.1632117   313401 
 1438000    1.0054062   -2.6567634   -2.6567634   -1.4945653   0.05677084   -2.6567634    1.1621981   313401 
 1439000    1.0050653   -2.6565136   -2.6565136   -1.4947096  0.080653073   -2.6565136     1.161804   313401 
 1440000    1.0046896   -2.6561146   -2.6561146   -1.4947449  0.073473055   -2.6561146    1.1613697   313401 
 1441000    1.0057094   -2.6564821   -2.6564821   -1.4939336  0.063720764   -2.6564821    1.1625485   313401 
 1442000    1.0055541   -2.6574032   -2.6574032   -1.4950342  0.070226036   -2.6574032     1.162369   313401 
 1443000    1.0059896   -2.6577113   -2.6577113   -1.4948389  0.070294755   -2.6577113    1.1628724   313401 
 1444000    1.0034355   -2.6547651   -2.6547651   -1.4948451  0.074565524   -2.6547651      1.15992   313401 
 1445000    1.0050653   -2.6569838   -2.6569838   -1.4951798  0.060303591   -2.6569838     1.161804   313401 
 1446000    1.0030643   -2.6544706   -2.6544706   -1.4949797  0.076354597   -2.6544706     1.159491   313401 
 1447000    1.0048039   -2.6575088   -2.6575088    -1.496007  0.069353126   -2.6575088    1.1615019   313401 
 1448000     1.002653   -2.6555873   -2.6555873   -1.4965718  0.065265244   -2.6555873    1.1590155   313401 
 1449000    1.0023796   -2.6555763   -2.6555763   -1.4968768  0.082893176   -2.6555763    1.1586995   313401 
 1450000     1.004573   -2.6591902   -2.6591902   -1.4979552  0.060724084   -2.6591902    1.1612349   313401 
 1451000    1.0033701   -2.6583677   -2.6583677   -1.4985233  0.058950327   -2.6583677    1.1598444   313401 
 1452000    1.0039906   -2.6595761   -2.6595761   -1.4990144  0.061270403   -2.6595761    1.1605617   313401 
 1453000    1.0038864   -2.6574391   -2.6574391   -1.4969978  0.066982403   -2.6574391    1.1604413   313401 
 1454000    1.0026273   -2.6562512   -2.6562512   -1.4972654  0.053191947   -2.6562512    1.1589858   313401 
 1455000    1.0037773   -2.6560927   -2.6560927   -1.4957775  0.067339709   -2.6560927    1.1603152   313401 
 1456000    1.0049749   -2.6569944   -2.6569944   -1.4952949  0.057932994   -2.6569944    1.1616995   313401 
 1457000    1.0058191   -2.6571711   -2.6571711   -1.4944958  0.070361114   -2.6571711    1.1626753   313401 
 1458000    1.0072703   -2.6584531   -2.6584531   -1.4941002  0.067524621   -2.6584531    1.1643528   313401 
 1459000    1.0057728   -2.6580949   -2.6580949   -1.4954731    0.0667323   -2.6580949    1.1626218   313401 
 1460000    1.0046598   -2.6586287   -2.6586287   -1.4972935  0.066571762   -2.6586287    1.1613352   313401 
 1461000      1.00503   -2.6575482   -2.6575482    -1.495785  0.070253923   -2.6575482    1.1617632   313401 
 1462000    1.0058361   -2.6583666   -2.6583666   -1.4956716  0.062664239   -2.6583666     1.162695   313401 
 1463000    1.0061938   -2.6582531   -2.6582531   -1.4951447  0.068458185   -2.6582531    1.1631085   313401 
 1464000    1.0055404   -2.6569639   -2.6569639   -1.4946107   0.07469394   -2.6569639    1.1623532   313401 
 1465000    1.0045247   -2.6561219   -2.6561219   -1.4949429  0.073769199   -2.6561219    1.1611791   313401 
 1466000    1.0057764   -2.6582081   -2.6582081    -1.495582  0.075562374   -2.6582081     1.162626   313401 
 1467000    1.0069074   -2.6573765   -2.6573765   -1.4934431   0.06737291   -2.6573765    1.1639333   313401 
 1468000    1.0061156   -2.6564519   -2.6564519   -1.4934338  0.072169391   -2.6564519    1.1630181   313401 
 1469000    1.0042409    -2.655708    -2.655708   -1.4948569  0.072828318    -2.655708    1.1608511   313401 
 1470000     1.003105    -2.654654    -2.654654    -1.495116  0.064904832    -2.654654     1.159538   313401 
 1471000    1.0049313   -2.6558927   -2.6558927   -1.4942437  0.073634257   -2.6558927    1.1616491   313401 
 1472000    1.0056758   -2.6578442   -2.6578442   -1.4953345  0.063427474   -2.6578442    1.1625097   313401 
 1473000    1.0017764   -2.6532051   -2.6532051   -1.4952029  0.072167956   -2.6532051    1.1580022   313401 
 1474000    1.0032045   -2.6552145   -2.6552145   -1.4955615  0.058844963   -2.6552145     1.159653   313401 
 1475000    1.0026093   -2.6559265   -2.6559265   -1.4969615  0.068922719   -2.6559265     1.158965   313401 
 1476000    1.0029911   -2.6564992   -2.6564992   -1.4970928  0.054041593   -2.6564992    1.1594064   313401 
 1477000    1.0008772    -2.653273    -2.653273   -1.4963103  0.057233557    -2.653273    1.1569628   313401 
 1478000    1.0011317   -2.6542411   -2.6542411   -1.4969842  0.065901224   -2.6542411    1.1572569   313401 
 1479000    1.0013428   -2.6532904   -2.6532904   -1.4957894  0.061015414   -2.6532904    1.1575009   313401 
 1480000    1.0037052   -2.6546543   -2.6546543   -1.4944225   0.06790631   -2.6546543    1.1602318   313401 
 1481000    1.0039603   -2.6549276   -2.6549276   -1.4944009  0.058397446   -2.6549276    1.1605267   313401 
 1482000    1.0043173   -2.6564542   -2.6564542   -1.4955149  0.073300498   -2.6564542    1.1609393   313401 
 1483000    1.0054602   -2.6565895   -2.6565895   -1.4943291  0.076537946   -2.6565895    1.1622605   313401 
 1484000    1.0037993    -2.655119    -2.655119   -1.4947785  0.071133172    -2.655119    1.1603405   313401 
 1485000    1.0031097   -2.6556987   -2.6556987   -1.4961553  0.048246779   -2.6556987    1.1595435   313401 
 1486000    1.0030551   -2.6554743   -2.6554743    -1.495994   0.05663286   -2.6554743    1.1594803   313401 
 1487000    1.0043277    -2.657068    -2.657068   -1.4961167  0.077853005    -2.657068    1.1609513   313401 
 1488000    1.0052214   -2.6579652   -2.6579652   -1.4959808  0.059913686   -2.6579652    1.1619844   313401 
 1489000      1.00276   -2.6551786   -2.6551786   -1.4960394  0.075137568   -2.6551786    1.1591392   313401 
 1490000    1.0033526   -2.6567465   -2.6567465   -1.4969223  0.065208034   -2.6567465    1.1598242   313401 
 1491000    1.0045504   -2.6575433   -2.6575433   -1.4963344  0.076804817   -2.6575433    1.1612088   313401 
 1492000    1.0066983   -2.6602733   -2.6602733   -1.4965816  0.070753295   -2.6602733    1.1636917   313401 
 1493000    1.0059996   -2.6600202   -2.6600202   -1.4971362   0.05772677   -2.6600202     1.162884   313401 
 1494000    1.0056207   -2.6600013   -2.6600013   -1.4975553  0.065470965   -2.6600013    1.1624461   313401 
 1495000    1.0059174   -2.6598781   -2.6598781    -1.497089  0.071556057   -2.6598781     1.162789   313401 
 1496000    1.0063135   -2.6601523   -2.6601523   -1.4969055  0.070975095   -2.6601523    1.1632468   313401 
 1497000    1.0083426   -2.6622095   -2.6622095   -1.4966171  0.060062264   -2.6622095    1.1655923   313401 
 1498000    1.0080174   -2.6623955   -2.6623955   -1.4971791  0.079376635   -2.6623955    1.1652165   313401 
 1499000    1.0077248   -2.6619264   -2.6619264   -1.4970481  0.070394728   -2.6619264    1.1648783   313401 
 1500000    1.0059969   -2.6606194   -2.6606194   -1.4977385  0.073941515   -2.6606194    1.1628809   313401 
 1501000    1.0062411   -2.6624805   -2.6624805   -1.4993173  0.065533272   -2.6624805    1.1631631   313401 
 1502000    1.0057101   -2.6608169   -2.6608169   -1.4982676  0.075145576   -2.6608169    1.1625493   313401 
 1503000    1.0067619   -2.6629781   -2.6629781   -1.4992129   0.06009002   -2.6629781    1.1637651   313401 
 1504000    1.0047782   -2.6603101   -2.6603101    -1.498838  0.064884317   -2.6603101    1.1614721   313401 
 1505000     1.004136   -2.6574404   -2.6574404   -1.4967107   0.06841465   -2.6574404    1.1607297   313401 
 1506000    1.0073998   -2.6605577   -2.6605577   -1.4960552  0.062065033   -2.6605577    1.1645025   313401 
 1507000    1.0037315   -2.6576916   -2.6576916   -1.4974294  0.072330318   -2.6576916    1.1602622   313401 
 1508000    1.0036743   -2.6576652   -2.6576652   -1.4974691  0.059629818   -2.6576652    1.1601961   313401 
 1509000    1.0036027   -2.6585711   -2.6585711   -1.4984578  0.070145486   -2.6585711    1.1601133   313401 
 1510000     1.003809   -2.6589157   -2.6589157   -1.4985639  0.075274902   -2.6589157    1.1603518   313401 
 1511000    1.0023491   -2.6575043   -2.6575043   -1.4988401  0.076250747   -2.6575043    1.1586642   313401 
 1512000    1.0052881   -2.6622277   -2.6622277   -1.5001661  0.060788604   -2.6622277    1.1620616   313401 
 1513000    1.0023784   -2.6597846   -2.6597846   -1.5010865  0.062269278   -2.6597846    1.1586981   313401 
 1514000    1.0027417    -2.659397    -2.659397    -1.500279   0.04779974    -2.659397     1.159118   313401 
 1515000    1.0003174   -2.6546374   -2.6546374   -1.4983217  0.061195084   -2.6546374    1.1563157   313401 
 1516000    1.0012843   -2.6559929   -2.6559929   -1.4985596  0.062637796   -2.6559929    1.1574333   313401 
 1517000    1.0019763    -2.655908    -2.655908   -1.4976748  0.066870209    -2.655908    1.1582333   313401 
 1518000    1.0028659   -2.6570646   -2.6570646   -1.4978029  0.079090888   -2.6570646    1.1592617   313401 
 1519000    1.0033664   -2.6586324   -2.6586324   -1.4987923  0.064946775   -2.6586324    1.1598401   313401 
 1520000    1.0029525    -2.657956    -2.657956   -1.4985943  0.060311624    -2.657956    1.1593617   313401 
 1521000    1.0024694   -2.6572975   -2.6572975   -1.4984942  0.067848967   -2.6572975    1.1588033   313401 
 1522000    1.0029401   -2.6577094   -2.6577094    -1.498362  0.070311296   -2.6577094    1.1593474   313401 
 1523000    1.0050793   -2.6595444   -2.6595444   -1.4977241  0.067828408   -2.6595444    1.1618202   313401 
 1524000    1.0053395   -2.6599817   -2.6599817   -1.4978607  0.066573126   -2.6599817    1.1621209   313401 
 1525000    1.0067746   -2.6593321   -2.6593321   -1.4955522  0.063169093   -2.6593321    1.1637799   313401 
 1526000    1.0054439   -2.6581452   -2.6581452   -1.4959036  0.076530006   -2.6581452    1.1622417   313401 
 1527000    1.0060982   -2.6600508   -2.6600508   -1.4970528  0.066282933   -2.6600508    1.1629979   313401 
 1528000    1.0029467   -2.6566113   -2.6566113   -1.4972562  0.070139027   -2.6566113     1.159355   313401 
 1529000    1.0055489   -2.6596502   -2.6596502   -1.4972872  0.067637248   -2.6596502     1.162363   313401 
 1530000    1.0056781   -2.6606401   -2.6606401   -1.4981278   0.06324981   -2.6606401    1.1625123   313401 
 1531000    1.0054816   -2.6593112   -2.6593112    -1.497026  0.075368535   -2.6593112    1.1622852   313401 
 1532000     1.006117   -2.6617032   -2.6617032   -1.4986835  0.069136417   -2.6617032    1.1630197   313401 
 1533000    1.0025917   -2.6572798   -2.6572798   -1.4983352  0.081684663   -2.6572798    1.1589447   313401 
 1534000    1.0044044   -2.6599945   -2.6599945   -1.4989545  0.059765439   -2.6599945      1.16104   313401 
 1535000    1.0024114   -2.6583143   -2.6583143   -1.4995781  0.062173239   -2.6583143    1.1587362   313401 
 1536000     1.001625   -2.6573612   -2.6573612    -1.499534   0.07696116   -2.6573612    1.1578272   313401 
 1537000    1.0044014   -2.6592061   -2.6592061   -1.4981696  0.067634971   -2.6592061    1.1610365   313401 
 1538000     1.003305   -2.6585626   -2.6585626   -1.4987934  0.059286303   -2.6585626    1.1597692   313401 
 1539000    1.0058887   -2.6607104   -2.6607104   -1.4979546  0.063103314   -2.6607104    1.1627558   313401 
 1540000    1.0049694   -2.6591054   -2.6591054   -1.4974122  0.077069478   -2.6591054    1.1616932   313401 
 1541000    1.0047493    -2.657929    -2.657929   -1.4964902  0.060057349    -2.657929    1.1614387   313401 
 1542000    1.0080876   -2.6624042   -2.6624042   -1.4971066  0.066447449   -2.6624042    1.1652976   313401 
 1543000    1.0062587   -2.6597035   -2.6597035     -1.49652  0.067918784   -2.6597035    1.1631835   313401 
 1544000    1.0047622   -2.6598425   -2.6598425   -1.4983889  0.065670274   -2.6598425    1.1614536   313401 
 1545000    1.0042034   -2.6591035   -2.6591035   -1.4982957  0.064644628   -2.6591035    1.1608077   313401 
 1546000    1.0066254   -2.6611374   -2.6611374     -1.49753  0.067988093   -2.6611374    1.1636074   313401 
 1547000    1.0056959   -2.6613582   -2.6613582   -1.4988253  0.067038932   -2.6613582    1.1625329   313401 
 1548000    1.0054113   -2.6613299   -2.6613299    -1.499126  0.072825136   -2.6613299    1.1622039   313401 
 1549000    1.0054113   -2.6607354   -2.6607354   -1.4985315  0.069084806   -2.6607354    1.1622039   313401 
 1550000    1.0054377   -2.6610962   -2.6610962   -1.4988617  0.071190293   -2.6610962    1.1622345   313401 
 1551000    1.0057526   -2.6614514   -2.6614514   -1.4988529  0.061551138   -2.6614514    1.1625985   313401 
 1552000    1.0054278   -2.6603027   -2.6603027   -1.4980797  0.067117914   -2.6603027     1.162223   313401 
 1553000    1.0054217   -2.6604225   -2.6604225   -1.4982065  0.067329322   -2.6604225     1.162216   313401 
 1554000    1.0058781   -2.6601254   -2.6601254   -1.4973818  0.064436429   -2.6601254    1.1627436   313401 
 1555000    1.0064722   -2.6603925   -2.6603925   -1.4969622  0.070185118   -2.6603925    1.1634303   313401 
 1556000    1.0052769   -2.6591647   -2.6591647   -1.4971161  0.070723115   -2.6591647    1.1620486   313401 
 1557000     1.005517   -2.6611056   -2.6611056   -1.4987795  0.065651179   -2.6611056    1.1623261   313401 
 1558000    1.0040564   -2.6585136   -2.6585136   -1.4978759  0.068969289   -2.6585136    1.1606377   313401 
 1559000    1.0052396   -2.6599819   -2.6599819   -1.4979765   0.06585002   -2.6599819    1.1620055   313401 
 1560000    1.0047224   -2.6583397   -2.6583397   -1.4969321  0.061466936   -2.6583397    1.1614076   313401 
 1561000    1.0030513   -2.6570949   -2.6570949    -1.497619  0.060846184   -2.6570949     1.159476   313401 
 1562000    1.0046831   -2.6589567   -2.6589567   -1.4975945  0.063025754   -2.6589567    1.1613622   313401 
 1563000    1.0054338   -2.6593061   -2.6593061   -1.4970761  0.054573497   -2.6593061      1.16223   313401 
 1564000    1.0047947   -2.6585576   -2.6585576   -1.4970665  0.057070453   -2.6585576    1.1614911   313401 
 1565000    1.0031166   -2.6588741   -2.6588741   -1.4993227  0.071138839   -2.6588741    1.1595514   313401 
 1566000    1.0043804   -2.6600122   -2.6600122   -1.4989999  0.082137347   -2.6600122    1.1610123   313401 
 1567000    1.0039989   -2.6597465   -2.6597465   -1.4991751   0.06859899   -2.6597465    1.1605713   313401 
 1568000    1.0030378   -2.6578141   -2.6578141   -1.4983538   0.06428557   -2.6578141    1.1594603   313401 
 1569000    1.0039941   -2.6596237   -2.6596237    -1.499058  0.055058282   -2.6596237    1.1605657   313401 
 1570000    1.0043107   -2.6612663   -2.6612663   -1.5003346  0.070568883   -2.6612663    1.1609317   313401 
 1571000    1.0038301   -2.6589024   -2.6589024   -1.4985263  0.069363299   -2.6589024    1.1603761   313401 
 1572000    1.0029994   -2.6594741   -2.6594741   -1.5000582  0.062085269   -2.6594741     1.159416   313401 
 1573000    1.0015266   -2.6590005   -2.6590005    -1.501287  0.065356468   -2.6590005    1.1577135   313401 
 1574000    1.0039705   -2.6598236   -2.6598236   -1.4992851  0.066335952   -2.6598236    1.1605385   313401 
 1575000    1.0041174   -2.6607723   -2.6607723    -1.500064  0.071928888   -2.6607723    1.1607083   313401 
 1576000    1.0031925   -2.6590081   -2.6590081    -1.499369   0.06364901   -2.6590081    1.1596391   313401 
 1577000    1.0056193   -2.6614848   -2.6614848   -1.4990404   0.05863966   -2.6614848    1.1624444   313401 
 1578000    1.0055815   -2.6609035   -2.6609035   -1.4985028  0.069430311   -2.6609035    1.1624007   313401 
 1579000    1.0052005   -2.6592952   -2.6592952   -1.4973349  0.066895813   -2.6592952    1.1619603   313401 
 1580000    1.0069492   -2.6611216   -2.6611216   -1.4971399  0.062832283   -2.6611216    1.1639817   313401 
 1581000    1.0057272   -2.6599457   -2.6599457   -1.4973766   0.07363918   -2.6599457    1.1625691   313401 
 1582000    1.0071408   -2.6595642   -2.6595642    -1.495361  0.067970838   -2.6595642    1.1642032   313401 
 1583000    1.0067304   -2.6595566   -2.6595566   -1.4958279  0.075649739   -2.6595566    1.1637287   313401 
 1584000    1.0065347   -2.6589389   -2.6589389   -1.4954363  0.064627545   -2.6589389    1.1635026   313401 
 1585000    1.0061199   -2.6579775   -2.6579775   -1.4949544  0.077022235   -2.6579775    1.1630231   313401 
 1586000    1.0065893   -2.6587193   -2.6587193   -1.4951536  0.065593705   -2.6587193    1.1635657   313401 
 1587000    1.0075594   -2.6601985   -2.6601985   -1.4955115  0.075066428   -2.6601985     1.164687   313401 
 1588000    1.0047662    -2.656825    -2.656825   -1.4953668  0.069789054    -2.656825    1.1614582   313401 
 1589000    1.0058403   -2.6593289   -2.6593289   -1.4966291  0.077922447   -2.6593289    1.1626998   313401 
 1590000    1.0075416   -2.6606253   -2.6606253   -1.4959588  0.057340264   -2.6606253    1.1646665   313401 
 1591000    1.0063244   -2.6596898   -2.6596898   -1.4964303  0.056155236   -2.6596898    1.1632595   313401 
 1592000    1.0046259    -2.656236    -2.656236   -1.4949398   0.06224716    -2.656236    1.1612961   313401 
 1593000    1.0059032   -2.6575257   -2.6575257   -1.4947532  0.064048557   -2.6575257    1.1627725   313401 
 1594000    1.0055291   -2.6579878   -2.6579878   -1.4956477  0.077658767   -2.6579878    1.1623401   313401 
 1595000    1.0076378   -2.6600309   -2.6600309   -1.4952532  0.080675236   -2.6600309    1.1647777   313401 
 1596000    1.0067058   -2.6583576   -2.6583576   -1.4946573  0.053207382   -2.6583576    1.1637003   313401 
 1597000    1.0071115   -2.6592239   -2.6592239   -1.4950546  0.054685718   -2.6592239    1.1641693   313401 
 1598000    1.0051167   -2.6573646   -2.6573646   -1.4955012  0.058567085   -2.6573646    1.1618634   313401 
 1599000    1.0050125   -2.6557848   -2.6557848   -1.4940418  0.063711946   -2.6557848     1.161743   313401 
 1600000    1.0031497   -2.6539109   -2.6539109   -1.4943213  0.065280406   -2.6539109    1.1595897   313401 
 1601000     1.003007   -2.6540167   -2.6540167   -1.4945921  0.062253673   -2.6540167    1.1594246   313401 
 1602000    1.0031084   -2.6546773   -2.6546773   -1.4951354  0.070082123   -2.6546773    1.1595419   313401 
 1603000    1.0036044   -2.6548464   -2.6548464   -1.4947311  0.065953298   -2.6548464    1.1601153   313401 
 1604000    1.0034439   -2.6547886   -2.6547886   -1.4948589  0.053301816   -2.6547886    1.1599297   313401 
 1605000    1.0041023   -2.6553235   -2.6553235   -1.4946326   0.05958595   -2.6553235    1.1606908   313401 
 1606000    1.0047171   -2.6557454   -2.6557454   -1.4943439  0.057113102   -2.6557454    1.1614015   313401 
 1607000    1.0055661   -2.6576744   -2.6576744   -1.4952915  0.061686872   -2.6576744    1.1623829   313401 
 1608000    1.0045936    -2.655642    -2.655642   -1.4943833  0.071544054    -2.655642    1.1612587   313401 
 1609000    1.0048845   -2.6556967   -2.6556967   -1.4941017  0.062580803   -2.6556967     1.161595   313401 
 1610000    1.0024254   -2.6535397   -2.6535397   -1.4947872  0.072524009   -2.6535397    1.1587525   313401 
 1611000     1.002576   -2.6553876   -2.6553876   -1.4964611  0.065942305   -2.6553876    1.1589264   313401 
 1612000    1.0038208    -2.655937    -2.655937   -1.4955717  0.070365466    -2.655937    1.1603654   313401 
 1613000    1.0065764   -2.6583848   -2.6583848   -1.4948341  0.067597818   -2.6583848    1.1635507   313401 
 1614000    1.0054633   -2.6560718   -2.6560718   -1.4938077  0.069586236   -2.6560718    1.1622641   313401 
 1615000    1.0052287   -2.6559985   -2.6559985   -1.4940057  0.066747278   -2.6559985    1.1619928   313401 
 1616000    1.0055792   -2.6574598   -2.6574598   -1.4950617  0.060454497   -2.6574598    1.1623981   313401 
 1617000    1.0054206   -2.6585181   -2.6585181   -1.4963033  0.070832497   -2.6585181    1.1622148   313401 
 1618000    1.0056803   -2.6582916   -2.6582916   -1.4957767  0.063953179   -2.6582916    1.1625149   313401 
 1619000    1.0045542   -2.6584778   -2.6584778   -1.4972646  0.066903623   -2.6584778    1.1612132   313401 
 1620000    1.0059543   -2.6593532   -2.6593532   -1.4965216  0.059524128   -2.6593532    1.1628316   313401 
 1621000    1.0067556   -2.6592919   -2.6592919    -1.495534  0.057556518   -2.6592919    1.1637579   313401 
 1622000    1.0060933   -2.6578244   -2.6578244   -1.4948321  0.066188136   -2.6578244    1.1629924   313401 
 1623000    1.0047418   -2.6579361   -2.6579361   -1.4965061  0.062074522   -2.6579361    1.1614301   313401 
 1624000    1.0086681   -2.6617667   -2.6617667   -1.4957981  0.076176889   -2.6617667    1.1659686   313401 
 1625000    1.0064168   -2.6585307   -2.6585307   -1.4951644  0.070293952   -2.6585307    1.1633662   313401 
 1626000    1.0082261   -2.6612133   -2.6612133   -1.4957556  0.063854228   -2.6612133    1.1654577   313401 
 1627000     1.006973   -2.6576787   -2.6576787   -1.4936695  0.062813052   -2.6576787    1.1640092   313401 
 1628000    1.0070056   -2.6595081   -2.6595081   -1.4954612  0.068991356   -2.6595081    1.1640469   313401 
 1629000    1.0048768   -2.6576455   -2.6576455   -1.4960594  0.074721821   -2.6576455    1.1615861   313401 
 1630000    1.0055599   -2.6580956   -2.6580956   -1.4957199  0.078919558   -2.6580956    1.1623757   313401 
 1631000    1.0057821   -2.6583416   -2.6583416   -1.4957091  0.062344239   -2.6583416    1.1626325   313401 
 1632000     1.004324   -2.6573125   -2.6573125   -1.4963654  0.065340351   -2.6573125    1.1609471   313401 
 1633000    1.0038174   -2.6562875   -2.6562875    -1.495926  0.057728837   -2.6562875    1.1603615   313401 
 1634000    1.0060934   -2.6575451   -2.6575451   -1.4945527  0.064215986   -2.6575451    1.1629924   313401 
 1635000    1.0052049   -2.6572688   -2.6572688   -1.4953034   0.06895897   -2.6572688    1.1619654   313401 
 1636000    1.0058707   -2.6576096   -2.6576096   -1.4948746  0.069314012   -2.6576096     1.162735   313401 
 1637000    1.0043313   -2.6560999   -2.6560999   -1.4951444  0.065381059   -2.6560999    1.1609555   313401 
 1638000    1.0039876   -2.6547618   -2.6547618   -1.4942036  0.065931717   -2.6547618    1.1605582   313401 
 1639000    1.0038469   -2.6547434   -2.6547434   -1.4943479  0.074449621   -2.6547434    1.1603955   313401 
 1640000    1.0045306     -2.65527     -2.65527   -1.4940841  0.064825754     -2.65527    1.1611859   313401 
 1641000    1.0048288   -2.6564193   -2.6564193   -1.4948887  0.074897596   -2.6564193    1.1615306   313401 
 1642000    1.0071669   -2.6583899   -2.6583899   -1.4941566  0.057550857   -2.6583899    1.1642334   313401 
 1643000    1.0057645   -2.6554124   -2.6554124   -1.4928001  0.070471766   -2.6554124    1.1626122   313401 
 1644000    1.0042453   -2.6545655   -2.6545655   -1.4937094  0.068382758   -2.6545655    1.1608561   313401 
 1645000    1.0016421   -2.6517783   -2.6517783   -1.4939313  0.063278396   -2.6517783     1.157847   313401 
 1646000     1.005019   -2.6550689   -2.6550689   -1.4933184  0.050167431   -2.6550689    1.1617505   313401 
 1647000    1.0028935    -2.653796    -2.653796   -1.4945026  0.062572679    -2.653796    1.1592935   313401 
 1648000    1.0035418   -2.6550957   -2.6550957   -1.4950527   0.06098577   -2.6550957     1.160043   313401 
 1649000    1.0022457    -2.652938    -2.652938   -1.4943933  0.071813765    -2.652938    1.1585447   313401 
 1650000    1.0040889   -2.6560635   -2.6560635   -1.4953881  0.061608712   -2.6560635    1.1606754   313401 
 1651000    1.0038334   -2.6552844   -2.6552844   -1.4949044  0.061172638   -2.6552844      1.16038   313401 
 1652000    1.0034613   -2.6549328   -2.6549328    -1.494983  0.065153445   -2.6549328    1.1599498   313401 
 1653000    1.0018482   -2.6527943   -2.6527943   -1.4947091  0.067447186   -2.6527943    1.1580852   313401 
 1654000    1.0039373   -2.6555974   -2.6555974   -1.4950974  0.063163206   -2.6555974    1.1605001   313401 
 1655000    1.0032668   -2.6544578   -2.6544578   -1.4947328  0.069074676   -2.6544578     1.159725   313401 
 1656000    1.0059047   -2.6582759   -2.6582759   -1.4955016  0.066079007   -2.6582759    1.1627743   313401 
 1657000    1.0058054   -2.6586865   -2.6586865    -1.496027  0.054686759   -2.6586865    1.1626595   313401 
 1658000    1.0027871    -2.655933    -2.655933   -1.4967625  0.069957439    -2.655933    1.1591705   313401 
 1659000    1.0045543   -2.6585336   -2.6585336   -1.4973203  0.073595456   -2.6585336    1.1612133   313401 
 1660000    1.0065349   -2.6611738   -2.6611738    -1.497671  0.074919126   -2.6611738    1.1635028   313401 
 1661000    1.0029246   -2.6577892   -2.6577892   -1.4984598  0.062193433   -2.6577892    1.1593294   313401 
 1662000    1.0049758   -2.6598159   -2.6598159   -1.4981153  0.071795821   -2.6598159    1.1617005   313401 
 1663000    1.0053397    -2.659062    -2.659062   -1.4969408  0.068078965    -2.659062    1.1621212   313401 
 1664000    1.0078362   -2.6623189   -2.6623189   -1.4973119    0.0694629   -2.6623189     1.165007   313401 
 1665000      1.00482   -2.6592524   -2.6592524    -1.497732  0.072901497   -2.6592524    1.1615204   313401 
 1666000    1.0056569   -2.6594232   -2.6594232   -1.4969353  0.066517986   -2.6594232    1.1624878   313401 
 1667000    1.0080122   -2.6614844   -2.6614844   -1.4962739  0.060696386   -2.6614844    1.1652105   313401 
 1668000    1.0077758   -2.6619233   -2.6619233    -1.496986  0.064162249   -2.6619233    1.1649372   313401 
 1669000    1.0056514   -2.6588059   -2.6588059   -1.4963244   0.07663695   -2.6588059    1.1624814   313401 
 1670000    1.0063224   -2.6614103   -2.6614103   -1.4981532  0.060819178   -2.6614103    1.1632572   313401 
 1671000    1.0079258   -2.6610338   -2.6610338   -1.4959232  0.074436543   -2.6610338    1.1651106   313401 
 1672000    1.0077045   -2.6621097   -2.6621097    -1.497255  0.063440086   -2.6621097    1.1648547   313401 
 1673000    1.0076445   -2.6626232   -2.6626232   -1.4978377   0.07282921   -2.6626232    1.1647855   313401 
 1674000    1.0066498   -2.6619392   -2.6619392   -1.4983036  0.069113627   -2.6619392    1.1636356   313401 
 1675000    1.0045817   -2.6591361   -2.6591361   -1.4978912  0.064635834   -2.6591361     1.161245   313401 
 1676000    1.0057525   -2.6612439   -2.6612439   -1.4986455  0.060794757   -2.6612439    1.1625984   313401 
 1677000    1.0041029   -2.6590527   -2.6590527   -1.4983612  0.058358521   -2.6590527    1.1606915   313401 
 1678000    1.0041635   -2.6579879   -2.6579879   -1.4972263  0.067101748   -2.6579879    1.1607615   313401 
 1679000    1.0041196   -2.6567177   -2.6567177   -1.4960068  0.066707496   -2.6567177    1.1607108   313401 
 1680000    1.0055977   -2.6585104   -2.6585104   -1.4960909  0.068902436   -2.6585104    1.1624195   313401 
 1681000    1.0078183   -2.6612907   -2.6612907   -1.4963043  0.065755917   -2.6612907    1.1649863   313401 
 1682000     1.004912   -2.6581098   -2.6581098    -1.496483  0.070606485   -2.6581098    1.1616267   313401 
 1683000    1.0039605   -2.6569435   -2.6569435   -1.4964166  0.060606122   -2.6569435    1.1605269   313401 
 1684000    1.0039261   -2.6568051   -2.6568051    -1.496318  0.061228901   -2.6568051    1.1604872   313401 
 1685000    1.0058791   -2.6589707   -2.6589707    -1.496226  0.067611303   -2.6589707    1.1627447   313401 
 1686000    1.0005499   -2.6534683   -2.6534683   -1.4968839  0.074106605   -2.6534683    1.1565844   313401 
 1687000    1.0041333   -2.6562429   -2.6562429   -1.4955163  0.068442559   -2.6562429    1.1607266   313401 
 1688000    1.0033651   -2.6560063   -2.6560063   -1.4961677  0.066666469   -2.6560063    1.1598386   313401 
 1689000    1.0032783   -2.6561527   -2.6561527   -1.4964144  0.059137743   -2.6561527    1.1597383   313401 
 1690000    1.0022097   -2.6550271   -2.6550271   -1.4965241  0.079089924   -2.6550271    1.1585031   313401 
 1691000    1.0061015    -2.658164    -2.658164   -1.4951622  0.065368142    -2.658164    1.1630018   313401 
 1692000    1.0039958   -2.6561269   -2.6561269   -1.4955592  0.054463678   -2.6561269    1.1605677   313401 
 1693000    1.0035185   -2.6555496   -2.6555496   -1.4955335  0.066988611   -2.6555496     1.160016   313401 
 1694000    1.0059018   -2.6574915   -2.6574915   -1.4947205  0.069300719   -2.6574915     1.162771   313401 
 1695000    1.0053834   -2.6573132   -2.6573132   -1.4951414  0.057982153   -2.6573132    1.1621717   313401 
 1696000    1.0070026   -2.6593499   -2.6593499   -1.4953065  0.069077452   -2.6593499    1.1640434   313401 
 1697000    1.0062168    -2.659088    -2.659088    -1.495953  0.071092938    -2.659088     1.163135   313401 
 1698000    1.0033215   -2.6566193   -2.6566193    -1.496831   0.06554226   -2.6566193    1.1597882   313401 
 1699000     1.003753   -2.6578428   -2.6578428   -1.4975557  0.063730683   -2.6578428    1.1602871   313401 
 1700000    1.0034521   -2.6570535   -2.6570535   -1.4971143  0.068740773   -2.6570535    1.1599392   313401 
 1701000     1.007729   -2.6613432   -2.6613432   -1.4964601  0.059613637   -2.6613432    1.1648831   313401 
 1702000    1.0077702   -2.6610814   -2.6610814   -1.4961507  0.071333028   -2.6610814    1.1649307   313401 
 1703000    1.0060652   -2.6600343   -2.6600343   -1.4970745  0.054770191   -2.6600343    1.1629598   313401 
 1704000    1.0036566   -2.6570866   -2.6570866    -1.496911   0.06662386   -2.6570866    1.1601756   313401 
 1705000    1.0070351    -2.661028    -2.661028   -1.4969471    0.0603888    -2.661028     1.164081   313401 
 1706000    1.0053075   -2.6603271   -2.6603271   -1.4982431  0.072097322   -2.6603271     1.162084   313401 
 1707000    1.0056906   -2.6607227   -2.6607227   -1.4981958  0.073942834   -2.6607227    1.1625268   313401 
 1708000    1.0074385   -2.6611434   -2.6611434   -1.4965961   0.05779131   -2.6611434    1.1645473   313401 
 1709000    1.0078347   -2.6621238   -2.6621238   -1.4971185  0.067916361   -2.6621238    1.1650053   313401 
 1710000    1.0055911   -2.6612234   -2.6612234   -1.4988116  0.072670463   -2.6612234    1.1624118   313401 
 1711000     1.005481   -2.6603971   -2.6603971   -1.4981126  0.072922861   -2.6603971    1.1622845   313401 
 1712000    1.0060436   -2.6609766   -2.6609766   -1.4980417   0.07254105   -2.6609766    1.1629348   313401 
 1713000    1.0057781    -2.661058    -2.661058     -1.49843  0.081877245    -2.661058    1.1626279   313401 
 1714000    1.0043982   -2.6600459   -2.6600459    -1.499013  0.061555637   -2.6600459    1.1610329   313401 
 1715000    1.0077665   -2.6637558   -2.6637558   -1.4988293  0.078050869   -2.6637558    1.1649265   313401 
 1716000    1.0065131   -2.6638439   -2.6638439   -1.5003663  0.077382122   -2.6638439    1.1634776   313401 
 1717000    1.0058846    -2.661668    -2.661668    -1.498917  0.066262006    -2.661668     1.162751   313401 
 1718000    1.0049184   -2.6598093   -2.6598093   -1.4981751  0.069870034   -2.6598093    1.1616342   313401 
 1719000    1.0060134    -2.660247    -2.660247   -1.4973471  0.061434338    -2.660247    1.1628999   313401 
 1720000    1.0062193   -2.6611494   -2.6611494   -1.4980114  0.077567692   -2.6611494     1.163138   313401 
 1721000    1.0058522   -2.6604987   -2.6604987   -1.4977851  0.072840156   -2.6604987    1.1627136   313401 
 1722000    1.0052044   -2.6600444   -2.6600444   -1.4980796  0.078972832   -2.6600444    1.1619648   313401 
 1723000     1.006929   -2.6610263   -2.6610263    -1.497068  0.065997994   -2.6610263    1.1639584   313401 
 1724000     1.006103   -2.6604063   -2.6604063   -1.4974028  0.056753822   -2.6604063    1.1630035   313401 
 1725000    1.0043657     -2.65844     -2.65844   -1.4974447  0.068730084     -2.65844    1.1609953   313401 
 1726000    1.0046791     -2.65869     -2.65869   -1.4973324  0.070534979     -2.65869    1.1613576   313401 
 1727000    1.0047794   -2.6587138   -2.6587138   -1.4972402  0.074529857   -2.6587138    1.1614736   313401 
 1728000    1.0042496   -2.6577644   -2.6577644   -1.4969033  0.067431519   -2.6577644    1.1608611   313401 
 1729000    1.0054821    -2.658436    -2.658436   -1.4961502  0.065728469    -2.658436    1.1622858   313401 
 1730000    1.0068081    -2.660044    -2.660044   -1.4962255  0.063324499    -2.660044    1.1638185   313401 
 1731000    1.0051409   -2.6581186   -2.6581186   -1.4962273  0.068710553   -2.6581186    1.1618914   313401 
 1732000    1.0068852   -2.6592528   -2.6592528   -1.4953451  0.063035644   -2.6592528    1.1639077   313401 
 1733000    1.0055557   -2.6576751   -2.6576751   -1.4953042  0.070710675   -2.6576751    1.1623708   313401 
 1734000    1.0048403   -2.6562299   -2.6562299    -1.494686   0.06933287   -2.6562299    1.1615439   313401 
 1735000    1.0045045   -2.6549874   -2.6549874   -1.4938316  0.068295512   -2.6549874    1.1611557   313401 
 1736000    1.0050145   -2.6570474   -2.6570474   -1.4953021  0.061349117   -2.6570474    1.1617452   313401 
 1737000    1.0041775   -2.6566528   -2.6566528   -1.4958751  0.065214805   -2.6566528    1.1607777   313401 
 1738000    1.0045551   -2.6567294   -2.6567294   -1.4955152  0.065252742   -2.6567294    1.1612142   313401 
 1739000    1.0040318   -2.6557072   -2.6557072   -1.4950979   0.06587416   -2.6557072    1.1606093   313401 
 1740000    1.0045966   -2.6562901   -2.6562901   -1.4950279  0.065782295   -2.6562901    1.1612622   313401 
 1741000    1.0030707   -2.6552173   -2.6552173   -1.4957189  0.065902326   -2.6552173    1.1594984   313401 
 1742000    1.0040491    -2.655319    -2.655319   -1.4946897  0.071534082    -2.655319    1.1606293   313401 
 1743000    1.0044899   -2.6561373   -2.6561373   -1.4949984  0.070352515   -2.6561373    1.1611389   313401 
 1744000    1.0044677   -2.6568458   -2.6568458   -1.4957327  0.072383617   -2.6568458    1.1611132   313401 
 1745000    1.0038566   -2.6557573   -2.6557573   -1.4953505  0.066297185   -2.6557573    1.1604068   313401 
 1746000    1.0061578   -2.6581041   -2.6581041   -1.4950372  0.055726246   -2.6581041    1.1630668   313401 
 1747000    1.0049813   -2.6568147   -2.6568147   -1.4951078  0.067514115   -2.6568147    1.1617069   313401 
 1748000    1.0039929   -2.6565954   -2.6565954   -1.4960311  0.069082696   -2.6565954    1.1605643   313401 
 1749000    1.0040688   -2.6570686   -2.6570686   -1.4964165  0.057123672   -2.6570686    1.1606521   313401 
 1750000    1.0053293   -2.6583294   -2.6583294   -1.4962202  0.067564031   -2.6583294    1.1621092   313401 
 1751000     1.003177   -2.6564173   -2.6564173    -1.496796  0.054985823   -2.6564173    1.1596213   313401 
 1752000    1.0041579   -2.6574325   -2.6574325   -1.4966774  0.072715782   -2.6574325    1.1607551   313401 
 1753000    1.0036684   -2.6584089   -2.6584089   -1.4982197  0.072113706   -2.6584089    1.1601892   313401 
 1754000    1.0042175    -2.660724    -2.660724   -1.4998999  0.064199973    -2.660724     1.160824   313401 
 1755000    1.0038524   -2.6596509   -2.6596509   -1.4992489  0.068634925   -2.6596509    1.1604019   313401 
 1756000    1.0056965    -2.660034    -2.660034   -1.4975004  0.067923926    -2.660034    1.1625337   313401 
 1757000    1.0051511   -2.6599718   -2.6599718   -1.4980686  0.063675473   -2.6599718    1.1619032   313401 
 1758000    1.0037712   -2.6590548   -2.6590548   -1.4987467  0.066824526   -2.6590548    1.1603081   313401 
 1759000    1.0044919   -2.6593122   -2.6593122    -1.498171  0.074103186   -2.6593122    1.1611412   313401 
 1760000    1.0060327   -2.6617573   -2.6617573    -1.498835  0.072907951   -2.6617573    1.1629223   313401 
 1761000    1.0046733   -2.6602297   -2.6602297   -1.4988788  0.066595067   -2.6602297    1.1613509   313401 
 1762000    1.0050178   -2.6619976   -2.6619976   -1.5002485  0.071809419   -2.6619976    1.1617491   313401 
 1763000    1.0059802   -2.6630953   -2.6630953   -1.5002338  0.064082381   -2.6630953    1.1628615   313401 
 1764000    1.0060678   -2.6624882   -2.6624882   -1.4995254  0.067841672   -2.6624882    1.1629628   313401 
 1765000    1.0055438   -2.6625983   -2.6625983   -1.5002412  0.068876661   -2.6625983    1.1623571   313401 
 1766000    1.0068062   -2.6638226   -2.6638226   -1.5000062  0.071253387   -2.6638226    1.1638164   313401 
 1767000    1.0094557   -2.6649117   -2.6649117   -1.4980326  0.076414858   -2.6649117    1.1668791   313401 
 1768000    1.0064282   -2.6621952   -2.6621952   -1.4988157  0.078774763   -2.6621952    1.1633795   313401 
 1769000    1.0065722   -2.6636393   -2.6636393   -1.5000935  0.062735006   -2.6636393    1.1635458   313401 
 1770000    1.0057848   -2.6631161   -2.6631161   -1.5004804  0.066056337   -2.6631161    1.1626357   313401 
 1771000    1.0060206   -2.6639896   -2.6639896   -1.5010814  0.067419555   -2.6639896    1.1629083   313401 
 1772000    1.0033694   -2.6603059   -2.6603059   -1.5004623  0.058075644   -2.6603059    1.1598436   313401 
 1773000     1.005323   -2.6626703   -2.6626703   -1.5005684  0.070995495   -2.6626703    1.1621019   313401 
 1774000    1.0065519   -2.6638813   -2.6638813   -1.5003588  0.073383328   -2.6638813    1.1635224   313401 
 1775000    1.0068901   -2.6642549   -2.6642549   -1.5003415  0.058037129   -2.6642549    1.1639134   313401 
 1776000     1.007276   -2.6652733   -2.6652733   -1.5009138  0.054890177   -2.6652733    1.1643595   313401 
 1777000    1.0073928   -2.6645225   -2.6645225    -1.500028  0.058116929   -2.6645225    1.1644945   313401 
 1778000    1.0061678   -2.6633498   -2.6633498   -1.5002713  0.054066762   -2.6633498    1.1630784   313401 
 1779000    1.0061915   -2.6637328   -2.6637328   -1.5006269  0.065549798   -2.6637328    1.1631059   313401 
 1780000    1.0042966   -2.6612469   -2.6612469   -1.5003315   0.06648216   -2.6612469    1.1609154   313401 
 1781000     1.005327    -2.662009    -2.662009   -1.4999024  0.054042119    -2.662009    1.1621065   313401 
 1782000    1.0037391   -2.6615006   -2.6615006   -1.5012296  0.060048488   -2.6615006     1.160271   313401 
 1783000     1.004094   -2.6613854   -2.6613854   -1.5007041  0.066737964   -2.6613854    1.1606812   313401 
 1784000    1.0023892   -2.6591168   -2.6591168   -1.5004063  0.067159349   -2.6591168    1.1587106   313401 
 1785000    1.0021099   -2.6587936   -2.6587936   -1.5004059  0.069858731   -2.6587936    1.1583877   313401 
 1786000    1.0014043    -2.658142    -2.658142     -1.50057  0.060740392    -2.658142     1.157572   313401 
 1787000    1.0032773   -2.6589071   -2.6589071   -1.4991699  0.060515404   -2.6589071    1.1597372   313401 
 1788000    1.0062234   -2.6613131   -2.6613131   -1.4981704  0.061260411   -2.6613131    1.1631427   313401 
 1789000    1.0046135   -2.6586229   -2.6586229   -1.4973412   0.06643318   -2.6586229    1.1612817   313401 
 1790000    1.0043506   -2.6575137   -2.6575137   -1.4965358  0.073144956   -2.6575137    1.1609779   313401 
 1791000     1.006672   -2.6601839   -2.6601839   -1.4965226  0.065438192   -2.6601839    1.1636613   313401 
 1792000    1.0057723   -2.6586176   -2.6586176   -1.4959964  0.073015707   -2.6586176    1.1626212   313401 
 1793000    1.0051157   -2.6600979   -2.6600979   -1.4982356  0.069872822   -2.6600979    1.1618622   313401 
 1794000     1.004787   -2.6580225   -2.6580225   -1.4965402   0.07765539   -2.6580225    1.1614822   313401 
 1795000     1.006596   -2.6597351   -2.6597351   -1.4961616  0.060531672   -2.6597351    1.1635735   313401 
 1796000    1.0064258   -2.6583816   -2.6583816   -1.4950049  0.070704092   -2.6583816    1.1633767   313401 
 1797000     1.007132   -2.6596494   -2.6596494   -1.4954563  0.062046319   -2.6596494     1.164193   313401 
 1798000    1.0045844   -2.6570194   -2.6570194   -1.4957714  0.061468016   -2.6570194     1.161248   313401 
 1799000    1.0064815   -2.6602871   -2.6602871    -1.496846  0.062002272   -2.6602871     1.163441   313401 
 1800000    1.0060385   -2.6587556   -2.6587556   -1.4958266  0.061104583   -2.6587556     1.162929   313401 
 1801000    1.0052574   -2.6589317   -2.6589317   -1.4969056  0.054104539   -2.6589317    1.1620261   313401 
 1802000    1.0067333   -2.6599287   -2.6599287   -1.4961966  0.047371471   -2.6599287    1.1637321   313401 
 1803000     1.003289   -2.6568889   -2.6568889   -1.4971382  0.073896131   -2.6568889    1.1597507   313401 
 1804000    1.0046263   -2.6575075   -2.6575075   -1.4962109  0.073506312   -2.6575075    1.1612966   313401 
 1805000    1.0036843   -2.6556363   -2.6556363   -1.4954287  0.073662414   -2.6556363    1.1602076   313401 
 1806000    1.0055079   -2.6570802   -2.6570802   -1.4947646  0.066382271   -2.6570802    1.1623156   313401 
 1807000    1.0080948   -2.6596804   -2.6596804   -1.4943745  0.069440863   -2.6596804    1.1653059   313401 
 1808000    1.0064975   -2.6573971   -2.6573971   -1.4939375  0.064239295   -2.6573971    1.1634596   313401 
 1809000    1.0048541   -2.6557624   -2.6557624   -1.4942026  0.075881338   -2.6557624    1.1615599   313401 
 1810000    1.0083559   -2.6591569   -2.6591569   -1.4935491  0.068756454   -2.6591569    1.1656078   313401 
 1811000    1.0057224   -2.6567719   -2.6567719   -1.4942084  0.068620438   -2.6567719    1.1625636   313401 
 1812000    1.0042592   -2.6556589   -2.6556589   -1.4947867  0.067064658   -2.6556589    1.1608722   313401 
 1813000    1.0040121   -2.6562558   -2.6562558   -1.4956693   0.06807725   -2.6562558    1.1605865   313401 
 1814000      1.00484   -2.6579726   -2.6579726   -1.4964291  0.062876737   -2.6579726    1.1615435   313401 
 1815000    1.0049137   -2.6570217   -2.6570217   -1.4953929  0.069423224   -2.6570217    1.1616287   313401 
 1816000    1.0044049   -2.6565339   -2.6565339   -1.4954932  0.062034219   -2.6565339    1.1610406   313401 
 1817000    1.0059637   -2.6578719   -2.6578719   -1.4950294  0.066808046   -2.6578719    1.1628425   313401 
 1818000    1.0042069   -2.6577679   -2.6577679   -1.4969562  0.076444559   -2.6577679    1.1608117   313401 
 1819000    1.0056514   -2.6590176   -2.6590176   -1.4965361  0.076169907   -2.6590176    1.1624815   313401 
 1820000     1.005653   -2.6592068   -2.6592068   -1.4967234  0.071727173   -2.6592068    1.1624834   313401 
 1821000    1.0043753   -2.6586046   -2.6586046   -1.4975982  0.058233222   -2.6586046    1.1610064   313401 
 1822000    1.0056164   -2.6605149   -2.6605149   -1.4980739  0.055309162   -2.6605149     1.162441   313401 
 1823000    1.0037474   -2.6584044   -2.6584044   -1.4981239  0.069059922   -2.6584044    1.1602806   313401 
 1824000    1.0052058   -2.6590377   -2.6590377   -1.4970713   0.05966414   -2.6590377    1.1619664   313401 
 1825000    1.0044659   -2.6579712   -2.6579712   -1.4968601  0.065311537   -2.6579712    1.1611111   313401 
 1826000    1.0040972   -2.6572137   -2.6572137   -1.4965288  0.062405409   -2.6572137    1.1606849   313401 
 1827000    1.0062697   -2.6586016   -2.6586016   -1.4954054   0.07282735   -2.6586016    1.1631963   313401 
 1828000    1.0057432   -2.6599198   -2.6599198   -1.4973321  0.077231454   -2.6599198    1.1625877   313401 
 1829000    1.0062949   -2.6608606   -2.6608606   -1.4976352  0.065128236   -2.6608606    1.1632253   313401 
 1830000    1.0052992   -2.6602781   -2.6602781   -1.4982038  0.074417469   -2.6602781    1.1620744   313401 
 1831000    1.0049133   -2.6597488   -2.6597488   -1.4981206  0.073284363   -2.6597488    1.1616283   313401 
 1832000    1.0028308   -2.6577394   -2.6577394   -1.4985184  0.073536923   -2.6577394     1.159221   313401 
 1833000    1.0070899   -2.6618267   -2.6618267   -1.4976824  0.069269647   -2.6618267    1.1641443   313401 
 1834000    1.0068025   -2.6622936   -2.6622936   -1.4984815  0.069038602   -2.6622936    1.1638121   313401 
 1835000    1.0091423   -2.6641333   -2.6641333   -1.4976164  0.061779443   -2.6641333    1.1665168   313401 
 1836000     1.006015   -2.6624236   -2.6624236   -1.4995218  0.074668812   -2.6624236    1.1629018   313401 
 1837000     1.005782   -2.6609266   -2.6609266   -1.4982941  0.080143299   -2.6609266    1.1626325   313401 
 1838000    1.0053681   -2.6609944   -2.6609944   -1.4988403  0.052877988   -2.6609944     1.162154   313401 
 1839000    1.0040123   -2.6602147   -2.6602147   -1.4996279  0.075286484   -2.6602147    1.1605868   313401 
 1840000     1.005292   -2.6611096   -2.6611096   -1.4990436  0.073319317   -2.6611096     1.162066   313401 
 1841000    1.0049922   -2.6611231   -2.6611231   -1.4994036  0.057198565   -2.6611231    1.1617195   313401 
 1842000    1.0039082   -2.6607906   -2.6607906   -1.5003241  0.059807101   -2.6607906    1.1604664   313401 
 1843000    1.0038957   -2.6611926   -2.6611926   -1.5007406   0.06753999   -2.6611926     1.160452   313401 
 1844000    1.0055783   -2.6611991   -2.6611991    -1.498802  0.059319153   -2.6611991     1.162397   313401 
 1845000    1.0070326   -2.6630883   -2.6630883   -1.4990103  0.068678986   -2.6630883    1.1640781   313401 
 1846000    1.0060176   -2.6614731   -2.6614731   -1.4985684  0.058231715   -2.6614731    1.1629048   313401 
 1847000    1.0062835    -2.660643    -2.660643   -1.4974308  0.076054818    -2.660643    1.1632121   313401 
 1848000    1.0054278   -2.6602952   -2.6602952   -1.4980721  0.073731547   -2.6602952    1.1622231   313401 
 1849000     1.006629    -2.661356    -2.661356   -1.4977445  0.062689332    -2.661356    1.1636115   313401 
 1850000    1.0055394   -2.6617838   -2.6617838   -1.4994317  0.076646174   -2.6617838    1.1623521   313401 
 1851000    1.0056358   -2.6619198   -2.6619198   -1.4994563  0.081584181   -2.6619198    1.1624635   313401 
 1852000    1.0040931   -2.6608794   -2.6608794   -1.5001992  0.059665611   -2.6608794    1.1606801   313401 
 1853000    1.0058233   -2.6615513   -2.6615513   -1.4988711  0.071892831   -2.6615513    1.1626802   313401 
 1854000    1.0060047   -2.6620156   -2.6620156   -1.4991257  0.073264016   -2.6620156    1.1628898   313401 
 1855000    1.0046432   -2.6599861   -2.6599861   -1.4986699  0.068042549   -2.6599861    1.1613161   313401 
 1856000    1.0040967    -2.658346    -2.658346   -1.4976617  0.060398771    -2.658346    1.1606843   313401 
 1857000    1.0040948   -2.6598357   -2.6598357   -1.4991536  0.072926754   -2.6598357    1.1606821   313401 
 1858000    1.0043768   -2.6599115   -2.6599115   -1.4989034  0.056209589   -2.6599115    1.1610081   313401 
 1859000    1.0038355   -2.6597681   -2.6597681   -1.4993858  0.076458365   -2.6597681    1.1603824   313401 
 1860000    1.0037616    -2.659311    -2.659311    -1.499014  0.066253735    -2.659311     1.160297   313401 
 1861000    1.0040429   -2.6588145   -2.6588145   -1.4981924  0.060851295   -2.6588145    1.1606222   313401 
 1862000    1.0051282   -2.6590486   -2.6590486   -1.4971719  0.072545424   -2.6590486    1.1618767   313401 
 1863000    1.0033988   -2.6581226   -2.6581226   -1.4982451  0.062619259   -2.6581226    1.1598776   313401 
 1864000    1.0039621   -2.6575263   -2.6575263   -1.4969975  0.061612047   -2.6575263    1.1605288   313401 
 1865000    1.0031806   -2.6579122   -2.6579122   -1.4982869  0.063271329   -2.6579122    1.1596254   313401 
 1866000    1.0058163   -2.6598558   -2.6598558   -1.4971837  0.052215323   -2.6598558    1.1626721   313401 
 1867000    1.0034567   -2.6564221   -2.6564221   -1.4964775  0.064695436   -2.6564221    1.1599446   313401 
 1868000    1.0051048   -2.6575762   -2.6575762   -1.4957265  0.069893871   -2.6575762    1.1618496   313401 
 1869000    1.0053305   -2.6587094   -2.6587094   -1.4965989  0.058699064   -2.6587094    1.1621105   313401 
 1870000    1.0045865   -2.6572329   -2.6572329   -1.4959824  0.071280522   -2.6572329    1.1612506   313401 
 1871000    1.0062867   -2.6585227   -2.6585227   -1.4953068  0.066724835   -2.6585227    1.1632159   313401 
 1872000    1.0057455   -2.6581515   -2.6581515   -1.4955612  0.072481684   -2.6581515    1.1625902   313401 
 1873000    1.0053003   -2.6578146   -2.6578146    -1.495739  0.059667032   -2.6578146    1.1620756   313401 
 1874000    1.0080944   -2.6606167   -2.6606167   -1.4953111   0.05955481   -2.6606167    1.1653055   313401 
 1875000    1.0069864   -2.6601813   -2.6601813   -1.4961566  0.060425017   -2.6601813    1.1640247   313401 
 1876000    1.0069832   -2.6593368   -2.6593368   -1.4953159  0.057664689   -2.6593368     1.164021   313401 
 1877000    1.0048475   -2.6583375   -2.6583375   -1.4967853  0.075169475   -2.6583375    1.1615522   313401 
 1878000    1.0062304   -2.6594309   -2.6594309   -1.4962801   0.06360665   -2.6594309    1.1631508   313401 
 1879000     1.005277    -2.659331    -2.659331   -1.4972823  0.067575488    -2.659331    1.1620487   313401 
 1880000    1.0062316   -2.6602095   -2.6602095   -1.4970573  0.047106888   -2.6602095    1.1631522   313401 
 1881000    1.0039669    -2.657453    -2.657453   -1.4969187  0.067349875    -2.657453    1.1605343   313401 
 1882000    1.0041947   -2.6573335   -2.6573335    -1.496536   0.07481913   -2.6573335    1.1607976   313401 
 1883000    1.0061239   -2.6602873   -2.6602873   -1.4972596  0.073830073   -2.6602873    1.1630277   313401 
 1884000    1.0050867   -2.6584889   -2.6584889   -1.4966603   0.08396613   -2.6584889    1.1618287   313401 
 1885000    1.0050988   -2.6583203   -2.6583203   -1.4964775  0.065874858   -2.6583203    1.1618427   313401 
 1886000    1.0077211   -2.6607204   -2.6607204   -1.4958464   0.06574149   -2.6607204     1.164874   313401 
 1887000    1.0051178    -2.657746    -2.657746   -1.4958813  0.068670307    -2.657746    1.1618647   313401 
 1888000    1.0063576   -2.6595998   -2.6595998    -1.496302  0.071937375   -2.6595998    1.1632978   313401 
 1889000    1.0049205   -2.6589133   -2.6589133   -1.4972767  0.065927791   -2.6589133    1.1616366   313401 
 1890000    1.0064532   -2.6597022   -2.6597022   -1.4962939  0.060117945   -2.6597022    1.1634083   313401 
 1891000    1.0045034   -2.6576292   -2.6576292   -1.4964747   0.06351304   -2.6576292    1.1611545   313401 
 1892000    1.0054435   -2.6576357   -2.6576357   -1.4953946   0.07087624   -2.6576357    1.1622411   313401 
 1893000    1.0057893   -2.6586102   -2.6586102   -1.4959693  0.075206721   -2.6586102    1.1626409   313401 
 1894000    1.0073638   -2.6593043   -2.6593043   -1.4948434  0.078073823   -2.6593043    1.1644609   313401 
 1895000    1.0046996   -2.6542469   -2.6542469   -1.4928656  0.068780294   -2.6542469    1.1613813   313401 
 1896000    1.0062875   -2.6577362   -2.6577362   -1.4945194  0.063511981   -2.6577362    1.1632168   313401 
 1897000    1.0035327   -2.6552368   -2.6552368   -1.4952045  0.068049352   -2.6552368    1.1600324   313401 
 1898000    1.0035579   -2.6548192   -2.6548192   -1.4947577  0.076882616   -2.6548192    1.1600615   313401 
 1899000    1.0046158   -2.6576321   -2.6576321   -1.4963477  0.070640924   -2.6576321    1.1612844   313401 
 1900000    1.0055626   -2.6589986   -2.6589986   -1.4966197  0.057631879   -2.6589986    1.1623788   313401 
 1901000    1.0047048   -2.6577982   -2.6577982   -1.4964109  0.067154559   -2.6577982    1.1613873   313401 
 1902000    1.0049881   -2.6578362   -2.6578362   -1.4961215  0.061618431   -2.6578362    1.1617147   313401 
 1903000     1.005557   -2.6575864   -2.6575864    -1.495214  0.063187888   -2.6575864    1.1623724   313401 
 1904000    1.0061952    -2.659395    -2.659395   -1.4962848  0.062603017    -2.659395    1.1631101   313401 
 1905000    1.0068033   -2.6590863   -2.6590863   -1.4952732  0.073950121   -2.6590863    1.1638131   313401 
 1906000    1.0071959   -2.6598499   -2.6598499    -1.495583  0.063651862   -2.6598499    1.1642669   313401 
 1907000    1.0065149   -2.6589031   -2.6589031   -1.4954234  0.066928228   -2.6589031    1.1634796   313401 
 1908000    1.0033267   -2.6559716   -2.6559716   -1.4961773  0.070271216   -2.6559716    1.1597943   313401 
 1909000     1.006881   -2.6595179   -2.6595179   -1.4956151  0.077067792   -2.6595179    1.1639028   313401 
 1910000    1.0051355   -2.6577392   -2.6577392   -1.4958541  0.063392675   -2.6577392    1.1618851   313401 
 1911000     1.005949   -2.6587152   -2.6587152   -1.4958897   0.06675059   -2.6587152    1.1628255   313401 
 1912000    1.0054932   -2.6578524   -2.6578524   -1.4955538  0.061819178   -2.6578524    1.1622987   313401 
 1913000    1.0066142    -2.660093    -2.660093   -1.4964986  0.054931289    -2.660093    1.1635944   313401 
 1914000    1.0043401   -2.6581058   -2.6581058   -1.4971401  0.071670296   -2.6581058    1.1609657   313401 
 1915000    1.0024402   -2.6575983   -2.6575983   -1.4988288  0.069233694   -2.6575983    1.1587695   313401 
 1916000    1.0031396   -2.6571244   -2.6571244   -1.4975464  0.062472189   -2.6571244     1.159578   313401 
 1917000     1.004919   -2.6586801   -2.6586801   -1.4970453  0.067590103   -2.6586801    1.1616349   313401 
 1918000    1.0050756   -2.6591595   -2.6591595   -1.4973436  0.058343345   -2.6591595    1.1618159   313401 
 1919000    1.0056419   -2.6584645   -2.6584645    -1.495994  0.067841204   -2.6584645    1.1624705   313401 
 1920000    1.0055523   -2.6587022   -2.6587022   -1.4963353  0.066268679   -2.6587022    1.1623669   313401 
 1921000    1.0064399   -2.6589611   -2.6589611   -1.4955681  0.075875209   -2.6589611     1.163393   313401 
 1922000    1.0074683    -2.660504    -2.660504   -1.4959222  0.069255915    -2.660504    1.1645818   313401 
 1923000    1.0055384   -2.6586419   -2.6586419   -1.4962911  0.069591644   -2.6586419    1.1623509   313401 
 1924000    1.0059832   -2.6590813   -2.6590813   -1.4962162  0.066112399   -2.6590813     1.162865   313401 
 1925000    1.0047928   -2.6583151   -2.6583151   -1.4968261  0.067972641   -2.6583151     1.161489   313401 
 1926000    1.0059264   -2.6608232   -2.6608232   -1.4980238  0.072266178   -2.6608232    1.1627994   313401 
 1927000    1.0053123   -2.6607859   -2.6607859   -1.4986964  0.063710869   -2.6607859    1.1620895   313401 
 1928000    1.0070431   -2.6628072   -2.6628072    -1.498717  0.065346587   -2.6628072    1.1640902   313401 
 1929000    1.0068027   -2.6624299   -2.6624299   -1.4986176  0.070555723   -2.6624299    1.1638123   313401 
 1930000    1.0046534   -2.6599275   -2.6599275   -1.4985996  0.071990374   -2.6599275    1.1613279   313401 
 1931000    1.0088853   -2.6644986   -2.6644986   -1.4982789  0.076799614   -2.6644986    1.1662197   313401 
 1932000    1.0062367   -2.6612766   -2.6612766   -1.4981185  0.069140733   -2.6612766    1.1631581   313401 
 1933000    1.0059637   -2.6603812   -2.6603812   -1.4975388   0.07256702   -2.6603812    1.1628425   313401 
 1934000    1.0051537   -2.6608242   -2.6608242    -1.498918  0.069093536   -2.6608242    1.1619062   313401 
 1935000    1.0077799   -2.6623508   -2.6623508   -1.4974089  0.064515762   -2.6623508     1.164942   313401 
 1936000     1.006431   -2.6604256   -2.6604256    -1.497043  0.073927757   -2.6604256    1.1633826   313401 
 1937000    1.0075595   -2.6627048   -2.6627048   -1.4980176  0.077478109   -2.6627048    1.1646872   313401 
 1938000    1.0063662   -2.6612271   -2.6612271   -1.4979193  0.070374357   -2.6612271    1.1633078   313401 
 1939000    1.0058926   -2.6614542   -2.6614542    -1.498694  0.060468522   -2.6614542    1.1627603   313401 
 1940000    1.0040519   -2.6589721   -2.6589721   -1.4983396  0.073182183   -2.6589721    1.1606325   313401 
 1941000    1.0040446   -2.6600733   -2.6600733   -1.4994492  0.066104419   -2.6600733    1.1606241   313401 
 1942000    1.0045603   -2.6601712   -2.6601712    -1.498951  0.071116655   -2.6601712    1.1612202   313401 
 1943000    1.0065814   -2.6618148   -2.6618148   -1.4982583  0.065442829   -2.6618148    1.1635565   313401 
 1944000      1.00547   -2.6600722   -2.6600722   -1.4978004  0.068969094   -2.6600722    1.1622719   313401 
 1945000    1.0059243   -2.6609364   -2.6609364   -1.4981395  0.066651537   -2.6609364     1.162797   313401 
 1946000    1.0046862   -2.6583727   -2.6583727   -1.4970069  0.072638202   -2.6583727    1.1613658   313401 
 1947000    1.0050788   -2.6585379   -2.6585379   -1.4967183  0.076609547   -2.6585379    1.1618196   313401 
 1948000    1.0069933   -2.6590937   -2.6590937    -1.495061  0.067416951   -2.6590937    1.1640327   313401 
 1949000    1.0082919   -2.6606293   -2.6606293   -1.4950955  0.075427304   -2.6606293    1.1655338   313401 
 1950000     1.009349   -2.6620799   -2.6620799   -1.4953242  0.058969682   -2.6620799    1.1667557   313401 
 1951000    1.0065412   -2.6584075   -2.6584075   -1.4948974  0.071617095   -2.6584075    1.1635101   313401 
 1952000    1.0063058   -2.6580421   -2.6580421   -1.4948041  0.067965529   -2.6580421     1.163238   313401 
 1953000     1.008815    -2.659626    -2.659626   -1.4934876  0.072959313    -2.659626    1.1661384   313401 
 1954000    1.0080268   -2.6590116   -2.6590116   -1.4937843  0.068816964   -2.6590116    1.1652273   313401 
 1955000     1.006831    -2.657413    -2.657413   -1.4935679   0.07450522    -2.657413    1.1638451   313401 
 1956000    1.0055425   -2.6556599   -2.6556599   -1.4933043  0.062922529   -2.6556599    1.1623556   313401 
 1957000    1.0069748   -2.6579382   -2.6579382    -1.493927  0.061971558   -2.6579382    1.1640112   313401 
 1958000    1.0036911   -2.6553998   -2.6553998   -1.4951843  0.078714552   -2.6553998    1.1602155   313401 
 1959000    1.0030359   -2.6553978   -2.6553978   -1.4959397  0.047477934   -2.6553978    1.1594581   313401 
 1960000    1.0048174   -2.6560351   -2.6560351   -1.4945176  0.064482148   -2.6560351    1.1615175   313401 
 1961000    1.0043415   -2.6559746   -2.6559746   -1.4950073  0.059955701   -2.6559746    1.1609673   313401 
 1962000    1.0023697   -2.6546597   -2.6546597   -1.4959716  0.063193666   -2.6546597     1.158688   313401 
 1963000    1.0017897   -2.6551267   -2.6551267   -1.4971092  0.060469492   -2.6551267    1.1580175   313401 
 1964000    1.0015903   -2.6542722   -2.6542722   -1.4964851  0.053574345   -2.6542722    1.1577871   313401 
 1965000    1.0047122   -2.6580144   -2.6580144   -1.4966185  0.062634457   -2.6580144    1.1613959   313401 
 1966000    1.0028292   -2.6562008   -2.6562008   -1.4969817  0.055407979   -2.6562008    1.1592192   313401 
 1967000    1.0033898   -2.6572018   -2.6572018   -1.4973346  0.072025066   -2.6572018    1.1598672   313401 
 1968000    1.0027732   -2.6553342   -2.6553342   -1.4961798  0.063133611   -2.6553342    1.1591544   313401 
 1969000    1.0026304   -2.6563943   -2.6563943   -1.4974049  0.068455458   -2.6563943    1.1589894   313401 
 1970000    1.0013219   -2.6550934   -2.6550934   -1.4976166  0.064468106   -2.6550934    1.1574768   313401 
 1971000    1.0047361   -2.6576356   -2.6576356   -1.4962121   0.07064258   -2.6576356    1.1614235   313401 
 1972000    1.0043147    -2.657854    -2.657854   -1.4969176  0.056008499    -2.657854    1.1609364   313401 
 1973000    1.0045378   -2.6575451   -2.6575451   -1.4963509  0.060836255   -2.6575451    1.1611942   313401 
 1974000    1.0055191   -2.6586884   -2.6586884   -1.4963598  0.061831228   -2.6586884    1.1623286   313401 
 1975000    1.0054533   -2.6595948   -2.6595948   -1.4973422  0.077189505   -2.6595948    1.1622525   313401 
 1976000    1.0077981   -2.6629975   -2.6629975   -1.4980345  0.059555874   -2.6629975    1.1649629   313401 
 1977000    1.0049165   -2.6612813   -2.6612813   -1.4996493  0.070278452   -2.6612813     1.161632   313401 
 1978000    1.0059952   -2.6615506   -2.6615506   -1.4986717  0.068883885   -2.6615506    1.1628789   313401 
 1979000    1.0069713   -2.6626276   -2.6626276   -1.4986203  0.066264956   -2.6626276    1.1640073   313401 
 1980000    1.0051229   -2.6601425   -2.6601425   -1.4982719  0.072481012   -2.6601425    1.1618706   313401 
 1981000    1.0064451   -2.6621946   -2.6621946   -1.4987956  0.070080031   -2.6621946     1.163399   313401 
 1982000    1.0060432   -2.6618309   -2.6618309   -1.4988966  0.071528582   -2.6618309    1.1629344   313401 
 1983000     1.004831   -2.6611498   -2.6611498   -1.4996167  0.079889263   -2.6611498    1.1615331   313401 
 1984000    1.0073219   -2.6634243   -2.6634243   -1.4990118  0.073294771   -2.6634243    1.1644125   313401 
 1985000    1.0076137   -2.6634249   -2.6634249   -1.4986751  0.070567254   -2.6634249    1.1647498   313401 
 1986000    1.0079702   -2.6636047   -2.6636047   -1.4984427  0.066100685   -2.6636047     1.165162   313401 
 1987000    1.0074664   -2.6639339   -2.6639339   -1.4993544  0.070653244   -2.6639339    1.1645796   313401 
 1988000    1.0066805   -2.6631295   -2.6631295   -1.4994584  0.071057721   -2.6631295    1.1636711   313401 
 1989000    1.0082677   -2.6629008   -2.6629008    -1.497395  0.074345008   -2.6629008    1.1655058   313401 
 1990000    1.0077365   -2.6619524   -2.6619524   -1.4970607  0.064683361   -2.6619524    1.1648917   313401 
 1991000    1.0066239   -2.6613671   -2.6613671   -1.4977614  0.077783845   -2.6613671    1.1636056   313401 
 1992000    1.0071841   -2.6622143   -2.6622143    -1.497961  0.069916876   -2.6622143    1.1642533   313401 
 1993000    1.0050633   -2.6594465   -2.6594465   -1.4976448  0.070388111   -2.6594465    1.1618017   313401 
 1994000    1.0061207    -2.660729    -2.660729   -1.4977051  0.066930107    -2.660729    1.1630239   313401 
 1995000     1.004085   -2.6576245   -2.6576245   -1.4969536  0.057541172   -2.6576245    1.1606708   313401 
 1996000    1.0029414   -2.6563769   -2.6563769    -1.497028  0.062808551   -2.6563769    1.1593489   313401 
 1997000     1.004316    -2.658564    -2.658564   -1.4976262  0.069761365    -2.658564    1.1609378   313401 
 1998000    1.0043562   -2.6578806   -2.6578806   -1.4968964  0.071645064   -2.6578806    1.1609843   313401 
 1999000    1.0044629   -2.6572699   -2.6572699   -1.4961622  0.054646272   -2.6572699    1.1611077   313401 
 2000000    1.0046457   -2.6569975   -2.6569975   -1.4956786  0.063514825   -2.6569975    1.1613189   313401 
 2001000    1.0028608   -2.6549495   -2.6549495   -1.4956938  0.052917679   -2.6549495    1.1592557   313401 
 2002000    1.0040896   -2.6561343   -2.6561343   -1.4954583  0.050528061   -2.6561343    1.1606761   313401 
 2003000    1.0033642   -2.6567551   -2.6567551   -1.4969175  0.054194968   -2.6567551    1.1598376   313401 
 2004000    1.0032246   -2.6546965   -2.6546965   -1.4950202  0.056962563   -2.6546965    1.1596763   313401 
 2005000    1.0045957   -2.6544122   -2.6544122   -1.4931511  0.060107653   -2.6544122    1.1612611   313401 
 2006000    1.0042057   -2.6551524   -2.6551524    -1.494342  0.067731441   -2.6551524    1.1608104   313401 
 2007000     1.003073   -2.6533522   -2.6533522   -1.4938512  0.075160437   -2.6533522     1.159501   313401 
 2008000    1.0026628   -2.6529662   -2.6529662   -1.4939393   0.06871347   -2.6529662    1.1590269   313401 
 2009000    1.0039173   -2.6534912   -2.6534912   -1.4930142  0.068648607   -2.6534912    1.1604769   313401 
 2010000    1.0031149   -2.6537964   -2.6537964    -1.494247  0.059805864   -2.6537964    1.1595494   313401 
 2011000    1.0051579    -2.654962    -2.654962    -1.493051  0.060777962    -2.654962     1.161911   313401 
 2012000    1.0042631   -2.6535954   -2.6535954   -1.4927187  0.058341433   -2.6535954    1.1608767   313401 
 2013000      1.00289   -2.6536074   -2.6536074   -1.4943179  0.065902812   -2.6536074    1.1592895   313401 
 2014000    1.0031647   -2.6542755   -2.6542755   -1.4946685  0.060179033   -2.6542755     1.159607   313401 
 2015000    1.0044419   -2.6560986   -2.6560986   -1.4950152  0.067696117   -2.6560986    1.1610834   313401 
 2016000    1.0058264    -2.657887    -2.657887   -1.4952032  0.048716888    -2.657887    1.1626838   313401 
 2017000    1.0044807   -2.6561776   -2.6561776   -1.4950494  0.063392054   -2.6561776    1.1611282   313401 
 2018000    1.0074645   -2.6597227   -2.6597227   -1.4951454  0.080040326   -2.6597227    1.1645773   313401 
 2019000      1.00447   -2.6566136   -2.6566136   -1.4954978   0.06513506   -2.6566136    1.1611159   313401 
 2020000    1.0048903   -2.6567418   -2.6567418   -1.4951402  0.062334763   -2.6567418    1.1616017   313401 
 2021000    1.0033513   -2.6560559   -2.6560559   -1.4962332  0.062704157   -2.6560559    1.1598228   313401 
 2022000    1.0052777   -2.6581586   -2.6581586   -1.4961091  0.061125321   -2.6581586    1.1620495   313401 
 2023000    1.0075186   -2.6603877   -2.6603877   -1.4957479  0.069402936   -2.6603877    1.1646398   313401 
 2024000     1.005748   -2.6582191   -2.6582191   -1.4956259  0.057746829   -2.6582191    1.1625932   313401 
 2025000    1.0073594   -2.6610699   -2.6610699   -1.4966141  0.073703419   -2.6610699    1.1644558   313401 
 2026000    1.0046951   -2.6576269   -2.6576269   -1.4962508  0.064782529   -2.6576269    1.1613761   313401 
 2027000    1.0066849   -2.6602616   -2.6602616   -1.4965855  0.066502288   -2.6602616    1.1636761   313401 
 2028000    1.0063707   -2.6597943   -2.6597943   -1.4964813  0.074360656   -2.6597943     1.163313   313401 
 2029000    1.0054657   -2.6589056   -2.6589056   -1.4966388  0.068284431   -2.6589056    1.1622668   313401 
 2030000      1.00645   -2.6586903   -2.6586903   -1.4952856  0.065034542   -2.6586903    1.1634047   313401 
 2031000    1.0066788   -2.6593551   -2.6593551   -1.4956861  0.074092867   -2.6593551    1.1636691   313401 
 2032000     1.008124   -2.6605813   -2.6605813   -1.4952417  0.071782794   -2.6605813    1.1653397   313401 
 2033000    1.0076905   -2.6592365   -2.6592365   -1.4943979   0.06730901   -2.6592365    1.1648386   313401 
 2034000    1.0074975   -2.6606217   -2.6606217   -1.4960062  0.070241645   -2.6606217    1.1646155   313401 
 2035000    1.0065104   -2.6603272   -2.6603272   -1.4968527  0.073779589   -2.6603272    1.1634745   313401 
 2036000    1.0040631   -2.6574696   -2.6574696   -1.4968241  0.072562144   -2.6574696    1.1606455   313401 
 2037000    1.0045345   -2.6582774   -2.6582774   -1.4970869  0.063985794   -2.6582774    1.1611904   313401 
 2038000    1.0047707   -2.6578901   -2.6578901   -1.4964266   0.07533626   -2.6578901    1.1614635   313401 
 2039000    1.0054129   -2.6574244   -2.6574244   -1.4952186  0.076637906   -2.6574244    1.1622058   313401 
 2040000    1.0055841   -2.6579334   -2.6579334   -1.4955297  0.064834898   -2.6579334    1.1624037   313401 
 2041000    1.0056249   -2.6568313   -2.6568313   -1.4943804  0.063117042   -2.6568313    1.1624509   313401 
 2042000    1.0044182   -2.6565501   -2.6565501   -1.4954942  0.063512268   -2.6565501     1.161056   313401 
 2043000    1.0030503   -2.6550144   -2.6550144   -1.4955396   0.06576292   -2.6550144    1.1594748   313401 
 2044000    1.0034626   -2.6552625   -2.6552625   -1.4953112  0.065265397   -2.6552625    1.1599514   313401 
 2045000    1.0044294   -2.6567373   -2.6567373   -1.4956683  0.066225886   -2.6567373     1.161069   313401 
 2046000     1.004665   -2.6574556   -2.6574556   -1.4961143  0.072792986   -2.6574556    1.1613413   313401 
 2047000    1.0057579   -2.6601375   -2.6601375   -1.4975329  0.058483325   -2.6601375    1.1626047   313401 
 2048000    1.0028856   -2.6566503   -2.6566503    -1.497366  0.067147442   -2.6566503    1.1592843   313401 
 2049000    1.0019357   -2.6563597   -2.6563597   -1.4981734  0.066045709   -2.6563597    1.1581863   313401 
 2050000    1.0037895   -2.6570472   -2.6570472    -1.496718  0.064758099   -2.6570472    1.1603292   313401 
 2051000     1.005211    -2.657641    -2.657641   -1.4956686  0.060060014    -2.657641    1.1619724   313401 
 2052000    1.0053261   -2.6561876   -2.6561876   -1.4940821  0.063622528   -2.6561876    1.1621055   313401 
 2053000    1.0033685   -2.6545564   -2.6545564   -1.4947138  0.074780673   -2.6545564    1.1598426   313401 
 2054000    1.0059832   -2.6579647   -2.6579647   -1.4950996   0.05737777   -2.6579647    1.1628651   313401 
 2055000    1.0077876   -2.6592356   -2.6592356   -1.4942848  0.065230441   -2.6592356    1.1649508   313401 
 2056000    1.0054071    -2.656398    -2.656398   -1.4941989  0.060756226    -2.656398    1.1621991   313401 
 2057000    1.0050363   -2.6555832   -2.6555832   -1.4938127  0.071780766   -2.6555832    1.1617705   313401 
 2058000    1.0063364   -2.6583373   -2.6583373    -1.495064  0.067414226   -2.6583373    1.1632733   313401 
 2059000    1.0078522   -2.6605446   -2.6605446   -1.4955191  0.071929452   -2.6605446    1.1650255   313401 
 2060000     1.004603   -2.6570305   -2.6570305   -1.4957609  0.060269338   -2.6570305    1.1612696   313401 
 2061000    1.0055428    -2.658377    -2.658377    -1.496021  0.078811629    -2.658377     1.162356   313401 
 2062000    1.0060225   -2.6589157   -2.6589157   -1.4960052  0.072353844   -2.6589157    1.1629105   313401 
 2063000    1.0069988    -2.659809    -2.659809     -1.49577  0.063849538    -2.659809     1.164039   313401 
 2064000    1.0054839   -2.6586064   -2.6586064   -1.4963185  0.058747441   -2.6586064    1.1622879   313401 
 2065000    1.0048106   -2.6579884   -2.6579884   -1.4964788  0.070754982   -2.6579884    1.1615096   313401 
 2066000     1.006503   -2.6615508   -2.6615508   -1.4980849  0.054425235   -2.6615508    1.1634659   313401 
 2067000    1.0050673   -2.6592955   -2.6592955   -1.4974892  0.070293884   -2.6592955    1.1618063   313401 
 2068000    1.0033085   -2.6583862   -2.6583862    -1.498613  0.078498956   -2.6583862    1.1597733   313401 
 2069000    1.0047809   -2.6591222   -2.6591222    -1.497647  0.077404755   -2.6591222    1.1614753   313401 
 2070000    1.0044668   -2.6579949   -2.6579949   -1.4968828  0.062522583   -2.6579949    1.1611121   313401 
 2071000    1.0058981   -2.6594915   -2.6594915   -1.4967248  0.071083197   -2.6594915    1.1627667   313401 
 2072000    1.0088809   -2.6628999   -2.6628999   -1.4966853  0.073003819   -2.6628999    1.1662146   313401 
 2073000    1.0088482   -2.6637392   -2.6637392   -1.4975623  0.067022064   -2.6637392    1.1661769   313401 
 2074000    1.0051972   -2.6598936   -2.6598936   -1.4979372  0.067303786   -2.6598936    1.1619564   313401 
 2075000    1.0062275   -2.6611946   -2.6611946   -1.4980471  0.062348301   -2.6611946    1.1631475   313401 
 2076000    1.0068868   -2.6611111   -2.6611111   -1.4972016   0.05897379   -2.6611111    1.1639095   313401 
 2077000    1.0056861   -2.6599501   -2.6599501   -1.4974285  0.061740354   -2.6599501    1.1625216   313401 
 2078000     1.004149   -2.6582349   -2.6582349   -1.4974901  0.070148172   -2.6582349    1.1607448   313401 
 2079000    1.0094505   -2.6629907   -2.6629907   -1.4961176  0.067795807   -2.6629907    1.1668731   313401 
 2080000    1.0082479   -2.6612066   -2.6612066   -1.4957237   0.05959941   -2.6612066    1.1654829   313401 
 2081000    1.0082897   -2.6606846   -2.6606846   -1.4951533   0.06484266   -2.6606846    1.1655312   313401 
 2082000    1.0086948   -2.6616472   -2.6616472   -1.4956477   0.06369205   -2.6616472    1.1659995   313401 
 2083000     1.006468   -2.6582091   -2.6582091   -1.4947837  0.073605956   -2.6582091    1.1634254   313401 
 2084000    1.0096867   -2.6613433   -2.6613433   -1.4941972   0.05959931   -2.6613433    1.1671461   313401 
 2085000    1.0067904   -2.6590068   -2.6590068   -1.4952087  0.068890055   -2.6590068    1.1637981   313401 
 2086000    1.0058895   -2.6583896   -2.6583896   -1.4956329  0.078999261   -2.6583896    1.1627567   313401 
 2087000    1.0051662   -2.6580555   -2.6580555   -1.4961349  0.071195267   -2.6580555    1.1619206   313401 
 2088000    1.0054403   -2.6573315   -2.6573315    -1.495094  0.081070199   -2.6573315    1.1622375   313401 
 2089000    1.0067756   -2.6582756   -2.6582756   -1.4944945   0.06175469   -2.6582756    1.1637811   313401 
 2090000    1.0049989    -2.656132    -2.656132   -1.4944048  0.080943607    -2.656132    1.1617272   313401 
 2091000    1.0052897   -2.6562253   -2.6562253   -1.4941619  0.062813207   -2.6562253    1.1620634   313401 
 2092000    1.0031389   -2.6541151   -2.6541151   -1.4945379  0.065330714   -2.6541151    1.1595772   313401 
 2093000    1.0064068   -2.6571648   -2.6571648   -1.4938101  0.062678512   -2.6571648    1.1633547   313401 
 2094000    1.0057768   -2.6565615   -2.6565615   -1.4939351  0.062602193   -2.6565615    1.1626264   313401 
 2095000    1.0054369   -2.6560355   -2.6560355    -1.493802  0.061302629   -2.6560355    1.1622336   313401 
 2096000    1.0050244   -2.6553273   -2.6553273   -1.4935707  0.077853163   -2.6553273    1.1617567   313401 
 2097000    1.0061521   -2.6552881   -2.6552881   -1.4922279  0.064845528   -2.6552881    1.1630602   313401 
 2098000    1.0058951   -2.6552755   -2.6552755   -1.4925123  0.078366772   -2.6552755    1.1627632   313401 
 2099000    1.0060978   -2.6554952   -2.6554952   -1.4924977   0.06675345   -2.6554952    1.1629975   313401 
 2100000    1.0069749   -2.6570019   -2.6570019   -1.4929906    0.0623173   -2.6570019    1.1640114   313401 
 2101000    1.0044579   -2.6543193   -2.6543193   -1.4932174  0.068199913   -2.6543193    1.1611019   313401 
 2102000     1.004472   -2.6535358   -2.6535358   -1.4924176  0.070183891   -2.6535358    1.1611181   313401 
 2103000    1.0061481   -2.6551461   -2.6551461   -1.4920905  0.070923276   -2.6551461    1.1630556   313401 
 2104000    1.0049421   -2.6536319   -2.6536319   -1.4919703  0.060360246   -2.6536319    1.1616616   313401 
 2105000    1.0068922   -2.6558175   -2.6558175   -1.4919017  0.073561919   -2.6558175    1.1639158   313401 
 2106000    1.0061701   -2.6556073   -2.6556073   -1.4925263  0.057159323   -2.6556073     1.163081   313401 
 2107000    1.0044169   -2.6537404   -2.6537404   -1.4926859  0.064038116   -2.6537404    1.1610544   313401 
 2108000    1.0054006   -2.6557556   -2.6557556    -1.493564  0.060538872   -2.6557556    1.1621916   313401 
 2109000    1.0048065    -2.655283    -2.655283   -1.4937782  0.064609862    -2.655283    1.1615048   313401 
 2110000    1.0049798   -2.6558496   -2.6558496   -1.4941444  0.063561674   -2.6558496    1.1617052   313401 
 2111000    1.0065963   -2.6566105   -2.6566105   -1.4930368  0.060326079   -2.6566105    1.1635737   313401 
 2112000    1.0049387     -2.65472     -2.65472   -1.4930624  0.062320269     -2.65472    1.1616576   313401 
 2113000    1.0073682   -2.6592591   -2.6592591   -1.4947931  0.067050244   -2.6592591     1.164466   313401 
 2114000     1.004932   -2.6558094   -2.6558094   -1.4941595  0.071809358   -2.6558094    1.1616499   313401 
 2115000    1.0069515   -2.6581232   -2.6581232   -1.4941388  0.081884116   -2.6581232    1.1639843   313401 
 2116000    1.0083933   -2.6587706   -2.6587706   -1.4931196  0.065337111   -2.6587706     1.165651   313401 
 2117000    1.0064425   -2.6578543   -2.6578543   -1.4944583  0.079066171   -2.6578543    1.1633959   313401 
 2118000    1.0065841   -2.6571597   -2.6571597   -1.4936001  0.071025617   -2.6571597    1.1635596   313401 
 2119000     1.007016    -2.657459    -2.657459      -1.4934  0.059708051    -2.657459    1.1640589   313401 
 2120000    1.0043046   -2.6548042   -2.6548042   -1.4938795   0.06013172   -2.6548042    1.1609247   313401 
 2121000     1.006956   -2.6579062   -2.6579062   -1.4939166  0.056563849   -2.6579062    1.1639895   313401 
 2122000    1.0047038   -2.6552706   -2.6552706   -1.4938844   0.06839443   -2.6552706    1.1613861   313401 
 2123000    1.0047285   -2.6558559   -2.6558559   -1.4944412  0.064612729   -2.6558559    1.1614147   313401 
 2124000    1.0052501   -2.6569941   -2.6569941   -1.4949765  0.058460807   -2.6569941    1.1620176   313401 
 2125000    1.0057946   -2.6573915   -2.6573915   -1.4947445  0.069917646   -2.6573915     1.162647   313401 
 2126000    1.0070067   -2.6578692   -2.6578692    -1.493821  0.061992357   -2.6578692    1.1640482   313401 
 2127000    1.0059616   -2.6560302   -2.6560302   -1.4931902  0.071625495   -2.6560302      1.16284   313401 
 2128000    1.0033014   -2.6542964   -2.6542964   -1.4945314  0.066150419   -2.6542964     1.159765   313401 
 2129000    1.0062443   -2.6569879   -2.6569879    -1.493821   0.06271734   -2.6569879    1.1631669   313401 
 2130000    1.0043455   -2.6547861   -2.6547861   -1.4938141  0.063129637   -2.6547861    1.1609719   313401 
 2131000    1.0072651   -2.6574812   -2.6574812   -1.4931343  0.066990514   -2.6574812    1.1643468   313401 
 2132000    1.0070365   -2.6566179   -2.6566179   -1.4925353  0.065494195   -2.6566179    1.1640826   313401 
 2133000    1.0040542    -2.654026    -2.654026   -1.4933909  0.063485644    -2.654026    1.1606352   313401 
 2134000    1.0056429   -2.6551813   -2.6551813   -1.4927096  0.063505674   -2.6551813    1.1624717   313401 
 2135000    1.0041612   -2.6539379   -2.6539379    -1.493179  0.051849364   -2.6539379    1.1607589   313401 
 2136000    1.0057159   -2.6544748   -2.6544748   -1.4919187   0.06771977   -2.6544748    1.1625561   313401 
 2137000    1.0050432    -2.654326    -2.654326   -1.4925476   0.06457997    -2.654326    1.1617784   313401 
 2138000    1.0045685   -2.6538358   -2.6538358   -1.4926061  0.052384804   -2.6538358    1.1612297   313401 
 2139000    1.0034742   -2.6530617   -2.6530617    -1.493097  0.062631313   -2.6530617    1.1599647   313401 
 2140000    1.0026775    -2.651585    -2.651585   -1.4925412  0.075541496    -2.651585    1.1590438   313401 
 2141000    1.0046235    -2.653551    -2.653551   -1.4922578  0.057604395    -2.653551    1.1612933   313401 
 2142000    1.0050007   -2.6532372   -2.6532372   -1.4915079   0.06018818   -2.6532372    1.1617293   313401 
 2143000    1.0068259   -2.6544132   -2.6544132    -1.490574  0.065965569   -2.6544132    1.1638391   313401 
 2144000    1.0038826   -2.6523214   -2.6523214   -1.4918846   0.07579376   -2.6523214    1.1604368   313401 
 2145000    1.0061018   -2.6545186   -2.6545186   -1.4915166  0.071083085   -2.6545186    1.1630021   313401 
 2146000    1.0056885   -2.6547657   -2.6547657   -1.4922413    0.0653225   -2.6547657    1.1625244   313401 
 2147000     1.003634   -2.6527784   -2.6527784   -1.4926289  0.077230785   -2.6527784    1.1601495   313401 
 2148000     1.006843    -2.656012    -2.656012   -1.4921532  0.064807556    -2.656012    1.1638589   313401 
 2149000    1.0065887   -2.6550468   -2.6550468   -1.4914818  0.066282142   -2.6550468     1.163565   313401 
 2150000    1.0044346   -2.6537216   -2.6537216   -1.4926467  0.063986943   -2.6537216    1.1610749   313401 
 2151000    1.0049418   -2.6562731   -2.6562731   -1.4946119  0.052858438   -2.6562731    1.1616612   313401 
 2152000    1.0049352    -2.656304    -2.656304   -1.4946504  0.062842983    -2.656304    1.1616536   313401 
 2153000     1.005272   -2.6566921   -2.6566921   -1.4946491  0.060614164   -2.6566921     1.162043   313401 
 2154000    1.0071833   -2.6570329   -2.6570329   -1.4927806  0.075829007   -2.6570329    1.1642523   313401 
 2155000    1.0053612   -2.6561793   -2.6561793   -1.4940332  0.073826227   -2.6561793    1.1621461   313401 
 2156000    1.0065753   -2.6571506   -2.6571506   -1.4936011   0.06683683   -2.6571506    1.1635495   313401 
 2157000    1.0071615   -2.6570258   -2.6570258   -1.4927987  0.065447136   -2.6570258     1.164227   313401 
 2158000    1.0064247    -2.657274    -2.657274   -1.4938986  0.073256391    -2.657274    1.1633754   313401 
 2159000    1.0050059   -2.6542831   -2.6542831   -1.4925478  0.072143779   -2.6542831    1.1617354   313401 
 2160000    1.0075527   -2.6574466   -2.6574466   -1.4927674  0.065693243   -2.6574466    1.1646793   313401 
 2161000    1.0072419   -2.6570898   -2.6570898   -1.4927697  0.070901351   -2.6570898    1.1643201   313401 
 2162000    1.0073883   -2.6561921   -2.6561921   -1.4917028  0.069838969   -2.6561921    1.1644893   313401 
 2163000    1.0071408   -2.6567363   -2.6567363   -1.4925332  0.073417481   -2.6567363    1.1642032   313401 
 2164000    1.0070543   -2.6547413   -2.6547413   -1.4906381  0.066697067   -2.6547413    1.1641031   313401 
 2165000    1.0073741   -2.6560356   -2.6560356   -1.4915628  0.070600138   -2.6560356    1.1644728   313401 
 2166000    1.0054848   -2.6540547   -2.6540547   -1.4917658  0.069111887   -2.6540547    1.1622889   313401 
 2167000    1.0053172   -2.6549484   -2.6549484   -1.4928532  0.072917395   -2.6549484    1.1620952   313401 
 2168000    1.0054417   -2.6548162   -2.6548162   -1.4925771  0.065223408   -2.6548162    1.1622391   313401 
 2169000    1.0044481   -2.6553725   -2.6553725   -1.4942819  0.070896639   -2.6553725    1.1610906   313401 
 2170000    1.0059747   -2.6562564   -2.6562564   -1.4934012  0.060519517   -2.6562564    1.1628552   313401 
 2171000    1.0045687   -2.6550111   -2.6550111   -1.4937811  0.060468199   -2.6550111      1.16123   313401 
 2172000    1.0041609   -2.6545881   -2.6545881   -1.4938295  0.060361795   -2.6545881    1.1607585   313401 
 2173000    1.0053517   -2.6564796   -2.6564796   -1.4943445  0.070668657   -2.6564796    1.1621351   313401 
 2174000    1.0060514   -2.6562718   -2.6562718    -1.493328  0.075749379   -2.6562718    1.1629438   313401 
 2175000    1.0047483   -2.6535124   -2.6535124   -1.4920749  0.061942833   -2.6535124    1.1614375   313401 
 2176000    1.0054161   -2.6556531   -2.6556531   -1.4934436  0.061976692   -2.6556531    1.1622095   313401 
 2177000    1.0033578    -2.653018    -2.653018   -1.4931878  0.071860253    -2.653018    1.1598302   313401 
 2178000    1.0024655    -2.653144    -2.653144   -1.4943452  0.065650639    -2.653144    1.1587988   313401 
 2179000    1.0039167   -2.6538796   -2.6538796   -1.4934033  0.047367807   -2.6538796    1.1604762   313401 
 2180000    1.0043288   -2.6527871   -2.6527871   -1.4918345   0.06862662   -2.6527871    1.1609527   313401 
 2181000    1.0058623   -2.6551471   -2.6551471   -1.4924218   0.03928712   -2.6551471    1.1627252   313401 
 2182000    1.0053439   -2.6523075   -2.6523075   -1.4901814  0.082622943   -2.6523075    1.1621261   313401 
 2183000    1.0050839    -2.653135    -2.653135   -1.4913096  0.063547116    -2.653135    1.1618255   313401 
 2184000     1.007109    -2.655821    -2.655821   -1.4916546  0.080024626    -2.655821    1.1641664   313401 
 2185000    1.0086874   -2.6561563   -2.6561563   -1.4901654  0.065841316   -2.6561563    1.1659909   313401 
 2186000    1.0096041    -2.655849    -2.655849   -1.4887983  0.057760429    -2.655849    1.1670507   313401 
 2187000    1.0096628   -2.6566359   -2.6566359   -1.4895175  0.076364541   -2.6566359    1.1671184   313401 
 2188000    1.0099689   -2.6567633   -2.6567633    -1.489291  0.070020156   -2.6567633    1.1674723   313401 
 2189000    1.0081384   -2.6556681   -2.6556681   -1.4903117  0.066825907   -2.6556681    1.1653564   313401 
 2190000    1.0064902   -2.6522624   -2.6522624   -1.4888113  0.067477844   -2.6522624    1.1634511   313401 
 2191000    1.0073858   -2.6535273   -2.6535273    -1.489041   0.05974853   -2.6535273    1.1644864   313401 
 2192000    1.0075316   -2.6541838   -2.6541838   -1.4895289  0.072982214   -2.6541838    1.1646549   313401 
 2193000    1.0065501    -2.653605    -2.653605   -1.4900847  0.052247745    -2.653605    1.1635203   313401 
 2194000    1.0057097   -2.6509073   -2.6509073   -1.4883584  0.070043005   -2.6509073    1.1625488   313401 
 2195000    1.0039389   -2.6495826   -2.6495826   -1.4890807  0.058555901   -2.6495826     1.160502   313401 
 2196000    1.0060921   -2.6520688   -2.6520688   -1.4890778  0.073665445   -2.6520688     1.162991   313401 
 2197000    1.0063356   -2.6521178   -2.6521178   -1.4888454  0.066434346   -2.6521178    1.1632724   313401 
 2198000    1.0059298   -2.6532699   -2.6532699   -1.4904667  0.063733879   -2.6532699    1.1628033   313401 
 2199000    1.0056826   -2.6527866   -2.6527866    -1.490269  0.069765346   -2.6527866    1.1625176   313401 
 2200000    1.0073486   -2.6543451   -2.6543451   -1.4899017  0.066403523   -2.6543451    1.1644434   313401 
 2201000    1.0056976   -2.6513643   -2.6513643   -1.4888294  0.063932043   -2.6513643    1.1625349   313401 
 2202000    1.0067878   -2.6535242   -2.6535242    -1.489729  0.068256792   -2.6535242    1.1637951   313401 
 2203000    1.0044532   -2.6513136   -2.6513136   -1.4902172  0.064064611   -2.6513136    1.1610964   313401 
 2204000    1.0074452   -2.6551051   -2.6551051     -1.49055  0.079051523   -2.6551051     1.164555   313401 
 2205000    1.0030342   -2.6496507   -2.6496507   -1.4901945  0.064871029   -2.6496507    1.1594562   313401 
 2206000    1.0041176   -2.6510765   -2.6510765   -1.4903681  0.073478961   -2.6510765    1.1607084   313401 
 2207000    1.0038795   -2.6513752   -2.6513752   -1.4909419  0.066824814   -2.6513752    1.1604332   313401 
 2208000    1.0050827   -2.6530402   -2.6530402   -1.4912161  0.060958508   -2.6530402    1.1618241   313401 
 2209000    1.0045488   -2.6519569   -2.6519569   -1.4907499  0.082233026   -2.6519569     1.161207   313401 
 2210000    1.0064202   -2.6546156   -2.6546156   -1.4912454  0.069551185   -2.6546156    1.1633702   313401 
 2211000     1.006634   -2.6539053   -2.6539053   -1.4902879  0.076367344   -2.6539053    1.1636173   313401 
 2212000    1.0070984   -2.6541855   -2.6541855   -1.4900314   0.06675989   -2.6541855    1.1641541   313401 
 2213000    1.0082175   -2.6553912   -2.6553912   -1.4899434  0.079002992   -2.6553912    1.1654477   313401 
 2214000    1.0054607   -2.6507463   -2.6507463   -1.4884852  0.071015068   -2.6507463    1.1622611   313401 
 2215000    1.0074475   -2.6540508   -2.6540508   -1.4894931  0.065771907   -2.6540508    1.1645577   313401 
 2216000    1.0071233   -2.6538906   -2.6538906   -1.4897077  0.068279841   -2.6538906    1.1641829   313401 
 2217000    1.0043286   -2.6505556   -2.6505556   -1.4896031  0.071310812   -2.6505556    1.1609525   313401 
 2218000    1.0061075    -2.654314    -2.654314   -1.4913052  0.066349805    -2.654314    1.1630088   313401 
 2219000     1.003819   -2.6514499   -2.6514499   -1.4910866  0.067197373   -2.6514499    1.1603633   313401 
 2220000      1.00414   -2.6513178   -2.6513178   -1.4905834  0.067258972   -2.6513178    1.1607344   313401 
 2221000    1.0035503   -2.6518696   -2.6518696   -1.4918168  0.060545667   -2.6518696    1.1600528   313401 
 2222000      1.00575   -2.6545625   -2.6545625   -1.4919671  0.059246169   -2.6545625    1.1625954   313401 
 2223000    1.0035087   -2.6518156   -2.6518156   -1.4918109   0.06596027   -2.6518156    1.1600047   313401 
 2224000    1.0042277   -2.6526346   -2.6526346   -1.4917988  0.058878117   -2.6526346    1.1608358   313401 
 2225000    1.0031292   -2.6501768   -2.6501768   -1.4906108  0.063157278   -2.6501768     1.159566   313401 
 2226000    1.0041999   -2.6515109   -2.6515109   -1.4907073   0.06577975   -2.6515109    1.1608036   313401 
 2227000    1.0039707    -2.650848    -2.650848   -1.4903093  0.071109073    -2.650848    1.1605387   313401 
 2228000    1.0069836   -2.6528595   -2.6528595    -1.488838  0.071887478   -2.6528595    1.1640215   313401 
 2229000    1.0045596   -2.6506353   -2.6506353   -1.4894159   0.07327535   -2.6506353    1.1612195   313401 
 2230000    1.0042332   -2.6511724   -2.6511724   -1.4903303  0.065040231   -2.6511724    1.1608421   313401 
 2231000    1.0069256   -2.6538157   -2.6538157   -1.4898612  0.065860654   -2.6538157    1.1639545   313401 
 2232000    1.0051335   -2.6524589   -2.6524589   -1.4905761  0.069386441   -2.6524589    1.1618828   313401 
 2233000    1.0069611   -2.6541103   -2.6541103   -1.4901148  0.072431831   -2.6541103    1.1639955   313401 
 2234000    1.0059906   -2.6538302   -2.6538302   -1.4909566  0.068462163   -2.6538302    1.1628736   313401 
 2235000    1.0069555   -2.6546771   -2.6546771   -1.4906882  0.064316763   -2.6546771    1.1639889   313401 
 2236000    1.0078046   -2.6554094   -2.6554094   -1.4904389  0.066816588   -2.6554094    1.1649705   313401 
 2237000    1.0076182   -2.6548853   -2.6548853   -1.4901303  0.062361298   -2.6548853     1.164755   313401 
 2238000    1.0064531   -2.6550489   -2.6550489   -1.4916407  0.071627503   -2.6550489    1.1634083   313401 
 2239000     1.007694    -2.655026    -2.655026   -1.4901834  0.064153393    -2.655026    1.1648426   313401 
 2240000    1.0041655     -2.65224     -2.65224   -1.4914761  0.056629881     -2.65224    1.1607639   313401 
 2241000    1.0041015   -2.6523874   -2.6523874   -1.4916975  0.073157855   -2.6523874    1.1606899   313401 
 2242000    1.0063309   -2.6547101   -2.6547101   -1.4914432  0.049576108   -2.6547101    1.1632669   313401 
 2243000    1.0048457   -2.6546117   -2.6546117   -1.4930616  0.080381053   -2.6546117    1.1615501   313401 
 2244000    1.0043238   -2.6537429   -2.6537429   -1.4927961  0.062378234   -2.6537429    1.1609468   313401 
 2245000    1.0052064   -2.6560269   -2.6560269   -1.4940598  0.064123938   -2.6560269    1.1619671   313401 
 2246000    1.0053509   -2.6550326   -2.6550326   -1.4928985  0.067312215   -2.6550326    1.1621342   313401 
 2247000    1.0048736   -2.6548077   -2.6548077   -1.4932254  0.063040604   -2.6548077    1.1615824   313401 
 2248000    1.0041839   -2.6549597   -2.6549597   -1.4941746  0.067507554   -2.6549597    1.1607851   313401 
 2249000    1.0065762   -2.6570322   -2.6570322   -1.4934817  0.064892934   -2.6570322    1.1635506   313401 
 2250000    1.0072777   -2.6586034   -2.6586034   -1.4942421  0.070701179   -2.6586034    1.1643614   313401 
 2251000    1.0054134   -2.6551339   -2.6551339   -1.4929276  0.062998177   -2.6551339    1.1622063   313401 
 2252000    1.0057762   -2.6561822   -2.6561822   -1.4935565  0.066437893   -2.6561822    1.1626257   313401 
 2253000    1.0061033   -2.6571827   -2.6571827   -1.4941789  0.068839357   -2.6571827    1.1630038   313401 
 2254000    1.0059448   -2.6565317   -2.6565317    -1.493711  0.075297954   -2.6565317    1.1628207   313401 
 2255000    1.0057664   -2.6562628   -2.6562628   -1.4936484  0.077416805   -2.6562628    1.1626144   313401 
 2256000    1.0071942   -2.6562828   -2.6562828    -1.492018  0.067858656   -2.6562828    1.1642648   313401 
 2257000    1.0072047   -2.6568871   -2.6568871     -1.49261  0.076316779   -2.6568871    1.1642771   313401 
 2258000    1.0077965   -2.6568724   -2.6568724   -1.4919113  0.062977725   -2.6568724    1.1649611   313401 
 2259000    1.0048012   -2.6539385   -2.6539385   -1.4924398  0.073699851   -2.6539385    1.1614987   313401 
 2260000    1.0065641   -2.6546745   -2.6546745    -1.491138  0.075347671   -2.6546745    1.1635366   313401 
 2261000    1.0059404   -2.6555438   -2.6555438   -1.4927283  0.069220243   -2.6555438    1.1628155   313401 
 2262000    1.0086856   -2.6574896   -2.6574896   -1.4915008  0.063131632   -2.6574896    1.1659889   313401 
 2263000    1.0062668   -2.6567066   -2.6567066   -1.4935138  0.061445134   -2.6567066    1.1631928   313401 
 2264000    1.0057424   -2.6542131   -2.6542131   -1.4916265  0.054064632   -2.6542131    1.1625867   313401 
 2265000    1.0046575   -2.6537829   -2.6537829   -1.4924503   0.06034413   -2.6537829    1.1613326   313401 
 2266000    1.0026971   -2.6532621   -2.6532621   -1.4941956  0.062289389   -2.6532621    1.1590665   313401 
 2267000    1.0036841     -2.65478     -2.65478   -1.4945726  0.058287408     -2.65478    1.1602074   313401 
 2268000    1.0029666   -2.6538709   -2.6538709   -1.4944929  0.072562102   -2.6538709     1.159378   313401 
 2269000    1.0024271   -2.6529316   -2.6529316   -1.4941773  0.064546565   -2.6529316    1.1587543   313401 
 2270000    1.0043933   -2.6534606   -2.6534606   -1.4924334  0.052949729   -2.6534606    1.1610272   313401 
 2271000    1.0047094    -2.653971    -2.653971   -1.4925784  0.046813098    -2.653971    1.1613926   313401 
 2272000     1.003975   -2.6544688   -2.6544688   -1.4939251  0.072472362   -2.6544688    1.1605436   313401 
 2273000    1.0034424   -2.6531474   -2.6531474   -1.4932194  0.059556922   -2.6531474     1.159928   313401 
 2274000     1.003512   -2.6538918   -2.6538918   -1.4938834  0.069546896   -2.6538918    1.1600084   313401 
 2275000     1.004967   -2.6559715   -2.6559715   -1.4942811  0.052177706   -2.6559715    1.1616904   313401 
 2276000    1.0049354   -2.6550513   -2.6550513   -1.4933974  0.061788336   -2.6550513    1.1616539   313401 
 2277000    1.0041784   -2.6549515   -2.6549515   -1.4941728  0.053750662   -2.6549515    1.1607788   313401 
 2278000    1.0052181   -2.6545359   -2.6545359   -1.4925553  0.066036936   -2.6545359    1.1619807   313401 
 2279000    1.0050825   -2.6548404   -2.6548404   -1.4930166   0.06291692   -2.6548404    1.1618238   313401 
 2280000    1.0054534   -2.6543774   -2.6543774   -1.4921248   0.06476103   -2.6543774    1.1622526   313401 
 2281000    1.0058296    -2.654909    -2.654909   -1.4922215  0.065054944    -2.654909    1.1626875   313401 
 2282000    1.0059776   -2.6546127   -2.6546127   -1.4917541  0.082487043   -2.6546127    1.1628586   313401 
 2283000    1.0061018   -2.6560112   -2.6560112    -1.493009  0.065616553   -2.6560112    1.1630022   313401 
 2284000    1.0063309   -2.6560679   -2.6560679   -1.4928009  0.078426317   -2.6560679     1.163267   313401 
 2285000    1.0060323   -2.6565535   -2.6565535   -1.4936316  0.072309151   -2.6565535    1.1629218   313401 
 2286000    1.0051025   -2.6562546   -2.6562546   -1.4944076  0.070563105   -2.6562546     1.161847   313401 
 2287000    1.0075124   -2.6571943   -2.6571943   -1.4925615  0.066624719   -2.6571943    1.1646327   313401 
 2288000    1.0059987   -2.6566679   -2.6566679    -1.493785  0.067901331   -2.6566679    1.1628829   313401 
 2289000    1.0070607    -2.658036    -2.658036   -1.4939255  0.065248151    -2.658036    1.1641106   313401 
 2290000    1.0054264   -2.6569796   -2.6569796   -1.4947581  0.073344756   -2.6569796    1.1622215   313401 
 2291000    1.0051281   -2.6572859   -2.6572859   -1.4954093  0.058005241   -2.6572859    1.1618766   313401 
 2292000    1.0040074   -2.6571398   -2.6571398   -1.4965586  0.071095555   -2.6571398    1.1605811   313401 
 2293000    1.0029101   -2.6558246   -2.6558246   -1.4965119  0.065666446   -2.6558246    1.1593127   313401 
 2294000    1.0010673   -2.6545156   -2.6545156    -1.497333  0.072225819   -2.6545156    1.1571825   313401 
 2295000    1.0041417   -2.6569309   -2.6569309   -1.4961945  0.068703234   -2.6569309    1.1607364   313401 
 2296000    1.0024868   -2.6542747   -2.6542747   -1.4954512  0.073892435   -2.6542747    1.1588234   313401 
 2297000    1.0050485    -2.657113    -2.657113   -1.4953284  0.073851195    -2.657113    1.1617846   313401 
 2298000    1.0043499   -2.6556992   -2.6556992   -1.4947222  0.066563536   -2.6556992     1.160977   313401 
 2299000    1.0036669    -2.655184    -2.655184   -1.4949966  0.065657003    -2.655184    1.1601875   313401 
 2300000    1.0032897     -2.65427     -2.65427   -1.4945185  0.077401938     -2.65427    1.1597515   313401 
 2301000    1.0043061    -2.655434    -2.655434   -1.4945076  0.081882415    -2.655434    1.1609264   313401 
 2302000    1.0059512   -2.6573367   -2.6573367   -1.4945087  0.078080178   -2.6573367     1.162828   313401 
 2303000    1.0059059   -2.6569308   -2.6569308   -1.4941552  0.067822581   -2.6569308    1.1627756   313401 
 2304000    1.0053592   -2.6553005   -2.6553005   -1.4931568  0.065596148   -2.6553005    1.1621437   313401 
 2305000    1.0052294   -2.6553135   -2.6553135   -1.4933198  0.058512776   -2.6553135    1.1619936   313401 
 2306000    1.0035126      -2.6534      -2.6534   -1.4933908  0.058768537      -2.6534    1.1600091   313401 
 2307000    1.0052466   -2.6541163   -2.6541163   -1.4921027  0.068543386   -2.6541163    1.1620136   313401 
 2308000    1.0036351   -2.6525922   -2.6525922   -1.4924414  0.066616062   -2.6525922    1.1601508   313401 
 2309000    1.0037827   -2.6531285   -2.6531285   -1.4928071  0.056903118   -2.6531285    1.1603214   313401 
 2310000     1.004701   -2.6544953   -2.6544953   -1.4931125  0.055916617   -2.6544953    1.1613828   313401 
 2311000     1.005264    -2.655423    -2.655423   -1.4933893  0.062925153    -2.655423    1.1620337   313401 
 2312000    1.0041829   -2.6541004   -2.6541004   -1.4933163  0.056720335   -2.6541004     1.160784   313401 
 2313000     1.002955   -2.6519905   -2.6519905   -1.4926258  0.073736683   -2.6519905    1.1593647   313401 
 2314000     1.003714    -2.652969    -2.652969   -1.4927271  0.061442268    -2.652969    1.1602419   313401 
 2315000    1.0041386   -2.6540033   -2.6540033   -1.4932705  0.066548748   -2.6540033    1.1607328   313401 
 2316000    1.0034437   -2.6528688   -2.6528688   -1.4929393  0.076960045   -2.6528688    1.1599295   313401 
 2317000    1.0035213   -2.6534881   -2.6534881    -1.493469  0.070870916   -2.6534881    1.1600192   313401 
 2318000    1.0041043   -2.6539658   -2.6539658   -1.4932726  0.057153527   -2.6539658    1.1606931   313401 
 2319000    1.0058659   -2.6555693   -2.6555693   -1.4928398  0.071417442   -2.6555693    1.1627295   313401 
 2320000    1.0046088   -2.6539263   -2.6539263     -1.49265  0.069383045   -2.6539263    1.1612763   313401 
 2321000    1.0064793   -2.6555635   -2.6555635   -1.4921249  0.069989363   -2.6555635    1.1634385   313401 
 2322000    1.0053741   -2.6544863   -2.6544863   -1.4923253   0.07222936   -2.6544863     1.162161   313401 
 2323000    1.0054403   -2.6536588   -2.6536588   -1.4914214  0.076568706   -2.6536588    1.1622374   313401 
 2324000    1.0056883   -2.6550518   -2.6550518   -1.4925277  0.061162192   -2.6550518    1.1625241   313401 
 2325000    1.0056254   -2.6557317   -2.6557317   -1.4932803  0.075453914   -2.6557317    1.1624514   313401 
 2326000    1.0046439   -2.6546471   -2.6546471   -1.4933302  0.062896031   -2.6546471    1.1613169   313401 
 2327000    1.0044485   -2.6540686   -2.6540686   -1.4929776  0.049213862   -2.6540686     1.161091   313401 
 2328000    1.0035562   -2.6518123   -2.6518123   -1.4917527  0.059794567   -2.6518123    1.1600596   313401 
 2329000    1.0067684   -2.6549152   -2.6549152   -1.4911425   0.07131118   -2.6549152    1.1637727   313401 
 2330000    1.0046478   -2.6531169   -2.6531169   -1.4917955  0.065204588   -2.6531169    1.1613214   313401 
 2331000    1.0053948   -2.6551112   -2.6551112   -1.4929264  0.067708577   -2.6551112    1.1621849   313401 
 2332000    1.0042397   -2.6548762   -2.6548762   -1.4940266   0.06433117   -2.6548762    1.1608497   313401 
 2333000    1.0033859   -2.6532598   -2.6532598   -1.4933972  0.053217572   -2.6532598    1.1598627   313401 
 2334000    1.0022666   -2.6531189   -2.6531189   -1.4945501  0.058278023   -2.6531189    1.1585689   313401 
 2335000    1.0018115   -2.6516776   -2.6516776   -1.4936348  0.062594057   -2.6516776    1.1580428   313401 
 2336000    1.0029913   -2.6547661   -2.6547661   -1.4953596  0.052744359   -2.6547661    1.1594065   313401 
 2337000    1.0022378   -2.6537997   -2.6537997   -1.4952642  0.067759014   -2.6537997    1.1585355   313401 
 2338000    1.0043418   -2.6562134   -2.6562134   -1.4952457  0.054164693   -2.6562134    1.1609677   313401 
 2339000    1.0047443   -2.6571075   -2.6571075   -1.4956745  0.067655959   -2.6571075    1.1614329   313401 
 2340000    1.0046398   -2.6579625   -2.6579625   -1.4966503  0.056552649   -2.6579625    1.1613122   313401 
 2341000    1.0041544   -2.6582028   -2.6582028   -1.4974517  0.069199666   -2.6582028    1.1607511   313401 
 2342000    1.0058899   -2.6605948   -2.6605948   -1.4978376  0.055072065   -2.6605948    1.1627572   313401 
 2343000     1.006855   -2.6611587   -2.6611587   -1.4972859  0.066104063   -2.6611587    1.1638727   313401 
 2344000    1.0057271   -2.6599738   -2.6599738   -1.4974048  0.073289336   -2.6599738     1.162569   313401 
 2345000    1.0068003   -2.6598399   -2.6598399   -1.4960303  0.065041202   -2.6598399    1.1638096   313401 
 2346000    1.0058009   -2.6590532   -2.6590532   -1.4963989   0.05865516   -2.6590532    1.1626543   313401 
 2347000    1.0055763   -2.6600415   -2.6600415   -1.4976468  0.062556721   -2.6600415    1.1623947   313401 
 2348000     1.002451   -2.6552038   -2.6552038   -1.4964219  0.072785827   -2.6552038     1.158782   313401 
 2349000    1.0033506   -2.6569702   -2.6569702   -1.4971484  0.085313769   -2.6569702    1.1598218   313401 
 2350000     1.005911   -2.6595761   -2.6595761   -1.4967946  0.067345239   -2.6595761    1.1627815   313401 
 2351000    1.0078758   -2.6623649   -2.6623649   -1.4973121  0.064212457   -2.6623649    1.1650528   313401 
 2352000    1.0072756   -2.6615137   -2.6615137   -1.4971547  0.074223196   -2.6615137     1.164359   313401 
 2353000    1.0057776   -2.6601824   -2.6601824    -1.497555  0.066624911   -2.6601824    1.1626274   313401 
 2354000    1.0066662    -2.660316    -2.660316   -1.4966614   0.06601828    -2.660316    1.1636546   313401 
 2355000    1.0060312   -2.6605307   -2.6605307   -1.4976101  0.070718284   -2.6605307    1.1629206   313401 
 2356000    1.0073033   -2.6623895   -2.6623895   -1.4979985  0.054115488   -2.6623895     1.164391   313401 
 2357000    1.0056267   -2.6609384   -2.6609384   -1.4984854    0.0682715   -2.6609384     1.162453   313401 
 2358000    1.0050503   -2.6611031   -2.6611031   -1.4993165  0.068435656   -2.6611031    1.1617867   313401 
 2359000    1.0047084   -2.6608428   -2.6608428   -1.4994514  0.065033849   -2.6608428    1.1613914   313401 
 2360000    1.0042334   -2.6596319   -2.6596319   -1.4987895  0.055643617   -2.6596319    1.1608424   313401 
 2361000    1.0033072   -2.6588201   -2.6588201   -1.4990483  0.069078403   -2.6588201    1.1597718   313401 
 2362000    1.0032396   -2.6589042   -2.6589042   -1.4992107   0.06006493   -2.6589042    1.1596935   313401 
 2363000    1.0047339   -2.6604856   -2.6604856   -1.4990647  0.067655237   -2.6604856     1.161421   313401 
 2364000    1.0048733    -2.661771    -2.661771   -1.5001889  0.056090123    -2.661771    1.1615821   313401 
 2365000    1.0020804   -2.6592263   -2.6592263   -1.5008726   0.06967979   -2.6592263    1.1583536   313401 
 2366000    1.0037501    -2.660387    -2.660387   -1.5001033  0.074840134    -2.660387    1.1602837   313401 
 2367000    1.0050216   -2.6609292   -2.6609292   -1.4991757  0.068676703   -2.6609292    1.1617534   313401 
 2368000    1.0051133   -2.6601038   -2.6601038   -1.4982444  0.070149359   -2.6601038    1.1618595   313401 
 2369000    1.0054684   -2.6607199   -2.6607199   -1.4984499  0.067560889   -2.6607199    1.1622699   313401 
 2370000    1.0066898   -2.6612792   -2.6612792   -1.4975974  0.061688349   -2.6612792    1.1636818   313401 
 2371000    1.0056679    -2.659727    -2.659727   -1.4972264  0.068173364    -2.659727    1.1625006   313401 
 2372000    1.0048013   -2.6585202   -2.6585202   -1.4970214  0.071342467   -2.6585202    1.1614988   313401 
 2373000    1.0053967   -2.6585999   -2.6585999   -1.4964128  0.076139724   -2.6585999    1.1621871   313401 
 2374000    1.0048448   -2.6585096   -2.6585096   -1.4969605  0.070318795   -2.6585096    1.1615491   313401 
 2375000    1.0061077   -2.6586208   -2.6586208   -1.4956118  0.069817542   -2.6586208     1.163009   313401 
 2376000    1.0064351   -2.6588312   -2.6588312   -1.4954439  0.052671568   -2.6588312    1.1633874   313401 
 2377000    1.0069799   -2.6599872   -2.6599872     -1.49597  0.069132754   -2.6599872    1.1640172   313401 
 2378000    1.0045385     -2.65747     -2.65747   -1.4962749  0.061008383     -2.65747     1.161195   313401 
 2379000    1.0046208   -2.6575975   -2.6575975   -1.4963073  0.073653863   -2.6575975    1.1612901   313401 
 2380000    1.0036098   -2.6562232   -2.6562232   -1.4961016  0.091029468   -2.6562232    1.1601215   313401 
 2381000    1.0054402   -2.6573182   -2.6573182   -1.4950809  0.084229556   -2.6573182    1.1622373   313401 
 2382000    1.0045394     -2.65702     -2.65702   -1.4958239  0.065754467     -2.65702    1.1611961   313401 
 2383000    1.0046136   -2.6568425   -2.6568425   -1.4955606  0.059829196   -2.6568425    1.1612819   313401 
 2384000    1.0042956   -2.6574001   -2.6574001   -1.4964858  0.068532127   -2.6574001    1.1609143   313401 
 2385000    1.0046936   -2.6573113   -2.6573113    -1.495937  0.062424705   -2.6573113    1.1613744   313401 
 2386000    1.0047234   -2.6578563   -2.6578563   -1.4964475  0.063448604   -2.6578563    1.1614088   313401 
 2387000    1.0034008   -2.6550581   -2.6550581   -1.4951781  0.079178496   -2.6550581      1.15988   313401 
 2388000     1.005552   -2.6571824   -2.6571824   -1.4948158  0.073389223   -2.6571824    1.1623666   313401 
 2389000    1.0068317    -2.657713    -2.657713   -1.4938671   0.06978513    -2.657713    1.1638459   313401 
 2390000    1.0044165   -2.6573558   -2.6573558   -1.4963018  0.061074365   -2.6573558    1.1610541   313401 
 2391000    1.0082688   -2.6614031   -2.6614031    -1.495896  0.060579254   -2.6614031    1.1655071   313401 
 2392000    1.0087179   -2.6596658   -2.6596658   -1.4936396  0.056651406   -2.6596658    1.1660262   313401 
 2393000    1.0061241   -2.6575453   -2.6575453   -1.4945173  0.076011539   -2.6575453     1.163028   313401 
 2394000    1.0073893   -2.6587634   -2.6587634    -1.494273  0.074950615   -2.6587634    1.1644904   313401 
 2395000    1.0069465   -2.6587472   -2.6587472   -1.4947686  0.079258085   -2.6587472    1.1639786   313401 
 2396000    1.0068635   -2.6599914   -2.6599914   -1.4961088   0.06230309   -2.6599914    1.1638826   313401 
 2397000      1.00698   -2.6602069   -2.6602069   -1.4961897  0.072058825   -2.6602069    1.1640173   313401 
 2398000    1.0047295   -2.6588458   -2.6588458   -1.4974299   0.07244633   -2.6588458    1.1614159   313401 
 2399000     1.005818   -2.6596005   -2.6596005   -1.4969264  0.068512221   -2.6596005     1.162674   313401 
 2400000    1.0054576   -2.6600637   -2.6600637   -1.4978063  0.054887498   -2.6600637    1.1622574   313401 
 2401000    1.0064254   -2.6592486   -2.6592486   -1.4958724  0.071405258   -2.6592486    1.1633761   313401 
 2402000    1.0051868   -2.6587668   -2.6587668   -1.4968223   0.06224614   -2.6587668    1.1619444   313401 
 2403000    1.0075631   -2.6617027   -2.6617027   -1.4970113  0.062251646   -2.6617027    1.1646913   313401 
 2404000    1.0048417   -2.6580801   -2.6580801   -1.4965346  0.065043276   -2.6580801    1.1615455   313401 
 2405000    1.0065565   -2.6590636   -2.6590636   -1.4955359  0.075980672   -2.6590636    1.1635277   313401 
 2406000     1.005227   -2.6575247   -2.6575247   -1.4955338  0.076989689   -2.6575247    1.1619909   313401 
 2407000    1.0074465   -2.6602687   -2.6602687   -1.4957121  0.065200345   -2.6602687    1.1645566   313401 
 2408000    1.0053465   -2.6579652   -2.6579652   -1.4958361  0.061754339   -2.6579652    1.1621291   313401 
 2409000    1.0064486   -2.6601061   -2.6601061   -1.4967031  0.061518677   -2.6601061     1.163403   313401 
 2410000    1.0075941   -2.6611498   -2.6611498   -1.4964226  0.061165321   -2.6611498    1.1647272   313401 
 2411000    1.0042136   -2.6578166   -2.6578166   -1.4969971  0.061059973   -2.6578166    1.1608195   313401 
 2412000    1.0063986   -2.6592314   -2.6592314   -1.4958862  0.061917691   -2.6592314    1.1633453   313401 
 2413000    1.0046508   -2.6584251   -2.6584251   -1.4971002  0.070007286   -2.6584251    1.1613249   313401 
 2414000    1.0032546   -2.6567422   -2.6567422   -1.4970313  0.067857371   -2.6567422    1.1597109   313401 
 2415000    1.0041419   -2.6581488   -2.6581488   -1.4974122  0.052422227   -2.6581488    1.1607366   313401 
 2416000    1.0036571   -2.6576704   -2.6576704   -1.4974942  0.068925752   -2.6576704    1.1601762   313401 
 2417000    1.0072198   -2.6604313   -2.6604313   -1.4961367  0.072421335   -2.6604313    1.1642945   313401 
 2418000    1.0056939   -2.6591924   -2.6591924   -1.4966617  0.066923548   -2.6591924    1.1625306   313401 
 2419000    1.0056641   -2.6596689   -2.6596689   -1.4971728  0.063863727   -2.6596689    1.1624961   313401 
 2420000    1.0053298   -2.6595379   -2.6595379   -1.4974281  0.064738488   -2.6595379    1.1621098   313401 
 2421000    1.0031505   -2.6562158   -2.6562158   -1.4966252  0.072008438   -2.6562158    1.1595906   313401 
 2422000    1.0060733   -2.6583331   -2.6583331    -1.495364   0.06937893   -2.6583331    1.1629691   313401 
 2423000     1.006797   -2.6604959   -2.6604959   -1.4966902  0.065575229   -2.6604959    1.1638057   313401 
 2424000    1.0046299   -2.6571691   -2.6571691   -1.4958685  0.060370134   -2.6571691    1.1613007   313401 
 2425000    1.0059524    -2.659825    -2.659825   -1.4969956  0.069916481    -2.659825    1.1628294   313401 
 2426000    1.0060012    -2.659259    -2.659259   -1.4963731  0.061003946    -2.659259    1.1628858   313401 
 2427000    1.0046263   -2.6588148   -2.6588148   -1.4975183   0.08114632   -2.6588148    1.1612965   313401 
 2428000    1.0053864   -2.6597226   -2.6597226   -1.4975475  0.071799668   -2.6597226    1.1621752   313401 
 2429000    1.0046136   -2.6594058   -2.6594058   -1.4981239   0.06946753   -2.6594058    1.1612818   313401 
 2430000    1.0051316   -2.6589306   -2.6589306     -1.49705   0.07778833   -2.6589306    1.1618806   313401 
 2431000    1.0034156   -2.6580869   -2.6580869   -1.4981899  0.058604791   -2.6580869     1.159897   313401 
 2432000    1.0057684   -2.6602679   -2.6602679   -1.4976511  0.059063687   -2.6602679    1.1626168   313401 
 2433000    1.0055156   -2.6592983   -2.6592983   -1.4969738  0.074111958   -2.6592983    1.1623245   313401 
 2434000    1.0042586    -2.657452    -2.657452   -1.4965805  0.075289138    -2.657452    1.1608714   313401 
 2435000    1.0057205   -2.6587544   -2.6587544    -1.496193  0.072997056   -2.6587544    1.1625614   313401 
 2436000    1.0050097   -2.6573648   -2.6573648   -1.4956251  0.068410592   -2.6573648    1.1617398   313401 
 2437000    1.0061233   -2.6591159   -2.6591159   -1.4960888  0.072250117   -2.6591159     1.163027   313401 
 2438000     1.004655   -2.6568418   -2.6568418   -1.4955122  0.078634439   -2.6568418    1.1613297   313401 
 2439000    1.0080747   -2.6597166   -2.6597166   -1.4944339  0.054276836   -2.6597166    1.1652827   313401 
 2440000    1.0083336   -2.6607022   -2.6607022   -1.4951202  0.062898968   -2.6607022     1.165582   313401 
 2441000    1.0058701   -2.6570442   -2.6570442   -1.4943098  0.061007172   -2.6570442    1.1627343   313401 
 2442000    1.0053425   -2.6582388   -2.6582388   -1.4961144  0.069845779   -2.6582388    1.1621244   313401 
 2443000    1.0035753   -2.6562759   -2.6562759   -1.4961942  0.066963412   -2.6562759    1.1600817   313401 
 2444000    1.0029203   -2.6549751   -2.6549751   -1.4956506  0.064368927   -2.6549751    1.1593245   313401 
 2445000     1.003947   -2.6560197   -2.6560197   -1.4955084  0.064756644   -2.6560197    1.1605113   313401 
 2446000    1.0037965   -2.6552635   -2.6552635   -1.4949261  0.068753238   -2.6552635    1.1603374   313401 
 2447000    1.0044586   -2.6567005   -2.6567005   -1.4955978  0.068473234   -2.6567005    1.1611027   313401 
 2448000     1.004161   -2.6565514   -2.6565514   -1.4957926    0.0680497   -2.6565514    1.1607587   313401 
 2449000    1.0041386   -2.6558768   -2.6558768    -1.495144  0.069113027   -2.6558768    1.1607328   313401 
 2450000    1.0055666   -2.6575521   -2.6575521   -1.4951686  0.071677375   -2.6575521    1.1623835   313401 
 2451000    1.0047685   -2.6566441   -2.6566441   -1.4951832  0.075077445   -2.6566441    1.1614609   313401 
 2452000    1.0041612   -2.6565289   -2.6565289     -1.49577   0.06702842   -2.6565289    1.1607589   313401 
 2453000     1.004511   -2.6572766   -2.6572766   -1.4961133  0.056962393   -2.6572766    1.1611632   313401 
 2454000    1.0047658   -2.6571936   -2.6571936   -1.4957358  0.051618518   -2.6571936    1.1614578   313401 
 2455000     1.003472   -2.6565389   -2.6565389   -1.4965767  0.069221969   -2.6565389    1.1599622   313401 
 2456000    1.0030434   -2.6558334   -2.6558334   -1.4963666  0.070766604   -2.6558334    1.1594668   313401 
 2457000    1.0026064   -2.6561608   -2.6561608   -1.4971992  0.066117466   -2.6561608    1.1589616   313401 
 2458000     1.003738   -2.6586262   -2.6586262   -1.4983565  0.063789522   -2.6586262    1.1602697   313401 
 2459000    1.0039374   -2.6582807   -2.6582807   -1.4977805  0.060898197   -2.6582807    1.1605003   313401 
 2460000    1.0040143   -2.6595161   -2.6595161    -1.498927  0.067706151   -2.6595161    1.1605891   313401 
 2461000    1.0027862   -2.6576974   -2.6576974   -1.4985279  0.075258373   -2.6576974    1.1591694   313401 
 2462000    1.0048735   -2.6606868   -2.6606868   -1.4991045  0.058124776   -2.6606868    1.1615823   313401 
 2463000    1.0056771    -2.660355    -2.660355   -1.4978438   0.06434946    -2.660355    1.1625112   313401 
 2464000     1.005355   -2.6601782   -2.6601782   -1.4980393  0.069800587   -2.6601782    1.1621389   313401 
 2465000    1.0043039   -2.6598131   -2.6598131   -1.4988892  0.068842448   -2.6598131    1.1609239   313401 
 2466000    1.0054887   -2.6611037   -2.6611037   -1.4988102   0.05711552   -2.6611037    1.1622935   313401 
 2467000    1.0062035   -2.6623282   -2.6623282   -1.4992085  0.063387614   -2.6623282    1.1631198   313401 
 2468000    1.0066269   -2.6612675   -2.6612675   -1.4976583  0.069994651   -2.6612675    1.1636091   313401 
 2469000    1.0060929   -2.6622469   -2.6622469    -1.499255  0.064693976   -2.6622469    1.1629919   313401 
 2470000    1.0065821     -2.66255     -2.66255   -1.4989927  0.062414389     -2.66255    1.1635573   313401 
 2471000     1.005786     -2.66199     -2.66199   -1.4993529  0.063606586     -2.66199    1.1626371   313401 
 2472000    1.0057052   -2.6595517   -2.6595517    -1.497008  0.071029226   -2.6595517    1.1625437   313401 
 2473000     1.005346   -2.6603423   -2.6603423   -1.4982138  0.074921278   -2.6603423    1.1621285   313401 
 2474000    1.0058449    -2.660624    -2.660624   -1.4979188   0.07529286    -2.660624    1.1627051   313401 
 2475000    1.0070297   -2.6636067   -2.6636067    -1.499532  0.081900149   -2.6636067    1.1640747   313401 
 2476000    1.0061239   -2.6629094   -2.6629094   -1.4998816  0.067979503   -2.6629094    1.1630277   313401 
 2477000    1.0041569   -2.6610285   -2.6610285   -1.5002746  0.068254829   -2.6610285    1.1607539   313401 
 2478000    1.0055038   -2.6640293   -2.6640293   -1.5017185  0.079522521   -2.6640293    1.1623108   313401 
 2479000    1.0041955   -2.6625397   -2.6625397   -1.5017411  0.069639421   -2.6625397    1.1607986   313401 
 2480000    1.0048417   -2.6617881   -2.6617881   -1.5002425  0.065949317   -2.6617881    1.1615456   313401 
 2481000    1.0053698   -2.6618086   -2.6618086   -1.4996526  0.062912158   -2.6618086     1.162156   313401 
 2482000    1.0037912   -2.6601894   -2.6601894   -1.4998581  0.066498972   -2.6601894    1.1603312   313401 
 2483000    1.0062559   -2.6617453   -2.6617453    -1.498565   0.05605343   -2.6617453    1.1631803   313401 
 2484000    1.0038494   -2.6589657   -2.6589657   -1.4985672  0.069952548   -2.6589657    1.1603984   313401 
 2485000    1.0046299   -2.6604169   -2.6604169   -1.4991161  0.066900926   -2.6604169    1.1613007   313401 
 2486000    1.0025902   -2.6579941   -2.6579941   -1.4990512  0.060020377   -2.6579941    1.1589429   313401 
 2487000    1.0059788   -2.6603995   -2.6603995   -1.4975396  0.065646802   -2.6603995    1.1628599   313401 
 2488000    1.0064133    -2.660785    -2.660785   -1.4974228  0.065796607    -2.660785    1.1633622   313401 
 2489000    1.0071597   -2.6612234   -2.6612234   -1.4969984  0.064259251   -2.6612234     1.164225   313401 
 2490000     1.006879   -2.6603478   -2.6603478   -1.4964472  0.065735902   -2.6603478    1.1639006   313401 
 2491000     1.006309   -2.6584546   -2.6584546    -1.495213  0.066575469   -2.6584546    1.1632416   313401 
 2492000    1.0062272   -2.6575239   -2.6575239   -1.4943768   0.06337768   -2.6575239    1.1631471   313401 
 2493000    1.0048634   -2.6565958   -2.6565958   -1.4950253  0.066551242   -2.6565958    1.1615706   313401 
 2494000    1.0043443    -2.656573    -2.656573   -1.4956024  0.071942961    -2.656573    1.1609706   313401 
 2495000    1.0039894   -2.6558839   -2.6558839   -1.4953236  0.075527235   -2.6558839    1.1605603   313401 
 2496000    1.0023067   -2.6545154   -2.6545154   -1.4959002  0.074051553   -2.6545154    1.1586152   313401 
 2497000    1.0027212   -2.6553931   -2.6553931   -1.4962987  0.059597129   -2.6553931    1.1590943   313401 
 2498000    1.0026442   -2.6557009   -2.6557009   -1.4966956  0.061299122   -2.6557009    1.1590053   313401 
 2499000    1.0025274   -2.6542392   -2.6542392    -1.495369  0.067913571   -2.6542392    1.1588703   313401 
 2500000    1.0069314    -2.659771    -2.659771   -1.4958099  0.059950989    -2.659771    1.1639611   313401 
 2501000    1.0059312   -2.6576254   -2.6576254   -1.4948204  0.063139943   -2.6576254     1.162805   313401 
 2502000    1.0042251   -2.6542419   -2.6542419   -1.4934092  0.062484691   -2.6542419    1.1608327   313401 
 2503000    1.0039446   -2.6547376   -2.6547376   -1.4942291   0.06491411   -2.6547376    1.1605085   313401 
 2504000    1.0041701   -2.6554884   -2.6554884   -1.4947193  0.076501727   -2.6554884    1.1607692   313401 
 2505000    1.0036273   -2.6560651   -2.6560651   -1.4959234  0.061885466   -2.6560651    1.1601417   313401 
 2506000    1.0058318   -2.6576296   -2.6576296   -1.4949396  0.063383153   -2.6576296      1.16269   313401 
 2507000    1.0043356    -2.655743    -2.655743   -1.4947826  0.068676921    -2.655743    1.1609605   313401 
 2508000    1.0059278   -2.6570175   -2.6570175   -1.4942165  0.071335741   -2.6570175     1.162801   313401 
 2509000    1.0053673   -2.6570751   -2.6570751    -1.494922  0.055172012   -2.6570751    1.1621531   313401 
 2510000    1.0053292   -2.6568846   -2.6568846   -1.4947756  0.069201752   -2.6568846     1.162109   313401 
 2511000    1.0048763   -2.6558311   -2.6558311   -1.4942456  0.060525112   -2.6558311    1.1615855   313401 
 2512000    1.0036235   -2.6553946   -2.6553946   -1.4952573  0.069297493   -2.6553946    1.1601373   313401 
 2513000    1.0046328   -2.6567266   -2.6567266   -1.4954226  0.076058746   -2.6567266     1.161304   313401 
 2514000    1.0044546    -2.655933    -2.655933    -1.494835  0.074638458    -2.655933    1.1610981   313401 
 2515000     1.006158   -2.6590536   -2.6590536   -1.4959865  0.072005019   -2.6590536    1.1630671   313401 
 2516000    1.0043505   -2.6570284   -2.6570284   -1.4960507  0.070706129   -2.6570284    1.1609778   313401 
 2517000    1.0047958   -2.6578594   -2.6578594   -1.4963669   0.05516774   -2.6578594    1.1614925   313401 
 2518000     1.004723   -2.6589407   -2.6589407   -1.4975325  0.067550956   -2.6589407    1.1614083   313401 
 2519000    1.0040715   -2.6574774   -2.6574774   -1.4968221  0.076318113   -2.6574774    1.1606553   313401 
 2520000    1.0035424   -2.6581667   -2.6581667   -1.4981231  0.063397322   -2.6581667    1.1600436   313401 
 2521000    1.0031545   -2.6579862   -2.6579862    -1.498391  0.066988252   -2.6579862    1.1595952   313401 
 2522000    1.0024478   -2.6572746   -2.6572746   -1.4984963  0.063257427   -2.6572746    1.1587783   313401 
 2523000    1.0024511   -2.6575503   -2.6575503   -1.4987682   0.07893422   -2.6575503    1.1587822   313401 
 2524000    1.0046251   -2.6593847   -2.6593847   -1.4980895  0.060904404   -2.6593847    1.1612952   313401 
 2525000    1.0067733   -2.6598011   -2.6598011   -1.4960228  0.064385172   -2.6598011    1.1637783   313401 
 2526000    1.0056365   -2.6602994   -2.6602994   -1.4978352  0.066868135   -2.6602994    1.1624642   313401 
 2527000    1.0057097    -2.660464    -2.660464    -1.497915  0.074231751    -2.660464    1.1625489   313401 
 2528000    1.0054323   -2.6600283   -2.6600283   -1.4978001   0.07411192   -2.6600283    1.1622282   313401 
 2529000    1.0062953   -2.6602744   -2.6602744   -1.4970486  0.084540022   -2.6602744    1.1632258   313401 
 2530000    1.0062879   -2.6610037   -2.6610037   -1.4977865  0.073525856   -2.6610037    1.1632172   313401 
 2531000    1.0052745    -2.662197    -2.662197   -1.5001512   0.07330894    -2.662197    1.1620458   313401 
 2532000    1.0047161   -2.6608902   -2.6608902   -1.4994899  0.066890443   -2.6608902    1.1614003   313401 
 2533000     1.006739   -2.6620498   -2.6620498   -1.4983111   0.06999261   -2.6620498    1.1637387   313401 
 2534000    1.0058416   -2.6611325   -2.6611325   -1.4984312   0.06950888   -2.6611325    1.1627013   313401 
 2535000    1.0032879   -2.6589229   -2.6589229   -1.4991734  0.070344258   -2.6589229    1.1597495   313401 
 2536000    1.0029255   -2.6583119   -2.6583119   -1.4989814  0.087759385   -2.6583119    1.1593305   313401 
 2537000    1.0035061   -2.6592795   -2.6592795   -1.4992779  0.059194452   -2.6592795    1.1600017   313401 
 2538000    1.0015945   -2.6582562   -2.6582562   -1.5004643  0.051688542   -2.6582562    1.1577919   313401 
 2539000    1.0024258   -2.6591099   -2.6591099   -1.5003571  0.057430164   -2.6591099    1.1587528   313401 
 2540000    1.0016755   -2.6578752   -2.6578752   -1.4999897  0.067665953   -2.6578752    1.1578855   313401 
 2541000    1.0038034    -2.660025    -2.660025   -1.4996797  0.055285289    -2.660025    1.1603453   313401 
 2542000     1.005527   -2.6607064   -2.6607064   -1.4983688  0.064490486   -2.6607064    1.1623377   313401 
 2543000    1.0054236   -2.6604569   -2.6604569   -1.4982387  0.057110731   -2.6604569    1.1622181   313401 
 2544000    1.0060042    -2.660614    -2.660614   -1.4977247  0.066817815    -2.660614    1.1628893   313401 
 2545000    1.0042253   -2.6593108   -2.6593108   -1.4984778  0.076191306   -2.6593108     1.160833   313401 
 2546000    1.0062811   -2.6600758   -2.6600758   -1.4968664  0.063135554   -2.6600758    1.1632094   313401 
 2547000     1.007076   -2.6608836   -2.6608836   -1.4967553  0.067000043   -2.6608836    1.1641283   313401 
 2548000    1.0037542    -2.657324    -2.657324   -1.4970356  0.057132525    -2.657324    1.1602884   313401 
 2549000    1.0057073   -2.6599335   -2.6599335   -1.4973874  0.064432545   -2.6599335    1.1625461   313401 
 2550000    1.0060466   -2.6607506   -2.6607506   -1.4978122  0.076833787   -2.6607506    1.1629384   313401 
 2551000    1.0050002   -2.6596985   -2.6596985   -1.4979697  0.068456247   -2.6596985    1.1617288   313401 
 2552000    1.0038406   -2.6591967   -2.6591967   -1.4988084  0.058755044   -2.6591967    1.1603883   313401 
 2553000    1.0050171   -2.6591329   -2.6591329   -1.4973846   0.06250058   -2.6591329    1.1617483   313401 
 2554000    1.0052066   -2.6600763   -2.6600763    -1.498109  0.057743164   -2.6600763    1.1619673   313401 
 2555000    1.0054577   -2.6593528   -2.6593528   -1.4970952  0.070769785   -2.6593528    1.1622576   313401 
 2556000    1.0056053   -2.6583593   -2.6583593   -1.4959311  0.069165868   -2.6583593    1.1624282   313401 
 2557000    1.0055726   -2.6590571   -2.6590571   -1.4966667  0.064296714   -2.6590571    1.1623904   313401 
 2558000    1.0052772    -2.658502    -2.658502   -1.4964531  0.074339629    -2.658502    1.1620489   313401 
 2559000    1.0057859   -2.6593965   -2.6593965   -1.4967596  0.065151097   -2.6593965    1.1626369   313401 
 2560000    1.0035143   -2.6570636   -2.6570636   -1.4970525  0.073551818   -2.6570636    1.1600111   313401 
 2561000    1.0048555   -2.6586298   -2.6586298   -1.4970684  0.064717968   -2.6586298    1.1615615   313401 
 2562000     1.005255   -2.6592784   -2.6592784   -1.4972551  0.068649746   -2.6592784    1.1620233   313401 
 2563000    1.0068598   -2.6603073   -2.6603073    -1.496429  0.055827167   -2.6603073    1.1638783   313401 
 2564000    1.0066838   -2.6588201   -2.6588201   -1.4951452  0.059155771   -2.6588201    1.1636749   313401 
 2565000    1.0044571   -2.6580661   -2.6580661   -1.4969652  0.054399778   -2.6580661     1.161101   313401 
 2566000    1.0052715    -2.658367    -2.658367   -1.4963246  0.069683416    -2.658367    1.1620424   313401 
 2567000     1.005714   -2.6583885   -2.6583885   -1.4958346  0.066447379   -2.6583885    1.1625539   313401 
 2568000    1.0049948   -2.6583223   -2.6583223   -1.4965998  0.075157303   -2.6583223    1.1617225   313401 
 2569000    1.0036947   -2.6578294   -2.6578294   -1.4976097  0.070299417   -2.6578294    1.1602197   313401 
 2570000    1.0038076    -2.658028    -2.658028   -1.4976778  0.063284032    -2.658028    1.1603502   313401 
 2571000    1.0056063   -2.6589293   -2.6589293   -1.4964999  0.067583231   -2.6589293    1.1624294   313401 
 2572000    1.0054963    -2.658095    -2.658095   -1.4957927  0.071760247    -2.658095    1.1623022   313401 
 2573000    1.0047145   -2.6573955   -2.6573955    -1.495997  0.063281042   -2.6573955    1.1613985   313401 
 2574000    1.0033515   -2.6559932   -2.6559932   -1.4961703  0.080164135   -2.6559932    1.1598229   313401 
 2575000    1.0029774   -2.6544281   -2.6544281   -1.4950376  0.073457602   -2.6544281    1.1593905   313401 
 2576000    1.0068447   -2.6582919   -2.6582919    -1.494431  0.067411764   -2.6582919    1.1638609   313401 
 2577000    1.0067735   -2.6585275   -2.6585275   -1.4947489  0.063251659   -2.6585275    1.1637786   313401 
 2578000    1.0086798   -2.6604399   -2.6604399   -1.4944577  0.067883292   -2.6604399    1.1659821   313401 
 2579000    1.0067242   -2.6581659   -2.6581659   -1.4944444  0.066601312   -2.6581659    1.1637216   313401 
 2580000    1.0057211   -2.6572844   -2.6572844   -1.4947223   0.07084076   -2.6572844     1.162562   313401 
 2581000    1.0059401   -2.6579906   -2.6579906   -1.4951754  0.066655485   -2.6579906    1.1628152   313401 
 2582000    1.0064341   -2.6598203   -2.6598203    -1.496434  0.069355101   -2.6598203    1.1633863   313401 
 2583000    1.0074113     -2.66051     -2.66051   -1.4959942  0.079652108     -2.66051    1.1645158   313401 
 2584000    1.0065028   -2.6588097   -2.6588097    -1.495344  0.062120692   -2.6588097    1.1634657   313401 
 2585000    1.0048798   -2.6576475   -2.6576475   -1.4960579  0.067011708   -2.6576475    1.1615896   313401 
 2586000    1.0044981   -2.6575135   -2.6575135   -1.4963652  0.063719728   -2.6575135    1.1611483   313401 
 2587000    1.0070758   -2.6585722   -2.6585722   -1.4944442  0.059415875   -2.6585722     1.164128   313401 
 2588000    1.0055742   -2.6562994   -2.6562994   -1.4939071  0.061980266   -2.6562994    1.1623923   313401 
 2589000    1.0047431   -2.6562651   -2.6562651   -1.4948336  0.057088474   -2.6562651    1.1614315   313401 
 2590000    1.0046411   -2.6564133   -2.6564133   -1.4950997  0.057277396   -2.6564133    1.1613136   313401 
 2591000    1.0044305   -2.6561527   -2.6561527   -1.4950825  0.064643429   -2.6561527    1.1610702   313401 
 2592000     1.008005   -2.6602631   -2.6602631    -1.495061  0.071190848   -2.6602631    1.1652021   313401 
 2593000    1.0070014   -2.6575986   -2.6575986   -1.4935565  0.072328408   -2.6575986    1.1640421   313401 
 2594000    1.0074933   -2.6576173   -2.6576173   -1.4930067  0.073970561   -2.6576173    1.1646106   313401 
 2595000    1.0052447   -2.6553289   -2.6553289   -1.4933176  0.066311999   -2.6553289    1.1620113   313401 
 2596000    1.0057557   -2.6556148   -2.6556148   -1.4930128  0.068758267   -2.6556148     1.162602   313401 
 2597000    1.0066304   -2.6585249   -2.6585249   -1.4949118  0.065286608   -2.6585249    1.1636131   313401 
 2598000    1.0078365   -2.6583362   -2.6583362   -1.4933288  0.072325869   -2.6583362    1.1650074   313401 
 2599000    1.0045962   -2.6562368   -2.6562368    -1.494975  0.074226027   -2.6562368    1.1612617   313401 
 2600000    1.0045559   -2.6567908   -2.6567908   -1.4955757  0.068138051   -2.6567908    1.1612151   313401 
 2601000    1.0047291   -2.6571724   -2.6571724   -1.4957571  0.064762822   -2.6571724    1.1614153   313401 
 2602000    1.0044914   -2.6567191   -2.6567191   -1.4955785  0.056317159   -2.6567191    1.1611406   313401 
 2603000    1.0035554   -2.6559426   -2.6559426    -1.495884  0.068048506   -2.6559426    1.1600586   313401 
 2604000    1.0049232   -2.6584152   -2.6584152   -1.4967755  0.065803407   -2.6584152    1.1616397   313401 
 2605000    1.0019927   -2.6548272   -2.6548272   -1.4965749  0.064968738   -2.6548272    1.1582523   313401 
 2606000    1.0035991    -2.657846    -2.657846   -1.4977369  0.075468541    -2.657846    1.1601092   313401 
 2607000    1.0060441   -2.6608613   -2.6608613   -1.4979258  0.064612889   -2.6608613    1.1629355   313401 
 2608000    1.0046835   -2.6596495   -2.6596495   -1.4982868  0.072924982   -2.6596495    1.1613627   313401 
 2609000     1.005439   -2.6603066   -2.6603066   -1.4980706  0.070258793   -2.6603066     1.162236   313401 
 2610000    1.0050843   -2.6595513   -2.6595513   -1.4977253  0.083656447   -2.6595513     1.161826   313401 
 2611000    1.0053497   -2.6582395   -2.6582395   -1.4961068  0.065052277   -2.6582395    1.1621328   313401 
 2612000    1.0046213   -2.6588078   -2.6588078   -1.4975171  0.077231441   -2.6588078    1.1612907   313401 
 2613000    1.0058585   -2.6604675   -2.6604675   -1.4977467  0.070028823   -2.6604675    1.1627208   313401 
 2614000    1.0046387   -2.6591263   -2.6591263   -1.4978154  0.065058718   -2.6591263    1.1613108   313401 
 2615000    1.0059376   -2.6606126   -2.6606126   -1.4978003  0.068507712   -2.6606126    1.1628123   313401 
 2616000    1.0069151   -2.6604661   -2.6604661   -1.4965239  0.075731706   -2.6604661    1.1639423   313401 
 2617000    1.0085999   -2.6628718   -2.6628718   -1.4969819  0.072396209   -2.6628718    1.1658899   313401 
 2618000    1.0082777   -2.6625221   -2.6625221   -1.4970047  0.067817941   -2.6625221    1.1655173   313401 
 2619000    1.0061355   -2.6617138   -2.6617138   -1.4986727     0.059514   -2.6617138    1.1630411   313401 
 2620000    1.0081395   -2.6627085   -2.6627085   -1.4973509  0.075391732   -2.6627085    1.1653577   313401 
 2621000    1.0073078   -2.6605443   -2.6605443    -1.496148  0.067897429   -2.6605443    1.1643962   313401 
 2622000    1.0078459   -2.6625482   -2.6625482     -1.49753  0.076312973   -2.6625482    1.1650182   313401 
 2623000    1.0062425   -2.6603933   -2.6603933   -1.4972285  0.073779912   -2.6603933    1.1631648   313401 
 2624000    1.0077026   -2.6629334   -2.6629334   -1.4980808  0.068488396   -2.6629334    1.1648526   313401 
 2625000    1.0065249   -2.6618496   -2.6618496   -1.4983584  0.080593473   -2.6618496    1.1634912   313401 
 2626000     1.004697   -2.6602732   -2.6602732   -1.4988949  0.070829371   -2.6602732    1.1613783   313401 
 2627000    1.0047926   -2.6598193   -2.6598193   -1.4983305  0.066397541   -2.6598193    1.1614888   313401 
 2628000    1.0029972   -2.6572164   -2.6572164    -1.497803  0.072153572   -2.6572164    1.1594134   313401 
 2629000    1.0043089   -2.6592384   -2.6592384   -1.4983088  0.055512788   -2.6592384    1.1609296   313401 
 2630000     1.002808   -2.6579432   -2.6579432   -1.4987485  0.065604662   -2.6579432    1.1591947   313401 
 2631000    1.0021536   -2.6580821   -2.6580821   -1.4996438  0.061584352   -2.6580821    1.1584383   313401 
 2632000    1.0009223   -2.6561623   -2.6561623   -1.4991474  0.065791848   -2.6561623    1.1570149   313401 
 2633000    1.0038707     -2.65924     -2.65924   -1.4988169  0.069206833     -2.65924    1.1604231   313401 
 2634000     1.002671    -2.657241    -2.657241   -1.4982047   0.06944749    -2.657241    1.1590363   313401 
 2635000    1.0035464    -2.658336    -2.658336   -1.4982878  0.058742138    -2.658336    1.1600482   313401 
 2636000    1.0027294   -2.6575277   -2.6575277   -1.4984238  0.052217729   -2.6575277    1.1591039   313401 
 2637000    1.0010159     -2.65578     -2.65578   -1.4986569  0.062032313     -2.65578    1.1571231   313401 
 2638000    1.0043101   -2.6583387   -2.6583387   -1.4974077  0.057057996   -2.6583387     1.160931   313401 
 2639000    1.0033572   -2.6571552   -2.6571552   -1.4973257  0.063759165   -2.6571552    1.1598295   313401 
 2640000    1.0025524   -2.6567907   -2.6567907   -1.4978915  0.057458469   -2.6567907    1.1588992   313401 
 2641000    1.0037147    -2.657797    -2.657797   -1.4975543  0.062288903    -2.657797    1.1602427   313401 
 2642000    1.0047191   -2.6587889   -2.6587889    -1.497385  0.060006878   -2.6587889    1.1614039   313401 
 2643000    1.0035262   -2.6564204   -2.6564204   -1.4963955  0.073347872   -2.6564204    1.1600249   313401 
 2644000     1.006384   -2.6599572   -2.6599572   -1.4966288  0.058536044   -2.6599572    1.1633284   313401 
 2645000    1.0049866   -2.6579737   -2.6579737   -1.4962607  0.067891703   -2.6579737     1.161713   313401 
 2646000    1.0056908   -2.6586132   -2.6586132   -1.4960862  0.060565249   -2.6586132     1.162527   313401 
 2647000    1.0038782   -2.6571655   -2.6571655   -1.4967336  0.058190613   -2.6571655    1.1604318   313401 
 2648000    1.0038221   -2.6558514   -2.6558514   -1.4954844  0.076623072   -2.6558514    1.1603669   313401 
 2649000     1.006181    -2.658031    -2.658031   -1.4949373   0.06501131    -2.658031    1.1630937   313401 
 2650000    1.0045828   -2.6562032   -2.6562032   -1.4949569  0.072127228   -2.6562032    1.1612463   313401 
 2651000    1.0061004   -2.6594598   -2.6594598   -1.4964593  0.061923758   -2.6594598    1.1630005   313401 
 2652000    1.0032359   -2.6569831   -2.6569831   -1.4972938  0.084675904   -2.6569831    1.1596893   313401 
 2653000     1.003876   -2.6581996   -2.6581996   -1.4977703  0.070815696   -2.6581996    1.1604292   313401 
 2654000      1.00623   -2.6623182   -2.6623182   -1.4991679   0.06156421   -2.6623182    1.1631503   313401 
 2655000    1.0057817   -2.6605677   -2.6605677   -1.4979356  0.074940758   -2.6605677    1.1626322   313401 
 2656000    1.0043774   -2.6591761   -2.6591761   -1.4981673  0.080655758   -2.6591761    1.1610088   313401 
 2657000    1.0039829   -2.6596007   -2.6596007   -1.4990479  0.059931082   -2.6596007    1.1605528   313401 
 2658000    1.0056595   -2.6609126   -2.6609126   -1.4984217  0.070288181   -2.6609126    1.1624908   313401 
 2659000    1.0054942   -2.6600822   -2.6600822   -1.4977824  0.072937203   -2.6600822    1.1622998   313401 
 2660000    1.0029541   -2.6582054   -2.6582054   -1.4988419  0.060311659   -2.6582054    1.1593635   313401 
 2661000    1.0024129   -2.6584008   -2.6584008   -1.4996629  0.057724791   -2.6584008     1.158738   313401 
 2662000    1.0062251     -2.66199     -2.66199   -1.4988453  0.070225238     -2.66199    1.1631446   313401 
 2663000    1.0036184   -2.6590217   -2.6590217   -1.4988903  0.077156018   -2.6590217    1.1601314   313401 
 2664000    1.0064416   -2.6624968   -2.6624968   -1.4991019  0.059262931   -2.6624968    1.1633949   313401 
 2665000    1.0044874   -2.6597095   -2.6597095   -1.4985735  0.080495527   -2.6597095     1.161136   313401 
 2666000    1.0056174   -2.6608924   -2.6608924   -1.4984502  0.077444179   -2.6608924    1.1624422   313401 
 2667000    1.0060008   -2.6598418   -2.6598418   -1.4969564  0.051504547   -2.6598418    1.1628854   313401 
 2668000    1.0060218   -2.6604578   -2.6604578   -1.4975481  0.071819236   -2.6604578    1.1629097   313401 
 2669000    1.0057862   -2.6601126   -2.6601126   -1.4974753  0.060076831   -2.6601126    1.1626373   313401 
 2670000    1.0046477   -2.6581994   -2.6581994   -1.4968782  0.064319142   -2.6581994    1.1613212   313401 
 2671000    1.0019403   -2.6560434   -2.6560434   -1.4978517  0.071359194   -2.6560434    1.1581917   313401 
 2672000    1.0025648   -2.6568216   -2.6568216   -1.4979081  0.058765443   -2.6568216    1.1589136   313401 
 2673000    1.0024668   -2.6573774   -2.6573774   -1.4985772  0.075411154   -2.6573774    1.1588002   313401 
 2674000    1.0038264   -2.6573745   -2.6573745   -1.4970026  0.055139051   -2.6573745    1.1603719   313401 
 2675000    1.0038674    -2.657504    -2.657504   -1.4970846  0.053911101    -2.657504    1.1604193   313401 
 2676000    1.0040685   -2.6571919   -2.6571919   -1.4965401  0.069454606   -2.6571919    1.1606517   313401 
 2677000     1.003555   -2.6562959   -2.6562959   -1.4962377  0.080204238   -2.6562959    1.1600581   313401 
 2678000    1.0020793   -2.6550133   -2.6550133   -1.4966609  0.067878683   -2.6550133    1.1583524   313401 
 2679000     1.005391   -2.6586017   -2.6586017   -1.4964212  0.061827863   -2.6586017    1.1621805   313401 
 2680000    1.0033431   -2.6548534   -2.6548534   -1.4950402  0.066537631   -2.6548534    1.1598132   313401 
 2681000    1.0035013   -2.6560865   -2.6560865   -1.4960904   0.05841457   -2.6560865    1.1599961   313401 
 2682000    1.0030897   -2.6546646   -2.6546646   -1.4951444  0.058914947   -2.6546646    1.1595203   313401 
 2683000    1.0036445   -2.6542818   -2.6542818   -1.4941201  0.074932228   -2.6542818    1.1601617   313401 
 2684000    1.0028678   -2.6537564   -2.6537564   -1.4944925  0.062791725   -2.6537564    1.1592639   313401 
 2685000    1.0024241   -2.6537428   -2.6537428   -1.4949919  0.070711424   -2.6537428    1.1587509   313401 
 2686000    1.0034009    -2.654956    -2.654956    -1.495076  0.065089558    -2.654956      1.15988   313401 
 2687000    1.0029996   -2.6548969   -2.6548969   -1.4954808  0.067392837   -2.6548969    1.1594161   313401 
 2688000    1.0028276    -2.654096    -2.654096   -1.4948787  0.061061636    -2.654096    1.1592173   313401 
 2689000    1.0045898   -2.6554902   -2.6554902   -1.4942358  0.053882102   -2.6554902    1.1612543   313401 
 2690000    1.0034673   -2.6549221   -2.6549221   -1.4949653  0.071042863   -2.6549221    1.1599568   313401 
 2691000     1.003566   -2.6541818   -2.6541818   -1.4941109  0.065985869   -2.6541818    1.1600709   313401 
 2692000    1.0030547   -2.6537011   -2.6537011   -1.4942212  0.075314802   -2.6537011    1.1594798   313401 
 2693000    1.0036158   -2.6552511   -2.6552511   -1.4951226  0.075469106   -2.6552511    1.1601285   313401 
 2694000    1.0032457   -2.6553238   -2.6553238   -1.4956232  0.063542474   -2.6553238    1.1597007   313401 
 2695000    1.0039461   -2.6560561   -2.6560561   -1.4955458  0.060334132   -2.6560561    1.1605102   313401 
 2696000    1.0030174     -2.65661     -2.65661   -1.4971733  0.058652394     -2.65661    1.1594367   313401 
 2697000    1.0015136   -2.6553824   -2.6553824    -1.497684  0.059828587   -2.6553824    1.1576984   313401 
 2698000    1.0027183   -2.6567279   -2.6567279   -1.4976369  0.051467778   -2.6567279     1.159091   313401 
 2699000     1.003162   -2.6581884   -2.6581884   -1.4985846  0.074354871   -2.6581884    1.1596038   313401 
 2700000    1.0049687    -2.659349    -2.659349   -1.4976567  0.065492897    -2.659349    1.1616923   313401 
 2701000    1.0036063   -2.6562671   -2.6562671   -1.4961497  0.075138812   -2.6562671    1.1601174   313401 
 2702000    1.0049782   -2.6579933   -2.6579933     -1.49629   0.07524062   -2.6579933    1.1617033   313401 
 2703000    1.0054005   -2.6595908   -2.6595908   -1.4973993  0.066350717   -2.6595908    1.1621915   313401 
 2704000    1.0058867    -2.659692    -2.659692   -1.4969384  0.071654098    -2.659692    1.1627535   313401 
 2705000    1.0059656   -2.6600617   -2.6600617    -1.497217  0.071312424   -2.6600617    1.1628447   313401 
 2706000    1.0054176   -2.6591644   -2.6591644   -1.4969533  0.068069343   -2.6591644    1.1622112   313401 
 2707000    1.0060241   -2.6586453   -2.6586453    -1.495733  0.080825427   -2.6586453    1.1629123   313401 
 2708000    1.0074844   -2.6602679   -2.6602679   -1.4956675  0.066099891   -2.6602679    1.1646004   313401 
 2709000    1.0053673   -2.6586283   -2.6586283   -1.4964753  0.082348121   -2.6586283    1.1621531   313401 
 2710000    1.0047392   -2.6590396   -2.6590396   -1.4976125  0.074419604   -2.6590396     1.161427   313401 
 2711000     1.005873   -2.6600778   -2.6600778   -1.4973401  0.083853015   -2.6600778    1.1627377   313401 
 2712000    1.0045337    -2.658439    -2.658439   -1.4972494   0.06735877    -2.658439    1.1611895   313401 
 2713000    1.0033476   -2.6574517   -2.6574517   -1.4976333  0.071364201   -2.6574517    1.1598184   313401 
 2714000     1.004245   -2.6576733   -2.6576733   -1.4968175  0.064152822   -2.6576733    1.1608558   313401 
 2715000    1.0042742   -2.6574806   -2.6574806    -1.496591  0.065443673   -2.6574806    1.1608895   313401 
 2716000    1.0026316   -2.6552125   -2.6552125   -1.4962218  0.067713912   -2.6552125    1.1589907   313401 
 2717000    1.0043735   -2.6588267   -2.6588267   -1.4978223  0.070404373   -2.6588267    1.1610043   313401 
 2718000    1.0055825   -2.6601495   -2.6601495   -1.4977477  0.052627421   -2.6601495    1.1624018   313401 
 2719000    1.0030933   -2.6576922   -2.6576922   -1.4981678  0.063639019   -2.6576922    1.1595245   313401 
 2720000    1.0023027   -2.6566329   -2.6566329   -1.4980224  0.067262567   -2.6566329    1.1586105   313401 
 2721000    1.0042329   -2.6580773   -2.6580773   -1.4972354  0.058753264   -2.6580773    1.1608418   313401 
 2722000     1.003325    -2.657848    -2.657848   -1.4980558  0.056593969    -2.657848    1.1597923   313401 
 2723000    1.0046929   -2.6595131   -2.6595131   -1.4981396  0.056628706   -2.6595131    1.1613735   313401 
 2724000      1.00524   -2.6599167   -2.6599167   -1.4979108  0.058814052   -2.6599167    1.1620059   313401 
 2725000    1.0043071   -2.6584922   -2.6584922   -1.4975647  0.062443446   -2.6584922    1.1609275   313401 
 2726000    1.0033144   -2.6567686   -2.6567686   -1.4969886  0.060267614   -2.6567686    1.1597801   313401 
 2727000    1.0023663    -2.655039    -2.655039   -1.4963549  0.054645676    -2.655039    1.1586841   313401 
 2728000    1.0036192   -2.6564587   -2.6564587   -1.4963263  0.063676319   -2.6564587    1.1601324   313401 
 2729000    1.0047411   -2.6569226   -2.6569226   -1.4954934  0.065880119   -2.6569226    1.1614292   313401 
 2730000    1.0054148   -2.6569548   -2.6569548   -1.4947468  0.069430317   -2.6569548     1.162208   313401 
 2731000    1.0035681   -2.6559855   -2.6559855   -1.4959122  0.074672887   -2.6559855    1.1600733   313401 
 2732000    1.0049715   -2.6573949   -2.6573949   -1.4956993  0.065614368   -2.6573949    1.1616956   313401 
 2733000    1.0070477   -2.6597515   -2.6597515    -1.495656  0.064391321   -2.6597515    1.1640955   313401 
 2734000    1.0052638   -2.6582785   -2.6582785    -1.496245  0.066406064   -2.6582785    1.1620335   313401 
 2735000    1.0046807   -2.6575125   -2.6575125   -1.4961531  0.068347875   -2.6575125    1.1613594   313401 
 2736000    1.0047194   -2.6567369   -2.6567369   -1.4953328  0.080239555   -2.6567369    1.1614041   313401 
 2737000    1.0049302   -2.6580804   -2.6580804   -1.4964326  0.065146567   -2.6580804    1.1616478   313401 
 2738000    1.0058595   -2.6594798   -2.6594798   -1.4967578  0.066216829   -2.6594798     1.162722   313401 
 2739000    1.0049809   -2.6589915   -2.6589915    -1.497285  0.061365977   -2.6589915    1.1617065   313401 
 2740000    1.0037741   -2.6574272   -2.6574272   -1.4971157  0.068642669   -2.6574272    1.1603115   313401 
 2741000    1.0042054   -2.6575624   -2.6575624   -1.4967524  0.062870615   -2.6575624      1.16081   313401 
 2742000    1.0059165   -2.6593991   -2.6593991   -1.4966112   0.07660003   -2.6593991    1.1627879   313401 
 2743000    1.0058593   -2.6592917   -2.6592917   -1.4965699   0.07249495   -2.6592917    1.1627219   313401 
 2744000    1.0055457   -2.6591345   -2.6591345   -1.4967753  0.076300361   -2.6591345    1.1623593   313401 
 2745000    1.0058234   -2.6603624   -2.6603624   -1.4976821  0.055283011   -2.6603624    1.1626803   313401 
 2746000    1.0046382   -2.6577854   -2.6577854   -1.4964751  0.059132098   -2.6577854    1.1613103   313401 
 2747000    1.0073723   -2.6597333   -2.6597333   -1.4952625  0.055453839   -2.6597333    1.1644708   313401 
 2748000    1.0044956   -2.6568734   -2.6568734    -1.495728  0.067796411   -2.6568734    1.1611454   313401 
 2749000    1.0065695   -2.6579281   -2.6579281   -1.4943854  0.075638268   -2.6579281    1.1635428   313401 
 2750000    1.0048876   -2.6564958   -2.6564958   -1.4948972  0.061430832   -2.6564958    1.1615986   313401 
 2751000    1.0053859   -2.6570678   -2.6570678   -1.4948932  0.065552461   -2.6570678    1.1621746   313401 
 2752000    1.0055466    -2.657423    -2.657423   -1.4950627  0.067740785    -2.657423    1.1623603   313401 
 2753000    1.0024921   -2.6542069   -2.6542069   -1.4953774  0.066095713   -2.6542069    1.1588295   313401 
 2754000    1.0044172   -2.6564588   -2.6564588    -1.495404  0.072071527   -2.6564588    1.1610549   313401 
 2755000    1.0043487   -2.6585007   -2.6585007   -1.4975251  0.052764206   -2.6585007    1.1609756   313401 
 2756000    1.0035029   -2.6566734   -2.6566734   -1.4966754  0.065078521   -2.6566734    1.1599979   313401 
 2757000    1.0003968   -2.6527272   -2.6527272   -1.4963197  0.071480996   -2.6527272    1.1564075   313401 
 2758000    1.0032572   -2.6549641   -2.6549641   -1.4952502  0.064070806   -2.6549641     1.159714   313401 
 2759000    1.0003971   -2.6533107   -2.6533107   -1.4969029  0.066362672   -2.6533107    1.1564078   313401 
 2760000    1.0037476   -2.6565005   -2.6565005   -1.4962196  0.067779848   -2.6565005    1.1602808   313401 
 2761000    1.0041337    -2.657072    -2.657072   -1.4963449  0.066372441    -2.657072    1.1607271   313401 
 2762000    1.0036749   -2.6560599   -2.6560599   -1.4958631  0.069531006   -2.6560599    1.1601968   313401 
 2763000    1.0036693   -2.6573139   -2.6573139   -1.4971236  0.070643899   -2.6573139    1.1601903   313401 
 2764000    1.0025888   -2.6568421   -2.6568421   -1.4979008  0.064645134   -2.6568421    1.1589413   313401 
 2765000    1.0022055    -2.654902    -2.654902   -1.4964037  0.060794357    -2.654902    1.1584982   313401 
 2766000    1.0033872   -2.6551242   -2.6551242     -1.49526  0.052817848   -2.6551242    1.1598643   313401 
 2767000    1.0033789   -2.6550888   -2.6550888   -1.4952342  0.061279756   -2.6550888    1.1598546   313401 
 2768000    1.0043927   -2.6568217   -2.6568217   -1.4957952  0.072971065   -2.6568217    1.1610265   313401 
 2769000    1.0046976   -2.6575651   -2.6575651   -1.4961861  0.061488005   -2.6575651     1.161379   313401 
 2770000    1.0051857   -2.6581722   -2.6581722    -1.496229  0.059880097   -2.6581722    1.1619432   313401 
 2771000    1.0054159   -2.6581276   -2.6581276   -1.4959184  0.075771904   -2.6581276    1.1622092   313401 
 2772000    1.0054403   -2.6585057   -2.6585057   -1.4962682  0.059862114   -2.6585057    1.1622375   313401 
 2773000     1.004981   -2.6600717   -2.6600717   -1.4983652  0.072056589   -2.6600717    1.1617065   313401 
 2774000     1.004393   -2.6586491   -2.6586491   -1.4976222  0.062607829   -2.6586491    1.1610269   313401 
 2775000    1.0031033   -2.6565972   -2.6565972   -1.4970612  0.069359668   -2.6565972     1.159536   313401 
 2776000    1.0032926   -2.6580762   -2.6580762   -1.4983213  0.068242802   -2.6580762    1.1597549   313401 
 2777000    1.0025441   -2.6583109   -2.6583109   -1.4994214  0.067257208   -2.6583109    1.1588896   313401 
 2778000    1.0028847   -2.6595299   -2.6595299   -1.5002466  0.057559417   -2.6595299    1.1592833   313401 
 2779000    1.0049781   -2.6599632   -2.6599632   -1.4982599  0.066941566   -2.6599632    1.1617032   313401 
 2780000     1.003598   -2.6584919   -2.6584919    -1.498384  0.058726368   -2.6584919    1.1601078   313401 
 2781000    1.0046416   -2.6595667   -2.6595667   -1.4982525   0.06634048   -2.6595667    1.1613142   313401 
 2782000    1.0045519    -2.659953    -2.659953   -1.4987425  0.061640259    -2.659953    1.1612105   313401 
 2783000    1.0037501   -2.6586296   -2.6586296   -1.4983459  0.067782569   -2.6586296    1.1602837   313401 
 2784000    1.0066919   -2.6604119   -2.6604119   -1.4967276  0.074695606   -2.6604119    1.1636843   313401 
 2785000    1.0077428   -2.6623956   -2.6623956   -1.4974965  0.085356291   -2.6623956    1.1648991   313401 
 2786000     1.006895   -2.6606844   -2.6606844   -1.4967654  0.078469533   -2.6606844    1.1639191   313401 
 2787000    1.0066777   -2.6597237   -2.6597237   -1.4960558  0.074923507   -2.6597237    1.1636679   313401 
 2788000    1.0077068   -2.6605237   -2.6605237   -1.4956663  0.059499059   -2.6605237    1.1648574   313401 
 2789000    1.0066589   -2.6604468   -2.6604468   -1.4968007  0.066644075   -2.6604468    1.1636462   313401 
 2790000    1.0062069   -2.6601863   -2.6601863   -1.4970626  0.064943486   -2.6601863    1.1631237   313401 
 2791000     1.006091   -2.6596005   -2.6596005   -1.4966109  0.072379564   -2.6596005    1.1629896   313401 
 2792000    1.0061188   -2.6609515   -2.6609515   -1.4979297  0.076631903   -2.6609515    1.1630218   313401 
 2793000    1.0040661   -2.6585373   -2.6585373   -1.4978883  0.070030063   -2.6585373     1.160649   313401 
 2794000    1.0044479   -2.6589703   -2.6589703     -1.49788  0.067249272   -2.6589703    1.1610903   313401 
 2795000     1.003818   -2.6591569   -2.6591569   -1.4987947  0.063357617   -2.6591569    1.1603622   313401 
 2796000    1.0028333   -2.6589965   -2.6589965   -1.4997725  0.066889631   -2.6589965     1.159224   313401 
 2797000    1.0036848   -2.6584467   -2.6584467   -1.4982385  0.062878882   -2.6584467    1.1602082   313401 
 2798000    1.0050064   -2.6588828   -2.6588828   -1.4971469  0.074636322   -2.6588828     1.161736   313401 
 2799000    1.0044344   -2.6576587   -2.6576587    -1.496584  0.058317509   -2.6576587    1.1610747   313401 
 2800000    1.0051072   -2.6597135   -2.6597135    -1.497861   0.05378624   -2.6597135    1.1618524   313401 
 2801000    1.0062548   -2.6610132   -2.6610132   -1.4978342  0.054624185   -2.6610132     1.163179   313401 
 2802000    1.0051435   -2.6591656   -2.6591656   -1.4972713  0.059027734   -2.6591656    1.1618944   313401 
 2803000    1.0046046   -2.6579073   -2.6579073   -1.4966358  0.062715893   -2.6579073    1.1612715   313401 
 2804000    1.0046681   -2.6578425   -2.6578425   -1.4964976  0.052672075   -2.6578425    1.1613449   313401 
 2805000     1.004359   -2.6576023   -2.6576023   -1.4966147   0.08096952   -2.6576023    1.1609876   313401 
 2806000    1.0048191   -2.6582331   -2.6582331   -1.4967137  0.060923123   -2.6582331    1.1615194   313401 
 2807000    1.0048347   -2.6575179   -2.6575179   -1.4959805  0.075164551   -2.6575179    1.1615374   313401 
 2808000    1.0028372   -2.6553457   -2.6553457   -1.4961173  0.055124907   -2.6553457    1.1592284   313401 
 2809000    1.0043848   -2.6571318   -2.6571318   -1.4961145  0.069610081   -2.6571318    1.1610173   313401 
 2810000    1.0030977   -2.6573624   -2.6573624   -1.4978328   0.05803766   -2.6573624    1.1595296   313401 
 2811000    1.0016867   -2.6578082   -2.6578082   -1.4999097  0.056857592   -2.6578082    1.1578985   313401 
 2812000    1.0036324   -2.6585525   -2.6585525   -1.4984048  0.060419562   -2.6585525    1.1601477   313401 
 2813000    1.0020951   -2.6571853   -2.6571853   -1.4988147  0.049474312   -2.6571853    1.1583706   313401 
 2814000     1.003068   -2.6576984   -2.6576984   -1.4982032  0.062235206   -2.6576984    1.1594952   313401 
 2815000    1.0039884   -2.6596738   -2.6596738   -1.4991147  0.061894705   -2.6596738    1.1605591   313401 
 2816000    1.0049677   -2.6596665   -2.6596665   -1.4979754  0.075173822   -2.6596665    1.1616911   313401 
 2817000    1.0048433   -2.6605025   -2.6605025   -1.4989551   0.06894021   -2.6605025    1.1615474   313401 
 2818000    1.0053364   -2.6611217   -2.6611217   -1.4990044   0.07718149   -2.6611217    1.1621174   313401 
 2819000    1.0044301   -2.6602765   -2.6602765   -1.4992068  0.052630921   -2.6602765    1.1610698   313401 
 2820000    1.0057488   -2.6610667   -2.6610667   -1.4984726  0.068772232   -2.6610667    1.1625941   313401 
 2821000    1.0062173   -2.6621528   -2.6621528   -1.4990171  0.070917384   -2.6621528    1.1631357   313401 
 2822000    1.0063851   -2.6632829   -2.6632829   -1.4999533  0.059055329   -2.6632829    1.1633296   313401 
 2823000      1.00664   -2.6617753   -2.6617753    -1.498151  0.062173466   -2.6617753    1.1636242   313401 
 2824000     1.007002   -2.6618402   -2.6618402   -1.4977976  0.071183615   -2.6618402    1.1640427   313401 
 2825000    1.0059704   -2.6614756   -2.6614756   -1.4986253    0.0616481   -2.6614756    1.1628502   313401 
 2826000    1.0065908   -2.6624158   -2.6624158   -1.4988484  0.061777393   -2.6624158    1.1635674   313401 
 2827000     1.004591   -2.6603943   -2.6603943   -1.4991386  0.060865968   -2.6603943    1.1612557   313401 
 2828000    1.0056586   -2.6612722   -2.6612722   -1.4987823  0.053648239   -2.6612722    1.1624899   313401 
 2829000    1.0047207    -2.660425    -2.660425   -1.4990193  0.075308561    -2.660425    1.1614057   313401 
 2830000    1.0060115   -2.6617533   -2.6617533   -1.4988556  0.063817604   -2.6617533    1.1628977   313401 
 2831000     1.007159   -2.6629428   -2.6629428   -1.4987186  0.065218352   -2.6629428    1.1642242   313401 
 2832000     1.003751   -2.6590443   -2.6590443   -1.4987595  0.068905237   -2.6590443    1.1602848   313401 
 2833000     1.003184   -2.6593972   -2.6593972   -1.4997679  0.054629333   -2.6593972    1.1596293   313401 
 2834000    1.0051752   -2.6609775   -2.6609775   -1.4990465  0.070268779   -2.6609775     1.161931   313401 
 2835000    1.0054619   -2.6608182   -2.6608182   -1.4985558  0.061246166   -2.6608182    1.1622624   313401 
 2836000    1.0051059   -2.6598535   -2.6598535   -1.4980025  0.058657326   -2.6598535    1.1618509   313401 
 2837000    1.0043061    -2.660009    -2.660009   -1.4990826  0.058682059    -2.660009    1.1609264   313401 
 2838000    1.0033561   -2.6604708   -2.6604708   -1.5006426  0.072040579   -2.6604708    1.1598282   313401 
 2839000    1.0038179   -2.6601405   -2.6601405   -1.4997784  0.063590605   -2.6601405    1.1603621   313401 
 2840000    1.0036719   -2.6598428   -2.6598428   -1.4996495  0.070492361   -2.6598428    1.1601933   313401 
 2841000    1.0037372   -2.6599945   -2.6599945   -1.4997257  0.066438978   -2.6599945    1.1602688   313401 
 2842000    1.0018297   -2.6578058   -2.6578058    -1.499742  0.071279178   -2.6578058    1.1580638   313401 
 2843000    1.0027128   -2.6585847   -2.6585847   -1.4995001  0.070143996   -2.6585847    1.1590846   313401 
 2844000    1.0033077    -2.659339    -2.659339   -1.4995667  0.066893964    -2.659339    1.1597723   313401 
 2845000    1.0051455   -2.6609187   -2.6609187    -1.499022  0.065230034   -2.6609187    1.1618967   313401 
 2846000    1.0056547    -2.660572    -2.660572   -1.4980866  0.071540401    -2.660572    1.1624853   313401 
 2847000    1.0030527     -2.65928     -2.65928   -1.4998025  0.069264773     -2.65928    1.1594775   313401 
 2848000    1.0025141   -2.6588467   -2.6588467   -1.4999918  0.053080613   -2.6588467    1.1588549   313401 
 2849000     1.002536   -2.6578463   -2.6578463    -1.498966  0.070224021   -2.6578463    1.1588803   313401 
 2850000    1.0051516   -2.6613713   -2.6613713   -1.4994675  0.053418713   -2.6613713    1.1619038   313401 
 2851000    1.0047856   -2.6599811   -2.6599811   -1.4985003  0.066305703   -2.6599811    1.1614807   313401 
 2852000    1.0049674   -2.6606196   -2.6606196   -1.4989289   0.06965726   -2.6606196    1.1616908   313401 
 2853000    1.0043846   -2.6605085   -2.6605085   -1.4994914  0.064591537   -2.6605085    1.1610171   313401 
 2854000    1.0031481   -2.6595558   -2.6595558    -1.499968  0.059030797   -2.6595558    1.1595878   313401 
 2855000    1.0008349   -2.6586976   -2.6586976   -1.5017838  0.075754626   -2.6586976    1.1569138   313401 
 2856000    1.0036675   -2.6604825   -2.6604825   -1.5002942  0.057304013   -2.6604825    1.1601883   313401 
 2857000     1.003177   -2.6615012   -2.6615012     -1.50188  0.071393714   -2.6615012    1.1596212   313401 
 2858000    1.0023668   -2.6613618   -2.6613618   -1.5026772   0.05466822   -2.6613618    1.1586847   313401 
 2859000    1.0021736   -2.6618528   -2.6618528   -1.5033914  0.064254586   -2.6618528    1.1584614   313401 
 2860000    1.0010543   -2.6601624   -2.6601624   -1.5029949  0.068427711   -2.6601624    1.1571675   313401 
 2861000    1.0065935   -2.6660246   -2.6660246   -1.5024541  0.070020758   -2.6660246    1.1635705   313401 
 2862000    1.0034086   -2.6629902   -2.6629902   -1.5031013  0.076037444   -2.6629902    1.1598889   313401 
 2863000    1.0058833   -2.6651955   -2.6651955    -1.502446   0.05246069   -2.6651955    1.1627495   313401 
 2864000    1.0033516   -2.6628496   -2.6628496   -1.5030266  0.064737654   -2.6628496     1.159823   313401 
 2865000    1.0027246   -2.6620402   -2.6620402   -1.5029419  0.066259815   -2.6620402    1.1590983   313401 
 2866000    1.0065951       -2.666       -2.666   -1.5024277   0.05716426       -2.666    1.1635723   313401 
 2867000    1.0044074   -2.6635062   -2.6635062   -1.5024628  0.064340296   -2.6635062    1.1610434   313401 
 2868000    1.0051932   -2.6633089   -2.6633089   -1.5013571  0.071894074   -2.6633089    1.1619518   313401 
 2869000    1.0053975    -2.663626    -2.663626   -1.5014379  0.060433496    -2.663626    1.1621881   313401 
 2870000    1.0069153   -2.6649593   -2.6649593   -1.5010168  0.068414311   -2.6649593    1.1639425   313401 
 2871000    1.0060794   -2.6630043   -2.6630043   -1.5000281   0.07149714   -2.6630043    1.1629762   313401 
 2872000    1.0052647   -2.6632756   -2.6632756   -1.5012411  0.063581437   -2.6632756    1.1620345   313401 
 2873000    1.0038848    -2.663504    -2.663504   -1.5030646  0.070132693    -2.663504    1.1604394   313401 
 2874000    1.0028358    -2.661025    -2.661025   -1.5017982  0.076940658    -2.661025    1.1592268   313401 
 2875000    1.0043674   -2.6620407   -2.6620407   -1.5010434  0.064750098   -2.6620407    1.1609973   313401 
 2876000    1.0051999   -2.6626973   -2.6626973   -1.5007378  0.071619296   -2.6626973    1.1619595   313401 
 2877000    1.0045571   -2.6612114   -2.6612114   -1.4999948  0.060357633   -2.6612114    1.1612166   313401 
 2878000    1.0033668   -2.6598827   -2.6598827   -1.5000421  0.053524685   -2.6598827    1.1598407   313401 
 2879000    1.0037757   -2.6595121   -2.6595121   -1.4991988  0.065703613   -2.6595121    1.1603133   313401 
 2880000    1.0042563   -2.6592559   -2.6592559   -1.4983871  0.066599063   -2.6592559    1.1608688   313401 
 2881000    1.0034927   -2.6577789   -2.6577789   -1.4977928  0.079484557   -2.6577789    1.1599862   313401 
 2882000    1.0043924   -2.6597909   -2.6597909   -1.4987648   0.06842816   -2.6597909    1.1610262   313401 
 2883000    1.0046909   -2.6596059   -2.6596059   -1.4982347  0.058990393   -2.6596059    1.1613712   313401 
 2884000    1.0057191    -2.660941    -2.660941   -1.4983812  0.060070656    -2.660941    1.1625598   313401 
 2885000    1.0027451   -2.6571982   -2.6571982   -1.4980763  0.064020922   -2.6571982     1.159122   313401 
 2886000    1.0034855   -2.6578228   -2.6578228    -1.497845  0.065510472   -2.6578228    1.1599778   313401 
 2887000    1.0046459   -2.6586045   -2.6586045   -1.4972854  0.071383869   -2.6586045    1.1613192   313401 
 2888000    1.0041589   -2.6582848   -2.6582848   -1.4975286   0.05604699   -2.6582848    1.1607562   313401 
 2889000    1.0045815   -2.6574941   -2.6574941   -1.4962493  0.060603349   -2.6574941    1.1612448   313401 
 2890000    1.0029291   -2.6573995   -2.6573995   -1.4980648  0.061439349   -2.6573995    1.1593346   313401 
 2891000    1.0041591   -2.6583798   -2.6583798   -1.4976233  0.060831028   -2.6583798    1.1607565   313401 
 2892000    1.0040128    -2.656113    -2.656113   -1.4955256   0.07017869    -2.656113    1.1605874   313401 
 2893000    1.0026992   -2.6554487   -2.6554487   -1.4963798  0.063680648   -2.6554487    1.1590689   313401 
 2894000    1.0021297   -2.6562659   -2.6562659   -1.4978553  0.064129857   -2.6562659    1.1584106   313401 
 2895000    1.0037451   -2.6570403   -2.6570403   -1.4967624  0.054671052   -2.6570403    1.1602779   313401 
 2896000    1.0024224   -2.6561319   -2.6561319    -1.497383  0.060853363   -2.6561319    1.1587489   313401 
 2897000    1.0030129   -2.6574096   -2.6574096   -1.4979781  0.073104768   -2.6574096    1.1594316   313401 
 2898000    1.0036774   -2.6583397   -2.6583397     -1.49814  0.066194572   -2.6583397    1.1601997   313401 
 2899000    1.0035302   -2.6578027   -2.6578027   -1.4977732  0.071502707   -2.6578027    1.1600296   313401 
 2900000    1.0042322   -2.6586123   -2.6586123   -1.4977713  0.064397204   -2.6586123     1.160841   313401 
 2901000    1.0060657   -2.6612738   -2.6612738   -1.4983134  0.056631372   -2.6612738    1.1629605   313401 
 2902000    1.0038047    -2.659419    -2.659419   -1.4990723  0.063605097    -2.659419    1.1603468   313401 
 2903000    1.0052024   -2.6602284   -2.6602284   -1.4982659  0.063710477   -2.6602284    1.1619625   313401 
 2904000    1.0058501   -2.6607503   -2.6607503   -1.4980391  0.073210529   -2.6607503    1.1627112   313401 
 2905000    1.0051322   -2.6605331   -2.6605331   -1.4986517  0.072596994   -2.6605331    1.1618814   313401 
 2906000    1.0060307   -2.6621508   -2.6621508   -1.4992308  0.076473019   -2.6621508      1.16292   313401 
 2907000    1.0057326    -2.662071    -2.662071   -1.4994956  0.073684594    -2.662071    1.1625754   313401 
 2908000    1.0048662    -2.660988    -2.660988   -1.4994142  0.063574792    -2.660988    1.1615738   313401 
 2909000      1.00478   -2.6623382   -2.6623382   -1.5008639   0.07138067   -2.6623382    1.1614743   313401 
 2910000    1.0028099   -2.6607939   -2.6607939   -1.5015971  0.077012561   -2.6607939    1.1591969   313401 
 2911000    1.0042428    -2.662414    -2.662414   -1.5015608  0.078903308    -2.662414    1.1608532   313401 
 2912000    1.0060145   -2.6644751   -2.6644751   -1.5015739  0.069789813   -2.6644751    1.1629012   313401 
 2913000    1.0069254   -2.6654248   -2.6654248   -1.5014706    0.0620616   -2.6654248    1.1639542   313401 
 2914000    1.0053585   -2.6632562   -2.6632562   -1.5011132  0.063566936   -2.6632562     1.162143   313401 
 2915000    1.0065729   -2.6637262   -2.6637262   -1.5001796  0.063012417   -2.6637262    1.1635466   313401 
 2916000    1.0037325   -2.6609897   -2.6609897   -1.5007263  0.072731623   -2.6609897    1.1602634   313401 
 2917000     1.006489   -2.6649953   -2.6649953   -1.5015455  0.059687241   -2.6649953    1.1634498   313401 
 2918000    1.0080369   -2.6659013   -2.6659013   -1.5006622  0.068313462   -2.6659013     1.165239   313401 
 2919000    1.0072709   -2.6631366   -2.6631366   -1.4987831  0.080547017   -2.6631366    1.1643535   313401 
 2920000    1.0064665   -2.6626453   -2.6626453   -1.4992216  0.069046104   -2.6626453    1.1634237   313401 
 2921000    1.0071965   -2.6623807   -2.6623807   -1.4981131  0.076140462   -2.6623807    1.1642676   313401 
 2922000    1.0062243   -2.6606347   -2.6606347    -1.497491  0.079238415   -2.6606347    1.1631437   313401 
 2923000    1.0062529   -2.6620188   -2.6620188    -1.498842  0.075689006   -2.6620188    1.1631768   313401 
 2924000    1.0074486   -2.6618261   -2.6618261   -1.4972672  0.075735409   -2.6618261    1.1645589   313401 
 2925000    1.0045049   -2.6603188   -2.6603188   -1.4991626  0.083938454   -2.6603188    1.1611562   313401 
 2926000    1.0049828   -2.6600312   -2.6600312   -1.4983225  0.067634242   -2.6600312    1.1617086   313401 
 2927000    1.0057474   -2.6606031   -2.6606031   -1.4980106  0.058448392   -2.6606031    1.1625925   313401 
 2928000    1.0063543   -2.6617204   -2.6617204   -1.4984265  0.068940649   -2.6617204     1.163294   313401 
 2929000    1.0018279   -2.6576754   -2.6576754   -1.4996138  0.065396281   -2.6576754    1.1580617   313401 
 2930000    1.0026938   -2.6575651   -2.6575651   -1.4985025  0.055689759   -2.6575651    1.1590626   313401 
 2931000    1.0041817   -2.6582964   -2.6582964   -1.4975138  0.066480073   -2.6582964    1.1607826   313401 
 2932000    1.0040256   -2.6586866   -2.6586866   -1.4980845   0.06357372   -2.6586866    1.1606021   313401 
 2933000    1.0042736   -2.6594942   -2.6594942   -1.4986054  0.059305521   -2.6594942    1.1608889   313401 
 2934000    1.0052764   -2.6590396   -2.6590396   -1.4969917  0.063146561   -2.6590396     1.162048   313401 
 2935000    1.0055579   -2.6611319   -2.6611319   -1.4987584  0.065197928   -2.6611319    1.1623735   313401 
 2936000    1.0049657   -2.6582743   -2.6582743   -1.4965854  0.076101817   -2.6582743    1.1616888   313401 
 2937000    1.0053927   -2.6594518   -2.6594518   -1.4972694  0.069992889   -2.6594518    1.1621824   313401 
 2938000     1.004589   -2.6573669   -2.6573669   -1.4961134  0.069559387   -2.6573669    1.1612535   313401 
 2939000     1.004372    -2.656438    -2.656438   -1.4954355  0.072841485    -2.656438    1.1610025   313401 
 2940000    1.0031628   -2.6556849   -2.6556849   -1.4960802  0.069806218   -2.6556849    1.1596047   313401 
 2941000    1.0040479   -2.6565654   -2.6565654   -1.4959374  0.070497468   -2.6565654    1.1606279   313401 
 2942000    1.0050537   -2.6557607   -2.6557607   -1.4939701  0.075558672   -2.6557607    1.1617906   313401 
 2943000    1.0056694   -2.6573382   -2.6573382   -1.4948358  0.066750164   -2.6573382    1.1625024   313401 
 2944000    1.0046266   -2.6571125   -2.6571125   -1.4958157  0.070727102   -2.6571125    1.1612968   313401 
 2945000    1.0055471   -2.6566516   -2.6566516   -1.4942906  0.068245964   -2.6566516     1.162361   313401 
 2946000    1.0060768   -2.6570375   -2.6570375   -1.4940642  0.059797662   -2.6570375    1.1629733   313401 
 2947000    1.0069006   -2.6580215   -2.6580215   -1.4940959  0.073639454   -2.6580215    1.1639256   313401 
 2948000    1.0071558   -2.6572541   -2.6572541   -1.4930336  0.064368048   -2.6572541    1.1642205   313401 
 2949000    1.0051055   -2.6566363   -2.6566363   -1.4947859  0.060909484   -2.6566363    1.1618504   313401 
 2950000    1.0065647   -2.6597205   -2.6597205   -1.4961832   0.06742817   -2.6597205    1.1635372   313401 
 2951000    1.0049513   -2.6567419   -2.6567419   -1.4950697  0.068534655   -2.6567419    1.1616722   313401 
 2952000    1.0048055   -2.6564926   -2.6564926   -1.4949889  0.055621307   -2.6564926    1.1615037   313401 
 2953000    1.0054775   -2.6574589   -2.6574589   -1.4951784  0.059369268   -2.6574589    1.1622805   313401 
 2954000     1.005875   -2.6578941   -2.6578941   -1.4951541  0.056926891   -2.6578941      1.16274   313401 
 2955000    1.0063079   -2.6595271   -2.6595271   -1.4962867  0.071614472   -2.6595271    1.1632404   313401 
 2956000    1.0034343    -2.656539    -2.656539   -1.4966203  0.069437717    -2.656539    1.1599187   313401 
 2957000    1.0051515   -2.6586269   -2.6586269   -1.4967233  0.065752545   -2.6586269    1.1619036   313401 
 2958000    1.0054003   -2.6569231   -2.6569231   -1.4947318  0.062550664   -2.6569231    1.1621912   313401 
 2959000    1.0060221   -2.6580145   -2.6580145   -1.4951044  0.075804006   -2.6580145    1.1629101   313401 
 2960000    1.0036769    -2.655958    -2.655958   -1.4957589  0.075125567    -2.655958    1.1601991   313401 
 2961000    1.0052988   -2.6572064   -2.6572064   -1.4951325  0.068684428   -2.6572064    1.1620739   313401 
 2962000    1.0059231   -2.6603494   -2.6603494   -1.4975538  0.063291085   -2.6603494    1.1627956   313401 
 2963000    1.0047184   -2.6579872   -2.6579872   -1.4965841  0.071065187   -2.6579872     1.161403   313401 
 2964000    1.0070225   -2.6608991   -2.6608991   -1.4968327  0.065488099   -2.6608991    1.1640664   313401 
 2965000    1.0041661   -2.6582334   -2.6582334   -1.4974689  0.067523381   -2.6582334    1.1607645   313401 
 2966000     1.002143   -2.6555405   -2.6555405   -1.4971145  0.069460366   -2.6555405     1.158426   313401 
 2967000    1.0033249   -2.6564712   -2.6564712    -1.496679  0.066045846   -2.6564712    1.1597922   313401 
 2968000    1.0027296   -2.6571442   -2.6571442   -1.4980402  0.065642674   -2.6571442     1.159104   313401 
 2969000    1.0019164   -2.6571579   -2.6571579   -1.4989939  0.067550023   -2.6571579     1.158164   313401 
 2970000     1.003301   -2.6581848   -2.6581848   -1.4984202  0.057059109   -2.6581848    1.1597645   313401 
 2971000    1.0043358   -2.6592437   -2.6592437    -1.498283  0.066983653   -2.6592437    1.1609607   313401 
 2972000    1.0058051   -2.6600508   -2.6600508   -1.4973917  0.055222339   -2.6600508    1.1626591   313401 
 2973000     1.005057   -2.6595328   -2.6595328   -1.4977384  0.058908349   -2.6595328    1.1617944   313401 
 2974000    1.0064744   -2.6600671   -2.6600671   -1.4966343  0.065354539   -2.6600671    1.1634328   313401 
 2975000    1.0064187   -2.6582566   -2.6582566   -1.4948882  0.063922534   -2.6582566    1.1633684   313401 
 2976000    1.0070464    -2.659612    -2.659612    -1.495518  0.077000319    -2.659612     1.164094   313401 
 2977000    1.0088042   -2.6610525   -2.6610525   -1.4949265  0.072342977   -2.6610525    1.1661259   313401 
 2978000    1.0071487   -2.6601519   -2.6601519   -1.4959396  0.071989087   -2.6601519    1.1642123   313401 
 2979000    1.0070795    -2.659655    -2.659655   -1.4955227  0.065963049    -2.659655    1.1641323   313401 
 2980000    1.0070528   -2.6604821   -2.6604821   -1.4963806   0.05985293   -2.6604821    1.1641014   313401 
 2981000    1.0068846   -2.6603509   -2.6603509   -1.4964438  0.073315391   -2.6603509     1.163907   313401 
 2982000    1.0062109   -2.6594686   -2.6594686   -1.4963404  0.067764844   -2.6594686    1.1631282   313401 
 2983000    1.0070907   -2.6607607   -2.6607607   -1.4966155  0.060638451   -2.6607607    1.1641453   313401 
 2984000    1.0060821   -2.6589818   -2.6589818   -1.4960023  0.070140033   -2.6589818    1.1629794   313401 
 2985000    1.0059817   -2.6597304   -2.6597304   -1.4968672  0.056959503   -2.6597304    1.1628633   313401 
 2986000    1.0051749   -2.6596141   -2.6596141   -1.4976834  0.067195261   -2.6596141    1.1619307   313401 
 2987000    1.0066693   -2.6611237   -2.6611237   -1.4974656  0.074705645   -2.6611237    1.1636581   313401 
 2988000    1.0051473   -2.6586155   -2.6586155   -1.4967167  0.064867103   -2.6586155    1.1618987   313401 
 2989000    1.0044843   -2.6586602   -2.6586602   -1.4975278  0.061663924   -2.6586602    1.1611323   313401 
 2990000     1.005552   -2.6593075   -2.6593075   -1.4969409  0.059043595   -2.6593075    1.1623666   313401 
 2991000    1.0064722   -2.6615052   -2.6615052   -1.4980749  0.070014369   -2.6615052    1.1634303   313401 
 2992000    1.0049409   -2.6598363   -2.6598363   -1.4981761  0.067265008   -2.6598363    1.1616602   313401 
 2993000    1.0050447    -2.660434    -2.660434   -1.4986538  0.066327877    -2.660434    1.1617801   313401 
 2994000    1.0063777   -2.6610312   -2.6610312   -1.4977101  0.063661861   -2.6610312    1.1633211   313401 
 2995000    1.0069934    -2.662291    -2.662291   -1.4982583  0.063464778    -2.662291    1.1640327   313401 
 2996000    1.0067682      -2.6605      -2.6605   -1.4967276  0.070140784      -2.6605    1.1637724   313401 
 2997000    1.0066434   -2.6605049   -2.6605049   -1.4968767  0.071074199   -2.6605049    1.1636281   313401 
 2998000    1.0046309   -2.6590227   -2.6590227   -1.4977208  0.059189771   -2.6590227    1.1613019   313401 
 2999000    1.0076639   -2.6612407   -2.6612407   -1.4964329  0.064431283   -2.6612407    1.1648078   313401 
 3000000    1.0058787   -2.6582034   -2.6582034   -1.4954591  0.063037557   -2.6582034    1.1627443   313401 
 3001000    1.0068456   -2.6593971   -2.6593971   -1.4955352  0.063440951   -2.6593971    1.1638619   313401 
 3002000    1.0054952   -2.6591835   -2.6591835   -1.4968826  0.070002246   -2.6591835    1.1623009   313401 
 3003000    1.0052583   -2.6594947   -2.6594947   -1.4974676  0.080151053   -2.6594947    1.1620271   313401 
 3004000    1.0047766   -2.6584771   -2.6584771   -1.4970069  0.082945226   -2.6584771    1.1614702   313401 
 3005000    1.0043705   -2.6584906   -2.6584906   -1.4974898  0.058546769   -2.6584906    1.1610008   313401 
 3006000     1.003617   -2.6567108   -2.6567108   -1.4965809  0.076921581   -2.6567108    1.1601299   313401 
 3007000    1.0033159   -2.6580059   -2.6580059   -1.4982242  0.066217286   -2.6580059    1.1597817   313401 
 3008000    1.0043629    -2.658843    -2.658843   -1.4978509  0.064941842    -2.658843    1.1609921   313401 
 3009000    1.0031564   -2.6562049   -2.6562049   -1.4966074  0.069448642   -2.6562049    1.1595975   313401 
 3010000    1.0060986   -2.6601038   -2.6601038   -1.4971054  0.057491412   -2.6601038    1.1629984   313401 
 3011000    1.0077549   -2.6609248   -2.6609248   -1.4960117  0.064359376   -2.6609248    1.1649131   313401 
 3012000    1.0084091   -2.6615247   -2.6615247   -1.4958554  0.058700476   -2.6615247    1.1656693   313401 
 3013000     1.006759   -2.6604713   -2.6604713   -1.4967094  0.063541105   -2.6604713    1.1637619   313401 
 3014000     1.004795   -2.6575297   -2.6575297   -1.4960381  0.066302312   -2.6575297    1.1614916   313401 
 3015000    1.0063669    -2.659488    -2.659488   -1.4961795  0.059284948    -2.659488    1.1633085   313401 
 3016000    1.0064711   -2.6587723   -2.6587723   -1.4953432   0.07300546   -2.6587723     1.163429   313401 
 3017000    1.0076359   -2.6607058   -2.6607058   -1.4959303  0.061305257   -2.6607058    1.1647754   313401 
 3018000    1.0050544   -2.6579436   -2.6579436   -1.4961522  0.078816101   -2.6579436    1.1617914   313401 
 3019000    1.0054363   -2.6576452   -2.6576452   -1.4954123  0.073648559   -2.6576452    1.1622329   313401 
 3020000    1.0044375   -2.6560783   -2.6560783       -1.495  0.080205153   -2.6560783    1.1610782   313401 
 3021000    1.0058664   -2.6583546   -2.6583546   -1.4956246  0.066247978   -2.6583546      1.16273   313401 
 3022000    1.0042564   -2.6582385   -2.6582385   -1.4973695  0.062930314   -2.6582385     1.160869   313401 
 3023000    1.0059823   -2.6583445   -2.6583445   -1.4954805  0.054616632   -2.6583445     1.162864   313401 
 3024000    1.0047654   -2.6563645   -2.6563645   -1.4949072  0.066987634   -2.6563645    1.1614573   313401 
 3025000    1.0048696   -2.6575731   -2.6575731   -1.4959953   0.05665996   -2.6575731    1.1615778   313401 
 3026000    1.0039256   -2.6565094   -2.6565094   -1.4960228  0.065494305   -2.6565094    1.1604866   313401 
 3027000     1.001819   -2.6535667   -2.6535667   -1.4955153   0.07080523   -2.6535667    1.1580514   313401 
 3028000    1.0029169    -2.654662    -2.654662   -1.4953414  0.066690003    -2.654662    1.1593205   313401 
 3029000    1.0070473   -2.6592781   -2.6592781    -1.495183  0.078756187   -2.6592781    1.1640951   313401 
 3030000    1.0040909   -2.6555915   -2.6555915   -1.4949139  0.072088519   -2.6555915    1.1606776   313401 
 3031000    1.0053547   -2.6566352   -2.6566352   -1.4944967  0.075519265   -2.6566352    1.1621385   313401 
 3032000    1.0057391   -2.6565838   -2.6565838    -1.494001  0.066729104   -2.6565838    1.1625829   313401 
 3033000    1.0068107   -2.6571051   -2.6571051   -1.4932834  0.071571493   -2.6571051    1.1638216   313401 
 3034000    1.0067928   -2.6566205   -2.6566205   -1.4928196  0.074999472   -2.6566205    1.1638009   313401 
 3035000    1.0061403   -2.6566739   -2.6566739   -1.4936272  0.060279299   -2.6566739    1.1630467   313401 
 3036000     1.006248   -2.6568789   -2.6568789   -1.4937077  0.065444666   -2.6568789    1.1631711   313401 
 3037000    1.0077583   -2.6589278   -2.6589278   -1.4940108   0.06233003   -2.6589278     1.164917   313401 
 3038000    1.0083662   -2.6586121   -2.6586121   -1.4929924  0.065145029   -2.6586121    1.1656197   313401 
 3039000    1.0090551   -2.6605917   -2.6605917   -1.4941756  0.073233581   -2.6605917     1.166416   313401 
 3040000    1.0076966   -2.6580631   -2.6580631   -1.4932174  0.075492844   -2.6580631    1.1648457   313401 
 3041000    1.0089153   -2.6604373   -2.6604373   -1.4941829  0.056352551   -2.6604373    1.1662544   313401 
 3042000    1.0071063   -2.6583697   -2.6583697   -1.4942064  0.067942083   -2.6583697    1.1641632   313401 
 3043000     1.008416   -2.6602222   -2.6602222    -1.494545  0.073836324   -2.6602222    1.1656773   313401 
 3044000    1.0068885   -2.6597903   -2.6597903   -1.4958788  0.065336387   -2.6597903    1.1639115   313401 
 3045000    1.0057009   -2.6580154   -2.6580154   -1.4954767  0.078323724   -2.6580154    1.1625387   313401 
 3046000    1.0050788   -2.6585923   -2.6585923   -1.4967727   0.06218182   -2.6585923    1.1618196   313401 
 3047000    1.0033057    -2.655796    -2.655796   -1.4960261   0.07020736    -2.655796    1.1597699   313401 
 3048000    1.0025339   -2.6549625   -2.6549625   -1.4960847  0.061513545   -2.6549625    1.1588778   313401 
 3049000    1.0044003   -2.6557936   -2.6557936   -1.4947584  0.064458665   -2.6557936    1.1610352   313401 
 3050000     1.004756   -2.6568604   -2.6568604   -1.4954139  0.064429034   -2.6568604    1.1614464   313401 
 3051000    1.0056939    -2.657698    -2.657698   -1.4951674  0.080248801    -2.657698    1.1625306   313401 
 3052000    1.0055364   -2.6562787   -2.6562787   -1.4939301  0.057933492   -2.6562787    1.1623486   313401 
 3053000    1.0074592   -2.6576613   -2.6576613     -1.49309  0.070939413   -2.6576613    1.1645713   313401 
 3054000     1.007241   -2.6571746   -2.6571746   -1.4928557  0.070699347   -2.6571746     1.164319   313401 
 3055000    1.0069725   -2.6570458   -2.6570458   -1.4930372  0.057195556   -2.6570458    1.1640087   313401 
 3056000      1.00636   -2.6563959   -2.6563959   -1.4930953  0.071322363   -2.6563959    1.1633006   313401 
 3057000    1.0097615   -2.6584462   -2.6584462   -1.4912137  0.072713633   -2.6584462    1.1672325   313401 
 3058000    1.0093029   -2.6560786   -2.6560786   -1.4893761  0.068044122   -2.6560786    1.1667025   313401 
 3059000    1.0084816   -2.6564378   -2.6564378   -1.4906848  0.058131986   -2.6564378     1.165753   313401 
 3060000    1.0058222   -2.6553302   -2.6553302   -1.4926512  0.061829372   -2.6553302     1.162679   313401 
 3061000    1.0061168   -2.6550056   -2.6550056   -1.4919862  0.059636683   -2.6550056    1.1630195   313401 
 3062000    1.0063724   -2.6563063   -2.6563063   -1.4929913   0.06335099   -2.6563063     1.163315   313401 
 3063000    1.0051077   -2.6549154   -2.6549154   -1.4930623  0.064026678   -2.6549154    1.1618531   313401 
 3064000    1.0046704   -2.6548937   -2.6548937   -1.4935461  0.058830182   -2.6548937    1.1613476   313401 
 3065000    1.0061421   -2.6553616   -2.6553616   -1.4923129  0.080380882   -2.6553616    1.1630488   313401 
 3066000    1.0047468   -2.6544704   -2.6544704   -1.4930346  0.061552181   -2.6544704    1.1614358   313401 
 3067000    1.0066193   -2.6582285   -2.6582285   -1.4946282  0.059532964   -2.6582285    1.1636004   313401 
 3068000    1.0047182   -2.6557839   -2.6557839   -1.4943812  0.052820295   -2.6557839    1.1614027   313401 
 3069000    1.0042529   -2.6556289   -2.6556289    -1.494764  0.070414795   -2.6556289    1.1608649   313401 
 3070000    1.0037581   -2.6550976   -2.6550976   -1.4948046  0.053937302   -2.6550976     1.160293   313401 
 3071000    1.0032308    -2.654582    -2.654582   -1.4948987  0.058336598    -2.654582    1.1596834   313401 
 3072000    1.0058134    -2.657125    -2.657125   -1.4944562  0.069644114    -2.657125    1.1626688   313401 
 3073000    1.0039905   -2.6552499   -2.6552499   -1.4946884  0.059665708   -2.6552499    1.1605615   313401 
 3074000    1.0051139   -2.6551506   -2.6551506   -1.4932904  0.061901785   -2.6551506    1.1618602   313401 
 3075000    1.0063122   -2.6567851   -2.6567851   -1.4935398  0.060748379   -2.6567851    1.1632453   313401 
 3076000    1.0067021   -2.6572066   -2.6572066   -1.4935106  0.062266053   -2.6572066     1.163696   313401 
 3077000    1.0064383   -2.6572328   -2.6572328   -1.4938417  0.061862403   -2.6572328    1.1633911   313401 
 3078000    1.0056391    -2.656931    -2.656931   -1.4944638   0.06008547    -2.656931    1.1624673   313401 
 3079000    1.0049095   -2.6570063   -2.6570063   -1.4953824  0.071993282   -2.6570063    1.1616239   313401 
 3080000    1.0072923   -2.6592983   -2.6592983   -1.4949201  0.058204321   -2.6592983    1.1643783   313401 
 3081000    1.0085584   -2.6607839   -2.6607839   -1.4949421  0.067757448   -2.6607839    1.1658418   313401 
 3082000    1.0065183   -2.6570893   -2.6570893   -1.4936057  0.065583106   -2.6570893    1.1634835   313401 
 3083000    1.0079551   -2.6588902   -2.6588902   -1.4937458  0.082452188   -2.6588902    1.1651444   313401 
 3084000    1.0080172   -2.6589775   -2.6589775   -1.4937613  0.073329505   -2.6589775    1.1652162   313401 
 3085000    1.0089014   -2.6605249   -2.6605249   -1.4942865   0.06529545   -2.6605249    1.1662383   313401 
 3086000    1.0067424   -2.6582558   -2.6582558   -1.4945132   0.07400888   -2.6582558    1.1637427   313401 
 3087000    1.0087125   -2.6605771   -2.6605771   -1.4945571  0.073870547   -2.6605771      1.16602   313401 
 3088000    1.0105516    -2.662069    -2.662069   -1.4939231  0.081941218    -2.662069    1.1681458   313401 
 3089000    1.0072527   -2.6581223   -2.6581223   -1.4937897  0.072408245   -2.6581223    1.1643325   313401 
 3090000     1.007577   -2.6578748   -2.6578748   -1.4931673  0.062659585   -2.6578748    1.1647074   313401 
 3091000    1.0059669    -2.656944    -2.656944   -1.4940978  0.069459778    -2.656944    1.1628462   313401 
 3092000    1.0073452   -2.6594128   -2.6594128   -1.4949733  0.066930848   -2.6594128    1.1644395   313401 
 3093000    1.0079341   -2.6602474   -2.6602474   -1.4951272  0.070004791   -2.6602474    1.1651202   313401 
 3094000    1.0054417   -2.6596694   -2.6596694   -1.4974304  0.072156715   -2.6596694    1.1622391   313401 
 3095000    1.0066295   -2.6605732   -2.6605732   -1.4969611  0.074153221   -2.6605732    1.1636121   313401 
 3096000    1.0033125   -2.6564109   -2.6564109    -1.496633  0.071741874   -2.6564109    1.1597779   313401 
 3097000    1.0049764    -2.659124    -2.659124   -1.4974227  0.074330179    -2.659124    1.1617013   313401 
 3098000    1.0062796   -2.6598085   -2.6598085   -1.4966008  0.071405251   -2.6598085    1.1632077   313401 
 3099000    1.0069681   -2.6599723   -2.6599723   -1.4959688  0.082330774   -2.6599723    1.1640035   313401 
 3100000    1.0038858   -2.6572894   -2.6572894   -1.4968488  0.068981119   -2.6572894    1.1604405   313401 
 3101000    1.0067651    -2.660225    -2.660225   -1.4964561  0.061974309    -2.660225    1.1637689   313401 
 3102000    1.0068693   -2.6614251   -2.6614251   -1.4975358  0.056479217   -2.6614251    1.1638894   313401 
 3103000    1.0065082   -2.6607559   -2.6607559    -1.497284  0.065451983   -2.6607559    1.1634719   313401 
 3104000    1.0053042   -2.6583802   -2.6583802      -1.4963   0.07739676   -2.6583802    1.1620802   313401 
 3105000    1.0062862   -2.6612075   -2.6612075   -1.4979921  0.061430696   -2.6612075    1.1632153   313401 
 3106000    1.0044143   -2.6588356   -2.6588356   -1.4977841   0.06994519   -2.6588356    1.1610515   313401 
 3107000      1.00758   -2.6606977   -2.6606977   -1.4959868  0.067204272   -2.6606977    1.1647108   313401 
 3108000    1.0066659   -2.6602754   -2.6602754   -1.4966212  0.069343495   -2.6602754    1.1636542   313401 
 3109000    1.0051965   -2.6586711   -2.6586711   -1.4967154  0.077970245   -2.6586711    1.1619557   313401 
 3110000    1.0056309   -2.6569409   -2.6569409    -1.494483  0.071159134   -2.6569409    1.1624578   313401 
 3111000    1.0077613   -2.6585274   -2.6585274   -1.4936069  0.068409585   -2.6585274    1.1649205   313401 
 3112000    1.0046659   -2.6561453   -2.6561453    -1.494803  0.067704102   -2.6561453    1.1613423   313401 
 3113000    1.0065686   -2.6579701   -2.6579701   -1.4944284  0.073016371   -2.6579701    1.1635417   313401 
 3114000    1.0061492    -2.656854    -2.656854    -1.493797  0.076915503    -2.656854     1.163057   313401 
 3115000    1.0066019   -2.6583957   -2.6583957   -1.4948155  0.069777473   -2.6583957    1.1635802   313401 
 3116000    1.0076078   -2.6584156   -2.6584156   -1.4936726  0.066205839   -2.6584156     1.164743   313401 
 3117000    1.0076818   -2.6585453   -2.6585453   -1.4937168  0.074712595   -2.6585453    1.1648286   313401 
 3118000    1.0042403   -2.6564713   -2.6564713   -1.4956209  0.068370323   -2.6564713    1.1608504   313401 
 3119000    1.0064572   -2.6604488   -2.6604488   -1.4970359  0.061277619   -2.6604488    1.1634129   313401 
 3120000    1.0048537   -2.6572962   -2.6572962   -1.4957368  0.064765452   -2.6572962    1.1615594   313401 
 3121000    1.0078541    -2.660559    -2.660559   -1.4955313  0.060411989    -2.660559    1.1650277   313401 
 3122000    1.0053775   -2.6583229   -2.6583229   -1.4961581  0.074203258   -2.6583229    1.1621649   313401 
 3123000    1.0055005   -2.6563919   -2.6563919   -1.4940848  0.070995762   -2.6563919    1.1623071   313401 
 3124000    1.0061898   -2.6579639   -2.6579639     -1.49486  0.070123745   -2.6579639    1.1631039   313401 
 3125000    1.0046223   -2.6572514   -2.6572514   -1.4959595  0.066488441   -2.6572514    1.1612919   313401 
 3126000    1.0045993   -2.6570175   -2.6570175   -1.4957521  0.057839326   -2.6570175    1.1612654   313401 
 3127000    1.0048574   -2.6579381   -2.6579381   -1.4963745  0.066442226   -2.6579381    1.1615636   313401 
 3128000     1.007175   -2.6615238   -2.6615238   -1.4972811  0.055495801   -2.6615238    1.1642427   313401 
 3129000    1.0053998   -2.6591282   -2.6591282   -1.4969375  0.067588472   -2.6591282    1.1621906   313401 
 3130000    1.0028574   -2.6563091   -2.6563091   -1.4970573  0.064229659   -2.6563091    1.1592518   313401 
 3131000     1.003272   -2.6581532   -2.6581532   -1.4984221  0.067148995   -2.6581532     1.159731   313401 
 3132000    1.0032508    -2.657766    -2.657766   -1.4980595  0.045599192    -2.657766    1.1597065   313401 
 3133000    1.0052282   -2.6607499   -2.6607499   -1.4987577  0.050757128   -2.6607499    1.1619923   313401 
 3134000    1.0052569   -2.6602227   -2.6602227   -1.4981972  0.051874384   -2.6602227    1.1620255   313401 
 3135000    1.0024588   -2.6574026   -2.6574026   -1.4986116  0.073221774   -2.6574026     1.158791   313401 
 3136000    1.0053309   -2.6615192   -2.6615192   -1.4994082  0.056748528   -2.6615192     1.162111   313401 
 3137000    1.0021682    -2.658439    -2.658439    -1.499984  0.069452202    -2.658439     1.158455   313401 
 3138000    1.0044123   -2.6614218   -2.6614218   -1.5003727  0.065976505   -2.6614218    1.1610491   313401 
 3139000    1.0042315   -2.6616636   -2.6616636   -1.5008234  0.067405919   -2.6616636    1.1608402   313401 
 3140000    1.0056253   -2.6626846   -2.6626846   -1.5002332  0.070251146   -2.6626846    1.1624514   313401 
 3141000    1.0054297   -2.6626294   -2.6626294   -1.5004042  0.059426562   -2.6626294    1.1622253   313401 
 3142000    1.0049313   -2.6613772   -2.6613772   -1.4997281  0.068270273   -2.6613772    1.1616491   313401 
 3143000    1.0068252   -2.6624037   -2.6624037   -1.4985653  0.070197169   -2.6624037    1.1638384   313401 
 3144000    1.0067611   -2.6631787   -2.6631787   -1.4994144  0.065499198   -2.6631787    1.1637643   313401 
 3145000    1.0080744   -2.6652745   -2.6652745   -1.4999922  0.073302778   -2.6652745    1.1652823   313401 
 3146000    1.0089013   -2.6654269   -2.6654269   -1.4991887  0.067466601   -2.6654269    1.1662382   313401 
 3147000    1.0073748   -2.6653495   -2.6653495   -1.5008758  0.072282874   -2.6653495    1.1644737   313401 
 3148000     1.007419   -2.6640908   -2.6640908   -1.4995661  0.064656302   -2.6640908    1.1645247   313401 
 3149000     1.006276   -2.6636302   -2.6636302   -1.5004267   0.06860406   -2.6636302    1.1632035   313401 
 3150000     1.005796   -2.6632035   -2.6632035   -1.5005548   0.08092634   -2.6632035    1.1626487   313401 
 3151000     1.007349   -2.6637103   -2.6637103   -1.4992664  0.070571479   -2.6637103    1.1644438   313401 
 3152000    1.0076516   -2.6637935   -2.6637935   -1.4989999  0.073994316   -2.6637935    1.1647936   313401 
 3153000    1.0064043   -2.6628971   -2.6628971   -1.4995454  0.069498819   -2.6628971    1.1633518   313401 
 3154000    1.0064349   -2.6630157   -2.6630157   -1.4996285  0.063518364   -2.6630157    1.1633872   313401 
 3155000    1.0076908   -2.6642995   -2.6642995   -1.4994605   0.07164007   -2.6642995     1.164839   313401 
 3156000     1.007228   -2.6631266   -2.6631266   -1.4988227   0.07716307   -2.6631266    1.1643039   313401 
 3157000    1.0048885   -2.6616226   -2.6616226   -1.5000229  0.067907436   -2.6616226    1.1615997   313401 
 3158000    1.0056977   -2.6624148   -2.6624148   -1.4998798  0.072617565   -2.6624148     1.162535   313401 
 3159000    1.0049714   -2.6607307   -2.6607307   -1.4990352  0.074088999   -2.6607307    1.1616955   313401 
 3160000    1.0045738   -2.6596263   -2.6596263   -1.4983904  0.068334454   -2.6596263    1.1612359   313401 
 3161000    1.0045101   -2.6593409   -2.6593409   -1.4981786  0.063894201   -2.6593409    1.1611623   313401 
 3162000    1.0036345   -2.6588267   -2.6588267   -1.4986766  0.060597573   -2.6588267    1.1601501   313401 
 3163000    1.0046489   -2.6598489   -2.6598489   -1.4985262   0.07393281   -2.6598489    1.1613226   313401 
 3164000    1.0062283   -2.6626195   -2.6626195   -1.4994712  0.060096641   -2.6626195    1.1631483   313401 
 3165000    1.0032507   -2.6583736   -2.6583736   -1.4986672  0.054968293   -2.6583736    1.1597064   313401 
 3166000    1.0055599   -2.6608722   -2.6608722   -1.4984965  0.052193675   -2.6608722    1.1623757   313401 
 3167000    1.0037693   -2.6572717   -2.6572717   -1.4969658  0.053097683   -2.6572717    1.1603058   313401 
 3168000    1.0047845   -2.6590768   -2.6590768   -1.4975974  0.052835319   -2.6590768    1.1614795   313401 
 3169000    1.0040497   -2.6582309   -2.6582309   -1.4976009  0.066482148   -2.6582309      1.16063   313401 
 3170000     1.001183   -2.6557385   -2.6557385   -1.4984222  0.069285174   -2.6557385    1.1573162   313401 
 3171000    1.0028434   -2.6570568   -2.6570568   -1.4978213  0.067158847   -2.6570568    1.1592355   313401 
 3172000    1.0028812   -2.6574269   -2.6574269   -1.4981477  0.062984957   -2.6574269    1.1592792   313401 
 3173000    1.0047392   -2.6590076   -2.6590076   -1.4975806   0.05947337   -2.6590076     1.161427   313401 
 3174000    1.0059086   -2.6589994   -2.6589994   -1.4962206  0.055874963   -2.6589994    1.1627788   313401 
 3175000    1.0061004   -2.6593891   -2.6593891   -1.4963885  0.050364859   -2.6593891    1.1630005   313401 
 3176000    1.0023232   -2.6554632   -2.6554632   -1.4968289   0.06855512   -2.6554632    1.1586343   313401 
 3177000    1.0026142   -2.6553663   -2.6553663   -1.4963956  0.074755476   -2.6553663    1.1589707   313401 
 3178000    1.0048672   -2.6572625   -2.6572625   -1.4956875  0.071086159   -2.6572625     1.161575   313401 
 3179000    1.0044563   -2.6586549   -2.6586549   -1.4975549  0.068907439   -2.6586549       1.1611   313401 
 3180000    1.0065587   -2.6595164   -2.6595164    -1.495986   0.06903681   -2.6595164    1.1635303   313401 
 3181000    1.0058936   -2.6570382   -2.6570382   -1.4942767  0.081298615   -2.6570382    1.1627615   313401 
 3182000    1.0080438   -2.6602859   -2.6602859   -1.4950389  0.054376889   -2.6602859     1.165247   313401 
 3183000    1.0067939   -2.6598603   -2.6598603   -1.4960581  0.052823182   -2.6598603    1.1638022   313401 
 3184000    1.0069506   -2.6595134   -2.6595134   -1.4955301   0.07022567   -2.6595134    1.1639833   313401 
 3185000    1.0077071   -2.6603481   -2.6603481   -1.4954903  0.064449035   -2.6603481    1.1648578   313401 
 3186000    1.0071339   -2.6605319   -2.6605319   -1.4963367  0.075596615   -2.6605319    1.1641952   313401 
 3187000    1.0063631   -2.6597369   -2.6597369   -1.4964327   0.06022602   -2.6597369    1.1633042   313401 
 3188000    1.0061294   -2.6592218   -2.6592218   -1.4961878  0.060770702   -2.6592218     1.163034   313401 
 3189000    1.0063474   -2.6601782   -2.6601782   -1.4968921  0.072295726   -2.6601782    1.1632861   313401 
 3190000    1.0089891   -2.6637147   -2.6637147   -1.4973749  0.064808898   -2.6637147    1.1663397   313401 
 3191000    1.0079057   -2.6613248   -2.6613248   -1.4962375  0.075741236   -2.6613248    1.1650873   313401 
 3192000    1.0076776    -2.660851    -2.660851   -1.4960273  0.074551495    -2.660851    1.1648237   313401 
 3193000    1.0062609   -2.6592395   -2.6592395   -1.4960534  0.058749184   -2.6592395    1.1631861   313401 
 3194000    1.0075522   -2.6606439   -2.6606439   -1.4959652  0.057876732   -2.6606439    1.1646788   313401 
 3195000    1.0072596   -2.6595244   -2.6595244   -1.4951839  0.070775438   -2.6595244    1.1643405   313401 
 3196000    1.0064447   -2.6599517   -2.6599517   -1.4965533  0.063383098   -2.6599517    1.1633985   313401 
 3197000       1.0048   -2.6580849   -2.6580849   -1.4965875  0.070345408   -2.6580849    1.1614974   313401 
 3198000    1.0052247   -2.6590626   -2.6590626   -1.4970743  0.069439771   -2.6590626    1.1619882   313401 
 3199000    1.0027411   -2.6559244   -2.6559244   -1.4968071  0.067793359   -2.6559244    1.1591173   313401 
 3200000    1.0037272   -2.6592234   -2.6592234   -1.4989662  0.049923671   -2.6592234    1.1602572   313401 
 3201000    1.0037869   -2.6587528   -2.6587528   -1.4984265  0.070102404   -2.6587528    1.1603263   313401 
 3202000    1.0059408   -2.6617485   -2.6617485   -1.4989324  0.057624497   -2.6617485     1.162816   313401 
 3203000    1.0039829    -2.659459    -2.659459   -1.4989062  0.069202574    -2.659459    1.1605528   313401 
 3204000    1.0031329   -2.6587756   -2.6587756   -1.4992054  0.064073723   -2.6587756    1.1595703   313401 
 3205000    1.0021272    -2.657006    -2.657006   -1.4985984  0.062944337    -2.657006    1.1584076   313401 
 3206000    1.0032165   -2.6582269   -2.6582269   -1.4985601  0.064608904   -2.6582269    1.1596668   313401 
 3207000    1.0044558   -2.6586253   -2.6586253   -1.4975259  0.067490413   -2.6586253    1.1610994   313401 
 3208000    1.0044948   -2.6588542   -2.6588542   -1.4977096   0.06024845   -2.6588542    1.1611446   313401 
 3209000    1.0039531   -2.6575575   -2.6575575   -1.4970392  0.065951967   -2.6575575    1.1605183   313401 
 3210000    1.0038712   -2.6583351   -2.6583351   -1.4979114  0.067728143   -2.6583351    1.1604237   313401 
 3211000    1.0038145     -2.65755     -2.65755   -1.4971919  0.073116532     -2.65755    1.1603581   313401 
 3212000    1.0040516   -2.6586917   -2.6586917   -1.4980594  0.059478033   -2.6586917    1.1606322   313401 
 3213000    1.0038648   -2.6575952   -2.6575952   -1.4971789  0.065587374   -2.6575952    1.1604163   313401 
 3214000    1.0046702   -2.6583971   -2.6583971   -1.4970497  0.076386038   -2.6583971    1.1613473   313401 
 3215000    1.0062399   -2.6598995   -2.6598995   -1.4967376  0.064026534   -2.6598995    1.1631618   313401 
 3216000    1.0033931   -2.6572013   -2.6572013   -1.4973303  0.067237647   -2.6572013     1.159871   313401 
 3217000    1.0053776    -2.658949    -2.658949    -1.496784   0.07720558    -2.658949    1.1621651   313401 
 3218000    1.0050827   -2.6582926   -2.6582926   -1.4964685  0.073443156   -2.6582926    1.1618241   313401 
 3219000    1.0056143    -2.659084    -2.659084   -1.4966454  0.054302254    -2.659084    1.1624386   313401 
 3220000    1.0043215   -2.6564555   -2.6564555   -1.4955113  0.070447782   -2.6564555    1.1609442   313401 
 3221000    1.0052717   -2.6580102   -2.6580102   -1.4959677  0.067458277   -2.6580102    1.1620425   313401 
 3222000    1.0052822   -2.6595046   -2.6595046   -1.4974499  0.074343479   -2.6595046    1.1620547   313401 
 3223000     1.006267   -2.6601916   -2.6601916   -1.4969984  0.054439566   -2.6601916    1.1631931   313401 
 3224000    1.0057558   -2.6603443   -2.6603443   -1.4977421  0.074027702   -2.6603443    1.1626022   313401 
 3225000    1.0027584   -2.6575673   -2.6575673     -1.49843   0.06524013   -2.6575673    1.1591373   313401 
 3226000    1.0060126   -2.6602963   -2.6602963   -1.4973973  0.051890989   -2.6602963     1.162899   313401 
 3227000    1.0051271    -2.660173    -2.660173   -1.4982976  0.050254087    -2.660173    1.1618754   313401 
 3228000    1.0034543   -2.6583925   -2.6583925   -1.4984507  0.076792971   -2.6583925    1.1599418   313401 
 3229000    1.0036861   -2.6599459   -2.6599459   -1.4997362  0.067885754   -2.6599459    1.1602097   313401 
 3230000    1.0025199   -2.6583563   -2.6583563   -1.4994946  0.061038931   -2.6583563    1.1588616   313401 
 3231000    1.0028644   -2.6600818   -2.6600818    -1.500822  0.069745365   -2.6600818    1.1592598   313401 
 3232000    1.0034407   -2.6609364   -2.6609364   -1.5010104  0.061094935   -2.6609364     1.159926   313401 
 3233000    1.0034584   -2.6621741   -2.6621741   -1.5022275  0.058498223   -2.6621741    1.1599465   313401 
 3234000    1.0026682    -2.661159    -2.661159   -1.5021259  0.074750852    -2.661159    1.1590331   313401 
 3235000     1.003891   -2.6621553   -2.6621553   -1.5017087  0.067215066   -2.6621553    1.1604466   313401 
 3236000     1.004127   -2.6602282   -2.6602282   -1.4995088  0.066865637   -2.6602282    1.1607194   313401 
 3237000     1.003577   -2.6623923   -2.6623923   -1.5023087  0.074050304   -2.6623923    1.1600836   313401 
 3238000    1.0039566   -2.6629965   -2.6629965   -1.5024741   0.06882867   -2.6629965    1.1605224   313401 
 3239000    1.0041221   -2.6627973   -2.6627973   -1.5020837  0.075901092   -2.6627973    1.1607137   313401 
 3240000    1.0038239   -2.6626667   -2.6626667   -1.5022977  0.069757583   -2.6626667     1.160369   313401 
 3241000    1.0034944   -2.6633291   -2.6633291   -1.5033409  0.070468325   -2.6633291    1.1599881   313401 
 3242000    1.0036107   -2.6611901   -2.6611901   -1.5010675  0.071854693   -2.6611901    1.1601226   313401 
 3243000     1.006152   -2.6633904   -2.6633904   -1.5003302  0.066767288   -2.6633904    1.1630602   313401 
 3244000    1.0063797    -2.664322    -2.664322   -1.5009986  0.062366736    -2.664322    1.1633234   313401 
 3245000    1.0059429   -2.6633266   -2.6633266   -1.5005082  0.069133721   -2.6633266    1.1628184   313401 
 3246000    1.0058104   -2.6633947   -2.6633947   -1.5007294  0.059827862   -2.6633947    1.1626653   313401 
 3247000    1.0041569   -2.6616862   -2.6616862   -1.5009323  0.071785964   -2.6616862     1.160754   313401 
 3248000    1.0068644   -2.6628152   -2.6628152   -1.4989315  0.078968574   -2.6628152    1.1638837   313401 
 3249000    1.0088274   -2.6650655   -2.6650655   -1.4989127  0.060351548   -2.6650655    1.1661528   313401 
 3250000    1.0063118   -2.6629769   -2.6629769   -1.4997321  0.067011902   -2.6629769    1.1632448   313401 
 3251000    1.0072631   -2.6628581   -2.6628581   -1.4985136  0.073407918   -2.6628581    1.1643445   313401 
 3252000    1.0078769   -2.6636983   -2.6636983   -1.4986442  0.071135657   -2.6636983    1.1650541   313401 
 3253000    1.0080319   -2.6633071   -2.6633071   -1.4980738  0.069527573   -2.6633071    1.1652333   313401 
 3254000    1.0054407   -2.6600573   -2.6600573   -1.4978193  0.062017251   -2.6600573     1.162238   313401 
 3255000    1.0064858   -2.6598359   -2.6598359   -1.4963899  0.079833365   -2.6598359     1.163446   313401 
 3256000    1.0074849   -2.6617666   -2.6617666   -1.4971657  0.072751497   -2.6617666    1.1646009   313401 
 3257000    1.0050994   -2.6586728   -2.6586728   -1.4968294  0.066800428   -2.6586728    1.1618434   313401 
 3258000    1.0036289   -2.6581264   -2.6581264   -1.4979828  0.063379008   -2.6581264    1.1601436   313401 
 3259000    1.0053401   -2.6597299   -2.6597299   -1.4976082  0.062600811   -2.6597299    1.1621216   313401 
 3260000    1.0039873    -2.656696    -2.656696   -1.4961381  0.069637959    -2.656696    1.1605579   313401 
 3261000    1.0046536   -2.6577685   -2.6577685   -1.4964404  0.068163315   -2.6577685    1.1613281   313401 
 3262000    1.0044667   -2.6578372   -2.6578372   -1.4967251   0.06460478   -2.6578372    1.1611121   313401 
 3263000    1.0026957   -2.6549764   -2.6549764   -1.4959116  0.075620265   -2.6549764    1.1590648   313401 
 3264000    1.0055474    -2.658546    -2.658546   -1.4961847  0.059127189    -2.658546    1.1623613   313401 
 3265000    1.0041422   -2.6568394   -2.6568394   -1.4961025  0.069069292   -2.6568394    1.1607369   313401 
 3266000    1.0050568   -2.6576888   -2.6576888   -1.4958946   0.05781624   -2.6576888    1.1617941   313401 
 3267000    1.0032767   -2.6547742   -2.6547742   -1.4950377  0.063641015   -2.6547742    1.1597365   313401 
 3268000    1.0022548   -2.6529586   -2.6529586   -1.4944035  0.060085531   -2.6529586    1.1585552   313401 
 3269000    1.0043281   -2.6567323   -2.6567323   -1.4957804  0.067476331   -2.6567323    1.1609519   313401 
 3270000     1.003348    -2.654787    -2.654787   -1.4949681  0.056137328    -2.654787    1.1598188   313401 
 3271000    1.0052941   -2.6548915   -2.6548915   -1.4928231  0.062168955   -2.6548915    1.1620684   313401 
 3272000    1.0034245    -2.653514    -2.653514   -1.4936067  0.059883119    -2.653514    1.1599073   313401 
 3273000    1.0045173   -2.6551371   -2.6551371   -1.4939665  0.062933453   -2.6551371    1.1611705   313401 
 3274000    1.0060605     -2.65562     -2.65562   -1.4926657  0.068717217     -2.65562    1.1629544   313401 
 3275000    1.0069496   -2.6569861   -2.6569861    -1.493004  0.063376748   -2.6569861    1.1639822   313401 
 3276000    1.0077027   -2.6572017   -2.6572017    -1.492349  0.060857136   -2.6572017    1.1648527   313401 
 3277000     1.006048   -2.6549148   -2.6549148   -1.4919749  0.065326972   -2.6549148    1.1629399   313401 
 3278000    1.0047675   -2.6538165   -2.6538165   -1.4923567  0.056385162   -2.6538165    1.1614597   313401 
 3279000    1.0058046   -2.6563243   -2.6563243   -1.4936658  0.077380656   -2.6563243    1.1626586   313401 
 3280000    1.0075471   -2.6578651   -2.6578651   -1.4931923  0.070123739   -2.6578651    1.1646728   313401 
 3281000    1.0055071   -2.6545621   -2.6545621   -1.4922474  0.064289851   -2.6545621    1.1623147   313401 
 3282000    1.0041395   -2.6540258   -2.6540258    -1.493292  0.078125328   -2.6540258    1.1607339   313401 
 3283000    1.0042921   -2.6540467   -2.6540467   -1.4931364  0.060293185   -2.6540467    1.1609103   313401 
 3284000    1.0055274    -2.657074    -2.657074   -1.4947359    0.0561961    -2.657074    1.1623382   313401 
 3285000     1.007003   -2.6593477   -2.6593477   -1.4953038  0.059670384   -2.6593477    1.1640439   313401 
 3286000    1.0026407   -2.6550804   -2.6550804   -1.4960791  0.066804816   -2.6550804    1.1590013   313401 
 3287000    1.0052019   -2.6579084   -2.6579084   -1.4959465  0.065927204   -2.6579084    1.1619619   313401 
 3288000    1.0050772   -2.6572333   -2.6572333   -1.4954156  0.054943318   -2.6572333    1.1618177   313401 
 3289000    1.0045863   -2.6570495   -2.6570495   -1.4957992  0.068404963   -2.6570495    1.1612502   313401 
 3290000    1.0049345   -2.6565892   -2.6565892   -1.4949364  0.068942677   -2.6565892    1.1616528   313401 
 3291000    1.0068054   -2.6595206   -2.6595206   -1.4957051  0.069559738   -2.6595206    1.1638155   313401 
 3292000    1.0064245   -2.6590506   -2.6590506   -1.4956754  0.058228324   -2.6590506    1.1633752   313401 
 3293000    1.0052528   -2.6580976   -2.6580976   -1.4960768  0.070968793   -2.6580976    1.1620208   313401 
 3294000    1.0066137   -2.6593045   -2.6593045   -1.4957106   0.07227016   -2.6593045    1.1635938   313401 
 3295000    1.0065417   -2.6594909   -2.6594909   -1.4959803  0.070289655   -2.6594909    1.1635107   313401 
 3296000    1.0060437   -2.6587385   -2.6587385   -1.4958035  0.066520345   -2.6587385     1.162935   313401 
 3297000     1.007419   -2.6598058   -2.6598058   -1.4952811  0.070151542   -2.6598058    1.1645248   313401 
 3298000    1.0077956   -2.6604712   -2.6604712   -1.4955112  0.070837407   -2.6604712      1.16496   313401 
 3299000     1.008423   -2.6606307   -2.6606307   -1.4949454  0.060075967   -2.6606307    1.1656853   313401 
 3300000    1.0083595   -2.6611925   -2.6611925   -1.4955807  0.070817197   -2.6611925    1.1656119   313401 
 3301000    1.0059837   -2.6585066   -2.6585066   -1.4956409  0.067235406   -2.6585066    1.1628657   313401 
 3302000    1.0078009   -2.6618038   -2.6618038   -1.4968376  0.064768158   -2.6618038    1.1649662   313401 
 3303000    1.0061808   -2.6602231   -2.6602231   -1.4971297  0.059576608   -2.6602231    1.1630934   313401 
 3304000    1.0060939   -2.6591465   -2.6591465   -1.4961534   0.07594871   -2.6591465    1.1629931   313401 
 3305000    1.0067353   -2.6608145   -2.6608145     -1.49708  0.069803237   -2.6608145    1.1637345   313401 
 3306000    1.0067805   -2.6600548   -2.6600548   -1.4962681  0.060173144   -2.6600548    1.1637867   313401 
 3307000    1.0055172   -2.6597956   -2.6597956   -1.4974692  0.067274834   -2.6597956    1.1623264   313401 
 3308000    1.0073861   -2.6609951   -2.6609951   -1.4965083  0.068956901   -2.6609951    1.1644868   313401 
 3309000    1.0094286   -2.6643689   -2.6643689   -1.4975212  0.057854542   -2.6643689    1.1668477   313401 
 3310000    1.0081171   -2.6622618   -2.6622618   -1.4969301  0.074934572   -2.6622618    1.1653317   313401 
 3311000    1.0058967   -2.6604325   -2.6604325   -1.4976674  0.073327603   -2.6604325    1.1627651   313401 
 3312000    1.0047956   -2.6593577   -2.6593577   -1.4978655  0.066786376   -2.6593577    1.1614922   313401 
 3313000    1.0063033   -2.6610189   -2.6610189   -1.4977838  0.066695274   -2.6610189    1.1632351   313401 
 3314000     1.006391    -2.660931    -2.660931   -1.4975945  0.068854545    -2.660931    1.1633364   313401 
 3315000    1.0064415   -2.6598849   -2.6598849   -1.4964902   0.07859377   -2.6598849    1.1633948   313401 
 3316000    1.0071081   -2.6606782   -2.6606782   -1.4965128  0.067232284   -2.6606782    1.1641654   313401 
 3317000    1.0067335   -2.6598523   -2.6598523   -1.4961199  0.065588078   -2.6598523    1.1637323   313401 
 3318000    1.0079287   -2.6614744   -2.6614744   -1.4963605  0.069150292   -2.6614744    1.1651139   313401 
 3319000    1.0063815   -2.6593706   -2.6593706   -1.4960451  0.077996058   -2.6593706    1.1633255   313401 
 3320000    1.0076965   -2.6605271   -2.6605271   -1.4956815  0.069773662   -2.6605271    1.1648456   313401 
 3321000    1.0050588   -2.6569616   -2.6569616   -1.4951651  0.076553789   -2.6569616    1.1617965   313401 
 3322000    1.0079316   -2.6593172   -2.6593172   -1.4941999  0.070779593   -2.6593172    1.1651173   313401 
 3323000    1.0051338   -2.6575698   -2.6575698   -1.4956866  0.065701087   -2.6575698    1.1618832   313401 
 3324000    1.0057865   -2.6583302   -2.6583302   -1.4956926  0.062553284   -2.6583302    1.1626377   313401 
 3325000    1.0044446   -2.6576389   -2.6576389   -1.4965524  0.065353442   -2.6576389    1.1610865   313401 
 3326000    1.0068284   -2.6600429   -2.6600429   -1.4962009  0.067366138   -2.6600429     1.163842   313401 
 3327000    1.0082796   -2.6611574   -2.6611574   -1.4956378   0.06219866   -2.6611574    1.1655196   313401 
 3328000    1.0055854   -2.6589213   -2.6589213   -1.4965161  0.060167945   -2.6589213    1.1624052   313401 
 3329000    1.0045506    -2.657434    -2.657434   -1.4962249  0.068538328    -2.657434     1.161209   313401 
 3330000    1.0052709   -2.6587823   -2.6587823   -1.4967407  0.068723276   -2.6587823    1.1620417   313401 
 3331000    1.0049427   -2.6573834   -2.6573834   -1.4957211  0.071623089   -2.6573834    1.1616623   313401 
 3332000    1.0021811   -2.6559563   -2.6559563   -1.4974863  0.064752727   -2.6559563      1.15847   313401 
 3333000    1.0048452    -2.657257    -2.657257   -1.4957074  0.072311586    -2.657257    1.1615496   313401 
 3334000     1.007005   -2.6592167   -2.6592167   -1.4951705  0.073747105   -2.6592167    1.1640462   313401 
 3335000    1.0063019   -2.6568626   -2.6568626   -1.4936291  0.079632524   -2.6568626    1.1632335   313401 
 3336000    1.0080691   -2.6574871   -2.6574871   -1.4922109  0.081328147   -2.6574871    1.1652762   313401 
 3337000    1.0077198   -2.6584709   -2.6584709   -1.4935985  0.068264001   -2.6584709    1.1648725   313401 
 3338000    1.0077896   -2.6587433   -2.6587433   -1.4937901  0.069946124   -2.6587433    1.1649532   313401 
 3339000      1.00678   -2.6585032   -2.6585032   -1.4947171  0.071994718   -2.6585032    1.1637861   313401 
 3340000    1.0047006   -2.6572681   -2.6572681   -1.4958857   0.06577234   -2.6572681    1.1613824   313401 
 3341000    1.0040597   -2.6558315   -2.6558315     -1.49519   0.07281617   -2.6558315    1.1606415   313401 
 3342000     1.006962   -2.6579799   -2.6579799   -1.4939834  0.067759736   -2.6579799    1.1639965   313401 
 3343000    1.0064588   -2.6572069   -2.6572069   -1.4937922  0.078128025   -2.6572069    1.1634148   313401 
 3344000    1.0068736    -2.657363    -2.657363   -1.4934687  0.060394843    -2.657363    1.1638943   313401 
 3345000    1.0069567    -2.657384    -2.657384   -1.4933936  0.064066991    -2.657384    1.1639904   313401 
 3346000    1.0053515   -2.6562862   -2.6562862   -1.4941515  0.066387876   -2.6562862    1.1621348   313401 
 3347000    1.0046104   -2.6552163   -2.6552163   -1.4939382  0.064538033   -2.6552163    1.1612781   313401 
 3348000    1.0026887   -2.6529012   -2.6529012   -1.4938444  0.077136859   -2.6529012    1.1590568   313401 
 3349000     1.003441   -2.6530757   -2.6530757   -1.4931493  0.063510845   -2.6530757    1.1599264   313401 
 3350000    1.0054645    -2.655768    -2.655768   -1.4935026  0.062336854    -2.655768    1.1622654   313401 
 3351000    1.0039535   -2.6547376   -2.6547376   -1.4942187  0.069416823   -2.6547376    1.1605188   313401 
 3352000    1.0045196   -2.6547697   -2.6547697   -1.4935965  0.060111574   -2.6547697    1.1611732   313401 
 3353000     1.006779   -2.6575487   -2.6575487   -1.4937637  0.064253682   -2.6575487     1.163785   313401 
 3354000    1.0028914   -2.6523341   -2.6523341    -1.493043  0.066171639   -2.6523341    1.1592911   313401 
 3355000     1.005456   -2.6551841   -2.6551841   -1.4929285  0.061281293   -2.6551841    1.1622556   313401 
 3356000    1.0070702   -2.6565514   -2.6565514   -1.4924299  0.062829597   -2.6565514    1.1641216   313401 
 3357000    1.0059529    -2.654891    -2.654891    -1.492061  0.067342389    -2.654891      1.16283   313401 
 3358000    1.0051653   -2.6534478   -2.6534478   -1.4915282  0.072980857   -2.6534478    1.1619195   313401 
 3359000    1.0057495   -2.6544145   -2.6544145   -1.4918196  0.063882828   -2.6544145    1.1625949   313401 
 3360000    1.0059507   -2.6549729   -2.6549729   -1.4921453  0.067271143   -2.6549729    1.1628275   313401 
 3361000    1.0047808    -2.654525    -2.654525   -1.4930499  0.069511626    -2.654525    1.1614751   313401 
 3362000     1.006929   -2.6566486   -2.6566486   -1.4926902  0.057986558   -2.6566486    1.1639584   313401 
 3363000    1.0050239   -2.6544059   -2.6544059   -1.4926497  0.069649403   -2.6544059    1.1617562   313401 
 3364000    1.0052989   -2.6545897   -2.6545897   -1.4925156  0.059205978   -2.6545897    1.1620741   313401 
 3365000    1.0077615   -2.6570028   -2.6570028   -1.4920821  0.059714053   -2.6570028    1.1649207   313401 
 3366000    1.0077181   -2.6581652   -2.6581652   -1.4932946  0.060005535   -2.6581652    1.1648705   313401 
 3367000    1.0065394    -2.656212    -2.656212    -1.492704  0.064947057    -2.656212     1.163508   313401 
 3368000    1.0072831    -2.657546    -2.657546   -1.4931783  0.068954687    -2.657546    1.1643677   313401 
 3369000    1.0072029   -2.6571423   -2.6571423   -1.4928674  0.075907845   -2.6571423    1.1642749   313401 
 3370000    1.0077286   -2.6574351   -2.6574351   -1.4925525  0.067867798   -2.6574351    1.1648826   313401 
 3371000    1.0077696   -2.6572211   -2.6572211    -1.492291  0.070535768   -2.6572211      1.16493   313401 
 3372000    1.0079965   -2.6570535   -2.6570535   -1.4918613  0.067308507   -2.6570535    1.1651923   313401 
 3373000    1.0065033   -2.6574603   -2.6574603   -1.4939941  0.064493386   -2.6574603    1.1634662   313401 
 3374000    1.0067246   -2.6554259   -2.6554259   -1.4917038  0.072542749   -2.6554259    1.1637221   313401 
 3375000    1.0087393   -2.6590368   -2.6590368   -1.4929859  0.068207257   -2.6590368    1.1660509   313401 
 3376000    1.0068531   -2.6571679   -2.6571679   -1.4932974  0.065072781   -2.6571679    1.1638706   313401 
 3377000    1.0085814   -2.6606398   -2.6606398   -1.4947714  0.068749676   -2.6606398    1.1658685   313401 
 3378000    1.0069994   -2.6594193   -2.6594193   -1.4953796  0.064616117   -2.6594193    1.1640397   313401 
 3379000    1.0073205   -2.6595486   -2.6595486   -1.4951377  0.080235158   -2.6595486    1.1644109   313401 
 3380000    1.0092939   -2.6608927   -2.6608927   -1.4942006  0.056011697   -2.6608927    1.1666921   313401 
 3381000    1.0063118   -2.6569705   -2.6569705   -1.4937256  0.073662525   -2.6569705    1.1632449   313401 
 3382000    1.0076894   -2.6583569   -2.6583569   -1.4935196   0.07534126   -2.6583569    1.1648373   313401 
 3383000    1.0070149   -2.6585208   -2.6585208   -1.4944631   0.06678227   -2.6585208    1.1640577   313401 
 3384000    1.0047439   -2.6570031   -2.6570031   -1.4955706  0.068093325   -2.6570031    1.1614325   313401 
 3385000    1.0055814   -2.6579805   -2.6579805     -1.49558  0.070656593   -2.6579805    1.1624006   313401 
 3386000     1.007082   -2.6581219   -2.6581219   -1.4939868  0.051943992   -2.6581219    1.1641352   313401 
 3387000    1.0071278   -2.6588454   -2.6588454   -1.4946573  0.074017483   -2.6588454    1.1641881   313401 
 3388000    1.0066855   -2.6585467   -2.6585467   -1.4948698  0.079018495   -2.6585467    1.1636768   313401 
 3389000    1.0083236    -2.659783    -2.659783   -1.4942126  0.072075629    -2.659783    1.1655704   313401 
 3390000    1.0078664   -2.6593395   -2.6593395   -1.4942976  0.065257196   -2.6593395     1.165042   313401 
 3391000    1.0072325   -2.6578823   -2.6578823   -1.4935732  0.064733396   -2.6578823    1.1643091   313401 
 3392000    1.0066037   -2.6568528   -2.6568528   -1.4932705   0.07706502   -2.6568528    1.1635823   313401 
 3393000    1.0054246   -2.6544947   -2.6544947   -1.4922753  0.093187467   -2.6544947    1.1622194   313401 
 3394000    1.0060557   -2.6561513   -2.6561513   -1.4932025  0.079494794   -2.6561513    1.1629488   313401 
 3395000    1.0086815   -2.6579426   -2.6579426   -1.4919584  0.072502097   -2.6579426    1.1659842   313401 
 3396000    1.0062229   -2.6565909   -2.6565909   -1.4934487   0.07097054   -2.6565909    1.1631422   313401 
 3397000    1.0063512   -2.6562712   -2.6562712   -1.4929808  0.057914892   -2.6562712    1.1632904   313401 
 3398000    1.0051539   -2.6559151   -2.6559151   -1.4940086  0.065194708   -2.6559151    1.1619064   313401 
 3399000      1.00644   -2.6565798   -2.6565798   -1.4931867  0.064726814   -2.6565798     1.163393   313401 
 3400000    1.0065794     -2.65622     -2.65622   -1.4926657  0.073165262     -2.65622    1.1635543   313401 
 3401000    1.0039921   -2.6540899   -2.6540899   -1.4935264  0.062698891   -2.6540899    1.1605635   313401 
 3402000    1.0039732    -2.655281    -2.655281   -1.4947394  0.058385791    -2.655281    1.1605416   313401 
 3403000    1.0031321   -2.6545398   -2.6545398   -1.4949704  0.072528821   -2.6545398    1.1595694   313401 
 3404000    1.0041974   -2.6545999   -2.6545999   -1.4937992  0.066064248   -2.6545999    1.1608007   313401 
 3405000    1.0045183   -2.6554666   -2.6554666   -1.4942949   0.06986058   -2.6554666    1.1611717   313401 
 3406000      1.00757     -2.65796     -2.65796   -1.4932607  0.062164487     -2.65796    1.1646993   313401 
 3407000    1.0063103   -2.6573026   -2.6573026   -1.4940595   0.07108523   -2.6573026    1.1632431   313401 
 3408000    1.0044804   -2.6560738   -2.6560738   -1.4949459  0.066182747   -2.6560738    1.1611279   313401 
 3409000    1.0049372   -2.6561244   -2.6561244   -1.4944684  0.069994437   -2.6561244    1.1616559   313401 
 3410000    1.0058973   -2.6572932   -2.6572932   -1.4945274  0.063496766   -2.6572932    1.1627658   313401 
 3411000    1.0053883   -2.6562674   -2.6562674   -1.4940901  0.057066509   -2.6562674    1.1621774   313401 
 3412000    1.0041039   -2.6545707   -2.6545707   -1.4938781  0.064606534   -2.6545707    1.1606927   313401 
 3413000    1.0025704   -2.6533867   -2.6533867   -1.4944667  0.059288271   -2.6533867      1.15892   313401 
 3414000     1.005879    -2.657114    -2.657114   -1.4943694  0.065429937    -2.657114    1.1627445   313401 
 3415000    1.0057948   -2.6578064   -2.6578064   -1.4951592  0.067731617   -2.6578064    1.1626472   313401 
 3416000    1.0060439   -2.6568212   -2.6568212    -1.493886  0.075472892   -2.6568212    1.1629352   313401 
 3417000    1.0065537   -2.6569889   -2.6569889   -1.4934644  0.072346383   -2.6569889    1.1635245   313401 
 3418000    1.0074153   -2.6588588   -2.6588588   -1.4943383  0.073064101   -2.6588588    1.1645205   313401 
 3419000    1.0071328   -2.6578709   -2.6578709   -1.4936769  0.068900658   -2.6578709     1.164194   313401 
 3420000    1.0076224   -2.6584543   -2.6584543   -1.4936945   0.06874593   -2.6584543    1.1647598   313401 
 3421000    1.0084397   -2.6587914   -2.6587914   -1.4930868  0.073640434   -2.6587914    1.1657046   313401 
 3422000     1.006727   -2.6583265   -2.6583265   -1.4946017  0.071367791   -2.6583265    1.1637248   313401 
 3423000    1.0083955   -2.6591229   -2.6591229   -1.4934694  0.071252376   -2.6591229    1.1656535   313401 
 3424000    1.0073638   -2.6585732   -2.6585732   -1.4941123   0.07651755   -2.6585732    1.1644609   313401 
 3425000    1.0083834   -2.6591932   -2.6591932   -1.4935537  0.073229665   -2.6591932    1.1656395   313401 
 3426000    1.0062288   -2.6567481   -2.6567481   -1.4935991  0.054032264   -2.6567481    1.1631489   313401 
 3427000    1.0052657   -2.6577036   -2.6577036   -1.4956679  0.065301064   -2.6577036    1.1620356   313401 
 3428000    1.0060743   -2.6577878   -2.6577878   -1.4948174  0.064091154   -2.6577878    1.1629704   313401 
 3429000    1.0075978   -2.6584812   -2.6584812   -1.4937497  0.073504136   -2.6584812    1.1647315   313401 
 3430000    1.0072746   -2.6574031   -2.6574031   -1.4930453  0.081069175   -2.6574031    1.1643578   313401 
 3431000    1.0053095   -2.6559535   -2.6559535   -1.4938671  0.068837622   -2.6559535    1.1620863   313401 
 3432000    1.0057984   -2.6562507   -2.6562507   -1.4935993   0.06084209   -2.6562507    1.1626514   313401 
 3433000    1.0062294   -2.6565424   -2.6565424   -1.4933927  0.062143683   -2.6565424    1.1631496   313401 
 3434000    1.0056155   -2.6553305   -2.6553305   -1.4928904  0.062401103   -2.6553305    1.1624401   313401 
 3435000    1.0072825   -2.6564494   -2.6564494   -1.4920823  0.068734161   -2.6564494     1.164367   313401 
 3436000    1.0052496   -2.6534322   -2.6534322   -1.4914152  0.065806599   -2.6534322     1.162017   313401 
 3437000    1.0056467   -2.6540125   -2.6540125   -1.4915364  0.072590749   -2.6540125    1.1624761   313401 
 3438000    1.0046047   -2.6522629   -2.6522629   -1.4909913  0.076537503   -2.6522629    1.1612716   313401 
 3439000    1.0068222    -2.654777    -2.654777   -1.4909422  0.069334413    -2.654777    1.1638348   313401 
 3440000    1.0068107   -2.6558504   -2.6558504   -1.4920288  0.057275985   -2.6558504    1.1638216   313401 
 3441000     1.006645   -2.6556583   -2.6556583   -1.4920283  0.065037102   -2.6556583      1.16363   313401 
 3442000    1.0075801   -2.6559323   -2.6559323   -1.4912213   0.06602564   -2.6559323     1.164711   313401 
 3443000     1.005987   -2.6528336   -2.6528336   -1.4899642  0.065860636   -2.6528336    1.1628694   313401 
 3444000    1.0061664   -2.6534667   -2.6534667   -1.4903899  0.063773695   -2.6534667    1.1630768   313401 
 3445000    1.0068078   -2.6545974   -2.6545974   -1.4907792  0.056145549   -2.6545974    1.1638183   313401 
 3446000    1.0038672   -2.6517368   -2.6517368   -1.4913177  0.055140424   -2.6517368     1.160419   313401 
 3447000    1.0035155   -2.6513935   -2.6513935    -1.491381  0.068597133   -2.6513935    1.1600125   313401 
 3448000    1.0064063   -2.6532278   -2.6532278   -1.4898737  0.059603974   -2.6532278    1.1633541   313401 
 3449000    1.0046933   -2.6525881   -2.6525881   -1.4912141  0.061603462   -2.6525881     1.161374   313401 
 3450000    1.0056817   -2.6519042   -2.6519042   -1.4893876  0.070240392   -2.6519042    1.1625166   313401 
 3451000    1.0067417   -2.6536032   -2.6536032   -1.4898614  0.067829133   -2.6536032    1.1637418   313401 
 3452000    1.0053047   -2.6529649   -2.6529649   -1.4908841  0.066783575   -2.6529649    1.1620808   313401 
 3453000    1.0037561   -2.6513278   -2.6513278   -1.4910372  0.058560412   -2.6513278    1.1602906   313401 
 3454000    1.0057626   -2.6539318   -2.6539318   -1.4913218  0.077935198   -2.6539318      1.16261   313401 
 3455000    1.0056198   -2.6541527   -2.6541527   -1.4917077  0.067417091   -2.6541527     1.162445   313401 
 3456000    1.0057573   -2.6542018   -2.6542018   -1.4915979  0.063267287   -2.6542018    1.1626039   313401 
 3457000    1.0046655   -2.6543118   -2.6543118     -1.49297   0.05882493   -2.6543118    1.1613418   313401 
 3458000    1.0040897   -2.6547511   -2.6547511   -1.4940748   0.07198829   -2.6547511    1.1606763   313401 
 3459000    1.0058782   -2.6550308   -2.6550308   -1.4922871  0.068389616   -2.6550308    1.1627437   313401 
 3460000    1.0057965   -2.6559807   -2.6559807   -1.4933314  0.062492667   -2.6559807    1.1626493   313401 
 3461000    1.0057096   -2.6552807   -2.6552807   -1.4927319  0.064450275   -2.6552807    1.1625488   313401 
 3462000    1.0061341   -2.6541914   -2.6541914   -1.4911518  0.065126901   -2.6541914    1.1630395   313401 
 3463000    1.0062133   -2.6550294   -2.6550294   -1.4918983  0.068460833   -2.6550294    1.1631311   313401 
 3464000    1.0066495   -2.6561265   -2.6561265   -1.4924912  0.066931681   -2.6561265    1.1636353   313401 
 3465000    1.0060412    -2.655915    -2.655915   -1.4929829  0.073477755    -2.655915    1.1629321   313401 
 3466000    1.0073151   -2.6568077   -2.6568077    -1.492403  0.072244069   -2.6568077    1.1644046   313401 
 3467000    1.0067354   -2.6565456   -2.6565456   -1.4928111  0.076974677   -2.6565456    1.1637345   313401 
 3468000    1.0092195   -2.6588898   -2.6588898   -1.4922838  0.069505672   -2.6588898     1.166606   313401 
 3469000    1.0088975   -2.6588216   -2.6588216   -1.4925878  0.063353486   -2.6588216    1.1662338   313401 
 3470000      1.00738   -2.6563037   -2.6563037    -1.491824  0.063446007   -2.6563037    1.1644797   313401 
 3471000    1.0070232   -2.6560914   -2.6560914   -1.4920242  0.068396572   -2.6560914    1.1640673   313401 
 3472000    1.0093355   -2.6588142   -2.6588142    -1.492074  0.062509268   -2.6588142    1.1667402   313401 
 3473000    1.0105635   -2.6601729   -2.6601729   -1.4920133   0.07013803   -2.6601729    1.1681597   313401 
 3474000    1.0071652   -2.6569364   -2.6569364    -1.492705  0.066879594   -2.6569364    1.1642314   313401 
 3475000     1.004557   -2.6535325   -2.6535325    -1.492316  0.067308263   -2.6535325    1.1612165   313401 
 3476000    1.0071966   -2.6565496   -2.6565496   -1.4922819  0.070296989   -2.6565496    1.1642677   313401 
 3477000    1.0053605   -2.6549828   -2.6549828   -1.4928376  0.070604623   -2.6549828    1.1621452   313401 
 3478000    1.0057139    -2.655128    -2.655128   -1.4925743  0.049698944    -2.655128    1.1625538   313401 
 3479000    1.0060805    -2.655643    -2.655643   -1.4926654   0.07110798    -2.655643    1.1629775   313401 
 3480000    1.0058237   -2.6552327   -2.6552327   -1.4925521  0.058462739   -2.6552327    1.1626806   313401 
 3481000    1.0051973   -2.6543832   -2.6543832   -1.4924266  0.073567877   -2.6543832    1.1619565   313401 
 3482000    1.0044713   -2.6522899   -2.6522899   -1.4911726  0.060285598   -2.6522899    1.1611173   313401 
 3483000    1.0029379   -2.6516388   -2.6516388    -1.492294  0.068898871   -2.6516388    1.1593448   313401 
 3484000    1.0047247   -2.6528996   -2.6528996   -1.4914894  0.063972922   -2.6528996    1.1614102   313401 
 3485000    1.0031503   -2.6512895   -2.6512895   -1.4916991  0.063902341   -2.6512895    1.1595903   313401 
 3486000    1.0055536   -2.6541653   -2.6541653   -1.4917969  0.065229739   -2.6541653    1.1623684   313401 
 3487000    1.0068681   -2.6541699   -2.6541699   -1.4902819  0.064945247   -2.6541699     1.163888   313401 
 3488000    1.0049504   -2.6516391   -2.6516391   -1.4899679   0.06253629   -2.6516391    1.1616712   313401 
 3489000    1.0057395   -2.6526323   -2.6526323    -1.490049  0.067821482   -2.6526323    1.1625833   313401 
 3490000    1.0066239   -2.6541485   -2.6541485   -1.4905429   0.06609018   -2.6541485    1.1636056   313401 
 3491000    1.0049584   -2.6534587   -2.6534587   -1.4917783  0.069236596   -2.6534587    1.1616804   313401 
 3492000    1.0052277   -2.6531693   -2.6531693   -1.4911776  0.069866585   -2.6531693    1.1619917   313401 
 3493000    1.0067043   -2.6542011   -2.6542011   -1.4905025  0.058300675   -2.6542011    1.1636986   313401 
 3494000    1.0046073   -2.6514719   -2.6514719   -1.4901973   0.07078692   -2.6514719    1.1612746   313401 
 3495000    1.0059731   -2.6530685   -2.6530685   -1.4902151  0.059416106   -2.6530685    1.1628534   313401 
 3496000    1.0031143   -2.6506893   -2.6506893   -1.4911406  0.074867537   -2.6506893    1.1595487   313401 
 3497000    1.0042181   -2.6525614   -2.6525614   -1.4917368   0.06626738   -2.6525614    1.1608246   313401 
 3498000    1.0068782   -2.6547342   -2.6547342   -1.4908346  0.059582195   -2.6547342    1.1638996   313401 
 3499000    1.0089543   -2.6565058   -2.6565058   -1.4902063  0.065693819   -2.6565058    1.1662995   313401 
 3500000     1.008632   -2.6556432   -2.6556432   -1.4897162  0.057317361   -2.6556432     1.165927   313401 
 3501000    1.0087659   -2.6548065   -2.6548065   -1.4887248  0.082585578   -2.6548065    1.1660817   313401 
 3502000    1.0072854   -2.6548997   -2.6548997   -1.4905294  0.059597689   -2.6548997    1.1643703   313401 
 3503000    1.0086409   -2.6553489   -2.6553489   -1.4894116  0.072974502   -2.6553489    1.1659372   313401 
 3504000    1.0091327   -2.6550672   -2.6550672   -1.4885614  0.067121743   -2.6550672    1.1665058   313401 
 3505000    1.0092991   -2.6561568   -2.6561568   -1.4894587  0.072504639   -2.6561568    1.1666981   313401 
 3506000    1.0078061   -2.6541001   -2.6541001   -1.4891279  0.063282888   -2.6541001    1.1649723   313401 
 3507000    1.0103932   -2.6559944   -2.6559944   -1.4880317   0.06746862   -2.6559944    1.1679628   313401 
 3508000    1.0076798   -2.6520358   -2.6520358   -1.4872096   0.06442315   -2.6520358    1.1648262   313401 
 3509000    1.0102437   -2.6566202   -2.6566202   -1.4888303  0.063215259   -2.6566202    1.1677899   313401 
 3510000    1.0072477   -2.6532323   -2.6532323   -1.4889056   0.07469666   -2.6532323    1.1643267   313401 
 3511000    1.0062021   -2.6523493   -2.6523493   -1.4892312  0.058931636   -2.6523493    1.1631181   313401 
 3512000     1.007138   -2.6529139   -2.6529139   -1.4887139   0.06046039   -2.6529139       1.1642   313401 
 3513000    1.0062059   -2.6530124   -2.6530124   -1.4898899  0.070349003   -2.6530124    1.1631225   313401 
 3514000    1.0038222   -2.6498912   -2.6498912   -1.4895242  0.069384307   -2.6498912     1.160367   313401 
 3515000    1.0049436   -2.6510758   -2.6510758   -1.4894125   0.07269113   -2.6510758    1.1616633   313401 
 3516000    1.0058016   -2.6533212   -2.6533212   -1.4906661  0.063175136   -2.6533212    1.1626552   313401 
 3517000    1.0058709   -2.6533886   -2.6533886   -1.4906534  0.066680148   -2.6533886    1.1627352   313401 
 3518000    1.0069353   -2.6537372   -2.6537372   -1.4897715   0.05973141   -2.6537372    1.1639657   313401 
 3519000     1.006682   -2.6534901   -2.6534901   -1.4898173  0.059390113   -2.6534901    1.1636728   313401 
 3520000    1.0052323   -2.6515854   -2.6515854   -1.4895883  0.068292818   -2.6515854     1.161997   313401 
 3521000    1.0082796   -2.6541217   -2.6541217   -1.4886022  0.062054698   -2.6541217    1.1655195   313401 
 3522000    1.0061935   -2.6516266   -2.6516266   -1.4885185  0.060780033   -2.6516266    1.1631081   313401 
 3523000    1.0069525     -2.65227     -2.65227   -1.4882845    0.0714887     -2.65227    1.1639855   313401 
 3524000    1.0069524   -2.6531748   -2.6531748   -1.4891895  0.059567307   -2.6531748    1.1639853   313401 
 3525000    1.0069008   -2.6529876   -2.6529876   -1.4890619  0.065140831   -2.6529876    1.1639257   313401 
 3526000      1.00615   -2.6524703   -2.6524703   -1.4894124  0.070195029   -2.6524703    1.1630579   313401 
 3527000    1.0034574   -2.6496377   -2.6496377   -1.4896923  0.065934345   -2.6496377    1.1599454   313401 
 3528000    1.0045418   -2.6510651   -2.6510651   -1.4898663  0.065970809   -2.6510651    1.1611988   313401 
 3529000     1.008003   -2.6534939   -2.6534939   -1.4882941  0.055555909   -2.6534939    1.1651998   313401 
 3530000    1.0072922   -2.6534786   -2.6534786   -1.4891004   0.06500291   -2.6534786    1.1643782   313401 
 3531000    1.0076468    -2.653706    -2.653706    -1.488918  0.068954146    -2.653706     1.164788   313401 
 3532000    1.0058878   -2.6526012   -2.6526012   -1.4898464  0.058485059   -2.6526012    1.1627548   313401 
 3533000    1.0032368   -2.6492618   -2.6492618   -1.4895715  0.073549102   -2.6492618    1.1596903   313401 
 3534000    1.0069169   -2.6531321   -2.6531321   -1.4891877   0.06552105   -2.6531321    1.1639444   313401 
 3535000    1.0043031   -2.6493687   -2.6493687   -1.4884459  0.070507841   -2.6493687    1.1609229   313401 
 3536000    1.0069024   -2.6526017   -2.6526017   -1.4886741  0.071632466   -2.6526017    1.1639276   313401 
 3537000    1.0056528   -2.6505273   -2.6505273   -1.4880442  0.069811102   -2.6505273    1.1624831   313401 
 3538000    1.0053191   -2.6507747   -2.6507747   -1.4886774   0.06741981   -2.6507747    1.1620974   313401 
 3539000    1.0086094   -2.6543837   -2.6543837   -1.4884829  0.070713206   -2.6543837    1.1659008   313401 
 3540000     1.007018   -2.6523949   -2.6523949   -1.4883337  0.070261732   -2.6523949    1.1640612   313401 
 3541000    1.0077744    -2.654157    -2.654157   -1.4892214  0.069942424    -2.654157    1.1649356   313401 
 3542000    1.0064537   -2.6533209   -2.6533209    -1.489912  0.067158295   -2.6533209    1.1634089   313401 
 3543000    1.0059339   -2.6530356   -2.6530356   -1.4902276  0.064007037   -2.6530356     1.162808   313401 
 3544000    1.0064476   -2.6534827   -2.6534827   -1.4900808  0.075491457   -2.6534827    1.1634018   313401 
 3545000    1.0067056   -2.6538796   -2.6538796   -1.4901795  0.057524324   -2.6538796    1.1637001   313401 
 3546000     1.006449   -2.6540399   -2.6540399   -1.4906364  0.075105509   -2.6540399    1.1634035   313401 
 3547000    1.0043787   -2.6525995   -2.6525995   -1.4915892  0.063287627   -2.6525995    1.1610103   313401 
 3548000    1.0041523   -2.6520017   -2.6520017   -1.4912531  0.061271969   -2.6520017    1.1607486   313401 
 3549000    1.0044181   -2.6523895   -2.6523895   -1.4913336  0.052238874   -2.6523895    1.1610559   313401 
 3550000    1.0035268   -2.6516505   -2.6516505   -1.4916249  0.065707101   -2.6516505    1.1600256   313401 
 3551000     1.007028   -2.6570924   -2.6570924   -1.4930195  0.047811471   -2.6570924    1.1640728   313401 
 3552000    1.0071692   -2.6564027   -2.6564027   -1.4921667  0.057726361   -2.6564027     1.164236   313401 
 3553000    1.0043622   -2.6542835   -2.6542835   -1.4932922  0.068968312   -2.6542835    1.1609912   313401 
 3554000    1.0058445   -2.6550776   -2.6550776   -1.4923729  0.057650955   -2.6550776    1.1627047   313401 
 3555000    1.0053725    -2.653927    -2.653927   -1.4917679  0.066112709    -2.653927    1.1621591   313401 
 3556000    1.0060691   -2.6549201   -2.6549201   -1.4919558  0.076437529   -2.6549201    1.1629643   313401 
 3557000    1.0032133   -2.6522399   -2.6522399   -1.4925767  0.068614341   -2.6522399    1.1596632   313401 
 3558000    1.0051916   -2.6544502   -2.6544502   -1.4925002   0.06010196   -2.6544502      1.16195   313401 
 3559000    1.0050768   -2.6542014   -2.6542014   -1.4923841  0.059163963   -2.6542014    1.1618172   313401 
 3560000    1.0060925   -2.6548516   -2.6548516   -1.4918602    0.0597699   -2.6548516    1.1629914   313401 
 3561000    1.0078528   -2.6573251   -2.6573251    -1.492299  0.058266494   -2.6573251    1.1650262   313401 
 3562000    1.0063999     -2.65368     -2.65368   -1.4903333  0.070347284     -2.65368    1.1633467   313401 
 3563000    1.0086563   -2.6565358   -2.6565358   -1.4905808  0.073757675   -2.6565358     1.165955   313401 
 3564000    1.0081767   -2.6565026   -2.6565026    -1.491102  0.076560815   -2.6565026    1.1654006   313401 
 3565000    1.0106584   -2.6602094   -2.6602094   -1.4919401  0.076648161   -2.6602094    1.1682693   313401 
 3566000    1.0080871   -2.6582019   -2.6582019   -1.4929049  0.066143021   -2.6582019     1.165297   313401 
 3567000    1.0082744   -2.6569759   -2.6569759   -1.4914623  0.083247105   -2.6569759    1.1655136   313401 
 3568000    1.0081309    -2.658132    -2.658132   -1.4927843  0.069500798    -2.658132    1.1653477   313401 
 3569000    1.0062513   -2.6560759   -2.6560759    -1.492901  0.061302048   -2.6560759    1.1631749   313401 
 3570000    1.0042865   -2.6547552   -2.6547552   -1.4938515  0.072012423   -2.6547552    1.1609037   313401 
 3571000    1.0061593   -2.6569842   -2.6569842   -1.4939156  0.056631047   -2.6569842    1.1630686   313401 
 3572000    1.0060159   -2.6554366   -2.6554366   -1.4925338  0.067893229   -2.6554366    1.1629029   313401 
 3573000    1.0048265   -2.6530993   -2.6530993   -1.4915714  0.061547879   -2.6530993    1.1615279   313401 
 3574000    1.0067335   -2.6554161   -2.6554161   -1.4916837  0.063148289   -2.6554161    1.1637324   313401 
 3575000    1.0074624   -2.6560114   -2.6560114   -1.4914365  0.069401555   -2.6560114     1.164575   313401 
 3576000    1.0065506   -2.6541333   -2.6541333   -1.4906124  0.063549119   -2.6541333    1.1635209   313401 
 3577000    1.0073855   -2.6556773   -2.6556773   -1.4911913  0.082555907   -2.6556773     1.164486   313401 
 3578000    1.0049381   -2.6535457   -2.6535457   -1.4918888  0.061894669   -2.6535457    1.1616569   313401 
 3579000    1.0056567   -2.6548596   -2.6548596    -1.492372  0.072921979   -2.6548596    1.1624877   313401 
 3580000    1.0077727   -2.6568134   -2.6568134   -1.4918798  0.065464822   -2.6568134    1.1649336   313401 
 3581000    1.0068085   -2.6554973   -2.6554973   -1.4916783  0.075157151   -2.6554973     1.163819   313401 
 3582000    1.0060501   -2.6553304   -2.6553304   -1.4923881   0.06614714   -2.6553304    1.1629424   313401 
 3583000    1.0037012   -2.6530819   -2.6530819   -1.4928547  0.067513624   -2.6530819    1.1602272   313401 
 3584000    1.0048279   -2.6530341   -2.6530341   -1.4915045  0.061269794   -2.6530341    1.1615296   313401 
 3585000    1.0049297   -2.6525867   -2.6525867   -1.4909395  0.056232728   -2.6525867    1.1616472   313401 
 3586000    1.0055568   -2.6540305   -2.6540305   -1.4916584  0.062116521   -2.6540305    1.1623722   313401 
 3587000    1.0059272   -2.6537545   -2.6537545   -1.4909541  0.076149762   -2.6537545    1.1628003   313401 
 3588000    1.0059264   -2.6533394   -2.6533394     -1.49054  0.054399179   -2.6533394    1.1627994   313401 
 3589000    1.0040466   -2.6509222   -2.6509222   -1.4902957  0.068705906   -2.6509222    1.1606265   313401 
 3590000    1.0055012   -2.6521669   -2.6521669   -1.4898591  0.060070285   -2.6521669    1.1623078   313401 
 3591000    1.0048223   -2.6524429   -2.6524429   -1.4909198  0.062185924   -2.6524429    1.1615232   313401 
 3592000    1.0050483   -2.6517352   -2.6517352   -1.4899508  0.061353876   -2.6517352    1.1617843   313401 
 3593000    1.0049237   -2.6522532   -2.6522532   -1.4906129  0.071801977   -2.6522532    1.1616403   313401 
 3594000    1.0042343   -2.6518502   -2.6518502   -1.4910067  0.073818334   -2.6518502    1.1608434   313401 
 3595000    1.0047292   -2.6521176   -2.6521176    -1.490702  0.067420375   -2.6521176    1.1614155   313401 
 3596000    1.0076254   -2.6548166   -2.6548166   -1.4900533  0.057445876   -2.6548166    1.1647633   313401 
 3597000    1.0055823   -2.6530626   -2.6530626   -1.4906609  0.080875345   -2.6530626    1.1624016   313401 
 3598000    1.0051308   -2.6527318   -2.6527318    -1.490852   0.07806627   -2.6527318    1.1618798   313401 
 3599000     1.005094   -2.6521628   -2.6521628   -1.4903257  0.068818362   -2.6521628    1.1618372   313401 
 3600000    1.0066115   -2.6550588   -2.6550588   -1.4914674  0.068478718   -2.6550588    1.1635914   313401 
 3601000    1.0056973   -2.6542431   -2.6542431   -1.4917085  0.067086127   -2.6542431    1.1625345   313401 
 3602000    1.0076601   -2.6569778   -2.6569778   -1.4921744  0.057749458   -2.6569778    1.1648034   313401 
 3603000    1.0063835    -2.656344    -2.656344   -1.4930162  0.056690474    -2.656344    1.1633277   313401 
 3604000    1.0041331    -2.655123    -2.655123   -1.4943966  0.067831872    -2.655123    1.1607264   313401 
 3605000    1.0060537   -2.6566197   -2.6566197   -1.4936732  0.060330583   -2.6566197    1.1629465   313401 
 3606000    1.0058336   -2.6582593   -2.6582593   -1.4955672  0.070488583   -2.6582593    1.1626921   313401 
 3607000    1.0048014   -2.6566519   -2.6566519    -1.495153  0.072512128   -2.6566519    1.1614989   313401 
 3608000     1.005398   -2.6571051   -2.6571051   -1.4949165  0.063735466   -2.6571051    1.1621885   313401 
 3609000    1.0078967   -2.6603738   -2.6603738   -1.4952968  0.063140666   -2.6603738     1.165077   313401 
 3610000    1.0059148   -2.6583203   -2.6583203   -1.4955344  0.050449053   -2.6583203    1.1627859   313401 
 3611000     1.005397   -2.6584913   -2.6584913    -1.496304  0.071475338   -2.6584913    1.1621874   313401 
 3612000    1.0048012   -2.6582812   -2.6582812   -1.4967824  0.059152407   -2.6582812    1.1614988   313401 
 3613000    1.0062605   -2.6580602   -2.6580602   -1.4948746  0.073671966   -2.6580602    1.1631856   313401 
 3614000    1.0062566   -2.6589633   -2.6589633   -1.4957823  0.062423243   -2.6589633     1.163181   313401 
 3615000    1.0086161    -2.662745    -2.662745   -1.4968365  0.067965475    -2.662745    1.1659085   313401 
 3616000    1.0084725   -2.6628041   -2.6628041   -1.4970616  0.061394223   -2.6628041    1.1657425   313401 
 3617000    1.0066998   -2.6601748   -2.6601748   -1.4964814  0.073823211   -2.6601748    1.1636934   313401 
 3618000    1.0054108   -2.6598042   -2.6598042   -1.4976008  0.076975894   -2.6598042    1.1622034   313401 
 3619000    1.0047287   -2.6594825   -2.6594825   -1.4980677  0.063946662   -2.6594825    1.1614149   313401 
 3620000    1.0055494   -2.6607343   -2.6607343   -1.4983708  0.069365881   -2.6607343    1.1623636   313401 
 3621000    1.0051039   -2.6590586   -2.6590586     -1.49721  0.056304312   -2.6590586    1.1618486   313401 
 3622000    1.0073681   -2.6611505   -2.6611505   -1.4966846   0.07681845   -2.6611505     1.164466   313401 
 3623000    1.0052729   -2.6581519   -2.6581519   -1.4961079  0.063666263   -2.6581519     1.162044   313401 
 3624000    1.0059962   -2.6591659   -2.6591659   -1.4962858    0.0585324   -2.6591659      1.16288   313401 
 3625000    1.0046516   -2.6582903   -2.6582903   -1.4969645  0.072652619   -2.6582903    1.1613258   313401 
 3626000    1.0047762   -2.6578067   -2.6578067   -1.4963369   0.07356382   -2.6578067    1.1614698   313401 
 3627000    1.0058489   -2.6587918   -2.6587918    -1.496082  0.060952356   -2.6587918    1.1627098   313401 
 3628000    1.0053422   -2.6578345   -2.6578345   -1.4957105  0.062918941   -2.6578345     1.162124   313401 
 3629000    1.0036558   -2.6572727   -2.6572727    -1.497098  0.067902979   -2.6572727    1.1601747   313401 
 3630000    1.0027276   -2.6554793   -2.6554793   -1.4963776  0.056851423   -2.6554793    1.1591017   313401 
 3631000     1.003835    -2.656747    -2.656747   -1.4963652  0.063980487    -2.656747    1.1603818   313401 
 3632000    1.0039425   -2.6577432   -2.6577432   -1.4972372  0.061733668   -2.6577432    1.1605061   313401 
 3633000    1.0035635   -2.6570853   -2.6570853   -1.4970173  0.068174573   -2.6570853     1.160068   313401 
 3634000    1.0004028   -2.6546212   -2.6546212   -1.4982068   0.07206313   -2.6546212    1.1564143   313401 
 3635000    1.0021226   -2.6558073   -2.6558073   -1.4974049  0.058582365   -2.6558073    1.1584024   313401 
 3636000    1.0029941   -2.6560138   -2.6560138    -1.496604  0.064517316   -2.6560138    1.1594098   313401 
 3637000    1.0029942   -2.6561556   -2.6561556   -1.4967456  0.060832686   -2.6561556    1.1594099   313401 
 3638000    1.0033409   -2.6566233   -2.6566233   -1.4968126  0.071876568   -2.6566233    1.1598107   313401 
 3639000    1.0049206   -2.6576823   -2.6576823   -1.4960456  0.067304473   -2.6576823    1.1616368   313401 
 3640000    1.0046184   -2.6566322   -2.6566322   -1.4953448  0.053713197   -2.6566322    1.1612874   313401 
 3641000    1.0042392   -2.6559047   -2.6559047   -1.4950557  0.080561796   -2.6559047     1.160849   313401 
 3642000    1.0054814   -2.6575746   -2.6575746   -1.4952896  0.059057466   -2.6575746     1.162285   313401 
 3643000    1.0045491   -2.6566677   -2.6566677   -1.4954603  0.070732769   -2.6566677    1.1612073   313401 
 3644000    1.0067492   -2.6592401   -2.6592401   -1.4954896  0.064686345   -2.6592401    1.1637505   313401 
 3645000    1.0044063   -2.6565081   -2.6565081   -1.4954658  0.069620266   -2.6565081    1.1610423   313401 
 3646000    1.0058836   -2.6570768   -2.6570768   -1.4943269  0.066106421   -2.6570768    1.1627499   313401 
 3647000    1.0074313   -2.6601153   -2.6601153   -1.4955763  0.064635906   -2.6601153     1.164539   313401 
 3648000    1.0061893   -2.6580136   -2.6580136   -1.4949102  0.066048751   -2.6580136    1.1631033   313401 
 3649000    1.0048891   -2.6585692   -2.6585692   -1.4969689  0.069049033   -2.6585692    1.1616003   313401 
 3650000    1.0062006    -2.660461    -2.660461   -1.4973447  0.065083395    -2.660461    1.1631163   313401 
 3651000    1.0058257   -2.6602663   -2.6602663   -1.4975833  0.064937205   -2.6602663     1.162683   313401 
 3652000    1.0046464   -2.6589564   -2.6589564   -1.4976367  0.068524696   -2.6589564    1.1613197   313401 
 3653000    1.0055263   -2.6598719   -2.6598719    -1.497535  0.066083577   -2.6598719    1.1623369   313401 
 3654000    1.0063611   -2.6611094   -2.6611094   -1.4978075   0.07869932   -2.6611094    1.1633019   313401 
 3655000    1.0049953   -2.6599481   -2.6599481    -1.498225  0.054596382   -2.6599481    1.1617231   313401 
 3656000    1.0055455   -2.6608196   -2.6608196   -1.4984605  0.054600666   -2.6608196    1.1623591   313401 
 3657000    1.0054935    -2.661601    -2.661601    -1.499302  0.070851852    -2.661601    1.1622989   313401 
 3658000    1.0053324   -2.6607544   -2.6607544   -1.4986417  0.064752887   -2.6607544    1.1621128   313401 
 3659000    1.0042377   -2.6609071   -2.6609071   -1.5000598  0.072262119   -2.6609071    1.1608473   313401 
 3660000    1.0052801   -2.6615157   -2.6615157   -1.4994634  0.067610482   -2.6615157    1.1620523   313401 
 3661000    1.0052956   -2.6626695   -2.6626695   -1.5005992  0.076208579   -2.6626695    1.1620702   313401 
 3662000    1.0055036   -2.6634078   -2.6634078   -1.5010973  0.064220353   -2.6634078    1.1623106   313401 
 3663000     1.006274    -2.663333    -2.663333   -1.5001318  0.065430336    -2.663333    1.1632012   313401 
 3664000    1.0040684   -2.6619297   -2.6619297   -1.5012781  0.074596911   -2.6619297    1.1606516   313401 
 3665000    1.0034434   -2.6617823   -2.6617823   -1.5018532  0.074580257   -2.6617823    1.1599291   313401 
 3666000    1.0054478   -2.6633501   -2.6633501   -1.5011039  0.059131826   -2.6633501    1.1622462   313401 
 3667000    1.0037444   -2.6594768   -2.6594768   -1.4991997  0.074764014   -2.6594768    1.1602771   313401 
 3668000    1.0055266   -2.6612721   -2.6612721   -1.4989348  0.065598488   -2.6612721    1.1623373   313401 
 3669000     1.004205    -2.660166    -2.660166   -1.4993565  0.071502587    -2.660166    1.1608095   313401 
 3670000    1.0043909   -2.6592405   -2.6592405    -1.498216   0.07333739   -2.6592405    1.1610245   313401 
 3671000    1.0053699   -2.6613557   -2.6613557   -1.4991996  0.069639165   -2.6613557    1.1621561   313401 
 3672000     1.005816   -2.6619209   -2.6619209   -1.4992492  0.070556328   -2.6619209    1.1626718   313401 
 3673000    1.0050708   -2.6615781   -2.6615781   -1.4997677  0.063997835   -2.6615781    1.1618104   313401 
 3674000    1.0058048   -2.6624329   -2.6624329   -1.4997741  0.066272873   -2.6624329    1.1626588   313401 
 3675000    1.0031657   -2.6595942   -2.6595942   -1.4999861  0.053187792   -2.6595942    1.1596082   313401 
 3676000    1.0049946   -2.6605145   -2.6605145   -1.4987922  0.062044896   -2.6605145    1.1617223   313401 
 3677000    1.0054063   -2.6606843   -2.6606843   -1.4984861  0.062767345   -2.6606843    1.1621982   313401 
 3678000    1.0038618   -2.6596729   -2.6596729   -1.4992601  0.060427474   -2.6596729    1.1604128   313401 
 3679000    1.0059753   -2.6606858   -2.6606858   -1.4978299  0.072279165   -2.6606858    1.1628559   313401 
 3680000    1.0055029   -2.6593164   -2.6593164   -1.4970066  0.073297915   -2.6593164    1.1623099   313401 
 3681000    1.0046078    -2.658963    -2.658963   -1.4976878  0.053835017    -2.658963    1.1612752   313401 
 3682000    1.0062018   -2.6594037   -2.6594037    -1.496286   0.07701305   -2.6594037    1.1631177   313401 
 3683000    1.0054291   -2.6597025   -2.6597025    -1.497478  0.066637181   -2.6597025    1.1622245   313401 
 3684000    1.0046258   -2.6590113   -2.6590113   -1.4977153  0.067664718   -2.6590113     1.161296   313401 
 3685000    1.0042914   -2.6577418   -2.6577418   -1.4968324  0.064165711   -2.6577418    1.1609094   313401 
 3686000    1.0065375    -2.659615    -2.659615   -1.4961092  0.066620284    -2.659615    1.1635058   313401 
 3687000    1.0060823   -2.6593558   -2.6593558   -1.4963762  0.064346667   -2.6593558    1.1629796   313401 
 3688000     1.005326   -2.6591098   -2.6591098   -1.4970044  0.081140414   -2.6591098    1.1621054   313401 
 3689000    1.0059178   -2.6590627   -2.6590627   -1.4962733  0.064624499   -2.6590627    1.1627894   313401 
 3690000    1.0067969   -2.6610013   -2.6610013   -1.4971956  0.060250143   -2.6610013    1.1638057   313401 
 3691000     1.005721   -2.6588942   -2.6588942   -1.4963323  0.063617419   -2.6588942    1.1625619   313401 
 3692000    1.0042474   -2.6597911   -2.6597911   -1.4989326  0.069172309   -2.6597911    1.1608585   313401 
 3693000    1.0035501   -2.6573385   -2.6573385    -1.497286  0.055407873   -2.6573385    1.1600526   313401 
 3694000    1.0052844   -2.6578633   -2.6578633   -1.4958061  0.067353383   -2.6578633    1.1620573   313401 
 3695000    1.0056723   -2.6583717   -2.6583717    -1.495866  0.064394078   -2.6583717    1.1625057   313401 
 3696000    1.0085497   -2.6610663   -2.6610663   -1.4952344  0.064900083   -2.6610663    1.1658318   313401 
 3697000    1.0051196   -2.6574466   -2.6574466   -1.4955799  0.074874455   -2.6574466    1.1618668   313401 
 3698000    1.0046082   -2.6575142   -2.6575142   -1.4962387  0.058349822   -2.6575142    1.1612756   313401 
 3699000    1.0051201   -2.6578357   -2.6578357   -1.4959684  0.073188998   -2.6578357    1.1618674   313401 
 3700000    1.0065822   -2.6596595   -2.6596595    -1.496102  0.070180993   -2.6596595    1.1635574   313401 
 3701000    1.0055077   -2.6593037   -2.6593037   -1.4969883  0.062575346   -2.6593037    1.1623154   313401 
 3702000     1.003997   -2.6580288   -2.6580288   -1.4974597  0.071856677   -2.6580288    1.1605691   313401 
 3703000     1.006971   -2.6608315   -2.6608315   -1.4968246  0.060579739   -2.6608315    1.1640069   313401 
 3704000    1.0022139    -2.656428    -2.656428     -1.49792  0.056025551    -2.656428     1.158508   313401 
 3705000    1.0043301   -2.6598417   -2.6598417   -1.4988876   0.06159441   -2.6598417    1.1609541   313401 
 3706000    1.0036724   -2.6581316   -2.6581316   -1.4979377    0.0700021   -2.6581316    1.1601939   313401 
 3707000    1.0020163   -2.6566684   -2.6566684   -1.4983889  0.064272885   -2.6566684    1.1582796   313401 
 3708000    1.0037611   -2.6588627   -2.6588627   -1.4985662  0.055814222   -2.6588627    1.1602964   313401 
 3709000    1.0031895   -2.6589587   -2.6589587    -1.499323  0.060061042   -2.6589587    1.1596357   313401 
 3710000    1.0054089   -2.6596637   -2.6596637   -1.4974625  0.078475073   -2.6596637    1.1622011   313401 
 3711000    1.0057971   -2.6592028   -2.6592028   -1.4965529   0.07825126   -2.6592028    1.1626499   313401 
 3712000    1.0075998   -2.6596417   -2.6596417   -1.4949079  0.055024088   -2.6596417    1.1647338   313401 
 3713000    1.0041735   -2.6559414   -2.6559414   -1.4951683  0.063046586   -2.6559414    1.1607731   313401 
 3714000    1.0061943   -2.6578121   -2.6578121   -1.4947031  0.057936006   -2.6578121     1.163109   313401 
 3715000    1.0068208   -2.6577688   -2.6577688   -1.4939355  0.081464526   -2.6577688    1.1638333   313401 
 3716000    1.0045484   -2.6561529   -2.6561529   -1.4949464  0.079902367   -2.6561529    1.1612065   313401 
 3717000    1.0068714   -2.6583017   -2.6583017   -1.4944099  0.066665229   -2.6583017    1.1638918   313401 
 3718000    1.0062341   -2.6577334   -2.6577334   -1.4945783  0.074636454   -2.6577334    1.1631551   313401 
 3719000    1.0062381    -2.657906    -2.657906   -1.4947463  0.068354728    -2.657906    1.1631597   313401 
 3720000     1.007995   -2.6601267   -2.6601267   -1.4949361  0.062546313   -2.6601267    1.1651906   313401 
 3721000    1.0053259   -2.6579082   -2.6579082    -1.495803  0.065213376   -2.6579082    1.1621052   313401 
 3722000    1.0061493   -2.6595622   -2.6595622   -1.4965052  0.061357685   -2.6595622     1.163057   313401 
 3723000     1.003003   -2.6568554   -2.6568554   -1.4974354  0.064448839   -2.6568554      1.15942   313401 
 3724000    1.0051947   -2.6584733   -2.6584733   -1.4965197  0.064264336   -2.6584733    1.1619536   313401 
 3725000     1.005344   -2.6584018   -2.6584018   -1.4962756  0.079388671   -2.6584018    1.1621262   313401 
 3726000    1.0042938   -2.6582352   -2.6582352    -1.497323   0.06931565   -2.6582352    1.1609122   313401 
 3727000    1.0028648   -2.6581385   -2.6581385   -1.4988781   0.05695028   -2.6581385    1.1592603   313401 
 3728000    1.0034243   -2.6573161   -2.6573161    -1.497409    0.0573469   -2.6573161    1.1599071   313401 
 3729000    1.0041867   -2.6587328   -2.6587328   -1.4979445  0.068159584   -2.6587328    1.1607883   313401 
 3730000    1.0055997   -2.6597684   -2.6597684   -1.4973466  0.072152825   -2.6597684    1.1624217   313401 
 3731000      1.00351   -2.6584458   -2.6584458   -1.4984396  0.056160903   -2.6584458    1.1600062   313401 
 3732000    1.0026394   -2.6586096   -2.6586096   -1.4996098  0.064331691   -2.6586096    1.1589997   313401 
 3733000    1.0027776   -2.6585412   -2.6585412   -1.4993817  0.065021169   -2.6585412    1.1591595   313401 
 3734000    1.0041448   -2.6568965   -2.6568965   -1.4961565   0.06930788   -2.6568965      1.16074   313401 
 3735000    1.0076242   -2.6611502   -2.6611502   -1.4963882   0.06521189   -2.6611502     1.164762   313401 
 3736000     1.005977   -2.6596989   -2.6596989    -1.496841  0.065410545   -2.6596989    1.1628579   313401 
 3737000    1.0065033   -2.6608611   -2.6608611   -1.4973948  0.060600037   -2.6608611    1.1634663   313401 
 3738000    1.0052465   -2.6595171   -2.6595171   -1.4975036  0.071088391   -2.6595171    1.1620135   313401 
 3739000    1.0064593   -2.6609435   -2.6609435   -1.4975281   0.05665027   -2.6609435    1.1634154   313401 
 3740000    1.0062427   -2.6592965   -2.6592965   -1.4961315  0.082499683   -2.6592965     1.163165   313401 
 3741000    1.0067161   -2.6585956   -2.6585956   -1.4948834  0.065914535   -2.6585956    1.1637122   313401 
 3742000    1.0069157   -2.6603874   -2.6603874   -1.4964444  0.068178985   -2.6603874    1.1639429   313401 
 3743000     1.006733   -2.6615103   -2.6615103   -1.4977786  0.078596217   -2.6615103    1.1637317   313401 
 3744000    1.0075639   -2.6621293   -2.6621293   -1.4974371  0.063135073   -2.6621293    1.1646923   313401 
 3745000    1.0052971   -2.6603922   -2.6603922   -1.4983203  0.074627409   -2.6603922    1.1620719   313401 
 3746000    1.0070274   -2.6611484   -2.6611484   -1.4970763  0.077002988   -2.6611484    1.1640721   313401 
 3747000    1.0073636    -2.662251    -2.662251   -1.4977902  0.072967301    -2.662251    1.1644607   313401 
 3748000    1.0069588   -2.6630605   -2.6630605   -1.4990677  0.062981881   -2.6630605    1.1639928   313401 
 3749000     1.006566   -2.6612815   -2.6612815   -1.4977428  0.064328775   -2.6612815    1.1635387   313401 
 3750000    1.0050758   -2.6612128   -2.6612128   -1.4993967  0.065407278   -2.6612128    1.1618161   313401 
 3751000    1.0054704   -2.6615164   -2.6615164   -1.4992441   0.06968626   -2.6615164    1.1622723   313401 
 3752000    1.0049095   -2.6604122   -2.6604122   -1.4987884  0.064734528   -2.6604122    1.1616239   313401 
 3753000    1.0065996   -2.6599611   -2.6599611   -1.4963835  0.081190532   -2.6599611    1.1635776   313401 
 3754000    1.0058019   -2.6600802   -2.6600802   -1.4974248  0.066662804   -2.6600802    1.1626554   313401 
 3755000    1.0049151   -2.6592026   -2.6592026   -1.4975722  0.075275476   -2.6592026    1.1616304   313401 
 3756000    1.0045296   -2.6579336   -2.6579336   -1.4967488  0.065462001   -2.6579336    1.1611848   313401 
 3757000    1.0044769   -2.6584864   -2.6584864   -1.4973627  0.060467114   -2.6584864    1.1611238   313401 
 3758000      1.00501   -2.6589415   -2.6589415   -1.4972015  0.068540134   -2.6589415      1.16174   313401 
 3759000    1.0049342    -2.658251    -2.658251   -1.4965986  0.065575671    -2.658251    1.1616524   313401 
 3760000    1.0036816   -2.6555116   -2.6555116   -1.4953071  0.063852759   -2.6555116    1.1602045   313401 
 3761000    1.0042761   -2.6576578   -2.6576578   -1.4967661  0.065114983   -2.6576578    1.1608917   313401 
 3762000    1.0044302   -2.6572137   -2.6572137   -1.4961439  0.061666376   -2.6572137    1.1610698   313401 
 3763000     1.003532    -2.656059    -2.656059   -1.4960275  0.060258247    -2.656059    1.1600316   313401 
 3764000       1.0029   -2.6569271   -2.6569271    -1.497626  0.062002874   -2.6569271     1.159301   313401 
 3765000    1.0052352   -2.6578002   -2.6578002   -1.4957998  0.071979382   -2.6578002    1.1620004   313401 
 3766000    1.0044708   -2.6571519   -2.6571519   -1.4960351  0.058865067   -2.6571519    1.1611168   313401 
 3767000    1.0048382    -2.658361    -2.658361   -1.4968195  0.059466766    -2.658361    1.1615415   313401 
 3768000    1.0026732   -2.6548029   -2.6548029    -1.495764   0.05744516   -2.6548029    1.1590389   313401 
 3769000    1.0047036   -2.6581149   -2.6581149    -1.496729  0.063082352   -2.6581149    1.1613858   313401 
 3770000    1.0050287   -2.6585492   -2.6585492   -1.4967875  0.055767451   -2.6585492    1.1617617   313401 
 3771000     1.005309   -2.6586982   -2.6586982   -1.4966125  0.068507695   -2.6586982    1.1620857   313401 
 3772000    1.0043013   -2.6568595   -2.6568595   -1.4959386  0.071308483   -2.6568595    1.1609209   313401 
 3773000    1.0053694   -2.6579153   -2.6579153   -1.4957597  0.056247649   -2.6579153    1.1621556   313401 
 3774000    1.0051898    -2.658765    -2.658765    -1.496817  0.059321137    -2.658765     1.161948   313401 
 3775000    1.0057164   -2.6587456   -2.6587456   -1.4961889  0.069272631   -2.6587456    1.1625567   313401 
 3776000     1.006951   -2.6607703   -2.6607703   -1.4967865  0.067194695   -2.6607703    1.1639837   313401 
 3777000    1.0043541   -2.6581772   -2.6581772   -1.4971954   0.07163963   -2.6581772    1.1609818   313401 
 3778000    1.0041055   -2.6582573   -2.6582573   -1.4975629  0.067188623   -2.6582573    1.1606945   313401 
 3779000      1.00577   -2.6607197   -2.6607197   -1.4981011  0.075532014   -2.6607197    1.1626186   313401 
 3780000    1.0030231      -2.6585      -2.6585   -1.4990567  0.062847686      -2.6585    1.1594433   313401 
 3781000    1.0041838   -2.6588623   -2.6588623   -1.4980772  0.065292126   -2.6588623    1.1607851   313401 
 3782000    1.0047306   -2.6598347   -2.6598347   -1.4984176  0.053006704   -2.6598347    1.1614172   313401 
 3783000     1.005196   -2.6611197   -2.6611197   -1.4991647  0.071818125   -2.6611197    1.1619551   313401 
 3784000    1.0026189   -2.6585539   -2.6585539   -1.4995778  0.081379521   -2.6585539    1.1589761   313401 
 3785000    1.0053912   -2.6615686   -2.6615686   -1.4993879  0.057664458   -2.6615686    1.1621807   313401 
 3786000    1.0049629    -2.661766    -2.661766   -1.5000804   0.06134277    -2.661766    1.1616856   313401 
 3787000    1.0045398   -2.6611827   -2.6611827   -1.4999862  0.067245473   -2.6611827    1.1611965   313401 
 3788000    1.0045057   -2.6598105   -2.6598105   -1.4986533   0.06791531   -2.6598105    1.1611572   313401 
 3789000    1.0058227   -2.6605294   -2.6605294   -1.4978498  0.071326997   -2.6605294    1.1626796   313401 
 3790000    1.0046606    -2.660196    -2.660196   -1.4988599  0.069105945    -2.660196    1.1613361   313401 
 3791000    1.0052899   -2.6610371   -2.6610371   -1.4989735  0.065796504   -2.6610371    1.1620636   313401 
 3792000    1.0059041   -2.6621442   -2.6621442   -1.4993706  0.058610321   -2.6621442    1.1627736   313401 
 3793000    1.0044422   -2.6612274   -2.6612274   -1.5001437   0.07365247   -2.6612274    1.1610837   313401 
 3794000    1.0061213   -2.6628353   -2.6628353   -1.4998106  0.063184248   -2.6628353    1.1630246   313401 
 3795000    1.0061986   -2.6619271   -2.6619271   -1.4988131  0.067114299   -2.6619271     1.163114   313401 
 3796000    1.0050674   -2.6605625   -2.6605625    -1.498756  0.063117515   -2.6605625    1.1618064   313401 
 3797000    1.0050956   -2.6604921   -2.6604921   -1.4986531  0.060838857   -2.6604921     1.161839   313401 
 3798000    1.0064774   -2.6611165   -2.6611165   -1.4976802  0.071767023   -2.6611165    1.1634363   313401 
 3799000     1.006742   -2.6611103   -2.6611103   -1.4973681  0.065887351   -2.6611103    1.1637422   313401 
 3800000    1.0055776   -2.6610927   -2.6610927   -1.4986965  0.063496702   -2.6610927    1.1623962   313401 
 3801000    1.0062125    -2.661965    -2.661965    -1.498835  0.059152837    -2.661965    1.1631301   313401 
 3802000    1.0043825   -2.6592032   -2.6592032   -1.4981885  0.075266456   -2.6592032    1.1610147   313401 
 3803000    1.0061829   -2.6617141   -2.6617141   -1.4986183  0.061304595   -2.6617141    1.1630959   313401 
 3804000    1.0047716   -2.6608159   -2.6608159   -1.4993515  0.058908156   -2.6608159    1.1614645   313401 
 3805000    1.0042752   -2.6587902   -2.6587902   -1.4978995  0.060858307   -2.6587902    1.1608907   313401 
 3806000    1.0044378   -2.6579784   -2.6579784   -1.4968998  0.061259269   -2.6579784    1.1610786   313401 
 3807000    1.0058429   -2.6600322   -2.6600322   -1.4973294  0.059597671   -2.6600322    1.1627028   313401 
 3808000    1.0041513     -2.65737     -2.65737   -1.4966225    0.0780197     -2.65737    1.1607474   313401 
 3809000    1.0049808   -2.6582337   -2.6582337   -1.4965274  0.071128129   -2.6582337    1.1617063   313401 
 3810000    1.0057486   -2.6587255   -2.6587255   -1.4961316  0.057948225   -2.6587255    1.1625939   313401 
 3811000    1.0072462   -2.6596512   -2.6596512   -1.4953262  0.057089533   -2.6596512     1.164325   313401 
 3812000    1.0071542   -2.6598088   -2.6598088   -1.4955901  0.065992228   -2.6598088    1.1642187   313401 
 3813000    1.0066689   -2.6581587   -2.6581587    -1.494501  0.070557014   -2.6581587    1.1636577   313401 
 3814000    1.0066197   -2.6584069   -2.6584069   -1.4948061   0.07050005   -2.6584069    1.1636008   313401 
 3815000    1.0078648   -2.6594467   -2.6594467   -1.4944066  0.067404093   -2.6594467    1.1650401   313401 
 3816000     1.005565   -2.6567902   -2.6567902   -1.4944085  0.075268979   -2.6567902    1.1623817   313401 
 3817000     1.005857   -2.6565696   -2.6565696   -1.4938504   0.07126552   -2.6565696    1.1627192   313401 
 3818000    1.0069777   -2.6584034   -2.6584034   -1.4943888  0.055737591   -2.6584034    1.1640146   313401 
 3819000    1.0054835   -2.6580851   -2.6580851   -1.4957978   0.06942827   -2.6580851    1.1622874   313401 
 3820000    1.0050606   -2.6574313   -2.6574313   -1.4956327  0.067339024   -2.6574313    1.1617986   313401 
 3821000    1.0031977   -2.6558312   -2.6558312    -1.496186  0.058336099   -2.6558312    1.1596452   313401 
 3822000    1.0037834    -2.656438    -2.656438   -1.4961158  0.057666723    -2.656438    1.1603222   313401 
 3823000    1.0046335   -2.6570159   -2.6570159   -1.4957111  0.059779935   -2.6570159    1.1613048   313401 
 3824000    1.0034627   -2.6559882   -2.6559882   -1.4960367  0.054093463   -2.6559882    1.1599515   313401 
 3825000    1.0020485   -2.6547364   -2.6547364   -1.4964197  0.063706811   -2.6547364    1.1583167   313401 
 3826000    1.0039249   -2.6564941   -2.6564941   -1.4960084  0.058193348   -2.6564941    1.1604857   313401 
 3827000    1.0056875   -2.6558326   -2.6558326   -1.4933094  0.058092191   -2.6558326    1.1625232   313401 
 3828000    1.0066559   -2.6568859   -2.6568859   -1.4932433  0.066980083   -2.6568859    1.1636426   313401 
 3829000    1.0069464   -2.6585466   -2.6585466   -1.4945682  0.062370136   -2.6585466    1.1639784   313401 
 3830000    1.0065764   -2.6593966   -2.6593966   -1.4958459  0.060083257   -2.6593966    1.1635507   313401 
 3831000     1.005179   -2.6572316   -2.6572316   -1.4952961  0.071653279   -2.6572316    1.1619355   313401 
 3832000    1.0054728   -2.6571203   -2.6571203   -1.4948453  0.074070683   -2.6571203    1.1622751   313401 
 3833000    1.0078012   -2.6586975   -2.6586975   -1.4937308  0.071845433   -2.6586975    1.1649666   313401 
 3834000    1.0075559   -2.6577336   -2.6577336   -1.4930506  0.068344935   -2.6577336    1.1646831   313401 
 3835000    1.0065815   -2.6566462   -2.6566462   -1.4930896  0.061236342   -2.6566462    1.1635566   313401 
 3836000    1.0061433   -2.6563189   -2.6563189   -1.4932688  0.084347735   -2.6563189    1.1630501   313401 
 3837000    1.0081267   -2.6576381   -2.6576381   -1.4922953  0.062704354   -2.6576381    1.1653428   313401 
 3838000    1.0071285   -2.6574366   -2.6574366   -1.4932476  0.075312453   -2.6574366     1.164189   313401 
 3839000    1.0074992   -2.6573304   -2.6573304   -1.4927129  0.070701763   -2.6573304    1.1646175   313401 
 3840000     1.010209   -2.6604486   -2.6604486   -1.4926988  0.060336211   -2.6604486    1.1677499   313401 
 3841000    1.0079817   -2.6583788   -2.6583788   -1.4932035  0.070902175   -2.6583788    1.1651753   313401 
 3842000    1.0075275   -2.6582594   -2.6582594   -1.4936091  0.077343817   -2.6582594    1.1646502   313401 
 3843000     1.007405   -2.6587408   -2.6587408   -1.4942322  0.064964034   -2.6587408    1.1645086   313401 
 3844000    1.0078581   -2.6595173   -2.6595173    -1.494485  0.051825174   -2.6595173    1.1650324   313401 
 3845000      1.00598   -2.6579974   -2.6579974   -1.4951361  0.059953213   -2.6579974    1.1628613   313401 
 3846000    1.0056062   -2.6582048   -2.6582048   -1.4957755  0.057884899   -2.6582048    1.1624292   313401 
 3847000    1.0046067    -2.656929    -2.656929   -1.4956552  0.057028832    -2.656929    1.1612738   313401 
 3848000    1.0058875   -2.6581396   -2.6581396   -1.4953851  0.065758132   -2.6581396    1.1627544   313401 
 3849000    1.0045953   -2.6575456   -2.6575456   -1.4962848   0.07232443   -2.6575456    1.1612607   313401 
 3850000    1.0060953   -2.6601178   -2.6601178   -1.4971232  0.071044405   -2.6601178    1.1629946   313401 
 3851000    1.0051662   -2.6585826   -2.6585826   -1.4966619  0.054947069   -2.6585826    1.1619207   313401 
 3852000    1.0049647   -2.6580083   -2.6580083   -1.4963206  0.063286747   -2.6580083    1.1616877   313401 
 3853000    1.0039774   -2.6568282   -2.6568282   -1.4962817  0.071327105   -2.6568282    1.1605465   313401 
 3854000    1.0051841   -2.6577259   -2.6577259   -1.4957845  0.055483855   -2.6577259    1.1619414   313401 
 3855000    1.0034436   -2.6555279   -2.6555279   -1.4955985  0.088933507   -2.6555279    1.1599294   313401 
 3856000    1.0054105   -2.6576586   -2.6576586   -1.4954556  0.063905789   -2.6576586     1.162203   313401 
 3857000    1.0073477   -2.6591705   -2.6591705   -1.4947281  0.064353932   -2.6591705    1.1644424   313401 
 3858000    1.0069298   -2.6594878   -2.6594878   -1.4955285  0.072722488   -2.6594878    1.1639593   313401 
 3859000    1.0069705   -2.6594825   -2.6594825   -1.4954761   0.07398009   -2.6594825    1.1640063   313401 
 3860000      1.00592   -2.6582072   -2.6582072   -1.4954153  0.067012483   -2.6582072    1.1627919   313401 
 3861000    1.0045465   -2.6566746   -2.6566746   -1.4954703  0.067520073   -2.6566746    1.1612042   313401 
 3862000    1.0078905   -2.6597188   -2.6597188    -1.494649  0.069314321   -2.6597188    1.1650698   313401 
 3863000    1.0053993   -2.6566894   -2.6566894   -1.4944993   0.06605504   -2.6566894    1.1621901   313401 
 3864000    1.0067169   -2.6587357   -2.6587357   -1.4950226  0.069579503   -2.6587357    1.1637132   313401 
 3865000    1.0059723    -2.658307    -2.658307   -1.4954545  0.057267632    -2.658307    1.1628524   313401 
 3866000    1.0042265   -2.6579105   -2.6579105   -1.4970761  0.066177993   -2.6579105    1.1608343   313401 
 3867000    1.0069718   -2.6600786   -2.6600786   -1.4960708  0.071091495   -2.6600786    1.1640078   313401 
 3868000    1.0054957   -2.6585329   -2.6585329   -1.4962313  0.073501647   -2.6585329    1.1623016   313401 
 3869000    1.0043986   -2.6578441   -2.6578441   -1.4968108  0.063117206   -2.6578441    1.1610333   313401 
 3870000    1.0073706   -2.6602632   -2.6602632   -1.4957944  0.068271693   -2.6602632    1.1644688   313401 
 3871000    1.0081405   -2.6614601   -2.6614601   -1.4961013  0.067440818   -2.6614601    1.1653588   313401 
 3872000    1.0053262   -2.6583416   -2.6583416    -1.496236  0.065543002   -2.6583416    1.1621055   313401 
 3873000     1.004499   -2.6584538   -2.6584538   -1.4973044  0.063906044   -2.6584538    1.1611493   313401 
 3874000     1.006217   -2.6595598   -2.6595598   -1.4964244  0.072618427   -2.6595598    1.1631353   313401 
 3875000     1.004553   -2.6585055   -2.6585055   -1.4972937  0.066834248   -2.6585055    1.1612118   313401 
 3876000    1.0065293   -2.6606879   -2.6606879   -1.4971916  0.072560231   -2.6606879    1.1634963   313401 
 3877000    1.0047289   -2.6575857   -2.6575857   -1.4961705  0.061582751   -2.6575857    1.1614152   313401 
 3878000    1.0068129    -2.659794    -2.659794     -1.49597  0.074505714    -2.659794    1.1638241   313401 
 3879000    1.0038372   -2.6580483   -2.6580483   -1.4976639  0.070367568   -2.6580483    1.1603843   313401 
 3880000    1.0055847   -2.6581033   -2.6581033   -1.4956989  0.064080009   -2.6581033    1.1624044   313401 
 3881000     1.006144   -2.6582684   -2.6582684   -1.4952175  0.061070665   -2.6582684     1.163051   313401 
 3882000    1.0074392   -2.6595987   -2.6595987   -1.4950507   0.05863208   -2.6595987     1.164548   313401 
 3883000    1.0055034   -2.6577216   -2.6577216   -1.4954112  0.079888655   -2.6577216    1.1623104   313401 
 3884000        1.006    -2.659351    -2.659351   -1.4964666  0.074572161    -2.659351    1.1628844   313401 
 3885000    1.0064688   -2.6607031   -2.6607031   -1.4972766  0.074963105   -2.6607031    1.1634264   313401 
 3886000    1.0057221   -2.6586828   -2.6586828   -1.4961196  0.071595644   -2.6586828    1.1625633   313401 
 3887000    1.0050435    -2.658119    -2.658119   -1.4963402  0.071383294    -2.658119    1.1617788   313401 
 3888000     1.005898   -2.6582799   -2.6582799   -1.4955133  0.068621966   -2.6582799    1.1627666   313401 
 3889000    1.0079899    -2.660015    -2.660015   -1.4948303  0.059978391    -2.660015    1.1651846   313401 
 3890000    1.0061602   -2.6579532   -2.6579532   -1.4948835  0.061131757   -2.6579532    1.1630697   313401 
 3891000    1.0045556   -2.6561975   -2.6561975   -1.4949827  0.059529029   -2.6561975    1.1612148   313401 
 3892000       1.0035   -2.6564644   -2.6564644   -1.4964698  0.064880449   -2.6564644    1.1599946   313401 
 3893000    1.0035451   -2.6566959   -2.6566959   -1.4966492   0.05977004   -2.6566959    1.1600468   313401 
 3894000    1.0045695   -2.6561612   -2.6561612   -1.4949303  0.065210466   -2.6561612    1.1612309   313401 
 3895000    1.0041948   -2.6565234   -2.6565234   -1.4957257  0.066307437   -2.6565234    1.1607977   313401 
 3896000     1.001809   -2.6542219   -2.6542219    -1.496182  0.063077933   -2.6542219    1.1580399   313401 
 3897000     1.004203   -2.6555722   -2.6555722   -1.4947651  0.071271811   -2.6555722    1.1608072   313401 
 3898000    1.0031639   -2.6550748   -2.6550748   -1.4954687  0.069703815   -2.6550748    1.1596061   313401 
 3899000     1.004142   -2.6567063   -2.6567063   -1.4959695  0.072586038   -2.6567063    1.1607367   313401 
 3900000    1.0035947   -2.6563375   -2.6563375   -1.4962334  0.066073429   -2.6563375    1.1601041   313401 
 3901000    1.0028404   -2.6555415   -2.6555415   -1.4963094  0.057401768   -2.6555415    1.1592321   313401 
 3902000    1.0043102   -2.6558428   -2.6558428   -1.4949117  0.064648829   -2.6558428    1.1609311   313401 
 3903000    1.0034951   -2.6552429   -2.6552429    -1.495254  0.059648999   -2.6552429    1.1599889   313401 
 3904000    1.0046004   -2.6553342   -2.6553342   -1.4940676   0.07601365   -2.6553342    1.1612666   313401 
 3905000    1.0063225   -2.6560627   -2.6560627   -1.4928055  0.074756642   -2.6560627    1.1632572   313401 
 3906000    1.0069472   -2.6573965   -2.6573965   -1.4934171  0.059077259   -2.6573965    1.1639793   313401 
 3907000    1.0082689   -2.6589851   -2.6589851   -1.4934779  0.068668753   -2.6589851    1.1655071   313401 
 3908000    1.0078384   -2.6595503   -2.6595503   -1.4945407  0.063289795   -2.6595503    1.1650096   313401 
 3909000    1.0057823   -2.6566085   -2.6566085   -1.4939757  0.073502906   -2.6566085    1.1626328   313401 
 3910000    1.0060199   -2.6572316   -2.6572316   -1.4943242  0.066692812   -2.6572316    1.1629074   313401 
 3911000    1.0046512   -2.6550653   -2.6550653   -1.4937401  0.083695505   -2.6550653    1.1613253   313401 
 3912000    1.0037759   -2.6550966   -2.6550966   -1.4947831  0.062731746   -2.6550966    1.1603135   313401 
 3913000    1.0061499   -2.6574768   -2.6574768   -1.4944191   0.06387243   -2.6574768    1.1630578   313401 
 3914000    1.0064027   -2.6586498   -2.6586498   -1.4952999  0.067550942   -2.6586498    1.1633499   313401 
 3915000    1.0049443   -2.6582646   -2.6582646   -1.4966005  0.057489281   -2.6582646    1.1616642   313401 
 3916000     1.005695   -2.6590872   -2.6590872   -1.4965553  0.069601474   -2.6590872    1.1625319   313401 
 3917000    1.0049046   -2.6578823   -2.6578823   -1.4962641  0.061678715   -2.6578823    1.1616182   313401 
 3918000    1.0035333   -2.6553819   -2.6553819   -1.4953488   0.07818954   -2.6553819    1.1600331   313401 
 3919000    1.0039178   -2.6571461   -2.6571461   -1.4966685  0.059364889   -2.6571461    1.1604775   313401 
 3920000     1.002931    -2.655766    -2.655766   -1.4964291   0.06246124    -2.655766    1.1593369   313401 
 3921000    1.0052587   -2.6584373   -2.6584373   -1.4964098  0.061323963   -2.6584373    1.1620275   313401 
 3922000    1.0054062   -2.6590371   -2.6590371    -1.496839  0.060125609   -2.6590371    1.1621981   313401 
 3923000    1.0048491    -2.658573    -2.658573   -1.4970189  0.069903003    -2.658573    1.1615541   313401 
 3924000    1.0051632   -2.6597704   -2.6597704   -1.4978532  0.069291516   -2.6597704    1.1619172   313401 
 3925000    1.0041229   -2.6594269   -2.6594269   -1.4987123  0.061599311   -2.6594269    1.1607146   313401 
 3926000    1.0064616   -2.6594167   -2.6594167   -1.4959987  0.077640521   -2.6594167     1.163418   313401 
 3927000    1.0065006   -2.6590713   -2.6590713   -1.4956081  0.059149811   -2.6590713    1.1634632   313401 
 3928000    1.0072853   -2.6595236   -2.6595236   -1.4951535  0.064244936   -2.6595236    1.1643702   313401 
 3929000    1.0078436   -2.6606751   -2.6606751   -1.4956595  0.075905716   -2.6606751    1.1650156   313401 
 3930000    1.0055114   -2.6581371   -2.6581371   -1.4958174  0.074429051   -2.6581371    1.1623197   313401 
 3931000    1.0080717   -2.6592241   -2.6592241   -1.4939449  0.064593371   -2.6592241    1.1652792   313401 
 3932000    1.0083461   -2.6581449   -2.6581449   -1.4925485  0.058781523   -2.6581449    1.1655965   313401 
 3933000    1.0063345   -2.6575474   -2.6575474   -1.4942763  0.072005961   -2.6575474    1.1632711   313401 
 3934000    1.0062348   -2.6582126   -2.6582126   -1.4950567  0.062094031   -2.6582126    1.1631559   313401 
 3935000    1.0061551   -2.6574822   -2.6574822   -1.4944184  0.078801211   -2.6574822    1.1630638   313401 
 3936000    1.0066748   -2.6582361   -2.6582361   -1.4945716  0.068082241   -2.6582361    1.1636645   313401 
 3937000     1.005329   -2.6573709   -2.6573709   -1.4952621  0.075720185   -2.6573709    1.1621088   313401 
 3938000    1.0061183   -2.6577426   -2.6577426   -1.4947213  0.050881331   -2.6577426    1.1630213   313401 
 3939000     1.005354   -2.6558795   -2.6558795   -1.4937417  0.065046894   -2.6558795    1.1621377   313401 
 3940000    1.0038132    -2.654043    -2.654043   -1.4936863   0.07587081    -2.654043    1.1603567   313401 
 3941000    1.0043109   -2.6534351   -2.6534351   -1.4925032  0.067192646   -2.6534351    1.1609319   313401 
 3942000    1.0047982   -2.6546507   -2.6546507   -1.4931555   0.05499059   -2.6546507    1.1614952   313401 
 3943000    1.0056348   -2.6551961   -2.6551961   -1.4927337  0.061365865   -2.6551961    1.1624624   313401 
 3944000    1.0085808   -2.6591521   -2.6591521   -1.4932844  0.063948731   -2.6591521    1.1658677   313401 
 3945000    1.0059229   -2.6564812   -2.6564812   -1.4936859  0.061078187   -2.6564812    1.1627953   313401 
 3946000    1.0052781   -2.6549122   -2.6549122   -1.4928623  0.067280979   -2.6549122      1.16205   313401 
 3947000    1.0043821   -2.6535767   -2.6535767   -1.4925624    0.0586083   -2.6535767    1.1610142   313401 
 3948000    1.0031192   -2.6532107   -2.6532107   -1.4936563  0.069523465   -2.6532107    1.1595543   313401 
 3949000     1.006881   -2.6581816   -2.6581816   -1.4942787  0.057027697   -2.6581816    1.1639029   313401 
 3950000    1.0032109   -2.6535195   -2.6535195   -1.4938592  0.072709047   -2.6535195    1.1596604   313401 
 3951000     1.005883   -2.6568931   -2.6568931   -1.4941438  0.056378157   -2.6568931    1.1627492   313401 
 3952000    1.0043979   -2.6555023   -2.6555023   -1.4944698  0.069522624   -2.6555023    1.1610325   313401 
 3953000     1.005562   -2.6549454   -2.6549454   -1.4925672  0.070213583   -2.6549454    1.1623782   313401 
 3954000    1.0060868   -2.6570879   -2.6570879   -1.4941032  0.066859448   -2.6570879    1.1629847   313401 
 3955000    1.0054455   -2.6567963   -2.6567963   -1.4945527  0.068812005   -2.6567963    1.1622435   313401 
 3956000    1.0060805   -2.6580208   -2.6580208   -1.4950434  0.073851837   -2.6580208    1.1629775   313401 
 3957000    1.0046711   -2.6570339   -2.6570339   -1.4956855  0.059920057   -2.6570339    1.1613484   313401 
 3958000    1.0027544   -2.6537795   -2.6537795   -1.4946468   0.06022407   -2.6537795    1.1591327   313401 
 3959000    1.0073989   -2.6594537   -2.6594537   -1.4949522  0.049379677   -2.6594537    1.1645015   313401 
 3960000    1.0079155   -2.6594045   -2.6594045   -1.4943058  0.058996376   -2.6594045    1.1650987   313401 
 3961000    1.0064081   -2.6581024   -2.6581024   -1.4947463  0.064034131   -2.6581024    1.1633562   313401 
 3962000    1.0050998   -2.6565906   -2.6565906   -1.4947468  0.072960305   -2.6565906    1.1618439   313401 
 3963000     1.006944   -2.6597453   -2.6597453   -1.4957696  0.060275464   -2.6597453    1.1639756   313401 
 3964000    1.0073158   -2.6606803   -2.6606803   -1.4962748  0.061268621   -2.6606803    1.1644055   313401 
 3965000     1.008195   -2.6605163   -2.6605163   -1.4950945  0.073009396   -2.6605163    1.1654218   313401 
 3966000    1.0093956   -2.6609315   -2.6609315   -1.4941219  0.067653564   -2.6609315    1.1668096   313401 
 3967000    1.0085214   -2.6604237   -2.6604237   -1.4946246  0.077178503   -2.6604237    1.1657991   313401 
 3968000    1.0086486   -2.6593673   -2.6593673   -1.4934212  0.076411522   -2.6593673    1.1659461   313401 
 3969000    1.0057822   -2.6567236   -2.6567236   -1.4940909  0.073108938   -2.6567236    1.1626327   313401 
 3970000    1.0081686   -2.6599528   -2.6599528   -1.4945616  0.070399085   -2.6599528    1.1653912   313401 
 3971000    1.0049048   -2.6565153   -2.6565153   -1.4948969   0.06400812   -2.6565153    1.1616184   313401 
 3972000    1.0037089   -2.6559091   -2.6559091    -1.495673   0.06023783   -2.6559091    1.1602361   313401 
 3973000    1.0059057   -2.6583856   -2.6583856   -1.4956102  0.071222417   -2.6583856    1.1627754   313401 
 3974000     1.005556   -2.6596669   -2.6596669   -1.4972957   0.06245089   -2.6596669    1.1623712   313401 
 3975000    1.0060576   -2.6602171   -2.6602171   -1.4972661  0.068346771   -2.6602171     1.162951   313401 
 3976000    1.0044102    -2.657083    -2.657083   -1.4960363  0.070199399    -2.657083    1.1610468   313401 
 3977000    1.0049879   -2.6570751   -2.6570751   -1.4953605  0.056771462   -2.6570751    1.1617145   313401 
 3978000    1.0049422    -2.657205    -2.657205   -1.4955432  0.067778496    -2.657205    1.1616617   313401 
 3979000    1.0057802    -2.659171    -2.659171   -1.4965407  0.059126323    -2.659171    1.1626304   313401 
 3980000    1.0035996   -2.6553159   -2.6553159   -1.4952062  0.066993857   -2.6553159    1.1601097   313401 
 3981000    1.0029848   -2.6533691   -2.6533691     -1.49397  0.067392644   -2.6533691    1.1593991   313401 
 3982000    1.0040208   -2.6531713   -2.6531713   -1.4925747   0.06440162   -2.6531713    1.1605966   313401 
 3983000    1.0041781   -2.6535832   -2.6535832   -1.4928047  0.058062183   -2.6535832    1.1607785   313401 
 3984000    1.0044328    -2.654789    -2.654789   -1.4937162  0.074552552    -2.654789    1.1610728   313401 
 3985000    1.0044885   -2.6549696   -2.6549696   -1.4938324  0.055753428   -2.6549696    1.1611372   313401 
 3986000    1.0045221   -2.6535892   -2.6535892   -1.4924132  0.067192549   -2.6535892    1.1611761   313401 
 3987000    1.0031974   -2.6528947   -2.6528947   -1.4932498  0.064497103   -2.6528947    1.1596448   313401 
 3988000      1.00443   -2.6545274   -2.6545274   -1.4934578  0.070012294   -2.6545274    1.1610696   313401 
 3989000    1.0063213   -2.6573368   -2.6573368    -1.494081  0.074002717   -2.6573368    1.1632558   313401 
 3990000    1.0049828   -2.6565455   -2.6565455   -1.4948369  0.065154891   -2.6565455    1.1617087   313401 
 3991000     1.005685   -2.6555945   -2.6555945   -1.4930742  0.064514446   -2.6555945    1.1625203   313401 
 3992000    1.0078293   -2.6575791   -2.6575791   -1.4925801  0.071078579   -2.6575791     1.164999   313401 
 3993000    1.0070676   -2.6573746   -2.6573746   -1.4932561  0.064561152   -2.6573746    1.1641185   313401 
 3994000    1.0074704   -2.6593455   -2.6593455   -1.4947613  0.070043188   -2.6593455    1.1645841   313401 
 3995000     1.005726   -2.6568757   -2.6568757    -1.494308  0.071043364   -2.6568757    1.1625678   313401 
 3996000    1.0073249   -2.6576623   -2.6576623   -1.4932463  0.068070528   -2.6576623     1.164416   313401 
 3997000    1.0071971   -2.6585718   -2.6585718   -1.4943035  0.064635614   -2.6585718    1.1642682   313401 
 3998000    1.0072471   -2.6586096   -2.6586096   -1.4942835  0.077480075   -2.6586096    1.1643261   313401 
 3999000    1.0066528    -2.659113    -2.659113    -1.495474  0.065612025    -2.659113     1.163639   313401 
 4000000    1.0050887    -2.657569    -2.657569   -1.4957379  0.062252487    -2.657569    1.1618311   313401 
Loop time of 9912.07 on 96 procs for 4000000 steps with 313401 atoms

Performance: 174332.942 tau/day, 403.548 timesteps/s
99.3% CPU use with 96 MPI tasks x 1 OpenMP threads

MPI task timing breakdown:
Section |  min time  |  avg time  |  max time  |%varavg|  %CPU | %total
-----------------------------------------------------------------------
Pair    | 2085.3     | 3069.1     | 3823.7     | 782.9 |  99.1 | 30.96
Bond    | 2.683      | 2.825      | 2.9902     |   3.5 | 100.0 |  0.03
Neigh   | 1590.8     | 2563.1     | 3301.3     | 738.9 |  99.6 | 25.86
Comm    | 1945.7     | 2750.7     | 4360.2     |1145.5 |  99.2 | 27.75
Output  | 82.326     | 82.714     | 84.06      |   5.7 |  98.4 |  0.83
Modify  | 1022.7     | 1338.3     | 1758.6     | 522.4 |  99.4 | 13.50
Other   |            | 105.3      |            |       |       |  1.06

Nlocal:        3264.59 ave        4066 max        2687 min
Histogram: 5 7 15 23 18 9 10 5 2 2
Nghost:        6020.12 ave        9173 max        3455 min
Histogram: 9 12 5 8 20 14 15 4 7 2
Neighs:        72743.0 ave       96490 max       43357 min
Histogram: 7 3 5 9 14 13 21 9 5 10

Total # of neighbors = 6983326
Ave neighs/atom = 22.282399
Ave special neighs/atom = 0.0000000
Neighbor list builds = 400000
Dangerous builds = 396000

Total wall time: 2:45:14
