LAMMPS (29 Oct 2020)
  using 1 OpenMP thread(s) per MPI task
# Simple rigid body system
# needed variables: startTemp, temp

units		lj
atom_style	full
dimension 	3
boundary	p p f
pair_style	lj/smooth 2.5 3.0



variable 	sigma		equal 1.0
variable 	epsilon 	equal 1.0


region		box block 0 160 0 160 0 160
create_box 	3 box
Created orthogonal box = (0.0000000 0.0000000 0.0000000) to (160.00000 160.00000 160.00000)
  4 by 4 by 8 MPI processor grid
lattice 	sc 1.0
Lattice spacing in x,y,z = 1.0000000 1.0000000 1.0000000

create_atoms 	1 region box
Created 4096000 atoms
  create_atoms CPU = 0.147 seconds

mass		1 1.0
mass		2 1.0
mass		3 1.0


group		solvent type 1
4096000 atoms in group solvent


velocity 	solvent create ${startTemp} 563435 loop geom
velocity 	solvent create 0.5 563435 loop geom

read_data	data.vac add append
Reading data file ...
  orthogonal box = (0.0000000 0.0000000 0.0000000) to (160.00000 160.00000 320.00000)
  4 by 4 by 8 MPI processor grid
Finding 1-2 1-3 1-4 neighbors ...
  special bond factors lj:    0.0      0.0      0.0     
  special bond factors coul:  0.0      0.0      0.0     
     0 = max # of 1-2 neighbors
     0 = max # of 1-3 neighbors
     0 = max # of 1-4 neighbors
     1 = max # of special neighbors
  special bonds CPU = 1.738 seconds
  read_data CPU = 1.793 seconds

neighbor 	0.4 bin

pair_coeff	1 1 1.0 1.0
pair_coeff	2 2 0.0 0.0
pair_coeff	3 3 0.0 0.0
pair_coeff	2 3 0.0 0.0
pair_coeff	1 2*3 0.0 0.0

#pair_modify 	shift yes

pair_write      1 1 1000 r 1.0 3.1 pair.txt LJ
Creating table file pair.txt with DATE: 2021-05-17
Neighbor list info ...
  update every 1 steps, delay 10 steps, check yes
  max neighbors/atom: 2000, page size: 100000
  master list distance cutoff = 3.4
  ghost atom cutoff = 3.4
  binsize = 1.7, bins = 95 95 189
  1 neighbor lists, perpetual/occasional/extra = 1 0 0
  (1) pair lj/smooth, perpetual
      attributes: half, newton on
      pair build: half/bin/newton
      stencil: half/bin/3d/newton
      bin: standard

balance 	1.05 shift z 10 1.05
Balancing ...
 rebalancing time: 0.064 seconds
  iteration count = 5
  initial/final maximal load/proc = 64000.000 40000.000
  initial/final imbalance factor  = 2.0000000 1.2500000
  x cuts: 0.0000000 0.25 0.5 0.75 1.0000000
  y cuts: 0.0000000 0.25 0.5 0.75 1.0000000
  z cuts: 0.0000000 0.0625 0.12890625 0.1875 0.2578125 0.30859375 0.38671875 0.4375 1.0000000


####################### WALLS ###########################


region	       low block  EDGE EDGE EDGE EDGE 0 2

region 	       top block  EDGE EDGE EDGE EDGE 159 160


delete_atoms   region low
WARNING: Ignoring 'compress yes' for molecular system (src/delete_atoms.cpp:125)
Deleted 76800 atoms, new total = 4019200

delete_atoms   region top
WARNING: Ignoring 'compress yes' for molecular system (src/delete_atoms.cpp:125)
Deleted 25600 atoms, new total = 3993600


variable       epsilonWall equal 2*${epsilon}
variable       epsilonWall equal 2*1

variable       cutoffTop   equal   0.7147*${sigma}
variable       cutoffTop   equal   0.7147*1

variable       cutoffLow   equal   3*${sigma}
variable       cutoffLow   equal   3*1


fix            topWall all wall/lj93 zhi EDGE                ${epsilonWall} ${sigma} ${cutoffTop} units box
fix            topWall all wall/lj93 zhi EDGE                2 ${sigma} ${cutoffTop} units box
fix            topWall all wall/lj93 zhi EDGE                2 1 ${cutoffTop} units box
fix            topWall all wall/lj93 zhi EDGE                2 1 0.7147 units box

fix            lowWall all wall/lj93 zlo EDGE                ${epsilonWall} ${sigma} ${cutoffLow} units box
fix            lowWall all wall/lj93 zlo EDGE                2 ${sigma} ${cutoffLow} units box
fix            lowWall all wall/lj93 zlo EDGE                2 1 ${cutoffLow} units box
fix            lowWall all wall/lj93 zlo EDGE                2 1 3 units box


###################### COMPUTES ##########################

compute        bin1 solvent chunk/atom bin/1d z upper 1.0



######################	FIXES ############################


fix 		peclet solvent ave/chunk 1000 1 1000 bin1 density/number norm 		 none ave one file density.profile

fix 		2 solvent nve

## Thermostat


region		regthermo block EDGE EDGE EDGE EDGE 0 20

group 		thermo dynamic solvent region regthermo every 1000
dynamic group thermo defined

fix 		3 thermo langevin ${startTemp} ${temp} 10 156453
fix 		3 thermo langevin 0.5 ${temp} 10 156453
fix 		3 thermo langevin 0.5 .7 10 156453



#### Load balancing


fix 		bal all balance 1000 1.05 shift z 10 1.05


############### Diagnostics and computes ###################
#compute 	com cube	  rigid/local	1 mol x y z
#compute 	quat cube	  rigid/local	1 mol quatw quati quatj quatk

thermo 		1000
thermo_style 	custom step temp epair evdwl etotal press pe ke vol

dump		1 all custom 100000 dump.lammpstrj id mol type x y z
dump 		2 all image 10000 image.*.png type type
dump 		3 all movie 1000 movie.avi type type
#dump 		com cube local 1000 dump.*.xyz c_com[*]
#dump		quat cube      local 1000 dump.*.quat c_quat[*]


restart 	500000 restart.dat
timestep 	0.0025
timer 		full
New timer settings: style=full  mode=nosync  timeout=off


run		1000000
Setting up Verlet run ...
  Unit style    : lj
  Current step  : 0
  Time step     : 0.0025
Per MPI rank memory allocation (min/avg/max) = 36.03 | 43.52 | 46.55 Mbytes
Step Temp E_pair E_vdwl TotEng Press PotEng KinEng Volume 
       0   0.49997217   -4.0610799   -4.0610799   -3.3111218    8.4300091   -4.0610799   0.74995807      8192000 
    1000     1.407308   -5.5136382   -5.5136382   -3.4026767      4.66803   -5.5136382    2.1109615      8192000 
    2000     1.400849   -5.5592479   -5.5592479   -3.4579748    3.9535682   -5.5592479     2.101273      8192000 
    3000    1.3946011   -5.6026991   -5.6026991    -3.510798    3.2579196   -5.6026991    2.0919011      8192000 
    4000    1.3609305   -5.5990822   -5.5990822   -3.5576869    2.7146562   -5.5990822    2.0413953      8192000 
    5000    1.3214774   -5.5809123   -5.5809123   -3.5986967    2.2549054   -5.5809123    1.9822157      8192000 
    6000    1.2989721   -5.5812046   -5.5812046   -3.6327469     1.753974   -5.5812046    1.9484577      8192000 
    7000    1.2890828   -5.5888073   -5.5888073   -3.6551835     1.218943   -5.5888073    1.9336238      8192000 
    8000    1.2724299   -5.5733992   -5.5733992   -3.6647549      0.73657   -5.5733992    1.9086443      8192000 
    9000    1.2443024    -5.531351    -5.531351   -3.6648979   0.34593677    -5.531351    1.8664531      8192000 
   10000    1.2063718   -5.4689859   -5.4689859   -3.6594286  0.058894362   -5.4689859    1.8095573      8192000 
   11000    1.1660864   -5.4000911   -5.4000911    -3.650962   -0.1368093   -5.4000911    1.7491292      8192000 
   12000    1.1298587   -5.3362944   -5.3362944   -3.6415068  -0.25522809   -5.3362944    1.6947877      8192000 
   13000    1.1059696   -5.2918331   -5.2918331   -3.6328791  -0.27819175   -5.2918331     1.658954      8192000 
   14000    1.1050805   -5.2851553   -5.2851553    -3.627535  -0.20604389   -5.2851553    1.6576203      8192000 
   15000    1.1141403   -5.2965917   -5.2965917   -3.6253818 -0.099983797   -5.2965917      1.67121      8192000 
   16000    1.1233822   -5.3108109   -5.3108109    -3.625738 -0.012804806   -5.3108109    1.6850729      8192000 
   17000     1.130246   -5.3236402   -5.3236402   -3.6282716  0.047034721   -5.3236402    1.6953685      8192000 
   18000    1.1335632   -5.3320511   -5.3320511   -3.6317067  0.072387692   -5.3320511    1.7003444      8192000 
   19000    1.1333677   -5.3353936   -5.3353936   -3.6353425   0.08349081   -5.3353936    1.7000511      8192000 
   20000    1.1332446   -5.3389825   -5.3389825   -3.6391161  0.097074345   -5.3389825    1.6998664      8192000 
   21000      1.13181   -5.3401779   -5.3401779   -3.6424633   0.10562774   -5.3401779    1.6977146      8192000 
   22000    1.1312677   -5.3425301   -5.3425301    -3.645629    0.1083616   -5.3425301    1.6969011      8192000 
   23000    1.1311789   -5.3454809   -5.3454809    -3.648713   0.11134702   -5.3454809    1.6967679      8192000 
   24000    1.1328566   -5.3512255   -5.3512255   -3.6519411   0.11961888   -5.3512255    1.6992844      8192000 
   25000    1.1355856   -5.3587212   -5.3587212   -3.6553433   0.14505219   -5.3587212     1.703378      8192000 
   26000    1.1390431   -5.3671739   -5.3671739   -3.6586097   0.17054784   -5.3671739    1.7085642      8192000 
   27000    1.1410883   -5.3733234   -5.3733234   -3.6616914   0.18609824   -5.3733234     1.711632      8192000 
   28000    1.1415651   -5.3767733   -5.3767733   -3.6644261   0.19202131   -5.3767733    1.7123472      8192000 
   29000    1.1421238   -5.3799023   -5.3799023    -3.666717   0.19174389   -5.3799023    1.7131853      8192000 
   30000    1.1414638   -5.3810277   -5.3810277   -3.6688324   0.19537631   -5.3810277    1.7121953      8192000 
   31000    1.1406121   -5.3816978   -5.3816978   -3.6707801   0.19541018   -5.3816978    1.7109177      8192000 
   32000    1.1402467   -5.3829733   -5.3829733   -3.6726037   0.19555395   -5.3829733    1.7103696      8192000 
   33000    1.1395159   -5.3839365   -5.3839365   -3.6746631   0.19470836   -5.3839365    1.7092734      8192000 
   34000     1.138791   -5.3845185   -5.3845185   -3.6763325   0.19242517   -5.3845185     1.708186      8192000 
   35000    1.1383896   -5.3857675   -5.3857675   -3.6781834    0.1911083   -5.3857675     1.707584      8192000 
   36000    1.1378034   -5.3867513   -5.3867513   -3.6800466   0.19279434   -5.3867513    1.7067047      8192000 
   37000    1.1373376   -5.3876096   -5.3876096   -3.6816037   0.19259424   -5.3876096    1.7060059      8192000 
   38000    1.1373271   -5.3893583   -5.3893583    -3.683368   0.19385428   -5.3893583    1.7059902      8192000 
   39000    1.1369166   -5.3906029   -5.3906029   -3.6852284   0.19533543   -5.3906029    1.7053745      8192000 
   40000    1.1372451   -5.3931051   -5.3931051   -3.6872378   0.19813908   -5.3931051    1.7058672      8192000 
   41000    1.1369946   -5.3945027   -5.3945027   -3.6890113   0.20069174   -5.3945027    1.7054915      8192000 
   42000    1.1366073   -5.3957848   -5.3957848   -3.6908743   0.20163736   -5.3957848    1.7049105      8192000 
   43000    1.1365181   -5.3974487   -5.3974487    -3.692672   0.20379203   -5.3974487    1.7047767      8192000 
   44000     1.136362   -5.3988789   -5.3988789   -3.6943364   0.20660564   -5.3988789    1.7045425      8192000 
   45000     1.135817   -5.4000077   -5.4000077   -3.6962826     0.206255   -5.4000077    1.7037251      8192000 
   46000     1.136782   -5.4043784   -5.4043784   -3.6992058   0.23614338   -5.4043784    1.7051726      8192000 
   47000    1.1392673   -5.4163569   -5.4163569   -3.7074563   0.50922091   -5.4163569    1.7089005      8192000 
   48000    1.1400628   -5.4271572   -5.4271572   -3.7170634   0.86377026   -5.4271572    1.7100938      8192000 
   49000    1.1415696   -5.4391021   -5.4391021   -3.7267482    1.2190178   -5.4391021    1.7123539      8192000 
   50000    1.1465529   -5.4562426   -5.4562426   -3.7364137    1.5549803   -5.4562426    1.7198289      8192000 
   51000    1.1508104   -5.4724428   -5.4724428   -3.7462277    1.8988074   -5.4724428    1.7262152      8192000 
   52000    1.1543764   -5.4875467   -5.4875467   -3.7559825     2.247025   -5.4875467    1.7315642      8192000 
   53000    1.1582537   -5.5006818   -5.5006818   -3.7633016     2.480448   -5.5006818    1.7373801      8192000 
   54000    1.1619106   -5.5047739   -5.5047739   -3.7619085    2.3108753   -5.5047739    1.7428654      8192000 
   55000     1.159149   -5.4961411   -5.4961411    -3.757418    2.0291674   -5.4961411     1.738723      8192000 
   56000    1.1551034   -5.4853523   -5.4853523   -3.7526976    1.7481759   -5.4853523    1.7326547      8192000 
   57000    1.1516113   -5.4759967   -5.4759967   -3.7485801     1.502187   -5.4759967    1.7274166      8192000 
   58000    1.1478286   -5.4660736   -5.4660736   -3.7443312    1.2538968   -5.4660736    1.7217425      8192000 
   59000    1.1354838   -5.4429029   -5.4429029   -3.7396776    1.0144283   -5.4429029    1.7032253      8192000 
   60000    1.1148961   -5.4079281   -5.4079281   -3.7355843   0.81223135   -5.4079281    1.6723438      8192000 
   61000    1.0904932   -5.3672152   -5.3672152   -3.7314759    0.6358308   -5.3672152    1.6357394      8192000 
   62000    1.0651597   -5.3258015   -5.3258015   -3.7280623   0.49228806   -5.3258015    1.5977391      8192000 
   63000     1.041779   -5.2878062   -5.2878062   -3.7251381   0.36526674   -5.2878062    1.5626682      8192000 
   64000    1.0188989   -5.2509664   -5.2509664   -3.7226183   0.24891908   -5.2509664     1.528348      8192000 
   65000   0.99497334   -5.2129208   -5.2129208   -3.7204611   0.15117414   -5.2129208    1.4924596      8192000 
   66000   0.97274291   -5.1776364   -5.1776364   -3.7185224  0.068241972   -5.1776364     1.459114      8192000 
   67000   0.95092317   -5.1432309   -5.1432309   -3.7168465 0.0017087016   -5.1432309    1.4263844      8192000 
   68000   0.93031716   -5.1110734   -5.1110734   -3.7155981 -0.057741646   -5.1110734    1.3954754      8192000 
   69000   0.91192084   -5.0828077   -5.0828077   -3.7149268  -0.10111732   -5.0828077    1.3678809      8192000 
   70000   0.89860597   -5.0628226   -5.0628226   -3.7149139  -0.12814634   -5.0628226    1.3479086      8192000 
   71000   0.88918682    -5.049417    -5.049417   -3.7156371  -0.13753155    -5.049417    1.3337799      8192000 
   72000   0.88556825   -5.0455217   -5.0455217   -3.7171697  -0.13465857   -5.0455217     1.328352      8192000 
   73000   0.88570725   -5.0480509   -5.0480509   -3.7194904  -0.12003201   -5.0480509    1.3285605      8192000 
   74000   0.88990277   -5.0572159   -5.0572159   -3.7223621 -0.094538395   -5.0572159    1.3348538      8192000 
   75000   0.89687639   -5.0711736   -5.0711736   -3.7258593 -0.057112762   -5.0711736    1.3453143      8192000 
   76000   0.90524315   -5.0876257   -5.0876257   -3.7297614  -0.01305067   -5.0876257    1.3578644      8192000 
   77000    0.9136428   -5.1041119   -5.1041119   -3.7336481  0.030954148   -5.1041119    1.3704638      8192000 
   78000    0.9214664   -5.1195816   -5.1195816   -3.7373824  0.069913545   -5.1195816    1.3821992      8192000 
   79000   0.92722305   -5.1319196   -5.1319196   -3.7410853   0.10790795   -5.1319196    1.3908342      8192000 
   80000   0.93134576   -5.1413671   -5.1413671   -3.7443488   0.13650108   -5.1413671    1.3970183      8192000 
   81000   0.93394865    -5.148487    -5.148487   -3.7475644   0.15459837    -5.148487    1.4009226      8192000 
   82000   0.93450474   -5.1522202   -5.1522202   -3.7504634    0.1686897   -5.1522202    1.4017568      8192000 
   83000   0.93494501   -5.1556294   -5.1556294   -3.7532122   0.17741139   -5.1556294    1.4024172      8192000 
   84000   0.93549555   -5.1589955   -5.1589955   -3.7557525   0.18339705   -5.1589955     1.403243      8192000 
   85000   0.93385072   -5.1592489   -5.1592489   -3.7584732   0.18793202   -5.1592489    1.4007757      8192000 
   86000   0.93248079   -5.1596894   -5.1596894   -3.7609685   0.18124841   -5.1596894    1.3987208      8192000 
   87000   0.92907434   -5.1569435   -5.1569435   -3.7633324   0.17218259   -5.1569435    1.3936112      8192000 
   88000   0.92524845   -5.1535624   -5.1535624     -3.76569   0.15657967   -5.1535624    1.3878723      8192000 
   89000   0.92044285   -5.1484323   -5.1484323   -3.7677683   0.13673586   -5.1484323    1.3806639      8192000 
   90000   0.91630274   -5.1442533   -5.1442533   -3.7697996   0.12295159   -5.1442533    1.3744538      8192000 
   91000   0.91244689   -5.1406707   -5.1406707   -3.7720007   0.10759581   -5.1406707      1.36867      8192000 
   92000   0.90866829   -5.1371941   -5.1371941    -3.774192  0.094054985   -5.1371941    1.3630021      8192000 
   93000   0.90530241   -5.1344318   -5.1344318   -3.7764785  0.079744975   -5.1344318    1.3579533      8192000 
   94000   0.90109035   -5.1304908   -5.1304908   -3.7788556  0.065403553   -5.1304908    1.3516352      8192000 
   95000   0.89736362   -5.1269378   -5.1269378   -3.7808927  0.052455302   -5.1269378    1.3460451      8192000 
   96000   0.89312971   -5.1226976   -5.1226976   -3.7830034  0.040190469   -5.1226976    1.3396942      8192000 
   97000   0.88978551   -5.1197016   -5.1197016   -3.7850237  0.026564821   -5.1197016    1.3346779      8192000 
   98000   0.88685176   -5.1175643   -5.1175643    -3.787287   0.01727681   -5.1175643    1.3302773      8192000 
   99000   0.88488072   -5.1168555   -5.1168555   -3.7895347  0.013436852   -5.1168555    1.3273208      8192000 
  100000   0.88397386   -5.1181542   -5.1181542   -3.7921938 0.0097669205   -5.1181542    1.3259605      8192000 
  101000   0.88379809   -5.1204158   -5.1204158    -3.794719  0.014574026   -5.1204158    1.3256968      8192000 
  102000    0.8843986     -5.12454     -5.12454   -3.7979424  0.022924221     -5.12454    1.3265976      8192000 
  103000   0.88564487    -5.129646    -5.129646   -3.8011791  0.033758468    -5.129646     1.328467      8192000 
  104000   0.88793477   -5.1362208   -5.1362208   -3.8043189  0.040710902   -5.1362208    1.3319018      8192000 
  105000   0.89006192   -5.1427045   -5.1427045   -3.8076119  0.053479145   -5.1427045    1.3350925      8192000 
  106000   0.89227309   -5.1492077   -5.1492077   -3.8107984  0.066553632   -5.1492077    1.3384093      8192000 
  107000   0.89399849   -5.1550055   -5.1550055   -3.8140081  0.078020248   -5.1550055    1.3409974      8192000 
  108000   0.89551171    -5.160214    -5.160214   -3.8169468  0.090867685    -5.160214    1.3432672      8192000 
  109000   0.89721344   -5.1657268   -5.1657268    -3.819907   0.10050077   -5.1657268    1.3458198      8192000 
  110000   0.89842112   -5.1704042   -5.1704042   -3.8227728   0.10765322   -5.1704042    1.3476313      8192000 
  111000   0.89919587   -5.1743048   -5.1743048   -3.8255113   0.11110378   -5.1743048    1.3487935      8192000 
  112000   0.89917255   -5.1766991   -5.1766991   -3.8279407   0.11415535   -5.1766991    1.3487585      8192000 
  113000   0.89820731     -5.17776     -5.17776   -3.8304494    0.1111536     -5.17776    1.3473106      8192000 
  114000   0.89634613   -5.1773573   -5.1773573   -3.8328385   0.11004869   -5.1773573    1.3445189      8192000 
  115000   0.89479158   -5.1774644   -5.1774644   -3.8352773   0.10172316   -5.1774644     1.342187      8192000 
  116000   0.89257783   -5.1761856   -5.1761856   -3.8373192   0.09384951   -5.1761856    1.3388664      8192000 
  117000   0.89060088   -5.1755483   -5.1755483   -3.8396473  0.082151252   -5.1755483     1.335901      8192000 
  118000   0.88797807   -5.1738415   -5.1738415   -3.8418748  0.073469366   -5.1738415    1.3319668      8192000 
  119000   0.88596791   -5.1730747   -5.1730747   -3.8441232  0.062699739   -5.1730747    1.3289515      8192000 
  120000   0.88397649   -5.1723969   -5.1723969   -3.8464325   0.05354824   -5.1723969    1.3259644      8192000 
  121000   0.88226924   -5.1720633   -5.1720633   -3.8486598  0.046243621   -5.1720633    1.3234035      8192000 
  122000   0.87985729   -5.1707009   -5.1707009   -3.8509153  0.043488913   -5.1707009    1.3197856      8192000 
  123000   0.87938496   -5.1724749   -5.1724749   -3.8533978  0.038666769   -5.1724749    1.3190771      8192000 
  124000   0.87911855   -5.1746717   -5.1746717   -3.8559942  0.040879287   -5.1746717    1.3186775      8192000 
  125000   0.87934165   -5.1778689   -5.1778689   -3.8588567  0.045542135   -5.1778689    1.3190121      8192000 
  126000   0.88045618   -5.1825272   -5.1825272   -3.8618432  0.053521247   -5.1825272    1.3206839      8192000 
  127000   0.88231252   -5.1882892   -5.1882892   -3.8648208  0.062619808   -5.1882892    1.3234684      8192000 
  128000   0.88385496   -5.1940463   -5.1940463   -3.8682641  0.076763349   -5.1940463    1.3257821      8192000 
  129000   0.88698611   -5.2020287   -5.2020287   -3.8715499  0.090012555   -5.2020287    1.3304788      8192000 
  130000    0.8896697   -5.2094385   -5.2094385   -3.8749343   0.10682402   -5.2094385    1.3345042      8192000 
  131000   0.89252398   -5.2172865   -5.2172865   -3.8785009   0.12313852   -5.2172865    1.3387856      8192000 
  132000   0.89562162   -5.2253924   -5.2253924   -3.8819603   0.13890667   -5.2253924    1.3434321      8192000 
  133000   0.89832296   -5.2329753   -5.2329753   -3.8854912   0.15678694   -5.2329753    1.3474841      8192000 
  134000   0.90190997   -5.2416661   -5.2416661   -3.8888015    0.1717299   -5.2416661    1.3528646      8192000 
  135000   0.90438609   -5.2489832   -5.2489832   -3.8924044   0.18944209   -5.2489832    1.3565788      8192000 
  136000   0.90784112   -5.2577819   -5.2577819   -3.8960205   0.20783624   -5.2577819    1.3617613      8192000 
  137000   0.91113111   -5.2663645   -5.2663645   -3.8996682   0.23149467   -5.2663645    1.3666963      8192000 
  138000   0.91530197   -5.2765925   -5.2765925   -3.9036399    0.2554227   -5.2765925    1.3729526      8192000 
  139000   0.91922935   -5.2868086   -5.2868086    -3.907965   0.28604377   -5.2868086    1.3788437      8192000 
  140000   0.92283357   -5.2966471   -5.2966471   -3.9123971   0.32075595   -5.2966471      1.38425      8192000 
  141000   0.92716994   -5.3082761   -5.3082761   -3.9175215   0.35643836   -5.3082761    1.3907546      8192000 
  142000   0.93180978   -5.3206806   -5.3206806   -3.9229663   0.39594074   -5.3206806    1.3977143      8192000 
  143000   0.93628857   -5.3336671   -5.3336671   -3.9292346   0.44472906   -5.3336671    1.4044325      8192000 
  144000   0.94184124   -5.3483941   -5.3483941   -3.9356325   0.50031227   -5.3483941    1.4127615      8192000 
  145000   0.94728897   -5.3629352   -5.3629352   -3.9420021   0.56285786   -5.3629352    1.4209331      8192000 
  146000   0.95325264   -5.3784389   -5.3784389   -3.9485603   0.62559681   -5.3784389    1.4298786      8192000 
  147000   0.95788913   -5.3923469   -5.3923469   -3.9555136   0.69126673   -5.3923469    1.4368333      8192000 
  148000   0.96263929   -5.4068277   -5.4068277   -3.9628691   0.74929294   -5.4068277    1.4439586      8192000 
  149000   0.96543924   -5.4179747   -5.4179747   -3.9698162   0.80153812   -5.4179747    1.4481585      8192000 
  150000   0.96728505   -5.4277988   -5.4277988   -3.9768715    0.8373639   -5.4277988    1.4509272      8192000 
  151000   0.96740918    -5.434264    -5.434264   -3.9831506   0.85345636    -5.434264    1.4511134      8192000 
  152000   0.96579706   -5.4373538   -5.4373538   -3.9886585   0.84903436   -5.4373538    1.4486952      8192000 
  153000   0.96330002   -5.4382099   -5.4382099   -3.9932603   0.82456198   -5.4382099    1.4449497      8192000 
  154000    0.9580441   -5.4342823   -5.4342823   -3.9972165   0.79278904   -5.4342823    1.4370658      8192000 
  155000   0.95188354   -5.4283627   -5.4283627   -4.0005378   0.75424793   -5.4283627    1.4278249      8192000 
  156000   0.94574718   -5.4220409   -5.4220409   -4.0034205     0.708827   -5.4220409    1.4186204      8192000 
  157000   0.93870012   -5.4141805   -5.4141805   -4.0061307   0.66257994   -5.4141805    1.4080498      8192000 
  158000   0.93244113    -5.407259    -5.407259   -4.0085976   0.60799147    -5.407259    1.3986613      8192000 
  159000   0.92473278   -5.3980195   -5.3980195   -4.0109206   0.55506709   -5.3980195    1.3870988      8192000 
  160000   0.91647218   -5.3877237   -5.3877237   -4.0130158   0.50218664   -5.3877237    1.3747079      8192000 
  161000   0.90724249   -5.3755178   -5.3755178   -4.0146544   0.44509351   -5.3755178    1.3608634      8192000 
  162000   0.89733011    -5.361921    -5.361921   -4.0159262   0.38420673    -5.361921    1.3459948      8192000 
  163000   0.88729866   -5.3474522   -5.3474522   -4.0165046    0.3178209   -5.3474522    1.3309477      8192000 
  164000   0.87644167    -5.331335    -5.331335   -4.0166728   0.25186873    -5.331335    1.3146622      8192000 
  165000    0.8654759   -5.3143609   -5.3143609   -4.0161473   0.19032963   -5.3143609    1.2982135      8192000 
  166000   0.85433553   -5.2969455   -5.2969455   -4.0154425   0.12940069   -5.2969455     1.281503      8192000 
  167000   0.84287246   -5.2789259   -5.2789259   -4.0146175  0.074284262   -5.2789259    1.2643084      8192000 
  168000   0.83162142   -5.2608407   -5.2608407   -4.0134089  0.023623993   -5.2608407    1.2474318      8192000 
  169000   0.82039886   -5.2428044   -5.2428044   -4.0122064 -0.020129485   -5.2428044     1.230598      8192000 
  170000   0.80984321   -5.2256559   -5.2256559   -4.0108914 -0.060085675   -5.2256559    1.2147645      8192000 
  171000    0.8000701   -5.2098139   -5.2098139   -4.0097091 -0.094979984   -5.2098139    1.2001048      8192000 
  172000    0.7910077   -5.1951281   -5.1951281   -4.0086168  -0.12111695   -5.1951281    1.1865112      8192000 
  173000   0.78295218   -5.1819685   -5.1819685   -4.0075405  -0.14242358   -5.1819685     1.174428      8192000 
  174000   0.77667092    -5.171884    -5.171884   -4.0068779  -0.15717777    -5.171884    1.1650061      8192000 
  175000   0.77284707   -5.1656862   -5.1656862   -4.0064159  -0.16275977   -5.1656862    1.1592703      8192000 
  176000   0.77195104    -5.164454    -5.164454   -4.0065277  -0.16385043    -5.164454    1.1579263      8192000 
  177000   0.77313606   -5.1670168   -5.1670168    -4.007313  -0.15439589   -5.1670168    1.1597038      8192000 
  178000   0.77612277   -5.1727154   -5.1727154   -4.0085316  -0.13914857   -5.1727154    1.1641839      8192000 
  179000   0.78070107   -5.1814081   -5.1814081   -4.0103568  -0.11721376   -5.1814081    1.1710513      8192000 
  180000   0.78616104   -5.1916472   -5.1916472   -4.0124059 -0.091092942   -5.1916472    1.1792413      8192000 
  181000   0.79161087   -5.2023139   -5.2023139   -4.0148979 -0.061438228   -5.2023139     1.187416      8192000 
  182000   0.79705052   -5.2131684   -5.2131684    -4.017593 -0.035211545   -5.2131684    1.1955755      8192000 
  183000    0.8018861   -5.2231007   -5.2231007   -4.0202718 -0.0089395398   -5.2231007    1.2028288      8192000 
  184000   0.80670086    -5.232953    -5.232953    -4.022902  0.010104682    -5.232953     1.210051      8192000 
  185000   0.81060972   -5.2411508   -5.2411508   -4.0252365  0.028067632   -5.2411508    1.2159143      8192000 
  186000   0.81342868   -5.2474271   -5.2474271   -4.0272844  0.045184797   -5.2474271    1.2201427      8192000 
  187000   0.81606581   -5.2532241   -5.2532241   -4.0291257  0.056849115   -5.2532241    1.2240984      8192000 
  188000   0.81773505   -5.2571231   -5.2571231   -4.0305208  0.064573209   -5.2571231    1.2266023      8192000 
  189000   0.81804039   -5.2588402   -5.2588402   -4.0317799  0.068802979   -5.2588402    1.2270603      8192000 
  190000   0.81755675   -5.2592829   -5.2592829   -4.0329481  0.068038152   -5.2592829    1.2263348      8192000 
  191000   0.81626634   -5.2581548   -5.2581548   -4.0337556  0.057756158   -5.2581548    1.2243992      8192000 
  192000   0.81322894   -5.2544317   -5.2544317   -4.0345886  0.046415889   -5.2544317    1.2198431      8192000 
  193000   0.80969216   -5.2497558   -5.2497558   -4.0352179  0.030888303   -5.2497558    1.2145379      8192000 
  194000   0.80544498   -5.2439128   -5.2439128   -4.0357456  0.011413067   -5.2439128    1.2081672      8192000 
  195000   0.80118982   -5.2383651   -5.2383651   -4.0365807 -0.0065752088   -5.2383651    1.2017844      8192000 
  196000   0.79703514   -5.2329444   -5.2329444    -4.037392 -0.023427764   -5.2329444    1.1955524      8192000 
  197000   0.79360429   -5.2284955   -5.2284955   -4.0380894 -0.036759166   -5.2284955    1.1904061      8192000 
  198000   0.79093839   -5.2256401   -5.2256401   -4.0392328 -0.045375741   -5.2256401    1.1864073      8192000 
  199000   0.78916907   -5.2239963   -5.2239963    -4.040243  -0.05283628   -5.2239963    1.1837533      8192000 
  200000   0.78898293   -5.2249639   -5.2249639   -4.0414898  -0.05605325   -5.2249639    1.1834741      8192000 
  201000   0.78902169   -5.2261452   -5.2261452    -4.042613 -0.048173667   -5.2261452    1.1835322      8192000 
  202000   0.79134385   -5.2309818   -5.2309818   -4.0439663  -0.03950692   -5.2309818    1.1870155      8192000 
  203000   0.79435765   -5.2373318   -5.2373318   -4.0457956 -0.024430629   -5.2373318    1.1915362      8192000 
  204000   0.79831179   -5.2452629   -5.2452629   -4.0477956 -0.0068404729   -5.2452629    1.1974674      8192000 
  205000   0.80180662   -5.2525779   -5.2525779   -4.0498682  0.014592874   -5.2525779    1.2027096      8192000 
  206000   0.80583279   -5.2605947   -5.2605947   -4.0518458  0.035405357   -5.2605947    1.2087489      8192000 
  207000   0.80965174   -5.2681713   -5.2681713    -4.053694  0.050658234   -5.2681713    1.2144773      8192000 
  208000   0.81171479    -5.273058    -5.273058   -4.0554861  0.065118519    -5.273058    1.2175719      8192000 
  209000   0.81250849    -5.275779    -5.275779   -4.0570165  0.071863645    -5.275779    1.2187624      8192000 
  210000   0.81194049    -5.276311    -5.276311   -4.0584006  0.072920511    -5.276311    1.2179104      8192000 
  211000   0.81078464   -5.2757302   -5.2757302   -4.0595536  0.063335548   -5.2757302    1.2161767      8192000 
  212000   0.80783416   -5.2720942   -5.2720942   -4.0603433   0.05014338   -5.2720942    1.2117509      8192000 
  213000   0.80440413   -5.2673815   -5.2673815   -4.0607756  0.031021439   -5.2673815    1.2066059      8192000 
  214000   0.80024209   -5.2614955   -5.2614955   -4.0611327  0.014038031   -5.2614955    1.2003628      8192000 
  215000   0.79583255   -5.2554168   -5.2554168   -4.0616683 -0.0016510747   -5.2554168    1.1937485      8192000 
  216000   0.79238474   -5.2506739   -5.2506739    -4.062097 -0.016945402   -5.2506739    1.1885768      8192000 
  217000   0.78941581   -5.2467564   -5.2467564    -4.062633  -0.02775864   -5.2467564    1.1841234      8192000 
  218000   0.78781655   -5.2451654   -5.2451654   -4.0634409 -0.037035217   -5.2451654    1.1817245      8192000 
  219000   0.78689352    -5.244779    -5.244779    -4.064439 -0.037247822    -5.244779      1.18034      8192000 
  220000   0.78689884   -5.2458228   -5.2458228   -4.0654749 -0.033376177   -5.2458228     1.180348      8192000 
  221000   0.78810741   -5.2489944   -5.2489944   -4.0668335 -0.025923974   -5.2489944    1.1821608      8192000 
  222000   0.79026788   -5.2538343   -5.2538343   -4.0684327 -0.017466757   -5.2538343    1.1854015      8192000 
  223000   0.79259216   -5.2589271   -5.2589271   -4.0700392 -0.003776997   -5.2589271    1.1888879      8192000 
  224000   0.79606363   -5.2658579   -5.2658579   -4.0717628 0.0091395244   -5.2658579    1.1940951      8192000 
  225000   0.79880897   -5.2716434   -5.2716434   -4.0734302   0.02455176   -5.2716434    1.1982131      8192000 
  226000   0.80080892   -5.2763459   -5.2763459   -4.0751328  0.038394812   -5.2763459    1.2012131      8192000 
  227000   0.80303815   -5.2810436   -5.2810436   -4.0764866  0.047190952   -5.2810436    1.2045569      8192000 
  228000   0.80447021   -5.2843376   -5.2843376   -4.0776326  0.053704484   -5.2843376     1.206705      8192000 
  229000   0.80439877   -5.2852848   -5.2852848   -4.0786869  0.055636023   -5.2852848    1.2065978      8192000 
  230000   0.80353855   -5.2850134   -5.2850134   -4.0797059  0.050159983   -5.2850134    1.2053075      8192000 
  231000   0.80140109   -5.2825422   -5.2825422   -4.0804409  0.043762566   -5.2825422    1.2021013      8192000 
  232000   0.79905655   -5.2797814   -5.2797814   -4.0811969  0.031819204   -5.2797814    1.1985845      8192000 
  233000    0.7958963   -5.2754088   -5.2754088   -4.0815646  0.019468571   -5.2754088    1.1938442      8192000 
  234000   0.79318145   -5.2718884   -5.2718884   -4.0821165 0.0063840645   -5.2718884    1.1897719      8192000 
  235000   0.79035681   -5.2683146   -5.2683146   -4.0827797 -0.0050632542   -5.2683146    1.1855349      8192000 
  236000   0.78767784   -5.2649656   -5.2649656   -4.0834491 -0.017302615   -5.2649656    1.1815165      8192000 
  237000   0.78581204    -5.262872    -5.262872   -4.0841542 -0.023590193    -5.262872    1.1787178      8192000 
  238000   0.78454963   -5.2620041   -5.2620041     -4.08518 -0.026129735   -5.2620041    1.1768241      8192000 
  239000   0.78489916   -5.2635847   -5.2635847   -4.0862363 -0.026502852   -5.2635847    1.1773484      8192000 
  240000   0.78537901   -5.2654265   -5.2654265   -4.0873583 -0.020720327   -5.2654265    1.1780682      8192000 
  241000   0.78720381    -5.269393    -5.269393   -4.0885876 -0.012440423    -5.269393    1.1808054      8192000 
  242000   0.78915044   -5.2738007   -5.2738007   -4.0900754 4.8636574e-05   -5.2738007    1.1837254      8192000 
  243000   0.79193921   -5.2794466   -5.2794466   -4.0915381  0.011101955   -5.2794466    1.1879085      8192000 
  244000   0.79417126   -5.2841484   -5.2841484   -4.0928918  0.025439502   -5.2841484    1.1912566      8192000 
  245000   0.79603558   -5.2885576   -5.2885576   -4.0945045  0.034717686   -5.2885576    1.1940531      8192000 
  246000   0.79730712     -5.29175     -5.29175   -4.0957896  0.045139633     -5.29175    1.1959604      8192000 
  247000   0.79833322   -5.2943061   -5.2943061   -4.0968066  0.050090006   -5.2943061    1.1974995      8192000 
  248000   0.79821681   -5.2952216   -5.2952216   -4.0978967  0.049446776   -5.2952216    1.1973249      8192000 
  249000   0.79747865   -5.2950456   -5.2950456    -4.098828  0.043196558   -5.2950456    1.1962177      8192000 
  250000   0.79557497   -5.2927608   -5.2927608   -4.0993987  0.035203364   -5.2927608    1.1933622      8192000 
  251000   0.79349038   -5.2900682   -5.2900682   -4.0998329  0.024196042   -5.2900682    1.1902353      8192000 
  252000   0.79099234   -5.2866241   -5.2866241   -4.1001359  0.013129492   -5.2866241    1.1864882      8192000 
  253000   0.78783357   -5.2826056   -5.2826056   -4.1008555 0.0018475592   -5.2826056    1.1817501      8192000 
  254000   0.78584805   -5.2803869   -5.2803869   -4.1016151 -0.0073842432   -5.2803869    1.1787718      8192000 
  255000    0.7838467    -5.278073    -5.278073   -4.1023032 -0.014374932    -5.278073    1.1757698      8192000 
  256000   0.78272708   -5.2770915   -5.2770915   -4.1030012 -0.018538402   -5.2770915    1.1740903      8192000 
  257000   0.78200773   -5.2769516   -5.2769516   -4.1039403  -0.01684818   -5.2769516    1.1730113      8192000 
  258000   0.78299969   -5.2795035   -5.2795035   -4.1050043 -0.011990663   -5.2795035    1.1744992      8192000 
  259000   0.78425513   -5.2823902   -5.2823902   -4.1060078 -0.0075006726   -5.2823902    1.1763824      8192000 
  260000   0.78592013    -5.286308    -5.286308   -4.1074281 -0.0003123226    -5.286308    1.1788799      8192000 
  261000   0.78765485   -5.2903553   -5.2903553   -4.1088733 0.0086480034   -5.2903553     1.181482      8192000 
  262000   0.78967501   -5.2948273   -5.2948273   -4.1103151  0.018678967   -5.2948273    1.1845122      8192000 
  263000   0.79127609   -5.2987409   -5.2987409   -4.1118271  0.027199704   -5.2987409    1.1869138      8192000 
  264000   0.79265995   -5.3021272   -5.3021272   -4.1131376  0.033556139   -5.3021272    1.1889896      8192000 
  265000   0.79326086   -5.3040542   -5.3040542   -4.1141632  0.038560437   -5.3040542     1.189891      8192000 
  266000   0.79338941   -5.3053091   -5.3053091   -4.1152253  0.039707828   -5.3053091    1.1900838      8192000 
  267000   0.79313811   -5.3058744   -5.3058744   -4.1161675  0.039018584   -5.3058744    1.1897069      8192000 
  268000   0.79193981   -5.3049073   -5.3049073   -4.1169979  0.032384796   -5.3049073    1.1879094      8192000 
  269000   0.78953778   -5.3021011   -5.3021011   -4.1177947  0.028697291   -5.3021011    1.1843064      8192000 
  270000   0.78762338   -5.2998254   -5.2998254   -4.1183906  0.018178925   -5.2998254    1.1814348      8192000 
  271000   0.78605523   -5.2980615   -5.2980615   -4.1189789 0.0089354779   -5.2980615    1.1790826      8192000 
  272000   0.78442204   -5.2959928   -5.2959928   -4.1193601 0.00045762864   -5.2959928    1.1766328      8192000 
  273000   0.78288626   -5.2944023   -5.2944023   -4.1200732 -0.0058745348   -5.2944023    1.1743291      8192000 
  274000   0.78170261   -5.2933158   -5.2933158   -4.1207622 -0.0082412756   -5.2933158    1.1725536      8192000 
  275000   0.78084013    -5.292889    -5.292889    -4.121629 -0.011654037    -5.292889    1.1712599      8192000 
  276000   0.78110967   -5.2942921   -5.2942921   -4.1226279 -0.0091726563   -5.2942921    1.1716642      8192000 
  277000   0.78221002   -5.2968951   -5.2968951   -4.1235804 -0.0063168408   -5.2968951    1.1733147      8192000 
  278000   0.78285694   -5.2990235   -5.2990235   -4.1247384 0.0031342685   -5.2990235    1.1742851      8192000 
  279000   0.78437046   -5.3023427   -5.3023427   -4.1257873 0.0091330308   -5.3023427    1.1765554      8192000 
  280000   0.78540098   -5.3051154   -5.3051154   -4.1270143  0.015534453   -5.3051154    1.1781012      8192000 
  281000   0.78650444   -5.3077718   -5.3077718   -4.1280155  0.022199672   -5.3077718    1.1797564      8192000 
  282000   0.78803463   -5.3111126   -5.3111126   -4.1290609  0.026976536   -5.3111126    1.1820516      8192000 
  283000   0.78873484     -5.31308     -5.31308    -4.129978  0.033175068     -5.31308     1.183102      8192000 
  284000   0.78920102   -5.3146365   -5.3146365   -4.1308353   0.03540616   -5.3146365    1.1838012      8192000 
  285000   0.78926979   -5.3156145   -5.3156145   -4.1317101  0.034116363   -5.3156145    1.1839044      8192000 
  286000   0.78822999   -5.3146634   -5.3146634   -4.1323187    0.0341191   -5.3146634    1.1823447      8192000 
  287000   0.78757319    -5.314386    -5.314386   -4.1330265  0.026835381    -5.314386    1.1813595      8192000 
  288000   0.78601738   -5.3127211   -5.3127211   -4.1336953  0.023014102   -5.3127211    1.1790258      8192000 
  289000   0.78475507   -5.3114463   -5.3114463    -4.134314  0.016473307   -5.3114463    1.1771323      8192000 
  290000   0.78373911   -5.3105027   -5.3105027   -4.1348943  0.015031246   -5.3105027    1.1756084      8192000 
  291000    0.7836553   -5.3109792   -5.3109792   -4.1354965  0.010629444   -5.3109792    1.1754826      8192000 
  292000    0.7829817   -5.3107567   -5.3107567   -4.1362844  0.015787692   -5.3107567    1.1744723      8192000 
  293000   0.78441049   -5.3139369   -5.3139369   -4.1373215  0.023585057   -5.3139369    1.1766154      8192000 
  294000   0.78643503   -5.3182361   -5.3182361   -4.1385838  0.034000878   -5.3182361    1.1796523      8192000 
  295000   0.78903747   -5.3236788   -5.3236788   -4.1401229  0.049506367   -5.3236788    1.1835559      8192000 
  296000   0.79271416   -5.3309806   -5.3309806   -4.1419096  0.069515236   -5.3309806    1.1890709      8192000 
  297000   0.79736406   -5.3395569   -5.3395569   -4.1435111   0.10081482   -5.3395569    1.1960458      8192000 
  298000   0.80278914    -5.349495    -5.349495   -4.1453116   0.13048063    -5.349495    1.2041834      8192000 
  299000   0.80727983   -5.3584138   -5.3584138   -4.1474943    0.1674882   -5.3584138    1.2109194      8192000 
  300000   0.81225769   -5.3675908   -5.3675908   -4.1492046   0.19976916   -5.3675908    1.2183862      8192000 
  301000   0.81607249   -5.3749746   -5.3749746   -4.1508662   0.22672635   -5.3749746    1.2241084      8192000 
  302000   0.81862205   -5.3801357   -5.3801357    -4.152203   0.24118036   -5.3801357    1.2279328      8192000 
  303000   0.81938257   -5.3822391   -5.3822391   -4.1531656   0.24755777   -5.3822391    1.2290736      8192000 
  304000    0.8195297   -5.3831549   -5.3831549   -4.1538607   0.24618379   -5.3831549    1.2292942      8192000 
  305000     0.817998   -5.3811038   -5.3811038   -4.1541071   0.23437113   -5.3811038    1.2269967      8192000 
  306000   0.81551744   -5.3775919   -5.3775919    -4.154316   0.21365927   -5.3775919    1.2232759      8192000 
  307000   0.81110364   -5.3709141   -5.3709141   -4.1542589   0.18589202   -5.3709141    1.2166552      8192000 
  308000   0.80554878   -5.3623504   -5.3623504   -4.1540276   0.15555304   -5.3623504    1.2083229      8192000 
  309000   0.79992971   -5.3533342   -5.3533342     -4.15344   0.12219185   -5.3533342    1.1998943      8192000 
  310000    0.7939242   -5.3440308   -5.3440308   -4.1531448  0.091917349   -5.3440308     1.190886      8192000 
  311000    0.7884807   -5.3355401   -5.3355401   -4.1528194  0.062807499   -5.3355401    1.1827208      8192000 
  312000   0.78356338   -5.3279532   -5.3279532   -4.1526084  0.040036612   -5.3279532    1.1753448      8192000 
  313000   0.78007984   -5.3228173   -5.3228173   -4.1526978   0.02247656   -5.3228173    1.1701195      8192000 
  314000    0.7772678   -5.3188029   -5.3188029   -4.1529015  0.011393654   -5.3188029    1.1659014      8192000 
  315000   0.77549668   -5.3164753   -5.3164753   -4.1532305  0.005438519   -5.3164753    1.1632447      8192000 
  316000   0.77478796   -5.3158732   -5.3158732   -4.1536916  0.001163152   -5.3158732    1.1621816      8192000 
  317000   0.77455429   -5.3162485   -5.3162485   -4.1544173  0.001255508   -5.3162485    1.1618311      8192000 
  318000   0.77492649   -5.3178515   -5.3178515   -4.1554621 0.0046132565   -5.3178515    1.1623894      8192000 
  319000   0.77529465   -5.3190435   -5.3190435   -4.1561018  0.010006492   -5.3190435    1.1629417      8192000 
  320000   0.77654013    -5.321936    -5.321936   -4.1571261  0.014685666    -5.321936    1.1648099      8192000 
  321000   0.77738574   -5.3237992   -5.3237992   -4.1577209  0.020388057   -5.3237992    1.1660783      8192000 
  322000   0.77865906   -5.3267565   -5.3267565   -4.1587682  0.028137588   -5.3267565    1.1679883      8192000 
  323000   0.77989738   -5.3296523   -5.3296523   -4.1598065  0.035139075   -5.3296523    1.1698458      8192000 
  324000   0.78084909   -5.3320282   -5.3320282   -4.1607548  0.041195782   -5.3320282    1.1712733      8192000 
  325000   0.78251816   -5.3357201   -5.3357201   -4.1619432  0.047158555   -5.3357201    1.1737769      8192000 
  326000   0.78282872   -5.3369802   -5.3369802   -4.1627374  0.051182945   -5.3369802    1.1742428      8192000 
  327000   0.78281615   -5.3377175   -5.3377175   -4.1634936  0.052930269   -5.3377175    1.1742239      8192000 
  328000   0.78273103   -5.3382141   -5.3382141   -4.1641178  0.050181819   -5.3382141    1.1740963      8192000 
  329000   0.78199995   -5.3375998   -5.3375998   -4.1646001  0.045703712   -5.3375998    1.1729996      8192000 
  330000   0.78002882   -5.3352525   -5.3352525   -4.1652096   0.04424034   -5.3352525    1.1700429      8192000 
  331000   0.77918251   -5.3344909   -5.3344909   -4.1657174  0.035182007   -5.3344909    1.1687735      8192000 
  332000   0.77738071   -5.3322608   -5.3322608     -4.16619  0.028589816   -5.3322608    1.1660708      8192000 
  333000   0.77537388   -5.3296182   -5.3296182   -4.1665577  0.020759809   -5.3296182    1.1630605      8192000 
  334000   0.77359937   -5.3274326   -5.3274326   -4.1670338  0.013615801   -5.3274326    1.1603988      8192000 
  335000   0.77226285   -5.3255414   -5.3255414   -4.1671474 0.0087360013   -5.3255414     1.158394      8192000 
  336000   0.77067441   -5.3234455   -5.3234455   -4.1674342 0.0023596133   -5.3234455    1.1560113      8192000 
  337000   0.76949725   -5.3220585   -5.3220585   -4.1678129 -0.002311619   -5.3220585    1.1542456      8192000 
  338000   0.76866923    -5.321351    -5.321351   -4.1683474 -0.0052029521    -5.321351    1.1530036      8192000 
  339000   0.76840138   -5.3214634   -5.3214634   -4.1688616 -0.0080415511   -5.3214634    1.1526018      8192000 
  340000   0.76768382   -5.3209648   -5.3209648   -4.1694394 -0.0075742248   -5.3209648    1.1515254      8192000 
  341000   0.76816031   -5.3224398   -5.3224398   -4.1701996 -0.0054039325   -5.3224398    1.1522402      8192000 
  342000   0.76876504   -5.3242019   -5.3242019   -4.1710546 -0.0022514877   -5.3242019    1.1531473      8192000 
  343000   0.76989586   -5.3265552   -5.3265552   -4.1717117 0.0018994377   -5.3265552    1.1548435      8192000 
  344000   0.77168894   -5.3299325   -5.3299325   -4.1723994 0.0070886551   -5.3299325    1.1575331      8192000 
  345000    0.7725775   -5.3321487   -5.3321487   -4.1732828  0.017418317   -5.3321487     1.158866      8192000 
  346000   0.77348812   -5.3342168   -5.3342168   -4.1739849   0.02046866   -5.3342168    1.1602319      8192000 
  347000   0.77445233   -5.3365751   -5.3365751   -4.1748969  0.025906983   -5.3365751    1.1616782      8192000 
  348000   0.77497891   -5.3382334   -5.3382334   -4.1757653  0.031892638   -5.3382334    1.1624681      8192000 
  349000   0.77607621   -5.3408317   -5.3408317   -4.1767177  0.036593097   -5.3408317     1.164114      8192000 
  350000   0.77667493   -5.3424028   -5.3424028   -4.1773906  0.036821664   -5.3424028    1.1650121      8192000 
  351000    0.7767249   -5.3428348   -5.3428348   -4.1777478  0.038335676   -5.3428348    1.1650871      8192000 
  352000   0.77598392   -5.3421713   -5.3421713   -4.1781957  0.037056262   -5.3421713    1.1639756      8192000 
  353000   0.77537485   -5.3417577   -5.3417577   -4.1786957  0.035985041   -5.3417577     1.163062      8192000 
  354000   0.77509049   -5.3417998   -5.3417998   -4.1791643  0.031369695   -5.3417998    1.1626354      8192000 
  355000   0.77379231   -5.3402468   -5.3402468   -4.1795586  0.027396173   -5.3402468    1.1606882      8192000 
  356000   0.77215396   -5.3382421   -5.3382421   -4.1800114  0.021539985   -5.3382421    1.1582307      8192000 
  357000   0.77092156   -5.3365995   -5.3365995   -4.1802175  0.013759591   -5.3365995    1.1563821      8192000 
  358000   0.76953988   -5.3347484   -5.3347484   -4.1804389  0.009757532   -5.3347484    1.1543095      8192000 
  359000   0.76796408   -5.3326836   -5.3326836   -4.1807378 0.0065165516   -5.3326836    1.1519458      8192000 
  360000   0.76730639   -5.3322567   -5.3322567   -4.1812974 -0.001689932   -5.3322567    1.1509593      8192000 
  361000   0.76621855   -5.3311587   -5.3311587   -4.1818312 -0.0042301321   -5.3311587    1.1493275      8192000 
  362000   0.76533679   -5.3301684   -5.3301684   -4.1821635 -0.0039334843   -5.3301684    1.1480049      8192000 
  363000   0.76509226   -5.3303459   -5.3303459   -4.1827078 -0.0057094646   -5.3303459    1.1476381      8192000 
  364000   0.76510753   -5.3309321   -5.3309321   -4.1832711 -0.0064166918   -5.3309321     1.147661      8192000 
  365000   0.76520887   -5.3317225   -5.3317225   -4.1839095 -0.0051722764   -5.3317225     1.147813      8192000 
  366000   0.76577178   -5.3330985   -5.3330985   -4.1844411 -0.0011647288   -5.3330985    1.1486574      8192000 
  367000   0.76658915    -5.334964    -5.334964   -4.1850806 0.00073390749    -5.334964    1.1498834      8192000 
  368000   0.76735628    -5.337124    -5.337124   -4.1860899 0.0028774791    -5.337124    1.1510341      8192000 
  369000   0.76828423   -5.3390547   -5.3390547   -4.1866287 0.0098871609   -5.3390547    1.1524261      8192000 
  370000   0.76933439   -5.3413325   -5.3413325   -4.1873312  0.014359667   -5.3413325    1.1540013      8192000 
  371000   0.77026683   -5.3436914   -5.3436914   -4.1882915  0.018778175   -5.3436914       1.1554      8192000 
  372000   0.77133829   -5.3460674   -5.3460674   -4.1890603  0.022768375   -5.3460674    1.1570071      8192000 
  373000   0.77218268   -5.3479305   -5.3479305   -4.1896568   0.02608682   -5.3479305    1.1582737      8192000 
  374000   0.77245491   -5.3489963   -5.3489963   -4.1903142   0.02891454   -5.3489963    1.1586821      8192000 
  375000   0.77233167   -5.3493321   -5.3493321   -4.1908349  0.031106749   -5.3493321    1.1584972      8192000 
  376000   0.77261716   -5.3500377   -5.3500377   -4.1911123  0.029917098   -5.3500377    1.1589254      8192000 
  377000   0.77200039   -5.3493831   -5.3493831   -4.1913829  0.029341321   -5.3493831    1.1580003      8192000 
  378000   0.77168321   -5.3494033   -5.3494033   -4.1918788  0.027164746   -5.3494033    1.1575245      8192000 
  379000   0.77062726   -5.3482741   -5.3482741   -4.1923335  0.021053689   -5.3482741    1.1559406      8192000 
  380000   0.76967606   -5.3473052   -5.3473052   -4.1927914  0.017894025   -5.3473052    1.1545138      8192000 
  381000   0.76868669   -5.3461682   -5.3461682   -4.1931384  0.012245743   -5.3461682    1.1530297      8192000 
  382000   0.76709796    -5.344186    -5.344186   -4.1935393 0.0080403919    -5.344186    1.1506467      8192000 
  383000   0.76590399   -5.3427611   -5.3427611   -4.1939055 0.0051658017   -5.3427611    1.1488557      8192000 
  384000   0.76521153   -5.3419837   -5.3419837   -4.1941667 3.7791669e-05   -5.3419837     1.147817      8192000 
  385000   0.76444607   -5.3412255   -5.3412255   -4.1945567 -0.0038811638   -5.3412255    1.1466688      8192000 
  386000   0.76397246   -5.3409198   -5.3409198   -4.1949614 -0.0056324021   -5.3409198    1.1459584      8192000 
  387000   0.76323017   -5.3402806   -5.3402806   -4.1954356 -0.0059585506   -5.3402806     1.144845      8192000 
  388000   0.76303867   -5.3402866   -5.3402866   -4.1957289 -0.0066806674   -5.3402866    1.1445577      8192000 
  389000   0.76293965   -5.3405868   -5.3405868   -4.1961776 -0.0057335565   -5.3405868    1.1444092      8192000 
  390000   0.76302035   -5.3412922   -5.3412922   -4.1967619 -0.0051513959   -5.3412922    1.1445302      8192000 
  391000   0.76345509   -5.3426433   -5.3426433    -4.197461 -0.0030670484   -5.3426433    1.1451824      8192000 
  392000    0.7643469   -5.3446398   -5.3446398   -4.1981197 -0.00020978341   -5.3446398    1.1465201      8192000 
  393000   0.76543132   -5.3469395   -5.3469395   -4.1987928 0.0053065854   -5.3469395    1.1481467      8192000 
  394000   0.76633507   -5.3490279   -5.3490279   -4.1995255  0.010037492   -5.3490279    1.1495023      8192000 
  395000    0.7671715   -5.3507509   -5.3507509   -4.1999939  0.016927527   -5.3507509     1.150757      8192000 
  396000   0.76820536   -5.3529914   -5.3529914   -4.2006837  0.019957728   -5.3529914    1.1523078      8192000 
  397000   0.76861238   -5.3541118   -5.3541118   -4.2011935   0.02369202   -5.3541118    1.1529183      8192000 
  398000   0.76911464   -5.3556324   -5.3556324   -4.2019607  0.024647132   -5.3556324    1.1536717      8192000 
  399000   0.76980071   -5.3570993   -5.3570993   -4.2023986  0.025713519   -5.3570993    1.1547008      8192000 
  400000   0.76926525   -5.3566339   -5.3566339   -4.2027363  0.026903009   -5.3566339    1.1538976      8192000 
  401000   0.76939057    -5.357363    -5.357363   -4.2032774  0.022988542    -5.357363    1.1540856      8192000 
  402000   0.76882047   -5.3567089   -5.3567089   -4.2034785  0.021841568   -5.3567089    1.1532304      8192000 
  403000   0.76797153   -5.3556609   -5.3556609   -4.2037039  0.019843118   -5.3556609     1.151957      8192000 
  404000   0.76751574    -5.355046    -5.355046   -4.2037726  0.015511974    -5.355046    1.1512733      8192000 
  405000   0.76666487   -5.3541671   -5.3541671   -4.2041701  0.012490315   -5.3541671     1.149997      8192000 
  406000   0.76564945   -5.3530292   -5.3530292   -4.2045553  0.010161864   -5.3530292    1.1484739      8192000 
  407000   0.76452551   -5.3518348   -5.3518348   -4.2050468 0.0074840085   -5.3518348     1.146788      8192000 
  408000   0.76351946    -5.350702    -5.350702   -4.2054231 0.0049258252    -5.350702    1.1452789      8192000 
  409000   0.76309021   -5.3504138   -5.3504138   -4.2057788 -0.00078465611   -5.3504138     1.144635      8192000 
  410000   0.76238182   -5.3497922   -5.3497922   -4.2062197 -0.003780364   -5.3497922    1.1435724      8192000 
  411000   0.76214821   -5.3498562   -5.3498562   -4.2066342 -0.0051979964   -5.3498562     1.143222      8192000 
  412000    0.7618074   -5.3495962   -5.3495962   -4.2068853 -0.0050098699   -5.3495962    1.1427108      8192000 
  413000   0.76116578   -5.3492604   -5.3492604    -4.207512 -0.0011178893   -5.3492604    1.1417484      8192000 
  414000   0.76187068   -5.3507905   -5.3507905   -4.2079847 -0.0021669738   -5.3507905    1.1428057      8192000 
  415000   0.76247583   -5.3522277   -5.3522277   -4.2085142 -0.0020031249   -5.3522277    1.1437135      8192000 
  416000   0.76308117   -5.3537032   -5.3537032   -4.2090817 0.00059953364   -5.3537032    1.1446215      8192000 
  417000    0.7635862   -5.3549246   -5.3549246   -4.2095456 0.0049491835   -5.3549246     1.145379      8192000 
  418000   0.76441891   -5.3568038   -5.3568038   -4.2101757 0.0097557367   -5.3568038    1.1466281      8192000 
  419000   0.76480311   -5.3579775   -5.3579775   -4.2107732  0.013644635   -5.3579775    1.1472044      8192000 
  420000   0.76556558   -5.3598011   -5.3598011    -4.211453  0.016698674   -5.3598011    1.1483481      8192000 
  421000   0.76622422   -5.3612577   -5.3612577   -4.2119217   0.01906964   -5.3612577     1.149336      8192000 
  422000   0.76680677   -5.3626889   -5.3626889   -4.2124791   0.02161593   -5.3626889    1.1502099      8192000 
  423000    0.7672925   -5.3638974   -5.3638974    -4.212959   0.02299238   -5.3638974    1.1509385      8192000 
  424000    0.7676211   -5.3644474   -5.3644474    -4.213016  0.023784687   -5.3644474    1.1514314      8192000 
  425000   0.76707709   -5.3639792   -5.3639792   -4.2133638  0.022957208   -5.3639792    1.1506153      8192000 
  426000    0.7663967   -5.3633893   -5.3633893   -4.2137946  0.021045341   -5.3633893    1.1495948      8192000 
  427000   0.76618593   -5.3632799   -5.3632799   -4.2140013  0.018734816   -5.3632799    1.1492786      8192000 
  428000   0.76522341    -5.362175    -5.362175   -4.2143402  0.015560002    -5.362175    1.1478348      8192000 
  429000    0.7646775   -5.3614407   -5.3614407   -4.2144248  0.011739284   -5.3614407     1.147016      8192000 
  430000   0.76382742   -5.3602753   -5.3602753   -4.2145344  0.009265869   -5.3602753    1.1457408      8192000 
  431000      0.76303   -5.3594305   -5.3594305   -4.2148857 0.0061156378   -5.3594305    1.1445447      8192000 
  432000   0.76233182   -5.3586027   -5.3586027   -4.2151052 0.0033428578   -5.3586027    1.1434974      8192000 
  433000   0.76148378   -5.3575406   -5.3575406   -4.2153152 0.0019425177   -5.3575406    1.1422254      8192000 
  434000   0.76130617   -5.3575748   -5.3575748   -4.2156159 -3.5247984e-05   -5.3575748     1.141959      8192000 
  435000   0.76094117   -5.3573005   -5.3573005   -4.2158891 -0.0011629624   -5.3573005    1.1414115      8192000 
  436000   0.76049098   -5.3571346   -5.3571346   -4.2163984 -0.0025236343   -5.3571346    1.1407362      8192000 
  437000    0.7603714    -5.357349    -5.357349   -4.2167922 -0.0019341689    -5.357349    1.1405568      8192000 
  438000   0.76082073   -5.3585456   -5.3585456   -4.2173148 -0.00097901034   -5.3585456    1.1412308      8192000 
  439000   0.76108842   -5.3593993   -5.3593993    -4.217767 0.00030211203   -5.3593993    1.1416323      8192000 
  440000   0.76172633   -5.3606098   -5.3606098   -4.2180205 0.0037411717   -5.3606098    1.1425892      8192000 
  441000   0.76220214   -5.3618651   -5.3618651   -4.2185621 0.0072498947   -5.3618651    1.1433029      8192000 
  442000   0.76264905   -5.3629509   -5.3629509   -4.2189776  0.010367848   -5.3629509    1.1439733      8192000 
  443000   0.76384716   -5.3654011   -5.3654011   -4.2196306  0.011999136   -5.3654011    1.1457705      8192000 
  444000   0.76426376   -5.3666111   -5.3666111   -4.2202157  0.017345375   -5.3666111    1.1463954      8192000 
  445000   0.76497021   -5.3681173   -5.3681173   -4.2206623  0.018769721   -5.3681173     1.147455      8192000 
  446000    0.7651686   -5.3688998   -5.3688998   -4.2211472   0.02180555   -5.3688998    1.1477526      8192000 
  447000   0.76536637   -5.3696345   -5.3696345   -4.2215853  0.022150604   -5.3696345    1.1480493      8192000 
  448000    0.7652669   -5.3697867   -5.3697867   -4.2218867  0.023382384   -5.3697867    1.1479001      8192000 
  449000   0.76559966   -5.3705521   -5.3705521   -4.2221529   0.02069283   -5.3705521    1.1483992      8192000 
  450000    0.7650253   -5.3698979   -5.3698979   -4.2223602  0.020575633   -5.3698979    1.1475377      8192000 
  451000   0.76438361   -5.3692568   -5.3692568   -4.2226817  0.018000047   -5.3692568    1.1465751      8192000 
  452000   0.76355403   -5.3681726   -5.3681726   -4.2228419  0.016993858   -5.3681726    1.1453308      8192000 
  453000   0.76277151   -5.3670898   -5.3670898   -4.2229329  0.011142841   -5.3670898     1.144157      8192000 
  454000   0.76222937    -5.366401    -5.366401   -4.2230573 0.0085213042    -5.366401    1.1433438      8192000 
  455000   0.76165405   -5.3657475   -5.3657475   -4.2232667 0.0034186084   -5.3657475    1.1424808      8192000 
  456000   0.76053502   -5.3642929   -5.3642929   -4.2234907 0.0019743562   -5.3642929    1.1408023      8192000 
  457000   0.76020326   -5.3638205   -5.3638205   -4.2235159 0.00057068363   -5.3638205    1.1403046      8192000 
  458000   0.76012637    -5.364015    -5.364015   -4.2238258 -0.0007573646    -5.364015    1.1401893      8192000 
  459000   0.75981447   -5.3637857   -5.3637857   -4.2240642 -0.00099352416   -5.3637857    1.1397214      8192000 
  460000   0.75953787    -5.363599    -5.363599   -4.2242925 0.00043593652    -5.363599    1.1393065      8192000 
  461000   0.75966717    -5.364341    -5.364341   -4.2248406 -0.00014293181    -5.364341    1.1395005      8192000 
  462000   0.76000164   -5.3652126   -5.3652126   -4.2252104 0.0016810429   -5.3652126    1.1400022      8192000 
  463000   0.76062534   -5.3666203   -5.3666203   -4.2256826 0.0048181806   -5.3666203    1.1409377      8192000 
  464000   0.76081531   -5.3673161   -5.3673161   -4.2260934 0.0073646653   -5.3673161    1.1412227      8192000 
  465000    0.7613037   -5.3684128   -5.3684128   -4.2264575  0.008463847   -5.3684128    1.1419553      8192000 
  466000   0.76177192   -5.3696768   -5.3696768   -4.2270192 0.0091913608   -5.3696768    1.1426576      8192000 
  467000    0.7620898   -5.3705544   -5.3705544     -4.22742  0.014258463   -5.3705544    1.1431344      8192000 
  468000   0.76281952   -5.3719688   -5.3719688   -4.2277398  0.017674338   -5.3719688     1.144229      8192000 
  469000   0.76332503    -5.373221    -5.373221   -4.2282337    0.0174909    -5.373221    1.1449873      8192000 
  470000   0.76370435   -5.3741356   -5.3741356   -4.2285794  0.020503041   -5.3741356    1.1455562      8192000 
  471000   0.76418297   -5.3754196   -5.3754196   -4.2291454  0.018480718   -5.3754196    1.1462742      8192000 
  472000   0.76350408   -5.3746456   -5.3746456   -4.2293897  0.022271256   -5.3746456    1.1452558      8192000 
  473000   0.76363939    -5.375141    -5.375141   -4.2296822  0.019996701    -5.375141    1.1454588      8192000 
  474000   0.76289149   -5.3741618   -5.3741618   -4.2298249  0.018167112   -5.3741618    1.1443369      8192000 
  475000   0.76252313    -5.373798    -5.373798   -4.2300136  0.017091047    -5.373798    1.1437844      8192000 
  476000   0.76205299   -5.3732329   -5.3732329   -4.2301537  0.011629084   -5.3732329    1.1430792      8192000 
  477000   0.76138628   -5.3723358   -5.3723358   -4.2302566  0.010152802   -5.3723358    1.1420791      8192000 
  478000   0.76074641   -5.3716603   -5.3716603   -4.2305409 0.0068919468   -5.3716603    1.1411193      8192000 
  479000   0.76023974   -5.3711359   -5.3711359   -4.2307766 0.0045372182   -5.3711359    1.1403593      8192000 
  480000   0.75912932   -5.3697436   -5.3697436   -4.2310499 0.0059256288   -5.3697436    1.1386937      8192000 
  481000     0.759164   -5.3699379   -5.3699379   -4.2311922 0.0020038063   -5.3699379    1.1387457      8192000 
  482000    0.7588563   -5.3698541   -5.3698541     -4.23157 -0.00071272396   -5.3698541    1.1382842      8192000 
  483000   0.75855959   -5.3697933   -5.3697933   -4.2319542 0.0013052516   -5.3697933    1.1378391      8192000 
  484000   0.75888224   -5.3706516   -5.3706516   -4.2323285 0.0024667638   -5.3706516    1.1383231      8192000 
  485000   0.75886355   -5.3707188   -5.3707188   -4.2324238 0.0026163336   -5.3707188     1.138295      8192000 
  486000   0.75985694   -5.3724681   -5.3724681    -4.232683 0.0029356863   -5.3724681    1.1397851      8192000 
  487000   0.75988141   -5.3727512   -5.3727512   -4.2329294 0.0065207158   -5.3727512    1.1398218      8192000 
  488000   0.76004716   -5.3734867   -5.3734867   -4.2334163  0.010702157   -5.3734867    1.1400705      8192000 
  489000   0.76080584   -5.3749926   -5.3749926   -4.2337842  0.011766917   -5.3749926    1.1412085      8192000 
  490000   0.76107315   -5.3756464   -5.3756464    -4.234037  0.012488348   -5.3756464    1.1416094      8192000 
  491000   0.76198328   -5.3773297   -5.3773297   -4.2343551  0.014785303   -5.3773297    1.1429746      8192000 
  492000   0.76180079   -5.3772321   -5.3772321   -4.2345312  0.018013842   -5.3772321    1.1427009      8192000 
  493000   0.76249585   -5.3786109   -5.3786109   -4.2348674  0.017039906   -5.3786109    1.1437435      8192000 
  494000   0.76272305   -5.3791526   -5.3791526   -4.2350683  0.019070671   -5.3791526    1.1440843      8192000 
  495000   0.76264923   -5.3793323   -5.3793323   -4.2353588  0.019589927   -5.3793323    1.1439736      8192000 
  496000   0.76252821   -5.3793328   -5.3793328   -4.2355407   0.02109265   -5.3793328     1.143792      8192000 
  497000   0.76222534   -5.3791323   -5.3791323   -4.2357946  0.019524093   -5.3791323    1.1433377      8192000 
  498000   0.76177709   -5.3785235   -5.3785235   -4.2358581   0.01714336   -5.3785235    1.1426653      8192000 
  499000   0.76122457   -5.3779915   -5.3779915    -4.236155  0.014916179   -5.3779915    1.1418366      8192000 
  500000   0.76116895   -5.3780876   -5.3780876   -4.2363345  0.011676299   -5.3780876    1.1417531      8192000 
  501000   0.76019141   -5.3767067   -5.3767067   -4.2364199  0.010275415   -5.3767067    1.1402868      8192000 
  502000   0.75974807   -5.3761766   -5.3761766   -4.2365548 0.0083280661   -5.3761766    1.1396218      8192000 
  503000   0.75941091   -5.3758305   -5.3758305   -4.2367145 0.0058654954   -5.3758305    1.1391161      8192000 
  504000   0.75862171   -5.3749542   -5.3749542   -4.2370219 0.0055269304   -5.3749542    1.1379323      8192000 
  505000   0.75863851   -5.3753057   -5.3753057   -4.2373482 0.0024298688   -5.3753057    1.1379575      8192000 
  506000   0.75833796   -5.3747313   -5.3747313   -4.2372247 0.0032037418   -5.3747313    1.1375067      8192000 
  507000   0.75838307   -5.3749879   -5.3749879   -4.2374136  0.003484404   -5.3749879    1.1375743      8192000 
  508000   0.75856372   -5.3755302   -5.3755302   -4.2376849 0.0035326599   -5.3755302    1.1378453      8192000 
  509000   0.75885816    -5.376309    -5.376309    -4.238022  0.006640752    -5.376309     1.138287      8192000 
  510000   0.75916715   -5.3769664   -5.3769664   -4.2382159 0.0066615373   -5.3769664    1.1387504      8192000 
  511000   0.75981914    -5.378242    -5.378242   -4.2385136 0.0089678341    -5.378242    1.1397284      8192000 
  512000   0.76000559   -5.3787897   -5.3787897   -4.2387816  0.012541791   -5.3787897    1.1400081      8192000 
  513000   0.76061062   -5.3802666   -5.3802666    -4.239351  0.012942805   -5.3802666    1.1409157      8192000 
  514000   0.76114747   -5.3813653   -5.3813653   -4.2396444  0.014824549   -5.3813653    1.1417209      8192000 
  515000   0.76125913   -5.3816474   -5.3816474    -4.239759  0.018158313   -5.3816474    1.1418884      8192000 
  516000   0.76147253   -5.3822164   -5.3822164   -4.2400079  0.019600402   -5.3822164    1.1422085      8192000 
  517000   0.76132078   -5.3822791   -5.3822791   -4.2402982  0.020335937   -5.3822791    1.1419809      8192000 
  518000   0.76151056    -5.382822    -5.382822   -4.2405564  0.020224162    -5.382822    1.1422656      8192000 
  519000   0.76161378   -5.3831928   -5.3831928   -4.2407725  0.017239063   -5.3831928    1.1424204      8192000 
  520000    0.7612529   -5.3830315   -5.3830315   -4.2411524  0.016663032   -5.3830315    1.1418791      8192000 
  521000   0.76075212   -5.3822758   -5.3822758   -4.2411479  0.014839374   -5.3822758    1.1411279      8192000 
  522000   0.76047336   -5.3818463   -5.3818463   -4.2411365  0.014176532   -5.3818463    1.1407097      8192000 
  523000   0.76038398   -5.3819942   -5.3819942   -4.2414185  0.011142269   -5.3819942    1.1405757      8192000 
  524000   0.75918276   -5.3803492   -5.3803492   -4.2415754  0.010760412   -5.3803492    1.1387739      8192000 
  525000   0.75919353   -5.3805092   -5.3805092   -4.2417192 0.0079386906   -5.3805092      1.13879      8192000 
  526000   0.75872192   -5.3797953   -5.3797953   -4.2417127 0.0065335075   -5.3797953    1.1380826      8192000 
  527000   0.75872922   -5.3799051   -5.3799051   -4.2418116 0.0049762756   -5.3799051    1.1380935      8192000 
  528000   0.75844462   -5.3795054   -5.3795054   -4.2418387 0.0047377543   -5.3795054    1.1376666      8192000 
  529000   0.75789899   -5.3788643   -5.3788643   -4.2420161 0.0050780499   -5.3788643    1.1368482      8192000 
  530000   0.75789403   -5.3792062   -5.3792062   -4.2423655 0.0055333994   -5.3792062    1.1368408      8192000 
  531000   0.75811845   -5.3799187   -5.3799187   -4.2427413 0.0061270294   -5.3799187    1.1371774      8192000 
  532000   0.75858162   -5.3809266   -5.3809266   -4.2430544 0.0073955521   -5.3809266    1.1378721      8192000 
  533000   0.75873845   -5.3814078   -5.3814078   -4.2433004 0.0090289004   -5.3814078    1.1381074      8192000 
  534000   0.75897849   -5.3818405   -5.3818405    -4.243373  0.011324793   -5.3818405    1.1384675      8192000 
  535000   0.75956865   -5.3831413   -5.3831413   -4.2437886  0.011538626   -5.3831413    1.1393527      8192000 
  536000   0.75953845   -5.3833776   -5.3833776   -4.2440702  0.012997668   -5.3833776    1.1393074      8192000 
  537000    0.7602361    -5.384562    -5.384562   -4.2442082  0.013183289    -5.384562    1.1403539      8192000 
  538000   0.76042092   -5.3848941   -5.3848941    -4.244263  0.016904558   -5.3848941    1.1406311      8192000 
  539000   0.76099299   -5.3857638   -5.3857638   -4.2442746  0.017116687   -5.3857638    1.1414892      8192000 
  540000   0.76117868   -5.3864209   -5.3864209   -4.2446532  0.017989914   -5.3864209    1.1417677      8192000 
  541000   0.76079377   -5.3861247   -5.3861247   -4.2449343   0.01959864   -5.3861247    1.1411904      8192000 
  542000   0.76065474   -5.3860732   -5.3860732   -4.2450913  0.019339912   -5.3860732    1.1409818      8192000 
  543000   0.76026589   -5.3855687   -5.3855687   -4.2451701  0.019125593   -5.3855687    1.1403986      8192000 
  544000    0.7602405   -5.3856784   -5.3856784   -4.2453179  0.016111676   -5.3856784    1.1403605      8192000 
  545000   0.75919028    -5.384309    -5.384309   -4.2455239  0.015776802    -5.384309    1.1387851      8192000 
  546000   0.75904343   -5.3841291   -5.3841291   -4.2455643  0.013024011   -5.3841291    1.1385649      8192000 
  547000   0.75874466   -5.3836831   -5.3836831   -4.2455664  0.010078531   -5.3836831    1.1381167      8192000 
  548000   0.75820698   -5.3826711   -5.3826711   -4.2453609  0.010853261   -5.3826711    1.1373102      8192000 
  549000   0.75841171   -5.3829046   -5.3829046   -4.2452874 0.0087218025   -5.3829046    1.1376173      8192000 
  550000   0.75804274   -5.3824071   -5.3824071   -4.2453433 0.0081362387   -5.3824071    1.1370638      8192000 
  551000   0.75813693   -5.3827169   -5.3827169   -4.2455118 0.0052386216   -5.3827169    1.1372051      8192000 
  552000   0.75774728   -5.3822415   -5.3822415   -4.2456209 0.0055029473   -5.3822415    1.1366206      8192000 
  553000   0.75751156   -5.3818997   -5.3818997   -4.2456327  0.006153247   -5.3818997    1.1362671      8192000 
  554000    0.7578083   -5.3822926   -5.3822926   -4.2455804 0.0066518432   -5.3822926    1.1367122      8192000 
  555000   0.75789727   -5.3826286   -5.3826286    -4.245783 0.0082471446   -5.3826286    1.1368456      8192000 
  556000   0.75812629   -5.3833154   -5.3833154   -4.2461262 0.0097505867   -5.3833154    1.1371891      8192000 
  557000   0.75849362   -5.3840815   -5.3840815   -4.2463414  0.010354059   -5.3840815    1.1377401      8192000 
  558000   0.75895895   -5.3847783   -5.3847783   -4.2463401  0.010262476   -5.3847783    1.1384381      8192000 
  559000   0.75920545   -5.3853778   -5.3853778   -4.2465699  0.014500526   -5.3853778    1.1388079      8192000 
  560000   0.75945139   -5.3862162   -5.3862162   -4.2470394  0.015634094   -5.3862162    1.1391768      8192000 
  561000   0.75991774   -5.3870542   -5.3870542   -4.2471779  0.016829806   -5.3870542    1.1398763      8192000 
  562000   0.75976085   -5.3867889   -5.3867889   -4.2471479  0.018190372   -5.3867889     1.139641      8192000 
  563000   0.75993586   -5.3871445   -5.3871445    -4.247241  0.019236907   -5.3871445    1.1399035      8192000 
  564000   0.76016164   -5.3876624   -5.3876624   -4.2474202  0.019491932   -5.3876624    1.1402422      8192000 
  565000    0.7602283    -5.387778    -5.387778   -4.2474358  0.019602217    -5.387778    1.1403422      8192000 
  566000   0.76007884   -5.3875833   -5.3875833   -4.2474654  0.019539997   -5.3875833     1.140118      8192000 
  567000   0.76005249   -5.3877062   -5.3877062   -4.2476278  0.016554671   -5.3877062    1.1400785      8192000 
  568000   0.75933019   -5.3867054   -5.3867054   -4.2477104  0.016751188   -5.3867054     1.138995      8192000 
  569000   0.75898388   -5.3862077   -5.3862077   -4.2477321  0.013062887   -5.3862077    1.1384755      8192000 
  570000   0.75873678    -5.385921    -5.385921   -4.2478162  0.011661287    -5.385921    1.1381049      8192000 
  571000   0.75846778   -5.3855336   -5.3855336   -4.2478322  0.011106587   -5.3855336    1.1377014      8192000 
  572000   0.75806967   -5.3849849   -5.3849849   -4.2478807  0.011019126   -5.3849849    1.1371042      8192000 
  573000   0.75765792   -5.3842338   -5.3842338   -4.2477472 0.0091487625   -5.3842338    1.1364866      8192000 
  574000    0.7576645   -5.3845051   -5.3845051   -4.2480086 0.0091118789   -5.3845051    1.1364965      8192000 
  575000   0.75751632   -5.3843406   -5.3843406   -4.2480664 0.0071553172   -5.3843406    1.1362742      8192000 
  576000   0.75771843   -5.3846405   -5.3846405   -4.2480632 0.0069700215   -5.3846405    1.1365774      8192000 
  577000   0.75764824    -5.384634    -5.384634   -4.2481619 0.0063617314    -5.384634    1.1364721      8192000 
  578000   0.75767265   -5.3847208   -5.3847208   -4.2482121 0.0065479997   -5.3847208    1.1365087      8192000 
  579000   0.75763728   -5.3846037   -5.3846037    -4.248148 0.0083496059   -5.3846037    1.1364556      8192000 
  580000   0.75857472   -5.3860867   -5.3860867   -4.2482249  0.010130477   -5.3860867    1.1378618      8192000 
  581000   0.75840582   -5.3860049   -5.3860049   -4.2483964  0.013166227   -5.3860049    1.1376085      8192000 
  582000   0.75926339   -5.3872976   -5.3872976   -4.2484028  0.014914975   -5.3872976    1.1388948      8192000 
  583000   0.75936839   -5.3875526   -5.3875526   -4.2485003  0.014896104   -5.3875526    1.1390523      8192000 
  584000   0.75988546   -5.3886198   -5.3886198   -4.2487919  0.015607095   -5.3886198    1.1398279      8192000 
  585000   0.75979515    -5.388515    -5.388515   -4.2488225  0.017633913    -5.388515    1.1396924      8192000 
  586000   0.75948589   -5.3880304   -5.3880304   -4.2488019  0.017532663   -5.3880304    1.1392285      8192000 
  587000    0.7596309   -5.3881893   -5.3881893   -4.2487433  0.018249127   -5.3881893    1.1394461      8192000 
  588000   0.75977141   -5.3887143   -5.3887143   -4.2490575  0.017758338   -5.3887143    1.1396568      8192000 
  589000   0.75975707   -5.3887601   -5.3887601   -4.2491248  0.017509111   -5.3887601    1.1396353      8192000 
  590000   0.75923077   -5.3878694   -5.3878694   -4.2490235  0.017344953   -5.3878694    1.1388459      8192000 
  591000    0.7593818   -5.3879941   -5.3879941   -4.2489217  0.015077169   -5.3879941    1.1390724      8192000 
  592000   0.75898721   -5.3872512   -5.3872512   -4.2487707  0.014338246   -5.3872512    1.1384805      8192000 
  593000   0.75887566   -5.3870709   -5.3870709   -4.2487576  0.010423387   -5.3870709    1.1383132      8192000 
  594000   0.75813837   -5.3860466   -5.3860466   -4.2488394  0.011198342   -5.3860466    1.1372073      8192000 
  595000   0.75778944   -5.3856289   -5.3856289    -4.248945 0.0091594156   -5.3856289    1.1366839      8192000 
  596000   0.75776246    -5.385771    -5.385771   -4.2491276 0.0086871748    -5.385771    1.1366434      8192000 
  597000   0.75802084    -5.385965    -5.385965    -4.248934 0.0085705323    -5.385965     1.137031      8192000 
  598000   0.75764199   -5.3855606   -5.3855606   -4.2490979  0.010370486   -5.3855606    1.1364627      8192000 
  599000   0.75791957    -5.386021    -5.386021   -4.2491419 0.0095375286    -5.386021    1.1368791      8192000 
  600000   0.75751966   -5.3854816   -5.3854816   -4.2492024 0.0089764441   -5.3854816    1.1362792      8192000 
  601000   0.75729881   -5.3850882   -5.3850882   -4.2491403 0.0098590993   -5.3850882    1.1359479      8192000 
  602000   0.75788256   -5.3860943   -5.3860943   -4.2492707  0.010657846   -5.3860943    1.1368236      8192000 
  603000   0.75827959   -5.3867686   -5.3867686   -4.2493495   0.01063238   -5.3867686    1.1374191      8192000 
  604000   0.75839251   -5.3869979   -5.3869979   -4.2494094  0.013093031   -5.3869979    1.1375885      8192000 
  605000   0.75879267   -5.3874491   -5.3874491   -4.2492604  0.014035197   -5.3874491    1.1381887      8192000 
  606000   0.75897258   -5.3875413   -5.3875413   -4.2490827   0.01518562   -5.3875413    1.1384586      8192000 
  607000   0.75935809    -5.388269    -5.388269   -4.2492321  0.016380233    -5.388269    1.1390369      8192000 
  608000   0.75947018   -5.3885063   -5.3885063   -4.2493013  0.016555821   -5.3885063     1.139205      8192000 
  609000   0.75923355   -5.3881254   -5.3881254   -4.2492754  0.018344756   -5.3881254      1.13885      8192000 
  610000   0.75957158   -5.3886576   -5.3886576   -4.2493005   0.01708357   -5.3886576    1.1393571      8192000 
  611000   0.75952964     -5.38884     -5.38884   -4.2495458  0.015656203     -5.38884    1.1392942      8192000 
  612000    0.7596546   -5.3887968   -5.3887968   -4.2493152  0.015369558   -5.3887968    1.1394816      8192000 
  613000   0.75917515   -5.3878996   -5.3878996   -4.2491371  0.015532563   -5.3878996    1.1387624      8192000 
  614000   0.75875652   -5.3872371   -5.3872371   -4.2491026  0.014575654   -5.3872371    1.1381345      8192000 
  615000   0.75870394   -5.3871882   -5.3871882   -4.2491325  0.013661495   -5.3871882    1.1380556      8192000 
  616000   0.75860608   -5.3869314   -5.3869314   -4.2490225  0.011475856   -5.3869314    1.1379088      8192000 
  617000   0.75789261   -5.3858227   -5.3858227    -4.248984  0.011288546   -5.3858227    1.1368386      8192000 
  618000   0.75802161   -5.3860174   -5.3860174   -4.2489853   0.01043619   -5.3860174    1.1370321      8192000 
  619000   0.75745197   -5.3852206   -5.3852206   -4.2490429  0.011312957   -5.3852206    1.1361777      8192000 
  620000    0.7575014   -5.3854671   -5.3854671   -4.2492152 0.0086301587   -5.3854671    1.1362518      8192000 
  621000   0.75690904    -5.384527    -5.384527   -4.2491637 0.0089020989    -5.384527    1.1353633      8192000 
  622000   0.75709206   -5.3849614   -5.3849614   -4.2493236 0.0096576021   -5.3849614    1.1356378      8192000 
  623000   0.75734114   -5.3850707   -5.3850707   -4.2490593  0.010100882   -5.3850707    1.1360114      8192000 
  624000   0.75782458   -5.3858147   -5.3858147   -4.2490781 0.0097671804   -5.3858147    1.1367366      8192000 
  625000   0.75783908   -5.3857117   -5.3857117   -4.2489534  0.011782815   -5.3857117    1.1367583      8192000 
  626000   0.75803906   -5.3858644   -5.3858644   -4.2488061  0.013076967   -5.3858644    1.1370583      8192000 
  627000   0.75820628   -5.3862849   -5.3862849   -4.2489758   0.01333799   -5.3862849    1.1373091      8192000 
  628000   0.75828928   -5.3864286   -5.3864286    -4.248995  0.014990587   -5.3864286    1.1374336      8192000 
  629000   0.75842308   -5.3865645   -5.3865645   -4.2489301  0.015832401   -5.3865645    1.1376343      8192000 
  630000   0.75842808   -5.3864825   -5.3864825   -4.2488407  0.015799478   -5.3864825    1.1376418      8192000 
  631000   0.75883922   -5.3871999   -5.3871999   -4.2489413  0.014882393   -5.3871999    1.1382585      8192000 
  632000   0.75858235   -5.3866009   -5.3866009   -4.2487276  0.016699808   -5.3866009    1.1378732      8192000 
  633000   0.75841031    -5.386263    -5.386263   -4.2486478  0.016444937    -5.386263    1.1376152      8192000 
  634000   0.75882402   -5.3867437   -5.3867437   -4.2485079  0.015645201   -5.3867437    1.1382357      8192000 
  635000   0.75860298   -5.3864075   -5.3864075   -4.2485033  0.015779216   -5.3864075    1.1379042      8192000 
  636000   0.75855641     -5.38619     -5.38619   -4.2483557  0.015389634     -5.38619    1.1378343      8192000 
  637000   0.75869018   -5.3862541   -5.3862541   -4.2482192  0.013645643   -5.3862541     1.138035      8192000 
  638000   0.75823701   -5.3853183   -5.3853183    -4.247963  0.012842792   -5.3853183    1.1373552      8192000 
  639000   0.75803605   -5.3849979   -5.3849979   -4.2479441  0.011763205   -5.3849979    1.1370538      8192000 
  640000   0.75807907   -5.3849788   -5.3849788   -4.2478604 0.0092915337   -5.3849788    1.1371183      8192000 
  641000   0.75802835   -5.3848177   -5.3848177   -4.2477755 0.0093350449   -5.3848177    1.1370422      8192000 
  642000   0.75730211   -5.3837602   -5.3837602   -4.2478073   0.01041148   -5.3837602    1.1359529      8192000 
  643000   0.75758297   -5.3838389   -5.3838389   -4.2474648 0.0090352242   -5.3838389    1.1363742      8192000 
  644000   0.75750618    -5.383418    -5.383418    -4.247159 0.0099613903    -5.383418     1.136259      8192000 
  645000   0.75733364   -5.3829961   -5.3829961    -4.246996   0.01095179   -5.3829961    1.1360002      8192000 
  646000   0.75756735   -5.3832164   -5.3832164   -4.2468656  0.010473698   -5.3832164    1.1363507      8192000 
  647000   0.75746867   -5.3828304   -5.3828304   -4.2466277  0.010499002   -5.3828304    1.1362027      8192000 
  648000   0.75756467   -5.3829293   -5.3829293   -4.2465825  0.010509577   -5.3829293    1.1363467      8192000 
  649000   0.75769162   -5.3829017   -5.3829017   -4.2463646  0.012149559   -5.3829017    1.1365371      8192000 
  650000   0.75814148   -5.3835064   -5.3835064   -4.2462945  0.012071551   -5.3835064    1.1372119      8192000 
  651000    0.7580242   -5.3831736   -5.3831736   -4.2461376  0.014280531   -5.3831736     1.137036      8192000 
  652000   0.75838155   -5.3835767   -5.3835767   -4.2460047  0.013496278   -5.3835767     1.137572      8192000 
  653000   0.75835296   -5.3836447   -5.3836447   -4.2461156  0.013839417   -5.3836447    1.1375291      8192000 
  654000   0.75835184   -5.3834445   -5.3834445    -4.245917   0.01357005   -5.3834445    1.1375275      8192000 
  655000   0.75837741   -5.3832621   -5.3832621   -4.2456963  0.013835837   -5.3832621    1.1375658      8192000 
  656000   0.75841821    -5.383258    -5.383258    -4.245631   0.01528086    -5.383258     1.137627      8192000 
  657000   0.75881088    -5.383796    -5.383796     -4.24558  0.012642191    -5.383796     1.138216      8192000 
  658000   0.75816722   -5.3827488   -5.3827488   -4.2454982  0.014165653   -5.3827488    1.1372505      8192000 
  659000   0.75855055   -5.3833447   -5.3833447   -4.2455192  0.013404699   -5.3833447    1.1378255      8192000 
  660000   0.75832024   -5.3827156   -5.3827156   -4.2452355  0.014258743   -5.3827156    1.1374801      8192000 
  661000   0.75806253   -5.3820473   -5.3820473   -4.2449538  0.012646287   -5.3820473    1.1370935      8192000 
  662000   0.75785132   -5.3814748   -5.3814748   -4.2446981  0.013228059   -5.3814748    1.1367767      8192000 
  663000   0.75770059    -5.381075    -5.381075   -4.2445244  0.013118462    -5.381075    1.1365506      8192000 
  664000   0.75787784   -5.3812627   -5.3812627   -4.2444463  0.010735492   -5.3812627    1.1368165      8192000 
  665000   0.75757201   -5.3804755   -5.3804755   -4.2441178  0.011649529   -5.3804755    1.1363577      8192000 
  666000   0.75754363    -5.380315    -5.380315   -4.2439998  0.009957145    -5.380315    1.1363152      8192000 
  667000   0.75732131    -5.379792    -5.379792   -4.2438104 0.0098026194    -5.379792    1.1359817      8192000 
  668000   0.75695389   -5.3789369   -5.3789369   -4.2435064  0.010696138   -5.3789369    1.1354306      8192000 
  669000   0.75715123   -5.3791876   -5.3791876   -4.2434611  0.010201599   -5.3791876    1.1357266      8192000 
  670000   0.75743579   -5.3795746   -5.3795746   -4.2434212 0.0081047365   -5.3795746    1.1361534      8192000 
  671000   0.75748776   -5.3794008   -5.3794008   -4.2431694  0.010037147   -5.3794008    1.1362314      8192000 
  672000   0.75729338   -5.3790589   -5.3790589   -4.2431191  0.012224428   -5.3790589    1.1359398      8192000 
  673000   0.75744082   -5.3787701   -5.3787701   -4.2426092  0.010858042   -5.3787701    1.1361609      8192000 
  674000   0.75749378   -5.3784497   -5.3784497   -4.2422093  0.010739779   -5.3784497    1.1362404      8192000 
  675000   0.75791081   -5.3789113   -5.3789113   -4.2420454  0.010999444   -5.3789113    1.1368659      8192000 
  676000   0.75830976   -5.3792867   -5.3792867   -4.2418224  0.012142839   -5.3792867    1.1374644      8192000 
  677000    0.7583715   -5.3792305   -5.3792305   -4.2416735  0.013912361   -5.3792305     1.137557      8192000 
  678000    0.7581787   -5.3787975   -5.3787975   -4.2415298  0.014566214   -5.3787975    1.1372678      8192000 
  679000   0.75807892   -5.3784515   -5.3784515   -4.2413334  0.013180872   -5.3784515    1.1371181      8192000 
  680000   0.75796723   -5.3781722   -5.3781722   -4.2412216  0.013197883   -5.3781722    1.1369506      8192000 
  681000   0.75796775   -5.3778871   -5.3778871   -4.2409358   0.01352829   -5.3778871    1.1369513      8192000 
  682000   0.75800496   -5.3774965   -5.3774965   -4.2404893  0.014863395   -5.3774965    1.1370072      8192000 
  683000   0.75790422   -5.3771481   -5.3771481   -4.2402921  0.012073469   -5.3771481     1.136856      8192000 
  684000   0.75789743   -5.3766809   -5.3766809    -4.239835  0.011403528   -5.3766809    1.1368459      8192000 
  685000   0.75797124   -5.3765845   -5.3765845    -4.239628  0.010699102   -5.3765845    1.1369566      8192000 
  686000   0.75758558   -5.3757958   -5.3757958   -4.2394177  0.011578878   -5.3757958    1.1363781      8192000 
  687000   0.75744966   -5.3753638   -5.3753638   -4.2391896  0.010451757   -5.3753638    1.1361742      8192000 
  688000   0.75746064   -5.3751743   -5.3751743   -4.2389836 0.0096930179   -5.3751743    1.1361907      8192000 
  689000   0.75735093   -5.3746191   -5.3746191    -4.238593 0.0095527341   -5.3746191    1.1360261      8192000 
  690000   0.75700166   -5.3738744   -5.3738744   -4.2383722 0.0092833876   -5.3738744    1.1355022      8192000 
  691000   0.75674382   -5.3732616   -5.3732616   -4.2381461  0.010507349   -5.3732616    1.1351154      8192000 
  692000   0.75721493   -5.3737448   -5.3737448   -4.2379227 0.0079395728   -5.3737448    1.1358221      8192000 
  693000   0.75732468   -5.3736191   -5.3736191   -4.2376324 0.0091331263   -5.3736191    1.1359867      8192000 
  694000   0.75725586   -5.3733807   -5.3733807   -4.2374972 0.0082972179   -5.3733807    1.1358835      8192000 
  695000   0.75720605   -5.3731852   -5.3731852   -4.2373764 0.0078248099   -5.3731852    1.1358088      8192000 
  696000   0.75708362   -5.3727701   -5.3727701    -4.237145  0.011432734   -5.3727701    1.1356251      8192000 
  697000   0.75741876   -5.3730452   -5.3730452   -4.2369173  0.010006099   -5.3730452    1.1361279      8192000 
  698000   0.75750346   -5.3729238   -5.3729238   -4.2366689  0.012283061   -5.3729238    1.1362549      8192000 
  699000   0.75803089   -5.3733162   -5.3733162   -4.2362702  0.011274834   -5.3733162    1.1370461      8192000 
  700000   0.75796269   -5.3729937   -5.3729937   -4.2360499  0.012666698   -5.3729937    1.1369438      8192000 
  701000      0.75816   -5.3728159   -5.3728159   -4.2355761  0.012647663   -5.3728159    1.1372397      8192000 
  702000   0.75777605   -5.3716302   -5.3716302   -4.2349664  0.013069392   -5.3716302    1.1366638      8192000 
  703000   0.75792592   -5.3715409   -5.3715409   -4.2346523  0.013011627   -5.3715409    1.1368886      8192000 
  704000   0.75781168   -5.3711573   -5.3711573   -4.2344401  0.013284368   -5.3711573    1.1367172      8192000 
  705000   0.75786421   -5.3710446   -5.3710446   -4.2342486  0.010860141   -5.3710446     1.136796      8192000 
  706000   0.75764014   -5.3704261   -5.3704261   -4.2339662  0.011524104   -5.3704261    1.1364599      8192000 
  707000   0.75759123   -5.3701013   -5.3701013   -4.2337147 0.0089490177   -5.3701013    1.1363866      8192000 
  708000   0.75703627   -5.3688235   -5.3688235   -4.2332694  0.010422568   -5.3688235    1.1355541      8192000 
  709000   0.75719826   -5.3687044   -5.3687044   -4.2329073  0.010757518   -5.3687044    1.1357971      8192000 
  710000   0.75714596   -5.3683434   -5.3683434   -4.2326248 0.0081779502   -5.3683434    1.1357187      8192000 
  711000   0.75660252   -5.3668888   -5.3668888   -4.2319854 0.0075535396   -5.3668888    1.1349035      8192000 
  712000   0.75712143   -5.3674352   -5.3674352   -4.2317533 0.0062388549   -5.3674352    1.1356819      8192000 
  713000   0.75676298   -5.3663637   -5.3663637   -4.2312195 0.0076465897   -5.3663637    1.1351442      8192000 
  714000   0.75658553   -5.3655577   -5.3655577   -4.2306797 0.0084374652   -5.3655577     1.134878      8192000 
  715000   0.75715611   -5.3659968   -5.3659968   -4.2302629 0.0057872036   -5.3659968    1.1357339      8192000 
  716000   0.75705879   -5.3656173   -5.3656173   -4.2300294 0.0074385117   -5.3656173    1.1355879      8192000 
  717000   0.75691197   -5.3649999   -5.3649999   -4.2296323 0.0090915621   -5.3649999    1.1353677      8192000 
  718000    0.7574301   -5.3654718   -5.3654718    -4.229327 0.0094899664   -5.3654718    1.1361449      8192000 
  719000   0.75749553   -5.3649589   -5.3649589   -4.2287159 0.0095415426   -5.3649589     1.136243      8192000 
  720000   0.75736727   -5.3643906   -5.3643906     -4.22834  0.010845337   -5.3643906    1.1360506      8192000 
  721000   0.75755887   -5.3641234   -5.3641234   -4.2277854 0.0096811653   -5.3641234     1.136338      8192000 
  722000   0.75730883    -5.363601    -5.363601    -4.227638 0.0096492025    -5.363601     1.135963      8192000 
  723000    0.7576456   -5.3637043   -5.3637043   -4.2272362  0.011173944   -5.3637043    1.1364681      8192000 
  724000   0.75779517   -5.3632407   -5.3632407   -4.2265482  0.010023401   -5.3632407    1.1366925      8192000 
  725000   0.75780948   -5.3628395   -5.3628395   -4.2261255  0.010673526   -5.3628395    1.1367139      8192000 
  726000   0.75806933    -5.362806    -5.362806   -4.2257023 0.0098246394    -5.362806    1.1371037      8192000 
  727000   0.75781496   -5.3618463   -5.3618463   -4.2251241 0.0098245861   -5.3618463    1.1367222      8192000 
  728000   0.75778285   -5.3612048   -5.3612048   -4.2245308 0.0087342176   -5.3612048     1.136674      8192000 
  729000   0.75735141   -5.3601281   -5.3601281   -4.2241013 0.0088211404   -5.3601281    1.1360268      8192000 
  730000   0.75787055   -5.3602463   -5.3602463   -4.2234408 0.0070667179   -5.3602463    1.1368055      8192000 
  731000   0.75766767   -5.3594589   -5.3594589   -4.2229576  0.006298256   -5.3594589    1.1365012      8192000 
  732000   0.75712197   -5.3580611   -5.3580611   -4.2223784 0.0060545013   -5.3580611    1.1356827      8192000 
  733000   0.75692365   -5.3573592   -5.3573592    -4.221974 0.0069661486   -5.3573592    1.1353852      8192000 
  734000   0.75691893   -5.3565321   -5.3565321    -4.221154 0.0066930373   -5.3565321    1.1353781      8192000 
  735000   0.75657803   -5.3555293   -5.3555293   -4.2206626 0.0078982525   -5.3555293    1.1348668      8192000 
  736000   0.75717936   -5.3556949   -5.3556949   -4.2199261 0.0070337502   -5.3556949    1.1357688      8192000 
  737000   0.75717057   -5.3553117   -5.3553117   -4.2195562 0.0069538251   -5.3553117    1.1357556      8192000 
  738000   0.75680241   -5.3542481   -5.3542481   -4.2190447 0.0073502306   -5.3542481    1.1352033      8192000 
  739000   0.75714536   -5.3541856   -5.3541856   -4.2184678 0.0071460136   -5.3541856    1.1357178      8192000 
  740000   0.75702209   -5.3531857   -5.3531857   -4.2176529 0.0071871501   -5.3531857    1.1355329      8192000 
  741000   0.75737806   -5.3529719   -5.3529719   -4.2169051 0.0064712349   -5.3529719    1.1360668      8192000 
  742000   0.75709508   -5.3520165   -5.3520165   -4.2163742 0.0084432857   -5.3520165    1.1356423      8192000 
  743000   0.75746552   -5.3518466   -5.3518466   -4.2156486 0.0083314752   -5.3518466     1.136198      8192000 
  744000    0.7578289   -5.3518923   -5.3518923   -4.2151492 0.0074858058   -5.3518923    1.1367431      8192000 
  745000   0.75764983   -5.3509275   -5.3509275    -4.214453 0.0077384679   -5.3509275    1.1364745      8192000 
  746000   0.75713485   -5.3494814   -5.3494814   -4.2137794 0.0084010842   -5.3494814     1.135702      8192000 
  747000   0.75759994   -5.3497476   -5.3497476    -4.213348 0.0074971076   -5.3497476    1.1363996      8192000 
  748000   0.75777018   -5.3493692   -5.3493692   -4.2127142 0.0050600794   -5.3493692     1.136655      8192000 
  749000   0.75768332   -5.3486031   -5.3486031   -4.2120784 0.0073729037   -5.3486031    1.1365247      8192000 
  750000   0.75782645   -5.3481044   -5.3481044    -4.211365 0.0081331023   -5.3481044    1.1367394      8192000 
  751000   0.75746894   -5.3469201   -5.3469201    -4.210717 0.0086093329   -5.3469201    1.1362031      8192000 
  752000   0.75767532   -5.3464941   -5.3464941   -4.2099814 0.0086779058   -5.3464941    1.1365127      8192000 
  753000   0.75786638   -5.3459137   -5.3459137   -4.2091144 0.0081196243   -5.3459137    1.1367993      8192000 
  754000   0.75742663   -5.3446441   -5.3446441   -4.2085044 0.0082426575   -5.3446441    1.1361397      8192000 
  755000    0.7574658   -5.3441407   -5.3441407   -4.2079423 0.0073933745   -5.3441407    1.1361984      8192000 
  756000   0.75756369   -5.3436188   -5.3436188   -4.2072735 0.0068441298   -5.3436188    1.1363452      8192000 
  757000    0.7573961    -5.342539    -5.342539   -4.2064451 0.0067267243    -5.342539    1.1360939      8192000 
  758000   0.75760645   -5.3421666   -5.3421666   -4.2057572 0.0056548952   -5.3421666    1.1364094      8192000 
  759000   0.75730898   -5.3410149   -5.3410149   -4.2050517 0.0048516217   -5.3410149    1.1359632      8192000 
  760000    0.7572876   -5.3403628   -5.3403628   -4.2044317 0.0052647788   -5.3403628    1.1359311      8192000 
  761000   0.75725469   -5.3397276   -5.3397276   -4.2038458 0.0042101645   -5.3397276    1.1358817      8192000 
  762000   0.75739899    -5.339208    -5.339208   -4.2031098 0.0050263094    -5.339208    1.1360982      8192000 
  763000   0.75756839   -5.3389187   -5.3389187   -4.2025664 0.0045396636   -5.3389187    1.1363523      8192000 
  764000   0.75753648   -5.3379073   -5.3379073   -4.2016028 0.0057956877   -5.3379073    1.1363044      8192000 
  765000   0.75778978   -5.3375791   -5.3375791   -4.2008947 0.0058495407   -5.3375791    1.1366844      8192000 
  766000   0.75752359   -5.3366068   -5.3366068   -4.2003217 0.0057579928   -5.3366068    1.1362851      8192000 
  767000   0.75785631   -5.3363106   -5.3363106   -4.1995264 0.0053463473   -5.3363106    1.1367842      8192000 
  768000   0.75750957   -5.3351721   -5.3351721   -4.1989081 0.0063368731   -5.3351721    1.1362641      8192000 
  769000   0.75796951   -5.3353035   -5.3353035   -4.1983496  0.006726762   -5.3353035     1.136954      8192000 
  770000   0.75785828   -5.3344008   -5.3344008   -4.1976136 0.0076974805   -5.3344008    1.1367871      8192000 
  771000    0.7584858   -5.3347463   -5.3347463   -4.1970179 0.0067346486   -5.3347463    1.1377284      8192000 
  772000   0.75799148   -5.3332106   -5.3332106   -4.1962236 0.0080003086   -5.3332106    1.1369869      8192000 
  773000   0.75829087   -5.3327485   -5.3327485   -4.1953124 0.0076117537   -5.3327485     1.137436      8192000 
  774000   0.75815233     -5.33154     -5.33154   -4.1943118 0.0079720855     -5.33154    1.1372282      8192000 
  775000   0.75847758    -5.331355    -5.331355   -4.1936389 0.0075554954    -5.331355    1.1377161      8192000 
  776000   0.75829898   -5.3302408   -5.3302408   -4.1927926 0.0083388973   -5.3302408    1.1374482      8192000 
  777000   0.75831894   -5.3295416   -5.3295416   -4.1920634 0.0063937969   -5.3295416    1.1374781      8192000 
  778000   0.75824118   -5.3286422   -5.3286422   -4.1912807 0.0073095711   -5.3286422    1.1373615      8192000 
  779000   0.75801284   -5.3275676   -5.3275676   -4.1905487 0.0067451865   -5.3275676     1.137019      8192000 
  780000   0.75787069   -5.3265383   -5.3265383   -4.1897326   0.00597204   -5.3265383    1.1368058      8192000 
  781000   0.75750056   -5.3253465   -5.3253465   -4.1890959 0.0042294722   -5.3253465    1.1362506      8192000 
  782000   0.75754736   -5.3245415   -5.3245415   -4.1882207 0.0027157319   -5.3245415    1.1363207      8192000 
  783000   0.75722778   -5.3232948   -5.3232948   -4.1874534 0.0035279483   -5.3232948    1.1358414      8192000 
  784000   0.75724037   -5.3224591   -5.3224591   -4.1865988 0.0033131614   -5.3224591    1.1358603      8192000 
  785000   0.75790754    -5.322712    -5.322712    -4.185851 0.0021325737    -5.322712     1.136861      8192000 
  786000    0.7574721   -5.3211473   -5.3211473   -4.1849395 0.0047320318   -5.3211473    1.1362079      8192000 
  787000   0.75785812   -5.3208502   -5.3208502   -4.1840633 0.0029012602   -5.3208502    1.1367869      8192000 
  788000   0.75777887   -5.3196735   -5.3196735   -4.1830055 0.0043228581   -5.3196735     1.136668      8192000 
  789000   0.75805201   -5.3192738   -5.3192738   -4.1821961   0.00458978   -5.3192738    1.1370777      8192000 
  790000   0.75782062   -5.3183777   -5.3183777    -4.181647 0.0049970053   -5.3183777    1.1367306      8192000 
  791000   0.75808586   -5.3180493   -5.3180493   -4.1809208 0.0071046645   -5.3180493    1.1371285      8192000 
  792000   0.75818947   -5.3172997   -5.3172997   -4.1800157 0.0097705064   -5.3172997    1.1372839      8192000 
  793000   0.75840946   -5.3167149   -5.3167149   -4.1791009 0.0085937801   -5.3167149    1.1376139      8192000 
  794000   0.75845773   -5.3161708   -5.3161708   -4.1784845 0.0085605936   -5.3161708    1.1376863      8192000 
  795000   0.75899892   -5.3161943   -5.3161943   -4.1776963 0.0050273071   -5.3161943    1.1384981      8192000 
  796000   0.75867971   -5.3148502   -5.3148502   -4.1768309 0.0065042805   -5.3148502    1.1380193      8192000 
  797000   0.75867056   -5.3140093   -5.3140093   -4.1760037 0.0068407369   -5.3140093    1.1380056      8192000 
  798000   0.75843526   -5.3129255   -5.3129255   -4.1752729 0.0073669049   -5.3129255    1.1376526      8192000 
  799000    0.7586614   -5.3126427   -5.3126427   -4.1746508 0.0061543801   -5.3126427    1.1379918      8192000 
  800000   0.75828651   -5.3112048   -5.3112048   -4.1737753  0.006363209   -5.3112048    1.1374295      8192000 
  801000    0.7586343   -5.3109243   -5.3109243   -4.1729731 0.0048271574   -5.3109243    1.1379512      8192000 
  802000   0.75872031   -5.3099703   -5.3099703   -4.1718901 0.0043404526   -5.3099703    1.1380802      8192000 
  803000   0.75865352   -5.3090232   -5.3090232   -4.1710432   0.00496808   -5.3090232      1.13798      8192000 
  804000   0.75887364   -5.3085388   -5.3085388   -4.1702286 0.0041827272   -5.3085388    1.1383102      8192000 
  805000   0.75902459   -5.3081056   -5.3081056    -4.169569 0.0035509853   -5.3081056    1.1385366      8192000 
  806000   0.75828801   -5.3059714   -5.3059714   -4.1685396 0.0068511642   -5.3059714    1.1374317      8192000 
  807000   0.75850656   -5.3054478   -5.3054478   -4.1676882 0.0039693158   -5.3054478    1.1377596      8192000 
  808000   0.75841214   -5.3044775   -5.3044775   -4.1668596 0.0056331553   -5.3044775    1.1376179      8192000 
  809000   0.75869607   -5.3039114   -5.3039114   -4.1658676 0.0047807801   -5.3039114    1.1380438      8192000 
  810000   0.75890136   -5.3034177   -5.3034177   -4.1650659 0.0040977598   -5.3034177    1.1383518      8192000 
  811000   0.75893542   -5.3029998   -5.3029998    -4.164597 0.0048534107   -5.3029998    1.1384028      8192000 
  812000   0.75875784   -5.3017613   -5.3017613   -4.1636249 0.0055940559   -5.3017613    1.1381365      8192000 
  813000   0.75866338   -5.3006395   -5.3006395   -4.1626447 0.0056867878   -5.3006395    1.1379948      8192000 
  814000   0.75925783   -5.3006741   -5.3006741   -4.1617877 0.0039855972   -5.3006741    1.1388865      8192000 
  815000   0.75902239   -5.2995962   -5.2995962   -4.1610629 0.0042250267   -5.2995962    1.1385333      8192000 
  816000   0.75926454   -5.2990636   -5.2990636   -4.1601671 0.0052060092   -5.2990636    1.1388965      8192000 
  817000   0.75931571   -5.2983083   -5.2983083   -4.1593351 0.0044856697   -5.2983083    1.1389733      8192000 
  818000    0.7595546   -5.2978531   -5.2978531   -4.1585215 0.0042334005   -5.2978531    1.1393316      8192000 
  819000   0.75922761   -5.2964161   -5.2964161    -4.157575 0.0053149177   -5.2964161    1.1388411      8192000 
  820000   0.75948631   -5.2961064   -5.2961064   -4.1568772 0.0060060512   -5.2961064    1.1392292      8192000 
  821000   0.75967919   -5.2955634   -5.2955634   -4.1560449 0.0068797899   -5.2955634    1.1395185      8192000 
  822000   0.75986662   -5.2951483   -5.2951483   -4.1553487 0.0077569456   -5.2951483    1.1397997      8192000 
  823000   0.75998088   -5.2944419   -5.2944419   -4.1544709 0.0085629886   -5.2944419     1.139971      8192000 
  824000   0.76003882    -5.294028    -5.294028   -4.1539701 0.0066287711    -5.294028    1.1400579      8192000 
  825000   0.75970471    -5.292728    -5.292728   -4.1531712 0.0063338877    -5.292728    1.1395568      8192000 
  826000   0.75957002   -5.2916349   -5.2916349   -4.1522801 0.0071990024   -5.2916349    1.1393547      8192000 
  827000   0.75986472   -5.2915375   -5.2915375   -4.1517407 0.0049757798   -5.2915375    1.1397968      8192000 
  828000   0.75957931   -5.2903131   -5.2903131   -4.1509444 0.0044304592   -5.2903131    1.1393687      8192000 
  829000   0.75958889   -5.2896088   -5.2896088   -4.1502257 0.0052260045   -5.2896088    1.1393831      8192000 
  830000   0.75998595   -5.2892537   -5.2892537    -4.149275 0.0043040922   -5.2892537    1.1399786      8192000 
  831000   0.75986822   -5.2883681   -5.2883681    -4.148566 0.0055613542   -5.2883681    1.1398021      8192000 
  832000   0.76018242   -5.2880889   -5.2880889   -4.1478155 0.0050528331   -5.2880889    1.1402733      8192000 
  833000   0.76019699   -5.2873117   -5.2873117   -4.1470165  0.005529969   -5.2873117    1.1402952      8192000 
  834000    0.7604073   -5.2868416   -5.2868416   -4.1462309 0.0058768136   -5.2868416    1.1406107      8192000 
  835000   0.76038975   -5.2860986   -5.2860986   -4.1455143 0.0066789507   -5.2860986    1.1405843      8192000 
  836000    0.7605768   -5.2856594   -5.2856594   -4.1447945 0.0065561991   -5.2856594    1.1408649      8192000 
  837000   0.76068639   -5.2851927   -5.2851927   -4.1441634  0.007472928   -5.2851927    1.1410293      8192000 
  838000   0.76066253    -5.284527    -5.284527   -4.1435335 0.0077328105    -5.284527    1.1409935      8192000 
  839000   0.76137209   -5.2850137   -5.2850137   -4.1429559 0.0055493299   -5.2850137    1.1420578      8192000 
  840000   0.76143857    -5.284354    -5.284354   -4.1421964 0.0072653048    -5.284354    1.1421576      8192000 
  841000   0.76119011    -5.283351    -5.283351   -4.1415661 0.0083166272    -5.283351    1.1417849      8192000 
  842000   0.76155381   -5.2832851   -5.2832851   -4.1409547 0.0080918889   -5.2832851    1.1423304      8192000 
  843000   0.76153887   -5.2828195   -5.2828195   -4.1405115  0.010035362   -5.2828195     1.142308      8192000 
  844000   0.76188484   -5.2827039   -5.2827039   -4.1398769 0.0083777374   -5.2827039     1.142827      8192000 
  845000   0.76197238   -5.2822642   -5.2822642   -4.1393059  0.010016232   -5.2822642    1.1429583      8192000 
  846000   0.76148189   -5.2809191   -5.2809191   -4.1386966  0.010087203   -5.2809191    1.1422225      8192000 
  847000   0.76178361   -5.2809588   -5.2809588   -4.1382837  0.011467636   -5.2809588    1.1426751      8192000 
  848000   0.76165563   -5.2803237   -5.2803237   -4.1378406   0.01066562   -5.2803237    1.1424832      8192000 
  849000   0.76217211   -5.2804492   -5.2804492   -4.1371913  0.011309178   -5.2804492    1.1432579      8192000 
  850000   0.76220063   -5.2801968   -5.2801968   -4.1368961  0.010752926   -5.2801968    1.1433007      8192000 
  851000   0.76282927   -5.2807346   -5.2807346    -4.136491  0.010225503   -5.2807346    1.1442436      8192000 
  852000   0.76274509   -5.2801925   -5.2801925   -4.1360752  0.012614535   -5.2801925    1.1441173      8192000 
  853000   0.76312098   -5.2804219   -5.2804219   -4.1357407   0.01450661   -5.2804219    1.1446812      8192000 
  854000   0.76343032   -5.2806976   -5.2806976   -4.1355524  0.013483429   -5.2806976    1.1451452      8192000 
  855000   0.76385003   -5.2809282   -5.2809282   -4.1351535  0.016358361   -5.2809282    1.1457748      8192000 
  856000   0.76464582   -5.2815558   -5.2815558   -4.1345874  0.017488243   -5.2815558    1.1469684      8192000 
  857000   0.76475953   -5.2814099   -5.2814099   -4.1342709  0.020890871   -5.2814099     1.147139      8192000 
  858000   0.76499001   -5.2814283   -5.2814283   -4.1339435  0.024053797   -5.2814283    1.1474847      8192000 
  859000     0.765588   -5.2823286   -5.2823286   -4.1339469  0.024979018   -5.2823286    1.1483817      8192000 
  860000   0.76588638   -5.2827966   -5.2827966   -4.1339674  0.027412644   -5.2827966    1.1488293      8192000 
  861000   0.76674964   -5.2837393   -5.2837393   -4.1336151  0.028307667   -5.2837393    1.1501242      8192000 
  862000   0.76718933    -5.284171    -5.284171   -4.1333873  0.032631799    -5.284171    1.1507837      8192000 
  863000    0.7677043   -5.2849393   -5.2849393   -4.1333831  0.034399081   -5.2849393    1.1515562      8192000 
  864000   0.76799488   -5.2852548   -5.2852548   -4.1332628  0.036540885   -5.2852548     1.151992      8192000 
  865000   0.76886593   -5.2864902   -5.2864902   -4.1331916  0.037613685   -5.2864902    1.1532986      8192000 
  866000   0.76912662   -5.2868525   -5.2868525   -4.1331629  0.039357618   -5.2868525    1.1536896      8192000 
  867000   0.76982146   -5.2879141   -5.2879141   -4.1331822  0.039950474   -5.2879141    1.1547319      8192000 
  868000   0.76954038   -5.2877061   -5.2877061   -4.1333958  0.045103245   -5.2877061    1.1543103      8192000 
  869000   0.77026653    -5.288731    -5.288731   -4.1333315  0.046620613    -5.288731    1.1553995      8192000 
  870000   0.77046953   -5.2889564   -5.2889564   -4.1332524  0.051014059   -5.2889564     1.155704      8192000 
  871000   0.77110062   -5.2898693   -5.2898693   -4.1332187   0.05236157   -5.2898693    1.1566506      8192000 
  872000   0.77178655   -5.2909765   -5.2909765    -4.133297  0.056289462   -5.2909765    1.1576795      8192000 
  873000   0.77257824   -5.2922306   -5.2922306   -4.1333636  0.060257484   -5.2922306    1.1588671      8192000 
  874000   0.77338187   -5.2935845   -5.2935845    -4.133512  0.066787337   -5.2935845    1.1600725      8192000 
  875000   0.77460789    -5.295624    -5.295624   -4.1337125  0.073523341    -5.295624    1.1619115      8192000 
  876000   0.77597366   -5.2982231   -5.2982231   -4.1342629  0.081162009   -5.2982231    1.1639602      8192000 
  877000   0.77661461   -5.2997817   -5.2997817   -4.1348601  0.089007262   -5.2997817    1.1649216      8192000 
  878000   0.77827452   -5.3027335   -5.3027335    -4.135322  0.094189769   -5.3027335    1.1674115      8192000 
  879000   0.77865886   -5.3039229   -5.3039229   -4.1359349   0.10154049   -5.3039229     1.167988      8192000 
  880000   0.77930982   -5.3057013   -5.3057013   -4.1367369    0.1051285   -5.3057013    1.1689644      8192000 
  881000   0.77975737   -5.3070047   -5.3070047   -4.1373689   0.10887444   -5.3070047    1.1696358      8192000 
  882000   0.77996449   -5.3080392   -5.3080392   -4.1380928   0.11296427   -5.3080392    1.1699464      8192000 
  883000   0.78071004    -5.309773    -5.309773   -4.1387082   0.11341561    -5.309773    1.1710648      8192000 
  884000   0.78011117   -5.3094164   -5.3094164     -4.13925    0.1162417   -5.3094164    1.1701665      8192000 
  885000   0.78003041   -5.3095104   -5.3095104   -4.1394651   0.11470257   -5.3095104    1.1700453      8192000 
  886000   0.77956552   -5.3090047   -5.3090047   -4.1396567   0.11103615   -5.3090047     1.169348      8192000 
  887000   0.77882446   -5.3080578   -5.3080578   -4.1398214   0.10678078   -5.3080578    1.1682364      8192000 
  888000   0.77818068   -5.3070418   -5.3070418    -4.139771   0.10145371   -5.3070418    1.1672707      8192000 
  889000   0.77755192   -5.3056237   -5.3056237   -4.1392961  0.095559553   -5.3056237    1.1663276      8192000 
  890000   0.77650372   -5.3038243   -5.3038243    -4.139069  0.091107747   -5.3038243    1.1647553      8192000 
  891000   0.77556846   -5.3022957   -5.3022957   -4.1389433  0.085762915   -5.3022957    1.1633524      8192000 
  892000    0.7743698   -5.3003065   -5.3003065    -4.138752  0.081427372   -5.3003065    1.1615544      8192000 
  893000   0.77365322   -5.2988845   -5.2988845    -4.138405  0.075006882   -5.2988845    1.1604795      8192000 
  894000   0.77251038   -5.2966466   -5.2966466   -4.1378813  0.068542181   -5.2966466    1.1587653      8192000 
  895000   0.77123788   -5.2940623   -5.2940623   -4.1372058  0.062304587   -5.2940623    1.1568565      8192000 
  896000   0.77025614    -5.292005    -5.292005    -4.136621  0.055106891    -5.292005    1.1553839      8192000 
  897000   0.76917122   -5.2895514   -5.2895514   -4.1357948  0.045288792   -5.2895514    1.1537565      8192000 
  898000   0.76736528   -5.2858282   -5.2858282   -4.1347806  0.039239548   -5.2858282    1.1510476      8192000 
  899000   0.76632388   -5.2835506   -5.2835506   -4.1340651  0.028676797   -5.2835506    1.1494855      8192000 
  900000   0.76430425   -5.2796853   -5.2796853   -4.1332292  0.020379578   -5.2796853    1.1464561      8192000 
  901000    0.7630142   -5.2765814   -5.2765814   -4.1320604  0.010469125   -5.2765814     1.144521      8192000 
  902000   0.76167285   -5.2735522   -5.2735522   -4.1310432 0.0018601651   -5.2735522     1.142509      8192000 
  903000    0.7602854   -5.2701894   -5.2701894   -4.1297616 -0.0054625545   -5.2701894    1.1404278      8192000 
  904000    0.7589429   -5.2670414   -5.2670414   -4.1286273 -0.013845995   -5.2670414    1.1384141      8192000 
  905000   0.75771789   -5.2638438   -5.2638438   -4.1272673 -0.020050175   -5.2638438    1.1365765      8192000 
  906000   0.75647009   -5.2607269   -5.2607269    -4.126022 -0.025821415   -5.2607269    1.1347049      8192000 
  907000   0.75535992   -5.2577881   -5.2577881   -4.1247485 -0.031868834   -5.2577881    1.1330396      8192000 
  908000   0.75488813   -5.2559728   -5.2559728   -4.1236409 -0.039511925   -5.2559728    1.1323319      8192000 
  909000   0.75353397   -5.2528464   -5.2528464   -4.1225457 -0.044121115   -5.2528464    1.1303007      8192000 
  910000   0.75331083   -5.2513163   -5.2513163   -4.1213503  -0.05286641   -5.2513163     1.129966      8192000 
  911000   0.75147257   -5.2476903   -5.2476903   -4.1204817 -0.055261843   -5.2476903    1.1272086      8192000 
  912000   0.75116756   -5.2460469   -5.2460469   -4.1192959 -0.059567811   -5.2460469    1.1267511      8192000 
  913000   0.75048153   -5.2440109   -5.2440109   -4.1182888 -0.064198315   -5.2440109     1.125722      8192000 
  914000   0.74939751   -5.2413517   -5.2413517   -4.1172558  -0.06658127   -5.2413517     1.124096      8192000 
  915000   0.74908747   -5.2400214   -5.2400214   -4.1163905 -0.069068806   -5.2400214    1.1236309      8192000 
  916000   0.74924578   -5.2393863   -5.2393863   -4.1155179 -0.074343706   -5.2393863    1.1238684      8192000 
  917000   0.74865878   -5.2374932   -5.2374932   -4.1145053 -0.073953111   -5.2374932    1.1229879      8192000 
  918000   0.74833976   -5.2362045   -5.2362045   -4.1136951 -0.072987001   -5.2362045    1.1225094      8192000 
  919000   0.74864485   -5.2358893   -5.2358893   -4.1129223 -0.074686541   -5.2358893     1.122967      8192000 
  920000    0.7488315   -5.2355225   -5.2355225   -4.1122755 -0.076608947   -5.2355225     1.123247      8192000 
  921000   0.74911885   -5.2353306   -5.2353306   -4.1116526 -0.074639407   -5.2353306     1.123678      8192000 
  922000   0.74964978   -5.2355244   -5.2355244     -4.11105 -0.072033022   -5.2355244    1.1244744      8192000 
  923000   0.75006476   -5.2355515   -5.2355515   -4.1104547 -0.069625231   -5.2355515    1.1250969      8192000 
  924000   0.75104137   -5.2366501   -5.2366501   -4.1100883 -0.066590224   -5.2366501    1.1265618      8192000 
  925000   0.75163394   -5.2371813   -5.2371813   -4.1097307 -0.062593493   -5.2371813    1.1274506      8192000 
  926000   0.75273659   -5.2386174   -5.2386174   -4.1095128 -0.060128676   -5.2386174    1.1291046      8192000 
  927000   0.75382629   -5.2401443   -5.2401443   -4.1094052 -0.055576688   -5.2401443    1.1307392      8192000 
  928000   0.75417469   -5.2407682   -5.2407682   -4.1095064 -0.050283687   -5.2407682    1.1312618      8192000 
  929000    0.7555086   -5.2426616   -5.2426616    -4.109399 -0.045822123   -5.2426616    1.1332626      8192000 
  930000   0.75667939   -5.2444481   -5.2444481   -4.1094293 -0.041120695   -5.2444481    1.1350188      8192000 
  931000   0.75750212     -5.24588     -5.24588   -4.1096271 -0.036366422     -5.24588    1.1362529      8192000 
  932000   0.75844424   -5.2476511   -5.2476511   -4.1099851  -0.03030075   -5.2476511    1.1376661      8192000 
  933000   0.75969495   -5.2498325   -5.2498325   -4.1102903 -0.023685869   -5.2498325    1.1395421      8192000 
  934000   0.76068149   -5.2517529   -5.2517529    -4.110731 -0.017301397   -5.2517529    1.1410219      8192000 
  935000   0.76191009   -5.2540423   -5.2540423   -4.1111774 -0.012729554   -5.2540423    1.1428648      8192000 
  936000   0.76317509   -5.2563809   -5.2563809   -4.1116185 -0.0066904704   -5.2563809    1.1447623      8192000 
  937000   0.76354402   -5.2578115   -5.2578115   -4.1124958 0.0019359634   -5.2578115    1.1453157      8192000 
  938000   0.76502477   -5.2607008   -5.2607008   -4.1131639 0.0072869101   -5.2607008    1.1475369      8192000 
  939000   0.76607306   -5.2632287   -5.2632287   -4.1141194   0.01401725   -5.2632287    1.1491093      8192000 
  940000   0.76759593   -5.2663447   -5.2663447   -4.1149511  0.019173987   -5.2663447    1.1513936      8192000 
  941000   0.76844096   -5.2684724   -5.2684724   -4.1158112  0.024737221   -5.2684724    1.1526612      8192000 
  942000   0.76921816   -5.2704622   -5.2704622   -4.1166352  0.031994788   -5.2704622    1.1538269      8192000 
  943000   0.77029821   -5.2730259   -5.2730259   -4.1175789  0.037052879   -5.2730259     1.155447      8192000 
  944000   0.77063924   -5.2747142   -5.2747142   -4.1187557  0.044217536   -5.2747142    1.1559586      8192000 
  945000   0.77160082   -5.2771565   -5.2771565   -4.1197555  0.047357826   -5.2771565    1.1574009      8192000 
  946000   0.77243676   -5.2792588   -5.2792588   -4.1206039  0.053174035   -5.2792588    1.1586548      8192000 
  947000   0.77325324   -5.2811943   -5.2811943   -4.1213147  0.056420222   -5.2811943    1.1598796      8192000 
  948000   0.77364881   -5.2825107   -5.2825107   -4.1220378  0.061990769   -5.2825107    1.1604729      8192000 
  949000   0.77440821   -5.2843317   -5.2843317   -4.1227197  0.064516873   -5.2843317     1.161612      8192000 
  950000   0.77489075   -5.2857149   -5.2857149   -4.1233791   0.06712899   -5.2857149    1.1623358      8192000 
  951000   0.77496009   -5.2866661   -5.2866661   -4.1242262  0.071158437   -5.2866661    1.1624398      8192000 
  952000   0.77530028   -5.2876198   -5.2876198   -4.1246697  0.074250857   -5.2876198    1.1629501      8192000 
  953000   0.77551623   -5.2883253   -5.2883253   -4.1250513  0.076873925   -5.2883253    1.1632741      8192000 
  954000    0.7760098   -5.2898098   -5.2898098   -4.1257953  0.077895733   -5.2898098    1.1640144      8192000 
  955000    0.7761641   -5.2904775   -5.2904775   -4.1262317  0.078119284   -5.2904775    1.1642459      8192000 
  956000   0.77629478   -5.2910193   -5.2910193   -4.1265774  0.077814402   -5.2910193    1.1644419      8192000 
  957000   0.77561471   -5.2902679   -5.2902679   -4.1268461  0.079160846   -5.2902679    1.1634218      8192000 
  958000   0.77506254   -5.2897749   -5.2897749   -4.1271814  0.078415213   -5.2897749    1.1625935      8192000 
  959000   0.77506898   -5.2901757   -5.2901757   -4.1275725  0.075325619   -5.2901757    1.1626032      8192000 
  960000   0.77434878   -5.2892957   -5.2892957   -4.1277728  0.072229255   -5.2892957    1.1615229      8192000 
  961000   0.77395391   -5.2887173   -5.2887173   -4.1277868   0.06969841   -5.2887173    1.1609306      8192000 
  962000   0.77328766   -5.2876501   -5.2876501   -4.1277189   0.06490379   -5.2876501    1.1599312      8192000 
  963000   0.77224845   -5.2861688   -5.2861688   -4.1277964  0.062310561   -5.2861688    1.1583724      8192000 
  964000   0.77176613   -5.2851622   -5.2851622   -4.1275133  0.057812112   -5.2851622    1.1576489      8192000 
  965000   0.77106528    -5.283842    -5.283842   -4.1272444  0.053018967    -5.283842    1.1565976      8192000 
  966000   0.77016585   -5.2821136   -5.2821136   -4.1268651  0.048260663   -5.2821136    1.1552485      8192000 
  967000   0.76914501   -5.2802971   -5.2802971   -4.1265799  0.043842554   -5.2802971    1.1537172      8192000 
  968000   0.76847396   -5.2790365   -5.2790365   -4.1263259  0.036938243   -5.2790365    1.1527107      8192000 
  969000      0.76748    -5.276957    -5.276957   -4.1257372  0.033531455    -5.276957    1.1512197      8192000 
  970000   0.76701723   -5.2756353   -5.2756353   -4.1251097   0.02561188   -5.2756353    1.1505256      8192000 
  971000   0.76554953   -5.2731681   -5.2731681    -4.124844  0.021079382   -5.2731681     1.148324      8192000 
  972000   0.76476294   -5.2713147   -5.2713147   -4.1241705  0.016209986   -5.2713147    1.1471441      8192000 
  973000   0.76379739   -5.2691094   -5.2691094   -4.1234136    0.0109537   -5.2691094    1.1456958      8192000 
  974000   0.76278779   -5.2666762   -5.2666762   -4.1224948 0.0054312443   -5.2666762    1.1441814      8192000 
  975000   0.76189979   -5.2646562   -5.2646562   -4.1218068 0.00015250991   -5.2646562    1.1428494      8192000 
  976000   0.76088124   -5.2623374   -5.2623374   -4.1210158 -0.0031000819   -5.2623374    1.1413216      8192000 
  977000   0.76068616   -5.2612116   -5.2612116   -4.1201826 -0.0090266549   -5.2612116     1.141029      8192000 
  978000   0.76024601    -5.259704    -5.259704   -4.1193352 -0.015769409    -5.259704    1.1403687      8192000 
  979000   0.75954493   -5.2577376   -5.2577376   -4.1184205 -0.018502172   -5.2577376    1.1393171      8192000 
  980000   0.75850274   -5.2553401   -5.2553401   -4.1175863 -0.021948763   -5.2553401    1.1377538      8192000 
  981000   0.75782544   -5.2534504   -5.2534504   -4.1167126 -0.025495306   -5.2534504    1.1367379      8192000 
  982000   0.75739175   -5.2518421   -5.2518421   -4.1157547  -0.02928145   -5.2518421    1.1360873      8192000 
  983000    0.7565414   -5.2498313   -5.2498313   -4.1150195 -0.030804079   -5.2498313    1.1348118      8192000 
  984000     0.756345   -5.2488339   -5.2488339   -4.1143167 -0.036211523   -5.2488339    1.1345172      8192000 
  985000   0.75612772   -5.2478345   -5.2478345   -4.1136432 -0.038458469   -5.2478345    1.1341913      8192000 
  986000   0.75570964    -5.246439    -5.246439   -4.1128748 -0.040852978    -5.246439    1.1335642      8192000 
  987000   0.75540784   -5.2452611   -5.2452611   -4.1121496 -0.041801495   -5.2452611    1.1331115      8192000 
  988000   0.75533222   -5.2445379   -5.2445379   -4.1115398 -0.044342689   -5.2445379     1.132998      8192000 
  989000   0.75507946   -5.2436033   -5.2436033   -4.1109844 -0.044574052   -5.2436033    1.1326189      8192000 
  990000    0.7549804   -5.2429357   -5.2429357   -4.1104653 -0.044252971   -5.2429357    1.1324703      8192000 
  991000   0.75536849      -5.2429      -5.2429   -4.1098475 -0.045200398      -5.2429    1.1330524      8192000 
  992000   0.75534188   -5.2423667   -5.2423667   -4.1093542 -0.045678178   -5.2423667    1.1330125      8192000 
  993000   0.75524043   -5.2418613   -5.2418613    -4.109001 -0.044343958   -5.2418613    1.1328604      8192000 
  994000   0.75597084   -5.2426553   -5.2426553   -4.1086994 -0.045397493   -5.2426553     1.133956      8192000 
  995000   0.75593241   -5.2422645   -5.2422645   -4.1083661 -0.040974984   -5.2422645    1.1338983      8192000 
  996000   0.75617485    -5.242375    -5.242375    -4.108113 -0.039329403    -5.242375     1.134262      8192000 
  997000   0.75656331   -5.2426074   -5.2426074   -4.1077627 -0.036146551   -5.2426074    1.1348447      8192000 
  998000   0.75761487   -5.2442081   -5.2442081    -4.107786 -0.036288808   -5.2442081     1.136422      8192000 
  999000   0.75818892   -5.2448741   -5.2448741    -4.107591 -0.034124235   -5.2448741    1.1372831      8192000 
 1000000   0.75814968   -5.2447352   -5.2447352    -4.107511 -0.029011622   -5.2447352    1.1372242      8192000 
Loop time of 97487.2 on 128 procs for 1000000 steps with 3993600 atoms

Performance: 2215.675 tau/day, 10.258 timesteps/s
99.8% CPU use with 128 MPI tasks x 1 OpenMP threads

MPI task timing breakdown:
Section |  min time  |  avg time  |  max time  |%varavg|  %CPU | %total
-----------------------------------------------------------------------
Pair    | 26533      | 40520      | 58542      |3085.4 |  99.9 | 41.56
Bond    | 0.49952    | 0.70439    | 0.94033    |   9.3 | 100.0 |  0.00
Neigh   | 3251.2     | 4886       | 7230.3     |1061.7 | 100.0 |  5.01
Comm    | 30130      | 47300      | 66335      |3470.0 |  99.6 | 48.52
Output  | 74.591     | 74.96      | 74.972     |   0.4 | 100.0 |  0.08
Modify  | 467.87     | 863.41     | 2281.3     |1548.2 |  99.8 |  0.89
Other   |            | 3841       |            |       |       |  3.94

Nlocal:        31200.0 ave       32143 max       30813 min
Histogram: 10 27 26 44 10 3 6 1 0 1
Nghost:        21482.6 ave       23291 max       17049 min
Histogram: 32 0 0 0 0 0 0 0 19 77
Neighs:    1.93459e+06 ave 2.04652e+06 max 1.69261e+06 min
Histogram: 7 8 1 0 0 1 49 17 16 29

Total # of neighbors = 2.4762802e+08
Ave neighs/atom = 62.006216
Ave special neighs/atom = 0.0000000
Neighbor list builds = 66244
Dangerous builds = 2318
Total wall time: 27:04:51
