LAMMPS (24 Dec 2020)
OMP_NUM_THREADS environment is not set. Defaulting to 1 thread. (src/comm.cpp:94)
  using 1 OpenMP thread(s) per MPI task
#Read the equilibrated lj fluid and add nanocubes

units           lj
atom_style      full
atom_modify     map array first cubes
dimension       3
boundary        p p f
pair_style      lj/cut/opt 2.0

variable        sigma           equal 1.0
variable        epsilon         equal 1.0
read_restart	restart.dat.5000000
Reading restart file ...
  restart file = 24 Dec 2020, LAMMPS = 24 Dec 2020
WARNING: Restart file used different # of processors: 192 vs. 288 (src/read_restart.cpp:697)
  restoring atom style full from restart
  orthogonal box = (0.0000000 0.0000000 0.0000000) to (80.000000 80.000000 160.00000)
  6 by 4 by 12 MPI processor grid
  restoring pair style lj/smooth/linear from restart
  439061 atoms
Finding 1-2 1-3 1-4 neighbors ...
  special bond factors lj:    0        0        0       
  special bond factors coul:  0        0        0       
     0 = max # of 1-2 neighbors
     0 = max # of 1-3 neighbors
     0 = max # of 1-4 neighbors
     1 = max # of special neighbors
  special bonds CPU = 2.345 seconds
  read_restart CPU = 2.711 seconds

group		solvent type 1
439061 atoms in group solvent

read_data	data_96.cubes group cubes add append
Reading data file ...
  orthogonal box = (0.0000000 0.0000000 0.0000000) to (80.000000 80.000000 160.00000)
  6 by 4 by 12 MPI processor grid
WARNING: Pair style in data file differs from currently defined pair style (src/read_data.cpp:588)
  reading atoms ...
  109728 atoms
  reading velocities ...
  109728 velocities
Finding 1-2 1-3 1-4 neighbors ...
  special bond factors lj:    0        0        0       
  special bond factors coul:  0        0        0       
     0 = max # of 1-2 neighbors
     0 = max # of 1-3 neighbors
     0 = max # of 1-4 neighbors
     1 = max # of special neighbors
  special bonds CPU = 0.054 seconds
  read_data CPU = 0.306 seconds

group 		hull  type 2
42816 atoms in group hull
group 		dummy type 3
66912 atoms in group dummy

neighbor      0.4 bin
neigh_modify  exclude molecule/intra cubes


pair_modify   shift yes

pair_coeff    1 1 1.0 1.0 #solvent
pair_coeff    2 2 1.0 1.0 1.12 #np
pair_coeff    3 3 0.0 0.0 0.0 #dummy
pair_coeff    2 3 0.0 0.0 0.0 #np dummy
pair_coeff    1 2 ${eps} ${sig} ${nscut} #np solvent
pair_coeff    1 2 1.0 ${sig} ${nscut} 
pair_coeff    1 2 1.0 1.0 ${nscut} 
pair_coeff    1 2 1.0 1.0 4.0 
pair_coeff    1 3 0.0 0.0 2.5 #dummy solvent

# delete solvent where the cubes are
delete_atoms  overlap 2.0 solvent cubes
System init for delete_atoms ...
Neighbor list info ...
  update every 1 steps, delay 10 steps, check yes
  max neighbors/atom: 2000, page size: 100000
  master list distance cutoff = 4.4
  ghost atom cutoff = 4.4
  binsize = 2.2, bins = 37 37 73
  2 neighbor lists, perpetual/occasional/extra = 1 1 0
  (1) command delete_atoms, occasional
      attributes: full, newton on
      pair build: full/bin
      stencil: full/bin/3d
      bin: standard
  (2) pair lj/smooth/linear, perpetual
      attributes: half, newton on
      pair build: half/bin/newton
      stencil: half/bin/3d/newton
      bin: standard
WARNING: Delete_atoms cutoff > minimum neighbor cutoff (src/delete_atoms.cpp:307)
WARNING: Ignoring 'compress yes' for molecular system (src/delete_atoms.cpp:125)
Deleted 127776 atoms, new total = 421013



pair_coeff    1 1 1.0 1.0 #solvent
pair_coeff    2 2 1.0 1.0 1.12 #np
pair_coeff    3 3 0.0 0.0 0.0 #dummy
pair_coeff    2 3 0.0 0.0 0.0 #np dummy
pair_coeff    1 2 ${eps} ${sig} ${nscut} #np solvent
pair_coeff    1 2 1.0 ${sig} ${nscut} 
pair_coeff    1 2 1.0 1.0 ${nscut} 
pair_coeff    1 2 1.0 1.0 4.0 
pair_coeff    1 3 0.0 0.0 0.0 #dummy solvent


comm_modify   mode multi cutoff/multi 1 2.0 cutoff/multi 2 2.0 cutoff/multi 3 6.95

reset_timestep 	0

balance 	1.05 shift z 10 1.05
Balancing ...
Neighbor list info ...
  update every 1 steps, delay 10 steps, check yes
  max neighbors/atom: 2000, page size: 100000
  master list distance cutoff = 4.4
  ghost atom cutoff = 6.95
  binsize = 2.2, bins = 37 37 73
  1 neighbor lists, perpetual/occasional/extra = 1 0 0
  (1) pair lj/smooth/linear, perpetual
      attributes: half, newton on
      pair build: half/bin/newton
      stencil: half/bin/3d/newton
      bin: standard
 rebalancing time: 0.005 seconds
  iteration count = 4
  initial/final maximal load/proc = 2236.0000 2123.0000
  initial/final imbalance factor  = 1.5295680 1.4522687
  x cuts: 0.0000000 0.16666667 0.33333333 0.50000000 0.66666667 0.83333333 1.0000000
  y cuts: 0.0000000 0.25000000 0.50000000 0.75000000 1.0000000
  z cuts: 0.0000000 0.057291667 0.11979167 0.17187500 0.23958333 0.30208333 0.34375000 0.41145833 0.46354167 0.51562500 0.59895833 0.64583333 1.0000000

####################### WALLS ###########################

variable       epsilonWall equal 2*${epsilon}
variable       epsilonWall equal 2*1
variable       repulsive   equal   0.7147*${sigma}
variable       repulsive   equal   0.7147*1
variable       full	   equal   3*${sigma}
variable       full	   equal   3*1
region         lowWall block EDGE EDGE EDGE EDGE EDGE 2

fix            topWall all wall/lj93 zhi EDGE 	       ${epsilonWall} ${sigma} ${repulsive} units box
fix            topWall all wall/lj93 zhi EDGE 	       2 ${sigma} ${repulsive} units box
fix            topWall all wall/lj93 zhi EDGE 	       2 1 ${repulsive} units box
fix            topWall all wall/lj93 zhi EDGE 	       2 1 0.7147 units box
fix            lowSol solvent wall/lj93 zlo EDGE                ${epsilonWall} ${sigma} ${full} units box
fix            lowSol solvent wall/lj93 zlo EDGE                2 ${sigma} ${full} units box
fix            lowSol solvent wall/lj93 zlo EDGE                2 1 ${full} units box
fix            lowSol solvent wall/lj93 zlo EDGE                2 1 3 units box
fix 	       lowCub cubes wall/lj93 zlo EDGE                ${epsilonWall} ${sigma} ${repulsive} units box
fix 	       lowCub cubes wall/lj93 zlo EDGE                2 ${sigma} ${repulsive} units box
fix 	       lowCub cubes wall/lj93 zlo EDGE                2 1 ${repulsive} units box
fix 	       lowCub cubes wall/lj93 zlo EDGE                2 1 0.7147 units box


###################### COMPUTES ##########################

compute        bin1 solvent chunk/atom bin/1d z lower 1.0 units box


######################  FIXES ############################


fix             peclet solvent ave/chunk 10 10 10000 bin1 density/number norm                  none ave one file density.profile

fix              temp solvent ave/chunk 10 10 10000 bin1 temp norm                  none ave one file temp.profile

fix             1 cubes rigid/nve/small molecule
  create bodies CPU = 0.028 seconds
  96 rigid bodies with 109728 atoms
  6.9282032 = max distance from body owner to body atom

fix             2 solvent nve# temp ${temp} ${temp} 10


## Thermostat
region          regthermo block EDGE EDGE EDGE EDGE 0 15
group           thermo dynamic solvent region regthermo every 1000
dynamic group thermo defined
fix             3 thermo langevin ${temp} ${temp} 10 156453
fix             3 thermo langevin 0.6 ${temp} 10 156453
fix             3 thermo langevin 0.6 0.6 10 156453


#### Load balancing

fix             bal all balance 1000 1.05 shift z 10 1.05

############### Diagnostics and computes ###################

compute        	com cubes          rigid/local   1 mol x y z
compute        	quat cubes         rigid/local   1 mol quatw quati quatj quatk

compute 	cc2 cubes 	   chunk/atom 	 molecule
compute 	msd cubes 	   msd/chunk 	 cc2

fix 		msd all ave/time  1 1 10000 c_msd[*] file dump.msd ave one mode vector

dump            1 all custom 500000 dump.lammpstrj id mol type x y z
dump		cubetrj hull custom 500000 cubes.lammpstrj id mol type x y z
dump            com cubes local 10000 dump.*.xyz c_com[*]
dump	        xyz hull xyz 100000 cubes.xyz
dump            quat cubes      local 10000 dump.*.quat c_quat[*]
#dump		mol cubes molfile 10000 mol.xyz xyz


dump            2 all image 10000 image.*.png type type zoom 1.5 size 1280 720
dump_modify     2 pad 8
dump		image cubes image 10000 image_cubes.*.png type type zoom 1.5 size 1280 720
dump_modify	image pad 8
dump            3 all movie 5000 movie.avi type type zoom 1.5 size 1280 720
dump		4 cubes movie 5000 movie_cubes.avi type type size 1280 720


thermo          1000
thermo_style    custom step temp epair evdwl etotal press pe ke atoms

restart         1000000 restart.dat
timestep        0.005
timer           full
New timer settings: style=full  mode=nosync  timeout=off

run 		5000000
Per MPI rank memory allocation (min/avg/max) = 14.08 | 20.23 | 22.96 Mbytes
Step Temp E_pair E_vdwl TotEng Press PotEng KinEng Atoms 
       0   0.61274527   -1.6082621   -1.6082621  -0.92827553   0.02184741   -1.6082621   0.67998653   421013 
    1000   0.64163984   -1.6406296   -1.6406296  -0.92857763 0.0017016714   -1.6406296   0.71205193   421013 
    2000   0.66572039   -1.6701826   -1.6701826  -0.93140754  0.038652348   -1.6701826   0.73877502   421013 
    3000   0.67571256   -1.6857601   -1.6857601  -0.93589641  0.052253893   -1.6857601    0.7498637   421013 
    4000   0.68135672   -1.6976355   -1.6976355   -0.9415083  0.063076951   -1.6976355   0.75612724   421013 
    5000   0.68444983   -1.7059045   -1.7059045  -0.94634467   0.06786428   -1.7059045   0.75955979   421013 
    6000   0.68470563   -1.7106746   -1.7106746  -0.95083094  0.057292776   -1.7106746   0.75984365   421013 
    7000   0.68477075   -1.7160838   -1.7160838  -0.95616789  0.061490743   -1.7160838   0.75991592   421013 
    8000   0.68221949   -1.7183605   -1.7183605  -0.96127585  0.066897224   -1.7183605   0.75708469   421013 
    9000   0.68135513   -1.7227143   -1.7227143  -0.96658883  0.058927528   -1.7227143   0.75612548   421013 
   10000   0.68074962   -1.7266554   -1.7266554  -0.97120193  0.059435764   -1.7266554   0.75545352   421013 
   11000   0.67900016   -1.7297234   -1.7297234  -0.97621132  0.060625716   -1.7297234   0.75351208   421013 
   12000   0.67824649   -1.7334802   -1.7334802  -0.98080449  0.054754029   -1.7334802    0.7526757   421013 
   13000   0.67602232   -1.7366369   -1.7366369  -0.98642946  0.066290337   -1.7366369   0.75020746   421013 
   14000   0.67443005   -1.7383356   -1.7383356  -0.98989511  0.065608126   -1.7383356   0.74844045   421013 
   15000   0.67417447   -1.7412583   -1.7412583  -0.99310143  0.060591378   -1.7412583   0.74815683   421013 
   16000   0.67145684   -1.7413509   -1.7413509  -0.99620997   0.06139173   -1.7413509   0.74514097   421013 
   17000   0.67094916   -1.7440014   -1.7440014   -0.9994238  0.056237178   -1.7440014   0.74457758   421013 
   18000   0.67075523    -1.745911    -1.745911   -1.0015486  0.061971571    -1.745911   0.74436237   421013 
   19000    0.6696589   -1.7468717   -1.7468717    -1.003726  0.062960014   -1.7468717   0.74314573   421013 
   20000   0.66851785   -1.7480415   -1.7480415   -1.0061621  0.054601761   -1.7480415   0.74187946   421013 
   21000   0.66707557   -1.7485619   -1.7485619    -1.008283  0.058380473   -1.7485619   0.74027892   421013 
   22000   0.66708975   -1.7492767   -1.7492767    -1.008982  0.052625001   -1.7492767   0.74029465   421013 
   23000   0.66502896   -1.7485423   -1.7485423   -1.0105345  0.053984613   -1.7485423   0.73800771   421013 
   24000   0.66513632    -1.750007    -1.750007   -1.0118801  0.057481642    -1.750007   0.73812685   421013 
   25000   0.66270578   -1.7486849   -1.7486849   -1.0132553  0.053694897   -1.7486849   0.73542959   421013 
   26000   0.66355064   -1.7506833   -1.7506833   -1.0143162  0.055762342   -1.7506833   0.73636717   421013 
   27000   0.66439651   -1.7521332   -1.7521332   -1.0148274  0.056916972   -1.7521332   0.73730586   421013 
   28000   0.66256916   -1.7511636   -1.7511636   -1.0158856  0.063862151   -1.7511636   0.73527797   421013 
   29000   0.66242272   -1.7529495   -1.7529495    -1.017834  0.056255843   -1.7529495   0.73511547   421013 
   30000   0.66226361   -1.7533613   -1.7533613   -1.0184224  0.050658014   -1.7533613    0.7349389   421013 
   31000   0.66093337   -1.7528178   -1.7528178   -1.0193551   0.04602634   -1.7528178   0.73346268   421013 
   32000   0.65965857    -1.753036    -1.753036    -1.020988  0.050914917    -1.753036   0.73204799   421013 
   33000   0.65878324    -1.753348    -1.753348   -1.0222714    0.0501417    -1.753348    0.7310766   421013 
   34000   0.65907554   -1.7537056   -1.7537056   -1.0223046  0.054071813   -1.7537056   0.73140097   421013 
   35000   0.65965319   -1.7555496   -1.7555496   -1.0235076  0.056567147   -1.7555496   0.73204201   421013 
   36000   0.65933749   -1.7559822   -1.7559822   -1.0242906  0.049217161   -1.7559822   0.73169167   421013 
   37000   0.65858019   -1.7561078   -1.7561078   -1.0252565   0.05207182   -1.7561078   0.73085127   421013 
   38000   0.65790618   -1.7560091   -1.7560091   -1.0259058  0.058025862   -1.7560091   0.73010329   421013 
   39000   0.65972779   -1.7587345   -1.7587345   -1.0266097  0.062399136   -1.7587345    0.7321248   421013 
   40000   0.65941777   -1.7580218   -1.7580218   -1.0262411  0.057839113   -1.7580218   0.73178076   421013 
   41000   0.65855068   -1.7580659   -1.7580659   -1.0272474  0.048044332   -1.7580659   0.73081852   421013 
   42000   0.65707839   -1.7574463   -1.7574463   -1.0282616  0.055207255   -1.7574463   0.72918467   421013 
   43000   0.65716022   -1.7583478   -1.7583478   -1.0290724  0.056317816   -1.7583478   0.72927547   421013 
   44000   0.65820949   -1.7599208   -1.7599208   -1.0294809  0.064904617   -1.7599208   0.73043988   421013 
   45000   0.65838496   -1.7615771   -1.7615771   -1.0309425   0.05322869   -1.7615771   0.73063461   421013 
   46000   0.65941156    -1.762974    -1.762974   -1.0312001  0.052605669    -1.762974   0.73177387   421013 
   47000   0.65925537   -1.7631481   -1.7631481   -1.0315476  0.053203747   -1.7631481   0.73160054   421013 
   48000   0.65713071   -1.7619622   -1.7619622   -1.0327195  0.053016724   -1.7619622   0.72924273   421013 
   49000   0.65619614   -1.7612491   -1.7612491   -1.0330435  0.057751403   -1.7612491   0.72820559   421013 
   50000   0.65723113   -1.7625887   -1.7625887   -1.0332346  0.055274546   -1.7625887   0.72935416   421013 
   51000   0.65644134   -1.7621375   -1.7621375   -1.0336598  0.051282738   -1.7621375    0.7284777   421013 
   52000   0.65793607   -1.7644578   -1.7644578   -1.0343213  0.044206777   -1.7644578   0.73013646   421013 
   53000   0.65719006   -1.7639421   -1.7639421   -1.0346335  0.055774692   -1.7639421   0.72930859   421013 
   54000   0.65736399   -1.7644203   -1.7644203   -1.0349187  0.055823908   -1.7644203   0.72950161   421013 
   55000   0.65773025   -1.7650797   -1.7650797   -1.0351716   0.05459932   -1.7650797   0.72990806   421013 
   56000    0.6588924   -1.7664889   -1.7664889   -1.0352912  0.061155023   -1.7664889   0.73119774   421013 
   57000   0.65710986   -1.7648228   -1.7648228   -1.0356032  0.055853987   -1.7648228   0.72921959   421013 
   58000   0.65888979   -1.7677563   -1.7677563   -1.0365614  0.053129704   -1.7677563   0.73119485   421013 
   59000   0.65807114     -1.76688     -1.76688   -1.0365937  0.061370423     -1.76688   0.73028635   421013 
   60000   0.65710443   -1.7670635   -1.7670635   -1.0378499  0.057150603   -1.7670635   0.72921356   421013 
   61000   0.65754481   -1.7688347   -1.7688347   -1.0391325  0.057259661   -1.7688347   0.72970227   421013 
   62000    0.6572672   -1.7692949   -1.7692949   -1.0399007  0.052510582   -1.7692949   0.72939419   421013 
   63000   0.65719941   -1.7697726   -1.7697726   -1.0404537  0.056681219   -1.7697726   0.72931896   421013 
   64000   0.65603838   -1.7697476   -1.7697476   -1.0417171   0.05328293   -1.7697476   0.72803053   421013 
   65000   0.65557723   -1.7699687   -1.7699687   -1.0424499  0.052096886   -1.7699687   0.72751877   421013 
   66000   0.65521252   -1.7708294   -1.7708294   -1.0437154  0.053654751   -1.7708294   0.72711404   421013 
   67000     0.657587   -1.7742182   -1.7742182   -1.0444691  0.054507062   -1.7742182   0.72974909   421013 
   68000   0.65615792   -1.7736103   -1.7736103   -1.0454471  0.050053166   -1.7736103   0.72816318   421013 
   69000   0.65515173   -1.7729854   -1.7729854   -1.0459388  0.051403082   -1.7729854   0.72704657   421013 
   70000   0.65707438   -1.7752133   -1.7752133   -1.0460331  0.058024962   -1.7752133   0.72918022   421013 
   71000   0.65568095   -1.7747982   -1.7747982   -1.0471643  0.054419984   -1.7747982   0.72763387   421013 
   72000   0.65588179   -1.7769224   -1.7769224   -1.0490656  0.055362853   -1.7769224   0.72785675   421013 
   73000   0.65520261   -1.7770056   -1.7770056   -1.0499025    0.0604791   -1.7770056   0.72710303   421013 
   74000   0.65504293   -1.7776167   -1.7776167   -1.0506908   0.05877934   -1.7776167   0.72692584   421013 
   75000   0.65695378   -1.7796855   -1.7796855   -1.0506391   0.05277024   -1.7796855   0.72904638   421013 
   76000   0.65436879   -1.7780602   -1.7780602   -1.0518825  0.045188773   -1.7780602   0.72617771   421013 
   77000   0.65456581   -1.7787711   -1.7787711   -1.0523747  0.061337433   -1.7787711   0.72639636   421013 
   78000   0.65415212   -1.7788955   -1.7788955   -1.0529583  0.061537896   -1.7788955   0.72593727   421013 
   79000   0.65600045   -1.7820772   -1.7820772   -1.0540888  0.062194787   -1.7820772   0.72798844   421013 
   80000   0.65558957   -1.7812514   -1.7812514   -1.0537189  0.058392452   -1.7812514   0.72753247   421013 
   81000   0.65512146   -1.7810037   -1.7810037   -1.0539907  0.057487644   -1.7810037   0.72701298   421013 
   82000   0.65658193   -1.7835207   -1.7835207    -1.054887  0.063636375   -1.7835207   0.72863372   421013 
   83000    0.6563307   -1.7838139   -1.7838139    -1.055459  0.059566654   -1.7838139   0.72835493   421013 
   84000   0.65499125   -1.7834112   -1.7834112   -1.0565427   0.06108005   -1.7834112   0.72686849   421013 
   85000   0.65409952   -1.7830561   -1.7830561   -1.0571772  0.059974095   -1.7830561    0.7258789   421013 
   86000   0.65444427   -1.7849447   -1.7849447   -1.0586832  0.060480846   -1.7849447   0.72626148   421013 
   87000   0.65452251   -1.7854878   -1.7854878   -1.0591395  0.055705047   -1.7854878   0.72634831   421013 
   88000   0.65462274   -1.7858352   -1.7858352   -1.0593757  0.060886745   -1.7858352   0.72645954   421013 
   89000   0.65366996   -1.7861688   -1.7861688   -1.0607666  0.060668824   -1.7861688    0.7254022   421013 
   90000   0.65508231   -1.7874921   -1.7874921   -1.0605226  0.057376662   -1.7874921   0.72696953   421013 
   91000   0.65647169   -1.7898915   -1.7898915   -1.0613801  0.057999407   -1.7898915   0.72851138   421013 
   92000   0.65473549   -1.7887059   -1.7887059   -1.0621212  0.060167514   -1.7887059   0.72658466   421013 
   93000    0.6536611   -1.7886149   -1.7886149   -1.0632225  0.060998309   -1.7886149   0.72539237   421013 
   94000   0.65502374   -1.7904447   -1.7904447   -1.0635401  0.058416021   -1.7904447   0.72690454   421013 
   95000   0.65544744   -1.7917587   -1.7917587    -1.064384  0.060441303   -1.7917587   0.72737473   421013 
   96000   0.65419711   -1.7918053   -1.7918053   -1.0658181  0.057925724   -1.7918053    0.7259872   421013 
   97000   0.65437299   -1.7920202   -1.7920202   -1.0658379  0.051608267   -1.7920202   0.72618238   421013 
   98000   0.65366834   -1.7913887   -1.7913887   -1.0659883  0.060291644   -1.7913887    0.7254004   421013 
   99000    0.6524229   -1.7906037   -1.7906037   -1.0665854  0.058904331   -1.7906037   0.72401829   421013 
  100000   0.65393454   -1.7929985   -1.7929985   -1.0673027  0.057806895   -1.7929985   0.72569581   421013 
  101000    0.6526598   -1.7920468   -1.7920468   -1.0677656   0.05410016   -1.7920468   0.72428119   421013 
  102000   0.65313939   -1.7928472   -1.7928472   -1.0680338  0.057452371   -1.7928472    0.7248134   421013 
  103000   0.65285796   -1.7929962   -1.7929962   -1.0684951  0.049630158   -1.7929962    0.7245011   421013 
  104000   0.65229757   -1.7936455   -1.7936455   -1.0697663  0.051324714   -1.7936455    0.7238792   421013 
  105000   0.65252599   -1.7939016   -1.7939016   -1.0697689  0.061592305   -1.7939016    0.7241327   421013 
  106000   0.65380087   -1.7959305   -1.7959305    -1.070383  0.065208777   -1.7959305   0.72554747   421013 
  107000   0.65265865   -1.7951003   -1.7951003   -1.0708204  0.055977071   -1.7951003   0.72427991   421013 
  108000   0.65236037   -1.7955654   -1.7955654   -1.0716165  0.061368809   -1.7955654    0.7239489   421013 
  109000   0.65153205   -1.7955496   -1.7955496   -1.0725199  0.052407648   -1.7955496   0.72302968   421013 
  110000   0.65306697   -1.7978809   -1.7978809   -1.0731478  0.054284866   -1.7978809   0.72473304   421013 
  111000   0.65260281   -1.7981642   -1.7981642   -1.0739463  0.058013427   -1.7981642   0.72421794   421013 
  112000   0.65214469   -1.7982669   -1.7982669   -1.0745574  0.053058992   -1.7982669   0.72370955   421013 
  113000   0.65179883   -1.7979726   -1.7979726   -1.0746469  0.052675398   -1.7979726   0.72332573   421013 
  114000   0.65068935   -1.7976814   -1.7976814   -1.0755869  0.050940076   -1.7976814    0.7220945   421013 
  115000   0.65012493   -1.7984893   -1.7984893   -1.0770212   0.05955821   -1.7984893   0.72146814   421013 
  116000   0.65048294   -1.7993259   -1.7993259   -1.0774605  0.059209478   -1.7993259   0.72186545   421013 
  117000   0.65117897   -1.7998742   -1.7998742   -1.0772363  0.059581989   -1.7998742   0.72263786   421013 
  118000   0.65165043   -1.8001226   -1.8001226   -1.0769615  0.061907638   -1.8001226   0.72316106   421013 
  119000   0.65091646   -1.8007812   -1.8007812   -1.0784346  0.057131686   -1.8007812   0.72234654   421013 
  120000   0.65014268   -1.7994655   -1.7994655   -1.0779776  0.055238749   -1.7994655   0.72148785   421013 
  121000   0.65029504   -1.8000246   -1.8000246   -1.0783677  0.046090256   -1.8000246   0.72165693   421013 
  122000   0.65082927   -1.8005562   -1.8005562   -1.0783064  0.060233398   -1.8005562   0.72224978   421013 
  123000   0.65026316    -1.800292    -1.800292   -1.0786704  0.059628084    -1.800292   0.72162154   421013 
  124000   0.64855874   -1.7996438   -1.7996438   -1.0799137  0.061856962   -1.7996438   0.71973008   421013 
  125000   0.65009298   -1.8019619   -1.8019619   -1.0805292  0.055063456   -1.8019619   0.72143269   421013 
  126000   0.65067918   -1.8026531   -1.8026531   -1.0805699  0.056108947   -1.8026531   0.72208322   421013 
  127000   0.64940624   -1.8015445   -1.8015445   -1.0808739  0.061785379   -1.8015445   0.72067059   421013 
  128000   0.65023219   -1.8035568   -1.8035568   -1.0819696  0.055408183   -1.8035568   0.72158718   421013 
  129000   0.64905943   -1.8023418   -1.8023418    -1.082056  0.047889848   -1.8023418   0.72028572   421013 
  130000   0.64890136   -1.8024034   -1.8024034   -1.0822931  0.042377685   -1.8024034    0.7201103   421013 
  131000   0.65004439   -1.8030681   -1.8030681   -1.0816894  0.060753606   -1.8030681   0.72137876   421013 
  132000   0.64990864   -1.8042369   -1.8042369   -1.0830087  0.055273427   -1.8042369   0.72122812   421013 
  133000   0.65074806   -1.8050305   -1.8050305   -1.0828708  0.053609324   -1.8050305   0.72215965   421013 
  134000   0.64870064   -1.8035674   -1.8035674   -1.0836799   0.05271428   -1.8035674   0.71988756   421013 
  135000   0.64877438   -1.8042282   -1.8042282   -1.0842588  0.057132888   -1.8042282   0.71996939   421013 
  136000   0.65034926   -1.8055761   -1.8055761    -1.083859  0.046670721   -1.8055761    0.7217171   421013 
  137000   0.64946933   -1.8056117   -1.8056117   -1.0848711   0.06004989   -1.8056117    0.7207406   421013 
  138000   0.64994039   -1.8058555   -1.8058555   -1.0845921  0.055179821   -1.8058555   0.72126335   421013 
  139000   0.65043231   -1.8073497   -1.8073497   -1.0855405  0.050024689   -1.8073497   0.72180926   421013 
  140000   0.64886586    -1.806774    -1.806774   -1.0867031  0.051650697    -1.806774   0.72007091   421013 
  141000   0.64865834   -1.8067063   -1.8067063   -1.0868656  0.052384964   -1.8067063   0.71984061   421013 
  142000   0.64739451   -1.8051985   -1.8051985   -1.0867604  0.056524836   -1.8051985    0.7184381   421013 
  143000   0.64765236   -1.8066784   -1.8066784   -1.0879542    0.0566272   -1.8066784   0.71872424   421013 
  144000   0.64907664   -1.8083029   -1.8083029   -1.0879981  0.051071409   -1.8083029   0.72030482   421013 
  145000   0.64992438   -1.8091898   -1.8091898   -1.0879442  0.063778186   -1.8091898   0.72124559   421013 
  146000   0.64763913   -1.8080987   -1.8080987   -1.0893892  0.056612094   -1.8080987   0.71870956   421013 
  147000   0.64745104   -1.8088172   -1.8088172   -1.0903164  0.061675569   -1.8088172   0.71850083   421013 
  148000   0.64770691   -1.8081363   -1.8081363   -1.0893515  0.054789755   -1.8081363   0.71878477   421013 
  149000   0.64863562   -1.8095975   -1.8095975   -1.0897821  0.059771566   -1.8095975    0.7198154   421013 
  150000    0.6478711   -1.8088724   -1.8088724   -1.0899054  0.052886934   -1.8088724   0.71896699   421013 
  151000   0.64851031    -1.810224    -1.810224   -1.0905476  0.050906448    -1.810224   0.71967634   421013 
  152000   0.64910599   -1.8112722   -1.8112722   -1.0909348  0.048349432   -1.8112722   0.72033739   421013 
  153000   0.64872102   -1.8101209   -1.8101209   -1.0902107  0.052971773   -1.8101209   0.71991017   421013 
  154000   0.64971401   -1.8121694   -1.8121694   -1.0911573   0.05773756   -1.8121694   0.72101214   421013 
  155000    0.6492159   -1.8112931   -1.8112931   -1.0908338   0.05410112   -1.8112931   0.72045936   421013 
  156000    0.6485794   -1.8121958   -1.8121958   -1.0924428  0.052761007   -1.8121958   0.71975302   421013 
  157000   0.64867467   -1.8127191   -1.8127191   -1.0928604   0.05721878   -1.8127191   0.71985873   421013 
  158000   0.64857935   -1.8128975   -1.8128975   -1.0931445  0.051925579   -1.8128975   0.71975296   421013 
  159000   0.64688573   -1.8115172   -1.8115172   -1.0936437  0.049327112   -1.8115172   0.71787349   421013 
  160000   0.64757976   -1.8132506   -1.8132506   -1.0946069  0.058379579   -1.8132506   0.71864368   421013 
  161000   0.64889043    -1.815224    -1.815224   -1.0951258  0.059798357    -1.815224   0.72009818   421013 
  162000    0.6483729   -1.8143715   -1.8143715   -1.0948477  0.058335917   -1.8143715   0.71952385   421013 
  163000    0.6470135   -1.8129421   -1.8129421   -1.0949269  0.061719171   -1.8129421   0.71801528   421013 
  164000   0.64784026   -1.8149049   -1.8149049   -1.0959721  0.053839476   -1.8149049   0.71893276   421013 
  165000   0.64740487    -1.815655    -1.815655   -1.0972054  0.057242065    -1.815655   0.71844959   421013 
  166000    0.6474346   -1.8156228   -1.8156228   -1.0971402  0.050031215   -1.8156228   0.71848258   421013 
  167000   0.64775427   -1.8162735   -1.8162735   -1.0974361  0.051871141   -1.8162735   0.71883734   421013 
  168000    0.6480123   -1.8179494   -1.8179494   -1.0988257  0.054495498   -1.8179494   0.71912368   421013 
  169000   0.64728678   -1.8177003   -1.8177003   -1.0993817  0.054001624   -1.8177003   0.71831854   421013 
  170000   0.64733513   -1.8185575   -1.8185575   -1.1001853  0.045203792   -1.8185575    0.7183722   421013 
  171000   0.64595076    -1.817556    -1.817556   -1.1007201  0.048681525    -1.817556   0.71683592   421013 
  172000   0.64602521   -1.8181278   -1.8181278   -1.1012092  0.056257919   -1.8181278   0.71691854   421013 
  173000   0.64737023   -1.8193745   -1.8193745   -1.1009634  0.050484827   -1.8193745   0.71841115   421013 
  174000   0.64582571   -1.8186187   -1.8186187   -1.1019215  0.048474365   -1.8186187   0.71669715   421013 
  175000    0.6473407   -1.8203821   -1.8203821   -1.1020038  0.053568387   -1.8203821   0.71837838   421013 
  176000   0.64647784   -1.8206464   -1.8206464   -1.1032255  0.059674269   -1.8206464   0.71742083   421013 
  177000   0.64598861   -1.8206694   -1.8206694   -1.1037915  0.055955432   -1.8206694   0.71687791   421013 
  178000   0.64670824   -1.8218583   -1.8218583   -1.1041818   0.05987621   -1.8218583   0.71767652   421013 
  179000   0.64700355   -1.8232112   -1.8232112   -1.1052069  0.058872212   -1.8232112   0.71800424   421013 
  180000   0.64527817   -1.8203298   -1.8203298   -1.1042403  0.062943289   -1.8203298   0.71608951   421013 
  181000    0.6466404   -1.8225451   -1.8225451   -1.1049438  0.063175454   -1.8225451   0.71760123   421013 
  182000   0.64578532   -1.8223265   -1.8223265   -1.1056741  0.062120426   -1.8223265   0.71665232   421013 
  183000   0.64536635   -1.8219849   -1.8219849   -1.1057975  0.056233902   -1.8219849   0.71618737   421013 
  184000   0.64585005   -1.8229324   -1.8229324   -1.1062083  0.065066806   -1.8229324   0.71672415   421013 
  185000   0.64487677   -1.8213903   -1.8213903   -1.1057462  0.054283311   -1.8213903   0.71564407   421013 
  186000   0.64554758   -1.8233105   -1.8233105    -1.106922  0.057295165   -1.8233105   0.71638849   421013 
  187000   0.64505245   -1.8233247   -1.8233247   -1.1074857  0.055464123   -1.8233247   0.71583902   421013 
  188000   0.64625959   -1.8247059   -1.8247059   -1.1075273  0.062317241   -1.8247059   0.71717864   421013 
  189000   0.64497002   -1.8229532   -1.8229532   -1.1072057  0.058198814   -1.8229532   0.71574755   421013 
  190000   0.64642244   -1.8248327   -1.8248327   -1.1074734  0.049852012   -1.8248327   0.71735935   421013 
  191000   0.64637648   -1.8253595   -1.8253595   -1.1080512  0.058385177   -1.8253595   0.71730835   421013 
  192000   0.64729496   -1.8266234   -1.8266234   -1.1082958  0.059739253   -1.8266234   0.71832763   421013 
  193000   0.64474496   -1.8249482   -1.8249482   -1.1094504  0.050695445   -1.8249482   0.71549779   421013 
  194000   0.64586522   -1.8253559   -1.8253559   -1.1086149  0.054381723   -1.8253559   0.71674099   421013 
  195000   0.64582256   -1.8260209   -1.8260209   -1.1093273  0.057345111   -1.8260209   0.71669365   421013 
  196000   0.64624914   -1.8269323   -1.8269323   -1.1097653  0.055361435   -1.8269323   0.71716703   421013 
  197000   0.64413386   -1.8258548   -1.8258548   -1.1110352  0.065687859   -1.8258548   0.71481963   421013 
  198000   0.64603789   -1.8282563   -1.8282563   -1.1113237  0.049912692   -1.8282563    0.7169326   421013 
  199000   0.64490147   -1.8275993   -1.8275993   -1.1119278  0.054917546   -1.8275993   0.71567148   421013 
  200000   0.64581844   -1.8280428   -1.8280428   -1.1113537   0.05137676   -1.8280428   0.71668907   421013 
  201000    0.6447269    -1.827061    -1.827061   -1.1115833  0.060905438    -1.827061   0.71547775   421013 
  202000   0.64450682   -1.8270434   -1.8270434   -1.1118099  0.054841757   -1.8270434   0.71523352   421013 
  203000   0.64517763   -1.8285658   -1.8285658   -1.1125879  0.058787693   -1.8285658   0.71597794   421013 
  204000   0.64425464   -1.8270921   -1.8270921   -1.1121385  0.059484094   -1.8270921   0.71495366   421013 
  205000   0.64400581   -1.8275753   -1.8275753   -1.1128977  0.057517409   -1.8275753   0.71467753   421013 
  206000   0.64504691   -1.8286289   -1.8286289    -1.112796  0.056561166   -1.8286289   0.71583287   421013 
  207000   0.64352239   -1.8276688   -1.8276688   -1.1135278  0.049276929   -1.8276688   0.71414105   421013 
  208000   0.64485505   -1.8290699   -1.8290699     -1.11345  0.045207894   -1.8290699   0.71561996   421013 
  209000   0.64265157   -1.8271095   -1.8271095   -1.1139349  0.051247667   -1.8271095   0.71317468   421013 
  210000   0.64516092   -1.8302907   -1.8302907   -1.1143313  0.053177452   -1.8302907    0.7159594   421013 
  211000   0.64436133   -1.8295919   -1.8295919   -1.1145199  0.054737993   -1.8295919   0.71507206   421013 
  212000   0.64406852   -1.8293183   -1.8293183   -1.1145712  0.050461984   -1.8293183   0.71474712   421013 
  213000   0.64364647   -1.8290818   -1.8290818   -1.1148031  0.051829563   -1.8290818   0.71427876   421013 
  214000    0.6446065   -1.8301669   -1.8301669   -1.1148227  0.060798376   -1.8301669   0.71534414   421013 
  215000   0.64644559   -1.8325494   -1.8325494   -1.1151644  0.051450738   -1.8325494   0.71738505   421013 
  216000   0.64411238   -1.8303229   -1.8303229   -1.1155271  0.050546175   -1.8303229    0.7147958   421013 
  217000   0.64403015   -1.8307814   -1.8307814   -1.1160768  0.057803928   -1.8307814   0.71470454   421013 
  218000    0.6437089   -1.8304128   -1.8304128   -1.1160647  0.047603549   -1.8304128   0.71434803   421013 
  219000   0.64505992   -1.8320415   -1.8320415   -1.1161942  0.050327259   -1.8320415   0.71584731   421013 
  220000   0.64352003   -1.8309766   -1.8309766   -1.1168381   0.05749519   -1.8309766   0.71413844   421013 
  221000   0.64346601   -1.8308738   -1.8308738   -1.1167953  0.052687154   -1.8308738   0.71407849   421013 
  222000   0.64365893   -1.8316675   -1.8316675   -1.1173749  0.062408794   -1.8316675   0.71429259   421013 
  223000   0.64238721   -1.8305506   -1.8305506   -1.1176693  0.051678251   -1.8305506   0.71288131   421013 
  224000   0.64409275    -1.833374    -1.833374      -1.1186  0.049029667    -1.833374   0.71477401   421013 
  225000   0.64340542   -1.8325174   -1.8325174   -1.1185061  0.049649345   -1.8325174   0.71401125   421013 
  226000   0.64373866   -1.8331772   -1.8331772   -1.1187961  0.050288722   -1.8331772   0.71438106   421013 
  227000   0.64352731   -1.8340175   -1.8340175    -1.119871  0.050379299   -1.8340175   0.71414652   421013 
  228000   0.64310132   -1.8341281   -1.8341281   -1.1204543  0.051255609   -1.8341281   0.71367379   421013 
  229000   0.64405181    -1.835282    -1.835282   -1.1205534  0.048980494    -1.835282   0.71472857   421013 
  230000   0.64282222   -1.8344072   -1.8344072   -1.1210431  0.050978229   -1.8344072   0.71336405   421013 
  231000   0.64394449   -1.8361093   -1.8361093   -1.1214998  0.054949948   -1.8361093   0.71460948   421013 
  232000       0.6434   -1.8356032   -1.8356032    -1.121598  0.056904777   -1.8356032   0.71400524   421013 
  233000   0.64314509    -1.836078    -1.836078   -1.1223556  0.049635686    -1.836078   0.71372235   421013 
  234000   0.64410389   -1.8374515   -1.8374515   -1.1226651  0.046924139   -1.8374515   0.71478637   421013 
  235000   0.64198619   -1.8354869   -1.8354869   -1.1230506  0.050113034   -1.8354869   0.71243628   421013 
  236000   0.64379722   -1.8380885   -1.8380885   -1.1236424  0.048176775   -1.8380885   0.71444604   421013 
  237000    0.6425335   -1.8377862   -1.8377862   -1.1247426  0.052291682   -1.8377862   0.71304365   421013 
  238000   0.64377299   -1.8381857   -1.8381857   -1.1237665  0.053253659   -1.8381857   0.71441916   421013 
  239000   0.64236998   -1.8378593   -1.8378593   -1.1249971  0.055305326   -1.8378593   0.71286219   421013 
  240000   0.64207667   -1.8377339   -1.8377339   -1.1251972  0.055668608   -1.8377339   0.71253669   421013 
  241000    0.6439796   -1.8400966   -1.8400966   -1.1254482  0.065748871   -1.8400966   0.71464844   421013 
  242000   0.64257459    -1.839724    -1.839724   -1.1266347  0.050522543    -1.839724   0.71308925   421013 
  243000   0.64178501   -1.8391619   -1.8391619   -1.1269489  0.047709089   -1.8391619   0.71221302   421013 
  244000    0.6420628   -1.8404292   -1.8404292   -1.1279079    0.0475267   -1.8404292    0.7125213   421013 
  245000   0.64345235   -1.8418997   -1.8418997   -1.1278364  0.046505277   -1.8418997   0.71406333   421013 
  246000    0.6432242   -1.8415506   -1.8415506   -1.1277405  0.047079761   -1.8415506   0.71381014   421013 
  247000   0.64241631    -1.841564    -1.841564   -1.1286504    0.0611251    -1.841564   0.71291361   421013 
  248000   0.64317964   -1.8424435   -1.8424435   -1.1286828  0.061041854   -1.8424435   0.71376069   421013 
  249000   0.64081575   -1.8400617   -1.8400617   -1.1289243  0.052375836   -1.8400617    0.7111374   421013 
  250000   0.64173074   -1.8410701   -1.8410701   -1.1289173  0.051011486   -1.8410701    0.7121528   421013 
  251000   0.64296868   -1.8434447   -1.8434447   -1.1299181  0.056624593   -1.8434447   0.71352658   421013 
  252000   0.64237684   -1.8419012   -1.8419012   -1.1290314  0.054043654   -1.8419012    0.7128698   421013 
  253000    0.6417557   -1.8414475   -1.8414475    -1.129267  0.048346188   -1.8414475   0.71218049   421013 
  254000   0.64188428   -1.8414895   -1.8414895   -1.1291663  0.057812698   -1.8414895   0.71232319   421013 
  255000   0.64225158   -1.8426751   -1.8426751   -1.1299443  0.053672484   -1.8426751   0.71273079   421013 
  256000   0.64144184   -1.8420697   -1.8420697   -1.1302375  0.058564012   -1.8420697   0.71183219   421013 
  257000   0.64150773   -1.8430336   -1.8430336   -1.1311283  0.054232694   -1.8430336   0.71190532   421013 
  258000   0.64111257    -1.842065    -1.842065   -1.1305982  0.059508885    -1.842065   0.71146679   421013 
  259000   0.64204403   -1.8436478   -1.8436478   -1.1311473  0.051451595   -1.8436478   0.71250047   421013 
  260000   0.64222917   -1.8446213   -1.8446213   -1.1319154  0.057215172   -1.8446213   0.71270592   421013 
  261000   0.64215564   -1.8455251   -1.8455251   -1.1329008  0.044139758   -1.8455251   0.71262432   421013 
  262000   0.64213116   -1.8445956   -1.8445956   -1.1319985  0.051804048   -1.8445956   0.71259715   421013 
  263000   0.64080354   -1.8437033   -1.8437033   -1.1325794  0.045454552   -1.8437033   0.71112385   421013 
  264000   0.64133411    -1.844295    -1.844295   -1.1325824  0.053658624    -1.844295   0.71171264   421013 
  265000   0.64192826   -1.8449176   -1.8449176   -1.1325456  0.043475739   -1.8449176   0.71237199   421013 
  266000   0.64206694   -1.8456069   -1.8456069    -1.133081  0.047283194   -1.8456069    0.7125259   421013 
  267000   0.64136228    -1.844663    -1.844663   -1.1329191  0.054807643    -1.844663    0.7117439   421013 
  268000   0.64236522   -1.8452575   -1.8452575   -1.1324006  0.055248576   -1.8452575   0.71285691   421013 
  269000   0.64186184   -1.8450209   -1.8450209   -1.1327226  0.050146316   -1.8450209   0.71229829   421013 
  270000   0.64162981   -1.8453765   -1.8453765   -1.1333357  0.055803891   -1.8453765   0.71204079   421013 
  271000   0.64176278   -1.8472029   -1.8472029   -1.1350146  0.058393484   -1.8472029   0.71218836   421013 
  272000   0.64080593   -1.8460556   -1.8460556   -1.1349291  0.056805368   -1.8460556   0.71112651   421013 
  273000   0.64247822    -1.846806    -1.846806   -1.1338237  0.049174874    -1.846806    0.7129823   421013 
  274000   0.64278685   -1.8472493   -1.8472493   -1.1339245  0.056092633   -1.8472493   0.71332481   421013 
  275000   0.64253629   -1.8466264   -1.8466264   -1.1335797  0.050175231   -1.8466264   0.71304674   421013 
  276000   0.64159123   -1.8470409   -1.8470409   -1.1350429  0.053565347   -1.8470409   0.71199797   421013 
  277000   0.64238903   -1.8485373   -1.8485373    -1.135654  0.051661741   -1.8485373   0.71288333   421013 
  278000   0.64126597   -1.8472746   -1.8472746   -1.1356375  0.051240609   -1.8472746   0.71163702   421013 
  279000   0.64071017   -1.8472735   -1.8472735   -1.1362533  0.053834058   -1.8472735   0.71102024   421013 
  280000   0.63988786   -1.8460688   -1.8460688   -1.1359611  0.047874898   -1.8460688   0.71010768   421013 
  281000   0.64143562   -1.8486961   -1.8486961   -1.1368708  0.055121926   -1.8486961   0.71182529   421013 
  282000   0.64092756   -1.8496606   -1.8496606   -1.1383991  0.045787472   -1.8496606   0.71126148   421013 
  283000   0.64038411   -1.8488976   -1.8488976   -1.1382392  0.047401051   -1.8488976   0.71065839   421013 
  284000   0.64155891   -1.8504368   -1.8504368   -1.1384747  0.058222213   -1.8504368   0.71196211   421013 
  285000    0.6406067   -1.8494353   -1.8494353   -1.1385299  0.051083117   -1.8494353   0.71090541   421013 
  286000    0.6424942   -1.8521916   -1.8521916   -1.1391916  0.056368404   -1.8521916   0.71300004   421013 
  287000   0.64159917   -1.8513525   -1.8513525   -1.1393457  0.056272027   -1.8513525   0.71200679   421013 
  288000   0.64136413   -1.8512279   -1.8512279    -1.139482  0.057521159   -1.8512279   0.71174595   421013 
  289000   0.64213666   -1.8528758   -1.8528758   -1.1402726  0.051226408   -1.8528758   0.71260326   421013 
  290000    0.6409964   -1.8514187   -1.8514187   -1.1400808  0.051941347   -1.8514187   0.71133788   421013 
  291000   0.64090731   -1.8513561   -1.8513561   -1.1401171  0.054840803   -1.8513561     0.711239   421013 
  292000   0.64164343   -1.8524547   -1.8524547   -1.1403988  0.064236735   -1.8524547   0.71205591   421013 
  293000   0.64141067   -1.8532822   -1.8532822   -1.1414846  0.055195124   -1.8532822    0.7117976   421013 
  294000   0.64111927   -1.8525841   -1.8525841   -1.1411098  0.046643435   -1.8525841   0.71147422   421013 
  295000   0.64041616   -1.8530534   -1.8530534   -1.1423595  0.046375865   -1.8530534   0.71069396   421013 
  296000   0.64098509   -1.8541606   -1.8541606   -1.1428353  0.056041133   -1.8541606   0.71132532   421013 
  297000   0.64084715    -1.854155    -1.854155   -1.1429828   0.04935048    -1.854155   0.71117225   421013 
  298000   0.64015004    -1.853952    -1.853952   -1.1435534  0.045471167    -1.853952   0.71039863   421013 
  299000   0.64023292   -1.8538959   -1.8538959   -1.1434053  0.055794673   -1.8538959   0.71049061   421013 
  300000   0.64033533   -1.8538879   -1.8538879   -1.1432836  0.060718908   -1.8538879   0.71060426   421013 
  301000   0.64050611   -1.8532413   -1.8532413   -1.1424475  0.052655232   -1.8532413   0.71079378   421013 
  302000   0.63893733      -1.8517      -1.8517   -1.1426471  0.047162859      -1.8517   0.70905285   421013 
  303000   0.63992764    -1.852914    -1.852914   -1.1427622  0.060602896    -1.852914   0.71015183   421013 
  304000   0.64063188   -1.8538551   -1.8538551   -1.1429218  0.048954105   -1.8538551   0.71093335   421013 
  305000   0.63973866    -1.853664    -1.853664   -1.1437219  0.048469592    -1.853664   0.70994211   421013 
  306000   0.64065536   -1.8544973   -1.8544973   -1.1435379  0.050160347   -1.8544973   0.71095941   421013 
  307000   0.63908929   -1.8531929   -1.8531929   -1.1439714  0.050382411   -1.8531929   0.70922148   421013 
  308000    0.6410618   -1.8556333   -1.8556333   -1.1442228  0.056410553   -1.8556333   0.71141045   421013 
  309000    0.6398552   -1.8543634   -1.8543634    -1.144292   0.05558632   -1.8543634   0.71007144   421013 
  310000   0.64129017   -1.8562443   -1.8562443   -1.1445804  0.054187066   -1.8562443   0.71166388   421013 
  311000     0.640297   -1.8560586   -1.8560586   -1.1454969  0.055959871   -1.8560586   0.71056173   421013 
  312000   0.64128256   -1.8572932   -1.8572932   -1.1456378  0.050720304   -1.8572932   0.71165543   421013 
  313000   0.63898904   -1.8555921   -1.8555921   -1.1464819  0.051381267   -1.8555921   0.70911023   421013 
  314000   0.63930448    -1.856673    -1.856673   -1.1472127  0.053450848    -1.856673   0.70946029   421013 
  315000   0.63960348   -1.8574457   -1.8574457   -1.1476536  0.054901015   -1.8574457    0.7097921   421013 
  316000   0.63918489   -1.8570975   -1.8570975     -1.14777   0.05246368   -1.8570975   0.70932757   421013 
  317000    0.6373752   -1.8558152   -1.8558152   -1.1484959  0.047032281   -1.8558152    0.7073193   421013 
  318000   0.63912332   -1.8578603   -1.8578603    -1.148601  0.049600725   -1.8578603   0.70925924   421013 
  319000    0.6384065   -1.8573356   -1.8573356   -1.1488719  0.056583721   -1.8573356   0.70846376   421013 
  320000   0.63877375   -1.8572743   -1.8572743    -1.148403  0.055267546   -1.8572743   0.70887131   421013 
  321000   0.63950075   -1.8577594   -1.8577594   -1.1480813  0.056465287   -1.8577594   0.70967809   421013 
  322000   0.63989364   -1.8587766   -1.8587766   -1.1486625  0.044352115   -1.8587766    0.7101141   421013 
  323000   0.63876964   -1.8587572   -1.8587572   -1.1498905   0.05253479   -1.8587572   0.70886675   421013 
  324000   0.63924645   -1.8594043   -1.8594043   -1.1500084  0.054891115   -1.8594043   0.70939588   421013 
  325000   0.63984069   -1.8606527   -1.8606527   -1.1505974  0.053900391   -1.8606527   0.71005534   421013 
  326000   0.63921173   -1.8597647   -1.8597647   -1.1504073  0.052880995   -1.8597647   0.70935736   421013 
  327000   0.63872403    -1.859838    -1.859838   -1.1510219  0.057854318    -1.859838   0.70881614   421013 
  328000   0.63931868   -1.8604341   -1.8604341    -1.150958  0.049687148   -1.8604341   0.70947605   421013 
  329000   0.63960894   -1.8607269   -1.8607269   -1.1509287  0.053320324   -1.8607269   0.70979815   421013 
  330000   0.63801499    -1.859634    -1.859634   -1.1516047  0.054734801    -1.859634   0.70802929   421013 
  331000   0.63901977   -1.8606052   -1.8606052   -1.1514608  0.048119586   -1.8606052   0.70914433   421013 
  332000    0.6385233   -1.8603426   -1.8603426   -1.1517492  0.050973651   -1.8603426   0.70859338   421013 
  333000   0.63896614   -1.8617022   -1.8617022   -1.1526174  0.052854925   -1.8617022   0.70908481   421013 
  334000    0.6392419   -1.8621566   -1.8621566   -1.1527658  0.057382066   -1.8621566   0.70939084   421013 
  335000   0.63815664    -1.860864    -1.860864   -1.1526776  0.057694437    -1.860864   0.70818648   421013 
  336000    0.6400127   -1.8633002   -1.8633002    -1.153054  0.053862303   -1.8633002   0.71024622   421013 
  337000   0.63835014   -1.8616875   -1.8616875   -1.1532862  0.051849946   -1.8616875   0.70840122   421013 
  338000   0.63878934   -1.8622073   -1.8622073   -1.1533186  0.053697834   -1.8622073   0.70888861   421013 
  339000   0.63834042   -1.8626103   -1.8626103   -1.1542199  0.041250335   -1.8626103   0.70839043   421013 
  340000   0.63720508   -1.8614967   -1.8614967   -1.1543662  0.050006121   -1.8614967   0.70713051   421013 
  341000   0.63892273   -1.8640119   -1.8640119   -1.1549752  0.054831485   -1.8640119   0.70903665   421013 
  342000   0.63869588   -1.8647215   -1.8647215   -1.1559366  0.052975428   -1.8647215    0.7087849   421013 
  343000   0.63919436   -1.8665097   -1.8665097   -1.1571716   0.05953686   -1.8665097   0.70933808   421013 
  344000   0.63886627   -1.8656419   -1.8656419    -1.156668  0.045895857   -1.8656419   0.70897399   421013 
  345000   0.64103179   -1.8681668   -1.8681668   -1.1567896  0.050443236   -1.8681668   0.71137714   421013 
  346000   0.63945414   -1.8669016   -1.8669016   -1.1572752  0.051354951   -1.8669016   0.70962637   421013 
  347000   0.63789374   -1.8650879   -1.8650879   -1.1571931  0.052362472   -1.8650879   0.70789474   421013 
  348000   0.63902752   -1.8665191   -1.8665191   -1.1573662  0.053366563   -1.8665191   0.70915293   421013 
  349000   0.63884227    -1.866893    -1.866893   -1.1579456  0.052381275    -1.866893   0.70894735   421013 
  350000   0.63827585      -1.8665      -1.8665   -1.1581812  0.046713848      -1.8665   0.70831878   421013 
  351000   0.63858353   -1.8666285   -1.8666285   -1.1579683  0.051529459   -1.8666285   0.70866022   421013 
  352000   0.63789759   -1.8658752   -1.8658752   -1.1579762  0.054818556   -1.8658752   0.70789901   421013 
  353000   0.63844122   -1.8669075   -1.8669075   -1.1584052  0.052897366   -1.8669075   0.70850229   421013 
  354000   0.63799218    -1.867948    -1.867948    -1.159944  0.052057647    -1.867948   0.70800397   421013 
  355000   0.63676904   -1.8677478   -1.8677478   -1.1611012  0.049847717   -1.8677478   0.70664661   421013 
  356000   0.63730021   -1.8679138   -1.8679138   -1.1606778  0.050388436   -1.8679138   0.70723607   421013 
  357000   0.63755563   -1.8679628   -1.8679628   -1.1604433  0.052610334   -1.8679628   0.70751952   421013 
  358000   0.63757727   -1.8693587   -1.8693587   -1.1618152   0.04542591   -1.8693587   0.70754354   421013 
  359000   0.63728807   -1.8686339   -1.8686339   -1.1614113  0.052777455   -1.8686339    0.7072226   421013 
  360000   0.63657084   -1.8681359   -1.8681359   -1.1617092  0.047375913   -1.8681359   0.70642666   421013 
  361000   0.63778657   -1.8694048   -1.8694048    -1.161629  0.048640053   -1.8694048   0.70777581   421013 
  362000   0.63791062   -1.8694447   -1.8694447   -1.1615312  0.044777708   -1.8694447   0.70791346   421013 
  363000   0.63784967   -1.8692489   -1.8692489   -1.1614031  0.056206048   -1.8692489   0.70784583   421013 
  364000   0.63691426   -1.8678965   -1.8678965   -1.1610887  0.053442836   -1.8678965   0.70680777   421013 
  365000   0.63815331    -1.869712    -1.869712   -1.1615292  0.049080799    -1.869712   0.70818279   421013 
  366000   0.63793402   -1.8697296   -1.8697296   -1.1617901   0.05510846   -1.8697296   0.70793943   421013 
  367000   0.63774544   -1.8689961   -1.8689961    -1.161266  0.053356475   -1.8689961   0.70773015   421013 
  368000    0.6377313     -1.86972     -1.86972   -1.1620055  0.054139443     -1.86972   0.70771447   421013 
  369000   0.63627887   -1.8678287   -1.8678287    -1.161726   0.05409062   -1.8678287   0.70610265   421013 
  370000   0.63659416   -1.8684851   -1.8684851   -1.1620325  0.052299673   -1.8684851   0.70645254   421013 
  371000    0.6375958   -1.8699823   -1.8699823   -1.1624182  0.050314367   -1.8699823    0.7075641   421013 
  372000   0.63729721   -1.8686603   -1.8686603   -1.1614276  0.057922936   -1.8686603   0.70723274   421013 
  373000   0.63702317   -1.8686917   -1.8686917    -1.161763  0.049351965   -1.8686917   0.70692863   421013 
  374000   0.63691934   -1.8683462   -1.8683462   -1.1615328   0.05100377   -1.8683462   0.70681341   421013 
  375000   0.63463825   -1.8664535   -1.8664535   -1.1621715   0.05199616   -1.8664535     0.704282   421013 
  376000   0.63667864   -1.8684138   -1.8684138   -1.1618675  0.054396737   -1.8684138   0.70654629   421013 
  377000   0.63606241   -1.8685114   -1.8685114   -1.1626489   0.05019131   -1.8685114   0.70586243   421013 
  378000   0.63766045   -1.8704511   -1.8704511   -1.1628152  0.046383642   -1.8704511   0.70763584   421013 
  379000   0.63579675   -1.8684171   -1.8684171   -1.1628495  0.048942175   -1.8684171   0.70556762   421013 
  380000    0.6362819   -1.8694666   -1.8694666   -1.1633606  0.055052082   -1.8694666   0.70610602   421013 
  381000   0.63648637   -1.8705175   -1.8705175   -1.1641846  0.048586781   -1.8705175   0.70633292   421013 
  382000   0.63756991   -1.8713857   -1.8713857   -1.1638503  0.055218512   -1.8713857   0.70753537   421013 
  383000   0.63704491   -1.8709649   -1.8709649   -1.1640121  0.053877134   -1.8709649   0.70695275   421013 
  384000   0.63791154   -1.8715878   -1.8715878   -1.1636733  0.046550209   -1.8715878   0.70791449   421013 
  385000   0.63792213   -1.8718925   -1.8718925   -1.1639663  0.044665834   -1.8718925   0.70792624   421013 
  386000   0.63887961   -1.8731624   -1.8731624   -1.1641736  0.042964546   -1.8731624   0.70898879   421013 
  387000   0.63851275   -1.8722559   -1.8722559   -1.1636742  0.057107721   -1.8722559   0.70858167   421013 
  388000   0.63718194   -1.8708388   -1.8708388    -1.163734  0.056138262   -1.8708388   0.70710482   421013 
  389000   0.63676633    -1.870703    -1.870703   -1.1640594  0.046828548    -1.870703    0.7066436   421013 
  390000   0.63710402   -1.8722547   -1.8722547   -1.1652363  0.044920014   -1.8722547   0.70701835   421013 
  391000   0.63618784    -1.871961    -1.871961   -1.1659593  0.043185452    -1.871961   0.70600163   421013 
  392000   0.63679935   -1.8727713   -1.8727713    -1.166091  0.048785377   -1.8727713   0.70668025   421013 
  393000   0.63647724   -1.8725545   -1.8725545   -1.1662317  0.045402556   -1.8725545   0.70632279   421013 
  394000   0.63649236   -1.8725702   -1.8725702   -1.1662306   0.04764022   -1.8725702   0.70633956   421013 
  395000   0.63671208   -1.8732219   -1.8732219   -1.1666385  0.058510838   -1.8732219    0.7065834   421013 
  396000   0.63703684     -1.87405     -1.87405   -1.1671062  0.055644983     -1.87405    0.7069438   421013 
  397000   0.63706434   -1.8750854   -1.8750854    -1.168111  0.046502618   -1.8750854   0.70697432   421013 
  398000   0.63636404   -1.8747161   -1.8747161   -1.1685189  0.054593021   -1.8747161   0.70619717   421013 
  399000   0.63792121   -1.8765575   -1.8765575   -1.1686322  0.052010973   -1.8765575   0.70792522   421013 
  400000   0.63710374   -1.8766924   -1.8766924   -1.1696744  0.049897717   -1.8766924   0.70701805   421013 
  401000   0.63671167   -1.8760757   -1.8760757   -1.1694928  0.061113224   -1.8760757   0.70658294   421013 
  402000   0.63712971   -1.8771473   -1.8771473   -1.1701004  0.052327908   -1.8771473   0.70704686   421013 
  403000   0.63703141   -1.8769314   -1.8769314   -1.1699936  0.053202598   -1.8769314   0.70693778   421013 
  404000   0.63630991   -1.8761725   -1.8761725   -1.1700354  0.049450883   -1.8761725    0.7061371   421013 
  405000   0.63639125   -1.8774674   -1.8774674   -1.1712401  0.052273711   -1.8774674   0.70622737   421013 
  406000   0.63635906   -1.8780111   -1.8780111   -1.1718195  0.054907962   -1.8780111   0.70619164   421013 
  407000   0.63526156   -1.8766409   -1.8766409   -1.1716672  0.051185998   -1.8766409    0.7049737   421013 
  408000   0.63599983   -1.8778535   -1.8778535   -1.1720605  0.053610554   -1.8778535   0.70579299   421013 
  409000   0.63678893   -1.8785017   -1.8785017    -1.171833  0.051974311   -1.8785017   0.70666869   421013 
  410000   0.63669905   -1.8779677   -1.8779677   -1.1713987  0.058540227   -1.8779677   0.70656894   421013 
  411000   0.63715849   -1.8791641   -1.8791641   -1.1720853  0.059653685   -1.8791641    0.7070788   421013 
  412000   0.63535953   -1.8768247   -1.8768247   -1.1717422   0.04630841   -1.8768247   0.70508243   421013 
  413000   0.63619417   -1.8776762   -1.8776762   -1.1716675  0.050437491   -1.8776762   0.70600866   421013 
  414000   0.63524265   -1.8759882   -1.8759882   -1.1710355  0.048482596   -1.8759882   0.70495272   421013 
  415000   0.63673958   -1.8778356   -1.8778356   -1.1712217   0.05038583   -1.8778356   0.70661392   421013 
  416000   0.63601879   -1.8772224   -1.8772224   -1.1714084  0.046934293   -1.8772224   0.70581403   421013 
  417000   0.63574612   -1.8782634   -1.8782634    -1.172752  0.050295201   -1.8782634   0.70551144   421013 
  418000   0.63631523   -1.8792113   -1.8792113   -1.1730683  0.049344974   -1.8792113     0.706143   421013 
  419000   0.63680518   -1.8797373   -1.8797373   -1.1730506  0.050389319   -1.8797373   0.70668672   421013 
  420000   0.63574329   -1.8795608   -1.8795608   -1.1740525  0.044613478   -1.8795608    0.7055083   421013 
  421000   0.63564189   -1.8793573   -1.8793573   -1.1739616  0.040456004   -1.8793573   0.70539577   421013 
  422000   0.63589663   -1.8799716   -1.8799716   -1.1742932  0.047516268   -1.8799716   0.70567846   421013 
  423000   0.63686072   -1.8809793   -1.8809793    -1.174231  0.056371026   -1.8809793   0.70674835   421013 
  424000   0.63619236   -1.8810111   -1.8810111   -1.1750044  0.056528239   -1.8810111   0.70600665   421013 
  425000   0.63644621   -1.8809305   -1.8809305   -1.1746422  0.052190709   -1.8809305   0.70628835   421013 
  426000   0.63481116     -1.87938     -1.87938   -1.1749062  0.053717965     -1.87938   0.70447388   421013 
  427000   0.63515162   -1.8796612   -1.8796612   -1.1748095  0.043925095   -1.8796612    0.7048517   421013 
  428000   0.63586902   -1.8801504   -1.8801504   -1.1745026  0.050055952   -1.8801504   0.70564783   421013 
  429000   0.63559135   -1.8798893   -1.8798893   -1.1745496  0.056790586   -1.8798893   0.70533968   421013 
  430000    0.6363285   -1.8810217   -1.8810217   -1.1748639  0.054068003   -1.8810217   0.70615772   421013 
  431000   0.63645697   -1.8809609   -1.8809609   -1.1746606  0.064427198   -1.8809609    0.7063003   421013 
  432000   0.63476068   -1.8794802   -1.8794802   -1.1750623  0.051343985   -1.8794802   0.70441786   421013 
  433000   0.63604478   -1.8819867   -1.8819867   -1.1761438  0.046797607   -1.8819867   0.70584288   421013 
  434000   0.63492276   -1.8806593   -1.8806593   -1.1760616  0.042017424   -1.8806593   0.70459773   421013 
  435000   0.63572113   -1.8822252   -1.8822252   -1.1767415  0.055768371   -1.8822252   0.70548371   421013 
  436000   0.63655404   -1.8826989   -1.8826989   -1.1762908  0.045379081   -1.8826989   0.70640802   421013 
  437000   0.63533384    -1.881272    -1.881272   -1.1762181  0.047250266    -1.881272   0.70505392   421013 
  438000   0.63577079   -1.8827248   -1.8827248   -1.1771859  0.049026379   -1.8827248   0.70553881   421013 
  439000    0.6352456    -1.881895    -1.881895    -1.176939  0.057529776    -1.881895     0.704956   421013 
  440000    0.6358935   -1.8821862   -1.8821862   -1.1765112  0.044434729   -1.8821862     0.705675   421013 
  441000   0.63619082     -1.88323     -1.88323   -1.1772251  0.045306411     -1.88323   0.70600494   421013 
  442000   0.63671809   -1.8850472   -1.8850472   -1.1784571  0.049604343   -1.8850472   0.70659007   421013 
  443000   0.63279739   -1.8808894   -1.8808894   -1.1786503  0.062099874   -1.8808894   0.70223912   421013 
  444000   0.63495858   -1.8838413   -1.8838413   -1.1792038  0.052615602   -1.8838413   0.70463748   421013 
  445000   0.63466075   -1.8834808   -1.8834808   -1.1791739  0.059517618   -1.8834808   0.70430696   421013 
  446000   0.63428747   -1.8832421   -1.8832421   -1.1793493  0.047891389   -1.8832421   0.70389272   421013 
  447000   0.63326383   -1.8832128   -1.8832128   -1.1804561  0.049991764   -1.8832128   0.70275675   421013 
  448000   0.63498805     -1.88532     -1.88532   -1.1806499  0.041403461     -1.88532   0.70467018   421013 
  449000   0.63436048   -1.8849965   -1.8849965   -1.1810227  0.053145043   -1.8849965   0.70397374   421013 
  450000   0.63463063   -1.8851307   -1.8851307   -1.1808571  0.052409779   -1.8851307   0.70427354   421013 
  451000   0.63527062   -1.8857169   -1.8857169   -1.1807332  0.057542906   -1.8857169   0.70498376   421013 
  452000   0.63401498   -1.8851496   -1.8851496   -1.1815593  0.048468617   -1.8851496   0.70359033   421013 
  453000   0.63482178   -1.8878002   -1.8878002   -1.1833145  0.048446635   -1.8878002   0.70448566   421013 
  454000   0.63440185   -1.8860128   -1.8860128   -1.1819931  0.054685546   -1.8860128   0.70401966   421013 
  455000   0.63417908   -1.8866705   -1.8866705   -1.1828981  0.050484741   -1.8866705   0.70377243   421013 
  456000   0.63584334    -1.888277    -1.888277   -1.1826576  0.049745018    -1.888277   0.70561933   421013 
  457000   0.63498486   -1.8873432   -1.8873432   -1.1826765  0.051383746   -1.8873432   0.70466664   421013 
  458000    0.6355386   -1.8880826   -1.8880826   -1.1828015  0.054657661   -1.8880826   0.70528115   421013 
  459000   0.63606398   -1.8889036   -1.8889036   -1.1830394    0.0542551   -1.8889036   0.70586418   421013 
  460000   0.63605283   -1.8885632   -1.8885632   -1.1827114  0.058608345   -1.8885632    0.7058518   421013 
  461000   0.63587436   -1.8886156   -1.8886156   -1.1829618  0.053390296   -1.8886156   0.70565376   421013 
  462000   0.63496227   -1.8872507   -1.8872507   -1.1826091  0.053374167   -1.8872507   0.70464157   421013 
  463000   0.63505472   -1.8880786   -1.8880786   -1.1833344  0.047637489   -1.8880786   0.70474416   421013 
  464000   0.63438691   -1.8879634   -1.8879634   -1.1839603  0.046329586   -1.8879634   0.70400307   421013 
  465000   0.63251662   -1.8864677   -1.8864677   -1.1845402  0.051916112   -1.8864677   0.70192755   421013 
  466000   0.63470059   -1.8890854   -1.8890854   -1.1847342  0.053650992   -1.8890854   0.70435118   421013 
  467000    0.6347128   -1.8897196   -1.8897196   -1.1853549  0.055219295   -1.8897196   0.70436472   421013 
  468000   0.63458618   -1.8892745   -1.8892745   -1.1850503  0.045469939   -1.8892745   0.70422422   421013 
  469000    0.6353912   -1.8894782   -1.8894782   -1.1843606  0.048968048   -1.8894782   0.70511758   421013 
  470000   0.63494435   -1.8888421   -1.8888421   -1.1842205  0.048071918   -1.8888421   0.70462169   421013 
  471000   0.63386546    -1.889406    -1.889406   -1.1859816  0.053914618    -1.889406    0.7034244   421013 
  472000   0.63625421   -1.8912845   -1.8912845   -1.1852092  0.049463666   -1.8912845   0.70607529   421013 
  473000   0.63375622   -1.8893534   -1.8893534   -1.1860503  0.048679067   -1.8893534   0.70330318   421013 
  474000   0.63427601    -1.890962    -1.890962    -1.187082  0.053322884    -1.890962      0.70388   421013 
  475000   0.63522598    -1.891889    -1.891889   -1.1869548  0.050883455    -1.891889   0.70493422   421013 
  476000    0.6353589    -1.891855    -1.891855   -1.1867733  0.042789332    -1.891855   0.70508172   421013 
  477000   0.63560494   -1.8924173   -1.8924173   -1.1870625  0.059935424   -1.8924173   0.70535476   421013 
  478000   0.63574378   -1.8928577   -1.8928577   -1.1873489  0.058095168   -1.8928577   0.70550884   421013 
  479000    0.6347852   -1.8928543   -1.8928543   -1.1884093  0.046165342   -1.8928543   0.70444507   421013 
  480000   0.63431818   -1.8918796   -1.8918796   -1.1879528  0.051732113   -1.8918796    0.7039268   421013 
  481000     0.633978   -1.8914178   -1.8914178   -1.1878685  0.053986368   -1.8914178   0.70354929   421013 
  482000   0.63442342   -1.8920276   -1.8920276    -1.187984  0.050683471   -1.8920276   0.70404359   421013 
  483000   0.63481771   -1.8931409   -1.8931409   -1.1886597  0.053465512   -1.8931409   0.70448115   421013 
  484000   0.63496892   -1.8932349   -1.8932349    -1.188586  0.048269141   -1.8932349   0.70464895   421013 
  485000   0.63382472   -1.8928072   -1.8928072    -1.189428  0.049105779   -1.8928072   0.70337919   421013 
  486000   0.63288397   -1.8927207   -1.8927207   -1.1903854  0.050448727   -1.8927207   0.70233521   421013 
  487000   0.63266412   -1.8934114   -1.8934114   -1.1913201   0.05229561   -1.8934114   0.70209122   421013 
  488000   0.63265636   -1.8931981   -1.8931981   -1.1911154   0.04526212   -1.8931981   0.70208262   421013 
  489000   0.63369162   -1.8927548   -1.8927548   -1.1895233  0.044550012   -1.8927548   0.70323149   421013 
  490000   0.63449956   -1.8941977   -1.8941977   -1.1900696   0.05137887   -1.8941977   0.70412809   421013 
  491000   0.63302882    -1.892713    -1.892713    -1.190217  0.047683334    -1.892713   0.70249595   421013 
  492000   0.63386993   -1.8938422   -1.8938422   -1.1904128  0.050270534   -1.8938422   0.70342936   421013 
  493000   0.63385666   -1.8942579   -1.8942579   -1.1908432  0.055452597   -1.8942579   0.70341463   421013 
  494000    0.6340494   -1.8943057   -1.8943057   -1.1906771  0.054215092   -1.8943057   0.70362853   421013 
  495000   0.63251173   -1.8924593   -1.8924593   -1.1905372  0.048869337   -1.8924593   0.70192212   421013 
  496000   0.63349166    -1.892923    -1.892923   -1.1899134  0.054213047    -1.892923   0.70300958   421013 
  497000   0.63363611   -1.8933008   -1.8933008   -1.1901309  0.054246102   -1.8933008   0.70316988   421013 
  498000   0.63317516   -1.8934356   -1.8934356   -1.1907773  0.054366738   -1.8934356   0.70265834   421013 
  499000   0.63380062   -1.8943478   -1.8943478   -1.1909953   0.04895104   -1.8943478   0.70335245   421013 
  500000   0.63392116   -1.8930192   -1.8930192    -1.189533  0.048641589   -1.8930192   0.70348622   421013 
  501000   0.63323156   -1.8934929   -1.8934929    -1.190772  0.052398897   -1.8934929   0.70272094   421013 
  502000   0.63160928   -1.8919807   -1.8919807   -1.1910601  0.053486282   -1.8919807   0.70092063   421013 
  503000    0.6325389    -1.894387    -1.894387   -1.1924348  0.051945681    -1.894387   0.70195227   421013 
  504000   0.63174142   -1.8935699   -1.8935699   -1.1925026  0.045709899   -1.8935699   0.70106727   421013 
  505000   0.63353038   -1.8960942   -1.8960942   -1.1930417  0.049027808   -1.8960942   0.70305255   421013 
  506000   0.63268276     -1.89484     -1.89484   -1.1927281  0.049899558     -1.89484   0.70211192   421013 
  507000   0.63208146    -1.894767    -1.894767   -1.1933224  0.042110115    -1.894767   0.70144463   421013 
  508000   0.63259686   -1.8956326   -1.8956326    -1.193616  0.056904228   -1.8956326   0.70201659   421013 
  509000   0.63253399   -1.8953079   -1.8953079   -1.1933611  0.054900483   -1.8953079   0.70194682   421013 
  510000   0.63150096   -1.8952351   -1.8952351   -1.1944347   0.04552834   -1.8952351   0.70080043   421013 
  511000   0.63301852   -1.8976379   -1.8976379   -1.1951534  0.043784762   -1.8976379   0.70248451   421013 
  512000   0.63234595   -1.8970003   -1.8970003   -1.1952622   0.05103221   -1.8970003   0.70173814   421013 
  513000   0.63285162   -1.8977278   -1.8977278   -1.1954285   0.05550818   -1.8977278   0.70229931   421013 
  514000    0.6328142   -1.8975166   -1.8975166   -1.1952588  0.051289426   -1.8975166   0.70225778   421013 
  515000   0.63372549   -1.8990825   -1.8990825   -1.1958135  0.043944935   -1.8990825   0.70326907   421013 
  516000   0.63206687   -1.8980924   -1.8980924   -1.1966639  0.051849755   -1.8980924   0.70142843   421013 
  517000   0.63281441   -1.8994159   -1.8994159   -1.1971579  0.050879626   -1.8994159   0.70225801   421013 
  518000   0.63365178   -1.8998292   -1.8998292   -1.1966419  0.049291151   -1.8998292   0.70318727   421013 
  519000   0.63317006   -1.9000098   -1.9000098   -1.1973571  0.044626186   -1.9000098   0.70265269   421013 
  520000   0.63380674   -1.9004228   -1.9004228   -1.1970635  0.053009865   -1.9004228   0.70335923   421013 
  521000   0.63271846   -1.8994843   -1.8994843   -1.1973328  0.056115818   -1.8994843   0.70215153   421013 
  522000   0.63252994   -1.8995324   -1.8995324     -1.19759   0.04740458   -1.8995324   0.70194233   421013 
  523000   0.63322385    -1.900319    -1.900319   -1.1976066  0.052925396    -1.900319   0.70271238   421013 
  524000   0.63153746   -1.8991852   -1.8991852   -1.1983442  0.042086941   -1.8991852   0.70084093   421013 
  525000   0.63185179   -1.8992175   -1.8992175   -1.1980277  0.056529437   -1.8992175   0.70118975   421013 
  526000    0.6323179   -1.8997424   -1.8997424   -1.1980354  0.044572707   -1.8997424   0.70170702   421013 
  527000    0.6320251   -1.8994274   -1.8994274   -1.1980453  0.054812852   -1.8994274   0.70138208   421013 
  528000   0.63179481   -1.8994842   -1.8994842   -1.1983576  0.052716957   -1.8994842   0.70112652   421013 
  529000   0.63182504   -1.8995881   -1.8995881    -1.198428  0.044917662   -1.8995881   0.70116007   421013 
  530000    0.6324754   -1.9009476   -1.9009476   -1.1990658  0.052730142   -1.9009476   0.70188179   421013 
  531000   0.63174796   -1.9006653   -1.9006653   -1.1995908  0.048862219   -1.9006653   0.70107454   421013 
  532000   0.63144752   -1.9008997   -1.9008997   -1.2001586   0.04503936   -1.9008997   0.70074112   421013 
  533000   0.63102584   -1.9004195   -1.9004195   -1.2001464   0.04600236   -1.9004195   0.70027317   421013 
  534000   0.63202616   -1.9015465   -1.9015465   -1.2001633  0.045524776   -1.9015465   0.70138326   421013 
  535000   0.63260141   -1.9020691   -1.9020691   -1.2000475  0.050551849   -1.9020691   0.70202164   421013 
  536000   0.63207605   -1.9031072   -1.9031072   -1.2016686   0.04543237   -1.9031072   0.70143863   421013 
  537000   0.63179227   -1.9036054   -1.9036054   -1.2024817  0.048755328   -1.9036054    0.7011237   421013 
  538000    0.6324988    -1.903579    -1.903579   -1.2016712  0.048756028    -1.903579   0.70190777   421013 
  539000   0.63137619   -1.9030424   -1.9030424   -1.2023804  0.047349127   -1.9030424   0.70066196   421013 
  540000   0.63233667   -1.9041809   -1.9041809   -1.2024531  0.048002463   -1.9041809   0.70172784   421013 
  541000   0.63048106   -1.9020141   -1.9020141   -1.2023455  0.051707608   -1.9020141    0.6996686   421013 
  542000   0.63046097     -1.90185     -1.90185   -1.2022037  0.054367063     -1.90185   0.69964631   421013 
  543000   0.63069665    -1.903034    -1.903034   -1.2031261  0.050555307    -1.903034   0.69990786   421013 
  544000   0.63192509   -1.9037027   -1.9037027   -1.2024316  0.044150951   -1.9037027    0.7012711   421013 
  545000   0.63098362   -1.9033245   -1.9033245   -1.2030982   0.05183433   -1.9033245   0.70022632   421013 
  546000   0.63079351   -1.9027635   -1.9027635   -1.2027481  0.044306734   -1.9027635   0.70001534   421013 
  547000   0.63091248   -1.9023295   -1.9023295   -1.2021822  0.052096228   -1.9023295   0.70014736   421013 
  548000   0.63150966    -1.903162    -1.903162    -1.202352  0.054399584    -1.903162   0.70081008   421013 
  549000    0.6317265   -1.9030061   -1.9030061   -1.2019554  0.053473678   -1.9030061   0.70105072   421013 
  550000   0.63281724   -1.9043696   -1.9043696   -1.2021085  0.043611097   -1.9043696   0.70226115   421013 
  551000   0.63081742   -1.9029281   -1.9029281   -1.2028862   0.05224742   -1.9029281   0.70004188   421013 
  552000    0.6307386   -1.9036577   -1.9036577   -1.2037033  0.051488751   -1.9036577   0.69995441   421013 
  553000   0.63210978   -1.9046528   -1.9046528   -1.2031768  0.044716167   -1.9046528   0.70147606   421013 
  554000    0.6312787   -1.9036297   -1.9036297   -1.2030759   0.04875376   -1.9036297   0.70055377   421013 
  555000   0.63106028   -1.9042154   -1.9042154    -1.203904  0.050859103   -1.9042154   0.70031138   421013 
  556000   0.63120097   -1.9047097   -1.9047097   -1.2042422  0.051635826   -1.9047097   0.70046752   421013 
  557000   0.63169337   -1.9056516   -1.9056516   -1.2046377  0.048641944   -1.9056516   0.70101395   421013 
  558000   0.63234381   -1.9059765   -1.9059765   -1.2042407  0.053990798   -1.9059765   0.70173577   421013 
  559000   0.63098176   -1.9044956   -1.9044956   -1.2042713  0.055902878   -1.9044956   0.70022425   421013 
  560000   0.63238795   -1.9063753   -1.9063753   -1.2045905  0.054000101   -1.9063753   0.70178476   421013 
  561000   0.63207086   -1.9061247   -1.9061247   -1.2046918  0.047207819   -1.9061247   0.70143286   421013 
  562000    0.6322598   -1.9059228   -1.9059228   -1.2042803  0.057632983   -1.9059228   0.70164254   421013 
  563000   0.63205339   -1.9059869   -1.9059869   -1.2045735  0.050538502   -1.9059869   0.70141348   421013 
  564000   0.62957851   -1.9037205   -1.9037205   -1.2050535   0.04536417   -1.9037205   0.69866701   421013 
  565000   0.63180614   -1.9066705   -1.9066705   -1.2055314  0.040697916   -1.9066705    0.7011391   421013 
  566000   0.63012693    -1.905136    -1.905136   -1.2058604  0.049968649    -1.905136   0.69927561   421013 
  567000    0.6307096   -1.9057726   -1.9057726   -1.2058503  0.043209059   -1.9057726   0.69992222   421013 
  568000   0.63033563   -1.9059689   -1.9059689   -1.2064617  0.048382374   -1.9059689   0.69950721   421013 
  569000   0.63069077   -1.9063238   -1.9063238   -1.2064224  0.049729081   -1.9063238   0.69990133   421013 
  570000   0.63085212   -1.9058869   -1.9058869   -1.2058065  0.053098355   -1.9058869   0.70008038   421013 
  571000   0.63099393   -1.9059686   -1.9059686   -1.2057308  0.044525021   -1.9059686   0.70023775   421013 
  572000   0.63125983   -1.9062055   -1.9062055   -1.2056726  0.049553579   -1.9062055   0.70053284   421013 
  573000   0.63226546   -1.9081293   -1.9081293   -1.2064804  0.046497708   -1.9081293   0.70164882   421013 
  574000   0.63035728   -1.9062733   -1.9062733    -1.206742  0.044785526   -1.9062733   0.69953124   421013 
  575000   0.63020736   -1.9064468   -1.9064468   -1.2070819  0.047796117   -1.9064468   0.69936486   421013 
  576000   0.63071066   -1.9067624   -1.9067624    -1.206839   0.04332292   -1.9067624    0.6999234   421013 
  577000   0.63035432    -1.907479    -1.907479    -1.207951  0.048123183    -1.907479   0.69952796   421013 
  578000   0.63057413   -1.9085017   -1.9085017   -1.2087298  0.045778633   -1.9085017   0.69977189   421013 
  579000   0.63022869   -1.9076205   -1.9076205   -1.2082319   0.06074765   -1.9076205   0.69938854   421013 
  580000   0.63106178   -1.9090351   -1.9090351    -1.208722   0.05196799   -1.9090351   0.70031305   421013 
  581000   0.63115225   -1.9092328   -1.9092328   -1.2088193  0.046120445   -1.9092328   0.70041345   421013 
  582000   0.63173217   -1.9100501   -1.9100501   -1.2089931  0.052950774   -1.9100501   0.70105701   421013 
  583000   0.63131885   -1.9098986   -1.9098986   -1.2093003  0.049602682   -1.9098986   0.70059834   421013 
  584000   0.63165579   -1.9107115   -1.9107115   -1.2097392  0.059405978   -1.9107115   0.70097224   421013 
  585000   0.63172615   -1.9109999   -1.9109999   -1.2099495  0.051569619   -1.9109999   0.70105032   421013 
  586000   0.63142764   -1.9115698   -1.9115698   -1.2108507  0.050274838   -1.9115698   0.70071906   421013 
  587000   0.63057563   -1.9092723   -1.9092723   -1.2094987  0.055639907   -1.9092723   0.69977355   421013 
  588000   0.63189564   -1.9107961   -1.9107961   -1.2095577  0.050460567   -1.9107961   0.70123842   421013 
  589000   0.63106662     -1.91054     -1.91054   -1.2102216  0.050500696     -1.91054   0.70031843   421013 
  590000   0.63160322   -1.9106816   -1.9106816   -1.2097677  0.053041201   -1.9106816   0.70091391   421013 
  591000   0.63224949   -1.9115083   -1.9115083   -1.2098772  0.048655958   -1.9115083    0.7016311   421013 
  592000   0.63141523   -1.9107438   -1.9107438   -1.2100385  0.047751972   -1.9107438   0.70070529   421013 
  593000   0.63093656   -1.9104159   -1.9104159   -1.2102418  0.049009354   -1.9104159   0.70017409   421013 
  594000   0.63134988   -1.9104275   -1.9104275   -1.2097947  0.050752547   -1.9104275   0.70063277   421013 
  595000   0.63020957   -1.9096025   -1.9096025   -1.2102352  0.047047389   -1.9096025   0.69936732   421013 
  596000   0.62981772   -1.9088336   -1.9088336   -1.2099012  0.044370404   -1.9088336   0.69893248   421013 
  597000   0.63071224   -1.9095929   -1.9095929   -1.2096678  0.045632525   -1.9095929   0.69992515   421013 
  598000   0.63134406   -1.9106497   -1.9106497   -1.2100234  0.047725835   -1.9106497    0.7006263   421013 
  599000   0.63171584   -1.9108467   -1.9108467   -1.2098078  0.048217275   -1.9108467   0.70103889   421013 
  600000   0.62987109    -1.909548    -1.909548   -1.2105563  0.044723336    -1.909548    0.6989917   421013 
  601000   0.63067898    -1.910569    -1.910569   -1.2106808  0.044223553    -1.910569   0.69988824   421013 
  602000   0.63087041   -1.9106495   -1.9106495   -1.2105488  0.049897437   -1.9106495   0.70010068   421013 
  603000   0.62900042   -1.9095395   -1.9095395    -1.211514   0.04742947   -1.9095395   0.69802548   421013 
  604000   0.63007633   -1.9104829   -1.9104829   -1.2112635  0.053083148   -1.9104829   0.69921946   421013 
  605000   0.63064266   -1.9116086   -1.9116086   -1.2117607  0.041846048   -1.9116086   0.69984794   421013 
  606000    0.6301799   -1.9112253   -1.9112253   -1.2118909  0.048519063   -1.9112253   0.69933439   421013 
  607000   0.63220559   -1.9129492   -1.9129492   -1.2113668  0.051607996   -1.9129492   0.70158239   421013 
  608000   0.63244956   -1.9139509   -1.9139509   -1.2120978  0.050425214   -1.9139509   0.70185312   421013 
  609000    0.6315853    -1.913137    -1.913137    -1.212243  0.047481943    -1.913137   0.70089402   421013 
  610000   0.63208933   -1.9141619   -1.9141619   -1.2127085  0.050378636   -1.9141619   0.70145336   421013 
  611000   0.63078443   -1.9134304   -1.9134304   -1.2134251  0.050699158   -1.9134304   0.70000526   421013 
  612000   0.63046632   -1.9126414   -1.9126414   -1.2129891  0.051261357   -1.9126414   0.69965225   421013 
  613000   0.62992169   -1.9116754   -1.9116754   -1.2126275  0.057149413   -1.9116754   0.69904785   421013 
  614000   0.63024168   -1.9110433   -1.9110433   -1.2116404  0.046346822   -1.9110433   0.69940296   421013 
  615000   0.62936005   -1.9107165   -1.9107165   -1.2122919  0.045845771   -1.9107165   0.69842458   421013 
  616000   0.62914865   -1.9109112   -1.9109112   -1.2127213  0.047161479   -1.9109112   0.69818997   421013 
  617000   0.62980625   -1.9110793   -1.9110793   -1.2121596  0.055377878   -1.9110793   0.69891974   421013 
  618000   0.62943546   -1.9105496   -1.9105496   -1.2120413  0.053251665   -1.9105496   0.69850826   421013 
  619000   0.62998565   -1.9119862   -1.9119862   -1.2128674  0.046004144   -1.9119862   0.69911883   421013 
  620000   0.62999504   -1.9113154   -1.9113154   -1.2121861  0.049898913   -1.9113154   0.69912925   421013 
  621000   0.63186383   -1.9140149   -1.9140149   -1.2128118  0.057070911   -1.9140149   0.70120312   421013 
  622000   0.63097981   -1.9132814   -1.9132814   -1.2130593  0.050360095   -1.9132814   0.70022208   421013 
  623000   0.63099021   -1.9134471   -1.9134471   -1.2132135  0.054630971   -1.9134471   0.70023363   421013 
  624000   0.63119635   -1.9141302   -1.9141302   -1.2136678  0.052517341   -1.9141302   0.70046239   421013 
  625000   0.63068108   -1.9142801   -1.9142801   -1.2143895  0.047959072   -1.9142801   0.69989057   421013 
  626000   0.62964684   -1.9134932   -1.9134932   -1.2147504  0.054308876   -1.9134932   0.69874284   421013 
  627000   0.62930851   -1.9144841   -1.9144841   -1.2161167  0.043783298   -1.9144841   0.69836738   421013 
  628000   0.62966746   -1.9146551   -1.9146551   -1.2158894  0.050417551   -1.9146551   0.69876572   421013 
  629000   0.62949471   -1.9149883   -1.9149883   -1.2164143  0.045235943   -1.9149883   0.69857401   421013 
  630000    0.6291763   -1.9152278   -1.9152278   -1.2170071  0.051913506   -1.9152278   0.69822066   421013 
  631000   0.62988186   -1.9158288   -1.9158288   -1.2168251  0.040327817   -1.9158288   0.69900365   421013 
  632000   0.62876498   -1.9142675   -1.9142675   -1.2165033  0.044992662   -1.9142675   0.69776421   421013 
  633000   0.62946501   -1.9154628   -1.9154628   -1.2169217  0.048943821   -1.9154628   0.69854105   421013 
  634000   0.62982425   -1.9161978   -1.9161978   -1.2172581  0.043047417   -1.9161978   0.69893971   421013 
  635000   0.63006091   -1.9162239   -1.9162239   -1.2170215  0.046311631   -1.9162239   0.69920235   421013 
  636000   0.63108749   -1.9171513   -1.9171513   -1.2168097  0.058203544   -1.9171513   0.70034158   421013 
  637000   0.62888194   -1.9155799   -1.9155799   -1.2176859  0.049233041   -1.9155799     0.697894   421013 
  638000   0.62950668   -1.9156253   -1.9156253    -1.217038  0.048181531   -1.9156253    0.6985873   421013 
  639000   0.63041908   -1.9164725   -1.9164725   -1.2168727  0.045924926   -1.9164725   0.69959982   421013 
  640000   0.62952713   -1.9161077   -1.9161077   -1.2174977  0.052143877   -1.9161077   0.69860999   421013 
  641000    0.6301735   -1.9166193   -1.9166193    -1.217292  0.043550499   -1.9166193   0.69932729   421013 
  642000   0.63000364   -1.9167245   -1.9167245   -1.2175857  0.047874123   -1.9167245    0.6991388   421013 
  643000   0.62875029   -1.9155852   -1.9155852   -1.2178373  0.048181915   -1.9155852    0.6977479   421013 
  644000   0.62864253   -1.9154973   -1.9154973    -1.217869  0.053302969   -1.9154973   0.69762832   421013 
  645000    0.6302107   -1.9170535   -1.9170535   -1.2176849  0.055530612   -1.9170535   0.69936857   421013 
  646000   0.62946394   -1.9163956   -1.9163956   -1.2178557  0.053998297   -1.9163956   0.69853986   421013 
  647000   0.63051166   -1.9167649   -1.9167649   -1.2170624  0.043809739   -1.9167649   0.69970256   421013 
  648000   0.63134753   -1.9181886   -1.9181886   -1.2175585  0.052470416   -1.9181886   0.70063016   421013 
  649000   0.63009879   -1.9176327   -1.9176327   -1.2183883  0.056130977   -1.9176327   0.69924439   421013 
  650000   0.62922056   -1.9170138   -1.9170138    -1.218744  0.054056635   -1.9170138   0.69826978   421013 
  651000   0.62990461   -1.9182742   -1.9182742   -1.2192453   0.05060951   -1.9182742   0.69902889   421013 
  652000   0.63084354   -1.9195316   -1.9195316   -1.2194607  0.056034371   -1.9195316   0.70007086   421013 
  653000   0.63063404   -1.9192565   -1.9192565   -1.2194181  0.053534598   -1.9192565   0.69983838   421013 
  654000   0.63060206   -1.9192541   -1.9192541   -1.2194512   0.04967588   -1.9192541   0.69980288   421013 
  655000   0.63038589   -1.9193732   -1.9193732   -1.2198102  0.052144561   -1.9193732   0.69956299   421013 
  656000   0.62891289   -1.9189855   -1.9189855   -1.2210571  0.048930659   -1.9189855   0.69792835   421013 
  657000   0.62878797   -1.9186483   -1.9186483   -1.2208586  0.049857262   -1.9186483   0.69778972   421013 
  658000   0.62914939   -1.9189414   -1.9189414   -1.2207506  0.045340777   -1.9189414    0.6981908   421013 
  659000   0.63010628   -1.9198941   -1.9198941   -1.2206414  0.048386184   -1.9198941   0.69925269   421013 
  660000   0.63094496   -1.9209865   -1.9209865   -1.2208031  0.049221591   -1.9209865   0.70018342   421013 
  661000   0.63052859   -1.9210334   -1.9210334    -1.221312  0.049893702   -1.9210334   0.69972134   421013 
  662000   0.62988702   -1.9207742   -1.9207742   -1.2217649  0.049766249   -1.9207742   0.69900938   421013 
  663000   0.63068716   -1.9213226   -1.9213226   -1.2214253  0.050964302   -1.9213226   0.69989732   421013 
  664000   0.62851241   -1.9195894   -1.9195894   -1.2221055  0.053870919   -1.9195894   0.69748392   421013 
  665000   0.63101758   -1.9208121   -1.9208121   -1.2205481   0.05954889   -1.9208121     0.700264   421013 
  666000   0.63038692   -1.9207658   -1.9207658   -1.2212017  0.049591373   -1.9207658   0.69956413   421013 
  667000   0.62962935   -1.9206325   -1.9206325   -1.2219091  0.044173681   -1.9206325   0.69872343   421013 
  668000   0.62883497   -1.9201719   -1.9201719     -1.22233  0.061831983   -1.9201719   0.69784187   421013 
  669000    0.6294267   -1.9210832   -1.9210832   -1.2225847  0.043285042   -1.9210832   0.69849854   421013 
  670000   0.62925043   -1.9205649   -1.9205649    -1.222262  0.051327762   -1.9205649   0.69830293   421013 
  671000   0.62940464   -1.9216382   -1.9216382   -1.2231641  0.051543176   -1.9216382   0.69847405   421013 
  672000   0.62916393   -1.9217074   -1.9217074   -1.2235005  0.054871575   -1.9217074   0.69820693   421013 
  673000     0.628904   -1.9224043   -1.9224043   -1.2244858  0.051668097   -1.9224043   0.69791848   421013 
  674000   0.62908491     -1.92291     -1.92291   -1.2247908  0.047940332     -1.92291   0.69811925   421013 
  675000    0.6288169   -1.9229887   -1.9229887   -1.2251669  0.035723122   -1.9229887   0.69782182   421013 
  676000   0.62850569   -1.9227728   -1.9227728   -1.2252963  0.045779774   -1.9227728   0.69747646   421013 
  677000   0.63001487   -1.9242906   -1.9242906   -1.2251393   0.05167188   -1.9242906   0.69915125   421013 
  678000   0.62965464   -1.9242184   -1.9242184   -1.2254669  0.049600645   -1.9242184   0.69875149   421013 
  679000   0.62887883    -1.922971    -1.922971   -1.2250805  0.051684067    -1.922971   0.69789055   421013 
  680000    0.6303004   -1.9246519   -1.9246519   -1.2251838  0.050525074   -1.9246519   0.69946812   421013 
  681000   0.62863969   -1.9235429   -1.9235429   -1.2259177  0.052121151   -1.9235429   0.69762516   421013 
  682000   0.62904977   -1.9247997   -1.9247997   -1.2267195  0.051711682   -1.9247997   0.69808025   421013 
  683000   0.62860665   -1.9241753   -1.9241753   -1.2265867  0.050474676   -1.9241753   0.69758851   421013 
  684000   0.62918147   -1.9243104   -1.9243104    -1.226084  0.047039043   -1.9243104    0.6982264   421013 
  685000   0.62875286    -1.924512    -1.924512   -1.2267613  0.046737302    -1.924512   0.69775075   421013 
  686000    0.6282264   -1.9245405   -1.9245405    -1.227374  0.053313598   -1.9245405   0.69716652   421013 
  687000   0.62903128   -1.9252531   -1.9252531   -1.2271934  0.049588136   -1.9252531   0.69805973   421013 
  688000   0.62732492   -1.9238892   -1.9238892    -1.227723  0.041032647   -1.9238892   0.69616612   421013 
  689000   0.62791816   -1.9243213   -1.9243213   -1.2274968  0.045236559   -1.9243213   0.69682446   421013 
  690000   0.62719695   -1.9232314   -1.9232314   -1.2272073  0.047355647   -1.9232314    0.6960241   421013 
  691000   0.62795246   -1.9238346   -1.9238346   -1.2269721  0.051679415   -1.9238346   0.69686252   421013 
  692000   0.62955971   -1.9255442   -1.9255442    -1.226898  0.046431307   -1.9255442   0.69864615   421013 
  693000   0.62902936   -1.9261162   -1.9261162   -1.2280586  0.054378319   -1.9261162    0.6980576   421013 
  694000   0.62787853   -1.9241591   -1.9241591   -1.2273786  0.051130771   -1.9241591   0.69678048   421013 
  695000   0.62913089   -1.9254946   -1.9254946   -1.2273243  0.041102701   -1.9254946   0.69817027   421013 
  696000   0.62880682   -1.9258067   -1.9258067   -1.2279961  0.042296528   -1.9258067   0.69781064   421013 
  697000   0.62971492   -1.9259798   -1.9259798   -1.2271614  0.049089163   -1.9259798   0.69881839   421013 
  698000   0.62955368   -1.9264983   -1.9264983   -1.2278589  0.051030272   -1.9264983   0.69863946   421013 
  699000   0.62989256   -1.9270147   -1.9270147   -1.2279992  0.048210516   -1.9270147   0.69901553   421013 
  700000   0.62891305    -1.926271    -1.926271   -1.2283425  0.044561248    -1.926271   0.69792852   421013 
  701000   0.62974747   -1.9267311   -1.9267311   -1.2278766  0.047727482   -1.9267311   0.69885451   421013 
  702000   0.62947668   -1.9271685   -1.9271685   -1.2286145  0.049430489   -1.9271685     0.698554   421013 
  703000   0.62933842   -1.9266772   -1.9266772   -1.2282767  0.048673836   -1.9266772   0.69840057   421013 
  704000   0.62922712   -1.9273093   -1.9273093   -1.2290322  0.047515069   -1.9273093   0.69827706   421013 
  705000   0.62928304   -1.9273921   -1.9273921    -1.229053  0.048199245   -1.9273921   0.69833911   421013 
  706000   0.62802523   -1.9265203   -1.9265203    -1.229577  0.057820644   -1.9265203   0.69694328   421013 
  707000   0.62818722   -1.9266419   -1.9266419   -1.2295188  0.046004556   -1.9266419   0.69712304   421013 
  708000   0.62785383   -1.9269453   -1.9269453   -1.2301922  0.050653495   -1.9269453   0.69675306   421013 
  709000   0.62754725   -1.9264083   -1.9264083   -1.2299954  0.047598384   -1.9264083   0.69641285   421013 
  710000   0.62721643   -1.9263134   -1.9263134   -1.2302677  0.040470089   -1.9263134   0.69604572   421013 
  711000   0.62751677   -1.9273712   -1.9273712   -1.2309922  0.040780271   -1.9273712   0.69637902   421013 
  712000   0.62687604   -1.9265893   -1.9265893   -1.2309213  0.041902776   -1.9265893   0.69566797   421013 
  713000   0.62899106   -1.9291094   -1.9291094   -1.2310943  0.049853443   -1.9291094   0.69801509   421013 
  714000   0.62799052   -1.9285252   -1.9285252   -1.2316204  0.047224547   -1.9285252   0.69690476   421013 
  715000   0.62734849   -1.9278044   -1.9278044   -1.2316121  0.042245096   -1.9278044   0.69619228   421013 
  716000   0.62854532   -1.9292325   -1.9292325    -1.231712  0.045693849   -1.9292325   0.69752044   421013 
  717000   0.62734728   -1.9285401   -1.9285401   -1.2323492  0.048759822   -1.9285401   0.69619093   421013 
  718000   0.62624718   -1.9278053   -1.9278053   -1.2328351  0.049428422   -1.9278053   0.69497011   421013 
  719000   0.62789727   -1.9292044   -1.9292044   -1.2324031   0.04476437   -1.9292044   0.69680128   421013 
  720000   0.62834294   -1.9291543   -1.9291543   -1.2318585  0.049998688   -1.9291543   0.69729586   421013 
  721000   0.62959565   -1.9312166   -1.9312166   -1.2325306  0.049977619   -1.9312166   0.69868603   421013 
  722000   0.62847804   -1.9309819   -1.9309819   -1.2335361  0.047942287   -1.9309819   0.69744578   421013 
  723000   0.62954764   -1.9312749   -1.9312749   -1.2326422  0.053745054   -1.9312749   0.69863275   421013 
  724000   0.62907236   -1.9317425   -1.9317425   -1.2336371  0.056545853   -1.9317425   0.69810531   421013 
  725000   0.62944742    -1.931521    -1.931521   -1.2329995  0.054526491    -1.931521   0.69852153   421013 
  726000   0.62882207   -1.9309485   -1.9309485    -1.233121  0.054564973   -1.9309485   0.69782756   421013 
  727000   0.62966793   -1.9320723   -1.9320723   -1.2333061  0.053529715   -1.9320723   0.69876625   421013 
  728000   0.62856642   -1.9311369   -1.9311369    -1.233593  0.056585893   -1.9311369   0.69754386   421013 
  729000   0.62733864   -1.9299753   -1.9299753    -1.233794  0.054118975   -1.9299753   0.69618134   421013 
  730000   0.62827109   -1.9318996   -1.9318996   -1.2346835  0.045157987   -1.9318996   0.69721612   421013 
  731000   0.62662006   -1.9301031   -1.9301031   -1.2347192  0.046139992   -1.9301031    0.6953839   421013 
  732000   0.62723375   -1.9310439   -1.9310439   -1.2349789  0.048253471   -1.9310439   0.69606494   421013 
  733000    0.6276437   -1.9318144   -1.9318144   -1.2352945  0.058255781   -1.9318144   0.69651988   421013 
  734000   0.62791819   -1.9321677   -1.9321677   -1.2353432  0.048661278   -1.9321677   0.69682449   421013 
  735000   0.62740105   -1.9312789   -1.9312789   -1.2350283  0.045540594   -1.9312789   0.69625061   421013 
  736000   0.62849277   -1.9325403   -1.9325403   -1.2350782  0.047720972   -1.9325403   0.69746212   421013 
  737000    0.6291637   -1.9331352   -1.9331352   -1.2349285  0.058770588   -1.9331352   0.69820668   421013 
  738000    0.6287418   -1.9324765   -1.9324765    -1.234738   0.05496598   -1.9324765   0.69773849   421013 
  739000   0.62949202   -1.9330555   -1.9330555   -1.2344844  0.054545252   -1.9330555   0.69857103   421013 
  740000   0.63003728   -1.9328219   -1.9328219   -1.2336458  0.052409431   -1.9328219   0.69917612   421013 
  741000   0.62823851   -1.9311196   -1.9311196   -1.2339397  0.048754975   -1.9311196   0.69717996   421013 
  742000   0.62824902   -1.9324449   -1.9324449   -1.2352533  0.055705317   -1.9324449   0.69719163   421013 
  743000   0.62693664   -1.9312733   -1.9312733    -1.235538   0.04808957   -1.9312733   0.69573523   421013 
  744000   0.62718087   -1.9315755   -1.9315755   -1.2355693  0.049504579   -1.9315755   0.69600626   421013 
  745000   0.62770019   -1.9326943   -1.9326943   -1.2361118  0.055635834   -1.9326943   0.69658257   421013 
  746000   0.62749383   -1.9329436   -1.9329436   -1.2365901  0.048116766   -1.9329436   0.69635356   421013 
  747000   0.62872917   -1.9330054   -1.9330054   -1.2352809  0.059917208   -1.9330054   0.69772446   421013 
  748000    0.6285975   -1.9336324   -1.9336324    -1.236054  0.050100154   -1.9336324   0.69757835   421013 
  749000   0.62846472   -1.9340729   -1.9340729   -1.2366419  0.049157471   -1.9340729   0.69743099   421013 
  750000    0.6267917    -1.932368    -1.932368   -1.2367936  0.051156512    -1.932368   0.69557439   421013 
  751000   0.62627457   -1.9317155   -1.9317155    -1.236715  0.049159101   -1.9317155   0.69500051   421013 
  752000   0.62787664   -1.9339316   -1.9339316   -1.2371532  0.046412846   -1.9339316   0.69677838   421013 
  753000   0.62824842    -1.933018    -1.933018   -1.2358271   0.04782909    -1.933018   0.69719096   421013 
  754000   0.62689835   -1.9320501   -1.9320501   -1.2363574   0.04435086   -1.9320501   0.69569273   421013 
  755000   0.62773567   -1.9332397   -1.9332397   -1.2366178  0.041619303   -1.9332397   0.69662195   421013 
  756000    0.6283548   -1.9338958   -1.9338958   -1.2365867  0.047283391   -1.9338958   0.69730901   421013 
  757000   0.62689471   -1.9318476   -1.9318476   -1.2361589  0.048846381   -1.9318476    0.6956887   421013 
  758000   0.62667068   -1.9315945   -1.9315945   -1.2361544  0.046579316   -1.9315945   0.69544008   421013 
  759000   0.62805124   -1.9329138   -1.9329138   -1.2359416  0.049313762   -1.9329138   0.69697214   421013 
  760000   0.62770128    -1.931898    -1.931898   -1.2353142  0.043944411    -1.931898   0.69658378   421013 
  761000   0.62772163   -1.9323805   -1.9323805   -1.2357742   0.03948069   -1.9323805   0.69660636   421013 
  762000   0.62721812   -1.9330595   -1.9330595   -1.2370119  0.054624786   -1.9330595    0.6960476   421013 
  763000   0.62766873   -1.9341609   -1.9341609   -1.2376132  0.038554173   -1.9341609   0.69654766   421013 
  764000   0.62847202   -1.9344626   -1.9344626   -1.2370235  0.043165821   -1.9344626   0.69743909   421013 
  765000   0.62638849   -1.9333922   -1.9333922   -1.2382653  0.048965665   -1.9333922   0.69512692   421013 
  766000   0.62554738   -1.9329768   -1.9329768   -1.2387833  0.043485071   -1.9329768   0.69419351   421013 
  767000   0.62697115    -1.933625    -1.933625   -1.2378515  0.046485847    -1.933625   0.69577353   421013 
  768000    0.6276932   -1.9347924   -1.9347924   -1.2382176  0.036198001   -1.9347924   0.69657481   421013 
  769000   0.62776377   -1.9348443   -1.9348443   -1.2381912  0.048381842   -1.9348443   0.69665312   421013 
  770000   0.62867257    -1.935389    -1.935389   -1.2377273  0.049817719    -1.935389   0.69766166   421013 
  771000    0.6287013   -1.9355934   -1.9355934   -1.2378998  0.055598042   -1.9355934   0.69769354   421013 
  772000   0.62821606   -1.9357982   -1.9357982   -1.2386432  0.050535794   -1.9357982   0.69715505   421013 
  773000   0.62739355   -1.9352261   -1.9352261   -1.2389839  0.045543267   -1.9352261   0.69624227   421013 
  774000   0.62774679   -1.9346621   -1.9346621   -1.2380278  0.051269758   -1.9346621   0.69663428   421013 
  775000   0.62889008   -1.9363193   -1.9363193   -1.2384163  0.049905456   -1.9363193   0.69790304   421013 
  776000   0.62911771   -1.9368403   -1.9368403   -1.2386847  0.047186704   -1.9368403   0.69815564   421013 
  777000   0.62810209   -1.9357856   -1.9357856    -1.238757   0.05686731   -1.9357856   0.69702857   421013 
  778000   0.62931336   -1.9368494   -1.9368494   -1.2384766  0.051381815   -1.9368494   0.69837277   421013 
  779000   0.62758959   -1.9357274   -1.9357274   -1.2392675   0.04866778   -1.9357274   0.69645983   421013 
  780000   0.62707014   -1.9365572   -1.9365572   -1.2406738  0.047576567   -1.9365572   0.69588338   421013 
  781000   0.62757444   -1.9374717   -1.9374717   -1.2410287  0.045497114   -1.9374717   0.69644302   421013 
  782000   0.62660687   -1.9359667   -1.9359667   -1.2405974  0.049919526   -1.9359667   0.69536927   421013 
  783000    0.6265386   -1.9359729   -1.9359729   -1.2406794  0.043112368   -1.9359729   0.69529351   421013 
  784000     0.626424   -1.9354705   -1.9354705   -1.2403041   0.05383143   -1.9354705   0.69516633   421013 
  785000   0.62647269   -1.9362297   -1.9362297   -1.2410093  0.038977242   -1.9362297   0.69522036   421013 
  786000   0.62643484   -1.9360845   -1.9360845   -1.2409062  0.051039968   -1.9360845   0.69517836   421013 
  787000   0.62829842   -1.9374899   -1.9374899   -1.2402435  0.039853174   -1.9374899   0.69724645   421013 
  788000   0.62674585   -1.9362008   -1.9362008   -1.2406773  0.048651138   -1.9362008    0.6955235   421013 
  789000   0.62616438   -1.9356961   -1.9356961   -1.2408179    0.0474541   -1.9356961   0.69487822   421013 
  790000   0.62797542   -1.9375724   -1.9375724   -1.2406844  0.046097376   -1.9375724     0.696888   421013 
  791000   0.62607971   -1.9358888   -1.9358888   -1.2411045   0.04661305   -1.9358888   0.69478426   421013 
  792000   0.62722926   -1.9376452   -1.9376452   -1.2415853  0.038376509   -1.9376452   0.69605996   421013 
  793000   0.62622759   -1.9370638   -1.9370638   -1.2421155  0.049636851   -1.9370638   0.69494836   421013 
  794000   0.62686215   -1.9375312   -1.9375312   -1.2418787  0.044916656   -1.9375312   0.69565256   421013 
  795000   0.62644752   -1.9380544   -1.9380544    -1.242862  0.043225702   -1.9380544   0.69519243   421013 
  796000   0.62652806   -1.9381636   -1.9381636   -1.2428818  0.042477118   -1.9381636   0.69528181   421013 
  797000   0.62581199    -1.936628    -1.936628   -1.2421409  0.049568209    -1.936628   0.69448716   421013 
  798000   0.62690991   -1.9384819   -1.9384819   -1.2427763   0.05236331   -1.9384819   0.69570556   421013 
  799000   0.62941081   -1.9414423   -1.9414423   -1.2429614    0.0503883   -1.9414423    0.6984809   421013 
  800000   0.62794255   -1.9389314   -1.9389314   -1.2420799  0.051014572   -1.9389314   0.69685153   421013 
  801000   0.62798579   -1.9388694   -1.9388694   -1.2419699  0.045028581   -1.9388694   0.69689951   421013 
  802000    0.6271921   -1.9372574   -1.9372574   -1.2412387  0.059133003   -1.9372574   0.69601872   421013 
  803000   0.62709273   -1.9378241   -1.9378241   -1.2419157  0.048181453   -1.9378241   0.69590844   421013 
  804000   0.62598889   -1.9369029   -1.9369029   -1.2422195  0.040427372   -1.9369029   0.69468347   421013 
  805000   0.62736401   -1.9382884   -1.9382884   -1.2420789  0.046806997   -1.9382884   0.69620949   421013 
  806000   0.62680162   -1.9382086   -1.9382086   -1.2426232  0.051408121   -1.9382086   0.69558539   421013 
  807000   0.62760623    -1.939574    -1.939574   -1.2430957  0.042735327    -1.939574    0.6964783   421013 
  808000    0.6273823   -1.9386388   -1.9386388   -1.2424091  0.045491635   -1.9386388   0.69622979   421013 
  809000   0.62722911   -1.9383393   -1.9383393   -1.2422796  0.046285605   -1.9383393   0.69605979   421013 
  810000   0.62661922   -1.9373171   -1.9373171   -1.2419342  0.047912352   -1.9373171   0.69538297   421013 
  811000   0.62882821   -1.9397405   -1.9397405   -1.2419061  0.043403755   -1.9397405   0.69783437   421013 
  812000   0.62787278   -1.9389248   -1.9389248   -1.2421507   0.05040885   -1.9389248    0.6967741   421013 
  813000   0.62715802   -1.9380719   -1.9380719    -1.242091  0.052184938   -1.9380719    0.6959809   421013 
  814000   0.62689447   -1.9386274   -1.9386274    -1.242939  0.046029081   -1.9386274   0.69568843   421013 
  815000   0.62545194   -1.9372355   -1.9372355   -1.2431479  0.048000645   -1.9372355    0.6940876   421013 
  816000   0.62546953   -1.9377175   -1.9377175   -1.2436104  0.054030983   -1.9377175   0.69410712   421013 
  817000   0.62679015   -1.9398227   -1.9398227     -1.24425  0.041741568   -1.9398227   0.69557266   421013 
  818000   0.62620364   -1.9400046   -1.9400046   -1.2450828  0.041416866   -1.9400046   0.69492179   421013 
  819000   0.62563726   -1.9398957   -1.9398957   -1.2456024  0.046247825   -1.9398957   0.69429325   421013 
  820000    0.6264592   -1.9412829   -1.9412829   -1.2460775  0.047700818   -1.9412829    0.6952054   421013 
  821000    0.6254246   -1.9406361   -1.9406361   -1.2465788  0.043741661   -1.9406361   0.69405726   421013 
  822000   0.62638736   -1.9412491   -1.9412491   -1.2461234  0.052576147   -1.9412491   0.69512567   421013 
  823000   0.62525819   -1.9404576   -1.9404576    -1.246585  0.042012942   -1.9404576   0.69387259   421013 
  824000   0.62577319   -1.9408225   -1.9408225   -1.2463784  0.045064365   -1.9408225   0.69444411   421013 
  825000   0.62677633   -1.9408689   -1.9408689   -1.2453116  0.046444767   -1.9408689   0.69555733   421013 
  826000   0.62754992   -1.9427832   -1.9427832   -1.2463674  0.047326554   -1.9427832    0.6964158   421013 
  827000   0.62758739   -1.9425948   -1.9425948   -1.2461374  0.056795545   -1.9425948   0.69645739   421013 
  828000   0.62750717   -1.9430351   -1.9430351   -1.2466668   0.04495716   -1.9430351   0.69636837   421013 
  829000   0.62610471   -1.9420105   -1.9420105   -1.2471985  0.052436623   -1.9420105   0.69481201   421013 
  830000   0.62771965   -1.9438033   -1.9438033   -1.2471991  0.051454636   -1.9438033   0.69660416   421013 
  831000   0.62614111   -1.9423436   -1.9423436   -1.2474912  0.044981258   -1.9423436    0.6948524   421013 
  832000   0.62535671   -1.9420685   -1.9420685   -1.2480866  0.053514663   -1.9420685   0.69398192   421013 
  833000   0.62601419   -1.9424847   -1.9424847   -1.2477731  0.049523817   -1.9424847   0.69471155   421013 
  834000   0.62680563   -1.9442012   -1.9442012   -1.2486114   0.05352626   -1.9442012   0.69558984   421013 
  835000   0.62631552   -1.9427304   -1.9427304   -1.2476844  0.044140574   -1.9427304   0.69504595   421013 
  836000   0.62565561   -1.9422373   -1.9422373   -1.2479237  0.045595101   -1.9422373   0.69431362   421013 
  837000   0.62651647   -1.9425384   -1.9425384   -1.2472695   0.04858116   -1.9425384   0.69526895   421013 
  838000   0.62673503   -1.9434431   -1.9434431   -1.2479316  0.052662573   -1.9434431   0.69551149   421013 
  839000   0.62675127   -1.9430205   -1.9430205   -1.2474909   0.04351856   -1.9430205   0.69552952   421013 
  840000   0.62607593   -1.9421625   -1.9421625   -1.2473824  0.046627595   -1.9421625   0.69478006   421013 
  841000   0.62551711   -1.9420424   -1.9420424   -1.2478824  0.039036663   -1.9420424   0.69415992   421013 
  842000   0.62565246   -1.9423465   -1.9423465   -1.2480364  0.053033349   -1.9423465   0.69431012   421013 
  843000   0.62695895   -1.9443685   -1.9443685   -1.2486085  0.045888931   -1.9443685   0.69575999   421013 
  844000   0.62565715   -1.9436949   -1.9436949   -1.2493795  0.043952029   -1.9436949   0.69431533   421013 
  845000   0.62466136    -1.942844    -1.942844   -1.2496337  0.050646481    -1.942844   0.69321027   421013 
  846000   0.62506973   -1.9436229   -1.9436229   -1.2499594  0.042675925   -1.9436229   0.69366344   421013 
  847000   0.62498158   -1.9434776   -1.9434776    -1.249912  0.048595543   -1.9434776   0.69356563   421013 
  848000   0.62591158   -1.9445086   -1.9445086   -1.2499109  0.048952572   -1.9445086   0.69459768   421013 
  849000   0.62608535   -1.9448257   -1.9448257   -1.2500352  0.048930943   -1.9448257   0.69479052   421013 
  850000   0.62599722     -1.94453     -1.94453   -1.2498372  0.048493771     -1.94453   0.69469272   421013 
  851000   0.62632684   -1.9457098   -1.9457098   -1.2506513  0.052937709   -1.9457098   0.69505851   421013 
  852000   0.62670855   -1.9458301   -1.9458301   -1.2503479  0.046734481   -1.9458301   0.69548211   421013 
  853000   0.62646926   -1.9463664   -1.9463664   -1.2511498  0.053869521   -1.9463664   0.69521656   421013 
  854000   0.62527971   -1.9447714   -1.9447714   -1.2508749  0.048795809   -1.9447714   0.69389647   421013 
  855000   0.62596479   -1.9456133   -1.9456133   -1.2509566   0.04882195   -1.9456133   0.69465673   421013 
  856000   0.62706045   -1.9467099   -1.9467099   -1.2508372  0.049680765   -1.9467099   0.69587263   421013 
  857000   0.62709973   -1.9466306   -1.9466306   -1.2507144  0.049653502   -1.9466306   0.69591621   421013 
  858000   0.62623087    -1.945792    -1.945792     -1.25084  0.061295233    -1.945792   0.69495201   421013 
  859000   0.62556402   -1.9453059   -1.9453059   -1.2510939  0.051239304   -1.9453059   0.69421198   421013 
  860000    0.6245179    -1.944261    -1.944261   -1.2512099  0.053224194    -1.944261   0.69305106   421013 
  861000    0.6261635   -1.9457737   -1.9457737   -1.2508964  0.039604613   -1.9457737   0.69487724   421013 
  862000    0.6257817   -1.9458393   -1.9458393   -1.2513858  0.042901231   -1.9458393   0.69445355   421013 
  863000    0.6253292   -1.9455649   -1.9455649   -1.2516135  0.041017919   -1.9455649   0.69395139   421013 
  864000    0.6249165   -1.9455047   -1.9455047   -1.2520113  0.042864268   -1.9455047    0.6934934   421013 
  865000   0.62531177   -1.9456411   -1.9456411   -1.2517091  0.048493563   -1.9456411   0.69393205   421013 
  866000   0.62449854   -1.9451032   -1.9451032   -1.2520737   0.04968912   -1.9451032   0.69302958   421013 
  867000   0.62460192   -1.9451865   -1.9451865   -1.2520422  0.049868936   -1.9451865    0.6931443   421013 
  868000   0.62510784   -1.9458881   -1.9458881   -1.2521824  0.049634125   -1.9458881   0.69370574   421013 
  869000    0.6244222   -1.9454287   -1.9454287   -1.2524838  0.048161431   -1.9454287   0.69294486   421013 
  870000   0.62614068     -1.94763     -1.94763    -1.252778  0.040593745     -1.94763   0.69485192   421013 
  871000   0.62624665   -1.9481685   -1.9481685    -1.253199  0.049684334   -1.9481685   0.69496952   421013 
  872000   0.62691947   -1.9486905   -1.9486905   -1.2529743  0.055307942   -1.9486905   0.69571617   421013 
  873000   0.62499807   -1.9474496   -1.9474496   -1.2538657  0.058477806   -1.9474496   0.69358392   421013 
  874000   0.62647355   -1.9489888   -1.9489888   -1.2537675  0.045440638   -1.9489888   0.69522132   421013 
  875000   0.62748046   -1.9503547   -1.9503547    -1.254016  0.052762104   -1.9503547   0.69633873   421013 
  876000    0.6258732   -1.9493554   -1.9493554   -1.2548003  0.053952024   -1.9493554   0.69455509   421013 
  877000   0.62568653   -1.9491616   -1.9491616   -1.2548136  0.043533383   -1.9491616   0.69434793   421013 
  878000   0.62505728   -1.9493466   -1.9493466   -1.2556969  0.053272626   -1.9493466   0.69364963   421013 
  879000   0.62604755    -1.950116    -1.950116   -1.2553675  0.046029453    -1.950116   0.69474857   421013 
  880000   0.62630815   -1.9514247   -1.9514247    -1.256387  0.045836298   -1.9514247   0.69503777   421013 
  881000    0.6249866   -1.9497819   -1.9497819   -1.2562107  0.045330977   -1.9497819   0.69357119   421013 
  882000   0.62385146   -1.9485164   -1.9485164   -1.2562049  0.038307465   -1.9485164   0.69231149   421013 
  883000   0.62513025   -1.9495464   -1.9495464   -1.2558158  0.047860313   -1.9495464   0.69373061   421013 
  884000   0.62528109   -1.9499114   -1.9499114   -1.2560134  0.047600105   -1.9499114   0.69389801   421013 
  885000   0.62464619   -1.9487449   -1.9487449   -1.2555514  0.046661351   -1.9487449   0.69319343   421013 
  886000   0.62563178   -1.9501599   -1.9501599   -1.2558727   0.04418992   -1.9501599   0.69428717   421013 
  887000   0.62502268   -1.9489493   -1.9489493   -1.2553381  0.047967687   -1.9489493   0.69361123   421013 
  888000   0.62421685   -1.9478471   -1.9478471   -1.2551302  0.049631597   -1.9478471   0.69271697   421013 
  889000   0.62460636   -1.9489041   -1.9489041   -1.2557548  0.050371913   -1.9489041   0.69314923   421013 
  890000   0.62435454   -1.9484873   -1.9484873   -1.2556176  0.052682251   -1.9484873   0.69286978   421013 
  891000   0.62431256   -1.9484858   -1.9484858   -1.2556626  0.050105692   -1.9484858   0.69282318   421013 
  892000   0.62446754   -1.9485706   -1.9485706   -1.2555754  0.044590354   -1.9485706   0.69299517   421013 
  893000   0.62451657    -1.948595    -1.948595   -1.2555455  0.052469211    -1.948595   0.69304958   421013 
  894000   0.62424594    -1.948413    -1.948413   -1.2556638  0.040588737    -1.948413   0.69274926   421013 
  895000   0.62514838   -1.9489425   -1.9489425   -1.2551918  0.041999224   -1.9489425   0.69375073   421013 
  896000    0.6237708   -1.9474147   -1.9474147   -1.2551927  0.043417522   -1.9474147   0.69222197   421013 
  897000   0.62621911   -1.9501064   -1.9501064   -1.2551674  0.043554804   -1.9501064   0.69493895   421013 
  898000   0.62462044    -1.947934    -1.947934   -1.2547691  0.048366138    -1.947934   0.69316485   421013 
  899000    0.6251625   -1.9496053   -1.9496053   -1.2558389  0.045092656   -1.9496053    0.6937664   421013 
  900000   0.62491875    -1.949208    -1.949208   -1.2557121  0.051091593    -1.949208    0.6934959   421013 
  901000   0.62599646   -1.9498655   -1.9498655   -1.2551737  0.046262862   -1.9498655   0.69469187   421013 
  902000   0.62485688   -1.9487712   -1.9487712    -1.255344    0.0518957   -1.9487712   0.69342724   421013 
  903000   0.62670478    -1.950609    -1.950609   -1.2551311  0.049573575    -1.950609   0.69547793   421013 
  904000   0.62692017   -1.9512651   -1.9512651   -1.2555482  0.055049178   -1.9512651   0.69571695   421013 
  905000    0.6260341   -1.9508607   -1.9508607    -1.256127  0.049560838   -1.9508607   0.69473365   421013 
  906000   0.62622435   -1.9521677   -1.9521677   -1.2572229  0.046199913   -1.9521677   0.69494477   421013 
  907000   0.62529706   -1.9511381   -1.9511381   -1.2572224  0.047657072   -1.9511381   0.69391573   421013 
  908000   0.62466128    -1.951025    -1.951025   -1.2578148  0.048326569    -1.951025   0.69321017   421013 
  909000   0.62619329   -1.9524408   -1.9524408   -1.2575305  0.051008042   -1.9524408   0.69491031   421013 
  910000   0.62491691   -1.9511483   -1.9511483   -1.2576544  0.045821428   -1.9511483   0.69349385   421013 
  911000   0.62501948   -1.9519267   -1.9519267    -1.258319  0.042639628   -1.9519267   0.69360768   421013 
  912000   0.62508201   -1.9524028   -1.9524028   -1.2587257  0.045636911   -1.9524028   0.69367707   421013 
  913000   0.62489467   -1.9519669   -1.9519669   -1.2584977  0.048279784   -1.9519669   0.69346918   421013 
  914000   0.62440608   -1.9516121   -1.9516121   -1.2586851  0.041416414   -1.9516121   0.69292697   421013 
  915000   0.62461187   -1.9510596   -1.9510596   -1.2579043  0.044186067   -1.9510596   0.69315534   421013 
  916000   0.62342193   -1.9499026   -1.9499026   -1.2580678   0.04954528   -1.9499026   0.69183482   421013 
  917000   0.62415602   -1.9514626   -1.9514626   -1.2588131  0.048535454   -1.9514626   0.69264947   421013 
  918000   0.62391652   -1.9513711   -1.9513711   -1.2589875  0.046849028   -1.9513711   0.69238368   421013 
  919000   0.62404891   -1.9522383   -1.9522383   -1.2597077  0.045786211   -1.9522383    0.6925306   421013 
  920000   0.62614366   -1.9533679   -1.9533679   -1.2585126  0.043251316   -1.9533679   0.69485523   421013 
  921000    0.6262891   -1.9533831   -1.9533831   -1.2583665  0.041233362   -1.9533831   0.69501662   421013 
  922000    0.6250942   -1.9525147   -1.9525147    -1.258824  0.044902391   -1.9525147    0.6936906   421013 
  923000   0.62588272   -1.9527138   -1.9527138   -1.2581482  0.049202304   -1.9527138   0.69456566   421013 
  924000   0.62466032   -1.9518996   -1.9518996   -1.2586905  0.048762037   -1.9518996   0.69320911   421013 
  925000   0.62519166   -1.9528157   -1.9528157    -1.259017  0.045501777   -1.9528157   0.69379876   421013 
  926000   0.62494857   -1.9534917   -1.9534917   -1.2599627  0.035106675   -1.9534917   0.69352899   421013 
  927000   0.62481863   -1.9531567   -1.9531567   -1.2597719  0.054836545   -1.9531567   0.69338479   421013 
  928000    0.6235671   -1.9520748   -1.9520748   -1.2600789  0.044049368   -1.9520748   0.69199592   421013 
  929000   0.62518175   -1.9539019   -1.9539019   -1.2601141  0.045045512   -1.9539019   0.69378777   421013 
  930000   0.62436653   -1.9536924   -1.9536924   -1.2608094  0.049589896   -1.9536924   0.69288308   421013 
  931000   0.62488823    -1.954065    -1.954065   -1.2606029   0.04280166    -1.954065   0.69346203   421013 
  932000   0.62395279   -1.9530339   -1.9530339   -1.2606099  0.043417423   -1.9530339   0.69242393   421013 
  933000   0.62346087   -1.9526783   -1.9526783   -1.2608003  0.051098578   -1.9526783   0.69187803   421013 
  934000   0.62382224   -1.9528512   -1.9528512   -1.2605721  0.046547963   -1.9528512   0.69227906   421013 
  935000   0.62470676   -1.9532762   -1.9532762   -1.2600155  0.043205459   -1.9532762   0.69326064   421013 
  936000   0.62315699   -1.9524893   -1.9524893   -1.2609485  0.048818771   -1.9524893    0.6915408   421013 
  937000   0.62353241   -1.9523777   -1.9523777   -1.2604203  0.046038269   -1.9523777   0.69195742   421013 
  938000   0.62514389   -1.9537844   -1.9537844   -1.2600387  0.050568267   -1.9537844   0.69374574   421013 
  939000   0.62525641   -1.9540074   -1.9540074   -1.2601368  0.044605881   -1.9540074   0.69387061   421013 
  940000   0.62590785   -1.9552252   -1.9552252   -1.2606317  0.053792671   -1.9552252   0.69459354   421013 
  941000   0.62411858   -1.9526657   -1.9526657   -1.2600578  0.049586694   -1.9526657   0.69260792   421013 
  942000     0.625111   -1.9538435   -1.9538435   -1.2601342  0.047351373   -1.9538435   0.69370925   421013 
  943000   0.62581112   -1.9544427   -1.9544427   -1.2599565  0.044074605   -1.9544427    0.6944862   421013 
  944000   0.62498413   -1.9539908   -1.9539908   -1.2604223  0.045625482   -1.9539908   0.69356845   421013 
  945000   0.62561666    -1.955079    -1.955079   -1.2608086  0.045884582    -1.955079   0.69427039   421013 
  946000   0.62455332   -1.9544107   -1.9544107   -1.2613203  0.058438494   -1.9544107   0.69309037   421013 
  947000   0.62381208   -1.9541302   -1.9541302   -1.2618624  0.047966285   -1.9541302   0.69226779   421013 
  948000   0.62577349   -1.9564973   -1.9564973   -1.2620528  0.045057159   -1.9564973   0.69444443   421013 
  949000   0.62461314   -1.9543037   -1.9543037    -1.261147  0.053370279   -1.9543037   0.69315676   421013 
  950000   0.62402649   -1.9543798   -1.9543798   -1.2618741   0.04465926   -1.9543798   0.69250573   421013 
  951000   0.62400946   -1.9556347   -1.9556347   -1.2631479  0.046004092   -1.9556347   0.69248683   421013 
  952000   0.62524993   -1.9571484   -1.9571484    -1.263285  0.041082569   -1.9571484   0.69386342   421013 
  953000   0.62477918   -1.9568594   -1.9568594   -1.2635184  0.053866926   -1.9568594   0.69334101   421013 
  954000   0.62366978   -1.9550795   -1.9550795   -1.2629696   0.04640597   -1.9550795   0.69210986   421013 
  955000   0.62519335   -1.9561508   -1.9561508   -1.2623502  0.055162808   -1.9561508   0.69380063   421013 
  956000   0.62385692   -1.9555118   -1.9555118   -1.2631943  0.039944786   -1.9555118   0.69231754   421013 
  957000   0.62323189    -1.954767    -1.954767   -1.2631431  0.049579367    -1.954767   0.69162393   421013 
  958000   0.62324257     -1.95479     -1.95479   -1.2631542  0.044401778     -1.95479   0.69163578   421013 
  959000   0.62300072   -1.9550666   -1.9550666   -1.2636992  0.040881707   -1.9550666   0.69136739   421013 
  960000   0.62230658   -1.9539633   -1.9539633   -1.2633662  0.051805522   -1.9539633   0.69059707   421013 
  961000   0.62401268   -1.9556261   -1.9556261   -1.2631357   0.04974205   -1.9556261    0.6924904   421013 
  962000   0.62466159   -1.9559645   -1.9559645    -1.262754  0.042232125   -1.9559645   0.69321052   421013 
  963000   0.62292164   -1.9550959   -1.9550959   -1.2638162  0.035843339   -1.9550959   0.69127963   421013 
  964000   0.62436646   -1.9562586   -1.9562586   -1.2633756  0.046059331   -1.9562586     0.692883   421013 
  965000   0.62448127   -1.9565977   -1.9565977   -1.2635872  0.050050901   -1.9565977   0.69301041   421013 
  966000    0.6237107   -1.9557824   -1.9557824   -1.2636271  0.046350784   -1.9557824   0.69215528   421013 
  967000   0.62418231   -1.9560063   -1.9560063   -1.2633277  0.049444366   -1.9560063   0.69267865   421013 
  968000   0.62326678   -1.9548852   -1.9548852   -1.2632225  0.046450015   -1.9548852   0.69166265   421013 
  969000   0.62330699   -1.9556809   -1.9556809   -1.2639736  0.046825379   -1.9556809   0.69170727   421013 
  970000   0.62392025   -1.9560628   -1.9560628   -1.2636749  0.049479407   -1.9560628   0.69238783   421013 
  971000   0.62405357   -1.9567801   -1.9567801   -1.2642443  0.047616399   -1.9567801   0.69253578   421013 
  972000   0.62516076   -1.9579762   -1.9579762   -1.2642117   0.04759631   -1.9579762   0.69376447   421013 
  973000   0.62427393   -1.9566814   -1.9566814   -1.2639011  0.046714124   -1.9566814   0.69278032   421013 
  974000   0.62437914   -1.9568924   -1.9568924   -1.2639953  0.048834751   -1.9568924   0.69289707   421013 
  975000   0.62377953   -1.9565427   -1.9565427   -1.2643111  0.041240206   -1.9565427   0.69223167   421013 
  976000   0.62274802   -1.9559526   -1.9559526   -1.2648657  0.046194296   -1.9559526   0.69108696   421013 
  977000   0.62440904   -1.9579867   -1.9579867   -1.2650564   0.04677708   -1.9579867   0.69293026   421013 
  978000   0.62298997   -1.9571998   -1.9571998   -1.2658444  0.049505099   -1.9571998   0.69135546   421013 
  979000    0.6233854   -1.9587869   -1.9587869   -1.2669926  0.052675139   -1.9587869   0.69179429   421013 
  980000   0.62286714   -1.9579814   -1.9579814   -1.2667623  0.051335616   -1.9579814   0.69121915   421013 
  981000   0.62297958   -1.9573401   -1.9573401   -1.2659962  0.049046282   -1.9573401   0.69134393   421013 
  982000   0.62430531   -1.9585277   -1.9585277   -1.2657126  0.051607241   -1.9585277   0.69281515   421013 
  983000   0.62485176   -1.9589688   -1.9589688   -1.2655472  0.052446361   -1.9589688   0.69342156   421013 
  984000   0.62486204   -1.9593769   -1.9593769   -1.2659439  0.045953381   -1.9593769   0.69343297   421013 
  985000   0.62504449   -1.9597889   -1.9597889   -1.2661535  0.051978748   -1.9597889   0.69363544   421013 
  986000   0.62313453   -1.9584344   -1.9584344   -1.2669185  0.040358705   -1.9584344   0.69151589   421013 
  987000   0.62269362   -1.9578145   -1.9578145   -1.2667879  0.048930413   -1.9578145   0.69102659   421013 
  988000   0.62399393   -1.9588481   -1.9588481   -1.2663785  0.052374148   -1.9588481   0.69246959   421013 
  989000   0.62307256   -1.9575452   -1.9575452   -1.2660981  0.046803864   -1.9575452   0.69144712   421013 
  990000    0.6234386   -1.9586454   -1.9586454   -1.2667921  0.045954111   -1.9586454   0.69185332   421013 
  991000   0.62381957   -1.9597888   -1.9597888   -1.2675127  0.045757791   -1.9597888    0.6922761   421013 
  992000   0.62318139   -1.9587544   -1.9587544   -1.2671865  0.047993046   -1.9587544   0.69156789   421013 
  993000   0.62335814   -1.9594498   -1.9594498   -1.2676858  0.044177216   -1.9594498   0.69176404   421013 
  994000   0.62410337   -1.9606306   -1.9606306   -1.2680396  0.038086515   -1.9606306   0.69259104   421013 
  995000   0.62307131   -1.9600524   -1.9600524   -1.2686067  0.048565802   -1.9600524   0.69144573   421013 
  996000     0.624291   -1.9610998   -1.9610998   -1.2683005  0.044526528   -1.9610998   0.69279926   421013 
  997000    0.6233743    -1.960611    -1.960611   -1.2688291  0.049041576    -1.960611   0.69178196   421013 
  998000   0.62277599   -1.9600528   -1.9600528   -1.2689348  0.049818169   -1.9600528   0.69111799   421013 
  999000   0.62433741   -1.9617338   -1.9617338    -1.268883  0.046418838   -1.9617338   0.69285077   421013 
 1000000   0.62384909   -1.9621821   -1.9621821   -1.2698732  0.036604382   -1.9621821   0.69230886   421013 
 1001000   0.62212943   -1.9598412   -1.9598412   -1.2694407  0.047419623   -1.9598412   0.69040049   421013 
 1002000   0.62248305   -1.9605137   -1.9605137   -1.2697208  0.040221824   -1.9605137   0.69079291   421013 
 1003000   0.62320408   -1.9616094   -1.9616094   -1.2700163  0.052427766   -1.9616094   0.69159307   421013 
 1004000   0.62271802   -1.9611804   -1.9611804   -1.2701268  0.049159741   -1.9611804   0.69105366   421013 
 1005000   0.62458987   -1.9629959   -1.9629959    -1.269865   0.05366233   -1.9629959   0.69313092   421013 
 1006000   0.62502029   -1.9638695   -1.9638695   -1.2702609  0.053535292   -1.9638695   0.69360858   421013 
 1007000   0.62318704   -1.9618765   -1.9618765   -1.2703024  0.050732273   -1.9618765   0.69157416   421013 
 1008000   0.62361385   -1.9624359   -1.9624359   -1.2703881  0.046924805   -1.9624359    0.6920478   421013 
 1009000   0.62357945    -1.962686    -1.962686   -1.2706764  0.044605683    -1.962686   0.69200963   421013 
 1010000   0.62434449   -1.9636061   -1.9636061   -1.2707475  0.056795995   -1.9636061   0.69285862   421013 
 1011000   0.62412883   -1.9636445   -1.9636445   -1.2710252  0.051957281   -1.9636445   0.69261929   421013 
 1012000   0.62372745     -1.96314     -1.96314   -1.2709661  0.049395907     -1.96314   0.69217387   421013 
 1013000   0.62326552   -1.9632701   -1.9632701   -1.2716089  0.059226778   -1.9632701   0.69166125   421013 
 1014000   0.62310465   -1.9629732   -1.9629732   -1.2714905  0.041643368   -1.9629732   0.69148272   421013 
 1015000   0.62231616   -1.9619188   -1.9619188   -1.2713111  0.050236076   -1.9619188    0.6906077   421013 
 1016000   0.62408903   -1.9633916   -1.9633916   -1.2708165  0.044717646   -1.9633916   0.69257513   421013 
 1017000   0.62427105   -1.9630684   -1.9630684   -1.2702913  0.048150435   -1.9630684   0.69277712   421013 
 1018000   0.62249969   -1.9611773   -1.9611773   -1.2703659  0.042894193   -1.9611773   0.69081138   421013 
 1019000   0.62363379    -1.961862    -1.961862   -1.2697921  0.045424914    -1.961862   0.69206994   421013 
 1020000   0.62303943   -1.9611868   -1.9611868   -1.2697764  0.046077793   -1.9611868   0.69141035   421013 
 1021000   0.62375151   -1.9623962   -1.9623962   -1.2701956  0.041700206   -1.9623962   0.69220057   421013 
 1022000   0.62294712   -1.9614496   -1.9614496   -1.2701417  0.046070252   -1.9614496    0.6913079   421013 
 1023000   0.62213095   -1.9611451   -1.9611451   -1.2707429  0.051224462   -1.9611451   0.69040217   421013 
 1024000   0.62182836   -1.9616347   -1.9616347   -1.2715683  0.051415907   -1.9616347   0.69006638   421013 
 1025000   0.62205747   -1.9621467   -1.9621467   -1.2718261  0.034849351   -1.9621467   0.69032063   421013 
 1026000   0.62117552   -1.9612509   -1.9612509    -1.271909  0.047932959   -1.9612509   0.68934189   421013 
 1027000   0.62322359   -1.9637059   -1.9637059   -1.2720912  0.041159131   -1.9637059   0.69161472   421013 
 1028000   0.62235702   -1.9627382   -1.9627382   -1.2720851  0.056697813   -1.9627382   0.69065305   421013 
 1029000   0.62285522   -1.9635765   -1.9635765   -1.2723706  0.047249283   -1.9635765   0.69120592   421013 
 1030000   0.62324619   -1.9644158   -1.9644158    -1.272776  0.039293713   -1.9644158    0.6916398   421013 
 1031000   0.62358426   -1.9644646   -1.9644646   -1.2724497  0.050726897   -1.9644646   0.69201496   421013 
 1032000   0.62296976   -1.9640912   -1.9640912   -1.2727581  0.044182759   -1.9640912   0.69133304   421013 
 1033000   0.62268322   -1.9655988   -1.9655988   -1.2745837  0.046209242   -1.9655988   0.69101505   421013 
 1034000   0.62370246   -1.9662204   -1.9662204   -1.2740742    0.0477293   -1.9662204   0.69214614   421013 
 1035000   0.62388284   -1.9658993   -1.9658993    -1.273553  0.046356992   -1.9658993   0.69234631   421013 
 1036000   0.62383626   -1.9667885   -1.9667885   -1.2744939   0.04343815   -1.9667885   0.69229462   421013 
 1037000   0.62302208   -1.9663507   -1.9663507   -1.2749596  0.052698147   -1.9663507    0.6913911   421013 
 1038000   0.62390405   -1.9678044   -1.9678044   -1.2754346  0.042737926   -1.9678044   0.69236985   421013 
 1039000   0.62334593   -1.9667329   -1.9667329   -1.2749824  0.055727282   -1.9667329   0.69175048   421013 
 1040000   0.62360245   -1.9667884   -1.9667884   -1.2747533  0.051461331   -1.9667884   0.69203515   421013 
 1041000   0.62322806   -1.9664051   -1.9664051   -1.2747855  0.056085362   -1.9664051   0.69161967   421013 
 1042000    0.6239073   -1.9676303   -1.9676303   -1.2752568  0.035764129   -1.9676303   0.69237345   421013 
 1043000   0.62322621   -1.9663984   -1.9663984   -1.2747807  0.052059479   -1.9663984   0.69161762   421013 
 1044000   0.62206607   -1.9652995   -1.9652995   -1.2749693  0.045744175   -1.9652995   0.69033017   421013 
 1045000   0.62217963   -1.9652163   -1.9652163   -1.2747601  0.047141429   -1.9652163   0.69045619   421013 
 1046000   0.62290708   -1.9656109   -1.9656109   -1.2743474  0.047352409   -1.9656109   0.69126347   421013 
 1047000    0.6220611   -1.9650349   -1.9650349   -1.2747103  0.050131947   -1.9650349   0.69032466   421013 
 1048000   0.62252255    -1.965171    -1.965171   -1.2743342  0.045828658    -1.965171   0.69083675   421013 
 1049000   0.62281548   -1.9658345   -1.9658345   -1.2746727  0.042755429   -1.9658345   0.69116182   421013 
 1050000   0.62229619   -1.9642218   -1.9642218   -1.2736362  0.045629156   -1.9642218   0.69058555   421013 
 1051000   0.62249242   -1.9648774   -1.9648774   -1.2740741  0.047466077   -1.9648774    0.6908033   421013 
 1052000   0.62158149   -1.9638828   -1.9638828   -1.2740903     0.040762   -1.9638828   0.68979242   421013 
 1053000   0.62189819   -1.9649968   -1.9649968    -1.274853  0.043593581   -1.9649968   0.69014387   421013 
 1054000   0.62313313   -1.9658754   -1.9658754   -1.2743611  0.047061497   -1.9658754   0.69151433   421013 
 1055000   0.62176146   -1.9643017   -1.9643017   -1.2743095  0.038714638   -1.9643017   0.68999213   421013 
 1056000   0.62297548    -1.965762    -1.965762   -1.2744226  0.042562811    -1.965762   0.69133938   421013 
 1057000   0.62263249   -1.9659725   -1.9659725   -1.2750137   0.05054118   -1.9659725   0.69095875   421013 
 1058000    0.6226091   -1.9670676   -1.9670676   -1.2761348    0.0382798   -1.9670676   0.69093279   421013 
 1059000   0.62260064   -1.9663325   -1.9663325    -1.275409  0.053150923   -1.9663325   0.69092341   421013 
 1060000   0.62315475   -1.9667451   -1.9667451   -1.2752067  0.045351235   -1.9667451   0.69153832   421013 
 1061000   0.62213356   -1.9658494   -1.9658494   -1.2754443  0.051049691   -1.9658494   0.69040507   421013 
 1062000   0.62205767   -1.9661008   -1.9661008     -1.27578  0.047198966   -1.9661008   0.69032086   421013 
 1063000   0.62187867   -1.9659507   -1.9659507   -1.2758285  0.050559345   -1.9659507   0.69012221   421013 
 1064000   0.62448488   -1.9687784   -1.9687784    -1.275764  0.046871994   -1.9687784   0.69301442   421013 
 1065000   0.62316426   -1.9671371   -1.9671371   -1.2755883  0.043449196   -1.9671371   0.69154888   421013 
 1066000   0.62322526   -1.9669387   -1.9669387   -1.2753221  0.045923987   -1.9669387   0.69161657   421013 
 1067000   0.62284438   -1.9672053   -1.9672053   -1.2760114  0.045692819   -1.9672053   0.69119389   421013 
 1068000   0.62309362    -1.966951    -1.966951   -1.2754806  0.046792877    -1.966951   0.69147048   421013 
 1069000   0.62279013   -1.9675187   -1.9675187    -1.276385  0.046971831   -1.9675187   0.69113369   421013 
 1070000   0.62165324   -1.9666884   -1.9666884   -1.2768164  0.043108605   -1.9666884   0.68987204   421013 
 1071000   0.62179478   -1.9666837   -1.9666837   -1.2766546  0.039866796   -1.9666837   0.69002911   421013 
 1072000   0.62201196    -1.966129    -1.966129   -1.2758589  0.045518436    -1.966129   0.69027013   421013 
 1073000   0.62229287   -1.9667834   -1.9667834   -1.2762016   0.04501332   -1.9667834   0.69058186   421013 
 1074000   0.62186585    -1.965413    -1.965413    -1.275305  0.041581876    -1.965413   0.69010798   421013 
 1075000   0.62256562     -1.96726     -1.96726   -1.2763755  0.046246775     -1.96726   0.69088455   421013 
 1076000   0.62212938   -1.9668648   -1.9668648   -1.2764644  0.048622935   -1.9668648   0.69040043   421013 
 1077000   0.62270047   -1.9673173   -1.9673173   -1.2762831  0.039402211   -1.9673173   0.69103419   421013 
 1078000   0.62237013   -1.9669404   -1.9669404   -1.2762728  0.043396048   -1.9669404    0.6906676   421013 
 1079000   0.62310175   -1.9678102   -1.9678102   -1.2763307  0.044924258   -1.9678102   0.69147951   421013 
 1080000   0.62279278    -1.966819    -1.966819   -1.2756824  0.038508556    -1.966819   0.69113663   421013 
 1081000   0.62207868    -1.966108    -1.966108   -1.2757639  0.045840663    -1.966108   0.69034416   421013 
 1082000   0.62263035   -1.9664322   -1.9664322   -1.2754759  0.052235489   -1.9664322   0.69095638   421013 
 1083000   0.62195109   -1.9664719   -1.9664719   -1.2762694  0.046446175   -1.9664719   0.69020258   421013 
 1084000   0.62273655   -1.9669607   -1.9669607   -1.2758865  0.042800072   -1.9669607   0.69107423   421013 
 1085000   0.62143304   -1.9663895   -1.9663895   -1.2767618  0.050141506   -1.9663895   0.68962767   421013 
 1086000   0.62223176    -1.967041    -1.967041    -1.276527  0.050754141    -1.967041   0.69051405   421013 
 1087000    0.6219083    -1.967503    -1.967503   -1.2773479  0.040051967    -1.967503   0.69015509   421013 
 1088000   0.62142542   -1.9668957   -1.9668957   -1.2772765  0.047246625   -1.9668957   0.68961922   421013 
 1089000   0.62228904   -1.9680203   -1.9680203   -1.2774427  0.051656568   -1.9680203   0.69057761   421013 
 1090000    0.6222169    -1.969317    -1.969317   -1.2788195  0.050535409    -1.969317   0.69049756   421013 
 1091000   0.62293157   -1.9703323   -1.9703323   -1.2790416  0.043873601   -1.9703323   0.69129065   421013 
 1092000   0.62208142   -1.9693651   -1.9693651   -1.2790179   0.05395058   -1.9693651    0.6903472   421013 
 1093000   0.62159645   -1.9681631   -1.9681631   -1.2783541  0.044437253   -1.9681631   0.68980902   421013 
 1094000   0.62217236   -1.9688701   -1.9688701    -1.278422  0.045804045   -1.9688701   0.69044813   421013 
 1095000   0.62151596   -1.9700883   -1.9700883   -1.2803686  0.044514874   -1.9700883    0.6897197   421013 
 1096000    0.6221346   -1.9709727   -1.9709727   -1.2805665  0.050082757   -1.9709727   0.69040622   421013 
 1097000     0.621768   -1.9701825   -1.9701825   -1.2801831  0.048762346   -1.9701825   0.68999939   421013 
 1098000   0.62177978    -1.969413    -1.969413   -1.2794005  0.045867774    -1.969413   0.69001246   421013 
 1099000   0.62191084   -1.9691328   -1.9691328   -1.2789749  0.058570775   -1.9691328   0.69015791   421013 
 1100000   0.62303435   -1.9709863   -1.9709863   -1.2795816  0.049028983   -1.9709863   0.69140471   421013 
 1101000   0.62263258   -1.9698305   -1.9698305   -1.2788716  0.047011247   -1.9698305   0.69095885   421013 
 1102000   0.62113331   -1.9686956   -1.9686956   -1.2794005  0.051501521   -1.9686956   0.68929505   421013 
 1103000   0.62118861   -1.9685723   -1.9685723   -1.2792159  0.042892508   -1.9685723   0.68935642   421013 
 1104000   0.62135953   -1.9684372   -1.9684372   -1.2788911  0.052317769   -1.9684372    0.6895461   421013 
 1105000   0.62224676   -1.9700366   -1.9700366   -1.2795059  0.040289693   -1.9700366   0.69053069   421013 
 1106000   0.62206367   -1.9694538   -1.9694538   -1.2791263  0.043701085   -1.9694538   0.69032751   421013 
 1107000   0.62246933   -1.9705396   -1.9705396   -1.2797619  0.042979052   -1.9705396   0.69077768   421013 
 1108000   0.62223614   -1.9702698   -1.9702698   -1.2797509  0.039525425   -1.9702698   0.69051891   421013 
 1109000   0.62194815   -1.9695157   -1.9695157   -1.2793163  0.041801002   -1.9695157   0.69019932   421013 
 1110000   0.62045981   -1.9677375   -1.9677375   -1.2791899   0.03937254   -1.9677375   0.68854764   421013 
 1111000   0.62191844    -1.969678    -1.969678   -1.2795117  0.044386144    -1.969678   0.69016635   421013 
 1112000   0.62201201   -1.9711913   -1.9711913   -1.2809211    0.0445324   -1.9711913   0.69027018   421013 
 1113000   0.62117178   -1.9696253   -1.9696253   -1.2802875  0.044881232   -1.9696253   0.68933775   421013 
 1114000   0.62101276    -1.969823    -1.969823   -1.2806618  0.048793711    -1.969823   0.68916128   421013 
 1115000    0.6208582   -1.9700886   -1.9700886   -1.2810989  0.044078869   -1.9700886   0.68898975   421013 
 1116000   0.62098695   -1.9703589   -1.9703589   -1.2812263  0.045684355   -1.9703589   0.68913263   421013 
 1117000   0.62131158   -1.9713267   -1.9713267   -1.2818338  0.039923158   -1.9713267   0.68949289   421013 
 1118000   0.62172478   -1.9714124   -1.9714124    -1.281461  0.041067639   -1.9714124   0.68995142   421013 
 1119000   0.61965176   -1.9699975   -1.9699975   -1.2823466  0.054580853   -1.9699975   0.68765092   421013 
 1120000   0.62013688    -1.969814    -1.969814   -1.2816247  0.046890455    -1.969814   0.68818928   421013 
 1121000   0.62069439   -1.9708393   -1.9708393   -1.2820313  0.044754567   -1.9708393   0.68880797   421013 
 1122000   0.62232559   -1.9726589   -1.9726589   -1.2820408  0.045081022   -1.9726589   0.69061817   421013 
 1123000   0.62244603    -1.972477    -1.972477   -1.2817252  0.045056505    -1.972477   0.69075183   421013 
 1124000   0.62213447    -1.972169    -1.972169   -1.2817629  0.044248419    -1.972169   0.69040608   421013 
 1125000   0.62328946   -1.9741143   -1.9741143   -1.2824265  0.046896091   -1.9741143   0.69168782   421013 
 1126000   0.62145934   -1.9713446   -1.9713446   -1.2816877  0.047531758   -1.9713446   0.68965687   421013 
 1127000   0.61995577   -1.9707583   -1.9707583     -1.28277  0.044597064   -1.9707583    0.6879883   421013 
 1128000   0.62114872   -1.9713861   -1.9713861    -1.282074  0.049357041   -1.9713861   0.68931215   421013 
 1129000   0.62185141   -1.9730319   -1.9730319     -1.28294  0.045265636   -1.9730319   0.69009195   421013 
 1130000   0.62171159   -1.9722158   -1.9722158   -1.2822791  0.047258903   -1.9722158   0.68993679   421013 
 1131000   0.62236683   -1.9727374   -1.9727374   -1.2820735  0.043670398   -1.9727374   0.69066394   421013 
 1132000   0.62173413   -1.9715975   -1.9715975   -1.2816357  0.043577831   -1.9715975    0.6899618   421013 
 1133000   0.62197282   -1.9722729   -1.9722729   -1.2820462   0.03854956   -1.9722729   0.69022668   421013 
 1134000   0.62083105   -1.9704916   -1.9704916    -1.281532  0.041656659   -1.9704916   0.68895962   421013 
 1135000   0.62025262   -1.9703049   -1.9703049   -1.2819871  0.041471291   -1.9703049   0.68831771   421013 
 1136000   0.62100904   -1.9706071   -1.9706071     -1.28145  0.038419231   -1.9706071   0.68915715   421013 
 1137000   0.62062413   -1.9697604   -1.9697604   -1.2810304  0.049501008   -1.9697604      0.68873   421013 
 1138000   0.62054507   -1.9700207   -1.9700207   -1.2813784  0.038088166   -1.9700207   0.68864226   421013 
 1139000   0.61994579    -1.969832    -1.969832   -1.2818548  0.045746956    -1.969832   0.68797721   421013 
 1140000   0.62034473   -1.9699964   -1.9699964   -1.2815765  0.048223693   -1.9699964   0.68841994   421013 
 1141000   0.61995403    -1.970156    -1.970156   -1.2821697  0.037268481    -1.970156   0.68798636   421013 
 1142000   0.61969566   -1.9700764   -1.9700764   -1.2823768  0.042529404   -1.9700764   0.68769963   421013 
 1143000   0.62114406   -1.9719163   -1.9719163   -1.2826093  0.045740122   -1.9719163   0.68930699   421013 
 1144000   0.62147524   -1.9728822   -1.9728822   -1.2832077  0.045858882   -1.9728822   0.68967451   421013 
 1145000   0.62180454   -1.9732056   -1.9732056   -1.2831657   0.04815265   -1.9732056   0.69003994   421013 
 1146000    0.6203361   -1.9719259   -1.9719259   -1.2835155  0.036252923   -1.9719259   0.68841036   421013 
 1147000   0.62233178   -1.9743192   -1.9743192   -1.2836942  0.045671403   -1.9743192   0.69062504   421013 
 1148000   0.62013491     -1.97273     -1.97273   -1.2845429  0.047251969     -1.97273   0.68818709   421013 
 1149000   0.62027746   -1.9735514   -1.9735514   -1.2852061   0.04028389   -1.9735514   0.68834528   421013 
 1150000   0.62207085   -1.9751202   -1.9751202   -1.2847848  0.049435245   -1.9751202   0.69033547   421013 
 1151000   0.62065798   -1.9743271   -1.9743271   -1.2855595  0.049932633   -1.9743271   0.68876756   421013 
 1152000   0.62162257   -1.9747135   -1.9747135   -1.2848755  0.036834498   -1.9747135     0.689838   421013 
 1153000   0.62205708   -1.9752749   -1.9752749   -1.2849547  0.047576754   -1.9752749    0.6903202   421013 
 1154000   0.62076068   -1.9733726   -1.9733726   -1.2844911  0.048399754   -1.9733726   0.68888153   421013 
 1155000   0.62119224   -1.9747806   -1.9747806   -1.2854201  0.045580563   -1.9747806   0.68936045   421013 
 1156000   0.62250527   -1.9763292   -1.9763292   -1.2855116  0.043427817   -1.9763292   0.69081756   421013 
 1157000   0.62141906   -1.9740884   -1.9740884   -1.2844762  0.048961414   -1.9740884   0.68961216   421013 
 1158000   0.62136474   -1.9746151   -1.9746151   -1.2850632   0.04708455   -1.9746151   0.68955188   421013 
 1159000    0.6204334   -1.9739596   -1.9739596   -1.2854413   0.04232984   -1.9739596   0.68851834   421013 
 1160000   0.62021708   -1.9738996   -1.9738996   -1.2856213  0.046666876   -1.9738996   0.68827828   421013 
 1161000   0.62075353    -1.974444    -1.974444   -1.2855704  0.040180527    -1.974444   0.68887359   421013 
 1162000   0.62095877   -1.9735482   -1.9735482   -1.2844468  0.042414533   -1.9735482   0.68910136   421013 
 1163000   0.62005745   -1.9730952   -1.9730952   -1.2849941  0.047484671   -1.9730952   0.68810113   421013 
 1164000   0.62077179   -1.9740958   -1.9740958    -1.285202  0.042158861   -1.9740958   0.68889386   421013 
 1165000   0.62009759   -1.9745677   -1.9745677    -1.286422  0.039478009   -1.9745677   0.68814568   421013 
 1166000   0.61986829   -1.9744637   -1.9744637   -1.2865725  0.051485727   -1.9744637   0.68789122   421013 
 1167000   0.61917199   -1.9744133   -1.9744133   -1.2872948  0.045013154   -1.9744133   0.68711851   421013 
 1168000    0.6192857   -1.9743644   -1.9743644   -1.2871197  0.051498434   -1.9743644   0.68724469   421013 
 1169000    0.6209822   -1.9764353   -1.9764353   -1.2873079  0.047102788   -1.9764353   0.68912736   421013 
 1170000   0.62042193   -1.9754962   -1.9754962   -1.2869906  0.045424593   -1.9754962   0.68850561   421013 
 1171000   0.62055476   -1.9757541   -1.9757541   -1.2871011  0.046179705   -1.9757541   0.68865302   421013 
 1172000   0.62161657   -1.9767779   -1.9767779   -1.2869465  0.043143351   -1.9767779   0.68983134   421013 
 1173000   0.62240817   -1.9780826   -1.9780826   -1.2873728  0.050039528   -1.9780826   0.69070982   421013 
 1174000   0.62208458   -1.9778966   -1.9778966   -1.2875459  0.049364702   -1.9778966   0.69035071   421013 
 1175000   0.62182466   -1.9781645   -1.9781645   -1.2881022  0.042235382   -1.9781645   0.69006227   421013 
 1176000   0.62094981   -1.9770433   -1.9770433   -1.2879519   0.05139187   -1.9770433   0.68909142   421013 
 1177000   0.62154418   -1.9776316   -1.9776316   -1.2878806  0.045413828   -1.9776316   0.68975101   421013 
 1178000   0.62097794    -1.977681    -1.977681   -1.2885584   0.04207403    -1.977681   0.68912264   421013 
 1179000   0.62013781   -1.9768112   -1.9768112   -1.2886209  0.047147845   -1.9768112   0.68819031   421013 
 1180000   0.62040882   -1.9772957   -1.9772957   -1.2888046  0.043352445   -1.9772957   0.68849106   421013 
 1181000   0.62080422   -1.9780729   -1.9780729   -1.2891431  0.041478163   -1.9780729   0.68892985   421013 
 1182000   0.62096025   -1.9779373   -1.9779373   -1.2888343  0.049894069   -1.9779373     0.689103   421013 
 1183000   0.62057171   -1.9784562   -1.9784562   -1.2897844  0.040155174   -1.9784562   0.68867183   421013 
 1184000   0.61972198   -1.9765697   -1.9765697   -1.2888409   0.04799759   -1.9765697   0.68772885   421013 
 1185000   0.62038121   -1.9777503   -1.9777503   -1.2892899  0.053144666   -1.9777503   0.68846042   421013 
 1186000   0.61963007   -1.9778659   -1.9778659   -1.2902391  0.040873966   -1.9778659   0.68762685   421013 
 1187000   0.61964674   -1.9778501   -1.9778501   -1.2902048  0.044658581   -1.9778501   0.68764535   421013 
 1188000   0.61966186   -1.9778342   -1.9778342    -1.290172  0.044196126   -1.9778342   0.68766213   421013 
 1189000   0.61975849   -1.9780984   -1.9780984    -1.290329  0.040566399   -1.9780984   0.68776936   421013 
 1190000    0.6200332   -1.9783111   -1.9783111   -1.2902369  0.037874158   -1.9783111   0.68807422   421013 
 1191000   0.62025144    -1.977558    -1.977558   -1.2892416   0.04198122    -1.977558   0.68831641   421013 
 1192000   0.61965994   -1.9769677   -1.9769677   -1.2893077   0.04312515   -1.9769677      0.68766   421013 
 1193000     0.619294   -1.9770408   -1.9770408   -1.2897869  0.044664914   -1.9770408   0.68725391   421013 
 1194000   0.61981355     -1.97812     -1.97812   -1.2902895  0.042150275     -1.97812   0.68783047   421013 
 1195000    0.6189682   -1.9774356   -1.9774356   -1.2905433  0.046981551   -1.9774356   0.68689235   421013 
 1196000   0.62000181   -1.9776809   -1.9776809   -1.2896415  0.043601919   -1.9776809   0.68803939   421013 
 1197000   0.62016591    -1.977676    -1.977676   -1.2894546  0.044835747    -1.977676   0.68822149   421013 
 1198000   0.61893655   -1.9757329   -1.9757329   -1.2888756  0.054001581   -1.9757329   0.68685722   421013 
 1199000   0.62060612   -1.9781298   -1.9781298   -1.2894198  0.039402888   -1.9781298   0.68871002   421013 
 1200000    0.6195223   -1.9774085   -1.9774085   -1.2899012  0.052607098   -1.9774085   0.68750725   421013 
 1201000   0.61974252   -1.9779312   -1.9779312   -1.2901796  0.040983637   -1.9779312   0.68775165   421013 
 1202000   0.61936129   -1.9778195   -1.9778195   -1.2904909  0.050031875   -1.9778195   0.68732858   421013 
 1203000     0.619628   -1.9780852   -1.9780852   -1.2904606  0.046500009   -1.9780852   0.68762455   421013 
 1204000    0.6196538   -1.9779655   -1.9779655   -1.2903123  0.049179246   -1.9779655   0.68765318   421013 
 1205000   0.62061396   -1.9780434   -1.9780434   -1.2893247  0.045684042   -1.9780434   0.68871871   421013 
 1206000   0.62110071    -1.978709    -1.978709   -1.2894502  0.044809721    -1.978709   0.68925887   421013 
 1207000   0.61973977   -1.9777148   -1.9777148   -1.2899662  0.047812254   -1.9777148   0.68774859   421013 
 1208000   0.62011196   -1.9779629   -1.9779629   -1.2898013  0.048565658   -1.9779629   0.68816162   421013 
 1209000   0.61958775    -1.977686    -1.977686   -1.2901061  0.041092411    -1.977686   0.68757989   421013 
 1210000   0.61962506   -1.9768025   -1.9768025   -1.2891812   0.03950142   -1.9768025   0.68762129   421013 
 1211000   0.61963911   -1.9764786   -1.9764786   -1.2888417   0.04265422   -1.9764786   0.68763688   421013 
 1212000   0.62079481    -1.978261    -1.978261   -1.2893416  0.038617546    -1.978261   0.68891941   421013 
 1213000   0.62017945   -1.9775572   -1.9775572   -1.2893207  0.046870207   -1.9775572   0.68823652   421013 
 1214000   0.61916205   -1.9766447   -1.9766447   -1.2895372  0.040450696   -1.9766447   0.68710747   421013 
 1215000    0.6205828   -1.9784071   -1.9784071   -1.2897229  0.038779805   -1.9784071   0.68868413   421013 
 1216000   0.62160241   -1.9792126   -1.9792126   -1.2893969   0.03998065   -1.9792126   0.68981564   421013 
 1217000   0.61970603   -1.9782351   -1.9782351    -1.290524  0.038621126   -1.9782351   0.68771114   421013 
 1218000    0.6191741   -1.9776415   -1.9776415   -1.2905207  0.039230271   -1.9776415   0.68712085   421013 
 1219000   0.61949174    -1.977553    -1.977553   -1.2900797  0.041109296    -1.977553   0.68747335   421013 
 1220000   0.62097633   -1.9792576   -1.9792576   -1.2901367  0.046988665   -1.9792576   0.68912084   421013 
 1221000   0.61905565     -1.97755     -1.97755   -1.2905606   0.04806854     -1.97755    0.6869894   421013 
 1222000   0.61980992   -1.9780779   -1.9780779   -1.2902515  0.049931777   -1.9780779   0.68782643   421013 
 1223000   0.62044641   -1.9780611   -1.9780611   -1.2895283  0.039000068   -1.9780611   0.68853277   421013 
 1224000   0.62014791   -1.9788702   -1.9788702   -1.2906686  0.048423747   -1.9788702   0.68820152   421013 
 1225000   0.62120434   -1.9794172   -1.9794172   -1.2900433  0.036383226   -1.9794172   0.68937388   421013 
 1226000   0.62026929   -1.9793006   -1.9793006   -1.2909644  0.045398241   -1.9793006   0.68833622   421013 
 1227000   0.61884786   -1.9784396   -1.9784396   -1.2916808  0.036587278   -1.9784396    0.6867588   421013 
 1228000   0.61846889   -1.9783083   -1.9783083   -1.2919701  0.043128089   -1.9783083   0.68633825   421013 
 1229000   0.61982996   -1.9797407   -1.9797407    -1.291892  0.044522993   -1.9797407   0.68784868   421013 
 1230000   0.62007246   -1.9799432   -1.9799432   -1.2918255  0.041205667   -1.9799432   0.68811779   421013 
 1231000   0.62075475   -1.9813803   -1.9813803   -1.2925053   0.04591082   -1.9813803   0.68887495   421013 
 1232000   0.62141156   -1.9816519   -1.9816519    -1.292048  0.048750578   -1.9816519   0.68960384   421013 
 1233000   0.61967548   -1.9795316   -1.9795316   -1.2918543  0.043985742   -1.9795316   0.68767725   421013 
 1234000   0.61958138   -1.9804048   -1.9804048    -1.292832  0.046198471   -1.9804048   0.68757282   421013 
 1235000   0.61948702    -1.979345    -1.979345   -1.2918769  0.042684845    -1.979345    0.6874681   421013 
 1236000   0.61966235   -1.9802557   -1.9802557    -1.292593   0.04750502   -1.9802557   0.68766268   421013 
 1237000   0.61945775   -1.9797731   -1.9797731   -1.2923375  0.048469399   -1.9797731   0.68743563   421013 
 1238000   0.62015407   -1.9803476   -1.9803476   -1.2921392  0.044972882   -1.9803476   0.68820835   421013 
 1239000   0.62084022   -1.9810987   -1.9810987   -1.2921289  0.038977465   -1.9810987    0.6889698   421013 
 1240000   0.61903156   -1.9788557   -1.9788557   -1.2918931  0.047066844   -1.9788557   0.68696267   421013 
 1241000   0.62017914   -1.9807298   -1.9807298   -1.2924936  0.041436766   -1.9807298   0.68823618   421013 
 1242000   0.62032315   -1.9817098   -1.9817098   -1.2933138  0.042975684   -1.9817098   0.68839598   421013 
 1243000   0.62051065   -1.9815338   -1.9815338   -1.2929298  0.046565023   -1.9815338   0.68860406   421013 
 1244000   0.61965226   -1.9819106   -1.9819106   -1.2942591  0.036792506   -1.9819106   0.68765148   421013 
 1245000   0.61945268   -1.9823198   -1.9823198   -1.2948898  0.043611332   -1.9823198      0.68743   421013 
 1246000   0.62025948   -1.9838804   -1.9838804   -1.2955551  0.050868739   -1.9838804   0.68832533   421013 
 1247000   0.62113863   -1.9843293   -1.9843293   -1.2950284  0.053481809   -1.9843293   0.68930095   421013 
 1248000   0.62000232   -1.9839823   -1.9839823   -1.2959424  0.051624063   -1.9839823   0.68803995   421013 
 1249000    0.6198957   -1.9839564   -1.9839564   -1.2960348  0.038892095   -1.9839564   0.68792163   421013 
 1250000   0.62088244   -1.9846058   -1.9846058   -1.2955891  0.043254203   -1.9846058   0.68901665   421013 
 1251000   0.61922262   -1.9826395   -1.9826395   -1.2954648  0.051223437   -1.9826395   0.68717469   421013 
 1252000   0.62094643   -1.9850074   -1.9850074   -1.2959197  0.048225376   -1.9850074   0.68908767   421013 
 1253000   0.62137054   -1.9853215   -1.9853215   -1.2957632   0.04411426   -1.9853215   0.68955831   421013 
 1254000   0.62015067   -1.9848342   -1.9848342   -1.2966296   0.04822102   -1.9848342   0.68820459   421013 
 1255000   0.62104706   -1.9860254   -1.9860254   -1.2968261  0.048116409   -1.9860254   0.68919934   421013 
 1256000    0.6192139   -1.9843292   -1.9843292   -1.2971642  0.040577319   -1.9843292   0.68716501   421013 
 1257000   0.61846585    -1.982898    -1.982898   -1.2965632  0.042985613    -1.982898   0.68633488   421013 
 1258000   0.61833906   -1.9835423   -1.9835423   -1.2973481  0.046578201   -1.9835423   0.68619417   421013 
 1259000   0.61882532   -1.9837418   -1.9837418    -1.297008  0.048124557   -1.9837418   0.68673379   421013 
 1260000    0.6181663   -1.9834168   -1.9834168   -1.2974144  0.038573964   -1.9834168   0.68600245   421013 
 1261000   0.61864972   -1.9829839   -1.9829839    -1.296445  0.047037481   -1.9829839   0.68653892   421013 
 1262000   0.61975491   -1.9845025   -1.9845025   -1.2967371  0.049936987   -1.9845025   0.68776539   421013 
 1263000   0.62006321   -1.9842448   -1.9842448   -1.2961373  0.044089109   -1.9842448   0.68810753   421013 
 1264000   0.61951223    -1.983829    -1.983829   -1.2963329  0.038763434    -1.983829   0.68749608   421013 
 1265000   0.61901561   -1.9830197   -1.9830197   -1.2960748   0.03826254   -1.9830197   0.68694496   421013 
 1266000   0.61857324   -1.9828645   -1.9828645   -1.2964105  0.051017125   -1.9828645   0.68645405   421013 
 1267000   0.61917925   -1.9837871   -1.9837871   -1.2966605   0.05121689   -1.9837871   0.68712656   421013 
 1268000   0.61971517   -1.9841575   -1.9841575   -1.2964362  0.040220579   -1.9841575   0.68772129   421013 
 1269000   0.61782174   -1.9824192   -1.9824192   -1.2967992  0.039377612   -1.9824192   0.68562008   421013 
 1270000   0.61806881   -1.9822106   -1.9822106   -1.2963163  0.049128907   -1.9822106   0.68589426   421013 
 1271000   0.61865306    -1.982706    -1.982706   -1.2961634  0.044019834    -1.982706   0.68654263   421013 
 1272000   0.61913327   -1.9832111   -1.9832111   -1.2961356  0.042302056   -1.9832111   0.68707553   421013 
 1273000   0.61944799     -1.98402     -1.98402   -1.2965952  0.044080141     -1.98402   0.68742479   421013 
 1274000   0.61800034   -1.9826936   -1.9826936   -1.2968753  0.037847293   -1.9826936   0.68581828   421013 
 1275000   0.61847783   -1.9829502   -1.9829502    -1.296602  0.041219821   -1.9829502   0.68634816   421013 
 1276000   0.61986103    -1.984323    -1.984323   -1.2964399  0.039582906    -1.984323   0.68788315   421013 
 1277000   0.61866438   -1.9836905   -1.9836905   -1.2971353  0.042050507   -1.9836905   0.68655518   421013 
 1278000   0.61817343   -1.9830822   -1.9830822   -1.2970718  0.043077663   -1.9830822   0.68601036   421013 
 1279000   0.61910476   -1.9832378   -1.9832378   -1.2961939  0.042153043   -1.9832378    0.6870439   421013 
 1280000   0.61841643   -1.9825581   -1.9825581   -1.2962781  0.042038919   -1.9825581   0.68628003   421013 
 1281000   0.61949616    -1.984459    -1.984459   -1.2969808  0.042925296    -1.984459   0.68747825   421013 
 1282000   0.62042501   -1.9854903   -1.9854903   -1.2969812  0.044984914   -1.9854903   0.68850903   421013 
 1283000   0.61891726   -1.9846609   -1.9846609   -1.2978251  0.043777155   -1.9846609   0.68683582   421013 
 1284000   0.61939121   -1.9849669   -1.9849669   -1.2976052  0.048483912   -1.9849669   0.68736178   421013 
 1285000   0.61929942   -1.9850739   -1.9850739    -1.297814   0.03811002   -1.9850739   0.68725992   421013 
 1286000   0.61926542   -1.9846184   -1.9846184   -1.2973962  0.038011257   -1.9846184   0.68722219   421013 
 1287000   0.62081936   -1.9871816   -1.9871816   -1.2982349  0.035546388   -1.9871816   0.68894665   421013 
 1288000   0.61924411   -1.9852234   -1.9852234   -1.2980248  0.038268363   -1.9852234   0.68719854   421013 
 1289000   0.61919817   -1.9846461   -1.9846461   -1.2974985  0.039760134   -1.9846461   0.68714755   421013 
 1290000   0.62019402   -1.9853227   -1.9853227     -1.29707  0.042282703   -1.9853227   0.68825269   421013 
 1291000   0.62037546   -1.9854948   -1.9854948   -1.2970407  0.042195174   -1.9854948   0.68845404   421013 
 1292000   0.61903597   -1.9843366   -1.9843366   -1.2973691  0.039479226   -1.9843366   0.68696756   421013 
 1293000   0.61963193   -1.9859496   -1.9859496   -1.2983207  0.038618748   -1.9859496   0.68762892   421013 
 1294000   0.61899667   -1.9850508   -1.9850508   -1.2981269   0.05235337   -1.9850508   0.68692394   421013 
 1295000   0.61813215    -1.984668    -1.984668   -1.2987034  0.049915413    -1.984668   0.68596456   421013 
 1296000   0.61833716    -1.985558    -1.985558    -1.299366  0.038884626    -1.985558   0.68619206   421013 
 1297000   0.61874089   -1.9865136   -1.9865136   -1.2998735   0.03718009   -1.9865136    0.6866401   421013 
 1298000   0.61871973   -1.9858828   -1.9858828   -1.2992662  0.034840391   -1.9858828   0.68661661   421013 
 1299000   0.61964455   -1.9866313   -1.9866313   -1.2989884  0.047505855   -1.9866313   0.68764292   421013 
 1300000   0.61963361   -1.9864837   -1.9864837   -1.2988529  0.047198956   -1.9864837   0.68763078   421013 
 1301000    0.6196931   -1.9867462   -1.9867462   -1.2990494  0.044019756   -1.9867462    0.6876968   421013 
 1302000   0.62031113    -1.987118    -1.987118   -1.2987353  0.045039155    -1.987118   0.68838265   421013 
 1303000   0.61972256   -1.9878332   -1.9878332   -1.3001037  0.041975687   -1.9878332   0.68772949   421013 
 1304000   0.61842921   -1.9861995   -1.9861995   -1.2999053  0.042211565   -1.9861995   0.68629421   421013 
 1305000   0.61782811   -1.9860618   -1.9860618   -1.3004346  0.045983985   -1.9860618   0.68562715   421013 
 1306000   0.61820363   -1.9864022   -1.9864022   -1.3003583  0.049047662   -1.9864022   0.68604388   421013 
 1307000   0.61856484   -1.9869503   -1.9869503   -1.3005056  0.043042683   -1.9869503   0.68644472   421013 
 1308000   0.61839115   -1.9874334   -1.9874334   -1.3011815  0.040303502   -1.9874334   0.68625197   421013 
 1309000   0.61808712   -1.9868231   -1.9868231   -1.3009085  0.049080779   -1.9868231   0.68591459   421013 
 1310000   0.61767847   -1.9863156   -1.9863156   -1.3008545  0.044340956   -1.9863156   0.68546109   421013 
 1311000   0.61728952   -1.9867346   -1.9867346   -1.3017051  0.037983049   -1.9867346   0.68502946   421013 
 1312000   0.61815003   -1.9880627   -1.9880627   -1.3020783  0.051976236   -1.9880627    0.6859844   421013 
 1313000   0.61924081   -1.9881752   -1.9881752   -1.3009804  0.041303856   -1.9881752   0.68719488   421013 
 1314000   0.61934975   -1.9879766   -1.9879766   -1.3006609  0.043105563   -1.9879766   0.68731577   421013 
 1315000   0.61891047   -1.9888799   -1.9888799   -1.3020516  0.044004121   -1.9888799   0.68682828   421013 
 1316000   0.61842156   -1.9885639   -1.9885639   -1.3022782  0.040324542   -1.9885639   0.68628572   421013 
 1317000   0.61831283   -1.9878748   -1.9878748   -1.3017098  0.045597381   -1.9878748   0.68616506   421013 
 1318000   0.61852239   -1.9887884   -1.9887884   -1.3023907  0.038921372   -1.9887884   0.68639762   421013 
 1319000   0.61847475    -1.987568    -1.987568   -1.3012233  0.042642678    -1.987568   0.68634475   421013 
 1320000   0.61916818   -1.9882935   -1.9882935   -1.3011793  0.034320683   -1.9882935   0.68711427   421013 
 1321000   0.61907614   -1.9887061   -1.9887061   -1.3016939  0.043068261   -1.9887061   0.68701213   421013 
 1322000   0.61878057   -1.9887244   -1.9887244   -1.3020403  0.044550576   -1.9887244   0.68668413   421013 
 1323000    0.6190532   -1.9886575   -1.9886575   -1.3016708  0.046355725   -1.9886575   0.68698668   421013 
 1324000   0.61739284    -1.987398    -1.987398   -1.3022539  0.044522606    -1.987398   0.68514411   421013 
 1325000   0.61760138   -1.9871336   -1.9871336   -1.3017581  0.038841928   -1.9871336   0.68537554   421013 
 1326000   0.61715604   -1.9873374   -1.9873374    -1.302456  0.047682397   -1.9873374   0.68488133   421013 
 1327000    0.6177029   -1.9883708   -1.9883708   -1.3028826  0.040627042   -1.9883708    0.6854882   421013 
 1328000   0.61835918   -1.9889556   -1.9889556   -1.3027391   0.03911956   -1.9889556    0.6862165   421013 
 1329000   0.61809042    -1.988298    -1.988298   -1.3023798  0.039177167    -1.988298   0.68591825   421013 
 1330000   0.61960777   -1.9892963   -1.9892963   -1.3016942  0.046827195   -1.9892963    0.6876021   421013 
 1331000   0.61774237   -1.9872615   -1.9872615   -1.3017295  0.040729098   -1.9872615     0.685532   421013 
 1332000   0.62012345   -1.9893667   -1.9893667   -1.3011923  0.038843147   -1.9893667   0.68817438   421013 
 1333000    0.6175856   -1.9867533   -1.9867533   -1.3013953  0.047775696   -1.9867533   0.68535803   421013 
 1334000   0.61798692   -1.9878579   -1.9878579   -1.3020545  0.038511528   -1.9878579   0.68580338   421013 
 1335000    0.6177781   -1.9878663   -1.9878663   -1.3022947  0.048188056   -1.9878663   0.68557165   421013 
 1336000   0.61812447   -1.9878976   -1.9878976   -1.3019416  0.036804214   -1.9878976   0.68595604   421013 
 1337000   0.61755498   -1.9878386   -1.9878386   -1.3025146  0.038032363   -1.9878386   0.68532404   421013 
 1338000   0.61694569    -1.987477    -1.987477   -1.3028291  0.041535562    -1.987477    0.6846479   421013 
 1339000   0.61871769   -1.9891111   -1.9891111   -1.3024968  0.043441406   -1.9891111   0.68661435   421013 
 1340000   0.61730365   -1.9890263   -1.9890263   -1.3039812  0.043216044   -1.9890263   0.68504514   421013 
 1341000   0.61657207   -1.9883445   -1.9883445   -1.3041112  0.035480703   -1.9883445   0.68423327   421013 
 1342000   0.61812185   -1.9893121   -1.9893121    -1.303359  0.037226771   -1.9893121   0.68595313   421013 
 1343000   0.61901258   -1.9901707   -1.9901707   -1.3032291  0.048512335   -1.9901707   0.68694159   421013 
 1344000   0.61764971   -1.9891524   -1.9891524   -1.3037232  0.051256918   -1.9891524   0.68542917   421013 
 1345000   0.61901069   -1.9909606   -1.9909606   -1.3040211   0.04741332   -1.9909606    0.6869395   421013 
 1346000   0.61817756   -1.9899777   -1.9899777   -1.3039627  0.037931582   -1.9899777   0.68601494   421013 
 1347000   0.61859176   -1.9908512   -1.9908512   -1.3043766  0.047157698   -1.9908512    0.6864746   421013 
 1348000   0.61760089   -1.9901918   -1.9901918   -1.3048168   0.03783636   -1.9901918     0.685375   421013 
 1349000   0.61881372   -1.9920047   -1.9920047   -1.3052838  0.043029827   -1.9920047   0.68672092   421013 
 1350000   0.61656877   -1.9893212   -1.9893212   -1.3050916  0.044895035   -1.9893212   0.68422962   421013 
 1351000   0.61805212    -1.990967    -1.990967   -1.3050913  0.045866709    -1.990967   0.68587575   421013 
 1352000   0.61766855   -1.9903046   -1.9903046   -1.3048545  0.034935184   -1.9903046   0.68545008   421013 
 1353000   0.61879282   -1.9907458   -1.9907458   -1.3040481  0.045595754   -1.9907458   0.68669772   421013 
 1354000   0.61853682   -1.9906771   -1.9906771   -1.3042635  0.045328559   -1.9906771   0.68641363   421013 
 1355000   0.61788892    -1.989935    -1.989935   -1.3042404  0.045594361    -1.989935   0.68569464   421013 
 1356000   0.61727454   -1.9898771   -1.9898771   -1.3048643  0.040854791   -1.9898771   0.68501284   421013 
 1357000   0.61766657   -1.9903248   -1.9903248   -1.3048769  0.048983922   -1.9903248   0.68544788   421013 
 1358000   0.61770185   -1.9907395   -1.9907395   -1.3052525  0.045593237   -1.9907395   0.68548703   421013 
 1359000   0.61777563   -1.9908878   -1.9908878   -1.3053189  0.050773909   -1.9908878   0.68556891   421013 
 1360000   0.61819196    -1.991258    -1.991258   -1.3052271  0.044678666    -1.991258   0.68603092   421013 
 1361000   0.61665903   -1.9902926   -1.9902926   -1.3059628  0.041666731   -1.9902926   0.68432977   421013 
 1362000   0.61736264   -1.9907264   -1.9907264   -1.3056158  0.039180474   -1.9907264    0.6851106   421013 
 1363000   0.61718957   -1.9910834   -1.9910834   -1.3061648  0.039915323   -1.9910834   0.68491854   421013 
 1364000    0.6181443   -1.9930303   -1.9930303   -1.3070523  0.044170362   -1.9930303   0.68597804   421013 
 1365000   0.61666029   -1.9915124   -1.9915124   -1.3071812  0.050086821   -1.9915124   0.68433118   421013 
 1366000   0.61733028   -1.9921033   -1.9921033   -1.3070287  0.044882971   -1.9921033   0.68507469   421013 
 1367000    0.6172954   -1.9921265   -1.9921265   -1.3070905  0.043505455   -1.9921265   0.68503599   421013 
 1368000   0.61771402   -1.9922162   -1.9922162   -1.3067157  0.041307051   -1.9922162   0.68550054   421013 
 1369000   0.61699929   -1.9917972   -1.9917972   -1.3070899  0.044782842   -1.9917972   0.68470738   421013 
 1370000   0.61751355   -1.9914077   -1.9914077   -1.3061296  0.037342967   -1.9914077   0.68527807   421013 
 1371000   0.61661996   -1.9910204   -1.9910204    -1.306734  0.045658122   -1.9910204   0.68428642   421013 
 1372000   0.61819233   -1.9921009   -1.9921009   -1.3060696   0.04173169   -1.9921009   0.68603134   421013 
 1373000   0.61774473   -1.9917085   -1.9917085   -1.3061739  0.041596518   -1.9917085   0.68553461   421013 
 1374000   0.61897872   -1.9935289   -1.9935289   -1.3066249  0.050972698   -1.9935289   0.68690402   421013 
 1375000   0.61774637   -1.9929623   -1.9929623   -1.3074259  0.049574509   -1.9929623   0.68553644   421013 
 1376000   0.61890222   -1.9931529   -1.9931529   -1.3063338  0.051238097   -1.9931529   0.68681912   421013 
 1377000   0.61809409   -1.9931467   -1.9931467   -1.3072244  0.046326094   -1.9931467   0.68592232   421013 
 1378000   0.61860889    -1.993977    -1.993977   -1.3074834  0.044393458    -1.993977   0.68649361   421013 
 1379000    0.6175123   -1.9927011   -1.9927011   -1.3074244  0.055141013   -1.9927011   0.68527668   421013 
 1380000   0.61857396   -1.9935024   -1.9935024   -1.3070475  0.041163345   -1.9935024   0.68645485   421013 
 1381000   0.61690266   -1.9915724   -1.9915724   -1.3069722  0.049120781   -1.9915724   0.68460014   421013 
 1382000   0.61801213   -1.9929364   -1.9929364    -1.307105  0.039745634   -1.9929364   0.68583136   421013 
 1383000   0.61765511   -1.9923224   -1.9923224   -1.3068872  0.044368976   -1.9923224   0.68543517   421013 
 1384000   0.61824285   -1.9933579   -1.9933579   -1.3072705  0.049373713   -1.9933579    0.6860874   421013 
 1385000   0.61832447   -1.9936292   -1.9936292   -1.3074513  0.044753191   -1.9936292   0.68617798   421013 
 1386000   0.61785205   -1.9924219   -1.9924219   -1.3067682  0.043825939   -1.9924219   0.68565372   421013 
 1387000   0.61774803   -1.9929345   -1.9929345   -1.3073962  0.048425355   -1.9929345   0.68553828   421013 
 1388000   0.61828718   -1.9935821   -1.9935821   -1.3074456  0.040616594   -1.9935821   0.68613659   421013 
 1389000   0.61811277   -1.9940435   -1.9940435   -1.3081004  0.049721023   -1.9940435   0.68594304   421013 
 1390000   0.61808076   -1.9936547   -1.9936547   -1.3077472  0.050047195   -1.9936547   0.68590753   421013 
 1391000   0.61713609   -1.9939079   -1.9939079   -1.3090487  0.038170643   -1.9939079   0.68485919   421013 
 1392000   0.61724776   -1.9934921   -1.9934921    -1.308509  0.038959338   -1.9934921   0.68498312   421013 
 1393000   0.61776052   -1.9941031   -1.9941031    -1.308551  0.041997297   -1.9941031   0.68555214   421013 
 1394000   0.61681407   -1.9936787   -1.9936787   -1.3091768  0.043898519   -1.9936787   0.68450183   421013 
 1395000   0.61640019   -1.9933122   -1.9933122   -1.3092697  0.039632679   -1.9933122   0.68404253   421013 
 1396000   0.61762574    -1.994477    -1.994477   -1.3090744  0.044742804    -1.994477   0.68540257   421013 
 1397000   0.61717862    -1.994091    -1.994091   -1.3091846  0.041667054    -1.994091   0.68490638   421013 
 1398000   0.61845952   -1.9946678   -1.9946678   -1.3083399  0.036267388   -1.9946678   0.68632785   421013 
 1399000    0.6173365   -1.9941031   -1.9941031   -1.3090215  0.048320921   -1.9941031   0.68508159   421013 
 1400000   0.61815612   -1.9950073   -1.9950073   -1.3090161  0.047840459   -1.9950073   0.68599116   421013 
 1401000   0.61794179   -1.9944344   -1.9944344   -1.3086811  0.051980622   -1.9944344   0.68575331   421013 
 1402000   0.61696957   -1.9941197   -1.9941197   -1.3094453  0.048554854   -1.9941197    0.6846744   421013 
 1403000    0.6180311   -1.9953818   -1.9953818   -1.3095293  0.046958791   -1.9953818   0.68585241   421013 
 1404000   0.61866191   -1.9953468   -1.9953468   -1.3087943  0.046861468   -1.9953468   0.68655245   421013 
 1405000    0.6175215   -1.9949117   -1.9949117   -1.3096248  0.040855918   -1.9949117    0.6852869   421013 
 1406000   0.61715748   -1.9944769   -1.9944769    -1.309594  0.044537823   -1.9944769   0.68488293   421013 
 1407000   0.61687604   -1.9951561   -1.9951561   -1.3105855  0.035330566   -1.9951561    0.6845706   421013 
 1408000   0.61782248   -1.9948129   -1.9948129    -1.309192   0.04642527   -1.9948129    0.6856209   421013 
 1409000   0.61843194   -1.9960532   -1.9960532    -1.309756  0.038671162   -1.9960532   0.68629724   421013 
 1410000   0.61698059   -1.9943749   -1.9943749   -1.3096883  0.043598725   -1.9943749   0.68468663   421013 
 1411000   0.61747235    -1.995118    -1.995118   -1.3098856  0.045269313    -1.995118   0.68523235   421013 
 1412000    0.6169802   -1.9948696   -1.9948696   -1.3101834  0.043340745   -1.9948696   0.68468619   421013 
 1413000   0.61665757    -1.994899    -1.994899   -1.3105709  0.045012845    -1.994899   0.68432816   421013 
 1414000   0.61746947   -1.9954559   -1.9954559   -1.3102267  0.046501838   -1.9954559   0.68522915   421013 
 1415000   0.61707469   -1.9951186   -1.9951186   -1.3103275  0.044596088   -1.9951186   0.68479105   421013 
 1416000   0.61803523   -1.9962953   -1.9962953   -1.3104383  0.049671061   -1.9962953     0.685857   421013 
 1417000   0.61970027   -1.9984558   -1.9984558   -1.3107511  0.045885374   -1.9984558   0.68770476   421013 
 1418000   0.61765141   -1.9965406   -1.9965406   -1.3111095  0.045739138   -1.9965406   0.68543106   421013 
 1419000   0.61717961   -1.9964532   -1.9964532   -1.3115457  0.041724112   -1.9964532   0.68490748   421013 
 1420000    0.6179512   -1.9969075   -1.9969075   -1.3111437  0.046234948   -1.9969075   0.68576374   421013 
 1421000   0.61712295   -1.9966365   -1.9966365   -1.3117919  0.042531473   -1.9966365   0.68484461   421013 
 1422000   0.61787705    -1.998172    -1.998172   -1.3124905  0.039488945    -1.998172   0.68568146   421013 
 1423000   0.61736725   -1.9971821   -1.9971821   -1.3120664  0.038072397   -1.9971821   0.68511571   421013 
 1424000   0.61768035   -1.9976972   -1.9976972   -1.3122341   0.04465384   -1.9976972   0.68546318   421013 
 1425000   0.61784785   -1.9975153   -1.9975153   -1.3118662  0.049577939   -1.9975153   0.68564906   421013 
 1426000   0.61781893   -1.9971917   -1.9971917   -1.3115747  0.041933906   -1.9971917   0.68561696   421013 
 1427000   0.61791018   -1.9969109   -1.9969109   -1.3111927  0.048404194   -1.9969109   0.68571822   421013 
 1428000    0.6176342   -1.9971174   -1.9971174   -1.3117054  0.044085036   -1.9971174   0.68541196   421013 
 1429000   0.61772455   -1.9974362   -1.9974362   -1.3119239  0.044556346   -1.9974362   0.68551222   421013 
 1430000   0.61894185   -1.9979252   -1.9979252   -1.3110621  0.045543434   -1.9979252    0.6868631   421013 
 1431000   0.61791164   -1.9969437   -1.9969437   -1.3112239  0.048853005   -1.9969437   0.68571984   421013 
 1432000   0.61754605   -1.9965914   -1.9965914   -1.3112773   0.04847814   -1.9965914   0.68531413   421013 
 1433000   0.61880172   -1.9980601   -1.9980601   -1.3113525  0.036386881   -1.9980601   0.68670759   421013 
 1434000   0.61736981   -1.9965399   -1.9965399   -1.3114213  0.043581549   -1.9965399   0.68511856   421013 
 1435000   0.61776392   -1.9971196   -1.9971196   -1.3115637  0.047913584   -1.9971196   0.68555591   421013 
 1436000   0.61684715   -1.9962613   -1.9962613   -1.3117228   0.04556478   -1.9962613   0.68453854   421013 
 1437000   0.61765696   -1.9978209   -1.9978209   -1.3123837  0.044157557   -1.9978209   0.68543721   421013 
 1438000   0.61802089   -1.9978752   -1.9978752   -1.3120341  0.046900415   -1.9978752   0.68584108   421013 
 1439000   0.61761269   -1.9981289   -1.9981289   -1.3127408  0.043995485   -1.9981289   0.68538809   421013 
 1440000   0.61664082    -1.997289    -1.997289   -1.3129794   0.03961169    -1.997289   0.68430957   421013 
 1441000    0.6169976   -1.9980075   -1.9980075    -1.313302  0.041320484   -1.9980075    0.6847055   421013 
 1442000   0.61785996    -1.999386    -1.999386   -1.3137235  0.039196415    -1.999386   0.68566249   421013 
 1443000   0.61786598   -1.9997512   -1.9997512   -1.3140821  0.044626596   -1.9997512   0.68566917   421013 
 1444000   0.61833931   -2.0003693   -2.0003693   -1.3141748  0.047497855   -2.0003693   0.68619444   421013 
 1445000   0.61825504   -2.0004118   -2.0004118   -1.3143109  0.042380224   -2.0004118   0.68610093   421013 
 1446000   0.61761697   -1.9999555   -1.9999555   -1.3145627  0.047285396   -1.9999555   0.68539284   421013 
 1447000   0.61713461   -1.9987056   -1.9987056   -1.3138481  0.048161187   -1.9987056   0.68485754   421013 
 1448000   0.61848556   -2.0009903   -2.0009903   -1.3146336  0.050026736   -2.0009903   0.68635675   421013 
 1449000    0.6178518   -2.0000598   -2.0000598   -1.3144063  0.047538657   -2.0000598   0.68565344   421013 
 1450000   0.61751693   -1.9997309   -1.9997309   -1.3144491  0.045497496   -1.9997309   0.68528181   421013 
 1451000   0.61750677   -1.9991548   -1.9991548   -1.3138842  0.047186712   -1.9991548   0.68527054   421013 
 1452000   0.61771801   -1.9995281   -1.9995281   -1.3140231  0.044783634   -1.9995281   0.68550497   421013 
 1453000   0.61725532   -1.9981406   -1.9981406    -1.313149  0.041376201   -1.9981406    0.6849915   421013 
 1454000   0.61784225   -1.9985635   -1.9985635   -1.3129206  0.047510829   -1.9985635   0.68564284   421013 
 1455000   0.61661971   -1.9970507   -1.9970507   -1.3127646  0.048833918   -1.9970507   0.68428615   421013 
 1456000   0.61712078   -1.9975061   -1.9975061   -1.3126639  0.046975244   -1.9975061    0.6848422   421013 
 1457000   0.61599095   -1.9967064   -1.9967064    -1.313118  0.043266102   -1.9967064   0.68358838   421013 
 1458000   0.61471284   -1.9961444   -1.9961444   -1.3139744  0.048480068   -1.9961444   0.68217001   421013 
 1459000    0.6148253   -1.9961185   -1.9961185   -1.3138236  0.044546113   -1.9961185   0.68229482   421013 
 1460000   0.61593989   -1.9971241   -1.9971241   -1.3135924  0.042759965   -1.9971241   0.68353172   421013 
 1461000   0.61699993   -1.9979924   -1.9979924   -1.3132843  0.046233558   -1.9979924   0.68470808   421013 
 1462000   0.61609978   -1.9970915   -1.9970915   -1.3133823  0.039874626   -1.9970915   0.68370915   421013 
 1463000   0.61708786     -1.99806     -1.99806   -1.3132543  0.038728017     -1.99806   0.68480566   421013 
 1464000   0.61746222    -1.997997    -1.997997   -1.3127759  0.040502314    -1.997997    0.6852211   421013 
 1465000   0.61751867   -1.9983341   -1.9983341   -1.3130503  0.048102538   -1.9983341   0.68528375   421013 
 1466000   0.61700994   -1.9984636   -1.9984636   -1.3137444  0.048136631   -1.9984636    0.6847192   421013 
 1467000   0.61561059   -1.9970999   -1.9970999   -1.3139337  0.042726459   -1.9970999   0.68316628   421013 
 1468000   0.61642467   -1.9984169   -1.9984169   -1.3143473  0.043270426   -1.9984169   0.68406969   421013 
 1469000   0.61817155   -2.0009828   -2.0009828   -1.3149745   0.04520906   -2.0009828   0.68600828   421013 
 1470000    0.6176527   -2.0008266   -2.0008266   -1.3153941  0.039220355   -2.0008266   0.68543249   421013 
 1471000   0.61820361   -2.0013183   -2.0013183   -1.3152744  0.040686142   -2.0013183   0.68604385   421013 
 1472000   0.61612219   -1.9988015   -1.9988015   -1.3150675  0.043326362   -1.9988015   0.68373403   421013 
 1473000   0.61735214   -2.0002389   -2.0002389     -1.31514  0.047058225   -2.0002389   0.68509894   421013 
 1474000   0.61698621    -2.000672    -2.000672   -1.3159791  0.050585762    -2.000672   0.68469286   421013 
 1475000   0.61883071   -2.0027615   -2.0027615   -1.3160218  0.038269527   -2.0027615   0.68673977   421013 
 1476000   0.61639919   -2.0004209   -2.0004209   -1.3163795  0.041633122   -2.0004209   0.68404142   421013 
 1477000   0.61767896   -2.0012886   -2.0012886   -1.3158269  0.042709825   -2.0012886   0.68546163   421013 
 1478000   0.61785685    -2.000558    -2.000558    -1.314899  0.048832211    -2.000558   0.68565904   421013 
 1479000   0.61694722   -1.9994652   -1.9994652   -1.3148156  0.045781944   -1.9994652   0.68464959   421013 
 1480000   0.61715791   -1.9999774   -1.9999774    -1.315094  0.044017637   -1.9999774    0.6848834   421013 
 1481000   0.61735885    -1.999487    -1.999487   -1.3143806  0.037896158    -1.999487   0.68510639   421013 
 1482000   0.61728571   -1.9994749   -1.9994749   -1.3144497  0.050683478   -1.9994749   0.68502523   421013 
 1483000   0.61722163   -2.0001319   -2.0001319   -1.3151777  0.038185447   -2.0001319   0.68495411   421013 
 1484000   0.61672827   -2.0001233   -2.0001233   -1.3157167   0.04150638   -2.0001233   0.68440662   421013 
 1485000   0.61578949   -1.9986303   -1.9986303   -1.3152654  0.048740462   -1.9986303   0.68336482   421013 
 1486000   0.61639886   -2.0000122   -2.0000122   -1.3159711  0.042813208   -2.0000122   0.68404106   421013 
 1487000   0.61597255   -1.9992074   -1.9992074   -1.3156395  0.042414211   -1.9992074   0.68356796   421013 
 1488000   0.61642666   -1.9995937   -1.9995937   -1.3155218  0.044719078   -1.9995937   0.68407191   421013 
 1489000   0.61745237   -2.0000018   -2.0000018   -1.3147916  0.039696392   -2.0000018   0.68521018   421013 
 1490000   0.61682975    -2.000038    -2.000038   -1.3155187  0.052603767    -2.000038   0.68451923   421013 
 1491000   0.61793355   -2.0006079   -2.0006079   -1.3148637  0.045993394   -2.0006079   0.68574416   421013 
 1492000   0.61774632   -2.0002327   -2.0002327   -1.3146963  0.042342735   -2.0002327   0.68553638   421013 
 1493000   0.61759466   -2.0008101   -2.0008101    -1.315442   0.04062637   -2.0008101   0.68536808   421013 
 1494000   0.61639272   -1.9999174   -1.9999174   -1.3158832  0.041216247   -1.9999174   0.68403424   421013 
 1495000   0.61659176   -2.0005561   -2.0005561   -1.3163009  0.045012202   -2.0005561   0.68425512   421013 
 1496000   0.61780079   -2.0023164   -2.0023164   -1.3167196  0.041224182   -2.0023164   0.68559683   421013 
 1497000   0.61607833   -2.0008318   -2.0008318   -1.3171464  0.035360621   -2.0008318   0.68368535   421013 
 1498000   0.61706231   -2.0014767   -2.0014767   -1.3166994  0.044018466   -2.0014767   0.68477731   421013 
 1499000   0.61656904   -2.0006152   -2.0006152   -1.3163853  0.041306534   -2.0006152   0.68422991   421013 
 1500000   0.61792003   -2.0021474   -2.0021474   -1.3164183  0.041423099   -2.0021474   0.68572915   421013 
 1501000   0.61827506   -2.0027967   -2.0027967   -1.3166736  0.044960392   -2.0027967   0.68612314   421013 
 1502000   0.61792613   -2.0022105   -2.0022105   -1.3164745  0.042609173   -2.0022105   0.68573592   421013 
 1503000   0.61778215   -2.0027514   -2.0027514   -1.3171753  0.043997338   -2.0027514   0.68557614   421013 
 1504000   0.61712975   -2.0025168   -2.0025168   -1.3176646   0.04832224   -2.0025168   0.68485215   421013 
 1505000   0.61828872   -2.0038614   -2.0038614   -1.3177231  0.048130689   -2.0038614   0.68613831   421013 
 1506000   0.61696772   -2.0035398   -2.0035398   -1.3188675  0.048069664   -2.0035398   0.68467235   421013 
 1507000   0.61600431    -2.003239    -2.003239   -1.3196358  0.039060253    -2.003239   0.68360321   421013 
 1508000   0.61539907   -2.0020017   -2.0020017   -1.3190702  0.047958712   -2.0020017   0.68293155   421013 
 1509000   0.61629635   -2.0027888   -2.0027888   -1.3188615  0.037361853   -2.0027888   0.68392729   421013 
 1510000   0.61570285   -2.0025056   -2.0025056   -1.3192369  0.046672318   -2.0025056   0.68326867   421013 
 1511000   0.61697902   -2.0042777   -2.0042777   -1.3195928  0.045331881   -2.0042777   0.68468488   421013 
 1512000   0.61608557   -2.0027418   -2.0027418   -1.3190485  0.046163021   -2.0027418   0.68369339   421013 
 1513000   0.61691308   -2.0038172   -2.0038172   -1.3192054  0.044799518   -2.0038172   0.68461171   421013 
 1514000   0.61511425   -2.0027525   -2.0027525    -1.320137   0.04050504   -2.0027525   0.68261548   421013 
 1515000    0.6166649    -2.003671    -2.003671   -1.3193347  0.044101866    -2.003671   0.68433629   421013 
 1516000   0.61565641   -2.0029503   -2.0029503   -1.3197332  0.041645998   -2.0029503   0.68321713   421013 
 1517000   0.61753779   -2.0047709   -2.0047709   -1.3194659  0.042180776   -2.0047709   0.68530496   421013 
 1518000   0.61684934   -2.0040734   -2.0040734   -1.3195324  0.046732258   -2.0040734   0.68454097   421013 
 1519000    0.6176013   -2.0038367   -2.0038367   -1.3184612  0.045601609   -2.0038367   0.68537545   421013 
 1520000   0.61734915   -2.0030887   -2.0030887    -1.317993  0.051152286   -2.0030887   0.68509563   421013 
 1521000   0.61720315   -2.0032144   -2.0032144   -1.3182808  0.047271275   -2.0032144   0.68493361   421013 
 1522000   0.61633906   -2.0019974   -2.0019974   -1.3180227  0.052436068   -2.0019974   0.68397469   421013 
 1523000   0.61700515   -2.0039363   -2.0039363   -1.3192224  0.044533534   -2.0039363   0.68471387   421013 
 1524000   0.61838818    -2.004508    -2.004508   -1.3182593  0.046200887    -2.004508   0.68624868   421013 
 1525000   0.61699936    -2.002969    -2.002969   -1.3182615   0.04355336    -2.002969   0.68470746   421013 
 1526000   0.61794462   -2.0047207   -2.0047207   -1.3189643   0.05430501   -2.0047207   0.68575645   421013 
 1527000   0.61815706   -2.0050066   -2.0050066   -1.3190144  0.035491158   -2.0050066    0.6859922   421013 
 1528000   0.61654742   -2.0033661   -2.0033661   -1.3191602  0.038633201   -2.0033661   0.68420592   421013 
 1529000   0.61661161   -2.0035445   -2.0035445   -1.3192674  0.047801905   -2.0035445   0.68427715   421013 
 1530000   0.61709984   -2.0039192   -2.0039192   -1.3191002  0.052273744   -2.0039192   0.68481896   421013 
 1531000    0.6171356   -2.0034102   -2.0034102   -1.3185516  0.045863958   -2.0034102   0.68485865   421013 
 1532000   0.61650023   -2.0029427   -2.0029427   -1.3187891  0.044734798   -2.0029427   0.68415355   421013 
 1533000   0.61698313   -2.0036636   -2.0036636   -1.3189742  0.038171778   -2.0036636   0.68468944   421013 
 1534000   0.61756499   -2.0031593   -2.0031593   -1.3178241  0.045582823   -2.0031593   0.68533516   421013 
 1535000   0.61618682   -2.0018607   -2.0018607   -1.3180549  0.044323607   -2.0018607   0.68380575   421013 
 1536000   0.61644833   -2.0025384   -2.0025384   -1.3184424  0.040065818   -2.0025384   0.68409596   421013 
 1537000   0.61758676   -2.0035768   -2.0035768   -1.3182175  0.045875983   -2.0035768   0.68535932   421013 
 1538000   0.61654598   -2.0028724   -2.0028724   -1.3186681  0.045440924   -2.0028724   0.68420432   421013 
 1539000   0.61642335   -2.0026171   -2.0026171   -1.3185489  0.043085647   -2.0026171   0.68406823   421013 
 1540000   0.61664448   -2.0037165   -2.0037165   -1.3194029  0.035660755   -2.0037165   0.68431363   421013 
 1541000   0.61432058   -2.0002521   -2.0002521   -1.3185173  0.048068981   -2.0002521   0.68173471   421013 
 1542000   0.61633181   -2.0018604   -2.0018604   -1.3178938  0.042339876   -2.0018604   0.68396664   421013 
 1543000   0.61622216   -2.0019437   -2.0019437   -1.3180988  0.037856505   -2.0019437   0.68384497   421013 
 1544000   0.61514191   -2.0017181   -2.0017181   -1.3190719  0.043307477   -2.0017181   0.68264617   421013 
 1545000   0.61539355   -2.0025349   -2.0025349   -1.3196095  0.043852011   -2.0025349   0.68292543   421013 
 1546000    0.6159785   -2.0024843   -2.0024843   -1.3189098  0.042931113   -2.0024843   0.68357457   421013 
 1547000   0.61709454   -2.0037194   -2.0037194   -1.3189063  0.044710261   -2.0037194   0.68481308   421013 
 1548000   0.61617225   -2.0028149   -2.0028149   -1.3190253  0.045892161   -2.0028149   0.68378958   421013 
 1549000     0.616571   -2.0035811   -2.0035811    -1.319349  0.033281478   -2.0035811   0.68423208   421013 
 1550000   0.61687518   -2.0035861   -2.0035861   -1.3190165  0.041450874   -2.0035861   0.68456964   421013 
 1551000   0.61684242   -2.0040218   -2.0040218   -1.3194886  0.044607356   -2.0040218   0.68453329   421013 
 1552000   0.61699838   -2.0054026   -2.0054026   -1.3206962  0.044367443   -2.0054026   0.68470637   421013 
 1553000   0.61563366   -2.0044571   -2.0044571   -1.3212653  0.040973111   -2.0044571   0.68319189   421013 
 1554000   0.61713267   -2.0050282   -2.0050282   -1.3201728  0.037205605   -2.0050282   0.68485539   421013 
 1555000   0.61641755   -2.0034854   -2.0034854   -1.3194236  0.046196364   -2.0034854    0.6840618   421013 
 1556000    0.6162578   -2.0040818   -2.0040818   -1.3201973  0.042489181   -2.0040818   0.68388451   421013 
 1557000   0.61653928   -2.0055157   -2.0055157   -1.3213189  0.047016178   -2.0055157   0.68419689   421013 
 1558000   0.61717969   -2.0041884   -2.0041884   -1.3192808  0.038969837   -2.0041884   0.68490758   421013 
 1559000   0.61754518   -2.0054303   -2.0054303   -1.3201171  0.040712973   -2.0054303   0.68531317   421013 
 1560000   0.61740344   -2.0064251   -2.0064251   -1.3212692  0.042665705   -2.0064251   0.68515588   421013 
 1561000   0.61565156   -2.0048416   -2.0048416   -1.3216298  0.038259294   -2.0048416   0.68321175   421013 
 1562000   0.61577483    -2.004721    -2.004721   -1.3213725   0.03646415    -2.004721   0.68334854   421013 
 1563000   0.61578405   -2.0048913   -2.0048913   -1.3215326  0.046386974   -2.0048913   0.68335878   421013 
 1564000   0.61604197   -2.0046473   -2.0046473   -1.3210023  0.044208241   -2.0046473     0.683645   421013 
 1565000   0.61694403    -2.005212    -2.005212   -1.3205659  0.045710929    -2.005212   0.68464605   421013 
 1566000   0.61569077   -2.0037169   -2.0037169   -1.3204617  0.050959125   -2.0037169   0.68325526   421013 
 1567000   0.61733053   -2.0056746   -2.0056746   -1.3205996  0.035397941   -2.0056746   0.68507497   421013 
 1568000   0.61613598   -2.0043183   -2.0043183    -1.320569  0.049258438   -2.0043183   0.68374933   421013 
 1569000   0.61706224    -2.004721    -2.004721   -1.3199438  0.053992826    -2.004721   0.68477723   421013 
 1570000   0.61765804    -2.005497    -2.005497   -1.3200586  0.040473775    -2.005497   0.68543841   421013 
 1571000   0.61624719   -2.0046247   -2.0046247    -1.320752  0.043136283   -2.0046247   0.68387274   421013 
 1572000   0.61764913   -2.0052707   -2.0052707   -1.3198422  0.042019433   -2.0052707   0.68542853   421013 
 1573000    0.6175522     -2.00641     -2.00641   -1.3210891   0.03572245     -2.00641   0.68532096   421013 
 1574000   0.61622177   -2.0052783   -2.0052783   -1.3214338  0.041450552   -2.0052783   0.68384454   421013 
 1575000   0.61566789   -2.0051131   -2.0051131   -1.3218833  0.044694986   -2.0051131   0.68322988   421013 
 1576000   0.61679081   -2.0062808   -2.0062808   -1.3218048   0.04104817   -2.0062808   0.68447602   421013 
 1577000   0.61573825   -2.0058088   -2.0058088   -1.3225008   0.04038686   -2.0058088   0.68330795   421013 
 1578000    0.6160365   -2.0071121   -2.0071121   -1.3234732  0.037158774   -2.0071121   0.68363893   421013 
 1579000   0.61476895    -2.004841    -2.004841   -1.3226087  0.044153838    -2.004841   0.68223228   421013 
 1580000   0.61563607   -2.0064244   -2.0064244   -1.3232299  0.044212202   -2.0064244   0.68319456   421013 
 1581000   0.61512223   -2.0055974   -2.0055974   -1.3229731  0.046102303   -2.0055974   0.68262433   421013 
 1582000   0.61606326    -2.006594    -2.006594   -1.3229254  0.047795841    -2.006594   0.68366862   421013 
 1583000   0.61379435   -2.0052716   -2.0052716   -1.3241209  0.044966722   -2.0052716   0.68115073   421013 
 1584000   0.61523373   -2.0068643   -2.0068643   -1.3241162  0.039280686   -2.0068643   0.68274807   421013 
 1585000   0.61605091   -2.0074149   -2.0074149     -1.32376  0.042749701   -2.0074149   0.68365493   421013 
 1586000   0.61557892   -2.0071409   -2.0071409   -1.3240098  0.043875144   -2.0071409   0.68313114   421013 
 1587000   0.61560217   -2.0072023   -2.0072023   -1.3240454  0.050627375   -2.0072023   0.68315694   421013 
 1588000   0.61535234   -2.0073777   -2.0073777    -1.324498  0.048689943   -2.0073777   0.68287969   421013 
 1589000   0.61625191   -2.0082375   -2.0082375   -1.3243595  0.046964664   -2.0082375   0.68387799   421013 
 1590000   0.61660416    -2.008767    -2.008767   -1.3244981  0.041666353    -2.008767   0.68426889   421013 
 1591000   0.61536547    -2.007822    -2.007822   -1.3249277  0.042667728    -2.007822   0.68289427   421013 
 1592000   0.61557401   -2.0075764   -2.0075764   -1.3244508  0.043533845   -2.0075764   0.68312569   421013 
 1593000    0.6157551   -2.0079454   -2.0079454   -1.3246188  0.045700102   -2.0079454   0.68332665   421013 
 1594000    0.6150689   -2.0083374   -2.0083374   -1.3257722  0.045090665   -2.0083374   0.68256515   421013 
 1595000   0.61522439   -2.0082196   -2.0082196   -1.3254819  0.043499653   -2.0082196    0.6827377   421013 
 1596000   0.61578101   -2.0086017   -2.0086017   -1.3252463   0.04166025   -2.0086017    0.6833554   421013 
 1597000   0.61526755   -2.0090662   -2.0090662   -1.3262806  0.036512413   -2.0090662    0.6827856   421013 
 1598000   0.61517756   -2.0086913   -2.0086913   -1.3260056    0.0451113   -2.0086913   0.68268574   421013 
 1599000    0.6162505   -2.0100824   -2.0100824    -1.326206  0.036066592   -2.0100824   0.68387642   421013 
 1600000   0.61412687   -2.0081478   -2.0081478   -1.3266281  0.045102219   -2.0081478   0.68151974   421013 
 1601000   0.61513427     -2.00838     -2.00838   -1.3257423  0.035116486     -2.00838   0.68263769   421013 
 1602000   0.61596666   -2.0093283   -2.0093283   -1.3257668  0.043052734   -2.0093283   0.68356142   421013 
 1603000   0.61497844   -2.0083236   -2.0083236   -1.3258588  0.038450882   -2.0083236   0.68246476   421013 
 1604000   0.61582173   -2.0089278   -2.0089278   -1.3255272  0.032625517   -2.0089278   0.68340059   421013 
 1605000   0.61655495   -2.0096389   -2.0096389   -1.3254246  0.042754903   -2.0096389   0.68421428   421013 
 1606000   0.61693506   -2.0101489   -2.0101489   -1.3255128  0.052988305   -2.0101489   0.68463609   421013 
 1607000   0.61482728   -2.0078626   -2.0078626   -1.3255656  0.045465972   -2.0078626   0.68229702   421013 
 1608000   0.61571038    -2.008382    -2.008382   -1.3251049  0.038737812    -2.008382   0.68327702   421013 
 1609000   0.61462335   -2.0078444   -2.0078444   -1.3257737  0.042491465   -2.0078444   0.68207071   421013 
 1610000   0.61581362   -2.0085762   -2.0085762   -1.3251846  0.047429518   -2.0085762   0.68339159   421013 
 1611000   0.61551632   -2.0081261   -2.0081261   -1.3250644  0.042282905   -2.0081261   0.68306167   421013 
 1612000   0.61640072   -2.0089476   -2.0089476   -1.3249045  0.039233229   -2.0089476   0.68404311   421013 
 1613000    0.6153131   -2.0079998   -2.0079998   -1.3251637   0.04649919   -2.0079998   0.68283615   421013 
 1614000   0.61580041   -2.0081315   -2.0081315   -1.3247545  0.039657726   -2.0081315   0.68337693   421013 
 1615000   0.61666951   -2.0082553   -2.0082553   -1.3239139  0.049422362   -2.0082553   0.68434141   421013 
 1616000   0.61491025   -2.0060899   -2.0060899   -1.3237008  0.041190431   -2.0060899   0.68238909   421013 
 1617000   0.61604986    -2.007489    -2.007489   -1.3238352  0.037255616    -2.007489   0.68365376   421013 
 1618000   0.61597261   -2.0079923   -2.0079923   -1.3244243  0.043234059   -2.0079923   0.68356803   421013 
 1619000   0.61479384   -2.0070594   -2.0070594   -1.3247995  0.037260629   -2.0070594   0.68225991   421013 
 1620000   0.61528005   -2.0066491   -2.0066491   -1.3238496  0.038158478   -2.0066491   0.68279948   421013 
 1621000   0.61515518   -2.0064206   -2.0064206   -1.3237597  0.041548744   -2.0064206   0.68266089   421013 
 1622000   0.61529221   -2.0063971   -2.0063971   -1.3235842  0.043553359   -2.0063971   0.68281296   421013 
 1623000    0.6154686   -2.0070886   -2.0070886   -1.3240799  0.046589738   -2.0070886   0.68300871   421013 
 1624000    0.6152385   -2.0078067   -2.0078067   -1.3250533  0.040249143   -2.0078067   0.68275336   421013 
 1625000   0.61517259    -2.007664    -2.007664   -1.3249837  0.043985785    -2.007664   0.68268022   421013 
 1626000   0.61504854    -2.006522    -2.006522   -1.3239794   0.04633263    -2.006522   0.68254256   421013 
 1627000   0.61628652   -2.0085022   -2.0085022   -1.3245858  0.036836896   -2.0085022   0.68391639   421013 
 1628000   0.61577982   -2.0081525   -2.0081525   -1.3247984  0.046078738   -2.0081525   0.68335408   421013 
 1629000    0.6155298    -2.008342    -2.008342   -1.3252653  0.048739209    -2.008342   0.68307662   421013 
 1630000   0.61624805   -2.0093212   -2.0093212   -1.3254475  0.044993428   -2.0093212   0.68387369   421013 
 1631000   0.61681613   -2.0107177   -2.0107177   -1.3262135  0.045836442   -2.0107177   0.68450412   421013 
 1632000   0.61551708   -2.0095856   -2.0095856   -1.3265231  0.037255099   -2.0095856   0.68306251   421013 
 1633000   0.61636051   -2.0107315   -2.0107315    -1.326733  0.045430991   -2.0107315    0.6839985   421013 
 1634000    0.6148773   -2.0089192   -2.0089192   -1.3265666  0.040319779   -2.0089192   0.68235252   421013 
 1635000   0.61522966   -2.0104643   -2.0104643   -1.3277207  0.042156085   -2.0104643   0.68274355   421013 
 1636000   0.61449275   -2.0102693   -2.0102693   -1.3283435  0.047801257   -2.0102693   0.68192577   421013 
 1637000   0.61397566   -2.0096344   -2.0096344   -1.3282825  0.050341507   -2.0096344   0.68135194   421013 
 1638000   0.61414394   -2.0100148   -2.0100148   -1.3284761   0.04094198   -2.0100148   0.68153868   421013 
 1639000   0.61334498   -2.0089941   -2.0089941    -1.328342  0.040902603   -2.0089941   0.68065205   421013 
 1640000   0.61450113   -2.0102173   -2.0102173   -1.3282823  0.047018321   -2.0102173   0.68193508   421013 
 1641000   0.61376651   -2.0096799   -2.0096799   -1.3285601  0.040759004   -2.0096799   0.68111984   421013 
 1642000   0.61555624    -2.011334    -2.011334    -1.328228  0.035856492    -2.011334   0.68310597   421013 
 1643000   0.61439369   -2.0099762   -2.0099762   -1.3281603  0.035291616   -2.0099762   0.68181584   421013 
 1644000   0.61373371   -2.0091676   -2.0091676   -1.3280842  0.050173415   -2.0091676   0.68108343   421013 
 1645000    0.6136346   -2.0087766   -2.0087766   -1.3278031  0.037079329   -2.0087766   0.68097345   421013 
 1646000   0.61395789   -2.0092343   -2.0092343   -1.3279021  0.039929893   -2.0092343   0.68133222   421013 
 1647000   0.61509104   -2.0107641   -2.0107641   -1.3281744  0.041401091   -2.0107641   0.68258972   421013 
 1648000   0.61541224   -2.0111827   -2.0111827   -1.3282365  0.039989564   -2.0111827   0.68294616   421013 
 1649000   0.61520875    -2.010969    -2.010969   -1.3282487  0.046571746    -2.010969   0.68272035   421013 
 1650000    0.6141818   -2.0098352   -2.0098352   -1.3282545  0.044875552   -2.0098352    0.6815807   421013 
 1651000   0.61511861   -2.0115839   -2.0115839   -1.3289636  0.049220745   -2.0115839   0.68262031   421013 
 1652000   0.61525564   -2.0122102   -2.0122102   -1.3294378  0.046112456   -2.0122102   0.68277238   421013 
 1653000   0.61562231   -2.0124126   -2.0124126   -1.3292333  0.042789047   -2.0124126   0.68317929   421013 
 1654000   0.61460842   -2.0110919   -2.0110919   -1.3290378  0.048193337   -2.0110919   0.68205414   421013 
 1655000   0.61627265   -2.0129546   -2.0129546   -1.3290537  0.040249318   -2.0129546   0.68390099   421013 
 1656000   0.61725278   -2.0139584   -2.0139584   -1.3289697  0.042507994   -2.0139584   0.68498869   421013 
 1657000   0.61701824   -2.0128824   -2.0128824    -1.328154   0.04827235   -2.0128824    0.6847284   421013 
 1658000   0.61713043   -2.0128887   -2.0128887   -1.3280358  0.052259932   -2.0128887    0.6848529   421013 
 1659000   0.61677139    -2.012723    -2.012723   -1.3282686  0.047640561    -2.012723   0.68445447   421013 
 1660000   0.61678256   -2.0130799   -2.0130799   -1.3286131  0.047205687   -2.0130799   0.68446686   421013 
 1661000   0.61554304   -2.0115702   -2.0115702   -1.3284788  0.049099495   -2.0115702   0.68309132   421013 
 1662000     0.614246   -2.0103903   -2.0103903   -1.3287384  0.038445223   -2.0103903   0.68165194   421013 
 1663000   0.61511506   -2.0106811   -2.0106811   -1.3280647  0.045017685   -2.0106811   0.68261637   421013 
 1664000   0.61568216   -2.0111282   -2.0111282   -1.3278825  0.042754466   -2.0111282   0.68324571   421013 
 1665000   0.61563652    -2.010673    -2.010673    -1.327478  0.040228819    -2.010673   0.68319506   421013 
 1666000   0.61468309    -2.009755    -2.009755    -1.327618  0.041303922    -2.009755     0.682137   421013 
 1667000   0.61381829   -2.0086193   -2.0086193    -1.327442  0.047776708   -2.0086193    0.6811773   421013 
 1668000   0.61445911   -2.0093708   -2.0093708   -1.3274823  0.046138899   -2.0093708   0.68188844   421013 
 1669000   0.61559572   -2.0101306   -2.0101306   -1.3269809  0.040329707   -2.0101306   0.68314978   421013 
 1670000   0.61516196   -2.0098089   -2.0098089   -1.3271405  0.034751005   -2.0098089   0.68266842   421013 
 1671000   0.61561449   -2.0098474   -2.0098474   -1.3266768   0.03962787   -2.0098474   0.68317061   421013 
 1672000   0.61318471   -2.0076924   -2.0076924   -1.3272182  0.036103574   -2.0076924   0.68047419   421013 
 1673000   0.61442518   -2.0086661   -2.0086661   -1.3268153  0.041634644   -2.0086661   0.68185079   421013 
 1674000   0.61370921   -2.0082172   -2.0082172    -1.327161  0.039124464   -2.0082172   0.68105625   421013 
 1675000   0.61459616   -2.0090524   -2.0090524   -1.3270119  0.041540033   -2.0090524   0.68204054   421013 
 1676000   0.61653461   -2.0113501   -2.0113501   -1.3271584  0.046548249   -2.0113501    0.6841917   421013 
 1677000   0.61508875   -2.0102688   -2.0102688   -1.3276816  0.041019675   -2.0102688   0.68258718   421013 
 1678000   0.61493034     -2.00992     -2.00992   -1.3275086  0.047805852     -2.00992   0.68241139   421013 
 1679000   0.61563234   -2.0106471   -2.0106471   -1.3274566  0.049256523   -2.0106471   0.68319042   421013 
 1680000   0.61659197   -2.0108865   -2.0108865   -1.3266311  0.045979943   -2.0108865   0.68425536   421013 
 1681000   0.61697283   -2.0112899   -2.0112899   -1.3266119  0.043846502   -2.0112899   0.68467801   421013 
 1682000   0.61468995   -2.0100015   -2.0100015   -1.3278569  0.048580718   -2.0100015   0.68214462   421013 
 1683000   0.61457802   -2.0109705   -2.0109705   -1.3289501  0.036741511   -2.0109705    0.6820204   421013 
 1684000   0.61494206    -2.011234    -2.011234   -1.3288096  0.035694506    -2.011234   0.68242439   421013 
 1685000   0.61422056   -2.0107623   -2.0107623   -1.3291385  0.038509589   -2.0107623   0.68162372   421013 
 1686000   0.61494048   -2.0117984   -2.0117984   -1.3293758  0.047303947   -2.0117984   0.68242264   421013 
 1687000   0.61508782   -2.0119904   -2.0119904   -1.3294043  0.039662507   -2.0119904   0.68258614   421013 
 1688000    0.6148883   -2.0124502   -2.0124502   -1.3300854  0.045010847   -2.0124502   0.68236473   421013 
 1689000   0.61512442   -2.0131766   -2.0131766   -1.3305499  0.039442303   -2.0131766   0.68262676   421013 
 1690000   0.61387867   -2.0118116   -2.0118116   -1.3305673  0.043968564   -2.0118116    0.6812443   421013 
 1691000    0.6145239   -2.0124182   -2.0124182   -1.3304578  0.047939438   -2.0124182   0.68196035   421013 
 1692000   0.61427192   -2.0118507   -2.0118507     -1.33017  0.041856045   -2.0118507   0.68168071   421013 
 1693000   0.61602717   -2.0142544   -2.0142544   -1.3306258  0.046704804   -2.0142544   0.68362858   421013 
 1694000   0.61578185   -2.0137575   -2.0137575   -1.3304011  0.042134189   -2.0137575   0.68335634   421013 
 1695000   0.61488969   -2.0129476   -2.0129476   -1.3305813  0.038822387   -2.0129476   0.68236628   421013 
 1696000   0.61529818   -2.0132759   -2.0132759   -1.3304563  0.044739856   -2.0132759   0.68281959   421013 
 1697000   0.61560902   -2.0132244   -2.0132244   -1.3300599  0.048657376   -2.0132244   0.68316454   421013 
 1698000   0.61471898   -2.0132024   -2.0132024   -1.3310256  0.046137588   -2.0132024   0.68217683   421013 
 1699000   0.61467855   -2.0131337   -2.0131337   -1.3310017  0.049659973   -2.0131337   0.68213197   421013 
 1700000   0.61637953   -2.0153318   -2.0153318   -1.3313122  0.042664566   -2.0153318    0.6840196   421013 
 1701000   0.61611005   -2.0141521   -2.0141521   -1.3304315  0.044143084   -2.0141521   0.68372055   421013 
 1702000   0.61593243   -2.0136094   -2.0136094   -1.3300859  0.044406034   -2.0136094   0.68352344   421013 
 1703000   0.61633398   -2.0143282   -2.0143282   -1.3303591  0.037987071   -2.0143282   0.68396906   421013 
 1704000   0.61480097   -2.0132724   -2.0132724   -1.3310046  0.039000366   -2.0132724   0.68226782   421013 
 1705000   0.61369007   -2.0116892   -2.0116892   -1.3306542  0.037468918   -2.0116892   0.68103501   421013 
 1706000   0.61426803   -2.0127147   -2.0127147   -1.3310383  0.033836672   -2.0127147   0.68167639   421013 
 1707000   0.61448978   -2.0129054   -2.0129054   -1.3309829  0.039624765   -2.0129054   0.68192248   421013 
 1708000   0.61569882   -2.0141496   -2.0141496   -1.3308854  0.038397142   -2.0141496   0.68326419   421013 
 1709000   0.61422509    -2.012501    -2.012501   -1.3308723   0.04316034    -2.012501   0.68162874   421013 
 1710000   0.61452572   -2.0130938   -2.0130938   -1.3311314  0.033094576   -2.0130938   0.68196236   421013 
 1711000   0.61501915    -2.013512    -2.013512   -1.3310021  0.041319057    -2.013512   0.68250994   421013 
 1712000   0.61449484   -2.0133386   -2.0133386   -1.3314105  0.043006086   -2.0133386    0.6819281   421013 
 1713000    0.6134482   -2.0120635   -2.0120635   -1.3312969  0.049068831   -2.0120635    0.6807666   421013 
 1714000   0.61429614   -2.0129869   -2.0129869   -1.3312793  0.041481396   -2.0129869   0.68170759   421013 
 1715000   0.61386873   -2.0124389   -2.0124389   -1.3312057  0.041414192   -2.0124389   0.68123327   421013 
 1716000   0.61466998   -2.0144491   -2.0144491   -1.3323267  0.038180427   -2.0144491   0.68212245   421013 
 1717000   0.61544925   -2.0149083   -2.0149083    -1.331921  0.043544766   -2.0149083   0.68298724   421013 
 1718000   0.61469689   -2.0144472   -2.0144472   -1.3322949  0.041164856   -2.0144472   0.68215232   421013 
 1719000   0.61572639   -2.0154978   -2.0154978    -1.332203   0.04871662   -2.0154978   0.68329479   421013 
 1720000   0.61614712    -2.015062    -2.015062   -1.3313003  0.044063371    -2.015062   0.68376169   421013 
 1721000   0.61465895   -2.0140878   -2.0140878   -1.3319776  0.041662691   -2.0140878   0.68211021   421013 
 1722000   0.61540981    -2.014713    -2.014713   -1.3317695  0.047798364    -2.014713   0.68294348   421013 
 1723000   0.61456483   -2.0144088   -2.0144088   -1.3324031  0.046682646   -2.0144088   0.68200576   421013 
 1724000   0.61673536   -2.0160316   -2.0160316   -1.3316171  0.034486859   -2.0160316   0.68441448   421013 
 1725000   0.61582854   -2.0153794   -2.0153794   -1.3319713  0.043297573   -2.0153794   0.68340815   421013 
 1726000   0.61517475   -2.0146998   -2.0146998   -1.3320172   0.03726606   -2.0146998   0.68268261   421013 
 1727000    0.6153318   -2.0142998   -2.0142998   -1.3314429  0.042950453   -2.0142998    0.6828569   421013 
 1728000   0.61490641   -2.0140445   -2.0140445   -1.3316597  0.039743874   -2.0140445   0.68238483   421013 
 1729000   0.61555703   -2.0148692   -2.0148692   -1.3317624  0.039535327   -2.0148692   0.68310685   421013 
 1730000   0.61473606   -2.0135327   -2.0135327   -1.3313369  0.038562156   -2.0135327   0.68219578   421013 
 1731000   0.61416343   -2.0134411   -2.0134411   -1.3318808  0.038765772   -2.0134411   0.68156032   421013 
 1732000   0.61453403   -2.0125389   -2.0125389   -1.3305673  0.043506785   -2.0125389   0.68197159   421013 
 1733000   0.61483038   -2.0124311   -2.0124311   -1.3301306  0.037854884   -2.0124311   0.68230046   421013 
 1734000   0.61594497   -2.0135414   -2.0135414   -1.3300041  0.042828646   -2.0135414   0.68353735   421013 
 1735000   0.61473701   -2.0128552   -2.0128552   -1.3306583  0.037110789   -2.0128552   0.68219683   421013 
 1736000   0.61465611   -2.0127871   -2.0127871     -1.33068  0.040103762   -2.0127871   0.68210707   421013 
 1737000    0.6150731   -2.0142242   -2.0142242   -1.3316544  0.040017428   -2.0142242   0.68256981   421013 
 1738000    0.6149202   -2.0141691   -2.0141691   -1.3317689  0.042684935   -2.0141691   0.68240013   421013 
 1739000   0.61494035    -2.014167    -2.014167   -1.3317445  0.030470414    -2.014167   0.68242249   421013 
 1740000   0.61362445   -2.0127901   -2.0127901   -1.3318279  0.042005432   -2.0127901   0.68096219   421013 
 1741000   0.61489079   -2.0139681   -2.0139681   -1.3316006  0.040271887   -2.0139681   0.68236749   421013 
 1742000   0.61323416   -2.0122244   -2.0122244   -1.3316954  0.039790008   -2.0122244   0.68052907   421013 
 1743000   0.61564006   -2.0145861   -2.0145861   -1.3313871   0.04236406   -2.0145861   0.68319898   421013 
 1744000   0.61702356   -2.0164034   -2.0164034   -1.3316691  0.044956758   -2.0164034   0.68473431   421013 
 1745000   0.61614307   -2.0154683   -2.0154683   -1.3317111  0.034800801   -2.0154683   0.68375719   421013 
 1746000   0.61601773   -2.0156388   -2.0156388   -1.3320207  0.042445937   -2.0156388    0.6836181   421013 
 1747000   0.61539008   -2.0150587   -2.0150587   -1.3321371  0.042194562   -2.0150587   0.68292157   421013 
 1748000   0.61404098   -2.0146455   -2.0146455   -1.3332211  0.044020594   -2.0146455   0.68142442   421013 
 1749000   0.61380264   -2.0146514   -2.0146514   -1.3334915  0.043237506   -2.0146514   0.68115993   421013 
 1750000   0.61408294   -2.0151509   -2.0151509   -1.3336799  0.047255812   -2.0151509   0.68147099   421013 
 1751000    0.6136858   -2.0145126   -2.0145126   -1.3334823  0.037988659   -2.0145126   0.68103028   421013 
 1752000   0.61421069   -2.0148204   -2.0148204   -1.3332076  0.043442841   -2.0148204   0.68161276   421013 
 1753000   0.61522825   -2.0154537   -2.0154537   -1.3327117  0.042294259   -2.0154537   0.68274199   421013 
 1754000    0.6152438   -2.0150339   -2.0150339   -1.3322747  0.047132024   -2.0150339   0.68275924   421013 
 1755000   0.61526842   -2.0160346   -2.0160346   -1.3332481  0.035556378   -2.0160346   0.68278656   421013 
 1756000   0.61512913   -2.0150506   -2.0150506   -1.3324187  0.043725499   -2.0150506   0.68263199   421013 
 1757000   0.61622581   -2.0164631   -2.0164631    -1.332614  0.040243116   -2.0164631   0.68384902   421013 
 1758000   0.61555183   -2.0159918   -2.0159918   -1.3328908  0.042828243   -2.0159918   0.68310107   421013 
 1759000   0.61402454   -2.0142443   -2.0142443   -1.3328381   0.03656301   -2.0142443   0.68140619   421013 
 1760000   0.61562611   -2.0164776   -2.0164776   -1.3332941  0.040481462   -2.0164776   0.68318351   421013 
 1761000   0.61521136   -2.0156291   -2.0156291   -1.3329059  0.044718751   -2.0156291   0.68272324   421013 
 1762000   0.61465025   -2.0162339   -2.0162339   -1.3341333  0.038872235   -2.0162339   0.68210055   421013 
 1763000   0.61552772    -2.017194    -2.017194   -1.3341197  0.033246682    -2.017194   0.68307432   421013 
 1764000   0.61529354   -2.0165383   -2.0165383   -1.3337239  0.040959772   -2.0165383   0.68281444   421013 
 1765000   0.61307889   -2.0149612   -2.0149612   -1.3346044  0.045256869   -2.0149612   0.68035675   421013 
 1766000   0.61402929   -2.0156048   -2.0156048   -1.3341934  0.046257024   -2.0156048   0.68141146   421013 
 1767000   0.61466231   -2.0160778   -2.0160778   -1.3339639  0.043843995   -2.0160778   0.68211394   421013 
 1768000   0.61496679   -2.0162257   -2.0162257   -1.3337739  0.042411248   -2.0162257   0.68245184   421013 
 1769000   0.61584614   -2.0168876   -2.0168876   -1.3334599  0.037656904   -2.0168876   0.68342768   421013 
 1770000   0.61466674   -2.0160747   -2.0160747   -1.3339558  0.039410229   -2.0160747   0.68211885   421013 
 1771000   0.61418201   -2.0154959   -2.0154959    -1.333915  0.049966909   -2.0154959   0.68158094   421013 
 1772000   0.61517539   -2.0175669   -2.0175669   -1.3348835  0.037677661   -2.0175669   0.68268333   421013 
 1773000   0.61368634   -2.0158253   -2.0158253   -1.3347945  0.040558399   -2.0158253   0.68103087   421013 
 1774000   0.61391614   -2.0167467   -2.0167467   -1.3354608  0.045871089   -2.0167467   0.68128589   421013 
 1775000   0.61408861   -2.0163658   -2.0163658   -1.3348886   0.04171846   -2.0163658   0.68147728   421013 
 1776000   0.61580657   -2.0181328   -2.0181328   -1.3347491  0.038807086   -2.0181328   0.68338377   421013 
 1777000   0.61514833   -2.0173393   -2.0173393    -1.334686  0.052893438   -2.0173393    0.6826533   421013 
 1778000   0.61431259   -2.0167001   -2.0167001   -1.3349743  0.038668936   -2.0167001   0.68172585   421013 
 1779000   0.61564673   -2.0178916   -2.0178916   -1.3346852  0.040263688   -2.0178916   0.68320639   421013 
 1780000   0.61469882   -2.0170477   -2.0170477   -1.3348932  0.038404561   -2.0170477   0.68215446   421013 
 1781000   0.61428657   -2.0156389   -2.0156389    -1.333942  0.043150188   -2.0156389   0.68169697   421013 
 1782000   0.61426155   -2.0156333   -2.0156333   -1.3339641  0.044853041   -2.0156333   0.68166921   421013 
 1783000   0.61458201   -2.0163354   -2.0163354   -1.3343106  0.046759596   -2.0163354   0.68202483   421013 
 1784000   0.61472664   -2.0165882   -2.0165882   -1.3344029  0.040165547   -2.0165882   0.68218533   421013 
 1785000   0.61634542   -2.0185246   -2.0185246   -1.3345428  0.040432597   -2.0185246   0.68398175   421013 
 1786000   0.61372055   -2.0159522   -2.0159522   -1.3348833   0.03686227   -2.0159522   0.68106883   421013 
 1787000   0.61370427   -2.0152545   -2.0152545   -1.3342037  0.041317193   -2.0152545   0.68105077   421013 
 1788000   0.61472828   -2.0162946   -2.0162946   -1.3341075  0.038611011   -2.0162946   0.68218715   421013 
 1789000   0.61403537   -2.0162258   -2.0162258   -1.3348076  0.036852131   -2.0162258    0.6814182   421013 
 1790000    0.6142782   -2.0155133   -2.0155133   -1.3338256  0.038660374   -2.0155133   0.68168768   421013 
 1791000   0.61356444   -2.0147888   -2.0147888   -1.3338932  0.038180449   -2.0147888   0.68089559   421013 
 1792000   0.61510734   -2.0155334   -2.0155334   -1.3329256  0.046369858   -2.0155334   0.68260781   421013 
 1793000   0.61477745   -2.0160428   -2.0160428   -1.3338011  0.045952219   -2.0160428   0.68224172   421013 
 1794000   0.61423918   -2.0155169   -2.0155169   -1.3338726  0.037081366   -2.0155169   0.68164437   421013 
 1795000   0.61540209   -2.0166771   -2.0166771   -1.3337422  0.039443062   -2.0166771   0.68293491   421013 
 1796000   0.61495966    -2.015839    -2.015839   -1.3333951  0.045743864    -2.015839   0.68244392   421013 
 1797000   0.61533473   -2.0162224   -2.0162224   -1.3333622  0.046836049   -2.0162224   0.68286015   421013 
 1798000   0.61518156   -2.0163152   -2.0163152    -1.333625  0.049596738   -2.0163152   0.68269018   421013 
 1799000   0.61444649   -2.0151544   -2.0151544     -1.33328  0.049852307   -2.0151544   0.68187444   421013 
 1800000   0.61214064   -2.0125461   -2.0125461   -1.3332305  0.044989596   -2.0125461   0.67931555   421013 
 1801000   0.61413495   -2.0144189   -2.0144189   -1.3328902  0.046672954   -2.0144189    0.6815287   421013 
 1802000   0.61354434   -2.0139878   -2.0139878   -1.3331145  0.042470034   -2.0139878   0.68087329   421013 
 1803000   0.61404151   -2.0149257   -2.0149257   -1.3335007  0.037605946   -2.0149257   0.68142501   421013 
 1804000   0.61456093     -2.01634     -2.01634   -1.3343386  0.041377282     -2.01634   0.68200144   421013 
 1805000   0.61483727   -2.0171369   -2.0171369   -1.3348288  0.033888153   -2.0171369    0.6823081   421013 
 1806000   0.61429405   -2.0164868   -2.0164868   -1.3347815  0.040158508   -2.0164868   0.68170527   421013 
 1807000   0.61444351   -2.0160602   -2.0160602   -1.3341891  0.043219428   -2.0160602   0.68187113   421013 
 1808000   0.61377286   -2.0156725   -2.0156725   -1.3345456  0.047995243   -2.0156725   0.68112689   421013 
 1809000   0.61523979   -2.0178921   -2.0178921   -1.3351374  0.035341317   -2.0178921   0.68275479   421013 
 1810000   0.61383031   -2.0168476   -2.0168476    -1.335657  0.043191396   -2.0168476   0.68119064   421013 
 1811000   0.61564048   -2.0186339   -2.0186339   -1.3354345  0.039478976   -2.0186339   0.68319945   421013 
 1812000   0.61457434   -2.0171955   -2.0171955   -1.3351792  0.044055609   -2.0171955   0.68201632   421013 
 1813000   0.61477592   -2.0171621   -2.0171621   -1.3349221  0.041094654   -2.0171621   0.68224001   421013 
 1814000   0.61418241   -2.0167775   -2.0167775   -1.3351961  0.042190528   -2.0167775   0.68158138   421013 
 1815000    0.6167059   -2.0195672   -2.0195672   -1.3351854  0.038260515   -2.0195672   0.68438179   421013 
 1816000   0.61457619    -2.016904    -2.016904   -1.3348856  0.045293106    -2.016904   0.68201837   421013 
 1817000   0.61616571   -2.0187919   -2.0187919   -1.3350096  0.043262798   -2.0187919   0.68378232   421013 
 1818000    0.6153633   -2.0178676   -2.0178676   -1.3349757  0.044037149   -2.0178676   0.68289186   421013 
 1819000   0.61519741   -2.0178793   -2.0178793   -1.3351716  0.040046627   -2.0178793   0.68270776   421013 
 1820000   0.61506863   -2.0176649   -2.0176649   -1.3351001  0.046603778   -2.0176649   0.68256485   421013 
 1821000   0.61464817   -2.0166754   -2.0166754   -1.3345772  0.046125725   -2.0166754   0.68209825   421013 
 1822000    0.6168692   -2.0179713   -2.0179713   -1.3334083  0.040225655   -2.0179713   0.68456301   421013 
 1823000   0.61513122   -2.0166974   -2.0166974   -1.3340631  0.048762612   -2.0166974   0.68263431   421013 
 1824000   0.61523889    -2.017378    -2.017378   -1.3346242  0.043683954    -2.017378    0.6827538   421013 
 1825000   0.61497266   -2.0169667   -2.0169667   -1.3345083  0.036402087   -2.0169667   0.68245835   421013 
 1826000   0.61504486   -2.0175969   -2.0175969   -1.3350584  0.039867107   -2.0175969   0.68253848   421013 
 1827000   0.61376674   -2.0169913   -2.0169913   -1.3358712  0.039533922   -2.0169913   0.68112009   421013 
 1828000    0.6141896   -2.0167932   -2.0167932   -1.3352038  0.036177268   -2.0167932   0.68158936   421013 
 1829000   0.61338291   -2.0156794   -2.0156794   -1.3349853   0.04393633   -2.0156794   0.68069414   421013 
 1830000    0.6143353   -2.0172482   -2.0172482   -1.3354971  0.036510387   -2.0172482   0.68175105   421013 
 1831000    0.6152232   -2.0184623   -2.0184623   -1.3357259  0.041640564   -2.0184623   0.68273638   421013 
 1832000   0.61493602   -2.0170416   -2.0170416   -1.3346239  0.042494684   -2.0170416   0.68241768   421013 
 1833000   0.61475903   -2.0183685   -2.0183685   -1.3361473  0.044992224   -2.0183685   0.68222128   421013 
 1834000   0.61425948   -2.0183456   -2.0183456   -1.3366787   0.04601534   -2.0183456   0.68166691   421013 
 1835000   0.61333346   -2.0170263   -2.0170263    -1.336387  0.044051797   -2.0170263   0.68063927   421013 
 1836000   0.61452087   -2.0180616   -2.0180616   -1.3361046  0.044873586   -2.0180616   0.68195698   421013 
 1837000   0.61332571   -2.0178941   -2.0178941   -1.3372635  0.046134703   -2.0178941   0.68063067   421013 
 1838000   0.61472582   -2.0189685   -2.0189685   -1.3367841  0.039868229   -2.0189685   0.68218442   421013 
 1839000   0.61521896   -2.0202896   -2.0202896    -1.337558  0.037730888   -2.0202896   0.68273168   421013 
 1840000   0.61282039   -2.0173979   -2.0173979    -1.337328  0.047938555   -2.0173979    0.6800699   421013 
 1841000   0.61362728    -2.019058    -2.019058   -1.3380926  0.042368739    -2.019058   0.68096533   421013 
 1842000   0.61493718   -2.0198521   -2.0198521   -1.3374332  0.044861343   -2.0198521   0.68241897   421013 
 1843000   0.61473531   -2.0201447   -2.0201447   -1.3379497  0.046050644   -2.0201447   0.68219496   421013 
 1844000   0.61496308   -2.0199676   -2.0199676   -1.3375199  0.048406143   -2.0199676   0.68244772   421013 
 1845000   0.61420599   -2.0191005   -2.0191005    -1.337493  0.041338014   -2.0191005   0.68160755   421013 
 1846000   0.61330704   -2.0189014   -2.0189014   -1.3382914  0.039092525   -2.0189014   0.68060994   421013 
 1847000   0.61479645   -2.0203588   -2.0203588    -1.338096  0.036403395   -2.0203588    0.6822628   421013 
 1848000   0.61453963   -2.0195652   -2.0195652   -1.3375874  0.042697855   -2.0195652    0.6819778   421013 
 1849000   0.61377975   -2.0188779   -2.0188779   -1.3377433  0.037920141   -2.0188779   0.68113453   421013 
 1850000   0.61353233   -2.0185407   -2.0185407   -1.3376808  0.038049363   -2.0185407   0.68085996   421013 
 1851000   0.61484108   -2.0203198   -2.0203198   -1.3380075  0.040038869   -2.0203198   0.68231233   421013 
 1852000    0.6132369   -2.0187808   -2.0187808   -1.3382487  0.041129086   -2.0187808   0.68053211   421013 
 1853000   0.61362731   -2.0184295   -2.0184295   -1.3374641  0.038538264   -2.0184295   0.68096537   421013 
 1854000   0.61351258   -2.0191032   -2.0191032   -1.3382651  0.043531233   -2.0191032   0.68083805   421013 
 1855000   0.61297645    -2.018241    -2.018241   -1.3379979  0.037819004    -2.018241   0.68024308   421013 
 1856000   0.61254015   -2.0181879   -2.0181879    -1.338429  0.043640983   -2.0181879    0.6797589   421013 
 1857000   0.61509884   -2.0207616   -2.0207616   -1.3381632  0.041928367   -2.0207616   0.68259838   421013 
 1858000   0.61253238   -2.0181678   -2.0181678   -1.3384175  0.037746842   -2.0181678   0.67975027   421013 
 1859000   0.61495982   -2.0206709   -2.0206709   -1.3382268  0.047110916   -2.0206709    0.6824441   421013 
 1860000   0.61340413   -2.0190752   -2.0190752   -1.3383575  0.037465276   -2.0190752   0.68071769   421013 
 1861000   0.61270127   -2.0182898   -2.0182898   -1.3383521  0.041573951   -2.0182898    0.6799377   421013 
 1862000   0.61378833   -2.0208766   -2.0208766   -1.3397325  0.047111435   -2.0208766   0.68114405   421013 
 1863000   0.61366916   -2.0203728   -2.0203728    -1.339361  0.044040791   -2.0203728   0.68101181   421013 
 1864000   0.61350347   -2.0207933   -2.0207933   -1.3399654  0.033970759   -2.0207933   0.68082794   421013 
 1865000   0.61390004   -2.0214152   -2.0214152   -1.3401472  0.037124444   -2.0214152   0.68126802   421013 
 1866000    0.6131974   -2.0202283   -2.0202283     -1.33974  0.035565077   -2.0202283   0.68048828   421013 
 1867000   0.61336675    -2.020514    -2.020514   -1.3398378  0.049672153    -2.020514   0.68067621   421013 
 1868000    0.6136781   -2.0211622   -2.0211622   -1.3401405  0.045527592   -2.0211622   0.68102172   421013 
 1869000   0.61472233   -2.0217011   -2.0217011   -1.3395205  0.040668108   -2.0217011   0.68218054   421013 
 1870000   0.61476901   -2.0223739   -2.0223739   -1.3401416  0.043313076   -2.0223739   0.68223235   421013 
 1871000   0.61374003   -2.0201878   -2.0201878   -1.3390973  0.045587641   -2.0201878   0.68109045   421013 
 1872000   0.61516883   -2.0220534   -2.0220534   -1.3393774  0.035344244   -2.0220534   0.68267604   421013 
 1873000   0.61439492   -2.0212664   -2.0212664   -1.3394492  0.040815856   -2.0212664   0.68181721   421013 
 1874000   0.61477768   -2.0208612   -2.0208612   -1.3386192  0.039558008   -2.0208612   0.68224198   421013 
 1875000   0.61433361   -2.0197669   -2.0197669   -1.3380177  0.043633208   -2.0197669   0.68174917   421013 
 1876000   0.61466409   -2.0206371   -2.0206371   -1.3385212  0.047222218   -2.0206371   0.68211591   421013 
 1877000   0.61384316   -2.0195633   -2.0195633   -1.3383584  0.049247884   -2.0195633    0.6812049   421013 
 1878000   0.61496295   -2.0209244   -2.0209244   -1.3384768  0.041802746   -2.0209244   0.68244758   421013 
 1879000   0.61342706   -2.0191491   -2.0191491   -1.3384059   0.04294903   -2.0191491   0.68074313   421013 
 1880000   0.61336623   -2.0196885   -2.0196885   -1.3390129   0.03241864   -2.0196885   0.68067563   421013 
 1881000   0.61375623   -2.0197786   -2.0197786   -1.3386702  0.037078704   -2.0197786   0.68110843   421013 
 1882000   0.61426315   -2.0199983   -2.0199983   -1.3383274  0.043188512   -2.0199983   0.68167097   421013 
 1883000   0.61334333   -2.0192433   -2.0192433   -1.3385931  0.039061999   -2.0192433   0.68065022   421013 
 1884000   0.61264978   -2.0190367   -2.0190367   -1.3391562  0.041680706   -2.0190367   0.67988056   421013 
 1885000   0.61388278   -2.0197273   -2.0197273   -1.3384784   0.04326376   -2.0197273   0.68124887   421013 
 1886000   0.61260221   -2.0189477   -2.0189477   -1.3391199  0.047270065   -2.0189477   0.67982777   421013 
 1887000   0.61425911   -2.0208685   -2.0208685    -1.339202  0.039005417   -2.0208685   0.68166649   421013 
 1888000   0.61334472   -2.0197481   -2.0197481   -1.3390964  0.041099043   -2.0197481   0.68065176   421013 
 1889000   0.61476958   -2.0219436   -2.0219436   -1.3397106   0.04321266   -2.0219436   0.68223298   421013 
 1890000   0.61424745   -2.0216024   -2.0216024   -1.3399488  0.033109641   -2.0216024   0.68165356   421013 
 1891000   0.61376436   -2.0212858   -2.0212858   -1.3401683  0.041062729   -2.0212858   0.68111745   421013 
 1892000    0.6135513   -2.0210702   -2.0210702   -1.3401892  0.042403762   -2.0210702   0.68088101   421013 
 1893000   0.61364592   -2.0216918   -2.0216918   -1.3407058  0.038034435   -2.0216918   0.68098602   421013 
 1894000   0.61406436   -2.0221981   -2.0221981   -1.3407477  0.047965203   -2.0221981   0.68145037   421013 
 1895000   0.61240781   -2.0212147   -2.0212147   -1.3416027  0.051332366   -2.0212147   0.67961203   421013 
 1896000   0.61368213   -2.0229477   -2.0229477   -1.3419215  0.042933336   -2.0229477    0.6810262   421013 
 1897000   0.61461845   -2.0237415   -2.0237415   -1.3416763  0.034188128   -2.0237415   0.68206527   421013 
 1898000   0.61421202   -2.0225759   -2.0225759   -1.3409616  0.034577104   -2.0225759   0.68161423   421013 
 1899000   0.61357541    -2.022524    -2.022524   -1.3416162  0.041559492    -2.022524   0.68090777   421013 
 1900000   0.61355685    -2.022709    -2.022709   -1.3418218   0.05161806    -2.022709   0.68088717   421013 
 1901000    0.6148063   -2.0245152   -2.0245152   -1.3422415  0.045496668   -2.0245152   0.68227373   421013 
 1902000   0.61346426   -2.0232782   -2.0232782   -1.3424937  0.050853915   -2.0232782   0.68078442   421013 
 1903000    0.6135179   -2.0225937   -2.0225937   -1.3417497  0.045169416   -2.0225937   0.68084395   421013 
 1904000   0.61579026   -2.0247747   -2.0247747    -1.341409  0.041500944   -2.0247747   0.68336567   421013 
 1905000   0.61334001   -2.0226229   -2.0226229   -1.3419763   0.04253486   -2.0226229   0.68064654   421013 
 1906000   0.61376648   -2.0227921   -2.0227921   -1.3416722  0.040011401   -2.0227921   0.68111981   421013 
 1907000   0.61424568   -2.0231242   -2.0231242   -1.3414726  0.046685232   -2.0231242   0.68165159   421013 
 1908000   0.61252804     -2.02162     -2.02162   -1.3418745  0.042496475     -2.02162   0.67974547   421013 
 1909000    0.6136206   -2.0225787   -2.0225787   -1.3416208  0.043810118   -2.0225787   0.68095791   421013 
 1910000   0.61349655   -2.0223596   -2.0223596   -1.3415394  0.046794849   -2.0223596   0.68082025   421013 
 1911000   0.61381558   -2.0229417   -2.0229417   -1.3417674   0.03979684   -2.0229417   0.68117429   421013 
 1912000   0.61362145   -2.0222109   -2.0222109   -1.3412521  0.039511026   -2.0222109   0.68095886   421013 
 1913000    0.6133297   -2.0224958   -2.0224958   -1.3418607  0.038252813   -2.0224958   0.68063509   421013 
 1914000   0.61299693   -2.0217921   -2.0217921   -1.3415263  0.045665993   -2.0217921    0.6802658   421013 
 1915000   0.61406345   -2.0225298   -2.0225298   -1.3410804  0.036265437   -2.0225298   0.68144936   421013 
 1916000   0.61462483   -2.0220277   -2.0220277   -1.3399553  0.044105853   -2.0220277   0.68207235   421013 
 1917000   0.61465233    -2.022326    -2.022326   -1.3402231  0.040002301    -2.022326   0.68210287   421013 
 1918000    0.6129561   -2.0206221   -2.0206221   -1.3404016  0.041359124   -2.0206221    0.6802205   421013 
 1919000   0.61493252   -2.0220425   -2.0220425   -1.3396287  0.048270844   -2.0220425    0.6824138   421013 
 1920000   0.61421508   -2.0214765   -2.0214765   -1.3398589   0.04286599   -2.0214765   0.68161763   421013 
 1921000   0.61450491   -2.0214347   -2.0214347   -1.3394954  0.043041926   -2.0214347   0.68193927   421013 
 1922000      0.61542   -2.0228009   -2.0228009   -1.3398461  0.037304383   -2.0228009   0.68295478   421013 
 1923000   0.61401536   -2.0215277   -2.0215277   -1.3401317  0.045097925   -2.0215277     0.681396   421013 
 1924000   0.61437004   -2.0217571   -2.0217571   -1.3399675  0.036663637   -2.0217571    0.6817896   421013 
 1925000   0.61595153   -2.0233978   -2.0233978   -1.3398532  0.041131797   -2.0233978   0.68354464   421013 
 1926000   0.61587562    -2.023417    -2.023417   -1.3399566  0.040061621    -2.023417    0.6834604   421013 
 1927000   0.61450238    -2.023434    -2.023434   -1.3414976  0.035109978    -2.023434   0.68193646   421013 
 1928000   0.61430677   -2.0229901   -2.0229901   -1.3412707  0.041125151   -2.0229901   0.68171938   421013 
 1929000   0.61348585   -2.0227113   -2.0227113   -1.3419029  0.037247289   -2.0227113   0.68080838   421013 
 1930000    0.6129639   -2.0225682   -2.0225682    -1.342339  0.043670755   -2.0225682   0.68022915   421013 
 1931000    0.6127312   -2.0228424   -2.0228424   -1.3428715  0.044159705   -2.0228424   0.67997091   421013 
 1932000   0.61227507   -2.0219433   -2.0219433   -1.3424786  0.040201182   -2.0219433   0.67946474   421013 
 1933000   0.61436282    -2.023756    -2.023756   -1.3419744  0.041600159    -2.023756   0.68178158   421013 
 1934000    0.6140181   -2.0238438   -2.0238438   -1.3424447  0.045825829   -2.0238438   0.68139904   421013 
 1935000   0.61459029   -2.0236382   -2.0236382   -1.3416042  0.040455586   -2.0236382   0.68203401   421013 
 1936000   0.61404287   -2.0232376   -2.0232376   -1.3418111  0.040273463   -2.0232376   0.68142653   421013 
 1937000   0.61467471   -2.0235968   -2.0235968   -1.3414691  0.039592924   -2.0235968    0.6821277   421013 
 1938000   0.61406964   -2.0237494   -2.0237494   -1.3422931   0.04095002   -2.0237494   0.68145623   421013 
 1939000    0.6143575   -2.0238753   -2.0238753   -1.3420996  0.045033448   -2.0238753   0.68177568   421013 
 1940000   0.61437135   -2.0241666   -2.0241666   -1.3423756  0.039143263   -2.0241666   0.68179105   421013 
 1941000   0.61447824   -2.0253331   -2.0253331   -1.3434234  0.036927742   -2.0253331   0.68190968   421013 
 1942000   0.61358568   -2.0239297   -2.0239297   -1.3430105  0.039528248   -2.0239297   0.68091916   421013 
 1943000   0.61363916    -2.024336    -2.024336   -1.3433575  0.042748448    -2.024336   0.68097851   421013 
 1944000    0.6141411   -2.0238138   -2.0238138   -1.3422783  0.050695417   -2.0238138   0.68153553   421013 
 1945000   0.61536359   -2.0244782   -2.0244782    -1.341586  0.039757976   -2.0244782   0.68289218   421013 
 1946000   0.61493649   -2.0245197   -2.0245197   -1.3421015  0.043256545   -2.0245197   0.68241821   421013 
 1947000   0.61501258   -2.0242585   -2.0242585   -1.3417559  0.047445126   -2.0242585   0.68250265   421013 
 1948000   0.61570977   -2.0251384   -2.0251384   -1.3418621   0.04115919   -2.0251384   0.68327634   421013 
 1949000   0.61421123   -2.0237628   -2.0237628   -1.3421494  0.038573737   -2.0237628   0.68161336   421013 
 1950000   0.61429387   -2.0240044   -2.0240044   -1.3422993  0.039894101   -2.0240044   0.68170507   421013 
 1951000   0.61429566   -2.0238346   -2.0238346   -1.3421275  0.042415247   -2.0238346   0.68170705   421013 
 1952000   0.61374501   -2.0230625   -2.0230625   -1.3419666  0.042084983   -2.0230625   0.68109598   421013 
 1953000   0.61408166   -2.0234351   -2.0234351   -1.3419656  0.040335578   -2.0234351   0.68146957   421013 
 1954000   0.61376206   -2.0228862   -2.0228862   -1.3417713  0.040233316   -2.0228862    0.6811149   421013 
 1955000   0.61315984   -2.0231002   -2.0231002   -1.3426536  0.038913701   -2.0231002    0.6804466   421013 
 1956000    0.6139334   -2.0241223   -2.0241223   -1.3428172  0.038861435   -2.0241223   0.68130504   421013 
 1957000   0.61289084   -2.0227841   -2.0227841    -1.342636  0.042338474   -2.0227841   0.68014807   421013 
 1958000   0.61396539   -2.0234549   -2.0234549   -1.3421144   0.04176933   -2.0234549   0.68134055   421013 
 1959000   0.61358869   -2.0234434   -2.0234434   -1.3425209  0.044308436   -2.0234434    0.6809225   421013 
 1960000   0.61342909   -2.0236192   -2.0236192   -1.3428738    0.0429327   -2.0236192   0.68074539   421013 
 1961000   0.61359572   -2.0237127   -2.0237127   -1.3427824  0.045010926   -2.0237127    0.6809303   421013 
 1962000   0.61379187   -2.0243527   -2.0243527   -1.3432047  0.034898349   -2.0243527   0.68114799   421013 
 1963000   0.61491696   -2.0255713   -2.0255713   -1.3431748  0.044587879   -2.0255713   0.68239653   421013 
 1964000   0.61460752   -2.0256761   -2.0256761    -1.343623   0.03919257   -2.0256761   0.68205314   421013 
 1965000   0.61363805   -2.0253433   -2.0253433    -1.344366  0.052243937   -2.0253433   0.68097729   421013 
 1966000   0.61352845   -2.0261646   -2.0261646    -1.345309  0.041751708   -2.0261646   0.68085565   421013 
 1967000   0.61261823   -2.0254044   -2.0254044   -1.3455589  0.046614862   -2.0254044   0.67984554   421013 
 1968000   0.61376754    -2.026226    -2.026226   -1.3451051  0.036900212    -2.026226   0.68112098   421013 
 1969000   0.61432348   -2.0264834   -2.0264834   -1.3447455  0.045634523   -2.0264834   0.68173792   421013 
 1970000   0.61410317   -2.0269517   -2.0269517   -1.3454583  0.047036444   -2.0269517   0.68149344   421013 
 1971000   0.61490798   -2.0275008   -2.0275008   -1.3451142  0.044357723   -2.0275008   0.68238657   421013 
 1972000   0.61381475   -2.0255647   -2.0255647   -1.3443913   0.04045625   -2.0255647   0.68117337   421013 
 1973000   0.61508015    -2.026983    -2.026983   -1.3444054   0.03698035    -2.026983   0.68257763   421013 
 1974000   0.61431229   -2.0263827   -2.0263827   -1.3446572  0.038560438   -2.0263827   0.68172551   421013 
 1975000   0.61429726   -2.0264986   -2.0264986   -1.3447897  0.047860928   -2.0264986   0.68170883   421013 
 1976000   0.61360214   -2.0262231   -2.0262231   -1.3452857  0.037187654   -2.0262231   0.68093743   421013 
 1977000   0.61339798   -2.0253987   -2.0253987   -1.3446878  0.045247112   -2.0253987   0.68071087   421013 
 1978000   0.61270223   -2.0251675   -2.0251675   -1.3452288  0.043591315   -2.0251675   0.67993876   421013 
 1979000   0.61248946   -2.0237706   -2.0237706    -1.344068  0.037441874   -2.0237706   0.67970264   421013 
 1980000   0.61304752   -2.0245903   -2.0245903   -1.3442684  0.032490939   -2.0245903   0.68032195   421013 
 1981000   0.61418982   -2.0255071   -2.0255071   -1.3439175  0.046516846   -2.0255071    0.6815896   421013 
 1982000   0.61253676   -2.0240242   -2.0240242   -1.3442691  0.035166856   -2.0240242   0.67975514   421013 
 1983000   0.61300374   -2.0241593   -2.0241593   -1.3438859  0.037436416   -2.0241593   0.68027336   421013 
 1984000   0.61342769   -2.0250928   -2.0250928    -1.344349   0.03915983   -2.0250928   0.68074384   421013 
 1985000    0.6132584   -2.0243108   -2.0243108   -1.3437548  0.042703245   -2.0243108   0.68055597   421013 
 1986000   0.61265349   -2.0226167   -2.0226167   -1.3427321  0.036201904   -2.0226167   0.67988468   421013 
 1987000   0.61283747   -2.0224755   -2.0224755   -1.3423867  0.045958453   -2.0224755   0.68008884   421013 
 1988000   0.61289975   -2.0220387   -2.0220387   -1.3418808   0.03548298   -2.0220387   0.68015797   421013 
 1989000     0.614236   -2.0223712   -2.0223712   -1.3407304  0.039284938   -2.0223712   0.68164085   421013 
 1990000    0.6136688   -2.0221902   -2.0221902   -1.3411788  0.048874455   -2.0221902   0.68101141   421013 
 1991000   0.61379245   -2.0230909   -2.0230909   -1.3419422  0.040858921   -2.0230909   0.68114862   421013 
 1992000    0.6128752   -2.0229624   -2.0229624   -1.3428317   0.04086979   -2.0229624   0.68013072   421013 
 1993000   0.61258908    -2.023013    -2.023013   -1.3431998  0.040290537    -2.023013    0.6798132   421013 
 1994000   0.61395931   -2.0244389   -2.0244389   -1.3431051  0.036694426   -2.0244389    0.6813338   421013 
 1995000   0.61327927   -2.0248394   -2.0248394   -1.3442603  0.043851755   -2.0248394   0.68057912   421013 
 1996000    0.6135011   -2.0260472   -2.0260472   -1.3452219   0.03088969   -2.0260472    0.6808253   421013 
 1997000   0.61387622   -2.0263056   -2.0263056    -1.345064  0.046272281   -2.0263056   0.68124159   421013 
 1998000   0.61418757   -2.0261814   -2.0261814   -1.3445943  0.043460584   -2.0261814    0.6815871   421013 
 1999000   0.61305575   -2.0260078   -2.0260078   -1.3456767  0.043473433   -2.0260078   0.68033108   421013 
 2000000   0.61384641   -2.0272934   -2.0272934   -1.3460849  0.035459806   -2.0272934    0.6812085   421013 
 2001000   0.61343815   -2.0266821   -2.0266821   -1.3459267  0.038011806   -2.0266821   0.68075545   421013 
 2002000   0.61435916    -2.027855    -2.027855   -1.3460775  0.038880012    -2.027855   0.68177752   421013 
 2003000   0.61362953   -2.0271638   -2.0271638    -1.346196  0.042392909   -2.0271638   0.68096783   421013 
 2004000   0.61271828   -2.0268459   -2.0268459   -1.3468893  0.037157715   -2.0268459   0.67995657   421013 
 2005000   0.61442974   -2.0284258   -2.0284258     -1.34657  0.041453915   -2.0284258   0.68185585   421013 
 2006000   0.61360942   -2.0279615   -2.0279615    -1.347016  0.047661108   -2.0279615   0.68094551   421013 
 2007000   0.61247348    -2.026109    -2.026109   -1.3464241  0.041328684    -2.026109   0.67968491   421013 
 2008000    0.6143182   -2.0287036   -2.0287036   -1.3469716  0.038212466   -2.0287036   0.68173207   421013 
 2009000   0.61298579   -2.0265294   -2.0265294   -1.3462759   0.04850573   -2.0265294   0.68025345   421013 
 2010000   0.61256649   -2.0258945   -2.0258945   -1.3461064  0.036381092   -2.0258945   0.67978813   421013 
 2011000   0.61418685   -2.0273256   -2.0273256   -1.3457393  0.040496082   -2.0273256    0.6815863   421013 
 2012000   0.61446725   -2.0276582   -2.0276582   -1.3457607  0.044095986   -2.0276582   0.68189748   421013 
 2013000   0.61281239   -2.0260435   -2.0260435   -1.3459825  0.039377128   -2.0260435   0.68006101   421013 
 2014000   0.61340841   -2.0271966   -2.0271966   -1.3464742  0.043156735   -2.0271966   0.68072244   421013 
 2015000   0.61257554   -2.0256386   -2.0256386   -1.3458404  0.036569004   -2.0256386   0.67979817   421013 
 2016000   0.61233628   -2.0257678   -2.0257678   -1.3462352  0.044027234   -2.0257678   0.67953266   421013 
 2017000   0.61219452   -2.0257912   -2.0257912   -1.3464159  0.041782034   -2.0257912   0.67937534   421013 
 2018000    0.6126642   -2.0264106   -2.0264106    -1.346514  0.035832358   -2.0264106   0.67989657   421013 
 2019000   0.61427101   -2.0274348   -2.0274348   -1.3457551  0.035744245   -2.0274348    0.6816797   421013 
 2020000   0.61399237   -2.0276934   -2.0276934   -1.3463229  0.036458854   -2.0276934   0.68137048   421013 
 2021000   0.61302475   -2.0271334   -2.0271334   -1.3468368  0.044933899   -2.0271334   0.68029668   421013 
 2022000   0.61288311   -2.0268702   -2.0268702   -1.3467307  0.041885032   -2.0268702    0.6801395   421013 
 2023000   0.61356554   -2.0273066   -2.0273066   -1.3464098  0.037566984   -2.0273066   0.68089682   421013 
 2024000   0.61210903   -2.0265515   -2.0265515    -1.347271  0.034372997   -2.0265515   0.67928047   421013 
 2025000    0.6136523    -2.027548    -2.027548    -1.346555  0.038192474    -2.027548   0.68099309   421013 
 2026000   0.61318524    -2.026743    -2.026743   -1.3462683  0.043023538    -2.026743   0.68047478   421013 
 2027000   0.61201622       -2.026       -2.026   -1.3468225  0.046151492       -2.026   0.67917747   421013 
 2028000   0.61252459   -2.0265575   -2.0265575   -1.3468158  0.035977399   -2.0265575   0.67974163   421013 
 2029000   0.61531041   -2.0293798   -2.0293798   -1.3465466  0.039172697   -2.0293798   0.68283316   421013 
 2030000    0.6127353    -2.026792    -2.026792   -1.3468166   0.05094078    -2.026792   0.67997546   421013 
 2031000   0.61327857   -2.0277034   -2.0277034   -1.3471251  0.044774002   -2.0277034   0.68057835   421013 
 2032000   0.61314311   -2.0277343   -2.0277343   -1.3473063  0.045002884   -2.0277343   0.68042803   421013 
 2033000   0.61335941    -2.027459    -2.027459   -1.3467909   0.04125854    -2.027459   0.68066807   421013 
 2034000   0.61209342   -2.0269387   -2.0269387   -1.3476755  0.034336277   -2.0269387   0.67926315   421013 
 2035000   0.61265063   -2.0275527   -2.0275527   -1.3476712  0.039630777   -2.0275527    0.6798815   421013 
 2036000   0.61343568   -2.0274884   -2.0274884   -1.3467357  0.038296396   -2.0274884   0.68075271   421013 
 2037000   0.61258195   -2.0271816   -2.0271816   -1.3473763  0.037664713   -2.0271816   0.67980528   421013 
 2038000   0.61341686   -2.0282851   -2.0282851   -1.3475533   0.04065847   -2.0282851   0.68073182   421013 
 2039000   0.61277004   -2.0267523   -2.0267523   -1.3467383  0.046654698   -2.0267523   0.68001401   421013 
 2040000   0.61357594   -2.0270163   -2.0270163   -1.3461079  0.042828298   -2.0270163   0.68090835   421013 
 2041000    0.6133646   -2.0279557   -2.0279557   -1.3472819  0.038544227   -2.0279557   0.68067382   421013 
 2042000   0.61472656   -2.0287784   -2.0287784   -1.3465932  0.035189118   -2.0287784   0.68218524   421013 
 2043000   0.61509704   -2.0292034   -2.0292034   -1.3466071  0.043331127   -2.0292034   0.68259637   421013 
 2044000   0.61445888   -2.0287583   -2.0287583   -1.3468701  0.037634296   -2.0287583   0.68188819   421013 
 2045000   0.61328732    -2.028286    -2.028286    -1.347698  0.036496325    -2.028286   0.68058806   421013 
 2046000   0.61288012   -2.0285447   -2.0285447   -1.3484085  0.045355208   -2.0285447   0.68013617   421013 
 2047000   0.61412204   -2.0286772   -2.0286772   -1.3471628  0.051713778   -2.0286772   0.68151438   421013 
 2048000   0.61286023   -2.0274441   -2.0274441   -1.3473299  0.036686868   -2.0274441   0.68011411   421013 
 2049000   0.61430843   -2.0289452   -2.0289452   -1.3472239  0.038552972   -2.0289452   0.68172123   421013 
 2050000   0.61391523   -2.0286303   -2.0286303   -1.3473455  0.038088713   -2.0286303   0.68128488   421013 
 2051000   0.61360462   -2.0286154   -2.0286154   -1.3476752  0.037005817   -2.0286154   0.68094018   421013 
 2052000   0.61305411   -2.0292252   -2.0292252   -1.3488959  0.038632783   -2.0292252   0.68032926   421013 
 2053000   0.61232906   -2.0288223   -2.0288223   -1.3492977  0.039459324   -2.0288223   0.67952465   421013 
 2054000   0.61339736   -2.0288253   -2.0288253   -1.3481151  0.042214254   -2.0288253   0.68071017   421013 
 2055000   0.61420905   -2.0296001   -2.0296001   -1.3479892  0.037923464   -2.0296001   0.68161094   421013 
 2056000   0.61266216    -2.028478    -2.028478   -1.3485837  0.047963639    -2.028478    0.6798943   421013 
 2057000   0.61393576   -2.0303056   -2.0303056   -1.3489979  0.033862493   -2.0303056   0.68130767   421013 
 2058000   0.61378649   -2.0303084   -2.0303084   -1.3491663  0.043630074   -2.0303084   0.68114201   421013 
 2059000   0.61450248   -2.0313953   -2.0313953   -1.3494587  0.041946757   -2.0313953   0.68193657   421013 
 2060000   0.61290827   -2.0296191   -2.0296191   -1.3494517  0.048925097   -2.0296191   0.68016742   421013 
 2061000   0.61241023   -2.0289618   -2.0289618   -1.3493471  0.041503608   -2.0289618   0.67961472   421013 
 2062000   0.61306487   -2.0301146   -2.0301146   -1.3497734  0.042367999   -2.0301146    0.6803412   421013 
 2063000   0.61298851   -2.0308366   -2.0308366   -1.3505802  0.044154562   -2.0308366   0.68025646   421013 
 2064000   0.61333543   -2.0312102   -2.0312102   -1.3505688  0.040442085   -2.0312102   0.68064145   421013 
 2065000    0.6135156    -2.030675    -2.030675   -1.3498336  0.037793903    -2.030675   0.68084139   421013 
 2066000   0.61329734   -2.0303442   -2.0303442    -1.349745  0.046261702   -2.0303442   0.68059919   421013 
 2067000   0.61345566    -2.029722    -2.029722   -1.3489472  0.038528564    -2.029722   0.68077487   421013 
 2068000   0.61236365   -2.0286289   -2.0286289   -1.3490659  0.039168825   -2.0286289   0.67956303   421013 
 2069000   0.61401011   -2.0309261   -2.0309261   -1.3495359   0.03573793   -2.0309261   0.68139017   421013 
 2070000   0.61393937   -2.0311849   -2.0311849   -1.3498733  0.044479984   -2.0311849   0.68131166   421013 
 2071000   0.61240811   -2.0297813   -2.0297813   -1.3501689   0.04708297   -2.0297813   0.67961237   421013 
 2072000   0.61194877   -2.0296473   -2.0296473   -1.3505447  0.041016875   -2.0296473   0.67910262   421013 
 2073000   0.61335355    -2.030354    -2.030354   -1.3496924  0.042397078    -2.030354   0.68066157   421013 
 2074000   0.61143716   -2.0291868   -2.0291868   -1.3506519  0.045569767   -2.0291868   0.67853487   421013 
 2075000   0.61279173   -2.0308654   -2.0308654   -1.3508273  0.035837654   -2.0308654   0.68003809   421013 
 2076000   0.61206875    -2.029627    -2.029627   -1.3503912  0.045518202    -2.029627   0.67923577   421013 
 2077000   0.61302223   -2.0305872   -2.0305872   -1.3502933  0.042036139   -2.0305872   0.68029388   421013 
 2078000   0.61336477   -2.0306936   -2.0306936   -1.3500195  0.046690755   -2.0306936   0.68067401   421013 
 2079000   0.61315992   -2.0306212   -2.0306212   -1.3501745  0.040549427   -2.0306212   0.68044668   421013 
 2080000   0.61197898   -2.0295071   -2.0295071    -1.350371  0.037521464   -2.0295071   0.67913614   421013 
 2081000   0.61236462   -2.0301646   -2.0301646   -1.3506005  0.041186488   -2.0301646    0.6795641   421013 
 2082000   0.61218791   -2.0301515   -2.0301515   -1.3507835  0.037059111   -2.0301515   0.67936801   421013 
 2083000   0.61281441   -2.0314143   -2.0314143    -1.351351  0.039697182   -2.0314143   0.68006325   421013 
 2084000   0.61299988   -2.0315518   -2.0315518   -1.3512827  0.033032283   -2.0315518   0.68026908   421013 
 2085000   0.61288477   -2.0308122   -2.0308122   -1.3506708  0.042679211   -2.0308122   0.68014134   421013 
 2086000   0.61361745   -2.0315676   -2.0315676   -1.3506132  0.040236248   -2.0315676   0.68095442   421013 
 2087000   0.61373561   -2.0319411   -2.0319411   -1.3508555  0.039003535   -2.0319411   0.68108555   421013 
 2088000   0.61309188   -2.0311794   -2.0311794   -1.3508083  0.042149178   -2.0311794   0.68037118   421013 
 2089000    0.6132156   -2.0317042   -2.0317042   -1.3511957  0.038930252   -2.0317042   0.68050848   421013 
 2090000   0.61406683   -2.0325553   -2.0325553   -1.3511022  0.042050659   -2.0325553   0.68145312   421013 
 2091000   0.61255576   -2.0310553   -2.0310553   -1.3512791  0.037003739   -2.0310553   0.67977622   421013 
 2092000   0.61263534   -2.0316641   -2.0316641   -1.3517995  0.034367764   -2.0316641   0.67986453   421013 
 2093000   0.61325294   -2.0327119   -2.0327119    -1.352162  0.041764492   -2.0327119   0.68054991   421013 
 2094000   0.61415783   -2.0342861   -2.0342861    -1.352732  0.042117727   -2.0342861    0.6815541   421013 
 2095000   0.61351177   -2.0332495   -2.0332495   -1.3524124  0.042664597   -2.0332495   0.68083714   421013 
 2096000   0.61239843   -2.0319524   -2.0319524   -1.3523508  0.038710996   -2.0319524   0.67960163   421013 
 2097000   0.61380666    -2.033647    -2.033647   -1.3524826   0.04150906    -2.033647   0.68116439   421013 
 2098000   0.61439323   -2.0335554   -2.0335554     -1.35174  0.037945359   -2.0335554   0.68181533   421013 
 2099000   0.61234985   -2.0311993   -2.0311993   -1.3516516  0.046636724   -2.0311993   0.67954772   421013 
 2100000   0.61243837    -2.032029    -2.032029    -1.352383   0.04420126    -2.032029   0.67964596   421013 
 2101000   0.61202008   -2.0317486   -2.0317486   -1.3525669  0.036581077   -2.0317486   0.67918176   421013 
 2102000   0.61277811    -2.031872    -2.031872    -1.351849  0.033694874    -2.031872   0.68002297   421013 
 2103000   0.61371117   -2.0332774   -2.0332774   -1.3522189  0.046115077   -2.0332774   0.68105843   421013 
 2104000   0.61219144   -2.0315482   -2.0315482   -1.3521762  0.044395099   -2.0315482   0.67937192   421013 
 2105000    0.6146748   -2.0332275   -2.0332275   -1.3510997  0.046089318   -2.0332275    0.6821278   421013 
 2106000   0.61356531   -2.0327405   -2.0327405    -1.351844  0.036379648   -2.0327405   0.68089656   421013 
 2107000   0.61371327   -2.0332069   -2.0332069   -1.3521461  0.042577974   -2.0332069   0.68106075   421013 
 2108000   0.61332196   -2.0323361   -2.0323361   -1.3517096  0.040123758   -2.0323361    0.6806265   421013 
 2109000   0.61266463   -2.0318528   -2.0318528   -1.3519558  0.039109922   -2.0318528   0.67989704   421013 
 2110000   0.61265178   -2.0309741   -2.0309741   -1.3510913  0.046421491   -2.0309741   0.67988278   421013 
 2111000   0.61378918   -2.0325075   -2.0325075   -1.3513625  0.037329273   -2.0325075     0.681145   421013 
 2112000   0.61294591   -2.0321854   -2.0321854   -1.3519762  0.034899454   -2.0321854   0.68020919   421013 
 2113000   0.61261624   -2.0313046   -2.0313046   -1.3514613  0.043629375   -2.0313046   0.67984334   421013 
 2114000   0.61308649   -2.0322706   -2.0322706   -1.3519054  0.039124609   -2.0322706   0.68036519   421013 
 2115000   0.61213718   -2.0314363   -2.0314363   -1.3521246  0.038500725   -2.0314363   0.67931171   421013 
 2116000   0.61221896   -2.0310289   -2.0310289   -1.3516264  0.041780653   -2.0310289   0.67940247   421013 
 2117000   0.61225446   -2.0308172   -2.0308172   -1.3513753  0.036210402   -2.0308172   0.67944186   421013 
 2118000   0.61348743   -2.0311603   -2.0311603   -1.3503502  0.050569308   -2.0311603   0.68081013   421013 
 2119000   0.61337489   -2.0311673   -2.0311673   -1.3504821  0.046649318   -2.0311673   0.68068524   421013 
 2120000   0.61402644   -2.0321798   -2.0321798   -1.3507715  0.042899721   -2.0321798   0.68140829   421013 
 2121000   0.61247367   -2.0306339   -2.0306339   -1.3509488  0.036486264   -2.0306339   0.67968513   421013 
 2122000   0.61354439   -2.0315003   -2.0315003   -1.3506269  0.039787823   -2.0315003   0.68087335   421013 
 2123000   0.61252963   -2.0300742   -2.0300742   -1.3503269  0.040752318   -2.0300742   0.67974723   421013 
 2124000   0.61404405   -2.0318834   -2.0318834   -1.3504555  0.035776353   -2.0318834   0.68142783   421013 
 2125000   0.61279131   -2.0300124   -2.0300124   -1.3499748  0.036406678   -2.0300124   0.68003762   421013 
 2126000   0.61337797   -2.0307175   -2.0307175   -1.3500288  0.040104767   -2.0307175   0.68068866   421013 
 2127000   0.61150849   -2.0294613   -2.0294613   -1.3508473  0.039209433   -2.0294613   0.67861403   421013 
 2128000   0.61367741   -2.0311439   -2.0311439   -1.3501229  0.044706628   -2.0311439   0.68102096   421013 
 2129000   0.61276623   -2.0305151   -2.0305151   -1.3505053  0.028387563   -2.0305151   0.68000979   421013 
 2130000   0.61307436   -2.0303872   -2.0303872   -1.3500355  0.043758022   -2.0303872   0.68035173   421013 
 2131000    0.6126154    -2.030646    -2.030646   -1.3508036  0.042800981    -2.030646   0.67984241   421013 
 2132000   0.61319603   -2.0307488   -2.0307488    -1.350262  0.033536542   -2.0307488   0.68048676   421013 
 2133000   0.61232828   -2.0301069   -2.0301069   -1.3505832  0.041586362   -2.0301069   0.67952378   421013 
 2134000   0.61358639   -2.0313769   -2.0313769    -1.350457  0.047241895   -2.0313769   0.68091995   421013 
 2135000    0.6141379   -2.0320944   -2.0320944   -1.3505624  0.036793061   -2.0320944   0.68153198   421013 
 2136000   0.61327674   -2.0318607   -2.0318607   -1.3512844  0.041846937   -2.0318607   0.68057632   421013 
 2137000   0.61273402   -2.0316935   -2.0316935   -1.3517194  0.037433819   -2.0316935   0.67997404   421013 
 2138000   0.61276569   -2.0320029   -2.0320029   -1.3519937  0.038556352   -2.0320029   0.68000919   421013 
 2139000   0.61291662   -2.0330022   -2.0330022   -1.3528255  0.042933471   -2.0330022   0.68017668   421013 
 2140000   0.61287147   -2.0331812   -2.0331812   -1.3530546  0.033363679   -2.0331812   0.68012658   421013 
 2141000   0.61266841   -2.0326122   -2.0326122    -1.352711  0.040766129   -2.0326122   0.67990123   421013 
 2142000   0.61417554   -2.0340957   -2.0340957   -1.3525219   0.03621501   -2.0340957   0.68157375   421013 
 2143000   0.61275757   -2.0334979   -2.0334979   -1.3534977  0.035039049   -2.0334979   0.68000018   421013 
 2144000   0.61438289   -2.0347908   -2.0347908   -1.3529869  0.039739608   -2.0347908   0.68180386   421013 
 2145000   0.61387275   -2.0341354   -2.0341354   -1.3528976  0.046794995   -2.0341354   0.68123774   421013 
 2146000   0.61397299   -2.0345321   -2.0345321   -1.3531831  0.043719801   -2.0345321   0.68134898   421013 
 2147000   0.61282582   -2.0321466   -2.0321466   -1.3520707  0.039803315   -2.0321466   0.68007592   421013 
 2148000   0.61425619   -2.0338666   -2.0338666   -1.3522034  0.037061792   -2.0338666   0.68166325   421013 
 2149000   0.61297428   -2.0325995   -2.0325995   -1.3523589  0.044935737   -2.0325995   0.68024067   421013 
 2150000    0.6132127   -2.0340528   -2.0340528   -1.3535475  0.041348828   -2.0340528   0.68050525   421013 
 2151000     0.612569   -2.0336795   -2.0336795   -1.3538886  0.036087875   -2.0336795   0.67979092   421013 
 2152000   0.61225985   -2.0339301   -2.0339301   -1.3544823  0.043446651   -2.0339301   0.67944784   421013 
 2153000   0.61099625   -2.0322874   -2.0322874   -1.3542418  0.038187204   -2.0322874   0.67804557   421013 
 2154000   0.61182854    -2.033105    -2.033105   -1.3541358  0.032468671    -2.033105   0.67896919   421013 
 2155000   0.61260225   -2.0338799   -2.0338799   -1.3540521  0.039206728   -2.0338799   0.67982781   421013 
 2156000    0.6100195    -2.031577    -2.031577   -1.3546154  0.040357209    -2.031577   0.67696164   421013 
 2157000   0.61204963   -2.0338415   -2.0338415    -1.354627  0.029976196   -2.0338415   0.67921455   421013 
 2158000   0.61102854   -2.0322711   -2.0322711   -1.3541897  0.039826779   -2.0322711   0.67808141   421013 
 2159000   0.61257472   -2.0338878   -2.0338878   -1.3540905  0.029018747   -2.0338878   0.67979727   421013 
 2160000    0.6126228     -2.03439     -2.03439   -1.3545394  0.039221449     -2.03439   0.67985061   421013 
 2161000     0.612547   -2.0337469   -2.0337469   -1.3539804  0.041779513   -2.0337469    0.6797665   421013 
 2162000    0.6126068   -2.0334762   -2.0334762   -1.3536434  0.037979258   -2.0334762   0.67983287   421013 
 2163000    0.6123704   -2.0334237   -2.0334237   -1.3538532  0.037639493   -2.0334237   0.67957052   421013 
 2164000   0.61325701   -2.0347395   -2.0347395   -1.3541851  0.037282953   -2.0347395   0.68055442   421013 
 2165000   0.61244796   -2.0336493   -2.0336493   -1.3539927  0.043478106   -2.0336493   0.67965659   421013 
 2166000   0.61206883   -2.0326837   -2.0326837   -1.3534479  0.038199024   -2.0326837   0.67923586   421013 
 2167000   0.61283151   -2.0338244   -2.0338244   -1.3537422  0.037309248   -2.0338244   0.68008223   421013 
 2168000    0.6119827   -2.0314558   -2.0314558   -1.3523155  0.052972211   -2.0314558   0.67914027   421013 
 2169000   0.61259419   -2.0332516   -2.0332516   -1.3534327  0.046020402   -2.0332516   0.67981887   421013 
 2170000   0.61280302    -2.033411    -2.033411   -1.3533604  0.047616636    -2.033411   0.68005061   421013 
 2171000   0.61252523   -2.0335814   -2.0335814   -1.3538391  0.040673258   -2.0335814   0.67974234   421013 
 2172000   0.61334209   -2.0340367   -2.0340367   -1.3533878  0.043469469   -2.0340367   0.68064885   421013 
 2173000   0.61223737    -2.033256    -2.033256   -1.3538331  0.044421536    -2.033256    0.6794229   421013 
 2174000    0.6120427   -2.0328944   -2.0328944   -1.3536875  0.041722054   -2.0328944   0.67920687   421013 
 2175000   0.61234949   -2.0327997   -2.0327997   -1.3532524   0.04411738   -2.0327997   0.67954732   421013 
 2176000   0.61265232   -2.0331939   -2.0331939   -1.3533106  0.039561345   -2.0331939   0.67988338   421013 
 2177000   0.61309154   -2.0335779   -2.0335779   -1.3532071  0.041188533   -2.0335779    0.6803708   421013 
 2178000    0.6139112   -2.0338335   -2.0338335   -1.3525531  0.036883176   -2.0338335    0.6812804   421013 
 2179000   0.61289516   -2.0330655   -2.0330655   -1.3529126  0.038046008   -2.0330655   0.68015287   421013 
 2180000   0.61164844   -2.0310379   -2.0310379   -1.3522686  0.034555422   -2.0310379   0.67876934   421013 
 2181000   0.61179968   -2.0320799   -2.0320799   -1.3531427  0.036268872   -2.0320799   0.67893717   421013 
 2182000   0.61232167   -2.0328406   -2.0328406   -1.3533242  0.044754625   -2.0328406   0.67951644   421013 
 2183000   0.61046265    -2.030804    -2.030804   -1.3533506   0.03933704    -2.030804   0.67745342   421013 
 2184000    0.6116296   -2.0329535   -2.0329535   -1.3542051  0.032993505   -2.0329535   0.67874843   421013 
 2185000    0.6131828    -2.034736    -2.034736   -1.3542639  0.037509016    -2.034736   0.68047208   421013 
 2186000   0.61303632   -2.0341432   -2.0341432   -1.3538337  0.042925202   -2.0341432   0.68030951   421013 
 2187000   0.61338569   -2.0347521   -2.0347521   -1.3540549  0.034612854   -2.0347521   0.68069722   421013 
 2188000   0.61354935   -2.0345976   -2.0345976   -1.3537187  0.049905589   -2.0345976   0.68087884   421013 
 2189000   0.61255528   -2.0340291   -2.0340291   -1.3542534  0.034411478   -2.0340291   0.67977569   421013 
 2190000   0.61336412   -2.0354867   -2.0354867   -1.3548134  0.035542426   -2.0354867   0.68067328   421013 
 2191000   0.61416784   -2.0368308   -2.0368308   -1.3552656  0.043463417   -2.0368308   0.68156521   421013 
 2192000    0.6117411   -2.0347811   -2.0347811    -1.355909  0.042770136   -2.0347811   0.67887216   421013 
 2193000   0.61315002   -2.0361871   -2.0361871   -1.3557514  0.047015824   -2.0361871   0.68043569   421013 
 2194000   0.61309905   -2.0365169   -2.0365169   -1.3561378  0.045275058   -2.0365169   0.68037913   421013 
 2195000   0.61271363   -2.0363068   -2.0363068   -1.3563554  0.040924835   -2.0363068   0.67995142   421013 
 2196000    0.6117989   -2.0355962   -2.0355962   -1.3566599  0.034115905   -2.0355962   0.67893631   421013 
 2197000   0.61265319   -2.0365055   -2.0365055   -1.3566212  0.035869353   -2.0365055   0.67988434   421013 
 2198000   0.61303362   -2.0360738   -2.0360738   -1.3557673  0.035972844   -2.0360738   0.68030652   421013 
 2199000   0.61014173      -2.0339      -2.0339   -1.3568027  0.038767595      -2.0339   0.67709729   421013 
 2200000   0.61107968   -2.0351713   -2.0351713   -1.3570331  0.040696653   -2.0351713   0.67813817   421013 
 2201000   0.61031058   -2.0354713   -2.0354713   -1.3581867  0.034370007   -2.0354713   0.67728466   421013 
 2202000   0.61084358   -2.0367029   -2.0367029   -1.3588268  0.036286799   -2.0367029   0.67787615   421013 
 2203000   0.61109748   -2.0373071   -2.0373071   -1.3591492  0.035382799   -2.0373071   0.67815792   421013 
 2204000   0.61111418   -2.0371376   -2.0371376   -1.3589612   0.04680101   -2.0371376   0.67817645   421013 
 2205000    0.6116109   -2.0374778   -2.0374778   -1.3587502  0.039678196   -2.0374778   0.67872768   421013 
 2206000   0.61199005   -2.0378088   -2.0378088   -1.3586604  0.043591843   -2.0378088   0.67914843   421013 
 2207000   0.61085397   -2.0376111   -2.0376111   -1.3597234  0.038099136   -2.0376111   0.67788768   421013 
 2208000   0.61139297   -2.0378607   -2.0378607   -1.3593749  0.040210372   -2.0378607   0.67848583   421013 
 2209000   0.61295269   -2.0388281   -2.0388281   -1.3586113  0.044426573   -2.0388281   0.68021671   421013 
 2210000   0.61312673    -2.039325    -2.039325   -1.3589152  0.037673712    -2.039325   0.68040984   421013 
 2211000   0.61134068   -2.0381175   -2.0381175   -1.3596897  0.036215582   -2.0381175    0.6784278   421013 
 2212000   0.61248153   -2.0395217   -2.0395217   -1.3598279  0.036851603   -2.0395217   0.67969385   421013 
 2213000   0.61234935   -2.0392304   -2.0392304   -1.3596832  0.034310434   -2.0392304   0.67954716   421013 
 2214000   0.61095919   -2.0384692   -2.0384692   -1.3604648  0.038250125   -2.0384692   0.67800445   421013 
 2215000   0.61204741   -2.0382136   -2.0382136   -1.3590015   0.03898151   -2.0382136   0.67921209   421013 
 2216000   0.61272232   -2.0392172   -2.0392172   -1.3592561  0.036541915   -2.0392172   0.67996106   421013 
 2217000   0.61202235   -2.0383396   -2.0383396   -1.3591554   0.04686857   -2.0383396   0.67918428   421013 
 2218000    0.6140099   -2.0397027   -2.0397027   -1.3583128  0.038916459   -2.0397027   0.68138993   421013 
 2219000   0.61277598    -2.038544    -2.038544   -1.3585234  0.032250803    -2.038544   0.68002061   421013 
 2220000   0.61255075   -2.0379052   -2.0379052   -1.3581345  0.043134867   -2.0379052   0.67977066   421013 
 2221000   0.61237046    -2.037261    -2.037261   -1.3576904  0.049478237    -2.037261   0.67957059   421013 
 2222000   0.61150403   -2.0372612   -2.0372612   -1.3586521   0.05010012   -2.0372612   0.67860908   421013 
 2223000   0.61224912   -2.0389424   -2.0389424   -1.3595064  0.037649107   -2.0389424   0.67943594   421013 
 2224000   0.61067565   -2.0371507   -2.0371507   -1.3594609  0.037858386   -2.0371507   0.67768979   421013 
 2225000    0.6108771   -2.0373313   -2.0373313    -1.359418  0.039745583   -2.0373313   0.67791335   421013 
 2226000   0.61151176   -2.0374397   -2.0374397   -1.3588221  0.036316669   -2.0374397   0.67861766   421013 
 2227000   0.61062996   -2.0364663   -2.0364663   -1.3588273  0.044630161   -2.0364663   0.67763909   421013 
 2228000   0.61220921   -2.0379957   -2.0379957   -1.3586041  0.040022399   -2.0379957   0.67939165   421013 
 2229000   0.61117453   -2.0374244   -2.0374244    -1.359181  0.030663888   -2.0374244   0.67824342   421013 
 2230000    0.6104897   -2.0372667   -2.0372667   -1.3597833  0.038927616   -2.0372667   0.67748343   421013 
 2231000   0.61244161   -2.0389052   -2.0389052   -1.3592556  0.032336147   -2.0389052   0.67964955   421013 
 2232000   0.61087172   -2.0373999   -2.0373999   -1.3594925    0.0350173   -2.0373999   0.67790738   421013 
 2233000   0.61258076   -2.0381015   -2.0381015   -1.3582975   0.03114654   -2.0381015   0.67980396   421013 
 2234000    0.6114632   -2.0369535   -2.0369535   -1.3583897  0.041468321   -2.0369535   0.67856377   421013 
 2235000    0.6134802    -2.038982    -2.038982   -1.3581799  0.040969175    -2.038982   0.68080211   421013 
 2236000    0.6120472   -2.0379156   -2.0379156   -1.3587038  0.047774178   -2.0379156   0.67921185   421013 
 2237000   0.61173928   -2.0377453   -2.0377453   -1.3588752  0.045472384   -2.0377453   0.67887015   421013 
 2238000   0.61145992    -2.037909    -2.037909   -1.3593489  0.049635438    -2.037909   0.67856013   421013 
 2239000   0.61250598   -2.0392048   -2.0392048   -1.3594838  0.046190515   -2.0392048   0.67972098   421013 
 2240000   0.61212084   -2.0387926   -2.0387926   -1.3594991  0.044906286   -2.0387926   0.67929358   421013 
 2241000   0.61117957   -2.0372923   -2.0372923   -1.3590432  0.044718192   -2.0372923   0.67824902   421013 
 2242000   0.61164093   -2.0390809   -2.0390809   -1.3603199  0.047461801   -2.0390809     0.678761   421013 
 2243000    0.6112767   -2.0387256   -2.0387256   -1.3603688  0.030409263   -2.0387256    0.6783568   421013 
 2244000   0.61079982    -2.038501    -2.038501   -1.3606734  0.036292739    -2.038501   0.67782759   421013 
 2245000   0.61111356   -2.0387465   -2.0387465   -1.3605707  0.037019444   -2.0387465   0.67817576   421013 
 2246000     0.611344   -2.0385415   -2.0385415     -1.36011  0.043256717   -2.0385415   0.67843149   421013 
 2247000   0.61153086   -2.0387205   -2.0387205   -1.3600817  0.040339246   -2.0387205   0.67863885   421013 
 2248000   0.61193302   -2.0390786   -2.0390786   -1.3599934  0.044571228   -2.0390786   0.67908515   421013 
 2249000   0.61198432   -2.0390286   -2.0390286   -1.3598865  0.028921394   -2.0390286   0.67914207   421013 
 2250000   0.61204505   -2.0395871   -2.0395871   -1.3603777  0.042107165   -2.0395871   0.67920947   421013 
 2251000   0.61071433   -2.0380236   -2.0380236   -1.3602908  0.038051615   -2.0380236   0.67773272   421013 
 2252000   0.61312579   -2.0403395   -2.0403395   -1.3599307  0.039131981   -2.0403395    0.6804088   421013 
 2253000    0.6129324   -2.0393373   -2.0393373   -1.3591431  0.038577255   -2.0393373   0.68019419   421013 
 2254000   0.61241562   -2.0387094   -2.0387094   -1.3590886  0.039571284   -2.0387094   0.67962071   421013 
 2255000    0.6112568   -2.0378363   -2.0378363   -1.3595016  0.047467221   -2.0378363   0.67833472   421013 
 2256000   0.61118198   -2.0384509   -2.0384509   -1.3601992  0.049328784   -2.0384509   0.67825169   421013 
 2257000   0.61261578    -2.039951    -2.039951   -1.3601082  0.041584638    -2.039951   0.67984283   421013 
 2258000   0.61265452   -2.0399664   -2.0399664   -1.3600806  0.040494219   -2.0399664   0.67988582   421013 
 2259000    0.6123274    -2.039178    -2.039178   -1.3596552  0.039135396    -2.039178   0.67952281   421013 
 2260000   0.61201652   -2.0392528   -2.0392528    -1.360075  0.038089661   -2.0392528   0.67917781   421013 
 2261000   0.61131418    -2.038343    -2.038343   -1.3599446  0.044727689    -2.038343   0.67839839   421013 
 2262000   0.61187721   -2.0391329   -2.0391329   -1.3601096  0.041629704   -2.0391329   0.67902321   421013 
 2263000   0.61132165   -2.0392446   -2.0392446   -1.3608379  0.036326625   -2.0392446   0.67840669   421013 
 2264000   0.61111737     -2.03893     -2.03893     -1.36075  0.041603964     -2.03893   0.67817998   421013 
 2265000   0.61129253   -2.0383801   -2.0383801   -1.3600057  0.037801288   -2.0383801   0.67837437   421013 
 2266000   0.61271286   -2.0405822   -2.0405822   -1.3606317  0.037462559   -2.0405822   0.67995057   421013 
 2267000   0.61160397   -2.0401565   -2.0401565   -1.3614365  0.031137209   -2.0401565   0.67871998   421013 
 2268000    0.6111151   -2.0389813   -2.0389813   -1.3608039   0.04166434   -2.0389813   0.67817747   421013 
 2269000   0.61268599   -2.0406468   -2.0406468   -1.3607261  0.035565021   -2.0406468   0.67992075   421013 
 2270000   0.61265118   -2.0405368   -2.0405368   -1.3606547  0.032251251   -2.0405368   0.67988211   421013 
 2271000   0.61281728   -2.0402496   -2.0402496   -1.3601831  0.045176317   -2.0402496   0.68006644   421013 
 2272000    0.6127477   -2.0406292   -2.0406292     -1.36064  0.037242931   -2.0406292   0.67998923   421013 
 2273000   0.61220117   -2.0393271   -2.0393271   -1.3599444  0.037042484   -2.0393271   0.67938272   421013 
 2274000   0.61217216   -2.0398649   -2.0398649   -1.3605143  0.035945066   -2.0398649   0.67935053   421013 
 2275000   0.61124996   -2.0383104   -2.0383104   -1.3599833  0.035539955   -2.0383104   0.67832713   421013 
 2276000    0.6116945   -2.0388877   -2.0388877   -1.3600673  0.038309068   -2.0388877   0.67882045   421013 
 2277000   0.61328153   -2.0408489   -2.0408489   -1.3602673  0.035802761   -2.0408489   0.68058164   421013 
 2278000    0.6123493   -2.0391994   -2.0391994   -1.3596523  0.041777116   -2.0391994   0.67954711   421013 
 2279000   0.61177641   -2.0386673   -2.0386673   -1.3597559  0.044225546   -2.0386673   0.67891135   421013 
 2280000   0.61132494   -2.0379641   -2.0379641   -1.3595537   0.03648934   -2.0379641   0.67841034   421013 
 2281000   0.61149959   -2.0383232   -2.0383232    -1.359719  0.046443123   -2.0383232   0.67860415   421013 
 2282000   0.61172634    -2.039216    -2.039216   -1.3603602  0.036604883    -2.039216   0.67885579   421013 
 2283000   0.61042114   -2.0379784   -2.0379784   -1.3605711  0.039114506   -2.0379784   0.67740736   421013 
 2284000   0.61172095   -2.0385835   -2.0385835   -1.3597337  0.041390812   -2.0385835   0.67884981   421013 
 2285000   0.61249082   -2.0398347   -2.0398347   -1.3601306  0.041418812   -2.0398347   0.67970415   421013 
 2286000   0.61135642   -2.0389855   -2.0389855   -1.3605402  0.034167084   -2.0389855   0.67844527   421013 
 2287000   0.61152333   -2.0396784   -2.0396784    -1.361048  0.034542193   -2.0396784   0.67863049   421013 
 2288000   0.61131223   -2.0397302   -2.0397302   -1.3613339  0.037216329   -2.0397302   0.67839623   421013 
 2289000   0.61169935   -2.0404291   -2.0404291   -1.3616033  0.029999039   -2.0404291   0.67882583   421013 
 2290000   0.61082703   -2.0391862   -2.0391862   -1.3613284  0.046970791   -2.0391862   0.67785779   421013 
 2291000   0.61177324   -2.0400655   -2.0400655   -1.3611576   0.04364148   -2.0400655   0.67890783   421013 
 2292000   0.61231966   -2.0413599   -2.0413599   -1.3618457  0.037020028   -2.0413599   0.67951422   421013 
 2293000   0.61195096   -2.0412558   -2.0412558   -1.3621507  0.035635112   -2.0412558   0.67910506   421013 
 2294000   0.61207758   -2.0411274   -2.0411274   -1.3618818  0.042860936   -2.0411274   0.67924557   421013 
 2295000   0.61173861   -2.0414161   -2.0414161   -1.3625467   0.03984308   -2.0414161    0.6788694   421013 
 2296000    0.6120031   -2.0414943   -2.0414943   -1.3623314  0.041899846   -2.0414943   0.67916291   421013 
 2297000   0.61246675   -2.0414732   -2.0414732   -1.3617958  0.040464599   -2.0414732   0.67967744   421013 
 2298000   0.61269828   -2.0413412   -2.0413412   -1.3614068  0.038237963   -2.0413412   0.67993439   421013 
 2299000   0.61135962   -2.0402533   -2.0402533   -1.3618045  0.037290486   -2.0402533   0.67844882   421013 
 2300000   0.61144366   -2.0394456   -2.0394456   -1.3609035  0.040737058   -2.0394456   0.67854208   421013 
 2301000   0.61132412   -2.0389654   -2.0389654   -1.3605559  0.036459744   -2.0389654   0.67840943   421013 
 2302000   0.61176536    -2.039563    -2.039563   -1.3606639  0.040160428    -2.039563   0.67889909   421013 
 2303000   0.61221131    -2.040703    -2.040703    -1.361309  0.035548907    -2.040703   0.67939398   421013 
 2304000   0.61163015   -2.0404338   -2.0404338   -1.3616848  0.033222794   -2.0404338   0.67874903   421013 
 2305000   0.61037116   -2.0388404   -2.0388404   -1.3614885  0.038243216   -2.0388404   0.67735188   421013 
 2306000   0.61119547   -2.0399674   -2.0399674   -1.3617007   0.02992656   -2.0399674   0.67826666   421013 
 2307000   0.60990984    -2.038628    -2.038628   -1.3617881  0.032685906    -2.038628   0.67683994   421013 
 2308000   0.61134067   -2.0406662   -2.0406662   -1.3622384  0.031917185   -2.0406662   0.67842779   421013 
 2309000   0.61155784   -2.0404843   -2.0404843   -1.3618155  0.036410268   -2.0404843    0.6786688   421013 
 2310000   0.61133406   -2.0396517   -2.0396517   -1.3612312  0.041084037   -2.0396517   0.67842046   421013 
 2311000    0.6113731   -2.0391175   -2.0391175   -1.3606537    0.0354328   -2.0391175   0.67846378   421013 
 2312000   0.61305254    -2.040813    -2.040813   -1.3604855  0.042179909    -2.040813   0.68032752   421013 
 2313000   0.61276791   -2.0402686   -2.0402686   -1.3602569  0.037452897   -2.0402686   0.68001165   421013 
 2314000   0.61208113   -2.0404815   -2.0404815    -1.361232  0.043412594   -2.0404815   0.67924951   421013 
 2315000   0.61170308    -2.040834    -2.040834    -1.362004  0.036650945    -2.040834   0.67882997   421013 
 2316000   0.61184325   -2.0422358   -2.0422358   -1.3632502  0.035869994   -2.0422358   0.67898552   421013 
 2317000   0.61103189   -2.0415169   -2.0415169   -1.3634318  0.035851817   -2.0415169   0.67808512   421013 
 2318000    0.6116375   -2.0411681   -2.0411681   -1.3624109  0.041067306   -2.0411681   0.67875719   421013 
 2319000   0.61092346   -2.0406447   -2.0406447   -1.3626799  0.037690103   -2.0406447    0.6779648   421013 
 2320000   0.61216555   -2.0418994   -2.0418994   -1.3625562  0.042293444   -2.0418994   0.67934319   421013 
 2321000   0.61300422   -2.0423713   -2.0423713   -1.3620974  0.043586568   -2.0423713   0.68027389   421013 
 2322000   0.61238179   -2.0415933   -2.0415933   -1.3620101  0.039802954   -2.0415933   0.67958316   421013 
 2323000   0.61236058   -2.0408242   -2.0408242   -1.3612646  0.032880062   -2.0408242   0.67955962   421013 
 2324000   0.61348544   -2.0420606   -2.0420606   -1.3612527  0.054478177   -2.0420606   0.68080793   421013 
 2325000   0.61176688   -2.0408383   -2.0408383   -1.3619375  0.039530205   -2.0408383   0.67890077   421013 
 2326000   0.61170487   -2.0408412   -2.0408412   -1.3620093  0.038442353   -2.0408412   0.67883196   421013 
 2327000   0.61178959   -2.0408751   -2.0408751   -1.3619492  0.039322061   -2.0408751   0.67892598   421013 
 2328000   0.61227478   -2.0417831   -2.0417831   -1.3623187  0.048300827   -2.0417831   0.67946441   421013 
 2329000   0.61223347   -2.0421845   -2.0421845   -1.3627659  0.041052589   -2.0421845   0.67941856   421013 
 2330000   0.61146168   -2.0416949   -2.0416949   -1.3631329  0.035863481   -2.0416949   0.67856208   421013 
 2331000   0.61176297   -2.0416136   -2.0416136   -1.3627172  0.040113716   -2.0416136   0.67889643   421013 
 2332000   0.61193851   -2.0410005   -2.0410005   -1.3619093  0.044236344   -2.0410005   0.67909124   421013 
 2333000   0.61115173   -2.0401006   -2.0401006   -1.3618825  0.041294332   -2.0401006   0.67821812   421013 
 2334000   0.61215515   -2.0407021   -2.0407021   -1.3613705  0.033274169   -2.0407021   0.67933165   421013 
 2335000   0.61256004   -2.0410589   -2.0410589   -1.3612779  0.042050784   -2.0410589   0.67978097   421013 
 2336000   0.61234848   -2.0404493   -2.0404493   -1.3609031  0.040104683   -2.0404493    0.6795462   421013 
 2337000   0.61136622   -2.0408541   -2.0408541   -1.3623979   0.04092486   -2.0408541   0.67845615   421013 
 2338000   0.60971432    -2.039643    -2.039643     -1.36302  0.039258772    -2.039643   0.67662297   421013 
 2339000    0.6114295   -2.0415954   -2.0415954    -1.363069  0.042057987   -2.0415954   0.67852637   421013 
 2340000   0.61150358   -2.0420869   -2.0420869   -1.3634783  0.041123652   -2.0420869   0.67860858   421013 
 2341000   0.61258762   -2.0432741   -2.0432741   -1.3634625  0.041788368   -2.0432741   0.67981158   421013 
 2342000   0.61035665    -2.040975    -2.040975   -1.3636392  0.045801437    -2.040975   0.67733579   421013 
 2343000   0.60998947   -2.0410451   -2.0410451   -1.3641167  0.034628122   -2.0410451   0.67692831   421013 
 2344000   0.61046011   -2.0412086   -2.0412086    -1.363758  0.038943386   -2.0412086   0.67745061   421013 
 2345000   0.61252499   -2.0429402   -2.0429402   -1.3631981  0.036808407   -2.0429402   0.67974207   421013 
 2346000   0.61197354   -2.0427237   -2.0427237   -1.3635935  0.036115856   -2.0427237   0.67913011   421013 
 2347000   0.61304474   -2.0449453   -2.0449453   -1.3646264  0.037837579   -2.0449453   0.68031886   421013 
 2348000   0.61048079   -2.0424645   -2.0424645   -1.3649909  0.037880247   -2.0424645   0.67747354   421013 
 2349000    0.6114056   -2.0432897   -2.0432897   -1.3647898  0.037852814   -2.0432897   0.67849984   421013 
 2350000   0.61048088   -2.0421965   -2.0421965   -1.3647229  0.040080153   -2.0421965   0.67747365   421013 
 2351000   0.61153065   -2.0438125   -2.0438125   -1.3651738   0.03824907   -2.0438125   0.67863862   421013 
 2352000   0.61172033   -2.0437357   -2.0437357   -1.3648866  0.040499742   -2.0437357   0.67884911   421013 
 2353000   0.61148679   -2.0434311   -2.0434311   -1.3648411   0.04604782   -2.0434311   0.67858995   421013 
 2354000   0.61080425   -2.0431833   -2.0431833   -1.3653508  0.041776398   -2.0431833    0.6778325   421013 
 2355000   0.61030563   -2.0423668   -2.0423668   -1.3650876  0.047957112   -2.0423668   0.67727917   421013 
 2356000    0.6106957   -2.0424791   -2.0424791    -1.364767  0.046717342   -2.0424791   0.67771204   421013 
 2357000   0.61146469   -2.0431107   -2.0431107   -1.3645453  0.040667588   -2.0431107   0.67856542   421013 
 2358000   0.61042683   -2.0423088   -2.0423088   -1.3648951  0.042572748   -2.0423088   0.67741367   421013 
 2359000   0.61084016   -2.0430813   -2.0430813    -1.365209  0.037874755   -2.0430813   0.67787235   421013 
 2360000   0.61195652   -2.0432566   -2.0432566   -1.3641453  0.039588651   -2.0432566   0.67911123   421013 
 2361000   0.61091821   -2.0425962   -2.0425962   -1.3646372  0.041665705   -2.0425962   0.67795897   421013 
 2362000   0.61127362   -2.0426303   -2.0426303   -1.3642769  0.042836283   -2.0426303   0.67835339   421013 
 2363000   0.61149924   -2.0431866   -2.0431866   -1.3645829  0.041516259   -2.0431866   0.67860377   421013 
 2364000   0.61097019   -2.0427279   -2.0427279   -1.3647112   0.03740914   -2.0427279   0.67801665   421013 
 2365000   0.61110719   -2.0417887   -2.0417887     -1.36362  0.031343722   -2.0417887   0.67816869   421013 
 2366000    0.6105766   -2.0416421   -2.0416421   -1.3640622  0.034886172   -2.0416421   0.67757987   421013 
 2367000   0.61063701   -2.0414136   -2.0414136   -1.3637666  0.034657999   -2.0414136   0.67764692   421013 
 2368000   0.61168077    -2.042408    -2.042408   -1.3636027  0.042670454    -2.042408   0.67880521   421013 
 2369000      0.61056   -2.0419263   -2.0419263   -1.3643648  0.036865117   -2.0419263   0.67756146   421013 
 2370000   0.61220621   -2.0435848   -2.0435848   -1.3641965  0.044267599   -2.0435848   0.67938831   421013 
 2371000   0.61060611   -2.0424892   -2.0424892   -1.3648765  0.043638948   -2.0424892   0.67761262   421013 
 2372000   0.61096309   -2.0430718   -2.0430718   -1.3650631  0.037804056   -2.0430718   0.67800877   421013 
 2373000    0.6103386   -2.0420461   -2.0420461   -1.3647303  0.045842692   -2.0420461   0.67731575   421013 
 2374000   0.61142949   -2.0434767   -2.0434767   -1.3649503  0.042029621   -2.0434767   0.67852636   421013 
 2375000   0.61030708   -2.0419133   -2.0419133   -1.3646325  0.039595554   -2.0419133   0.67728078   421013 
 2376000   0.61173379   -2.0433169   -2.0433169   -1.3644529  0.041431257   -2.0433169   0.67886405   421013 
 2377000   0.61039868   -2.0421794   -2.0421794   -1.3647969  0.046094427   -2.0421794   0.67738242   421013 
 2378000   0.61050557   -2.0431121   -2.0431121   -1.3656111  0.042362089   -2.0431121   0.67750105   421013 
 2379000   0.61103165   -2.0432919   -2.0432919   -1.3652071  0.043490695   -2.0432919   0.67808486   421013 
 2380000   0.61110343   -2.0440233   -2.0440233   -1.3658588  0.041913979   -2.0440233   0.67816452   421013 
 2381000   0.61179903   -2.0439367   -2.0439367   -1.3650003  0.041580528   -2.0439367   0.67893645   421013 
 2382000   0.61145283   -2.0440134   -2.0440134   -1.3654612  0.044752399   -2.0440134   0.67855226   421013 
 2383000   0.61149565   -2.0441621   -2.0441621   -1.3655623  0.037852771   -2.0441621   0.67859978   421013 
 2384000   0.61142618   -2.0441362   -2.0441362   -1.3656135  0.031946379   -2.0441362   0.67852268   421013 
 2385000   0.61122394   -2.0439768   -2.0439768   -1.3656785  0.035250574   -2.0439768   0.67829825   421013 
 2386000   0.61198306   -2.0448986   -2.0448986    -1.365758  0.038159224   -2.0448986   0.67914068   421013 
 2387000   0.61174966   -2.0444369   -2.0444369   -1.3655552  0.040463396   -2.0444369   0.67888166   421013 
 2388000   0.61172933   -2.0446931   -2.0446931    -1.365834  0.042802873   -2.0446931    0.6788591   421013 
 2389000   0.61134771   -2.0441464   -2.0441464   -1.3657108  0.039360076   -2.0441464    0.6784356   421013 
 2390000   0.61033886   -2.0434092   -2.0434092   -1.3660931  0.049274348   -2.0434092   0.67731604   421013 
 2391000   0.61123187   -2.0446145   -2.0446145   -1.3663075  0.046356126   -2.0446145   0.67830705   421013 
 2392000   0.60991766   -2.0437956   -2.0437956   -1.3669469  0.041470454   -2.0437956   0.67684862   421013 
 2393000   0.60892267   -2.0424417   -2.0424417   -1.3666972  0.030362308   -2.0424417   0.67574445   421013 
 2394000   0.60856968   -2.0418086   -2.0418086   -1.3664559  0.037002682   -2.0418086   0.67535272   421013 
 2395000   0.61104122   -2.0439119   -2.0439119   -1.3658164  0.035853993   -2.0439119   0.67809548   421013 
 2396000   0.60995694   -2.0425801   -2.0425801   -1.3656879  0.037488735   -2.0425801   0.67689221   421013 
 2397000   0.61093667   -2.0438667   -2.0438667   -1.3658873  0.036477667   -2.0438667   0.67797946   421013 
 2398000   0.61006023   -2.0426169   -2.0426169   -1.3656101   0.02889798   -2.0426169   0.67700684   421013 
 2399000   0.61016427    -2.043321    -2.043321   -1.3661987  0.039870698    -2.043321    0.6771223   421013 
 2400000   0.61099514   -2.0445468   -2.0445468   -1.3665024  0.042569181   -2.0445468   0.67804435   421013 
 2401000   0.61089902   -2.0444391   -2.0444391   -1.3665014  0.034850284   -2.0444391   0.67793767   421013 
 2402000    0.6102617   -2.0438759   -2.0438759   -1.3666455  0.050960572   -2.0438759   0.67723041   421013 
 2403000   0.61056774   -2.0447834   -2.0447834   -1.3672133  0.043941085   -2.0447834   0.67757004   421013 
 2404000   0.61082188   -2.0446607   -2.0446607   -1.3668086  0.039432603   -2.0446607   0.67785207   421013 
 2405000   0.61257774   -2.0459703   -2.0459703   -1.3661697  0.045921786   -2.0459703   0.67980062   421013 
 2406000   0.61253139   -2.0454203   -2.0454203   -1.3656712  0.042719099   -2.0454203   0.67974918   421013 
 2407000   0.61162098   -2.0454204   -2.0454204   -1.3666816  0.046119153   -2.0454204   0.67873886   421013 
 2408000   0.61281899    -2.046423    -2.046423   -1.3663547  0.034355565    -2.046423   0.68006834   421013 
 2409000   0.61208951    -2.045738    -2.045738   -1.3664792  0.041867089    -2.045738    0.6792588   421013 
 2410000   0.61130645   -2.0449266   -2.0449266   -1.3665368  0.042972926   -2.0449266   0.67838982   421013 
 2411000   0.61145067   -2.0447339   -2.0447339   -1.3661841  0.037068804   -2.0447339   0.67854987   421013 
 2412000   0.61154039   -2.0450387   -2.0450387   -1.3663893   0.03324753   -2.0450387   0.67864943   421013 
 2413000   0.61090313    -2.044429    -2.044429   -1.3664867  0.041527983    -2.044429   0.67794224   421013 
 2414000   0.60985789   -2.0437414   -2.0437414   -1.3669591   0.04786258   -2.0437414    0.6767823   421013 
 2415000   0.61021644     -2.04431     -2.04431   -1.3671298  0.036549367     -2.04431   0.67718019   421013 
 2416000   0.60972515   -2.0439453   -2.0439453   -1.3673103  0.038154879   -2.0439453   0.67663499   421013 
 2417000   0.60962339   -2.0433791   -2.0433791    -1.366857  0.037846148   -2.0433791   0.67652206   421013 
 2418000   0.61062621   -2.0439769   -2.0439769    -1.366342  0.045319742   -2.0439769   0.67763493   421013 
 2419000    0.6104131   -2.0438382   -2.0438382   -1.3664398  0.035892297   -2.0438382   0.67739844   421013 
 2420000   0.61030374   -2.0436204   -2.0436204   -1.3663433  0.042834071   -2.0436204   0.67727707   421013 
 2421000   0.61073607   -2.0433508   -2.0433508    -1.365594  0.047413218   -2.0433508   0.67775684   421013 
 2422000   0.61111186   -2.0438215   -2.0438215   -1.3656476  0.038948785   -2.0438215   0.67817387   421013 
 2423000   0.61131925   -2.0441275   -2.0441275   -1.3657235  0.043986242   -2.0441275   0.67840402   421013 
 2424000   0.60930605   -2.0428624   -2.0428624   -1.3666925  0.042894224   -2.0428624   0.67616989   421013 
 2425000   0.61166418   -2.0448646   -2.0448646   -1.3660778  0.038259549   -2.0448646    0.6787868   421013 
 2426000    0.6121323   -2.0446046   -2.0446046   -1.3652983  0.034427765   -2.0446046   0.67930629   421013 
 2427000   0.61212317   -2.0453474   -2.0453474   -1.3660512  0.035318442   -2.0453474   0.67929616   421013 
 2428000   0.61101103   -2.0445164   -2.0445164   -1.3664544  0.040397642   -2.0445164   0.67806198   421013 
 2429000    0.6114333   -2.0450902   -2.0450902   -1.3665596  0.037498821   -2.0450902   0.67853059   421013 
 2430000   0.61325538   -2.0466047   -2.0466047   -1.3660521  0.035645724   -2.0466047   0.68055261   421013 
 2431000   0.61134411   -2.0447589   -2.0447589   -1.3663273  0.043325418   -2.0447589   0.67843161   421013 
 2432000   0.61083084    -2.043826    -2.043826   -1.3659639  0.043099245    -2.043826   0.67786201   421013 
 2433000   0.61114787   -2.0456421   -2.0456421   -1.3674283  0.045420733   -2.0456421   0.67821383   421013 
 2434000   0.61100279     -2.04566     -2.04566   -1.3676072  0.037966125     -2.04566   0.67805284   421013 
 2435000   0.61113502   -2.0453703   -2.0453703   -1.3671707  0.047233775   -2.0453703   0.67819957   421013 
 2436000   0.61178237   -2.0454786   -2.0454786   -1.3665607  0.040345929   -2.0454786   0.67891797   421013 
 2437000   0.61158882   -2.0448301   -2.0448301   -1.3661269  0.041846024   -2.0448301   0.67870318   421013 
 2438000   0.61143765     -2.04497     -2.04497   -1.3664346  0.037331769     -2.04497   0.67853542   421013 
 2439000   0.61091874   -2.0451364   -2.0451364   -1.3671769  0.035006757   -2.0451364   0.67795956   421013 
 2440000   0.61162199   -2.0460417   -2.0460417   -1.3673017   0.04273809   -2.0460417   0.67873998   421013 
 2441000   0.61180773   -2.0458144   -2.0458144   -1.3668683  0.044634769   -2.0458144   0.67894611   421013 
 2442000   0.61081211    -2.044934    -2.044934   -1.3670928  0.039883125    -2.044934   0.67784123   421013 
 2443000   0.61092133   -2.0451494   -2.0451494    -1.367187  0.035058763   -2.0451494   0.67796243   421013 
 2444000   0.61118994   -2.0455359   -2.0455359   -1.3672754  0.041602469   -2.0455359   0.67826052   421013 
 2445000   0.61139187   -2.0466631   -2.0466631   -1.3681785  0.037763274   -2.0466631   0.67848461   421013 
 2446000   0.61152172   -2.0466476   -2.0466476   -1.3680188  0.041394199   -2.0466476   0.67862871   421013 
 2447000   0.61102753   -2.0465769   -2.0465769   -1.3684967  0.039353118   -2.0465769   0.67808028   421013 
 2448000   0.61124481   -2.0462754   -2.0462754    -1.367954  0.029473392   -2.0462754   0.67832141   421013 
 2449000   0.60915113   -2.0440951   -2.0440951   -1.3680971  0.042260436   -2.0440951   0.67599798   421013 
 2450000    0.6103921   -2.0463898   -2.0463898   -1.3690147  0.035980085   -2.0463898   0.67737513   421013 
 2451000   0.61028611   -2.0462881   -2.0462881   -1.3690306  0.041283949   -2.0462881   0.67725751   421013 
 2452000   0.61041989   -2.0460535   -2.0460535   -1.3686475  0.040203125   -2.0460535   0.67740597   421013 
 2453000   0.61042885   -2.0455652   -2.0455652   -1.3681493  0.036988995   -2.0455652   0.67741591   421013 
 2454000   0.61025046   -2.0459683   -2.0459683   -1.3687504  0.040328879   -2.0459683   0.67721795   421013 
 2455000   0.60954661   -2.0458973   -2.0458973   -1.3694605  0.044413966   -2.0458973   0.67643685   421013 
 2456000   0.61050776    -2.045354    -2.045354   -1.3678505  0.040774127    -2.045354   0.67750348   421013 
 2457000   0.61003625   -2.0457231   -2.0457231   -1.3687428  0.040833946   -2.0457231   0.67698022   421013 
 2458000    0.6104238   -2.0458341   -2.0458341   -1.3684238  0.041895012   -2.0458341   0.67741031   421013 
 2459000   0.61214213   -2.0479362   -2.0479362    -1.368619  0.034333119   -2.0479362    0.6793172   421013 
 2460000   0.61178805   -2.0478184   -2.0478184   -1.3688941  0.038189484   -2.0478184   0.67892427   421013 
 2461000   0.61100047   -2.0472734   -2.0472734   -1.3692232  0.042880586   -2.0472734   0.67805026   421013 
 2462000   0.61074176   -2.0468244   -2.0468244   -1.3690612  0.034946232   -2.0468244   0.67776316   421013 
 2463000   0.61028742   -2.0464851   -2.0464851   -1.3692261  0.040840127   -2.0464851   0.67725896   421013 
 2464000   0.61136675    -2.047024    -2.047024   -1.3685673  0.041993776    -2.047024   0.67845673   421013 
 2465000   0.61199085   -2.0479752   -2.0479752   -1.3688259  0.040701576   -2.0479752   0.67914932   421013 
 2466000   0.61202417   -2.0478497   -2.0478497   -1.3686634  0.041675756   -2.0478497   0.67918629   421013 
 2467000   0.61068089   -2.0469571   -2.0469571   -1.3692615  0.037080422   -2.0469571    0.6776956   421013 
 2468000    0.6109657   -2.0470924   -2.0470924   -1.3690807  0.044692123   -2.0470924   0.67801167   421013 
 2469000   0.61014677   -2.0464743   -2.0464743   -1.3693714  0.034694689   -2.0464743   0.67710288   421013 
 2470000    0.6117266   -2.0475687   -2.0475687   -1.3687126  0.041048793   -2.0475687   0.67885607   421013 
 2471000   0.61126383   -2.0471168   -2.0471168   -1.3687743   0.03642855   -2.0471168   0.67834252   421013 
 2472000   0.61043175   -2.0467257   -2.0467257   -1.3693066  0.037962849   -2.0467257   0.67741913   421013 
 2473000   0.61151278   -2.0469123   -2.0469123   -1.3682935   0.04165477   -2.0469123   0.67861879   421013 
 2474000   0.61031705   -2.0456674   -2.0456674   -1.3683756   0.03209391   -2.0456674   0.67729185   421013 
 2475000   0.61112059   -2.0468305   -2.0468305   -1.3686469  0.036518205   -2.0468305   0.67818356   421013 
 2476000   0.61073303   -2.0470834   -2.0470834   -1.3693299  0.037527146   -2.0470834   0.67775347   421013 
 2477000   0.61090611   -2.0467649   -2.0467649   -1.3688194  0.039424151   -2.0467649   0.67794554   421013 
 2478000   0.61025325   -2.0464152   -2.0464152   -1.3691942   0.04164093   -2.0464152   0.67722104   421013 
 2479000   0.61020308   -2.0453087   -2.0453087   -1.3681433   0.04154183   -2.0453087   0.67716536   421013 
 2480000   0.61057361   -2.0462865   -2.0462865     -1.36871   0.03982667   -2.0462865   0.67757656   421013 
 2481000   0.60978439   -2.0449003   -2.0449003   -1.3681996  0.040802913   -2.0449003   0.67670073   421013 
 2482000   0.60978045   -2.0454597   -2.0454597   -1.3687634  0.038642695   -2.0454597   0.67669636   421013 
 2483000   0.61014962   -2.0460856   -2.0460856   -1.3689796  0.041757764   -2.0460856   0.67710603   421013 
 2484000   0.60976687   -2.0460765   -2.0460765   -1.3693952  0.031440404   -2.0460765   0.67668129   421013 
 2485000   0.61014775   -2.0458911   -2.0458911   -1.3687872  0.042790669   -2.0458911   0.67710396   421013 
 2486000   0.61056022   -2.0456787   -2.0456787    -1.368117  0.041284577   -2.0456787    0.6775617   421013 
 2487000   0.61021893   -2.0462793   -2.0462793   -1.3690964   0.03851265   -2.0462793   0.67718296   421013 
 2488000   0.61002311    -2.046636    -2.046636   -1.3696704  0.039289674    -2.046636   0.67696565   421013 
 2489000   0.61058618   -2.0459016   -2.0459016   -1.3683111  0.046187395   -2.0459016   0.67759051   421013 
 2490000    0.6104757   -2.0464724   -2.0464724   -1.3690045  0.039892826   -2.0464724   0.67746791   421013 
 2491000   0.61000898   -2.0460955   -2.0460955   -1.3691455  0.039754137   -2.0460955   0.67694996   421013 
 2492000   0.61003801   -2.0466524   -2.0466524   -1.3696702  0.040143927   -2.0466524   0.67698218   421013 
 2493000   0.61016894   -2.0472049   -2.0472049   -1.3700774  0.031715186   -2.0472049   0.67712748   421013 
 2494000   0.61135461    -2.047946    -2.047946   -1.3695027  0.034827873    -2.047946   0.67844326   421013 
 2495000   0.60964296   -2.0461881   -2.0461881   -1.3696444  0.046116863   -2.0461881   0.67654378   421013 
 2496000    0.6108201   -2.0474456   -2.0474456   -1.3695955  0.037189494   -2.0474456    0.6778501   421013 
 2497000   0.61072011   -2.0470391   -2.0470391      -1.3693  0.049674173   -2.0470391   0.67773913   421013 
 2498000   0.61032409   -2.0469732   -2.0469732   -1.3696735  0.036695074   -2.0469732   0.67729965   421013 
 2499000   0.60894925   -2.0457199   -2.0457199    -1.369946  0.029944746   -2.0457199   0.67577394   421013 
 2500000   0.60922267    -2.045208    -2.045208   -1.3691306  0.033281849    -2.045208   0.67607737   421013 
 2501000   0.61000294   -2.0465467   -2.0465467   -1.3696034  0.032791592   -2.0465467   0.67694327   421013 
 2502000   0.61030712   -2.0464062   -2.0464062   -1.3691254   0.04042647   -2.0464062   0.67728082   421013 
 2503000   0.61110201   -2.0481169   -2.0481169    -1.369954  0.035120067   -2.0481169   0.67816295   421013 
 2504000    0.6102879   -2.0472167   -2.0472167   -1.3699572  0.043746354   -2.0472167   0.67725949   421013 
 2505000   0.61086299   -2.0481908   -2.0481908   -1.3702931  0.046588213   -2.0481908   0.67789769   421013 
 2506000   0.61071197   -2.0477496   -2.0477496   -1.3700195  0.041435997   -2.0477496    0.6777301   421013 
 2507000   0.61068844    -2.047778    -2.047778    -1.370074  0.036178331    -2.047778   0.67770399   421013 
 2508000   0.60922364   -2.0470042   -2.0470042   -1.3709258  0.046842759   -2.0470042   0.67607844   421013 
 2509000   0.61001703   -2.0488411   -2.0488411   -1.3718822  0.041725651   -2.0488411    0.6769589   421013 
 2510000   0.60961348   -2.0477055   -2.0477055   -1.3711945  0.043510211   -2.0477055   0.67651106   421013 
 2511000   0.61172136    -2.049357    -2.049357   -1.3705067  0.040522851    -2.049357   0.67885025   421013 
 2512000   0.61132632   -2.0482464   -2.0482464   -1.3698345  0.042450416   -2.0482464   0.67841187   421013 
 2513000    0.6109556   -2.0485657   -2.0485657   -1.3705653  0.032921538   -2.0485657   0.67800047   421013 
 2514000   0.61024412   -2.0472954   -2.0472954   -1.3700845  0.035646553   -2.0472954   0.67721091   421013 
 2515000   0.61097884   -2.0486219   -2.0486219   -1.3705956  0.043868471   -2.0486219   0.67802626   421013 
 2516000   0.61074221   -2.0481005   -2.0481005   -1.3703369  0.040363776   -2.0481005   0.67776365   421013 
 2517000    0.6119805   -2.0491627   -2.0491627   -1.3700248    0.0420014   -2.0491627   0.67913783   421013 
 2518000   0.61129415   -2.0483034   -2.0483034   -1.3699272  0.036529558   -2.0483034   0.67837617   421013 
 2519000   0.61140576   -2.0480803   -2.0480803   -1.3695803  0.043177142   -2.0480803   0.67850003   421013 
 2520000   0.60980321    -2.046724    -2.046724   -1.3700024  0.029352959    -2.046724   0.67672162   421013 
 2521000   0.61051286   -2.0476071   -2.0476071   -1.3700979  0.034618417   -2.0476071   0.67750914   421013 
 2522000   0.61055489   -2.0472046   -2.0472046   -1.3696488  0.038599733   -2.0472046   0.67755578   421013 
 2523000   0.61127745   -2.0475272   -2.0475272   -1.3691695  0.041397162   -2.0475272   0.67835763   421013 
 2524000   0.60965849   -2.0457894   -2.0457894   -1.3692283  0.046707964   -2.0457894   0.67656102   421013 
 2525000    0.6102579   -2.0466089   -2.0466089   -1.3693827  0.047556207   -2.0466089    0.6772262   421013 
 2526000   0.61087743   -2.0473099   -2.0473099   -1.3693962  0.038824269   -2.0473099   0.67791371   421013 
 2527000    0.6113576   -2.0472282   -2.0472282   -1.3687816  0.042800097   -2.0472282   0.67844658   421013 
 2528000   0.60994587   -2.0463937   -2.0463937   -1.3695137   0.03920077   -2.0463937   0.67687993   421013 
 2529000   0.61052516   -2.0470742   -2.0470742   -1.3695514  0.040642715   -2.0470742   0.67752279   421013 
 2530000   0.61056659   -2.0479539   -2.0479539   -1.3703851  0.037472196   -2.0479539   0.67756876   421013 
 2531000   0.61029461   -2.0473117   -2.0473117   -1.3700447  0.041943142   -2.0473117   0.67726694   421013 
 2532000   0.60977479   -2.0464501   -2.0464501     -1.36976  0.042207135   -2.0464501   0.67669007   421013 
 2533000   0.61028732   -2.0475419   -2.0475419   -1.3702831   0.04666306   -2.0475419   0.67725885   421013 
 2534000   0.61037752   -2.0470085   -2.0470085   -1.3696495  0.045450236   -2.0470085   0.67735895   421013 
 2535000   0.61081197   -2.0476644   -2.0476644   -1.3698234   0.03751341   -2.0476644   0.67784107   421013 
 2536000   0.60979279   -2.0474956   -2.0474956   -1.3707855  0.037122888   -2.0474956   0.67671005   421013 
 2537000   0.60901884   -2.0467102   -2.0467102   -1.3708591   0.04324082   -2.0467102   0.67585117   421013 
 2538000   0.61033158   -2.0480494   -2.0480494   -1.3707415  0.038053279   -2.0480494   0.67730796   421013 
 2539000   0.60946956   -2.0471486   -2.0471486   -1.3707972  0.037249199   -2.0471486   0.67635135   421013 
 2540000   0.60908962   -2.0470216   -2.0470216   -1.3710919   0.03959424   -2.0470216   0.67592972   421013 
 2541000    0.6104436   -2.0484639   -2.0484639   -1.3710316   0.04034353   -2.0484639   0.67743228   421013 
 2542000   0.60993582   -2.0485374   -2.0485374   -1.3716686  0.041635778   -2.0485374   0.67686878   421013 
 2543000    0.6097144    -2.048399    -2.048399    -1.371776  0.042782694    -2.048399   0.67662306   421013 
 2544000   0.60918935   -2.0482734   -2.0482734    -1.372233  0.038395735   -2.0482734   0.67604039   421013 
 2545000   0.60941481   -2.0481829   -2.0481829   -1.3718923  0.044157211   -2.0481829    0.6762906   421013 
 2546000   0.61068485   -2.0477175   -2.0477175   -1.3700175  0.040619148   -2.0477175   0.67770001   421013 
 2547000    0.6114643   -2.0490178   -2.0490178   -1.3704528  0.041890144   -2.0490178   0.67856499   421013 
 2548000   0.60992072   -2.0475597   -2.0475597   -1.3707076  0.037160773   -2.0475597   0.67685202   421013 
 2549000   0.61036106   -2.0473907   -2.0473907   -1.3700501  0.036580552   -2.0473907   0.67734068   421013 
 2550000    0.6105024   -2.0484933   -2.0484933   -1.3709958  0.040971536   -2.0484933   0.67749753   421013 
 2551000   0.60960722   -2.0474045   -2.0474045   -1.3709004  0.037072622   -2.0474045   0.67650412   421013 
 2552000   0.61111062   -2.0486841   -2.0486841   -1.3705116  0.037289233   -2.0486841    0.6781725   421013 
 2553000   0.60975549   -2.0479689   -2.0479689   -1.3713002    0.0427396   -2.0479689   0.67666866   421013 
 2554000    0.6096326   -2.0482064   -2.0482064   -1.3716742  0.038684144   -2.0482064   0.67653228   421013 
 2555000   0.61081916   -2.0497417   -2.0497417   -1.3718926  0.038821129   -2.0497417   0.67784905   421013 
 2556000   0.61020992   -2.0482384   -2.0482384   -1.3710655  0.040352181   -2.0482384   0.67717296   421013 
 2557000   0.61089294   -2.0493547   -2.0493547   -1.3714238  0.043814107   -2.0493547   0.67793093   421013 
 2558000   0.61074851   -2.0495325   -2.0495325   -1.3717618  0.042531694   -2.0495325   0.67777065   421013 
 2559000   0.61081457   -2.0496257   -2.0496257   -1.3717818  0.041120403   -2.0496257   0.67784395   421013 
 2560000   0.61031896   -2.0494177   -2.0494177   -1.3721237  0.041010175   -2.0494177   0.67729396   421013 
 2561000   0.61038452    -2.049551    -2.049551   -1.3721843  0.035462996    -2.049551   0.67736671   421013 
 2562000    0.6108937   -2.0497771   -2.0497771   -1.3718453  0.036999269   -2.0497771   0.67793177   421013 
 2563000   0.61026872   -2.0496051   -2.0496051   -1.3723669  0.040182851   -2.0496051   0.67723821   421013 
 2564000   0.61084037   -2.0503656   -2.0503656    -1.372493  0.039130624   -2.0503656   0.67787259   421013 
 2565000   0.61018664   -2.0500967   -2.0500967   -1.3729496  0.040870726   -2.0500967   0.67714712   421013 
 2566000   0.61115339   -2.0504782   -2.0504782   -1.3722582  0.044908878   -2.0504782   0.67821996   421013 
 2567000   0.61055193   -2.0505502   -2.0505502   -1.3729977  0.031164454   -2.0505502   0.67755249   421013 
 2568000   0.61148944   -2.0512874   -2.0512874   -1.3726946  0.035352154   -2.0512874   0.67859288   421013 
 2569000   0.61180254   -2.0513085   -2.0513085   -1.3723681  0.037707296   -2.0513085   0.67894034   421013 
 2570000   0.61045047   -2.0505314   -2.0505314   -1.3730915  0.039245568   -2.0505314   0.67743991   421013 
 2571000   0.61079687   -2.0510485   -2.0510485   -1.3732241  0.032537231   -2.0510485   0.67782432   421013 
 2572000   0.61091136   -2.0506878   -2.0506878   -1.3727364  0.042668575   -2.0506878   0.67795137   421013 
 2573000    0.6117395   -2.0515676   -2.0515676   -1.3726972  0.034952069   -2.0515676   0.67887039   421013 
 2574000   0.60986072   -2.0496104   -2.0496104    -1.372825  0.039708847   -2.0496104   0.67678543   421013 
 2575000   0.61124999   -2.0518154   -2.0518154   -1.3734882  0.042249544   -2.0518154   0.67832716   421013 
 2576000   0.61129449   -2.0515537   -2.0515537   -1.3731772  0.045643749   -2.0515537   0.67837655   421013 
 2577000   0.60987347   -2.0502657   -2.0502657   -1.3734661  0.045406599   -2.0502657   0.67679958   421013 
 2578000    0.6095713   -2.0506734   -2.0506734   -1.3742092  0.037305066   -2.0506734   0.67646426   421013 
 2579000   0.60906202    -2.049844    -2.049844   -1.3739449  0.037275697    -2.049844   0.67589909   421013 
 2580000   0.61081534   -2.0513599   -2.0513599   -1.3735151  0.037807782   -2.0513599   0.67784482   421013 
 2581000   0.60926177     -2.04993     -2.04993   -1.3738092  0.042010892     -2.04993   0.67612076   421013 
 2582000   0.60917663   -2.0495829   -2.0495829   -1.3735567  0.043069613   -2.0495829   0.67602628   421013 
 2583000   0.60946048   -2.0502588   -2.0502588   -1.3739175  0.035377109   -2.0502588   0.67634128   421013 
 2584000   0.60850229   -2.0495817   -2.0495817   -1.3743037  0.033786576   -2.0495817   0.67527794   421013 
 2585000   0.60823744   -2.0502188   -2.0502188   -1.3752348  0.031937824   -2.0502188   0.67498402   421013 
 2586000   0.60933583   -2.0514382   -2.0514382   -1.3752353  0.031149873   -2.0514382   0.67620294   421013 
 2587000    0.6102374   -2.0523127   -2.0523127   -1.3751092  0.035541406   -2.0523127   0.67720345   421013 
 2588000   0.60988509   -2.0512264   -2.0512264   -1.3744139  0.039184607   -2.0512264   0.67681248   421013 
 2589000   0.60994891   -2.0517725   -2.0517725   -1.3748892   0.04192898   -2.0517725    0.6768833   421013 
 2590000   0.61082787   -2.0526485   -2.0526485   -1.3747898  0.034767862   -2.0526485   0.67785872   421013 
 2591000   0.61078956   -2.0522635   -2.0522635   -1.3744473  0.035866087   -2.0522635   0.67781621   421013 
 2592000   0.61049564   -2.0517988   -2.0517988   -1.3743087  0.045815726   -2.0517988   0.67749004   421013 
 2593000   0.61076561   -2.0518111   -2.0518111   -1.3740215  0.043609212   -2.0518111   0.67778963   421013 
 2594000   0.60972014   -2.0515329   -2.0515329   -1.3749035  0.036349249   -2.0515329   0.67662943   421013 
 2595000   0.61177183   -2.0534487   -2.0534487   -1.3745424  0.045716037   -2.0534487   0.67890626   421013 
 2596000   0.61074426   -2.0526401   -2.0526401   -1.3748742  0.041086049   -2.0526401   0.67776593   421013 
 2597000   0.61197649   -2.0531333   -2.0531333   -1.3739999  0.044886141   -2.0531333   0.67913338   421013 
 2598000     0.610677   -2.0515948   -2.0515948   -1.3739035  0.039639093   -2.0515948   0.67769129   421013 
 2599000   0.61148278   -2.0525109   -2.0525109   -1.3739255  0.040258645   -2.0525109    0.6785855   421013 
 2600000   0.60996666   -2.0517051   -2.0517051   -1.3748021   0.04056856   -2.0517051     0.676903   421013 
 2601000   0.61063499   -2.0522081   -2.0522081   -1.3745634  0.044781058   -2.0522081   0.67764468   421013 
 2602000   0.61117682   -2.0523634   -2.0523634   -1.3741175  0.044370432   -2.0523634   0.67824597   421013 
 2603000    0.6119511    -2.052997    -2.052997   -1.3738918  0.045210778    -2.052997   0.67910521   421013 
 2604000   0.61113753   -2.0520765   -2.0520765   -1.3738742  0.040765088   -2.0520765   0.67820236   421013 
 2605000   0.61155216   -2.0523895   -2.0523895    -1.373727  0.039513307   -2.0523895   0.67866249   421013 
 2606000   0.61043183   -2.0512479   -2.0512479   -1.3738287    0.0331441   -2.0512479   0.67741922   421013 
 2607000   0.61092871   -2.0509993   -2.0509993   -1.3730287  0.038631406   -2.0509993   0.67797062   421013 
 2608000    0.6104358   -2.0512738   -2.0512738   -1.3738502  0.042927273   -2.0512738   0.67742363   421013 
 2609000   0.61078134   -2.0513638   -2.0513638   -1.3735567   0.02910141   -2.0513638   0.67780708   421013 
 2610000   0.60964609   -2.0505503   -2.0505503   -1.3740031  0.037183215   -2.0505503   0.67654725   421013 
 2611000   0.60923587   -2.0502138   -2.0502138   -1.3741217  0.037692053   -2.0502138   0.67609201   421013 
 2612000    0.6108187   -2.0515669   -2.0515669   -1.3737184  0.046425463   -2.0515669   0.67784854   421013 
 2613000   0.61053509   -2.0515113   -2.0515113   -1.3739775  0.041245106   -2.0515113   0.67753381   421013 
 2614000   0.61027466    -2.051906    -2.051906   -1.3746612   0.03934995    -2.051906    0.6772448   421013 
 2615000   0.61087956   -2.0521372   -2.0521372   -1.3742212  0.041724066   -2.0521372   0.67791608   421013 
 2616000   0.61099535   -2.0516702   -2.0516702   -1.3736256  0.036350409   -2.0516702   0.67804458   421013 
 2617000   0.60926168   -2.0501324   -2.0501324   -1.3740118  0.045836437   -2.0501324   0.67612066   421013 
 2618000   0.61015463   -2.0519092   -2.0519092   -1.3747976  0.034696372   -2.0519092   0.67711159   421013 
 2619000   0.60967414   -2.0517545   -2.0517545   -1.3751761  0.039681381   -2.0517545   0.67657839   421013 
 2620000   0.60958884   -2.0513883   -2.0513883   -1.3749046  0.034932762   -2.0513883   0.67648372   421013 
 2621000   0.61033477   -2.0525056   -2.0525056   -1.3751941  0.036635928   -2.0525056   0.67731151   421013 
 2622000   0.61064512   -2.0526316   -2.0526316   -1.3749757  0.039112181   -2.0526316   0.67765591   421013 
 2623000   0.60947368   -2.0520912   -2.0520912   -1.3757353  0.029269037   -2.0520912   0.67635592   421013 
 2624000   0.61052799   -2.0530262   -2.0530262   -1.3755003  0.035715444   -2.0530262   0.67752593   421013 
 2625000     0.610065   -2.0523373   -2.0523373   -1.3753252  0.037696921   -2.0523373   0.67701214   421013 
 2626000   0.60969719   -2.0519146   -2.0519146   -1.3753106  0.051511446   -2.0519146   0.67660396   421013 
 2627000    0.6101304   -2.0519901   -2.0519901   -1.3749054  0.040501216   -2.0519901   0.67708471   421013 
 2628000   0.61075837   -2.0529214   -2.0529214   -1.3751398  0.040105716   -2.0529214   0.67778159   421013 
 2629000   0.60910725   -2.0517116   -2.0517116   -1.3757623    0.0467861   -2.0517116   0.67594928   421013 
 2630000   0.61036308   -2.0530735   -2.0530735   -1.3757305  0.039035073   -2.0530735   0.67734292   421013 
 2631000   0.61054338   -2.0537667   -2.0537667   -1.3762237  0.040737009   -2.0537667   0.67754301   421013 
 2632000   0.61003745   -2.0521001   -2.0521001   -1.3751185  0.039728001   -2.0521001   0.67698156   421013 
 2633000   0.60898272   -2.0506951   -2.0506951    -1.374884  0.039315037   -2.0506951   0.67581109   421013 
 2634000   0.61121361   -2.0531628   -2.0531628   -1.3748761  0.032451308   -2.0531628   0.67828679   421013 
 2635000   0.61172243   -2.0535046   -2.0535046   -1.3746532  0.039769578   -2.0535046   0.67885144   421013 
 2636000   0.60996247   -2.0515437   -2.0515437   -1.3746454  0.040012109   -2.0515437   0.67689835   421013 
 2637000   0.60904381    -2.051293    -2.051293   -1.3754141  0.041417341    -2.051293   0.67587888   421013 
 2638000   0.61100558   -2.0529445   -2.0529445   -1.3748886  0.035841178   -2.0529445   0.67805593   421013 
 2639000    0.6095983   -2.0515165   -2.0515165   -1.3750223  0.037050583   -2.0515165   0.67649421   421013 
 2640000   0.61004078   -2.0527021   -2.0527021   -1.3757168  0.038840649   -2.0527021   0.67698525   421013 
 2641000   0.61032275   -2.0528445   -2.0528445   -1.3755463   0.03705777   -2.0528445   0.67729817   421013 
 2642000   0.60978986   -2.0518664   -2.0518664   -1.3751596  0.039983803   -2.0518664    0.6767068   421013 
 2643000   0.60877976   -2.0509585   -2.0509585   -1.3753727  0.036960193   -2.0509585   0.67558586   421013 
 2644000   0.61038652   -2.0522231   -2.0522231   -1.3748542  0.036770121   -2.0522231   0.67736894   421013 
 2645000   0.61093381   -2.0526697   -2.0526697   -1.3746934  0.037907806   -2.0526697   0.67797628   421013 
 2646000   0.61073464   -2.0528448   -2.0528448   -1.3750896  0.040525988   -2.0528448   0.67775525   421013 
 2647000   0.61074097   -2.0532061   -2.0532061   -1.3754438  0.041041524   -2.0532061   0.67776228   421013 
 2648000   0.61050423   -2.0532148   -2.0532148   -1.3757152  0.045599097   -2.0532148   0.67749956   421013 
 2649000   0.60964858   -2.0521932   -2.0521932   -1.3756432   0.02931525   -2.0521932   0.67655001   421013 
 2650000   0.60988761    -2.052366    -2.052366   -1.3755507  0.042570185    -2.052366   0.67681528   421013 
 2651000   0.60976975   -2.0532866   -2.0532866   -1.3766021  0.038811406   -2.0532866   0.67668448   421013 
 2652000   0.61080891   -2.0545444   -2.0545444   -1.3767068  0.041699491   -2.0545444   0.67783767   421013 
 2653000   0.60924878   -2.0526838   -2.0526838   -1.3765774  0.045488797   -2.0526838   0.67610634   421013 
 2654000   0.60948702   -2.0541526   -2.0541526   -1.3777819  0.030994044   -2.0541526   0.67637073   421013 
 2655000   0.60993252    -2.054785    -2.054785   -1.3779199  0.031732089    -2.054785   0.67686512   421013 
 2656000   0.61004235   -2.0550557   -2.0550557   -1.3780687  0.036944047   -2.0550557     0.676987   421013 
 2657000   0.60990381    -2.054664    -2.054664   -1.3778307  0.038543146    -2.054664   0.67683326   421013 
 2658000   0.61003089   -2.0551639   -2.0551639   -1.3781896  0.044169375   -2.0551639   0.67697428   421013 
 2659000   0.61027717   -2.0550578   -2.0550578   -1.3778102  0.044273768   -2.0550578   0.67724759   421013 
 2660000   0.60868232    -2.053248    -2.053248   -1.3777703  0.044948715    -2.053248   0.67547772   421013 
 2661000   0.61045897   -2.0544148   -2.0544148   -1.3769654  0.034811854   -2.0544148   0.67744933   421013 
 2662000   0.60995034   -2.0536557   -2.0536557   -1.3767708  0.042205967   -2.0536557   0.67688489   421013 
 2663000   0.61080818    -2.054166    -2.054166   -1.3763292  0.033800055    -2.054166   0.67783687   421013 
 2664000   0.60979654   -2.0532981   -2.0532981   -1.3765839   0.03853267   -2.0532981   0.67671421   421013 
 2665000   0.61009523   -2.0534568   -2.0534568   -1.3764111  0.033932854   -2.0534568   0.67704568   421013 
 2666000   0.61050928   -2.0538648   -2.0538648   -1.3763596  0.034246026   -2.0538648   0.67750516   421013 
 2667000   0.61017913   -2.0536372   -2.0536372   -1.3764985  0.032993052   -2.0536372   0.67713879   421013 
 2668000   0.60959976   -2.0526435   -2.0526435   -1.3761477  0.034725969   -2.0526435   0.67649584   421013 
 2669000   0.61092579   -2.0536913   -2.0536913   -1.3757239  0.039977765   -2.0536913   0.67796739   421013 
 2670000   0.61011946   -2.0532181   -2.0532181   -1.3761455  0.035564161   -2.0532181   0.67707257   421013 
 2671000   0.61066394    -2.053795    -2.053795   -1.3761182  0.039508285    -2.053795    0.6776768   421013 
 2672000   0.60938802    -2.052091    -2.052091   -1.3758301  0.040971195    -2.052091   0.67626086   421013 
 2673000   0.60912989   -2.0519933   -2.0519933   -1.3760189  0.031969211   -2.0519933   0.67597441   421013 
 2674000   0.61007735   -2.0538952   -2.0538952   -1.3768693  0.035911686   -2.0538952   0.67702584   421013 
 2675000   0.60828512   -2.0519159   -2.0519159    -1.376879  0.040849293   -2.0519159   0.67503694   421013 
 2676000   0.60784177   -2.0518895   -2.0518895   -1.3773445  0.039540169   -2.0518895   0.67454493   421013 
 2677000   0.60944135   -2.0533107   -2.0533107   -1.3769906  0.037127085   -2.0533107   0.67632005   421013 
 2678000   0.60964618   -2.0545197   -2.0545197   -1.3779723  0.039331522   -2.0545197   0.67654735   421013 
 2679000   0.60852571    -2.053002    -2.053002   -1.3776981  0.038119121    -2.053002   0.67530392   421013 
 2680000   0.60905182   -2.0530863   -2.0530863   -1.3771985  0.043212932   -2.0530863   0.67588777   421013 
 2681000   0.61010252   -2.0534819   -2.0534819   -1.3764281  0.037213109   -2.0534819   0.67705377   421013 
 2682000   0.60975436   -2.0541279   -2.0541279   -1.3774605  0.031602789   -2.0541279    0.6766674   421013 
 2683000    0.6088565   -2.0531108   -2.0531108   -1.3774398  0.040171026   -2.0531108   0.67567101   421013 
 2684000   0.61010496   -2.0542847   -2.0542847   -1.3772282  0.036205348   -2.0542847   0.67705648   421013 
 2685000   0.60994347   -2.0537703   -2.0537703   -1.3768931  0.041001837   -2.0537703   0.67687727   421013 
 2686000   0.60957213   -2.0544517   -2.0544517   -1.3779865  0.035340331   -2.0544517   0.67646518   421013 
 2687000   0.60913688    -2.053403    -2.053403   -1.3774208  0.035160894    -2.053403   0.67598217   421013 
 2688000   0.60919897   -2.0539267   -2.0539267   -1.3778756  0.047558018   -2.0539267   0.67605107   421013 
 2689000   0.60911627   -2.0542727   -2.0542727   -1.3783134  0.035084207   -2.0542727   0.67595929   421013 
 2690000   0.60899399   -2.0538249   -2.0538249   -1.3780014  0.032645889   -2.0538249    0.6758236   421013 
 2691000   0.60964767   -2.0544939   -2.0544939   -1.3779449  0.039532738   -2.0544939     0.676549   421013 
 2692000   0.61025347   -2.0546483   -2.0546483    -1.377427  0.034198679   -2.0546483   0.67722128   421013 
 2693000   0.60964689   -2.0546402   -2.0546402    -1.378092  0.041127411   -2.0546402   0.67654814   421013 
 2694000     0.610016   -2.0546738   -2.0546738   -1.3777161   0.03872224   -2.0546738   0.67695775   421013 
 2695000   0.61113188   -2.0560516   -2.0560516   -1.3778555  0.039165842   -2.0560516   0.67819609   421013 
 2696000   0.60910507   -2.0542816   -2.0542816   -1.3783348  0.041558753   -2.0542816   0.67594687   421013 
 2697000    0.6105237   -2.0561701   -2.0561701   -1.3786489  0.049975029   -2.0561701   0.67752117   421013 
 2698000   0.61033739   -2.0564999   -2.0564999   -1.3791854  0.039823329   -2.0564999   0.67731441   421013 
 2699000   0.60921604   -2.0547283   -2.0547283   -1.3786583  0.040656531   -2.0547283   0.67607001   421013 
 2700000   0.60964904   -2.0553908   -2.0553908   -1.3788402  0.034754061   -2.0553908   0.67655053   421013 
 2701000   0.60968593   -2.0559529   -2.0559529   -1.3793615  0.035411087   -2.0559529   0.67659147   421013 
 2702000   0.61106275   -2.0563479   -2.0563479   -1.3782285  0.042027022   -2.0563479   0.67811938   421013 
 2703000   0.61091531   -2.0558069   -2.0558069   -1.3778511  0.040693048   -2.0558069   0.67795576   421013 
 2704000   0.60959394   -2.0552079   -2.0552079   -1.3787185  0.038370564   -2.0552079   0.67648938   421013 
 2705000   0.60921486   -2.0544905   -2.0544905   -1.3784218   0.04569478   -2.0544905    0.6760687   421013 
 2706000   0.60956502    -2.054811    -2.054811   -1.3783537  0.039545918    -2.054811   0.67645729   421013 
 2707000   0.60939867   -2.0551635   -2.0551635   -1.3788908  0.042014489   -2.0551635   0.67627268   421013 
 2708000    0.6103432   -2.0568135   -2.0568135   -1.3794926  0.040408849   -2.0568135   0.67732086   421013 
 2709000    0.6098205   -2.0554457   -2.0554457   -1.3787049  0.034616052   -2.0554457    0.6767408   421013 
 2710000   0.60909432   -2.0551508   -2.0551508   -1.3792158  0.038764196   -2.0551508   0.67593493   421013 
 2711000   0.60948696   -2.0557783   -2.0557783   -1.3794077  0.042148454   -2.0557783   0.67637066   421013 
 2712000   0.60973749   -2.0553074   -2.0553074   -1.3786587  0.037647642   -2.0553074   0.67664869   421013 
 2713000   0.60872353    -2.054582    -2.054582   -1.3790586  0.043749034    -2.054582   0.67552345   421013 
 2714000    0.6106881   -2.0563377   -2.0563377   -1.3786341  0.037265189   -2.0563377   0.67770361   421013 
 2715000   0.60848741   -2.0549428   -2.0549428   -1.3796813  0.042895216   -2.0549428   0.67526143   421013 
 2716000   0.60940874   -2.0557931   -2.0557931   -1.3795093  0.031932249   -2.0557931   0.67628385   421013 
 2717000    0.6091295   -2.0551701   -2.0551701   -1.3791961  0.040273771   -2.0551701   0.67597398   421013 
 2718000   0.60999019   -2.0563947   -2.0563947   -1.3794656  0.037228082   -2.0563947   0.67692911   421013 
 2719000   0.60894155   -2.0559089   -2.0559089   -1.3801435  0.043427066   -2.0559089    0.6757654   421013 
 2720000   0.61097632   -2.0577355   -2.0577355    -1.379712   0.03509437   -2.0577355   0.67802346   421013 
 2721000   0.60996937   -2.0567342   -2.0567342   -1.3798282  0.040752663   -2.0567342     0.676906   421013 
 2722000   0.60946641   -2.0572613   -2.0572613   -1.3809134  0.042193428   -2.0572613   0.67634786   421013 
 2723000   0.60918622   -2.0569324   -2.0569324   -1.3808955  0.032507978   -2.0569324   0.67603691   421013 
 2724000   0.60971455   -2.0568118   -2.0568118   -1.3801885  0.037336412   -2.0568118   0.67662323   421013 
 2725000   0.60914093   -2.0569402   -2.0569402   -1.3809535  0.043339869   -2.0569402   0.67598665   421013 
 2726000   0.60844968   -2.0566507   -2.0566507   -1.3814312  0.037653892   -2.0566507   0.67521955   421013 
 2727000   0.60958332   -2.0573115   -2.0573115   -1.3808339   0.04381769   -2.0573115    0.6764776   421013 
 2728000   0.60890695   -2.0567058   -2.0567058   -1.3809789  0.042746466   -2.0567058     0.675727   421013 
 2729000   0.61036198   -2.0582389   -2.0582389   -1.3808972  0.037457775   -2.0582389    0.6773417   421013 
 2730000   0.61136652   -2.0588523   -2.0588523   -1.3803958  0.041021872   -2.0588523   0.67845648   421013 
 2731000   0.61116087   -2.0585603   -2.0585603    -1.380332  0.040217366   -2.0585603   0.67822826   421013 
 2732000    0.6098878   -2.0568341   -2.0568341   -1.3800186  0.035870302   -2.0568341   0.67681548   421013 
 2733000   0.61096631   -2.0577554   -2.0577554    -1.379743   0.03938172   -2.0577554   0.67801235   421013 
 2734000   0.61064749   -2.0566523   -2.0566523   -1.3789938  0.030246495   -2.0566523   0.67765854   421013 
 2735000   0.61080859   -2.0572274   -2.0572274   -1.3793901  0.045270418   -2.0572274   0.67783732   421013 
 2736000   0.60973521   -2.0568995   -2.0568995   -1.3802533  0.037612078   -2.0568995   0.67664615   421013 
 2737000   0.61097043   -2.0583577   -2.0583577   -1.3803408  0.044362072   -2.0583577   0.67801692   421013 
 2738000   0.60953971   -2.0576557   -2.0576557   -1.3812265  0.035026443   -2.0576557    0.6764292   421013 
 2739000   0.60911537   -2.0566054   -2.0566054   -1.3806471   0.03978151   -2.0566054    0.6759583   421013 
 2740000   0.60896078   -2.0563308   -2.0563308    -1.380544  0.044903152   -2.0563308   0.67578674   421013 
 2741000    0.6087423   -2.0556791   -2.0556791   -1.3801348  0.037009238   -2.0556791   0.67554428   421013 
 2742000   0.61031447   -2.0567048   -2.0567048   -1.3794158  0.033585832   -2.0567048   0.67728898   421013 
 2743000   0.60950979   -2.0561866   -2.0561866   -1.3797906  0.037544644   -2.0561866   0.67639599   421013 
 2744000   0.60955144   -2.0560456   -2.0560456   -1.3796034   0.03679197   -2.0560456   0.67644221   421013 
 2745000     0.610637   -2.0570168   -2.0570168   -1.3793699  0.035572238   -2.0570168   0.67764691   421013 
 2746000   0.60919267   -2.0552002   -2.0552002   -1.3791562  0.037017468   -2.0552002   0.67604408   421013 
 2747000   0.60988063   -2.0570485   -2.0570485    -1.380241  0.040293461   -2.0570485   0.67680752   421013 
 2748000   0.61018638   -2.0573886   -2.0573886   -1.3802418  0.039450697   -2.0573886   0.67714683   421013 
 2749000   0.60971547   -2.0560939   -2.0560939   -1.3794697  0.032531222   -2.0560939   0.67662425   421013 
 2750000    0.6093812   -2.0561618   -2.0561618   -1.3799085  0.037129079   -2.0561618    0.6762533   421013 
 2751000    0.6096561   -2.0560143   -2.0560143   -1.3794559  0.038700298   -2.0560143   0.67655836   421013 
 2752000   0.61027923   -2.0570916   -2.0570916   -1.3798418   0.04516879   -2.0570916   0.67724987   421013 
 2753000   0.60911546   -2.0556743   -2.0556743   -1.3797159  0.038849281   -2.0556743    0.6759584   421013 
 2754000   0.61022528   -2.0567996   -2.0567996   -1.3796096  0.041327398   -2.0567996      0.67719   421013 
 2755000   0.61044801   -2.0577219   -2.0577219   -1.3802847  0.039915098   -2.0577219   0.67743717   421013 
 2756000   0.60915834   -2.0568878   -2.0568878   -1.3808818  0.044843182   -2.0568878   0.67600598   421013 
 2757000   0.60839931   -2.0564614   -2.0564614   -1.3812977  0.033029206   -2.0564614   0.67516365   421013 
 2758000   0.60908682   -2.0566259   -2.0566259   -1.3806993  0.035148328   -2.0566259   0.67592661   421013 
 2759000   0.60856554    -2.055595    -2.055595   -1.3802469   0.03585543    -2.055595   0.67534812   421013 
 2760000   0.60782681   -2.0553543   -2.0553543    -1.380826  0.042415348   -2.0553543   0.67452833   421013 
 2761000   0.60977457   -2.0566006   -2.0566006   -1.3799107  0.041645961   -2.0566006   0.67668983   421013 
 2762000   0.60980066   -2.0568105   -2.0568105   -1.3800917   0.03432459   -2.0568105   0.67671878   421013 
 2763000   0.60811779   -2.0554722   -2.0554722    -1.380621  0.035987194   -2.0554722   0.67485124   421013 
 2764000   0.60860277   -2.0562039   -2.0562039   -1.3808145  0.036325007   -2.0562039   0.67538944   421013 
 2765000   0.60972766   -2.0568384   -2.0568384   -1.3802006  0.043512043   -2.0568384   0.67663777   421013 
 2766000   0.60890569   -2.0561438   -2.0561438   -1.3804182  0.035979878   -2.0561438    0.6757256   421013 
 2767000    0.6089679   -2.0570335   -2.0570335   -1.3812389  0.031735033   -2.0570335   0.67579464   421013 
 2768000   0.60992424    -2.057945    -2.057945   -1.3810891  0.037881454    -2.057945   0.67685593   421013 
 2769000   0.60930168   -2.0571742   -2.0571742   -1.3810092  0.036340485   -2.0571742   0.67616505   421013 
 2770000   0.61045592    -2.057932    -2.057932   -1.3804861  0.038185712    -2.057932   0.67744595   421013 
 2771000   0.60919822   -2.0568281   -2.0568281   -1.3807779  0.041372705   -2.0568281   0.67605023   421013 
 2772000   0.60974279   -2.0569967   -2.0569967   -1.3803421  0.037537828   -2.0569967   0.67665456   421013 
 2773000   0.61099671   -2.0585454   -2.0585454   -1.3804993  0.043616601   -2.0585454   0.67804608   421013 
 2774000   0.61147739   -2.0592285   -2.0592285    -1.380649  0.039918282   -2.0592285   0.67857952   421013 
 2775000   0.61022508   -2.0586216   -2.0586216   -1.3814318  0.040497945   -2.0586216   0.67718977   421013 
 2776000   0.61002172   -2.0577463   -2.0577463   -1.3807822  0.037850243   -2.0577463    0.6769641   421013 
 2777000   0.60862175   -2.0559648   -2.0559648   -1.3805543  0.041188646   -2.0559648   0.67541051   421013 
 2778000   0.60887606   -2.0565908   -2.0565908   -1.3808981  0.037435306   -2.0565908   0.67569272   421013 
 2779000   0.60882707   -2.0560002   -2.0560002   -1.3803619  0.040365624   -2.0560002   0.67563835   421013 
 2780000   0.60978967   -2.0573726   -2.0573726   -1.3806661  0.035562424   -2.0573726   0.67670658   421013 
 2781000   0.60817968   -2.0557993   -2.0557993   -1.3808794  0.037274688   -2.0557993   0.67491992   421013 
 2782000   0.60829674   -2.0552314   -2.0552314   -1.3801816   0.03762932   -2.0552314   0.67504983   421013 
 2783000   0.60987504   -2.0569236   -2.0569236   -1.3801223  0.041106773   -2.0569236   0.67680133   421013 
 2784000   0.60899435   -2.0559705   -2.0559705   -1.3801465  0.033209516   -2.0559705   0.67582399   421013 
 2785000   0.60904978    -2.056547    -2.056547   -1.3806615  0.041871428    -2.056547    0.6758855   421013 
 2786000   0.61032196   -2.0574431   -2.0574431   -1.3801458  0.047237066   -2.0574431   0.67729729   421013 
 2787000   0.60994566   -2.0571817   -2.0571817    -1.380302  0.032994547   -2.0571817    0.6768797   421013 
 2788000   0.60976382   -2.0569761   -2.0569761   -1.3802982   0.02716494   -2.0569761    0.6766779   421013 
 2789000   0.60979909   -2.0578846   -2.0578846   -1.3811676  0.042153029   -2.0578846   0.67671704   421013 
 2790000   0.60914351   -2.0568552   -2.0568552   -1.3808657  0.041559432   -2.0568552   0.67598952   421013 
 2791000   0.61001658   -2.0586355   -2.0586355   -1.3816771  0.040678454   -2.0586355    0.6769584   421013 
 2792000   0.60995272   -2.0583215   -2.0583215    -1.381434  0.041819357   -2.0583215   0.67688753   421013 
 2793000   0.61040161   -2.0582476   -2.0582476   -1.3808619  0.042155975   -2.0582476   0.67738568   421013 
 2794000   0.61147584   -2.0595916   -2.0595916   -1.3810138   0.03784915   -2.0595916    0.6785778   421013 
 2795000     0.610911    -2.058543    -2.058543   -1.3805921  0.043144838    -2.058543   0.67795097   421013 
 2796000   0.60975116   -2.0580692   -2.0580692   -1.3814054  0.035114149   -2.0580692   0.67666386   421013 
 2797000   0.60808869   -2.0576015   -2.0576015   -1.3827826  0.039103592   -2.0576015   0.67481894   421013 
 2798000   0.60923836   -2.0589224   -2.0589224   -1.3828276  0.049133679   -2.0589224   0.67609477   421013 
 2799000   0.60990551    -2.059342    -2.059342   -1.3825068  0.036766793    -2.059342   0.67683514   421013 
 2800000   0.60912451   -2.0587909   -2.0587909   -1.3828224   0.04719747   -2.0587909   0.67596843   421013 
 2801000   0.60867909   -2.0588395   -2.0588395   -1.3833654  0.041347846   -2.0588395   0.67547414   421013 
 2802000   0.61005022   -2.0599688   -2.0599688   -1.3829731  0.038766638   -2.0599688   0.67699573   421013 
 2803000    0.6093994   -2.0598405   -2.0598405   -1.3835671  0.044497876   -2.0598405   0.67627349   421013 
 2804000   0.61056649   -2.0606426   -2.0606426   -1.3830739  0.038672855   -2.0606426   0.67756865   421013 
 2805000   0.61051042   -2.0596996   -2.0596996   -1.3821932  0.036045904   -2.0596996   0.67750643   421013 
 2806000   0.60969998   -2.0590202   -2.0590202   -1.3824131  0.048253902   -2.0590202   0.67660706   421013 
 2807000   0.60941241   -2.0579379   -2.0579379     -1.38165   0.03563177   -2.0579379   0.67628793   421013 
 2808000   0.60884504   -2.0574614   -2.0574614   -1.3818031  0.036852933   -2.0574614    0.6756583   421013 
 2809000   0.60892938   -2.0575489   -2.0575489   -1.3817971  0.039490216   -2.0575489   0.67575189   421013 
 2810000   0.60851557   -2.0576147   -2.0576147    -1.382322  0.032888829   -2.0576147   0.67529268   421013 
 2811000   0.60812346   -2.0566605   -2.0566605    -1.381803  0.038811226   -2.0566605   0.67485753   421013 
 2812000   0.60854601   -2.0572356   -2.0572356   -1.3819092  0.041327711   -2.0572356   0.67532645   421013 
 2813000   0.60950196   -2.0577215   -2.0577215   -1.3813342  0.033263381   -2.0577215    0.6763873   421013 
 2814000   0.61007488   -2.0591184   -2.0591184   -1.3820953  0.030320952   -2.0591184    0.6770231   421013 
 2815000   0.60900382   -2.0583089   -2.0583089   -1.3824744  0.039253357   -2.0583089    0.6758345   421013 
 2816000   0.60940368   -2.0590952   -2.0590952    -1.382817  0.036670029   -2.0590952   0.67627824   421013 
 2817000    0.6099347    -2.059639    -2.059639   -1.3827714  0.042138287    -2.059639   0.67686753   421013 
 2818000   0.60798473   -2.0572439   -2.0572439   -1.3825403  0.039998364   -2.0572439   0.67470357   421013 
 2819000   0.60909543    -2.058395    -2.058395   -1.3824589  0.037689567    -2.058395   0.67593616   421013 
 2820000   0.60994228   -2.0599459   -2.0599459     -1.38307  0.041512494   -2.0599459   0.67687594   421013 
 2821000   0.60974844   -2.0599384   -2.0599384   -1.3832776  0.038343471   -2.0599384   0.67666084   421013 
 2822000   0.60984996   -2.0595222   -2.0595222   -1.3827487  0.035581902   -2.0595222   0.67677349   421013 
 2823000   0.61014409   -2.0595388   -2.0595388   -1.3824389  0.038276354   -2.0595388    0.6770999   421013 
 2824000   0.61030637   -2.0596155   -2.0596155   -1.3823355  0.042422263   -2.0596155   0.67727999   421013 
 2825000    0.6095323   -2.0587234   -2.0587234   -1.3823025  0.033312746   -2.0587234   0.67642098   421013 
 2826000    0.6095457   -2.0579414   -2.0579414   -1.3815055  0.037617957   -2.0579414   0.67643584   421013 
 2827000    0.6108746   -2.0597699   -2.0597699   -1.3818593  0.041631887   -2.0597699   0.67791058   421013 
 2828000   0.61078711   -2.0598195   -2.0598195   -1.3820061  0.045594181   -2.0598195   0.67781349   421013 
 2829000   0.61111873   -2.0604211   -2.0604211   -1.3822396  0.031939051   -2.0604211    0.6781815   421013 
 2830000   0.60896259    -2.058196    -2.058196   -1.3824073  0.047460425    -2.058196   0.67578875   421013 
 2831000   0.60856753    -2.057886    -2.057886   -1.3825356  0.041795632    -2.057886   0.67535034   421013 
 2832000    0.6092061   -2.0591566   -2.0591566   -1.3830976  0.032884443   -2.0591566   0.67605898   421013 
 2833000   0.60923314   -2.0586094   -2.0586094   -1.3825204  0.036551792   -2.0586094   0.67608899   421013 
 2834000   0.60941364   -2.0589798   -2.0589798   -1.3826906  0.037496724   -2.0589798   0.67628929   421013 
 2835000     0.608743    -2.057787    -2.057787   -1.3822419   0.04074766    -2.057787   0.67554505   421013 
 2836000   0.60809998   -2.0575045   -2.0575045    -1.382673  0.035193657   -2.0575045   0.67483148   421013 
 2837000   0.60859175   -2.0584661   -2.0584661   -1.3830889  0.025670725   -2.0584661   0.67537722   421013 
 2838000     0.607811   -2.0580541   -2.0580541   -1.3835433  0.036666046   -2.0580541   0.67451078   421013 
 2839000   0.60676155   -2.0579648   -2.0579648   -1.3846187  0.035733574   -2.0579648   0.67334617   421013 
 2840000   0.60848229   -2.0591012   -2.0591012   -1.3838455  0.036271693   -2.0591012   0.67525574   421013 
 2841000   0.60863677    -2.059421    -2.059421   -1.3839939  0.038393404    -2.059421   0.67542717   421013 
 2842000   0.60884288   -2.0594718   -2.0594718   -1.3838159  0.045838328   -2.0594718    0.6756559   421013 
 2843000   0.60996073   -2.0606709   -2.0606709   -1.3837744  0.039338025   -2.0606709   0.67689642   421013 
 2844000   0.61002974   -2.0609356   -2.0609356   -1.3839626  0.046446511   -2.0609356   0.67697301   421013 
 2845000   0.60949734   -2.0609986   -2.0609986   -1.3846165  0.038256604   -2.0609986   0.67638218   421013 
 2846000   0.60879891   -2.0609718   -2.0609718   -1.3853647   0.04151858   -2.0609718    0.6756071   421013 
 2847000   0.60906448   -2.0608854   -2.0608854   -1.3849836  0.033288616   -2.0608854   0.67590182   421013 
 2848000   0.60876647   -2.0602866   -2.0602866   -1.3847155  0.043657951   -2.0602866    0.6755711   421013 
 2849000   0.60933507   -2.0607429   -2.0607429   -1.3845408  0.037924498   -2.0607429    0.6762021   421013 
 2850000   0.60925573   -2.0605966   -2.0605966   -1.3844826  0.044560481   -2.0605966   0.67611406   421013 
 2851000    0.6087216   -2.0609825   -2.0609825   -1.3854612   0.03464998   -2.0609825   0.67552131   421013 
 2852000   0.60981573   -2.0613837   -2.0613837   -1.3846482  0.041422495   -2.0613837   0.67673551   421013 
 2853000   0.60816757   -2.0605634   -2.0605634   -1.3856569  0.030624143   -2.0605634   0.67490648   421013 
 2854000   0.60804911   -2.0608388   -2.0608388   -1.3860638    0.0350834   -2.0608388   0.67477502   421013 
 2855000   0.60832585   -2.0614913   -2.0614913   -1.3864092  0.042230137   -2.0614913   0.67508213   421013 
 2856000   0.60781747   -2.0607076   -2.0607076   -1.3861897  0.036911794   -2.0607076   0.67451797   421013 
 2857000    0.6089256   -2.0615112   -2.0615112   -1.3857635  0.027265405   -2.0615112    0.6757477   421013 
 2858000   0.60930274   -2.0619584   -2.0619584   -1.3857922  0.039662847   -2.0619584   0.67616622   421013 
 2859000   0.60996618   -2.0625359   -2.0625359   -1.3856334  0.040598863   -2.0625359   0.67690247   421013 
 2860000   0.60912724   -2.0617866   -2.0617866   -1.3858151  0.044112225   -2.0617866   0.67597147   421013 
 2861000   0.60887645   -2.0615462   -2.0615462   -1.3858531  0.038360703   -2.0615462   0.67569315   421013 
 2862000   0.60825156   -2.0611692   -2.0611692   -1.3861695  0.038712092   -2.0611692   0.67499969   421013 
 2863000   0.60909603   -2.0619713   -2.0619713   -1.3860345  0.042698657   -2.0619713   0.67593683   421013 
 2864000   0.60825326   -2.0611059   -2.0611059   -1.3861043  0.035402675   -2.0611059   0.67500157   421013 
 2865000   0.60878734   -2.0611158   -2.0611158   -1.3855216  0.035479688   -2.0611158   0.67559426   421013 
 2866000   0.60985486   -2.0626658   -2.0626658   -1.3858869  0.035237845   -2.0626658   0.67677894   421013 
 2867000   0.61014096   -2.0632138   -2.0632138   -1.3861173  0.041140103   -2.0632138   0.67709643   421013 
 2868000   0.60960454   -2.0625168   -2.0625168   -1.3860157  0.039871493   -2.0625168   0.67650115   421013 
 2869000   0.60844089   -2.0610136   -2.0610136   -1.3858039  0.041911946   -2.0610136   0.67520979   421013 
 2870000   0.61006282   -2.0623739   -2.0623739   -1.3853642  0.036727507   -2.0623739   0.67700972   421013 
 2871000   0.60887253   -2.0610303   -2.0610303   -1.3853415   0.04014715   -2.0610303    0.6756888   421013 
 2872000   0.60919909   -2.0625656   -2.0625656   -1.3865144  0.040740015   -2.0625656    0.6760512   421013 
 2873000   0.60952548   -2.0630908   -2.0630908   -1.3866774  0.040403642   -2.0630908   0.67641341   421013 
 2874000   0.60870809   -2.0622561   -2.0622561   -1.3867497   0.04058818   -2.0622561   0.67550631   421013 
 2875000   0.60915556   -2.0625337   -2.0625337   -1.3865308  0.034435613   -2.0625337   0.67600289   421013 
 2876000    0.6101953   -2.0633663   -2.0633663   -1.3862095  0.041771773   -2.0633663   0.67715674   421013 
 2877000   0.60915316   -2.0619089   -2.0619089   -1.3859087  0.043128859   -2.0619089   0.67600022   421013 
 2878000   0.60881944    -2.060954    -2.060954   -1.3853241  0.041653773    -2.060954   0.67562989   421013 
 2879000    0.6093887   -2.0606794   -2.0606794   -1.3844178  0.044395457   -2.0606794   0.67626161   421013 
 2880000   0.60857456   -2.0602933   -2.0602933   -1.3849352  0.035297182   -2.0602933   0.67535814   421013 
 2881000   0.60919606   -2.0606098   -2.0606098    -1.384562  0.042914749   -2.0606098   0.67604784   421013 
 2882000   0.60982254   -2.0610171   -2.0610171    -1.384274  0.048406368   -2.0610171   0.67674306   421013 
 2883000   0.60942131   -2.0603438   -2.0603438    -1.384046  0.039543681   -2.0603438    0.6762978   421013 
 2884000   0.61038399   -2.0605358   -2.0605358   -1.3831697  0.045590241   -2.0605358   0.67736613   421013 
 2885000   0.60880187   -2.0599761   -2.0599761   -1.3843657  0.041758268   -2.0599761   0.67561039   421013 
 2886000   0.60857606   -2.0598459   -2.0598459   -1.3844861  0.040458051   -2.0598459    0.6753598   421013 
 2887000   0.60836289   -2.0590434   -2.0590434   -1.3839202  0.043143581   -2.0590434   0.67512324   421013 
 2888000   0.60826608   -2.0591907   -2.0591907   -1.3841749  0.031709947   -2.0591907    0.6750158   421013 
 2889000   0.60878988    -2.060168    -2.060168   -1.3845709  0.031648766    -2.060168   0.67559708   421013 
 2890000   0.60896535   -2.0593804   -2.0593804   -1.3835885  0.044788161   -2.0593804   0.67579181   421013 
 2891000   0.60891763   -2.0587783   -2.0587783   -1.3830395  0.026069754   -2.0587783   0.67573885   421013 
 2892000   0.60919895   -2.0593864   -2.0593864   -1.3833354  0.036688541   -2.0593864   0.67605104   421013 
 2893000   0.60872197   -2.0594357   -2.0594357    -1.383914  0.038386235   -2.0594357   0.67552172   421013 
 2894000   0.60887058   -2.0590971   -2.0590971   -1.3834105  0.039883042   -2.0590971   0.67568664   421013 
 2895000   0.60840102   -2.0584746   -2.0584746   -1.3833091  0.035474945   -2.0584746   0.67516555   421013 
 2896000   0.60839547   -2.0581148   -2.0581148   -1.3829554  0.041888319   -2.0581148   0.67515939   421013 
 2897000    0.6102289   -2.0604448   -2.0604448   -1.3832507  0.034574398   -2.0604448   0.67719402   421013 
 2898000   0.61026356   -2.0598194   -2.0598194   -1.3825869  0.039373849   -2.0598194   0.67723248   421013 
 2899000    0.6099485   -2.0600978   -2.0600978    -1.383215   0.03881505   -2.0600978   0.67688284   421013 
 2900000   0.61129624    -2.061446    -2.061446   -1.3830675   0.04757953    -2.061446   0.67837849   421013 
 2901000   0.61047157    -2.061065    -2.061065   -1.3836017  0.036966566    -2.061065   0.67746331   421013 
 2902000   0.61073077   -2.0613556   -2.0613556   -1.3836046   0.04364816   -2.0613556   0.67775096   421013 
 2903000   0.61027159   -2.0616939   -2.0616939   -1.3844525  0.043272452   -2.0616939   0.67724139   421013 
 2904000   0.61014163   -2.0615459   -2.0615459   -1.3844488  0.044400293   -2.0615459   0.67709717   421013 
 2905000   0.60861807   -2.0599136   -2.0599136   -1.3845072  0.037717406   -2.0599136   0.67540642   421013 
 2906000   0.60870852   -2.0593912   -2.0593912   -1.3838844  0.045387435   -2.0593912    0.6755068   421013 
 2907000   0.60893961   -2.0604782   -2.0604782    -1.384715  0.036850713   -2.0604782   0.67576324   421013 
 2908000    0.6089326   -2.0602498   -2.0602498   -1.3844943  0.034957764   -2.0602498   0.67575546   421013 
 2909000   0.60845677    -2.060866    -2.060866   -1.3856385  0.028877767    -2.060866   0.67522742   421013 
 2910000   0.60997737    -2.061774    -2.061774   -1.3848591  0.042923611    -2.061774   0.67691489   421013 
 2911000   0.60932442   -2.0605864   -2.0605864   -1.3843962  0.036952706   -2.0605864   0.67619028   421013 
 2912000   0.60962282   -2.0604744   -2.0604744    -1.383953   0.03976725   -2.0604744   0.67652143   421013 
 2913000   0.60881708   -2.0603251   -2.0603251   -1.3846978  0.040806798   -2.0603251   0.67562727   421013 
 2914000   0.60944031    -2.061458    -2.061458   -1.3851391  0.031364751    -2.061458    0.6763189   421013 
 2915000   0.60877176   -2.0606048   -2.0606048   -1.3850279  0.037876558   -2.0606048   0.67557697   421013 
 2916000   0.60871021   -2.0604959   -2.0604959   -1.3849873  0.037113266   -2.0604959   0.67550867   421013 
 2917000   0.60859932   -2.0600543   -2.0600543   -1.3846687  0.044356354   -2.0600543   0.67538561   421013 
 2918000   0.60872971   -2.0605506   -2.0605506   -1.3850203  0.034600968   -2.0605506   0.67553031   421013 
 2919000   0.60858141   -2.0607032   -2.0607032   -1.3853375  0.037520368   -2.0607032   0.67536574   421013 
 2920000   0.60853966   -2.0609186   -2.0609186   -1.3855992  0.037803007   -2.0609186   0.67531941   421013 
 2921000    0.6091608   -2.0614564   -2.0614564   -1.3854477  0.035987605   -2.0614564   0.67600871   421013 
 2922000   0.60886459   -2.0612737   -2.0612737   -1.3855937  0.040165948   -2.0612737   0.67567999   421013 
 2923000   0.60841159   -2.0615547   -2.0615547   -1.3863774  0.038748594   -2.0615547   0.67517728   421013 
 2924000   0.60858274   -2.0611719   -2.0611719   -1.3858047  0.042812144   -2.0611719   0.67536722   421013 
 2925000    0.6089537   -2.0614256   -2.0614256   -1.3856467  0.036499167   -2.0614256   0.67577888   421013 
 2926000   0.60889944   -2.0614645   -2.0614645   -1.3857458  0.042347701   -2.0614645   0.67571867   421013 
 2927000   0.60785741   -2.0599561   -2.0599561   -1.3853939  0.042726671   -2.0599561   0.67456228   421013 
 2928000   0.60964746   -2.0610347   -2.0610347   -1.3844859  0.043188238   -2.0610347   0.67654878   421013 
 2929000   0.60904766    -2.061165    -2.061165   -1.3852819  0.044175218    -2.061165   0.67588316   421013 
 2930000   0.60915064   -2.0610597   -2.0610597   -1.3850623  0.038062433   -2.0610597   0.67599743   421013 
 2931000   0.60878961   -2.0610322   -2.0610322   -1.3854354  0.040021997   -2.0610322   0.67559678   421013 
 2932000   0.61052234   -2.0621157   -2.0621157    -1.384596  0.034767564   -2.0621157   0.67751966   421013 
 2933000   0.61062841   -2.0628113   -2.0628113    -1.385174  0.043592914   -2.0628113   0.67763737   421013 
 2934000   0.61011761   -2.0625292   -2.0625292   -1.3854587  0.036619533   -2.0625292   0.67707052   421013 
 2935000   0.60942342    -2.062212    -2.062212   -1.3859119  0.039812034    -2.062212   0.67630015   421013 
 2936000   0.60990328   -2.0624765   -2.0624765   -1.3856438  0.044128313   -2.0624765   0.67683267   421013 
 2937000   0.60904073   -2.0615165   -2.0615165   -1.3856411  0.040891736   -2.0615165   0.67587546   421013 
 2938000   0.60936034   -2.0610854   -2.0610854   -1.3848553  0.036533749   -2.0610854   0.67623014   421013 
 2939000   0.60892382   -2.0611874   -2.0611874   -1.3854417  0.042351456   -2.0611874   0.67574573   421013 
 2940000   0.60876933   -2.0619163   -2.0619163    -1.386342  0.037849838   -2.0619163   0.67557428   421013 
 2941000    0.6096785   -2.0626579   -2.0626579   -1.3860747  0.035415174   -2.0626579   0.67658321   421013 
 2942000    0.6079109   -2.0613277   -2.0613277    -1.386706  0.047745491   -2.0613277   0.67462164   421013 
 2943000   0.60887016   -2.0621842   -2.0621842   -1.3864981  0.039429582   -2.0621842   0.67568617   421013 
 2944000   0.60918939   -2.0628057   -2.0628057   -1.3867652  0.044444846   -2.0628057   0.67604043   421013 
 2945000   0.60825845   -2.0614669   -2.0614669   -1.3864595  0.032918389   -2.0614669   0.67500734   421013 
 2946000   0.60827461   -2.0615506   -2.0615506   -1.3865253  0.038182253   -2.0615506   0.67502527   421013 
 2947000   0.60956164   -2.0632725   -2.0632725    -1.386819   0.03404091   -2.0632725   0.67645353   421013 
 2948000   0.60904949   -2.0618843   -2.0618843   -1.3859991   0.03771666   -2.0618843   0.67588518   421013 
 2949000    0.6086921   -2.0614699   -2.0614699   -1.3859813  0.038393187   -2.0614699   0.67548858   421013 
 2950000   0.60939511   -2.0617529   -2.0617529   -1.3854842  0.041053778   -2.0617529   0.67626873   421013 
 2951000   0.60944494   -2.0621367   -2.0621367   -1.3858127  0.036438521   -2.0621367   0.67632403   421013 
 2952000   0.60857035   -2.0614921   -2.0614921   -1.3861386  0.040910385   -2.0614921   0.67535346   421013 
 2953000   0.60989405   -2.0627062   -2.0627062   -1.3858838  0.037493304   -2.0627062   0.67682243   421013 
 2954000   0.60816937   -2.0611486   -2.0611486   -1.3862401  0.035854406   -2.0611486   0.67490848   421013 
 2955000   0.60875068   -2.0613729   -2.0613729   -1.3858193  0.036212823   -2.0613729   0.67555358   421013 
 2956000   0.60939384   -2.0620976   -2.0620976   -1.3858302  0.028615503   -2.0620976   0.67626733   421013 
 2957000   0.60885694   -2.0619472   -2.0619472   -1.3862757  0.040300531   -2.0619472    0.6756715   421013 
 2958000    0.6085853   -2.0615569   -2.0615569   -1.3861869  0.040524536   -2.0615569   0.67537006   421013 
 2959000   0.60976973   -2.0623081   -2.0623081   -1.3856237  0.045959518   -2.0623081   0.67668446   421013 
 2960000   0.61059332    -2.062939    -2.062939   -1.3853406  0.036920991    -2.062939   0.67759842   421013 
 2961000   0.61029215   -2.0622493   -2.0622493   -1.3849851  0.030956603   -2.0622493   0.67726421   421013 
 2962000   0.61026187   -2.0622765   -2.0622765   -1.3850459  0.043989202   -2.0622765   0.67723061   421013 
 2963000   0.60825206    -2.061135    -2.061135   -1.3861348  0.037490796    -2.061135   0.67500025   421013 
 2964000   0.60892152   -2.0613225   -2.0613225   -1.3855794  0.038491998   -2.0613225   0.67574317   421013 
 2965000   0.60940744   -2.0623312   -2.0623312   -1.3860488  0.041615309   -2.0623312   0.67628241   421013 
 2966000    0.6084082   -2.0615034   -2.0615034   -1.3863299  0.034516668   -2.0615034   0.67517352   421013 
 2967000   0.60895318   -2.0624964   -2.0624964   -1.3867181  0.040976563   -2.0624964   0.67577831   421013 
 2968000   0.60949229   -2.0627979   -2.0627979   -1.3864214  0.039330125   -2.0627979   0.67637657   421013 
 2969000   0.60983779   -2.0630196   -2.0630196   -1.3862596   0.03708445   -2.0630196   0.67675999   421013 
 2970000   0.60890495   -2.0620393   -2.0620393   -1.3863146  0.038829917   -2.0620393   0.67572478   421013 
 2971000   0.61017357   -2.0631965   -2.0631965   -1.3860638  0.040843229   -2.0631965   0.67713262   421013 
 2972000   0.61040587    -2.063272    -2.063272   -1.3858816  0.036327032    -2.063272   0.67739041   421013 
 2973000   0.60998549   -2.0632324   -2.0632324   -1.3863085  0.045424755   -2.0632324    0.6769239   421013 
 2974000   0.61005848   -2.0627836   -2.0627836   -1.3857787  0.041370436   -2.0627836   0.67700489   421013 
 2975000   0.60918409   -2.0629056   -2.0629056   -1.3868711  0.039517757   -2.0629056   0.67603455   421013 
 2976000   0.61011107   -2.0632794   -2.0632794   -1.3862161  0.044872863   -2.0632794   0.67706326   421013 
 2977000    0.6097865   -2.0631108   -2.0631108   -1.3864077  0.038540769   -2.0631108   0.67670307   421013 
 2978000   0.60859668   -2.0618387   -2.0618387    -1.386456  0.035181252   -2.0618387   0.67538268   421013 
 2979000   0.60860789   -2.0615029   -2.0615029   -1.3861078  0.038382775   -2.0615029   0.67539513   421013 
 2980000   0.60841596   -2.0620858   -2.0620858   -1.3869037  0.028148874   -2.0620858   0.67518213   421013 
 2981000   0.60892034   -2.0622848   -2.0622848    -1.386543  0.031988441   -2.0622848   0.67574186   421013 
 2982000   0.60913447   -2.0623387   -2.0623387   -1.3863592  0.043568621   -2.0623387   0.67597949   421013 
 2983000    0.6074023   -2.0613134   -2.0613134   -1.3872562  0.038999204   -2.0613134   0.67405724   421013 
 2984000   0.60743474   -2.0617901   -2.0617901   -1.3876969  0.040370587   -2.0617901   0.67409324   421013 
 2985000   0.60798897   -2.0624927   -2.0624927   -1.3877844  0.029340404   -2.0624927   0.67470828   421013 
 2986000   0.60817086   -2.0624771   -2.0624771    -1.387567   0.04071484   -2.0624771   0.67491013   421013 
 2987000   0.60821829   -2.0620734   -2.0620734   -1.3871106  0.043081293   -2.0620734   0.67496276   421013 
 2988000   0.60916723   -2.0629806   -2.0629806   -1.3869648  0.041231753   -2.0629806   0.67601585   421013 
 2989000   0.61034939   -2.0649505   -2.0649505   -1.3876228  0.043761374   -2.0649505   0.67732774   421013 
 2990000   0.60944593   -2.0635288   -2.0635288   -1.3872036  0.037833442   -2.0635288   0.67632513   421013 
 2991000   0.60905765   -2.0631161   -2.0631161   -1.3872219  0.045609426   -2.0631161   0.67589424   421013 
 2992000   0.61063182   -2.0651637   -2.0651637   -1.3875226  0.028393207   -2.0651637   0.67764115   421013 
 2993000   0.60905129    -2.063798    -2.063798   -1.3879109   0.03906579    -2.063798   0.67588718   421013 
 2994000   0.60975489   -2.0647426   -2.0647426   -1.3880746  0.040223674   -2.0647426   0.67666799   421013 
 2995000   0.60889204   -2.0638046   -2.0638046   -1.3880941  0.041527754   -2.0638046   0.67571046   421013 
 2996000   0.60958946   -2.0645432   -2.0645432   -1.3880588  0.049412865   -2.0645432   0.67648441   421013 
 2997000   0.60861093   -2.0649734   -2.0649734   -1.3895749    0.0381506   -2.0649734    0.6753985   421013 
 2998000   0.60868826   -2.0651891   -2.0651891   -1.3897048  0.043531315   -2.0651891   0.67548431   421013 
 2999000   0.60957631   -2.0658672   -2.0658672   -1.3893974  0.036318245   -2.0658672   0.67646982   421013 
 3000000   0.60794063   -2.0636842   -2.0636842   -1.3890296  0.046868969   -2.0636842   0.67465464   421013 
 3001000   0.61032552   -2.0664889   -2.0664889   -1.3891877  0.042125198   -2.0664889   0.67730124   421013 
 3002000   0.60977759   -2.0656541   -2.0656541   -1.3889609  0.044318065   -2.0656541   0.67669318   421013 
 3003000    0.6097933   -2.0652582   -2.0652582   -1.3885476  0.040755602   -2.0652582   0.67671062   421013 
 3004000   0.61039296   -2.0651122   -2.0651122   -1.3877361  0.041516907   -2.0651122   0.67737609   421013 
 3005000    0.6112285   -2.0662365   -2.0662365   -1.3879332  0.038847603   -2.0662365   0.67830331   421013 
 3006000   0.60908226   -2.0642348   -2.0642348   -1.3883133  0.041528775   -2.0642348   0.67592155   421013 
 3007000   0.60857585   -2.0638557   -2.0638557   -1.3884961  0.043447902   -2.0638557   0.67535956   421013 
 3008000   0.60844192   -2.0634383   -2.0634383   -1.3882273  0.041820006   -2.0634383   0.67521094   421013 
 3009000   0.60905928   -2.0642487   -2.0642487   -1.3883527  0.041855701   -2.0642487   0.67589604   421013 
 3010000   0.60973087   -2.0649304   -2.0649304   -1.3882891  0.044648316   -2.0649304   0.67664133   421013 
 3011000   0.60953603   -2.0651484   -2.0651484   -1.3887233  0.039760598   -2.0651484   0.67642511   421013 
 3012000   0.60849258     -2.06342     -2.06342   -1.3881528  0.035577125     -2.06342   0.67526716   421013 
 3013000   0.60834539   -2.0639945   -2.0639945   -1.3888907  0.033587118   -2.0639945   0.67510381   421013 
 3014000   0.60949987   -2.0645616   -2.0645616   -1.3881766  0.030405357   -2.0645616   0.67638499   421013 
 3015000   0.60944533   -2.0642385   -2.0642385    -1.387914  0.042137645   -2.0642385   0.67632446   421013 
 3016000    0.6099592   -2.0644621   -2.0644621   -1.3875674  0.038598614   -2.0644621   0.67689472   421013 
 3017000   0.60963633   -2.0647558   -2.0647558   -1.3882194  0.034490315   -2.0647558   0.67653642   421013 
 3018000   0.60794808   -2.0626128   -2.0626128   -1.3879499  0.042301781   -2.0626128    0.6746629   421013 
 3019000   0.60912615   -2.0643637   -2.0643637   -1.3883934  0.036101802   -2.0643637   0.67597026   421013 
 3020000   0.60722025   -2.0624417   -2.0624417   -1.3885865  0.038086278   -2.0624417    0.6738552   421013 
 3021000   0.60923825   -2.0644516   -2.0644516    -1.388357  0.035225124   -2.0644516   0.67609466   421013 
 3022000   0.60818721   -2.0627859   -2.0627859   -1.3878576  0.036834332   -2.0627859   0.67492828   421013 
 3023000   0.60839606   -2.0627062   -2.0627062   -1.3875462  0.042697827   -2.0627062   0.67516005   421013 
 3024000    0.6082275   -2.0629322   -2.0629322   -1.3879592  0.035111214   -2.0629322   0.67497299   421013 
 3025000   0.60781579   -2.0627683   -2.0627683   -1.3882522   0.03736992   -2.0627683    0.6745161   421013 
 3026000   0.60746106   -2.0629527   -2.0629527   -1.3888302  0.030362029   -2.0629527   0.67412244   421013 
 3027000   0.60714065    -2.062876    -2.062876   -1.3891092  0.041359121    -2.062876   0.67376688   421013 
 3028000   0.60884595   -2.0641439   -2.0641439   -1.3884846  0.043181923   -2.0641439   0.67565931   421013 
 3029000    0.6092996   -2.0642804   -2.0642804   -1.3881177  0.038778722   -2.0642804   0.67616274   421013 
 3030000   0.60960895   -2.0654759   -2.0654759   -1.3889699  0.044200847   -2.0654759   0.67650604   421013 
 3031000   0.61003979   -2.0656311   -2.0656311   -1.3886469  0.036052549   -2.0656311   0.67698416   421013 
 3032000    0.6101524   -2.0654864   -2.0654864   -1.3883773  0.039278902   -2.0654864   0.67710913   421013 
 3033000   0.60930132   -2.0647716   -2.0647716    -1.388607  0.034495767   -2.0647716   0.67616465   421013 
 3034000   0.60898337    -2.064009    -2.064009   -1.3881972  0.048966263    -2.064009    0.6758118   421013 
 3035000    0.6100964   -2.0652952   -2.0652952   -1.3882482  0.040133528   -2.0652952   0.67704697   421013 
 3036000   0.61035474   -2.0659312   -2.0659312   -1.3885975  0.031547574   -2.0659312   0.67733367   421013 
 3037000   0.60831631   -2.0642499   -2.0642499   -1.3891783  0.048260577   -2.0642499   0.67507155   421013 
 3038000   0.60939323   -2.0651562   -2.0651562   -1.3888895  0.042639073   -2.0651562   0.67626664   421013 
 3039000   0.60947532   -2.0652078   -2.0652078   -1.3888501  0.036965218   -2.0652078   0.67635774   421013 
 3040000     0.608099   -2.0642161   -2.0642161   -1.3893857  0.029401317   -2.0642161   0.67483038   421013 
 3041000   0.60810523   -2.0638686   -2.0638686   -1.3890313  0.037899948   -2.0638686    0.6748373   421013 
 3042000    0.6087059   -2.0642742   -2.0642742   -1.3887703  0.034047718   -2.0642742   0.67550389   421013 
 3043000   0.60887034   -2.0643416   -2.0643416   -1.3886553  0.039541844   -2.0643416   0.67568638   421013 
 3044000   0.60903421   -2.0640239   -2.0640239   -1.3881557  0.045866706   -2.0640239   0.67586823   421013 
 3045000   0.60850708    -2.063736    -2.063736   -1.3884527  0.037498023    -2.063736   0.67528325   421013 
 3046000   0.60921477   -2.0646419   -2.0646419   -1.3885733  0.041968957   -2.0646419    0.6760686   421013 
 3047000   0.60869645   -2.0646882   -2.0646882   -1.3891948  0.042147261   -2.0646882    0.6754934   421013 
 3048000   0.60782517   -2.0640873   -2.0640873   -1.3895608  0.036689775   -2.0640873   0.67452651   421013 
 3049000   0.60995023   -2.0663015   -2.0663015   -1.3894167   0.04182244   -2.0663015   0.67688477   421013 
 3050000   0.60871377   -2.0641969   -2.0641969   -1.3886842  0.039591293   -2.0641969   0.67551262   421013 
 3051000   0.60951073   -2.0651235   -2.0651235   -1.3887265  0.035205221   -2.0651235   0.67639704   421013 
 3052000   0.60901598   -2.0648396   -2.0648396   -1.3889916  0.039597701   -2.0648396   0.67584799   421013 
 3053000    0.6088502   -2.0642733   -2.0642733   -1.3886093  0.035662669   -2.0642733   0.67566403   421013 
 3054000   0.60801945   -2.0642567   -2.0642567   -1.3895146  0.035050116   -2.0642567    0.6747421   421013 
 3055000   0.60654445   -2.0627638   -2.0627638   -1.3896585  0.031396969   -2.0627638   0.67310524   421013 
 3056000   0.60799506   -2.0644519   -2.0644519   -1.3897369  0.043780732   -2.0644519   0.67471505   421013 
 3057000   0.60738463   -2.0637312   -2.0637312   -1.3896935  0.045671982   -2.0637312   0.67403763   421013 
 3058000   0.60860264   -2.0648612   -2.0648612   -1.3894719  0.033649374   -2.0648612   0.67538929   421013 
 3059000    0.6094383   -2.0650063   -2.0650063   -1.3886896  0.040335465   -2.0650063   0.67631666   421013 
 3060000   0.60946809    -2.065578    -2.065578   -1.3892283  0.039271674    -2.065578   0.67634972   421013 
 3061000   0.60816134   -2.0643966   -2.0643966    -1.389497  0.032747573   -2.0643966   0.67489957   421013 
 3062000   0.60860101   -2.0647366   -2.0647366   -1.3893491  0.029366232   -2.0647366   0.67538749   421013 
 3063000   0.60889005   -2.0638175   -2.0638175   -1.3881093  0.042042632   -2.0638175   0.67570825   421013 
 3064000   0.60977932   -2.0651046   -2.0651046   -1.3884095  0.028108834   -2.0651046   0.67669511   421013 
 3065000   0.60903464   -2.0648135   -2.0648135   -1.3889448  0.041152309   -2.0648135    0.6758687   421013 
 3066000   0.60835086   -2.0649263   -2.0649263   -1.3898164  0.034834183   -2.0649263   0.67510989   421013 
 3067000   0.60908577   -2.0653636   -2.0653636   -1.3894382  0.032380797   -2.0653636   0.67592544   421013 
 3068000   0.60932898    -2.066257    -2.066257   -1.3900617  0.043144274    -2.066257   0.67619535   421013 
 3069000   0.60946202   -2.0663618   -2.0663618   -1.3900188  0.037299796   -2.0663618   0.67634298   421013 
 3070000   0.60879016   -2.0658016   -2.0658016   -1.3902043  0.041784928   -2.0658016   0.67559739   421013 
 3071000   0.60891984   -2.0656453   -2.0656453    -1.389904  0.039387611   -2.0656453   0.67574131   421013 
 3072000   0.60918198   -2.0660413   -2.0660413   -1.3900091  0.047892191   -2.0660413   0.67603221   421013 
 3073000   0.60927962   -2.0653996   -2.0653996   -1.3892591  0.031882443   -2.0653996   0.67614057   421013 
 3074000   0.60888126   -2.0657686   -2.0657686   -1.3900701  0.044332899   -2.0657686   0.67569849   421013 
 3075000   0.60889751   -2.0652333   -2.0652333   -1.3895168  0.038289545   -2.0652333   0.67571652   421013 
 3076000   0.60940739   -2.0663274   -2.0663274   -1.3900451  0.038071537   -2.0663274   0.67628236   421013 
 3077000    0.6085445   -2.0650585   -2.0650585   -1.3897337  0.038978079   -2.0650585   0.67532478   421013 
 3078000   0.61052854    -2.067482    -2.067482   -1.3899555  0.040126111    -2.067482   0.67752654   421013 
 3079000   0.60970372   -2.0664393   -2.0664393    -1.389828  0.038329574   -2.0664393   0.67661121   421013 
 3080000   0.60927301   -2.0659475   -2.0659475   -1.3898143  0.035555942   -2.0659475   0.67613324   421013 
 3081000   0.60880733   -2.0656686   -2.0656686   -1.3900522  0.037142528   -2.0656686   0.67561645   421013 
 3082000   0.61044491   -2.0672022   -2.0672022   -1.3897684  0.038366119   -2.0672022   0.67743373   421013 
 3083000   0.61000569   -2.0666866   -2.0666866   -1.3897403  0.041594426   -2.0666866   0.67694631   421013 
 3084000   0.60825851   -2.0648249   -2.0648249   -1.3898175  0.038117578   -2.0648249   0.67500741   421013 
 3085000   0.61000049   -2.0660676   -2.0660676    -1.389127  0.037772501   -2.0660676   0.67694054   421013 
 3086000   0.60883785   -2.0653645   -2.0653645   -1.3897141  0.039255333   -2.0653645   0.67565032   421013 
 3087000   0.61023859   -2.0666823   -2.0666823   -1.3894776  0.037554038   -2.0666823   0.67720477   421013 
 3088000   0.60822632   -2.0646766   -2.0646766   -1.3897049  0.038733898   -2.0646766   0.67497168   421013 
 3089000   0.60821631   -2.0644705   -2.0644705   -1.3895099  0.041326135   -2.0644705   0.67496057   421013 
 3090000   0.61015561   -2.0668076   -2.0668076   -1.3896949  0.034884205   -2.0668076   0.67711269   421013 
 3091000   0.60792977   -2.0643751   -2.0643751   -1.3897325  0.036550573   -2.0643751   0.67464258   421013 
 3092000   0.60860506   -2.0649779   -2.0649779   -1.3895859  0.041917568   -2.0649779   0.67539198   421013 
 3093000    0.6098007   -2.0663556   -2.0663556   -1.3896368  0.030677087   -2.0663556   0.67671883   421013 
 3094000   0.60819639   -2.0646747   -2.0646747   -1.3897362  0.035742339   -2.0646747   0.67493846   421013 
 3095000   0.60781101   -2.0651107   -2.0651107   -1.3905999  0.035200327   -2.0651107    0.6745108   421013 
 3096000   0.60795236   -2.0656562   -2.0656562   -1.3909885  0.036107595   -2.0656562   0.67466766   421013 
 3097000   0.60823041   -2.0663134   -2.0663134   -1.3913372  0.037318782   -2.0663134   0.67497622   421013 
 3098000   0.60806611   -2.0660088   -2.0660088   -1.3912149  0.036934921   -2.0660088   0.67479389   421013 
 3099000   0.60927637   -2.0671507   -2.0671507   -1.3910138  0.030068036   -2.0671507   0.67613696   421013 
 3100000   0.61039269   -2.0675036   -2.0675036   -1.3901279  0.034274875   -2.0675036   0.67737578   421013 
 3101000   0.60837454    -2.066104    -2.066104   -1.3909678    0.0435032    -2.066104   0.67513616   421013 
 3102000   0.61044399   -2.0672625   -2.0672625   -1.3898298  0.037520786   -2.0672625   0.67743271   421013 
 3103000   0.60987493   -2.0669676   -2.0669676   -1.3901664  0.035703094   -2.0669676    0.6768012   421013 
 3104000   0.60976559   -2.0671511   -2.0671511   -1.3904713  0.041145893   -2.0671511   0.67667987   421013 
 3105000   0.60811371   -2.0660733   -2.0660733   -1.3912266  0.039468245   -2.0660733   0.67484672   421013 
 3106000   0.60963097   -2.0667771   -2.0667771   -1.3902467  0.034763095   -2.0667771   0.67653047   421013 
 3107000   0.60954852   -2.0667123   -2.0667123   -1.3902733  0.040804872   -2.0667123   0.67643897   421013 
 3108000   0.60804766   -2.0654219   -2.0654219   -1.3906485  0.040068715   -2.0654219   0.67477342   421013 
 3109000   0.60823472   -2.0657733   -2.0657733   -1.3907923  0.040431095   -2.0657733     0.674981   421013 
 3110000   0.60823477   -2.0658907   -2.0658907   -1.3909097  0.041084275   -2.0658907   0.67498106   421013 
 3111000   0.60845051   -2.0665587   -2.0665587   -1.3913382  0.035481876   -2.0665587   0.67522047   421013 
 3112000   0.60899429   -2.0669222   -2.0669222   -1.3910983  0.030597334   -2.0669222   0.67582392   421013 
 3113000   0.60776065   -2.0645793   -2.0645793   -1.3901244  0.040760365   -2.0645793   0.67445491   421013 
 3114000   0.60811909   -2.0654337   -2.0654337    -1.390581  0.040957881   -2.0654337   0.67485269   421013 
 3115000   0.61045327   -2.0679551   -2.0679551   -1.3905121  0.039467433   -2.0679551   0.67744301   421013 
 3116000   0.61054669   -2.0677602   -2.0677602   -1.3902135  0.047776797   -2.0677602   0.67754668   421013 
 3117000   0.61011541   -2.0673706   -2.0673706   -1.3903025   0.03617551   -2.0673706   0.67706807   421013 
 3118000   0.60972894   -2.0673122   -2.0673122    -1.390673  0.043538211   -2.0673122   0.67663919   421013 
 3119000   0.60947326    -2.067081    -2.067081   -1.3907256  0.039158681    -2.067081   0.67635546   421013 
 3120000   0.60876712   -2.0657995   -2.0657995   -1.3902276  0.042688825   -2.0657995   0.67557182   421013 
 3121000   0.60814798   -2.0648876   -2.0648876   -1.3900028  0.037459338   -2.0648876   0.67488475   421013 
 3122000   0.60847935   -2.0660838   -2.0660838   -1.3908313  0.036116275   -2.0660838   0.67525248   421013 
 3123000   0.60967022   -2.0670032   -2.0670032   -1.3904291  0.036226947   -2.0670032   0.67657403   421013 
 3124000   0.60971283   -2.0664515   -2.0664515   -1.3898301  0.043405454   -2.0664515   0.67662132   421013 
 3125000    0.6106085    -2.067346    -2.067346   -1.3897308  0.037915389    -2.067346   0.67761528   421013 
 3126000   0.60928168   -2.0657747   -2.0657747   -1.3896318  0.034892986   -2.0657747   0.67614285   421013 
 3127000   0.60829293   -2.0651333   -2.0651333   -1.3900877  0.037668931   -2.0651333    0.6750456   421013 
 3128000   0.60791828   -2.0637946   -2.0637946   -1.3891648  0.041055968   -2.0637946   0.67462984   421013 
 3129000   0.60850775   -2.0644766   -2.0644766   -1.3891926   0.03503121   -2.0644766     0.675284   421013 
 3130000   0.61012543   -2.0666155   -2.0666155   -1.3895363  0.029258464   -2.0666155   0.67707919   421013 
 3131000   0.60903871   -2.0660616   -2.0660616   -1.3901883  0.030106728   -2.0660616   0.67587322   421013 
 3132000   0.60874298   -2.0651901   -2.0651901    -1.389645  0.038096193   -2.0651901   0.67554504   421013 
 3133000   0.60931048   -2.0654634   -2.0654634   -1.3892886  0.034650792   -2.0654634   0.67617482   421013 
 3134000   0.60777609   -2.0638504   -2.0638504   -1.3893783  0.038308165   -2.0638504   0.67447204   421013 
 3135000   0.60930647   -2.0661653   -2.0661653   -1.3899949  0.038215489   -2.0661653   0.67617037   421013 
 3136000   0.60772147   -2.0643187   -2.0643187   -1.3899073  0.033697144   -2.0643187   0.67441142   421013 
 3137000   0.60803526    -2.064592    -2.064592   -1.3898324  0.050939225    -2.064592   0.67475965   421013 
 3138000   0.60848837   -2.0652292   -2.0652292   -1.3899667  0.038099765   -2.0652292   0.67526249   421013 
 3139000   0.60811236   -2.0646688   -2.0646688   -1.3898236  0.026669222   -2.0646688   0.67484522   421013 
 3140000   0.60882286   -2.0658881   -2.0658881   -1.3902544  0.036069527   -2.0658881   0.67563369   421013 
 3141000   0.60955527   -2.0656714   -2.0656714   -1.3892249  0.033254066   -2.0656714   0.67644647   421013 
 3142000   0.60902749   -2.0661884   -2.0661884   -1.3903276  0.034013128   -2.0661884   0.67586077   421013 
 3143000   0.60832723    -2.065741    -2.065741   -1.3906573  0.043409588    -2.065741   0.67508367   421013 
 3144000   0.60878397   -2.0666143   -2.0666143   -1.3910237  0.039140635   -2.0666143   0.67559052   421013 
 3145000   0.60847908   -2.0665033   -2.0665033   -1.3912511  0.031857027   -2.0665033   0.67525218   421013 
 3146000   0.60739567   -2.0654634   -2.0654634   -1.3914136  0.037074182   -2.0654634   0.67404987   421013 
 3147000   0.60868511   -2.0667447   -2.0667447   -1.3912638  0.040281339   -2.0667447   0.67548081   421013 
 3148000   0.60873433   -2.0666104   -2.0666104    -1.391075  0.035925151   -2.0666104   0.67553544   421013 
 3149000   0.60910449   -2.0662107   -2.0662107   -1.3902645  0.041482262   -2.0662107   0.67594622   421013 
 3150000   0.60814769   -2.0649418   -2.0649418   -1.3900574  0.053434896   -2.0649418   0.67488442   421013 
 3151000   0.61009856   -2.0669643   -2.0669643   -1.3899149  0.029539781   -2.0669643   0.67704938   421013 
 3152000   0.60850388   -2.0663435   -2.0663435   -1.3910638  0.040697535   -2.0663435    0.6752797   421013 
 3153000   0.60824477   -2.0661483   -2.0661483   -1.3911561  0.027825932   -2.0661483   0.67499215   421013 
 3154000   0.60881491   -2.0667881   -2.0667881   -1.3911632  0.036641621   -2.0667881   0.67562486   421013 
 3155000   0.60888011   -2.0665895   -2.0665895   -1.3908923  0.031180465   -2.0665895   0.67569722   421013 
 3156000   0.60709388   -2.0654338   -2.0654338   -1.3917188  0.039399839   -2.0654338   0.67371497   421013 
 3157000   0.60830603   -2.0669863   -2.0669863   -1.3919261  0.033008997   -2.0669863   0.67506014   421013 
 3158000   0.60670745   -2.0655981   -2.0655981   -1.3923119  0.033250496   -2.0655981   0.67328613   421013 
 3159000   0.60737984   -2.0661597   -2.0661597   -1.3921273  0.036283933   -2.0661597   0.67403231   421013 
 3160000   0.60792451   -2.0670251   -2.0670251   -1.3923884  0.033000519   -2.0670251   0.67463675   421013 
 3161000   0.60701155   -2.0653094   -2.0653094   -1.3916858  0.034439767   -2.0653094    0.6736236   421013 
 3162000   0.60770452   -2.0665554   -2.0665554   -1.3921628  0.035845328   -2.0665554   0.67439262   421013 
 3163000   0.60870746   -2.0672251   -2.0672251   -1.3917195   0.03302119   -2.0672251   0.67550562   421013 
 3164000   0.60930366   -2.0664904   -2.0664904   -1.3903231  0.042288165   -2.0664904   0.67616725   421013 
 3165000   0.60837053   -2.0665653   -2.0665653   -1.3914336  0.042837831   -2.0665653   0.67513172   421013 
 3166000   0.60817604   -2.0659529   -2.0659529    -1.391037  0.044760058   -2.0659529   0.67491588   421013 
 3167000   0.60906854    -2.067465    -2.067465   -1.3915586  0.039909859    -2.067465   0.67590633   421013 
 3168000   0.60886897   -2.0676072   -2.0676072   -1.3919224  0.033223103   -2.0676072   0.67568485   421013 
 3169000   0.60887126   -2.0678146   -2.0678146   -1.3921272  0.033984742   -2.0678146   0.67568739   421013 
 3170000    0.6070471   -2.0654452   -2.0654452   -1.3917822   0.03415716   -2.0654452   0.67366305   421013 
 3171000   0.60750653   -2.0669671   -2.0669671   -1.3927942  0.035889518   -2.0669671    0.6741729   421013 
 3172000    0.6075874   -2.0662611   -2.0662611   -1.3919984  0.033462018   -2.0662611   0.67426265   421013 
 3173000   0.60773914   -2.0671693   -2.0671693   -1.3927383  0.036856416   -2.0671693   0.67443104   421013 
 3174000   0.60740226   -2.0670774   -2.0670774   -1.3930202  0.033980078   -2.0670774   0.67405719   421013 
 3175000   0.60745259   -2.0663607   -2.0663607   -1.3922477  0.040238192   -2.0663607   0.67411304   421013 
 3176000    0.6069012   -2.0664314   -2.0664314   -1.3929302  0.036184795   -2.0664314   0.67350114   421013 
 3177000   0.60832231   -2.0676729   -2.0676729   -1.3925947  0.040994609   -2.0676729    0.6750782   421013 
 3178000   0.60845046   -2.0681207   -2.0681207   -1.3929003  0.039213589   -2.0681207   0.67522041   421013 
 3179000   0.60818891   -2.0678741   -2.0678741   -1.3929439  0.042805325   -2.0678741   0.67493017   421013 
 3180000   0.60687213   -2.0667327   -2.0667327   -1.3932638  0.035153153   -2.0667327   0.67346888   421013 
 3181000   0.60773467   -2.0679446   -2.0679446   -1.3935185  0.036439368   -2.0679446   0.67442608   421013 
 3182000   0.60808343    -2.068368    -2.068368   -1.3935549  0.042877088    -2.068368   0.67481311   421013 
 3183000   0.60724864   -2.0680126   -2.0680126   -1.3941258   0.04367562   -2.0680126   0.67388672   421013 
 3184000    0.6087865    -2.069008    -2.069008   -1.3934146  0.037671196    -2.069008   0.67559333   421013 
 3185000   0.60847463   -2.0688234   -2.0688234   -1.3935761  0.040071413   -2.0688234   0.67524724   421013 
 3186000   0.60943693   -2.0693493   -2.0693493   -1.3930342  0.034146761   -2.0693493   0.67631514   421013 
 3187000   0.60858886   -2.0685586   -2.0685586   -1.3931846  0.045105399   -2.0685586   0.67537401   421013 
 3188000    0.6093761   -2.0694919   -2.0694919   -1.3932442  0.040570255   -2.0694919   0.67624764   421013 
 3189000   0.60786526   -2.0681113   -2.0681113   -1.3935403  0.036617852   -2.0681113     0.674571   421013 
 3190000   0.60731104   -2.0680815   -2.0680815   -1.3941256  0.042403871   -2.0680815   0.67395596   421013 
 3191000   0.60784302   -2.0682048   -2.0682048   -1.3936584  0.039641186   -2.0682048   0.67454631   421013 
 3192000   0.60725879   -2.0680418   -2.0680418   -1.3941438  0.039180128   -2.0680418   0.67389798   421013 
 3193000   0.60700566   -2.0672611   -2.0672611   -1.3936441  0.035593085   -2.0672611   0.67361707   421013 
 3194000   0.60859678   -2.0686465   -2.0686465   -1.3932637  0.034782334   -2.0686465    0.6753828   421013 
 3195000   0.60839921   -2.0684143   -2.0684143   -1.3932507  0.031585937   -2.0684143   0.67516354   421013 
 3196000   0.60861411   -2.0686265   -2.0686265   -1.3932245  0.046374115   -2.0686265   0.67540202   421013 
 3197000   0.60947678   -2.0687578   -2.0687578   -1.3923984  0.034322488   -2.0687578   0.67635936   421013 
 3198000    0.6082849   -2.0682656   -2.0682656   -1.3932289  0.041651889   -2.0682656   0.67503669   421013 
 3199000   0.60877983   -2.0687895   -2.0687895   -1.3932035  0.036196843   -2.0687895   0.67558593   421013 
 3200000   0.60835963    -2.068205    -2.068205   -1.3930854  0.044000737    -2.068205   0.67511962   421013 
 3201000    0.6073621   -2.0666025   -2.0666025   -1.3925898  0.028402665   -2.0666025   0.67401262   421013 
 3202000   0.60726444   -2.0661803   -2.0661803   -1.3922761  0.034992987   -2.0661803   0.67390424   421013 
 3203000   0.60881226   -2.0682001   -2.0682001   -1.3925781    0.0342982   -2.0682001   0.67562192   421013 
 3204000   0.60789723    -2.066823    -2.066823   -1.3922165  0.042184246    -2.066823   0.67460648   421013 
 3205000   0.60800667   -2.0673317   -2.0673317   -1.3926037  0.037441899   -2.0673317   0.67472793   421013 
 3206000   0.60805851   -2.0669126   -2.0669126   -1.3921271  0.037252072   -2.0669126   0.67478545   421013 
 3207000   0.60818443    -2.066703    -2.066703   -1.3917778   0.04213133    -2.066703   0.67492519   421013 
 3208000    0.6085022   -2.0666769   -2.0666769    -1.391399  0.040191773   -2.0666769   0.67527784   421013 
 3209000   0.60695011   -2.0652561   -2.0652561   -1.3917007  0.042119653   -2.0652561   0.67355542   421013 
 3210000   0.60737599   -2.0657509   -2.0657509   -1.3917229  0.039617822   -2.0657509   0.67402803   421013 
 3211000   0.60735307   -2.0658116   -2.0658116    -1.391809   0.04387352   -2.0658116    0.6740026   421013 
 3212000   0.60697047   -2.0652076   -2.0652076   -1.3916296  0.034242754   -2.0652076   0.67357802   421013 
 3213000   0.60790016   -2.0664916   -2.0664916   -1.3918818  0.032777868   -2.0664916   0.67460973   421013 
 3214000   0.60840679   -2.0664845   -2.0664845   -1.3913126   0.03751172   -2.0664845   0.67517195   421013 
 3215000   0.60847646   -2.0661753   -2.0661753    -1.390926   0.03500478   -2.0661753   0.67524927   421013 
 3216000   0.60861883   -2.0664225   -2.0664225   -1.3910153  0.035996862   -2.0664225   0.67540726   421013 
 3217000   0.60809916   -2.0664162   -2.0664162   -1.3915857  0.037227292   -2.0664162   0.67483057   421013 
 3218000   0.60849022   -2.0679544   -2.0679544   -1.3926899  0.038434165   -2.0679544   0.67526453   421013 
 3219000     0.607801   -2.0667089   -2.0667089   -1.3922092  0.033442597   -2.0667089   0.67449968   421013 
 3220000   0.60772297   -2.0666768   -2.0666768   -1.3922637  0.036163571   -2.0666768   0.67441309   421013 
 3221000   0.60786784    -2.067724    -2.067724   -1.3931501  0.037599004    -2.067724   0.67457386   421013 
 3222000   0.60891252   -2.0690947   -2.0690947   -1.3933615  0.035075428   -2.0690947   0.67573318   421013 
 3223000    0.6084555   -2.0684938   -2.0684938   -1.3932678  0.035249725   -2.0684938   0.67522601   421013 
 3224000     0.609058   -2.0684306   -2.0684306    -1.392536  0.040294127   -2.0684306   0.67589462   421013 
 3225000   0.60801261   -2.0677748   -2.0677748   -1.3930402  0.036887385   -2.0677748   0.67473452   421013 
 3226000   0.60802807   -2.0680254   -2.0680254   -1.3932737  0.040329678   -2.0680254   0.67475168   421013 
 3227000   0.60775348   -2.0672516   -2.0672516   -1.3928046  0.041338443   -2.0672516   0.67444696   421013 
 3228000   0.60901835   -2.0685404   -2.0685404   -1.3926897  0.034024084   -2.0685404   0.67585062   421013 
 3229000   0.60819924   -2.0687323   -2.0687323   -1.3937907  0.035036468   -2.0687323   0.67494162   421013 
 3230000   0.60900727   -2.0697762   -2.0697762   -1.3939379   0.02846299   -2.0697762   0.67583833   421013 
 3231000   0.60767033   -2.0685513   -2.0685513   -1.3941966  0.031661333   -2.0685513   0.67435467   421013 
 3232000   0.60713934    -2.068166    -2.068166   -1.3944006  0.044310906    -2.068166   0.67376542   421013 
 3233000   0.60810158   -2.0690829   -2.0690829   -1.3942497  0.030841532   -2.0690829   0.67483325   421013 
 3234000   0.60654919   -2.0670583   -2.0670583   -1.3939478   0.03318363   -2.0670583   0.67311051   421013 
 3235000   0.60750084   -2.0683186   -2.0683186    -1.394152  0.037539176   -2.0683186   0.67416659   421013 
 3236000   0.60785219   -2.0694285   -2.0694285    -1.394872  0.037349765   -2.0694285   0.67455649   421013 
 3237000   0.60767922    -2.069416    -2.069416   -1.3950514  0.035500651    -2.069416   0.67436454   421013 
 3238000    0.6078757   -2.0694452   -2.0694452   -1.3948626   0.03675902   -2.0694452   0.67458258   421013 
 3239000   0.60830237   -2.0692383   -2.0692383   -1.3941822  0.044907738   -2.0692383   0.67505607   421013 
 3240000   0.60986103   -2.0706624   -2.0706624   -1.3938766    0.0385845   -2.0706624   0.67678578   421013 
 3241000   0.60802847   -2.0690751   -2.0690751    -1.394323   0.03227639   -2.0690751   0.67475212   421013 
 3242000   0.60759713   -2.0690791   -2.0690791   -1.3948057   0.03503184   -2.0690791   0.67427344   421013 
 3243000   0.60820801   -2.0693922   -2.0693922   -1.3944408  0.040045351   -2.0693922   0.67495136   421013 
 3244000   0.60761873   -2.0685107   -2.0685107   -1.3942133  0.043998767   -2.0685107   0.67429741   421013 
 3245000    0.6072355   -2.0685662   -2.0685662   -1.3946941  0.041596168   -2.0685662   0.67387214   421013 
 3246000   0.60707293   -2.0684793   -2.0684793   -1.3947876   0.03400472   -2.0684793   0.67369172   421013 
 3247000   0.60860744   -2.0698886   -2.0698886    -1.394494  0.041176961   -2.0698886   0.67539462   421013 
 3248000   0.60876208   -2.0698715   -2.0698715   -1.3943053  0.037679013   -2.0698715   0.67556624   421013 
 3249000    0.6084423   -2.0696579   -2.0696579   -1.3944466  0.040523925   -2.0696579   0.67521136   421013 
 3250000   0.60801766   -2.0690194   -2.0690194   -1.3942793  0.038163459   -2.0690194   0.67474013   421013 
 3251000   0.60767608   -2.0685004   -2.0685004   -1.3941394  0.030528058   -2.0685004   0.67436106   421013 
 3252000   0.60826415   -2.0684057   -2.0684057   -1.3933921  0.036669092   -2.0684057   0.67501366   421013 
 3253000   0.60724557   -2.0668338   -2.0668338   -1.3929505  0.036905997   -2.0668338    0.6738833   421013 
 3254000   0.60861245   -2.0675988   -2.0675988   -1.3921987  0.034472756   -2.0675988   0.67540019   421013 
 3255000   0.60799129   -2.0674742   -2.0674742   -1.3927633    0.0424881   -2.0674742   0.67471085   421013 
 3256000   0.60743787   -2.0667593   -2.0667593   -1.3926626  0.042497677   -2.0667593   0.67409671   421013 
 3257000   0.60837893   -2.0683471   -2.0683471   -1.3932061  0.037933399   -2.0683471   0.67514104   421013 
 3258000   0.60767617   -2.0669934   -2.0669934   -1.3926323  0.039198921   -2.0669934   0.67436116   421013 
 3259000    0.6081063   -2.0671728   -2.0671728   -1.3923344  0.041355309   -2.0671728   0.67483848   421013 
 3260000   0.60753299   -2.0663366   -2.0663366   -1.3921343  0.031702819   -2.0663366   0.67420227   421013 
 3261000   0.60687045   -2.0658224   -2.0658224   -1.3923554  0.029223968   -2.0658224   0.67346702   421013 
 3262000   0.60715078   -2.0664525   -2.0664525   -1.3926743  0.041674299   -2.0664525   0.67377811   421013 
 3263000   0.60750284   -2.0662575   -2.0662575   -1.3920887  0.034801367   -2.0662575   0.67416881   421013 
 3264000    0.6089856   -2.0674769   -2.0674769   -1.3916627  0.045185599   -2.0674769   0.67581428   421013 
 3265000   0.60870234   -2.0676399   -2.0676399     -1.39214  0.042603442   -2.0676399   0.67549994   421013 
 3266000   0.60772317   -2.0671963   -2.0671963    -1.392783   0.04411775   -2.0671963   0.67441332   421013 
 3267000   0.61038826   -2.0698142   -2.0698142   -1.3924433  0.033922911   -2.0698142   0.67737087   421013 
 3268000   0.60927351   -2.0682065   -2.0682065   -1.3920727  0.038987096   -2.0682065   0.67613379   421013 
 3269000   0.60975356   -2.0699085   -2.0699085   -1.3932419  0.036110354   -2.0699085   0.67666651   421013 
 3270000   0.60848912   -2.0686996   -2.0686996   -1.3934363  0.040493187   -2.0686996   0.67526332   421013 
 3271000   0.60954424   -2.0699262   -2.0699262    -1.393492  0.032159983   -2.0699262   0.67643423   421013 
 3272000   0.60868577   -2.0693686   -2.0693686   -1.3938871  0.030749519   -2.0693686   0.67548155   421013 
 3273000   0.60811098   -2.0686298   -2.0686298   -1.3937861  0.042241218   -2.0686298   0.67484368   421013 
 3274000   0.60861708   -2.0691103   -2.0691103    -1.393705  0.045942455   -2.0691103   0.67540532   421013 
 3275000   0.60970512   -2.0705445   -2.0705445   -1.3939317  0.038313304   -2.0705445   0.67661276   421013 
 3276000   0.60766729   -2.0685404   -2.0685404   -1.3941891  0.037806146   -2.0685404    0.6743513   421013 
 3277000   0.60862274   -2.0693925   -2.0693925   -1.3939809  0.038996909   -2.0693925    0.6754116   421013 
 3278000   0.60710072   -2.0677604   -2.0677604   -1.3940378  0.037232367   -2.0677604   0.67372256   421013 
 3279000   0.60719753   -2.0685029   -2.0685029    -1.394673  0.037894857   -2.0685029   0.67382999   421013 
 3280000   0.60698871   -2.0680748   -2.0680748   -1.3944765  0.032965645   -2.0680748   0.67359825   421013 
 3281000   0.60813238    -2.069306    -2.069306   -1.3944386  0.025958225    -2.069306   0.67486743   421013 
 3282000   0.60737437   -2.0684096   -2.0684096   -1.3943834  0.032088562   -2.0684096   0.67402624   421013 
 3283000   0.60842963   -2.0690723   -2.0690723    -1.393875  0.036825318   -2.0690723    0.6751973   421013 
 3284000   0.60752058   -2.0691545   -2.0691545    -1.394966  0.039485021   -2.0691545   0.67418849   421013 
 3285000   0.60818984   -2.0689216   -2.0689216   -1.3939904  0.033044929   -2.0689216   0.67493119   421013 
 3286000   0.60871504   -2.0693435   -2.0693435   -1.3938295   0.04270523   -2.0693435   0.67551403   421013 
 3287000   0.60734464   -2.0679552   -2.0679552   -1.3939619  0.037382622   -2.0679552   0.67399325   421013 
 3288000   0.60876648    -2.069188    -2.069188   -1.3936168   0.04108994    -2.069188   0.67557112   421013 
 3289000    0.6082568     -2.06854     -2.06854   -1.3935345  0.033425351     -2.06854   0.67500551   421013 
 3290000   0.60831561   -2.0691537   -2.0691537   -1.3940829  0.039985761   -2.0691537   0.67507077   421013 
 3291000   0.60859797   -2.0695702   -2.0695702   -1.3941861    0.0429272   -2.0695702   0.67538411   421013 
 3292000    0.6083448   -2.0694712   -2.0694712    -1.394368  0.037148377   -2.0694712   0.67510317   421013 
 3293000   0.60682606   -2.0684055   -2.0684055   -1.3949877  0.031999751   -2.0684055   0.67341776   421013 
 3294000   0.60884565   -2.0702133   -2.0702133   -1.3945543  0.047640183   -2.0702133   0.67565897   421013 
 3295000   0.60811781   -2.0703932   -2.0703932    -1.395542  0.038982186   -2.0703932   0.67485126   421013 
 3296000   0.60682303    -2.069408    -2.069408   -1.3959936  0.037162091    -2.069408    0.6734144   421013 
 3297000   0.60685741   -2.0690984   -2.0690984   -1.3956458  0.038001215   -2.0690984   0.67345255   421013 
 3298000   0.60768316   -2.0699173   -2.0699173   -1.3955484  0.039001124   -2.0699173   0.67436891   421013 
 3299000   0.60621889   -2.0689332   -2.0689332   -1.3961892  0.046310116   -2.0689332   0.67274396   421013 
 3300000   0.60718999   -2.0700926   -2.0700926    -1.396271  0.030426315   -2.0700926   0.67382163   421013 
 3301000   0.60775979   -2.0698805   -2.0698805   -1.3954265  0.033992591   -2.0698805   0.67445395   421013 
 3302000   0.60770903   -2.0700085   -2.0700085   -1.3956108  0.038264203   -2.0700085   0.67439762   421013 
 3303000   0.60749759   -2.0691557   -2.0691557   -1.3949927     0.038261   -2.0691557   0.67416298   421013 
 3304000   0.60876386   -2.0706679   -2.0706679   -1.3950996  0.039959746   -2.0706679   0.67556821   421013 
 3305000   0.60827929   -2.0697521   -2.0697521   -1.3947216  0.036836411   -2.0697521   0.67503046   421013 
 3306000   0.60910668   -2.0705938   -2.0705938   -1.3946452  0.034820909   -2.0705938   0.67594864   421013 
 3307000   0.60822653   -2.0695956   -2.0695956   -1.3946236  0.034548181   -2.0695956   0.67497192   421013 
 3308000   0.60842561    -2.070335    -2.070335   -1.3951422  0.042554579    -2.070335   0.67519284   421013 
 3309000   0.60999079    -2.072129    -2.072129   -1.3951992  0.034918288    -2.072129   0.67692978   421013 
 3310000   0.60827648   -2.0703086   -2.0703086   -1.3952812   0.03656869   -2.0703086   0.67502734   421013 
 3311000   0.60724235   -2.0688369   -2.0688369   -1.3949571  0.038450556   -2.0688369   0.67387974   421013 
 3312000    0.6081684   -2.0700695   -2.0700695   -1.3951621  0.043301299   -2.0700695    0.6749074   421013 
 3313000   0.60759994   -2.0696973   -2.0696973   -1.3954207  0.026294555   -2.0696973   0.67427656   421013 
 3314000   0.60829386   -2.0699254   -2.0699254   -1.3948787  0.046989311   -2.0699254   0.67504663   421013 
 3315000   0.60932573   -2.0707935   -2.0707935   -1.3946018  0.035693785   -2.0707935   0.67619174   421013 
 3316000   0.60771382   -2.0685645   -2.0685645   -1.3941615  0.033003444   -2.0685645   0.67440294   421013 
 3317000   0.60773502   -2.0682911   -2.0682911   -1.3938646  0.036859807   -2.0682911   0.67442647   421013 
 3318000   0.60802474   -2.0694686   -2.0694686   -1.3947207  0.036603732   -2.0694686   0.67474798   421013 
 3319000   0.60711768   -2.0692953   -2.0692953   -1.3955539   0.03747985   -2.0692953   0.67374138   421013 
 3320000   0.60880015   -2.0708409   -2.0708409   -1.3952324  0.035294315   -2.0708409   0.67560848   421013 
 3321000   0.60942021   -2.0702036   -2.0702036    -1.393907  0.033501171   -2.0702036   0.67629659   421013 
 3322000   0.60653545   -2.0671223   -2.0671223    -1.394027  0.038801331   -2.0671223   0.67309525   421013 
 3323000   0.60668229   -2.0669278   -2.0669278   -1.3936696   0.03605263   -2.0669278   0.67325821   421013 
 3324000   0.60796889   -2.0684521   -2.0684521   -1.3937661  0.037198059   -2.0684521     0.674686   421013 
 3325000   0.60785484   -2.0683474   -2.0683474    -1.393788  0.038471625   -2.0683474   0.67455944   421013 
 3326000   0.60862967   -2.0695268   -2.0695268   -1.3941075  0.043583721   -2.0695268   0.67541929   421013 
 3327000   0.60678631   -2.0676239   -2.0676239   -1.3942503  0.033128761   -2.0676239   0.67337365   421013 
 3328000   0.60797174   -2.0696377   -2.0696377   -1.3949486  0.030684653   -2.0696377   0.67468916   421013 
 3329000   0.60697616   -2.0696896   -2.0696896   -1.3961053  0.029082745   -2.0696896   0.67358433   421013 
 3330000   0.60733122    -2.068646    -2.068646   -1.3946677  0.040040367    -2.068646   0.67397836   421013 
 3331000     0.609022   -2.0696267   -2.0696267   -1.3937721  0.038266019   -2.0696267   0.67585467   421013 
 3332000   0.60972605   -2.0711053   -2.0711053   -1.3944693  0.040060238   -2.0711053   0.67663599   421013 
 3333000   0.60735659   -2.0689853   -2.0689853   -1.3949788  0.035121791   -2.0689853   0.67400651   421013 
 3334000   0.60815653   -2.0702994   -2.0702994   -1.3954052  0.036159632   -2.0702994   0.67489423   421013 
 3335000   0.60882454   -2.0708192   -2.0708192   -1.3951837  0.032418718   -2.0708192   0.67563555   421013 
 3336000    0.6083735   -2.0696668   -2.0696668   -1.3945318  0.044599085   -2.0696668   0.67513501   421013 
 3337000   0.60844651   -2.0702526   -2.0702526   -1.3950366  0.044024656   -2.0702526   0.67521603   421013 
 3338000   0.60768142   -2.0692142   -2.0692142   -1.3948472  0.040386493   -2.0692142   0.67436699   421013 
 3339000   0.60843506   -2.0710201   -2.0710201   -1.3958167  0.033863557   -2.0710201   0.67520333   421013 
 3340000    0.6076986   -2.0706341   -2.0706341    -1.396248  0.032836988   -2.0706341   0.67438605   421013 
 3341000   0.60792351   -2.0715535   -2.0715535   -1.3969179  0.034918994   -2.0715535   0.67463564   421013 
 3342000   0.60810425   -2.0717375   -2.0717375   -1.3969013  0.029990016   -2.0717375   0.67483622   421013 
 3343000   0.60826943   -2.0715214   -2.0715214   -1.3965019  0.041733655   -2.0715214   0.67501952   421013 
 3344000   0.60754208   -2.0708084   -2.0708084   -1.3965961  0.038999017   -2.0708084   0.67421235   421013 
 3345000   0.60760678   -2.0707936   -2.0707936   -1.3965094  0.040437696   -2.0707936   0.67428415   421013 
 3346000   0.60804099   -2.0706338   -2.0706338   -1.3958677  0.042220952   -2.0706338   0.67476601   421013 
 3347000   0.60802672   -2.0706741   -2.0706741   -1.3959239  0.036149894   -2.0706741   0.67475018   421013 
 3348000   0.60928178   -2.0715663   -2.0715663   -1.3954233  0.037125836   -2.0715663   0.67614296   421013 
 3349000   0.60837816   -2.0712804   -2.0712804   -1.3961402  0.034045528   -2.0712804   0.67514019   421013 
 3350000   0.60852968   -2.0706997   -2.0706997   -1.3953914  0.037187159   -2.0706997   0.67530833   421013 
 3351000   0.60777887   -2.0695237   -2.0695237   -1.3950485  0.040190312   -2.0695237   0.67447512   421013 
 3352000     0.607129    -2.068903    -2.068903    -1.395149  0.037105376    -2.068903   0.67375394   421013 
 3353000   0.60696328   -2.0686208   -2.0686208   -1.3950507  0.032840548   -2.0686208   0.67357004   421013 
 3354000   0.60778243   -2.0683216   -2.0683216   -1.3938426   0.04077949   -2.0683216   0.67447908   421013 
 3355000   0.60963094   -2.0707361   -2.0707361   -1.3942057  0.028317968   -2.0707361   0.67653044   421013 
 3356000   0.60900585    -2.069885    -2.069885   -1.3940483  0.034786363    -2.069885   0.67583675   421013 
 3357000   0.60910941   -2.0693648   -2.0693648   -1.3934131   0.04087061   -2.0693648   0.67595168   421013 
 3358000   0.60884691   -2.0688925   -2.0688925   -1.3932322  0.046970888   -2.0688925   0.67566037   421013 
 3359000   0.60838714   -2.0684258   -2.0684258   -1.3932756   0.04447998   -2.0684258   0.67515014   421013 
 3360000   0.60829635    -2.067935    -2.067935   -1.3928856  0.033316519    -2.067935    0.6750494   421013 
 3361000   0.60760846   -2.0678479   -2.0678479   -1.3935619    0.0357596   -2.0678479   0.67428601   421013 
 3362000    0.6086182   -2.0689235   -2.0689235   -1.3935169  0.032138925   -2.0689235   0.67540657   421013 
 3363000   0.60704969   -2.0677974   -2.0677974   -1.3941315  0.030840517   -2.0677974   0.67366592   421013 
 3364000   0.60870905   -2.0687905   -2.0687905   -1.3932831  0.034182412   -2.0687905   0.67550738   421013 
 3365000    0.6069537    -2.067698    -2.067698   -1.3941386  0.034262685    -2.067698    0.6735594   421013 
 3366000   0.60781011   -2.0685247   -2.0685247   -1.3940149  0.033370112   -2.0685247    0.6745098   421013 
 3367000   0.60771363   -2.0689816   -2.0689816   -1.3945789  0.034706639   -2.0689816   0.67440273   421013 
 3368000   0.60797854   -2.0697693   -2.0697693   -1.3950726  0.038222037   -2.0697693    0.6746967   421013 
 3369000   0.60814527    -2.070065    -2.070065   -1.3951833  0.031643692    -2.070065   0.67488174   421013 
 3370000   0.60835499   -2.0706816   -2.0706816   -1.3955672  0.041285585   -2.0706816   0.67511447   421013 
 3371000   0.60805287   -2.0701092   -2.0701092     -1.39533  0.033454422   -2.0701092    0.6747792   421013 
 3372000   0.60894327   -2.0721083   -2.0721083    -1.396341   0.03429086   -2.0721083   0.67576731   421013 
 3373000   0.60745228    -2.070093    -2.070093   -1.3959803  0.033301891    -2.070093    0.6741127   421013 
 3374000   0.60788804   -2.0702272   -2.0702272   -1.3956309  0.040835364   -2.0702272   0.67459628   421013 
 3375000   0.60822688   -2.0708394   -2.0708394   -1.3958671  0.041842309   -2.0708394   0.67497231   421013 
 3376000   0.60869052   -2.0720295   -2.0720295   -1.3965427  0.050669032   -2.0720295   0.67548682   421013 
 3377000   0.60861528   -2.0718265   -2.0718265   -1.3964232  0.032667289   -2.0718265   0.67540333   421013 
 3378000   0.60756625   -2.0714474   -2.0714474   -1.3972082  0.037330757   -2.0714474   0.67423918   421013 
 3379000   0.60880833   -2.0723087   -2.0723087   -1.3966911  0.038716669   -2.0723087   0.67561756   421013 
 3380000   0.60794845   -2.0718358   -2.0718358   -1.3971725  0.039028133   -2.0718358   0.67466332   421013 
 3381000   0.60844146   -2.0729096   -2.0729096   -1.3976992  0.036838992   -2.0729096   0.67521043   421013 
 3382000   0.60866154    -2.073028    -2.073028   -1.3975733  0.036852767    -2.073028   0.67545466   421013 
 3383000   0.60852857   -2.0723759   -2.0723759   -1.3970688  0.037569624   -2.0723759    0.6753071   421013 
 3384000   0.60836698    -2.072072    -2.072072   -1.3969442  0.030318921    -2.072072   0.67512777   421013 
 3385000   0.60788947   -2.0715328   -2.0715328   -1.3969349  0.037686284   -2.0715328   0.67459787   421013 
 3386000   0.60784568   -2.0715917   -2.0715917   -1.3970424  0.040354404   -2.0715917   0.67454927   421013 
 3387000    0.6078503   -2.0720798   -2.0720798   -1.3975254  0.047060018   -2.0720798    0.6745544   421013 
 3388000   0.60809279   -2.0721331   -2.0721331   -1.3973096  0.035657442   -2.0721331   0.67482349   421013 
 3389000   0.60748419   -2.0715279   -2.0715279   -1.3973798  0.039465702   -2.0715279   0.67414811   421013 
 3390000   0.60716025   -2.0716233   -2.0716233   -1.3978347  0.035990858   -2.0716233   0.67378862   421013 
 3391000   0.60637132   -2.0705971   -2.0705971    -1.397684  0.038824908   -2.0705971   0.67291312   421013 
 3392000   0.60634191   -2.0705795   -2.0705795    -1.397699  0.034635446   -2.0705795   0.67288048   421013 
 3393000   0.60712115   -2.0712788   -2.0712788   -1.3975336  0.037079722   -2.0712788   0.67374523   421013 
 3394000   0.60563968   -2.0694154   -2.0694154   -1.3973143  0.040553661   -2.0694154   0.67210119   421013 
 3395000   0.60654148   -2.0706907   -2.0706907   -1.3975887  0.032065545   -2.0706907   0.67310195   421013 
 3396000   0.60688429   -2.0706029   -2.0706029   -1.3971205  0.030776945   -2.0706029   0.67348237   421013 
 3397000   0.60691536   -2.0710327   -2.0710327   -1.3975158  0.028951757   -2.0710327   0.67351685   421013 
 3398000   0.60616073   -2.0698127   -2.0698127   -1.3971333  0.046042889   -2.0698127   0.67267942   421013 
 3399000   0.60734789   -2.0701269   -2.0701269   -1.3961301  0.032797996   -2.0701269   0.67399686   421013 
 3400000   0.60859982    -2.071242    -2.071242   -1.3958558  0.043976069    -2.071242   0.67538617   421013 
 3401000   0.60793729   -2.0710626   -2.0710626   -1.3964117  0.034598461   -2.0710626   0.67465094   421013 
 3402000   0.60877272   -2.0720212   -2.0720212   -1.3964431  0.035795322   -2.0720212   0.67557804   421013 
 3403000   0.60863926   -2.0715032   -2.0715032   -1.3960732  0.046950678   -2.0715032   0.67542993   421013 
 3404000   0.60783363   -2.0708714   -2.0708714   -1.3963355  0.033222564   -2.0708714    0.6745359   421013 
 3405000    0.6074214   -2.0710072   -2.0710072   -1.3969288  0.038152768   -2.0710072   0.67407843   421013 
 3406000   0.60657256   -2.0702403   -2.0702403   -1.3971039  0.037094856   -2.0702403   0.67313644   421013 
 3407000   0.60751228    -2.071129    -2.071129   -1.3969497  0.043500607    -2.071129   0.67417928   421013 
 3408000   0.60682158   -2.0709305   -2.0709305   -1.3975177  0.038515168   -2.0709305   0.67341279   421013 
 3409000    0.6072328   -2.0708796   -2.0708796   -1.3970105  0.040328807   -2.0708796   0.67386913   421013 
 3410000   0.60759579   -2.0714557   -2.0714557   -1.3971838  0.030304033   -2.0714557   0.67427195   421013 
 3411000   0.60698033   -2.0712336   -2.0712336   -1.3976447  0.038238948   -2.0712336   0.67358895   421013 
 3412000   0.60757436   -2.0715475   -2.0715475   -1.3972993  0.035592104   -2.0715475   0.67424818   421013 
 3413000   0.60815633   -2.0723794   -2.0723794   -1.3974854  0.043160993   -2.0723794   0.67489401   421013 
 3414000   0.60767184   -2.0722161   -2.0722161   -1.3978597  0.033591362   -2.0722161   0.67435635   421013 
 3415000   0.60683972   -2.0712199   -2.0712199    -1.397787  0.040533812   -2.0712199   0.67343292   421013 
 3416000   0.60900664   -2.0732449   -2.0732449   -1.3974073  0.041794834   -2.0732449   0.67583764   421013 
 3417000   0.60851906   -2.0724468   -2.0724468   -1.3971503  0.045119515   -2.0724468   0.67529654   421013 
 3418000    0.6074393   -2.0718264   -2.0718264   -1.3977281  0.040786724   -2.0718264    0.6740983   421013 
 3419000   0.60772394   -2.0727723   -2.0727723   -1.3983581  0.040966424   -2.0727723   0.67441417   421013 
 3420000   0.60829738   -2.0729132   -2.0729132   -1.3978626  0.040892953   -2.0729132   0.67505054   421013 
 3421000   0.60798246   -2.0726421   -2.0726421   -1.3979411  0.035514224   -2.0726421   0.67470106   421013 
 3422000   0.60875777   -2.0733723   -2.0733723   -1.3978109  0.042919122   -2.0733723   0.67556145   421013 
 3423000   0.60767656   -2.0729563   -2.0729563   -1.3985947  0.042236124   -2.0729563   0.67436159   421013 
 3424000   0.60722366    -2.072425    -2.072425    -1.398566  0.042843849    -2.072425   0.67385899   421013 
 3425000   0.60703184   -2.0719057   -2.0719057   -1.3982596  0.038020247   -2.0719057   0.67364612   421013 
 3426000   0.60857734   -2.0748269   -2.0748269   -1.3994657  0.041415089   -2.0748269   0.67536122   421013 
 3427000   0.60554156   -2.0707734   -2.0707734   -1.3987811  0.033658479   -2.0707734    0.6719923   421013 
 3428000   0.60676683   -2.0723311   -2.0723311   -1.3989791  0.039680441   -2.0723311   0.67335203   421013 
 3429000   0.60603684   -2.0708337   -2.0708337   -1.3982918  0.046114377   -2.0708337   0.67254193   421013 
 3430000     0.606789   -2.0719915   -2.0719915   -1.3986148  0.033132677   -2.0719915   0.67337663   421013 
 3431000   0.60688446   -2.0709694   -2.0709694   -1.3974868  0.030699469   -2.0709694   0.67348257   421013 
 3432000   0.60634475   -2.0706348   -2.0706348   -1.3977512  0.036466617   -2.0706348   0.67288363   421013 
 3433000   0.60801295   -2.0728718   -2.0728718   -1.3981369  0.030011033   -2.0728718   0.67473489   421013 
 3434000   0.60671148    -2.071119    -2.071119   -1.3978284   0.03708944    -2.071119   0.67329061   421013 
 3435000   0.60666488   -2.0704504   -2.0704504   -1.3972116  0.036771623   -2.0704504   0.67323889   421013 
 3436000   0.60842551   -2.0726156   -2.0726156   -1.3974229  0.034704911   -2.0726156   0.67519273   421013 
 3437000   0.60735345   -2.0709132   -2.0709132   -1.3969101  0.039441231   -2.0709132   0.67400302   421013 
 3438000   0.60828242   -2.0713343   -2.0713343   -1.3963004  0.036103135   -2.0713343   0.67503394   421013 
 3439000   0.60770292    -2.070803    -2.070803   -1.3964121  0.033515543    -2.070803   0.67439084   421013 
 3440000   0.60932853   -2.0722404   -2.0722404   -1.3960456  0.034062654   -2.0722404   0.67619485   421013 
 3441000   0.60866254   -2.0719576   -2.0719576   -1.3965018  0.041086152   -2.0719576   0.67545577   421013 
 3442000   0.60733237   -2.0713867   -2.0713867   -1.3974071  0.036326515   -2.0713867   0.67397963   421013 
 3443000   0.60706468   -2.0715672   -2.0715672   -1.3978847  0.032797438   -2.0715672   0.67368256   421013 
 3444000   0.60750139   -2.0720239   -2.0720239   -1.3978567   0.03590821   -2.0720239   0.67416719   421013 
 3445000   0.60532284    -2.070631    -2.070631   -1.3988814  0.040044942    -2.070631   0.67174958   421013 
 3446000   0.60522181    -2.069813    -2.069813   -1.3981755  0.033728845    -2.069813   0.67163746   421013 
 3447000   0.60720023   -2.0724483   -2.0724483   -1.3986153  0.033098653   -2.0724483   0.67383299   421013 
 3448000   0.60642952    -2.071543    -2.071543   -1.3985653  0.030194843    -2.071543    0.6729777   421013 
 3449000   0.60730285   -2.0722301   -2.0722301   -1.3982833  0.031333083   -2.0722301   0.67394687   421013 
 3450000    0.6068458   -2.0712753   -2.0712753   -1.3978357   0.03183145   -2.0712753   0.67343966   421013 
 3451000   0.60674365   -2.0710933   -2.0710933    -1.397767  0.037007778   -2.0710933    0.6733263   421013 
 3452000   0.60798625   -2.0726026   -2.0726026   -1.3978973  0.042409789   -2.0726026   0.67470526   421013 
 3453000   0.60708454   -2.0715015   -2.0715015   -1.3977969  0.030701848   -2.0715015    0.6737046   421013 
 3454000   0.60760086   -2.0718988   -2.0718988   -1.3976212  0.040468431   -2.0718988   0.67427759   421013 
 3455000   0.60849398    -2.072599    -2.072599   -1.3973303  0.034480166    -2.072599   0.67526871   421013 
 3456000   0.60864324   -2.0724818   -2.0724818   -1.3970474  0.041983175   -2.0724818   0.67543435   421013 
 3457000   0.60722521   -2.0721326   -2.0721326   -1.3982719  0.035755751   -2.0721326   0.67386071   421013 
 3458000   0.60643113   -2.0722035   -2.0722035    -1.399224  0.039448311   -2.0722035   0.67297949   421013 
 3459000   0.60732103   -2.0726458   -2.0726458   -1.3986788  0.040303807   -2.0726458   0.67396705   421013 
 3460000   0.60743185    -2.073068    -2.073068    -1.398978  0.035912087    -2.073068   0.67409003   421013 
 3461000   0.60672316    -2.072796    -2.072796   -1.3994925  0.036454654    -2.072796   0.67330356   421013 
 3462000   0.60629662   -2.0724053   -2.0724053   -1.3995751  0.036800686   -2.0724053   0.67283022   421013 
 3463000   0.60728972   -2.0734096   -2.0734096   -1.3994773  0.037945027   -2.0734096    0.6739323   421013 
 3464000    0.6070535   -2.0734776   -2.0734776   -1.3998075  0.039301285   -2.0734776   0.67367015   421013 
 3465000   0.60621992   -2.0729013   -2.0729013   -1.4001562  0.038088591   -2.0729013   0.67274511   421013 
 3466000   0.60675682   -2.0731264   -2.0731264   -1.3997855  0.037244946   -2.0731264   0.67334091   421013 
 3467000   0.60626846    -2.072417    -2.072417    -1.399618  0.035787748    -2.072417   0.67279897   421013 
 3468000   0.60622052   -2.0715937   -2.0715937    -1.398848  0.037454676   -2.0715937   0.67274577   421013 
 3469000   0.60677715   -2.0726213   -2.0726213   -1.3992578  0.040461622   -2.0726213   0.67336348   421013 
 3470000   0.60602089   -2.0719563   -2.0719563    -1.399432  0.031531593   -2.0719563   0.67252424   421013 
 3471000   0.60705904   -2.0735997   -2.0735997   -1.3999234  0.034882112   -2.0735997    0.6736763   421013 
 3472000   0.60670642   -2.0727731   -2.0727731   -1.3994881  0.039305513   -2.0727731   0.67328499   421013 
 3473000   0.60736224     -2.07263     -2.07263   -1.3986173   0.04093539     -2.07263   0.67401278   421013 
 3474000   0.60683893   -2.0724517   -2.0724517   -1.3990197   0.04125036   -2.0724517   0.67343204   421013 
 3475000   0.60709115   -2.0727837   -2.0727837   -1.3990718  0.040113358   -2.0727837   0.67371194   421013 
 3476000   0.60602609   -2.0725019   -2.0725019   -1.3999719  0.032388611   -2.0725019      0.67253   421013 
 3477000    0.6073029   -2.0729295   -2.0729295   -1.3989826   0.03997528   -2.0729295   0.67394693   421013 
 3478000   0.60766013   -2.0736584   -2.0736584    -1.399315  0.041528983   -2.0736584   0.67434336   421013 
 3479000   0.60757359   -2.0729632   -2.0729632   -1.3987158  0.036486048   -2.0729632   0.67424732   421013 
 3480000   0.60853229    -2.073865    -2.073865   -1.3985537  0.036660059    -2.073865   0.67531123   421013 
 3481000   0.60712849   -2.0730865   -2.0730865   -1.3993331   0.03946033   -2.0730865   0.67375337   421013 
 3482000   0.60678897   -2.0723013   -2.0723013   -1.3989247  0.038612103   -2.0723013   0.67337659   421013 
 3483000   0.60645682   -2.0716579   -2.0716579   -1.3986499  0.046543363   -2.0716579     0.673008   421013 
 3484000   0.60726942   -2.0724057   -2.0724057   -1.3984959  0.036211314   -2.0724057   0.67390978   421013 
 3485000   0.60615559   -2.0705203   -2.0705203   -1.3978466  0.027120774   -2.0705203   0.67267371   421013 
 3486000   0.60593371    -2.070781    -2.070781   -1.3983535  0.030179292    -2.070781   0.67242748   421013 
 3487000   0.60611857   -2.0710352   -2.0710352   -1.3984026  0.034199014   -2.0710352   0.67263263   421013 
 3488000   0.60600639   -2.0707985   -2.0707985   -1.3982904   0.03162834   -2.0707985   0.67250814   421013 
 3489000   0.60540247   -2.0706956   -2.0706956   -1.3988576  0.033467849   -2.0706956   0.67183795   421013 
 3490000   0.60659412   -2.0715926   -2.0715926   -1.3984322  0.034130105   -2.0715926   0.67316036   421013 
 3491000   0.60650989   -2.0708544   -2.0708544   -1.3977875  0.035383423   -2.0708544   0.67306689   421013 
 3492000   0.60691719   -2.0710944   -2.0710944   -1.3975756  0.035607418   -2.0710944   0.67351889   421013 
 3493000   0.60741057   -2.0720295   -2.0720295   -1.3979631  0.033019109   -2.0720295   0.67406641   421013 
 3494000    0.6059368   -2.0711057   -2.0711057   -1.3986747  0.034226968   -2.0711057   0.67243091   421013 
 3495000   0.60610242   -2.0711496   -2.0711496   -1.3985349  0.045088239   -2.0711496   0.67261471   421013 
 3496000   0.60816395   -2.0735359   -2.0735359   -1.3986334  0.031888727   -2.0735359   0.67490247   421013 
 3497000   0.60723126   -2.0732817   -2.0732817   -1.3994143  0.033262814   -2.0732817   0.67386743   421013 
 3498000   0.60817309   -2.0736634   -2.0736634   -1.3987507  0.029609683   -2.0736634   0.67491261   421013 
 3499000   0.60598006   -2.0711689   -2.0711689     -1.39869  0.034685437   -2.0711689   0.67247892   421013 
 3500000   0.60735347   -2.0730236   -2.0730236   -1.3990206  0.042129397   -2.0730236   0.67400305   421013 
 3501000   0.60683696    -2.072967    -2.072967   -1.3995372  0.034570089    -2.072967   0.67342986   421013 
 3502000   0.60717662   -2.0731191   -2.0731191   -1.3993123  0.031198991   -2.0731191   0.67380679   421013 
 3503000   0.60627682   -2.0723172   -2.0723172   -1.3995089  0.035246669   -2.0723172   0.67280825   421013 
 3504000   0.60699074   -2.0725362   -2.0725362   -1.3989357  0.038600436   -2.0725362   0.67360051   421013 
 3505000   0.60702914   -2.0731635   -2.0731635   -1.3995204  0.037516676   -2.0731635   0.67364312   421013 
 3506000   0.60630677   -2.0716903   -2.0716903   -1.3988488   0.03822312   -2.0716903   0.67284148   421013 
 3507000   0.60572138   -2.0716838   -2.0716838    -1.399492  0.033500046   -2.0716838   0.67219186   421013 
 3508000   0.60662473   -2.0728918   -2.0728918   -1.3996974  0.030136089   -2.0728918   0.67319434   421013 
 3509000   0.60551445   -2.0710154   -2.0710154   -1.3990532  0.038495785   -2.0710154   0.67196221   421013 
 3510000   0.60745841   -2.0725512   -2.0725512   -1.3984317  0.032408943   -2.0725512    0.6741195   421013 
 3511000   0.60625016   -2.0714877   -2.0714877    -1.398709  0.037677912   -2.0714877   0.67277866   421013 
 3512000   0.60738165    -2.073084    -2.073084   -1.3990496  0.040378684    -2.073084   0.67403432   421013 
 3513000   0.60718767   -2.0726419   -2.0726419   -1.3988228  0.038159898   -2.0726419   0.67381905   421013 
 3514000   0.60828463   -2.0737297   -2.0737297   -1.3986933  0.036987025   -2.0737297   0.67503639   421013 
 3515000   0.60829584   -2.0739828   -2.0739828   -1.3989339  0.035187472   -2.0739828   0.67504883   421013 
 3516000    0.6058935   -2.0722101   -2.0722101   -1.3998272  0.029950687   -2.0722101   0.67238287   421013 
 3517000   0.60563971   -2.0723608   -2.0723608   -1.4002596  0.033050683   -2.0723608   0.67210122   421013 
 3518000   0.60743614   -2.0745558   -2.0745558    -1.400461  0.038022582   -2.0745558   0.67409479   421013 
 3519000   0.60618643   -2.0728774   -2.0728774   -1.4001695  0.036020974   -2.0728774   0.67270794   421013 
 3520000   0.60709367   -2.0733208   -2.0733208    -1.399606  0.039369495   -2.0733208   0.67371473   421013 
 3521000    0.6064107   -2.0728362   -2.0728362   -1.3998794  0.031384163   -2.0728362   0.67295681   421013 
 3522000   0.60744948   -2.0730992   -2.0730992   -1.3989897  0.030327421   -2.0730992   0.67410959   421013 
 3523000   0.60803284   -2.0731566   -2.0731566   -1.3983996  0.039099682   -2.0731566   0.67475697   421013 
 3524000   0.60682474   -2.0722468   -2.0722468   -1.3988305  0.038311513   -2.0722468   0.67341629   421013 
 3525000   0.60779473   -2.0729958   -2.0729958   -1.3985031  0.042017628   -2.0729958   0.67449273   421013 
 3526000   0.60624922   -2.0715502   -2.0715502   -1.3987726  0.036383275   -2.0715502   0.67277762   421013 
 3527000   0.60731504   -2.0732658   -2.0732658   -1.3993054  0.036137758   -2.0732658    0.6739604   421013 
 3528000   0.60728293   -2.0734605   -2.0734605   -1.3995357  0.032842178   -2.0734605   0.67392476   421013 
 3529000   0.60687976   -2.0734846   -2.0734846   -1.4000072   0.03502525   -2.0734846   0.67347736   421013 
 3530000    0.6066051   -2.0729454   -2.0729454   -1.3997728  0.034555939   -2.0729454   0.67317255   421013 
 3531000   0.60690356   -2.0732673   -2.0732673   -1.3997636   0.03214936   -2.0732673   0.67350377   421013 
 3532000   0.60696056   -2.0737057   -2.0737057   -1.4001387  0.035573898   -2.0737057   0.67356701   421013 
 3533000   0.60721472    -2.074024    -2.074024   -1.4001749  0.034283793    -2.074024   0.67384907   421013 
 3534000   0.60710063   -2.0743731   -2.0743731   -1.4006506  0.036794898   -2.0743731   0.67372246   421013 
 3535000   0.60781383   -2.0744643   -2.0744643   -1.3999504  0.040975988   -2.0744643   0.67451392   421013 
 3536000     0.606824   -2.0741082   -2.0741082   -1.4006927   0.04207572   -2.0741082   0.67341547   421013 
 3537000   0.60631115   -2.0741087   -2.0741087   -1.4012623  0.030317144   -2.0741087   0.67284634   421013 
 3538000   0.60667536   -2.0738772   -2.0738772   -1.4006267  0.045879297   -2.0738772   0.67325052   421013 
 3539000   0.60720195   -2.0743093   -2.0743093   -1.4004744  0.037569059   -2.0743093    0.6738349   421013 
 3540000   0.60606746   -2.0744411   -2.0744411   -1.4018652  0.036601917   -2.0744411   0.67257591   421013 
 3541000   0.60587674   -2.0742394   -2.0742394   -1.4018751  0.037440914   -2.0742394   0.67236426   421013 
 3542000   0.60596188   -2.0736973   -2.0736973   -1.4012385  0.031957412   -2.0736973   0.67245875   421013 
 3543000    0.6059177   -2.0738142   -2.0738142   -1.4014045  0.037589268   -2.0738142   0.67240972   421013 
 3544000   0.60665621   -2.0745476   -2.0745476   -1.4013184  0.040192102   -2.0745476   0.67322927   421013 
 3545000   0.60460911   -2.0732313   -2.0732313   -1.4022738  0.035205783   -2.0732313   0.67095752   421013 
 3546000   0.60671678   -2.0753509   -2.0753509   -1.4020544  0.029999243   -2.0753509   0.67329648   421013 
 3547000   0.60592042   -2.0744447   -2.0744447    -1.402032  0.042827147   -2.0744447   0.67241273   421013 
 3548000   0.60687935   -2.0750419   -2.0750419    -1.401565  0.034072246   -2.0750419   0.67347689   421013 
 3549000   0.60728347   -2.0756609   -2.0756609   -1.4017355  0.039458007   -2.0756609   0.67392537   421013 
 3550000   0.60667882   -2.0745381   -2.0745381   -1.4012838  0.040644276   -2.0745381   0.67325436   421013 
 3551000   0.60733324   -2.0751722   -2.0751722   -1.4011916  0.030501272   -2.0751722    0.6739806   421013 
 3552000   0.60744003   -2.0745966   -2.0745966   -1.4004975  0.041786775   -2.0745966    0.6740991   421013 
 3553000   0.60638921   -2.0732155   -2.0732155   -1.4002826  0.034900006   -2.0732155   0.67293297   421013 
 3554000   0.60726791   -2.0742976   -2.0742976   -1.4003895  0.046979982   -2.0742976   0.67390809   421013 
 3555000   0.60725112    -2.074855    -2.074855   -1.4009656  0.030047561    -2.074855   0.67388946   421013 
 3556000   0.60706831   -2.0748463   -2.0748463   -1.4011597  0.039472716   -2.0748463    0.6736866   421013 
 3557000   0.60699203   -2.0746124   -2.0746124   -1.4010104  0.039894451   -2.0746124   0.67360194   421013 
 3558000   0.60730302   -2.0751198   -2.0751198   -1.4011727  0.031207557   -2.0751198   0.67394706   421013 
 3559000   0.60718702   -2.0745766   -2.0745766   -1.4007583  0.040803025   -2.0745766   0.67381833   421013 
 3560000   0.60536742   -2.0734719   -2.0734719   -1.4016728  0.032084665   -2.0734719   0.67179906   421013 
 3561000   0.60663026   -2.0753312   -2.0753312   -1.4021307  0.039226612   -2.0753312   0.67320048   421013 
 3562000   0.60667877   -2.0747966   -2.0747966   -1.4015423  0.042405844   -2.0747966   0.67325431   421013 
 3563000   0.60552454   -2.0734917   -2.0734917   -1.4015182  0.035808278   -2.0734917   0.67197342   421013 
 3564000   0.60578263   -2.0745286   -2.0745286   -1.4022688  0.034734535   -2.0745286   0.67225983   421013 
 3565000   0.60570481   -2.0743325   -2.0743325   -1.4021591   0.03702951   -2.0743325   0.67217346   421013 
 3566000   0.60619705   -2.0748248   -2.0748248   -1.4021051  0.036269131   -2.0748248   0.67271972   421013 
 3567000   0.60564475   -2.0744814   -2.0744814   -1.4023746  0.034666482   -2.0744814   0.67210681   421013 
 3568000   0.60541633   -2.0749021   -2.0749021   -1.4030488  0.039595803   -2.0749021   0.67185333   421013 
 3569000    0.6059777   -2.0745786   -2.0745786   -1.4021023  0.032357271   -2.0745786    0.6724763   421013 
 3570000   0.60677042   -2.0753027   -2.0753027   -1.4019467  0.031445907   -2.0753027   0.67335601   421013 
 3571000   0.60557641   -2.0740533   -2.0740533   -1.4020223  0.044108879   -2.0740533   0.67203097   421013 
 3572000   0.60656917   -2.0750556   -2.0750556   -1.4019229  0.035040808   -2.0750556   0.67313268   421013 
 3573000   0.60771522   -2.0761583   -2.0761583   -1.4017538  0.034508344   -2.0761583   0.67440449   421013 
 3574000   0.60580038     -2.07448     -2.07448   -1.4022005  0.036682305     -2.07448   0.67227952   421013 
 3575000   0.60634357   -2.0744609   -2.0744609   -1.4015786  0.035817022   -2.0744609   0.67288232   421013 
 3576000   0.60772878   -2.0760655   -2.0760655    -1.401646  0.038796199   -2.0760655   0.67441954   421013 
 3577000   0.60721548   -2.0760395   -2.0760395   -1.4021896  0.041314023   -2.0760395   0.67384992   421013 
 3578000   0.60755109   -2.0764341   -2.0764341   -1.4022117  0.039968838   -2.0764341   0.67422235   421013 
 3579000   0.60626645   -2.0745644   -2.0745644   -1.4017677  0.040899832   -2.0745644   0.67279674   421013 
 3580000   0.60538038   -2.0747127   -2.0747127   -1.4028993  0.044517487   -2.0747127   0.67181344   421013 
 3581000   0.60648717   -2.0755098   -2.0755098   -1.4024681  0.038394853   -2.0755098   0.67304168   421013 
 3582000   0.60567767   -2.0746894   -2.0746894   -1.4025461  0.036080059   -2.0746894   0.67214335   421013 
 3583000   0.60725149   -2.0759442   -2.0759442   -1.4020543  0.036736162   -2.0759442   0.67388988   421013 
 3584000   0.60646094    -2.075052    -2.075052   -1.4020394  0.041269226    -2.075052   0.67301257   421013 
 3585000   0.60762083   -2.0765291   -2.0765291   -1.4022293  0.034253019   -2.0765291   0.67429974   421013 
 3586000   0.60500082   -2.0746189   -2.0746189   -1.4032267  0.039335376   -2.0746189   0.67139222   421013 
 3587000   0.60516735   -2.0747333   -2.0747333   -1.4031562   0.02967345   -2.0747333   0.67157703   421013 
 3588000   0.60630842   -2.0762032   -2.0762032   -1.4033599  0.033404497   -2.0762032   0.67284331   421013 
 3589000   0.60656955   -2.0760868   -2.0760868   -1.4029537  0.041851705   -2.0760868    0.6731331   421013 
 3590000   0.60668137    -2.076133    -2.076133   -1.4028758   0.03571682    -2.076133   0.67325719   421013 
 3591000   0.60592101    -2.075485    -2.075485   -1.4030716  0.041388033    -2.075485   0.67241339   421013 
 3592000   0.60576325   -2.0747046   -2.0747046   -1.4024663  0.031357586   -2.0747046   0.67223832   421013 
 3593000    0.6067848   -2.0751448   -2.0751448   -1.4017728  0.040355176   -2.0751448   0.67337197   421013 
 3594000   0.60717534   -2.0754434   -2.0754434    -1.401638  0.034316887   -2.0754434   0.67380537   421013 
 3595000   0.60767504   -2.0759177   -2.0759177   -1.4015578  0.036212995   -2.0759177   0.67435991   421013 
 3596000    0.6073203   -2.0746877   -2.0746877   -1.4007215  0.046393008   -2.0746877   0.67396624   421013 
 3597000   0.60654221   -2.0743358   -2.0743358    -1.401233  0.036710512   -2.0743358   0.67310275   421013 
 3598000   0.60742267   -2.0753314   -2.0753314   -1.4012516  0.034096711   -2.0753314   0.67407983   421013 
 3599000   0.60721456   -2.0742426   -2.0742426   -1.4003937  0.035670001   -2.0742426   0.67384889   421013 
 3600000   0.60766369   -2.0758293   -2.0758293    -1.401482  0.033547438   -2.0758293   0.67434731   421013 
 3601000   0.60665892   -2.0747363   -2.0747363    -1.401504  0.036551987   -2.0747363   0.67323228   421013 
 3602000    0.6074851   -2.0749766   -2.0749766   -1.4008275  0.040639961   -2.0749766   0.67414912   421013 
 3603000   0.60630147   -2.0742108   -2.0742108   -1.4013752   0.02856388   -2.0742108   0.67283561   421013 
 3604000   0.60809576   -2.0754265   -2.0754265   -1.4005997  0.035609523   -2.0754265   0.67482679   421013 
 3605000   0.60665433   -2.0744822   -2.0744822    -1.401255  0.034396228   -2.0744822   0.67322719   421013 
 3606000   0.60720921   -2.0747523   -2.0747523   -1.4009094  0.034281644   -2.0747523   0.67384296   421013 
 3607000   0.60594826     -2.07339     -2.07339   -1.4009463  0.035840464     -2.07339   0.67244363   421013 
 3608000   0.60612339   -2.0730605   -2.0730605   -1.4004225  0.038685375   -2.0730605   0.67263798   421013 
 3609000   0.60704302    -2.074017    -2.074017   -1.4003585  0.038293234    -2.074017   0.67365853   421013 
 3610000   0.60679355   -2.0741318   -2.0741318   -1.4007501  0.043596434   -2.0741318   0.67338168   421013 
 3611000   0.60690886   -2.0744172   -2.0744172   -1.4009075  0.037286459   -2.0744172   0.67350965   421013 
 3612000   0.60822673   -2.0756839   -2.0756839   -1.4007118   0.03845763   -2.0756839   0.67497214   421013 
 3613000   0.60793807    -2.074432    -2.074432   -1.3997802  0.039151842    -2.074432    0.6746518   421013 
 3614000   0.60777238   -2.0749683   -2.0749683   -1.4005004  0.040496197   -2.0749683   0.67446793   421013 
 3615000   0.60842433   -2.0758715   -2.0758715     -1.40068  0.038226236   -2.0758715   0.67519141   421013 
 3616000    0.6084483   -2.0758699   -2.0758699   -1.4006519  0.039252514   -2.0758699   0.67521802   421013 
 3617000   0.60713553   -2.0746146   -2.0746146   -1.4008534  0.047832697   -2.0746146   0.67376118   421013 
 3618000   0.60771404   -2.0757226   -2.0757226   -1.4013194  0.046670161   -2.0757226   0.67440318   421013 
 3619000   0.60846722   -2.0758129   -2.0758129   -1.4005739  0.041310203   -2.0758129   0.67523902   421013 
 3620000   0.60822231   -2.0761883   -2.0761883   -1.4012211   0.04451288   -2.0761883   0.67496724   421013 
 3621000    0.6076512   -2.0756957   -2.0756957   -1.4013623  0.040917814   -2.0756957   0.67433345   421013 
 3622000   0.60682012   -2.0747965   -2.0747965   -1.4013853  0.031835757   -2.0747965   0.67341117   421013 
 3623000   0.60671502   -2.0741824   -2.0741824   -1.4008878  0.036589566   -2.0741824   0.67329453   421013 
 3624000   0.60663107   -2.0741022   -2.0741022   -1.4009008     0.038678   -2.0741022   0.67320137   421013 
 3625000   0.60760106   -2.0751259   -2.0751259   -1.4008481  0.043429365   -2.0751259   0.67427781   421013 
 3626000    0.6071165   -2.0748347   -2.0748347   -1.4010946  0.031776744   -2.0748347   0.67374007   421013 
 3627000   0.60516828   -2.0724119   -2.0724119   -1.4008339  0.035013772   -2.0724119   0.67157805   421013 
 3628000   0.60687647   -2.0739479   -2.0739479   -1.4004742  0.030696668   -2.0739479    0.6734737   421013 
 3629000   0.60667704   -2.0737318   -2.0737318   -1.4004794  0.037813693   -2.0737318   0.67325239   421013 
 3630000   0.60711688   -2.0739538   -2.0739538   -1.4002133  0.038865697   -2.0739538    0.6737405   421013 
 3631000   0.60681761   -2.0740815   -2.0740815   -1.4006731  0.035598543   -2.0740815   0.67340838   421013 
 3632000   0.60566864   -2.0722546   -2.0722546   -1.4001212  0.035167595   -2.0722546   0.67213332   421013 
 3633000    0.6067954    -2.074195    -2.074195   -1.4008113  0.035759212    -2.074195   0.67338373   421013 
 3634000   0.60699156   -2.0741726   -2.0741726   -1.4005711  0.043762675   -2.0741726   0.67360142   421013 
 3635000   0.60785348   -2.0746894   -2.0746894   -1.4001315  0.044363188   -2.0746894   0.67455793   421013 
 3636000   0.60818218   -2.0753272   -2.0753272   -1.4004045  0.036120265   -2.0753272   0.67492269   421013 
 3637000   0.60707065   -2.0744891   -2.0744891   -1.4007999  0.034774132   -2.0744891   0.67368919   421013 
 3638000   0.60721932   -2.0751385   -2.0751385   -1.4012843  0.034834154   -2.0751385   0.67385418   421013 
 3639000   0.60752765   -2.0761309   -2.0761309   -1.4019345  0.038880641   -2.0761309   0.67419634   421013 
 3640000    0.6061509   -2.0754879   -2.0754879   -1.4028193  0.039787439   -2.0754879   0.67266851   421013 
 3641000   0.60555902    -2.075502    -2.075502   -1.4034903  0.036376077    -2.075502   0.67201168   421013 
 3642000   0.60673602   -2.0761482   -2.0761482   -1.4028303  0.041837213   -2.0761482   0.67331783   421013 
 3643000   0.60744965   -2.0768941   -2.0768941   -1.4027843  0.040241826   -2.0768941   0.67410978   421013 
 3644000   0.60760045    -2.076855    -2.076855   -1.4025778  0.040285368    -2.076855   0.67427713   421013 
 3645000   0.60657953   -2.0754454   -2.0754454   -1.4023012  0.034791082   -2.0754454   0.67314418   421013 
 3646000   0.60709018   -2.0762237   -2.0762237   -1.4025128  0.038635409   -2.0762237   0.67371087   421013 
 3647000   0.60657865   -2.0758047   -2.0758047   -1.4026615  0.039331895   -2.0758047    0.6731432   421013 
 3648000   0.60694742   -2.0762198   -2.0762198   -1.4026674  0.037924231   -2.0762198   0.67355243   421013 
 3649000   0.60639721   -2.0764696   -2.0764696   -1.4035278    0.0413365   -2.0764696   0.67294184   421013 
 3650000   0.60630593   -2.0758081   -2.0758081   -1.4029675  0.032327728   -2.0758081   0.67284056   421013 
 3651000   0.60754065      -2.0773      -2.0773   -1.4030893  0.033641381      -2.0773   0.67421076   421013 
 3652000   0.60683557   -2.0772538   -2.0772538   -1.4038255  0.036829485   -2.0772538   0.67342831   421013 
 3653000   0.60585982   -2.0757729   -2.0757729   -1.4034274  0.043879198   -2.0757729   0.67234549   421013 
 3654000   0.60587831    -2.075848    -2.075848    -1.403482  0.038564629    -2.075848     0.672366   421013 
 3655000   0.60555686   -2.0757237   -2.0757237   -1.4037144  0.035615737   -2.0757237   0.67200928   421013 
 3656000   0.60569879   -2.0763763   -2.0763763   -1.4042095  0.034889921   -2.0763763   0.67216679   421013 
 3657000   0.60537529   -2.0771923   -2.0771923   -1.4053846  0.032443171   -2.0771923   0.67180778   421013 
 3658000     0.606237   -2.0778299   -2.0778299   -1.4050659  0.037772316   -2.0778299   0.67276405   421013 
 3659000    0.6058222   -2.0774393   -2.0774393   -1.4051356  0.028484607   -2.0774393   0.67230373   421013 
 3660000   0.60624505   -2.0781927   -2.0781927   -1.4054197   0.02988129   -2.0781927   0.67277299   421013 
 3661000   0.60712599   -2.0796686   -2.0796686    -1.405918  0.035827131   -2.0796686    0.6737506   421013 
 3662000   0.60578577   -2.0779814   -2.0779814   -1.4057181  0.035644153   -2.0779814    0.6722633   421013 
 3663000    0.6054856    -2.077296    -2.077296   -1.4053658  0.040856108    -2.077296    0.6719302   421013 
 3664000   0.60548532    -2.077159    -2.077159   -1.4052291  0.039557028    -2.077159   0.67192989   421013 
 3665000   0.60525803   -2.0775264   -2.0775264   -1.4058487  0.041255795   -2.0775264   0.67167766   421013 
 3666000   0.60598865   -2.0793737   -2.0793737   -1.4068852  0.035308474   -2.0793737   0.67248845   421013 
 3667000   0.60566771   -2.0780126   -2.0780126   -1.4058803  0.034367112   -2.0780126    0.6721323   421013 
 3668000   0.60735079   -2.0791946   -2.0791946   -1.4051946   0.04360913   -2.0791946   0.67400007   421013 
 3669000   0.60683169    -2.077762    -2.077762    -1.404338  0.038979939    -2.077762     0.673424   421013 
 3670000   0.60776379   -2.0787936   -2.0787936   -1.4043353  0.032997047   -2.0787936   0.67445839   421013 
 3671000   0.60687618   -2.0776085   -2.0776085   -1.4041352  0.040011682   -2.0776085   0.67347338   421013 
 3672000   0.60583067    -2.077514    -2.077514   -1.4052008  0.031624865    -2.077514   0.67231314   421013 
 3673000   0.60610158   -2.0780126   -2.0780126   -1.4053988  0.038104084   -2.0780126   0.67261378   421013 
 3674000   0.60646503   -2.0776211   -2.0776211    -1.404604  0.038634665   -2.0776211   0.67301712   421013 
 3675000    0.6071765   -2.0777615   -2.0777615   -1.4039548  0.034718608   -2.0777615   0.67380665   421013 
 3676000   0.60633352    -2.076972    -2.076972   -1.4041009  0.033026181    -2.076972   0.67287117   421013 
 3677000   0.60711087   -2.0777305   -2.0777305   -1.4039967  0.039233377   -2.0777305   0.67373382   421013 
 3678000   0.60552929     -2.07558     -2.07558   -1.4036013  0.041768262     -2.07558   0.67197869   421013 
 3679000   0.60628914   -2.0773617   -2.0773617   -1.4045398  0.039285532   -2.0773617   0.67282192   421013 
 3680000   0.60613758   -2.0770992   -2.0770992   -1.4044455  0.037836898   -2.0770992   0.67265372   421013 
 3681000   0.60533707    -2.075894    -2.075894   -1.4041286  0.036500781    -2.075894   0.67176537   421013 
 3682000   0.60596036   -2.0764861   -2.0764861   -1.4040291  0.037274421   -2.0764861   0.67245706   421013 
 3683000   0.60668118   -2.0776443   -2.0776443   -1.4043873  0.042814264   -2.0776443   0.67325698   421013 
 3684000   0.60625388   -2.0769304   -2.0769304   -1.4041476  0.032644791   -2.0769304   0.67278278   421013 
 3685000   0.60598643   -2.0764164   -2.0764164   -1.4039304  0.030250723   -2.0764164   0.67248599   421013 
 3686000   0.60705402   -2.0767439   -2.0767439   -1.4030731  0.043231614   -2.0767439   0.67367073   421013 
 3687000   0.60651923   -2.0764903   -2.0764903    -1.403413  0.040160495   -2.0764903   0.67307726   421013 
 3688000   0.60635536   -2.0756342   -2.0756342   -1.4027388  0.053321722   -2.0756342    0.6728954   421013 
 3689000   0.60800115   -2.0781019   -2.0781019   -1.4033801  0.037638743   -2.0781019    0.6747218   421013 
 3690000   0.60589731   -2.0754522   -2.0754522   -1.4030651  0.037141339   -2.0754522   0.67238709   421013 
 3691000   0.60642384   -2.0763724   -2.0763724    -1.403401  0.034975322   -2.0763724    0.6729714   421013 
 3692000   0.60651669   -2.0759237   -2.0759237   -1.4028493  0.032529574   -2.0759237   0.67307443   421013 
 3693000   0.60616907   -2.0753872   -2.0753872   -1.4026985  0.038300008   -2.0753872   0.67268868   421013 
 3694000   0.60709078   -2.0766466   -2.0766466   -1.4029351  0.039710524   -2.0766466   0.67371152   421013 
 3695000   0.60633286   -2.0753952   -2.0753952   -1.4025247  0.043819574   -2.0753952   0.67287044   421013 
 3696000   0.60623127   -2.0756462   -2.0756462   -1.4028885  0.038057709   -2.0756462    0.6727577   421013 
 3697000   0.60623625   -2.0757199   -2.0757199   -1.4029567  0.032716817   -2.0757199   0.67276323   421013 
 3698000   0.60719836   -2.0761257   -2.0761257   -1.4022948  0.041179048   -2.0761257   0.67383091   421013 
 3699000   0.60681846   -2.0762967   -2.0762967   -1.4028874  0.032339592   -2.0762967   0.67340933   421013 
 3700000   0.60565351    -2.074706    -2.074706   -1.4025895  0.039699104    -2.074706   0.67211654   421013 
 3701000    0.6055146   -2.0752109   -2.0752109   -1.4032485  0.036540652   -2.0752109   0.67196238   421013 
 3702000   0.60497115   -2.0752718   -2.0752718   -1.4039125  0.038378147   -2.0752718   0.67135929   421013 
 3703000   0.60612111   -2.0759215   -2.0759215    -1.403286  0.029665006   -2.0759215   0.67263545   421013 
 3704000   0.60689313   -2.0772707   -2.0772707   -1.4037785   0.02998846   -2.0772707   0.67349219   421013 
 3705000   0.60727155   -2.0764884   -2.0764884   -1.4025762  0.035461884   -2.0764884   0.67391214   421013 
 3706000   0.60675673   -2.0765647   -2.0765647   -1.4032239  0.036706914   -2.0765647   0.67334082   421013 
 3707000   0.60701925   -2.0762375   -2.0762375   -1.4026053  0.042661183   -2.0762375   0.67363215   421013 
 3708000   0.60619087   -2.0762635   -2.0762635   -1.4035507  0.037533182   -2.0762635   0.67271287   421013 
 3709000   0.60715678   -2.0772899   -2.0772899   -1.4035051  0.023207508   -2.0772899   0.67378478   421013 
 3710000   0.60587307   -2.0757416   -2.0757416   -1.4033814  0.041819045   -2.0757416   0.67236019   421013 
 3711000    0.6076899   -2.0774167   -2.0774167   -1.4030403  0.042669906   -2.0774167   0.67437639   421013 
 3712000   0.60656511   -2.0767644   -2.0767644   -1.4036363  0.029241814   -2.0767644   0.67312817   421013 
 3713000    0.6062812   -2.0767361   -2.0767361    -1.403923  0.040338277   -2.0767361   0.67281311   421013 
 3714000   0.60687856   -2.0763086   -2.0763086   -1.4028326  0.036073262   -2.0763086   0.67347601   421013 
 3715000   0.60670227   -2.0765286   -2.0765286   -1.4032482  0.037441537   -2.0765286   0.67328039   421013 
 3716000   0.60745714   -2.0776164   -2.0776164   -1.4034983  0.033628601   -2.0776164    0.6741181   421013 
 3717000   0.60744276   -2.0776516   -2.0776516   -1.4035495  0.038138079   -2.0776516   0.67410214   421013 
 3718000   0.60644748   -2.0771135   -2.0771135   -1.4041159   0.03446108   -2.0771135   0.67299764   421013 
 3719000   0.60720432   -2.0776511   -2.0776511   -1.4038135  0.032405846   -2.0776511   0.67383753   421013 
 3720000   0.60597738   -2.0763772   -2.0763772   -1.4039012  0.044265834   -2.0763772   0.67247595   421013 
 3721000   0.60703283     -2.07776     -2.07776   -1.4041128  0.030853878     -2.07776   0.67364721   421013 
 3722000   0.60759747    -2.077703    -2.077703   -1.4034291  0.040887062    -2.077703   0.67427382   421013 
 3723000   0.60664298   -2.0774421   -2.0774421   -1.4042275  0.037192102   -2.0774421   0.67321458   421013 
 3724000    0.6073055   -2.0777568   -2.0777568    -1.403807  0.039862552   -2.0777568   0.67394981   421013 
 3725000   0.60696048   -2.0778591   -2.0778591   -1.4042922  0.034075838   -2.0778591   0.67356693   421013 
 3726000    0.6070602   -2.0786777   -2.0786777   -1.4050001  0.042107821   -2.0786777   0.67367759   421013 
 3727000   0.60553657    -2.077784    -2.077784   -1.4057972  0.044302106    -2.077784   0.67198676   421013 
 3728000   0.60546769   -2.0781695   -2.0781695   -1.4062591  0.031873743   -2.0781695   0.67191032   421013 
 3729000    0.6058225    -2.078591    -2.078591    -1.406287   0.03824252    -2.078591   0.67230406   421013 
 3730000   0.60692173   -2.0795428   -2.0795428   -1.4060189   0.03589264   -2.0795428   0.67352393   421013 
 3731000   0.60718917   -2.0794333   -2.0794333   -1.4056126  0.031059677   -2.0794333   0.67382072   421013 
 3732000   0.60659546   -2.0789023   -2.0789023   -1.4057405  0.042809296   -2.0789023   0.67316186   421013 
 3733000   0.60828841   -2.0800989   -2.0800989   -1.4050584  0.044278542   -2.0800989   0.67504058   421013 
 3734000   0.60619468   -2.0782753   -2.0782753   -1.4055583  0.036299154   -2.0782753   0.67271709   421013 
 3735000   0.60645386   -2.0783913   -2.0783913   -1.4053866  0.038888859   -2.0783913   0.67300471   421013 
 3736000   0.60626146   -2.0781619   -2.0781619   -1.4053707   0.03421814   -2.0781619    0.6727912   421013 
 3737000   0.60660574   -2.0781111   -2.0781111   -1.4049379  0.039842456   -2.0781111   0.67317326   421013 
 3738000   0.60640706   -2.0774986   -2.0774986   -1.4045458  0.032359932   -2.0774986   0.67295278   421013 
 3739000   0.60735682    -2.078527    -2.078527   -1.4045203  0.038154579    -2.078527   0.67400676   421013 
 3740000   0.60708888   -2.0790981   -2.0790981   -1.4053887  0.038949197   -2.0790981   0.67370942   421013 
 3741000   0.60745122   -2.0800539   -2.0800539   -1.4059424  0.032298177   -2.0800539   0.67411152   421013 
 3742000   0.60760816   -2.0804115   -2.0804115   -1.4061258  0.037102686   -2.0804115   0.67428569   421013 
 3743000   0.60639736   -2.0792922   -2.0792922   -1.4063502  0.034985909   -2.0792922   0.67294201   421013 
 3744000   0.60681748   -2.0787175   -2.0787175   -1.4053092  0.038523905   -2.0787175   0.67340824   421013 
 3745000   0.60601984   -2.0780367   -2.0780367   -1.4055137  0.041036111   -2.0780367   0.67252306   421013 
 3746000   0.60689228   -2.0790956   -2.0790956   -1.4056044  0.031562701   -2.0790956   0.67349124   421013 
 3747000   0.60648127   -2.0793073   -2.0793073   -1.4062722  0.040759082   -2.0793073   0.67303513   421013 
 3748000    0.6063195   -2.0792648   -2.0792648   -1.4064092    0.0323129   -2.0792648   0.67285561   421013 
 3749000   0.60554785   -2.0779424   -2.0779424   -1.4059431  0.034964075   -2.0779424   0.67199928   421013 
 3750000   0.60662454   -2.0787729   -2.0787729   -1.4055788  0.041617403   -2.0787729   0.67319413   421013 
 3751000   0.60609427   -2.0785571   -2.0785571   -1.4059515  0.033725729   -2.0785571   0.67260566   421013 
 3752000   0.60639219   -2.0794561   -2.0794561   -1.4065199  0.035871597   -2.0794561   0.67293628   421013 
 3753000    0.6056747   -2.0789837   -2.0789837   -1.4068436    0.0436729   -2.0789837   0.67214005   421013 
 3754000   0.60604203   -2.0785225   -2.0785225   -1.4059748  0.032016006   -2.0785225   0.67254769   421013 
 3755000   0.60655355   -2.0790833   -2.0790833   -1.4059679  0.038994084   -2.0790833   0.67311535   421013 
 3756000   0.60618983   -2.0786353   -2.0786353   -1.4059236  0.035314279   -2.0786353   0.67271171   421013 
 3757000    0.6067588   -2.0793174   -2.0793174   -1.4059743  0.038108945   -2.0793174   0.67334312   421013 
 3758000   0.60601347   -2.0783142   -2.0783142   -1.4057982  0.044561328   -2.0783142   0.67251599   421013 
 3759000   0.60819475   -2.0806331   -2.0806331   -1.4056965  0.033402987   -2.0806331   0.67493665   421013 
 3760000   0.60730869   -2.0805436   -2.0805436   -1.4065902  0.035083339   -2.0805436   0.67395336   421013 
 3761000   0.60684721   -2.0794921   -2.0794921   -1.4060509  0.035865131   -2.0794921   0.67344123   421013 
 3762000   0.60765861   -2.0802073   -2.0802073   -1.4058656  0.041070683   -2.0802073   0.67434167   421013 
 3763000   0.60694253    -2.079525    -2.079525    -1.405978  0.030851591    -2.079525   0.67354701   421013 
 3764000    0.6064158   -2.0787893   -2.0787893   -1.4058269  0.036154764   -2.0787893   0.67296248   421013 
 3765000   0.60589409   -2.0784188   -2.0784188   -1.4060353  0.033693125   -2.0784188   0.67238351   421013 
 3766000    0.6074497   -2.0792551   -2.0792551   -1.4051452  0.042933434   -2.0792551   0.67410983   421013 
 3767000   0.60730766   -2.0794818   -2.0794818   -1.4055296  0.041099788   -2.0794818   0.67395221   421013 
 3768000   0.60709684   -2.0792025   -2.0792025   -1.4054842  0.038708952   -2.0792025   0.67371826   421013 
 3769000   0.60623346   -2.0788901   -2.0788901   -1.4061299  0.042163493   -2.0788901   0.67276012   421013 
 3770000   0.60685177   -2.0793026   -2.0793026   -1.4058563  0.042647456   -2.0793026   0.67344629   421013 
 3771000      0.60606   -2.0782814   -2.0782814   -1.4057137  0.039935313   -2.0782814   0.67256764   421013 
 3772000    0.6061428    -2.078532    -2.078532   -1.4058725  0.049432924    -2.078532   0.67265952   421013 
 3773000   0.60600548   -2.0787266   -2.0787266   -1.4062195  0.035012285   -2.0787266   0.67250713   421013 
 3774000   0.60563392   -2.0797867   -2.0797867   -1.4076919   0.03527592   -2.0797867    0.6720948   421013 
 3775000   0.60442387   -2.0780828   -2.0780828   -1.4073308  0.034946002   -2.0780828   0.67075196   421013 
 3776000   0.60617994   -2.0784027   -2.0784027    -1.405702  0.036459166   -2.0784027   0.67270073   421013 
 3777000    0.6059101   -2.0784028   -2.0784028   -1.4060015  0.032578204   -2.0784028   0.67240128   421013 
 3778000   0.60785213   -2.0809689   -2.0809689   -1.4064124  0.031981712   -2.0809689   0.67455642   421013 
 3779000   0.60648004   -2.0791388   -2.0791388   -1.4061051  0.037243103   -2.0791388   0.67303376   421013 
 3780000    0.6066563   -2.0795763   -2.0795763   -1.4063469  0.031674522   -2.0795763   0.67322937   421013 
 3781000   0.60600559   -2.0790175   -2.0790175   -1.4065102  0.033931578   -2.0790175   0.67250726   421013 
 3782000   0.60579954    -2.079301    -2.079301   -1.4070225  0.038481717    -2.079301   0.67227859   421013 
 3783000   0.60620836   -2.0802992   -2.0802992   -1.4075669   0.04115175   -2.0802992   0.67273227   421013 
 3784000   0.60536761   -2.0799503   -2.0799503    -1.408151  0.036777441   -2.0799503   0.67179927   421013 
 3785000   0.60627379   -2.0808854   -2.0808854   -1.4080805  0.032360828   -2.0808854   0.67280488   421013 
 3786000   0.60722358   -2.0810981   -2.0810981   -1.4072392  0.036089156   -2.0810981    0.6738589   421013 
 3787000   0.60624537   -2.0804662   -2.0804662   -1.4076928  0.040905969   -2.0804662   0.67277335   421013 
 3788000   0.60600609   -2.0807517   -2.0807517   -1.4082439  0.031190422   -2.0807517   0.67250781   421013 
 3789000   0.60645447   -2.0804633   -2.0804633   -1.4074579  0.043758111   -2.0804633   0.67300539   421013 
 3790000   0.60579514   -2.0794649   -2.0794649   -1.4071911   0.04020185   -2.0794649   0.67227371   421013 
 3791000   0.60752033   -2.0812284   -2.0812284   -1.4070401  0.032890725   -2.0812284   0.67418822   421013 
 3792000   0.60838509   -2.0814531   -2.0814531   -1.4063052  0.038356376   -2.0814531   0.67514787   421013 
 3793000   0.60797248    -2.080511    -2.080511   -1.4058211   0.04510716    -2.080511   0.67468998   421013 
 3794000   0.60694102   -2.0797943   -2.0797943    -1.406249  0.043695377   -2.0797943   0.67354534   421013 
 3795000   0.60654871   -2.0783852   -2.0783852   -1.4052752  0.041495443   -2.0783852   0.67310997   421013 
 3796000   0.60703151   -2.0793792   -2.0793792   -1.4057334  0.036855015   -2.0793792   0.67364575   421013 
 3797000   0.60704715   -2.0789207   -2.0789207   -1.4052576  0.040142033   -2.0789207   0.67366311   421013 
 3798000   0.60618505   -2.0774833   -2.0774833   -1.4047769  0.039142025   -2.0774833    0.6727064   421013 
 3799000   0.60655179   -2.0783607   -2.0783607   -1.4052473   0.03681798   -2.0783607   0.67311339   421013 
 3800000    0.6064867   -2.0763912   -2.0763912     -1.40335  0.037703529   -2.0763912   0.67304116   421013 
 3801000   0.60661989    -2.077153    -2.077153   -1.4039641  0.030126855    -2.077153   0.67318897   421013 
 3802000   0.60616443     -2.07677     -2.07677   -1.4040864  0.041463072     -2.07677   0.67268353   421013 
 3803000   0.60546644   -2.0759645   -2.0759645   -1.4040556  0.037756559   -2.0759645   0.67190894   421013 
 3804000   0.60537149   -2.0760364   -2.0760364   -1.4042328  0.036377932   -2.0760364   0.67180356   421013 
 3805000   0.60549462   -2.0759314   -2.0759314   -1.4039912  0.032587009   -2.0759314   0.67194021   421013 
 3806000    0.6057866   -2.0760602   -2.0760602    -1.403796   0.02236968   -2.0760602   0.67226423   421013 
 3807000   0.60543696   -2.0760924   -2.0760924   -1.4042161  0.031976085   -2.0760924   0.67187622   421013 
 3808000   0.60562776   -2.0761241   -2.0761241   -1.4040361  0.033040519   -2.0761241   0.67208796   421013 
 3809000   0.60596309   -2.0759178   -2.0759178   -1.4034577  0.032080359   -2.0759178   0.67246009   421013 
 3810000   0.60514548   -2.0748914   -2.0748914   -1.4033386  0.033876842   -2.0748914   0.67155275   421013 
 3811000   0.60517975   -2.0760925   -2.0760925   -1.4045017  0.032497673   -2.0760925   0.67159079   421013 
 3812000   0.60535164   -2.0763419   -2.0763419   -1.4045603   0.03871576   -2.0763419   0.67178154   421013 
 3813000   0.60616753   -2.0765972   -2.0765972   -1.4039102  0.030332115   -2.0765972   0.67268697   421013 
 3814000   0.60688631   -2.0764187   -2.0764187   -1.4029341  0.039007593   -2.0764187   0.67348462   421013 
 3815000   0.60810595   -2.0776166   -2.0776166   -1.4027785  0.040051301   -2.0776166    0.6748381   421013 
 3816000   0.60753309   -2.0761143   -2.0761143   -1.4019119  0.037883892   -2.0761143   0.67420238   421013 
 3817000    0.6083822   -2.0774194   -2.0774194   -1.4022748  0.042605061   -2.0774194   0.67514467   421013 
 3818000   0.60783634   -2.0772681   -2.0772681   -1.4027292  0.047210589   -2.0772681    0.6745389   421013 
 3819000   0.60741199   -2.0766336   -2.0766336   -1.4025656  0.043184028   -2.0766336   0.67406799   421013 
 3820000   0.60675913   -2.0766905   -2.0766905   -1.4033471  0.042472928   -2.0766905   0.67334348   421013 
 3821000   0.60777534   -2.0782028   -2.0782028   -1.4037316  0.035865328   -2.0782028   0.67447121   421013 
 3822000   0.60762232   -2.0782603   -2.0782603   -1.4039589   0.03368528   -2.0782603    0.6743014   421013 
 3823000     0.605528   -2.0757702   -2.0757702   -1.4037929   0.03682357   -2.0757702   0.67197725   421013 
 3824000   0.60638289   -2.0769903   -2.0769903   -1.4040643  0.034733735   -2.0769903   0.67292595   421013 
 3825000   0.60690363   -2.0768835   -2.0768835   -1.4033797  0.030100887   -2.0768835   0.67350384   421013 
 3826000   0.60643442   -2.0761257   -2.0761257   -1.4031425  0.041853588   -2.0761257   0.67298314   421013 
 3827000     0.605898   -2.0762704   -2.0762704   -1.4038825  0.038977629   -2.0762704   0.67238785   421013 
 3828000   0.60699246   -2.0767903   -2.0767903   -1.4031879  0.034073421   -2.0767903   0.67360242   421013 
 3829000   0.60708707   -2.0772036   -2.0772036   -1.4034962  0.039691322   -2.0772036   0.67370741   421013 
 3830000   0.60783928   -2.0785295   -2.0785295   -1.4039874  0.030265783   -2.0785295   0.67454217   421013 
 3831000   0.60762807   -2.0776296   -2.0776296   -1.4033219  0.042991234   -2.0776296   0.67430778   421013 
 3832000   0.60579936   -2.0765017   -2.0765017   -1.4042233  0.033181411   -2.0765017   0.67227839   421013 
 3833000   0.60723598    -2.077587    -2.077587   -1.4037143  0.036592889    -2.077587   0.67387266   421013 
 3834000   0.60712287   -2.0777241   -2.0777241    -1.403977   0.03789399   -2.0777241   0.67374714   421013 
 3835000   0.60597329   -2.0767409   -2.0767409   -1.4042695  0.039992474   -2.0767409   0.67247141   421013 
 3836000   0.60659242   -2.0776268   -2.0776268   -1.4044683  0.037721876   -2.0776268   0.67315848   421013 
 3837000   0.60526854    -2.076334    -2.076334   -1.4046447   0.03663255    -2.076334   0.67168932   421013 
 3838000   0.60724139   -2.0776895   -2.0776895   -1.4038108  0.032092771   -2.0776895   0.67387866   421013 
 3839000   0.60602425   -2.0764261   -2.0764261   -1.4038981  0.036230596   -2.0764261   0.67252796   421013 
 3840000   0.60683279   -2.0778285   -2.0778285   -1.4044032  0.035606163   -2.0778285   0.67342523   421013 
 3841000   0.60623105   -2.0769126   -2.0769126   -1.4041551  0.038842217   -2.0769126   0.67275745   421013 
 3842000   0.60687136   -2.0779613   -2.0779613   -1.4044932  0.035694997   -2.0779613   0.67346803   421013 
 3843000   0.60751967   -2.0777377   -2.0777377   -1.4035502  0.032262625   -2.0777377   0.67418748   421013 
 3844000   0.60792155   -2.0788437   -2.0788437   -1.4042103  0.035012638   -2.0788437   0.67463347   421013 
 3845000    0.6076144   -2.0782016   -2.0782016    -1.403909  0.033889938   -2.0782016    0.6742926   421013 
 3846000   0.60643668    -2.077859    -2.077859   -1.4048733  0.039759505    -2.077859   0.67298565   421013 
 3847000   0.60709535   -2.0785726   -2.0785726    -1.404856  0.031502321   -2.0785726    0.6737166   421013 
 3848000   0.60558916   -2.0773533   -2.0773533   -1.4053082  0.042837122   -2.0773533   0.67204512   421013 
 3849000   0.60706023   -2.0788044   -2.0788044   -1.4051268  0.034898924   -2.0788044   0.67367762   421013 
 3850000   0.60602266   -2.0780413   -2.0780413   -1.4055151   0.03569918   -2.0780413    0.6725262   421013 
 3851000   0.60718535   -2.0782828   -2.0782828   -1.4044663  0.031673349   -2.0782828   0.67381647   421013 
 3852000   0.60707957   -2.0785041   -2.0785041    -1.404805  0.035744583   -2.0785041   0.67369908   421013 
 3853000   0.60568346   -2.0768009   -2.0768009   -1.4046511  0.037426489   -2.0768009   0.67214978   421013 
 3854000    0.6072346     -2.07893     -2.07893   -1.4050589  0.040432858     -2.07893   0.67387114   421013 
 3855000   0.60641052   -2.0777254   -2.0777254   -1.4047688  0.038184043   -2.0777254   0.67295662   421013 
 3856000    0.6071149    -2.079011    -2.079011   -1.4052727  0.039034053    -2.079011   0.67373829   421013 
 3857000   0.60703015   -2.0794434   -2.0794434   -1.4057991  0.037287951   -2.0794434   0.67364424   421013 
 3858000   0.60651755   -2.0778618   -2.0778618   -1.4047864  0.037614371   -2.0778618    0.6730754   421013 
 3859000   0.60683405   -2.0786069   -2.0786069   -1.4051802  0.034052832   -2.0786069   0.67342662   421013 
 3860000    0.6069409   -2.0790628   -2.0790628   -1.4055176  0.039035373   -2.0790628   0.67354521   421013 
 3861000   0.60694903   -2.0792618   -2.0792618   -1.4057076  0.042724614   -2.0792618   0.67355422   421013 
 3862000   0.60598134   -2.0782284   -2.0782284    -1.405748  0.039816157   -2.0782284   0.67248034   421013 
 3863000   0.60703556   -2.0784685   -2.0784685   -1.4048182  0.038630427   -2.0784685   0.67365025   421013 
 3864000   0.60704229    -2.079431    -2.079431   -1.4057732  0.037941843    -2.079431   0.67365771   421013 
 3865000    0.6069092   -2.0787047   -2.0787047   -1.4051946  0.034363561   -2.0787047   0.67351002   421013 
 3866000   0.60657715   -2.0781297   -2.0781297   -1.4049881  0.040559891   -2.0781297   0.67314153   421013 
 3867000   0.60549485   -2.0770746   -2.0770746   -1.4051341  0.036164157   -2.0770746   0.67194046   421013 
 3868000   0.60625863   -2.0783053   -2.0783053   -1.4055172  0.038065524   -2.0783053   0.67278806   421013 
 3869000     0.605468   -2.0773615   -2.0773615   -1.4054508  0.031955236   -2.0773615   0.67191067   421013 
 3870000   0.60626577   -2.0775207   -2.0775207   -1.4047247  0.033329921   -2.0775207   0.67279599   421013 
 3871000   0.60615069   -2.0778162   -2.0778162   -1.4051479  0.031169254   -2.0778162   0.67266828   421013 
 3872000   0.60572251   -2.0780665   -2.0780665   -1.4058734  0.034623722   -2.0780665   0.67219311   421013 
 3873000   0.60559566   -2.0771438   -2.0771438   -1.4050914  0.033537343   -2.0771438   0.67205234   421013 
 3874000   0.60658627   -2.0771722   -2.0771722   -1.4040205  0.033071893   -2.0771722   0.67315166   421013 
 3875000   0.60648548   -2.0767463   -2.0767463   -1.4037065  0.033116025   -2.0767463   0.67303981   421013 
 3876000   0.60666741   -2.0771113   -2.0771113   -1.4038696  0.039792287   -2.0771113   0.67324169   421013 
 3877000   0.60631685    -2.077363    -2.077363   -1.4045103  0.026184195    -2.077363   0.67285267   421013 
 3878000   0.60486238   -2.0759734   -2.0759734   -1.4047348  0.038145726   -2.0759734   0.67123859   421013 
 3879000   0.60630097   -2.0773275   -2.0773275   -1.4044925  0.036789131   -2.0773275   0.67283505   421013 
 3880000   0.60583408    -2.077303    -2.077303   -1.4049861  0.033813261    -2.077303   0.67231692   421013 
 3881000   0.60649524   -2.0777738   -2.0777738   -1.4047231  0.033548529   -2.0777738   0.67305064   421013 
 3882000   0.60596632    -2.077699    -2.077699   -1.4052354  0.038748974    -2.077699   0.67246367   421013 
 3883000   0.60633546     -2.07799     -2.07799   -1.4051167  0.031478435     -2.07799   0.67287332   421013 
 3884000   0.60747138   -2.0782104   -2.0782104   -1.4040765  0.036693609   -2.0782104    0.6741339   421013 
 3885000   0.60771339   -2.0788767   -2.0788767   -1.4044742  0.039824372   -2.0788767   0.67440246   421013 
 3886000   0.60824707   -2.0800062   -2.0800062   -1.4050115  0.033262455   -2.0800062   0.67499471   421013 
 3887000   0.60700151   -2.0788119   -2.0788119   -1.4051994  0.035924695   -2.0788119   0.67361246   421013 
 3888000   0.60754183   -2.0797873   -2.0797873   -1.4055752  0.027861636   -2.0797873   0.67421207   421013 
 3889000   0.60695056   -2.0799609   -2.0799609    -1.406405  0.033935023   -2.0799609   0.67355592   421013 
 3890000   0.60655343   -2.0798634   -2.0798634   -1.4067482  0.035518632   -2.0798634   0.67311521   421013 
 3891000   0.60689997   -2.0797553   -2.0797553   -1.4062556  0.030895805   -2.0797553   0.67349978   421013 
 3892000   0.60762621   -2.0806993   -2.0806993   -1.4063936   0.02854772   -2.0806993   0.67430571   421013 
 3893000   0.60842673   -2.0813614   -2.0813614   -1.4061674  0.036406341   -2.0813614   0.67519409   421013 
 3894000   0.60677117   -2.0793478   -2.0793478   -1.4059909  0.041042039   -2.0793478   0.67335684   421013 
 3895000   0.60753016   -2.0805151   -2.0805151    -1.406316  0.031839093   -2.0805151   0.67419913   421013 
 3896000   0.60683207   -2.0794731   -2.0794731   -1.4060486  0.046519975   -2.0794731   0.67342443   421013 
 3897000   0.60705929   -2.0798428   -2.0798428   -1.4061662  0.038183223   -2.0798428   0.67367659   421013 
 3898000   0.60738089   -2.0796615   -2.0796615    -1.405628  0.032568289   -2.0796615   0.67403347   421013 
 3899000   0.60759287   -2.0792221   -2.0792221   -1.4049534  0.036401584   -2.0792221   0.67426872   421013 
 3900000   0.60744152   -2.0795376   -2.0795376   -1.4054368  0.032802988   -2.0795376   0.67410076   421013 
 3901000   0.60720128   -2.0800852   -2.0800852    -1.406251  0.041129363   -2.0800852   0.67383416   421013 
 3902000   0.60656972   -2.0790308   -2.0790308   -1.4058975  0.041915128   -2.0790308   0.67313329   421013 
 3903000   0.60777455   -2.0800305   -2.0800305   -1.4055602  0.030084227   -2.0800305   0.67447033   421013 
 3904000   0.60482339    -2.077693    -2.077693   -1.4064977   0.03852769    -2.077693   0.67119532   421013 
 3905000   0.60633111   -2.0789103   -2.0789103   -1.4060418  0.035203846   -2.0789103    0.6728685   421013 
 3906000   0.60730606   -2.0798741   -2.0798741   -1.4059237  0.032849649   -2.0798741   0.67395043   421013 
 3907000   0.60720653   -2.0786791   -2.0786791   -1.4048391  0.033792415   -2.0786791   0.67383998   421013 
 3908000   0.60598084   -2.0775475   -2.0775475   -1.4050677  0.041291615   -2.0775475   0.67247979   421013 
 3909000   0.60673143   -2.0791089   -2.0791089   -1.4057961  0.038879458   -2.0791089   0.67331274   421013 
 3910000   0.60588177   -2.0787073   -2.0787073   -1.4063374   0.03587252   -2.0787073   0.67236984   421013 
 3911000   0.60541723   -2.0786846   -2.0786846   -1.4068303  0.036710397   -2.0786846   0.67185432   421013 
 3912000   0.60696317   -2.0791131   -2.0791131   -1.4055432  0.033825558   -2.0791131   0.67356992   421013 
 3913000   0.60711234   -2.0787446   -2.0787446   -1.4050092  0.044253667   -2.0787446   0.67373545   421013 
 3914000    0.6064872   -2.0785305   -2.0785305   -1.4054888   0.03154673   -2.0785305   0.67304171   421013 
 3915000   0.60685706   -2.0797883   -2.0797883   -1.4063362  0.045385445   -2.0797883   0.67345216   421013 
 3916000   0.60529003   -2.0782226   -2.0782226   -1.4065094  0.036855946   -2.0782226   0.67171317   421013 
 3917000   0.60720816   -2.0802543   -2.0802543   -1.4064125  0.027996078   -2.0802543   0.67384179   421013 
 3918000   0.60755881   -2.0808882   -2.0808882   -1.4066573   0.03476006   -2.0808882   0.67423092   421013 
 3919000   0.60699271    -2.081162    -2.081162   -1.4075593  0.040254557    -2.081162   0.67360269   421013 
 3920000   0.60556671   -2.0794756   -2.0794756   -1.4074554  0.033141545   -2.0794756   0.67202021   421013 
 3921000   0.60616084   -2.0798371   -2.0798371   -1.4071575  0.037109984   -2.0798371   0.67267954   421013 
 3922000    0.6055718   -2.0797585   -2.0797585   -1.4077327  0.042536291   -2.0797585   0.67202586   421013 
 3923000   0.60700467   -2.0816119   -2.0816119   -1.4079959  0.034433804   -2.0816119   0.67361597   421013 
 3924000   0.60751512    -2.081107    -2.081107   -1.4069246  0.036773108    -2.081107   0.67418243   421013 
 3925000   0.60852056   -2.0817359   -2.0817359   -1.4064377  0.038709762   -2.0817359   0.67529821   421013 
 3926000   0.60605469   -2.0796889   -2.0796889   -1.4071271  0.040785547   -2.0796889   0.67256174   421013 
 3927000   0.60672621   -2.0807854   -2.0807854   -1.4074785  0.038174805   -2.0807854   0.67330695   421013 
 3928000    0.6069603   -2.0818444   -2.0818444   -1.4082777  0.035927136   -2.0818444   0.67356673   421013 
 3929000   0.60553463   -2.0802505   -2.0802505   -1.4082659  0.033044187   -2.0802505    0.6719846   421013 
 3930000   0.60698439   -2.0818591   -2.0818591   -1.4082656  0.031810929   -2.0818591   0.67359346   421013 
 3931000   0.60716242   -2.0823736   -2.0823736   -1.4085825  0.036720533   -2.0823736   0.67379103   421013 
 3932000   0.60603435    -2.080892    -2.080892   -1.4083529  0.041653454    -2.080892   0.67253917   421013 
 3933000   0.60650132   -2.0810878   -2.0810878   -1.4080304  0.035113181   -2.0810878   0.67305738   421013 
 3934000   0.60676036   -2.0805804   -2.0805804   -1.4072356   0.03425985   -2.0805804   0.67334485   421013 
 3935000   0.60554213    -2.079706    -2.079706   -1.4077131  0.036107354    -2.079706   0.67199293   421013 
 3936000   0.60641253   -2.0800937   -2.0800937   -1.4071349  0.032185149   -2.0800937   0.67295885   421013 
 3937000   0.60589394   -2.0803654   -2.0803654    -1.407982  0.036711908   -2.0803654   0.67238335   421013 
 3938000   0.60475722   -2.0794475   -2.0794475   -1.4083256  0.038729468   -2.0794475   0.67112189   421013 
 3939000   0.60713683   -2.0815247   -2.0815247    -1.407762  0.033274385   -2.0815247   0.67376263   421013 
 3940000   0.60714675   -2.0817486   -2.0817486    -1.407975  0.035218865   -2.0817486   0.67377364   421013 
 3941000    0.6066561   -2.0822667   -2.0822667   -1.4090376  0.033485188   -2.0822667   0.67322915   421013 
 3942000   0.60565855    -2.081391    -2.081391   -1.4092689  0.028808456    -2.081391   0.67212213   421013 
 3943000   0.60621582   -2.0810195   -2.0810195   -1.4082789  0.036575748   -2.0810195   0.67274056   421013 
 3944000   0.60608953   -2.0810831   -2.0810831   -1.4084827  0.034896568   -2.0810831    0.6726004   421013 
 3945000   0.60702128   -2.0819605   -2.0819605   -1.4083261  0.029822452   -2.0819605    0.6736344   421013 
 3946000   0.60595006   -2.0814512   -2.0814512   -1.4090056  0.032590367   -2.0814512   0.67244563   421013 
 3947000   0.60615603    -2.080594    -2.080594   -1.4079198  0.045156083    -2.080594    0.6726742   421013 
 3948000   0.60656375   -2.0816005   -2.0816005   -1.4084738   0.03842101   -2.0816005   0.67312666   421013 
 3949000   0.60528557   -2.0807269   -2.0807269   -1.4090187  0.041500902   -2.0807269   0.67170821   421013 
 3950000   0.60749141   -2.0830329   -2.0830329   -1.4088768   0.03584646   -2.0830329   0.67415613   421013 
 3951000   0.60663786   -2.0814814   -2.0814814   -1.4082725  0.026236368   -2.0814814    0.6732089   421013 
 3952000   0.60774734    -2.083105    -2.083105   -1.4086649  0.043248619    -2.083105   0.67444014   421013 
 3953000   0.60757583   -2.0827255   -2.0827255   -1.4084757  0.037531524   -2.0827255   0.67424981   421013 
 3954000   0.60731144   -2.0820265   -2.0820265   -1.4080701  0.043472743   -2.0820265   0.67395641   421013 
 3955000   0.60779795   -2.0829772   -2.0829772   -1.4084809  0.042718599   -2.0829772    0.6744963   421013 
 3956000   0.60752278   -2.0829186   -2.0829186   -1.4087277  0.038752253   -2.0829186   0.67419093   421013 
 3957000   0.60549519   -2.0806458   -2.0806458   -1.4087049   0.03994153   -2.0806458   0.67194084   421013 
 3958000   0.60569235   -2.0810762   -2.0810762   -1.4089166    0.0415317   -2.0810762   0.67215964   421013 
 3959000   0.60637809   -2.0814322   -2.0814322   -1.4085115  0.031582055   -2.0814322   0.67292063   421013 
 3960000   0.60684855   -2.0818619   -2.0818619   -1.4084192   0.04159953   -2.0818619   0.67344272   421013 
 3961000   0.60759373   -2.0823809   -2.0823809   -1.4081112  0.045581027   -2.0823809   0.67426967   421013 
 3962000   0.60595567   -2.0809391   -2.0809391   -1.4084872  0.031719426   -2.0809391   0.67245185   421013 
 3963000   0.60646529   -2.0817794   -2.0817794    -1.408762  0.041624474   -2.0817794    0.6730174   421013 
 3964000   0.60547024   -2.0806671   -2.0806671    -1.408754  0.040867683   -2.0806671   0.67191316   421013 
 3965000   0.60684772   -2.0817851   -2.0817851   -1.4083433  0.038894317   -2.0817851   0.67344179   421013 
 3966000   0.60666373   -2.0819671   -2.0819671   -1.4087295  0.032628295   -2.0819671   0.67323761   421013 
 3967000   0.60651868   -2.0809632   -2.0809632   -1.4078865  0.033532356   -2.0809632   0.67307665   421013 
 3968000   0.60668547    -2.081275    -2.081275   -1.4080133  0.034958732    -2.081275   0.67326174   421013 
 3969000   0.60560974   -2.0803189   -2.0803189   -1.4082509  0.036793946   -2.0803189   0.67206797   421013 
 3970000   0.60661568   -2.0809864   -2.0809864   -1.4078021  0.035779723   -2.0809864   0.67318429   421013 
 3971000    0.6065045   -2.0810104   -2.0810104   -1.4079495  0.040607545   -2.0810104   0.67306091   421013 
 3972000    0.6079942   -2.0825532   -2.0825532   -1.4078391  0.029093744   -2.0825532   0.67471409   421013 
 3973000   0.60812847   -2.0831134   -2.0831134   -1.4082503  0.035086316   -2.0831134   0.67486309   421013 
 3974000   0.60755983   -2.0820801   -2.0820801    -1.407848  0.038796396   -2.0820801   0.67423205   421013 
 3975000   0.60737674   -2.0815235   -2.0815235   -1.4074947  0.040954297   -2.0815235   0.67402887   421013 
 3976000   0.60785228   -2.0821782   -2.0821782   -1.4076216  0.034377935   -2.0821782    0.6745566   421013 
 3977000   0.60794793   -2.0825203   -2.0825203   -1.4078576  0.040188703   -2.0825203   0.67466274   421013 
 3978000   0.60828669    -2.082898    -2.082898   -1.4078593  0.030016863    -2.082898   0.67503867   421013 
 3979000   0.60632942    -2.081759    -2.081759   -1.4088924  0.032816768    -2.081759   0.67286661   421013 
 3980000   0.60698096   -2.0831708   -2.0831708   -1.4095811  0.036853986   -2.0831708   0.67358966   421013 
 3981000    0.6061598   -2.0815343   -2.0815343   -1.4088559  0.038576568   -2.0815343   0.67267838   421013 
 3982000   0.60656666   -2.0822322   -2.0822322   -1.4091024  0.042053066   -2.0822322    0.6731299   421013 
 3983000   0.60576661   -2.0818427   -2.0818427   -1.4096006  0.036802858   -2.0818427   0.67224205   421013 
 3984000   0.60654803   -2.0825734   -2.0825734   -1.4094642  0.035063776   -2.0825734   0.67310922   421013 
 3985000   0.60656214   -2.0822962   -2.0822962   -1.4091713  0.038288607   -2.0822962   0.67312488   421013 
 3986000   0.60637156   -2.0819267   -2.0819267   -1.4090133   0.03023914   -2.0819267   0.67291338   421013 
 3987000   0.60752233    -2.082919    -2.082919   -1.4087286  0.038963178    -2.082919   0.67419044   421013 
 3988000   0.60769711    -2.083457    -2.083457   -1.4090726  0.036185689    -2.083457    0.6743844   421013 
 3989000    0.6078391   -2.0834003   -2.0834003   -1.4088584  0.041756796   -2.0834003   0.67454196   421013 
 3990000   0.60635356   -2.0813621   -2.0813621   -1.4084687  0.041257321   -2.0813621   0.67289341   421013 
 3991000   0.60671164   -2.0819223   -2.0819223   -1.4086315  0.040316383   -2.0819223   0.67329078   421013 
 3992000   0.60710569   -2.0820859   -2.0820859   -1.4083579  0.039211317   -2.0820859   0.67372807   421013 
 3993000   0.60610344   -2.0807194   -2.0807194   -1.4081035  0.044003464   -2.0807194   0.67261584   421013 
 3994000   0.60625915   -2.0821395   -2.0821395   -1.4093509  0.035076786   -2.0821395   0.67278864   421013 
 3995000   0.60728242   -2.0823833   -2.0823833   -1.4084591  0.038309039   -2.0823833   0.67392419   421013 
 3996000   0.60674374   -2.0827744   -2.0827744    -1.409448  0.030259707   -2.0827744    0.6733264   421013 
 3997000   0.60633311    -2.082402    -2.082402   -1.4095313  0.038522507    -2.082402   0.67287072   421013 
 3998000   0.60664622   -2.0828466   -2.0828466   -1.4096284  0.030247107   -2.0828466   0.67321818   421013 
 3999000   0.60646474   -2.0828841   -2.0828841   -1.4098674  0.037628623   -2.0828841   0.67301679   421013 
 4000000   0.60690907   -2.0827314   -2.0827314   -1.4092215  0.034097913   -2.0827314   0.67350988   421013 
 4001000   0.60761226   -2.0836341   -2.0836341   -1.4093439  0.034636484   -2.0836341   0.67429023   421013 
 4002000   0.60721057   -2.0824973   -2.0824973   -1.4086529  0.028506234   -2.0824973   0.67384446   421013 
 4003000   0.60748018   -2.0831545   -2.0831545   -1.4090108  0.039234653   -2.0831545   0.67414366   421013 
 4004000   0.60647414   -2.0812396   -2.0812396   -1.4082124  0.034723747   -2.0812396   0.67302721   421013 
 4005000    0.6069643   -2.0827502   -2.0827502    -1.409179  0.033953694   -2.0827502   0.67357117   421013 
 4006000   0.60653371   -2.0823178   -2.0823178   -1.4092244  0.037408899   -2.0823178   0.67309333   421013 
 4007000   0.60581475   -2.0822501   -2.0822501   -1.4099546  0.038200174   -2.0822501   0.67229547   421013 
 4008000   0.60498544   -2.0822355   -2.0822355   -1.4108604  0.038755718   -2.0822355   0.67137515   421013 
 4009000     0.606553   -2.0834359   -2.0834359   -1.4103211  0.039671414   -2.0834359   0.67311474   421013 
 4010000   0.60728209    -2.084308    -2.084308   -1.4103842  0.034793065    -2.084308   0.67392383   421013 
 4011000   0.60626027   -2.0831549   -2.0831549    -1.410365  0.034402446   -2.0831549   0.67278988   421013 
 4012000   0.60615509   -2.0829492   -2.0829492    -1.410276  0.040987273   -2.0829492   0.67267316   421013 
 4013000   0.60648569   -2.0833818   -2.0833818   -1.4103418  0.027306005   -2.0833818   0.67304004   421013 
 4014000   0.60728798   -2.0842047   -2.0842047   -1.4102743  0.031255942   -2.0842047   0.67393036   421013 
 4015000   0.60627704   -2.0832571   -2.0832571   -1.4104486  0.031548066   -2.0832571   0.67280849   421013 
 4016000   0.60650191    -2.083095    -2.083095    -1.410037  0.040767576    -2.083095   0.67305803   421013 
 4017000   0.60742256   -2.0839767   -2.0839767    -1.409897  0.030910142   -2.0839767   0.67407971   421013 
 4018000    0.6071609   -2.0838416   -2.0838416   -1.4100523  0.034253029   -2.0838416   0.67378934   421013 
 4019000   0.60717985   -2.0846765   -2.0846765   -1.4108662  0.037640781   -2.0846765   0.67381037   421013 
 4020000   0.60735365   -2.0841654   -2.0841654   -1.4101621  0.046786913   -2.0841654   0.67400325   421013 
 4021000   0.60815767   -2.0850314   -2.0850314   -1.4101359  0.045186698   -2.0850314   0.67489549   421013 
 4022000   0.60804399   -2.0852472   -2.0852472   -1.4104779  0.042412388   -2.0852472   0.67476934   421013 
 4023000   0.60623986   -2.0835842   -2.0835842   -1.4108169  0.042696853   -2.0835842   0.67276723   421013 
 4024000   0.60762348   -2.0845738   -2.0845738   -1.4102711  0.036520937   -2.0845738   0.67430268   421013 
 4025000   0.60684523   -2.0834552   -2.0834552   -1.4100161  0.042170407   -2.0834552   0.67343904   421013 
 4026000   0.60780444   -2.0841008   -2.0841008   -1.4095973  0.042844107   -2.0841008    0.6745035   421013 
 4027000   0.60832735   -2.0841402   -2.0841402   -1.4090564  0.044023644   -2.0841402    0.6750838   421013 
 4028000   0.60707254   -2.0824064   -2.0824064   -1.4087151  0.036388817   -2.0824064   0.67369129   421013 
 4029000   0.60602946   -2.0812973   -2.0812973   -1.4087636  0.032264848   -2.0812973   0.67253374   421013 
 4030000    0.6072292   -2.0826364   -2.0826364   -1.4087713  0.034506719   -2.0826364   0.67386514   421013 
 4031000   0.60725212   -2.0819757   -2.0819757   -1.4080851   0.03951301   -2.0819757   0.67389058   421013 
 4032000   0.60646768   -2.0815102   -2.0815102   -1.4084901  0.033339918   -2.0815102   0.67302006   421013 
 4033000   0.60654328   -2.0813183   -2.0813183   -1.4082144  0.040126619   -2.0813183   0.67310394   421013 
 4034000    0.6065209    -2.081067    -2.081067   -1.4079878  0.030766439    -2.081067   0.67307912   421013 
 4035000    0.6062169   -2.0810722   -2.0810722   -1.4083305  0.029570856   -2.0810722   0.67274175   421013 
 4036000   0.60650736   -2.0808984   -2.0808984   -1.4078343  0.034045551   -2.0808984   0.67306408   421013 
 4037000   0.60607798   -2.0805579   -2.0805579   -1.4079703   0.02731696   -2.0805579   0.67258758   421013 
 4038000   0.60741527   -2.0820708   -2.0820708   -1.4079992  0.034707071   -2.0820708   0.67407162   421013 
 4039000   0.60636927   -2.0814325   -2.0814325   -1.4085217  0.028903778   -2.0814325   0.67291084   421013 
 4040000   0.60683581   -2.0811398   -2.0811398   -1.4077112  0.034856257   -2.0811398   0.67342858   421013 
 4041000   0.60616317   -2.0803163   -2.0803163   -1.4076342  0.042455918   -2.0803163   0.67268213   421013 
 4042000   0.60825862   -2.0830283   -2.0830283   -1.4080208  0.030634399   -2.0830283   0.67500753   421013 
 4043000   0.60645544   -2.0815901   -2.0815901   -1.4085836  0.030624753   -2.0815901   0.67300647   421013 
 4044000   0.60616086   -2.0816534   -2.0816534   -1.4089739  0.036824874   -2.0816534   0.67267957   421013 
 4045000   0.60621752   -2.0818334   -2.0818334    -1.409091  0.033140144   -2.0818334   0.67274244   421013 
 4046000   0.60665952   -2.0822128   -2.0822128   -1.4089799  0.034550605   -2.0822128   0.67323295   421013 
 4047000    0.6067441   -2.0821076   -2.0821076   -1.4087808  0.036281237   -2.0821076    0.6733268   421013 
 4048000   0.60766907   -2.0827325   -2.0827325   -1.4083792  0.040302954   -2.0827325   0.67435328   421013 
 4049000   0.60609476    -2.082475    -2.082475   -1.4098688  0.033644219    -2.082475   0.67260621   421013 
 4050000   0.60834424   -2.0839423   -2.0839423   -1.4088398   0.04201985   -2.0839423   0.67510254   421013 
 4051000   0.60678726   -2.0825213   -2.0825213   -1.4091466  0.042303063   -2.0825213   0.67337471   421013 
 4052000   0.60833589   -2.0845211   -2.0845211   -1.4094278  0.039859307   -2.0845211   0.67509328   421013 
 4053000   0.60573458   -2.0820463   -2.0820463   -1.4098398  0.037753456   -2.0820463   0.67220651   421013 
 4054000   0.60623767   -2.0831477   -2.0831477   -1.4103829   0.04085956   -2.0831477    0.6727648   421013 
 4055000   0.60638145   -2.0836145   -2.0836145   -1.4106902  0.031366741   -2.0836145   0.67292436   421013 
 4056000    0.6070702    -2.084109    -2.084109   -1.4104203  0.033075596    -2.084109   0.67368869   421013 
 4057000    0.6074341   -2.0843646   -2.0843646   -1.4102721  0.037714834   -2.0843646   0.67409252   421013 
 4058000   0.60740901   -2.0842784   -2.0842784   -1.4102137  0.033282227   -2.0842784   0.67406468   421013 
 4059000   0.60749832   -2.0839047   -2.0839047   -1.4097409  0.040272596   -2.0839047   0.67416379   421013 
 4060000   0.60751688   -2.0836476   -2.0836476   -1.4094632  0.033128372   -2.0836476   0.67418439   421013 
 4061000   0.60710455    -2.084122    -2.084122   -1.4103952  0.040177556    -2.084122   0.67372681   421013 
 4062000   0.60659733   -2.0834584   -2.0834584   -1.4102945  0.035189454   -2.0834584   0.67316393   421013 
 4063000   0.60698204   -2.0835112   -2.0835112   -1.4099203  0.030357296   -2.0835112   0.67359085   421013 
 4064000   0.60666322   -2.0837951   -2.0837951   -1.4105581  0.038669825   -2.0837951   0.67323705   421013 
 4065000   0.60637433   -2.0842529   -2.0842529   -1.4113365  0.034561835   -2.0842529   0.67291646   421013 
 4066000   0.60668253   -2.0846937   -2.0846937   -1.4114352  0.026111358   -2.0846937   0.67325847   421013 
 4067000    0.6071212   -2.0851059   -2.0851059   -1.4113606  0.027944181   -2.0851059   0.67374529   421013 
 4068000   0.60706797   -2.0850489   -2.0850489   -1.4113627  0.031136613   -2.0850489   0.67368622   421013 
 4069000   0.60606759   -2.0832848   -2.0832848   -1.4107087  0.038691216   -2.0832848   0.67257606   421013 
 4070000   0.60641413   -2.0833131   -2.0833131   -1.4103525  0.032877108   -2.0833131   0.67296063   421013 
 4071000   0.60808468   -2.0849103   -2.0849103   -1.4100958  0.036129277   -2.0849103   0.67481449   421013 
 4072000   0.60645639   -2.0834445   -2.0834445   -1.4104369  0.045998146   -2.0834445   0.67300752   421013 
 4073000   0.60746665   -2.0845058   -2.0845058   -1.4103772  0.039338872   -2.0845058   0.67412865   421013 
 4074000   0.60801028   -2.0847845   -2.0847845   -1.4100525  0.033502659   -2.0847845   0.67473193   421013 
 4075000   0.60772953   -2.0842692   -2.0842692   -1.4098488  0.042063867   -2.0842692   0.67442037   421013 
 4076000   0.60787268   -2.0842978   -2.0842978   -1.4097186  0.034009326   -2.0842978   0.67457924   421013 
 4077000   0.60650196   -2.0833233   -2.0833233   -1.4102653  0.042794997   -2.0833233   0.67305809   421013 
 4078000   0.60729956   -2.0839001   -2.0839001   -1.4099569  0.038460833   -2.0839001   0.67394322   421013 
 4079000   0.60687796   -2.0830612   -2.0830612   -1.4095858  0.027383614   -2.0830612   0.67347535   421013 
 4080000   0.60745768   -2.0846903   -2.0846903   -1.4105716   0.03659201   -2.0846903   0.67411869   421013 
 4081000   0.60585321   -2.0835673   -2.0835673   -1.4112291  0.036173604   -2.0835673   0.67233814   421013 
 4082000    0.6070439   -2.0850831   -2.0850831   -1.4114236  0.036094827   -2.0850831    0.6736595   421013 
 4083000   0.60602038   -2.0843184   -2.0843184   -1.4117948  0.028166578   -2.0843184   0.67252366   421013 
 4084000   0.60621797   -2.0844569   -2.0844569   -1.4117139    0.0325026   -2.0844569   0.67274294   421013 
 4085000   0.60721827   -2.0852589   -2.0852589   -1.4114059  0.044651352   -2.0852589   0.67385301   421013 
 4086000    0.6065756   -2.0850666   -2.0850666   -1.4119268  0.032653362   -2.0850666   0.67313981   421013 
 4087000   0.60662742   -2.0847992   -2.0847992   -1.4116019   0.03618919   -2.0847992   0.67319732   421013 
 4088000   0.60578176   -2.0836353   -2.0836353   -1.4113764  0.032355318   -2.0836353   0.67225886   421013 
 4089000   0.60580704   -2.0841408   -2.0841408   -1.4118538  0.035841998   -2.0841408   0.67228692   421013 
 4090000   0.60636851   -2.0844678   -2.0844678   -1.4115578  0.038257545   -2.0844678      0.67291   421013 
 4091000   0.60730277    -2.085086    -2.085086   -1.4111392  0.025418066    -2.085086   0.67394679   421013 
 4092000   0.60741908   -2.0851895   -2.0851895   -1.4111137  0.035829972   -2.0851895   0.67407586   421013 
 4093000   0.60772348   -2.0855345   -2.0855345   -1.4111208  0.040972531   -2.0855345   0.67441366   421013 
 4094000   0.60739308    -2.085158    -2.085158    -1.411111  0.034295017    -2.085158     0.674047   421013 
 4095000   0.60712969   -2.0850167   -2.0850167    -1.411262  0.043583324   -2.0850167    0.6737547   421013 
 4096000   0.60642909   -2.0845148   -2.0845148   -1.4115375  0.035247286   -2.0845148   0.67297722   421013 
 4097000   0.60609362   -2.0841938   -2.0841938   -1.4115889   0.03434556   -2.0841938   0.67260494   421013 
 4098000   0.60712129   -2.0849423   -2.0849423   -1.4111969  0.036995623   -2.0849423   0.67374539   421013 
 4099000   0.60554834   -2.0840766   -2.0840766   -1.4120767  0.041230262   -2.0840766   0.67199983   421013 
 4100000   0.60735637   -2.0857316   -2.0857316   -1.4117253  0.039919026   -2.0857316   0.67400626   421013 
 4101000   0.60798014   -2.0863178   -2.0863178   -1.4116193  0.032916529   -2.0863178   0.67469849   421013 
 4102000   0.60823997   -2.0859665   -2.0859665   -1.4109797   0.04137423   -2.0859665   0.67498683   421013 
 4103000    0.6057138   -2.0840736   -2.0840736   -1.4118902  0.033304065   -2.0840736   0.67218344   421013 
 4104000   0.60665947   -2.0846694   -2.0846694   -1.4114365  0.034746535   -2.0846694   0.67323289   421013 
 4105000   0.60745174   -2.0852193   -2.0852193   -1.4111072  0.041531131   -2.0852193   0.67411209   421013 
 4106000   0.60648163   -2.0841582   -2.0841582   -1.4111227   0.02903584   -2.0841582   0.67303554   421013 
 4107000   0.60623802   -2.0830572   -2.0830572    -1.410292  0.048730867   -2.0830572   0.67276519   421013 
 4108000   0.60660974   -2.0841624   -2.0841624   -1.4109847  0.040178801   -2.0841624    0.6731777   421013 
 4109000   0.60636661   -2.0841622   -2.0841622   -1.4112543  0.040707572   -2.0841622   0.67290789   421013 
 4110000   0.60585133   -2.0832794   -2.0832794   -1.4109433  0.034563548   -2.0832794   0.67233607   421013 
 4111000   0.60580379   -2.0830075   -2.0830075   -1.4107242  0.040401932   -2.0830075    0.6722833   421013 
 4112000   0.60678641    -2.084172    -2.084172   -1.4107982  0.036671421    -2.084172   0.67337376   421013 
 4113000   0.60539746   -2.0822009   -2.0822009   -1.4103685  0.036162075   -2.0822009   0.67183238   421013 
 4114000    0.6062531   -2.0822547   -2.0822547   -1.4094728  0.040992764   -2.0822547   0.67278192   421013 
 4115000   0.60605071   -2.0832088   -2.0832088   -1.4106515  0.031763486   -2.0832088   0.67255732   421013 
 4116000   0.60497491   -2.0814858   -2.0814858   -1.4101224  0.036099693   -2.0814858   0.67136347   421013 
 4117000   0.60679006   -2.0836353   -2.0836353   -1.4102575  0.035382804   -2.0836353   0.67337781   421013 
 4118000   0.60620896   -2.0834231   -2.0834231   -1.4106902  0.034889701   -2.0834231   0.67273293   421013 
 4119000   0.60620298   -2.0839773   -2.0839773    -1.411251  0.036352923   -2.0839773   0.67272631   421013 
 4120000   0.60439431     -2.08216     -2.08216   -1.4114409  0.040833021     -2.08216   0.67071915   421013 
 4121000    0.6062973   -2.0844671   -2.0844671   -1.4116361  0.031310598   -2.0844671   0.67283098   421013 
 4122000   0.60552768   -2.0832449   -2.0832449    -1.411268  0.035744074   -2.0832449    0.6719769   421013 
 4123000   0.60602367   -2.0840693   -2.0840693    -1.411542  0.035032966   -2.0840693   0.67252732   421013 
 4124000   0.60539536    -2.084213    -2.084213    -1.412383  0.033541285    -2.084213   0.67183006   421013 
 4125000   0.60671271   -2.0859749   -2.0859749    -1.412683   0.04416957   -2.0859749   0.67329197   421013 
 4126000   0.60708055   -2.0861671   -2.0861671   -1.4124669  0.034054676   -2.0861671   0.67370017   421013 
 4127000   0.60646739   -2.0861533   -2.0861533   -1.4131336   0.04155815   -2.0861533   0.67301973   421013 
 4128000   0.60502718   -2.0843498   -2.0843498   -1.4129283  0.035165023   -2.0843498   0.67142148   421013 
 4129000   0.60679238   -2.0854702   -2.0854702   -1.4120898  0.039481592   -2.0854702   0.67338038   421013 
 4130000   0.60627233   -2.0848722   -2.0848722   -1.4120689    0.0385443   -2.0848722   0.67280326   421013 
 4131000   0.60831988   -2.0874771   -2.0874771   -1.4124016  0.038788579   -2.0874771    0.6750755   421013 
 4132000   0.60758893   -2.0868727   -2.0868727   -1.4126083  0.035259714   -2.0868727   0.67426434   421013 
 4133000   0.60666611   -2.0858337   -2.0858337   -1.4125934  0.043206777   -2.0858337   0.67324026   421013 
 4134000   0.60803819    -2.086993    -2.086993   -1.4122301  0.035359664    -2.086993   0.67476291   421013 
 4135000    0.6060713   -2.0847784   -2.0847784   -1.4121982  0.042924268   -2.0847784   0.67258017   421013 
 4136000   0.60731094   -2.0855272   -2.0855272   -1.4115714  0.029877298   -2.0855272   0.67395584   421013 
 4137000   0.60708851   -2.0854505   -2.0854505   -1.4117415  0.033950123   -2.0854505   0.67370901   421013 
 4138000   0.60676581   -2.0850673   -2.0850673   -1.4117164  0.033343071   -2.0850673   0.67335089   421013 
 4139000   0.60635936    -2.085471    -2.085471   -1.4125712  0.037010673    -2.085471   0.67289985   421013 
 4140000   0.60679236   -2.0854746   -2.0854746   -1.4120943  0.034304253   -2.0854746   0.67338036   421013 
 4141000   0.60627183   -2.0846899   -2.0846899   -1.4118872  0.036527407   -2.0846899   0.67280271   421013 
 4142000   0.60664539   -2.0849084   -2.0849084   -1.4116911  0.034516845   -2.0849084   0.67321726   421013 
 4143000   0.60602534   -2.0846818   -2.0846818   -1.4121526  0.034689992   -2.0846818   0.67252917   421013 
 4144000   0.60659959   -2.0856169   -2.0856169   -1.4124505  0.033219404   -2.0856169   0.67316644   421013 
 4145000   0.60665446   -2.0851572   -2.0851572   -1.4119298  0.029752545   -2.0851572   0.67322732   421013 
 4146000   0.60666822   -2.0845315   -2.0845315   -1.4112889  0.034449606   -2.0845315    0.6732426   421013 
 4147000   0.60661574    -2.084867    -2.084867   -1.4116827  0.034826106    -2.084867   0.67318436   421013 
 4148000    0.6083704   -2.0855751   -2.0855751   -1.4104435  0.039797818   -2.0855751   0.67513157   421013 
 4149000   0.60813682   -2.0853759   -2.0853759   -1.4105036  0.029792907   -2.0853759   0.67487236   421013 
 4150000   0.60754172    -2.085829    -2.085829   -1.4116171  0.040700125    -2.085829   0.67421196   421013 
 4151000   0.60721212   -2.0848555   -2.0848555   -1.4110093  0.032072587   -2.0848555   0.67384619   421013 
 4152000   0.60601441   -2.0838351   -2.0838351    -1.411318  0.036810204   -2.0838351   0.67251704   421013 
 4153000   0.60630299   -2.0843328   -2.0843328   -1.4114956  0.037934577   -2.0843328   0.67283729   421013 
 4154000   0.60686816   -2.0847552   -2.0847552   -1.4112907  0.035209737   -2.0847552   0.67346447   421013 
 4155000    0.6059916   -2.0846531   -2.0846531   -1.4121614  0.042046494   -2.0846531   0.67249172   421013 
 4156000   0.60570824   -2.0845139   -2.0845139   -1.4123367  0.035052695   -2.0845139   0.67217727   421013 
 4157000   0.60506934   -2.0842866   -2.0842866   -1.4128184  0.033266579   -2.0842866   0.67146826   421013 
 4158000   0.60469885   -2.0833019   -2.0833019   -1.4122448  0.034974094   -2.0833019   0.67105711   421013 
 4159000   0.60483135   -2.0839958   -2.0839958   -1.4127916  0.042404754   -2.0839958   0.67120415   421013 
 4160000   0.60517079   -2.0850395   -2.0850395   -1.4134586  0.028432135   -2.0850395   0.67158084   421013 
 4161000   0.60636522   -2.0853627   -2.0853627   -1.4124564  0.037742647   -2.0853627   0.67290634   421013 
 4162000   0.60474043   -2.0831587   -2.0831587   -1.4120554  0.036682315   -2.0831587   0.67110325   421013 
 4163000   0.60591794    -2.084336    -2.084336    -1.411926  0.037837346    -2.084336   0.67240999   421013 
 4164000   0.60695019   -2.0854891   -2.0854891   -1.4119336  0.038645661   -2.0854891   0.67355551   421013 
 4165000   0.60597372   -2.0847342   -2.0847342   -1.4122623  0.035325885   -2.0847342   0.67247189   421013 
 4166000   0.60615913   -2.0848172   -2.0848172   -1.4121395  0.031028297   -2.0848172   0.67267765   421013 
 4167000    0.6060809   -2.0845855   -2.0845855   -1.4119946  0.038926442   -2.0845855   0.67259083   421013 
 4168000   0.60580729    -2.084813    -2.084813   -1.4125258  0.030791112    -2.084813   0.67228719   421013 
 4169000   0.60616713   -2.0858156   -2.0858156   -1.4131291  0.036507469   -2.0858156   0.67268652   421013 
 4170000   0.60657514   -2.0862236   -2.0862236   -1.4130843  0.039711629   -2.0862236    0.6731393   421013 
 4171000   0.60719064   -2.0863596   -2.0863596   -1.4125372  0.037236352   -2.0863596   0.67382234   421013 
 4172000   0.60604376   -2.0843979   -2.0843979   -1.4118483  0.031297607   -2.0843979   0.67254961   421013 
 4173000   0.60738565   -2.0853216   -2.0853216   -1.4112828  0.036078611   -2.0853216   0.67403875   421013 
 4174000   0.60701474   -2.0855563   -2.0855563   -1.4119292  0.034595631   -2.0855563   0.67362715   421013 
 4175000   0.60586324   -2.0841718   -2.0841718   -1.4118225  0.040876648   -2.0841718   0.67234928   421013 
 4176000   0.60618376   -2.0846076   -2.0846076   -1.4119027  0.039764957   -2.0846076   0.67270498   421013 
 4177000   0.60590737   -2.0849358   -2.0849358   -1.4125375  0.037426946   -2.0849358   0.67239825   421013 
 4178000   0.60729498    -2.086511    -2.086511   -1.4125728  0.033623205    -2.086511   0.67393814   421013 
 4179000   0.60718896   -2.0863382   -2.0863382   -1.4125178  0.031261679   -2.0863382   0.67382048   421013 
 4180000   0.60665686   -2.0853799   -2.0853799   -1.4121499  0.038717498   -2.0853799   0.67322999   421013 
 4181000   0.60614705   -2.0855448   -2.0855448   -1.4128805  0.034858291   -2.0855448   0.67266423   421013 
 4182000    0.6065795     -2.08595     -2.08595   -1.4128059  0.033155093     -2.08595   0.67314414   421013 
 4183000   0.60668567   -2.0858502   -2.0858502   -1.4125882  0.034602604   -2.0858502   0.67326196   421013 
 4184000   0.60620844   -2.0855843   -2.0855843   -1.4128519  0.029768763   -2.0855843   0.67273237   421013 
 4185000   0.60621662   -2.0853452   -2.0853452   -1.4126038   0.03888352   -2.0853452   0.67274144   421013 
 4186000   0.60580491   -2.0858328   -2.0858328   -1.4135482  0.033762632   -2.0858328   0.67228455   421013 
 4187000   0.60580297   -2.0859618   -2.0859618   -1.4136794  0.027557218   -2.0859618    0.6722824   421013 
 4188000   0.60547622    -2.085104    -2.085104   -1.4131842  0.036863122    -2.085104   0.67191979   421013 
 4189000   0.60643077   -2.0863958   -2.0863958   -1.4134167  0.035194037   -2.0863958   0.67297908   421013 
 4190000     0.604962   -2.0846179   -2.0846179   -1.4132688  0.034480001   -2.0846179   0.67134914   421013 
 4191000     0.606043   -2.0856239   -2.0856239   -1.4130751  0.035934857   -2.0856239   0.67254877   421013 
 4192000   0.60548549   -2.0858881   -2.0858881    -1.413958  0.039161726   -2.0858881   0.67193008   421013 
 4193000   0.60496281   -2.0852616   -2.0852616   -1.4139115  0.039183961   -2.0852616   0.67135005   421013 
 4194000   0.60616847   -2.0864742   -2.0864742   -1.4137862  0.035370225   -2.0864742     0.672688   421013 
 4195000   0.60553142   -2.0857765   -2.0857765   -1.4137955  0.037065176   -2.0857765   0.67198104   421013 
 4196000   0.60560647   -2.0857341   -2.0857341   -1.4136698  0.030169532   -2.0857341   0.67206433   421013 
 4197000   0.60717529    -2.086572    -2.086572   -1.4127667  0.044796242    -2.086572   0.67380531   421013 
 4198000   0.60678144   -2.0854377   -2.0854377   -1.4120694  0.049825346   -2.0854377   0.67336824   421013 
 4199000   0.60668991   -2.0854145   -2.0854145   -1.4121478  0.040378855   -2.0854145   0.67326667   421013 
 4200000   0.60604336   -2.0855156   -2.0855156   -1.4129665  0.038412846   -2.0855156   0.67254916   421013 
 4201000   0.60617979   -2.0856681   -2.0856681   -1.4129675  0.032867268   -2.0856681   0.67270057   421013 
 4202000   0.60620287   -2.0856911   -2.0856911   -1.4129649  0.034012789   -2.0856911   0.67272618   421013 
 4203000   0.60696285   -2.0862231   -2.0862231   -1.4126536  0.038233174   -2.0862231   0.67356956   421013 
 4204000   0.60583253   -2.0848779   -2.0848779   -1.4125627  0.046213965   -2.0848779   0.67231521   421013 
 4205000   0.60576745   -2.0854213   -2.0854213   -1.4131783  0.034461794   -2.0854213   0.67224298   421013 
 4206000   0.60724678   -2.0866139   -2.0866139   -1.4127293  0.040417058   -2.0866139   0.67388465   421013 
 4207000   0.60617432   -2.0851293   -2.0851293   -1.4124348  0.034445534   -2.0851293   0.67269449   421013 
 4208000    0.6057982   -2.0848502   -2.0848502   -1.4125731  0.034746959   -2.0848502    0.6722771   421013 
 4209000   0.60586584   -2.0847306   -2.0847306   -1.4123784  0.037834591   -2.0847306   0.67235217   421013 
 4210000   0.60673939   -2.0859286   -2.0859286    -1.412607  0.038368225   -2.0859286   0.67332158   421013 
 4211000   0.60635439   -2.0852807   -2.0852807   -1.4123864  0.039631917   -2.0852807   0.67289433   421013 
 4212000   0.60617733   -2.0845901   -2.0845901   -1.4118923  0.039703527   -2.0845901   0.67269784   421013 
 4213000   0.60750459   -2.0857882   -2.0857882   -1.4116174  0.039451306   -2.0857882   0.67417075   421013 
 4214000   0.60669124   -2.0850391   -2.0850391   -1.4117709   0.03767759   -2.0850391   0.67326815   421013 
 4215000   0.60532937   -2.0836889   -2.0836889    -1.411932  0.032176933   -2.0836889   0.67175683   421013 
 4216000   0.60675955   -2.0845348   -2.0845348   -1.4111909  0.036089119   -2.0845348   0.67334395   421013 
 4217000   0.60703434    -2.084396    -2.084396   -1.4107471  0.030011875    -2.084396    0.6736489   421013 
 4218000   0.60646915   -2.0845123   -2.0845123   -1.4114906  0.034688845   -2.0845123   0.67302168   421013 
 4219000   0.60483901   -2.0829028   -2.0829028   -1.4116902  0.034845849   -2.0829028   0.67121266   421013 
 4220000   0.60656045   -2.0848254   -2.0848254   -1.4117024    0.0301029   -2.0848254     0.673123   421013 
 4221000   0.60569432   -2.0841091   -2.0841091   -1.4119473  0.037530353   -2.0841091   0.67216183   421013 
 4222000   0.60631937    -2.084997    -2.084997   -1.4121415  0.032009864    -2.084997   0.67285547   421013 
 4223000    0.6056093   -2.0834602   -2.0834602   -1.4113927  0.039100289   -2.0834602   0.67206748   421013 
 4224000   0.60632578   -2.0850472   -2.0850472   -1.4121846  0.037037431   -2.0850472   0.67286258   421013 
 4225000   0.60521404   -2.0840098   -2.0840098    -1.412381  0.029224096   -2.0840098   0.67162883   421013 
 4226000   0.60635111   -2.0845608   -2.0845608   -1.4116701  0.037062756   -2.0845608   0.67289068   421013 
 4227000   0.60688986   -2.0847488   -2.0847488   -1.4112602  0.032960464   -2.0847488   0.67348856   421013 
 4228000   0.60480851   -2.0829874   -2.0829874   -1.4118086  0.033989103   -2.0829874   0.67117881   421013 
 4229000   0.60546341   -2.0837262   -2.0837262   -1.4118206  0.038467953   -2.0837262   0.67190558   421013 
 4230000   0.60723456   -2.0854164   -2.0854164   -1.4115453   0.04057206   -2.0854164   0.67387109   421013 
 4231000   0.60588636   -2.0850498   -2.0850498   -1.4126748  0.030838449   -2.0850498   0.67237494   421013 
 4232000    0.6060075   -2.0848658   -2.0848658   -1.4123564  0.034407989   -2.0848658   0.67250938   421013 
 4233000   0.60627757   -2.0854275   -2.0854275   -1.4126185  0.038316132   -2.0854275   0.67280908   421013 
 4234000   0.60577832   -2.0844444   -2.0844444   -1.4121894  0.029197959   -2.0844444   0.67225504   421013 
 4235000   0.60520627   -2.0833174   -2.0833174   -1.4116971  0.042317031   -2.0833174   0.67162022   421013 
 4236000   0.60521137    -2.083322    -2.083322   -1.4116962  0.030131972    -2.083322   0.67162588   421013 
 4237000   0.60641457   -2.0845082   -2.0845082   -1.4115471  0.035629768   -2.0845082   0.67296111   421013 
 4238000   0.60620726   -2.0843896   -2.0843896   -1.4116586  0.042637918   -2.0843896   0.67273105   421013 
 4239000   0.60602574   -2.0855301   -2.0855301   -1.4130005  0.035122424   -2.0855301   0.67252961   421013 
 4240000   0.60510879    -2.085174    -2.085174    -1.413662  0.034438034    -2.085174   0.67151204   421013 
 4241000   0.60579559   -2.0857493   -2.0857493   -1.4134751   0.03553521   -2.0857493   0.67227421   421013 
 4242000   0.60632553    -2.086094    -2.086094   -1.4132317  0.030670076    -2.086094    0.6728623   421013 
 4243000   0.60694283   -2.0866608   -2.0866608   -1.4131135  0.035370492   -2.0866608   0.67354735   421013 
 4244000   0.60644313   -2.0857879   -2.0857879   -1.4127951  0.037566028   -2.0857879   0.67299281   421013 
 4245000   0.60689415   -2.0864756   -2.0864756   -1.4129823  0.035063649   -2.0864756   0.67349332   421013 
 4246000   0.60675593   -2.0866149   -2.0866149    -1.413275   0.02892512   -2.0866149   0.67333994   421013 
 4247000   0.60574207   -2.0853504   -2.0853504   -1.4131356  0.037457571   -2.0853504   0.67221481   421013 
 4248000   0.60559717   -2.0848807   -2.0848807   -1.4128267  0.032238047   -2.0848807   0.67205402   421013 
 4249000   0.60617747   -2.0853464   -2.0853464   -1.4126484  0.037452684   -2.0853464   0.67269799   421013 
 4250000   0.60756136   -2.0880817   -2.0880817    -1.413848  0.033565523   -2.0880817   0.67423375   421013 
 4251000    0.6070333   -2.0869684   -2.0869684   -1.4133207  0.044589827   -2.0869684   0.67364774   421013 
 4252000   0.60714574   -2.0875113   -2.0875113   -1.4137387  0.032671183   -2.0875113   0.67377252   421013 
 4253000   0.60686664   -2.0872803   -2.0872803   -1.4138176  0.032366376   -2.0872803   0.67346279   421013 
 4254000   0.60790131   -2.0886648   -2.0886648   -1.4140538  0.032212964   -2.0886648     0.674611   421013 
 4255000   0.60611006   -2.0866169   -2.0866169   -1.4139937  0.035772249   -2.0866169   0.67262319   421013 
 4256000   0.60612613   -2.0867771   -2.0867771   -1.4141361  0.036581489   -2.0867771   0.67264102   421013 
 4257000   0.60520315   -2.0861812   -2.0861812   -1.4145644  0.043710955   -2.0861812   0.67161675   421013 
 4258000   0.60759289   -2.0887116   -2.0887116   -1.4144429  0.034241863   -2.0887116   0.67426874   421013 
 4259000   0.60851228    -2.089218    -2.089218   -1.4139289  0.035282985    -2.089218   0.67528902   421013 
 4260000   0.60777274   -2.0877507   -2.0877507   -1.4132824  0.041544316   -2.0877507   0.67446832   421013 
 4261000   0.60695811   -2.0878693   -2.0878693    -1.414305  0.037987459   -2.0878693    0.6735643   421013 
 4262000   0.60647274   -2.0874324   -2.0874324   -1.4144067  0.051297394   -2.0874324   0.67302566   421013 
 4263000   0.60570403   -2.0863563   -2.0863563   -1.4141837  0.033378462   -2.0863563    0.6721726   421013 
 4264000   0.60588552   -2.0876557   -2.0876557   -1.4152817   0.03570587   -2.0876557   0.67237401   421013 
 4265000   0.60580524   -2.0868616   -2.0868616   -1.4145767  0.030511726   -2.0868616   0.67228492   421013 
 4266000   0.60603939    -2.087458    -2.087458   -1.4149133  0.036323279    -2.087458   0.67254476   421013 
 4267000   0.60794013   -2.0889441   -2.0889441     -1.41429  0.037558205   -2.0889441   0.67465409   421013 
 4268000   0.60651326   -2.0870532   -2.0870532   -1.4139826  0.034906601   -2.0870532   0.67307063   421013 
 4269000   0.60591651   -2.0867707   -2.0867707   -1.4143623   0.03653881   -2.0867707    0.6724084   421013 
 4270000   0.60691961   -2.0874574   -2.0874574   -1.4139358  0.043131149   -2.0874574   0.67352158   421013 
 4271000   0.60578384   -2.0868676   -2.0868676   -1.4146065  0.035534888   -2.0868676   0.67226117   421013 
 4272000     0.606742   -2.0876008   -2.0876008   -1.4142763  0.039970017   -2.0876008   0.67332447   421013 
 4273000   0.60667163   -2.0877405   -2.0877405   -1.4144941   0.04105663   -2.0877405   0.67324638   421013 
 4274000   0.60796126   -2.0891746   -2.0891746   -1.4144971  0.038556592   -2.0891746   0.67467753   421013 
 4275000   0.60588635   -2.0870777   -2.0870777   -1.4147028  0.033184638   -2.0870777   0.67237492   421013 
 4276000   0.60669468   -2.0879933   -2.0879933   -1.4147213  0.030121922   -2.0879933   0.67327196   421013 
 4277000   0.60638552   -2.0872408   -2.0872408   -1.4143119  0.030817689   -2.0872408   0.67292887   421013 
 4278000     0.605633    -2.086542    -2.086542   -1.4144483  0.037451336    -2.086542   0.67209377   421013 
 4279000   0.60736346   -2.0892374   -2.0892374   -1.4152233  0.037531048   -2.0892374   0.67401413   421013 
 4280000    0.6073609   -2.0891156   -2.0891156   -1.4151043  0.031809261   -2.0891156   0.67401129   421013 
 4281000   0.60556007   -2.0869306   -2.0869306   -1.4149178  0.038118303   -2.0869306   0.67201284   421013 
 4282000   0.60759236   -2.0892037   -2.0892037   -1.4149355  0.036362663   -2.0892037   0.67426815   421013 
 4283000   0.60783745   -2.0886598   -2.0886598   -1.4141197  0.031787844   -2.0886598   0.67454013   421013 
 4284000   0.60782052    -2.089201    -2.089201   -1.4146797  0.035161082    -2.089201   0.67452135   421013 
 4285000    0.6080268   -2.0887446   -2.0887446   -1.4139943  0.045743579   -2.0887446   0.67475026   421013 
 4286000   0.60750865   -2.0884673   -2.0884673    -1.414292  0.036750612   -2.0884673   0.67417525   421013 
 4287000   0.60700504   -2.0872705   -2.0872705   -1.4136541  0.038941861   -2.0872705   0.67361638   421013 
 4288000   0.60714417   -2.0869705   -2.0869705   -1.4131997  0.036061486   -2.0869705   0.67377078   421013 
 4289000   0.60710234   -2.0868423   -2.0868423    -1.413118  0.034292987   -2.0868423   0.67372436   421013 
 4290000   0.60665458   -2.0859198   -2.0859198   -1.4126924  0.035760808   -2.0859198   0.67322746   421013 
 4291000   0.60742095   -2.0866764   -2.0866764   -1.4125985  0.036898982   -2.0866764   0.67407793   421013 
 4292000   0.60580414   -2.0849991   -2.0849991   -1.4127154  0.031506365   -2.0849991    0.6722837   421013 
 4293000   0.60666356   -2.0859022   -2.0859022   -1.4126647  0.037718891   -2.0859022   0.67323743   421013 
 4294000   0.60553588     -2.08429     -2.08429    -1.412304  0.036633938     -2.08429     0.671986   421013 
 4295000   0.60548151   -2.0845389   -2.0845389   -1.4126132  0.034608072   -2.0845389   0.67192566   421013 
 4296000   0.60548015   -2.0846829   -2.0846829   -1.4127588  0.031101816   -2.0846829   0.67192415   421013 
 4297000   0.60507911   -2.0840338   -2.0840338   -1.4125547  0.042382925   -2.0840338    0.6714791   421013 
 4298000   0.60548003   -2.0837372   -2.0837372   -1.4118131  0.029160945   -2.0837372   0.67192402   421013 
 4299000   0.60681691   -2.0849446   -2.0849446    -1.411537   0.03334413   -2.0849446    0.6734076   421013 
 4300000   0.60665185   -2.0849843   -2.0849843   -1.4117599  0.030751673   -2.0849843   0.67322443   421013 
 4301000    0.6060642   -2.0847862   -2.0847862   -1.4122139  0.035919971   -2.0847862    0.6725723   421013 
 4302000   0.60642863   -2.0852807   -2.0852807    -1.412304  0.031341476   -2.0852807   0.67297671   421013 
 4303000   0.60578391   -2.0848074   -2.0848074   -1.4125461  0.036256385   -2.0848074   0.67226125   421013 
 4304000   0.60630589   -2.0860298   -2.0860298   -1.4131893  0.031330602   -2.0860298   0.67284051   421013 
 4305000   0.60749449   -2.0877548   -2.0877548   -1.4135953  0.039636438   -2.0877548   0.67415955   421013 
 4306000   0.60720326   -2.0873696   -2.0873696   -1.4135332  0.041585834   -2.0873696   0.67383635   421013 
 4307000   0.60628592   -2.0860828   -2.0860828   -1.4132645  0.042486256   -2.0860828   0.67281834   421013 
 4308000   0.60757828   -2.0873085   -2.0873085    -1.413056  0.038780812   -2.0873085   0.67425252   421013 
 4309000   0.60728252   -2.0867587   -2.0867587   -1.4128344  0.040911544   -2.0867587   0.67392431   421013 
 4310000   0.60667067   -2.0868833   -2.0868833    -1.413638  0.032487862   -2.0868833   0.67324532   421013 
 4311000   0.60591319   -2.0867322   -2.0867322   -1.4143275  0.044082252   -2.0867322   0.67240471   421013 
 4312000   0.60728167   -2.0875062   -2.0875062   -1.4135828  0.045499136   -2.0875062   0.67392337   421013 
 4313000   0.60681307    -2.087337    -2.087337   -1.4139337  0.039211093    -2.087337   0.67340334   421013 
 4314000   0.60647669   -2.0878575   -2.0878575   -1.4148274  0.044084479   -2.0878575   0.67303005   421013 
 4315000   0.60633093   -2.0885314   -2.0885314   -1.4156631  0.036332511   -2.0885314   0.67286829   421013 
 4316000    0.6064949   -2.0884355   -2.0884355   -1.4153852  0.036372823   -2.0884355   0.67305025   421013 
 4317000   0.60610134   -2.0875136   -2.0875136      -1.4149  0.040447118   -2.0875136   0.67261351   421013 
 4318000   0.60543515   -2.0866648   -2.0866648   -1.4147906  0.037337804   -2.0866648   0.67187422   421013 
 4319000   0.60572952   -2.0876094   -2.0876094   -1.4154085  0.037046726   -2.0876094   0.67220089   421013 
 4320000   0.60673035   -2.0883612   -2.0883612   -1.4150497  0.037790609   -2.0883612   0.67331155   421013 
 4321000   0.60600727   -2.0879712   -2.0879712    -1.415462  0.036939952   -2.0879712   0.67250912   421013 
 4322000   0.60540833   -2.0874227   -2.0874227   -1.4155783  0.034054816   -2.0874227   0.67184445   421013 
 4323000   0.60517157   -2.0871707   -2.0871707    -1.415589  0.033460301   -2.0871707   0.67158171   421013 
 4324000   0.60733504   -2.0897868   -2.0897868   -1.4158042  0.042909858   -2.0897868    0.6739826   421013 
 4325000   0.60713041   -2.0896805   -2.0896805    -1.415925  0.035699846   -2.0896805   0.67375551   421013 
 4326000   0.60663291   -2.0886227   -2.0886227   -1.4154193  0.037300857   -2.0886227   0.67320342   421013 
 4327000   0.60699673   -2.0889737   -2.0889737   -1.4153666   0.03426846   -2.0889737   0.67360715   421013 
 4328000   0.60566704    -2.087569    -2.087569   -1.4154375  0.043776953    -2.087569   0.67213155   421013 
 4329000   0.60584788   -2.0875018   -2.0875018   -1.4151695  0.039151709   -2.0875018   0.67233223   421013 
 4330000   0.60586758   -2.0876206   -2.0876206   -1.4152665  0.033992952   -2.0876206   0.67235409   421013 
 4331000   0.60583532   -2.0874038   -2.0874038   -1.4150855   0.04066969   -2.0874038    0.6723183   421013 
 4332000   0.60563548    -2.087741    -2.087741   -1.4156445  0.037965402    -2.087741   0.67209652   421013 
 4333000   0.60682022    -2.088787    -2.088787   -1.4153758  0.029530176    -2.088787   0.67341128   421013 
 4334000   0.60651213   -2.0884963   -2.0884963   -1.4154269  0.033321093   -2.0884963   0.67306938   421013 
 4335000   0.60760106   -2.0889825   -2.0889825   -1.4147047  0.037197407   -2.0889825    0.6742778   421013 
 4336000   0.60551134    -2.087286    -2.087286   -1.4153272  0.046623047    -2.087286   0.67195877   421013 
 4337000   0.60502053   -2.0865446   -2.0865446   -1.4151305  0.039454988   -2.0865446    0.6714141   421013 
 4338000   0.60630024   -2.0876947   -2.0876947   -1.4148605  0.036579956   -2.0876947   0.67283423   421013 
 4339000   0.60597122   -2.0876975   -2.0876975   -1.4152284  0.042161383   -2.0876975   0.67246911   421013 
 4340000    0.6060377   -2.0870226   -2.0870226   -1.4144797  0.026036027   -2.0870226   0.67254288   421013 
 4341000   0.60506419   -2.0865712   -2.0865712   -1.4151086  0.035803233   -2.0865712   0.67146254   421013 
 4342000   0.60646333   -2.0885256   -2.0885256   -1.4155104  0.030110069   -2.0885256   0.67301523   421013 
 4343000   0.60652523    -2.088858    -2.088858    -1.415774  0.033398051    -2.088858   0.67308392   421013 
 4344000   0.60650534   -2.0891415   -2.0891415   -1.4160797  0.039293026   -2.0891415   0.67306184   421013 
 4345000   0.60469839   -2.0872219   -2.0872219   -1.4161653  0.034613288   -2.0872219    0.6710566   421013 
 4346000   0.60618819   -2.0888039   -2.0888039   -1.4160941  0.039328283   -2.0888039   0.67270989   421013 
 4347000   0.60669933    -2.088842    -2.088842   -1.4155649  0.027130706    -2.088842   0.67327712   421013 
 4348000   0.60545059   -2.0886153   -2.0886153   -1.4167239  0.039651992   -2.0886153   0.67189135   421013 
 4349000   0.60448255   -2.0870181   -2.0870181    -1.416201  0.045482456   -2.0870181   0.67081708   421013 
 4350000   0.60505129   -2.0882364   -2.0882364   -1.4167881  0.036328692   -2.0882364   0.67144822   421013 
 4351000   0.60442806   -2.0872355   -2.0872355   -1.4164789  0.037800074   -2.0872355    0.6707566   421013 
 4352000   0.60597426   -2.0883742   -2.0883742   -1.4159017   0.03595709   -2.0883742   0.67247248   421013 
 4353000   0.60571261   -2.0878576   -2.0878576   -1.4156755  0.040429049   -2.0878576   0.67218212   421013 
 4354000   0.60659454   -2.0884491   -2.0884491   -1.4152883  0.039601589   -2.0884491   0.67316083   421013 
 4355000   0.60707398   -2.0886849   -2.0886849    -1.414992  0.038832915   -2.0886849   0.67369288   421013 
 4356000   0.60607112   -2.0880578   -2.0880578   -1.4154778  0.038540003   -2.0880578   0.67257997   421013 
 4357000   0.60649845   -2.0883044   -2.0883044   -1.4152502   0.03825437   -2.0883044   0.67305419   421013 
 4358000   0.60688399   -2.0881266   -2.0881266   -1.4146445  0.034116883   -2.0881266   0.67348205   421013 
 4359000   0.60622967   -2.0869762   -2.0869762   -1.4142202    0.0327092   -2.0869762   0.67275593   421013 
 4360000   0.60600444   -2.0869149   -2.0869149   -1.4144089  0.040268956   -2.0869149   0.67250597   421013 
 4361000   0.60522377   -2.0860355   -2.0860355   -1.4143959  0.045621628   -2.0860355   0.67163963   421013 
 4362000   0.60572666   -2.0875513   -2.0875513   -1.4153536  0.030936971   -2.0875513   0.67219771   421013 
 4363000   0.60524233   -2.0875373   -2.0875373   -1.4158771  0.034297763   -2.0875373   0.67166023   421013 
 4364000   0.60609509   -2.0883186   -2.0883186    -1.415712  0.032493478   -2.0883186   0.67260657   421013 
 4365000   0.60570628   -2.0878899   -2.0878899   -1.4157148   0.03345006   -2.0878899    0.6721751   421013 
 4366000   0.60592422   -2.0874198   -2.0874198   -1.4150028  0.035404054   -2.0874198   0.67241695   421013 
 4367000   0.60597821   -2.0877782   -2.0877782   -1.4153013  0.039486751   -2.0877782   0.67247687   421013 
 4368000   0.60573513   -2.0873215   -2.0873215   -1.4151144  0.034274632   -2.0873215   0.67220712   421013 
 4369000   0.60659377   -2.0882258   -2.0882258   -1.4150658  0.035869669   -2.0882258   0.67315998   421013 
 4370000   0.60614887   -2.0878272   -2.0878272   -1.4151609  0.040923571   -2.0878272   0.67266626   421013 
 4371000   0.60574293   -2.0873985   -2.0873985   -1.4151827  0.040684078   -2.0873985   0.67221577   421013 
 4372000    0.6074408   -2.0890051   -2.0890051   -1.4149051  0.034855415   -2.0890051   0.67409996   421013 
 4373000   0.60735319   -2.0893758   -2.0893758   -1.4153731  0.038650033   -2.0893758   0.67400273   421013 
 4374000   0.60699309   -2.0898093   -2.0898093   -1.4162062  0.028920597   -2.0898093   0.67360312   421013 
 4375000   0.60468364   -2.0873033   -2.0873033    -1.416263  0.042238035   -2.0873033   0.67104024   421013 
 4376000   0.60477085    -2.086561    -2.086561    -1.415424  0.029913034    -2.086561   0.67113702   421013 
 4377000   0.60596403   -2.0873833   -2.0873833   -1.4149222  0.035778688   -2.0873833   0.67246113   421013 
 4378000   0.60395918    -2.085757    -2.085757   -1.4155207  0.030862497    -2.085757   0.67023627   421013 
 4379000   0.60552683   -2.0869923   -2.0869923   -1.4150164  0.036339738   -2.0869923   0.67197595   421013 
 4380000   0.60648543   -2.0878917   -2.0878917   -1.4148519  0.031886155   -2.0878917   0.67303975   421013 
 4381000   0.60723405   -2.0883957   -2.0883957   -1.4145252  0.047575955   -2.0883957   0.67387052   421013 
 4382000   0.60624164    -2.087294    -2.087294   -1.4145248  0.043438129    -2.087294    0.6727692   421013 
 4383000   0.60693772   -2.0879762   -2.0879762   -1.4144345  0.037838322   -2.0879762   0.67354167   421013 
 4384000   0.60694372   -2.0879448   -2.0879448   -1.4143965  0.034756015   -2.0879448   0.67354833   421013 
 4385000   0.60659243   -2.0880142   -2.0880142   -1.4148557  0.043002127   -2.0880142   0.67315849   421013 
 4386000   0.60573824   -2.0862621   -2.0862621   -1.4140516  0.039800322   -2.0862621   0.67221057   421013 
 4387000   0.60560973   -2.0867301   -2.0867301   -1.4146621  0.036304572   -2.0867301   0.67206796   421013 
 4388000   0.60636429   -2.0871683   -2.0871683    -1.414263  0.036579384   -2.0871683   0.67290532   421013 
 4389000   0.60552939   -2.0858834   -2.0858834   -1.4139046  0.039549975   -2.0858834   0.67197879   421013 
 4390000   0.60636343   -2.0868175   -2.0868175   -1.4139132  0.030229969   -2.0868175   0.67290436   421013 
 4391000   0.60578766    -2.086671    -2.086671   -1.4144056   0.03536264    -2.086671   0.67226541   421013 
 4392000   0.60585248   -2.0871206   -2.0871206   -1.4147832  0.037431725   -2.0871206   0.67233734   421013 
 4393000   0.60580099   -2.0870516   -2.0870516   -1.4147714  0.030342728   -2.0870516    0.6722802   421013 
 4394000   0.60661734   -2.0880175   -2.0880175   -1.4148314  0.035648577   -2.0880175   0.67318613   421013 
 4395000   0.60662687   -2.0877427   -2.0877427    -1.414546  0.029332439   -2.0877427   0.67319672   421013 
 4396000   0.60662512   -2.0890817   -2.0890817    -1.415887  0.037034058   -2.0890817   0.67319477   421013 
 4397000   0.60690077   -2.0897297   -2.0897297    -1.416229  0.031927479   -2.0897297   0.67350066   421013 
 4398000   0.60696704   -2.0900301   -2.0900301   -1.4164559  0.033923784   -2.0900301   0.67357421   421013 
 4399000    0.6069828     -2.08944     -2.08944   -1.4158483  0.047588108     -2.08944    0.6735917   421013 
 4400000   0.60605318   -2.0890477   -2.0890477   -1.4164876  0.038169844   -2.0890477   0.67256006   421013 
 4401000   0.60634088   -2.0889828   -2.0889828   -1.4161035  0.039241068   -2.0889828   0.67287934   421013 
 4402000   0.60598992   -2.0892638   -2.0892638   -1.4167739  0.039573161   -2.0892638   0.67248986   421013 
 4403000   0.60648724   -2.0894106   -2.0894106   -1.4163689  0.032926169   -2.0894106   0.67304175   421013 
 4404000   0.60571351   -2.0884373   -2.0884373   -1.4162542  0.043690485   -2.0884373   0.67218312   421013 
 4405000   0.60757858   -2.0908482   -2.0908482   -1.4165953  0.036803305   -2.0908482   0.67425286   421013 
 4406000   0.60640305   -2.0906776   -2.0906776   -1.4177293  0.035775238   -2.0906776   0.67294833   421013 
 4407000   0.60554493   -2.0896595   -2.0896595   -1.4176634  0.033427405   -2.0896595   0.67199604   421013 
 4408000   0.60538513   -2.0901865   -2.0901865   -1.4183678  0.039984434   -2.0901865   0.67181871   421013 
 4409000   0.60695706   -2.0914598   -2.0914598   -1.4178966  0.033018945   -2.0914598   0.67356314   421013 
 4410000   0.60513018   -2.0895637   -2.0895637    -1.418028  0.036004907   -2.0895637   0.67153578   421013 
 4411000   0.60625295   -2.0912537   -2.0912537   -1.4184719  0.035706717   -2.0912537   0.67278176   421013 
 4412000   0.60563477    -2.090338    -2.090338   -1.4182423  0.034999387    -2.090338   0.67209573   421013 
 4413000   0.60623123   -2.0905854   -2.0905854   -1.4178277  0.036184352   -2.0905854   0.67275765   421013 
 4414000   0.60672666   -2.0907879   -2.0907879   -1.4174804  0.038683306   -2.0907879   0.67330745   421013 
 4415000   0.60580009   -2.0892974   -2.0892974   -1.4170182  0.040428451   -2.0892974    0.6722792   421013 
 4416000   0.60671735   -2.0892728   -2.0892728   -1.4159757   0.02724223   -2.0892728   0.67329711   421013 
 4417000   0.60622977   -2.0886446   -2.0886446   -1.4158885  0.036326805   -2.0886446   0.67275603   421013 
 4418000    0.6056551   -2.0877558   -2.0877558   -1.4156375   0.03753812   -2.0877558    0.6721183   421013 
 4419000   0.60499946   -2.0875944   -2.0875944   -1.4162037  0.032897288   -2.0875944   0.67139071   421013 
 4420000   0.60524764   -2.0881385   -2.0881385   -1.4164723  0.033471386   -2.0881385   0.67166612   421013 
 4421000   0.60534594   -2.0895367   -2.0895367   -1.4177615  0.031464278   -2.0895367   0.67177522   421013 
 4422000   0.60559079   -2.0888696   -2.0888696   -1.4168227   0.03435246   -2.0888696   0.67204693   421013 
 4423000    0.6065169   -2.0906849   -2.0906849   -1.4176102  0.033296629   -2.0906849   0.67307467   421013 
 4424000    0.6041105   -2.0878852   -2.0878852    -1.417481  0.037936455   -2.0878852   0.67040419   421013 
 4425000   0.60508466   -2.0890173   -2.0890173    -1.417532  0.036119556   -2.0890173   0.67148526   421013 
 4426000   0.60484259   -2.0885586   -2.0885586    -1.417342  0.030524035   -2.0885586   0.67121663   421013 
 4427000   0.60530823   -2.0888203   -2.0888203    -1.417087  0.037605423   -2.0888203   0.67173337   421013 
 4428000   0.60613981   -2.0888197   -2.0888197   -1.4161635   0.03752185   -2.0888197    0.6726562   421013 
 4429000   0.60725882    -2.089992    -2.089992    -1.416094  0.041074932    -2.089992   0.67389801   421013 
 4430000   0.60693185   -2.0893832   -2.0893832    -1.415848  0.037525572   -2.0893832   0.67353516   421013 
 4431000   0.60909014   -2.0915469   -2.0915469   -1.4156166  0.033072306   -2.0915469   0.67593029   421013 
 4432000   0.60673562    -2.090297    -2.090297   -1.4169796  0.035733705    -2.090297   0.67331739   421013 
 4433000   0.60662788   -2.0902152   -2.0902152   -1.4170174  0.045513569   -2.0902152   0.67319783   421013 
 4434000   0.60631277   -2.0908281   -2.0908281     -1.41798  0.037863823   -2.0908281   0.67284815   421013 
 4435000   0.60512391   -2.0895285   -2.0895285   -1.4179997  0.038337729   -2.0895285   0.67152881   421013 
 4436000   0.60384338   -2.0878348   -2.0878348    -1.417727  0.032130875   -2.0878348   0.67010777   421013 
 4437000   0.60497296   -2.0888151   -2.0888151   -1.4174538  0.030597577   -2.0888151   0.67136131   421013 
 4438000   0.60468501   -2.0894638   -2.0894638    -1.418422  0.034529556   -2.0894638   0.67104176   421013 
 4439000   0.60569716   -2.0900949   -2.0900949     -1.41793  0.033218627   -2.0900949   0.67216498   421013 
 4440000    0.6052149   -2.0893298   -2.0893298      -1.4177  0.032990881   -2.0893298   0.67162979   421013 
 4441000   0.60490348   -2.0884571   -2.0884571   -1.4171729  0.034999308   -2.0884571    0.6712842   421013 
 4442000   0.60529058   -2.0886517   -2.0886517   -1.4169379  0.038959618   -2.0886517   0.67171378   421013 
 4443000   0.60586649   -2.0886949   -2.0886949    -1.416342  0.034249913   -2.0886949   0.67235288   421013 
 4444000   0.60584283   -2.0888573   -2.0888573   -1.4165307  0.033780229   -2.0888573   0.67232663   421013 
 4445000   0.60495436   -2.0879092   -2.0879092   -1.4165685  0.036677092   -2.0879092   0.67134066   421013 
 4446000    0.6055408   -2.0885278   -2.0885278   -1.4165364  0.033607563   -2.0885278   0.67199146   421013 
 4447000   0.60500545   -2.0887627   -2.0887627   -1.4173653  0.032708611   -2.0887627   0.67139736   421013 
 4448000   0.60585775   -2.0899409   -2.0899409   -1.4175978  0.034220361   -2.0899409   0.67234318   421013 
 4449000   0.60512925   -2.0890582   -2.0890582   -1.4175235  0.031639344   -2.0890582   0.67153474   421013 
 4450000   0.60559339   -2.0894794   -2.0894794   -1.4174296  0.031179339   -2.0894794   0.67204981   421013 
 4451000   0.60555297   -2.0891418   -2.0891418   -1.4171368  0.038715065   -2.0891418   0.67200496   421013 
 4452000   0.60734338    -2.091307    -2.091307   -1.4173151  0.029079982    -2.091307   0.67399185   421013 
 4453000   0.60569946   -2.0900147   -2.0900147   -1.4178471  0.040068223   -2.0900147   0.67216753   421013 
 4454000   0.60500091   -2.0897199   -2.0897199   -1.4183276  0.035950956   -2.0897199   0.67139232   421013 
 4455000   0.60585699   -2.0907185   -2.0907185   -1.4183762   0.04325329   -2.0907185   0.67234234   421013 
 4456000   0.60491163    -2.090413    -2.090413   -1.4191198  0.038265978    -2.090413   0.67129324   421013 
 4457000   0.60437989   -2.0896125   -2.0896125   -1.4189093  0.036126369   -2.0896125   0.67070315   421013 
 4458000    0.6052103   -2.0902462   -2.0902462   -1.4186216  0.035436504   -2.0902462   0.67162468   421013 
 4459000   0.60514924   -2.0904717   -2.0904717   -1.4189148  0.045320793   -2.0904717   0.67155692   421013 
 4460000   0.60693474   -2.0920819   -2.0920819   -1.4185435  0.039182555   -2.0920819   0.67353836   421013 
 4461000   0.60396607   -2.0888052   -2.0888052   -1.4185613  0.037475802   -2.0888052   0.67024392   421013 
 4462000   0.60602897   -2.0906724   -2.0906724   -1.4181392  0.034253126   -2.0906724    0.6725332   421013 
 4463000   0.60527036   -2.0897292   -2.0897292   -1.4180379  0.035445313   -2.0897292   0.67169134   421013 
 4464000   0.60429701   -2.0893714   -2.0893714   -1.4187602  0.036525023   -2.0893714   0.67061118   421013 
 4465000   0.60523544   -2.0900054   -2.0900054   -1.4183528  0.035914629   -2.0900054   0.67165259   421013 
 4466000   0.60651351   -2.0912476   -2.0912476   -1.4181766  0.031861989   -2.0912476   0.67307091   421013 
 4467000    0.6046944   -2.0892809   -2.0892809   -1.4182287  0.033114515   -2.0892809   0.67105218   421013 
 4468000   0.60512046   -2.0891067   -2.0891067   -1.4175817  0.035843773   -2.0891067   0.67152498   421013 
 4469000   0.60525198   -2.0894463   -2.0894463   -1.4177753  0.037448127   -2.0894463   0.67167094   421013 
 4470000   0.60488567   -2.0891781   -2.0891781   -1.4179137  0.034008993   -2.0891781   0.67126444   421013 
 4471000   0.60550323   -2.0887381   -2.0887381   -1.4167883  0.034275372   -2.0887381   0.67194977   421013 
 4472000   0.60439671   -2.0882356   -2.0882356   -1.4175138   0.03259735   -2.0882356   0.67072181   421013 
 4473000   0.60607209   -2.0899855   -2.0899855   -1.4174045  0.043381555   -2.0899855   0.67258105   421013 
 4474000   0.60643802    -2.089987    -2.089987   -1.4169999  0.033342425    -2.089987   0.67298714   421013 
 4475000   0.60660646   -2.0896399   -2.0896399   -1.4164658  0.038893974   -2.0896399   0.67317406   421013 
 4476000   0.60586965   -2.0883489   -2.0883489   -1.4159925  0.034625139   -2.0883489    0.6723564   421013 
 4477000     0.605837   -2.0888912   -2.0888912   -1.4165711   0.03121221   -2.0888912   0.67232016   421013 
 4478000   0.60533288   -2.0881115   -2.0881115   -1.4163507  0.035451651   -2.0881115   0.67176072   421013 
 4479000   0.60554003   -2.0883133   -2.0883133   -1.4163227  0.035490079   -2.0883133   0.67199061   421013 
 4480000   0.60580438   -2.0882785   -2.0882785   -1.4159945   0.04277319   -2.0882785   0.67228397   421013 
 4481000   0.60641134   -2.0891765   -2.0891765    -1.416219  0.031769505   -2.0891765   0.67295753   421013 
 4482000   0.60660587   -2.0896059   -2.0896059   -1.4164325   0.03176729   -2.0896059    0.6731734   421013 
 4483000   0.60682973   -2.0890784   -2.0890784   -1.4156565  0.031436306   -2.0890784   0.67342183   421013 
 4484000   0.60770975   -2.0899911   -2.0899911   -1.4155927  0.038364089   -2.0899911   0.67439842   421013 
 4485000   0.60524035   -2.0872945   -2.0872945   -1.4156365  0.037079972   -2.0872945   0.67165804   421013 
 4486000   0.60604465   -2.0894705   -2.0894705   -1.4169199  0.029749544   -2.0894705    0.6725506   421013 
 4487000   0.60727646   -2.0895905   -2.0895905   -1.4156729  0.031743901   -2.0895905   0.67391758   421013 
 4488000   0.60630626   -2.0890791   -2.0890791   -1.4162382  0.029743258   -2.0890791   0.67284092   421013 
 4489000   0.60657074   -2.0890071   -2.0890071   -1.4158727  0.039686824   -2.0890071   0.67313442   421013 
 4490000   0.60591183   -2.0886335   -2.0886335   -1.4162303  0.032165473   -2.0886335    0.6724032   421013 
 4491000   0.60738541   -2.0895754   -2.0895754   -1.4155369  0.034658685   -2.0895754   0.67403849   421013 
 4492000   0.60621295   -2.0889313   -2.0889313    -1.416194  0.034394635   -2.0889313   0.67273736   421013 
 4493000   0.60578358   -2.0884512   -2.0884512   -1.4161903  0.041881957   -2.0884512   0.67226088   421013 
 4494000   0.60586555   -2.0885799   -2.0885799    -1.416228  0.038993064   -2.0885799   0.67235184   421013 
 4495000   0.60667072   -2.0894631   -2.0894631   -1.4162177  0.038896886   -2.0894631   0.67324537   421013 
 4496000   0.60698587   -2.0898881   -2.0898881    -1.416293  0.042859598   -2.0898881   0.67359511   421013 
 4497000    0.6070578   -2.0889469   -2.0889469   -1.4152719  0.031365052   -2.0889469   0.67367493   421013 
 4498000   0.60534201   -2.0874262   -2.0874262   -1.4156554  0.040108415   -2.0874262   0.67177085   421013 
 4499000   0.60644248   -2.0886672   -2.0886672   -1.4156751  0.039453006   -2.0886672   0.67299209   421013 
 4500000    0.6062458   -2.0886062   -2.0886062   -1.4158324  0.026049795   -2.0886062   0.67277383   421013 
 4501000   0.60509086   -2.0871255   -2.0871255   -1.4156334  0.034659262   -2.0871255   0.67149215   421013 
 4502000   0.60609517   -2.0883626   -2.0883626    -1.415756  0.033766822   -2.0883626   0.67260667   421013 
 4503000   0.60672437   -2.0891743   -2.0891743   -1.4158693  0.028082692   -2.0891743   0.67330491   421013 
 4504000    0.6044956   -2.0875825   -2.0875825    -1.416751  0.036772488   -2.0875825   0.67083155   421013 
 4505000   0.60683162   -2.0892564   -2.0892564   -1.4158325  0.035891912   -2.0892564   0.67342392   421013 
 4506000   0.60445796   -2.0861277   -2.0861277   -1.4153379  0.031969536   -2.0861277   0.67078979   421013 
 4507000   0.60777519   -2.0904477   -2.0904477   -1.4159766  0.030125943   -2.0904477   0.67447104   421013 
 4508000   0.60686165   -2.0896102   -2.0896102   -1.4161529  0.038617425   -2.0896102   0.67345725   421013 
 4509000   0.60757405   -2.0906423   -2.0906423   -1.4163944  0.043282102   -2.0906423   0.67424783   421013 
 4510000   0.60740328   -2.0912438   -2.0912438   -1.4171855  0.035459768   -2.0912438   0.67405832   421013 
 4511000   0.60645601   -2.0899702   -2.0899702   -1.4169631  0.045211093   -2.0899702    0.6730071   421013 
 4512000   0.60632482   -2.0907884   -2.0907884   -1.4179269  0.041236975   -2.0907884   0.67286152   421013 
 4513000    0.6056557   -2.0896531   -2.0896531   -1.4175341  0.036178347   -2.0896531   0.67211897   421013 
 4514000   0.60508914   -2.0895011   -2.0895011   -1.4180109  0.033855084   -2.0895011   0.67149023   421013 
 4515000   0.60458247   -2.0887408   -2.0887408   -1.4178128  0.034367184   -2.0887408   0.67092796   421013 
 4516000   0.60573023   -2.0906766   -2.0906766   -1.4184749  0.040891367   -2.0906766   0.67220167   421013 
 4517000   0.60602287   -2.0910301   -2.0910301   -1.4185037  0.030845695   -2.0910301   0.67252643   421013 
 4518000   0.60582831   -2.0904768   -2.0904768   -1.4181663  0.032884816   -2.0904768   0.67231052   421013 
 4519000   0.60641132   -2.0907561   -2.0907561   -1.4177986  0.040555745   -2.0907561   0.67295751   421013 
 4520000   0.60580588   -2.0905481   -2.0905481   -1.4182624  0.036372238   -2.0905481   0.67228563   421013 
 4521000   0.60496623   -2.0903251   -2.0903251   -1.4189713  0.034113947   -2.0903251   0.67135383   421013 
 4522000   0.60511222   -2.0897668   -2.0897668    -1.418251  0.041332953   -2.0897668   0.67151584   421013 
 4523000   0.60482406   -2.0895615   -2.0895615   -1.4183655  0.032837278   -2.0895615   0.67119606   421013 
 4524000   0.60720477   -2.0917225   -2.0917225   -1.4178845  0.035279636   -2.0917225   0.67383803   421013 
 4525000   0.60589226   -2.0895348   -2.0895348   -1.4171533  0.042523075   -2.0895348   0.67238148   421013 
 4526000   0.60775881   -2.0910518   -2.0910518    -1.416599  0.036347219   -2.0910518   0.67445286   421013 
 4527000   0.60638631    -2.090221    -2.090221   -1.4172912  0.033451425    -2.090221   0.67292975   421013 
 4528000    0.6070235   -2.0906273   -2.0906273   -1.4169905  0.042649807   -2.0906273   0.67363687   421013 
 4529000   0.60722542   -2.0901461   -2.0901461   -1.4162852  0.034340021   -2.0901461   0.67386095   421013 
 4530000   0.60617108    -2.089639    -2.089639   -1.4169481  0.040005017    -2.089639   0.67269091   421013 
 4531000    0.6059186   -2.0889448   -2.0889448   -1.4165341  0.039022977   -2.0889448   0.67241072   421013 
 4532000   0.60477409   -2.0881784   -2.0881784   -1.4170378  0.036356888   -2.0881784   0.67114061   421013 
 4533000   0.60500749   -2.0882324   -2.0882324   -1.4168328  0.036570599   -2.0882324   0.67139962   421013 
 4534000    0.6055592   -2.0878554   -2.0878554   -1.4158435  0.033220407   -2.0878554   0.67201187   421013 
 4535000    0.6047947    -2.087731    -2.087731   -1.4165675  0.043287933    -2.087731   0.67116348   421013 
 4536000   0.60531894   -2.0877986   -2.0877986   -1.4160534   0.03519479   -2.0877986   0.67174525   421013 
 4537000   0.60486953   -2.0865003   -2.0865003   -1.4152537  0.029837593   -2.0865003   0.67124652   421013 
 4538000   0.60600644   -2.0882799   -2.0882799   -1.4157718  0.034203417   -2.0882799   0.67250819   421013 
 4539000   0.60530546   -2.0873447   -2.0873447   -1.4156144  0.035499286   -2.0873447    0.6717303   421013 
 4540000   0.60614033   -2.0892135   -2.0892135   -1.4165568  0.028825751   -2.0892135   0.67265678   421013 
 4541000   0.60492651   -2.0876781   -2.0876781   -1.4163683  0.036143773   -2.0876781   0.67130975   421013 
 4542000   0.60741104   -2.0890377   -2.0890377   -1.4149708  0.034678666   -2.0890377   0.67406694   421013 
 4543000   0.60675644    -2.088259    -2.088259   -1.4149185    0.0424265    -2.088259    0.6733405   421013 
 4544000   0.60585112   -2.0878192   -2.0878192   -1.4154834   0.03363889   -2.0878192   0.67233583   421013 
 4545000   0.60526813   -2.0875312   -2.0875312   -1.4158423  0.039915073   -2.0875312   0.67168887   421013 
 4546000   0.60329848   -2.0867791   -2.0867791   -1.4172761   0.03614794   -2.0867791   0.66950307   421013 
 4547000   0.60600755   -2.0901014   -2.0901014   -1.4175919  0.027516608   -2.0901014   0.67250942   421013 
 4548000   0.60490664   -2.0888469   -2.0888469   -1.4175592  0.037953659   -2.0888469   0.67128771   421013 
 4549000   0.60552346   -2.0891537   -2.0891537   -1.4171814  0.034904542   -2.0891537   0.67197221   421013 
 4550000   0.60515035   -2.0881612   -2.0881612    -1.416603  0.040078759   -2.0881612   0.67155816   421013 
 4551000   0.60576528   -2.0890354   -2.0890354   -1.4167948  0.037971048   -2.0890354   0.67224057   421013 
 4552000   0.60481244   -2.0885336   -2.0885336   -1.4173505  0.044872835   -2.0885336   0.67118317   421013 
 4553000   0.60552864   -2.0892047   -2.0892047   -1.4172267  0.039119544   -2.0892047   0.67197797   421013 
 4554000   0.60591777    -2.089649    -2.089649   -1.4172392  0.034329603    -2.089649   0.67240979   421013 
 4555000   0.60645588   -2.0898972   -2.0898972   -1.4168902  0.031750136   -2.0898972   0.67300695   421013 
 4556000   0.60626135    -2.089384    -2.089384    -1.416593   0.03651719    -2.089384   0.67279107   421013 
 4557000   0.60720881    -2.090036    -2.090036   -1.4161935  0.036551517    -2.090036   0.67384251   421013 
 4558000   0.60641752   -2.0892054   -2.0892054    -1.416241  0.043181519   -2.0892054   0.67296439   421013 
 4559000   0.60610066    -2.089026    -2.089026   -1.4164133   0.04027036    -2.089026   0.67261275   421013 
 4560000   0.60710259   -2.0907791   -2.0907791   -1.4170545  0.032977118   -2.0907791   0.67372463   421013 
 4561000   0.60517345   -2.0891677   -2.0891677   -1.4175839  0.032538112   -2.0891677   0.67158379   421013 
 4562000   0.60596864   -2.0899456   -2.0899456   -1.4174794  0.031263684   -2.0899456   0.67246625   421013 
 4563000   0.60488618   -2.0885428   -2.0885428   -1.4172778  0.035637131   -2.0885428     0.671265   421013 
 4564000   0.60580586   -2.0891451   -2.0891451   -1.4168595  0.033064016   -2.0891451    0.6722856   421013 
 4565000   0.60529343   -2.0894575   -2.0894575   -1.4177406  0.029829942   -2.0894575   0.67171695   421013 
 4566000   0.60432857    -2.088328    -2.088328   -1.4176818  0.036392956    -2.088328    0.6706462   421013 
 4567000   0.60356686   -2.0875615   -2.0875615   -1.4177606   0.03346534   -2.0875615    0.6698009   421013 
 4568000   0.60571963   -2.0892947   -2.0892947   -1.4171048  0.040451698   -2.0892947   0.67218991   421013 
 4569000   0.60534533   -2.0888813   -2.0888813   -1.4171068   0.04063671   -2.0888813   0.67177454   421013 
 4570000   0.60464848   -2.0872647   -2.0872647   -1.4162635  0.033586882   -2.0872647   0.67100122   421013 
 4571000   0.60535339   -2.0882526   -2.0882526   -1.4164691  0.032911769   -2.0882526   0.67178348   421013 
 4572000   0.60466994   -2.0880417   -2.0880417   -1.4170167  0.037971763   -2.0880417   0.67102503   421013 
 4573000   0.60559708   -2.0892697   -2.0892697   -1.4172158  0.038346888   -2.0892697   0.67205391   421013 
 4574000   0.60570132   -2.0897131   -2.0897131   -1.4175435   0.03678909   -2.0897131   0.67216959   421013 
 4575000   0.60564889   -2.0894065   -2.0894065   -1.4172951  0.030457458   -2.0894065   0.67211141   421013 
 4576000   0.60504788   -2.0886462   -2.0886462   -1.4172017  0.034453508   -2.0886462   0.67144444   421013 
 4577000   0.60536066   -2.0899504   -2.0899504   -1.4181589  0.035534593   -2.0899504   0.67179154   421013 
 4578000    0.6049475   -2.0899584   -2.0899584   -1.4186254  0.038048197   -2.0899584   0.67133305   421013 
 4579000   0.60597609   -2.0902349   -2.0902349   -1.4177604  0.041029458   -2.0902349   0.67247451   421013 
 4580000   0.60597867   -2.0904795   -2.0904795   -1.4180021  0.038664789   -2.0904795   0.67247738   421013 
 4581000   0.60514368    -2.089537    -2.089537   -1.4179863  0.037802492    -2.089537   0.67155076   421013 
 4582000   0.60477495    -2.089538    -2.089538   -1.4183964  0.041666251    -2.089538   0.67114156   421013 
 4583000   0.60530729   -2.0897795   -2.0897795   -1.4180472  0.038791672   -2.0897795   0.67173232   421013 
 4584000   0.60500168   -2.0903138   -2.0903138   -1.4189207  0.036853196   -2.0903138   0.67139317   421013 
 4585000   0.60440176   -2.0889748   -2.0889748   -1.4182473  0.035521202   -2.0889748   0.67072742   421013 
 4586000   0.60540813   -2.0893303   -2.0893303   -1.4174861  0.039076942   -2.0893303   0.67184423   421013 
 4587000   0.60575388   -2.0902047   -2.0902047   -1.4179768  0.037462709   -2.0902047   0.67222792   421013 
 4588000   0.60512264   -2.0895333   -2.0895333   -1.4180059  0.043713451   -2.0895333   0.67152741   421013 
 4589000   0.60575345   -2.0903795   -2.0903795    -1.418152  0.034093326   -2.0903795   0.67222744   421013 
 4590000   0.60520744   -2.0894812   -2.0894812   -1.4178596  0.038975069   -2.0894812   0.67162151   421013 
 4591000   0.60497115   -2.0899032   -2.0899032   -1.4185439  0.034787229   -2.0899032    0.6713593   421013 
 4592000   0.60610941   -2.0903316   -2.0903316   -1.4177091  0.036114562   -2.0903316   0.67262247   421013 
 4593000   0.60574663   -2.0907166   -2.0907166   -1.4184968   0.04085609   -2.0907166   0.67221987   421013 
 4594000   0.60544735   -2.0899559   -2.0899559   -1.4180681  0.036031547   -2.0899559   0.67188776   421013 
 4595000    0.6054483   -2.0904968   -2.0904968    -1.418608  0.032566854   -2.0904968   0.67188881   421013 
 4596000   0.60539095   -2.0903675   -2.0903675   -1.4185424  0.032816961   -2.0903675   0.67182516   421013 
 4597000   0.60547053   -2.0903971   -2.0903971   -1.4184836  0.038442634   -2.0903971   0.67191348   421013 
 4598000     0.605493   -2.0908435   -2.0908435   -1.4189051  0.029922358   -2.0908435   0.67193842   421013 
 4599000   0.60494884   -2.0911466   -2.0911466   -1.4198121  0.029770262   -2.0911466   0.67133453   421013 
 4600000   0.60601748   -2.0910705   -2.0910705   -1.4185501  0.030429432   -2.0910705   0.67252045   421013 
 4601000   0.60612367   -2.0906239   -2.0906239   -1.4179856  0.034122388   -2.0906239   0.67263829   421013 
 4602000   0.60551718   -2.0907032   -2.0907032   -1.4187379   0.03880927   -2.0907032   0.67196524   421013 
 4603000   0.60442001   -2.0901099   -2.0901099   -1.4193623  0.044604254   -2.0901099   0.67074767   421013 
 4604000   0.60595094   -2.0917695   -2.0917695   -1.4193229  0.032247782   -2.0917695    0.6724466   421013 
 4605000   0.60515431   -2.0907553   -2.0907553   -1.4191928  0.033673249   -2.0907553   0.67156256   421013 
 4606000   0.60661793   -2.0922972   -2.0922972   -1.4191104  0.031496039   -2.0922972   0.67318679   421013 
 4607000   0.60630786   -2.0912162   -2.0912162   -1.4183735  0.044337336   -2.0912162   0.67284269   421013 
 4608000     0.605359   -2.0905434   -2.0905434   -1.4187536  0.037182394   -2.0905434   0.67178971   421013 
 4609000    0.6055564   -2.0913822   -2.0913822   -1.4193734  0.037796549   -2.0913822   0.67200877   421013 
 4610000    0.6063713   -2.0918054   -2.0918054   -1.4188923   0.03321875   -2.0918054    0.6729131   421013 
 4611000   0.60478155   -2.0897565   -2.0897565   -1.4186076  0.034344764   -2.0897565   0.67114889   421013 
 4612000   0.60631447   -2.0917192   -2.0917192   -1.4188692  0.036231669   -2.0917192   0.67285003   421013 
 4613000   0.60655005    -2.091852    -2.091852   -1.4187405   0.03411794    -2.091852   0.67311146   421013 
 4614000   0.60479762   -2.0894591   -2.0894591   -1.4182924  0.034724962   -2.0894591   0.67116672   421013 
 4615000   0.60480158   -2.0902179   -2.0902179   -1.4190468  0.042106697   -2.0902179   0.67117112   421013 
 4616000   0.60662863    -2.092165    -2.092165   -1.4189664  0.033311822    -2.092165   0.67319867   421013 
 4617000   0.60544287   -2.0913117   -2.0913117   -1.4194289  0.028939287   -2.0913117   0.67188278   421013 
 4618000   0.60638449   -2.0923914   -2.0923914   -1.4194637  0.038369738   -2.0923914   0.67292773   421013 
 4619000   0.60623466   -2.0927087   -2.0927087   -1.4199472  0.032285077   -2.0927087   0.67276146   421013 
 4620000   0.60429665   -2.0904978   -2.0904978   -1.4198871  0.040086561   -2.0904978   0.67061078   421013 
 4621000   0.60562635   -2.0913713   -2.0913713   -1.4192849  0.035617747   -2.0913713    0.6720864   421013 
 4622000   0.60649086   -2.0930964   -2.0930964   -1.4200506  0.034435437   -2.0930964   0.67304578   421013 
 4623000   0.60591739   -2.0926799   -2.0926799   -1.4202705  0.034643261   -2.0926799   0.67240937   421013 
 4624000    0.6062809   -2.0925593   -2.0925593   -1.4197465  0.038336862   -2.0925593   0.67281277   421013 
 4625000   0.60537171   -2.0918021   -2.0918021   -1.4199983  0.041638764   -2.0918021   0.67180381   421013 
 4626000   0.60618045   -2.0919001   -2.0919001   -1.4191988   0.04360494   -2.0919001    0.6727013   421013 
 4627000   0.60520515   -2.0914548   -2.0914548   -1.4198358  0.038227864   -2.0914548   0.67161898   421013 
 4628000   0.60559769   -2.0920768   -2.0920768   -1.4200223  0.033998698   -2.0920768   0.67205459   421013 
 4629000   0.60531688    -2.091736    -2.091736    -1.419993  0.036159767    -2.091736   0.67174296   421013 
 4630000   0.60572822   -2.0919401   -2.0919401   -1.4197407  0.041226124   -2.0919401   0.67219944   421013 
 4631000   0.60589541    -2.092298    -2.092298    -1.419913  0.036251482    -2.092298   0.67238498   421013 
 4632000   0.60437924   -2.0904662   -2.0904662   -1.4197638   0.03272956   -2.0904662   0.67070243   421013 
 4633000   0.60529862   -2.0914029   -2.0914029   -1.4196802  0.033710416   -2.0914029   0.67172271   421013 
 4634000   0.60580432    -2.091798    -2.091798   -1.4195141  0.037083064    -2.091798   0.67228389   421013 
 4635000   0.60431096   -2.0896913   -2.0896913   -1.4190647    0.0395221   -2.0896913   0.67062666   421013 
 4636000   0.60491512   -2.0895881   -2.0895881    -1.418291   0.04221261   -2.0895881   0.67129711   421013 
 4637000   0.60535687   -2.0902933   -2.0902933    -1.418506  0.038449377   -2.0902933   0.67178735   421013 
 4638000   0.60545406   -2.0901497   -2.0901497   -1.4182545  0.031026991   -2.0901497    0.6718952   421013 
 4639000   0.60504942   -2.0899566   -2.0899566   -1.4185104  0.033956014   -2.0899566   0.67144615   421013 
 4640000   0.60512477   -2.0905891   -2.0905891   -1.4190593  0.033271862   -2.0905891   0.67152977   421013 
 4641000   0.60554005     -2.09102     -2.09102   -1.4190293  0.040385654     -2.09102   0.67199062   421013 
 4642000   0.60409962   -2.0903016   -2.0903016   -1.4199094  0.033815048   -2.0903016   0.67039212   421013 
 4643000    0.6044414   -2.0902201   -2.0902201   -1.4194487  0.031625039   -2.0902201   0.67077141   421013 
 4644000   0.60448803   -2.0904594   -2.0904594   -1.4196362  0.036704543   -2.0904594   0.67082316   421013 
 4645000   0.60486222   -2.0909683   -2.0909683   -1.4197298     0.037383   -2.0909683   0.67123841   421013 
 4646000   0.60369609   -2.0899683   -2.0899683    -1.420024  0.036413233   -2.0899683   0.66994432   421013 
 4647000   0.60390113   -2.0900856   -2.0900856   -1.4199137  0.037139952   -2.0900856   0.67017186   421013 
 4648000    0.6050414   -2.0905444   -2.0905444   -1.4191071  0.030606447   -2.0905444   0.67143725   421013 
 4649000   0.60534366   -2.0916008   -2.0916008   -1.4198282  0.034665016   -2.0916008   0.67177269   421013 
 4650000   0.60530316   -2.0917591   -2.0917591   -1.4200314  0.035829181   -2.0917591   0.67172774   421013 
 4651000   0.60610152   -2.0921341   -2.0921341   -1.4195204  0.029183641   -2.0921341   0.67261371   421013 
 4652000   0.60489136   -2.0917235   -2.0917235   -1.4204527  0.038497015   -2.0917235   0.67127075   421013 
 4653000   0.60478467   -2.0921146   -2.0921146   -1.4209622  0.033213519   -2.0921146   0.67115235   421013 
 4654000   0.60503862   -2.0918251   -2.0918251   -1.4203909  0.029951716   -2.0918251   0.67143417   421013 
 4655000   0.60569785   -2.0936697   -2.0936697   -1.4215039   0.04061453   -2.0936697   0.67216574   421013 
 4656000   0.60521724     -2.09298     -2.09298   -1.4213476  0.032935542     -2.09298    0.6716324   421013 
 4657000   0.60492133    -2.092433    -2.092433    -1.421129  0.039407459    -2.092433     0.671304   421013 
 4658000   0.60586334   -2.0929576   -2.0929576   -1.4206082  0.039822318   -2.0929576    0.6723494   421013 
 4659000   0.60686377   -2.0937575   -2.0937575   -1.4202979  0.030692247   -2.0937575   0.67345961   421013 
 4660000   0.60573172   -2.0932963   -2.0932963    -1.421093  0.034298911   -2.0932963   0.67220333   421013 
 4661000   0.60577325   -2.0933476   -2.0933476   -1.4210982  0.044349606   -2.0933476   0.67224942   421013 
 4662000   0.60657887   -2.0946626   -2.0946626   -1.4215191  0.028791238   -2.0946626   0.67314345   421013 
 4663000   0.60571797   -2.0936757   -2.0936757   -1.4214877  0.030795254   -2.0936757   0.67218806   421013 
 4664000   0.60436653   -2.0924443   -2.0924443   -1.4217559  0.041915245   -2.0924443   0.67068833   421013 
 4665000   0.60400217   -2.0925543   -2.0925543   -1.4222703  0.035722129   -2.0925543   0.67028398   421013 
 4666000   0.60478419   -2.0929485   -2.0929485   -1.4217967  0.040476218   -2.0929485   0.67115182   421013 
 4667000    0.6050331    -2.093487    -2.093487    -1.422059  0.034727115    -2.093487   0.67142804   421013 
 4668000   0.60511664   -2.0930177   -2.0930177    -1.421497   0.03568969   -2.0930177   0.67152075   421013 
 4669000   0.60418914   -2.0915816   -2.0915816   -1.4210901  0.033057287   -2.0915816   0.67049147   421013 
 4670000   0.60436395   -2.0918471   -2.0918471   -1.4211617  0.032802063   -2.0918471   0.67068546   421013 
 4671000   0.60530826   -2.0922912   -2.0922912   -1.4205578  0.041636528   -2.0922912    0.6717334   421013 
 4672000   0.60468866   -2.0916414   -2.0916414   -1.4205956  0.039476791   -2.0916414   0.67104581   421013 
 4673000    0.6056428   -2.0928401   -2.0928401   -1.4207355  0.028330486   -2.0928401   0.67210465   421013 
 4674000   0.60489375   -2.0918342   -2.0918342   -1.4205608  0.038515535   -2.0918342    0.6712734   421013 
 4675000   0.60511494   -2.0923171   -2.0923171   -1.4207982   0.03857688   -2.0923171   0.67151886   421013 
 4676000   0.60551347   -2.0923496   -2.0923496   -1.4203884  0.038176791   -2.0923496   0.67196112   421013 
 4677000   0.60637161   -2.0930923   -2.0930923   -1.4201788  0.038952917   -2.0930923   0.67291344   421013 
 4678000   0.60518063   -2.0920163   -2.0920163   -1.4204245  0.043938629   -2.0920163   0.67159176   421013 
 4679000   0.60638674   -2.0935693   -2.0935693   -1.4206391  0.037385227   -2.0935693   0.67293023   421013 
 4680000   0.60463556   -2.0918153   -2.0918153   -1.4208285  0.036109641   -2.0918153   0.67098687   421013 
 4681000   0.60550311   -2.0925201   -2.0925201   -1.4205705  0.042145385   -2.0925201   0.67194963   421013 
 4682000   0.60485592   -2.0922909   -2.0922909   -1.4210594  0.039762806   -2.0922909   0.67123142   421013 
 4683000    0.6049985   -2.0928957   -2.0928957   -1.4215061  0.034480705   -2.0928957   0.67138965   421013 
 4684000     0.604213   -2.0915371   -2.0915371   -1.4210192  0.043200146   -2.0915371   0.67051795   421013 
 4685000    0.6051885   -2.0926982   -2.0926982   -1.4210977  0.029307686   -2.0926982    0.6716005   421013 
 4686000   0.60527063    -2.092889    -2.092889   -1.4211974  0.028317025    -2.092889   0.67169164   421013 
 4687000   0.60443038   -2.0928476   -2.0928476   -1.4220885  0.036272464   -2.0928476   0.67075918   421013 
 4688000   0.60457818   -2.0922079   -2.0922079   -1.4212847  0.037981127   -2.0922079    0.6709232   421013 
 4689000   0.60428937   -2.0914015   -2.0914015   -1.4207988  0.040686577   -2.0914015   0.67060269   421013 
 4690000   0.60545534   -2.0926911   -2.0926911   -1.4207944  0.035784008   -2.0926911   0.67189662   421013 
 4691000   0.60544226   -2.0924238   -2.0924238   -1.4205417  0.042926398   -2.0924238    0.6718821   421013 
 4692000   0.60496205   -2.0921924   -2.0921924   -1.4208432  0.033775316   -2.0921924   0.67134919   421013 
 4693000   0.60482033   -2.0920778   -2.0920778   -1.4208859   0.03132971   -2.0920778   0.67119193   421013 
 4694000   0.60624544   -2.0934801   -2.0934801   -1.4207067   0.04149578   -2.0934801   0.67277342   421013 
 4695000   0.60506149   -2.0925488   -2.0925488   -1.4210893  0.036395505   -2.0925488   0.67145955   421013 
 4696000   0.60483126   -2.0919686   -2.0919686   -1.4207646  0.034324603   -2.0919686   0.67120405   421013 
 4697000   0.60681699   -2.0941598   -2.0941598   -1.4207521  0.030985256   -2.0941598   0.67340769   421013 
 4698000   0.60567691    -2.092235    -2.092235   -1.4200925  0.033713867    -2.092235   0.67214251   421013 
 4699000   0.60602896   -2.0932483   -2.0932483   -1.4207151    0.0266428   -2.0932483   0.67253319   421013 
 4700000   0.60552675   -2.0918098   -2.0918098   -1.4198339  0.030637284   -2.0918098   0.67197586   421013 
 4701000   0.60504498   -2.0918128   -2.0918128   -1.4203715  0.029621815   -2.0918128   0.67144123   421013 
 4702000   0.60400223   -2.0914324   -2.0914324   -1.4211483  0.031779338   -2.0914324   0.67028405   421013 
 4703000   0.60290416   -2.0902829   -2.0902829   -1.4212174  0.037932212   -2.0902829   0.66906548   421013 
 4704000   0.60450423   -2.0918069   -2.0918069   -1.4209658  0.031555505   -2.0918069   0.67084114   421013 
 4705000    0.6042492   -2.0913409   -2.0913409   -1.4207828  0.035331425   -2.0913409   0.67055812   421013 
 4706000   0.60439474   -2.0918419   -2.0918419   -1.4211223  0.037968453   -2.0918419   0.67071963   421013 
 4707000   0.60558217     -2.09345     -2.09345   -1.4214127  0.035771918     -2.09345   0.67203737   421013 
 4708000   0.60438438    -2.093124    -2.093124   -1.4224159  0.032661826    -2.093124   0.67070814   421013 
 4709000   0.60399498    -2.093122    -2.093122    -1.422846  0.043685034    -2.093122     0.670276   421013 
 4710000   0.60496516     -2.09442     -2.09442   -1.4230674  0.034375882     -2.09442   0.67135265   421013 
 4711000    0.6039353   -2.0935441   -2.0935441   -1.4233344  0.039074113   -2.0935441   0.67020977   421013 
 4712000   0.60464103   -2.0950497   -2.0950497   -1.4240568  0.036867704   -2.0950497   0.67099295   421013 
 4713000   0.60415938   -2.0947067   -2.0947067   -1.4242482  0.040622891   -2.0947067   0.67045845   421013 
 4714000    0.6061058   -2.0962198   -2.0962198   -1.4236013  0.038716515   -2.0962198   0.67261846   421013 
 4715000   0.60474332    -2.095254    -2.095254   -1.4241475  0.034787134    -2.095254   0.67110646   421013 
 4716000   0.60523279   -2.0960167   -2.0960167   -1.4243671  0.036925383   -2.0960167   0.67164965   421013 
 4717000   0.60634869    -2.097041    -2.097041    -1.424153  0.035434948    -2.097041     0.672888   421013 
 4718000   0.60610971   -2.0966822   -2.0966822   -1.4240594  0.040516167   -2.0966822    0.6726228   421013 
 4719000   0.60594299   -2.0971101   -2.0971101   -1.4246723  0.036233539   -2.0971101   0.67243778   421013 
 4720000   0.60457522   -2.0957671   -2.0957671   -1.4248472  0.037252598   -2.0957671   0.67091992   421013 
 4721000   0.60410087   -2.0946522   -2.0946522   -1.4242587   0.03864073   -2.0946522   0.67039351   421013 
 4722000   0.60540577   -2.0964434   -2.0964434   -1.4246018  0.035656787   -2.0964434   0.67184161   421013 
 4723000   0.60537508   -2.0962402   -2.0962402   -1.4244326  0.037798447   -2.0962402   0.67180755   421013 
 4724000   0.60463817   -2.0945263   -2.0945263   -1.4235365  0.032252857   -2.0945263   0.67098978   421013 
 4725000    0.6051408   -2.0949586   -2.0949586   -1.4234111  0.037662117   -2.0949586   0.67154756   421013 
 4726000   0.60546889   -2.0946436   -2.0946436   -1.4227319  0.028784688   -2.0946436   0.67191166   421013 
 4727000   0.60355258   -2.0929669   -2.0929669   -1.4231819  0.035441252   -2.0929669   0.66978505   421013 
 4728000   0.60477356    -2.093762    -2.093762    -1.422622  0.036820064    -2.093762   0.67114002   421013 
 4729000   0.60366443   -2.0938428   -2.0938428   -1.4239337  0.039466109   -2.0938428   0.66990918   421013 
 4730000   0.60434324   -2.0941353   -2.0941353   -1.4234729  0.034652128   -2.0941353   0.67066248   421013 
 4731000   0.60358393   -2.0936751   -2.0936751   -1.4238553  0.033208123   -2.0936751   0.66981985   421013 
 4732000   0.60344374   -2.0938002   -2.0938002    -1.424136  0.041605824   -2.0938002   0.66966427   421013 
 4733000   0.60431334   -2.0950559   -2.0950559   -1.4244266  0.039528639   -2.0950559    0.6706293   421013 
 4734000   0.60503333   -2.0957091   -2.0957091   -1.4242809  0.032252906   -2.0957091    0.6714283   421013 
 4735000   0.60472973   -2.0950287   -2.0950287   -1.4239373  0.034392406   -2.0950287   0.67109139   421013 
 4736000   0.60498103   -2.0953596   -2.0953596   -1.4239893  0.033692172   -2.0953596   0.67137026   421013 
 4737000   0.60367435   -2.0942779   -2.0942779   -1.4243577   0.03158834   -2.0942779   0.66992019   421013 
 4738000   0.60497794   -2.0954272   -2.0954272   -1.4240603  0.035617953   -2.0954272   0.67136683   421013 
 4739000   0.60519223   -2.0951859   -2.0951859   -1.4235812  0.031835964   -2.0951859   0.67160464   421013 
 4740000   0.60639789   -2.0960456   -2.0960456    -1.423103  0.036586966   -2.0960456    0.6729426   421013 
 4741000   0.60599752   -2.0964854   -2.0964854   -1.4239871  0.033420802   -2.0964854   0.67249829   421013 
 4742000   0.60524037   -2.0950368   -2.0950368   -1.4233787  0.039847978   -2.0950368   0.67165805   421013 
 4743000   0.60535517   -2.0949645   -2.0949645    -1.423179  0.035668133   -2.0949645   0.67178546   421013 
 4744000    0.6039141   -2.0941071   -2.0941071   -1.4239208   0.03633329   -2.0941071   0.67018624   421013 
 4745000   0.60414591   -2.0950523   -2.0950523   -1.4246088  0.036497478   -2.0950523   0.67044349   421013 
 4746000    0.6053168   -2.0963789   -2.0963789    -1.424636  0.035478217   -2.0963789   0.67174288   421013 
 4747000   0.60570472   -2.0957677   -2.0957677   -1.4235943  0.033768041   -2.0957677   0.67217337   421013 
 4748000   0.60445923   -2.0948966   -2.0948966   -1.4241054  0.032770324   -2.0948966    0.6707912   421013 
 4749000   0.60532246    -2.095884    -2.095884   -1.4241348  0.041835251    -2.095884   0.67174915   421013 
 4750000   0.60632873   -2.0966168   -2.0966168   -1.4237509  0.036644805   -2.0966168   0.67286585   421013 
 4751000   0.60542337   -2.0961787   -2.0961787   -1.4243176  0.038247339   -2.0961787   0.67186114   421013 
 4752000    0.6044466   -2.0954238   -2.0954238   -1.4246466  0.039384143   -2.0954238   0.67077718   421013 
 4753000   0.60343954    -2.094284    -2.094284   -1.4246244  0.037091093    -2.094284   0.66965961   421013 
 4754000   0.60431816   -2.0956243   -2.0956243   -1.4249897   0.03096826   -2.0956243   0.67063465   421013 
 4755000   0.60574487   -2.0961487   -2.0961487   -1.4239308  0.038795329   -2.0961487   0.67221792   421013 
 4756000   0.60518894   -2.0950148   -2.0950148   -1.4234138   0.02728596   -2.0950148   0.67160099   421013 
 4757000   0.60632267   -2.0968019   -2.0968019   -1.4239428  0.032843409   -2.0968019   0.67285912   421013 
 4758000   0.60690198   -2.0967292   -2.0967292   -1.4232272  0.035507175   -2.0967292   0.67350201   421013 
 4759000    0.6060477   -2.0954143   -2.0954143   -1.4228604  0.033931512   -2.0954143   0.67255398   421013 
 4760000   0.60625856   -2.0959724   -2.0959724   -1.4231844  0.026210886   -2.0959724   0.67278798   421013 
 4761000   0.60516238   -2.0951148   -2.0951148   -1.4235433  0.039334027   -2.0951148   0.67157151   421013 
 4762000   0.60585225   -2.0949729   -2.0949729   -1.4226358  0.038666341   -2.0949729   0.67233709   421013 
 4763000   0.60633036    -2.096245    -2.096245   -1.4233774  0.025248001    -2.096245   0.67286766   421013 
 4764000   0.60440908   -2.0948291   -2.0948291   -1.4240935  0.030876415   -2.0948291   0.67073555   421013 
 4765000   0.60458837    -2.095428    -2.095428   -1.4244935  0.033050987    -2.095428    0.6709345   421013 
 4766000   0.60618099   -2.0976232   -2.0976232   -1.4249213  0.035274539   -2.0976232    0.6727019   421013 
 4767000    0.6036453   -2.0949683   -2.0949683   -1.4250803  0.041011164   -2.0949683   0.66988795   421013 
 4768000   0.60425192   -2.0946148   -2.0946148   -1.4240537  0.034490157   -2.0946148   0.67056114   421013 
 4769000   0.60434456   -2.0955148   -2.0955148   -1.4248509  0.034085878   -2.0955148   0.67066395   421013 
 4770000   0.60399914   -2.0952906   -2.0952906   -1.4250099  0.029857663   -2.0952906   0.67028062   421013 
 4771000   0.60318672   -2.0948699   -2.0948699   -1.4254909  0.042422224   -2.0948699   0.66937904   421013 
 4772000   0.60335597   -2.0945975   -2.0945975   -1.4250306  0.035309748   -2.0945975   0.66956687   421013 
 4773000   0.60429362   -2.0959245   -2.0959245   -1.4253171  0.043854108   -2.0959245   0.67060741   421013 
 4774000    0.6043095   -2.0962118   -2.0962118   -1.4255867  0.040788068   -2.0962118   0.67062503   421013 
 4775000   0.60431936   -2.0957858   -2.0957858   -1.4251498  0.032738811   -2.0957858   0.67063598   421013 
 4776000   0.60462726   -2.0974002   -2.0974002   -1.4264225  0.034172848   -2.0974002   0.67097767   421013 
 4777000   0.60407355   -2.0969894   -2.0969894   -1.4266262  0.040090537   -2.0969894    0.6703632   421013 
 4778000   0.60522909   -2.0981712   -2.0981712   -1.4265256  0.033803483   -2.0981712   0.67164555   421013 
 4779000   0.60486968   -2.0973466   -2.0973466   -1.4260999  0.040181093   -2.0973466   0.67124669   421013 
 4780000   0.60482254   -2.0971778   -2.0971778   -1.4259834  0.036466758   -2.0971778   0.67119437   421013 
 4781000   0.60536058   -2.0977096   -2.0977096   -1.4259181  0.033206401   -2.0977096   0.67179146   421013 
 4782000   0.60493094   -2.0977368   -2.0977368   -1.4264222  0.028249989   -2.0977368   0.67131467   421013 
 4783000   0.60504001    -2.097689    -2.097689   -1.4262533    0.0362011    -2.097689   0.67143572   421013 
 4784000   0.60529786   -2.0979838   -2.0979838   -1.4262619  0.031018013   -2.0979838   0.67172186   421013 
 4785000   0.60476535   -2.0977873   -2.0977873   -1.4266564  0.036387853   -2.0977873   0.67113092   421013 
 4786000    0.6050787   -2.0983439   -2.0983439   -1.4268653  0.038974188   -2.0983439   0.67147864   421013 
 4787000   0.60453113   -2.0969203   -2.0969203   -1.4260494  0.042750301   -2.0969203   0.67087098   421013 
 4788000   0.60516088   -2.0978175   -2.0978175   -1.4262476  0.039162135   -2.0978175   0.67156985   421013 
 4789000   0.60600715   -2.0983897   -2.0983897   -1.4258808  0.032839226   -2.0983897   0.67250898   421013 
 4790000   0.60517011   -2.0969502   -2.0969502   -1.4253701  0.039518459   -2.0969502   0.67158009   421013 
 4791000   0.60389775   -2.0953287   -2.0953287   -1.4251606  0.034630858   -2.0953287   0.67016811   421013 
 4792000   0.60467556   -2.0962034   -2.0962034   -1.4251721  0.039603843   -2.0962034   0.67103127   421013 
 4793000   0.60414449   -2.0958443   -2.0958443   -1.4254023  0.041164827   -2.0958443   0.67044192   421013 
 4794000   0.60455466   -2.0955843   -2.0955843   -1.4246873  0.038987177   -2.0955843    0.6708971   421013 
 4795000   0.60488514    -2.095711    -2.095711   -1.4244472  0.032153426    -2.095711   0.67126385   421013 
 4796000   0.60437286   -2.0950792   -2.0950792   -1.4243838  0.038635371   -2.0950792   0.67069535   421013 
 4797000    0.6028744   -2.0946547   -2.0946547   -1.4256223  0.028889343   -2.0946547   0.66903246   421013 
 4798000    0.6036918   -2.0950847   -2.0950847   -1.4251452  0.032466745   -2.0950847   0.66993955   421013 
 4799000   0.60451132   -2.0952287   -2.0952287   -1.4243796  0.041396533   -2.0952287   0.67084901   421013 
 4800000   0.60346875    -2.093986    -2.093986   -1.4242939  0.029001294    -2.093986   0.66969202   421013 
 4801000   0.60411777   -2.0946983   -2.0946983   -1.4242861  0.031927982   -2.0946983   0.67041227   421013 
 4802000   0.60442006   -2.0947562   -2.0947562   -1.4240085   0.03677093   -2.0947562   0.67074773   421013 
 4803000   0.60455568   -2.0951355   -2.0951355   -1.4242373  0.039935709   -2.0951355   0.67089824   421013 
 4804000   0.60398848   -2.0945424   -2.0945424   -1.4242736  0.039747586   -2.0945424   0.67026878   421013 
 4805000   0.60496258   -2.0956255   -2.0956255   -1.4242757  0.041467543   -2.0956255   0.67134979   421013 
 4806000   0.60531818   -2.0961066   -2.0961066   -1.4243622  0.030640226   -2.0961066   0.67174441   421013 
 4807000   0.60456906   -2.0945644   -2.0945644   -1.4236514   0.02528032   -2.0945644   0.67091308   421013 
 4808000   0.60516896   -2.0951142   -2.0951142   -1.4235354  0.039950716   -2.0951142   0.67157881   421013 
 4809000    0.6057258   -2.0953781   -2.0953781   -1.4231814   0.03378684   -2.0953781   0.67219675   421013 
 4810000   0.60578535   -2.0958235   -2.0958235   -1.4235607  0.035923169   -2.0958235   0.67226284   421013 
 4811000   0.60497464   -2.0946629   -2.0946629   -1.4232998    0.0397167   -2.0946629   0.67136317   421013 
 4812000   0.60770306   -2.0971165   -2.0971165   -1.4227255  0.033709619   -2.0971165     0.674391   421013 
 4813000   0.60488765   -2.0941176   -2.0941176    -1.422851  0.038061712   -2.0941176   0.67126664   421013 
 4814000   0.60619012   -2.0962005   -2.0962005   -1.4234884  0.034206711   -2.0962005   0.67271203   421013 
 4815000   0.60590046   -2.0960783   -2.0960783   -1.4236877  0.037663488   -2.0960783   0.67239059   421013 
 4816000   0.60593116   -2.0956204   -2.0956204   -1.4231957   0.02794382   -2.0956204   0.67242466   421013 
 4817000   0.60562019   -2.0954738   -2.0954738   -1.4233942  0.034986568   -2.0954738   0.67207956   421013 
 4818000   0.60431513   -2.0953413   -2.0953413     -1.42471  0.042991379   -2.0953413   0.67063128   421013 
 4819000   0.60553791    -2.096502    -2.096502   -1.4245137  0.027654764    -2.096502   0.67198825   421013 
 4820000   0.60463211   -2.0955189   -2.0955189   -1.4245359  0.040510077   -2.0955189   0.67098305   421013 
 4821000   0.60507734   -2.0956853   -2.0956853   -1.4242081  0.037220437   -2.0956853   0.67147714   421013 
 4822000   0.60588146   -2.0952939   -2.0952939   -1.4229244  0.029304552   -2.0952939    0.6723695   421013 
 4823000   0.60598209   -2.0957277   -2.0957277   -1.4232466  0.028823976   -2.0957277   0.67248117   421013 
 4824000   0.60541123    -2.094716    -2.094716   -1.4228683  0.035469786    -2.094716   0.67184767   421013 
 4825000   0.60419744   -2.0942551   -2.0942551   -1.4237545  0.038667979   -2.0942551   0.67050068   421013 
 4826000    0.6040088   -2.0947943   -2.0947943   -1.4245029  0.040197773   -2.0947943   0.67029134   421013 
 4827000   0.60493648   -2.0951638   -2.0951638    -1.423843  0.037629158   -2.0951638   0.67132082   421013 
 4828000   0.60491264   -2.0948839   -2.0948839   -1.4235895  0.037815981   -2.0948839   0.67129436   421013 
 4829000   0.60483776   -2.0954434   -2.0954434   -1.4242321  0.026298438   -2.0954434   0.67121127   421013 
 4830000   0.60489647   -2.0949307   -2.0949307   -1.4236542   0.02780444   -2.0949307   0.67127642   421013 
 4831000   0.60403754   -2.0943004   -2.0943004   -1.4239772  0.041201293   -2.0943004   0.67032323   421013 
 4832000   0.60385847    -2.093998    -2.093998   -1.4238735  0.035913992    -2.093998   0.67012451   421013 
 4833000   0.60493119    -2.095352    -2.095352   -1.4240371   0.02582085    -2.095352   0.67131496   421013 
 4834000   0.60484918   -2.0950452   -2.0950452   -1.4238212  0.043998115   -2.0950452   0.67122394   421013 
 4835000   0.60591125   -2.0955178   -2.0955178   -1.4231152  0.042834507   -2.0955178   0.67240256   421013 
 4836000   0.60394048    -2.093482    -2.093482   -1.4232665  0.040118231    -2.093482   0.67021552   421013 
 4837000   0.60599122   -2.0958268   -2.0958268   -1.4233355  0.028517903   -2.0958268    0.6724913   421013 
 4838000   0.60463499   -2.0944568   -2.0944568   -1.4234706  0.037019263   -2.0944568   0.67098625   421013 
 4839000    0.6050877   -2.0947389   -2.0947389   -1.4232502  0.036355374   -2.0947389   0.67148863   421013 
 4840000   0.60473955   -2.0940303   -2.0940303    -1.422928  0.040165313   -2.0940303   0.67110229   421013 
 4841000   0.60532297   -2.0946429   -2.0946429   -1.4228932  0.032760861   -2.0946429   0.67174973   421013 
 4842000    0.6056048   -2.0944212   -2.0944212   -1.4223587  0.048400681   -2.0944212   0.67206248   421013 
 4843000   0.60621816   -2.0940843   -2.0940843   -1.4213412  0.030472819   -2.0940843   0.67274314   421013 
 4844000   0.60529637   -2.0941652   -2.0941652    -1.422445  0.036413881   -2.0941652    0.6717202   421013 
 4845000   0.60507995   -2.0941884   -2.0941884   -1.4227083  0.041394647   -2.0941884   0.67148003   421013 
 4846000    0.6043671    -2.093481    -2.093481    -1.422792  0.040131803    -2.093481   0.67068896   421013 
 4847000   0.60447119   -2.0936427   -2.0936427   -1.4228382  0.029188781   -2.0936427   0.67080447   421013 
 4848000   0.60306176    -2.092618    -2.092618   -1.4233776  0.035976219    -2.092618   0.66924037   421013 
 4849000   0.60475895   -2.0947448   -2.0947448    -1.423621  0.026825417   -2.0947448    0.6711238   421013 
 4850000   0.60488701   -2.0941194   -2.0941194   -1.4228535  0.035725967   -2.0941194   0.67126593   421013 
 4851000   0.60339091   -2.0921056   -2.0921056   -1.4224999  0.030329564   -2.0921056   0.66960565   421013 
 4852000    0.6048937    -2.093908    -2.093908   -1.4226346  0.029698743    -2.093908   0.67127335   421013 
 4853000   0.60507671   -2.0938831   -2.0938831   -1.4224066  0.039925792   -2.0938831   0.67147644   421013 
 4854000    0.6061468   -2.0941538   -2.0941538   -1.4214898  0.029336203   -2.0941538   0.67266396   421013 
 4855000   0.60558086   -2.0943182   -2.0943182   -1.4222823  0.031322675   -2.0943182   0.67203591   421013 
 4856000   0.60560553    -2.094769    -2.094769   -1.4227057  0.034705544    -2.094769   0.67206329   421013 
 4857000   0.60546053   -2.0954805   -2.0954805   -1.4235781  0.036564624   -2.0954805   0.67190237   421013 
 4858000   0.60437706   -2.0944234   -2.0944234   -1.4237234  0.034292343   -2.0944234   0.67070001   421013 
 4859000   0.60469232   -2.0950701   -2.0950701   -1.4240203  0.034715926   -2.0950701   0.67104987   421013 
 4860000   0.60412866   -2.0946256   -2.0946256   -1.4242012  0.035759831   -2.0946256   0.67042435   421013 
 4861000   0.60535476   -2.0955524   -2.0955524   -1.4237674  0.043239567   -2.0955524     0.671785   421013 
 4862000   0.60476007   -2.0951262   -2.0951262   -1.4240012  0.039681884   -2.0951262   0.67112505   421013 
 4863000   0.60562414   -2.0952319   -2.0952319    -1.423148  0.038805698   -2.0952319   0.67208394   421013 
 4864000   0.60578187   -2.0952734   -2.0952734   -1.4230144  0.046199779   -2.0952734   0.67225899   421013 
 4865000   0.60556819   -2.0946525   -2.0946525   -1.4226306  0.044854353   -2.0946525   0.67202185   421013 
 4866000   0.60685259   -2.0958419   -2.0958419   -1.4223947  0.040010457   -2.0958419    0.6734472   421013 
 4867000   0.60595257   -2.0954646   -2.0954646   -1.4230162  0.038061702   -2.0954646   0.67244842   421013 
 4868000   0.60592506   -2.0962699   -2.0962699    -1.423852  0.036911745   -2.0962699   0.67241789   421013 
 4869000   0.60522319   -2.0965091   -2.0965091   -1.4248701  0.036808426   -2.0965091     0.671639   421013 
 4870000   0.60497839    -2.096773    -2.096773   -1.4254057  0.040088397    -2.096773   0.67136733   421013 
 4871000   0.60402513   -2.0951851   -2.0951851   -1.4248757     0.031948   -2.0951851   0.67030946   421013 
 4872000   0.60534709   -2.0965573   -2.0965573   -1.4247808  0.034510099   -2.0965573   0.67177649   421013 
 4873000   0.60580214   -2.0973124   -2.0973124   -1.4250309  0.038773705   -2.0973124   0.67228147   421013 
 4874000   0.60543019   -2.0971181   -2.0971181   -1.4252494  0.031795818   -2.0971181   0.67186871   421013 
 4875000   0.60535902   -2.0976412   -2.0976412   -1.4258515  0.036618309   -2.0976412   0.67178973   421013 
 4876000   0.60615339   -2.0986134   -2.0986134   -1.4259422  0.031285353   -2.0986134   0.67267127   421013 
 4877000   0.60614457   -2.0977883   -2.0977883   -1.4251268  0.042910827   -2.0977883   0.67266148   421013 
 4878000   0.60488675   -2.0951928   -2.0951928   -1.4239271  0.035023143   -2.0951928   0.67126563   421013 
 4879000   0.60477755   -2.0957161   -2.0957161   -1.4245716  0.032382069   -2.0957161   0.67114446   421013 
 4880000   0.60524965   -2.0965641   -2.0965641   -1.4248958  0.038648401   -2.0965641   0.67166835   421013 
 4881000   0.60616788   -2.0979375   -2.0979375   -1.4252501  0.035814409   -2.0979375   0.67268735   421013 
 4882000    0.6051897   -2.0967493   -2.0967493   -1.4251474  0.037334855   -2.0967493   0.67160182   421013 
 4883000   0.60524098   -2.0961654   -2.0961654   -1.4245067  0.039617965   -2.0961654   0.67165873   421013 
 4884000   0.60528897   -2.0956381   -2.0956381   -1.4239261  0.035772868   -2.0956381     0.671712   421013 
 4885000   0.60419546   -2.0943456   -2.0943456   -1.4238471  0.034590372   -2.0943456   0.67049848   421013 
 4886000   0.60452702   -2.0947857   -2.0947857   -1.4239193  0.038653704   -2.0947857   0.67086643   421013 
 4887000   0.60524929   -2.0954601   -2.0954601   -1.4237921  0.029341669   -2.0954601   0.67166796   421013 
 4888000   0.60562739   -2.0961342   -2.0961342   -1.4240467  0.037220017   -2.0961342   0.67208755   421013 
 4889000   0.60493784   -2.0957578   -2.0957578   -1.4244354  0.035285132   -2.0957578   0.67132233   421013 
 4890000   0.60454953   -2.0948634   -2.0948634    -1.423972  0.029174185   -2.0948634   0.67089141   421013 
 4891000   0.60433377   -2.0951514   -2.0951514   -1.4244994  0.037435565   -2.0951514   0.67065197   421013 
 4892000   0.60473436   -2.0959396   -2.0959396    -1.424843  0.033901797   -2.0959396   0.67109652   421013 
 4893000   0.60581581   -2.0974649   -2.0974649   -1.4251683  0.033035083   -2.0974649   0.67229665   421013 
 4894000   0.60485305   -2.0961801   -2.0961801   -1.4249518  0.040900792   -2.0961801   0.67122823   421013 
 4895000   0.60624997   -2.0975812   -2.0975812   -1.4248027  0.031425661   -2.0975812   0.67277845   421013 
 4896000   0.60614417   -2.0979274   -2.0979274   -1.4252664  0.033313298   -2.0979274   0.67266104   421013 
 4897000   0.60591298   -2.0972455   -2.0972455    -1.424841  0.033161836   -2.0972455   0.67240448   421013 
 4898000   0.60581156   -2.0969832   -2.0969832   -1.4246913  0.035648207   -2.0969832   0.67229193   421013 
 4899000   0.60492557   -2.0964999   -2.0964999   -1.4251912  0.034815581   -2.0964999   0.67130871   421013 
 4900000   0.60570262   -2.0975541   -2.0975541    -1.425383  0.043214052   -2.0975541   0.67217103   421013 
 4901000   0.60433145   -2.0965447   -2.0965447   -1.4258953  0.039428698   -2.0965447   0.67064939   421013 
 4902000   0.60500976   -2.0963441   -2.0963441    -1.424942  0.049833241   -2.0963441   0.67140214   421013 
 4903000   0.60453533   -2.0959359   -2.0959359   -1.4250602   0.03908152   -2.0959359   0.67087565   421013 
 4904000     0.605319   -2.0971588   -2.0971588   -1.4254135  0.032816478   -2.0971588   0.67174532   421013 
 4905000   0.60459513   -2.0964866   -2.0964866   -1.4255446  0.033055037   -2.0964866   0.67094201   421013 
 4906000   0.60484778   -2.0965234   -2.0965234    -1.425301  0.031808362   -2.0965234   0.67122239   421013 
 4907000    0.6044087   -2.0959874   -2.0959874   -1.4252523  0.038299423   -2.0959874   0.67073512   421013 
 4908000   0.60478772   -2.0961569   -2.0961569   -1.4250012  0.035495381   -2.0961569   0.67115574   421013 
 4909000   0.60417744   -2.0953464   -2.0953464   -1.4248679  0.028995527   -2.0953464   0.67047848   421013 
 4910000   0.60578987   -2.0961935   -2.0961935   -1.4239256  0.033594419   -2.0961935   0.67226786   421013 
 4911000   0.60518128    -2.095911    -2.095911   -1.4243185  0.040990794    -2.095911   0.67159248   421013 
 4912000   0.60541103   -2.0966962   -2.0966962   -1.4248488  0.034836534   -2.0966962   0.67184745   421013 
 4913000   0.60622043   -2.0977021   -2.0977021   -1.4249564   0.03754276   -2.0977021   0.67274567   421013 
 4914000   0.60429626   -2.0958587   -2.0958587   -1.4252484  0.041244134   -2.0958587   0.67061034   421013 
 4915000   0.60604904   -2.0975425   -2.0975425    -1.424987  0.031852704   -2.0975425   0.67255548   421013 
 4916000   0.60556783   -2.0970064   -2.0970064    -1.424985  0.039620369   -2.0970064   0.67202146   421013 
 4917000   0.60453743   -2.0960513   -2.0960513   -1.4251733  0.034824906   -2.0960513   0.67087797   421013 
 4918000   0.60569679   -2.0972554   -2.0972554   -1.4250909  0.035483925   -2.0972554   0.67216457   421013 
 4919000   0.60581139   -2.0969257   -2.0969257   -1.4246339  0.034110672   -2.0969257   0.67229174   421013 
 4920000   0.60490167   -2.0962243   -2.0962243   -1.4249421  0.032291108   -2.0962243   0.67128219   421013 
 4921000   0.60496318   -2.0965424   -2.0965424   -1.4251919  0.043842977   -2.0965424   0.67135046   421013 
 4922000   0.60549188   -2.0971875   -2.0971875   -1.4252504  0.034509465   -2.0971875   0.67193717   421013 
 4923000   0.60389707   -2.0964125   -2.0964125   -1.4262451  0.039232408   -2.0964125   0.67016735   421013 
 4924000   0.60384625   -2.0959304   -2.0959304   -1.4258194  0.040988363   -2.0959304   0.67011096   421013 
 4925000   0.60495195    -2.097286    -2.097286    -1.425948  0.042323704    -2.097286   0.67133799   421013 
 4926000   0.60593147   -2.0977373   -2.0977373   -1.4253123  0.040492057   -2.0977373   0.67242499   421013 
 4927000   0.60521442   -2.0965061   -2.0965061   -1.4248769   0.03651968   -2.0965061   0.67162926   421013 
 4928000   0.60509459   -2.0963664   -2.0963664   -1.4248701  0.036731101   -2.0963664   0.67149628   421013 
 4929000   0.60547649   -2.0956094   -2.0956094   -1.4236893  0.040011536   -2.0956094   0.67192009   421013 
 4930000   0.60565681   -2.0966907   -2.0966907   -1.4245705  0.022182659   -2.0966907    0.6721202   421013 
 4931000   0.60554843   -2.0966412   -2.0966412   -1.4246413  0.041390969   -2.0966412   0.67199992   421013 
 4932000   0.60431246   -2.0952736   -2.0952736   -1.4246453  0.033478754   -2.0952736   0.67062833   421013 
 4933000   0.60558869   -2.0964901   -2.0964901   -1.4244455  0.037085219   -2.0964901    0.6720446   421013 
 4934000   0.60513233   -2.0955354   -2.0955354   -1.4239972  0.040966175   -2.0955354   0.67153816   421013 
 4935000   0.60546187   -2.0960508   -2.0960508   -1.4241469  0.038617848   -2.0960508   0.67190387   421013 
 4936000   0.60489596     -2.09553     -2.09553   -1.4242542  0.040120914     -2.09553   0.67127586   421013 
 4937000   0.60477961   -2.0957021   -2.0957021   -1.4245554  0.038697668   -2.0957021   0.67114674   421013 
 4938000   0.60513704   -2.0959726   -2.0959726   -1.4244292  0.048974902   -2.0959726   0.67154338   421013 
 4939000   0.60459629   -2.0954817   -2.0954817   -1.4245384  0.031254323   -2.0954817   0.67094329   421013 
 4940000   0.60418594   -2.0950518   -2.0950518   -1.4245638  0.040408241   -2.0950518   0.67048792   421013 
 4941000   0.60451021   -2.0949437   -2.0949437   -1.4240959  0.032273674   -2.0949437   0.67084777   421013 
 4942000    0.6050368   -2.0959044   -2.0959044   -1.4244722  0.040181462   -2.0959044   0.67143215   421013 
 4943000    0.6053896   -2.0958614   -2.0958614   -1.4240377   0.03866575   -2.0958614   0.67182366   421013 
 4944000   0.60484594   -2.0957357   -2.0957357   -1.4245154  0.037178953   -2.0957357   0.67122035   421013 
 4945000   0.60388816   -2.0947457   -2.0947457   -1.4245882  0.041484587   -2.0947457   0.67015746   421013 
 4946000   0.60414471   -2.0956241   -2.0956241    -1.425182  0.035929218   -2.0956241   0.67044216   421013 
 4947000   0.60542122   -2.0964663   -2.0964663   -1.4246075  0.033414889   -2.0964663   0.67185876   421013 
 4948000   0.60395928   -2.0958334   -2.0958334    -1.425597  0.032585843   -2.0958334   0.67023638   421013 
 4949000   0.60395715   -2.0958766   -2.0958766   -1.4256426  0.032193135   -2.0958766   0.67023403   421013 
 4950000   0.60633939   -2.0974888   -2.0974888   -1.4246111  0.037575417   -2.0974888   0.67287769   421013 
 4951000    0.6039787   -2.0951761   -2.0951761   -1.4249182  0.045515225   -2.0951761   0.67025793   421013 
 4952000   0.60443811   -2.0953981   -2.0953981   -1.4246303  0.036384922   -2.0953981   0.67076776   421013 
 4953000   0.60410108   -2.0940264   -2.0940264   -1.4236326  0.037269478   -2.0940264   0.67039375   421013 
 4954000   0.60528399    -2.096427    -2.096427   -1.4247205  0.040746166    -2.096427   0.67170647   421013 
 4955000   0.60392784     -2.09602     -2.09602   -1.4258185  0.037088321     -2.09602    0.6702015   421013 
 4956000   0.60378311   -2.0956738   -2.0956738   -1.4256329  0.032468771   -2.0956738   0.67004088   421013 
 4957000   0.60240583   -2.0946507   -2.0946507   -1.4261383   0.03762445   -2.0946507   0.66851246   421013 
 4958000   0.60435116   -2.0965223   -2.0965223    -1.425851  0.029156891   -2.0965223   0.67067127   421013 
 4959000   0.60344411   -2.0949946   -2.0949946   -1.4253299   0.03428343   -2.0949946   0.66966468   421013 
 4960000   0.60536972   -2.0972059   -2.0972059   -1.4254043  0.036874075   -2.0972059    0.6718016   421013 
 4961000   0.60533258   -2.0969553   -2.0969553   -1.4251949  0.036210695   -2.0969553   0.67176039   421013 
 4962000   0.60446449   -2.0950974   -2.0950974   -1.4243004  0.044753497   -2.0950974   0.67079703   421013 
 4963000   0.60442552   -2.0963078   -2.0963078    -1.425554  0.038231403   -2.0963078   0.67075378   421013 
 4964000   0.60573993   -2.0963846   -2.0963846   -1.4241721  0.032352919   -2.0963846   0.67221244   421013 
 4965000   0.60521375    -2.096723    -2.096723   -1.4250945  0.029660931    -2.096723   0.67162852   421013 
 4966000   0.60305285   -2.0951768   -2.0951768   -1.4259463  0.031145952   -2.0951768   0.66923049   421013 
 4967000   0.60523149   -2.0969155   -2.0969155   -1.4252673  0.040428362   -2.0969155    0.6716482   421013 
 4968000   0.60402337   -2.0953134   -2.0953134   -1.4250059  0.030457002   -2.0953134   0.67030751   421013 
 4969000    0.6054809   -2.0970232   -2.0970232   -1.4250982  0.034439755   -2.0970232   0.67192499   421013 
 4970000   0.60370483   -2.0950226   -2.0950226   -1.4250685  0.035289679   -2.0950226   0.66995401   421013 
 4971000   0.60377584   -2.0948774   -2.0948774   -1.4248445  0.025798541   -2.0948774   0.67003282   421013 
 4972000   0.60510641   -2.0965735   -2.0965735   -1.4250641  0.031876773   -2.0965735    0.6715094   421013 
 4973000   0.60516458   -2.0965851   -2.0965851   -1.4250111  0.038561905   -2.0965851   0.67157395   421013 
 4974000   0.60435489   -2.0958807   -2.0958807   -1.4252053  0.035643827   -2.0958807   0.67067541   421013 
 4975000   0.60433996   -2.0957138   -2.0957138    -1.425055  0.032265081   -2.0957138   0.67065884   421013 
 4976000   0.60469244   -2.0957819   -2.0957819   -1.4247319  0.029994413   -2.0957819   0.67105001   421013 
 4977000   0.60447765   -2.0956702   -2.0956702   -1.4248585  0.039840304   -2.0956702   0.67081164   421013 
 4978000   0.60355504   -2.0941384   -2.0941384   -1.4243506  0.033033699   -2.0941384   0.66978779   421013 
 4979000   0.60426377    -2.095099    -2.095099   -1.4245247  0.032657621    -2.095099   0.67057429   421013 
 4980000   0.60431836   -2.0958341   -2.0958341   -1.4251992  0.034816944   -2.0958341   0.67063486   421013 
 4981000   0.60554717   -2.0970516   -2.0970516   -1.4250531  0.029381473   -2.0970516   0.67199853   421013 
 4982000   0.60450784   -2.0961307   -2.0961307   -1.4252856  0.037645897   -2.0961307   0.67084514   421013 
 4983000   0.60464478    -2.096946    -2.096946   -1.4259489   0.04088678    -2.096946   0.67099711   421013 
 4984000     0.604588   -2.0969577   -2.0969577   -1.4260236  0.038691914   -2.0969577   0.67093409   421013 
 4985000   0.60431496   -2.0963445   -2.0963445   -1.4257134  0.032001961   -2.0963445   0.67063109   421013 
 4986000     0.603262   -2.0955539   -2.0955539   -1.4260913  0.033377775   -2.0955539   0.66946259   421013 
 4987000   0.60453366   -2.0979364   -2.0979364   -1.4270626  0.033469765   -2.0979364    0.6708738   421013 
 4988000   0.60414276   -2.0965205   -2.0965205   -1.4260805  0.032961932   -2.0965205      0.67044   421013 
 4989000   0.60562256   -2.0975553   -2.0975553   -1.4254731   0.03134575   -2.0975553   0.67208219   421013 
 4990000    0.6050213   -2.0976258   -2.0976258   -1.4262109  0.039292754   -2.0976258   0.67141494   421013 
 4991000   0.60423112   -2.0968234   -2.0968234   -1.4262853  0.029518511   -2.0968234   0.67053805   421013 
 4992000   0.60563924   -2.0980228   -2.0980228   -1.4259221  0.035590912   -2.0980228    0.6721007   421013 
 4993000   0.60676739   -2.0978933   -2.0978933   -1.4245407  0.035151782   -2.0978933   0.67335265   421013 
 4994000   0.60500295   -2.0963912   -2.0963912   -1.4249966  0.040850144   -2.0963912   0.67139458   421013 
 4995000   0.60597257   -2.0974128   -2.0974128   -1.4249422   0.03456625   -2.0974128   0.67247061   421013 
 4996000   0.60564096   -2.0977239   -2.0977239   -1.4256213  0.039240401   -2.0977239   0.67210261   421013 
 4997000   0.60410412   -2.0963043   -2.0963043   -1.4259072  0.028775635   -2.0963043   0.67039712   421013 
 4998000   0.60437097   -2.0962003   -2.0962003    -1.425507  0.031999054   -2.0962003   0.67069325   421013 
 4999000   0.60504882    -2.096679    -2.096679   -1.4252335  0.031959604    -2.096679   0.67144548   421013 
 5000000   0.60606446   -2.0976693   -2.0976693   -1.4250967   0.03442931   -2.0976693   0.67257258   421013 
Loop time of 18908.1 on 288 procs for 5000000 steps with 421013 atoms

Performance: 114236.735 tau/day, 264.437 timesteps/s
91.5% CPU use with 288 MPI tasks x 1 OpenMP threads

MPI task timing breakdown:
Section |  min time  |  avg time  |  max time  |%varavg|  %CPU | %total
-----------------------------------------------------------------------
Pair    | 384.81     | 2366.3     | 5696       |1965.0 |  95.0 | 12.51
Bond    | 3.1137     | 3.384      | 3.5793     |   4.6 | 100.0 |  0.02
Neigh   | 830.34     | 3467.3     | 7700.9     |2076.9 |  99.0 | 18.34
Comm    | 3121.6     | 7735.2     | 15316      |2484.6 |  90.1 | 40.91
Output  | 944.61     | 959.12     | 975.05     |  41.8 |  88.2 |  5.07
Modify  | 947.19     | 4158.9     | 11192      |3040.3 |  90.1 | 22.00
Other   |            | 217.9      |            |       |       |  1.15

Nlocal:        1461.85 ave        2958 max         741 min
Histogram: 2 9 112 113 46 4 0 0 1 1
Nghost:        6665.57 ave        9344 max        2147 min
Histogram: 18 8 16 21 17 14 40 75 55 24
Neighs:        36731.3 ave       89000 max        3180 min
Histogram: 25 10 52 56 53 64 22 5 0 1

Total # of neighbors = 10578628
Ave neighs/atom = 25.126607
Ave special neighs/atom = 0.0000000
Neighbor list builds = 496659
Dangerous builds = 438318

Total wall time: 5:15:13
